Element Label,S11,S22,S33,S12,S13,S23,Mises
1,-10059.954,-14316.723,2165.6174,2879.8062,18183.582,4356.197,35963.359375
2,-8476.228,6541.3643,-26846.355,-6442.338,-9867.042,-8709.956,38510.27734375
3,7663.1523,33066.445,25931.543,1411.4147,12210.569,13445.971,38866.91015625
4,237.48926,8204.756,24796.09,3072.519,13314.668,-3784.6455,32773.0078125
5,29580.303,29849.547,51638.55,-274.69962,5113.2583,-2865.3074,24165.931640625
6,-4270.297,-1772.8921,20458.93,12022.72,-9603.338,6454.377,37300.125
7,-23843.984,2505.4082,-34517.94,7454.218,4102.4917,-392.8779,36154.203125
8,5157.9106,2631.4392,9005.546,1633.7297,-7637.5396,-3653.4631,15935.9638671875
9,11972.268,-2469.639,-16180.738,14672.907,-2786.654,3288.6082,36002.79296875
10,49547.895,16939.762,15742.792,3210.7114,-403.2701,-10267.075,38097.328125
11,-1320.5,-707.72644,-6046.4976,10144.348,-3926.8918,-2906.9307,20148.00390625
12,18414.252,19226.254,34195.66,2915.5671,-6001.908,3872.6582,20382.84765625
13,-1698.2653,11289.409,-6337.0186,1744.7705,-4372.68,1879.0682,18097.810546875
14,16031.793,7378.948,1691.7397,14466.365,-2002.3696,13981.349,37184.8984375
15,13419.117,-18687.082,-23701.635,3919.4084,8290.978,63.908962,38331.06640625
16,14132.239,4932.4775,75.73385,5300.9854,-6635.8936,-1448.5345,19380.552734375
17,1963.1047,18370.836,7146.5264,10536.654,2787.8792,9468.981,28920.548828125
18,1050.6309,-3311.5693,-27756.17,6418.999,-9386.691,3562.227,33899.9765625
19,-11851.194,-12504.182,-30595.643,6093.916,1737.0852,-1612.8607,21628.791015625
20,8988.5205,2601.9175,8709.99,-12631.093,6729.601,-15175.777,36667.37109375
21,-74733.17,-64468.945,-64053.227,-3745.0427,770.77185,-392.61246,12414.3037109375
22,116858.914,118522.26,116935.45,141.25758,-646.0934,-122.10059,2000.5390625
23,63180.812,64130.035,65038.72,141.80647,110.49712,662.7462,2000.98132324219
24,57584.617,59698.805,58973.277,300.83774,162.70404,251.8462,2000.87109375
25,43234.613,44255.55,45192.77,-21.66286,-169.31075,-588.50183,2000.98559570313
26,50913.062,49523.13,50331.875,23.298294,774.78986,496.44186,2000.94287109375
27,95197.85,97080.914,96546.42,-329.3287,-403.27866,-349.06738,2000.98510742188
28,34852.953,32800.65,33946.164,78.80959,-274.6017,-441.92154,2000.98693847656
29,-68.978645,580.8788,744.24274,723.50757,786.24884,89.11753,2000.98547363281
30,33002.18,31244.648,32570.393,644.1147,-3.2855306,284.25482,2000.89050292969
31,107941.305,105962.51,107403.68,251.54572,103.68258,462.13254,2000.90051269531
32,73962.83,74960.14,74146.25,503.79572,-800.14606,-398.51352,2000.97912597656
33,-15152.633,-13216.112,-13346.475,-306.82123,-255.30116,-61.456367,2000.98510742188
34,-5654.5317,-5529.856,-4503.992,-670.61194,651.5724,-248.52455,2000.98352050781
35,45281.035,52884.688,65207.746,6729.0713,6563.549,2847.4763,24347.06640625
36,10193.811,10497.659,10707.573,-737.1704,613.90137,-589.58966,2000.9755859375
37,47767.84,44786.96,29166.896,1955.4883,10711.442,3131.117,26163.373046875
38,17019.049,17118.863,18324.746,535.19995,648.27374,315.895,2000.98559570313
39,-3946.0808,-18580.324,2834.3442,-4159.3384,-17042.547,-2649.0437,36106.2265625
40,8536.597,7687.572,6399.6187,47.989258,-383.66232,-165.60214,2000.9853515625
41,-24962.67,-5437.922,-25534.139,3290.3774,-3839.5698,-9014.26,26705.3828125
42,176769.11,175945.72,175089.11,294.35556,217.48709,-703.5,2000.91223144531
43,-25045.43,-25052.605,-25730.074,-608.58936,-69.444016,-897.1168,2000.98547363281
44,-8747.843,-5537.1562,15882.531,-4339.582,-15153.464,906.43,35857.03125
45,-9876.106,2753.6528,11249.973,1126.9197,-2499.6965,-8494.936,24042.70703125
46,-1366.265,14739.447,23781.781,-14171.747,-8511.014,1488.4011,36238.98828125
47,13877.858,8080.4995,21012.357,-17295.396,421.0159,-12773.271,38900.70703125
48,6076.8276,-979.5835,8152.297,-19964.62,8650.993,-3974.8743,39197.21875
49,14961.461,577.9536,-11478.821,-13572.442,9132.6875,-7727.82,38828.83984375
50,22398.85,12899.412,12529.439,-12877.972,2262.7576,-15806.002,36827.5234375
51,16088.492,5314.4097,24217.236,-17140.537,7972.268,1153.0482,36685.0234375
52,13280.628,16941.998,12808.276,-10514.488,4244.49,-11103.905,27766.146484375
53,25160.217,27584.812,48028.152,-1407.0248,7417.5664,-7662.124,28644.373046875
54,11095.313,9989.909,-11258.883,-15718.989,4928.114,-6694.8594,37746.57421875
55,20942.242,20159.645,2867.9658,-10795.842,2631.7908,-12558.816,34011.0
56,31051.635,50443.723,48410.285,-837.3764,9659.082,-8618.303,29078.82421875
57,34080.453,33345.29,33416.004,280.73367,687.6408,-786.4437,2000.98596191406
58,89613.5,89987.03,90193.72,-48.323074,-136.50954,-1107.7831,2000.97717285156
59,-10718.067,-6188.0054,-7697.7344,4322.7266,2410.5244,-7239.0176,15705.4609375
60,10882.697,2645.377,6365.696,2754.4888,4765.1494,-5007.3164,14736.009765625
61,4960.5566,-34.074707,-18283.445,13100.915,-6484.8965,796.1199,33046.93359375
62,-13736.176,-28971.025,-54259.812,2903.2046,2103.5498,4343.9917,36770.4453125
63,-7720.3145,-26064.584,-51714.758,1448.5706,2203.861,3421.7012,38999.58203125
64,-4761.274,-19149.736,-41467.812,9295.728,3547.011,-4436.5854,37178.92578125
65,2579.862,-2897.5427,-9632.117,-1538.3512,-5474.082,-6888.201,18750.5390625
66,21904.674,-1969.0981,-22152.525,3041.79,2306.724,-676.8264,38785.0078125
67,-3711.274,-16148.856,-16291.717,14445.303,-284.0301,1299.5074,28067.759765625
68,14901.372,-8467.565,-26022.463,6325.4136,-3372.9236,4712.3755,38539.625
69,17577.273,9669.715,-8832.272,4536.159,-9645.648,8861.604,33579.58203125
70,4632.837,-16391.182,-20365.033,6659.8237,7513.2065,10435.536,34211.8828125
71,21058.738,9759.289,5599.5005,17886.01,7317.7485,859.73145,36257.1171875
72,22878.33,-11204.703,-15124.292,7414.996,-4112.081,2678.993,39342.25390625
73,20294.564,10206.737,15549.383,7211.35,14821.407,-10153.025,34651.078125
74,9107.9795,-8269.018,-30388.422,6052.466,3937.4727,2530.316,36758.84375
75,-10699.105,-31518.623,-40964.434,9413.426,-8165.872,2027.8822,34605.6640625
76,-308.5807,18451.7,31457.566,10332.068,-10687.065,1620.3215,37892.81640625
77,-3366.0764,-16964.316,-24352.742,1706.9011,13171.949,2021.4662,29689.572265625
78,-20876.324,-37795.94,-44751.3,-6111.277,-18.271357,6035.571,25954.978515625
79,-32954.16,-38482.72,-61901.816,2614.601,12224.594,-1257.7444,34381.234375
80,153337.94,153383.11,151881.48,172.38689,-604.7452,457.72305,2000.97973632813
81,24511.146,25004.436,25771.77,-689.1126,-359.9005,-571.5694,2000.98510742188
82,48709.29,48512.95,47722.777,1153.3939,-75.80418,120.169266,2206.71166992188
83,38418.91,39316.266,39652.92,-749.76984,-485.59772,-360.265,2000.98413085938
84,-15900.01,-14265.912,-14076.726,-4567.2764,15349.532,-9406.078,32215.564453125
85,-21182.793,-7046.041,-19329.496,2038.1996,15593.673,5817.5444,31946.283203125
86,-24670.55,-7705.5264,-4008.0466,7213.476,16392.219,-2270.555,36631.8828125
87,-11381.393,4351.991,-10631.081,10782.347,-1784.5743,-5130.402,25953.642578125
88,-13265.87,810.9742,-9172.42,7209.688,-5901.877,-2671.209,20955.486328125
89,-16472.174,3169.131,-3956.3066,11169.634,6519.1353,5637.406,29895.158203125
90,-6670.8047,836.44653,-1815.6504,9859.946,411.975,11867.758,27535.037109375
91,2021.6158,24851.21,-773.252,7643.8706,-13954.779,-4860.335,37724.921875
92,-12986.807,-14609.077,-28704.805,-703.5496,5724.7837,4299.0625,19479.18359375
93,-2734.0144,15777.217,24419.31,-219.76186,-126.930374,3839.2673,24934.724609375
94,17959.178,18215.867,18991.734,-367.53745,-560.2567,772.4367,2000.97619628906
95,2090.8142,2686.1687,1989.8092,-375.25708,-966.588,343.41464,2000.97839355469
96,3577.3713,4889.1333,3700.0374,598.4836,-390.32312,546.9553,2000.9853515625
97,158.54034,17935.918,-15446.285,-1811.86,1338.8632,8383.042,32603.849609375
98,-9424.276,8536.193,2817.0073,16879.275,2739.3438,-3728.0007,34227.2421875
99,18959.861,1589.0227,-12638.148,13632.503,-6204.179,5560.0996,38949.34375
100,-12887.516,-24704.725,-30707.54,3709.1501,10188.328,7992.55,28123.6328125
101,12932.523,28346.139,43494.49,-3388.4792,3928.4497,-1590.7944,28086.978515625
102,1667.5253,1204.2382,1379.1833,312.01483,-1059.3613,-245.59659,2000.9853515625
103,66737.81,64846.742,66612.49,-366.7491,206.3289,198.19763,2000.98449707031
104,24721.14,24638.262,24798.133,-927.063,-47.691303,682.9949,2000.94592285156
105,3610.874,4601.4976,4509.431,-360.64838,493.31354,813.045,2000.50268554688
106,68339.06,69773.93,69197.46,849.0646,278.44614,121.92392,2000.98205566406
107,14488.188,14118.857,14033.272,631.94885,925.4988,-142.45612,2000.98547363281
108,7096.9614,2051.4546,7287.796,-2291.803,7130.3604,596.77167,13993.1416015625
109,-215540.9,-216757.11,-217174.8,-355.75354,-289.04166,635.61285,2000.98327636719
110,995.5926,559.3304,260.40552,94.789215,-1072.8268,-194.93666,2000.97924804688
111,88185.99,88219.26,89581.07,-261.87695,591.65466,-531.38556,2000.98913574219
112,-24874.324,-12602.428,1408.8291,2210.5176,-8371.667,786.0583,27306.166015625
113,15673.114,7372.1255,-7747.8223,4511.879,11578.908,-3226.561,30291.02734375
114,14787.643,17894.951,11477.245,3111.5906,-20785.316,-7534.2085,39068.2421875
115,-10941.181,202.92165,-21736.846,-3901.955,-5902.196,4008.5784,23652.37890625
116,14468.293,5456.54,-5843.068,18074.178,7733.111,1821.8876,38472.203125
117,5833.073,6819.8394,-9896.532,-156.1698,5133.587,8516.202,23677.564453125
118,8048.6406,-13125.685,-21502.11,668.3032,-14655.22,2012.0417,36792.56640625
119,12668.989,-5875.026,28311.887,10089.987,-1784.2025,1488.927,34645.1640625
120,-6129.24,-24684.21,-25412.582,2493.1277,-8044.7505,3108.2786,24497.298828125
121,-1535.223,-3526.978,-17815.816,2429.9666,13527.789,-1265.7839,28427.484375
122,8915.516,-9939.337,-21432.98,3171.68,2320.1274,-1825.7751,27579.853515625
123,49124.344,48945.84,48234.824,431.36588,866.3628,419.6513,2000.65759277344
124,18530.879,18345.502,18117.398,403.97772,-970.35706,432.3872,2000.98205566406
125,8517.832,6398.151,8621.066,9240.696,-1805.2606,-8170.9185,21701.671875
126,7966.014,-8582.164,-2375.3528,-16272.048,3973.153,-12214.234,38715.8125
127,54992.555,56649.918,55638.023,-498.7231,240.69754,-574.512,2000.96960449219
128,41226.977,39975.863,39753.723,223.27983,526.2253,606.4966,1994.08349609375
129,-15504.124,1411.4222,18996.916,-735.4645,-1106.751,-10766.627,35297.47265625
130,6754.3506,16466.63,10824.556,-773.5976,4676.446,-10945.256,22319.55859375
131,-13959.061,-8623.262,17645.355,5546.905,7705.916,2138.203,33805.8984375
132,-24613.533,-18093.13,-32413.186,10629.323,9001.456,10730.584,32888.74609375
133,-21332.512,-560.6544,8260.555,3890.9385,-3066.1062,1906.0807,27875.388671875
134,-14820.137,-2097.8452,-37773.934,6562.508,-11213.69,-4053.5718,39198.12109375
135,4377.921,5592.9434,3034.3867,312.83676,1378.6704,-342.542,3355.8291015625
136,35323.18,34473.387,34190.35,458.3942,-481.4465,738.33673,2000.98718261719
137,-29615.537,-20430.84,-21790.955,-643.41833,-5825.573,-3060.6772,14313.400390625
138,221.23947,18047.82,2033.0533,-8187.2915,652.2477,11886.941,30249.642578125
139,4260.5293,-15798.93,-30482.998,1246.0217,940.932,-3454.2222,30913.86328125
140,-666.3531,-16491.672,-36998.1,4983.2534,9996.564,-61.17582,37010.5234375
141,-2481.7122,-22250.672,-33755.215,14605.993,2393.2969,7621.0815,39774.74609375
142,-6970.7554,1279.4003,-14428.6045,10812.213,10254.617,-7335.4297,31824.86328125
143,-14821.417,-31469.744,-52664.336,8666.683,-2996.3726,4169.727,37197.58984375
144,6270.9316,-5491.6245,2063.1313,13525.452,6376.683,-10999.8955,33769.2421875
145,-3879.9773,-28119.88,-41595.51,4571.4834,-9676.073,112.28466,37939.765625
146,12617.522,-9421.973,-27434.844,4304.381,-784.3404,9022.101,38843.546875
147,-3753.9116,29340.04,9332.5625,3562.5857,-1458.1846,-15446.666,39920.3671875
148,9948.755,-5177.9067,-21104.402,11192.013,4742.4346,-10549.33,38736.34765625
149,3560.4497,10912.686,-1684.8981,-11355.563,-3947.2822,-18322.455,39507.73046875
150,6742.104,17039.05,20821.47,-15915.952,4426.3467,-4763.9263,32343.4140625
151,21464.994,7596.4087,42972.48,-11409.313,-2910.094,-3726.538,37560.25
152,21278.12,20964.908,22048.188,60.32576,-132.67688,1001.362,2001.05102539063
153,9147.187,8114.462,9038.201,49.10757,-796.6069,612.95917,2000.99609375
154,1087.2411,132.32309,647.1534,886.0989,522.4006,-219.38972,2000.97839355469
155,32714.205,33686.895,37634.035,3189.526,-5508.881,680.6291,11971.5361328125
156,53557.555,52832.45,52999.035,19.431265,-996.55035,-443.8278,2001.03881835938
157,68829.734,68812.22,68675.83,364.75665,-850.5074,686.36273,2000.95227050781
158,21630.738,22718.299,21816.592,463.00055,-244.31062,-849.8029,2000.96704101563
159,26823.043,28376.127,28565.967,395.7708,479.2828,-184.35628,2000.98669433594
160,-232.60619,892.6902,1308.7784,653.03723,-290.87234,433.18518,2000.94604492188
161,1704.6301,1186.8632,2022.8629,238.27826,-997.28296,324.42963,2000.98449707031
162,2999.064,1617.4031,2245.2456,15.602577,503.9503,-775.80316,2000.98645019531
163,5212.7227,17683.162,-6836.567,2649.757,-2220.803,-1788.011,22280.208984375
164,-30406.516,-2326.2524,-24730.871,6715.3413,7591.6006,6460.3057,33086.734375
165,4802.303,3302.3545,-2815.4038,-6992.5884,-13851.073,-11265.176,33938.34375
166,-16098.211,429.09485,1372.766,7820.0327,-15613.271,7214.295,36885.74609375
167,-1736.2125,-13312.983,3532.8042,8567.594,8747.549,-6120.5493,28016.701171875
168,21063.799,19301.383,20012.965,-244.50635,-601.671,-356.00195,2000.98522949219
169,20780.182,6099.8276,15854.326,-12930.966,9375.737,-10334.519,35400.75390625
170,8726.571,4817.0767,-12037.646,-10977.034,6651.439,-12184.971,36123.26953125
171,36144.414,10557.789,13461.454,-15242.129,-23.451447,-6335.421,37499.24609375
172,58434.13,58270.19,60025.605,243.83336,-6.553977,578.4644,2000.73291015625
173,3401.0217,13359.464,-2544.7021,-12121.821,4961.2856,-15935.636,38343.5078125
174,889.8041,7182.6104,-14412.369,-12102.235,284.36255,-15911.313,39613.0546875
175,12739.813,-14977.375,2205.7375,-133.01907,-4771.727,-15812.413,37492.5703125
176,12429.808,11246.683,12454.679,-593.4771,-25.187136,710.7668,2000.98608398438
177,-12562.106,-6037.018,-11860.181,15283.915,-14888.067,-697.8823,37492.77734375
178,8556.686,7721.672,-11951.377,-12388.245,912.0204,-14517.058,38720.66015625
179,-43398.387,-7709.068,-27502.875,1073.8933,-8809.947,-1859.8817,34724.30859375
180,-32521.822,-26252.678,-14262.415,7.3675747,5715.1206,-15066.953,32206.58984375
181,8159.35,9376.093,9898.788,552.1779,52.78512,-480.0121,2000.98815917969
182,6650.386,5881.4937,-15707.602,-1514.31,344.2308,-18214.926,38546.92578125
183,17411.742,21231.518,22257.34,16615.363,1162.0226,-14316.484,38297.62890625
184,26238.014,25828.205,25039.898,350.11795,-408.42575,825.375,2006.07568359375
185,119702.65,119973.32,119211.8,618.6471,-475.22928,759.6379,2000.97680664063
186,-12524.264,-20824.873,-12752.997,8752.351,-3496.5903,-2850.0679,18918.55859375
187,14021.713,-5.4760475,-25710.457,-2610.5608,275.17773,-3241.284,35640.80078125
188,-15845.797,-20569.46,-11036.391,-896.455,-3102.4744,1005.7315,10123.380859375
189,41285.953,39224.402,40064.535,151.74806,-354.42432,333.70923,2000.96374511719
190,-84185.32,-85572.31,-84099.06,799.0707,50.27181,-99.976,2000.98364257813
191,21392.783,20542.205,21534.84,569.0395,5.165747,-850.0865,2000.98291015625
192,51964.04,51476.79,52111.7,240.35895,630.4512,-876.8391,2000.85668945313
193,45034.676,46445.1,46730.168,-302.93057,-353.82434,-541.849,2001.07604980469
194,32388.176,32967.977,33517.82,424.5314,650.35175,-642.1646,2000.99377441406
195,6560.558,8566.787,7277.9443,191.48112,469.4775,39.60706,1968.82836914063
196,8838.855,8550.527,8448.055,316.9531,-834.73676,-703.24976,1999.64855957031
197,1513.8575,1995.2971,1869.9038,-118.77524,-656.7622,909.3338,2001.03332519531
198,-68099.875,-66083.21,-66749.11,-138.9762,458.18137,223.1073,2001.13122558594
199,-23364.264,-21980.016,-23091.287,645.27466,-565.80994,245.99382,2000.97253417969
200,30794.521,31155.31,30840.998,-598.20044,-454.94202,-855.2832,2001.13391113281
201,778.57184,1677.6223,1800.596,352.1454,-895.8542,-311.0635,2000.98449707031
202,7494.37,6080.833,6502.8066,-310.67865,-797.34357,-275.3355,2000.98388671875
203,11408.727,11838.121,11865.803,276.37665,-831.9647,707.4859,2001.07202148438
204,6654.226,6351.7065,6264.298,369.5337,-703.08813,268.06277,1494.60314941406
205,1517.2438,-589.9791,881.5416,-73.842674,272.4384,-294.37906,2000.98559570313
206,1675.3362,2589.674,2646.738,37.421566,775.3629,-659.4773,2000.98486328125
207,891.67535,1389.6855,814.1679,-623.7491,-586.1586,-710.26434,2000.99523925781
208,-3079.5645,-3366.8098,-3083.4656,506.81454,-118.49338,-1018.1384,2000.98156738281
209,6535.3594,8061.838,7861.7427,407.20264,575.5945,386.3784,2000.99157714844
210,8110.8667,8878.7705,9899.48,320.84595,-405.109,-512.32886,2000.98498535156
211,-13635.483,-12492.125,-12555.563,-800.6075,-219.96162,482.04596,2000.98254394531
212,68765.75,68495.37,67442.555,-783.6376,-460.92816,141.65996,2001.5029296875
213,9643.001,9677.814,10691.636,141.71666,-915.7505,-348.0353,2000.94323730469
214,252279.86,251785.02,253007.66,-197.41066,948.39197,-139.10965,2002.00231933594
215,-11248937.0,-11249929.0,-11251176.0,445.15533,118.77308,200.172,2129.1123046875
216,-336264.12,-337584.7,-337507.34,121.12139,351.32394,786.8639,1979.7705078125
217,30226.318,60695.85,52213.04,-1810.5454,2058.5938,-13164.607,35837.8515625
218,25294.914,24456.625,24047.713,-655.962,-30.476082,-651.8452,1944.49877929688
219,6499.319,12041.485,14072.574,15801.475,10992.073,3616.4192,34595.8046875
220,-13392.719,535.8928,21126.566,6365.5586,-7522.831,3871.0925,35228.93359375
221,-16122.148,-2984.208,4195.6187,18331.004,8330.223,-1707.6285,39287.23046875
222,-11657.797,-5800.405,-9036.236,-6218.3706,2158.164,-5174.408,15366.4248046875
223,-9905.1045,1053.6049,-8575.2295,10900.792,3167.601,505.0308,22240.41796875
224,-2489.2217,777.7331,-2623.7485,8653.571,13796.321,-1504.3942,28523.474609375
225,-13045.495,-12888.658,-9838.675,2984.9575,-3417.467,-6014.913,13420.5078125
226,-12604.436,-1085.5436,448.117,-2719.8494,15219.296,-2791.5137,29885.6875
227,-14437.035,-12881.4,-20355.361,-1189.1195,4241.854,-2951.8818,11446.228515625
228,-4570.7935,-2346.7212,21146.729,3936.7764,7071.4043,-7107.3184,30938.498046875
229,3148.6338,-3686.433,3153.922,5070.1084,-2036.3689,3859.46,13453.5869140625
230,10391.673,16422.988,1257.9104,-8687.04,-2822.4434,-3666.534,21575.771484375
231,2340.3735,21181.053,20941.635,381.8813,-1815.1633,2550.099,19502.529296875
232,2942.9377,26211.754,11954.458,-8572.479,-3356.0112,8042.3203,29346.978515625
233,-54404.9,-65210.145,-90406.66,-4382.008,-7159.7153,-4624.247,36047.37890625
234,-72356.24,-79162.164,-111228.08,1765.4895,-3898.3738,-232.89578,36713.58203125
235,-1138.2219,-22450.158,-37326.81,6762.8984,-2331.0554,-9002.628,37272.20703125
236,-20179.36,-27362.123,-46914.13,6014.863,7724.0195,10230.823,34290.4765625
237,-52785.21,-56587.8,-88374.69,-304.04614,0.4746518,-7209.784,36082.6640625
238,-26087.51,-36237.22,-64454.75,3724.1787,3903.1362,-4291.583,36444.62109375
239,-51263.785,-59941.69,-89721.36,-1730.812,-7240.992,-703.3392,37260.26171875
240,-28189.545,-41798.324,-68186.19,6751.535,-334.8785,2466.4014,37362.55078125
241,-20872.826,-37976.297,-63940.867,-795.373,-520.6572,1542.3125,37691.1015625
242,5822.22,-2683.0095,-16128.671,8669.107,4748.9204,-1776.7104,25885.716796875
243,-28984.607,-49186.277,-69792.51,-2800.9707,-6443.019,997.16266,37417.390625
244,-12957.205,-20631.668,-48108.97,-1490.0468,-6864.712,-8148.708,37040.6640625
245,3152.1685,-17829.342,-28322.23,9233.116,-10369.364,-5756.702,38055.515625
246,-17838.807,-20472.781,-47332.367,2568.1948,-12392.58,-7423.204,38012.4921875
247,-33919.758,-48735.78,-69797.88,-1304.1445,-10829.018,2118.711,36681.8125
248,-34805.4,-57522.617,-71813.31,-6051.562,-5399.046,8095.5703,37932.42578125
249,-48221.93,-61326.145,-84509.02,-418.66995,-9020.023,4931.9414,36476.5703125
250,-5875.281,-33721.086,-37912.977,-7519.29,-3612.2175,8281.975,36389.890625
251,-15267.277,-22221.371,-43627.18,-1176.2194,-13584.536,-4824.5845,35819.33984375
252,-30118.107,-30544.807,-54723.742,607.2294,-9345.395,10462.406,34447.37109375
253,-20968.678,-26561.01,-45915.598,-9365.224,-1036.5103,-3277.8723,28507.72265625
254,-48191.824,-60713.457,-77588.61,1749.5822,-12066.452,7677.863,35716.890625
255,-15572.779,-11486.172,-39390.945,3701.3418,-5358.264,-212.89888,28437.8203125
256,-30357.553,-33528.24,-52012.105,8675.415,6559.6206,-4562.6147,28768.73046875
257,-15657.889,-15904.082,-25997.902,7771.244,276.3759,1264.5376,17047.98828125
258,-10266.913,-8603.492,-9164.225,11.370048,-611.24304,-494.6534,2000.98571777344
259,-1926.2601,9248.919,8335.87,-2507.6094,-2953.9148,-7901.735,18651.224609375
260,-6278.9243,-2920.9436,-14941.091,-13295.836,-9917.61,-6133.083,32460.060546875
261,13344.704,11812.927,12882.571,-10212.967,9390.797,-5692.7373,26010.556640625
262,-8468.702,5246.309,-26545.639,-14472.824,7264.017,-1890.8225,39499.54296875
263,-1439.7666,7719.3145,-482.27798,-9429.214,-7539.318,-3654.4448,23523.49609375
264,-793.94653,5439.809,1925.674,-15451.5205,3298.773,2732.0466,28294.681640625
265,-23682.701,4330.086,-25087.174,-13985.079,6184.2446,-4551.738,39870.65234375
266,-2694.748,15935.379,-6279.9175,-15963.333,-3842.2595,-3357.233,35627.421875
267,14611.31,6016.806,18342.424,-17431.72,-6733.082,1521.4099,34269.45703125
268,2997.682,9111.52,-9945.4795,-10380.703,2945.3958,5070.5225,26654.65234375
269,-396.1179,-1403.7716,-3741.4233,-12722.713,6887.9487,-1125.8312,25309.51953125
270,3939.7734,10034.148,7721.82,-13284.476,-4981.714,3460.84,25849.80859375
271,8335.394,3544.8315,-5601.437,-8502.032,-4295.2275,-15166.246,33356.63671875
272,2519.3474,18674.36,9340.923,9137.586,12442.466,-7404.6616,32813.625
273,23253.291,31045.557,40415.98,-16477.168,-9980.61,3772.1633,37115.4609375
274,65191.465,52385.58,63885.664,-5626.704,-3835.008,5559.703,19514.25390625
275,446.53714,376.38077,625.40497,236.96236,-1068.2699,-347.5851,2000.9912109375
276,76860.516,77179.875,78025.13,893.13385,196.89317,-368.87854,2000.99255371094
277,17422.16,17059.904,16556.771,-339.50684,991.15027,-104.01328,1972.82092285156
278,-1890.6127,12136.805,5689.4966,-16023.543,1947.9501,-1847.6039,30655.88671875
279,18581.473,27661.393,-2672.2703,-5513.7427,1420.7555,1260.4104,28795.388671875
280,16240.188,5028.37,933.68463,5551.9263,4922.6904,-5668.893,21212.25
281,21791.227,-791.0484,-15766.8125,3361.4177,3219.4272,2863.3022,34088.21484375
282,-15718.97,-19791.635,-23646.162,-7927.824,19434.047,-8941.682,40107.3671875
283,17567.113,3977.5234,38185.668,13101.278,4586.0225,-5180.2017,39351.34375
284,-5117.196,9810.437,-12471.269,7180.104,-1516.7749,1289.8086,23521.263671875
285,288.9739,14655.604,11622.561,1522.7141,9080.259,-250.26733,20652.408203125
286,30806.322,31060.133,31049.955,1078.5095,-64.40241,-383.04883,2001.02734375
287,4613.2017,5553.4106,5966.3823,115.45803,-858.94226,320.3073,2000.98608398438
288,82141.65,82601.41,83161.2,-710.4312,-604.4254,-453.29437,2002.16772460938
289,6667.3115,6266.7285,6205.518,200.726,-1105.6217,-95.12206,2000.98693847656
290,-14463.999,-15605.495,-15695.249,-450.69714,-662.41583,470.6532,2000.95825195313
291,1524.569,2931.7715,1872.2524,847.78,160.73573,229.79668,2000.990234375
292,-21331.625,-22594.662,-21444.334,-70.538826,-647.20935,649.7992,2000.97326660156
293,-20324.156,-22617.438,-54044.55,2762.625,-5067.2773,7199.4585,36337.5625
294,-8795.76,-18038.922,-43249.223,4276.992,-9191.937,8119.045,38211.62109375
295,-14212.235,-20593.83,-42245.992,12367.962,-6812.469,-5203.6455,36429.08984375
296,-3692.0957,-1139.7388,-10928.193,9505.124,16680.77,-2914.7212,34765.18359375
297,-6466551.0,-6466313.5,-6466359.5,629.12427,-860.31995,228.09277,1900.39978027344
298,-5681442.5,-5680232.0,-5680669.5,-134.12712,-437.18918,-519.10455,1600.90747070313
299,47438.797,59874.914,71491.86,8000.7607,12095.056,2674.6377,32961.32421875
300,-21029.004,-14662.079,-22481.719,8714.95,8477.105,-3704.9094,23162.71875
301,-147.50217,21781.521,-1855.1625,-12616.326,5981.861,-4547.2944,34178.09375
302,-1047.3162,2494.7314,-6558.9404,-6367.3447,1651.7477,-8626.608,20384.203125
303,1738.7367,24776.8,8227.903,6818.279,-3691.3262,-1910.3969,24792.28125
304,27132.086,-4228.0024,2609.701,-5220.2725,-87.04088,768.2113,29988.75390625
305,42843.418,41971.75,42589.38,-737.76935,-34.949955,-766.91394,2000.98718261719
306,-8035.881,11165.137,-16059.596,-771.968,-4809.13,2382.2725,25986.904296875
307,-10385.562,-10972.828,-8984.003,-352.42545,-128.85223,-254.15533,1936.11511230469
308,-5472.944,1496.4216,20358.592,2125.5815,-8911.13,-7910.999,31230.458984375
309,-3909.7788,4457.899,-3680.0007,-17973.857,-7206.256,-318.01328,34545.91796875
310,4887.236,4257.4697,25041.635,-5725.9697,3709.932,1134.119,23723.376953125
311,-9517.276,-1062.7465,-21883.191,-19759.2,35.080795,4839.052,39629.203125
312,-21854.936,-24529.547,-31677.857,-2374.7615,9718.404,-805.62,19482.775390625
313,31541.129,7780.6333,23954.074,-690.6354,7935.899,-9694.764,30235.4765625
314,40109.133,40788.46,40593.047,1059.1827,-289.10388,82.98668,2000.982421875
315,68207.9,64457.88,70620.44,1338.0232,-9623.456,-2949.31,18391.001953125
316,2540.9602,1034.5145,1522.8875,-763.4397,-28.748037,-400.6853,2001.20593261719
317,47954.953,46879.812,48606.77,-492.59302,-273.60577,-506.5132,2000.94409179688
318,26383.023,25399.062,25819.451,680.62885,479.9612,631.19226,2001.83056640625
319,2006.3342,2943.95,3208.9812,-170.45116,813.01385,495.298,2000.9892578125
320,11943.502,10322.5625,10873.632,786.0611,-60.921177,-183.73607,2000.98950195313
321,14394.053,13132.564,14286.935,230.7627,-760.42224,462.5507,2001.00939941406
322,-54354.95,-53473.152,-54711.09,495.93466,-593.1838,-577.15375,2002.80285644531
323,-6457478.5,-6458146.0,-6457107.5,-256.16357,920.1202,-220.4411,1927.00427246094
324,-710896.56,-711657.2,-712405.6,374.90405,-182.83849,768.592,2000.53466796875
325,34275.402,49060.58,53319.53,1462.4044,11359.717,-2044.1091,26566.708984375
326,6204.9834,-7035.552,-7245.3,3462.2588,11785.162,-4686.711,26394.328125
327,-47675.7,-59168.02,-88893.56,-1793.4119,803.75,-1008.38995,37039.6328125
328,9841.857,-7612.104,-10955.002,9966.437,-4366.7803,-476.52008,27019.24609375
329,5947.1704,4491.624,-15060.83,4440.5063,-5140.9,3452.4885,24229.66015625
330,-31036.27,-50109.117,-69725.945,-2361.3735,-8634.997,2448.0945,37163.68359375
331,4857.648,-3165.4617,-23279.354,3007.9685,196.79106,-2660.719,26054.041015625
332,-35152.18,-48403.6,-65719.4,1622.848,-11553.807,5951.6587,34921.83984375
333,-26397.473,-34058.848,-60524.684,577.67096,-11114.142,-1683.8325,36633.0625
334,11545.104,18777.186,2575.9236,-13449.495,1141.4442,-1307.3552,27373.673828125
335,-11835.277,10244.97,-19253.328,-16039.875,5039.1514,-1940.5826,39568.50390625
336,1148.4895,10987.139,-6903.7134,-18163.941,4301.8145,7750.7744,38293.42578125
337,42489.49,34320.305,28716.932,17231.16,-1439.4302,4290.243,33107.12109375
338,-13206.48,-12245.252,-8466.923,7213.1436,5299.602,-5815.498,18990.453125
339,-13379.984,-904.8143,-10552.135,6513.365,-1846.866,-11991.203,26404.92578125
340,5371.785,-3133.2048,-9685.912,7551.631,-1492.1057,2717.4434,19259.220703125
341,10626.404,20186.658,7158.118,-655.1041,-4564.923,2597.0625,14853.36328125
342,9.905796,16614.086,-13044.67,-405.41034,899.7417,9631.457,30726.173828125
343,-8515.478,-9263.911,-6679.9214,1667.0751,5506.3843,-1818.311,10701.4111328125
344,10049.627,7816.776,20052.752,6549.7617,14274.158,3922.3618,30224.01953125
345,-6770.0527,10660.992,1278.4575,-18132.234,296.80505,-6982.901,36894.53515625
346,9009.6875,14613.48,18039.521,3648.6565,414.11856,7461.973,16426.6484375
347,-15291.573,-5793.7397,-2241.4133,8856.606,4133.0366,98.284386,20570.869140625
348,39336.56,39781.15,39652.2,581.19635,312.0663,-920.41486,2000.99291992188
349,2876.1123,2645.364,1437.636,249.44426,-539.3419,619.9647,2000.734375
350,-6052.691,-1767.9661,9633.083,7049.4272,-1363.9005,4210.267,20125.509765625
351,-8437.754,2716.5942,7675.915,3492.268,-2122.9375,-7559.196,20636.498046875
352,7601.29,27776.086,17931.377,-1296.1433,-8056.5117,8734.237,27091.484375
353,-30865.945,-8464.044,-49740.23,2315.014,2997.2944,-4202.1035,37106.68359375
354,-1307.5876,1834.4001,5216.733,-440.01813,-33.202763,-5430.178,10999.2802734375
355,-3749.846,-1597.6842,3708.902,1510.2162,963.4374,-2020.2892,8129.19970703125
356,-2820.135,8110.3623,7265.3506,6196.0684,317.1681,1101.2697,15167.97265625
357,2787.447,-3912.4543,-2424.886,3817.598,-1670.2745,444.42603,9477.2958984375
358,8182.331,7942.4766,3571.8123,-11152.229,2008.4902,2085.2654,20456.59375
359,-11742.801,-10089.21,-1263.6595,-564.73474,269.03418,4000.9788,12017.3193359375
360,-9093.237,-1476.8353,7834.0938,2806.5256,118.54438,826.9553,15535.1943359375
361,21997.887,-4491.7544,-12906.509,-4579.3115,-5305.076,8759.574,37053.27734375
362,-17750.73,1314.2084,13761.493,3471.3892,-1029.4419,9264.952,32443.21875
363,71953.96,46416.074,59688.195,-715.4,6257.444,-11102.976,31276.53125
364,4690.21,13565.462,-12097.394,-4961.247,13269.648,-9578.934,37241.7578125
365,-5818.504,3338.4275,9641.711,19980.584,-5854.9956,-3595.713,38994.8828125
366,-14082.015,-7051.629,-21612.396,1376.0481,1874.0474,-2374.8696,13864.0244140625
367,577.3129,3033.7249,5348.4995,2412.2573,-159.6371,-1408.5223,6368.93994140625
368,1717.7197,-1054.3351,-409.6452,-308.49646,-382.61465,-858.03925,3040.75366210938
369,2391.968,-3821.012,-1047.9766,-1517.8816,911.3863,-2663.8892,7730.1171875
370,-954.22955,-8241.233,-3087.1545,-4175.14,-1007.80145,826.4342,9974.89453125
371,-7441.1895,5206.388,148.28719,-1788.7974,-2059.0234,-6988.266,17041.0859375
372,-146.59843,16024.403,10682.917,1775.2113,4999.109,-1014.7303,17063.763671875
373,-6044.487,-4631.7744,-1586.3075,5183.6055,-517.3272,-17.488623,9848.1513671875
374,-11712.053,-2586.8975,7655.005,-5758.255,-3604.7903,-1006.9909,20569.931640625
375,-5544.3687,-9181.36,1484.6143,4166.6274,-1781.613,2761.394,13140.7509765625
376,-8977.478,-14837.963,-4819.089,4163.4897,-7593.0854,2301.0425,17800.5859375
377,5932.722,841.4359,-1657.0165,3380.904,2659.8035,5212.4346,13487.3056640625
378,-4204.2065,-5516.0005,-2931.983,5070.6562,4244.397,-5331.7,14881.8251953125
379,-5200.939,-3154.3147,-4643.0093,-1695.7987,-2432.8674,-1771.4038,6257.4296875
380,-1207.353,-1107.1715,-1819.3955,2739.9321,327.3832,-1480.648,5464.99072265625
381,-1289.055,8647.983,9736.428,-6313.8174,100.80159,2335.0632,15707.5224609375
382,12973.526,21201.576,11716.341,8147.753,2443.8328,-12583.851,27780.568359375
383,-22314.88,-22152.59,-22635.217,-468.8822,-853.0717,-571.6224,2000.98559570313
384,533.0011,4779.2827,4661.624,-4948.5957,-2199.6018,-1217.0314,10486.619140625
385,3647.6406,-1013.3768,2845.1208,-2186.0745,931.602,-725.0729,6094.765625
386,-13081.12,18213.246,26367.455,5681.351,-5.372478,2563.8574,37650.53515625
387,-21930.705,2173.048,83.12639,-3083.7483,-2463.2437,-11723.345,31528.169921875
388,-10209.293,-26925.834,-21168.854,-3129.6445,-4586.4053,-4366.533,19132.119140625
389,-8083.987,-17714.82,-3298.7512,-2381.245,-4979.542,-8747.08,21969.75
390,-5620.917,2556.4429,6833.971,3587.662,-1495.3896,3241.8247,14035.5322265625
391,-4585.1904,1870.7268,2864.5625,-1383.5984,-242.16579,285.9173,7432.82666015625
392,194.14246,3461.0493,5933.6455,6154.0757,-3824.4768,2090.0315,13980.939453125
393,-3043.8584,-16112.314,-13095.125,-7191.438,2873.8032,-3676.471,18998.259765625
394,-19745.066,-11858.686,1891.6937,-1026.5992,-3711.0571,-1659.8268,20308.896484375
395,-8429.95,-20641.64,-15813.75,2482.8677,-907.0898,-1214.7765,11784.1669921875
396,5853.4478,4434.1406,8686.729,583.6101,1911.7834,-3356.8794,7736.64501953125
397,-13437.437,6043.979,-13596.262,-6284.635,872.01215,899.75555,22490.9921875
398,-5605.2617,-766.9926,10013.222,-1994.0587,1444.6886,1954.4094,14880.4833984375
399,5114.2876,14422.651,11922.255,-5582.0073,789.0331,2737.2983,13691.076171875
400,839.2042,2334.896,-3281.461,-2321.198,-156.1284,39.73501,6451.5087890625
401,1385.8219,15448.825,-430.3845,-1299.7786,687.1843,5595.2705,18083.53125
402,-7767.274,-10015.542,505.01724,2544.6272,1591.558,2567.259,11784.771484375
403,-8950.548,-17164.463,9312.381,2632.3525,4020.9138,-7023.603,27718.17578125
404,4136.604,-10987.955,6313.252,3386.4795,6364.013,-3624.5308,21487.888671875
405,-11961.67,-11872.605,-13434.232,-324.8334,-36.998863,677.1899,2000.98498535156
406,6581.814,-5223.812,2512.3179,-9863.221,-3481.238,-4955.613,22578.115234375
407,-8056.9526,-21654.469,-30789.705,1703.7249,1420.6207,-37.76864,20182.375
408,1442.1411,-5134.723,8491.146,6360.213,-310.16013,3784.6821,17433.328125
409,-7407.183,-7380.391,-882.49,489.318,1350.7927,489.00272,7021.90283203125
410,-23248.994,-31465.184,-6343.4033,1936.1257,-577.2872,-6914.2104,25453.265625
411,4681.9453,-25119.797,-8840.3955,10582.556,-5758.4136,-2169.742,33430.23828125
412,-2251.9626,-13582.105,-8777.136,-269.20322,1498.6807,318.10074,10211.6591796875
413,-7237.2876,-8879.887,-10790.158,5500.104,2846.0771,3106.2964,12388.955078125
414,-12442.742,-6844.5903,-4918.5254,6056.8433,1559.2644,-1924.7478,13202.0966796875
415,2227.6729,1966.148,768.2551,341.44376,549.61786,-70.727905,1757.16235351563
416,2867.0771,17078.22,18057.523,-818.54865,-428.29816,-443.63043,14831.83984375
417,11175.384,10617.072,11340.137,-7724.4697,-5038.299,2114.349,16401.15625
418,-13468.525,-13585.509,-12101.207,-7059.821,-1461.9484,401.99994,12588.212890625
419,11937.181,20402.332,9656.593,16900.053,-7752.807,5005.728,34763.3515625
420,-32298.441,-4012.6953,-27961.426,8512.208,-6566.036,-5641.8286,33740.4765625
421,-14228.439,-14756.617,-9786.138,-4167.618,-319.5975,244.49678,8657.4951171875
422,-8386.025,1290.8115,-5732.05,1352.1849,133.55312,-3814.6848,11144.3642578125
423,1162.3635,-1448.2998,-7920.0684,-448.50613,3803.5076,-10569.621,21089.076171875
424,2393.92,20067.89,11488.368,2843.8489,2013.9585,-1555.4784,16674.298828125
425,-23756.035,-22807.307,-16156.135,6483.7095,10738.404,6474.0293,25480.24609375
426,-6356.122,-14219.584,-13594.368,2083.5286,-44.922672,-3931.92,10803.6044921875
427,-7489.0913,-1499.1637,-17922.938,-1243.1031,-378.9033,5842.622,17740.28515625
428,38850.09,47941.27,29269.426,-533.27124,370.7834,-4579.1943,18047.4609375
429,-990.61444,15268.032,-8564.413,-1976.8594,330.16354,-683.1521,21407.8671875
430,12419.382,4305.2383,17359.748,15528.54,1369.1471,3956.5134,30105.244140625
431,-4516.3677,-4990.023,-11768.553,-2671.0632,896.38904,534.6857,8605.546875
432,9515.784,13413.783,14199.566,-2284.7083,-268.5603,-954.63257,6122.4873046875
433,-67.30664,3083.7908,4932.8887,-2674.3975,1882.8864,-4261.83,10283.86328125
434,-6014.8115,-7395.2676,-19050.828,5883.187,-1100.2842,-6587.579,19786.45703125
435,-1486.5059,-9564.945,-4764.097,267.68723,4229.9727,672.07117,10235.916015625
436,-7101.183,-19421.71,-12647.724,-3239.1626,2756.671,3826.5857,14574.8310546875
437,-6168.5615,122.463196,5129.996,1499.975,-1827.6569,1283.9248,10856.8427734375
438,795.9033,14065.599,26232.092,2991.2688,-5610.5,-3278.7388,25280.044921875
439,2865.0688,8209.458,10421.873,-2598.6567,2072.6045,537.1376,8904.6591796875
440,1618.1562,-12097.276,13658.053,-12162.264,538.32623,4001.6343,31478.169921875
441,-14150.793,-10693.645,-24420.547,4851.526,-3929.7495,4059.0469,17868.74609375
442,-12910.235,-6278.986,103.39111,-5607.9717,-3357.664,-3851.278,17311.791015625
443,-879.5542,-7334.497,-6288.9854,-2621.4897,3550.4263,3756.066,11694.7841796875
444,-10248.235,-4882.0605,-4334.7637,6533.185,-1458.6111,-2139.856,13423.8359375
445,-18142.117,-13380.449,-5338.475,7020.4946,-3154.0735,923.4327,17490.134765625
446,11709.308,8794.215,15915.144,-2568.9053,1634.1152,5052.1787,11951.1328125
447,10516.947,20363.27,19552.256,1843.2167,-964.33167,596.9843,10182.0244140625
448,-5512.756,-12596.602,-696.03906,-1160.3955,-1082.9155,-6888.2915,16043.873046875
449,-8445.582,-11394.957,-10792.264,-2189.6592,-1531.2012,1382.9685,5868.546875
450,-2215.3215,1085.623,698.29395,2868.2417,2673.4626,1600.4283,7973.359375
451,-1899.3821,-1464.498,2441.1064,2306.818,-4089.9675,234.7167,9135.3359375
452,3058.1707,-7112.549,-37494.49,-7393.0513,3579.3608,1292.9402,39280.203125
453,2620.725,4474.273,13351.254,-781.9341,1059.2435,-2759.4397,11257.625
454,-1307.3615,3799.0522,-1968.1151,-1416.4648,-1020.00397,812.2002,6403.552734375
455,-8823.488,-3716.084,-21286.898,-1503.3802,-3654.536,-2843.1958,17781.3515625
456,1636.5519,-8279.282,8768.333,679.22705,-2300.5818,-3122.4524,16322.21875
457,-2170.329,1735.7448,3345.277,-1018.53485,-1655.691,-2777.2668,7655.76708984375
458,-1713.4102,20659.4,7623.7686,5578.4854,-1507.0941,6212.709,24388.365234375
459,-1534.7665,-5880.2812,2043.4417,-4800.7285,1637.4559,769.6807,11233.7978515625
460,-6489.0845,-6279.2725,-7271.3735,1758.8074,-456.81143,1239.8999,3916.43041992188
461,5414.99,-1755.8628,8978.532,131.22868,-1204.6815,1715.2487,10144.2236328125
462,2531.1646,3849.48,-23550.111,-1591.7126,4538.419,-4171.8936,28947.55078125
463,-1529.4888,-7338.754,-3719.3057,2367.7957,3910.8618,-1528.6017,9774.220703125
464,1141.3175,2337.8,206.31183,1563.9695,-3298.8293,-2024.6299,7463.6943359375
465,-5410.719,1028.6055,2990.048,-4075.8096,-2800.8582,174.82324,11463.21484375
466,-6.2435303,1621.0746,536.41327,-392.7158,-768.1186,1715.9016,3622.8740234375
467,-7584.973,-12988.739,-6281.439,-6977.2515,242.86636,-3511.6382,14871.5087890625
468,-382.9844,-5996.067,2824.7678,17816.05,-1765.5054,-3382.129,32491.6015625
469,-3758.7864,2696.1445,10012.241,2624.0122,562.67645,-3821.4304,14416.3935546875
470,-9569.493,-1833.2987,1533.95,4623.446,1531.3368,-1380.1372,13195.2578125
471,7881.336,21245.428,17760.889,9880.106,225.89636,11294.086,28632.935546875
472,8365.467,2309.7131,3833.5337,2676.2334,-7.1148043,-762.012,7279.7744140625
473,6263.846,15937.498,10349.698,7200.1455,-34.73283,-1500.2815,15265.35546875
474,-3454.8267,-3375.2488,5717.542,-1831.6862,-62.390766,-2450.7578,10559.5595703125
475,855.25,2703.8076,1300.1189,4525.2793,1640.11,676.3941,8583.09765625
476,2794.7627,4248.4517,-128.20581,-478.89386,-688.2345,-399.69733,4182.623046875
477,710.671,2989.5098,400.17682,444.58868,443.4307,-4442.802,8148.337890625
478,2874.671,10167.95,22944.457,1912.9628,1734.3423,-2575.7231,18695.423828125
479,-3613.7168,-1055.9492,6698.2456,283.82242,776.0656,2128.3147,10106.4736328125
480,658.9769,2634.3704,1984.8796,-1604.8702,3162.6309,-865.201,6558.9833984375
481,-575.2444,11211.523,-314.77905,925.6291,-2228.3264,1129.302,12538.673828125
482,-14718.273,-1154.6377,-1226.9463,4647.2627,2519.865,-6802.622,20141.1015625
483,741.2742,-11383.283,4325.76,-4279.4233,-5875.9497,9563.985,25223.876953125
484,-5398.005,204.24268,-7654.997,-2288.278,-1132.8202,1851.6805,8886.3984375
485,-6649.7163,464.8103,1647.7711,7125.522,2280.9565,1238.1143,15262.9736328125
486,-1183.9722,7619.6826,7131.177,4591.274,557.77625,558.0848,11770.703125
487,-19655.244,-14699.178,-20516.375,565.8356,-1195.2269,2617.5667,7441.31298828125
488,-5541.3296,-668.2555,631.01965,2098.4116,-2450.6016,1093.8997,8159.8173828125
489,-596.0657,3991.2212,5735.4106,-3133.6108,-210.78186,4948.0596,11624.4658203125
490,-5636.9604,-630.407,-3746.3398,792.2574,1662.0907,-1083.3356,5732.89013671875
491,-6338.999,7129.869,-8082.7773,7166.9097,3611.5352,580.52734,20054.232421875
492,-3520.4375,-1295.5808,-753.98755,-3269.9707,-3186.6687,-34.231617,8306.2919921875
493,2796.8604,-9152.417,-15613.286,741.0567,-1332.4939,298.84418,16400.392578125
494,1419.0546,2282.7646,6353.6914,2720.2861,-550.1232,-900.42194,6809.8896484375
495,-7324.4487,-17131.9,-1123.0159,10142.745,-1181.5327,-1861.9163,22774.5078125
496,225.31616,-4193.4546,-5414.458,1139.4268,490.05157,431.7369,5620.16357421875
497,-6604.0083,-2837.7913,-6115.2017,-7424.9805,429.685,2524.2422,14058.5439453125
498,6498.3267,4631.0024,6429.1694,-5543.929,1708.5256,-993.89386,10358.0234375
499,-16550.111,-3168.2256,-14479.475,2915.419,-2179.6045,1805.2811,14324.158203125
500,-9733.793,-829.6543,1542.366,5303.805,-1883.5679,-539.4718,14210.509765625
501,5518.245,6648.4434,19850.049,2192.0532,2211.183,-1003.2558,14919.2158203125
502,-7579.465,-694.69507,-4108.7246,-3260.906,3254.9375,2399.2263,10793.7060546875
503,-12803.591,-4693.244,-2816.3152,-2348.482,1566.623,979.6,10550.4033203125
504,-5378.36,-968.23584,-3528.5854,286.25974,3103.4434,3039.5774,8459.9130859375
505,5047.425,-2017.6525,2474.077,-2179.5767,2749.4001,2799.0283,9939.2900390625
506,-10936.317,-15067.558,-11737.643,-4010.1882,3808.4995,2003.8027,10872.134765625
507,6433.534,9981.371,9357.435,1934.0198,-1832.7587,4389.0635,9479.0703125
508,-2011.7188,-1625.2517,-253.66833,3620.2087,82.28685,970.1823,6687.486328125
509,3954.8035,5845.0127,194.11743,4410.2783,869.777,-1630.2494,9665.3232421875
510,-4078.328,1568.4958,340.93036,974.53326,3180.5815,2282.214,8676.671875
511,-4875.045,-9001.372,-10704.043,998.6446,-1457.4116,1087.1521,6313.56982421875
512,-2341.1885,18.616943,72.20038,4929.1733,977.5939,2698.2793,10163.53515625
513,20478.393,31939.09,48322.547,-8018.571,-955.3092,2669.0938,28364.30078125
514,6796.588,16010.234,21842.63,3615.4526,3820.1611,1409.9883,16174.2197265625
515,1258.9663,-3417.716,2764.6545,2891.086,-1258.9229,-1008.19604,8003.70263671875
516,-3460.5645,8636.605,9393.426,8486.807,1226.8333,2956.0884,20071.822265625
517,-219.94946,5310.555,1281.6593,-2333.0254,-5476.0723,-272.61288,11447.7392578125
518,6473.327,86.309204,-288.13525,875.6899,2550.4897,-2222.367,8941.92578125
519,11057.987,7932.912,12970.895,-360.14975,-1713.1561,-2610.8398,7003.326171875
520,-937.58374,-2256.031,-3025.17,-2628.471,-91.508125,192.1645,4920.0029296875
521,2066.107,3226.6802,9173.578,3484.4568,334.97296,-3186.4521,10527.853515625
522,-6180.9795,5652.297,-3842.456,120.025856,-1559.6342,1014.2954,11324.73828125
523,12144.836,15793.998,22383.002,1950.3281,-796.44684,-1651.369,10112.916015625
524,-7680.081,-2453.7534,-10801.595,4801.306,3483.905,-2574.6475,13372.705078125
525,-5663.841,6967.468,-1774.214,7890.72,-466.73697,1035.5603,17782.271484375
526,-3401.506,3657.1187,2871.5732,1685.3245,1128.8809,4593.2935,10978.8662109375
527,-4849.4795,2529.0503,1915.056,-185.40083,-172.70609,744.1424,7221.0224609375
528,-8649.263,-5182.6284,-3304.979,-1190.1508,-284.82047,-362.61194,5190.32275390625
529,-3872.677,-4591.2334,-4590.071,3002.4844,-1972.2976,841.83,6430.87353515625
530,2436.2456,379.35242,3322.8086,-1139.8921,2830.795,-1730.6702,6615.45849609375
531,2514.4963,6967.1543,4432.137,4666.752,2193.1672,2985.2646,11021.1611328125
532,514.3325,4910.128,-1448.903,4579.016,1544.672,526.37744,10134.037109375
533,-1145.4254,-1037.6986,-4798.4185,-145.00656,2363.2456,-703.61816,5661.5009765625
534,10660.27,1661.9563,1867.4397,-585.1666,-1221.1428,945.23737,9345.8076171875
535,6502.9297,5299.712,8413.368,2219.2957,-1158.5662,-2913.3474,7187.60107421875
536,-768.534,4622.9556,-1786.2163,3474.6907,-1232.3883,472.2468,8777.04296875
537,-10895.435,3644.6973,-11842.959,6358.7495,333.32465,-496.0208,18667.16015625
538,7935.9775,2351.125,1399.9075,802.2603,973.44,1460.1082,6969.732421875
539,9577.965,7321.371,4749.285,1681.261,1446.376,-2299.2695,6937.42333984375
540,3169.7986,-926.0421,-4290.763,-1946.3616,-224.8365,1084.8483,7544.92724609375
541,2685.2075,-2787.6292,-5221.3125,-4298.4336,1061.7223,-949.4388,10521.861328125
542,-2359.7458,-4066.1501,-4083.3774,-64.75859,1911.394,-496.6132,3828.08666992188
543,-8385.444,-5230.67,-9407.127,5883.4253,2801.3408,903.56604,12002.3134765625
544,-1144.169,-2294.4624,-3288.7236,-2249.6013,405.59796,759.9729,4567.68505859375
545,3202.1804,1351.6337,-27.123169,-4879.8823,1172.4382,2259.597,9937.7001953125
546,965.94617,2715.8052,1553.6294,8363.554,160.30193,123.54814,14572.19921875
547,-1702.9202,-3249.9048,-2178.3083,4079.1282,-1744.5825,-1270.1934,8110.0234375
548,13822.055,8365.523,11854.777,1185.8434,128.4303,-637.846,5328.98681640625
549,11830.754,5472.835,7255.3174,-3316.91,-2600.1746,-333.2561,9267.6357421875
550,-1154.832,7157.9136,4067.8193,44.838226,1976.0522,489.02927,8087.09326171875
551,1127.9683,-2273.2876,588.0758,-1316.1953,-3045.0232,539.51013,6626.50244140625
552,-4078.7021,1881.9794,3610.9563,3808.8716,-1520.0226,-2220.1504,10680.1728515625
553,-4150.317,-7374.1865,-796.9092,2192.1968,397.9625,-2434.489,8069.8291015625
554,-9524.769,-12571.842,-8774.979,2637.1414,1019.19824,4634.7715,10027.6943359375
555,3408.8313,1294.636,752.7197,-116.60122,981.31836,-6863.6714,12254.341796875
556,143.0481,-1579.2454,-7016.975,466.5624,471.0561,-853.9787,6738.48095703125
557,-1406.927,-2372.2983,-2609.301,5919.5537,186.43112,2976.248,11533.3720703125
558,-1155.5334,-3474.2563,-5667.2734,38.278553,1646.25,-471.8818,4906.48828125
559,-2614.646,-4899.6426,-4244.841,-2142.9375,3678.0251,-459.2296,7690.681640625
560,-2232.7583,-5362.08,-602.1892,6306.8066,-1310.8096,428.91946,11941.021484375
561,-372.92322,-2769.5881,-4079.795,2157.609,-2063.521,1233.2496,6473.30419921875
562,2512.946,-1054.9856,166.38898,1299.3087,-230.37639,1287.0065,4478.51513671875
563,2921.9001,-2469.941,-2489.6929,2106.2002,-1123.3862,842.145,6957.060546875
564,1180.8611,-3599.5068,9474.212,1142.6417,-1792.753,77.76954,12035.521484375
565,2194.9,-2063.0964,-3376.9832,359.2803,-2365.9182,862.26044,6697.89453125
566,10937.398,6526.8184,5641.3193,-2206.3835,1992.7887,1458.3417,7552.56103515625
567,-9509.385,1373.9678,-5654.1553,2401.6292,-1065.0256,2114.6255,11201.4990234375
568,-13630.371,-10707.954,-17313.99,942.5002,-5592.0454,3046.2422,12537.5927734375
569,-15788.9,-21787.87,-31873.797,1811.7755,1631.2623,807.58124,14765.0244140625
570,-4413.598,-1517.7297,-7048.8633,-3452.8623,-3958.0154,-1849.0885,10769.5810546875
571,-30260.016,-26177.186,-32988.805,7067.45,-3283.6038,1210.6444,14894.517578125
572,-5703.663,777.4852,-13628.15,-15780.817,-2820.7446,-6456.642,32437.626953125
573,32924.473,3927.4385,20092.07,-15031.607,-2566.775,9418.39,39964.08203125
