Element Label,S11,S22,S33,S12,S13,S23,Mises
1,887.00964,2554.768,-100.904854,629.2105,-130.48296,65.520226,2580.05224609375
2,2139.947,2998.1816,-98.31499,644.0022,287.05734,-5.9219794,3026.36157226563
3,1677.783,3060.4624,108.221214,75.90069,-191.89796,-0.8559797,2583.2705078125
4,2167.5093,2982.9412,97.71804,371.93872,198.26558,-223.04918,2705.35278320313
5,1550.2655,2720.8394,190.03311,766.6352,50.012066,105.111664,2572.2685546875
6,1473.9066,2568.1956,-256.45248,421.76224,247.34183,-97.13382,2613.54418945313
7,842.0317,2076.601,64.8428,512.8773,-253.60721,-134.22849,2030.71643066406
8,2275.3823,1906.3439,234.26364,232.89418,181.55002,56.800728,1954.57995605469
9,2067.0205,1919.8967,-180.42027,90.76915,33.15218,110.68254,2192.43017578125
10,2197.5732,1638.973,-36.240036,274.57675,8.734924,-160.35698,2087.50952148438
11,1338.9336,2111.4338,238.691,573.20636,109.858284,47.036667,1919.83557128906
12,1327.4954,2438.2244,-2.827907,320.79156,-99.41974,22.202482,2195.66870117188
13,1246.9257,2567.9524,-472.40253,441.18655,306.80435,-66.8613,2802.18041992188
14,2189.9553,2760.2878,239.30249,-224.95042,-518.8966,10.345082,2490.529296875
15,2033.2351,1988.3978,-677.9805,-261.0221,595.63776,-271.4451,2953.12280273438
16,2471.3157,2483.1692,2359.5276,265.9261,-821.4797,619.4545,1844.38891601563
17,1691.9276,580.69275,-435.98007,992.903,-492.92355,225.95454,2690.33178710938
18,1430.8596,3353.6572,110.27991,134.8482,-90.26353,337.70917,2898.521484375
19,1712.1588,5126.202,1693.2172,-3990.1616,1407.9059,-1461.1824,8475.650390625
20,-2365.4058,-598.417,17340.396,-360.55124,-970.2058,-118.49304,18970.423828125
21,2646.2231,4651.6733,-44.239605,523.18933,39.59153,-169.45532,4191.42431640625
22,470.7704,-1805.1813,3184.8552,4367.7686,-5651.6074,-1087.2623,13240.9951171875
23,539.18823,585.01575,3308.6682,1803.3341,559.84485,422.06134,4333.1201171875
24,-1624.6677,404.27692,-2248.5989,1698.5514,1033.4462,533.6581,4299.47216796875
25,2911.1602,2406.8,1244.7385,1838.0571,-322.92404,381.33694,3615.98095703125
26,1973.637,2256.8806,718.3985,1851.0419,-111.72233,-155.36794,3521.40893554688
27,1379.7599,3788.637,643.5412,1918.4336,448.04465,-158.64546,4453.88232421875
28,1366.5591,3365.5605,-636.5353,419.9449,-180.47055,74.56869,3557.53198242188
29,2182.7346,2913.5886,-167.50995,994.17053,-70.80238,-5.298792,3279.59301757813
30,1854.7158,2454.546,-2441.4282,1046.3053,-69.40431,-303.29263,4996.8271484375
31,802.70825,4380.376,2545.173,756.70935,470.8518,32.04434,3462.36059570313
32,1818.5048,3846.0576,-590.45233,824.81586,262.64423,117.85565,4133.7529296875
33,1497.7567,3516.2512,-682.01263,317.004,169.96924,230.63881,3711.23876953125
34,2618.1216,3838.352,3428.8267,667.6625,-62.359303,171.72246,1610.71704101563
35,1574.8245,3475.02,315.2232,-152.37886,-29.644922,-6.1862564,2768.25537109375
36,2090.859,4315.131,-2148.489,528.3163,-203.02693,105.72931,5774.38037109375
37,1678.2505,4063.927,855.0348,-99.030495,-92.44554,198.25145,2916.51025390625
38,1303.1012,3457.3027,-1744.0614,-311.74664,244.71783,190.03236,4590.15673828125
39,1494.4028,2581.9822,1294.0292,396.44052,-200.10857,25.554846,1426.35388183594
40,1391.3309,2296.299,2081.4456,-1083.0709,-82.64837,-407.34338,2169.81567382813
41,822.63074,771.9699,-1372.9979,-972.6853,546.6479,365.44043,2974.48852539063
42,2739.4363,-2180.3645,-3555.0864,-932.8774,2826.6304,219.03531,7718.93017578125
43,-4090.1436,10895.998,594.7671,-4499.182,-524.504,2282.9526,15922.08984375
44,-2372.9568,-1556.4941,-5777.1714,-435.1932,-7084.677,619.3218,12935.6669921875
45,-1966.9401,-2346.5923,7272.147,-1938.2996,1932.6073,4615.7725,13244.0361328125
46,-2370.604,-3230.61,-4672.772,-1426.8021,2335.6292,-289.47223,5175.31396484375
47,2939.1172,1745.8539,1497.6246,-348.94507,-1411.223,2921.7417,5807.87060546875
48,-3042.5417,1274.8145,-7435.3706,-329.10617,1511.2427,981.08057,8183.2734375
49,923.4309,5289.8364,4534.7183,3458.0173,1381.1893,382.78232,7640.34130859375
50,4920.3574,5836.817,15165.575,1473.3125,-755.7496,179.0225,10234.0908203125
51,1272.6888,2955.0725,-80.38715,301.43576,186.0293,-67.61281,2706.9814453125
52,-1878.4695,445.5011,-11611.551,-261.5672,-124.85236,-189.29655,11095.61328125
53,528.6437,1029.356,-1091.3383,1849.0441,-356.76654,-1776.5593,4877.8505859375
54,-919.6284,4212.3438,2573.994,1250.0181,-659.2869,2413.3801,6639.140625
55,1644.7316,962.3774,-1883.4103,585.4683,644.5133,-3110.0413,6465.10107421875
56,-2741.4324,-364.24106,-4319.2246,1003.4209,-0.06353664,-1872.9227,5043.33837890625
57,-595.1041,-1311.2466,-2006.119,2022.6641,1156.3757,476.76318,4296.55322265625
58,2598.0732,28.844707,1161.7465,1392.5952,-900.0209,152.25822,3645.72924804688
59,2381.3489,1900.9093,-195.52263,929.11816,494.0942,-260.37244,3026.31909179688
60,1788.1312,1805.4474,1428.0011,856.1035,-45.059082,42.5427,1531.82568359375
61,2215.7998,2607.4832,912.39514,659.0439,-122.63901,58.445168,1929.03771972656
62,426.3884,2085.7654,-883.3756,592.53656,-127.84588,-186.90938,2801.70385742188
63,1739.0332,854.67737,-2458.3804,406.2381,-72.62015,-480.19678,3986.35620117188
64,320.5177,1674.0289,-1905.7405,744.32214,-29.509865,337.03235,3436.119140625
65,744.29205,1359.8468,85.18244,1119.6344,97.983025,141.68327,2251.40380859375
66,457.36267,1025.9895,-100.991936,1752.1914,558.0509,-245.79074,3358.365234375
67,1374.632,2926.1162,1450.8325,1078.9944,-506.48444,459.4381,2681.45532226563
68,-350.34787,3527.6304,880.7985,875.21814,-107.425514,464.10107,3841.72998046875
69,1258.0806,2730.7017,1117.3983,-108.60192,-93.000916,147.63759,1588.17419433594
70,2714.0105,2035.7246,1036.1362,-522.39984,722.5929,1037.8406,2784.55029296875
71,2110.5593,2203.5825,-1158.8372,-607.06934,158.98859,120.19095,3496.64208984375
72,1364.2534,1264.7101,-593.6122,232.65804,-547.0585,176.4791,2191.32299804688
73,-264.01517,1862.845,-4723.886,668.515,-762.6263,-642.7079,6182.57666015625
74,3410.9138,2930.9934,1771.2684,-716.49457,-29.702065,-1950.5157,3884.34521484375
75,3402.1362,3255.8376,1756.9935,-2102.1895,577.99585,1263.3944,4640.64111328125
76,1902.9626,2741.8413,92.84536,-2017.3331,-1032.8937,-912.82306,4838.1767578125
77,1941.8154,3701.863,3704.7334,-1352.1724,448.93817,-1197.671,3673.666015625
78,1638.2329,2194.969,-2417.547,-2037.7823,202.80022,-1684.2924,6333.15771484375
79,-2796.2275,4035.0945,3403.284,830.2109,834.3624,3630.1904,9297.3720703125
80,1616.094,2823.0088,-230.7607,-562.92365,-220.4926,-205.8966,2884.47436523438
81,2866.6638,3814.9866,5079.671,-1293.6993,335.4355,-496.39572,3129.82788085938
82,257.23264,2282.1174,-670.0347,-77.46449,-429.25684,-20.340254,2722.06176757813
83,806.1184,1652.0999,-3971.599,143.28325,668.9923,-11.472515,5384.12158203125
84,3044.1157,2037.7585,4984.2744,-533.10864,-459.38574,1165.5563,3505.81640625
85,2449.2646,2564.4204,574.77277,583.7989,-229.90073,94.87432,2225.05493164063
86,1342.1709,2334.6099,-1504.6322,20.307507,-245.53308,125.35753,3484.787109375
87,2252.6897,1680.9252,-387.59534,298.28723,-181.05194,-240.10107,2515.27514648438
88,1228.427,1494.7003,471.4452,188.22636,405.42722,-222.54439,1262.32568359375
89,1328.5004,1959.749,98.39835,1140.9579,-126.66567,283.20267,2623.3994140625
90,1522.873,2231.6367,-78.52882,562.51636,122.41356,-327.12366,2348.8525390625
91,2119.6133,1998.3116,982.18567,683.4828,917.7152,-114.39419,2266.66967773438
92,176.70499,2081.2717,-667.04895,1614.9276,-575.8457,-210.31444,3859.759765625
93,2961.7163,5475.124,6769.098,974.62854,-466.91827,-286.5957,3872.21166992188
94,1290.5687,3025.6821,-179.06895,-592.87964,318.31284,287.15387,3053.8994140625
95,1701.4661,3531.5134,3480.806,-1082.8983,-331.1506,-18.58388,2665.87182617188
96,1157.0198,3315.483,-1529.7909,60.179058,403.7137,96.58939,4266.744140625
97,3718.6714,2353.8936,318.57993,451.09772,-204.74405,168.9457,3099.1494140625
98,1500.0579,2820.079,1133.8367,-607.29346,-10.500923,-21.087667,1862.27685546875
99,2049.1292,1466.7206,-4062.2207,-1997.5118,1732.6409,434.4265,7461.2978515625
100,1076.7107,-2053.8396,-8014.675,-2474.4624,304.74994,241.61732,9100.2880859375
101,1309.4905,3489.143,-1789.4089,1604.05,-114.669,76.47677,5374.43115234375
102,-24.084541,3364.608,726.24036,959.4385,762.923,-147.40988,3751.86791992188
103,1825.0112,4621.8984,2090.4265,1522.7074,-499.62372,-143.41876,3862.27612304688
104,1187.0256,4074.9875,1333.739,887.46204,194.71065,-505.31183,3343.7509765625
105,1693.6786,3267.856,-304.40778,450.0739,-145.70181,233.45944,3232.74243164063
106,1107.573,3638.0798,257.64377,81.833466,-323.39972,-232.59123,3126.138671875
107,669.72266,2452.835,-311.70847,52.267757,-112.31221,80.055176,2440.89379882813
108,-1304.4982,218.09773,2331.7268,-750.3881,-981.58356,-168.8316,3830.0400390625
109,-526.11554,3325.107,2222.1038,-702.9627,419.10327,-100.49303,3720.25927734375
110,294.19376,434.35733,-2316.8906,100.12707,-54.81129,-2528.3044,5139.98486328125
111,1393.3534,2155.7312,-765.1173,368.73114,-38.200325,-420.68765,2798.03271484375
112,1805.5385,1544.7682,-62.036037,1462.078,378.4839,152.47537,3159.32592773438
113,1940.8391,2650.2522,1027.6235,1579.4902,258.5369,265.89343,3143.57543945313
114,819.2623,1354.7177,1635.5459,719.47144,-246.55057,-368.76953,1630.70520019531
115,898.1526,2027.4943,612.9941,562.0505,-25.820152,-516.4514,1851.65808105469
116,105.35521,1693.4514,-1590.6842,978.4132,-112.25169,-52.378677,3318.12939453125
117,1157.4597,2198.4119,15.324108,3.685797,226.84534,-188.24277,1959.00158691406
118,874.6756,3895.9321,2148.1382,-543.68835,-10.428649,-415.78687,2882.35913085938
119,742.73755,2011.0045,811.24097,-1059.6577,-448.29745,161.11232,2361.29614257813
120,2681.463,2718.095,-739.17725,-3423.9124,-239.28833,-477.74414,6917.61865234375
121,-6475.442,-4806.2476,-1171.4163,196.33173,-4509.8687,-4255.508,11727.142578125
122,1114.2655,3703.6323,-94.930984,1206.6975,164.58095,340.11285,4011.81713867188
123,1576.3478,4017.1099,-1078.7046,543.1255,-310.7467,-519.0453,4633.556640625
124,1943.7297,3944.2283,4234.4463,88.19412,305.74313,-97.358665,2235.84643554688
125,1075.8965,2052.4336,-865.75085,211.08609,281.42175,-617.8358,2852.39184570313
126,1516.8307,3909.5303,473.56952,-0.9004741,127.26153,-103.29829,3064.34594726563
127,-3190.7715,-5999.3374,-4142.1685,4023.0745,3364.5027,156.28429,9418.568359375
128,-2827.4521,4655.6543,-7210.924,1904.1381,-136.51935,-555.3603,10948.6123046875
129,1309.3574,2725.0115,-1105.4592,1064.5748,-422.27344,-466.87848,3980.30029296875
130,-171.95978,1986.5648,-1553.4711,623.02875,835.6023,-250.31299,3605.13330078125
131,1061.6423,2257.5205,2312.1792,707.8936,-1283.5242,-482.16516,2939.65478515625
132,967.7769,1683.653,-3209.5022,329.72147,233.5358,-92.693825,4633.36767578125
133,1813.1036,2868.497,813.2327,476.6847,-271.3868,779.45197,2427.78247070313
134,1808.5547,2895.386,594.3505,184.48831,136.49179,-106.975914,2041.43530273438
135,2064.948,2371.7659,-410.7269,565.2865,285.7807,-1576.5076,3955.05639648438
136,1439.1031,2132.814,-961.0277,367.2776,337.07193,422.01678,3030.95458984375
137,-1074.2036,3123.7905,-6017.3433,-2180.6812,3781.7563,-3743.3228,12728.61328125
138,-2769.1416,156.22026,-820.9987,1200.9921,1148.4922,91.67762,3868.2607421875
139,-8044.828,1502.6733,4848.7183,1611.6971,5048.7046,2218.098,15274.7509765625
140,-5642.373,1349.5442,6710.169,-1788.1077,7053.9375,-1854.9792,16860.99609375
141,1267.6576,2910.4062,-367.84628,-285.06165,111.60742,188.16502,2906.47314453125
142,926.01263,2167.9795,-822.49835,-332.34906,150.27623,-37.31841,2678.55541992188
143,717.7303,2483.964,-534.7463,1527.0352,1040.4415,-885.4767,4415.3955078125
144,1604.7216,1739.8158,-632.3638,1333.637,-500.7565,-82.88985,3381.3701171875
145,1072.548,1659.3699,-1942.9089,727.7655,156.32681,195.44006,3603.29125976563
146,1907.0961,2154.454,460.09558,499.37918,104.315704,102.50293,1823.52075195313
147,2189.3457,1811.7692,-1872.219,915.278,591.1209,-211.25049,4335.97412109375
148,2035.9574,1616.37,2203.7761,730.2251,-243.0004,507.09918,1680.15295410156
149,1708.4573,1652.8356,537.2604,1064.2089,-491.3242,220.49406,2361.63598632813
150,-5979.9106,-3330.6558,12428.347,-932.8116,7802.0615,3606.2358,22833.22265625
151,-3078.5925,631.423,1655.8716,-115.8092,-900.2216,-2327.9644,6110.98291015625
152,414.4512,4052.6638,3337.9558,1720.1885,297.92175,3471.3916,7512.8046875
153,-747.48956,3223.486,-123.28073,163.0372,938.57245,352.43497,4095.69213867188
154,200.07806,1470.1263,-104.71067,1740.9552,-144.88255,61.53504,3355.61059570313
155,1694.2859,3453.0557,470.6601,2388.9216,-203.7721,245.58133,4916.1923828125
156,2822.9473,3677.1216,-2295.9998,384.8395,499.73126,-323.19342,5728.2255859375
157,999.68176,3878.1213,1597.3472,498.64325,-234.48389,583.0575,2975.40356445313
158,2087.7803,3116.6582,-4737.5435,-490.27545,555.50745,183.45343,7510.9189453125
159,2709.4482,4154.3555,-1315.8419,-550.7728,206.51814,-76.80386,5016.232421875
160,1398.0698,3201.003,870.4164,-1170.7639,-50.34363,-213.01447,2955.68994140625
161,1632.0769,2523.3438,-26.917183,677.0824,-485.4433,-371.32733,2742.47387695313
162,1710.7108,2371.4653,841.3229,1068.5146,494.99103,-767.19476,2773.6015625
163,908.8566,1980.0961,1289.855,497.99014,139.8883,-681.7601,1755.46362304688
164,1098.4966,1655.1798,-699.50494,-36.73044,-89.984604,883.0417,2628.92553710938
165,-1400.5549,3429.9102,-4326.09,-136.5178,203.42918,-290.35837,6815.9248046875
166,-510.2537,3388.8235,1697.0033,454.17923,1690.1804,1437.3605,5182.2294921875
167,2691.541,1514.2766,1510.4055,60.673733,-390.49115,1097.823,2339.7998046875
168,2091.37,1995.6244,277.63528,1831.9431,305.4888,-147.45607,3679.45532226563
169,887.15765,2288.5774,3439.2852,-566.29004,-379.01392,37.153713,2509.5576171875
170,1507.2904,2759.93,1912.8843,-1407.4507,130.45125,1396.2434,3614.94677734375
171,1014.4323,1725.6576,-1741.8851,-648.3274,568.7183,-687.8591,3703.275390625
172,-2036.1537,1101.1804,-8214.46,-1525.698,1341.8433,-690.0305,9011.7177734375
173,-1226.7823,2231.823,-2065.8704,2257.0771,-1244.9327,1056.1189,6232.73779296875
174,1126.256,1785.3994,908.49567,872.2922,22.336025,-47.009766,1707.69787597656
175,1743.9615,3263.6882,-5.9174232,-521.76843,-170.31958,432.93872,3081.7275390625
176,2108.8691,1206.2994,312.6751,972.8321,-84.230156,0.4827018,2297.87866210938
177,-2609.4783,-2831.0906,2155.0645,-1373.2457,-2286.0122,-2122.6233,7658.81298828125
178,1419.2454,3372.907,8262.005,401.86105,-1143.3633,-633.2358,6548.35791015625
179,2967.738,2272.7349,1137.0806,559.12134,107.14433,1.8201694,1879.97961425781
180,1354.6024,2232.0786,466.92157,-140.9904,-356.77197,50.846607,1669.16455078125
181,1882.6606,1449.2878,-1899.1042,1133.4003,-157.67444,-392.7449,4152.3203125
182,1590.1439,1568.594,-2190.7732,-867.2889,250.03804,126.90705,4087.390625
183,1079.8013,3222.233,-402.77637,945.798,174.9029,406.28836,3637.98779296875
184,-6281.9463,3136.5825,11.459024,-2258.19,-2046.9559,-3078.8813,11195.8876953125
185,-2010.5225,-4768.7065,76.6435,-3389.6162,2077.6921,2921.8218,9526.314453125
186,825.18225,-1053.9739,-238.58115,1502.7045,-560.51984,-291.60153,3261.2646484375
187,1498.5387,-1859.8477,-523.1098,1026.7495,345.78864,-27.8381,3478.5087890625
188,-327.2698,3619.192,1447.0197,-244.56163,-786.1822,-140.74266,3716.66552734375
189,2599.8132,-1637.798,336.45706,2641.4702,416.68344,-1264.4683,6303.84912109375
190,547.2773,-1347.7773,-1435.0468,1138.5688,748.30475,-438.07248,3147.83227539063
191,381.9199,-2412.5615,595.4037,2096.7612,413.6324,-135.21107,4712.6025390625
192,2771.429,-1185.6154,1603.8445,-194.1183,-684.5117,-232.83362,3752.68139648438
193,1382.5405,-2828.8877,-3902.8625,833.0539,277.1038,332.9655,5104.64599609375
194,1563.5533,-1007.3314,2358.1858,667.8831,82.596085,-258.72388,3292.91381835938
195,3338.0847,-169.07489,2439.6194,1270.3706,-524.7671,-238.20305,3974.19604492188
196,921.9988,1096.5032,5219.6753,1296.0304,107.63633,-985.54047,5073.28515625
197,1604.5555,-2202.845,2057.8706,1048.7882,132.24739,-313.45224,4480.49560546875
198,-48.492477,-3220.827,-8183.7983,206.3918,351.40826,867.6556,7293.54052734375
199,1315.0011,-1770.1055,-7675.6016,316.42365,88.8394,-21.712805,7933.30419921875
200,2412.415,-857.0057,-367.9885,573.0398,-174.37378,291.22806,3265.00073242188
201,1425.2773,-1396.5684,1341.9861,-542.13745,-268.09125,64.46355,2973.97705078125
202,1758.2231,-2014.838,1429.804,-509.01465,-69.12028,113.94501,3732.99829101563
203,601.27893,-1996.159,-73.12928,-1624.1923,100.76053,120.91679,3665.80126953125
204,1771.6497,-1910.9432,-2533.3008,-709.47186,-45.614456,-34.940094,4214.34033203125
205,642.3204,-2327.811,-62.53181,-2241.9626,-202.24388,-21.575165,4735.8515625
206,859.17377,-3890.593,-1966.1768,-1488.7225,74.676445,77.58555,4879.2216796875
207,998.76227,-2483.506,1663.0514,-2683.6494,314.151,-195.56519,6074.326171875
208,1885.0668,-4225.4873,-1243.6912,-2595.706,134.18723,661.83624,7042.06787109375
209,3990.224,-3181.071,2334.3953,-2342.22,-1302.2921,478.01495,8032.81884765625
210,935.23627,-3494.1897,1289.6035,-1863.0243,-1551.818,-114.0608,6244.2822265625
211,3006.9758,-4442.6094,4376.1416,-2594.5952,-2726.8855,1801.6075,10945.84375
212,-6411.5083,-5154.6655,-1082.824,-5720.8726,1367.8875,131.58015,11275.08984375
213,-2101.4521,2269.4495,-2123.9832,-2214.33,-5496.4443,-4412.741,13526.384765625
214,-3687.5361,1313.4379,-2190.6477,-363.835,-6220.0327,-4201.721,13754.6884765625
215,-3660.6372,1650.053,-1264.5574,-895.2178,-149.76492,-216.45383,4881.79052734375
216,-2272.6143,1983.048,1085.7833,-526.9052,-52.779842,114.71927,3997.25122070313
217,-2400.7551,2277.6702,-172.12143,-955.4589,211.49103,321.74725,4428.4794921875
218,-1758.8805,1698.7828,-2220.8052,-165.11992,-173.91266,18.082632,3733.56396484375
219,-2484.7925,2648.4138,-1648.0255,-269.08057,359.4585,184.92725,4843.7724609375
220,-1532.4442,2397.1118,-127.58784,81.778496,87.732025,-73.63906,3457.45434570313
221,-1495.6697,2081.8599,891.23663,-469.20227,-141.7015,-29.700306,3268.04956054688
222,-1197.6534,2463.6643,-108.94583,28.19758,134.5676,191.00636,3281.85766601563
223,-890.4287,2424.7627,-367.94727,-150.29608,293.31653,-53.033344,3140.96533203125
224,-79.53124,2043.1,646.9754,-197.42007,292.26074,465.26328,2124.5830078125
225,-623.17096,1442.977,39.1485,33.498535,-91.23457,200.87723,1867.77319335938
226,238.9371,623.3564,-1183.0131,621.59033,-227.15276,-436.40903,2145.13940429688
227,48.367046,1737.0549,-576.47046,297.22476,-40.63994,26.109377,2137.58544921875
228,292.78094,242.38089,538.10596,1123.0128,65.49265,-171.55632,1989.90576171875
229,509.0405,2178.0466,772.86237,1491.3707,138.14774,-293.59827,3066.47631835938
230,-362.05942,456.74646,1574.5101,1875.8503,-165.19742,-804.96387,3926.48510742188
231,386.90378,-222.10965,1411.5327,1783.7224,689.5532,44.903736,3608.638671875
232,1426.0573,-2035.6377,308.32687,959.0674,-137.91226,-100.97325,3494.35083007813
233,1288.46,-718.089,-799.87866,1431.2744,-170.49667,16.910631,3229.66674804688
234,1584.2267,-1338.2501,161.20184,1392.2915,84.05392,-155.51884,3509.45776367188
235,857.10114,-647.9187,574.97064,979.6897,15.39544,-30.144655,2191.54809570313
236,1784.617,-730.813,1063.3748,240.62495,476.1896,-20.481625,2426.63818359375
237,1474.6305,646.8855,1360.5623,-305.51044,-1056.0815,313.913,2127.27807617188
238,1165.4462,-959.6935,-1116.2856,846.63275,-148.8626,-393.12714,2748.45556640625
239,496.35086,1136.2134,-369.3358,1940.2147,98.79498,121.675026,3616.59423828125
240,1610.2092,1417.1814,-2.9370437,1557.7631,358.335,545.3608,3299.3125
241,51.018692,-904.67523,512.40955,1223.0204,-11.99625,84.3297,2465.01196289063
242,657.3007,-542.8415,405.40012,732.92236,58.95456,-551.4945,1932.83972167969
243,1090.7545,745.8024,-994.2855,-631.55096,280.57297,35.57876,2276.76879882813
244,-897.8687,-261.7271,-266.27747,1123.1788,224.53929,47.995525,2084.36059570313
245,2987.4924,2125.3674,515.4886,-685.36884,244.23651,-28.577538,2512.66430664063
246,1119.3806,2300.8364,1541.4181,-263.62827,-29.656872,10.727297,1134.38012695313
247,-318.13663,1215.2247,-1217.788,-497.24744,-537.0126,-129.68385,2489.46313476563
248,664.39343,1947.0737,5364.0024,-99.363396,927.46277,999.4585,4828.087890625
249,990.4307,1009.95715,-130.2569,-1925.6917,574.19867,-231.63057,3681.458984375
250,640.00824,980.0537,-3795.8613,-797.854,-1213.9155,442.21274,5312.07177734375
251,580.8427,170.89828,2020.7004,-2537.1663,-167.9239,257.65866,4735.705078125
252,321.41953,637.9602,-2340.2905,-2011.3654,-1402.9697,1600.2333,5809.59716796875
253,931.82886,184.36464,-2862.7388,-1084.0238,-1100.946,1256.8241,4901.1767578125
254,1319.7225,-1061.5911,-1074.5013,-2406.4976,306.8345,-1313.0873,5341.37548828125
255,-242.98538,-1787.341,1304.618,-1397.0828,2335.0586,-439.61426,5473.84326171875
256,-3977.2883,-5913.961,-3743.187,2511.347,-1728.0822,425.78928,5716.83154296875
257,2308.1567,4339.2314,5723.2866,698.83716,-1763.2694,1330.7622,4995.7236328125
258,-864.39484,-1386.4906,-15522.409,-2229.645,-3449.1926,949.48956,16148.8818359375
259,2445.6318,2228.8018,6793.179,-1265.8798,1571.0332,-1946.2532,6592.90185546875
260,-3090.9893,6050.1416,3843.6526,1305.8134,-4560.202,5720.5884,15294.9736328125
261,-442.06003,984.13617,-3373.4004,1624.2006,1335.9169,-557.98785,5386.0576171875
262,-3137.8728,2252.15,1641.3928,1221.6185,6127.6387,-2361.657,12648.580078125
263,-10258.977,-3876.0383,-12165.761,-1930.0798,-3004.6377,5023.9526,13058.640625
264,-5245.998,-3964.2185,-1915.1279,1009.13165,490.51776,-2262.1455,5253.283203125
265,3782.504,-1114.8296,10933.189,1011.0645,2032.9115,545.0751,11246.8544921875
266,-4736.8623,-416.81204,-2336.1665,845.5403,157.6134,-2684.5764,6155.9111328125
267,-3694.3691,2498.9993,-3926.9998,112.97593,264.94568,-46.915024,6333.10205078125
268,-3672.9966,325.96674,506.10144,238.8458,138.9855,-283.43918,4149.0498046875
269,-3306.876,288.98422,257.90396,1809.5219,-150.72662,-558.466,4862.74951171875
270,-2043.0995,4471.6655,106.98254,836.76605,-9.865126,-562.2668,6008.90966796875
271,-1829.5789,2439.719,1689.7128,2813.1345,92.860085,224.70999,6285.37548828125
272,-3470.1082,433.6378,1189.497,1495.0066,-119.341354,-247.43828,5068.80419921875
273,-7229.0845,116.98252,-971.4196,646.5358,-882.9134,150.07123,7128.396484375
274,-1258.5702,-476.83142,334.34982,2904.6562,-1464.1829,1529.1432,6376.57275390625
275,1834.3939,-2487.6658,-1589.9154,1859.5001,314.7314,296.9443,5151.79052734375
276,455.02902,-2303.0288,1529.9906,-1335.517,79.25963,-18.544601,4134.9638671875
277,-2321.353,5461.207,3854.5115,-1328.0087,474.57623,773.40356,7642.41162109375
278,-2629.968,2467.1023,657.58307,1002.51086,-203.31505,-42.448555,4814.11865234375
279,1644.576,-834.56177,-52.10933,1388.6855,-81.48037,117.344025,3265.7490234375
280,953.66003,-1233.6309,320.00464,486.5318,42.757183,235.455,2163.72680664063
281,-67.05604,-28.172829,-2370.0615,-453.80362,-398.07437,-1127.6675,3209.82861328125
282,-128.78845,2155.06,1127.8998,-216.48468,174.23962,23.616858,2039.23828125
283,558.3855,1360.1156,2474.918,710.23645,480.6372,-53.083965,2234.75366210938
284,1465.3975,-1754.6702,622.66394,1785.8961,-249.03287,-180.68784,4268.21337890625
285,-352.15445,-2311.321,1401.11,1146.2455,-474.32883,-123.98646,3874.26440429688
286,1189.8207,-3447.684,-2024.821,-776.24365,1265.2826,23.460445,4852.27685546875
287,1589.3932,-836.7428,2764.4893,-661.51465,-41.072563,-153.91666,3392.17724609375
288,2489.1292,-835.3773,1383.3126,329.7157,-41.4771,-301.96735,3033.76513671875
289,951.4382,-693.88837,-119.90463,-514.7912,-422.90677,102.04926,1858.76000976563
290,2125.3972,-277.06885,-3337.1064,-574.7882,-100.32807,-352.73392,4886.91259765625
291,1099.1058,-1296.8994,4425.9824,-378.495,-12.04847,69.72035,5022.4453125
292,1216.9349,-272.14767,-958.7573,1754.7206,-125.250595,188.73592,3619.70678710938
293,337.7357,1029.1487,14.344887,-168.86462,127.975334,375.03967,1167.42163085938
294,1542.2944,2029.1367,668.8658,-151.96133,112.63973,70.58128,1243.94543457031
295,1231.3936,1146.8486,-1241.1865,-3.344372,-27.286861,-193.49138,2454.8603515625
296,-5553.143,-154.70158,972.2847,-1845.0023,9095.014,3650.2163,18298.6171875
297,-1037.9492,2049.5144,1098.0012,-1007.38806,-243.20859,-556.37115,3413.30297851563
298,-2473.8508,2030.634,-77.60938,393.46887,428.58276,178.40485,4043.45288085938
299,-1459.9852,2142.6804,-1321.8683,275.1108,-145.62592,-175.90128,3589.455078125
300,1133.2535,-55.373474,1193.3687,1076.2023,327.3063,81.05507,2302.96215820313
301,-7638.4927,6094.5737,-1054.3954,2297.541,-298.0453,3115.8557,13665.8642578125
302,-2594.3237,4766.638,6180.1265,-321.49042,-330.50552,857.6251,8332.5068359375
303,-3402.1763,2655.5408,-2001.0651,1483.503,641.00653,847.4077,6337.2568359375
304,-4182.99,2626.5176,-3114.7268,715.9446,355.87466,386.41074,6527.0087890625
305,-2932.2896,1184.7534,91.9031,2034.3457,-322.16797,-402.3761,5182.45458984375
306,-5154.3374,-2768.4968,-1165.5764,-1162.522,-599.1202,-893.5077,4428.56396484375
307,2060.8252,2915.1028,7247.0767,1186.3606,1138.8403,-125.7142,5599.744140625
308,-2028.55,-2608.9336,2889.7468,-695.193,-3610.8208,2605.5195,9397.4013671875
309,-4544.6694,-327.18546,-1281.2792,-2860.9897,29.561861,401.87616,6302.10400390625
310,-7241.5845,-2151.3884,-3790.627,-1880.6083,1115.3774,-3703.877,8703.53515625
311,-1673.3717,2087.8525,1973.949,-939.72766,-360.12766,-296.21313,4127.09716796875
312,-2415.1826,-952.67847,1869.3522,1297.4762,-35.944504,-725.02515,4567.40625
313,-800.0742,-282.53455,-322.92136,2187.6863,47.905697,-544.18616,3937.2314453125
314,1090.5094,-1881.842,109.88438,1364.4095,-191.95564,1500.713,4396.99169921875
315,554.3755,-2680.3862,-1027.0311,1080.0181,25.306639,372.29773,3430.17651367188
316,1207.2897,-2387.0142,-815.6561,1052.8745,-154.29758,191.7662,3639.72900390625
317,589.0276,-2127.7354,-1354.0896,1030.4695,79.457756,-86.435875,3017.36181640625
318,137.8172,-1577.4568,514.8274,-489.49033,54.292454,16.10793,2111.7294921875
319,-467.4004,-4214.319,1056.1681,-1940.1244,-119.20994,-1691.5431,6479.82861328125
320,2861.1326,-2295.452,-513.3273,-1132.3466,306.40918,513.62366,5049.39306640625
321,1635.3887,-3272.4453,-2827.987,1602.2255,883.2677,-925.4906,5891.90234375
322,-11069.0205,-21773.066,-1356.1638,5612.4004,2882.964,-1458.1205,20944.998046875
323,-4644.592,2476.3765,1643.3821,-2736.9255,3065.4556,2163.0054,10496.1640625
324,-4007.9365,2427.5688,875.2973,-978.0617,-315.2269,1514.0149,6624.21826171875
325,-2595.7485,1726.295,-680.70233,-300.36984,-262.51068,-286.6737,3846.36157226563
326,2709.9048,110.69508,1748.2216,1451.5204,556.4031,746.5656,3755.35327148438
327,1525.116,-287.95398,-332.88525,582.8733,-315.19113,-214.33478,2196.7666015625
328,2530.428,500.18765,-1303.5046,875.79285,-118.40853,-320.7828,3699.85375976563
329,298.42172,81.789276,-244.217,946.8697,-899.9101,-48.62225,2313.0341796875
330,1558.0619,1590.187,759.20074,432.97092,48.78932,196.26106,1161.87890625
331,1192.7932,1520.5411,-1228.7847,219.22737,51.362698,732.1036,2919.78564453125
332,2143.7805,-64.46531,1306.0801,-1636.865,1003.20306,-7.1784797,3845.20849609375
333,3389.9585,476.1312,4110.146,-3381.2385,1224.2205,600.82513,7140.37841796875
334,-2078.809,1984.7152,4385.4043,-4260.572,1736.6974,-683.19415,9845.650390625
335,376.17532,887.06793,-6940.2686,2984.6396,-11223.578,-6895.662,24592.888671875
336,-4041.727,1344.17,-839.50183,-1555.8105,-351.09805,1194.8698,5824.93505859375
337,-1488.6998,-372.13593,5756.545,2643.475,-518.537,-1999.7756,8911.697265625
338,442.19403,1776.9852,1812.0972,6.7416925,-76.97456,-81.319565,1366.57153320313
339,-2685.1716,1678.7462,-4516.146,799.9935,-732.6506,305.28955,5847.7666015625
340,-289.8045,-442.30753,277.10474,1607.6993,208.16377,629.2347,3082.69287109375
341,256.19095,91.75934,-2159.9824,1510.5271,-216.21977,213.73796,3548.2412109375
342,-981.11273,642.8832,-480.52386,1351.7073,557.5921,569.6021,3076.10180664063
343,2144.5544,-2705.1206,-1129.903,-1924.4463,-84.435936,-39.980644,5431.20849609375
344,1753.1737,-1832.4951,706.18896,1053.783,-111.403015,82.44796,3686.19848632813
345,-2433.2085,967.47925,-1468.0824,990.8168,-1299.9677,129.4434,4156.828125
346,-1069.7333,1248.6582,-394.77774,904.9517,-149.8586,-74.49989,2608.9326171875
347,855.66376,-357.90958,53.01195,1131.3545,-334.8347,-69.11917,2309.4365234375
348,-2584.1702,-1421.9086,-248.30367,2225.7285,336.45767,-1304.8679,4939.78662109375
349,-6355.2065,-4043.4485,-3606.4822,1488.517,1970.3763,2694.3506,6827.74462890625
350,-1611.5546,-1964.2206,850.71423,-2443.098,449.29636,1428.8391,5629.5673828125
351,-1162.2755,1999.7045,-1628.9457,530.3993,-295.77795,-156.87646,3587.72290039063
352,544.718,-783.5084,-620.9012,1212.3308,-10.448317,-183.68056,2466.86596679688
353,-2610.946,561.469,-3815.3135,2122.368,566.0799,1389.5199,5966.7783203125
354,-2673.94,1550.663,569.0927,1990.9689,-60.490604,108.768776,5157.74609375
355,-2267.205,1274.7144,2677.6428,1645.0588,604.26495,-341.4055,5389.45263671875
356,-2503.9788,-2393.97,-5877.062,2637.3374,-817.8874,928.3842,6100.8212890625
357,-1471.5354,-798.7444,1666.947,1894.1135,344.8975,94.56941,4397.484375
358,1865.5691,-478.58954,811.9424,877.56964,239.70877,29.143581,2573.0634765625
359,2767.559,1606.1453,526.07983,-116.40269,-118.656204,-88.45008,1968.80236816406
360,291.76932,-2293.7769,275.98312,-405.7818,-3107.7705,-229.65935,6022.57470703125
361,1108.0369,-177.51749,-145.75276,-693.3948,-9.409095,-152.99808,1767.96594238281
362,-950.68964,-156.6464,464.16684,-79.13167,-99.339676,-2.3915162,1247.90783691406
363,-388.98846,2054.5662,-6.542797,-706.4143,-38.93456,-78.15489,2588.9443359375
364,-353.87192,-363.43478,282.0088,291.93567,309.4974,-54.89478,981.122863769531
365,-864.1556,-585.62915,-1121.8701,-1616.8868,-344.65463,-139.9678,2910.99243164063
366,349.79462,-3007.9683,-1875.7709,-429.08383,-119.33366,34.63739,3058.34130859375
367,761.56793,-2767.1226,-733.8171,1185.0444,-281.84793,47.396557,3724.12744140625
368,594.9862,-2209.6191,-330.95135,1098.5753,398.98224,9.361686,3197.60986328125
369,1383.5365,-2212.0618,2057.1619,721.03265,-89.13729,-58.550713,4171.08740234375
370,-257.76932,-114.28417,785.20154,251.48999,-132.06442,80.47904,1104.63598632813
371,-1769.4705,1486.7086,-256.5317,492.68954,32.354973,105.973656,2954.71606445313
372,-514.7502,-1438.3724,-157.97389,1198.7361,-7.740043,-51.618275,2372.54541015625
373,-1152.8955,-2451.596,-275.44907,-633.2008,1.8068614,69.952484,2193.99072265625
374,-302.66147,0.9139326,-304.9508,-129.58415,-21.301281,-200.80609,515.329895019531
375,-988.77515,1084.4498,-230.47018,1143.3788,150.54768,276.88593,2742.46020507813
376,-1027.1672,-407.42078,-485.81165,187.11693,23.639057,-182.6928,740.603088378906
377,2251.8235,1570.1537,-602.3377,94.053375,-74.326294,91.40186,2594.89672851563
378,-924.4531,-5137.7163,464.0435,-1285.893,3200.4866,517.54553,7875.47314453125
379,-1851.4354,-1433.9983,410.7709,1169.7743,-546.6297,15.789085,3057.74047851563
380,1644.3511,-1193.504,239.86728,596.375,-106.42058,50.965626,2673.767578125
381,889.55286,-741.77405,-540.77295,957.6526,178.77592,52.033924,2286.70751953125
382,1810.3591,-749.13983,1097.9216,626.93286,-519.0102,-57.61025,2689.29833984375
383,-197.90364,713.69385,571.64166,938.0321,12.344761,-100.273796,1841.74609375
384,3.9272797,-1078.6769,-467.4049,632.96625,5.232642,19.779802,1444.68481445313
385,-731.0231,149.98138,-692.18896,936.94476,33.077316,9.227141,1838.64025878906
386,-452.48944,1043.7029,-175.0019,-863.503,-12.346205,57.49818,2036.59130859375
387,-1062.035,646.33374,-275.27423,-1310.9148,227.52022,173.89836,2755.89379882813
388,-171.39406,-1784.8748,-195.47748,-1369.6028,-471.26205,-318.16647,3026.95092773438
389,762.59735,-477.66562,180.69739,-1307.3356,247.77567,222.65578,2572.048828125
390,-2260.8965,134.4783,-309.90308,-922.7094,3.2026916,46.145775,2726.06518554688
391,731.6541,-2357.5984,-291.0808,-900.59985,70.6128,-58.626835,3144.59716796875
392,279.19034,-1628.7552,2467.0576,506.70102,-235.5838,-98.38992,3683.3583984375
393,1350.1375,-2470.0732,23.438074,538.6193,189.93863,47.246387,3503.01708984375
394,-491.71176,1775.8397,-300.89178,-252.31772,-64.945076,89.96895,2230.12060546875
395,-737.2601,-1146.0845,829.28,323.74237,165.18564,85.61516,1918.30688476563
396,190.55014,-76.74688,-134.78444,1255.1992,34.536335,70.621315,2198.96459960938
397,861.92505,839.5501,806.18164,-632.4208,466.02008,41.28899,1363.40283203125
398,495.0793,-3537.2327,428.7431,1756.3501,163.70178,157.32411,5040.376953125
399,1324.5138,-1954.9945,-288.18356,1469.9397,345.7029,-48.266212,3861.96875
400,-1472.0946,1029.5574,224.76212,-180.6607,191.07288,147.10313,2272.66357421875
401,-611.93146,535.76373,-1529.6083,428.67896,-95.14023,-63.528954,1950.15600585938
402,-1010.08136,983.18805,1064.5691,292.24582,-41.399548,-170.61803,2119.11694335938
403,891.7522,-1135.5547,121.66069,-203.2652,-44.629868,40.8974,1810.17834472656
404,362.12555,-99.17535,-236.44661,116.17712,-196.92613,87.481636,689.024963378906
405,581.3622,-421.78342,915.2797,-107.55169,17.05505,-2.387381,1219.98425292969
406,-654.9881,-2025.4792,160.17496,-2972.073,-61.501877,140.00555,5498.15576171875
407,-427.73206,-1330.681,1129.0161,-311.4131,-5.036058,104.77696,2228.98876953125
408,-547.97314,-65.175964,564.03375,-1259.8971,-131.24953,-267.0504,2441.39892578125
409,-411.98642,-12.077671,-1091.9856,-886.1433,-115.48072,-94.87817,1821.27062988281
410,806.91394,247.64441,836.7835,207.45891,216.70093,-76.26003,786.016540527344
411,1576.9233,1768.938,227.43227,-1706.5581,-379.99515,428.77887,3440.767578125
412,152.28125,-565.1504,-24.94112,-1081.0245,578.3563,56.3493,2222.1220703125
413,-2241.3435,244.46822,-591.5925,-2224.1235,-71.22571,-178.3173,4444.18212890625
414,496.01483,-1497.8955,-651.6679,410.6149,152.58418,-60.849895,1895.05822753906
415,-1058.8489,-752.82263,333.53027,1074.9987,-275.456,182.31876,2323.89379882813
416,936.9773,-663.01746,-699.22253,396.90735,173.84418,-68.07265,1787.84655761719
417,896.6892,-330.48203,814.4568,796.5524,-167.85252,16.57965,1844.08068847656
418,144.45898,477.37378,402.1767,-722.5619,269.81305,381.50302,1520.77954101563
419,-691.46967,-1319.7651,-946.46906,74.72365,-80.37905,-15.762352,580.037536621094
420,832.0322,291.55322,1019.28436,58.31236,106.27691,39.633324,690.785400390625
421,-1470.7958,-14.513657,-549.3187,-903.5118,423.50504,-411.03702,2263.1552734375
422,272.75623,-238.95956,-1271.1278,-867.9709,-8.029055,14.49165,2028.87780761719
423,-475.6503,-379.69104,-1073.5663,1227.6571,-244.59761,-224.98097,2297.13891601563
424,-109.92367,383.8888,-124.17362,2.0707605,56.48561,113.99178,547.410034179688
425,6.2562656,-64.57171,-526.2628,314.50183,-110.280075,-37.82222,767.063781738281
426,-1578.7094,-19.974407,-945.9516,589.32935,-361.35217,-67.09943,1814.08264160156
427,1172.5643,-736.93835,175.48051,-941.934,-74.00492,-39.860435,2327.95141601563
428,111.89967,-425.1604,-557.0567,1316.2463,102.3572,-65.379166,2370.32348632813
429,88.08354,1076.6493,407.89642,-173.51627,148.61836,-46.91509,962.587890625
430,-359.14658,-199.78117,-166.85234,290.52087,246.37012,199.88222,766.08740234375
431,271.79315,-327.6585,-887.2468,-512.6812,156.44081,-188.10037,1405.70983886719
432,148.04927,-2808.5671,-642.5732,715.99927,148.04282,-57.966953,2939.87963867188
433,858.19354,505.41574,150.55481,-253.18713,44.768314,83.52184,771.243835449219
434,1226.1052,-2073.5205,-915.28644,-500.41418,83.20539,5.5848074,3029.75317382813
435,532.97125,278.7338,-203.869,-35.235065,-40.90655,-94.38712,675.062377929688
436,-1337.2582,-1505.721,564.16394,-1187.5171,353.15402,118.694016,2934.4697265625
437,-2633.7185,-4354.2954,-1994.8301,988.6509,-935.49457,-625.4611,3346.515625
438,-79.0316,-883.9373,456.1793,-108.62473,-54.004555,-6.443841,1187.17749023438
439,4238.3696,-451.72214,146.04155,-700.90765,-951.49524,-170.76039,4881.39697265625
440,-1306.8198,2185.86,1041.6656,1392.488,-26.148632,-55.368225,3916.63208007813
441,1048.4069,-365.4697,418.73105,657.0864,-42.248726,14.32687,1675.26501464844
442,-180.9727,-1499.7218,208.23001,-1718.8369,-76.07432,82.13484,3362.2373046875
443,76.26361,-548.45483,105.16734,-211.2952,100.83408,-120.18883,785.455810546875
444,172.20583,-1481.9885,208.7697,-647.3495,196.19083,157.32346,2060.36108398438
445,-1262.9845,-2114.5852,-46.597702,-1198.6194,-55.553005,98.95753,2754.88623046875
446,462.37585,53.11555,266.69952,-385.95807,-335.05402,352.52423,1132.34057617188
447,-4452.723,-3245.6113,782.32166,492.0077,306.65225,122.139305,4857.63330078125
448,-936.7467,64.56383,-821.7028,1063.1925,-166.59717,134.41234,2104.5810546875
449,537.28937,351.82956,1188.39,538.6493,145.91768,-90.63058,1240.17224121094
450,-28.51628,-1358.8019,-25.19571,1279.693,7.7878814,-115.814476,2593.7138671875
451,-311.4889,89.870895,-353.8281,72.93956,-328.36685,-109.9402,745.366333007813
452,573.03375,794.8979,515.2948,-1014.5157,-127.110634,-162.34833,1811.25268554688
453,1602.907,-491.52747,1002.5139,1.1659532,22.362955,15.319576,1868.64990234375
454,-892.72205,-1412.0637,-649.893,449.59372,-55.94469,11.950383,1034.89831542969
455,188.3858,-887.30225,100.74853,55.652893,-27.1335,135.85318,1066.48181152344
456,539.6732,-353.04852,-679.92224,-80.06984,-83.56953,47.742767,1114.73278808594
457,-497.5409,698.01544,-1669.579,468.94324,-944.3152,-186.9652,2764.78759765625
458,1092.1783,-887.26447,-1464.481,123.14755,-4.0224833,89.11637,2337.37231445313
459,-420.34866,600.15546,-616.6894,-711.8947,72.75093,142.24733,1696.26293945313
460,-886.8915,-351.25238,-33.775635,-1049.7847,-229.21172,-67.31383,2008.75695800781
461,-1015.77985,-1900.5452,-2054.9924,200.48524,195.39723,84.546455,1095.390625
462,-1614.9266,-1467.8295,3847.3345,877.2478,-49.21067,18.392668,5601.02001953125
463,-1029.0454,-80.95967,406.02258,-1910.0034,493.55875,133.94063,3650.57250976563
464,716.4536,803.61487,791.7004,163.86903,183.791,78.5646,455.09814453125
465,-1166.6095,-495.91293,-748.003,386.27704,-123.20498,-58.421204,920.714233398438
466,-939.91125,-105.58231,246.2528,517.19666,309.56366,-9.368099,1484.47583007813
467,-510.92743,-521.0826,-355.17313,55.902557,-297.07217,216.83218,664.171447753906
468,-1041.8822,-424.39825,-82.50481,-71.45672,-1794.8851,53.207653,3224.58374023438
469,-569.33124,-634.26,-112.71219,-188.65204,20.844763,56.143696,599.910827636719
470,-579.21545,403.27292,651.78186,1813.1342,-23.342995,98.231476,3341.279296875
471,-1858.5215,-2303.4133,-275.48224,698.579,-187.36758,-20.046255,2231.3193359375
472,-69.09393,359.20166,273.21252,481.10416,27.489891,-19.537449,922.92919921875
473,554.2973,4452.8486,-70.87653,-728.0187,467.11102,-332.2944,4539.0185546875
474,-15.532201,287.1893,14.143194,-558.1387,-325.48715,-164.64207,1190.47912597656
475,780.47485,38.156975,856.5718,-315.1232,128.95073,5.557973,980.408142089844
476,846.68115,-938.2077,-248.71413,-220.41425,2531.7024,-245.42722,4688.87646484375
477,698.5216,375.2202,326.36096,-470.14194,-184.2282,16.045605,942.5498046875
478,580.7374,4386.372,1040.8812,-603.1086,-143.15433,-159.4527,3764.6279296875
479,2728.4558,4388.933,-503.90573,784.28564,42.068,141.59421,4525.8564453125
480,3199.1091,-889.72406,1084.8639,-1115.054,-76.076965,-64.59603,4037.78540039063
481,2701.9172,-1546.8601,714.8879,-1030.0845,125.300674,-115.32771,4102.2158203125
482,-728.2593,1347.3813,623.38086,1141.2777,306.51175,262.17252,2779.44091796875
483,-1811.334,-2569.191,-557.30914,1558.8665,-283.6997,-73.60552,3262.6982421875
484,181.25371,-672.3176,-446.50735,-78.03857,-104.09963,8.603408,798.643493652344
485,-3782.017,-3438.3,-377.3029,425.94083,-16.786633,55.8367,3330.83129882813
486,857.7177,469.55728,-421.12653,-1207.0782,787.6153,-132.91397,2752.24267578125
487,554.4229,20.084091,103.967384,-134.0737,-146.35486,-9.910525,605.155700683594
488,-393.36746,-536.4376,-983.8107,-1421.1174,-102.253586,-102.396736,2531.0400390625
489,-3986.9526,-2974.3716,-517.469,-1120.3574,50.78929,32.066803,3650.4697265625
490,-5749.457,-3062.7068,-1582.9082,-19.647478,-92.95702,213.05328,3680.69775390625
491,-137.85681,-178.26706,-627.4806,900.3814,49.116417,68.00517,1635.46630859375
492,1181.418,-1795.4952,1110.0063,474.56677,-38.345276,-23.385332,3055.5224609375
493,-119.450226,-2674.3171,-226.86417,-773.1851,-100.8386,-282.35507,2885.75439453125
494,-362.0924,349.34784,-332.97516,-447.43387,-48.26391,2.1935024,1045.88415527344
495,-654.5326,-958.7678,-692.7349,405.22662,-375.31836,35.89894,1000.73956298828
496,2030.6742,-1356.1515,918.4049,49.264927,404.08734,60.50512,3073.88891601563
497,1713.6029,1406.1002,-901.0847,721.02423,-7.6889415,-48.576897,2773.80810546875
498,-293.4381,-988.6422,127.09477,-442.4834,9.843324,-296.85773,1343.33605957031
499,1415.9918,922.4147,1542.9867,907.23834,-84.26808,176.03444,1704.68176269531
500,-1718.1735,-2282.9026,897.42584,1884.6538,266.25226,14.800869,4416.61328125
501,-2827.482,1343.5597,-647.4263,1342.5555,-562.231,-14.309486,4406.06640625
502,-465.3098,-252.14424,-2485.3972,790.0796,-186.07523,135.88016,2566.85522460938
503,-3055.1343,1173.0088,1058.3234,1541.5107,390.38873,-242.39421,5016.740234375
504,121.523026,1402.6212,1602.3221,489.10822,-136.64308,-0.20955326,1646.39733886719
505,-254.14995,462.94562,1749.3375,-940.8186,273.63745,-2.7808132,2443.6796875
506,-7229.8833,-4182.4,1443.5883,-1574.4836,1381.5281,225.76381,8449.8388671875
507,-886.77167,1126.8242,824.4845,504.52286,-108.3958,-0.015290637,2082.32250976563
508,-960.4782,758.9808,-1053.3846,512.4665,99.488594,-148.66708,2002.19506835938
509,141.72523,1091.5306,1311.713,-209.02544,6.835922,-98.84653,1149.02917480469
510,-1781.9132,98.91434,260.97144,448.79587,63.752857,-89.20607,2123.416015625
511,-697.8483,1617.0707,0.62677974,-395.18997,26.12185,29.576471,2168.64038085938
512,-1424.2703,646.00006,595.4367,739.7901,124.903496,136.95448,2434.92016601563
513,-1755.1216,2298.9307,-2172.4128,-685.0475,26.994053,43.79942,4440.38330078125
514,850.42053,-735.44946,-85.02812,-65.31236,496.67407,23.968412,1631.29516601563
515,-4054.581,-3590.2856,-1690.6743,570.1524,-369.0937,248.54634,2505.05737304688
516,914.6421,-1183.7614,-347.79504,-155.81595,-104.348076,72.12894,1862.53894042969
517,-71.16252,-354.8684,2296.8538,394.6022,144.44931,-226.75427,2654.01440429688
518,1551.8442,-131.64621,389.2923,-363.43002,-451.78995,-52.99187,1801.53637695313
519,201.89955,-222.62408,483.82007,-476.82004,386.00552,48.898563,1231.10827636719
520,-145.19943,3206.2244,1000.5897,426.6374,123.53276,78.5289,3052.07934570313
521,256.92523,-1216.5759,-574.8704,-898.5562,230.14088,109.948204,2062.71850585938
522,-2387.568,-2002.2616,-726.6467,-237.57787,-328.0797,70.19061,1665.58569335938
523,-1296.707,-546.6865,-440.7609,-824.56384,-445.50452,128.86908,1827.06286621094
524,-3232.7712,-1047.0494,235.48889,-583.42346,-450.4416,-42.19059,3295.5634765625
525,-4868.716,-3433.2317,-547.97595,620.6133,-3.7490602,-162.39937,3970.10083007813
526,-617.1892,615.72845,-164.477,0.30305222,21.099396,-164.31819,1117.68273925781
527,230.58621,1694.4646,931.2696,953.7027,8.915803,-134.58783,2095.56860351563
528,945.3813,565.51416,2465.7307,583.99457,56.29438,-118.47776,2026.83471679688
529,771.77155,-444.6229,1202.6284,1868.0597,198.59348,-213.18279,3593.45874023438
530,236.46732,-18.534174,-258.13544,1640.3163,136.39581,14.5182495,2883.03466796875
531,-2119.7505,-1887.3981,-392.59756,191.33784,112.91907,130.75334,1683.77819824219
532,-2138.14,-1392.1438,-1636.9915,-19.74072,-50.666054,62.985268,674.223083496094
533,359.47354,540.0734,-354.9713,-979.4302,177.96758,65.91751,1912.58447265625
534,212.58806,646.06213,1176.5487,-560.69257,-14.924737,145.01935,1306.19934082031
535,-4217.2505,4527.664,-584.6035,918.29376,104.070206,-134.76828,7779.4111328125
536,-1727.7848,2544.9265,1546.3694,2308.0537,19.352703,-28.120075,5565.20068359375
537,1049.8555,2764.1072,1365.1211,1375.7412,-190.5023,-97.17064,2883.1923828125
538,1950.691,-286.83423,1033.64,2518.7815,102.65334,-71.67747,4782.8212890625
539,-530.88385,6126.139,325.60437,-2165.8926,-47.48546,-69.873665,7310.44140625
540,-2158.723,97.06726,-929.0215,2862.9385,-124.37564,-79.81219,5336.81298828125
541,-2860.1646,-1605.8326,-1299.7545,2221.528,118.790474,111.09021,4115.32177734375
542,5326.4854,-3391.705,-1662.7524,1286.9598,254.40158,12.280256,8311.810546875
543,-3523.395,-1605.7012,-967.99286,-2315.778,-147.72331,-63.47501,4633.9169921875
544,5267.6445,-1132.7607,-498.9477,-398.33148,-17.716835,140.78287,6151.962890625
545,3183.488,-3327.7324,1721.4291,-2839.5366,-65.422874,-15.634499,7695.212890625
546,4019.6829,-1975.5192,162.0532,-2661.8228,90.21174,-19.551712,6998.4248046875
547,497.18332,-640.291,16.952906,883.2949,31.841574,68.452736,1826.45788574219
548,3017.0784,687.0271,786.7379,-134.39125,12.263241,-93.23567,2299.4482421875
549,3773.4653,1022.18195,-34.101856,-237.68542,37.981388,-48.45176,3431.07666015625
550,-3178.6387,-1612.3727,-21.444078,-913.6496,525.45636,-24.30941,3287.91918945313
551,1265.0065,1987.2756,1281.1647,-132.98022,-92.48866,-136.1711,802.872741699219
552,-4240.34,-4685.0454,-2943.0034,-339.7221,94.51888,129.57037,1697.4033203125
553,652.8732,4585.823,1044.8788,-1331.9397,-127.13518,23.728134,4410.48681640625
554,956.73096,341.70874,277.15265,-1858.6803,468.29938,-40.54364,3383.64379882813
555,2384.0588,743.12555,343.23505,-1734.0732,-239.56877,-27.000835,3564.29028320313
556,2823.15,2363.848,443.78366,140.84894,184.22101,94.54921,2228.8203125
557,2742.2856,1787.0583,802.1637,-182.21608,-84.39423,36.266552,1717.03112792969
558,-1446.4564,-5925.264,258.89444,-1129.3606,101.71744,62.19397,5871.5322265625
559,-933.6615,-4346.5137,-1397.2964,-633.68164,152.49384,115.74856,3405.11596679688
560,1378.2524,-2498.462,-395.866,-506.1289,-298.19983,-192.32603,3527.73266601563
561,1282.1813,-2193.9202,-1159.5638,986.5765,-41.69476,45.260296,3533.97875976563
562,2706.671,130.86415,654.0295,1199.8574,-125.20296,66.10121,3152.77954101563
563,-1334.324,2918.612,543.6524,647.9989,-69.769554,-173.86401,3871.99487304688
564,674.945,-1292.6708,-268.50638,655.5505,-41.48962,86.09931,2054.7275390625
565,1052.5326,-834.8743,-77.76119,-502.69708,23.33136,57.959724,1864.50231933594
566,2851.0513,-1887.567,-207.97064,-815.335,72.59778,-48.487164,4397.01708984375
567,543.33484,1476.3154,-1361.4847,3471.1108,99.84425,-519.138,6577.24853515625
568,-1439.8118,1987.1353,225.55403,1794.3309,115.87648,324.1596,4338.74169921875
569,-69.30116,6201.515,-145.86513,-1849.8695,-89.419014,-64.02553,7078.9443359375
570,2858.3271,2222.3662,517.0194,-1769.3036,-179.22063,475.1261,3816.03051757813
571,-578.0283,-307.22882,-518.03046,-265.49387,64.268555,181.34894,619.031005859375
572,-242.65219,289.7182,-506.89716,563.5799,-237.85799,-40.18517,1273.32653808594
573,32.63267,-61.254185,-160.90173,384.12933,51.909004,55.884167,698.7265625
574,895.09515,-458.68527,207.54245,-554.04785,73.31933,-105.64616,1531.3955078125
575,89.77979,-1775.2528,254.7057,124.781685,61.87493,164.21217,1988.0224609375
576,-1257.3412,-1986.006,761.7325,-860.2136,-46.399887,59.000244,2883.685546875
577,-2072.3477,-3584.1316,-4462.8027,-293.36194,160.03395,31.42801,2173.4521484375
