Element Label,S11,S22,S33,S12,S13,S23,Mises
1,20259.516,-7175.3457,2557.962,7485.773,1742.382,2548.2664,27876.083984375
2,30138.773,25698.975,40215.082,-803.3207,-4871.895,-3657.0688,16710.62890625
3,-34329.156,-41791.03,-76271.41,-162.98903,-3442.4568,3175.043,39594.671875
4,-3760.73,-7739.2417,2410.85,3531.0999,6701.6646,-741.78357,15882.8310546875
5,149056.89,148399.4,186198.3,1842.4723,3133.6162,1010.82526,38040.03515625
6,19089.564,37136.49,42308.266,7973.524,1248.2397,-708.3079,25351.21484375
7,-43071.434,-29159.664,-33895.332,13343.674,3214.1924,2880.5642,27205.318359375
8,-38452.02,-31077.973,-39577.848,5466.368,-1022.2405,-10593.227,22212.017578125
9,135511.7,136689.86,172227.1,219.28252,3719.8987,-3878.6067,37322.1015625
10,-266487.4,-266485.88,-272007.12,462.27368,-7102.4136,16693.14,31912.888671875
11,1414.6978,16370.334,35712.79,-3986.2944,3619.8455,6017.8267,32904.4765625
12,-34591.816,-39350.887,-74937.71,1898.6816,-3249.3667,-1933.9333,38886.265625
13,52740.758,33492.97,47952.688,4105.4097,2023.6205,-3134.219,19838.384765625
14,-38363.55,-36405.91,-29131.41,62.934063,2523.8445,-9967.854,19702.46484375
15,95776.72,95932.516,95841.51,48.188515,-1057.2539,456.46927,2000.94812011719
16,-5696.6924,11160.889,-14269.661,5603.633,-10835.271,-6093.544,32557.619140625
17,21901.46,17270.854,43192.766,-13783.172,9879.143,13.265235,37895.5703125
18,4672.0356,562.8658,-25162.553,3047.8042,6115.2144,-6737.281,32567.166015625
19,-753087.5,-753833.3,-754859.4,279.5302,531.7489,-390.96292,1978.76953125
20,21104.09,22228.146,21152.281,-1139.9149,18.649532,-541.1279,2447.32006835938
21,9403.2295,123.45106,-23854.111,-2309.7021,-2042.9609,1074.2468,30257.751953125
22,-16298.466,-17661.416,-28842.256,196.14494,875.0971,4181.2393,14034.55859375
23,-50434.707,-36242.246,-73469.07,7721.4507,-5235.94,-1235.5348,36395.18359375
24,24306.693,46874.08,47719.203,10114.427,3180.447,11779.051,35812.875
25,-6593.7485,14418.096,23424.648,282.7843,12407.252,-5240.6377,35444.49609375
26,-52737.773,-39035.832,-71636.234,-1209.5042,11504.024,-174.34474,34718.125
27,33848.59,29757.639,42098.57,-2567.1804,12506.607,-10938.819,31089.203125
28,-22054.96,-23287.389,-42324.867,9332.22,-688.4422,-4468.107,26645.666015625
29,-130613.03,-130931.695,-164712.81,1234.2009,-6082.4966,-2969.0474,35972.7109375
30,-38198.375,-58340.117,-77672.016,4018.6501,-4627.984,-4466.602,36624.37890625
31,6162.8286,-19664.264,-1860.3838,6972.034,-1712.389,-6731.6826,28544.099609375
32,30390.162,26805.348,18338.219,707.65216,-657.60724,-8598.035,18424.833984375
33,25540.584,5831.1973,6188.251,-7777.309,-5789.1665,-2690.5237,26177.658203125
34,35057.297,14799.962,24772.535,-7889.794,10772.819,7522.9697,31819.59765625
35,36966.215,24128.732,42027.66,710.4301,12094.231,6356.274,28581.943359375
36,-6667.8745,15396.131,13456.92,-1257.0769,2100.1658,-4522.7007,22959.341796875
37,635.2438,-11809.205,-11611.797,3756.7478,7909.9424,-897.58215,19618.986328125
38,-22755.182,-5540.53,3408.044,4955.759,-15603.876,1556.7302,36631.3984375
39,-1409.8964,-17635.695,693.5339,-5963.623,6944.6074,-383.95776,23529.771484375
40,-436.5151,776.71075,-18904.23,-4212.814,-4950.6123,4420.8794,23459.232421875
41,-6356.9673,-9576.58,-12066.813,3441.02,-3623.488,3537.0852,11705.9189453125
42,34202.96,24122.545,34451.273,-4822.607,5126.912,-3568.2627,17058.87890625
43,105881.195,105910.26,105613.12,393.32175,-934.583,-492.3906,1972.88854980469
44,-6743722.5,-6743100.5,-6744175.0,-178.05469,-937.7482,-309.75055,1973.36193847656
45,224514.16,224113.67,225410.36,49.842415,869.5501,58.169342,1899.58911132813
46,9402.896,9493.467,9536.282,-852.6568,-751.6284,195.67671,2001.171875
47,119368.64,119406.26,121285.45,26.987211,169.59827,-323.01834,2001.244140625
48,50226.844,61638.285,45043.977,7667.3374,3095.6116,-1751.8176,20749.609375
49,-241463.19,-255945.36,-254645.81,-476.84573,1095.5104,-13833.906,27767.162109375
50,1275.6953,-8075.4956,-3586.052,4182.011,6254.561,-13560.451,28055.337890625
51,67996.555,51385.855,86651.2,-3513.813,3142.997,-10929.098,36861.76171875
52,22499.438,8709.863,31454.809,-9046.6,-5471.2354,-11365.406,33416.83984375
53,-112943.47,-118742.26,-132954.34,-3435.29,-2590.0813,-16731.045,34832.95703125
54,6879.2827,32091.838,13463.075,-6375.4995,596.0667,-4335.0986,26313.705078125
55,25547.367,53144.016,20246.44,813.05505,2916.665,8523.522,34371.76171875
56,42082.316,52696.023,30641.559,-21.85104,1432.5043,1279.9723,19391.83203125
57,18605.502,22966.156,2678.6924,-2944.4556,8883.854,11478.623,31625.689453125
58,-8475.111,-14117.144,-867.4519,2492.897,6216.532,-7581.7144,20968.03125
59,-4092.4187,3702.7104,23892.746,-795.62366,12349.052,-5048.74,34083.00390625
60,23908.365,6923.551,-5544.4272,-3430.036,-4177.737,5051.3604,28633.98828125
61,40686.867,29699.043,29607.834,-9146.597,5406.6826,4427.067,22786.33203125
62,16739.916,-3487.583,-8192.537,-7183.858,1180.8595,-8532.6,30064.6015625
63,7419.403,8446.641,2953.7598,-15499.725,10692.518,5798.2363,34498.65625
64,1875.9242,3154.5754,29220.64,-861.9189,10972.5,-450.9616,32839.4609375
65,14631.428,-4850.101,-2318.523,-3313.7659,637.11414,-6627.6646,22417.81640625
66,-6362.79,-6509.808,-8332.69,-3680.4124,6536.9805,-14809.315,28816.533203125
67,4723.798,8848.986,16857.818,-9632.896,16131.289,-8605.224,37354.78125
68,22873.283,29870.057,44396.14,1382.7717,16394.008,-7394.9976,36574.33984375
69,-34194.406,-38696.168,-54402.973,3873.4878,1986.2681,-6285.911,22650.90234375
70,-19767.617,-26671.846,-41286.83,-7159.2407,8803.552,-4866.446,28626.734375
71,-165530.5,-169173.11,-183829.78,5850.699,-27.061312,-4653.5635,21192.837890625
72,15846.7,11794.019,12698.463,300.64896,-4696.191,-953.21875,9095.9609375
73,44179.926,44068.355,42772.293,-336.4079,570.60516,532.2589,2000.751953125
74,-86281.4,-86181.05,-85897.88,802.0494,787.30884,-178.2062,2000.8388671875
75,10660.052,9900.864,9691.932,900.75055,205.6314,-470.55084,2000.94958496094
76,10275.587,10135.9,10320.762,-374.44473,1086.8014,-63.67644,2001.01623535156
77,2598.1445,-20421.297,-21898.973,398.18304,-3671.6104,3441.809,25348.55859375
78,10091.676,-15222.518,-26237.086,7895.814,-9840.545,5204.4604,39996.92578125
79,50365.03,56865.12,43602.14,4241.3696,-7283.7207,-3099.014,19336.08984375
80,-686.9309,-7800.654,-28123.143,-11882.807,5942.5615,-4141.596,34484.50390625
81,-13402.611,-8017.2515,-11382.63,-16464.176,6798.2485,-9270.294,35098.078125
82,16971.932,19844.512,19904.502,-1415.5978,-9283.861,12218.068,26848.7109375
83,-9552.036,-3176.6138,-24735.605,188.27039,-886.9478,9071.595,24846.25390625
84,-8400.051,-13662.146,-11000.093,600.12415,530.6097,8158.9526,14913.0419921875
85,-10304.811,-19002.588,-17422.484,-6163.0054,-4243.3247,5900.997,18353.072265625
86,15796.019,17867.668,14659.141,-6674.5747,265.07874,-11997.789,23950.802734375
87,-28751.172,-29873.67,-21811.547,6627.7783,-337.70633,1763.9509,14094.93359375
88,-6706.1494,-11794.474,-1810.1073,-1135.0782,2901.4907,2153.4463,10853.9423828125
89,489.50113,-21791.795,843.1631,-12081.526,42.031,-12032.41,37103.81640625
90,21897.979,18451.629,12261.373,-16736.834,-2933.4014,2816.2842,31008.12890625
91,13352.06,-4763.663,-14881.367,7186.4272,-9542.545,10147.264,36753.9453125
92,12416.0625,16921.594,390.23828,-5297.243,-6107.291,8194.776,24832.345703125
93,16042.337,25796.588,23003.785,718.79816,-6318.5874,-1572.7083,14298.5087890625
94,-6300.113,-4634.5273,7334.2876,3554.3118,-4729.9053,8866.159,22512.296875
95,3362.899,2996.1875,-24351.484,-4837.9766,-2936.308,6874.7627,31558.345703125
96,31022.668,43742.785,36872.984,-9948.606,152.50253,8977.337,25697.912109375
97,10613.1455,10305.212,9290.653,782.1975,-293.7887,-397.0108,2000.96374511719
98,-210956.5,-225419.62,-217062.44,1738.6902,747.8603,-10830.788,22821.447265625
99,-12633.756,-3851.6992,402.02786,-1545.164,17337.307,-7126.6235,34552.14453125
100,-36439.383,-36550.562,-69840.88,2346.5835,-2064.241,-2047.9054,33968.26953125
101,60129.254,34037.88,61683.49,4058.7817,6263.128,-522.99866,29860.501953125
102,36974.23,26609.99,28700.775,-8559.439,2834.258,-15562.787,32567.029296875
103,-61438.47,-65258.2,-100889.16,-1370.1139,-6427.76,-536.1293,39378.90625
104,-14058.604,12718.143,-7925.765,10064.605,-8990.152,-4200.033,34491.54296875
105,766.70276,-745.2059,-7244.2803,-5217.9473,7969.2114,-3027.637,18816.36328125
106,-11005.27,-4365.3164,-23027.639,1736.0199,4196.5776,-12192.385,27862.01953125
107,17487.72,11323.106,-10841.82,-7589.214,3751.003,-7490.7603,32392.248046875
108,-4863.2334,9208.562,15897.707,-3025.3923,11600.389,5343.5405,29218.3984375
109,28915.178,4197.31,41205.363,-10358.864,-4080.1523,-2062.1558,38084.4765625
110,-829.4221,-21844.068,-19417.379,-8845.819,-10685.503,2153.6582,31427.828125
111,36412.87,25915.361,42477.01,-3545.912,13161.077,-3974.6697,28554.966796875
112,1125.6549,-9270.718,-27216.822,-15780.76,6762.871,-3649.0667,39255.25390625
113,9475.14,-1093.8234,-14309.549,-9375.782,9432.708,3677.9104,31579.419921875
114,-3647.506,8581.281,-224.24324,-4573.1807,892.5503,-4674.112,15813.7119140625
115,-584.4292,-6210.108,-29555.342,8837.423,6268.134,-3419.2297,33094.15234375
116,9702.035,9929.754,10266.122,-166.38924,1017.9443,436.13242,2000.97961425781
117,62299.508,59411.01,60388.137,3801.9639,-5970.7964,-4501.304,14750.490234375
118,131786.1,132178.6,133411.03,-715.6394,298.86664,-128.18402,2002.58996582031
119,17389.783,17205.617,16427.334,781.8117,-546.6938,531.34155,2088.123046875
120,-21197.04,-6542.6304,-8731.697,-1805.1069,18544.96,-4217.3647,35809.83984375
121,45581.785,38868.477,39406.56,2706.7815,3139.8333,-8678.072,17866.958984375
122,-1558.6069,-2257.5059,-10525.935,-5322.2134,-12083.606,-2711.0603,24893.818359375
123,40893.223,22262.66,31169.393,-6447.367,-2440.87,-4860.176,21770.01171875
124,-16328.348,-32727.186,-25544.219,-2349.0823,18407.574,-4213.6665,35903.48828125
125,13785.909,13487.008,13603.229,573.16156,-1093.8419,-315.23557,2222.89086914063
126,32412.166,33005.27,33012.094,-455.8707,-688.5216,-726.88,1996.63977050781
127,6353.97,-10834.797,11939.434,695.5039,3303.8857,-12324.221,30207.875
128,-63810.844,-47779.926,-77527.53,-3184.7966,-1582.5616,-13535.726,35392.35546875
129,-13492.525,-1863.1382,7403.468,-9128.412,-8336.573,12202.705,35129.3984375
130,25531.568,37371.07,32274.791,2761.3499,-8205.211,5124.43,20234.609375
131,2299.7585,4625.127,-11326.139,-4291.539,-9078.287,2521.679,23330.92578125
132,-3017.969,7050.021,-18977.803,968.8457,-14504.654,-5276.457,35132.0078125
133,-7804.4673,24729.738,4922.667,-5984.9824,8112.62,-6375.0156,35117.140625
134,15394.467,46068.996,33434.14,-3686.307,2389.702,4258.228,28727.935546875
135,127094.94,127517.15,128018.85,180.74013,663.32117,784.7434,1976.67529296875
136,-16521.773,-13631.478,-19230.828,-9363.546,-759.78796,-4709.901,18836.986328125
137,126335.5,126272.66,128243.055,-72.74336,-240.60646,156.03308,2006.28515625
138,161196.58,161249.4,162636.34,-269.74963,843.2803,-200.89923,2114.80419921875
139,27444.465,39215.832,56030.574,1293.6241,8146.1387,-3632.189,29375.33984375
140,-53926.945,-32340.986,-50720.484,-240.55016,13616.209,-2646.5376,31375.30859375
141,4090.3008,-10602.096,-9854.673,-9696.001,6832.304,-752.4238,25084.26953125
142,0.60083,6048.217,6311.543,-2933.4495,8143.958,-1482.2273,16419.927734375
143,15163.084,-9729.771,-8686.18,-12450.191,4413.9336,-6516.1865,35293.30859375
144,-9336.64,-22861.137,-16549.176,-11585.078,1600.9875,-1631.6704,23573.404296875
145,13897.068,-2580.4648,10374.677,-8804.84,12265.786,3791.3945,30869.470703125
146,2449.535,-28573.873,-39298.113,-398.9798,-958.3231,-4069.393,38250.1796875
147,27601.271,33887.477,37023.52,-5079.6626,8777.802,13351.7295,30206.4453125
148,-28175.535,-30655.38,-27723.371,-826.58795,20787.525,-2398.9043,36375.171875
149,2131.7551,-4170.361,-10834.511,-93.78072,21338.87,-2242.2515,38823.66796875
150,64275.195,63866.113,62822.02,601.1361,-641.6014,9.904789,2000.98608398438
151,90933.336,88738.41,89902.14,-6028.038,-6557.7188,313.344,15554.259765625
152,45853.195,48231.105,41591.566,-6841.56,7780.7256,4255.4365,20256.25390625
153,32057.611,48289.477,35667.215,-14547.745,-5679.251,7002.422,33116.25390625
154,7536.346,1245.725,10911.451,4857.8774,18914.354,1622.0724,34987.7578125
155,-11386.944,-26203.973,-47939.598,792.2449,-7163.752,2865.0198,34561.61328125
156,25520.902,29927.668,6919.41,6754.5513,-7011.8896,13974.685,36299.51171875
157,-686.9767,7359.6064,11308.562,2736.9229,1910.41,7407.9893,17611.744140625
158,-25093.764,-27258.992,-53802.516,1754.135,-6477.416,8164.7427,33193.53125
159,5132.6045,-11161.975,4323.0923,-12092.532,-635.29614,-9790.634,31312.078125
160,-5409.904,-10245.325,-7430.637,11872.446,-15645.704,7346.962,36563.046875
161,-6880.8135,-4540.023,-21656.047,2535.2288,-7142.741,-1135.3278,20846.53125
162,16733.752,20981.934,-5546.416,-1880.4222,16764.32,-2857.135,38565.89453125
163,-38485.4,-30263.607,-14444.787,-2576.862,-5343.9346,7987.235,27292.3671875
164,8048.4155,-7303.6753,-5474.5254,5001.824,11167.836,-8079.8843,29257.83984375
165,-93123.28,-109266.74,-105283.49,-2521.7966,-860.028,-14993.179,30130.677734375
166,101880.695,89887.63,127717.65,-763.3182,3439.808,132.52748,34037.3828125
167,38450.63,62646.07,40767.523,-3702.4138,-2713.4155,12906.634,33131.31640625
168,6491.82,-1338.3817,-2256.9136,-6822.4575,12243.516,8204.063,29336.271484375
169,4262.336,-9919.922,-17331.764,-614.34644,479.82797,1782.1897,19301.296875
170,38153.465,16432.709,26818.959,5242.276,4078.3284,2640.1533,22523.810546875
171,163555.33,179323.28,164576.83,8487.568,8723.837,8021.2607,29513.033203125
172,-17922.502,-3679.9094,-25254.008,-7495.379,-6786.4067,4230.822,26859.443359375
173,1208.5726,2217.4282,20164.598,-8506.269,14309.635,1959.166,34410.84765625
174,-863.9581,-4222.28,-15780.798,9941.388,-1736.9557,-78.57937,22119.177734375
175,-24493.748,-34953.676,-49136.242,-1418.7052,17624.066,6354.6636,38960.37109375
176,124345.336,125606.21,124728.07,714.31805,381.7383,510.65582,2000.9853515625
177,176941.84,182116.95,196316.28,2625.602,2857.361,14104.719,30722.79296875
178,-48088.74,-29853.236,-59735.613,-687.40753,-7690.648,8900.691,33122.38671875
179,28701.59,39854.07,44882.65,1567.6919,-1694.5425,-3945.0178,16383.6025390625
180,-73813.086,-71799.45,-101004.88,-1392.1232,44.678535,-11949.323,35105.296875
181,-7922.8696,-14817.788,4328.242,2062.3572,-5029.483,-8258.119,23986.177734375
182,5024.5146,28798.469,37656.254,-780.52136,-11604.633,-1663.3721,35614.2734375
183,15033.252,14189.761,13729.047,-7917.8613,-14733.308,973.4346,29042.1015625
184,3151.0623,9010.284,14781.535,-8808.14,5265.875,-6839.1455,23615.9453125
185,28364.92,2438.989,20058.324,4381.2236,312.05878,10420.226,30156.55859375
186,25197.812,29040.373,27907.52,2549.8638,397.38556,-5990.4355,11803.841796875
187,30072.244,15265.699,22914.084,9815.266,5713.7964,-262.2628,23487.283203125
188,140222.94,140080.45,141711.2,-1.1384927,-557.92145,-455.60098,2000.95983886719
189,6121.7886,13556.496,19477.686,-2157.8555,7561.178,-7236.1367,21838.634765625
190,29797.543,22402.486,31158.953,1318.0562,6889.8936,918.38574,14722.83984375
191,31307.613,60584.438,64998.48,6845.927,-7070.8394,-1233.0211,36069.33203125
192,17013.047,5950.2295,14355.823,1813.5076,5846.159,2612.644,15261.955078125
193,21574.246,2996.9275,15659.079,1268.684,4233.9927,588.0303,18162.16015625
194,7883.169,6208.2393,-6227.458,11620.27,-16890.074,-3467.8313,38409.296875
195,59623.34,40756.676,80333.33,-1533.1423,6491.408,1300.3024,36250.8203125
196,29796.77,12686.022,22504.727,-7375.8413,-6174.061,3077.7903,22960.048828125
197,3388.1587,9445.595,5712.1797,5853.1455,-18049.562,-2393.7012,33546.13671875
198,-28290.076,-22094.586,-34895.02,-8332.708,-16002.994,6438.504,34984.03515625
199,19544.16,35113.098,58377.812,-5442.5938,-3026.7139,-8125.298,38213.2890625
200,11780.996,9807.845,22520.809,-1522.3976,-12367.525,1562.9806,24770.486328125
201,-14006.27,-16483.4,-1814.1407,-4419.039,-3514.899,-12824.46,27821.453125
202,-14044.055,589.077,-24800.094,2704.74,4664.7227,-856.7559,24013.3984375
203,-12782.223,-521.10846,18291.482,-595.82996,-8390.165,-1951.5381,30961.056640625
204,10248.127,23527.57,5190.431,10921.16,9533.304,2662.0154,30344.90234375
205,2850.5989,14496.598,22286.203,4020.7986,-8115.931,5528.793,24996.662109375
206,-8094.6465,-15480.945,-27021.963,-6221.1846,-3971.9268,7519.0146,24617.93359375
207,18432.3,15984.051,9463.43,9200.409,4385.9995,-349.6647,19403.52734375
208,36753.42,41892.254,45151.676,-14958.623,3813.4373,-5396.2534,29258.294921875
209,8658.624,9780.173,9581.417,2877.335,-18153.812,-28.312426,31852.734375
210,-45418.414,-30613.42,-16392.201,-8468.491,3891.1172,-5736.3203,31484.2890625
211,3017.597,23128.156,13955.137,-2771.4749,-5935.7637,-298.27805,20811.3984375
212,11862.038,3007.0461,8114.699,8713.223,-4315.9023,2109.7776,18875.01171875
213,-17705.99,-14155.964,-13949.905,-3863.0156,12678.182,414.9183,23256.626953125
214,20046.97,21070.05,19648.22,2311.451,-4160.545,1040.9001,8533.6328125
215,7697.807,13210.28,21667.627,3083.0354,-5431.421,8790.67,22301.994140625
216,8370.34,6839.0825,4071.9922,11482.714,-4702.8496,-644.2479,21849.310546875
217,-9527.981,-2916.125,8246.174,7233.2456,-1610.212,15707.975,33868.515625
218,2138.8015,9127.561,-1722.5186,10490.151,9283.8955,-5065.48,27503.046875
219,22872.912,28567.59,21689.596,-313.8038,1818.4277,3032.767,8853.060546875
220,6273.588,3151.5847,-3701.4016,5205.1567,-6173.3613,7991.561,21571.107421875
221,-427.74072,-5775.16,3514.818,-1252.6362,5414.7183,21352.238,39059.4453125
222,21527.426,19949.209,24708.277,5071.447,11239.516,4381.749,23051.392578125
223,24792.719,-2621.6875,3239.2368,4048.3423,5437.96,745.0339,27654.53125
224,-24725.234,-13950.541,-15303.865,15006.232,285.71872,5864.877,29704.2109375
225,-7170.4043,5771.042,-15982.78,-8198.045,18198.312,883.5401,39454.8515625
226,1226.136,-10911.654,1738.7996,-7587.854,-4756.705,6312.2495,22670.470703125
227,23376.586,49258.06,20885.217,1281.3374,13256.142,3266.4983,36119.9296875
228,13122.233,24683.988,15945.587,3234.3481,3081.061,6038.206,16680.654296875
229,11932.317,26372.297,13734.01,2894.2979,55.92809,1038.0659,14632.693359375
230,-15560.1045,-10680.252,-11365.729,1189.3296,-6831.8423,957.2623,12959.65234375
231,-5065.809,-7940.128,-1820.0271,1124.3256,-10099.023,-233.89055,18386.23046875
232,11097.685,-583.9139,-5030.9087,-3897.0332,9298.05,14234.187,33480.46484375
233,31110.629,14415.203,25571.314,-5205.2637,-1684.2856,10528.455,25283.984375
234,9972.347,554.6335,10872.501,12570.147,2925.9692,-4689.658,25761.78125
235,8632.04,1660.3654,-28749.85,-653.818,475.3483,2745.245,34784.55078125
236,20442.76,17537.146,33492.24,3540.7917,4184.5806,-17654.77,35240.1015625
237,830.1699,-4863.787,13354.696,9635.125,-2205.6353,8637.248,27883.8046875
238,305.50763,2202.3118,-7573.3784,-2946.5042,8988.632,-4469.762,20223.44921875
239,-27492.621,-31605.473,-8170.295,-3662.9937,-993.733,-11546.348,30214.353515625
240,2426.3223,-2561.023,-1913.9822,-10341.799,-895.2924,4541.1875,20179.0859375
241,15690.037,3480.2866,10527.304,-3052.5334,-11376.887,508.65033,23015.794921875
242,21729.934,23733.59,15171.552,-2405.048,3684.4163,4432.987,13311.626953125
243,17141.736,-10892.697,-18423.068,-5203.511,3201.2375,7354.3755,36441.453125
244,19672.979,21558.879,29299.678,-4492.698,1516.5107,-5043.137,14893.861328125
245,31638.42,25558.393,31099.914,-10627.358,-6896.1865,-3846.7773,23661.57421875
246,-43520.293,-49097.52,-56792.02,-8527.799,4088.9546,1711.3344,20256.837890625
247,24455.594,35637.047,36421.094,-718.72064,9012.511,2590.2769,19994.017578125
248,9874.347,21182.479,17080.744,-5508.2646,-12002.1,4216.5435,25977.431640625
249,-6324.109,-5229.382,-5816.97,-707.92175,-279.2626,505.9085,1845.45153808594
250,15819.298,10692.373,-2826.155,-1520.5923,6762.8003,3892.642,21632.044921875
251,15243.639,14347.996,16246.064,-1133.022,-3316.3772,-2850.8005,7995.76953125
252,13116.773,12490.853,12042.848,644.5554,-714.93646,-342.09366,2000.935546875
253,-19759.14,6355.9004,10275.91,-6196.0327,-7020.8965,-3274.9944,33090.19921875
254,50339.47,51211.453,51190.203,-596.8617,766.75616,378.00055,2000.85192871094
255,232161.9,232406.86,231519.78,-258.9679,877.3952,536.4894,2000.93469238281
256,25189.588,25336.312,23337.523,108.087364,145.33325,-246.38318,2000.98522949219
257,-35318.99,-35448.344,-36006.97,-12.204157,-1046.2349,-325.89264,2000.98559570313
258,158739.86,158656.61,157026.58,2.6278753,631.5813,50.356575,2000.98608398438
259,-1302228.8,-1302830.1,-1304307.2,233.18585,-333.79657,155.33655,2000.40783691406
260,-954925.56,-955645.0,-955336.56,397.54388,1020.49,-70.084755,2000.96997070313
261,-5891.4365,-5082.696,-6179.1035,424.26413,-844.78064,-343.27756,2000.98559570313
262,9666.618,10853.48,10248.703,387.4174,-3398.4822,-949.41766,6233.78759765625
263,-17646.3,-15037.78,-30500.154,5092.97,4857.405,-19469.832,38618.34765625
264,299960.7,306268.47,303608.66,2927.2874,-12575.349,-6402.9595,25557.857421875
265,8359.184,13590.175,25960.9,3892.5828,-7206.3433,-6602.5103,24023.7265625
266,-5430.0254,9204.487,-2708.0305,250.45903,12214.994,-17579.025,39453.97265625
267,-21250.453,-17625.275,-21401.709,-63.3295,3583.4893,-21881.117,38582.37109375
268,-278.57117,-3751.8699,7690.6045,-2159.9404,-4217.746,-18580.354,34731.8828125
269,27383.385,28689.96,41106.625,3478.6548,5694.4355,18614.803,36677.234375
270,24013.904,21848.77,13348.479,-3912.4602,-1605.3242,-4381.2334,14373.095703125
271,-6600.6885,-2183.8093,-18585.715,-3638.8293,-3940.8777,-14863.609,31067.37109375
272,27723.082,26487.236,6982.631,3888.1816,-17094.842,-2452.3792,36690.0390625
273,47963.973,47516.17,51771.414,-6645.5103,-4293.4634,-5166.163,16860.00390625
274,-32300.47,-10801.703,647.687,-4089.938,-7378.49,-8461.358,35605.14453125
275,3249.185,6863.6875,18153.447,3956.0894,-14099.713,-4407.5425,29714.76171875
276,31027.893,49891.62,49057.83,2258.2944,3479.8035,18425.969,37563.05078125
277,17656.37,26516.88,11044.179,-1762.8303,2596.957,-13820.523,27989.158203125
278,15638.66,9324.097,-13130.63,4538.93,6574.9614,-948.2609,29666.037109375
279,2424.276,-1818.8691,-14782.299,4917.536,16385.818,-3937.642,34140.9921875
280,5637.0693,-5583.504,-14103.016,-2916.6575,-5672.0513,2241.4553,20765.03515625
281,14651.855,13998.187,3696.5593,-2508.7761,9348.14,-1238.0104,19973.173828125
282,4896.8716,8563.905,9559.437,-358.99918,-4649.6978,15152.141,27786.626953125
283,9504.016,14687.26,26598.957,8276.001,-761.97626,872.59644,20976.138671875
284,-50292.22,-28898.32,-42201.715,-11439.331,-15078.704,-6235.703,39260.625
285,35201.676,24790.709,45015.87,544.0306,4535.16,1494.8348,19395.267578125
286,-4842.0703,-7420.2324,-7121.0234,-866.32837,-6004.0913,-3557.032,12422.615234375
287,7599.2266,-5315.063,-6557.074,-13902.493,-11188.285,-7496.1064,36170.52734375
288,8133.8584,4366.3696,13223.33,-32.502884,-4992.587,15032.579,28495.39453125
289,-19546.037,-37256.516,-38297.363,2323.7627,-1721.7129,17637.814,35938.1171875
290,53657.266,47419.57,39995.46,6197.457,9352.672,16785.633,36922.2265625
291,-9250.746,-1599.1946,-23180.002,2570.4124,-7809.3,-9597.817,28953.09375
292,31064.408,27690.16,25374.604,-9869.539,6837.8965,-1677.2295,21575.3046875
293,11510.926,-10812.928,-22357.885,-4041.4421,-8931.404,8863.536,37594.74609375
294,32004.283,23870.135,47521.41,227.59879,8787.423,10691.709,31747.66015625
295,7928.3335,7890.3584,2949.0696,-9186.41,5220.2485,314.04437,18969.044921875
296,-2784.86,-3951.3604,-1855.1279,8282.526,-10386.894,-1325.8878,23195.83984375
297,11456.353,24113.615,13455.47,5907.1772,-6424.1455,4974.4053,21014.916015625
298,13465.006,2416.8267,9371.796,3851.696,4536.424,1121.1931,14269.1787109375
299,-11590.804,-5432.4136,-12308.795,4110.23,-4928.121,6766.346,17428.55078125
300,166.7825,6161.005,-5347.1255,7736.533,2667.6694,-509.21957,17351.501953125
301,37549.55,46862.902,73875.2,1420.8677,-4366.427,-4511.1265,34529.4453125
302,29048.451,45356.22,34836.57,-9645.881,-9077.339,1231.0582,27127.921875
303,63758.406,67731.98,92127.805,4357.735,11287.109,9443.947,37611.36328125
304,14641.776,9809.697,511.62088,3063.2898,-8551.987,2697.5967,20594.2734375
305,-8141.9224,4924.5967,-8894.411,9634.039,2869.4707,-7501.0176,25555.314453125
306,154365.25,154700.62,156112.44,103.569435,-194.23639,-652.92706,2000.87036132813
307,25455.377,39030.6,35282.605,-7807.31,1321.3418,1391.703,18476.0625
308,348964.3,348516.84,347605.1,-404.72586,-590.1352,-585.2313,2000.79248046875
309,172103.25,172608.23,170616.45,62.557266,271.402,-430.03082,2000.96984863281
310,-112929.164,-99644.75,-128585.1,-2433.476,5447.371,4497.8975,28231.970703125
311,57247.305,56550.715,57547.754,72.57699,-983.63336,-316.6141,2000.98388671875
312,9290.133,2895.323,6138.152,518.8315,-2065.5457,4547.4077,10310.96484375
313,-39113.633,-46449.21,-27067.068,9594.94,-13043.609,2452.8765,33044.5859375
314,31405.44,19837.39,41773.53,-9112.074,-9422.169,-12316.449,36493.3125
315,-21157.674,-17215.344,-27016.855,2924.9268,6064.1367,4235.5283,16210.390625
316,20688.05,7037.918,24043.215,328.3988,-17236.879,-3581.7954,34256.71875
317,17344.176,-3289.1372,25827.396,1147.7645,-3990.387,9735.094,31761.1953125
318,-5975.658,8952.521,5758.704,10830.346,-5340.0635,2608.543,25361.873046875
319,-22517.203,-14308.239,10537.572,2074.877,-3913.633,-1787.4438,30937.189453125
320,5041.972,15987.627,37875.832,5020.3447,348.33856,6412.1187,32214.94921875
321,2892.7036,-4283.254,-9129.99,-911.3787,-9698.186,5709.505,22185.958984375
322,845.9863,-956.718,13065.577,5059.212,-6213.4565,4137.997,20459.0703125
323,-7388.679,129.49448,-7285.4263,1313.3026,3369.4226,823.6274,9850.1640625
324,-15974.753,-16704.246,-17468.004,-3062.1912,-4426.3696,7219.0737,15650.1435546875
325,13958.028,10904.844,24230.729,1107.0859,9011.818,9998.285,26333.009765625
326,6007.277,-8918.615,-5453.4336,4274.1216,13133.357,-4021.5032,28352.17578125
327,3150.0247,12877.5625,7534.6406,-3858.404,13150.514,-11085.073,31674.986328125
328,-3796.2302,-7396.5815,-21458.238,-6902.81,4631.333,-2768.982,22172.404296875
329,18592.867,6272.7036,-8880.909,-5027.117,5892.155,-4720.9556,28547.220703125
330,13409.257,13510.767,16349.955,-5165.185,3660.5596,7778.8726,17610.46875
331,-2587.4763,-6406.779,-31352.844,-4000.1692,7295.5015,-10997.057,36092.28125
332,18290.178,7374.1064,19023.934,-8644.93,-10498.229,14166.908,35842.08984375
333,17415.344,10440.177,8314.462,-3195.8706,646.0478,-5319.8926,13593.951171875
334,21202.94,20268.959,21022.346,36.376175,-959.6629,-408.59442,2000.98449707031
335,417901.94,418288.22,419175.5,105.48438,-891.7894,-319.11078,2000.99035644531
336,20226.502,18287.357,18582.316,84.64317,-5.086597,485.4755,2000.98583984375
337,-59961.727,-34333.49,-45883.465,-3467.5776,-3873.397,-17068.691,38069.74609375
338,10396.189,6535.621,18818.12,-5260.4004,-18573.4,193.56847,35162.3046875
339,-5746.0684,-10775.784,1048.7638,491.4431,15608.985,-3141.0881,29442.978515625
340,-27259.998,-10634.866,-49756.27,893.2188,-3092.7795,-5193.812,35615.96875
341,34878.914,-4314.0186,6419.6724,2342.3225,-4195.4473,-1604.3798,36160.75390625
342,786.6372,10175.134,12008.671,4934.476,-6957.4736,4186.756,19482.63671875
343,-19129.25,-26953.432,-7072.2397,1843.038,10273.408,-5897.237,27056.919921875
344,8869.208,5435.0435,13504.691,3649.7837,-5506.288,-3399.679,14655.853515625
345,11080.207,23363.092,24245.945,-5589.391,13041.602,-14577.638,37469.84375
346,-65797.13,-65802.375,-57724.81,-8184.0483,-18064.941,-4460.518,36122.78515625
347,-22268.266,-22823.092,-27979.176,-1966.1525,-3290.09,15934.755,28906.302734375
348,7021.9873,16591.746,6919.113,4842.694,-2464.795,-6445.067,17486.357421875
349,-33528.844,-19319.713,-7651.8584,4433.2686,-13336.098,10944.071,38153.1484375
350,-2635.129,-4507.0327,6175.5474,-8220.063,-2599.7786,-3359.8604,18827.5234375
351,11689.822,21960.61,36203.04,1027.3314,15126.883,-2193.8162,34039.5234375
352,11375.378,-7850.7534,19172.91,-2343.9607,-3188.1711,-3027.4563,25589.73046875
353,-4936.213,-8192.97,9847.482,2382.0015,8197.444,-14460.353,33514.66015625
354,-22209.822,-24546.432,-27153.152,3018.6172,-737.9531,4262.2983,10090.4443359375
355,-77137.62,-80459.625,-100057.836,-3878.1033,10126.452,-13972.233,37398.59765625
356,41756.504,52651.08,38305.242,8714.484,-1200.9232,-476.4422,20025.91796875
357,4454.425,15112.028,-11245.956,16800.908,706.5184,3304.8936,37529.8671875
358,2621.9785,9909.797,6863.5986,8192.697,1095.0736,1655.4257,15917.6376953125
359,-1788.4746,-2697.2852,11524.882,-3852.809,-3975.4648,-7171.1343,20889.98828125
360,-5050.7363,-4500.9253,-1439.5303,232.41435,5823.0454,2001.0402,11191.76953125
361,-2017.5233,9138.277,-7884.881,3124.6455,-2014.0055,-1082.4622,16410.572265625
362,-15627.379,-21545.346,-31291.164,-694.4946,-2542.2866,-1846.7688,14790.099609375
363,2857.2075,-924.98865,591.141,-4614.1553,9575.493,7.5068803,18703.236328125
364,65249.492,64310.61,92147.76,-95.712456,-15662.868,-4019.7483,39167.98828125
365,-11070.0625,-2264.6533,-13539.547,-3413.2183,-2228.651,-2484.4016,13181.2744140625
366,10269.565,6993.6704,17444.168,-3885.298,-5717.2603,-8404.837,20999.5546875
367,7357.0864,2336.3545,2446.8877,3674.1821,2594.0674,8028.813,16695.416015625
368,5313.1885,-10390.166,-8190.2344,4217.002,5679.516,299.50162,19164.494140625
369,-4571.795,-6374.0225,-4755.826,-1466.5665,-1578.5088,-2706.931,6233.79248046875
370,-2796.483,3082.6865,-6415.5347,-6006.0522,6479.997,-1604.7614,17631.052734375
371,-4374.1157,448.15637,-569.71716,-1657.1638,-3799.7122,5001.7085,12082.4326171875
372,-3336.506,-260.95142,-3163.3037,-591.6916,982.08167,7938.0,14210.4052734375
373,4362.914,8613.256,5096.0063,5336.4624,337.0194,1588.7504,10432.33203125
374,3642.624,3074.9856,-1788.5151,4883.6167,-2689.3442,-5184.7036,14164.28125
375,2448.191,-489.44675,-4862.5454,-5878.7896,1475.1918,-2185.1494,12850.447265625
376,9776.596,5340.539,27251.6,2947.0522,8917.517,7299.8267,28758.625
377,-14995.74,-10495.789,-23514.494,-3535.3906,1827.7557,2866.4731,14259.0927734375
378,-14888.588,-6543.7153,-400.84473,-653.1815,-6653.844,-1535.1343,17314.849609375
379,8890.723,16215.618,14245.179,1061.4902,1151.6538,-816.53973,7243.12646484375
380,-30498.79,-17539.166,-38303.3,1119.4395,10088.279,2661.5383,25697.017578125
381,17992.758,24266.027,24749.703,2380.8755,-3852.5518,-248.23694,10214.6513671875
382,8911.193,2705.8384,3604.2222,-638.44495,2074.5227,-4405.8184,10300.787109375
383,3673.183,-4460.265,-7397.392,2705.9712,5460.6973,-7241.848,19168.365234375
384,7977.293,2443.683,-3632.1611,1410.581,2026.1266,11110.647,22131.025390625
385,3180.4966,832.94165,6969.152,3393.59,-2793.8562,-1797.3499,9819.1982421875
386,4857.4863,2423.4734,-763.6201,3046.5405,1263.9822,990.77,7708.5322265625
387,3771.1409,-403.30566,10809.343,3560.3225,-224.9025,1732.7257,11980.373046875
388,1225.4224,9187.865,6997.843,1811.5635,3585.0435,4265.5947,12399.498046875
389,6627.4326,9483.266,7758.615,-3545.4832,5830.552,1333.6757,12297.8984375
390,-5328.2954,-8181.938,-3984.3528,-2162.1475,-8730.593,-4544.031,17844.427734375
391,12235.172,2516.3218,12048.864,-10665.477,384.28976,5024.0356,22585.462890625
392,2380.341,5566.646,2669.2258,-3520.2244,-2151.2517,-932.7886,7936.33349609375
393,1123.1189,-1271.9766,9732.993,1400.4187,8981.448,-2688.0947,19236.63671875
394,6233.404,4714.106,5135.916,4193.722,-4587.6997,-8752.391,18642.994140625
395,-60.72632,-5355.01,-3095.4187,661.9585,2961.5386,-1585.7854,7506.20556640625
396,-4942.1016,8722.462,9048.052,-4318.203,4935.168,131.89885,17897.927734375
397,-553.13495,-7227.2153,3095.461,-4222.207,-2381.58,-1547.5096,12644.6767578125
398,-4505.7827,-301.99805,15502.51,2463.6357,-2185.013,459.68494,19158.765625
399,-13179.578,-6252.627,-41228.465,3955.302,8938.451,4864.4316,37237.4140625
400,8740.854,-2294.8896,-132.35449,-949.0886,-7379.4346,-1725.4568,16661.365234375
401,4842.1484,3287.2278,-9344.08,1002.04315,-2088.851,4533.62,16105.021484375
402,-7749.2134,-12441.027,-19110.002,-5128.1445,-11987.998,10200.715,30331.033203125
403,-24717.438,-23782.195,-46420.074,432.35513,-714.88275,-7090.1567,25398.451171875
404,-5079.052,4184.071,6890.4707,-5283.4834,5859.4385,-5995.4517,20317.005859375
405,3231.5361,16404.191,9354.77,7082.158,5273.461,-6875.485,22495.98828125
406,2072.9907,-2932.621,-11920.094,1111.7473,5553.7705,-8046.4707,21007.064453125
407,-6382.0625,3751.3052,-3377.79,1558.3083,-2457.8298,2777.3147,11393.6640625
408,-295.22705,-7146.915,-9969.495,-964.5416,226.21745,-977.89014,8947.92578125
409,-3688.7195,-5889.286,-971.9973,2162.7031,-17261.305,-57.62255,30431.91015625
410,6278.175,-4275.452,502.55392,-3133.7192,-6968.732,295.52377,16099.544921875
411,-6473.4917,-1174.52,-13027.502,1535.7341,7762.0376,-4786.4526,19034.630859375
412,-6056.5845,-12156.781,-13448.404,2693.5632,5182.7134,683.2783,12268.1640625
413,10248.541,22514.727,14509.358,-5569.998,-14499.859,-13943.483,37728.296875
414,16504.354,13374.236,13169.027,-385.68872,-9647.047,2265.394,17479.15625
415,31123.883,39337.605,57282.164,559.66077,-16311.048,380.6895,36556.66015625
416,5421.9365,9957.007,4702.335,-88.551025,-2433.7156,-12695.595,22927.603515625
417,-10051.6045,-2671.9958,7478.5107,-89.41016,-9593.917,-3372.856,23295.501953125
418,9983.633,3407.3296,677.26416,6165.295,-322.71356,-9827.7295,21742.875
419,2190.1973,-11388.969,229.23364,4233.428,2652.7454,-279.4599,15385.775390625
420,6040.5405,5882.728,19579.309,-126.76169,5982.1753,16257.525,32951.3046875
421,5826.692,315.62964,-8174.0903,-1157.2368,-4599.8936,-4508.0566,16664.240234375
422,-13538.504,-24277.283,-36014.14,3055.8362,-10023.191,-6320.5596,28781.4296875
423,92800.3,90591.805,125354.28,-133.44008,-12092.206,-678.55743,39706.84765625
424,-2303.2192,1909.3044,-4462.917,-678.09937,4889.6567,-794.96234,10320.3203125
425,7216.7686,10050.983,39945.707,-4021.8079,-4046.7085,-4594.9653,33874.015625
426,8683.074,6842.1523,13066.659,-3314.3926,-496.69434,-6334.8853,13592.744140625
427,-8729.641,-9009.004,-11850.587,-5603.471,-6055.0137,-320.82883,14609.6376953125
428,4196.583,3919.0,7049.212,1206.5475,4257.6104,3854.2346,10598.1494140625
429,1415.5144,4321.5854,6360.343,-2007.0043,-3461.011,3348.9624,10009.6552734375
430,-7244.096,-7503.041,-12467.862,3709.7566,-4024.632,-3191.6104,12101.28515625
431,-4476.815,-1427.301,-6241.746,-346.98615,-1357.3297,2501.7102,6516.17919921875
432,-22415.54,-24151.588,-34404.723,-2318.7515,2240.3003,-6878.9106,17294.087890625
433,-8938.712,-10664.288,-22778.615,2064.3025,1150.4999,-8103.908,19606.470703125
434,1773.2681,1723.4701,6146.7935,-544.1582,-4210.004,-215.55438,8576.01953125
435,15323.566,11259.488,18113.006,3062.782,2054.6533,-2828.1777,10021.8095703125
436,10252.887,5768.393,-5149.411,1141.1603,4569.071,-256.18134,15968.806640625
437,3911.5813,1997.5514,5756.1606,1841.1393,-8445.718,-1951.01,15689.9873046875
438,20899.234,12596.617,5649.2217,143.4939,-4668.527,-7304.0303,20009.375
439,-6780.6274,-4379.395,4041.733,-1211.7805,-1231.9606,8601.38,18105.580078125
440,-5674.4355,6153.4995,8276.84,619.60736,-7756.087,1383.3035,18891.435546875
441,6023.8306,1331.6565,3169.8647,-5536.256,4979.937,4746.463,15833.7216796875
442,5596.103,6277.6016,2846.7012,6354.747,473.48898,534.82385,11514.185546875
443,6261.3823,-3396.0815,10933.032,6168.469,4395.136,-6403.538,21338.33984375
444,-1130.2056,8457.779,12799.405,-3336.705,-1203.5824,-1401.341,14001.58984375
445,4054.8064,8010.247,1867.5361,-2446.3796,1301.6526,3066.4915,8962.623046875
446,-9499.024,-6077.2217,-5198.757,-373.28915,8861.129,-2378.8948,16384.158203125
447,6167.8457,6100.1895,2061.5754,-4357.9106,890.75226,4269.4517,11429.232421875
448,-4331.6094,-4493.7974,2702.3306,4332.6353,16420.736,-825.8146,30297.298828125
449,-866.62744,6215.328,8755.465,348.63437,-3174.5955,-2946.9016,11456.3095703125
450,-2143.1953,3278.4316,-4749.413,160.43318,5337.832,5728.2593,15307.1806640625
451,13260.705,10998.149,7027.551,4851.1187,8843.366,3010.921,19033.677734375
452,-6794.797,-9546.711,-2572.8064,-1434.2021,-2426.9395,-888.3392,7951.423828125
453,1207.0659,-3806.545,-11574.741,963.7424,2619.1072,-114.86308,12158.66015625
454,-204.78906,8131.87,5321.826,1363.8389,-5106.337,3137.76,12934.8623046875
455,4022.0376,5922.4316,2254.628,-553.17957,-3590.9817,548.2756,7113.318359375
456,488.96875,-6845.902,-8990.832,-1997.6506,-2970.488,2524.2744,11475.7548828125
457,-4580.207,-3593.5825,-7132.9834,3726.129,10372.756,-4268.0156,20714.509765625
458,-28976.582,-32290.258,-55086.797,-5197.185,4443.483,5978.1797,29217.8828125
459,-3669.2603,13823.3955,-5151.88,1508.1445,-4370.6934,250.07574,19961.115234375
460,-13304.438,5890.465,-16917.84,3809.4678,-586.4342,-847.4888,22306.556640625
461,-129.67053,-3280.6404,-1481.1619,2120.6907,5017.105,-4984.8496,13078.5634765625
462,-3450.9993,-7100.7407,-6129.573,3537.0454,4363.4717,-252.70683,10274.365234375
463,-2782.381,-3945.627,111.578125,-245.82338,14176.247,-2835.0376,25303.875
464,28436.371,21330.945,24681.846,3973.1333,-7918.6567,4932.5674,18611.00390625
465,1237.4999,5462.215,2744.4656,-3361.3394,-2479.417,2966.8667,9617.58203125
466,-6060.0815,-1591.4631,-8564.589,1264.6135,-6670.699,1199.866,13418.056640625
467,-1744.9998,3324.1567,4462.4116,515.7417,-3505.1533,-191.00697,8398.076171875
468,27114.55,22656.992,52059.875,-42.574135,1921.2748,11809.137,34391.578125
469,12640.674,5984.323,26639.834,-2101.5886,10911.357,-10001.312,31685.46484375
470,-22638.36,-22001.785,-34593.953,5316.5674,2771.3105,-7155.9272,20307.931640625
471,185.7898,-1798.1335,-2480.6848,-2873.9626,-8404.368,-3797.4385,16902.568359375
472,-10111.627,-7474.377,-9971.077,1574.8698,2991.0557,-2885.8047,8115.89013671875
473,12658.587,5772.521,16484.684,-3284.9038,-3738.2405,1265.4344,12942.28515625
474,17917.447,16719.395,20913.152,1423.9661,1994.8826,10382.3955,18852.12890625
475,2143.4316,-5209.7466,-12541.779,-2489.1904,-3359.424,-4794.6455,16827.1484375
476,-37.857178,2182.6206,-967.7605,4596.093,-9338.664,-5626.3022,20684.052734375
477,-333.61603,-6313.583,3356.6423,-748.4102,10322.39,-1737.0922,20045.7890625
478,-301.63843,-5660.6733,-1837.1301,901.24585,-2030.9657,2533.9797,7544.70654296875
479,1247.1641,2799.155,1800.0212,-1416.2828,1604.9132,-4722.273,9082.9892578125
480,3268.8389,7549.133,10030.45,-1228.7753,-1781.9575,118.71434,7014.03466796875
481,7658.4043,8430.494,702.083,-1925.105,-114.83983,224.58107,8103.48046875
482,2145.5415,-5741.0405,1324.5107,-2517.8716,164.50903,977.7205,8852.4111328125
483,8903.632,-3393.4214,8151.8535,-3638.2183,2480.3472,1587.6992,14431.4462890625
484,-1593.3066,5182.7354,14.359253,3111.8015,977.9282,-3271.4463,10081.2578125
485,-3664.3027,2513.921,-4212.8267,6980.5566,1105.719,2093.4983,14312.958984375
486,-6000.0137,-3764.7358,-14374.927,3359.8767,-2608.3098,-741.42957,12238.5126953125
487,-12008.755,-5152.8145,-6122.8896,1795.3218,3392.3867,-1721.6926,9715.001953125
488,-1130.5878,684.7295,3229.313,3564.6228,2152.4167,-2136.238,8949.7685546875
489,-750.66815,-2468.6313,2697.8894,-2589.0713,-5357.5645,2126.6228,11855.646484375
490,4693.625,-1380.4656,1863.9365,-686.55896,-2201.3481,-2688.6804,8084.109375
491,-15827.307,-18334.988,5285.157,-3936.3193,857.63336,3758.5347,24413.892578125
492,-18464.508,-15186.236,11553.4,-6451.7817,1117.1666,9592.262,34900.859375
493,12247.871,16670.223,17721.576,-509.30487,-1296.1302,-901.1548,5793.64013671875
494,4316.141,-7296.506,7917.453,-3262.3997,1153.2366,633.94604,15058.853515625
495,6185.2793,-10202.638,5702.5586,-3755.42,-430.7315,-2542.804,17976.365234375
496,-3687.954,-1196.1428,-2135.5178,1531.5828,3092.4526,245.98027,6376.46826171875
497,-12767.087,-1162.8467,-19247.209,1254.4824,4612.485,1172.9694,18014.46875
498,-11135.296,9083.572,1094.0051,-919.8079,395.54977,-2352.0425,18185.1484375
499,9123.688,115.049805,7875.0474,-1564.0632,8142.9355,47.255276,16665.349609375
500,13929.783,4930.1846,-9585.572,3003.7708,2477.8516,3212.5706,22333.494140625
501,7281.9346,1796.7296,321.14014,-859.5938,3198.3276,1872.1794,9153.060546875
502,11331.223,1438.8624,-4066.6848,-6245.877,-3082.1296,4950.541,20042.150390625
503,-18673.908,-1833.228,-1623.4277,416.41965,1044.3646,1525.8716,17261.599609375
504,25176.846,26450.504,43289.434,984.79596,-1804.3762,7115.0225,21706.36328125
505,-28455.477,-16266.949,-26704.207,-3385.8984,138.79518,-160.5376,12837.826171875
506,10477.368,25901.705,6487.6064,6323.711,-2133.201,5028.183,22909.283203125
507,7840.9336,27003.697,5504.475,4710.5103,-1714.2491,-2831.3022,22734.88671875
508,-352.29395,7027.9375,17719.975,-6875.9766,5253.2466,1050.4515,21809.044921875
509,3433.5647,-2885.8535,-9342.052,539.6845,866.3953,585.3101,11250.3515625
510,7652.872,2694.645,3640.3608,1571.682,-515.39905,3076.6545,7575.8955078125
511,-814.2141,2972.4072,-1971.8341,4307.0254,-4136.6455,3540.4695,12831.7470703125
512,-7924.9414,-155.83606,9665.609,813.8175,-2812.7046,905.8783,16164.970703125
513,-9420.572,-4079.065,-7460.675,-2610.4905,1448.1785,1043.5599,7204.63623046875
514,-8073.634,-2700.7314,-14724.797,5606.364,2039.1212,2377.506,15250.169921875
515,-7449.7026,-2010.1085,-1326.2156,-327.1961,1200.5343,2606.338,7668.181640625
516,-8813.334,3599.8506,-2818.8816,-1350.3853,-2273.8938,3598.2964,13245.224609375
517,-26169.188,-23183.297,-3501.0137,1331.4441,-2757.1653,1280.6371,22093.46484375
518,-2446.2188,1661.3379,-7564.1113,131.74352,-5252.765,4346.882,14268.837890625
519,-16715.285,-21208.71,-41282.93,-3608.2576,-2552.4983,-8754.975,28318.1953125
520,7167.258,16546.822,2056.3857,-1716.4136,-2764.4163,-2606.891,14635.1240234375
521,-11258.414,-7347.147,-26351.86,-59.70389,-8606.902,1178.8522,22990.447265625
522,-5441.949,-2609.4321,-3848.4612,2649.4417,7897.406,-845.95886,14709.228515625
523,3216.9094,6700.796,-5538.4014,4059.2666,4625.4346,2963.8923,16101.748046875
524,1539.206,5347.3677,-1913.8793,1347.6548,-1361.2653,1870.1779,7815.123046875
525,1652.8472,11409.047,11869.705,4154.754,2434.6267,-299.24756,13027.9208984375
526,-11487.979,-12918.091,-2266.6787,-294.15912,-1759.306,-3943.1577,12508.22265625
527,-15401.408,-15703.84,-2661.0479,-1142.984,1000.1896,-580.0872,13198.1513671875
528,-3818.042,7289.717,-100.73816,5496.042,-1620.4601,-3549.4346,15238.185546875
529,-1880.1846,3262.3013,-2770.6638,2735.885,-157.2359,-318.38965,7392.62353515625
530,11876.703,10383.203,13057.157,-452.43744,-7554.0435,11044.329,23305.009765625
531,-6165.837,-4084.746,-5812.9897,-1057.1497,-5981.766,-8879.955,18734.439453125
532,-4068.29,-3243.8804,-356.60864,2527.5864,3388.2825,122.25426,8065.27001953125
533,9764.287,-11540.028,-3839.9229,-1163.0703,-812.5901,176.7658,18848.15234375
534,6140.0483,-7878.973,-6494.2515,-3178.0012,3494.8164,-1987.0753,16056.888671875
535,5997.052,3400.9126,6705.953,622.4528,-2969.7568,-2864.8215,7831.04150390625
536,-1072.7478,-5605.579,-3103.9846,4057.4607,-1632.4163,4267.5605,11290.9150390625
537,-18957.688,-7097.5312,-2337.5781,1363.616,9.70644,4950.863,17288.3203125
538,-30260.164,-19981.904,-11298.219,1283.4047,1387.747,1895.7678,17082.240234375
539,-3941.5195,7118.4,3858.7378,2020.031,-8329.716,-1826.7966,18091.46875
540,363.77124,6823.727,3597.6191,2999.529,-24.230595,-3108.0457,9341.9169921875
541,-14671.836,9526.547,-3359.312,-7098.6626,1557.1268,-1791.0955,24654.841796875
542,-266.54486,-6562.0635,3362.0798,6925.3853,1777.4521,-2823.8503,15903.705078125
543,-2789.6758,-5840.323,3972.505,1718.1736,-3837.0864,-1386.7032,11595.5791015625
544,8541.166,-20636.531,-8536.834,4218.036,3050.8264,-4042.1538,27839.08203125
545,-12815.523,1069.4531,-2345.6206,-2805.4895,453.42487,-1128.0157,13604.537109375
546,4587.259,-16039.164,-893.8557,-2268.131,612.4364,-839.29144,19002.837890625
547,544.8667,-17187.34,-1335.1431,-9170.324,4563.49,1690.1353,24656.83203125
548,-1622.1357,-21296.0,-10267.002,-9053.648,-173.35312,1437.1221,23321.845703125
549,2198.874,2910.5532,-8046.694,-1244.846,11466.996,-8160.3022,26677.07421875
550,3192.7578,3935.59,3027.879,2520.5637,4588.8335,-276.67868,9119.3759765625
551,43.624756,-29.624634,-4142.3994,4892.7944,-2437.865,1008.9504,10484.43359375
552,-6453.7373,4273.2383,13382.735,-1977.2675,-1621.1091,-367.01285,17770.34375
553,4368.8086,510.41248,-24.103516,-956.152,151.3789,-3783.8833,7937.2568359375
554,-20058.732,-14153.0205,-2659.213,222.02705,2864.728,3363.98,17134.2109375
555,5298.125,9283.6875,-2144.6382,-3658.1633,3864.8677,3739.3755,15094.6982421875
556,4358.4766,12648.466,1216.7593,1058.9492,-1131.6279,3938.2158,12584.658203125
557,13951.395,21406.064,19836.53,3690.0823,-1076.8113,-1235.35,9759.2080078125
558,18075.16,13100.091,8580.662,4154.063,-678.11804,-553.03015,11032.9873046875
559,9690.725,6190.9517,-8909.972,1363.4105,1250.0571,672.57495,17457.3125
560,-16656.436,-20687.0,384.57617,-3572.5452,-79.39295,-1119.498,20430.232421875
561,-14664.56,-8011.7886,-461.51807,-4747.093,2557.984,-1110.474,15570.16796875
562,5693.899,6108.9927,15318.502,-3993.802,777.41736,2154.111,12344.8466796875
563,4438.996,-2088.5967,11496.454,-607.6841,-5985.545,-3617.728,16921.505859375
564,2952.9927,-2921.2168,3625.98,1517.8634,2053.9106,-91.03776,7648.84033203125
565,763.6277,9081.73,545.0813,-1557.4064,-1085.6687,-481.62186,9086.525390625
566,7680.78,-1963.4355,1666.5564,2609.0378,1652.2513,326.79523,10005.5341796875
567,6871.312,-900.2091,-1045.2748,2089.1465,-2621.8152,-1739.414,10214.5478515625
568,6694.8027,3363.3452,-5152.668,-1350.4036,151.85327,2151.2427,11463.6513671875
569,-2783.189,832.5736,-1718.8441,3985.899,-2456.2212,-2887.9248,10056.82421875
570,3346.1523,1418.6396,-5267.2817,-1602.8815,3539.928,-1311.5535,10571.921875
571,-9028.4375,11789.218,1134.8138,-5665.283,1974.8942,-2500.6682,21256.48828125
572,8333.116,6679.116,-47.66455,-569.59344,-4104.4556,2264.3628,11225.2568359375
573,2218.0283,14450.604,13121.266,4019.2249,-90.10747,1153.7941,13697.5322265625
574,-4485.9746,-5243.9126,-1849.6512,2643.238,-1494.2775,3838.4727,9021.2626953125
575,3088.7473,4602.6895,11325.293,3727.631,-6599.38,-6649.6187,19043.541015625
576,-235.84381,1352.5739,687.7718,4349.448,-2028.3793,2187.9531,9239.4013671875
577,-12372.947,-6179.2197,-13335.371,-1105.4756,3073.0874,7248.836,15325.9326171875
578,-7141.57,-4142.7666,-8570.82,6669.303,17318.898,-9608.548,36408.3203125
579,4477.8677,-3106.5383,-18581.746,13294.598,-1961.3828,-1347.8666,31009.771484375
