Element Label,S11,S22,S33,S12,S13,S23,Mises
1,176518.42,183624.44,214108.05,-4654.7812,228.53406,4719.48,36446.4140625
2,-239456.77,-254806.47,-219278.12,11662.224,-702.7796,993.84406,36945.828125
3,102574.13,121723.09,79869.94,-5089.6357,-150.53021,2915.606,37685.65234375
4,-33444.383,-72883.12,-56623.477,8617.933,-1158.6716,-5591.0835,38718.7890625
5,145378.38,164746.9,187674.62,3406.3628,5354.708,6919.7554,40117.00390625
6,-144895.6,-118224.05,-155889.28,5396.2095,-1212.0271,-6046.003,36426.3359375
7,217195.98,183306.89,181649.62,-9051.158,1595.3455,-2779.114,38522.15625
8,-100464.51,-81934.766,-57587.86,6489.751,-23.42301,3468.152,39366.25
9,75975.48,61659.46,96282.29,2414.5203,4862.8643,-13938.9795,39740.9765625
10,-259564.19,-264973.1,-265842.5,3165.2075,-183.7473,20216.936,35931.11328125
11,39998.387,24387.672,68041.086,2463.8887,-585.29364,-2379.6604,38782.5
12,-74007.23,-58515.4,-103552.625,-1242.6405,-1446.7388,1873.1287,39900.83984375
13,-17070.465,-38128.633,4772.261,2491.15,1148.5011,-6598.427,39162.62890625
14,-13331.733,-3098.1204,-9894.593,5506.3564,-10552.581,15576.888,35132.828125
15,130810.96,130526.01,130522.03,-869.9345,131.64426,-729.82135,2000.6533203125
16,16940.754,32479.139,56267.457,-7489.634,-7298.3906,558.695,38806.92578125
17,17162.176,1868.6023,22095.352,1000.2666,-10373.104,-4284.162,26730.939453125
18,37906.586,16504.889,908.0409,6646.0547,-4181.3057,8505.37,37908.8046875
19,-35270404.0,-35270036.0,-35269056.0,-276.46097,-869.59094,-122.39932,1999.81652832031
20,46979.027,42287.496,48090.566,-18365.639,6068.127,-355.90677,33929.30078125
21,-18922.195,-62990.797,-50235.11,-3317.5488,624.69885,-383.93018,39714.67578125
22,795.37427,1198.3911,2759.9224,407.27332,195.34285,-232.18163,2000.98522949219
23,-301.88507,884.8963,-84.62036,-451.07764,730.8828,444.6517,2000.98364257813
24,-1453.2555,-6404.5947,-21774.92,1020.3638,-5989.6484,-6397.6387,23883.19140625
25,37077.26,20679.102,54922.742,-9224.591,8628.085,-3686.6501,37408.2734375
26,-9105.157,-13762.441,-50386.914,3452.604,-400.03998,37.976097,39621.44140625
27,77270.28,73892.41,92873.57,12307.76,-11591.069,-9886.581,38187.87109375
28,-105007.27,-131384.17,-149345.36,-546.2973,1141.6652,-770.5627,38712.94921875
29,-9358.384,-34918.68,-17406.0,-18025.482,-5940.3926,-865.5848,39940.70703125
30,-13569.012,20252.912,7701.157,-14474.728,3577.4053,-4742.462,40141.80078125
31,5304.856,-22671.871,-79.63528,-9152.778,8770.257,-11083.553,38880.03515625
32,16098.316,-2520.1182,35423.773,-11783.759,5276.7993,-1277.9021,39811.21875
33,-21576.855,-3920.7527,-38266.49,11196.138,-4689.117,9665.257,40090.2890625
34,-375.14603,31405.234,36400.977,9979.615,6068.4614,-1134.6324,40085.35546875
35,98882.67,120195.875,134374.69,-14004.891,2081.1404,2054.3394,39642.8125
36,-9936.577,-27606.682,-33815.906,19168.416,-1772.8265,-3589.9905,40135.79296875
37,40236.86,53062.5,51355.766,-16710.299,8513.4,4856.798,35657.0
38,-26008.99,-42784.617,-69654.07,-4805.9565,-2815.5332,1121.1113,39382.546875
39,-61806.008,-50290.277,-36404.17,17478.008,1240.0015,1199.4863,37559.5
40,13316.289,5964.2437,42480.383,-5904.1567,957.34174,-10856.736,39748.52734375
41,-22858.771,-33106.387,-65146.14,-74.162895,-1220.6868,1129.3564,38317.14453125
42,26979.184,49941.008,45269.574,-2034.013,1280.0546,-1179.2704,21524.458984375
43,284206.12,282876.1,282127.84,249.58337,39.11562,-186.57599,1902.61779785156
44,117651.984,118365.516,119261.414,-136.22528,-758.76434,300.06317,2000.99169921875
45,54649.66,53675.33,54073.863,11771.979,9016.043,5072.239,27157.1015625
46,-55510.934,-35710.984,-29236.8,10525.247,-10737.352,-5380.364,36430.7734375
47,65809.28,64403.45,65211.242,121.65746,-110.08709,-899.9843,2000.986328125
48,-28781.389,-32379.373,-11614.611,-11682.272,7182.8247,-8295.691,33764.9296875
49,25945.438,37801.305,25534.209,5373.1665,-1807.0854,-18525.795,35659.93359375
50,-25082.684,-19439.838,-16092.008,2653.8755,1129.0101,-18297.56,33034.7734375
51,23695.236,32692.842,50457.836,-8162.6084,2636.4226,-16122.12,39457.5625
52,-22952.508,-7888.2295,-40086.96,-3559.8572,-4649.395,-12279.434,36522.07421875
53,-30584.938,-32981.555,-48831.08,4505.9272,-354.89743,-18992.762,37926.234375
54,41652.203,30958.365,33883.17,7561.778,-16115.403,-11245.302,37704.984375
55,25881.506,27832.613,1938.6378,-4709.7983,13994.271,1556.0222,35848.45703125
56,2560.157,3964.723,2011.5144,-425.62988,-286.92166,237.39503,2000.9853515625
57,6507.7007,4822.9487,4307.6694,-66.97459,-60.157978,-50.359615,2000.98510742188
58,-7714.827,7717.9517,453.881,-4000.545,11223.369,3948.0596,25524.482421875
59,66.58438,5238.3223,-9946.936,17690.941,-162.63478,11466.544,38887.49609375
60,-5277.833,16602.584,23155.111,-821.7222,13314.717,-6621.8574,36475.71875
61,14930.209,40175.277,51543.68,-10330.749,2936.6687,-1413.2681,37491.1640625
62,-30768.03,-4137.5513,-4597.583,11061.594,-1653.3739,10625.042,37564.546875
63,-7197.1196,8276.498,32735.191,931.435,6614.9844,-5086.2324,37783.73828125
64,-2550.9443,26786.104,-5762.537,13554.526,-458.4905,3158.3723,39331.0
65,-14441.145,1661.533,22877.457,5303.076,4264.7017,-140.73804,34496.88671875
66,7106.129,-1326.9209,15828.503,-12221.709,15565.653,-5885.4976,38725.30078125
67,10623.877,22807.898,47372.684,-6106.1396,9004.908,-2946.824,37846.375
68,85325.234,76852.4,85449.555,-4455.01,16384.178,-11515.469,36545.0546875
69,-4871.9775,-14196.156,-29768.639,1425.3485,15875.3,-701.9895,35189.37109375
70,-52749.605,-48470.47,-40717.3,15240.889,9936.07,8848.75,36599.60546875
71,95530.555,93988.03,95226.29,-4344.951,3654.96,4844.2173,13004.3818359375
72,37639.04,5404.082,16344.002,715.5609,11171.535,-5055.193,35478.68359375
73,1391.558,16624.977,24412.7,13967.2295,9392.842,3750.612,36103.56640625
74,102886.08,100929.016,102080.42,-350.3965,-357.60977,322.7736,1991.73083496094
75,149059.03,139249.6,148315.89,3566.4434,-3034.0261,-2085.552,12973.4580078125
76,57862.863,73603.71,70043.516,-8403.048,-769.4708,2156.832,20783.99609375
77,78177.09,77035.516,77133.05,153.32144,-941.2383,147.8118,1998.80688476563
78,1712.1461,2125.7834,2320.809,285.08466,1016.5043,-351.40744,2000.98107910156
79,-103530.18,-95667.64,-111237.63,17837.525,-3608.324,11545.366,39690.0859375
80,26631.676,22757.004,38040.023,-1045.3224,-1994.4767,7486.9155,19306.494140625
81,1704.0828,4197.724,11122.341,5370.5303,949.26636,10437.08,22078.611328125
82,2144.6045,17249.223,-23076.012,-4019.4548,-8441.501,1751.0745,38943.8125
83,23114.01,21882.656,42201.61,11970.575,2471.974,14638.24,38476.05078125
84,18162.707,2275.5647,-16525.158,9863.059,10985.702,68.60936,39477.44921875
85,-2610.5762,4173.017,29508.535,-4952.539,-9546.841,11519.032,40060.51953125
86,9719.248,-14578.74,22128.809,6845.626,1371.2264,11281.961,39673.58203125
87,-52570.117,-78498.59,-94398.766,-667.18085,1028.0021,8306.54,39355.6875
88,-10343.491,-13887.139,3192.1772,-827.24414,-1103.5612,10493.001,24078.064453125
89,9046.139,34804.637,21411.291,-2717.6062,-15136.924,2432.6365,35002.54296875
90,28978.238,3222.5295,10278.267,-5782.711,-3474.799,-8145.3335,29444.79296875
91,-14284.624,-9282.753,-12399.266,-4908.0586,-266.4051,-4077.289,11895.203125
92,9296.126,-12158.064,21608.438,-11463.355,2336.1504,9378.65,39376.41015625
93,-22377.396,-38932.977,-65035.223,7489.569,-1715.1045,-1259.9283,39615.91015625
94,-3593.6135,-33667.188,-48474.63,1084.8622,-767.98254,303.81747,39680.8515625
95,36258.547,33642.047,71192.68,4300.149,4557.0283,2352.019,38118.42578125
96,110443.1,126822.06,94998.77,-1972.3896,-1134.3969,-15612.51,38814.20703125
97,14729.267,39057.105,29458.012,14245.774,4110.415,10065.624,37602.18359375
98,193226.02,201840.11,186313.9,-4265.114,-1951.6775,894.83813,15808.99609375
99,22758.195,18543.83,8037.262,1668.4706,-3818.1848,-18052.342,34672.40234375
100,-28814.295,-7380.0415,15186.886,1692.217,-400.75903,1493.2673,38316.58984375
101,22231.295,44.49455,5777.5728,-11302.72,1121.2908,-4597.893,29126.822265625
102,26715.379,-14122.454,-10425.647,717.50134,-1253.7191,-2814.524,39502.53125
103,138446.48,127956.39,108237.12,-8809.256,13382.881,867.16003,38446.30078125
104,-105544.53,-68219.28,-104164.4,8306.258,1317.0282,-3811.951,39991.796875
105,-3429.6428,-29015.229,-47392.04,-3323.228,-3924.5425,-825.624,39292.41015625
106,-4425.0537,-6845.6846,-32978.344,-9331.482,-12617.163,276.7804,38614.38671875
107,-23602.637,-17682.406,-45211.09,-17605.6,-2202.732,-113.67394,39678.3046875
108,21833.086,-4706.248,28712.85,-3714.215,-4065.2112,-939.0462,32060.275390625
109,-15765.072,-21590.469,-50433.26,1500.7052,10321.119,-1503.0969,36972.60546875
110,-19771.285,-15871.76,6187.6494,-17262.076,-3779.3755,-373.89883,39051.9296875
111,39811.316,22522.697,48530.61,3844.2947,14806.661,-489.22092,35049.0
112,15756.195,11309.602,33770.53,-8196.311,16984.475,-3683.1418,39141.32421875
113,14206.707,4353.819,-11394.944,5490.7617,17767.416,-1279.9037,39276.921875
114,-1257.912,-11496.018,-16059.04,5303.4473,18510.967,6464.58,37550.984375
115,47102.902,22493.658,33588.277,-63.981594,16517.691,2947.3916,36058.99609375
116,17958.68,7977.217,-6432.3335,4548.972,3338.0234,15944.733,36184.296875
117,-533484.0,-530671.4,-524329.94,-8895.973,-13547.755,-7105.9404,31709.3671875
118,-306619.4,-299337.16,-282428.44,-4534.665,-4461.9844,8391.905,28191.47265625
119,362191.62,360676.2,360894.03,-625.8555,-329.22778,-340.61102,1965.24401855469
120,301420.5,300395.22,299801.44,512.8035,559.5604,-296.16245,2000.98315429688
121,12243.075,33090.45,51129.01,-1360.513,-5468.2017,8049.406,37758.375
122,-27371.205,-8936.008,13266.624,4862.772,7906.787,4313.107,39451.53125
123,-21143.162,-8935.509,-35585.277,-13402.308,11908.998,-2634.124,38975.12109375
124,25012.252,14411.139,43978.56,-6990.343,-11992.89,-5186.663,36495.96875
125,22791.836,367.06396,29976.846,-14592.314,-4049.4148,-5146.4243,38510.703125
126,305090.75,305416.5,306308.34,-445.95383,-311.18817,782.1356,1978.47497558594
127,272336.62,286359.25,262919.56,10112.517,1565.7296,-9673.777,31815.978515625
128,-36413.207,-17123.674,-42843.13,2619.442,-12985.0,-9908.015,36856.2265625
129,-35748.875,-32369.025,-68180.09,7506.46,-1198.0677,5362.725,37847.6328125
130,12357.551,16967.232,36170.734,-3324.602,-422.38928,-2372.7288,23002.8125
131,-33059.44,-19609.445,-60355.863,-3311.9688,-2659.5945,8180.525,39344.9453125
132,27121.889,1820.7965,412.20667,-15836.342,-6986.57,3036.909,40052.99609375
133,8251.556,28649.877,-14800.531,5382.618,-221.49292,-3132.9434,39169.18359375
134,4163.0874,-20272.006,-2197.5466,-5481.9155,-2009.314,16560.605,37511.8125
135,-12399.352,-29137.803,-41132.74,-13126.74,5191.814,10586.553,39482.3359375
136,-208890.5,-211704.8,-227631.12,-3455.9185,-2849.8289,-10155.728,26000.013671875
137,-17332.814,-33756.715,-58557.887,-492.74786,-24.73193,-1096.1973,36007.078125
138,25148.564,23456.812,23081.69,299.8091,-129.98195,-37.369907,1990.44946289063
139,-749339.44,-733769.7,-749197.5,-4582.6724,-6499.371,3359.5957,21536.390625
140,158823.23,123746.17,136502.2,-2284.5112,5146.4297,-6798.9873,34343.34765625
141,-26463.117,10072.1,11444.735,-3397.1404,347.9376,2166.823,37893.61328125
142,5346.5215,5599.34,-14404.68,-3535.3408,18611.924,-2078.6785,38533.58203125
143,19858.615,31274.418,52158.53,14425.602,398.59995,4999.996,38789.76953125
144,-21021.518,-1834.3682,21008.008,-4571.2793,-2907.43,-4519.545,38438.640625
145,4642.659,7951.4746,40488.344,-6271.048,-843.3326,4455.0913,36836.2578125
146,5467.3003,-15525.543,-38912.4,3165.819,3198.9983,-1527.3192,39323.875
147,-26677.215,-22123.617,-62529.992,5616.925,855.25183,2336.275,39782.33984375
148,-8128.0366,-13919.78,-45359.64,9915.823,4094.2476,-443.8657,39369.41796875
149,-69055.64,-93373.59,-76852.445,-10099.569,8471.638,6061.5117,33076.9765625
150,-24970.012,-11600.721,-378.32996,-10841.158,541.3061,-13444.194,36748.140625
151,-2306.5369,22836.66,-3526.9255,-1270.1191,642.23,-9997.153,31149.001953125
152,15815.491,4357.949,33467.938,-6814.154,10697.701,-8570.741,36716.90625
153,4750.566,25044.615,46055.17,4733.002,-6745.845,-3291.1091,38934.54296875
154,-30469.377,-40770.688,-48801.92,-2247.5393,-1227.7076,-3983.0212,17905.84765625
155,-3845.1367,-5592.766,-41187.023,-4136.1924,-6619.048,-4403.2373,39662.78125
156,-23896.39,-6682.3716,9260.23,13063.65,7825.6807,-3293.1914,39410.16796875
157,7982.874,-3331.6343,-27526.309,6531.34,2697.2776,-5996.3467,35282.01953125
158,-16126.45,-2168.211,14260.108,10888.215,-8798.266,9473.833,39385.0390625
159,22211.775,21934.023,27642.342,1274.3645,6948.9165,19192.68,35859.27734375
160,15265.585,5595.9424,-3790.1394,15600.221,8489.496,10823.028,39624.359375
161,-4633.765,-7229.2163,25787.291,7680.9883,8467.51,-8347.219,40152.83984375
162,6724.563,11674.804,-9115.053,1806.0459,573.94775,18378.984,37120.65625
163,7708.9126,-22887.158,-11153.995,1845.2296,-3549.2214,-14757.958,37632.37109375
164,36333.883,11670.881,50288.906,-1590.3726,3362.381,-8584.318,37546.70703125
165,205919.56,182069.83,188471.4,6212.4204,-3833.315,-17067.021,38611.2578125
166,-34073.562,-43274.184,-17283.256,-11825.194,-9052.229,-7277.5,36677.8828125
167,-12043.268,15250.097,-22736.781,459.4715,-7147.574,9011.987,39353.34375
168,48256.766,68323.14,68740.234,4761.913,-7939.7993,9975.551,31094.798828125
169,-82999.87,-69391.03,-98797.734,-5730.457,1029.8134,-14952.19,37711.5859375
170,-105712.79,-92573.35,-125135.96,-715.11755,-1061.7091,-13996.432,37386.23046875
171,112087.33,127657.13,98958.93,-324.64917,-9058.03,-11341.4,35376.859375
172,40152.94,-2646.7295,30038.12,-567.9456,1470.2164,3011.641,39190.2109375
173,-4934.18,-26925.13,17006.486,5880.4424,3856.7139,-2031.0264,40102.71484375
174,44443.4,39804.605,9799.996,10737.472,1740.9607,5340.944,38749.578125
175,5491.7744,37184.6,42158.254,3299.3743,-5834.365,-2071.1907,36530.09765625
176,-31727.877,-18954.656,-47599.816,-5041.7935,1533.2975,-13626.492,35470.62890625
177,21877.906,28754.94,3327.7373,3689.3381,-7334.706,-9520.908,31514.171875
178,70353.56,41683.117,86456.914,2617.14,-783.6726,-3247.2905,39962.83203125
179,308.60294,28375.418,-4760.4805,-12009.967,5313.14,5531.9595,39559.1796875
180,-56055.355,-58564.297,-91630.01,8061.804,1526.9003,-4275.8853,37939.66015625
181,-18554.09,9317.043,-28631.574,457.46564,1064.6277,-8490.327,37141.77734375
182,-18786.59,-8985.759,-14348.376,-16998.148,-5382.332,1515.0499,32138.166015625
183,-17089.479,-23026.502,-9395.962,-3732.0667,14783.447,-13619.551,37336.6796875
184,-10787.082,-12279.085,-11414.127,-724.5844,112.38505,-485.54654,2000.982421875
185,-3675.321,-5101.442,-26721.719,570.27454,-6796.8423,3696.8735,26093.5
186,-2425.9568,6743.7783,21559.797,2647.3735,10293.828,1165.912,27972.306640625
187,10186.525,-15767.328,-22021.023,-2739.7556,12674.462,2111.8794,37320.81640625
188,108532.29,108264.28,106789.805,214.61832,560.82446,306.10196,2000.98254394531
189,-8043.2153,10553.431,-8134.986,-8360.298,-3209.4624,10092.5205,29895.033203125
190,51879.953,58751.41,43112.28,-1366.79,6466.0713,-17550.455,35205.4765625
191,32700.777,14632.937,35515.027,-699.65765,2681.706,-7920.337,24422.380859375
192,49901.844,17326.094,36007.043,-11918.428,-2813.6226,3301.8018,35835.921875
193,-22226.707,-635.92303,-4147.324,13397.515,-9250.649,-8826.395,37836.45703125
194,14529.248,7610.8105,-9951.367,-11684.86,-14460.279,-5323.308,39996.46875
195,65137.0,38520.977,59332.566,5451.265,9226.631,11266.699,36234.92578125
196,23591.219,50095.4,29486.922,4139.4062,1862.9597,-13247.128,34194.2265625
197,17461.21,24812.139,-11448.533,-9381.708,-6130.5596,6468.5386,40058.078125
198,-50998.332,-27127.998,-52702.047,-3457.9246,-12699.45,9448.053,37428.07421875
199,5913.4316,23841.56,49720.98,-1723.7596,-727.7335,-3647.7244,38801.4453125
200,-5975.6445,2331.978,15301.144,-14910.036,2109.2676,-12297.097,38456.328125
201,14151.571,14382.467,20739.986,-6663.732,3504.184,-18013.664,34430.6484375
202,-15376.027,-8170.833,-8214.126,-928.27594,-17632.344,3785.0085,32091.548828125
203,1757.5874,1769.8522,19556.682,-5102.876,-9075.554,-15417.191,36808.61328125
204,16304.518,31738.719,27420.617,14339.863,-324.4804,-2925.8877,28863.599609375
205,26745.643,4829.5005,11920.12,3766.8672,-5679.396,13106.537,32091.64453125
206,914.813,657.972,-5065.4453,970.68463,-18427.074,4849.3086,33560.97265625
207,1066.1619,2833.6116,9281.308,-2005.7622,-16349.235,4630.8086,30567.751953125
208,6575.5747,1011.04663,26914.777,-12441.219,1451.5725,5920.499,33669.79296875
209,-11838.809,14914.517,9064.954,-6378.0303,-9207.561,-7065.335,33460.34765625
210,-22603.518,12656.502,-14635.945,10411.512,-3225.4443,5393.008,38333.76171875
211,10523.761,12288.219,12554.311,212.41614,-35.231026,-265.3517,2000.98608398438
212,-6075.744,-12832.273,-30808.66,-41.19435,-8232.002,4073.4863,27264.29296875
213,520.87067,841.307,750.00256,-839.0306,230.19151,741.91235,2000.98522949219
214,-34465.35,-40075.66,-19718.209,3837.499,-6387.3687,-9924.608,28173.7109375
215,41026.227,31387.342,67965.08,-10493.008,-1176.4905,-3467.291,38063.0859375
216,24030.79,30990.32,41237.28,6944.066,17836.273,-4459.752,37195.1015625
217,-1025.0116,7702.757,-15366.438,-3189.3867,-6102.212,17808.475,38738.5078125
218,-2076.004,-7537.6416,-30477.158,-8937.28,1731.5376,13732.328,38674.1328125
219,-465.8872,7161.0303,-18297.836,18865.973,571.08746,2090.0334,39925.04296875
220,10591.982,-12173.166,9420.146,-1177.9666,-8078.8857,-9560.131,31098.302734375
221,-4582.106,1782.5947,-4013.8306,7804.693,-2331.8545,2071.7166,15784.2900390625
222,14141.733,-5524.781,-8588.839,-1967.4763,5476.4897,17494.22,38420.71875
223,-443.34448,-7068.5947,-3434.8608,1829.9108,6773.8564,8424.043,19839.8125
224,-429.2193,-16315.79,1377.817,9384.713,-9469.445,14645.91,38224.2578125
225,10552.874,27123.62,1250.0756,6898.0146,-1390.6223,-13156.449,34396.390625
226,-17210.557,-16360.112,-32080.412,-1580.3378,-11966.151,16950.592,39160.03515625
227,34965.69,6264.684,3808.4382,12921.165,-6096.1934,2754.034,39184.078125
228,24992.785,8998.895,7144.6724,-14518.618,4536.3965,-6548.4854,33341.484375
229,-13792.192,14386.324,18876.242,-12366.796,-2989.325,6334.507,39328.1875
230,-5156.068,8917.269,24741.049,-2514.8472,-3552.565,7561.271,29991.634765625
231,5934.644,7515.8345,7984.1025,-112.60937,-394.71616,113.48716,2000.9853515625
232,6456.222,-10989.304,-23830.242,-888.34033,15040.7,1515.9733,37164.26953125
233,35117.426,16516.793,-5186.932,-7432.847,7211.3643,-3316.8032,39692.50390625
234,5040.6504,8887.207,-29601.615,2585.5378,4983.134,-5329.1562,39088.1796875
235,21342.475,-7303.742,-16668.73,-4043.1099,10674.553,2042.0271,39748.81640625
236,-29078.688,-6668.8496,-43895.805,2096.4448,12308.079,3120.0867,39378.33984375
237,-6313.4937,21825.215,31898.945,10472.899,-3075.1387,-839.5639,39195.12109375
238,1381.0449,-1398.7275,-31710.393,3254.4724,8859.99,8724.86,38812.70703125
239,26454.707,-10213.893,-7506.1953,9661.769,1761.6705,-3714.3225,39791.69140625
240,10058.841,-4673.617,-25335.273,9188.953,2242.5598,10991.654,39739.06640625
241,13948.557,22581.375,4531.785,-3027.7766,2692.642,-3423.7124,18135.9609375
242,10316.352,4411.2026,-27739.812,9601.368,351.77893,-592.57556,39196.921875
243,4059.887,-22297.65,-24513.66,15671.695,-880.8262,-3121.8052,39069.29296875
244,17511.684,-591.49695,-24247.701,4121.5283,8007.9595,596.5497,39496.89453125
245,-2093.3467,12062.006,14571.13,11207.258,30.680069,7685.8438,28217.2734375
246,47005.156,52990.215,35810.543,13413.025,-12315.375,10575.506,39476.55078125
247,37039.26,7625.863,35553.242,-13481.496,167.14388,62.177017,36999.93359375
248,14224.396,2680.5461,-5263.258,-18566.762,1130.4982,-6847.4326,38297.99609375
249,309482.03,272997.1,301573.6,1135.1588,-504.47665,-4.4745116,33313.4296875
250,9609.953,-8106.865,14230.965,11389.743,198.0731,8017.59,31610.927734375
251,31043.77,27571.209,26166.457,-11428.551,4142.1636,8329.676,25891.474609375
252,-274886.16,-262955.12,-274802.1,-3847.865,-4423.642,-3420.5547,16720.59375
253,-2717838.8,-2717005.8,-2716348.5,-175.35696,-858.77997,92.88247,2000.99890136719
254,129447.78,140636.8,128579.1,8459.28,3763.5876,5563.4424,22038.513671875
255,115759.86,115689.94,117173.15,264.55957,-746.7421,-81.61846,2000.98132324219
256,141279.11,140352.67,139461.97,101.8235,498.41266,-60.47193,1806.69299316406
257,-73694.88,-81412.13,-64894.934,-9123.983,5002.0356,4207.229,24141.48046875
258,-372248.9,-353800.0,-348877.9,-3992.789,-13519.899,4021.3198,33167.75
259,-65141.4,-48132.29,-34046.93,-9614.904,-2306.6897,-10342.685,36626.515625
260,-434390.28,-399984.66,-409739.88,-2094.9849,6083.867,5443.966,34005.80078125
261,195371.38,175932.89,190181.45,-19695.303,3649.9285,1250.654,38888.03125
262,81716.95,106107.57,65129.332,3063.8777,-806.93536,-5814.44,37498.96484375
263,4920.6616,24944.328,37902.81,13140.063,-5651.216,1524.3611,38067.16796875
264,5289.8516,40265.453,14805.559,11116.409,-2952.6685,-5169.4546,38184.70703125
265,-11790.774,20582.51,-2650.0193,-15070.659,1513.2399,-3971.9517,39638.8671875
266,886.80457,28352.68,14736.745,10254.576,2617.6611,-8657.012,33565.62890625
267,32517.473,45892.29,9442.555,348.8376,6998.741,-1699.1152,34291.88671875
268,-17695.057,-13307.926,3332.8506,18549.195,-1030.9437,7727.4517,39795.91015625
269,9368.611,12510.141,21453.28,-5019.9,-755.5254,-552.1665,14006.0478515625
270,2825.6584,702.5318,714.00604,14051.943,-5225.3237,-6185.833,28170.203125
271,-22978.043,-8918.661,-34351.203,-14154.524,-313.51453,-10354.1,37548.4140625
272,-14810.685,-9654.128,-26129.684,3274.4763,4020.3662,3187.2766,18005.82421875
273,8200.287,32320.135,6154.921,1928.1332,9232.428,-1943.4574,30223.86328125
274,-6582.1636,-3955.6482,10920.405,-3672.3096,7313.954,10611.529,28390.505859375
275,-44427.77,-57849.55,-34069.137,13802.825,1037.8016,-11574.38,37458.78515625
276,5521.8306,7532.776,8516.321,-268.79404,-13962.331,547.59784,24350.47265625
277,6471.9297,40324.55,16303.647,-9382.148,-8312.148,-4043.2146,37818.3203125
278,-4589.62,-7003.427,8120.3184,3004.7551,-2349.6375,-3417.7026,16635.45703125
279,3963.022,-6266.7363,4588.9697,5805.7466,7.2048,2212.9932,15074.990234375
280,4275.9194,-11186.32,21301.672,-8508.831,-10221.578,-3815.8792,36966.72265625
281,8236.932,50471.08,19280.307,-4661.8267,2623.6567,4183.656,39719.3828125
282,-7117.539,12446.826,473.01392,1221.3895,-6625.2803,5840.616,23029.8359375
283,-193.48926,-19921.072,-9562.8545,1062.5852,1014.54083,916.92017,17352.953125
284,14367.781,-12008.281,4789.5874,-16118.992,2094.7473,6626.5933,38199.05859375
285,-44869.055,-20507.148,-28472.275,4330.9863,-1468.8608,-7098.6885,26015.75
286,4370.532,12754.15,25412.285,6500.7383,-16310.264,-1267.2062,35585.17578125
287,-12930.033,12603.298,16803.262,5567.4507,2491.5178,12564.173,36905.5234375
288,-304.48535,4103.7334,728.59937,14278.456,-2799.0144,15499.282,37037.2109375
289,29114.799,16238.441,53093.676,3728.9937,9754.7295,-1972.9052,37261.30859375
290,25703.164,53244.043,59949.234,-40.805042,8416.209,7813.416,37199.16015625
291,4826.216,3357.8425,-15905.047,-5639.6313,-4761.4224,-6245.0312,26113.810546875
292,-27478.117,-5053.09,-20949.803,-9441.25,-2638.066,-10404.39,31814.255859375
293,-793.22217,14264.05,-29386.164,-3035.949,-4814.7373,3500.8806,40109.52734375
294,8607.358,18841.55,-14028.039,13380.641,2573.0222,5561.476,38710.86328125
295,25338.191,-13113.743,11629.192,8819.506,-3484.0693,499.2226,37548.17578125
296,-8847.791,-7950.412,-9978.675,51.888084,-336.5748,-430.89096,2000.98583984375
297,-5848.315,-1500.6829,-39012.355,-1028.3192,2789.9753,7079.5244,37945.0078125
298,-11739.638,1405.8691,18249.266,14500.986,-210.30614,7337.3467,38345.765625
299,620.5947,16460.922,19041.9,2217.8657,6899.5625,11260.603,28921.154296875
300,-27504.588,4495.8804,-10263.032,11822.578,-1254.1029,4990.152,35613.2890625
301,-6085.551,5245.5127,-5153.9287,2903.457,-2210.545,-6497.521,16891.0546875
302,-9512.823,23883.518,-5565.0215,-686.2099,6746.502,-2578.4534,34014.1484375
303,-3200.4312,5197.581,25070.238,9115.8955,-4756.729,-2080.6235,31024.265625
304,32720.693,26988.756,12026.58,-11220.476,1262.8179,-13169.748,35288.69921875
305,13346.129,-4357.841,7147.024,-4444.52,410.9374,-9770.077,24253.697265625
306,33145.008,31826.38,34740.92,-521.29266,510.59775,2943.3242,5828.97705078125
307,-22890.516,-7405.717,-13840.464,-5550.3374,13167.513,14807.146,38103.3828125
308,20765.13,19980.885,6572.619,9668.101,2337.6514,14206.196,33063.12890625
309,32872.96,36091.707,59471.824,-15661.74,1429.8348,7973.246,39559.65625
310,-33533.332,-40137.703,-37323.383,17045.135,-11948.179,8182.158,39162.2421875
311,60865.043,60736.887,62561.777,26.653168,389.37686,-380.26935,2000.8916015625
312,-11863.083,-10087.086,-10684.404,6262.2026,9770.281,4336.986,21515.091796875
313,10153.496,5447.9414,3527.018,2549.8499,1559.2944,-7455.9946,15114.4365234375
314,-17920.816,-20392.484,2395.315,1005.60803,2925.6604,-7074.6245,25454.513671875
315,4630.742,8855.729,29108.787,-5787.6846,9533.224,-1099.0226,29839.0390625
316,34335.25,27011.64,55158.85,-9094.983,-8550.681,-10344.071,37792.3203125
317,-45395.67,-27637.873,-3481.5623,-1713.7174,1720.6674,-4166.2363,37384.41796875
318,5999.6562,20077.754,6930.674,-2845.582,8892.11,11946.731,29590.990234375
319,9953.29,20620.854,32457.65,-3875.7998,15662.155,1882.4078,34231.296875
320,12696.882,25035.738,23654.98,-7685.5356,16150.237,-4912.0933,34193.50390625
321,-1170.8386,-5006.5654,11918.255,4020.4795,-1166.981,2766.8079,17657.5
322,87.04244,613.3385,-371.20322,278.12466,-992.70026,170.65428,2000.98461914063
323,778.38745,1543.3656,2317.2788,-761.55646,122.38185,-384.25092,2000.98547363281
324,-78852.73,-97524.68,-70767.81,-2047.3088,-1286.5507,-16216.905,37033.40234375
325,5963.3394,21117.736,-14327.569,2095.461,1973.8685,8392.081,34424.0546875
326,-3193.4414,3081.2776,-1557.3259,9844.799,10863.676,1499.1503,26140.84375
327,7648.0728,-24208.92,3356.2622,5510.7427,3628.4744,11929.966,38133.16015625
328,-1607.0918,5181.498,-31880.822,7301.284,1962.5878,3591.1208,37125.0546875
329,23145.691,9624.661,10696.551,-1342.0887,438.09286,144.89983,13248.2646484375
330,25031.219,9332.98,51983.414,-2335.0579,-5298.6216,-3467.4832,39148.58203125
331,51548.617,25136.742,25792.527,-14767.903,8292.762,-3799.1914,39806.79296875
332,-99528.73,-105743.484,-103902.89,-11583.767,5935.313,5633.4707,25179.65234375
333,271099.62,269935.88,267168.78,1113.5674,-444.86844,1670.7397,4991.91943359375
334,-21134.32,2927.1936,-8120.652,-8976.776,-697.3708,12670.924,34059.4609375
335,171342.25,133919.47,139797.97,-2900.903,2842.2966,1552.5204,35661.51953125
336,28874.785,34742.883,18093.982,-17782.736,5204.9517,-4407.1846,36085.2421875
337,3636.4814,19882.834,2266.1516,1971.6854,-4945.4453,2602.0933,19835.126953125
338,-6653.0137,19977.12,8894.034,-2301.1736,5095.1494,17583.662,39473.765625
339,10520.05,18483.656,31028.395,1130.9048,5032.2646,-19512.754,39277.74609375
340,1518.9387,32.8347,566.6924,-428.759,-752.1632,135.46185,2000.98522949219
341,-12320.516,-4325.2812,19823.17,-760.214,-6858.937,-3579.1387,31960.029296875
342,7231.5396,-1938.4071,-14613.791,4544.377,769.0536,7901.6064,24739.046875
343,5344.243,-16110.281,-8248.853,500.42108,2319.5244,2361.0115,19673.59765625
344,-108228.19,-130706.55,-114464.78,-11331.652,9779.346,111.19359,32804.66796875
345,-1313.3545,2970.0847,19448.248,3981.241,1214.5338,4761.316,21919.11328125
346,-735.01685,8525.533,3497.0508,-3509.553,9257.479,4076.0674,20208.25390625
347,-8456.092,-2977.1836,1505.3777,-4076.578,-5771.561,13042.479,27106.794921875
348,-34494.332,-44159.164,-39256.816,1107.634,-39.976467,566.8191,8643.54296875
349,16708.021,-14971.432,15288.322,8271.108,-6198.5845,-9570.91,39445.35546875
350,5164.148,-8275.925,-23843.475,6918.556,-4785.4575,5423.92,30541.298828125
351,-4436.669,4614.8823,1728.0378,3210.7407,2394.9636,-253.4448,10604.755859375
352,-2080.139,193.8063,462.81924,2570.6658,452.46222,97.920135,5130.576171875
353,-24159.604,-4024.8525,-13340.249,-3834.5864,-6564.882,-2283.811,22218.779296875
354,4862.0547,4978.8047,9422.057,-699.86053,-585.84265,-221.39857,4787.5849609375
355,-18753.957,-22096.025,-39806.816,1201.4542,-10090.363,-6865.7676,28900.265625
356,-4155.1206,18994.057,-7682.513,-6647.2173,-3070.0686,-51.58615,28121.583984375
357,-228.49316,7733.9033,11925.08,507.387,-128.3732,1273.4539,10955.5625
358,-17934.975,-33470.938,-14502.2705,-10100.718,-265.61115,4555.8853,25981.404296875
359,18515.814,-11019.846,-442.177,984.0169,1362.3978,-2280.379,26379.869140625
360,6185.4614,-10144.759,2331.6167,5590.193,2861.0063,-3177.5415,19162.234375
361,-2031.4619,-7704.3867,-22081.846,-1432.6927,6389.303,-2147.8562,21515.642578125
362,5428.2485,2576.8672,-4708.845,2521.2185,-186.96037,-408.69107,10082.7529296875
363,113.407715,5231.2817,9830.01,4167.128,490.25635,1501.8828,11421.8876953125
364,-511.974,1874.1577,2790.4722,324.7642,1693.4557,220.51314,4217.27099609375
365,-262.4795,-1184.5334,2367.0984,1284.971,-293.4509,-511.73947,4023.29443359375
366,-4044.0469,-3886.9346,-5373.9805,204.43636,51.8068,456.08484,1661.27404785156
367,11597.961,10610.972,34145.867,-5459.399,-867.7587,2166.4736,25246.6171875
368,12021.409,25365.973,46316.594,2559.888,-3415.2915,-1951.5701,31026.767578125
369,6205.1055,7103.8,11921.334,4028.817,-2469.7898,708.1744,9840.9345703125
370,11530.762,13804.911,22358.498,730.6234,-888.9757,379.14313,10108.96875
371,-33290.2,-22303.27,2199.4004,-378.3601,2244.8147,-1773.9486,31863.62109375
372,4703.799,-34685.926,-12763.614,-7803.666,937.77216,1387.9707,36874.5625
373,14190.332,2751.6533,28882.621,-2945.729,-1207.3972,-1304.2166,23457.951171875
374,12945.503,4053.8708,2741.0464,2047.1531,-2716.9294,1819.6388,11709.3408203125
375,-10513.957,-28970.81,-45197.594,-820.9293,673.2423,1018.87274,30165.462890625
376,-8615.371,-1435.6912,-6175.32,5683.5664,-835.45123,-2320.5232,12455.5244140625
377,-2092.2656,-2508.68,-2089.9233,948.85724,736.2717,36.151546,2122.63525390625
378,-4034.873,-3259.5955,-1992.5323,11352.519,1998.1466,-120.23117,20046.171875
379,-25151.54,5558.0107,3710.248,-66.039536,5518.2876,-624.4909,31341.4140625
380,-9875.105,9463.883,7913.135,-417.1834,-1978.23,-3406.7683,19836.630859375
381,-6376.702,1799.2805,480.84265,-15435.591,-2901.8455,96.40782,28246.5546875
382,16182.239,9625.256,13222.342,-2131.8403,3977.1838,-2454.4724,10559.759765625
383,-1251.0735,-1847.2659,443.5103,-860.0951,-381.9571,324.9519,2685.349609375
384,12065.901,-10693.027,-3696.7861,8693.052,3405.4563,814.7001,25907.12890625
385,14227.543,655.68506,-3736.0542,7974.8887,-81.68074,993.62726,21374.404296875
386,2116.8164,287.13696,-11904.455,2824.4653,4370.662,-2686.343,16648.7109375
387,-17187.248,10626.485,16844.137,134.98195,1107.8916,-2910.7944,31848.927734375
388,-8333.889,10473.782,10498.427,7269.0176,1923.5197,-1506.4011,23035.103515625
389,-13205.584,5041.011,16807.412,5718.6777,2363.7886,-5043.402,29618.62890625
390,-41707.812,-23487.086,-8955.367,-16325.858,-1096.3577,304.0157,40142.6015625
391,-8272.788,-14336.359,8316.189,-16796.293,-2783.2288,-1113.7559,35858.83984375
392,3326.7031,12026.039,-6153.8545,-461.42957,-1842.4679,380.10883,16102.4921875
393,-882.4053,13869.84,35179.543,-1392.2783,6361.771,1143.6311,33425.33984375
394,-1680.2095,9915.158,14421.835,6420.803,1413.0765,-2082.922,18700.412109375
395,-17997.799,-11423.97,-35532.87,-1732.5764,-260.88303,-1187.7003,21895.390625
396,21239.637,3976.6963,20436.107,6087.1724,-79.805695,-1052.0066,19982.0859375
397,471.45605,-14210.08,-13878.879,6888.7886,1729.5759,-1999.3978,19342.38671875
398,707.52295,-707.8578,-2738.1223,11236.273,-2963.98,-2029.3292,20651.162109375
399,18402.72,10948.996,12967.311,-8434.66,-213.59982,-1432.765,16257.7197265625
400,308.1338,9032.951,-8760.157,931.24664,-2899.1228,-958.7315,16372.21484375
401,-14277.488,-27025.158,-18112.314,-13238.416,-2365.4343,4222.8696,26914.20703125
402,4821.8457,-12463.359,-19664.596,-1681.8302,-2261.2554,3841.205,23306.673828125
403,14688.493,5887.605,20135.408,5097.8486,2257.3699,2287.4514,16248.41015625
404,-40183.88,-15724.814,2222.0894,-4623.6436,-5108.752,3246.144,39157.96875
405,-2517.8242,-26389.717,-30266.16,-352.17795,-270.912,1138.554,26113.46875
406,-29526.885,-5330.629,-6302.8794,15107.111,-6172.2256,8800.799,39927.49609375
407,2675.7996,-3468.0876,11485.503,10016.767,213.29832,137.76115,21695.259765625
408,-3665.4492,-9333.438,11367.85,8929.064,-1313.3107,-2762.9749,24710.236328125
409,2802.3994,-11301.278,-11352.637,241.18393,1510.9243,1175.0487,14519.1640625
410,11782.293,-1858.3276,8669.935,3490.7012,-75.39482,-1873.1327,14156.154296875
411,-26582.588,-39197.285,-40057.086,8657.917,316.03143,6023.637,22466.5703125
412,-18924.215,-8530.46,-16932.215,6151.601,1514.9844,1664.0228,14832.8310546875
413,-9001.956,2101.8096,-21420.49,-1595.2775,2231.676,-866.20776,20981.728515625
414,-47872.133,-41412.04,-49493.6,-6036.318,-3834.0928,3098.4995,15396.46484375
415,-14790.887,8056.711,5740.2827,-3434.012,6372.8726,-1782.0872,25321.908203125
416,-26484.383,-12542.969,-31879.443,6228.6777,1179.4778,-1704.513,20687.275390625
417,-10608.245,3529.8586,-1049.1974,-1882.4983,5008.996,-939.10187,15641.669921875
418,5747.7905,2924.1743,-18719.209,2051.6277,364.53537,4236.6577,24584.455078125
419,-9968.709,9430.146,12557.953,5718.229,-522.35626,-161.68752,23361.63671875
420,-5872.5947,3231.5732,-10640.096,248.85925,-3540.803,327.82285,13679.8798828125
421,-19139.95,-22535.271,-30213.324,7879.822,747.0996,2388.0842,17366.873046875
422,-8821.854,11177.241,-12346.516,-3247.186,-2148.6482,139.62772,22987.349609375
423,-11582.036,2014.7379,4989.0166,6431.153,-507.92032,-1791.3766,19199.984375
424,6009.9287,24344.809,22487.209,-470.15527,-872.65875,2606.9805,18135.501953125
425,23357.865,1739.0176,9453.227,4893.976,2377.9338,-1874.297,21435.181640625
426,18059.395,5160.635,22259.186,3726.2622,-68.739235,-1640.0089,16968.396484375
427,20392.781,12631.489,13436.609,1466.63,2251.0308,-315.46222,8751.576171875
428,-6929.1963,-15024.255,-24465.05,32.449177,665.03235,-235.2773,15250.5234375
429,-5295.132,12395.788,9745.198,-14479.4795,-1668.5131,2177.2102,30407.916015625
430,-13221.86,12623.456,-12433.669,2867.64,2497.194,-1294.6936,26393.88671875
431,123.44116,-5337.105,-4168.6533,6258.719,1717.4618,1678.0027,12633.814453125
432,39216.47,33731.793,62949.508,-1492.9209,312.7809,802.2448,27063.21484375
433,-1661.5394,1558.8743,1797.311,688.6946,-649.48315,10.5927105,3726.19165039063
434,20363.594,8717.019,33447.004,9184.908,-1442.4653,680.04785,26831.181640625
435,-6291.242,-5740.9287,-2002.5264,-4512.9536,2254.9788,503.7598,9667.0654296875
436,-1889.0701,-287.10522,8517.196,-8717.868,-626.21014,-1496.2035,18168.1640625
437,-11516.466,-14770.731,5998.092,-6001.8906,3201.8643,-215.15828,22656.341796875
438,-3496.5696,-2969.937,-2617.6233,-4595.959,402.89285,208.38103,8035.71728515625
439,7874.095,-3377.3672,32940.457,-4200.0195,-7187.4565,-5189.318,36409.30078125
440,-19173.855,-15834.768,-22816.748,-1289.0793,1247.2677,851.74207,6957.92431640625
441,-18198.3,-12557.496,-25403.24,3165.4014,781.22504,-487.85532,12528.9951171875
442,-16284.697,-12879.763,-17402.365,3030.842,-2082.221,-1252.9043,7869.0908203125
443,1839.0707,-5987.5347,5119.722,9306.749,-1183.7604,2586.592,19540.130859375
444,13471.633,20561.447,38168.875,-1657.9758,2175.9707,1323.2218,22645.625
445,13662.795,15402.695,-3822.8477,-14341.109,-4939.6396,3901.1125,32788.0546875
446,-12767.087,-3750.874,4515.5244,-8919.481,-526.9166,1934.9546,21792.052734375
447,-3416.0454,-2886.2983,-21371.576,5440.387,-165.04077,-547.4244,20541.853515625
448,-14943.724,-9939.763,-18064.709,-4446.7446,3063.261,602.09204,11787.9736328125
449,-7926.537,5204.9697,-1630.9312,1569.0786,413.9439,-762.25446,11791.6708984375
450,17834.543,14327.15,30666.336,-5522.2666,-780.9959,-1138.466,17865.25390625
451,8120.3467,-6838.868,-16872.082,-434.2389,-96.823616,-1386.8375,21929.34765625
452,4347.473,-4616.141,-8085.178,1048.5693,-216.59735,1159.4171,11443.2373046875
453,8174.753,-1628.9165,7976.8643,1500.1613,975.18274,28.483606,10189.1064453125
454,-3425.2705,-3732.662,10450.978,-11246.484,3983.1865,-2440.4373,25334.263671875
455,22123.873,8585.029,16724.305,-6488.941,3574.2473,-3798.699,18635.634765625
456,5972.528,-1990.6285,-349.79944,-2990.45,1240.7415,300.1514,9206.24609375
457,-3969.4424,7851.242,-6618.2534,-4890.4707,-2726.5437,181.03816,16498.669921875
458,-11888.234,-847.51416,-846.44946,2145.6255,692.24426,157.52248,11714.625
459,5497.0977,10924.726,15123.75,-364.3217,-3131.6926,382.44016,10007.0546875
460,-7450.1807,-688.64746,-8597.712,1795.5973,826.1531,-1375.0571,8496.2744140625
461,20980.21,30043.965,57740.914,-57.526855,-7094.6636,-710.6011,35395.45703125
462,-1134.2092,6338.213,-4425.7305,344.0577,2321.0474,3284.41,11838.318359375
463,-8444.347,-4643.156,21.705078,3469.6428,15.072063,-650.0087,9556.4365234375
464,-9529.654,2859.8333,9137.371,5191.9897,126.533325,-899.6058,18815.646484375
465,-289.83057,6745.6763,12032.588,4373.756,198.03783,2847.043,14016.765625
466,-4767.1543,-1156.6748,-10247.948,-3479.6055,-1713.787,1001.372,10535.908203125
467,-4319.403,-16818.676,-2824.8872,-1614.5503,-8748.188,-5064.5225,22169.94921875
468,-1581.4104,-805.61035,10387.615,-6117.9897,-1720.466,-2491.9607,16564.205078125
469,-43933.965,-36521.12,-35419.74,9627.436,-2662.1514,-3923.397,20244.26953125
470,2114.2732,3508.5498,10890.211,-13343.919,-2515.6765,-1154.3136,24977.763671875
471,2010.8752,749.02893,-249.85236,-96.279564,-763.74854,375.30032,2459.8271484375
472,1469.0079,3367.039,1594.8711,806.3625,313.76575,-574.3383,2571.978515625
473,1418.9946,-8582.561,-3727.9968,-3452.448,-387.20905,169.1702,10551.708984375
474,6524.908,-3816.9526,4946.4185,-2321.7397,935.24084,239.2207,10587.177734375
475,1700.5741,-75.15521,878.8516,3175.7568,-340.18845,-132.03435,5746.74365234375
476,-3709.5437,-3281.779,1903.2263,4244.4497,-639.07495,296.7027,9209.8115234375
477,-7942.7993,-10307.847,-21910.736,6579.5664,-1193.5272,1374.5322,17534.98046875
478,-10959.317,-7837.468,-14456.958,3621.365,580.7386,127.45916,8561.6533203125
479,-10394.473,-10333.751,-15390.314,-1882.6401,1839.8453,1235.2198,7115.5380859375
480,-4354.1733,-4013.3362,3080.2947,-5194.0693,-1480.9402,49.87262,11848.0224609375
481,-5283.4766,-12685.9,-9500.82,-10618.127,3591.3538,2031.9757,20752.76953125
482,-7097.713,-2474.5017,-3497.3594,1388.3553,-458.6661,-1010.4688,5212.32080078125
483,-1696.9185,4407.359,12195.052,1433.0878,1122.2673,-195.8758,12470.0986328125
484,-18031.037,-13429.709,-25276.367,4513.826,-339.89645,1014.8023,13098.287109375
485,6478.1367,-509.63574,11582.981,2973.5967,-469.24997,-600.85,11782.6298828125
486,2271.5642,-3514.368,5469.135,1639.7341,514.3822,124.50828,8432.6064453125
487,-3729.9678,-12409.619,-17858.682,-2906.559,-283.16266,451.465,13361.169921875
488,-14313.436,-9337.577,-21440.918,-982.46814,-1253.3615,-668.74786,10953.3408203125
489,-5637.498,-4894.7544,-5402.64,-1439.425,-1014.2819,-106.628204,3125.48120117188
490,1868.491,-4811.459,1014.3765,-241.23485,652.189,-524.4423,6474.685546875
491,-9415.367,-3389.0151,-7682.9253,-6191.232,-1957.1038,5908.0757,16126.9609375
492,2300.1304,-3849.8892,2940.663,-148.03723,-755.5228,573.95123,6703.6376953125
493,-8389.978,-3277.2175,1375.8247,3556.4417,-732.60657,1977.2355,11084.4189453125
494,-9294.653,2830.429,2358.4856,2480.8726,-277.48993,1452.9512,12905.28515625
495,-9701.504,-4110.3726,-21574.535,1999.4595,-630.4309,726.55505,15918.001953125
496,-19227.541,-14137.658,-29632.629,233.71594,770.1325,538.49066,13782.109375
497,783.4021,-4614.9277,-7381.6206,-251.41055,115.48051,1381.5679,7595.2548828125
498,-8771.778,-14283.251,-19511.68,-5893.7715,219.43422,-362.99094,13830.34765625
499,-495.44727,-11391.668,-18541.066,-8168.549,127.75219,-29.909336,21165.306640625
500,-2403.6294,-7029.4146,-1944.52,1521.7524,172.9198,-384.68488,5586.88232421875
501,-1237.0447,-8752.923,-2758.714,151.82033,-574.8053,-303.52167,6978.82177734375
502,2584.3948,-2316.1843,10439.717,-4342.7397,-119.20302,-1326.6971,13642.52734375
503,-8218.067,-1190.0449,-7510.0967,3664.5156,-278.03137,-348.365,9262.8662109375
504,-11518.997,-7129.9546,-17282.727,138.08406,-357.54715,236.14702,8853.787109375
505,-3544.6382,-3120.6614,-3303.5225,8952.459,-173.72499,1474.1987,15722.13671875
506,-1308.3726,3178.7998,222.69733,-217.38937,45.48211,131.76021,3976.02563476563
507,12356.638,10768.284,21400.764,-4963.706,-576.1287,460.50333,13199.6767578125
508,-5525.502,-9893.524,-9023.607,-3643.5996,131.93575,-1131.65,7730.33837890625
509,7776.3574,-13542.093,-10533.946,-218.15532,-2453.8481,1249.1996,20549.564453125
510,-11376.576,-7287.2812,-14759.723,458.34058,-229.15378,-1312.1155,6924.98388671875
511,-17329.398,-22724.646,-30180.887,-1146.9191,4596.9565,-794.61237,13934.4541015625
512,16033.5,23692.447,36707.56,-1811.4218,-1672.1869,3909.7654,19794.58984375
513,-2369.949,4638.475,5276.5347,268.9148,-1258.0314,-96.7501,7680.486328125
514,714.10425,579.6752,1082.3567,-1011.28,-488.41934,141.41006,2011.69018554688
515,-1303.4209,1774.8356,2521.0208,-92.06582,602.46014,-243.55438,3690.75390625
516,-4001.23,-2496.9163,976.74817,-990.42554,3122.0542,562.7265,7258.7373046875
517,-35.961914,3301.153,9170.4795,-1753.5442,-425.39377,-107.58333,8658.7705078125
518,-6516.4893,-4522.112,-3010.87,-1771.4475,139.96393,971.9701,4645.6865234375
519,3636.9558,2322.4724,1558.6029,3027.721,1512.6382,-1100.7823,6427.76220703125
520,6732.863,1374.0386,12756.776,4993.0493,-1375.5802,-536.37897,13364.767578125
521,5043.5254,12933.077,21746.133,1473.0173,-1264.6262,1776.4213,15173.009765625
522,1146.1487,1996.4686,8085.9946,3325.6633,1166.5157,174.2828,8963.0869140625
523,-281.2843,843.3718,3648.3208,5206.6904,-1518.6002,175.7576,10031.310546875
524,2878.5193,-3007.2488,8235.326,1252.0795,-691.0537,-357.48407,10069.0478515625
525,-1231.2588,-8278.312,-1755.5157,87.69639,1132.4414,49.311302,7079.4755859375
526,-2608.1763,-8514.893,-7135.144,802.6506,-542.46423,340.35397,5639.7060546875
527,-1069.3069,-7182.95,-3950.1038,827.703,294.52362,213.1049,5524.05712890625
528,-2515.5295,-643.038,-221.05322,-165.00356,29.632515,125.59633,2146.18139648438
529,436.17322,825.89,4844.567,37.938084,-463.05203,42.84528,4303.58740234375
530,-2932.2075,-2063.753,-6113.4478,-504.20358,678.5614,106.59406,3976.85205078125
531,-2357.2917,961.22723,-1253.7592,-119.32871,-194.51433,974.9169,3402.33349609375
532,-261.4806,2051.9043,484.44244,-1961.4132,-316.4188,-89.809654,4006.0615234375
533,-4416.7046,657.6523,5261.289,2664.0867,-719.38,673.0659,9721.45703125
534,-9954.647,-5677.1377,-5204.1484,4646.2373,-526.5154,-442.56085,9312.669921875
535,4029.7085,-1375.9523,-1299.657,1393.4816,197.46565,-25.033972,5895.65869140625
536,-1776.352,1730.4608,2717.3137,-2405.8374,111.71967,-1265.573,6240.1083984375
537,2715.8953,-991.65546,276.57214,231.90625,-479.62994,-71.261246,3393.96923828125
538,472.35168,-3360.6953,425.06238,-1509.4844,-177.68468,550.7665,4727.95947265625
539,309.80176,-3874.959,-5347.2134,-1986.9043,-801.79346,57.35431,6294.65185546875
540,-3673.6162,3324.3987,10076.921,3355.0032,-138.3174,-807.13666,13326.7763671875
541,4517.479,2353.1157,4819.566,1173.4806,-494.45258,31.22601,3208.90893554688
542,-800.3373,-2340.1633,-4283.866,1434.0198,-510.04034,184.15488,4024.10375976563
543,7968.3877,16206.756,26451.777,-2014.8032,-1852.7576,-31.039787,16724.615234375
544,1895.9388,1323.3816,1182.6562,-2911.9824,-193.7122,449.37366,5156.11376953125
545,-2618.4314,-6473.666,695.4419,-2735.4287,537.13043,-246.1943,7881.33349609375
546,-957.58105,321.79626,883.9432,-764.7995,-82.57624,266.14627,2158.63989257813
547,-3075.283,62.646606,-725.3979,-986.6796,-764.2022,39.325756,3559.78271484375
548,9896.166,10362.531,20125.883,-908.6926,1769.2393,251.49335,10590.1533203125
549,-2190.9993,150.28113,-3297.6677,2232.1267,933.2964,-129.26967,5187.2685546875
550,-3754.0557,-2166.6538,-4998.7744,2176.5344,226.76207,-462.30234,4588.287109375
551,-2134.4565,-6683.685,-1136.7141,3181.7632,940.3707,591.3077,7765.47509765625
552,1320.4929,-3100.3735,3953.1455,2531.1042,-111.44185,415.80524,7608.4775390625
553,-9017.19,-5557.121,-7831.346,-1242.9003,3449.6277,-523.0091,7101.4091796875
554,2860.1428,-1360.394,4432.8145,-762.52167,-696.2744,97.793304,5491.00634765625
555,4736.423,-828.00867,-377.66333,1057.4216,-786.18805,-174.62689,5827.5185546875
556,-2292.4958,2137.3303,-303.05606,-102.149765,-879.5501,378.64395,4189.34375
557,4189.895,1780.6118,5099.755,827.0568,208.38817,450.60687,3408.23803710938
558,-302.65112,-3890.7517,-2938.443,609.9199,-382.0037,581.33344,3596.11059570313
559,-124.711975,-1927.0781,-1040.9164,-1113.4261,-341.63522,744.57825,2858.16479492188
560,-1157.3215,833.4898,-2399.637,374.7138,-461.08365,-286.14883,3047.05786132813
561,-4100.3906,-476.54053,-5280.5938,656.2633,165.60916,-203.42178,4505.60888671875
562,-285.4596,1280.2446,-2112.322,-789.22577,160.05774,-967.7489,3661.18603515625
563,-1362.3007,-2002.6,-3979.1953,-5463.2964,-945.817,-989.3284,10037.19921875
564,2352.767,3409.3008,9654.626,6899.0815,2186.085,-137.77911,14279.515625
565,-125.162476,-1515.6653,-4767.0396,1296.8674,1486.605,-197.00183,5368.23876953125
566,2727.9424,95.65674,11201.64,8391.127,-976.3942,478.0443,17771.220703125
567,8316.652,-2578.0193,-1923.3135,777.77783,1468.4119,955.9901,11091.2109375
568,32007.023,30849.277,58603.547,-7129.948,-1796.8402,1356.8375,30120.173828125
569,23113.25,4364.796,-2713.2463,7375.4746,3694.198,-5934.3843,29053.234375
570,2851.4707,-27969.715,-12583.275,-7277.7915,-2064.0552,5919.9033,31452.74609375
