Element Label,S11,S22,S33,S12,S13,S23,Mises
1,1221.4585,1177.2953,-19.835453,307.48215,206.02036,-451.83115,1584.72863769531
2,-3.827401,1607.3003,-619.8903,110.70736,-616.4012,534.93,2450.080078125
3,2104.8977,2166.1216,893.8063,505.74585,552.6741,-597.14734,2073.18017578125
4,-982.8835,949.7256,-2462.3723,1132.1998,-887.87964,820.2038,4124.55615234375
5,2801.5823,5610.784,3217.503,875.554,814.9468,-737.05817,3580.24633789063
6,86.63186,1602.87,-1951.5978,-291.65115,-524.6829,904.1854,3616.2841796875
7,3195.3945,424.11685,2949.449,1066.0013,941.9717,-1004.9872,4019.93701171875
8,-2265.8508,619.43195,-2255.2842,-537.46277,-918.02264,962.64746,3803.87255859375
9,5868.7354,1641.6465,2992.7917,1530.2855,1897.506,-1118.6556,5963.517578125
10,-4608.5986,-2336.964,-2432.822,1899.845,-1430.8364,868.9917,4918.0595703125
11,-68.34095,634.38556,-1463.2219,161.25618,220.17715,-560.2041,2141.18383789063
12,3382.7402,903.0236,939.21857,-510.31317,-483.59024,367.2172,2819.2080078125
13,-2020.2205,381.28583,-1372.6786,1165.6995,605.72284,-266.18658,3165.6435546875
14,5676.848,226.02438,-136.99776,-550.0267,-976.791,263.6452,5983.3525390625
15,-3846.9878,-384.79865,989.79736,-843.0619,739.9259,-252.52014,4754.09375
16,1410.9442,226.19737,4031.3389,-101.43025,569.4031,-1825.406,4730.1630859375
17,-763.27765,-671.5834,-2287.3506,-411.03125,1857.8567,-1442.5863,4424.4609375
18,1761.0083,1181.0894,-430.68835,-252.69106,-126.66541,387.89935,2135.3974609375
19,2409.2603,940.56903,2058.873,1778.2023,1287.0299,-3511.1343,7294.15869140625
20,-24320.434,-11012.053,-51391.28,-2720.9648,-448.37332,4598.7046,36830.3046875
21,591.3533,637.7381,-329.93567,775.4808,-756.5855,-568.03845,2320.13745117188
22,-40.840214,142.9854,-9581.968,-32.364487,-9237.827,1611.5417,18884.583984375
23,-532.6613,2532.0906,909.4988,1232.1646,-1288.1738,95.53693,4075.89428710938
24,-568.7444,-1998.3495,-7727.588,1213.9939,255.67384,237.05951,6916.97412109375
25,1280.8109,5009.9033,-3434.9944,2838.6846,-284.332,802.52783,8948.7255859375
26,4438.91,1337.6592,-6271.6636,538.38,-190.13785,537.66547,9641.7451171875
27,2418.3916,6518.633,17535.55,2799.7175,166.39563,199.9966,14390.0927734375
28,-1390.7616,1517.7203,-333.9689,-600.56506,-763.2074,-1414.3143,3915.70727539063
29,1460.9805,-3255.8691,-8747.969,736.48627,445.5773,649.2875,9044.6015625
30,837.1545,1321.99,-7851.6406,-419.12405,-1124.813,2097.102,9872.1318359375
31,1831.8643,3455.1316,8136.318,-1032.8665,4000.6711,-1298.4517,9403.2861328125
32,-509.4162,1281.0315,376.50818,341.57446,-472.05496,78.29157,1855.06848144531
33,-1029.7703,2188.53,1574.9888,-637.48956,944.58606,479.8136,3653.2041015625
34,-123.15978,552.0394,-801.1151,405.68912,-52.86151,400.31693,1534.98120117188
35,978.29,2004.5823,-1429.8086,-558.3253,906.85004,781.99835,3815.82299804688
36,730.3359,4192.3438,1485.928,822.27966,25.817656,2073.2231,4986.556640625
37,1940.12,4203.6313,5161.98,377.58762,-844.9314,-1599.0553,4295.52392578125
38,2052.4778,1433.663,-1981.4631,-44.14509,1788.4875,135.92622,4880.234375
39,1090.9093,1312.5688,931.33936,753.2779,-36.30196,307.5612,1449.13195800781
40,2679.8047,-1150.8936,-1229.3701,-86.74527,232.33504,-856.4577,4167.26513671875
41,-2776.2766,-351.68726,-2084.789,-264.34348,-996.8919,-144.70906,2816.74462890625
42,-1707.8375,-2746.5393,266.46362,5517.41,-771.75934,636.2769,10067.4873046875
43,-9781.816,-4513.071,-2978.5374,39.58125,2043.2877,2140.5159,8029.6162109375
44,3579.5823,2770.3115,4540.465,2696.5437,-2019.4543,2812.6394,7754.8232421875
45,-11920.152,2429.9363,-15647.081,837.8988,1629.5819,-4429.233,18499.296875
46,-8651.862,-9934.03,-7343.1533,1391.372,-431.8197,1372.0343,4129.0732421875
47,-4380.924,-2817.403,8124.6255,-3597.161,-3897.4128,-1671.5592,15233.2255859375
48,-1163.6359,-2718.7354,-4005.6958,1524.844,1706.9929,-350.88104,4707.67724609375
49,3605.0347,5955.652,18129.95,-5269.8477,-242.85187,-757.46014,16357.5087890625
50,-10822.991,21.753824,-10944.369,-874.92596,-1401.454,-4074.6,13301.7041015625
51,-6447.243,1832.8992,-23934.482,-2774.7393,-979.0418,-2036.7021,23613.103515625
52,-4258.577,642.66644,-10748.607,-5387.326,-2194.904,4556.956,16179.3740234375
53,-773.4679,4224.3975,2721.0942,-848.5666,-176.32724,-672.96484,4830.87841796875
54,-1767.9974,1250.5146,6833.018,812.9593,478.37045,3145.444,9459.244140625
55,-1599.3467,1743.434,-1969.4988,176.52962,-688.1012,-197.53967,3765.57250976563
56,4404.841,3456.9993,8528.526,-3085.3435,4449.3447,-2041.4135,11057.2119140625
57,-1569.9059,2174.0881,-5570.678,2621.7153,-1161.9003,772.27496,8453.5185546875
58,2788.1868,905.78357,4754.6997,5581.4253,-887.60706,-1081.8732,10509.2431640625
59,-2265.34,1566.0387,2319.7893,658.1594,-312.9901,-82.37898,4444.015625
60,-425.43103,4995.4707,-1271.2227,-551.05896,3724.6648,477.37006,8826.126953125
61,1088.4917,60.339264,1004.1469,-118.68098,-1101.6464,-394.91455,2264.61791992188
62,878.5218,334.7538,441.2785,-517.7949,520.97705,-85.405075,1374.61791992188
63,1337.197,873.0834,202.163,-16.415674,-221.71161,778.62286,1715.79602050781
64,1195.1198,-329.4484,-2260.4822,268.721,271.1328,-152.8856,3082.9345703125
65,2404.0767,2376.5293,3309.3848,-466.28854,235.8724,-87.30919,1298.97326660156
66,1272.4014,2070.4343,831.4686,328.0015,948.3706,-272.32974,2103.9541015625
67,1185.2407,-810.86835,-3946.1335,625.4843,502.78665,-10.305951,4690.95556640625
68,2024.8832,-42.397762,-1073.5079,-473.3185,-891.6322,573.17596,3392.80712890625
69,1054.106,-623.4014,-3930.4885,542.58887,330.35995,887.501,4782.47998046875
70,294.9339,-173.50963,-5136.0957,1412.3826,1387.8098,-4143.096,9509.4501953125
71,2369.664,1610.9774,6302.908,-870.22394,-853.15234,288.9066,4871.95947265625
72,-307.76483,1048.9095,-6212.1963,472.48477,3090.673,3479.1836,10504.947265625
73,-3516.8203,-2369.487,1850.463,2841.3137,-2559.2983,261.93118,8248.7021484375
74,571.63666,-1318.7399,4181.931,-1151.221,1268.054,3350.3435,8118.29931640625
75,2104.6543,2081.7178,1801.9314,-1156.8448,-2614.4622,-1603.1471,5684.7666015625
76,4868.6284,-2146.647,-8230.315,-6995.1475,3914.4827,-2931.5312,18640.041015625
77,5377.0435,3788.444,5735.099,-11402.455,-5998.3677,4211.2446,23545.98828125
78,303.93063,-4208.471,-17310.232,691.6459,6662.747,-5400.453,21754.189453125
79,-2782.0754,-4061.269,9432.235,2245.7036,3056.2407,1803.8193,14810.9033203125
80,545.147,2312.6233,1051.1724,-762.822,-198.95424,376.56284,2185.28833007813
81,1516.4683,4996.8975,5876.3843,-2208.451,3443.0686,91.82427,8134.43896484375
82,1470.1344,742.56964,2676.7039,-90.519714,495.624,-196.25491,1933.92785644531
83,3347.4924,3168.0217,13116.624,1484.7588,-2907.7656,-713.22876,11433.5615234375
84,3564.4712,2374.7834,-3287.525,1750.2496,-614.7187,7.285178,7108.9658203125
85,2608.3364,-122.698784,555.4433,217.38298,29.51957,249.9805,2529.4765625
86,397.4103,2100.7224,-47.537766,-338.86188,562.462,110.01538,2277.5029296875
87,2428.119,1456.3184,2159.9946,360.53598,360.34668,162.35289,1270.5537109375
88,-3051.8945,-3942.8247,-9477.96,-101.914955,151.582,317.45322,6063.44091796875
89,-310.94034,3022.392,1052.2482,853.1249,-453.51102,-34.413357,3351.0390625
90,1861.0729,112.59761,-1191.127,-815.5191,462.18784,818.711,3418.08764648438
91,5535.304,7324.7285,3131.2798,3562.5085,-452.16232,807.21606,7343.4150390625
92,-111.76256,7169.029,-2482.1755,2303.759,466.06094,1969.9565,10203.087890625
93,-1961.2548,2127.4988,-5069.2764,265.48862,-3477.8718,-882.6299,8827.2861328125
94,-1585.7657,-127.06208,-4235.7964,-1458.5295,-2146.3755,-832.4901,5941.205078125
95,-795.3407,269.8149,-1519.4336,-2032.3544,-322.31085,298.26385,3924.2919921875
96,467.19308,1605.2203,-520.4542,-1005.4539,1211.7075,24.005875,3291.46923828125
97,2074.8564,211.83276,445.88745,860.7607,296.7726,1329.1492,3297.9462890625
98,543.8713,616.0428,2707.6858,-833.968,-309.61118,282.77682,2673.03369140625
99,7192.5815,216.09384,3138.8784,-451.43942,-5032.5806,-6204.401,15129.41015625
100,-8520.486,6700.6963,-17071.31,2323.1377,9190.391,-4108.106,27480.265625
101,2152.701,2735.7534,8824.275,-1677.2386,-779.3637,-561.9213,7222.80078125
102,1528.5347,-1479.9606,6658.4995,-505.25018,-425.02945,-1608.95,7737.89453125
103,-2399.4558,2287.2432,5782.1895,-383.77194,443.6756,152.99133,7187.64013671875
104,33.07049,3636.6577,4278.702,-212.11731,-3354.5833,-1388.754,7442.6005859375
105,3492.868,1384.1228,-3006.2917,981.1987,-2012.981,1009.243,7147.10107421875
106,1584.4331,3232.7917,3051.4114,-297.07465,695.6507,-954.95886,2627.43115234375
107,-173.02649,-539.03754,-2728.0254,1655.1389,480.4592,2119.5146,5302.341796875
108,56.2535,3317.0393,2292.9534,-967.87683,1139.5271,304.59314,3914.89526367188
109,309.91678,4724.509,-3361.4863,-511.00516,-1193.5021,-1590.8763,7862.884765625
110,1489.5277,1043.594,592.50946,-125.996864,259.2345,466.4581,1226.97619628906
111,-3960.7073,112.799706,918.7338,-3294.8513,3800.9448,-1059.9446,9990.30078125
112,895.0581,1242.7203,-749.9792,-817.42426,-222.94128,-917.03894,2841.7373046875
113,1682.0093,2461.3025,2008.4517,-810.8167,-196.3295,119.057976,1609.31652832031
114,901.59735,1264.2574,5348.992,-654.8731,-1567.026,2509.1294,6770.40869140625
115,218.6013,-1299.967,466.18533,-252.78757,-1199.3843,-570.1221,2868.05004882813
116,-5256.408,582.03094,12389.765,2752.1301,-3376.4863,-2455.3862,17817.41015625
117,-8620.531,6603.277,20083.941,1640.0378,4491.129,-6183.179,28319.51171875
118,-4946.328,226.82832,4519.572,-1028.3088,-90.55098,6897.454,14605.400390625
119,452.03827,2101.2717,5470.608,86.98157,803.5539,-1013.3416,4966.849609375
120,2235.3225,756.5631,4981.662,1430.689,1035.0873,580.85077,4915.00537109375
121,1450.5797,264.7954,2484.1882,-1.171328,2895.6653,-1550.0848,6005.2470703125
122,1056.689,-221.38808,-1362.647,258.60458,215.9324,-1172.3293,2976.26391601563
123,1148.8618,1099.8722,2593.258,-183.41653,-424.61447,-314.16516,1759.93103027344
124,4772.238,-3350.8586,17871.287,3302.5056,-360.75705,1200.9747,19529.765625
125,-1653.9683,-693.1503,-7083.9976,-301.0687,-926.3263,3281.3938,8412.755859375
126,-3520.1335,111.18434,-9194.658,2664.9834,-3028.6658,1853.6829,11185.97265625
127,1429.4304,6822.964,10383.997,1764.3336,947.4959,-511.59827,8590.388671875
128,-2495.182,2275.5781,-13004.914,-1401.1897,260.60703,249.83353,13770.8037109375
129,785.7863,-3274.8613,-3764.4937,398.62662,-2355.6367,2147.9092,7048.4853515625
130,1376.5967,356.00085,-698.9416,-702.7256,631.1016,-761.38025,2765.25341796875
131,1383.6437,-1802.6655,-6369.9146,-551.26917,808.1658,991.3316,7168.2841796875
132,2438.1177,1674.0536,-4511.31,-1946.6522,1778.8203,2922.5361,9489.6337890625
133,747.9423,704.5471,438.52856,-497.6814,-210.03397,-741.5913,1615.38513183594
134,2307.4731,1913.4432,-779.5092,1647.186,-345.52365,-2868.5735,6453.861328125
135,-3791.4368,754.62695,13017.041,6005.7905,-4112.425,-208.61533,19643.177734375
136,5955.1104,488.32712,5706.9424,275.18277,35.9582,-280.14825,5390.466796875
137,-7815.355,1715.599,-10043.214,-0.44184038,-1169.243,-2362.0754,11742.046875
138,925.71106,1228.0891,9650.038,742.01447,3971.6543,-1981.0859,11589.4453125
139,-752.09546,2424.879,1787.3346,5727.676,-762.35785,3702.8757,12238.072265625
140,3123.0557,6485.3086,15973.369,2402.7183,-1240.8788,-4093.234,14332.8818359375
141,5529.4575,-498.6314,1609.1385,-1414.4154,2943.844,928.4955,7915.8955078125
142,1488.3666,218.54582,-4330.3037,-448.3632,564.45703,-230.31998,5458.82470703125
143,2507.371,2342.9065,67.60772,-542.8062,-747.8289,202.29103,2874.48510742188
144,1389.0704,838.5135,191.91927,-217.32115,-36.875694,-367.73416,1276.17956542969
145,1032.8536,-628.3125,-2921.3894,439.16693,-819.9779,-1643.5359,4746.17529296875
146,1058.8307,2488.614,1670.3572,-178.53613,-2096.5198,676.7053,4024.85961914063
147,3996.432,-1352.3132,4012.3542,-3068.0151,-6182.167,-27.779564,13099.3330078125
148,1630.0067,-674.5727,-4305.998,55.72192,4330.7544,-999.5318,9281.1669921875
149,4886.9053,-28.943382,10827.127,-1198.9843,-1897.0331,1214.2897,10401.22265625
150,11422.069,-5770.8047,38310.01,-118.07624,4121.935,1510.6107,39226.21875
151,-5264.152,3410.49,-14656.753,1790.462,-4168.8525,154.10107,17514.97265625
152,1725.9655,1822.8428,4460.169,524.60406,536.0984,-230.3523,3011.21069335938
153,1179.8497,2791.147,4426.084,102.79534,1586.521,13.715871,3935.36279296875
154,1142.3701,3063.7617,4949.1055,1621.1931,478.34735,450.73987,4477.6669921875
155,-91.07991,1685.0352,-2666.81,1175.9775,-1183.4816,-1108.8969,5138.42138671875
156,848.57153,1862.7811,3107.848,3697.1516,1907.5548,1686.4624,8018.548828125
157,361.75964,4167.376,4233.3784,1000.9422,-952.604,-988.0705,4836.85009765625
158,1424.6876,-1392.9674,-5792.0186,-728.0331,-43.026375,1697.2102,7065.625
159,1274.442,129.41144,109.665215,380.60492,69.52558,-513.0294,1603.98706054688
160,3743.6614,4642.597,2699.2368,208.94589,-476.00815,-1118.3158,2720.36669921875
161,2856.7275,2809.4822,-2503.6675,-652.5304,-1809.7712,1024.2126,6537.05224609375
162,4364.675,212.29878,6402.4263,200.77016,2716.4885,-463.74246,7263.62158203125
163,2562.238,-1429.7113,7611.46,698.68787,121.17351,-569.7357,8004.30419921875
164,6715.7505,1627.0975,13872.564,-1591.9567,-809.0637,1503.927,11396.7119140625
165,451.49588,409.95593,765.3124,740.08405,332.782,-444.69287,1637.65148925781
166,-36.920246,3947.6807,1950.4187,-2255.1372,-1683.3228,-3201.767,8149.81005859375
167,6942.49,-4491.734,7067.0815,-7762.118,-471.11682,1414.6355,17877.4296875
168,-856.51746,7767.1484,13529.825,-1899.4355,-3407.585,-2405.6191,14842.201171875
169,-7923.225,-5647.2417,-36740.695,-2387.6482,-284.4925,418.50378,30316.42578125
170,994.23285,312.85385,-4364.261,578.8611,-117.346176,-1117.0035,5506.01611328125
171,106.33334,2625.0452,-3629.8928,-1422.1309,-2884.9646,2582.224,8986.314453125
172,-286.3678,765.3483,-218.3479,-956.0857,-884.4953,1496.6979,3584.52294921875
173,297.45807,1710.4783,-321.9284,-1553.5996,777.4572,-1800.2709,4693.90380859375
174,7374.0913,5437.7,28204.455,-3234.3308,-5295.4106,5989.299,26478.5078125
175,3099.9048,4630.2764,12851.497,-1463.5991,1706.3138,-883.52936,10000.7392578125
176,-3981.948,-3907.0596,-15066.91,-634.1094,2812.6362,-2548.5198,12966.7275390625
177,1945.7516,110.752045,-1926.4066,-64.909676,-104.07313,184.32388,3376.75634765625
178,710.25916,1850.8273,1757.1398,-582.07623,1840.3374,-626.8359,3682.19360351563
179,1836.4598,1145.841,2529.2676,120.86294,100.81791,171.8493,1264.24523925781
180,654.02625,998.0841,1222.548,676.08026,155.84744,1060.9692,2251.01635742188
181,-782.2751,7154.435,1295.2351,-2382.8953,2752.0046,766.1356,9609.103515625
182,-8157.5947,-3617.5073,-5685.1665,-629.2755,1099.6504,2928.7197,6785.8759765625
183,5578.069,1764.5135,7057.45,168.83037,-632.8615,-172.01826,4873.3251953125
184,2239.9646,2446.2256,-5600.342,147.65547,1052.7542,-434.0574,8190.57958984375
185,270.40652,6148.064,784.6867,1425.301,-1873.3286,1165.5879,7244.7841796875
186,2386.084,1478.2013,-100.355385,-227.02579,-101.73137,274.3362,2271.71459960938
187,-13188.469,757.7787,-6381.419,-1503.9418,-2616.1143,1466.5851,13404.150390625
188,-2053.5273,-6617.4854,-94.70163,-1069.4656,448.61255,950.66046,6352.4013671875
189,4095.0593,-3417.8105,8467.239,3800.639,1925.4584,1273.6262,12951.0576171875
190,-4098.327,-4747.625,-5986.3384,-229.77063,-1543.1692,-50.031113,3173.37329101563
191,-2221.2212,-2977.7134,2123.3945,223.63152,-1568.2378,-636.8575,5610.6630859375
192,2772.123,125.41793,-2154.7563,1244.067,-2327.7253,936.461,6462.82421875
193,5867.3955,-4522.8975,5165.7974,-3202.5972,-376.6526,4571.527,13966.1259765625
194,-692.0961,-2076.7996,-3527.3198,2093.6226,-569.08386,123.50119,4494.1123046875
195,-3263.0164,-7008.2383,-20159.717,1829.26,-67.0368,1376.7645,15873.9345703125
196,-1155.6172,-5490.811,-10004.501,966.80023,-371.4084,-141.87329,7874.85498046875
197,1379.2845,1164.4946,4234.7217,1031.5724,554.9858,235.69424,3618.85107421875
198,-2868.1514,-3166.4841,-2599.7546,-432.56815,-300.71323,-866.4537,1823.72351074219
199,3479.1338,-447.6158,-3139.4248,-2015.352,-672.2715,-3599.0247,9253.9169921875
200,1351.3573,432.50302,2313.0999,-53.96198,-107.424904,-465.19614,1829.07666015625
201,3409.0469,-1730.3628,6414.108,1267.904,757.3264,3190.6208,9379.3232421875
202,-2201.9932,-5619.676,-6616.9067,869.56274,1169.6409,-117.974266,4743.1630859375
203,1878.8342,-1527.6323,-2558.9329,234.05159,-19.499174,77.14259,4045.24658203125
204,2273.0188,-3027.1755,2613.6348,-240.9662,-649.00024,418.25607,5654.734375
205,240.53154,-1893.6812,-1758.8938,-26.013823,160.51643,-639.43536,2364.5986328125
206,1000.21606,-1465.7007,1493.6003,-26.784517,-738.88336,-978.57996,3471.83984375
207,682.4549,-2184.3857,-2279.0784,744.38525,892.7109,-1473.6431,4366.6015625
208,-348.53055,-1581.5791,-1873.0415,-859.4228,-293.3352,35.842213,2107.73803710938
209,599.85223,-2247.6287,677.14026,-302.37222,-541.0937,986.1558,3521.97973632813
210,4816.158,-1839.9766,-815.37604,-3303.6465,1191.0013,-778.3866,8794.8515625
211,5039.075,527.8106,4515.5605,-1961.32,169.90042,283.65656,5489.27783203125
212,1204.5781,-5756.379,-9317.096,-3462.6672,-1877.1946,249.11128,11517.2724609375
213,4215.032,-4232.6523,7060.219,-557.5197,-940.08466,846.385,10451.15234375
214,5458.9,1429.2983,6848.718,1066.6608,-1002.8162,-62.719757,5496.51806640625
215,1930.1458,-8224.802,-8479.011,-1636.6125,2599.2568,-1004.23364,11708.9033203125
216,-8196.619,-11951.483,-903.36475,2824.163,569.80865,-796.222,11021.7685546875
217,9835.2705,6561.1035,4441.5474,-1785.6588,4183.748,-1399.7258,9492.478515625
218,-3459.3164,6373.938,3421.228,518.2187,2330.7803,-1249.9445,9907.92578125
219,-2608.3452,953.6019,-2244.4036,-1497.7653,1135.43,-1408.6028,5298.4501953125
220,-792.78394,2409.5342,5287.8877,-3213.0051,-1005.42004,515.2787,7909.267578125
221,-3027.949,1978.8738,-418.55673,-1660.8551,147.99416,402.55185,5257.33837890625
222,-894.9938,4186.1304,-2676.9216,-1904.5106,-186.896,664.9412,7096.47802734375
223,-4957.81,1335.6368,-8411.062,-1129.7344,-711.204,-728.55914,8955.6689453125
224,-3015.1504,403.63086,787.4161,-671.9964,566.3947,867.01025,4209.4775390625
225,-156.40329,783.0869,3060.54,-294.84744,362.10522,-409.70377,3060.52563476563
226,-2880.3772,-301.65454,-2865.2495,-252.07155,-660.2767,-392.291,2927.6650390625
227,-3180.6667,374.90057,-1165.158,-29.378754,247.17894,734.1013,3367.58862304688
228,-5435.9272,3193.6545,-3281.3977,-827.29254,702.3376,1826.6147,8605.90625
229,727.9784,4218.436,12474.3125,1348.6793,-1094.0802,333.4307,10887.6513671875
230,-253.8453,1217.7218,-1467.8438,-659.8886,84.67109,-45.902866,2599.994140625
231,3474.865,-2007.4161,14767.817,1377.1779,-160.31065,536.5505,15037.5517578125
232,177.0551,2497.6938,-436.86157,-2561.167,573.33514,-721.27167,5423.32958984375
233,-523.8247,398.07706,-225.02542,696.9732,317.08658,-1158.4266,2539.39428710938
234,-344.6121,1758.1556,2465.343,1222.5784,-100.007774,633.6013,3482.41967773438
235,99.48645,4258.881,6597.1553,2675.867,-346.65704,1492.1637,7811.20068359375
236,8024.5405,-1128.436,9632.96,-291.55994,4207.5923,-462.37552,12453.662109375
237,-1360.0051,1064.4546,-2716.5496,899.18225,-750.7951,2285.1526,5548.83251953125
238,-407.50568,157.18524,-6787.652,1031.8094,-1935.9501,775.1947,7801.81591796875
239,2442.0464,658.3295,4967.9937,-373.89188,1546.2535,-418.87698,4710.2109375
240,1469.8119,684.5201,5182.5674,-427.05753,1819.167,284.25165,5294.7587890625
241,2469.9844,571.06793,-5705.679,626.2733,-776.54895,8.454198,7609.7578125
242,2266.684,-865.7083,3073.162,-562.12024,-147.12837,-1223.9966,4300.68310546875
243,115.2153,942.8957,-3486.9265,51.25784,-318.74084,167.37595,4127.7861328125
244,4223.316,255.58765,2245.67,-783.6503,2.1706297,301.0633,3731.14501953125
245,993.8037,3.9813058,49.520424,-38.129505,-37.611774,-63.41368,978.476379394531
246,2611.966,346.28497,3166.489,-1145.4371,365.1623,-144.33629,3331.03393554688
247,-586.1189,-90.06129,-463.47595,431.80936,-2310.8562,-929.1474,4401.10986328125
248,1908.64,966.9755,1019.0102,-800.8058,65.66121,-32.735355,1667.47094726563
249,1496.8871,-1000.4357,-3396.7915,-633.3217,1424.0864,-51.26154,5025.81884765625
250,2381.7678,-2839.9114,-4369.401,-367.33032,-581.17285,268.31845,6263.05322265625
251,412.8825,-665.17505,1175.718,9.615297,-807.35266,679.8446,2430.80346679688
252,740.13385,-3389.5693,-3654.2275,102.58482,2598.6536,2366.5085,7437.00927734375
253,-6279.7383,-4976.598,-14061.903,-1492.2078,364.54254,371.45154,8938.3544921875
254,1127.1243,1022.0073,712.07056,-3353.8015,-1376.5752,-310.37708,6313.28125
255,-6761.274,-16070.658,-16480.047,-4140.309,28.015596,4586.0493,14323.6787109375
256,5536.8013,1723.97,31782.23,3998.6458,-2635.901,-1242.8282,29612.076171875
257,6521.4546,5612.3916,12356.356,-1559.1062,-1135.8176,3452.7412,9332.9375
258,1771.3971,63.037178,1845.8136,2298.071,-3349.9514,-4415.861,10538.5263671875
259,1833.6,-4402.6104,-15046.579,1618.3143,1428.4729,-4011.0413,16757.2734375
260,-1747.233,-619.41974,-9424.841,-2474.0476,-3934.01,4547.906,13989.95703125
261,-6044.9697,-4149.937,4825.8184,612.8283,1101.3533,-128.09657,10294.6357421875
262,-6569.891,5921.073,-1457.6366,2222.8765,-1248.266,-1090.0983,11889.71484375
263,-7558.192,149.1298,-5404.9453,5534.377,319.78082,-452.82736,11842.8642578125
264,1288.2372,-1630.2562,514.81036,997.2872,513.453,-1481.5961,4149.52783203125
265,-7991.1514,-1205.2502,-31786.137,4651.7007,-3555.6997,2469.8525,29914.2890625
266,448.09348,1966.1609,9051.968,-172.31912,-418.02652,1198.1215,8257.70703125
267,8084.5356,7520.1606,32766.36,-2510.902,2836.6213,-3706.4355,26602.76171875
268,4580.6187,-4829.732,-3469.9143,1723.2018,5896.637,988.2314,13919.64453125
269,-16.899061,-541.08325,-1970.4552,-2193.1047,628.9524,-471.19083,4398.75634765625
270,4382.2397,-7160.6245,-11845.371,612.7207,-2283.3381,2513.74,15651.9580078125
271,1072.2826,-111.33786,1140.6113,790.1634,-1926.4459,217.8318,3825.63842773438
272,-4023.9924,2378.8484,-3188.481,-643.2513,-425.50763,272.5744,6192.91357421875
273,-2617.2683,1339.0713,486.4517,-1032.1755,513.4618,107.691376,4126.525390625
274,-2489.767,-44.031105,-1249.4481,-696.74207,536.98834,-53.99256,2610.87841796875
275,-4781.6665,420.9801,-7560.406,-574.40607,-699.3708,1197.4961,7483.6416015625
276,-1053.4113,1743.1599,3530.9077,606.5755,753.0275,-653.719,4483.68359375
277,-1614.3142,1737.6898,3409.6533,259.83347,1736.841,31.027313,5375.04443359375
278,32.03049,-1751.8828,2019.1412,1647.8114,-728.64777,-941.8153,4803.69287109375
279,1975.8555,-4460.8447,-9049.644,685.0926,1636.0708,-353.2362,10091.455078125
280,512.5409,-1197.014,707.6098,-240.756,540.86414,953.39294,2659.4130859375
281,-3299.9065,792.30756,-8406.227,56.70774,1681.8557,4.0212045,8497.79296875
282,-3482.8604,1084.5104,-2468.9895,-69.002945,-528.0669,175.91988,4266.35400390625
283,2431.6238,-1862.6771,205.22722,2230.0125,34.438007,-193.70958,5373.27099609375
284,-970.01434,-863.3533,-3640.253,-884.6198,-746.98517,-871.21136,3704.7275390625
285,-934.60297,321.3436,543.0303,-451.79507,-466.67703,-2365.3535,4467.14501953125
286,1262.8014,923.4168,2941.4407,-678.6982,452.11105,-38.88021,2345.71044921875
287,359.46057,-126.21459,1459.5743,-189.30533,-135.40875,243.02686,1523.19763183594
288,1715.0891,1759.6406,6660.4067,990.32794,-240.9648,338.30383,5262.85302734375
289,-7022.5576,-3762.2783,-19368.744,-2805.9155,233.2867,-1011.25104,15171.0380859375
290,-3578.6462,-3918.9314,-12783.197,-779.6616,476.96887,6770.8345,14891.140625
291,-600.94354,907.6697,-3838.1157,971.5906,-718.681,301.30127,4721.51025390625
292,-776.1284,-2672.0996,3306.431,4.123146,-807.76996,65.36966,5474.73828125
293,1604.6807,-3627.688,5950.112,-1429.2327,-1730.7236,2398.3677,10068.1767578125
294,-1666.6444,-3619.3997,-801.80664,855.57806,2262.8188,-49.382523,4880.001953125
295,-640.09674,138.90218,2150.6318,334.19482,-164.19029,-156.01213,2590.36352539063
296,2336.5784,-111.92171,35.530727,-0.3980599,229.8708,90.203224,2416.35888671875
297,1158.4122,268.54285,-192.90125,-644.16504,1527.5227,1024.7623,3579.19799804688
298,2064.2642,-106.61256,4174.8296,-1689.2346,3295.463,-24.863607,7408.88623046875
299,1682.9678,2354.7769,2337.2112,-984.58984,-59.777504,-817.1867,2315.64013671875
300,-10375.364,4651.278,4213.196,-3058.3318,3022.2139,-2366.6052,17078.435546875
301,1766.831,2678.4885,2300.8403,263.91647,-516.50085,-103.98301,1292.73522949219
302,-3922.4888,-1788.3243,-1510.8436,685.1998,1697.6987,-1096.2036,4345.5576171875
303,-3982.8613,1254.0431,-1506.5876,807.3939,-280.9935,-223.57466,4788.6923828125
304,3881.4966,6699.4077,17890.807,-2960.6667,-2710.86,329.29364,14607.96484375
305,1281.4875,3148.5588,9045.356,-1856.4502,601.2165,24.968071,7790.5966796875
306,-1723.1058,2699.2363,5952.5483,38.04669,693.81964,-626.9494,6867.0302734375
307,-4216.894,3093.3706,72.29505,1239.3403,-810.8261,-227.52176,6871.50048828125
308,-248.77206,4430.054,6725.5244,1858.6831,441.07938,-222.9543,6999.82763671875
309,-4253.1577,-2255.1382,3463.6526,-555.2614,1477.2283,1414.8384,7848.5517578125
310,-459.66565,-261.40875,319.52466,2122.298,-1905.5206,-1006.4084,5285.45263671875
311,-1220.4507,-116.04605,-20816.06,1402.3076,2980.0044,277.59357,20967.140625
312,-2588.0466,-496.8462,-592.58734,125.60539,16.53303,-381.74902,2160.4208984375
313,5992.5957,-6627.4043,17342.428,2787.8914,-529.545,-3535.1675,22202.892578125
314,-5165.591,100.30274,8195.544,-2234.608,-1351.0782,653.214,12554.9970703125
315,-5755.458,679.2199,3012.4233,-3328.8718,3067.0386,-1495.5792,11403.3740234375
316,-4612.694,-768.6801,-690.3149,2225.544,-741.13837,-127.81857,5624.92919921875
317,-3144.4778,576.84625,2413.8457,-1177.6931,1468.1641,-303.97675,5912.994140625
318,1731.9797,-2666.3687,-1144.2289,223.84233,665.9608,-281.0694,4084.76489257813
319,7132.7246,-2128.7068,17509.154,-2346.7449,-577.8746,-2407.757,18012.78125
320,1726.114,-2608.0361,940.15594,1068.685,654.04083,543.6819,4646.77001953125
321,1319.8298,-1110.4083,-4514.1113,-1008.7859,-159.29527,-143.08612,5380.85107421875
322,964.39,-4970.538,5019.5703,2847.2817,759.7944,-129.44989,10091.4931640625
323,-1604.5131,-2570.0974,5697.624,-351.78082,672.19446,-7237.1875,14837.8515625
324,-4881.244,-4764.7407,-5332.3066,2170.5344,1047.0801,1047.4128,4580.78466796875
325,-2854.903,1009.1106,1203.5736,-2196.436,-600.4763,2608.7607,7189.67529296875
326,-7106.284,4040.7998,-3167.6965,-5973.8467,-1723.1516,-1597.6677,14815.265625
327,-2875.7004,-1371.3588,-2999.8083,-560.23346,-752.21735,-106.11116,2266.71630859375
328,-6834.0776,-5865.943,-6402.163,-701.331,-854.8603,-362.6268,2183.60522460938
329,979.4556,-818.4448,-1600.1798,5.252793,534.97437,616.3536,2692.09741210938
330,1169.4022,-922.699,-2030.5281,302.80777,-133.11623,-109.40797,2878.54321289063
331,2571.7668,-511.88852,1375.9463,455.11057,302.08136,-264.6027,2890.7783203125
332,-901.2704,-270.37024,-5630.7695,-170.11366,-284.81696,473.13852,5172.2138671875
333,-419.00787,-650.3589,-649.5748,-1027.4502,-1667.6625,1032.4598,3842.072265625
334,1987.7213,-8296.577,-10567.813,670.64825,2212.882,120.24491,12262.40625
335,732.20703,2937.6824,13660.753,-605.8225,-3802.776,6209.6616,17425.896484375
336,-1104.7775,-4480.09,5987.3853,2086.4563,-29.938437,-867.45605,10047.3779296875
337,-5592.175,5852.782,-18470.31,-923.94104,-1179.5817,-813.2276,21282.4453125
338,2052.9912,447.12567,6000.9346,-3534.361,-527.19183,282.82956,7940.6435546875
339,-3603.4597,-1975.4014,-390.31897,945.6734,-35.29127,444.29303,3320.01318359375
340,-1271.7788,47.820625,-2590.428,295.0098,2315.2637,145.56049,4650.404296875
341,-2562.4707,484.29202,-6379.5894,650.6741,-158.75124,-1468.5425,6580.16748046875
342,-1913.7142,-2129.1084,-10953.865,-1557.1155,1136.3059,-369.1621,9559.2763671875
343,-301.7454,-240.80553,-16208.486,2697.12,416.82034,-1081.6036,16728.767578125
344,828.16675,1260.3584,-1983.3119,1158.8131,1124.6177,554.7193,4248.79736328125
345,43.220955,-2234.767,-1473.8234,-336.69028,-1281.1809,-270.22433,3085.16796875
346,2171.1602,97.32672,325.67007,-2287.3274,169.3829,-3167.353,7053.89453125
347,1731.7133,-456.8123,870.1589,-241.633,112.02061,243.94164,2009.40637207031
348,-1800.7007,-634.7968,-7562.6147,-315.48053,560.3554,-71.159355,6521.70166015625
349,-284.25894,-611.3874,-1146.6918,262.41187,-590.93445,333.24573,1468.34118652344
350,4687.5977,-3384.5154,-1368.7007,-599.88104,691.66376,548.12067,7507.77685546875
351,-1520.4111,-1172.8773,-2280.6956,-3174.3838,-2676.525,632.5338,7340.62890625
352,-9.403942,1027.9358,1133.2819,625.5307,-249.04451,230.25905,1647.86059570313
353,1589.8188,-1093.3251,2769.305,-929.06415,-71.31833,-399.0764,3851.97436523438
354,-191.33272,-854.3711,-3676.6062,-158.67334,-474.93323,-255.8368,3350.2919921875
355,2936.65,2312.0361,6466.973,1570.551,-614.63605,-772.44763,5038.021484375
356,-4056.1597,776.876,-2479.0234,2284.0994,-615.9273,332.89407,5945.17626953125
357,610.3872,-771.8732,236.17014,831.18427,-83.23753,-195.94429,1934.42163085938
358,1785.2761,1454.0981,220.40535,-340.9646,53.675842,-169.87209,1576.14465332031
359,461.00003,-25.04787,-20.844517,-374.89624,-839.03436,21.296503,1664.07800292969
360,789.2275,-593.6617,-99.48277,14.899172,-50.793587,-71.63004,1223.51916503906
361,-1008.09503,347.75308,1090.5903,-686.2291,-118.766075,-43.964718,2204.12158203125
362,-768.9713,1016.5921,-166.82924,-523.3228,-75.32513,2.9367003,1820.52099609375
363,-519.943,-656.00397,493.3749,-57.52598,-281.4128,-32.72516,1197.46350097656
364,-297.11093,-927.0196,1122.3173,-920.3731,93.31468,-218.46487,2452.80151367188
365,-244.8134,-1390.6355,-508.64478,-108.5888,163.18248,136.72507,1118.72827148438
366,477.54572,-1585.1375,-598.7701,524.7269,-80.177605,47.10355,2011.21252441406
367,86.75721,-2401.3083,-716.04974,350.9359,25.133068,20.788212,2282.58471679688
368,-288.15472,-160.66582,-403.67496,720.9432,-65.19382,-29.623066,1272.39392089844
369,-987.9525,-200.10387,-596.0317,-308.05505,-0.20727168,-20.46717,866.881591796875
370,-1432.9966,675.48615,289.15442,-211.88023,58.575,35.87719,1982.22399902344
371,-1567.7902,-1324.959,-100.24915,589.5859,-2.542814,-1.4923372,1702.68591308594
372,-1428.3503,-892.1997,-93.41443,-400.8925,15.587289,51.58062,1358.17504882813
373,125.95263,-219.90962,-557.35095,-743.8568,15.388563,61.06028,1421.99157714844
374,-1178.6006,740.4167,-922.0977,529.1382,57.422,48.01148,2028.04248046875
375,-861.15576,254.8207,-493.34274,358.76584,-65.67037,64.211105,1175.44250488281
376,2019.9099,1786.1075,-12.882764,-266.5529,57.04255,-31.861086,1984.33776855469
377,-1943.3228,-2794.1956,-721.53973,-883.16235,1187.1709,-518.0279,3260.28076171875
378,42.982613,-443.3557,-916.9206,-76.85626,-155.35158,73.22444,892.922058105469
379,958.9526,-1137.4307,-48.75207,349.10535,-205.49251,80.72025,1951.82189941406
380,788.40753,-480.71494,570.4314,336.9252,212.53716,66.16033,1367.75378417969
381,1500.2765,-479.61368,233.16383,91.13054,-148.47601,-67.10255,1766.73522949219
382,-782.5559,-341.80032,49.40459,605.9562,15.525416,62.85683,1278.22424316406
383,-1023.10187,-1116.9625,-92.18443,667.13855,65.75983,-61.248688,1523.89050292969
384,-772.82806,-379.82626,-342.10284,669.11554,26.463795,-72.909355,1237.69702148438
385,-1027.1674,545.5188,100.28184,-711.6183,60.549393,88.50946,1877.51489257813
386,-1307.3846,717.43726,-504.19073,-1136.4955,150.66328,-5.9312415,2657.39892578125
387,253.7603,-946.817,352.66998,-1138.8038,274.97098,-72.08555,2388.08618164063
388,85.0104,-6.7759275,730.03864,-857.79126,-153.4767,126.33422,1676.20251464844
389,-266.60977,-1756.0226,338.50525,-921.49066,-54.657864,39.10263,2459.01708984375
390,984.6719,-996.90094,2007.9424,310.4331,85.88699,-39.7259,2705.0634765625
391,1066.683,-1395.6162,-121.16608,-117.33415,-245.6941,-230.54306,2220.56567382813
392,-78.50313,-652.1238,921.4266,259.6956,3.2631645,-21.28074,1451.27404785156
393,695.97925,-1481.6974,-406.00534,49.76756,-88.758255,-67.494095,1897.79089355469
394,-1071.5343,327.26117,-531.5812,-589.4348,-69.99217,5.3464165,1596.86462402344
395,-1200.5623,-1299.9104,553.8304,-74.45745,99.47561,35.82908,1819.95275878906
396,-477.1856,-466.81317,-253.3336,789.1754,46.108944,-31.911068,1387.70385742188
397,805.1634,1037.6448,928.29407,-347.5731,-105.834816,235.89479,776.882446289063
398,1226.7594,-1312.8303,969.6137,46.907192,-142.92596,111.36982,2442.88549804688
399,1894.8607,-1077.8219,245.12073,-61.432636,200.01306,-57.902824,2606.86157226563
400,-575.33105,-45.0126,-395.1896,-609.3699,-45.22314,42.486797,1159.181640625
401,-600.45306,69.91769,-2109.0486,47.825394,44.623302,67.45475,1939.86120605469
402,-349.94177,780.15295,2222.2698,-254.85223,-57.912933,-150.24986,2293.2900390625
403,771.6037,-454.6496,-24.852436,-85.18415,57.683376,-107.582985,1108.08666992188
404,768.13617,-380.53662,183.98747,-108.38681,-21.145792,81.2153,1022.7685546875
405,71.61528,-86.1121,384.69638,-74.020836,20.164268,-42.337296,441.942932128906
406,-240.15437,-1588.2318,-336.46408,-1906.8391,93.77069,306.09348,3593.37182617188
407,-1278.8744,-1913.9343,-328.27777,-198.69156,-4.385958,-34.356308,1425.71203613281
408,-1681.6847,-1340.2756,-1206.3771,-368.93948,7.876054,-274.2276,902.408264160156
409,-646.41016,-517.5984,-314.2207,-207.0817,-49.682087,-79.62501,489.107604980469
410,-276.02228,63.95552,516.0492,184.38194,124.28185,-73.5175,798.885375976563
411,-73.94579,502.62527,1131.8807,-2319.6455,400.28085,658.402,4360.57666015625
412,761.91876,-1279.1594,-779.4709,-808.4677,-104.96844,-167.53839,2339.638671875
413,-2682.7468,-1636.5269,-180.38963,-764.371,-569.21063,36.796654,2732.61865234375
414,-1255.153,-1014.0231,-334.85724,733.206,-15.029165,-78.467094,1521.544921875
415,488.54764,-812.1431,-812.92566,299.1067,7.6266336,-107.031334,1412.71044921875
416,-126.05481,-723.9792,310.92667,430.36102,-87.979996,63.988373,1183.58984375
417,-1196.1029,-1326.7604,-333.32062,505.14297,30.03239,281.0953,1370.93090820313
418,-455.9021,-246.98744,283.06308,58.651608,64.72175,-129.1834,712.941833496094
419,-456.26373,-1064.408,42.3854,160.44672,-18.512184,34.46438,1001.77935791016
420,402.24014,209.12776,529.95056,-177.53712,92.10023,-88.6249,470.992126464844
421,-2136.1294,-2450.8198,-2080.5999,-196.71927,576.1429,-5.4251184,1109.77197265625
422,-634.1372,50.198994,-762.2997,-523.1812,-1.7193704,-148.17009,1208.08764648438
423,276.39688,335.17752,1883.6621,524.18176,180.44977,-81.91477,1853.21240234375
424,-295.97052,-73.9464,76.8835,-490.672,81.72554,-23.905321,921.71630859375
425,-712.92944,-356.11093,-185.6096,-167.83192,0.169145,-25.293041,551.044616699219
426,-2114.7004,-301.2519,-549.7483,308.4487,25.390783,-20.163553,1785.57727050781
427,335.18982,-92.08203,357.42685,-361.50418,97.14978,127.67457,813.528991699219
428,-353.8702,-861.3449,-143.67703,588.52704,67.35204,10.599752,1208.89099121094
429,-500.00723,322.23288,339.92093,-442.6003,27.744614,-96.23578,1143.99035644531
430,-299.7296,-884.7604,-161.68178,-84.65902,45.006096,-27.607618,686.982543945313
431,88.42174,-142.05672,-1424.1455,-112.64252,215.97209,45.200367,1475.29382324219
432,32.92648,-1101.4633,-364.26093,393.33618,-43.111416,21.543114,1210.42993164063
433,163.53783,84.4654,-208.37834,-196.95795,63.253582,-22.071325,494.982391357422
434,773.4618,-825.6464,-485.93466,-75.36569,154.76646,15.3706255,1489.60461425781
435,242.71355,-22.517286,-134.60397,-265.28577,-19.805239,-54.143333,577.702819824219
436,-572.3959,-1077.0575,-586.2878,-1018.71265,8.412149,115.122955,1844.22448730469
437,-1067.7733,-3148.6172,-1303.0742,-769.41815,-251.68709,-458.16245,2547.8310546875
438,-380.709,-21.109364,1138.1648,-248.62764,31.383385,48.16558,1444.11389160156
439,-2067.8123,-0.35479495,41.16473,-817.6207,-28.583351,127.71286,2533.54248046875
440,208.03854,-608.9703,58.58146,363.2876,-55.487446,14.527238,986.679443359375
441,349.89325,-1400.4176,-840.0369,-1084.1777,38.923317,49.14138,2436.16259765625
442,-544.9849,-745.21783,-233.94388,-300.39603,254.98169,-72.56023,825.030700683594
443,-599.66736,-492.30716,-209.97675,-397.48795,-207.06815,75.64642,861.009033203125
444,-479.71756,-1332.6064,160.48271,-696.87616,-129.03113,-95.04175,1793.66955566406
445,1342.5719,-560.9175,1594.7595,-286.08035,-426.3668,-67.883835,2229.71362304688
446,-3343.3125,-2324.2214,-166.35216,-634.6001,265.17435,91.47504,3055.85009765625
447,-435.53342,-31.289474,824.0606,678.4723,79.27243,-12.129665,1625.13842773438
448,-500.9782,-221.36864,-990.20404,315.20825,-156.1796,103.63604,926.165100097656
449,-653.9125,-1372.8008,-3.4483666,399.63242,-27.909645,-9.089337,1374.48828125
450,-174.23842,556.2892,1245.9276,14.8558235,-307.85556,-68.046326,1346.08679199219
451,-67.25471,517.5246,443.96994,-562.754,-49.319675,-84.910576,1132.85778808594
452,663.2109,178.9891,340.48105,373.20892,53.06981,-56.149445,786.202697753906
453,-1682.83,-1340.8314,-448.76895,10.7207575,-223.45872,66.84486,1175.31848144531
454,180.25836,-421.57645,-377.40955,-11.590514,14.789526,38.58145,585.746948242188
455,373.3527,-777.2686,-273.60983,-531.5386,-141.12636,81.02924,1387.48974609375
456,-426.32767,465.13544,-443.46967,-29.44318,-109.3145,-151.2911,957.809143066406
457,1.9063135,-426.3558,-1570.3165,-102.70762,-46.35693,71.084625,1426.61206054688
458,-145.94739,-70.16368,-57.10748,-353.52164,-132.7346,27.882357,661.077453613281
459,-192.53609,-368.42648,433.67065,-568.4988,3.7131956,-70.03081,1231.88598632813
460,337.66302,-492.4035,-635.8504,198.53923,97.413124,-45.174377,990.707580566406
461,-57.700665,-441.12796,-149.41176,-683.3987,-30.36471,54.42831,1238.15075683594
462,876.94293,-831.57306,352.41617,-242.17389,113.09523,50.258823,1587.41516113281
463,29.106672,30.286407,268.23483,-907.2426,58.781235,60.124554,1596.05126953125
464,-137.0469,597.96387,327.3932,12.691768,-58.72254,25.9191,653.774169921875
465,-1162.8031,52.64504,-266.8241,316.4494,36.348545,156.39122,1252.53161621094
466,-821.28503,254.3585,-692.9127,397.8536,297.53696,58.318016,1336.43408203125
467,-195.35266,-462.75034,-266.82684,762.1739,-756.1414,104.49922,1883.67602539063
468,-588.7156,-439.67688,-57.11087,-25.84076,-69.15572,156.19064,561.358825683594
469,-851.5757,-485.82263,358.38416,1113.6881,-62.368134,-39.345627,2211.88793945313
470,-2855.1074,-2259.3445,-251.56314,515.7186,-18.023117,-84.35004,2530.31567382813
471,360.61826,622.5674,632.57965,244.78601,-34.92436,-37.695026,508.942779541016
472,141.6892,4194.133,-129.65192,112.196686,314.44064,-100.64328,4237.95849609375
473,1196.522,-582.3716,773.6285,640.3323,-21.382097,-74.59249,1959.37707519531
474,113.00973,-200.83237,-90.13295,-112.733665,-69.22066,-139.84798,432.646026611328
475,-119.1491,399.51144,127.06626,933.3582,910.9829,-378.34952,2394.68505859375
476,-298.1381,-23.430485,143.52794,74.53791,96.69785,-35.388554,444.612548828125
477,870.6579,1573.3079,337.49673,55.5631,7.189473,-114.69936,1096.1240234375
478,1559.158,3131.3958,643.80707,1281.1481,-121.91748,-8.178623,3117.33251953125
479,635.0876,-949.1676,-272.0016,-285.8246,-317.8815,-7.262898,1563.33166503906
480,1873.666,-441.808,175.15018,-124.75161,93.20827,105.461,2102.29028320313
481,-1176.066,-106.07812,30.753765,326.255,-120.881195,166.02284,1325.08874511719
482,-3123.5818,-1305.103,70.83555,535.1281,82.0947,-37.240257,2930.12841796875
483,-237.69168,-509.27066,-198.41043,-126.59855,57.74736,-0.94621575,379.545318603516
484,-2456.4958,-2021.1072,-522.8253,266.5656,-59.807724,-41.756874,1820.95593261719
485,331.62866,-389.85437,118.09963,385.66376,223.25888,-17.680145,1004.36834716797
486,-436.42047,-113.7984,-720.72076,264.04498,294.14493,29.396772,864.840270996094
487,186.20537,-438.10535,145.37161,11.769436,-63.851593,9.750943,615.524353027344
488,-2634.9744,-2911.7388,-430.31903,-404.54382,-372.7747,127.981834,2550.34545898438
489,-3878.017,-2974.199,-953.6422,-429.91647,-89.4799,68.309326,2705.2275390625
490,-109.8286,-309.98563,-841.5988,651.1713,18.288181,68.062004,1309.98266601563
491,-94.67192,-666.05963,-404.8733,242.71133,-184.77477,-231.6111,827.977172851563
492,-423.12933,-1178.5918,-379.5929,-156.31056,155.41039,18.731483,867.362609863281
493,-515.65784,-222.42708,-313.50693,20.531105,4.9738727,57.550507,280.797760009766
494,-54.281788,-3.7330263,-653.62854,-440.29135,37.43228,67.12039,995.668762207031
495,-702.55676,-455.81934,1497.8167,-0.5250552,-145.5617,26.570597,2103.6376953125
496,-862.86847,-959.0917,-1020.5802,-220.64203,289.632,30.03746,647.589294433594
497,-1471.7979,-361.79672,-201.79419,887.21643,-316.83243,-40.494156,2025.54516601563
498,258.2395,-737.03937,516.28125,787.4259,16.923727,-86.44816,1788.12390136719
499,1517.5145,1428.3135,-540.676,604.16644,89.68909,-242.83638,2314.43383789063
500,-5.37092,-1018.62415,-1132.9064,-299.28387,330.08353,3.4480886,1323.31140136719
501,-392.10922,1457.9393,-70.95216,787.3443,248.33939,44.38282,2232.1123046875
502,-2606.804,-2200.466,753.16846,1593.6002,311.86694,-6.1221547,4242.61962890625
503,-1352.0558,658.7844,-307.98932,111.82322,126.45422,123.40444,1779.12145996094
504,-827.4797,-319.07056,-1249.3612,272.3358,-65.56324,58.43158,946.884887695313
505,-2263.8467,1419.1088,324.29276,8.180468,366.83417,84.21841,3340.03076171875
506,-180.85402,-645.31757,281.57898,-419.58224,-161.32227,140.30907,1144.39343261719
507,-100.45699,-768.756,887.2057,-815.42944,65.54943,2.393063,2022.33483886719
508,-1753.7444,-991.7391,1254.7758,-1274.6044,14.741019,520.60626,3609.28393554688
509,-1700.0216,2412.286,592.7052,1077.961,-56.56639,187.73573,4042.3515625
510,-92.326035,1844.1708,229.37582,298.44855,-132.52081,-155.16144,1903.32934570313
511,-101.73115,842.70276,366.55093,-347.02872,202.70935,-64.65301,1079.85278320313
512,-1520.8005,711.42834,899.7075,595.4591,-20.07134,82.47751,2554.19409179688
513,-504.43094,1164.1318,-101.206795,-311.47934,-27.093863,34.24672,1603.32946777344
514,-1368.5798,733.9035,497.50238,1102.3583,76.32659,-43.65994,2765.51440429688
515,-61.72339,2475.8162,9.904969,-447.71335,-105.92508,-11.065447,2626.37524414063
516,723.1887,-109.84949,258.02716,65.80296,40.181984,72.27244,745.878234863281
517,-1828.8169,-1853.4856,-64.65365,332.40497,-256.12717,-91.83085,1926.13110351563
518,492.23975,-170.70285,297.41653,71.82992,-267.21655,-64.33517,768.376281738281
519,-89.710365,-906.7331,-358.41486,620.22205,65.2879,-23.786467,1299.50048828125
520,-1832.5483,-108.21141,-1316.6172,-448.50046,28.553526,2.8411372,1719.24743652344
521,-681.18665,1258.2537,113.07966,306.94388,-76.47094,63.370987,1778.78894042969
522,-485.18723,-260.44574,-121.13333,-523.9152,146.10075,-95.53172,1008.01916503906
523,2374.4883,-725.3961,-903.1416,-958.1271,208.1253,137.58784,3623.89697265625
524,909.5199,-307.41617,-1519.8771,31.017654,-53.807476,246.9426,2149.65014648438
525,-2611.445,-1394.421,1176.9471,445.7615,-381.7116,-80.54264,3503.59545898438
526,-3127.4473,-1718.0021,-361.0738,510.65903,213.50983,61.200058,2582.75415039063
527,-1449.5161,495.84174,-168.1636,-56.94913,26.3389,-94.47531,1724.00109863281
528,-568.17566,384.84894,331.2039,266.62622,51.68735,-10.758859,1040.01879882813
529,704.3131,205.45164,2373.3452,8.528455,-45.93008,-102.82077,1976.2109375
530,141.63937,-586.4333,244.05908,1479.0455,-80.63653,26.90399,2683.19848632813
531,-1924.8502,-765.67456,-17.6413,958.5967,78.542206,77.88132,2358.76440429688
532,-1327.3553,-1743.5516,-93.720055,252.20894,-71.95294,-93.6442,1562.4267578125
533,-777.32367,-1314.1958,86.89923,177.86728,189.6183,130.1142,1323.87878417969
534,651.53613,1485.1412,-225.32455,-65.44468,-58.416008,-72.338684,1494.49743652344
535,-786.2713,853.751,-92.31969,-496.96454,90.326065,189.07587,1704.63854980469
536,-1704.4594,4585.5996,508.90314,909.6122,-119.6506,114.00315,5753.76025390625
537,-1456.8373,2699.0642,620.6255,1737.2871,-7.8823667,154.3159,4698.91064453125
538,1444.3245,73.80605,1397.6392,856.5819,-144.25578,-155.3011,2037.76831054688
539,1268.2079,-350.1287,1020.45715,1498.3495,143.46547,-122.85371,3020.20336914063
540,1543.111,4504.2695,420.94055,-3112.7937,61.311058,166.15683,6520.21533203125
541,-2049.5234,-362.60388,-472.34146,1761.8319,-83.71392,-52.831898,3466.14697265625
542,-2339.3599,-1053.438,-1360.8287,1843.8351,-18.67809,139.5968,3407.564453125
543,1140.7435,383.4251,2036.594,-2.7662907,-481.55292,-30.085165,1659.19897460938
544,4089.9805,-394.70706,-1208.8877,854.2531,129.45758,88.19398,5166.18994140625
545,-947.0772,-585.7919,-343.2792,-1094.6742,-166.74023,-32.288517,1989.5791015625
546,3734.7356,-271.7082,-454.61978,498.87262,-155.27818,-3.5543804,4199.626953125
547,4232.6465,-2205.047,-570.0158,-2184.1106,309.1455,110.37452,6944.470703125
548,3634.617,-1129.1492,-11.23033,-1945.9948,81.72826,23.255344,5477.23046875
549,3531.1562,635.47894,-446.7439,-368.08115,-170.20528,-108.86848,3635.77197265625
550,4232.861,910.2732,-102.11817,125.55206,-4.2715263,-73.85023,3935.98657226563
551,-1597.6705,-812.9492,-712.9697,-864.2386,438.52554,53.15505,1878.923828125
552,1455.8698,1824.4962,-159.06113,-197.2418,54.83184,91.751144,1868.20263671875
553,-1586.2493,-3061.537,-320.05374,-125.95138,116.63292,-213.46039,2423.39135742188
554,854.7241,2477.3018,613.6229,-376.8935,-25.127558,99.146225,1881.388671875
555,2374.491,698.598,1507.9133,163.154,-120.26733,-315.61868,1590.40197753906
556,3211.8145,1287.0034,797.77704,176.91527,-233.95143,-141.27975,2281.20263671875
557,1690.8813,1546.3964,178.16376,-216.64177,-60.41927,116.3955,1510.96704101563
558,2367.584,1507.8046,785.6086,-755.40875,85.74186,-66.9917,1905.03625488281
559,-1657.7983,-4026.967,190.68709,369.29968,-11.101481,-83.04317,3720.13940429688
560,-1897.6375,-3571.168,438.96365,89.93316,97.85996,275.8146,3528.73876953125
561,1451.0702,-1574.6425,228.65094,343.62415,-155.04988,-278.4745,2758.54223632813
562,1377.4355,-1297.828,-731.8344,-0.96973073,-39.337032,-74.03618,2446.28100585938
563,1492.9382,209.85382,-1.6467879,1463.9655,19.869484,-64.35335,2899.24194335938
564,-1323.8518,3027.276,-111.726105,206.08105,162.72684,-43.620758,3916.63159179688
565,349.6793,-688.434,-353.62643,132.46228,-49.591938,-60.77929,955.670715332031
566,2174.8044,-880.35223,-339.9833,462.6764,-48.976078,137.65285,2946.40771484375
567,646.69916,-1428.3658,-641.3229,-583.0189,-20.603165,-113.51442,2086.10400390625
568,-589.8817,1883.2648,-1268.5355,3021.5151,160.48503,-242.85115,5991.5185546875
569,-1049.1166,2047.1323,104.888145,600.63574,12.013949,183.93332,2920.55053710938
570,606.8576,4656.311,312.57825,-2602.4314,59.097294,-229.00522,6177.5478515625
571,1938.8109,1432.7225,904.6961,-1848.0929,-217.63235,325.08545,3392.29125976563
572,-587.42017,347.69516,-122.643005,380.15686,-130.06462,69.21823,1074.48583984375
573,35.39142,-825.6328,74.74213,220.98972,97.719894,195.06187,1032.51989746094
574,-801.0393,-961.7838,1438.9059,164.38493,13.095441,-38.357727,2342.91430664063
575,130.9013,-386.57773,685.0033,-395.90576,-102.42288,60.236744,1172.23315429688
576,-389.32428,-683.4023,-370.0351,-891.51917,-128.2532,-43.343166,1591.20349121094
