Element Label,S11,S22,S33,S12,S13,S23,Mises
1,-3229.5547,28584.736,21799.643,-9237.527,-1220.0676,-1398.5171,33296.43359375
2,-29935.885,-48372.562,-72204.97,8259.446,-1487.4532,1332.7319,39546.2578125
3,70303.02,48023.47,81808.28,-14779.84,312.97565,-645.43414,39267.75
4,-2147.3306,-23113.113,-38075.145,2219.9954,-872.90625,-13788.331,39554.296875
5,-9469.345,23320.223,23040.775,-9208.04,6016.9395,-3775.441,38364.140625
6,-13725.225,-29810.406,-55531.54,5049.1973,-5376.3516,3592.6855,39191.3203125
7,106730.1,77367.64,116902.94,-6282.5815,-8230.936,-2875.8967,40134.8984375
8,-88235.76,-94061.17,-120638.91,10084.161,8224.118,-6187.368,38961.10546875
9,84944.69,89576.47,109008.89,-11570.187,-8447.22,9640.816,37196.6328125
10,-46244.87,-47527.04,-40858.406,4051.1506,-8168.7847,14126.293,29759.76171875
11,3115.511,-15273.47,14545.967,13258.176,9467.334,-2913.5876,38738.875
12,-37148.344,-3501.2478,-41736.92,427.44012,-4257.8584,5287.258,38031.25
13,87000.766,78194.79,108107.73,-645.4709,990.0777,-14101.82,36189.65625
14,-98346.91,-90861.016,-97068.36,-2409.7532,153.58919,12004.084,22313.3984375
15,141897.48,140115.73,141403.23,-121.806206,451.1089,519.8113,2000.97607421875
16,10045.284,23271.05,-1553.7931,7891.664,-640.7181,-3146.4663,26088.955078125
17,30340.494,30454.426,30114.291,293.623,-1043.3909,-360.14648,2000.91821289063
18,38842.676,35872.074,13820.497,6237.8457,-746.1926,-276.5061,26062.13671875
19,151728.89,151375.48,152637.4,-654.58826,-220.5371,649.0791,1991.64501953125
20,-2716039.2,-2715459.2,-2719871.2,-1155.0596,904.0296,6878.8438,12870.6240234375
21,-23329.887,-59635.3,-47590.145,-9663.217,-5177.714,691.8929,37253.9921875
22,15412.86,-17466.469,-1463.7408,-5865.205,9168.571,9530.886,37932.59765625
23,26782.004,-6509.928,33435.312,-3854.3494,1771.7295,-2553.305,38048.1796875
24,64665.79,81514.87,65462.312,5479.3755,14359.337,-9054.199,35009.7578125
25,-49228.01,-35416.195,-13570.632,-92.11607,1678.6627,-400.99237,31283.91796875
26,35302.19,21440.865,-3125.8386,-3055.8018,-3233.6304,493.78107,34587.578125
27,-129761.74,-124796.24,-103084.08,1353.4545,-1278.3284,-992.78827,24844.330078125
28,39358.21,64608.55,61421.992,1079.2694,-3113.5652,-4049.753,25476.48046875
29,94128.484,66299.09,63352.27,1656.4708,-7200.3433,3462.2668,32632.736328125
30,29847.846,29898.207,14967.692,4795.656,5200.235,701.13513,19333.078125
31,13226.581,9063.064,5252.872,1015.2461,8872.709,-841.10785,17003.109375
32,22695.93,11493.809,-9393.827,5242.227,-1835.5951,6154.85,31653.8203125
33,47226.28,23614.328,24966.299,7148.8887,5133.205,7095.269,30179.9140625
34,31628.385,8751.24,31375.215,-8117.197,-11495.307,1437.1057,33435.3828125
35,-2234.7908,15415.923,25064.22,-16964.654,4169.352,-1540.0022,38698.84375
36,-72529.86,-70230.67,-71533.92,-13061.281,-10140.352,-517.81305,28723.9296875
37,-16906.285,1035.0386,25787.186,-2596.8726,1639.7542,3796.1416,38081.17578125
38,7139.885,-19691.74,14543.673,-3430.8428,-8149.471,3165.0757,35185.43359375
39,-29747.447,2754.083,3699.0825,-5026.793,-4033.3027,2809.5488,35160.28515625
40,11455.022,18959.85,25744.37,20353.139,-323.38568,-1164.6102,37421.94921875
41,-7715.59,3924.7063,-16465.816,-11700.729,-2662.3713,4263.0806,28291.79296875
42,-23363.238,-38757.836,-61011.33,2176.0679,10906.913,-1084.6271,38071.1484375
43,270288.4,269946.1,269455.94,911.7583,-22.743546,-548.75806,1980.93041992188
44,105984.07,107375.86,107426.07,-195.39757,-790.96344,-3.045066,2000.22973632813
45,141660.67,141721.84,141160.67,699.08057,803.1694,319.4553,1997.96569824219
46,-258422.0,-259201.28,-254462.86,956.15356,-1598.5488,1330.941,5923.70947265625
47,45899.473,45782.0,45649.652,103.92079,-345.35245,1090.3938,2000.9853515625
48,-2992948.2,-2994603.2,-3002945.8,907.2448,-5600.636,6639.439,17747.12109375
49,26560.574,37355.97,59387.727,9230.987,1641.9963,5942.306,34776.9375
50,339646.78,348863.66,368907.66,4480.127,589.2699,-3434.3162,27714.5390625
51,17053.734,29287.373,55124.918,5160.578,3912.6077,-6815.5693,37396.578125
52,-42911.46,-38450.285,-76989.914,5071.3525,834.86145,-327.37177,37587.78125
53,19416.85,11768.373,2238.7217,17746.523,-615.90295,-8235.416,37035.41796875
54,36242.676,16393.105,52729.56,7594.5156,-597.57465,-289.29364,34167.7109375
55,-22730.703,-27862.36,-28831.506,-16439.53,8991.598,-4171.7905,33730.9765625
56,-37865.555,-33938.867,-65262.887,12663.483,-2875.5833,1182.4679,37198.20703125
57,3387.6777,1860.5964,2640.0564,708.8693,477.8254,-144.01085,2000.97277832031
58,26482.703,27510.38,27390.406,181.3105,-939.6585,321.05402,2000.98522949219
59,21821.734,21458.164,22511.79,88.68923,-650.2542,1178.4291,2513.44702148438
60,-39911.438,-47552.25,-24388.523,4201.4023,9098.12,1179.8593,26896.271484375
61,67068.54,86161.86,101509.445,-1359.4186,7926.2896,2786.5874,33323.5234375
62,-82853.625,-50899.676,-64910.69,-13091.444,-6437.8623,1963.258,37679.109375
63,28526.094,8464.365,28400.81,4978.0923,-2643.153,-3971.4119,23293.66015625
64,20281.82,51211.27,57176.043,-1418.3632,3340.1504,1625.6415,34987.56640625
65,-38156.613,-49374.453,-77857.0,-4236.754,-4160.6997,31.53156,36910.64453125
66,76721.27,82697.1,75757.03,18464.285,-2562.7493,-2082.173,33134.59375
67,8402.077,14908.195,35357.52,-11001.042,217.2456,816.87305,30963.888671875
68,168367.34,167815.38,167433.34,568.0174,333.76166,422.0562,1580.50720214844
69,18917.57,20311.322,19830.295,397.0002,234.5854,787.93475,2000.98498535156
70,59865.168,60901.117,59209.656,-1384.166,-1114.4902,-1536.9087,4329.23095703125
71,148962.05,151024.6,150114.55,-290.93665,-420.99966,-65.99582,2000.99768066406
72,-53415.117,-52059.336,-53677.793,-509.83502,342.9121,-450.22565,2000.98559570313
73,1025.6708,1310.1234,2468.4204,-847.5109,-155.67213,-89.58847,2000.91223144531
74,329475.03,328832.84,329417.66,-285.8527,599.95575,874.46124,1999.46862792969
75,344387.22,346065.2,345154.16,768.3038,-171.14395,96.60945,2000.90417480469
76,281850.8,280097.3,281250.9,-609.21094,-97.30342,399.73444,2000.97351074219
77,16127.272,21339.766,-15522.911,-342.00803,-8620.233,-2552.3477,37903.828125
78,10052.168,15720.406,46604.426,4229.2275,-10574.331,3468.3027,39827.1953125
79,45847.227,66859.02,34116.145,11954.373,1975.9833,2075.3774,35762.56640625
80,20931.51,35090.965,7765.3774,13647.751,-8171.35,-2089.2776,36502.79296875
81,9072.574,-2599.6282,713.19653,-11420.832,2436.9272,12445.897,31342.787109375
82,53725.082,26785.457,27783.906,7518.498,1631.1584,6789.7476,31870.205078125
83,45648.504,50569.668,74363.04,-5709.6084,3858.8274,-121.99913,29153.876953125
84,11738.276,16459.41,-4816.1772,2460.8901,5283.711,-5012.898,23490.48828125
85,5507.8184,-4146.2905,-9970.79,4600.2593,-4732.02,2993.8855,18463.75390625
86,2368.1646,1225.5233,17502.63,-4958.9556,-3136.9575,3622.8284,19756.541015625
87,30109.188,23237.861,26762.68,-1275.4965,7300.884,1947.824,14546.1591796875
88,538.7365,337.81992,509.44638,28.337278,-1071.905,-415.987,2000.95629882813
89,28497.422,28606.865,28079.553,-879.14325,469.5637,-513.6369,2000.98547363281
90,19132.562,19223.768,19063.494,659.4008,577.35443,-748.3444,2000.97204589844
91,639.2232,34313.24,27291.592,2362.2686,-7224.4683,-4684.0864,34437.4453125
92,766.6337,21501.775,21176.432,-14819.69,-6914.2905,-245.95012,35011.12890625
93,-23237.783,-24219.344,-1056.0729,-3877.4187,-12633.852,-1997.614,32414.21875
94,-702.0997,31868.258,25454.818,-14231.361,-2688.7803,3833.7983,39578.40234375
95,23019.857,38032.766,12181.704,10423.124,-2755.3713,1017.6144,29280.923828125
96,-24933.352,-22602.938,-29853.578,2273.7046,1361.2902,-3886.9814,10368.22265625
97,38717.254,39357.824,39721.84,531.6437,814.14795,357.76456,1999.11169433594
98,-72114.016,-59927.062,-79679.51,-10419.075,4517.314,-9763.917,31158.478515625
99,40185.004,62088.08,71489.34,4968.0396,732.27356,254.64163,29152.916015625
100,2491.7246,-7057.2837,1656.7238,1893.0985,811.29285,-1021.3594,9988.1396484375
101,-35472.816,-36950.21,-37890.77,366.5502,4344.0938,3114.8057,9517.326171875
102,66856.484,43326.242,55308.355,-6974.519,-1031.1027,-7235.2,26860.134765625
103,-53934.293,-44562.707,-82157.55,-3095.4924,-6500.541,-349.56107,36121.44921875
104,-46234.55,-28093.232,-24704.89,9969.919,-11386.758,4737.5894,34008.296875
105,-38865.48,-41546.043,-63632.53,1557.7413,330.2045,-631.27594,23727.724609375
106,-15302.582,6901.391,10485.691,2515.227,-7466.029,483.80624,27791.28125
107,15389.58,32442.809,32519.547,-17347.479,-3428.064,187.9105,35075.53125
108,-12969.372,19040.19,14635.299,-4745.911,-5404.5396,4079.5017,33288.76171875
109,-11644.33,-27571.982,-18288.338,-19683.803,-6296.973,967.7657,38420.453125
110,7256.3804,11182.445,8558.906,-1861.6249,6207.7563,3147.0845,12950.4765625
111,-55958.684,-53106.01,-46813.508,-9492.76,-3134.3716,-3814.4824,20227.33203125
112,52217.74,52802.992,86313.836,-8396.521,3678.2642,3228.385,37766.2890625
113,-17743.473,-3616.8782,-30418.006,15024.673,1322.7094,4480.7,35804.37890625
114,229395.02,229038.58,229892.27,357.30722,-525.66864,864.1699,2000.97485351563
115,71936.52,70190.06,69859.94,-245.22699,-43.928406,-165.41217,2000.98474121094
116,213238.72,211468.31,212307.1,-429.0257,-264.63626,542.2507,1999.32543945313
117,193500.3,192894.66,192866.81,713.5378,-828.90283,101.42862,2000.9873046875
118,142167.36,144388.83,142989.53,-52.455837,245.3426,-93.72059,1999.91137695313
119,165523.6,164555.1,164861.83,1007.5045,-117.12637,244.09471,2000.02612304688
120,-56340.297,-62771.395,-84220.71,9063.643,-5303.644,-974.2207,31193.861328125
121,588.0652,-7577.4463,-14349.138,-9709.546,-9936.219,6961.873,29870.384765625
122,-28547.13,-30420.137,3480.0405,-4292.8594,-5249.923,-3356.027,35510.48828125
123,28856.291,48808.637,48278.38,1762.0735,1758.827,-142.27525,20160.685546875
124,-117435.12,-109298.39,-111025.41,-4403.8525,-14803.101,-3467.0178,28403.7734375
125,95863.52,97158.3,95679.72,-496.63568,-388.19006,-536.5627,2000.98022460938
126,280420.53,281048.56,281475.03,98.25177,573.80536,-651.2504,1770.09436035156
127,-36624.004,-7589.5757,-44422.79,882.06714,584.9805,-1998.3044,33846.60546875
128,35911.977,36757.25,5346.808,7616.452,-4529.111,-4198.63,35344.51953125
129,-47116.03,-68510.73,-27928.482,-2226.8794,-1711.228,2983.3406,35871.5703125
130,-4431.6816,-42900.164,-31448.543,4122.75,-3919.027,-2655.1443,35897.828125
131,8641.091,-3331.42,32411.139,11076.032,590.29443,-2820.732,37227.59375
132,30767.82,42688.89,50868.367,-158.7121,8214.05,-5778.8306,24681.89453125
133,11923.263,26437.008,17869.725,17334.42,4381.4756,667.74347,33467.59375
134,-12917.992,-7542.3555,-14737.3,1197.5541,-3321.1704,6971.141,15005.6865234375
135,74389.484,75188.42,73926.43,913.60187,-28.046595,-302.7128,2000.9853515625
136,6410.94,17305.018,18405.312,-7998.593,-12829.956,-2992.1023,29060.14453125
137,66061.27,66719.555,67497.445,-765.58344,-353.788,313.91574,1994.99365234375
138,199413.75,198062.11,197732.62,166.41324,683.34906,-168.3295,1987.41528320313
139,86331.22,86677.805,87144.65,18.538357,-293.94098,1039.8469,2000.986328125
140,183170.56,183637.73,184095.14,653.5067,-8.577281,832.9329,2000.98046875
141,-149625.53,-150617.2,-147465.53,4601.228,-4207.636,1401.834,11415.4697265625
142,14299.913,24396.178,-14925.674,-1697.4269,-6485.409,2257.6763,37433.34765625
143,3798.9756,14747.607,34430.39,-8945.909,5565.7676,-409.48834,32500.89453125
144,-74204.93,-98798.89,-111516.164,-209.75511,-5667.1323,1192.3588,34352.67578125
145,44449.21,55562.598,75900.04,12197.731,2683.1685,-3028.286,35476.7578125
146,-44043.344,-31104.273,-14999.382,-8318.241,6122.305,-834.0477,30940.0
147,205377.81,212826.64,228685.25,-1481.5393,7693.218,5772.8066,26631.30078125
148,6426.7686,5393.555,6103.9053,220.4696,775.47205,636.62317,2000.98522949219
149,-42460.926,-36134.15,-22263.928,-10260.856,-4561.7925,-4690.3867,27648.6796875
150,1110.9984,1477.7649,1628.144,43.035297,825.1491,-725.8126,1959.81286621094
151,90309.25,89042.26,97385.12,1146.4772,779.51526,-2796.595,9479.8330078125
152,28911.773,53788.477,14903.618,1783.007,1089.6272,-2328.206,34538.62109375
153,26409.934,7209.9883,40419.74,-9453.347,596.7695,2740.5576,33549.92578125
154,-6319.284,13367.278,21878.752,-1517.8577,-2562.183,-9436.763,30353.435546875
155,4282.9834,33082.496,30894.248,-5159.507,-7074.2144,-1352.856,31727.9921875
156,-32358.031,-42125.633,-13887.234,-2500.2942,-13268.921,3950.388,34795.9140625
157,29573.496,33703.02,41900.332,-17208.203,4357.0903,-6688.637,34606.83203125
158,-23441.594,10897.545,2950.9727,-1717.3392,-8413.258,-3895.393,35159.1328125
159,-25567.484,-59.7752,13919.357,-363.0715,1446.1018,2008.8057,34948.67578125
160,-11251.713,-17445.488,-21026.15,5552.594,7415.3745,6894.6987,21758.439453125
161,-19458.553,-7539.943,-44907.87,-1073.3514,2815.4036,6123.372,35110.74609375
162,15975.841,37442.188,37362.73,5271.583,-8263.0205,6290.649,29428.265625
163,3875.421,7353.314,-25138.602,-8724.009,3602.8066,4732.6665,35906.50390625
164,15290.678,42881.375,17286.041,-11071.747,-3051.2273,7468.7773,35681.97265625
165,23230.305,19852.516,-5883.901,11570.651,-2822.7825,-1314.2771,34517.11328125
166,-17961.232,-30825.145,6595.2847,-3846.6174,2340.4236,-2271.7974,34069.0625
167,18304.639,43426.023,29321.836,-3089.6084,-11400.421,8577.438,33390.99609375
168,-30659.047,-20290.934,-55551.82,-11004.299,5127.42,2421.4497,38012.94921875
169,241.53694,18393.793,-22993.15,-8225.177,-3599.3408,2027.0305,39309.921875
170,-2915.0154,18624.898,-24843.836,-1123.6621,-748.44495,-3713.6672,38262.62109375
171,-59742.367,-65172.88,-39127.785,6623.99,-4666.8706,519.73157,27643.8125
172,95116.15,83408.78,90297.8,1826.1168,-4414.8013,1599.7837,13417.234375
173,34955.03,54472.754,76726.92,-2172.7249,4114.236,-1740.6313,37209.84375
174,1974.739,29596.318,-7445.659,7293.639,-6823.674,1088.2151,37612.9453125
175,2424.1777,-1438.1923,-23504.49,6657.6445,-11158.627,-3305.953,33561.484375
176,75702.21,75916.12,75871.72,153.32416,-1110.0111,257.43097,2000.98498535156
177,-7503.806,-2248.5286,26784.629,-2067.4084,4678.2754,-5233.6675,34406.0234375
178,54058.68,64912.676,33791.094,-11209.466,-5039.1484,9881.132,38660.2421875
179,-12179.237,-26130.11,-46730.098,1108.1267,4740.5127,7691.728,33984.75
180,-16046.368,-10544.309,-43679.926,7569.0,-4173.214,-580.9832,34220.70703125
181,71332.1,47580.383,31639.078,-6638.5083,1519.2454,4920.0127,37532.06640625
182,-80209.01,-60201.63,-45908.188,-3675.1467,1037.0394,312.62955,30571.419921875
183,51523.742,35608.13,61468.203,-8813.422,9532.378,7025.1987,34119.78125
184,19113.986,13324.46,-1400.2485,-9993.591,-10232.324,4114.321,31624.115234375
185,-12358.769,82.163086,-3789.866,-11272.203,-2358.9075,-8806.233,27424.951171875
186,63982.44,68856.06,72268.61,229.20905,1750.8768,3220.305,9617.4072265625
187,47622.582,45069.203,26401.248,-326.7576,-10096.705,4437.5996,27711.12109375
188,460879.56,460932.56,459829.5,60.473545,-591.16223,-771.0335,2000.99011230469
189,-5326.656,3032.06,-23412.479,11992.05,1112.0089,-3196.1946,31842.169921875
190,-29114.895,-34018.465,-37338.457,-6137.1694,3227.523,-3663.8398,15357.8505859375
191,25949.395,20498.557,-4410.7305,5401.7705,4135.9653,1935.9268,30595.099609375
192,26729.35,22107.52,27440.33,2544.8147,1984.6843,-72.7664,7510.91748046875
193,-56602.63,-69563.73,-51515.816,-5388.408,2947.1816,-3187.3281,20085.71875
194,51683.137,17198.879,35262.24,-8478.509,5943.667,-1531.1566,34945.92578125
195,-5354.3433,-30074.309,-24753.85,-2402.8916,1568.9058,6326.3916,25546.783203125
196,38296.203,49605.07,58808.98,-8990.701,-661.2477,8940.629,28289.62109375
197,-26053.389,-21536.24,-29032.986,-13865.329,2346.9092,3273.2986,25848.623046875
198,16926.61,4903.556,-13203.303,3530.032,-6169.895,-768.05554,29042.517578125
199,-38239.395,-4325.8623,-30650.625,-3280.207,-12027.536,124.36284,37638.62109375
200,-36690.754,1097.677,-22420.969,-1804.1542,-3270.3628,2166.7466,33886.49609375
201,-38872.01,693.6306,-4828.077,-483.6511,-4402.8433,-4834.619,38812.84375
202,-6637.962,-22351.945,11228.772,-1046.3671,-14381.062,-4380.3877,39092.1953125
203,-6805.618,1233.6338,-4879.432,-4196.929,-18831.63,-7831.3525,36791.01171875
204,17513.047,882.03,6123.4487,2097.1667,-9696.017,-11683.801,30358.841796875
205,-33060.605,-29756.723,-33455.426,-1255.7576,-20995.354,-1665.1365,36712.9296875
206,23163.55,10644.993,8930.989,7384.6743,-6796.102,10516.678,28549.4609375
207,5923.0874,8539.83,1167.8119,-14775.717,-7753.2837,11953.048,36136.33984375
208,-42687.797,-13325.108,-24654.09,-14943.124,-3085.4182,-1870.3829,36970.3828125
209,16423.742,-479.9137,-1955.8977,6778.3945,-8104.1104,-3933.728,26346.802734375
210,22178.146,-12993.589,24370.838,3801.6682,-3685.4607,-2068.0337,37628.65625
211,23863.146,17028.113,13455.7295,-2769.1182,-12275.803,1774.5549,23841.857421875
212,-6360.2476,-4383.908,-265.2036,-15966.875,5841.8994,-4242.5205,30825.52734375
213,-11487.508,-7199.367,-7314.6514,-11295.545,1311.2678,-3456.219,21015.939453125
214,-12695.071,17049.594,-12740.396,7536.5454,-8510.131,-2908.4832,36043.56640625
215,10820.524,23918.27,20152.678,6786.919,-4012.7227,2713.9753,18574.162109375
216,14336.792,13641.3955,7642.248,2013.6853,1097.9148,-5933.5977,12729.84375
217,15522.796,14888.638,5822.8584,-4869.3994,-3530.2583,-1652.8025,14319.78515625
218,-5892.191,12880.624,-19860.623,-6775.4106,-804.5161,-10241.157,35553.71484375
219,46875.676,79451.06,53566.324,8269.146,5656.0933,-2614.134,34779.0390625
220,13639.514,16298.591,11719.1875,4374.9165,8873.179,229.54805,17596.65625
221,-29848.363,-25345.324,-46501.883,5870.292,4262.7295,-314.78598,23039.083984375
222,33977.504,17217.84,8169.719,-8102.1445,-10629.369,-9544.722,36381.1484375
223,34697.184,27723.453,35718.043,3522.476,-8152.879,-10225.081,24639.052734375
224,7300.948,2878.4214,4626.611,657.4949,2369.842,2127.9211,6827.37109375
225,13230.585,-16769.994,7355.828,-9465.374,-2049.5527,5604.9424,33673.8671875
226,704.2427,9302.899,19348.111,3631.7708,-2339.1084,5343.5933,20071.47265625
227,43861.87,33321.605,31788.367,-2030.852,6187.915,2378.721,16547.73828125
228,59464.93,61677.6,39355.37,-5402.9316,2923.006,-3034.109,24384.63671875
229,77439.34,77174.19,77344.83,437.58,-1058.9978,-60.2898,2000.98522949219
230,122260.28,121789.13,122527.92,-1021.80853,-101.94449,374.51376,2000.98693847656
231,168882.64,154588.36,184525.56,-241.92351,-1617.1215,9524.494,30867.46875
232,48435.69,32269.967,12049.895,-6726.309,3436.3352,5622.046,35539.1484375
233,-15254.728,1336.4165,-20098.79,-12407.819,10092.179,-378.9086,33866.625
234,-26473.178,-45176.383,-40382.137,-16739.104,-1785.2886,6679.0264,35596.484375
235,-35940.855,-61211.387,-53791.81,15891.637,647.2205,5137.7485,36663.76171875
236,40743.43,49114.125,78871.01,-1433.7119,-366.51212,-6255.184,36449.6640625
237,126041.7,90229.46,89903.84,5367.779,3816.3518,-386.97702,37747.3984375
238,-30280.896,-4570.1895,-42499.867,-5177.0635,-4419.5083,-1387.1101,35626.90625
239,82509.3,72011.55,65757.22,-16365.939,-2517.2068,3814.2664,32881.03515625
240,87267.86,66615.82,107767.22,-8170.994,-1944.5562,-1006.168,38532.58984375
241,-72351.77,-47510.62,-51276.58,14994.419,-1399.1504,600.3214,34916.5625
242,198733.03,195327.02,197372.47,-1119.095,-269.69473,-4920.025,9241.9287109375
243,-21728.412,1416.1339,12095.889,4220.481,2093.259,-9019.029,34749.3359375
244,35824.33,35368.7,35665.324,873.4007,589.00525,414.0208,2000.98498535156
245,9165.603,10730.55,8931.078,-1991.2328,-919.68506,-2813.2869,6406.81787109375
246,165590.98,165376.11,164640.55,218.71146,213.73514,-996.0675,2000.57019042969
247,126473.766,127304.74,127727.39,-385.15884,827.5216,307.769,2000.98669433594
248,78440.22,77917.97,78785.16,-53.35485,-77.02569,1063.2229,1997.38293457031
249,311041.0,309775.62,310906.7,-765.61334,270.8917,438.1646,2000.96508789063
250,-1817899.0,-1817523.5,-1817851.1,335.4489,1074.0602,-163.5177,2000.98046875
251,-172656.45,-171169.25,-172202.27,537.7003,-673.4347,-105.588554,2000.98596191406
252,855427.75,855873.94,856239.25,-918.85266,447.26984,353.74396,2000.98974609375
253,538396.0,537489.06,538470.3,-282.19788,454.59924,865.9438,2000.9794921875
254,400933.3,400764.7,400038.8,767.59283,415.6228,-584.3745,1997.00610351563
255,329059.97,328307.84,327428.53,98.602135,617.6587,524.00616,1999.4140625
256,-398791.6,-398005.16,-398286.16,985.8628,412.8265,-110.492676,1984.97741699219
257,104022.26,102866.34,103600.49,-606.9252,-639.35333,455.10245,1994.80480957031
258,210203.36,210920.61,210178.88,43.22613,-1012.2818,360.6509,2000.64099121094
259,-3290404.5,-3291012.5,-3289418.2,-349.5729,-381.05942,-648.0042,2000.98571777344
260,11649.224,11832.166,13575.7,-15.121631,-439.47397,102.463234,2000.98474121094
261,-3589186.2,-3589199.0,-3587215.0,17.391443,51.289707,-167.15771,2000.9365234375
262,-1813225.8,-1811593.6,-1811899.9,-731.88666,1939.707,473.8859,3978.171875
263,264310.53,275278.8,301356.66,571.19696,1150.0293,1415.2955,33126.15234375
264,-108656.04,-105492.66,-99312.28,-1430.1548,5106.6885,2644.7385,13157.115234375
265,80642.02,113371.12,76057.68,7201.06,-3416.4275,-1443.5889,37935.2734375
266,67051.22,40684.086,85690.375,-3167.8604,-2316.924,1113.1385,39799.90625
267,27361.045,11169.479,36439.47,18457.227,496.2027,844.719,38941.8203125
268,23293.045,10619.97,14946.782,-19371.338,-6845.7285,5058.31,38309.16015625
269,12601.132,41928.36,22218.531,8391.557,-8839.979,1981.2905,33585.65234375
270,-19695.498,-28236.08,-44302.645,15600.169,-5461.965,7148.4634,37963.015625
271,1415.2618,-16768.04,7842.0444,17609.404,-2861.0557,-4532.878,38797.7734375
272,-30220.574,-3830.3633,-39835.535,-8752.246,-7138.455,3706.5552,38295.23828125
273,-33861.34,-72117.23,-63674.695,3471.4888,2935.8145,-904.03864,35724.99609375
274,44287.56,18289.709,8965.113,-1461.7382,4607.992,-288.99017,32796.6015625
275,-34510.758,-39094.31,-48631.938,-11735.974,9389.091,-6954.4585,31280.173828125
276,-22052.953,-57898.848,-24891.027,6622.71,-6680.8003,1043.4954,38209.8984375
277,15522.318,11904.045,-5870.296,19784.67,2502.7173,-2515.7932,40067.55859375
278,-55492.523,-52928.113,-57529.07,-11518.722,11763.516,-579.64655,28812.115234375
279,-144701.14,-141990.78,-170867.77,-9089.345,-10218.14,-2988.877,36753.76171875
280,-115003.58,-99831.484,-137666.97,9134.405,1642.6448,6012.6665,38138.3828125
281,153456.89,152868.98,153467.83,-532.3209,950.2804,175.66235,2000.9873046875
282,14974.56,16126.398,17412.756,-5287.774,6110.2656,2785.304,14954.0830078125
283,38280.797,37243.59,24096.938,-14854.995,-12170.679,731.9895,35993.64453125
284,9779.376,14790.003,-12378.759,3752.9648,-1406.6454,8726.722,30062.8125
285,58572.29,65064.63,39316.38,-5138.0273,1763.3038,759.68243,25064.1875
286,23085.438,10694.842,5812.383,-2837.3384,8929.718,-9346.494,27627.951171875
287,49125.367,40656.867,43846.26,-14079.727,-6336.389,-1189.0381,27825.984375
288,-26079.438,-22906.973,3383.9854,-3772.7305,-610.6176,6198.0386,30720.55078125
289,-10633.525,11225.1455,13172.757,-7306.298,-4272.1436,-13763.031,36157.01171875
290,-62865.19,-45176.99,-26038.404,-10058.812,1566.1106,1411.1707,36531.58203125
291,13649.315,18949.686,39586.94,1680.8528,-8402.626,-2742.4092,28394.1171875
292,-3225.285,-9163.812,3006.6587,-11107.936,15468.569,6189.749,36249.6796875
293,49262.137,46633.12,36000.66,8048.691,-989.5136,-616.9633,18610.14453125
294,183996.33,182204.02,185535.03,1179.4109,-1012.73444,-879.82526,4232.02392578125
295,-144732.88,-119497.24,-143268.3,-4329.3535,1896.884,-10451.793,31571.615234375
296,21943.5,14143.76,52492.527,5409.312,-5147.7197,-4300.7495,38146.05859375
297,-13345.379,5625.73,-5755.833,-2896.2822,1756.6708,-4937.315,19521.17578125
298,-5775.2666,17939.707,-9259.17,-2947.765,6404.0737,-6821.442,30754.818359375
299,5185.603,-24926.432,-31688.521,-3188.8525,7097.2495,2341.437,36798.734375
300,-29996.492,-853.178,2074.4087,4052.3196,-9748.0625,-481.29846,35752.70703125
301,104274.25,92709.97,65826.125,-1121.1135,-4856.2886,-2868.8892,35589.02734375
302,12987.933,19740.719,26881.709,20620.47,-5256.12,-3625.2627,39277.6640625
303,-24445.701,1871.1382,-35733.96,-8053.121,4791.2666,2960.1213,37507.1484375
304,16562.643,14762.571,11354.292,19647.564,-3313.138,-1710.113,34939.609375
305,4939.1436,-29304.098,3055.607,-3033.075,205.92871,-10236.323,38127.703125
306,-255907.19,-255677.03,-254954.97,288.2035,615.3898,786.8966,1995.85803222656
307,-23316.723,-34621.34,-30164.799,-8504.93,-2899.4995,3022.254,19154.646484375
308,-1690549.8,-1691351.1,-1689727.2,375.48645,-485.65814,546.338,2000.9638671875
309,261561.02,260912.06,260388.81,812.04846,-566.1573,99.32169,2000.98974609375
310,-2721583.8,-2723456.5,-2729050.0,325.4238,10322.366,3182.6504,19890.421875
311,105754.1,106837.89,105478.64,495.02423,756.9176,10.041,2000.81018066406
312,-18205.91,16937.324,-11185.391,10962.964,-1737.8759,576.31494,37526.359375
313,30868.592,-254.48915,29909.58,7744.8877,2798.396,-4198.94,34584.0234375
314,-13504.644,-8888.19,-29971.004,-12898.356,205.75356,-9565.071,33796.01171875
315,-13406.254,-26209.453,-105.58331,3658.3215,676.83405,-3330.8782,24205.978515625
316,9216.528,10488.179,10562.198,-733.33185,8034.5938,6607.6274,18110.1171875
317,1533.611,9532.427,-2553.6038,-1233.5015,-9820.405,4396.558,21569.75
318,-30432.182,-19713.416,-6986.116,-1581.5511,7205.774,5589.8433,25890.3359375
319,-26560.057,-23581.295,-823.529,5155.6396,-3946.606,1938.7736,27061.4921875
320,5306.6904,14845.413,-17471.803,2207.8428,-12527.212,278.29932,36232.22265625
321,-11189.985,-29158.99,-4431.7563,-10954.674,-2925.0098,490.81534,29604.0859375
322,-6679.1997,-11514.704,4372.6245,-1115.6528,6024.259,-2637.8757,18233.220703125
323,-36851.12,-9651.676,-36253.605,14267.15,-345.51462,-5488.144,37752.97265625
324,23280.203,19896.355,48017.906,5728.4404,14111.439,2321.0278,37671.1796875
325,-744.29065,19604.12,16460.807,-5606.504,-6124.484,-4222.877,24905.8515625
326,-2015.1647,3653.8674,-851.25604,10044.031,2264.8132,398.55078,18585.12109375
327,18630.453,47641.55,41867.766,-14168.487,1281.165,1669.9542,36373.13671875
328,51494.88,50846.492,22942.863,-5383.1094,12163.879,-5229.1465,37549.57421875
329,18163.55,14500.576,-20184.1,-2723.012,-71.16049,4231.601,37675.8828125
330,-3549.7554,-30267.365,-9268.733,5837.358,9668.777,-5632.435,32735.193359375
331,64221.18,63980.863,84242.4,-4511.2173,-6302.9395,-190.53825,24208.7109375
332,122266.836,121196.35,121157.48,-316.18695,-597.14465,-694.07556,2000.98815917969
333,234511.14,236248.97,235021.19,36.18844,504.4793,-529.2024,2000.35339355469
334,426029.03,425240.5,425812.38,-257.18967,-187.3822,-1032.5298,2000.00256347656
335,240521.88,240889.22,240692.64,-84.29761,830.04816,-775.5283,1998.490234375
336,320570.66,320337.03,320659.34,-171.82571,839.9386,756.2429,2000.984375
337,-2706323.5,-2708495.5,-2729886.2,-2540.3806,-9514.161,-5665.2246,29932.34375
338,22918.393,17684.213,58633.348,2267.565,-5129.5356,698.9264,39821.109375
339,-21672.06,-20261.627,-21016.074,50.76779,-2387.2188,2519.7776,6135.66845703125
340,5676.715,-6852.7446,2545.8877,-3103.019,-4231.9897,11579.909,24747.93359375
341,-24140.365,-22809.807,-23537.799,-269.92416,-765.0839,482.16183,2000.94982910156
342,-37004.406,-37931.4,-35071.56,464.94415,-3142.9446,14535.581,25894.3828125
343,71517.62,70437.78,71177.36,846.27264,-322.0629,-458.19733,2000.984375
344,-29180.986,-7733.471,9739.029,-4843.167,11018.713,-99.6803,39681.9921875
345,24578.883,61885.9,51834.58,-11144.545,3207.341,2752.5261,39294.41015625
346,464067.75,462545.75,489888.4,656.8229,3340.5178,3233.721,27829.1953125
347,-10171.565,6973.6367,4520.3613,4962.7314,9132.898,10499.561,30211.79296875
348,24999.652,22231.025,18488.766,17993.39,1300.9403,1599.486,31875.84375
349,16735.033,36573.188,20853.453,-3667.607,-6109.7466,1360.4545,22061.40234375
350,-4358.553,-2645.6807,-3846.1726,-8786.507,1519.8578,2677.6719,16197.7353515625
351,7795.598,1238.0587,1283.8672,-748.6009,5165.687,8553.883,18545.7265625
352,57161.17,49715.44,77378.54,-9979.804,5675.406,-637.82025,31801.80078125
353,-25647.057,-9212.346,-33915.777,4194.8555,10346.956,-10113.452,33987.94140625
354,-33184.688,-60007.07,-42008.21,7034.4824,-4864.9443,4053.059,28798.673828125
355,16322.031,29048.234,307.96622,-16132.651,-3005.0947,-5828.18,39140.60546875
356,-17846.72,769.5766,12086.084,889.72076,-5518.092,1133.3423,27979.94921875
357,-32446.324,-6098.8574,-19512.105,13968.713,-6097.833,11306.224,40013.95703125
358,12640.145,53031.074,30400.096,9112.778,129.3885,-5344.496,39552.13671875
359,-49118.24,-27159.965,-46264.258,14037.647,193.88196,-2302.6624,32168.751953125
360,-9594.311,-2467.148,-9315.557,-2713.8835,-675.4825,-1340.5421,8817.1943359375
361,-7193.789,-5449.513,-9558.247,746.601,2400.587,1055.6128,5921.2392578125
362,-97683.89,-98169.0,-96355.88,663.5421,3287.015,-8569.822,16021.953125
363,1158.2227,2875.708,32842.055,-295.36847,-70.33992,1541.329,30980.669921875
364,-417081.28,-416837.44,-415965.84,8.6484165,848.1354,-520.89197,2000.96948242188
365,-9910.669,3913.1272,-1376.5718,-2520.978,-1044.628,-1930.6768,13396.8955078125
366,-12515.562,-19895.959,-12719.885,467.10718,2344.3696,3217.9324,10060.4208984375
367,-4779.6514,-4349.074,-5103.827,-3879.4016,3684.4958,1797.681,9798.001953125
368,383.45483,-2678.1519,6456.542,-2804.7131,1120.5518,776.3551,9696.5751953125
369,-6932.6562,-11559.843,-17548.936,-1396.757,492.9036,236.97633,9578.2490234375
370,7049.9185,-2504.7695,6926.2954,-8964.527,2575.8232,-5027.947,20663.00390625
371,4348.3647,2955.3225,9604.969,-899.25665,4683.064,-2442.434,11091.0244140625
372,7717.1924,595.21436,7973.073,4769.394,1354.8593,-175.54234,11245.05078125
373,-69.364746,6399.5166,6396.4043,-588.11914,397.64874,-307.35498,6604.6748046875
374,8245.815,5357.863,-2794.823,4543.2324,748.0715,-222.62909,12731.9091796875
375,3313.5732,10699.446,3909.854,-1199.4952,-583.35034,-1418.426,7866.10888671875
376,103704.09,69544.695,109167.586,-87.48175,7629.3706,1795.7758,39593.7265625
377,24139.57,35460.227,64469.094,-5780.3994,2259.7266,2770.5198,37903.25390625
378,3246.9678,-8257.618,-13744.341,2502.858,-1835.8297,-3135.5847,16851.75
379,-407.6162,1677.9891,1093.368,2580.8433,23.698717,-465.07376,4909.69091796875
380,119095.516,100953.36,114713.03,-18461.664,-7565.2197,371.58182,38255.02734375
381,-26777.408,1631.4435,-38069.195,2680.829,679.4099,55.712807,35753.44140625
382,-125526.586,-98998.914,-87829.03,11406.838,-3052.0322,-3705.2498,39802.9375
383,56279.25,38813.156,48253.168,-2929.5283,-1204.4436,8762.378,22129.943359375
384,41417.74,51038.227,8363.248,4530.2705,973.72504,-1992.0114,39742.57421875
385,-31130.04,-32292.32,-64487.062,-222.97961,-780.121,1272.9921,32895.4140625
386,13740.406,6917.41,3212.4058,3125.8794,-1471.6705,676.87744,11079.02734375
387,54689.69,53361.69,74526.52,951.92554,-1545.8384,2026.0297,21066.763671875
388,-8879.569,2430.7573,-2361.2607,-3710.8306,976.81,-99.55768,11869.736328125
389,-10896.269,-4763.957,-7796.187,-5249.594,281.1914,-1321.7388,10786.935546875
390,4397.723,-915.71533,388.58905,-2185.13,641.68396,1729.0365,6894.33447265625
391,-4312.9,-8110.7485,-8111.935,-2081.8918,-2257.019,2497.051,7837.0390625
392,-2169.6863,419.48206,-3096.1084,-1923.4412,995.65137,55.125416,4903.33251953125
393,758.12634,2821.8977,3697.1462,-2885.0806,2833.592,-3816.814,9979.7060546875
394,-8026.5273,-4794.2134,-14886.555,-3992.0378,1302.1302,35.46023,11514.3857421875
395,-1569.2227,-5139.6626,3393.0012,-3099.6267,3640.4827,-319.46353,11134.5224609375
396,5214.7393,14949.189,8140.716,1853.8645,-62.29182,590.6029,9284.7509765625
397,-5912.3,3042.3782,-4584.6265,394.4345,1910.097,2075.7246,9715.8701171875
398,12916.433,14120.694,12579.664,10600.208,-859.2196,625.64886,18505.4453125
399,62926.523,48784.71,57465.945,2419.0747,-5666.3135,-15323.658,31159.37890625
400,4739.6025,17424.809,664.16504,14068.369,-2174.5217,3449.3076,29544.158203125
401,60878.445,18736.111,39728.562,2566.6821,-2890.0984,7533.2324,39332.66796875
402,90386.63,90568.305,118102.4,-2338.3435,10530.506,5928.2847,34895.17578125
403,15276.143,-16569.2,8900.065,-984.0913,-3341.276,-6429.3936,31814.16015625
404,-13466.391,-28515.047,-12981.236,-17564.973,-4835.893,-7143.5493,37186.4453125
405,1352.1589,-907.52594,-2826.0066,-2766.684,1917.7858,2570.619,8181.8994140625
406,-22789.258,-16426.307,-35518.996,-1643.6931,-2955.0022,3532.2104,18848.419921875
407,1626.6111,-2868.2695,-4593.7524,-583.65894,-2501.9297,-829.5327,7266.52490234375
408,-2203.1477,-2489.8423,4291.2256,-1960.8175,3846.5159,4392.903,12567.228515625
409,-6937.205,-7345.835,-4222.6875,-4295.7134,555.4237,372.359,8083.67041015625
410,-4536.9404,-6426.4814,-10306.104,-3691.7502,-1579.627,1859.3386,9203.080078125
411,-2840.0361,-6408.093,-5077.721,-1700.2588,-1821.2466,-1328.2661,5802.62060546875
412,28863.95,24759.453,43757.508,-52.64133,-115.88651,1996.575,17657.9453125
413,17376.484,16871.906,17839.756,9.97568,-697.0026,783.84247,2000.98461914063
414,-52390.562,-47103.79,-19347.928,-8688.65,-9296.044,-3223.342,38235.765625
415,84595.086,84781.91,84274.92,-95.003395,453.04077,1026.9136,2000.92211914063
416,8781.432,-201.25977,12808.338,-4386.971,1833.7716,-382.0425,14189.423828125
417,3328.5464,-9833.899,-11983.95,-1010.99445,1587.5151,2387.3074,15293.7001953125
418,-51062.61,-53840.25,-81925.04,-6184.6665,4967.3247,3761.8086,33252.171875
419,-26867.166,-22514.756,-48891.12,1411.1719,-327.65216,926.4583,24672.38671875
420,127317.73,127469.96,126823.4,-24.864986,619.3806,914.37463,2000.94580078125
421,3868.0544,-1286.0488,6091.3296,-2877.9211,28.937439,340.35342,8256.15234375
422,-44242.355,-35169.016,-66252.805,9199.679,-7766.3394,-4519.5947,35533.42578125
423,-85844.734,-85789.77,-86868.44,348.62265,-448.096,-802.02136,2000.9873046875
424,4073.4578,3128.554,-1711.8108,-4436.1226,2172.6067,771.627,10192.158203125
425,-44218.867,-21579.746,-37428.477,-15443.942,-9359.489,2228.8962,37391.98828125
426,3239.5918,3382.5742,40734.75,583.0519,3420.7844,467.86688,37912.109375
427,-9922.106,-1092.2891,-29621.35,-1188.4547,3223.5918,-121.5353,25988.896484375
428,-677.41064,7263.843,4409.826,-321.62195,-2648.6033,-2281.3518,9247.365234375
429,-9805.452,-11723.663,-20439.494,-2576.1775,-844.4629,-859.2394,10983.09375
430,11961.805,12191.373,19945.914,4076.804,-1338.3287,-777.7898,10909.4013671875
431,-434.91138,6692.8545,1485.616,-625.8232,-958.9695,3100.382,8577.6064453125
432,17713.12,20658.14,33362.77,3388.4443,2098.7139,259.1758,15979.8662109375
433,-62510.008,-63634.344,-89826.4,-2546.1233,-15806.022,-3577.2463,39039.28515625
434,-700.0816,-3482.2234,1749.4775,-1508.3712,6025.1,-5513.139,15082.1357421875
435,5526.888,-2279.385,5943.971,-1286.6941,-1085.6305,1447.2986,8896.8681640625
436,5910.2417,-26991.424,5828.475,-8772.673,-2.5113559,9115.022,39496.41015625
437,25461.06,22137.14,40663.38,343.86734,1406.2546,630.67706,17325.439453125
438,-2684.6877,328.708,-2625.2417,-7020.726,3762.197,-3122.776,15116.0283203125
439,-50228.004,-42947.73,-82527.93,2599.065,-5983.149,-3990.0845,38818.31640625
440,15918.535,3665.0088,20.089844,-1680.9124,121.14981,626.6301,14757.908203125
441,2992.474,2243.4087,-6536.819,4892.149,3827.8113,313.21683,14152.05078125
442,2743.6606,4814.6255,3271.4485,5376.1294,-680.3714,1150.417,9774.5498046875
443,2130.9707,8028.8193,41250.88,2505.751,23.94632,-3742.1697,37353.421875
444,-54585.336,-57008.15,-94104.05,499.4395,-769.7441,-331.81268,38401.9296875
445,-1427.2356,-1781.3785,-4778.34,-2588.8154,1595.3989,892.4123,6348.19140625
446,6030.189,3218.454,3114.0674,-2869.0483,-1237.2136,-4203.7744,9513.7705078125
447,3455.2852,3383.39,-1054.7622,-3459.6208,1222.7723,-476.39478,7816.31298828125
448,97651.36,92268.96,83014.73,1021.7102,19950.016,6708.742,38685.70703125
449,-2347.2986,7083.729,-12800.742,-5105.597,1636.7676,-58.116596,19571.765625
450,-12344.234,-9519.741,-14197.262,3477.9365,12.690877,-687.4224,7372.353515625
451,11049.863,-10917.865,6277.1895,-174.6117,-99.04165,145.16881,20017.462890625
452,12795.352,7409.8647,17522.066,6815.041,-2382.973,-3085.6824,16178.2353515625
453,22535.074,24790.84,52353.633,977.19836,9993.739,4234.3115,34398.3828125
454,4621.892,6851.496,5595.4336,-7313.7275,274.42743,-1823.8992,13207.0400390625
455,441.72888,2194.9907,-3368.3425,-1523.7245,3424.5852,1950.0577,8821.9814453125
456,1820.3386,5460.458,5925.241,1365.0569,140.38228,3755.6785,7944.9970703125
457,67319.6,52827.234,70102.01,1586.8944,2563.414,5997.3877,19830.98828125
458,-7221.166,19701.105,-6726.413,10620.537,-8258.107,-3533.7058,35946.78515625
459,35592.805,13793.006,27611.229,-4053.5615,3270.088,4946.825,22797.5390625
460,330.29785,-3844.3984,-5866.902,-1596.2616,-2938.1794,3380.7988,9889.0947265625
461,-2021.7192,-9098.587,-2014.2888,-512.82635,2842.0964,50.212997,8669.7041015625
462,-17817.898,-15125.104,-30990.555,1599.9893,809.5375,878.39435,15106.3544921875
463,-6125.731,-4088.7166,-6734.9814,912.5976,-632.1221,-852.17737,3411.38134765625
464,-1120.4946,-598.96704,11699.783,-2586.155,-885.669,-1820.1312,13794.994140625
465,40961.61,26723.807,67489.28,-1484.1833,2812.522,953.13794,36293.15234375
466,-2332.9873,5763.8486,-2070.1194,-3814.6487,1774.2223,-3318.0557,12232.177734375
467,1171.1509,7238.2715,7270.991,-2585.3403,341.9141,-2981.098,9169.1357421875
468,-48269.26,-36079.027,-50640.145,-304.39774,622.63385,-3555.7183,14916.2626953125
469,1288.9844,6261.4385,5193.5796,1573.229,-672.4392,411.2023,5463.02783203125
470,25357.871,22138.05,25390.143,-3844.762,-1039.9434,-7977.2217,15778.828125
471,-1427.3231,-1336.0435,-5417.5894,-2662.3008,16.549717,1560.263,6697.9404296875
472,-38723.457,-37698.066,-71489.42,1110.0845,-2333.6711,1169.0182,33651.04296875
473,-1866.7863,-2198.3733,-5476.623,3975.1846,-2778.8848,1891.742,9656.7509765625
474,-32810.0,-25492.264,-21337.09,7787.15,3033.8613,4815.1987,19501.580078125
475,30938.14,28578.438,66842.09,349.52533,-1307.0344,-1020.7861,37255.90234375
476,-65500.832,-50170.316,-48972.023,2246.375,19356.05,2917.283,37675.87109375
477,7797.2114,5471.9575,10166.183,-244.57864,940.1484,-1100.1063,4794.693359375
478,-237478.78,-258945.92,-268960.38,-2145.1094,5372.56,10994.691,35201.65625
479,8618.033,1757.9014,8218.498,-4154.227,-1514.6106,1286.0885,10396.9794921875
480,-9375.541,245.07617,-14912.366,-42.95185,661.64935,1229.8573,13503.21875
481,3475.3188,-1530.3861,-3672.68,1594.5006,632.689,143.73004,7018.572265625
482,-5262.191,-10110.902,-9947.545,-3378.8672,1040.6271,-702.97906,7856.595703125
483,-8840.54,-15418.725,-36590.027,-1194.2462,4343.053,-1619.2112,26447.984375
484,-7055.786,-4399.056,-272.76025,-721.2954,-35.803505,334.97058,6078.50732421875
485,5219.0474,13994.43,19497.305,-3621.0159,1617.0432,1596.6199,14505.3828125
486,2361.0435,127.321655,-7925.116,-164.33383,-268.95435,1290.3809,9649.4267578125
487,-80.09595,4785.7856,6200.405,1072.7036,-2291.0554,1093.6813,7439.66552734375
488,-36134.965,-12692.877,-44172.81,-6355.87,-3800.039,876.81104,31134.87890625
489,2562.9253,4132.7896,751.8971,-4213.915,-418.1984,1705.6243,8432.71875
490,-488.81207,-1350.4049,-1031.9147,-894.77545,284.4344,-611.51324,2082.25659179688
491,-2814.7778,-6900.336,8304.756,-869.0226,502.2231,-351.89923,13753.51171875
492,-2693.8782,-9147.488,-6892.4697,846.2914,583.1904,-1294.4963,6354.31396484375
493,-3991.9978,-3596.7268,-1060.4323,427.98117,-2808.2703,2695.8225,7321.3779296875
494,-6477.5117,-9146.246,-3433.7646,-443.73694,1083.9214,-1947.3813,6324.69287109375
495,-2677.0786,-9158.384,2336.5125,-1288.421,1887.2744,991.52924,10874.416015625
496,-19773.037,-10257.665,-18576.309,4699.368,-1231.4716,2837.6736,13249.3798828125
497,-12556.327,1292.5977,-21593.023,3637.1482,2836.2673,-2901.1748,22083.328125
498,-3764.7478,4285.058,1000.349,-1162.5226,-1845.9764,213.48265,7972.541015625
499,16794.715,11482.881,15216.742,-3141.2412,-1771.4569,-427.47784,7866.9072265625
500,-3664.8535,-8637.331,-2079.891,-4237.2764,-3446.0847,3215.886,12475.361328125
501,-2025.9663,-1637.3489,-8457.741,-2855.6338,-123.4046,658.1527,8356.27734375
502,2839.9172,3924.9397,2735.1257,-175.60298,637.8463,2314.5432,4322.77001953125
503,-10195.97,-1943.2622,-6803.6562,-1217.7727,-914.1788,-777.426,7771.00048828125
504,8317.229,-4739.1265,1922.2207,4251.991,17.380505,392.12762,13511.8291015625
505,-3839.627,10153.0625,8045.3486,1910.4897,229.33156,58.984715,13485.6728515625
506,3229.4229,13078.676,8291.373,3607.2703,81.491516,-91.74815,10576.25
507,-14661.666,-12115.345,-35163.484,4653.2754,-2780.898,-1889.5664,24039.197265625
508,-75422.33,-79797.49,-114982.37,6125.188,0.80227864,-1146.5012,39083.9375
509,19727.955,10796.216,27482.258,-1748.2487,2746.4165,1171.7439,15655.0654296875
510,10435.136,7190.492,7564.498,-260.72525,-2106.5444,1159.5131,5196.5380859375
511,-4028.7058,-2806.2773,5557.731,419.28696,-281.4263,-735.1864,9168.5263671875
512,14899.061,11590.729,18205.977,1815.8375,-1368.6019,3139.021,8825.6728515625
513,-7431.4966,-2870.3176,-7428.2,1292.52,-1538.9497,332.15195,5765.173828125
514,15941.822,16266.6875,32384.84,598.1532,0.46646607,-1451.6013,16508.525390625
515,-6243.8135,-2845.8591,-3268.5317,-437.26187,-1888.8854,762.47205,4828.02978515625
516,81275.055,83953.41,122370.72,-499.40622,-438.57065,198.14854,39842.20703125
517,15367.971,16451.438,31455.102,1440.4246,430.8424,890.19855,15865.009765625
518,-111.147705,-7574.4434,-4371.2056,-3526.2932,856.50464,1273.3707,9296.46484375
519,10215.952,-568.45703,22169.537,-4006.7117,2258.4766,-705.7522,21285.244140625
520,7103.3276,14986.086,13357.496,2289.9695,3101.4084,3416.4265,11469.8037109375
521,30331.309,10749.501,38810.0,-14.435967,-4498.489,-5114.9995,27578.306640625
522,-61.40088,1922.5892,1994.9055,-2749.31,-1689.6008,1069.0281,6225.25146484375
523,14533.098,19725.123,25674.969,761.0436,-397.92206,353.15027,9789.6005859375
524,9764.502,7405.1978,7214.053,506.83524,-82.49652,884.7182,3032.00634765625
525,12710.733,24704.338,43589.508,-4234.503,962.97186,3142.083,28516.494140625
526,-698.4343,-6974.5596,12545.887,659.8406,1312.2836,-2519.2778,17984.369140625
527,-5858.384,-10740.934,4165.99,-2510.159,233.3958,719.74304,13924.5126953125
528,-3906.7031,3344.433,3375.7886,-2636.8972,2541.1614,-974.6539,9792.310546875
529,478.01617,-846.9213,-2484.4102,989.7537,-439.10568,803.9338,3473.12622070313
530,13887.14,3819.4023,-12902.856,3126.2146,3233.5173,-353.93198,24706.49609375
531,283.77258,-717.70917,-4341.174,8327.062,-374.77158,164.09972,15042.7158203125
532,14857.753,19546.332,34487.39,1937.5106,1632.8391,-1278.4858,18423.7421875
533,-4999.5967,-17139.928,-19250.361,-2758.6523,4607.4136,3688.9788,17458.6328125
534,4455.84,-6208.6113,4442.755,-3335.0547,-474.82452,-792.1701,12227.7509765625
535,909.416,-5639.448,-25510.354,947.2754,-3128.3025,-1419.4795,24616.416015625
536,3062.3135,2701.9653,-3650.8894,4510.857,508.10925,-1482.3053,10544.55078125
537,-16628.559,-2155.4878,7940.1963,-762.0499,-81.51978,639.7886,21459.22265625
538,-14819.931,-16229.728,-5933.6245,2781.112,-938.6721,861.67377,11025.2607421875
539,-9914.946,-5124.8247,-18074.598,-2898.2122,-344.68076,104.23968,12417.6806640625
540,-220.88354,-2713.121,-4867.4424,105.7697,807.04474,-730.517,4450.83349609375
541,-22952.268,-15600.639,-38846.008,683.7195,-2837.8914,1977.9908,21466.3203125
542,18084.49,19666.305,34610.05,5144.0396,906.22125,-1509.6484,18388.587890625
543,1390.0518,-7048.7236,-7185.0947,9196.201,1104.5334,1007.6912,18242.779296875
544,-6799.359,-5302.121,13058.825,343.0303,-2358.9343,-293.9408,19600.068359375
545,-2521.61,3204.249,984.16785,-1969.7861,-208.37894,1127.7756,6370.904296875
546,-6287.907,-10188.535,1301.5249,-2078.6956,-1146.5161,132.94917,10925.99609375
547,2271.8926,-6709.376,8119.6055,-2165.4834,261.81464,-1206.1401,13638.794921875
548,-11905.861,-14398.027,-2665.0762,-594.3988,1573.8074,-1324.0634,11330.6015625
549,5721.898,14308.414,16450.992,1221.2228,861.4063,-94.362404,10170.6982421875
550,-6731.059,-5596.1587,-2687.553,-646.2291,-400.40234,-1058.1036,4259.28564453125
551,924.50653,2111.8242,1926.524,2464.2627,1863.5966,-658.59015,5582.29541015625
552,-8496.07,2363.276,-7506.0605,-301.81995,1074.0721,-2559.2207,11468.9873046875
553,-1797.6738,-3185.0386,-7409.291,-957.1876,-152.01463,201.36728,5345.0224609375
554,-13403.461,-2192.6392,239.34033,-1350.5593,-140.60028,-111.7269,12823.0380859375
555,-19477.98,-19075.871,-54647.973,-4646.185,1026.0847,1268.3535,36386.5078125
556,-2010.3678,-579.8286,-9362.308,348.25305,897.50867,659.30554,8408.279296875
557,-5368.6143,2780.132,5706.202,-484.47263,177.02202,-1681.3872,10396.494140625
558,-14939.592,-14878.246,-29744.293,644.8952,846.9198,957.43604,15041.298828125
559,-3272.8447,-1965.8042,-8620.475,3964.6946,981.3477,-1129.0997,9548.046875
560,-10041.955,448.9983,-102.1958,-752.7933,2676.7693,-279.03177,11314.1640625
561,-12058.471,-3063.3464,3744.3362,-2075.3784,-882.59894,936.6469,14366.04296875
562,-102718.34,-102673.875,-140000.64,-1971.1998,-3423.8125,-362.8825,37932.1640625
563,-8820.603,-12170.242,-22389.797,-2855.7258,1351.2277,-3423.6287,14662.8056640625
564,-5393.7534,-1979.9927,-9011.166,-520.1534,-1175.442,84.482445,6485.869140625
565,1765.2201,2112.1052,-882.7411,-1204.5709,426.90738,-1563.5078,4503.77197265625
566,8173.3423,-1644.3167,-7644.872,2298.569,828.0107,-1142.2556,14598.8291015625
567,6992.9766,1617.7435,1164.929,4022.1367,446.25244,-154.81277,8985.22265625
568,9936.426,3850.9082,12584.533,1646.5941,-787.7435,-1352.5667,8697.404296875
569,4147.216,9011.258,15554.8125,-3188.1296,-582.5479,1283.3309,11608.46875
570,-16141.223,-13375.918,-21326.543,854.4225,-1097.7656,76.1341,7395.68896484375
571,-6900.364,-4160.228,1734.4263,2688.464,1782.1238,-2225.368,10221.3330078125
572,70033.14,70276.36,107568.875,-2665.5867,1247.8279,-859.45337,37789.73828125
573,7369.209,3298.3613,-740.3071,564.2044,-28.633595,143.49176,7095.255859375
574,-6711.842,-5733.0396,-23336.371,-2544.0112,2137.2368,-4912.08,19977.73828125
575,-23663.348,-15959.812,-43039.465,5209.4937,2604.0266,516.95593,26203.130859375
576,8570.427,3517.5251,7597.3657,-3757.8093,-2098.087,-713.9744,8869.0732421875
577,216074.06,220181.23,253926.94,1824.4154,29.276066,3596.069,36647.2890625
578,-4479.1494,1761.162,10909.797,-2971.6704,2444.7944,1913.0748,15334.0283203125
579,-3126.4973,625.051,2117.487,-1026.87,646.10974,280.34705,5152.8603515625
