Element Label,S11,S22,S33,S12,S13,S23,Mises
1,20357.271,23942.098,2578.0146,-2879.514,1640.1724,21.234196,20630.927734375
2,16248.465,19116.863,2811.4192,1990.0929,-926.0863,8.845833,15549.2529296875
3,21461.371,26174.25,-465.61334,-1319.542,2758.577,-2164.8943,25464.8046875
4,22696.033,25306.059,-2929.7466,5050.0435,1970.6344,3980.2827,29428.9609375
5,14784.063,20513.664,4102.1455,-3586.4312,1085.9836,-7313.5786,20266.3671875
6,5641.8164,21661.834,505.28528,-644.9592,643.635,1429.5173,19337.361328125
7,15002.871,12292.912,-5828.2026,-2705.015,-2369.4253,407.49908,20594.12890625
8,20190.277,26093.945,4224.921,2387.2688,3207.7952,-3328.0222,21568.36328125
9,11656.617,9137.25,-1574.9753,-5773.7188,-3545.3826,-174.72478,16908.439453125
10,14450.244,18263.986,-1157.8488,-2390.7266,-1024.7068,2957.792,19084.67578125
11,16420.648,17035.066,5742.1807,-7309.372,1727.5299,-1615.3595,17263.552734375
12,15894.465,21502.209,1364.3561,2746.0308,-4949.242,-1735.984,20717.142578125
13,24139.65,11038.599,1248.1138,522.97516,11420.885,805.3075,28103.962890625
14,18029.252,16330.673,-2485.0898,4648.2627,-15072.681,3944.3474,34379.1796875
15,17841.729,21955.338,1859.7361,2301.4485,6867.9067,-582.5276,22282.32421875
16,27716.123,25999.201,36332.54,7119.8984,-2416.0552,16235.459,32439.873046875
17,-14018.899,-6248.6426,-22382.154,5828.828,-3549.4778,10358.317,25630.29296875
18,2835.4607,102.276306,6710.037,9822.992,1492.0243,-2898.8096,18826.412109375
19,18929.48,15050.21,2571.308,-961.08124,12454.666,-5365.8735,27815.20703125
20,5849.4434,437.4285,-12387.723,7028.232,-9883.969,12278.869,34011.21484375
21,12837.055,17819.848,32846.9,-4824.4126,1657.0046,4910.713,21815.689453125
22,-51746.453,-75422.336,-68118.36,-2445.4448,8099.238,-5318.139,27213.025390625
23,-71812.945,-75764.99,-69424.16,-7650.1343,-15741.151,-5941.759,32490.0625
24,20473.133,22909.71,26502.688,5466.6475,-16729.979,-204.17152,30936.310546875
25,6569.9414,14382.688,-9734.628,11724.367,8695.095,9202.275,36708.35546875
26,17162.818,31166.29,24477.66,-231.53021,-18657.697,1033.9326,34566.859375
27,9260.095,-8612.611,-10808.947,8734.779,-4157.8525,-8695.467,29514.365234375
28,13533.548,16439.238,9780.329,9430.789,-18453.213,7115.789,38389.078125
29,8021.5845,13210.538,-8965.087,-5927.583,-12741.924,3987.1108,32307.662109375
30,27804.53,27220.86,40766.12,4190.645,-13518.127,4547.8965,28963.126953125
31,19112.53,19145.389,14637.893,-5555.758,-10754.214,-15947.184,34966.65625
32,10530.822,17856.725,11878.295,6879.1475,-14179.996,15507.12,38887.1484375
33,3183.1494,-7709.008,-16977.402,-562.50183,1344.1144,-1304.3105,17803.591796875
34,22145.672,14525.046,5831.3325,-386.458,1650.1427,-1849.0999,14791.2333984375
35,1066.3339,-19837.229,-27157.205,-1968.0593,-6414.2305,96.241745,27903.927734375
36,11667.514,-7561.8354,-27412.262,-6336.004,-8988.265,110.963135,38837.56640625
37,21341.988,30917.717,34419.945,859.62744,-14754.969,2898.3447,28601.431640625
38,20718.098,16808.855,-10090.065,-3008.4749,-4422.8145,-5494.7017,31943.708984375
39,13429.881,14465.804,27202.988,4818.373,-16729.287,10107.709,37312.98046875
40,11508.457,8915.122,17975.87,1993.6622,-16719.049,11329.143,36067.67578125
41,1589.3601,15928.051,1206.5183,7309.874,-11126.14,2886.288,27711.041015625
42,1375.356,-1088.0238,-6470.083,2878.9583,6688.0557,-7988.543,19969.947265625
43,7407.916,909.6747,263.8352,-265.16202,5162.4185,9391.19,19788.55859375
44,-1236.1798,-13238.591,2589.9485,269.95096,-4883.258,4155.3516,18115.68359375
45,2963.0203,2935.143,-464.63474,-1188.1503,6691.842,6974.261,17209.078125
46,3814.628,-15741.3,997.48517,-7945.0786,10903.293,7684.455,32533.822265625
47,2602.0388,10547.926,-342.88577,-4506.6016,1462.1302,-10158.466,21728.6640625
48,-5656.074,6610.093,13360.95,-10454.616,14213.776,5113.097,35934.14453125
49,-17299.361,3974.2527,-17877.812,4050.6226,3677.7715,-4080.6257,24595.978515625
50,25385.67,22243.879,20785.434,-2511.0679,1487.258,-20363.352,35862.66015625
51,20685.885,26549.992,29229.555,-2269.5288,-4622.5557,-19745.635,36145.64453125
52,2188.378,7025.0396,-14969.724,-3869.0022,1945.0361,-13627.494,31845.94921875
53,4701.5503,13198.934,9245.183,-4903.1533,-3645.6929,-17363.996,32722.50390625
54,-501.60614,12837.567,-25373.893,2755.4595,-3868.263,81.07348,34583.63671875
55,14688.815,16404.514,9165.297,-325.59744,1701.8888,-18755.42,33275.12890625
56,24162.777,25937.016,14128.04,5481.114,-2569.304,-15707.294,31172.6953125
57,20405.75,18278.463,30287.701,575.67194,-1211.8059,-17569.99,32476.349609375
58,-8936.668,9385.144,9653.286,-2199.4583,-4559.2,-8935.679,25633.65625
59,-46513.445,-26408.178,-20057.596,-2438.3408,-11412.485,-6887.7324,33513.06640625
60,-2030.4138,7048.9097,1154.4314,376.28876,3215.175,-5681.714,13854.3701171875
61,-2501.225,-4269.853,6965.824,-2424.27,16302.253,2117.908,30624.744140625
62,-8688.986,2372.5784,-16192.08,-10158.475,2232.17,-4937.387,25677.140625
63,11365.806,17572.264,24302.18,1396.0764,10205.6875,-10051.227,27330.890625
64,16669.582,24378.479,36102.918,-438.1379,7133.321,10209.054,27444.03515625
65,22939.193,25359.139,39237.4,4151.688,9131.989,-3761.6665,24008.05078125
66,17221.299,20816.066,21131.81,-1775.3214,16702.902,-4470.5913,30340.267578125
67,18555.297,15982.017,21226.225,-4609.801,19551.8,-1448.6771,35178.03515625
68,19534.842,26532.205,12508.372,1874.7454,18990.725,381.69818,35219.66796875
69,28350.334,12843.508,-10208.949,3245.9744,3623.0972,8904.954,37924.02734375
70,24416.447,26502.836,24243.076,-606.4915,18006.98,-3148.485,31754.390625
71,12776.029,17542.404,12544.678,-1483.1147,14349.345,13767.183,34882.5234375
72,8841.538,13486.777,19699.38,-2680.5251,19766.193,7555.1006,38130.50390625
73,23272.797,9333.093,-20254.387,2142.6174,358.4663,4430.3804,39436.25
74,18171.637,10255.284,-5148.036,-7392.695,-2702.543,6554.9727,27141.095703125
75,22460.441,9167.48,11012.884,7162.962,8309.649,1557.9059,22889.59375
76,22774.361,11450.151,7499.806,7468.628,17926.727,726.13983,36353.859375
77,5218.3105,-3748.597,-7718.649,4563.835,-2164.6255,1171.9812,14574.9453125
78,23047.365,22018.805,26091.564,-4343.5664,19639.195,6401.86,36743.72265625
79,-21088.02,-3112.8667,-6817.05,-1510.2661,17355.363,-4991.6436,35432.5
80,-34837.27,-28989.402,-16212.488,3754.948,-2081.4978,5255.467,20256.390625
81,-20624.492,-28059.674,-9046.895,-5439.0034,-551.617,-6374.4136,22067.279296875
82,15510.778,5006.951,34797.15,-2307.953,-10381.722,9770.312,36201.828125
83,1548.0236,2492.071,3470.4275,-629.60724,-29.393501,9.141193,1990.99987792969
84,7783.7554,16991.314,-9849.449,-1747.5602,-753.13086,328.3994,23859.0625
85,15146.866,3326.5115,26125.523,2056.973,-314.40076,17721.625,36676.71484375
86,28252.2,25559.352,39891.18,5778.026,-4444.191,14913.441,31633.853515625
87,-5733.319,16497.18,-15751.409,-3489.7244,-6832.7275,3862.6907,32227.603515625
88,14446.143,18355.36,-18358.0,3435.2588,-2606.5488,1732.1964,35838.79296875
89,5370.3774,23327.135,-9719.611,5866.7695,8297.98,139.59967,33630.41796875
90,22093.383,10015.227,38243.41,3393.2993,5896.828,15608.805,38360.5703125
91,2275.9377,10285.55,-9707.319,-2791.3826,-2800.0273,11274.439,27054.916015625
92,2520.1074,14963.288,-7489.1973,3540.5564,11625.13,10191.499,33677.9453125
93,2991.4827,28011.451,9391.228,-4307.014,-5012.7974,10747.1875,31374.763671875
94,-11503.936,5938.4,-4117.475,-7001.048,-12864.205,12289.851,36422.33203125
95,10167.894,26116.396,14644.364,-3292.9246,-1887.6189,-4674.3633,17656.98046875
96,12242.351,13412.961,5804.52,-11988.547,762.8693,-640.57874,22011.47265625
97,-834.3965,-7246.787,4916.1914,-12079.468,-784.0064,-8883.191,28060.30859375
98,1929.8893,15353.101,23256.324,110.05344,-14061.78,3350.5852,31235.34375
99,4693.093,12539.72,30338.576,2324.507,-14263.636,7316.246,36127.21875
100,15578.39,31942.367,29386.338,-1702.0911,-16400.934,-7534.5435,34906.41015625
101,18005.69,6732.575,-14190.179,8334.184,-8792.517,3951.6462,35886.71875
102,26566.463,17320.354,5905.4697,975.1674,1748.7877,5736.412,20786.541015625
103,22983.174,21438.295,25023.6,-1575.3907,15823.205,-10274.416,32938.734375
104,-10028.169,-11054.355,-151.46082,-2121.674,-2300.785,5129.4883,14732.8896484375
105,21682.992,29943.48,10379.952,-6006.352,11962.739,-10562.365,34082.30859375
106,20027.908,26824.281,30489.629,5895.009,-19685.328,3502.077,37257.48046875
107,26406.418,23534.889,16815.191,-5629.547,-16708.785,-8258.545,34784.08203125
108,20706.215,25448.213,24630.414,-4001.1472,-16672.293,-5726.22,31615.97265625
109,41638.19,38104.82,36233.406,5942.852,-7641.239,-15581.19,32125.34375
110,17411.504,-187.19705,-3873.9033,-570.35474,-19653.477,4610.323,40146.0546875
111,23884.46,39201.723,43671.805,675.16595,-14284.448,-6314.274,32498.978515625
112,23185.928,8513.004,12771.497,3623.0916,-19432.686,-7553.501,38915.02734375
113,13960.576,10017.009,13863.521,99.335526,-9027.879,-11953.572,26236.986328125
114,24641.305,29804.441,37799.49,3045.986,-17654.04,-6524.103,34962.54296875
115,11136.479,20074.793,-2973.537,-7176.61,-725.9258,14085.552,34005.97265625
116,17682.441,-5312.081,-4265.042,-1027.5958,5630.332,4640.9663,25858.33984375
117,19524.158,27563.473,38345.535,-1611.3845,17763.488,866.7477,34989.0234375
118,9150.478,9138.633,522.0092,-4771.1055,-5824.77,1179.4193,15766.916015625
119,12039.203,-5334.61,-10953.178,-1625.409,-2598.1174,-2941.4243,22026.486328125
120,16203.193,26002.87,30376.242,506.22684,14824.603,-311.2602,28607.40625
121,10310.634,3145.984,-8355.52,1765.5216,-332.03128,-7284.4277,20854.0546875
122,4551.5605,-13156.473,1679.3507,-12211.337,7617.345,-4441.5254,30847.470703125
123,3310.9822,1365.1938,19192.441,3409.6655,3519.4636,7368.089,22843.2109375
124,258.4162,9651.956,16038.6455,-4534.2173,-3288.041,10242.819,24451.56640625
125,17508.574,23790.174,28420.363,-200.50769,-8016.7676,-4988.7397,18909.548828125
126,38103.31,51749.344,70242.06,3183.1519,-7915.42,-5656.1143,33088.98828125
127,254.99875,-4091.521,4088.7817,-11434.935,6479.3535,-6144.4204,26110.048828125
128,34159.426,24367.102,17375.4,12371.403,6855.236,15321.078,38956.16015625
129,882.7239,6985.966,10124.474,-11394.629,-121.869804,-13635.164,31836.5390625
130,9129.884,27359.486,1196.459,2998.879,-6529.623,3908.5706,27213.955078125
131,12739.322,5608.698,11647.951,539.57294,7457.3965,18282.354,34852.54296875
132,8625.015,6868.1147,7044.9907,-5596.5522,-418.4822,13522.754,25414.39453125
133,7865.3457,22799.635,-13870.585,-5542.983,261.20065,6343.1045,35116.63671875
134,15152.924,24297.53,14502.285,4523.39,3694.5955,17909.012,33978.3515625
135,-7320.6216,-8113.888,-15253.45,-2836.7217,-6896.2876,-10077.867,22995.08203125
136,-4103.7627,9906.986,-9181.919,-6173.6206,8599.738,2425.3652,25438.001953125
137,10517.9,21591.352,9670.712,-6942.8955,-5419.669,800.1293,19166.919921875
138,-7204.705,-11952.544,-19810.605,-6008.4463,-1182.7153,3643.286,16550.56640625
139,-7382.7324,-11904.166,13761.229,-7632.947,4130.9233,-4548.768,29174.724609375
140,10676.721,11612.247,21068.887,6617.285,5330.424,551.86035,17795.208984375
141,20861.611,16941.924,9157.984,-7184.394,12259.087,-9753.183,31583.859375
142,13170.59,2394.7065,-63.927017,4872.474,21193.295,-987.3451,39626.671875
143,23741.771,10712.393,-6668.3394,552.2937,-686.0241,-11645.5,33279.04296875
144,6805.6143,18316.154,13029.18,2507.273,15970.26,12425.296,36698.22265625
145,24911.29,22431.953,32599.256,-7628.142,17284.496,-4619.121,34916.3125
146,4255.101,-6126.677,-20364.854,-8085.859,12833.894,-4453.872,34757.80859375
147,30950.45,36243.055,48708.285,-3020.7764,10716.677,5129.674,26461.7578125
148,23093.994,33920.395,44377.75,-2011.5453,9231.567,-6004.7285,26753.64453125
149,5873.195,18902.014,12550.268,-10980.444,2488.5984,-6987.919,25575.806640625
150,10110.84,29756.848,12731.954,-1235.2775,-309.2485,-5691.15,21056.4375
151,-3016.3794,11863.045,9377.478,3001.0916,10982.184,-11021.493,30722.2421875
152,2981.6099,-1342.3713,-960.05566,-2592.966,1849.5747,-9681.24,18132.90625
153,18628.088,14829.997,18419.7,-4714.86,-1120.6527,-12504.691,23520.984375
154,14795.305,28648.67,27906.422,-4105.155,-18039.754,-1782.6255,34908.0546875
155,24724.375,41207.676,42630.945,-3953.9265,-10537.457,-5280.3525,27583.439453125
156,12984.708,16722.883,23352.791,2866.944,-11084.157,-2664.8018,22299.119140625
157,20757.395,13416.252,-2157.0857,-2815.683,-10716.855,271.8929,27916.05859375
158,18031.62,25623.188,33374.855,1374.0166,-16575.246,-6355.8228,33580.30859375
159,40598.707,44003.273,60142.652,1845.118,-17269.564,-590.4755,35113.97265625
160,15842.224,6923.9175,14735.468,5537.672,1830.8511,20620.05,38059.2109375
161,729.1135,-8966.117,9463.219,5947.727,1281.9578,17576.396,35955.625
162,2856.405,12510.423,-5317.65,2039.796,10278.732,11590.199,31166.732421875
163,4595.167,22564.74,-5519.163,-823.061,-14914.212,9529.426,39353.765625
164,-6787.7153,10822.352,-26847.375,2133.5354,-9411.967,2474.6865,36926.140625
165,19069.098,20316.97,29391.033,-2851.5935,3418.9153,-20416.705,37486.08203125
166,29667.133,27716.938,12808.696,-3722.4414,-844.3213,-17731.35,35242.640625
167,6157.2964,15378.121,-22104.43,7068.6367,-5403.094,-1168.1825,37227.8984375
168,8103.2207,8259.791,22477.13,1894.4171,-502.72256,18676.953,35530.1796875
169,-949.1015,-1987.4592,-3471.2104,13187.774,1852.0781,18924.773,40141.0546875
170,830.6959,23244.03,-4166.1123,-329.10745,10245.968,10211.541,35600.73046875
171,26588.932,31331.55,27443.457,-2883.871,-2556.8745,-19292.764,34356.44140625
172,14310.534,19563.436,20490.947,4228.452,1283.9946,-17314.22,31484.240234375
173,14355.934,3348.3179,-15740.175,-7914.219,-5566.0273,4828.3633,32348.767578125
174,1051.5819,18288.768,-13670.934,-1290.6119,-10325.544,-2980.8242,33453.71875
175,7915.4146,5403.8228,-21671.178,2986.385,11086.308,-2065.968,34866.08203125
176,9646.893,594.68353,-16596.793,-1254.0568,15977.51,-7196.8687,38197.58203125
177,18698.734,23805.176,23943.236,3541.4775,-1378.5403,-16708.93,30127.9296875
178,13981.123,25621.158,-579.54407,1346.5408,8221.532,-5696.132,28680.099609375
179,8697.954,18900.26,13748.106,-3671.555,-13432.014,-6637.4995,28141.33984375
180,39769.594,34809.8,31906.637,-3800.7273,1513.2739,-17774.191,32332.6328125
181,5651.1006,23700.764,-2694.1074,-771.0665,6682.1567,2398.5647,26439.69921875
182,10815.004,18766.72,5401.6772,-10232.894,933.9313,-9453.795,26841.2890625
183,7347.008,-12665.886,-31891.697,-5948.7373,-3283.5823,2689.0784,36264.4921875
184,28174.914,11240.948,-2384.996,8095.8374,5794.0435,-2615.3928,31953.533203125
185,33432.953,19579.336,2137.1956,6152.003,3244.7385,675.8328,29736.919921875
186,14389.127,1033.6445,-18437.666,-4153.652,4468.4473,-4664.7305,31535.5078125
187,2535.4626,1549.3165,1080.0474,-475.866,-443.08377,240.26547,1759.81909179688
188,-17523.227,-13984.124,-25612.04,-2683.444,-5460.4067,3401.2405,15885.12890625
189,-14850.846,-5879.8735,-28148.344,-1827.3137,1995.0126,-7800.4404,24105.8359375
190,13837.702,-13134.85,-1279.4998,-1856.1023,-9579.042,-972.7612,28926.58203125
191,-15006.96,-16838.719,1823.5394,-7199.6,7136.733,56.35499,25015.2265625
192,-22172.307,-12309.311,-36309.332,5968.7876,-5771.1797,-6096.925,27475.150390625
193,39965.324,10936.771,-3732.3362,2462.755,-3096.723,2346.816,39333.82421875
194,23833.518,5952.919,-11672.685,-3254.0557,-868.01245,-7167.252,33670.0078125
195,28574.13,2979.0627,-15320.62,-1711.8417,1284.5281,-5340.205,39467.23046875
196,4629.8193,-7563.176,-33018.797,-1384.7042,-8250.917,-2618.0662,36573.0234375
197,21349.924,24434.723,12998.075,-549.891,-3604.7446,230.78325,12045.0244140625
198,16492.398,23273.13,-2763.6743,1537.0647,-5536.439,1007.17255,25483.962890625
199,31032.451,17968.566,6953.461,6426.536,-3950.6812,3160.955,25230.880859375
200,25307.822,-9116.031,13846.193,-2458.8416,-3703.963,2738.9995,31679.951171875
201,24479.107,10295.66,-14981.172,-1121.841,-7205.806,-2916.0515,37197.55078125
202,19125.125,-135.6699,-12076.662,6308.386,-8435.662,-7823.6113,35497.234375
203,5337.098,-6592.5674,-25761.615,1998.8473,-3612.9368,-1932.8014,28298.462890625
204,5246.352,-8093.7856,-32674.328,-477.18085,-5471.7812,-4031.3262,35345.8515625
205,10207.867,-10098.835,-11430.754,6621.691,-8813.675,-4589.4194,29478.03125
206,12963.466,3611.5898,-15643.33,2198.7026,2936.8604,-5506.0254,27741.78125
207,21854.4,649.7998,-15323.747,-195.98111,-3416.5137,-4002.2073,33566.171875
208,7314.3394,-2899.4531,-19644.77,2135.3608,-8046.374,-557.1358,27651.4609375
209,8775.689,-16253.421,-25331.371,294.9551,-12217.986,-4237.6846,37921.64453125
210,16399.428,6434.5063,-10936.841,160.17943,-1197.9581,4421.8945,25243.00390625
211,16196.047,-1797.2247,-14311.112,-7841.24,-11183.442,-3824.1348,36180.8828125
212,3005.4277,-1273.8462,-15569.055,-2726.762,-11239.595,-7162.814,28966.310546875
213,14741.684,-10764.228,-25150.871,-5845.912,-5476.5127,-2518.114,37894.5234375
214,-16414.318,-40072.957,-34457.13,-3199.0286,-11847.318,7508.9346,32853.2578125
215,1554.352,24530.377,5868.535,2366.6267,8302.076,7535.213,29005.19921875
216,-10030.376,-2346.0938,-15950.18,-12533.116,1339.3094,328.30655,24829.888671875
217,3069.2063,4709.0356,4263.1743,105.90577,84.71237,443.6426,1674.01586914063
218,12767.992,20945.918,6323.881,7422.0024,3004.6963,10697.7705,26396.484375
219,-3726.28,4250.566,-28828.875,3350.2175,2107.0322,3864.2373,31397.412109375
220,3813.802,7014.933,-11135.082,1377.5513,-663.2903,14575.634,30429.09375
221,15165.906,26314.531,24358.352,7768.4365,-7628.409,17430.229,37059.03515625
222,18956.908,24764.717,20450.03,1534.0306,3494.3582,18310.021,32813.875
223,451.95898,3590.0352,-8387.877,1727.7073,-10970.179,12898.544,31382.11328125
224,-4692.112,26226.729,-17284.314,-1349.2635,-955.70917,539.92914,38896.66796875
225,12202.293,14156.628,742.3336,135.00838,10442.427,15835.155,35170.87890625
226,19230.896,18017.303,5966.1826,-729.49023,5083.4033,19516.762,37190.84375
227,25383.26,27845.014,35508.543,4243.209,-2472.472,15204.957,29147.58203125
228,1491.4982,21837.943,-20245.256,4384.397,1294.5889,2433.5562,37539.22265625
229,13469.454,15187.317,25838.654,-5856.4746,6824.512,17555.064,36081.2578125
230,5536.2324,13086.412,19718.16,-9331.697,439.39694,17802.125,36927.28125
231,-40783.414,-23057.352,-56672.27,-8210.824,-2353.2168,2326.7292,32915.38671875
232,3845.8013,3379.6177,23727.266,-788.0928,2948.3362,16299.4795,35067.34765625
233,-20240.139,-25283.938,-27670.285,-2108.9487,6420.798,2644.865,14183.7822265625
234,-14549.193,-13478.088,-9278.245,-2173.0066,-1811.8712,3575.1763,9254.435546875
235,11002.366,-17124.303,-16789.256,3919.095,7967.5796,1630.5273,32035.8984375
236,16395.559,-5147.8916,-15250.613,-3397.639,8591.434,1482.7568,32349.62890625
237,17424.715,-4377.4897,-16945.375,1893.6339,8724.021,-2409.4297,34114.43359375
238,10279.547,-7414.381,-18930.568,-3356.5044,-1105.0902,6051.506,28227.44140625
239,11337.5625,-3231.9697,-12067.45,-7442.7427,16049.8955,7159.4365,38882.1171875
240,4136.2144,-7093.001,-15672.989,381.4765,12295.046,-399.70807,27394.859375
241,12499.927,-3928.613,-25222.941,-845.8483,-281.83218,3354.595,33306.5234375
242,19343.197,8861.1875,-277.0723,-4584.0415,-4099.06,-8719.897,25114.232421875
243,37464.363,13316.85,22985.252,4102.371,1009.1825,3071.0107,22911.77734375
244,26079.09,3412.6536,250.86028,5468.4907,8428.174,-3524.473,30586.142578125
245,38981.008,18096.23,37764.316,-2724.9185,3797.779,2412.2427,22254.11328125
246,23305.592,10076.581,8974.633,4548.448,8295.937,-1867.4136,21674.71484375
247,16767.826,10578.84,-7312.1353,2371.66,7840.2725,9877.252,31033.55859375
248,18941.016,5678.579,-7038.506,-1355.3711,16784.031,5495.828,38046.1640625
249,22000.744,15097.125,17713.723,921.2687,16075.296,555.58466,28551.009765625
250,4429.553,-4237.2036,1093.3593,-7391.9414,17887.33,6492.769,36160.6015625
251,15585.703,74.242485,7898.753,-6920.59,10486.473,-5135.304,27076.83203125
252,-8197.489,-5879.644,-21209.645,-3090.3696,4369.965,-15707.898,32109.25
253,9052.654,-9180.376,8895.301,-1019.10266,-2435.35,-5967.086,21385.1796875
254,-13896.506,-13260.99,-22139.338,-7241.2603,-4360.373,7678.9395,21559.94140625
255,379.38135,-20583.379,8797.063,-5824.5913,3528.1938,-5065.4165,30047.4609375
256,-44954.137,-35332.92,-21696.158,-8574.656,-2874.643,-5943.735,27587.681640625
257,-1913.42,-20035.648,-11853.968,-15019.482,-6965.6143,-5546.592,34083.61328125
258,-25813.104,-25992.605,-26738.498,766.4051,551.1242,-449.88602,2000.75036621094
259,-17844.367,-14632.347,-31412.479,3494.982,-8161.8394,-5906.863,24065.669921875
260,-3225.1462,2175.2095,-18640.262,3853.5264,-186.1972,245.92874,19871.365234375
261,1443.94,126.18951,-8537.646,-4259.4307,-988.9805,2612.7605,12886.32421875
262,-7105.1484,-12080.858,-9052.535,-1133.2178,514.7121,2261.3508,6232.8828125
263,4642.6655,14324.568,5587.337,-19792.219,7307.8076,-5447.1567,38857.53515625
264,3335.612,12011.257,-3021.2856,-2381.0747,1592.7815,5893.7393,17310.546875
265,5589.322,8341.423,-18406.885,-3465.9792,2642.0898,-2131.9883,26833.73046875
266,-353.10205,23122.29,-12774.536,-3170.9707,777.46173,1583.5446,32194.4921875
267,8138.2285,22102.97,-5703.191,-2680.5435,-1282.435,454.354,24637.369140625
268,1717.901,24463.473,-4961.0728,-3599.642,-3281.9387,-7020.3667,30543.888671875
269,3758.2847,18216.357,-16177.534,-5765.8574,4888.337,-504.90717,32663.34375
270,3450.9958,23263.004,12247.065,5914.9604,-5347.9844,-4101.284,23169.87890625
271,2441.3389,20782.68,-20351.12,-2756.3877,1221.4349,-260.51462,36075.1640625
272,1500.4506,18079.795,-15247.581,-1839.4102,1633.0435,2025.4973,29385.39453125
273,-9030.8125,13664.811,-12077.308,2020.8827,457.3333,-4519.8555,25839.52734375
274,-23763.148,6368.0747,-6408.5796,7786.8267,-2988.153,-4687.6265,30996.2890625
275,-23000.145,1151.4258,-9092.368,5599.924,-3483.5046,13732.655,33720.45703125
276,-25676.916,-10107.663,-43456.805,4865.246,2427.9976,12647.128,37468.5546875
277,-34225.32,-55412.27,-64787.117,-1258.3898,-3381.9207,10670.245,33406.94921875
278,13902.285,-5417.703,-14592.147,11.9273615,-8114.7983,-9043.421,32826.5625
279,16538.576,4471.009,18274.797,7210.6562,1797.816,801.3572,18362.904296875
280,15891.727,18824.617,5.7702537,619.7405,-4769.4067,-2753.2256,19992.296875
281,-14011.186,8034.9907,9693.601,11074.561,949.71436,-2589.7485,30267.388671875
282,13476.352,-9738.874,1989.4113,9948.634,2179.7593,2814.969,27187.8046875
283,23055.02,-4121.821,3379.284,1667.807,-10214.695,-1662.8904,30342.234375
284,16803.346,-1974.6442,-21128.562,-6109.655,808.41754,-5087.0244,35647.375
285,12227.92,25068.006,-6502.656,380.75668,-4690.4346,4344.4165,29652.349609375
286,-2556.3076,21999.488,5645.26,9467.7705,-5809.3735,5974.444,30758.759765625
287,8219.945,3324.8696,14370.502,12216.025,3214.1995,-963.50433,23945.158203125
288,15065.512,7525.591,-19420.873,-1161.0072,-5354.5635,3364.0867,33318.84765625
289,29232.479,-6646.01,15144.798,1981.6741,-4579.3936,-6640.796,34456.90234375
290,37215.7,17600.293,5621.7236,494.51605,-10163.753,5514.944,34133.53125
291,2306.315,3235.728,-28972.518,857.4505,7990.2285,855.58075,34702.0625
292,-13808.755,-14414.908,-18285.93,2933.2966,-7596.7837,-4046.8953,16302.662109375
293,30908.465,14847.16,3008.0774,3812.2786,-6738.986,-2156.529,27965.595703125
294,13942.752,-5580.363,17532.15,-37.391552,717.9748,4382.2783,22875.220703125
295,15458.03,1557.6858,-18957.088,-2463.452,6274.3384,-553.3119,32194.1640625
296,10018.066,9212.003,-10429.991,5560.028,10944.353,-3509.5894,29854.986328125
297,34065.86,28958.625,32411.148,-6973.806,9259.008,5244.597,22493.953125
298,25734.492,5431.5938,-15483.484,-3332.435,160.66922,3606.5488,36697.40234375
299,-6446.619,-5220.712,-5192.896,-746.93646,-127.786255,497.98578,2001.10510253906
300,21403.938,26458.617,46430.375,-903.9608,-10144.623,11236.019,34861.26171875
301,8659.199,10698.134,12114.472,3279.548,391.1022,14640.358,26168.6171875
302,12526.646,16332.551,11514.857,2299.4612,3548.2576,18872.924,33786.89453125
303,-5570.212,17464.025,-12480.314,699.87177,8751.193,451.47794,31133.994140625
304,8137.7085,28359.395,-5226.9224,-4698.4062,6013.7324,-10086.577,36574.88671875
305,-8395.911,12371.925,-11052.539,-2726.435,2834.9395,-4504.3496,24511.458984375
306,-7678.9854,17739.361,1318.2944,2023.2722,-5063.418,3618.5303,25036.45703125
307,-37426.72,-10139.298,-42081.19,-7182.4004,-3750.4014,10647.993,37820.265625
308,-54743.45,-44009.316,-70575.11,2049.6387,-394.7544,13341.404,32906.71484375
309,-16768.576,-7772.482,825.2717,-1997.2397,-9332.094,-7608.9185,26059.8359375
310,19173.04,14433.631,26155.373,5372.5796,-7666.3955,19489.959,38817.48828125
311,15399.739,-1018.8436,-9416.621,-7543.128,-2733.0505,834.67175,25945.466796875
312,-4814.3765,-7369.397,7235.135,-10088.243,-7109.779,-279.9738,25292.400390625
313,-1456.4033,13254.707,-16638.217,-1561.099,1833.2952,-4738.056,27477.029296875
314,-9448.581,-8175.757,-36882.49,-6710.0444,-14481.565,2798.6287,39709.90234375
315,11980.012,-2066.655,23330.402,7862.9424,-1345.7607,2452.0417,26353.818359375
316,-58381.77,-32179.74,-45259.48,-5189.05,295.05902,-2248.1523,24720.693359375
317,-22284.713,-3457.2058,4505.6514,6762.845,7814.1597,1330.4158,29891.54296875
318,32242.52,11860.906,-9373.032,-3216.2664,7911.7397,915.1395,38992.3671875
319,26743.514,3570.4783,-4563.703,4010.0771,5842.66,-7131.7217,33089.04296875
320,4028.345,-1008.6659,-25906.176,-5307.032,-1904.3383,7041.161,31855.51171875
321,7359.391,-1440.3591,-29333.896,543.6461,-1422.9999,5052.309,34416.27734375
322,23126.602,-2985.6606,-2477.4287,-5116.1807,-5379.989,4868.9326,30088.46484375
323,21160.01,5476.7007,10776.993,-6720.2,3580.8208,153.5249,19103.76953125
324,11867.128,-11969.429,6049.9536,-6364.0337,4304.8403,1255.1964,25400.46875
325,-2854.5876,-16406.576,-3837.8472,-9337.465,6746.5005,-1579.3152,24018.5625
326,2160.8286,3998.0886,4014.9604,-429.53986,-29.907587,-117.77048,2001.15307617188
327,-1451.2471,12985.768,-10839.26,2290.4119,-1372.8206,5417.2354,23270.759765625
328,8079.5347,17013.68,10161.34,839.05347,11251.296,14012.998,32195.232421875
329,19297.412,11613.053,-8889.984,4077.5928,12354.564,1250.2495,33903.5703125
330,15245.423,1723.9681,-14066.131,5775.441,2924.5083,13778.978,36619.23046875
331,19443.096,-1781.8611,1786.4755,6904.2188,2591.432,8203.324,27432.259765625
332,23210.922,15156.799,2093.1611,6403.9966,4456.7104,6052.5723,25164.75390625
333,8555.432,-327.09894,-16610.877,1758.2053,3331.3416,-4966.5034,24602.189453125
334,18074.402,1611.2115,-8041.558,-3425.0261,12326.524,-10559.927,36724.4609375
335,-9099.376,-9764.67,5841.0117,-4229.14,-12062.663,-8870.945,30981.591796875
336,-17213.842,-18243.64,8647.41,-11527.173,372.156,-8941.548,36543.03125
337,-3478.1978,-7724.478,-3968.5166,-3006.0454,8561.2705,2168.1533,16651.935546875
338,-2691.4365,16987.65,-6729.8057,-10411.874,9651.234,-5395.468,34278.85546875
339,2723.0854,22399.668,-7559.056,-777.20917,6455.9917,-996.05286,28723.435546875
340,-9985.329,-10856.924,-29240.41,14879.724,-13389.911,-2181.2795,39637.0625
341,8291.715,859.5044,6386.096,7719.3335,7526.679,11696.012,28351.6015625
342,5113.765,22106.277,-5780.1377,315.90836,-5446.1807,13083.561,34573.953125
343,-41475.555,-41168.84,-40610.43,425.82584,797.22156,-471.375,1922.08776855469
344,8872.448,2276.8303,7237.927,-6918.7964,-11248.51,15511.573,35782.90234375
345,13363.924,1136.4304,4225.063,-3134.5752,-7921.2334,7710.68,22745.62109375
346,17114.244,1603.1647,1930.2928,4692.8096,-342.03043,-2618.1511,17961.318359375
347,4884.569,18635.629,11039.168,-7177.2104,-628.97266,-4140.7827,18694.935546875
348,-17029.535,18671.182,-22673.957,1742.0084,2593.6265,-2455.9512,39437.16796875
349,-37386.45,-20242.674,-31330.332,2455.4697,7410.1465,-6337.991,23023.685546875
350,-21346.127,-4219.901,10791.875,-4464.65,-1144.9847,11496.761,35157.00390625
351,-16315.812,-19234.896,-46275.66,7099.0347,-11325.0205,7999.009,39326.42578125
352,-592.26904,-9175.341,6262.064,-10699.571,403.38956,-1416.8983,23009.46875
353,-37082.867,-22991.158,-58473.125,4075.8171,851.0682,-538.39355,31787.16796875
354,7593.7803,29582.455,-515.13855,-5155.8687,-4414.7793,9611.582,33807.22265625
355,-15010.354,-22671.428,-14043.041,10058.155,-15101.409,7061.142,34702.6640625
356,-5672.345,7743.2227,-14893.23,17616.965,3264.8254,-8720.328,39747.80078125
357,5217.3145,14745.699,8163.849,16562.07,1530.8878,5476.6445,31485.150390625
358,17499.059,11311.708,10303.666,12260.7705,-4912.0303,412.2755,23862.314453125
359,13040.713,-12950.147,-4000.212,5254.0044,-8945.218,3683.465,29775.45703125
360,6367.4507,-1577.1871,-14362.487,10033.534,3458.7173,319.66693,25814.064453125
361,-4568.0845,1276.9817,2739.8064,2173.508,-31.849987,494.8874,7730.79248046875
362,884.2597,1260.653,185.8705,1020.66034,-385.85245,-495.65942,2280.61669921875
363,-3808.4924,-1123.536,-2662.3716,-5510.6064,725.0389,911.33813,10030.6689453125
364,-146.32489,-1073.4921,-29.056673,80.84125,734.50134,339.09824,1721.96508789063
365,-4014.4983,4185.1265,-2821.771,-6345.313,632.34375,728.1549,13507.6171875
366,-5940.4536,19595.365,1624.2174,-3192.1592,-1619.0968,-4407.8755,24755.896484375
367,-4932.4067,2985.8977,-2446.928,130.70511,-1635.6774,411.46387,7601.43798828125
368,6637.18,-7141.008,-5242.286,-4926.3086,-2224.56,-1171.7131,16095.123046875
369,17173.033,6687.5454,1462.1361,-1347.2085,479.1541,-869.3881,14157.771484375
370,20955.63,-1807.02,1799.372,6029.3555,-3628.0042,-189.08426,24448.05078125
371,1783.4324,-454.2007,-4414.5977,9541.271,1700.1078,-947.24054,17720.7265625
372,10693.008,-1327.6144,451.56976,2923.1082,1323.2019,-2508.8806,13268.14453125
373,-3285.3076,-4000.5645,-81.45105,1771.3602,906.3299,-493.5417,5067.15625
374,-1240.6006,287.90152,-123.64654,188.34875,-154.14731,389.94714,1584.46350097656
375,-738.97327,-46.186733,212.49371,561.4758,-4.5402975,40.209915,1294.89636230469
376,-2090.8813,-1142.7451,-51.983635,129.20403,-402.36606,142.98969,1928.7373046875
377,-2466.4485,7033.4062,148.27267,-2921.3916,-2105.2786,-517.93555,10580.6181640625
378,2102.7568,8238.85,2256.998,6875.661,1163.3983,551.52423,13547.1826171875
379,-3786.3484,1387.3098,-1092.0166,1824.8346,292.3697,-1153.5298,5858.7548828125
380,1197.9196,2022.2761,551.0562,1141.3228,229.62134,149.0305,2400.81298828125
381,-2082.6199,-2017.1288,-3628.0776,-2971.8145,1923.4873,-2315.5898,7494.94921875
382,20762.008,2319.4045,4982.6543,-2183.0625,-2252.7168,-1127.6316,18205.533203125
383,16040.745,3659.269,1425.4373,5262.904,-35.613335,1061.7184,16505.42578125
384,3879.9607,-4639.4805,372.93768,8889.052,677.97296,-919.6899,17203.615234375
385,11982.187,-3969.6628,-3818.5,5295.5806,-571.2752,1310.7449,18502.318359375
386,-7014.8843,-1103.6406,-1786.7095,3091.4326,-1522.4084,-47.78069,8185.50537109375
387,294.8129,-1364.1462,141.48595,604.7538,-297.25885,174.17752,1993.63354492188
388,-5068.9043,-916.73816,-1922.7455,5667.8555,-277.1139,-525.5766,10559.7470703125
389,-10118.452,9709.2,-3068.9766,-3642.6821,-114.8515,1299.5404,18653.947265625
390,-8803.485,11637.709,6862.239,-11774.433,1202.918,-1031.4957,27685.302734375
391,-10346.114,-7417.969,-5678.2695,-8321.126,-935.04865,-660.44147,15111.240234375
392,-658.6029,6636.3525,5010.066,-9057.327,-1936.4009,921.3347,17432.685546875
393,-10.009889,-2010.5255,28.62362,-657.41315,277.61453,85.63208,2372.89404296875
394,8125.6416,834.50775,-3397.6252,-1751.9946,-626.3766,-1072.2653,10759.3388671875
395,11886.839,-1413.7267,407.40393,-2631.3892,389.85986,240.4818,13319.21875
396,19855.688,2903.5688,-2365.1519,-3594.1785,-606.60596,363.40616,21088.01171875
397,-3711.2805,18799.918,2170.823,3485.3047,927.3793,1281.6499,21281.212890625
398,-3130.6907,1713.9198,-892.82477,5228.0425,-930.3142,578.1591,10160.376953125
399,-3323.1736,-7165.2275,5341.102,3416.3254,-1481.1288,-1011.3264,12953.1103515625
400,15174.4375,1029.3627,1910.6713,-4324.484,-63.95767,-1283.4618,15794.025390625
401,14611.258,-4124.4575,-1821.3773,-4837.9507,2733.637,-305.24222,20151.8359375
402,19761.658,1801.7496,3108.2974,1829.4043,988.95496,-556.6695,17739.892578125
403,-960.289,17384.93,-211.8581,-1162.3809,-284.3893,699.94385,18142.294921875
404,403.71353,11066.053,1059.3457,4448.6167,-454.12772,208.86125,12932.3193359375
405,-3000.4111,14110.689,-3012.273,3854.1372,-87.04641,717.49255,18415.294921875
406,6436.878,-3620.302,2161.1323,1711.7281,1758.5083,340.66742,9738.6953125
407,9477.135,-2974.6392,35.641327,3422.4858,1497.02,-9.629044,12980.3251953125
408,-2562.088,-5183.1914,-1410.685,3986.9658,-847.9969,-655.86536,7896.15869140625
409,13784.849,-8531.961,7008.298,-1433.2399,2332.9163,1053.0634,20458.43359375
410,7567.2095,-390.40137,-431.0212,-1071.9445,428.4043,-461.6675,8263.513671875
411,-9297.672,-25390.203,-5348.958,-9132.206,1664.3251,-975.42334,24483.923828125
412,3664.56,-5545.3496,-2969.0225,-952.45844,376.41406,-561.4843,8474.9365234375
413,5617.857,872.1726,5740.1646,4347.7017,788.3769,-2621.479,10114.6181640625
414,1375.5991,1539.8711,3571.908,-5105.438,-4123.3857,2714.3347,12481.8359375
415,6550.554,-2472.6821,-624.9059,-980.7116,1544.3568,-2054.705,9532.3701171875
416,-5342.622,1799.2892,6048.32,710.8014,-2183.288,1210.8044,10937.1591796875
417,6796.8174,-234.55806,2461.4526,6099.603,1042.4569,924.6074,12457.623046875
418,-9714.137,-6261.0103,-1759.4915,760.1341,575.744,-1173.2489,7388.4677734375
419,11653.382,4067.1548,707.2081,5482.4253,-607.6703,-248.62,13630.6123046875
420,27.755001,9242.89,3014.7124,7924.7495,-1625.5197,1573.866,16434.064453125
421,-3927.1357,-3401.9333,-725.46985,-1660.8414,1278.4285,839.62775,4913.06640625
422,-16489.06,-12702.821,-3397.6018,-2352.5784,2693.3716,330.8468,13223.0673828125
423,-5244.701,5320.661,-1069.8872,51.616837,1325.7638,1675.5554,9932.3173828125
424,-3881.4255,-4046.183,-621.6226,-5463.583,-1073.8247,-131.37204,10210.4765625
425,-4541.6714,4048.5198,3226.0596,-3083.9998,-1123.0468,1523.9143,10328.91796875
426,-2369.5264,-5872.6616,-1871.6777,6269.3867,117.92825,159.69301,11502.0732421875
427,-6521.7837,9640.175,664.29047,-284.05353,757.3917,-986.6364,14198.2705078125
428,-7462.9336,1279.5283,290.92123,9097.601,3177.461,-2476.4666,19124.6328125
429,-8250.667,3695.594,876.35614,1715.4478,-16.235632,-1098.3854,11376.7451171875
430,-935.9325,1065.3994,-5108.3447,-2432.4758,-440.70126,-244.70306,6948.2255859375
431,-3909.6943,27.888277,-2335.5906,1686.6249,1017.14276,120.21067,4844.109375
432,-7115.856,8891.777,-866.4768,4622.077,-370.5265,-582.0286,16148.6904296875
433,-4910.8794,-6490.7656,652.6561,1136.4738,642.5222,1261.1322,7219.6474609375
434,-36.100586,5817.32,-1843.0669,-3579.4814,-402.06146,-1267.3589,9583.642578125
435,14514.098,-1269.6117,831.2129,3311.4143,1059.3737,641.7678,16058.609375
436,5804.671,-4471.7725,839.536,1830.5507,-986.7527,282.96716,9614.984375
437,15926.817,-4182.8325,-3093.817,605.19336,-326.14938,-564.17487,19648.333984375
438,4406.4727,-3665.3416,-351.17197,2287.95,-876.64954,289.4881,8224.8193359375
439,11852.384,-2450.662,174.68176,-892.9765,-581.04297,706.54065,13372.4267578125
440,4240.6963,-671.2123,-4766.036,-6153.298,-44.671883,246.37848,13220.6337890625
441,703.5577,1881.2107,3503.3743,5437.2603,-1491.2363,2723.7148,11115.1806640625
442,-2025.7911,-996.28156,227.29813,131.07072,300.2979,-269.6103,2087.31127929688
443,2733.021,-1769.1346,-1614.6368,7465.523,2870.9229,-458.55762,14565.6171875
444,551.1631,-1222.894,-129.5998,-3835.9797,1118.9617,-85.201996,7094.02783203125
445,-328.29895,-954.74927,166.50905,-3349.5862,1022.6943,878.95374,6329.44091796875
446,5648.2153,141.44447,6413.774,-7253.866,1287.8069,644.2543,14113.916015625
447,-1408.1028,-1944.3452,-48.481934,-2235.3135,365.25397,59.83484,4273.88134765625
448,-1277.7065,1489.7975,3440.1516,-3065.7937,1.0949638,-159.16843,6718.17333984375
449,-4703.1387,-3344.9053,-1053.5945,-2584.279,-111.45908,-27.552073,5502.91552734375
450,-1622.6576,-2458.7473,-437.93063,3883.2007,358.68216,-314.2382,7000.93603515625
451,-2229.5498,-4244.886,-137.37933,4882.6016,679.2515,-336.5307,9268.1435546875
452,-4627.24,-5672.06,-3824.4302,5682.433,1111.7688,1322.4281,10411.513671875
453,-1006.02814,1186.6271,2797.407,847.93646,123.342575,-659.0075,3799.96508789063
454,-5436.71,3461.6208,-3608.9026,-7421.98,-308.6375,1185.7372,15362.8701171875
455,-3181.8765,1213.408,2118.255,-2115.4749,905.3822,411.23196,6364.4736328125
456,-4255.87,2284.0303,1356.1621,3257.851,298.37878,-1293.228,8642.2373046875
457,-3202.6943,-943.73126,331.6965,-3282.319,-124.60253,-577.978,6555.94287109375
458,-2318.1978,4860.32,1933.6594,2637.8462,1971.1848,1517.9789,8861.8037109375
459,3991.0286,-1600.6714,-1315.2628,-4313.9766,47.41711,-382.48047,9275.2060546875
460,2036.5055,-2799.0515,-3991.022,5208.9033,-832.4227,110.45479,10680.8544921875
461,1858.5625,-3907.7583,1075.5261,1430.689,206.58212,301.65872,5990.826171875
462,2450.2444,-3375.3572,1956.3743,1261.193,-326.1628,172.41556,6040.248046875
463,2250.5532,-1782.0516,2332.2727,-4211.471,-220.22234,-1489.5891,8752.697265625
464,5036.0264,-513.7595,4413.4556,-3906.8625,-761.444,-377.377,8699.99609375
465,12675.145,-550.8051,3891.8188,1487.6863,-150.77034,800.79846,12022.3291015625
466,7784.0063,-2619.8733,-1318.5532,-1822.8776,1267.7654,761.45917,10626.625
467,-3744.4792,4920.4146,1484.9998,-655.1141,83.84657,-336.187,7665.6787109375
468,-5600.384,207.99586,-4510.9673,310.52762,-138.10007,481.00397,5443.98291015625
469,-3695.1274,2074.7466,-2625.3396,-1136.8167,776.31683,393.19394,5866.1923828125
470,-5350.8335,-854.6599,2189.341,2153.5884,-147.44496,-191.72751,7566.84912109375
471,-493.05927,-1439.481,175.0645,-1552.9576,509.31738,731.05096,3404.55297851563
472,-4494.11,-720.4704,-592.64685,-459.89948,1150.5359,-827.0997,4625.6953125
473,-4170.009,-4210.0913,-453.70038,2485.992,-134.96097,164.4538,5712.94677734375
474,-3616.4844,-585.88635,3298.1985,3309.082,-151.42218,-1267.9967,8589.7646484375
475,-2286.6897,-103.887596,-1368.8483,3948.6038,208.42636,-523.5202,7164.5341796875
476,194.64789,1678.7825,-23.858755,-1234.6447,-47.98886,-162.11366,2689.51440429688
477,-2368.8735,-1242.2653,-316.13934,-3379.6123,-1370.395,454.29364,6609.748046875
478,3962.3953,-2740.3125,3237.2458,2.3040054,-1352.4955,-351.59378,6815.44384765625
479,-2761.129,-2723.2883,395.11053,-1437.4918,-1138.3842,-28.538145,4464.66064453125
480,-3851.7458,6671.638,4113.637,-3140.0657,-2878.206,947.1557,12144.5341796875
481,-1856.4628,552.9476,-29.028967,-453.50507,-541.5451,346.61594,2568.84716796875
482,1517.7208,3004.1267,467.8773,458.01328,-169.53241,490.4548,2511.82348632813
483,2154.0989,-4560.227,-259.71185,-1377.679,-17.32672,12.016772,6355.853515625
484,1915.6324,-4045.9346,-262.84436,-264.997,-203.02129,-1337.5518,5744.5947265625
485,-826.73175,-2048.6624,515.57043,3434.6711,-485.5426,391.1211,6441.44189453125
486,-5165.13,-2827.8643,-1711.0948,3414.4744,940.1609,-1007.6368,7070.6279296875
487,3247.6082,-1657.3566,-1575.0094,3435.8933,402.49594,219.33113,7727.09326171875
488,-3703.0613,-2722.191,-981.41876,2508.9436,452.6624,134.47635,5025.25830078125
489,-675.2252,-691.9049,536.44354,-1167.4668,-175.97806,110.56735,2388.96337890625
490,68.89599,-1610.992,935.4947,-1934.453,-298.31976,319.84042,4102.31787109375
491,-4901.8486,-2130.9543,-2809.803,-3208.0007,1538.7067,-418.33902,6690.24365234375
492,-6989.232,-2177.968,-633.206,1181.807,370.73553,316.64908,6153.85595703125
493,-5982.1553,-1959.6394,32.14939,2246.8735,268.04984,898.191,6777.97705078125
494,1102.6766,4069.3328,1852.3633,4087.3428,-1676.0435,482.61224,8147.65185546875
495,408.01132,-4010.5159,-282.41437,1905.5516,-9.655104,-436.19037,5330.46435546875
496,2662.607,-3452.0142,457.73145,2761.8892,-533.24207,-1162.456,7520.5810546875
497,-487.50217,-3559.7876,-1494.3077,1917.0164,-40.46504,189.27116,4300.77197265625
498,975.8587,-3979.5498,-1094.06,-1280.1938,-945.88293,511.97897,5193.3115234375
499,-5070.652,847.8092,413.31134,531.27045,-901.2976,37.83817,5994.45263671875
500,-2900.9233,-610.96045,859.7442,104.23835,-589.8685,-1286.4515,4100.73974609375
501,1963.2909,-1995.0116,-254.52538,579.0506,-866.96234,283.245,3912.73974609375
502,-5371.2817,-4727.012,-4883.7676,-3250.304,-202.96559,-223.26022,5683.767578125
503,-531.38763,-2507.4875,100.47924,-562.13116,286.70364,-573.64594,2781.12182617188
504,-7186.2817,-2625.9788,-4265.019,3553.7168,-90.5299,-230.38608,7353.8310546875
505,-2924.6692,1751.9796,803.24396,1340.9465,76.60268,138.5982,4878.92236328125
506,-564.7753,2086.0056,-833.0451,2972.7021,638.0624,1049.723,6232.794921875
507,-5423.8423,2303.216,-121.78255,1379.973,-832.61194,125.81853,7395.2783203125
508,802.46765,-2330.868,-96.66176,-2234.5393,120.10749,-280.14725,4802.830078125
509,191.86023,-3393.7078,880.9712,-3355.63,-1276.8735,329.89478,7402.73583984375
510,4089.8772,-1306.4099,6809.767,-5664.1714,-1794.547,-366.4961,12550.20703125
511,-1676.8657,-1735.9486,812.1684,1233.1835,-696.2015,521.7563,3630.26782226563
512,-211.0939,-1485.9626,156.38065,258.44965,74.35963,332.69037,1666.68383789063
513,2418.7097,-2869.0845,903.5156,-557.59973,-1403.8198,597.2577,5491.77392578125
514,-4309.0713,-1184.1403,56.932293,2740.182,-510.54013,125.87933,6207.97900390625
515,-875.8724,1384.3046,315.20627,210.07286,123.44872,404.82898,2122.44897460938
516,-2257.318,1076.1758,1579.6213,5842.1885,-132.20888,381.22055,10766.8837890625
517,-1593.7821,2029.5261,-643.6085,76.44438,-67.35853,-108.34696,3264.166015625
518,207.11977,-809.05255,995.4484,-3324.858,-1236.1907,-53.363834,6341.3115234375
519,-1180.344,-4001.2302,298.9859,-1374.3993,52.800034,-42.079414,4472.07275390625
520,2509.7922,734.8439,-2958.9717,-4815.1626,977.6998,318.0973,9802.0234375
521,-4498.2915,-3116.4763,-721.5503,5139.375,1149.7173,127.463615,9706.0927734375
522,-4031.2456,-640.6884,-1109.3518,-2645.701,-124.12787,190.14302,5592.88671875
523,-1969.8562,1102.0094,-690.9905,-2283.7312,810.54614,705.7188,5123.9345703125
524,-2466.8694,1274.9818,1278.3739,-859.4816,-1.4221764,-41.89395,4029.33642578125
525,-1791.1774,-1402.647,-1589.7904,-154.72273,191.1039,679.35486,1295.845703125
526,-365.76816,-573.82965,-301.82388,-370.59412,499.83878,120.23945,1124.98522949219
527,-4006.2905,-2177.9966,1428.213,-656.56696,-175.95088,149.91548,4939.04443359375
528,-4168.052,-3028.0708,-1085.1445,-1228.3013,402.68,339.7731,3556.45629882813
529,-1510.5797,258.53983,1751.6189,3343.9504,517.0602,-275.79993,6525.087890625
530,-907.61584,-2897.668,335.64594,2967.0234,-268.52222,-68.36485,5883.8916015625
531,-5764.1826,1370.8746,-355.95154,3577.7031,-1702.201,-2509.4485,10370.8388671875
532,-1403.8636,-1796.8083,-354.3879,4033.569,-263.8038,-440.5122,7160.1787109375
533,-4199.704,-1163.7332,941.0919,2905.1548,-85.265495,859.39264,6898.90185546875
534,140.22577,-5177.784,-447.83676,1432.2379,-98.910675,412.14313,5673.85009765625
535,316.28662,-4822.953,-721.1356,1123.6903,441.70227,-108.2136,5154.11865234375
536,511.43817,-553.6795,72.90133,655.52795,-209.28671,-212.08926,1554.08996582031
537,747.94244,-253.07892,232.81873,1074.7096,-69.13696,235.67267,2097.07250976563
538,-1495.8307,-581.44403,581.13544,-89.051506,-143.05817,134.38235,1841.2236328125
539,-349.1776,271.79172,175.1978,537.85,604.5655,276.5192,1590.18432617188
540,-1710.1681,-252.75067,1312.5292,517.6273,-421.82858,-199.75061,2883.18676757813
541,60.02661,-1004.75696,71.57404,263.90848,-198.16138,220.46033,1272.30017089844
542,-865.84503,2527.6868,-63.7138,-1935.7563,-178.63388,347.40176,4597.46337890625
543,-6266.719,-932.71924,-439.49908,4014.2896,905.0379,26.159483,9062.48046875
544,-2859.0989,-745.32355,-316.17682,4316.735,-857.58356,-89.062096,7980.7314453125
545,-3270.489,-712.3165,1218.3506,-2847.1096,-26.486298,-34.914566,6287.65185546875
546,2578.1409,13.192971,-1170.3395,317.30734,-24.540787,67.057884,3366.41577148438
547,-4150.62,-843.4418,368.23364,-1806.3921,-13.191602,75.90195,5120.5244140625
548,2197.5894,-151.12766,131.42592,77.21584,324.79053,-76.914665,2298.86303710938
549,3501.8796,-1574.3195,971.7985,-1471.2822,-234.44852,-15.923827,5097.60595703125
550,1350.2025,-1169.2745,-1414.1786,-1526.9753,-172.36853,-339.0833,3801.81518554688
551,2516.9326,-90.65867,-536.3551,787.19104,-22.933609,-268.48764,3199.56494140625
552,3142.33,154.21362,-336.62903,579.7319,-190.94958,509.61423,3540.23071289063
553,-3498.5413,729.3669,-267.6872,-1067.0391,854.4352,600.50085,4619.69384765625
554,-115.82228,-840.6425,29.108908,-1708.0493,-328.23648,-199.12122,3137.81469726563
555,-2548.1892,-4535.004,-666.7161,-2166.462,40.074394,-754.2223,5197.84130859375
556,930.8405,1852.2981,-74.42946,-1417.7917,-1148.7488,-412.77646,3645.05029296875
557,-533.40137,-895.45166,-418.63336,-922.6718,-399.0766,194.65091,1825.16491699219
558,-74.41082,2220.5967,1861.0647,290.63757,120.5089,-391.74344,2308.36743164063
559,566.19617,934.2604,71.346695,1416.1677,-585.73566,-34.025215,2758.95068359375
560,426.026,437.47766,664.8274,881.29175,207.1245,198.06415,1621.98583984375
561,-1207.6305,-3654.2092,1449.9681,1778.9175,651.0517,-296.2113,5529.8349609375
562,-2067.0583,-4432.769,689.81165,1408.3993,-176.39897,298.70517,5102.025390625
563,-322.90085,-2377.1606,-15.244164,-2295.7334,339.64233,50.890118,4594.74267578125
564,1684.6454,-1365.6206,-301.99033,-898.60657,-142.38615,402.15237,3187.40649414063
565,2341.4868,-311.42044,416.37256,444.07642,-230.26384,491.86087,2667.0751953125
566,-1339.4885,2595.0886,122.42964,334.8745,-408.10376,-299.975,3601.6796875
567,-237.2361,-1256.366,-316.6479,609.50824,106.70729,623.4353,1810.71142578125
568,2469.8674,156.28613,-272.23862,709.84937,-13.889722,559.42224,2996.46704101563
569,-1286.7063,-1571.9374,-897.6469,-252.90144,64.28859,-90.23755,756.571716308594
570,-1783.2343,88.560905,-430.90964,585.67,32.62776,-694.9118,2298.27172851563
571,-117.50617,3949.8015,482.77606,41.244728,-240.39865,-459.71933,3908.23486328125
572,-429.99805,3560.2,24.567753,-1752.7255,358.82187,-747.52466,5058.98046875
573,989.1806,933.0891,819.9798,-2287.8916,-428.98788,1074.1492,4442.87158203125
574,-1875.0198,316.7988,1520.3507,4136.8184,-111.718216,249.08527,7775.21337890625
575,-452.78503,-166.36888,739.5729,5219.6797,254.2186,1261.2839,9373.5693359375
576,-2433.051,-2542.4487,19.337114,-2316.6853,1295.9269,-657.174,5359.98779296875
577,-3246.6216,-1002.0839,-118.898026,1099.888,692.04456,-585.5365,3727.58715820313
578,-297.11914,-3267.3108,-5003.7764,5240.3354,-1399.2902,996.20264,10403.3466796875
579,5158.449,636.3892,4598.116,-8945.583,1644.4926,-447.8265,16340.5703125
580,4410.7188,-5533.938,-4231.3984,-2107.2134,340.4283,412.82678,10090.564453125
