Element Label,S11,S22,S33,S12,S13,S23,Mises
1,7124.2344,-5393.386,-10507.672,3967.6829,341.2543,556.98145,17186.419921875
2,-5692.364,-9354.675,3428.7244,5718.3086,-2013.4666,-2806.881,16245.185546875
3,1745.0643,2291.0725,-15113.041,-943.96356,1256.3724,2261.5063,17789.052734375
4,5946.138,-5673.3477,14916.273,1031.4691,629.3274,3242.5698,18858.072265625
5,-1330.5546,1123.7256,-20006.223,-152.37004,-1842.005,-4618.0264,21791.431640625
6,1995.4735,5531.9937,3006.2585,-3866.9092,437.78003,344.5731,7466.197265625
7,2281.9233,3750.0955,1929.0505,1706.559,-1332.7202,618.4224,4243.92822265625
8,-4850.9326,-2474.6008,8895.546,6459.602,977.6119,-422.269,17044.87890625
9,6061.174,9252.942,-109.92955,-630.6251,-4865.9873,17.734083,11840.361328125
10,97.64198,1242.2009,5472.685,2143.3647,910.177,3086.3918,8300.228515625
11,-1095.3219,3706.8093,-6475.1655,2246.0576,1921.1512,-1225.836,10418.86328125
12,7477.181,1656.0664,4567.412,-3016.2158,816.2694,-1918.9503,8108.80419921875
13,-4411.407,-259.6186,-13145.599,-563.15826,2355.9482,-1376.7518,12372.3564453125
14,3707.8618,-6841.667,-4894.339,5344.217,4217.686,1934.0643,15646.458984375
15,2812.2139,-2428.0808,-2378.5007,709.6932,99.48326,-825.0467,5548.52392578125
16,9119.843,5307.8286,17809.627,2500.995,-7862.41,7991.829,22781.45703125
17,9746.996,10695.701,11295.67,678.4974,164.70047,403.90286,1944.49584960938
18,3975.5413,19556.494,13790.772,1673.2133,1106.4673,14007.689,28051.595703125
19,301.50107,-573.9083,1388.179,444.48334,71.93849,-386.31128,1988.57470703125
20,-9535.005,-15936.46,-7483.4526,2365.7615,-2705.9045,-11742.288,22599.130859375
21,-5431.5283,-1047.1436,-5193.7744,-2162.7893,9043.595,-8355.975,22070.267578125
22,-2258.5986,-1056.8607,-746.8657,-318.41144,-500.6255,-548.49384,1967.58117675781
23,-12272.939,-16145.596,-24544.023,-1266.9323,766.2719,4971.2773,14098.685546875
24,-5887.7954,-6055.1885,-6518.275,-25.352911,-951.6941,-1204.2985,2718.47094726563
25,23071.037,16939.713,44135.656,7545.8003,-4765.9644,-7383.5703,31827.302734375
26,-13812.887,-13813.315,4758.8228,235.85533,-5011.3857,1650.6179,20702.62890625
27,2719.4722,6766.0957,12930.069,2887.6519,-10830.97,-1513.2183,21520.404296875
28,6474.9844,11416.404,14400.096,455.03842,-7437.2793,6609.6025,18592.599609375
29,-3172.5442,3818.9014,35743.496,953.7528,231.71611,785.1394,35999.98046875
30,-3024.9941,16747.97,8283.477,8444.221,-9507.098,151.15169,27935.416015625
31,-8964.526,-1186.2261,12427.63,-2698.9114,-8138.5435,-4053.035,24931.3671875
32,-740.8181,12667.54,21714.852,-2386.3567,-14099.415,5736.2324,33092.67578125
33,11790.519,13687.518,22041.777,1873.0402,-8080.953,4307.907,18744.19140625
34,12749.987,22628.174,32125.564,-1385.2324,-5822.526,2470.0605,20183.201171875
35,6948.7964,12095.806,19217.398,1872.6288,-7338.0005,2665.3613,17528.125
36,11382.01,15387.128,22458.72,9471.618,-16270.767,-7206.553,36242.55078125
37,6511.747,14773.937,23746.744,-2786.3098,-597.88605,-4924.641,17889.36328125
38,19677.246,30743.445,58295.85,3950.995,5811.8623,2361.4426,36761.25390625
39,9237.749,12657.523,23925.69,2950.7563,-7490.688,2498.921,19758.2109375
40,-863.87604,19555.754,36955.438,-2974.1838,4804.2305,-5608.256,35568.83984375
41,-4615.681,11143.741,-27425.021,10122.87,-2226.083,-2799.463,38391.171875
42,-4830.5645,20970.393,28852.85,-1487.0934,-4805.658,-1975.3407,31918.97265625
43,-248.79562,5320.19,39206.7,3517.9404,-758.1074,3283.0269,37936.9140625
44,-2756.2258,-2793.4622,-3286.961,-1889.4667,-8272.054,-293.94458,14714.3935546875
45,1557.608,708.982,2186.2517,297.86945,312.92206,-647.55115,1861.92077636719
46,2315.233,1038.9467,3252.1052,24.71183,172.10637,265.13852,2000.98547363281
47,218.25356,253.33812,1856.7789,-291.49698,-93.790596,-603.91235,2000.98510742188
48,3623.3962,2764.9294,4108.9224,-280.7248,-165.63629,-848.1553,1966.30017089844
49,19537.4,9919.509,29433.938,1361.6671,754.5234,-7994.683,22014.638671875
50,-2184.3787,-2742.0234,170.90443,1665.7612,-1017.38544,-5322.287,10177.4970703125
51,8201.434,2637.6243,24263.049,238.8507,7182.2007,-7663.251,26634.46484375
52,20100.447,14893.38,34166.016,-1718.9841,7908.5063,-4581.9575,23615.1484375
53,18183.771,3082.2644,28058.453,-714.75,-2442.1711,-11192.216,29494.232421875
54,-10160.71,-18220.814,-7495.4497,220.30841,4368.626,-12288.375,24575.677734375
55,19025.834,9385.52,35569.367,-4378.274,1266.3766,3854.8477,25159.640625
56,20243.154,18804.135,31443.656,1162.5042,661.6266,-10930.024,22525.62109375
57,10489.332,2991.118,18332.27,718.2605,2989.1062,-3341.459,15439.912109375
58,-2180.9768,-4361.481,4610.5566,616.2448,-258.0436,-9294.54,18060.8125
59,15560.488,9036.7705,24762.2,2244.2043,4835.498,-10073.201,24019.228515625
60,7005.531,5964.0264,7566.3633,-208.21132,-427.23877,-3895.895,6942.263671875
61,2566.731,354.1066,4223.306,312.12366,2807.3418,-5351.6187,11007.2958984375
62,7209.0947,6340.2983,11764.776,-324.379,-2811.5962,-1541.5292,7525.07958984375
63,5654.1016,8653.285,5508.107,984.2937,-5403.0835,-5525.0215,13839.013671875
64,-5422.6216,-4883.3135,-3743.1003,-230.7938,610.27905,112.520454,1876.42395019531
65,4125.505,3899.2925,7627.908,1180.3143,3285.3083,411.5508,7083.6142578125
66,-9228.44,2832.481,14632.449,5589.5054,11565.082,-2161.918,30594.546875
67,13966.371,21098.656,22794.646,622.1036,9420.741,-2761.9846,18871.671875
68,7915.2197,10650.968,19750.367,-143.28056,7261.454,3911.6597,17869.751953125
69,1565.1788,7694.8677,12097.763,1159.2821,7312.636,-4780.9814,17803.822265625
70,3117.245,13529.129,23482.967,-1434.8259,886.1336,-3320.3364,18781.11328125
71,-1806.1467,9687.668,22373.006,2812.424,12287.63,4370.791,31190.169921875
72,4489.5103,11941.191,21097.973,-191.73746,4424.5674,1382.1548,16497.859375
73,5021.586,15151.89,25874.678,-1793.912,11161.277,3519.498,27326.9765625
74,-734.9723,2344.729,22873.404,-1189.7435,2632.4045,-2732.4207,23271.587890625
75,3526.1274,9778.291,15620.784,542.0275,9585.993,-1457.7152,19816.216796875
76,-39.708103,1043.6411,83.85627,-25.27775,3870.513,-202.88104,6791.39599609375
77,-1090.8334,18567.83,27287.51,-1094.5903,4906.251,6719.564,29071.962890625
78,-353.62018,4955.829,5240.865,727.0124,9207.308,-3630.365,18034.208984375
79,-412.89465,95.81116,1944.5076,-301.90506,6304.6924,997.5647,11274.892578125
80,11607.114,19518.521,4497.4766,-10831.175,9547.455,7633.7993,31138.625
81,3238.598,3293.087,5582.335,-920.6021,8260.495,-143.00278,14583.5380859375
82,-12068.16,-7659.1406,-5983.5244,-1071.9647,7732.1035,-1322.1968,14754.08984375
83,-7441.6953,8306.13,4826.8784,5025.395,6251.718,-1470.8789,20120.0078125
84,-1400.1606,-716.18567,1198.9,-1150.9849,5646.767,-2927.5913,11436.3388671875
85,3250.6165,2006.8885,3243.4001,-923.32025,4028.8958,780.03595,7390.32275390625
86,3793.158,4036.845,4432.289,-9.705087,1084.7457,105.74967,1968.74975585938
87,-2986.0493,-1108.8837,-1832.1448,-293.3537,-332.21045,-392.6021,1934.12670898438
88,21453.14,24288.473,42005.85,70.26609,1769.0376,-102.47484,19534.9453125
89,2992.5747,780.6366,8655.261,-2567.2627,719.6221,5971.3174,13333.4228515625
90,24607.143,16062.704,34552.992,-798.0091,-6443.162,12475.0205,29158.890625
91,17176.2,10523.7,19775.115,-721.63116,2079.4897,11207.68,21439.93359375
92,13977.946,7126.5654,19784.215,10041.352,14788.955,11019.542,37991.47265625
93,16013.513,-8453.164,8224.021,-2042.8254,1142.2959,14676.545,33635.51953125
94,17133.607,2696.469,34523.605,5540.644,8117.2812,7425.924,34887.03125
95,23246.12,13182.986,45430.68,-5031.0,6592.2065,6965.1836,34183.5234375
96,16095.441,3687.7363,29139.736,-5328.188,7834.549,8109.361,30863.390625
97,-3662.1018,-12520.428,1039.1985,3718.623,-11282.211,6775.017,26519.232421875
98,-1031.1934,-2847.768,-974.88464,320.35425,-192.66379,197.23396,1985.2822265625
99,4136.7563,5404.7363,5549.1064,-625.48914,426.65536,224.61537,1919.07397460938
100,-18948.5,-7340.7275,-4515.5874,-3774.661,-15354.914,-3445.7659,31003.21875
101,590.62286,7004.1577,19428.22,4073.3655,395.63074,-3706.518,19147.6953125
102,-5433.8643,-3687.5518,-7392.0664,-2016.8766,-10384.6,5627.908,21001.1171875
103,-31.086576,-1872.3674,-996.6166,13.4907875,5157.099,-2761.324,10257.048828125
104,2466.68,490.31512,15644.109,296.7768,10026.732,-1256.6161,22587.64453125
105,6782.661,3617.0623,14055.492,-901.2705,-797.46436,-7024.7515,15437.748046875
106,-709.43524,20121.898,25889.832,-8389.382,-5578.1074,3516.9282,30478.921875
107,7401.296,318.931,10168.342,1743.4075,-7220.141,1686.0785,15857.2373046875
108,16552.889,16639.055,30308.627,-4152.3643,-6317.8315,-8126.449,23614.220703125
109,2375.135,8428.218,32584.271,-9296.699,-4394.44,-5010.84,34042.88671875
110,11830.404,15286.392,23503.64,2341.8484,-8017.0312,2906.2532,18506.1015625
111,-1322.7264,14084.303,31518.678,-7320.7236,-3375.9392,4023.7761,32457.482421875
112,-12415.038,2519.5015,1305.6874,-77.61549,-2478.6738,1459.8071,15206.20703125
113,-532.85034,11094.055,12365.178,3645.291,-13895.701,-10958.111,33629.6953125
114,-2078.1555,-5791.2573,10691.583,1202.4121,-2192.0159,5201.5273,18005.236328125
115,10616.508,-169.19363,7198.7153,6769.108,14689.047,3251.5708,30126.96875
116,-3959.863,-5333.477,11989.258,-627.2933,-626.1741,-75.70418,16749.421875
117,-3532.3943,-570.1065,6702.165,-1533.9523,8294.505,-2045.7463,17584.490234375
118,6153.2974,12959.368,26253.016,1173.8246,13869.0,4.5120864,29911.576171875
119,893.3997,21257.643,24831.848,4657.1323,-409.3829,3395.2844,24503.400390625
120,-2896.6157,18037.871,32522.969,-207.78145,-11403.123,-5118.4634,37684.5859375
121,4926.0483,5071.382,5350.9106,-227.62643,1647.0104,700.96674,3147.58911132813
122,-1327.657,-787.23285,-680.7766,361.6232,1790.6831,-409.29037,3297.79174804688
123,4265.637,4729.9253,5340.9463,234.29344,884.9607,-419.7231,1978.69885253906
124,2173.901,1946.184,3338.0166,-1034.8876,7235.1,43.840645,12725.2060546875
125,3398.5603,18658.752,42477.64,2570.6228,-4851.566,-744.70233,35437.1953125
126,3769.7273,10510.908,18334.898,-607.72296,-8134.5723,-2610.1084,19479.759765625
127,9453.769,17097.166,24850.764,-1074.6543,-6043.119,-2482.7065,17587.427734375
128,3919.2837,4057.1912,4078.4258,131.25893,1068.2314,173.47992,1894.12915039063
129,6413.44,16491.693,25786.375,2407.1733,-2338.226,-1644.8236,17987.166015625
130,2814.4885,3302.5493,3594.0164,-99.917984,4093.8228,1070.1737,7362.6982421875
131,-1397.4221,-3958.8257,3562.6436,1043.5532,651.0039,-8021.7583,15538.7265625
132,6711.8794,5934.841,8787.936,-675.1571,-1634.9106,-9170.469,16376.98828125
133,7991.1914,7344.02,19671.576,2409.6233,5368.178,3747.7722,17041.646484375
134,-5559.0186,-3097.8337,17465.102,-242.795,431.30597,13041.713,31472.125
135,11364.276,7518.0405,21350.414,3507.5654,-7949.5874,7614.0747,23523.28125
136,9459.509,1387.223,19274.701,2313.0156,834.32404,15947.15,31965.669921875
137,5087.81,-608.37775,14238.97,-2066.5576,3052.707,8813.472,21026.599609375
138,12067.281,2395.9465,15821.827,-1941.666,-8891.803,11606.28,28223.44140625
139,5250.799,-9054.383,10207.28,-301.74664,7002.4473,-14504.266,32842.12890625
140,6019.6094,5523.8926,16485.836,-477.84042,2494.8066,-8569.236,18831.58203125
141,-1883.2811,-2738.1555,-1069.7549,-159.73178,34.311695,611.8959,1814.22778320313
142,8676.463,11937.297,-210.03531,9999.825,-5224.24,8535.708,26814.6015625
143,5610.2207,4911.05,6038.1943,-212.19623,541.1262,523.2314,1675.13464355469
144,-4102.5166,-4934.0674,-3499.4724,-185.14523,187.17253,-484.94193,1571.63732910156
145,2836.9656,2981.6658,3439.9255,-60.921234,4193.2397,-594.0149,7356.4072265625
146,1681.637,2064.6687,2065.904,421.67468,5457.1694,-348.08307,9507.1650390625
147,3119.8938,5994.8936,8441.068,3380.5288,9731.091,846.97925,18487.849609375
148,7225.285,14767.777,20750.826,-1613.5074,8682.211,-1549.2025,19467.044921875
149,4481.661,9314.79,20890.016,-454.33197,6489.2134,1589.4845,18649.875
150,-3236.217,-466.4168,1569.5437,1491.0596,10019.75,-880.0477,18100.705078125
151,-2765.1592,5786.3833,16539.322,-1915.8768,13739.849,3778.2297,30014.9296875
152,-2493.2427,18386.516,6899.5522,-9172.769,-12850.351,-7860.532,35514.0390625
153,22041.115,20981.496,46431.42,-745.5786,11057.654,-6966.9546,33703.89453125
154,11548.364,2263.9585,23765.953,-317.60764,-2525.9517,-3514.9717,20134.83984375
155,-4128.221,-472.03683,32842.75,-3140.342,4342.669,5455.576,37689.51171875
156,-2811.1162,-4634.472,3613.1726,263.45898,-1663.8513,-3303.4482,9877.3291015625
157,9418.412,6143.3267,16890.83,-1316.011,-5203.007,-8662.85,20064.40625
158,10811.102,12109.824,20172.973,2553.3586,-7509.4126,5459.4634,18850.0078125
159,6301.657,14156.982,27775.072,-766.7408,-6871.4766,1874.25,22540.779296875
160,-7758.3174,3442.778,9714.09,1485.1913,-7655.2676,-1128.5471,20525.27734375
161,5363.011,12862.813,23490.682,410.16888,-5791.2046,723.4454,18750.853515625
162,7601.7637,18381.787,28924.127,-784.6292,-955.6145,324.97195,18598.3828125
163,1553.9454,9885.461,19513.121,1834.6897,-15653.017,-1356.2386,31511.68359375
164,18466.633,18498.932,26574.52,350.62326,7772.3887,-7732.541,20650.724609375
165,-5005.6016,13561.023,13115.719,-982.5126,11416.589,6925.5,29571.087890625
166,8062.8994,929.41406,8821.693,-1150.5872,-4983.9243,9920.546,20751.3125
167,14012.38,19833.027,38472.89,-913.4874,1746.2032,6573.8203,25122.041015625
168,9684.398,7237.904,20537.088,-2120.753,3790.5464,8929.303,21121.365234375
169,18994.572,-3626.4363,5839.73,-4767.4604,4149.0273,1530.8462,22672.537109375
170,-3190.8457,-7226.6177,7547.6826,1461.7104,3387.4453,6804.349,18832.7734375
171,7288.8174,6656.0986,8316.087,452.11868,349.62234,75.92767,1761.48364257813
172,13071.418,11260.464,15441.887,-77.076294,-1436.3401,-6582.7056,12222.7060546875
173,7302.0464,-4551.997,20609.24,-1361.9978,-7275.2197,-10217.4375,30868.810546875
174,15077.198,8747.67,22758.283,1647.0441,-592.95184,-10291.645,21785.923828125
175,11980.956,-2293.5093,34461.18,2317.4934,1084.3195,6608.602,34360.9453125
176,25330.418,12518.41,35941.258,-342.8507,2928.8962,7633.3164,24770.4296875
177,3256.4438,-3034.045,17049.828,2143.8792,1610.5514,-2521.2083,18900.650390625
178,20812.12,14406.262,30226.025,2801.7334,3443.3738,-11059.478,24819.6796875
179,6861.1304,-1496.9836,18580.695,-557.3858,-718.131,-8928.8125,23383.970703125
180,1133.6398,4606.1436,-8939.365,-2591.5193,-5854.9824,-1239.4272,16616.29296875
181,12391.42,16925.117,19570.365,-1360.7499,7680.9116,-134.95662,14904.4716796875
182,9693.352,4014.0288,13640.433,422.38864,-266.70996,-8156.4316,16449.3671875
183,905.503,-3143.8582,22567.682,-1634.5443,4186.335,-14773.059,35898.28125
184,17767.404,8237.965,36515.836,2362.103,2554.9492,-16673.71,38617.81640625
185,-10123.29,-4092.8083,-11165.82,1475.7527,-8343.717,16748.389,33176.08203125
186,13160.894,-4828.49,26982.514,-4970.421,123.594444,-11210.493,34849.44921875
187,9365.935,19159.479,30400.844,3230.8574,-1413.2893,-10670.333,26669.271484375
188,-707.4737,11301.783,26862.623,5129.273,-12715.145,2319.8247,33960.76953125
189,8570.103,5044.171,-19745.75,-6255.998,1773.1929,1425.2026,29108.73828125
190,724.11554,-457.60562,1664.4374,-21.618687,-1.126555,451.17206,2000.98547363281
191,2908.0898,2407.9294,3972.298,-431.8284,-433.53287,350.75555,1845.89880371094
192,4302.221,17674.896,47734.06,-1390.6904,1479.7891,-5620.9985,39893.75
193,22939.984,19325.834,52273.473,11632.598,1832.2534,1263.0818,37421.12890625
194,2755.4084,-4478.345,-9830.405,2924.7556,-7976.858,710.24927,18378.083984375
195,4128.8267,-4366.7246,13628.135,3939.7231,-8018.0986,-6474.07,24663.490234375
196,-706.6113,6948.0566,15926.656,1880.6923,-8541.335,9046.169,26132.568359375
197,-11070.344,1301.2941,13731.932,7272.723,-5842.8823,-6174.3447,28927.986328125
198,-7469.3574,-1122.8727,17445.283,-22.980282,-5946.876,-5984.308,26766.21484375
199,31444.025,27089.205,50652.867,-120.320885,-10223.123,4203.9375,28951.58984375
200,189.21585,-18715.352,15008.743,3347.2866,-11574.218,-452.09927,35962.0859375
201,-8322.548,5612.75,11417.413,11592.966,-5461.039,3165.0134,28835.52734375
202,16395.395,24502.06,33814.586,-1497.8964,-10359.813,3275.9817,24266.0078125
203,-2033.3788,23048.13,656.6874,3949.6052,-7938.7817,3441.19,28986.9609375
204,-29844.72,-24173.16,-31779.62,-5174.4146,-14663.676,5925.54,29624.5546875
205,-16676.295,2817.9375,-5616.8906,68.53838,-2615.17,-2286.6033,17971.033203125
206,10580.952,19181.617,41367.734,-4280.101,-5797.2095,-733.1766,30239.11328125
207,16885.42,21514.322,33589.43,-3948.5637,-5747.3413,-6733.3125,22472.453125
208,-18681.66,-4641.568,2594.1526,-8880.038,6646.046,9579.803,31550.958984375
209,1738.9506,19230.762,27700.412,-4118.9937,-7308.6157,-1754.4232,27317.171875
210,29124.818,40797.73,62156.02,-975.8402,-3537.0583,-3260.3386,30232.853515625
211,9811.424,10628.557,27322.32,102.983635,7869.7246,8987.859,26854.51171875
212,-15424.689,-8667.7295,-2014.3762,285.29187,5177.6113,-5673.405,17666.62890625
213,19184.691,27225.518,47553.992,1278.716,4599.41,-3150.8687,27193.978515625
214,-1945.5399,830.8471,1347.6509,-192.16388,4420.0366,-1733.554,8783.3271484375
215,466.4726,643.0631,580.2257,94.09866,-831.36786,-494.72388,1690.67224121094
216,13462.306,5411.248,15856.165,-1772.1272,-4730.483,-7464.6133,18263.029296875
217,1927.3486,1853.1863,3250.008,-485.2385,-277.2842,371.4764,1789.98120117188
218,267.78888,1500.2427,2347.5125,237.93517,136.6739,-407.0357,2000.98522949219
219,-3363.2708,-3011.4597,-2801.7393,-600.9054,-356.61572,611.275,1681.45568847656
220,-1293.3488,-1136.022,-315.19186,-251.95529,345.49426,-935.9036,2000.9853515625
221,20575.76,14675.176,28453.436,-1467.8132,4330.251,11644.104,24755.396484375
222,32791.223,13371.756,26987.207,-6993.525,5690.922,-12666.167,31988.666015625
223,14406.182,6046.944,23924.684,8247.46,-3427.5806,10255.059,28193.111328125
224,5195.675,4950.11,16063.893,-2915.5396,-10519.348,3229.5608,22574.51171875
225,2380.8623,-392.49695,14427.31,1435.1409,3320.6277,12638.378,26545.46875
226,11524.54,10494.719,18589.178,2902.0376,-7891.3906,7488.4834,20941.935546875
227,6250.8423,-6089.5464,25505.965,8829.747,4433.994,2981.7073,32866.49609375
228,13015.055,6481.808,23159.111,-1299.9371,11027.345,5581.9116,25984.775390625
229,10732.373,7282.182,13987.036,-556.5935,-703.76,11391.528,20626.2421875
230,3981.527,3864.1055,4235.217,-140.92786,-117.744835,1955.6003,3417.92724609375
231,9350.132,3014.6184,30538.502,-1500.3497,-7286.8325,7368.3027,30858.509765625
232,10572.675,4480.291,30748.652,-5165.5312,9028.158,-3976.172,30644.8671875
233,3609.0168,-564.08496,8113.127,-47.209587,-1061.6483,5778.9014,12651.9951171875
234,9335.094,5106.636,14984.24,-1251.7731,6799.3257,7145.4604,19241.77734375
235,23397.918,4393.3564,20577.639,-13744.298,7187.5186,2785.3552,32565.353515625
236,18958.557,12140.763,25181.1,98.710495,-3588.2668,6689.448,17335.763671875
237,1352.863,1458.6677,2477.2188,-931.0812,253.91953,133.3821,2000.9853515625
238,-7802.3906,16289.135,3071.4927,-2898.9583,-6217.6396,-7781.971,27559.767578125
239,-4121.3115,25314.379,23136.924,143.00432,12062.465,-659.16296,35284.27734375
240,-3489.6567,25213.13,12637.265,5991.835,13159.342,-1638.331,35444.37109375
241,10559.434,19785.38,48649.125,-8958.778,2162.5828,-2821.578,38252.09375
242,12298.741,11618.826,44857.887,2031.9314,8521.22,-238.65108,36236.5625
243,2114.8765,24102.703,36117.316,1680.8895,9853.84,352.6961,34527.30078125
244,26099.31,35734.34,60202.938,-1263.9515,4197.1353,-6516.353,33351.625
245,17999.541,19117.465,25538.002,11254.241,4196.5923,-16699.998,36319.80859375
246,-11395.693,10958.281,2435.8818,13597.665,7728.811,-8953.402,36826.69140625
247,-956.6454,23305.137,24888.1,-252.894,14441.126,-4082.585,36130.015625
248,2210.639,7238.498,-28260.008,-869.67126,-1610.7358,-1675.3944,33547.20703125
249,-488.6586,16834.229,-5809.501,5409.666,14100.367,5745.895,34696.78125
250,-1303.8175,12890.746,25949.1,5195.2925,2888.8335,11421.368,32476.392578125
251,-3535.1953,13949.107,18053.64,-360.85007,-1869.2699,301.36313,20136.001953125
252,-13566.755,9291.528,175.46693,-555.71814,-3716.6536,1180.8905,21066.0078125
253,10692.712,12023.724,40179.844,3719.0554,5219.0137,4292.464,31788.345703125
254,8575.031,14452.097,28358.281,-1341.8636,7298.9136,3387.4268,22567.623046875
255,-7654.1733,17480.979,1507.9852,-469.5532,5308.347,-7675.7285,27338.18359375
256,-7869.3354,9261.084,14183.569,5757.666,6676.567,218.99907,25205.79296875
257,14404.2295,20528.145,36553.35,-4537.1147,9981.294,-1936.114,27646.466796875
258,4464.562,3074.1846,-2359.168,-2723.6533,-2605.0645,-7487.4414,15805.3212890625
259,14672.406,25157.96,52426.023,2307.201,2691.6033,-3178.304,34748.0
260,12515.144,22641.703,48893.266,-1925.9319,3363.5654,4657.9233,34171.43359375
261,4092.4646,5559.283,-25033.275,5239.134,-2314.021,3819.4946,32176.974609375
262,17569.86,24860.635,38608.914,1912.1748,6898.952,5681.9565,24351.91796875
263,-4912.815,-1357.566,-23858.484,6484.373,2151.4956,-1040.7397,24129.07421875
264,5842.665,10723.134,12075.268,-8380.106,-6368.8755,9127.576,24790.12890625
265,-4123.428,-6802.8364,-19297.807,932.2971,223.0594,686.7531,14175.8359375
266,27052.059,-4359.856,-6963.075,-5107.7773,2187.3735,-213.93939,34176.2578125
267,7452.376,-6247.996,22534.266,783.4383,1222.2833,-11654.078,32180.2265625
268,14701.984,209.59329,11920.501,7215.3613,-5355.6895,-4528.5635,21936.587890625
269,-18220.572,-1804.2556,-35251.938,-12022.326,2586.8396,-690.16797,35975.94140625
270,2524.7278,-2886.3672,32544.977,8378.555,3398.8813,1365.4257,36657.72265625
271,7334.328,12513.766,45588.824,-2528.9182,-7098.7793,-1326.3004,38311.06640625
272,8742.425,-3866.4045,-23836.434,3158.951,-13841.808,-5396.7197,38751.52734375
273,12471.649,828.7264,22658.32,5978.0776,-1258.5986,-1299.2249,21793.505859375
274,-10042.815,7070.827,-23035.166,-2639.4956,-6319.7856,905.051,28761.11328125
275,11838.216,1960.6029,33113.906,-3623.0732,-1259.6038,-6533.003,30537.771484375
276,12665.545,-5639.5,21140.623,1431.4407,-1404.1005,-5237.1646,25619.982421875
277,20392.117,-8931.378,12632.153,-982.1119,981.0711,-9840.131,31445.203125
278,5149.009,6288.929,-21962.482,6741.4155,-1577.5133,-3154.4282,30674.0
279,10297.777,-56.282967,7814.3364,1444.4304,2423.8218,-343.7065,10578.21484375
280,18452.908,22590.207,39757.37,-821.45123,-8990.496,6102.093,27185.888671875
281,12799.147,24107.219,1189.5234,6533.9395,7784.2246,6205.437,28623.76953125
282,27871.479,17449.785,45142.8,-7372.446,-4307.511,7901.1304,31510.521484375
283,-11419.825,-10113.558,696.5388,-1917.8019,-15379.968,-8011.9717,32340.7578125
284,-5410.0474,-12027.049,-28743.252,9883.889,6273.174,-3478.803,29686.115234375
285,-8518.61,1550.9834,-36642.188,4425.132,1328.8395,-6501.642,36964.60546875
286,-6303.8667,-21.054232,-26994.121,8849.939,-3351.4595,7298.1255,32031.271484375
287,-2671.3774,-8917.098,-42824.46,-1628.123,1946.6613,-844.23987,37708.796875
288,-5237.155,6268.676,-36310.633,1961.6735,2163.695,5578.206,39678.83203125
289,2950.4028,11668.783,-23731.441,2968.6182,1310.5002,5770.56,33941.7421875
290,19139.71,972.10394,41249.996,-2624.4817,-8087.764,-4726.6553,38788.4140625
291,33144.926,217.37715,24274.62,-3054.8918,2738.5073,11629.799,36429.11328125
292,-1972.4323,-21769.22,-1403.9435,3611.0544,8238.69,10197.278,30954.66015625
293,11950.522,12871.74,30617.027,2803.6772,-10850.933,1882.3804,26824.080078125
294,-15509.329,-10771.293,-14642.149,-18.13357,-12341.693,-795.0749,21861.880859375
295,1237.3779,-2489.7483,16692.186,-4427.228,-12976.794,-302.66278,29573.837890625
296,2826.8538,18096.443,20753.88,5058.463,-13071.274,1928.866,29686.708984375
297,4232.474,10003.282,26983.066,1238.0043,3842.007,-11871.093,29853.841796875
298,-245.92848,18539.832,24926.371,-8753.371,-686.62897,202.55176,27295.982421875
299,-864.94635,23651.416,-7391.37,-7022.892,2939.946,7233.4453,33682.51171875
300,6104.78,16845.785,45679.01,-901.41864,7180.478,3225.9883,38009.9765625
301,8885.273,12712.085,47147.312,-3042.6836,4383.348,-973.5924,37689.05859375
302,-12198.214,10132.387,24526.625,-3.928381,4436.5596,-2310.9832,33201.69921875
303,-234.26451,93.84953,-20726.83,614.268,568.24963,-2286.8447,21084.74609375
304,397.19183,329.82892,681.3363,-99.01589,-799.91,320.7894,1536.91711425781
305,-13902.284,-3426.0515,18742.068,-5728.9565,-3947.3901,-1429.0182,31380.728515625
306,-25558.549,-30909.445,-26439.43,3443.9802,-2648.024,-15983.083,29115.125
307,7401.361,830.6806,14397.001,-1041.3793,1398.8667,12621.784,25002.623046875
308,29854.248,6428.1665,42895.082,-3756.0518,7712.4985,-2116.5007,35476.05859375
309,25168.066,7708.1836,43331.234,-1109.2664,2476.8103,-4177.615,32036.34765625
310,25294.127,7438.1826,46488.258,3954.4797,-4309.836,-2319.6494,35570.31640625
311,13724.428,9330.151,44215.902,2770.687,-3423.6453,-6731.2085,35737.2265625
312,1176.7567,1227.7196,-22885.54,998.0243,11888.78,-10580.606,36648.16796875
313,31104.162,18956.889,15084.911,-4369.1436,1280.59,-3193.6492,17388.748046875
314,-273.42386,808.08685,-2346.2463,-4448.1772,4235.53,-972.45807,11123.0859375
315,15901.861,14267.51,21024.045,-1818.572,1877.2465,6333.4927,13345.87890625
316,13604.184,3350.0881,4319.8384,-14132.566,8268.998,-5611.532,31542.48046875
317,8957.652,1365.4033,-3408.3083,-8269.559,502.81967,4921.8564,19881.224609375
318,15555.647,9254.452,9123.431,6990.0684,-1613.2865,7438.1523,18997.826171875
319,-5181.8384,6293.2593,14944.339,-1395.3622,-1485.5557,1933.8923,18151.37890625
320,306.7684,-11718.13,-23858.59,-15742.034,-8699.079,46.894295,37529.19140625
321,4854.9136,15803.78,-19226.248,-4717.7524,-5861.6055,-9495.628,37467.17578125
322,-3288.9878,-1959.6249,-7209.5083,7276.0903,-6437.4507,-7473.2334,21749.572265625
323,-22972.52,-9273.23,-5095.81,-8366.244,11814.919,-10546.148,34996.7421875
324,-402.37448,7336.9067,27690.87,5427.501,10392.246,8316.98,35377.8359375
325,11657.396,17219.37,34496.957,-5471.8843,-8090.5317,-3262.494,27270.392578125
326,11672.365,18081.195,35568.543,343.52744,-140.3439,10550.833,28166.064453125
327,3493.053,13775.591,18777.918,5191.8403,-8520.005,5200.6704,23705.873046875
328,5388.682,5095.762,5801.428,-697.5808,621.23145,-103.70156,1739.81823730469
329,6554.734,7045.5513,6826.246,-17.206303,-918.6059,-569.65173,1920.22534179688
330,2272.444,2819.4363,4050.8694,-586.2384,-267.63882,255.99059,1982.857421875
331,-2953.7976,-3721.6746,-2641.9448,-151.47362,-38.869595,922.9387,1885.51440429688
332,4990.1226,4490.902,6195.504,-487.15985,425.05463,-367.40408,1990.69409179688
333,5047.7,6054.1846,12683.475,-3434.9646,14550.088,-3010.4229,27373.943359375
334,31161.578,50047.316,67273.445,1979.3026,-2874.3242,6272.534,33664.68359375
335,13258.466,15910.439,33449.105,-17389.666,8812.71,-1466.6582,38830.3515625
336,7824.677,-11732.268,-26897.55,2968.4563,-10808.93,5997.161,37334.6796875
337,17135.277,19809.125,52365.855,-2586.006,-8688.332,2393.5588,37654.390625
338,-3165.658,6946.01,-11296.121,-2569.5286,4543.5405,11172.839,26585.681640625
339,23035.975,12351.874,23932.457,1648.8779,-13430.632,-4698.8623,27204.259765625
340,-15883.234,18546.182,-14507.045,2342.4636,-1061.0359,517.3894,34066.6875
341,945.9391,17179.678,-8936.099,221.16435,6895.342,-12877.931,34086.92578125
342,2234.5159,17115.154,23398.348,-1623.5709,3606.3877,-6996.707,23413.62109375
343,39059.023,16260.843,52424.03,648.6955,-1580.3335,-5501.0117,33205.66796875
344,18866.965,4618.5015,26761.46,7049.9473,9378.13,4567.116,29212.2421875
345,11408.721,9964.982,-11084.504,-422.14197,2391.831,-14985.046,34160.0234375
346,2317.2004,701.86755,4950.443,-755.0653,3495.591,6474.428,13338.640625
347,12957.259,198.15207,26326.713,3078.848,2506.0427,11064.004,30440.673828125
348,3344.6226,12843.523,27449.592,4090.0422,5441.2896,5161.7246,25714.7109375
349,6166.6074,-447.99976,8702.435,-3035.0908,1141.0133,5107.1377,13294.6064453125
350,-9480.126,6284.474,-1368.9263,-15537.853,-1805.8534,8597.36,33797.1328125
351,3013.2974,6934.0034,868.6076,1945.4061,-2539.7493,-10840.296,20288.44921875
352,-685.8604,337.27362,-2712.7964,-2159.115,1133.725,62.02708,5008.1904296875
353,22453.205,8113.045,46597.99,6814.6895,1600.8641,-1121.5598,35855.72265625
354,22755.31,16724.105,8655.48,20525.107,561.1785,2119.3196,37794.1953125
355,17563.941,6279.0015,1735.8278,5310.4385,-4297.4814,-19055.406,37796.7265625
356,11907.485,5024.652,22838.771,-5355.091,8315.618,9695.921,28593.998046875
357,15648.435,-2610.2622,14835.49,-3851.3909,-1542.685,1765.56,19498.421875
358,-14866.343,7738.0283,-32227.918,6848.971,-1618.4993,4523.368,37613.76953125
359,20109.053,14222.497,6915.719,-264.40308,-6971.7705,-16222.545,32658.71484375
360,10867.91,80.218414,19498.918,768.0557,694.70245,4202.0674,18443.61328125
361,8732.435,24575.365,20693.205,-1528.167,6916.7046,13645.143,30226.857421875
362,4034.6248,10783.254,7325.582,3847.3035,9613.056,17262.008,35351.5703125
363,8277.549,15388.379,8002.628,1234.6261,-5511.521,1371.8702,12407.416015625
364,1237.7609,1331.5581,6416.354,1253.35,2845.9783,655.48315,7526.041015625
365,137.18004,1316.1221,956.844,495.42035,-801.9218,94.742004,1946.25415039063
366,1789.6493,-3830.9001,-1841.546,-1005.8129,-1287.5309,-1314.0579,6128.23583984375
367,1740.4257,-818.0754,73.66914,353.4735,-117.19205,107.608665,2347.41943359375
368,-4597.589,2.7398405,-1403.1799,509.8798,-777.7928,-1123.0189,4801.06982421875
369,-3278.2769,-6828.1255,-10851.586,-6745.097,1946.2621,894.74774,13904.203125
370,-995.2973,1550.5752,1544.8652,521.8145,1579.9667,-235.97844,3865.20043945313
371,-9579.979,-10714.343,2123.499,4258.9155,1192.6409,7276.047,19210.388671875
372,-3917.4937,-22708.28,2789.7834,-1433.0955,3798.0027,-2609.4624,24371.701171875
373,1148.4832,-10429.01,2037.4672,2245.8435,-3330.2527,1251.618,14079.193359375
374,7185.7144,-5095.2793,-3339.4888,328.94974,2635.747,-2416.2935,13077.625
375,1661.9883,-3977.269,1628.7078,-1533.6001,-3973.8584,1665.6006,9714.3076171875
376,2079.3499,1982.501,2430.085,-238.00449,1224.5317,-375.94476,2293.19409179688
377,-2093.913,1106.0037,-906.98303,-17.850851,86.89683,-133.78925,2815.58178710938
378,1428.2926,-1627.3334,419.7974,1067.9083,-14.16475,-130.63144,3278.01904296875
379,-1266.2369,-2469.555,-553.7812,-932.6653,28.726984,-54.72803,2331.07983398438
380,-2068.2202,-337.72928,-610.5156,-258.32684,895.11566,320.21292,2347.01098632813
381,2574.5051,9355.372,7904.7827,338.72745,4668.86,1282.0597,10436.3837890625
382,-920.683,-4676.749,-1715.2433,1369.4705,-1401.0675,-977.1433,5112.208984375
383,687.6137,1146.0369,395.41992,666.1873,31.206924,-40.495544,1329.93811035156
384,-2065.3423,115.62913,-701.02795,1030.8387,506.03888,39.413837,2757.39575195313
385,2085.0366,369.61707,4549.4497,-464.24466,2359.3647,-1440.669,6067.65673828125
386,5023.91,-2841.9084,-3051.848,1832.1104,3074.2795,405.98822,10123.4619140625
387,3207.5835,-1877.6798,1553.9178,2127.0598,-1533.3024,2520.0154,7737.10693359375
388,894.97797,-1621.8057,4303.4385,-1075.8628,-973.5172,-1292.354,6152.7509765625
389,2669.7393,2349.6316,3532.839,2908.3896,2111.1492,-496.16046,6372.53955078125
390,-739.8313,-990.3158,-162.2053,813.28656,243.82391,142.70909,1662.77880859375
391,3626.3083,6131.2656,4790.162,1801.4111,1709.6033,3630.2734,7921.748046875
392,-653.41656,-557.1779,-921.8277,-1877.8231,-261.60977,-3009.312,6169.197265625
393,-5354.2695,16586.287,8351.66,-4738.985,2286.015,2006.2263,21532.560546875
394,-21530.164,-25071.455,-41787.863,-2235.4143,-3652.912,-122.70564,20155.505859375
395,25561.633,18544.084,20736.89,-14925.873,-2662.6787,-5559.159,28652.986328125
396,-1442.5138,-114.131836,-542.6333,-1189.9376,48.275467,28.878506,2374.09912109375
397,-699.5504,-7143.7217,-1610.7136,-4232.458,3284.1013,-335.98026,11087.0
398,6703.9683,-15157.107,4487.482,-6231.6904,-2681.543,10002.292,29539.3984375
399,2329.2114,-1902.2554,-2935.6863,-3364.075,2137.277,-195.80571,8433.0361328125
400,3665.3945,-22916.977,-5711.1245,-2849.8887,2775.9275,-1249.0754,24442.890625
401,-5462.6094,2707.9536,12751.947,-2335.8557,3587.7964,2050.936,17813.18359375
402,1090.4642,3177.9526,9900.651,-2669.382,3543.0212,1400.6455,11336.095703125
403,10379.646,14511.074,15756.665,4784.321,-366.84442,1042.7821,9803.12890625
404,5011.6216,-4190.239,1874.6437,1892.9791,-1113.0139,-472.9007,8988.1171875
405,7352.7188,-674.6683,-2346.3953,-424.79877,-1290.1204,1589.6788,9683.44140625
406,460.57416,1461.0482,-858.5513,-3906.0645,-993.54755,1708.4465,7845.41845703125
407,-4450.4956,3304.6375,1565.5989,7.1743374,136.22293,148.58739,7057.0478515625
408,-1597.4755,4788.575,386.47806,-915.0445,2290.3938,53.781643,7092.70068359375
409,165.89316,-176.7143,-1409.5815,261.61478,-2053.0647,-498.24265,3956.64233398438
410,787.6352,-2173.249,-3611.1038,-1670.3372,484.46738,459.18307,4979.79248046875
411,1208.5409,-296.03925,-2222.6685,1196.5054,1409.3046,2543.3633,6207.56103515625
412,-1276.4066,-5146.296,-852.62665,-1321.6028,-2059.3442,2594.5476,7413.04541015625
413,-1533.8312,-7602.8477,2025.2732,-16873.168,306.45636,-11008.195,35903.1328125
414,4787.667,-1626.9839,7449.067,2110.9163,869.67175,1924.8792,9594.5361328125
415,-31488.244,-23524.447,-9688.548,4142.028,-2546.7173,2902.6511,21476.5703125
416,1988.5046,6023.652,-7117.683,1852.8685,-938.5377,4305.4683,14300.453125
417,2621.6897,1262.0408,6021.777,-224.33075,-570.9805,-3073.3247,6891.81884765625
418,-746.4648,-5892.713,2788.6711,-2664.9792,1296.6083,47.121407,9139.4931640625
419,-3157.026,4572.94,1678.0337,-1589.9678,1185.7607,-1665.6326,8116.67431640625
420,2436.7708,2830.7964,951.89996,-2325.1782,1009.02344,1590.8544,5459.9794921875
421,2607.4524,-8514.27,52.89593,-148.73267,-4141.4395,4803.431,14918.015625
422,7571.016,1812.7471,-1581.5502,-2033.2311,-243.08054,-1153.385,8988.572265625
423,4781.186,2188.9863,1949.0059,-1162.9955,4148.207,-690.2611,8031.7548828125
424,118.78931,91.218346,-607.38306,-1435.6837,352.0206,738.4548,2949.46264648438
425,-337.28433,-893.2392,-1340.426,-232.80428,606.03436,193.07796,1460.80163574219
426,16850.191,16474.176,15659.447,1826.1279,-2412.527,-2182.5066,6547.26025390625
427,1441.5228,-547.6619,1278.5793,-1271.7379,-204.74731,-176.70653,2954.77124023438
428,-2010.0518,-289.87823,8343.335,-1327.0814,4778.4575,-1246.2188,13068.49609375
429,-1509.7742,8538.723,-8322.121,2197.689,-3240.8137,1886.7233,16507.921875
430,1224.5114,431.7851,-779.7215,3486.3643,-947.44714,-115.73708,6500.30126953125
431,475.9627,2346.6821,277.78,-896.37744,-629.0612,579.52216,2918.009765625
432,-9009.008,-7643.9287,-23646.984,-3155.3967,-3633.0413,-3169.2588,18322.525390625
433,-2912.092,-1903.4183,-581.716,-364.15298,-2445.5747,54.936604,4737.81298828125
434,-6880.917,-2254.6746,-14066.007,126.08996,-5606.0073,-1373.9265,14361.7646484375
435,5373.0684,-2703.0942,-5560.9575,4909.448,-912.1415,-1119.7207,13230.1826171875
436,1388.6831,-1007.63257,-266.0127,-3557.677,664.5095,1461.4783,7086.52587890625
437,3734.26,-1364.2465,1422.9299,2094.4082,1820.3556,-587.021,6609.6279296875
438,1926.1495,1174.5029,4915.043,-1282.317,2096.9922,-1072.6726,5772.52685546875
439,3649.8013,-520.344,4525.5107,-3396.4636,-3417.9763,1583.2617,9949.0986328125
440,2416.9126,5640.0264,4028.724,-429.9087,1497.8137,604.3461,4021.42407226563
441,-2457.442,-6903.195,-1019.9409,754.13055,-137.38464,-2091.4897,6565.64208984375
442,1655.1434,1494.0822,-2682.1653,-2002.774,-834.7928,-837.0599,5862.21533203125
443,-6564.3037,-10824.627,-4457.182,1401.5933,-3646.5645,-8430.543,17046.265625
444,-125.99115,-3657.3174,-4400.13,-2954.7961,620.91095,-437.74844,6600.68701171875
445,5420.4116,256.04633,513.8332,988.2259,1594.8431,-1973.6284,6903.02783203125
446,-997.03973,1452.3989,407.32425,831.73285,-207.2309,-94.40149,2600.5751953125
447,-2515.8562,-2397.8948,-2647.567,1330.1489,-687.93243,-1699.7897,3929.66870117188
448,-490.90482,-1696.0773,-1008.15894,-2788.129,221.29843,-368.2887,4997.14208984375
449,-4721.0376,-2102.2363,-5905.343,1796.3868,2243.0762,-339.28464,6040.08984375
450,27892.924,12730.498,19923.49,-2012.0078,11320.799,1795.0029,24059.658203125
451,1351.5637,447.82523,1681.7385,-2754.3381,-333.07184,668.215,5065.138671875
452,-2520.5642,-987.27655,-5888.846,-195.50954,-3790.2246,1304.6892,8196.314453125
453,-6564.672,-3266.212,573.5905,-957.7556,411.44232,119.92581,6449.205078125
454,476.50372,395.2344,2582.5486,949.114,-1311.7535,-363.68182,3588.10864257813
455,-5636.101,-311.12637,-1091.0417,3795.8396,2630.5093,749.4349,9512.0703125
456,-7422.31,-506.64786,-5348.0723,-1025.3262,-3197.2014,-669.92596,8541.1181640625
457,-3273.5615,308.65103,-1511.529,-467.696,-907.74286,175.0821,3584.02026367188
458,10425.618,-2358.4143,7408.3594,-3282.5894,-2827.3433,-1152.0703,13937.439453125
459,1873.2206,1610.8159,15264.012,-1381.5371,6904.758,-560.93756,18237.12890625
460,-5376.125,-793.9685,-8347.526,314.2566,-1423.4606,-2748.7827,8513.7080078125
461,-1646.3044,-916.39996,-4425.5234,448.77075,-1135.0674,767.7011,4064.82446289063
462,-1418.4268,2648.357,-1301.7594,471.77405,-743.8873,-18.689007,4290.30810546875
463,741.5236,945.1262,-4404.881,-1687.7081,83.71615,387.9868,6049.169921875
464,6055.845,837.46674,1180.725,-1174.5356,-386.8399,355.42215,5524.90380859375
465,5131.5117,276.8937,1206.9198,-3902.0469,4149.9365,-4147.1543,12994.53125
466,-246.04561,846.52454,-2267.1345,108.255745,-27.179735,-596.64514,2931.21508789063
467,183.06935,-1225.9729,708.7912,389.07465,228.33215,-261.1946,1953.90881347656
468,-6656.3794,-9194.897,-8886.908,-168.08359,4313.3784,-312.98456,7870.92333984375
469,1714.8049,2331.7976,-3262.0872,-2860.536,-870.8608,-2350.918,8463.125
470,2882.1768,1100.9135,1680.1793,-241.87802,-550.5495,71.57003,1891.248046875
471,-3951.291,-3430.4143,-8164.6235,1899.008,-2648.0278,-709.47034,7320.041015625
472,-2497.8914,694.31195,4658.1465,-33.99095,1596.414,-374.6463,6828.29931640625
473,-3807.375,-777.1687,-4389.732,875.31854,-1469.3324,649.9935,4618.31005859375
474,-1129.8269,2133.2056,607.36646,-420.77847,-55.177273,-194.69736,2941.2109375
475,17221.889,10074.0625,8424.478,1185.4731,-998.94354,-2752.05,9774.1767578125
476,-1296.1376,6356.8677,-1997.8938,3412.8315,-4850.6416,-245.37029,13043.7939453125
477,-3094.3782,245.18385,5621.217,714.44806,1668.6714,1854.4865,8843.6455078125
478,-4866.46,43.571358,-7329.075,2601.203,-5075.237,-504.37552,11857.505859375
479,479.87485,3428.4502,1080.0001,-1907.5657,233.87485,349.8107,4328.08837890625
480,-1660.5072,463.54556,-1464.5312,134.89091,-439.69138,-565.7085,2393.40625
481,-1380.4216,-17291.842,-7087.521,3092.334,-971.4666,2319.8303,15575.6181640625
482,222.4745,-572.8217,1704.885,-982.4444,718.2886,-148.01837,2918.58325195313
483,-24575.354,-12862.709,-18497.578,7473.544,6232.421,-73.44974,19673.47265625
484,508.16827,2105.5415,1365.7888,-528.8105,-257.8799,7.5900517,1719.23669433594
485,2115.5227,3383.7874,158.79562,-261.87064,271.6066,460.7977,2997.15966796875
486,2401.4258,-5682.731,-2481.3433,-1760.4708,156.77972,-5.0206327,7687.23193359375
487,3414.4307,-4435.6343,285.06995,-715.2919,-173.79346,139.101,6966.65771484375
488,-224.34242,-1005.5466,-1427.4924,1368.8499,-73.2181,33.32438,2599.73217773438
489,-3138.1562,-3873.5283,-178.36679,3272.6006,327.92508,-213.11998,6638.244140625
490,-1848.1166,-1861.3824,-5096.26,-421.20352,-448.59247,-1459.1106,4246.23095703125
491,-4497.6416,-4123.232,-1843.4115,2177.9272,-405.91907,167.8221,4582.603515625
492,-873.9774,53.816845,-142.8964,-1498.713,-4.553562,182.48416,2748.7041015625
493,-696.2843,492.84045,1096.8374,-75.47419,754.56757,473.38687,2212.36279296875
494,-4091.6897,-4486.89,-2843.303,1064.5873,-212.12772,580.6797,2598.96435546875
495,5259.8955,-491.03662,1171.2216,-702.96875,-4226.817,838.61884,9136.0322265625
496,-6115.5024,-1674.7395,-2468.94,982.41437,-406.05603,-420.36923,4554.60888671875
497,-8081.3813,-4047.3413,-1899.5905,1113.8682,-484.96463,-232.41156,5842.95751953125
498,673.705,823.2212,3638.507,1912.8668,2318.4375,28.717428,5956.02490234375
499,-491.53976,-4417.813,-824.5357,1548.5767,-245.42068,216.4515,4662.037109375
500,458.21213,-4186.2314,474.59003,166.12863,398.08325,207.11946,4725.89599609375
501,1590.7074,299.08905,-125.30482,-1315.5453,233.36575,354.10147,2850.97583007813
502,873.95245,13455.457,12753.764,1431.9608,1324.4003,-5335.1626,15708.716796875
503,-3571.3853,-1258.9474,-1328.1914,694.7421,-868.7487,-34.417984,2984.58837890625
504,-1781.0886,-1051.4325,227.3334,-192.9353,-464.32605,-1022.86255,2645.3564453125
505,1652.4279,-1573.9657,-512.7732,148.80457,-189.11827,-342.31802,2938.90991210938
506,-6895.2544,-18597.283,-22743.19,6708.6636,575.7291,789.95917,18453.359375
507,757.3016,-471.40414,1237.9521,1364.3728,-231.68884,218.13948,2866.99389648438
508,-2314.2695,-1532.0475,-611.6022,-121.06914,-203.46715,366.57272,1658.42700195313
509,-4682.4526,843.21985,817.04913,1618.1764,-883.47314,917.42145,6565.91015625
510,-1111.0916,-807.0324,-2880.5068,2041.6313,-587.2042,163.4838,4169.01318359375
511,-4932.8965,2721.0608,1683.4153,1467.2378,907.86224,-299.75577,7805.013671875
512,1499.8558,2846.2224,2571.5503,-804.29205,-1234.1165,-1449.719,3785.91870117188
513,1407.8883,864.0064,2357.9294,-1354.018,-441.04062,-239.76926,2823.33276367188
514,1680.2578,3525.69,4342.478,-1345.1984,628.0371,-430.20575,3570.33447265625
515,-339.42426,-1332.7454,544.0246,891.707,206.18044,95.36595,2277.0498046875
516,-1154.0682,-2015.1116,-301.3808,850.9189,121.76636,-146.97658,2117.58081054688
517,2888.933,4830.621,5394.627,-1281.6195,356.4308,-476.13443,3342.49365234375
518,-2602.6785,352.801,753.0188,1341.2473,-581.0062,1019.82935,4428.04248046875
519,-561.5343,1770.353,654.8628,-134.57619,-161.03484,188.77713,2078.42700195313
520,2008.783,-1329.7336,198.56166,2642.7449,-1988.8177,-2443.1367,7687.93701171875
521,-720.2008,1644.4637,-509.57416,-133.72417,232.40005,-94.45972,2319.56567382813
522,1675.3506,3044.0466,3071.012,-538.0177,-82.34787,854.78436,2234.20336914063
523,-3043.2842,-4452.953,-1888.6862,-1193.1206,21.937033,-150.3866,3047.58374023438
524,9418.085,14472.803,15885.218,-5909.6836,-8114.0947,5748.0176,20882.822265625
525,-1965.6536,673.9068,5619.481,1309.4705,1451.0294,-222.66408,7489.28955078125
526,-2844.9067,-497.37463,-562.0139,-824.17004,33.817524,-113.673874,2728.24267578125
527,-1880.7949,2955.7764,1633.6399,-1111.1526,1189.5571,-610.08704,5273.669921875
528,640.23376,-726.5994,-1819.6475,-996.67035,156.00247,-169.67876,2774.24584960938
529,-1524.1755,-1374.7164,-957.19977,-422.3699,1370.692,399.0429,2628.373046875
530,-5827.8384,-794.98395,221.66066,-1418.1399,-690.0232,-74.9244,6241.66748046875
531,-7553.735,-3758.5781,-972.11664,86.13856,-186.36934,-480.9,5793.34912109375
532,2374.4724,1029.2261,1916.4109,-223.8915,365.46695,949.7828,2158.8525390625
533,573.0679,3037.9092,2863.6233,1352.9424,70.246025,-65.592674,3345.93798828125
534,-1126.3573,765.39276,1910.5957,1251.138,3.9516487,-239.55695,3453.24389648438
535,-1635.2725,-1781.3558,-1199.132,2977.5105,25.653969,196.86197,5195.2109375
536,-3763.381,838.6685,337.2681,1578.9808,2434.7754,-1878.6344,7414.4814453125
537,-1311.4962,-4873.4854,-421.95776,880.7488,-343.89392,-72.96854,4398.3505859375
538,-162.11969,-2807.6978,556.90314,984.4963,152.41498,253.67477,3548.06298828125
539,-563.6571,-1073.7072,-487.00253,282.41812,-24.693325,-173.83823,798.055786132813
540,806.8842,213.92746,435.33618,33.111534,-153.57254,-41.33078,590.33984375
541,-2099.334,3730.881,443.54248,540.8774,291.89484,-102.292984,5176.55810546875
542,-1374.142,-6.788336,1372.1266,1497.2377,274.57626,326.88312,3595.61181640625
543,-356.3914,2255.7734,2379.0002,669.10767,-159.57878,154.97574,2941.435546875
544,1592.8412,-497.09015,1783.231,1447.3345,-53.340122,-314.22937,3375.06298828125
545,1053.5797,5441.297,252.78212,-1679.7483,-15.182205,204.13818,5656.623046875
546,-3945.3618,55.92002,-2358.715,5094.2656,-883.8095,1350.4558,9891.828125
547,-3667.3164,-2513.5952,142.21825,3087.6162,380.07333,-724.5573,6485.130859375
548,-418.0481,541.8265,-51.832108,-1067.8522,-976.28827,-139.82816,2653.85546875
549,5908.2866,-1366.4019,-2172.005,1842.1644,387.40506,-164.60706,8375.1328125
550,-6444.9927,-574.25256,-2237.0002,-1959.809,-935.2853,1193.8705,6774.33203125
551,4795.2563,-1700.001,-676.3949,-271.7172,367.7608,127.82708,6104.40869140625
552,3530.4631,-1603.4218,253.43698,-2619.4072,444.87442,51.174644,6438.732421875
553,4518.7417,-1710.4658,-752.7309,-2775.3784,68.850075,-71.29869,7542.6787109375
554,-1438.6104,101.39046,-3164.9836,1293.3623,-1686.9342,-264.3067,4666.4501953125
555,2937.8438,680.3581,520.157,33.292408,-67.523125,105.73935,2352.46752929688
556,2194.695,58.96207,-475.66254,578.78125,199.69174,208.59476,2691.49096679688
557,-3377.749,-79.83099,432.3685,-873.1958,728.13904,123.635925,4092.8759765625
558,-3229.4404,-6042.196,-1519.8596,-2330.0818,114.06418,1140.676,5989.42333984375
559,-361.27,2381.1118,844.144,-1720.9076,-236.96495,60.818153,3838.24169921875
560,733.0845,99.48525,323.20807,-2063.634,-512.58466,-321.406,3766.11767578125
561,2037.0138,860.45,1555.699,-870.6434,-199.65144,264.59686,1911.37255859375
562,274.82092,1045.206,252.14058,1219.579,344.73718,54.210632,2332.15478515625
563,1464.5682,924.3326,727.77136,443.88184,-68.52804,101.12922,1035.63659667969
564,-930.9883,-7168.027,373.6672,494.66733,-384.66275,-197.8618,7073.5703125
565,-920.5876,-3758.223,286.07645,637.45105,89.64667,-335.0409,3809.48583984375
566,801.7968,-614.8515,184.41167,-1773.1484,-465.01553,-249.98396,3432.46264648438
567,667.77625,-3063.4219,-1295.1957,-43.482903,24.29054,-220.63907,3256.43188476563
568,71.53365,831.13116,354.9513,-832.14233,-121.83098,-838.3267,2161.55419921875
569,1520.6086,-448.33664,-450.92578,855.68475,62.926373,91.131584,2472.89990234375
570,-844.5259,3157.3276,317.07547,1368.5085,-222.572,-235.04631,4318.37841796875
571,842.538,-556.5908,-9.5615015,-545.6627,-286.51294,-148.97388,1642.41589355469
572,-639.4499,-639.8696,-406.90973,-450.5234,-51.31423,133.17319,850.994384765625
573,1674.0413,-1518.911,464.60358,-571.7831,-153.61203,-21.11177,2974.71704101563
574,660.8541,2111.944,-1256.6432,2543.2551,281.96286,-184.55574,5320.71923828125
575,-2226.639,1933.1346,114.02622,549.9687,227.79239,-110.98812,3761.09228515625
576,-714.45123,5070.677,-186.32063,-2241.6252,39.77168,-18.44941,6765.4814453125
577,-404.0315,807.2042,201.5555,-2992.6958,-81.99909,145.82558,5296.50537109375
578,4535.806,4620.9663,-9656.877,87.24533,1660.9082,1946.404,14910.1416015625
579,-408.44205,-1662.7206,-2205.4778,-347.3592,-128.46848,59.912846,1723.60815429688
580,-3582.0322,-2729.3572,3519.4124,1293.3424,-124.76703,341.9613,7107.60546875
581,4262.55,1023.8528,1410.8794,949.0566,2139.5525,-200.8957,5093.3037109375
582,2528.858,4013.226,3446.3357,-2616.7026,-564.96674,147.18793,4821.5341796875
583,-5771.104,14513.182,-3117.4834,4735.2524,661.34814,5976.756,23246.76171875
