Element Label,S11,S22,S33,S12,S13,S23,Mises
1,17310.145,16151.78,3843.5535,915.23895,377.25323,-52.771076,13039.9375
2,7385.7886,15201.894,-4016.0146,1805.1042,-1840.7063,-2028.4669,17677.50390625
3,24017.186,19009.354,8400.669,3210.805,-373.24805,379.66812,14917.3486328125
4,4584.086,15455.609,-6854.536,4275.997,-863.11285,-223.10393,20751.484375
5,11220.189,31438.025,11553.622,-677.8388,2887.5837,-4754.774,22278.8515625
6,13967.056,10362.399,-12.155977,3504.7168,-502.1685,307.32965,13996.80859375
7,12133.804,16602.127,-566.9118,2993.028,-1253.9579,2101.4336,16818.58984375
8,11464.106,8238.1045,-6557.3467,-2817.9502,3955.1218,-441.7454,18664.927734375
9,20361.639,-641.9834,1377.9369,2066.881,-4971.622,6755.2354,25033.443359375
10,-6734.385,-19062.78,-3952.4402,59.178577,2312.308,-1543.3138,14738.4423828125
11,19268.549,11051.631,6177.431,-390.57767,-1256.5248,216.46036,11690.2197265625
12,4261.698,1424.7083,-4178.0557,584.2962,2867.1028,-2185.6616,9764.7763671875
13,19348.357,11526.269,15541.315,2909.6199,-2410.4885,-1537.2958,9788.69140625
14,3070.1348,9481.007,-12650.359,-7266.816,7035.1216,-765.8885,26413.513671875
15,-1302.8594,29226.78,4741.6006,-3994.063,-3064.2605,3201.746,29846.93359375
16,34121.7,18673.307,34000.09,6266.1133,-5483.833,17375.605,36749.609375
17,236.72504,-13949.98,1213.4136,-715.2232,-6241.1626,-4801.862,20090.72265625
18,11580.901,-2683.962,12878.139,1478.5273,15723.378,5088.7964,32397.431640625
19,-9448.765,-11273.2295,-10180.134,-136.68086,219.39687,-651.73425,2000.98425292969
20,-27592.4,-29386.617,-35181.23,3138.4458,-1280.3159,-9330.66,18516.056640625
21,24364.04,-3681.6472,16203.812,3684.6765,2273.296,-8766.0205,30183.673828125
22,5059.766,3597.3345,5384.663,94.2428,405.43338,504.89517,2000.98352050781
23,14981.901,12896.04,24238.883,-4161.1333,-4672.166,-8521.4795,21086.265625
24,39621.746,36828.87,51336.5,-7018.22,-2776.1216,-7401.9414,22649.646484375
25,53021.793,26098.57,23669.736,-733.1124,2449.7969,-8521.361,32149.787109375
26,23057.818,31134.592,22472.895,7930.2817,-15182.067,1306.2725,30912.349609375
27,41478.125,45834.863,51604.656,-4699.2803,-19266.516,5259.004,36609.09765625
28,-3846.2156,4287.4277,8073.731,2550.7476,-17469.28,8030.1885,35210.6015625
29,4525.2104,-24226.44,-22178.12,3618.834,3386.4375,2942.108,29523.212890625
30,6898.8,24523.732,3264.826,10428.411,2869.2322,-571.3123,27199.71484375
31,37375.676,34672.18,47217.266,1868.407,-15907.005,-11371.283,35892.3671875
32,-8329.201,-7844.7,-4166.7017,15036.364,-14098.04,-2390.6028,36155.640625
33,1975.5712,18238.469,23108.17,6693.3496,-14115.756,725.06885,33183.35546875
34,38993.164,52340.902,59989.71,2996.2273,-14912.721,-402.53632,32145.708984375
35,34314.008,38234.7,39615.656,1630.6512,-15375.815,12583.019,34855.62109375
36,8744.043,2838.8035,-4078.384,-4215.8066,-9334.2295,1247.9583,21046.181640625
37,13482.693,9173.667,7091.84,10135.291,9155.4795,-1556.4751,24470.001953125
38,23631.982,18765.377,35843.242,1778.5323,-15635.048,-7376.6704,33739.08203125
39,23517.098,3890.8472,5569.447,15772.034,-5579.211,3920.7942,35225.484375
40,12476.342,19815.4,15585.671,-1426.8774,-14557.491,3108.571,26675.2578125
41,11078.054,4617.1123,3142.873,-442.5139,-9095.8125,3857.0403,18624.212890625
42,14540.544,10236.396,-4911.22,-1185.7233,9950.183,-6163.41,26988.37890625
43,-15427.587,2868.9758,-21613.002,1928.8706,-9582.4375,-1518.8007,27923.943359375
44,-17103.79,-11549.301,-26044.459,5054.0396,-11916.841,606.9435,25772.41015625
45,-5135.5225,6720.541,12289.855,-1319.749,-18336.488,-1710.3351,35500.6328125
46,-5563.7017,4735.0903,4209.695,-425.09592,-245.53369,-2969.556,11318.48046875
47,-1708.6228,-1537.6163,-2051.2915,-869.797,365.14975,-450.77496,1866.68200683594
48,-3205.4023,9841.102,9123.241,1463.0554,-2518.2063,-1881.546,14050.884765625
49,-9328.724,-8518.643,-8160.0464,349.8972,-80.641014,-484.32742,1471.6748046875
50,10730.266,14647.03,32181.963,-1484.8135,7694.61,-7118.568,26976.8828125
51,-16780.68,-5783.428,-7125.5386,-3972.4697,-1429.4341,-7819.3657,18570.947265625
52,11515.593,8283.333,28954.91,-436.7931,2920.3057,-11257.34,27879.84375
53,-340.04346,1659.4513,9801.257,-4762.1387,1257.0973,-10180.853,21686.181640625
54,29087.008,28194.992,39314.285,672.7031,3355.6406,-12814.262,25343.05078125
55,10575.792,6195.0537,26251.396,3304.729,3899.4016,-18261.887,37582.6484375
56,-8444.794,-10966.14,-6182.71,-2855.083,5353.856,-13876.951,26558.103515625
57,31679.932,24560.568,39058.066,-5401.6196,-2878.8965,-15330.795,31227.33203125
58,14773.176,13489.995,19038.844,-4590.123,-972.6304,-15433.031,28388.328125
59,-11118.014,12757.45,-5513.686,813.9883,-805.56696,-12339.571,30469.1640625
60,28807.363,22235.178,38688.547,-3591.7896,-580.2475,-14411.085,29470.720703125
61,32517.553,27533.271,42045.844,-2476.04,6145.8174,-13402.164,28873.5625
62,41634.773,31409.818,51135.188,-2844.6118,-181.32462,-14153.16,30286.28125
63,30254.438,21795.375,43345.77,746.39386,6282.1587,-11880.314,29952.83984375
64,24277.975,16238.043,38878.336,133.4183,1139.6292,-11650.053,28395.736328125
65,37463.047,31865.588,39739.785,-310.9415,4591.0225,-14149.616,26709.857421875
66,-6628.3237,-8045.814,-7476.5654,-590.1437,324.01187,-610.40674,2000.99157714844
67,10043.644,19831.516,9333.17,-447.28534,2434.095,-2672.0015,11960.5458984375
68,3668.0347,-9348.186,-13054.665,-7356.751,3268.7073,-2158.2185,20971.33203125
69,20788.078,10210.726,21680.762,4439.363,14694.195,-2369.6875,29083.4609375
70,15983.012,26298.207,36406.402,753.39056,16576.053,-611.3721,33763.40625
71,21006.879,20446.2,22795.959,-2206.8496,13204.036,-6943.6987,26207.125
72,2527.8347,18756.77,25609.68,87.21354,14972.704,-2531.6475,33366.93359375
73,16134.979,-7375.774,-16139.629,-996.129,-4878.4326,-5569.383,31670.70703125
74,28058.03,33086.863,42187.9,2886.093,14133.993,2508.4353,28232.25390625
75,-273.15018,9733.656,11148.109,-6305.9004,16748.164,-1309.2346,32897.25390625
76,18355.793,22059.768,38281.113,-2102.3892,13686.722,-1072.8413,30259.330078125
77,30546.895,33700.04,46086.74,-830.3325,13150.533,-96.38107,26894.8984375
78,9542.19,14586.117,432.91925,9812.375,16192.63,-3532.5266,35598.51953125
79,-5936.2817,499.3953,5671.6777,-378.72485,16489.668,-3527.2607,30902.103515625
80,27846.383,33233.098,47991.066,-7710.682,12282.745,4578.7017,31940.041015625
81,-5742.7007,1880.3687,5879.6978,1552.6072,6199.1206,-8523.004,21095.89453125
82,4232.8545,5707.8896,11792.732,3554.3547,13103.26,-4838.9287,25911.5546875
83,17083.139,24677.252,33052.434,332.89264,11729.618,-1805.2722,24784.625
84,1747.7664,-2032.2727,13479.838,-4534.8228,7379.121,6491.315,23403.79296875
85,2512.772,9742.728,18279.771,-2037.8511,13133.592,4000.8005,27655.509765625
86,2765.9158,7785.492,15080.072,3711.942,14622.776,-857.67444,28285.009765625
87,14144.638,14305.372,14832.437,-513.881,467.82812,-237.39636,1416.4150390625
88,-8935.761,-8397.808,-7895.648,977.26,114.19747,156.15,1946.55578613281
89,10927.06,20194.383,25842.988,6332.374,-226.04024,17314.734,34496.19921875
90,-12704.265,-7777.94,-2417.2954,-2079.7012,-6731.24,13927.557,28464.859375
91,46528.598,36393.895,58560.7,3697.2432,126.0837,8545.284,25090.787109375
92,-13377.709,-15728.521,-40193.465,-7166.238,-8556.567,9396.295,36057.6328125
93,28135.676,38449.465,43990.406,703.47565,-6578.569,14335.709,30693.3125
94,5259.887,20707.572,25074.78,7930.4883,6517.346,2203.8245,25609.423828125
95,19432.732,4098.6836,26969.846,8248.757,-4275.373,12348.163,33524.7578125
96,27313.412,27049.549,32518.945,5067.8643,-5594.6265,15300.785,30030.51953125
97,3978.931,856.68024,-633.5723,-40.78099,14576.853,14746.661,36145.16796875
98,707.3924,-1855.746,18998.025,4634.786,-1459.5579,17482.85,37091.55078125
99,5513.186,10240.728,28191.662,-532.5871,-1545.6531,17916.826,37423.328125
100,-3533.062,3366.5134,291.69595,6753.1675,9345.989,13285.724,31052.107421875
101,-6901.341,-3546.967,-8898.026,2642.164,869.3547,-3074.3906,8573.3466796875
102,7488.726,7323.461,6439.1973,-42.796024,31.623228,1006.65485,2000.98205566406
103,34610.08,32657.135,41974.484,-4740.852,-16853.852,-4667.5894,32517.287109375
104,-6243.5244,9612.175,-27199.795,76.64318,7775.8867,2228.811,34916.44921875
105,13581.988,26412.357,31843.334,6002.1836,13126.471,-6530.723,31886.32421875
106,-2564.9363,4291.8145,7815.602,-2224.48,12863.294,-2754.788,24851.525390625
107,27436.04,23319.102,33867.42,-1528.3286,-1089.556,-14356.724,26715.25390625
108,-8183.242,-5670.765,-30186.018,14360.114,-6450.615,2978.8762,36274.05859375
109,-5871.217,630.1477,-6156.014,-4165.247,-15927.192,-5162.7183,30614.3046875
110,10127.295,13314.123,14602.531,-680.9205,-18041.697,-11846.233,37614.10546875
111,-30868.96,-29100.133,-62358.543,1472.9762,-6349.4653,1512.2561,34420.0390625
112,27247.104,37545.695,37892.26,19.941904,-19091.76,1110.0002,34740.94921875
113,16582.328,14805.681,24867.502,-738.4988,-15512.7,-7233.6416,31097.666015625
114,27313.365,18653.541,23753.955,1129.7233,-6740.3726,-13120.832,26710.17578125
115,33197.387,28187.951,47100.465,-3752.0884,-10008.807,4317.2993,26205.28515625
116,18220.402,16545.088,-8303.165,-4823.764,4994.6274,8872.72,32290.734375
117,16487.438,-13152.498,-3275.7366,-7871.2695,6739.1636,-249.13191,31711.755859375
118,5694.628,3096.1614,9747.29,6966.7295,2509.1226,3899.7676,15614.8779296875
119,-5481.91,2493.432,-1515.5127,-162.134,12869.337,1023.7096,23404.857421875
120,16171.751,22410.408,18227.064,-27.953548,17837.17,-3684.2437,32024.052734375
121,23248.951,24192.309,28322.541,-253.87558,17501.344,-940.89545,30717.83203125
122,4180.1787,3076.7974,-18476.65,-956.17883,10157.893,11415.89,34537.06640625
123,17691.053,18305.037,31401.932,-5748.288,15209.036,1368.7031,31283.21875
124,3467.2297,14999.561,-2039.1683,3400.3442,-11262.663,6740.3047,27898.7734375
125,4907.8125,8606.74,18970.422,-4424.006,11453.78,2154.4858,25012.609375
126,1857.4147,13178.708,18027.586,780.6279,6979.401,-4234.408,20207.26953125
127,9777.928,20932.207,29690.748,-2022.2786,15157.204,2086.533,31833.587890625
128,-7579.5815,-20535.062,-32139.213,-6547.2783,-14843.762,-560.05164,35261.75390625
129,5071.431,13603.225,25001.223,-611.9622,-12199.671,-3851.232,28143.677734375
130,10337.908,20346.977,23876.127,-3105.6768,-18737.857,-4593.976,35965.6953125
131,11590.862,-11600.063,-20829.58,-658.1144,9970.148,3166.8928,34156.1484375
132,14945.04,9899.806,17333.031,-1239.1672,880.1363,-15491.001,27749.751953125
133,616.30536,-7593.686,2661.9124,-431.7958,5713.5,-13137.421,26545.244140625
134,21943.514,27550.633,45496.586,4920.1045,-361.89108,10368.08,29148.388671875
135,1869.1442,17973.365,4031.0017,-7805.79,-2887.128,16514.93,35429.23828125
136,25763.088,24536.998,42469.69,-188.76083,-1017.3297,16620.865,33661.08984375
137,-33650.516,-48778.63,-48048.94,-1468.4558,8182.6157,14147.138,32032.9921875
138,11210.996,13785.032,17318.113,1804.5167,11480.211,15553.565,34045.51953125
139,5744.96,7347.5317,6497.5005,-443.7578,-59.933666,179.95134,1620.87622070313
140,-8045.8774,-377.44086,-206.14178,7919.3,181.3798,-5397.7944,18324.875
141,1201.6162,1651.4398,1078.9385,532.502,-959.4443,-199.23904,2000.984375
142,4744.5293,5201.493,6012.238,250.5113,409.6702,831.79126,2000.99743652344
143,13147.243,18034.992,30593.283,-4686.996,11569.367,5015.046,28033.71484375
144,26897.156,32688.781,39203.867,-252.01144,16007.777,-957.3452,29755.82421875
145,24717.715,35998.797,49889.766,1340.9093,13787.564,611.6391,32461.271484375
146,2684.3972,13520.02,22992.783,-392.48495,13679.431,1321.8384,29612.01953125
147,3086.5334,12868.709,19997.04,-2732.344,15614.007,2654.4058,31482.708984375
148,17856.766,28376.54,33150.723,-1418.19,16894.9,4861.5063,33420.5234375
149,8850.131,12473.321,26117.53,1288.1891,11392.919,-6797.745,27959.427734375
150,22840.537,33614.7,31900.967,-3780.31,9882.754,-3186.6394,21607.826171875
151,3014.3457,25863.668,-13142.073,4051.5132,2659.9248,-6807.9463,36902.5625
152,6365.325,4285.693,-11789.844,-3948.2288,2301.0159,-5482.0767,21189.337890625
153,-6553.9907,-13811.734,-7762.0806,-4226.9336,19519.89,-2391.1277,35485.18359375
154,19867.945,6350.6675,29668.305,-5104.3325,-357.43964,-9154.516,27224.9765625
155,60306.543,47824.297,67003.99,2806.607,1133.5098,-13333.733,29070.818359375
156,-16460.285,12052.425,-18298.049,-861.13605,310.57645,-3865.766,30267.11328125
157,22023.463,15104.952,24618.89,-65.37284,-3004.4363,-13672.664,25699.736328125
158,17059.547,4367.1216,20196.447,-6621.1426,-9511.936,-12218.324,32581.65625
159,12991.273,13123.356,21809.936,2149.0898,-19814.824,3724.3643,36193.53125
160,23153.332,33520.047,47928.887,118.2165,-15469.68,-3839.9773,35023.8046875
161,55014.273,59062.297,79259.1,-3028.9216,-12277.732,-1430.7292,31495.1875
162,34838.258,35937.887,43379.68,-720.99805,-19455.133,-4058.2778,35372.98046875
163,-6749.169,-17392.062,-22121.064,-9008.264,-12040.485,1386.2844,29497.400390625
164,18205.71,22311.947,27802.4,-1217.8066,-18047.037,4062.665,33175.3359375
165,6318.044,-4672.8315,-19895.594,2027.0797,-15325.883,-163.58034,35169.5703125
166,29108.266,46061.566,56962.777,2222.3496,-12978.2705,3381.575,33845.09375
167,22118.852,13893.6045,20258.836,5095.449,-12881.714,57.41616,25130.29296875
168,77846.414,66992.586,82191.055,2635.4675,2454.0813,12309.884,26025.791015625
169,49001.1,42920.273,61701.082,1391.5265,5836.5405,11434.805,27852.4921875
170,20231.275,15613.729,21880.322,545.8346,10010.844,16427.137,33804.62890625
171,15303.574,20283.107,21121.414,98.13886,-14961.72,13257.066,35050.11328125
172,6916.8765,6863.874,4404.491,1134.3951,5007.731,13144.208,24567.966796875
173,15426.767,9874.688,26711.314,-4436.2944,-7004.2764,-12376.112,29774.9140625
174,30761.705,29853.89,47670.227,3372.1296,-5633.0654,-13995.898,31922.3359375
175,-6018.975,9417.169,-25564.232,-2062.0862,8720.289,10520.072,38663.90625
176,9684.32,7051.219,9229.749,2151.237,5022.1816,18247.826,33082.36328125
177,10259.59,11594.75,29275.639,5744.9087,7160.919,14613.826,35093.3515625
178,24942.24,8637.07,32829.145,2204.1072,8109.33,-10655.168,31766.5703125
179,1936.4095,8155.353,17189.814,-1966.7255,18492.69,-259.5491,34845.75
180,2690.8728,-1045.3999,-19142.922,1133.3282,2234.7622,16694.54,35553.56640625
181,23055.855,-7342.3125,683.6589,-3926.237,11371.215,-6071.8555,35906.15625
182,1563.6769,538.5798,-1385.298,-3759.0156,13901.447,-15199.755,36358.8125
183,-3845.9116,6433.813,-4427.115,-3268.1216,-16888.863,-7199.8413,33988.83984375
184,24262.469,10560.836,23148.908,-888.3763,-765.6154,-15233.831,29564.373046875
185,21166.127,9617.064,6436.613,-9602.997,-3518.5247,8744.894,26896.830078125
186,11306.263,2034.429,-20896.896,-6477.431,4838.2124,-7733.8154,34640.4375
187,5390.5522,3637.183,24649.549,626.013,3996.8704,1285.7723,21489.802734375
188,9303.272,-14532.513,-9163.562,6232.291,-15044.186,-2898.153,35912.41796875
189,22993.035,23030.213,39687.598,267.73196,11900.378,4620.201,27698.375
190,9783.662,9198.301,8652.943,147.0185,336.49823,-248.59235,1244.67858886719
191,-13219.049,-13647.172,-4300.5635,2326.7402,5135.977,5401.7026,16323.357421875
192,10372.551,-10848.166,3819.795,5992.6284,431.92886,9037.004,26598.873046875
193,12726.798,-6835.281,6582.4653,5644.081,6940.795,7873.973,26950.345703125
194,-13119.1875,-3369.3726,-16170.127,-4510.1846,1993.2069,-4470.433,16340.4853515625
195,24115.725,40039.293,49070.125,-4488.166,-9042.644,-5328.8384,29493.181640625
196,49448.293,54275.27,59757.023,-2054.8884,-17217.154,1138.296,31395.15234375
197,23584.436,27123.906,35780.594,49.169502,-18034.191,-7535.908,35555.30078125
198,34899.67,45665.81,48227.047,-2958.9207,-14315.033,-6084.426,30035.498046875
199,8650.72,7047.715,17492.814,-1890.7322,-19594.598,-3946.4297,36113.96484375
200,17508.576,-2440.1492,2941.8113,12123.148,-9703.471,-6594.1055,34254.703125
201,26496.156,33839.84,49114.707,4798.3477,-13301.641,7476.82,34161.484375
202,50744.19,56264.26,67205.26,-1861.1927,-12656.883,7126.8413,29222.0703125
203,14202.162,12025.187,-15813.401,5658.717,-7807.9116,-8017.32,36223.140625
204,-32646.53,-9327.468,-18740.531,-13916.113,-1070.9957,1960.2643,31761.994140625
205,20862.434,24198.29,33449.28,1343.4698,-19866.533,1091.1019,36339.953125
206,19325.014,21536.973,20221.68,-1634.9847,-15430.043,-13229.42,35370.10546875
207,2069.5017,8909.269,15544.282,-3117.736,-11367.331,-11827.639,31187.759765625
208,4802.174,2749.2173,-5749.684,5886.235,-7213.295,12260.728,28370.90625
209,19148.518,19709.832,15754.399,4144.411,-17134.746,8652.787,34215.1953125
210,24229.748,21801.277,10008.949,-1125.2274,-19729.979,-1510.7037,36770.3046875
211,2608.777,3417.2727,10995.855,3250.1663,-14014.552,9340.607,30771.259765625
212,17282.633,14335.73,15511.421,3547.5925,-16413.15,-11150.016,35007.16015625
213,1149.7565,9580.564,12280.576,-17.281757,-12561.526,5535.7046,25815.513671875
214,10845.555,3806.5151,6982.8037,4994.2905,-16840.375,-4047.238,31812.62109375
215,8503.38,9996.488,23155.146,4532.3965,-13528.118,-10077.158,33321.6484375
216,2719.8132,8039.1733,3363.337,1758.8597,-10857.463,-15708.525,33593.06640625
217,3657.887,-6079.3516,2644.076,15340.908,-12910.398,5360.441,37124.6328125
218,4810.1895,3073.1836,4979.009,401.06708,-209.97073,129.34717,2000.98706054688
219,-17748.104,-6308.5054,-10651.859,-3472.2673,-457.6153,-4798.479,14349.8173828125
220,-2499.8171,-2336.177,-2362.0386,-274.20956,-165.61134,522.59595,1072.56164550781
221,18390.46,15038.031,21312.588,-318.14313,-2473.5674,4749.375,10765.814453125
222,7943.5317,21531.027,41447.617,-4062.4229,2882.7344,13083.688,37945.96484375
223,989.3625,2886.0667,-25331.752,1593.9731,5653.298,3825.5347,29895.27734375
224,-11919.137,9058.154,6421.462,4827.5337,-187.43227,17682.914,37413.4375
225,22475.592,13520.589,25433.297,-232.92366,4095.2747,16313.68,31053.36328125
226,13097.964,13221.627,21205.068,1763.5936,-2166.1123,19565.518,35164.94140625
227,15052.558,11648.923,12809.146,2166.793,-10799.692,15055.99,32450.19921875
228,-754.87494,18339.225,544.5847,1231.0715,3272.2551,14089.44,31203.6484375
229,9428.56,245.51295,-126.29049,-1694.1906,12968.445,15099.97,35847.74609375
230,2382.1436,-2907.798,-5501.8633,1611.1892,4907.7153,15489.94,29125.498046875
231,63938.61,55558.6,80422.51,1019.6415,4038.2683,11753.771,30766.44140625
232,3674.313,17693.559,501.36398,7502.524,-7349.7715,4790.2207,25511.740234375
233,13117.4,25008.988,23312.043,8515.616,-2543.529,9236.551,24839.63671875
234,-303.4423,2072.0747,14265.06,1472.3462,4878.8794,16700.871,33135.29296875
235,-7749.1357,11048.493,-20072.39,9203.496,-2094.1553,365.67566,31694.353515625
236,-870.4181,3191.2676,3769.9214,4932.74,-3850.8608,15671.631,29554.453125
237,-6283.693,-5900.1533,-6660.5044,-1082.6733,-41.60316,-127.28423,2000.98791503906
238,-6207.318,3033.2776,-2093.2078,471.1325,-47.742725,5977.9814,13121.70703125
239,-6325.704,-11604.334,-22733.107,9002.516,3116.8462,10477.075,28496.4140625
240,31281.707,14750.544,5845.9556,4431.2876,15807.943,4908.723,37157.0078125
241,22098.342,-4625.4775,9079.953,8212.416,7645.773,551.59265,30238.345703125
242,34038.76,2684.515,2130.396,1538.9022,10502.67,2549.0322,36854.921875
243,2347.952,14165.596,7366.8813,5081.5684,9677.195,-1179.8138,21636.119140625
244,2792.9504,15044.663,-9557.804,-2787.8555,2630.5918,-2447.3694,22715.826171875
245,5636.316,-2075.5098,-26007.887,-409.94403,4598.825,-5461.217,31148.349609375
246,10131.781,13726.854,19452.154,436.7233,-12894.439,-9802.42,29221.921875
247,9161.306,22375.635,23357.2,-2051.3076,-6867.05,17803.123,35965.24609375
248,12633.62,-8685.125,-5769.25,-6409.196,-8106.9404,3163.6372,27409.03125
249,1073.4222,-2545.2573,-27152.814,-578.0172,750.00867,-220.65501,26655.384765625
250,9872.277,4585.954,-6664.0576,7826.53,13886.334,1931.4681,31423.326171875
251,19501.7,-11982.432,1297.1625,2583.9167,5167.6523,-8545.603,32691.39453125
252,15956.177,-3626.2368,10341.297,-7374.4624,-3148.4092,-6739.901,25183.51171875
253,-4160.944,-14453.774,-21868.203,-5259.2295,12982.05,-9069.402,32750.162109375
254,-355.26392,-11407.669,-11354.307,-4250.8823,-2226.157,-1656.9032,14102.5546875
255,11454.936,-732.94684,37392.984,2467.6865,6365.798,-3391.6768,36218.859375
256,-25992.574,284.4445,-12842.335,-1617.4592,320.25546,-232.35428,22938.60546875
257,7349.1304,-14848.173,-24258.082,3339.0452,8067.063,-8667.61,35273.2734375
258,17080.5,5422.6885,41372.617,-1394.1997,-3829.8533,5421.57,33870.62890625
259,-5257.621,-3554.5234,-26550.084,-10781.0,4002.3848,-9221.261,33828.609375
260,14405.3,8556.063,36308.902,-3596.7415,3642.6892,-1004.72577,26902.53515625
261,-6216.135,-512.756,-7049.851,-6406.279,-11463.636,-3896.446,24513.08984375
262,10359.659,-10297.745,-5386.1064,-5422.324,5987.672,1068.0005,23421.66015625
263,3419.9795,-588.957,9484.817,2260.8987,-10989.642,5986.7124,23713.734375
264,-23343.877,-17733.77,-12875.694,6921.71,9301.899,13082.0205,31607.791015625
265,-20068.785,-3541.155,-13207.481,5584.4478,1468.0408,-10798.785,25626.234375
266,-7248.1387,-1746.2573,-4026.1135,1878.213,-10781.847,-3928.2385,20701.34765625
267,-19745.145,-6823.0986,9454.191,3116.854,-4757.1626,1739.9062,27356.59375
268,-12676.635,-11002.387,-4763.762,-8811.018,-7064.4287,-6372.067,23592.34765625
269,-2782.263,-546.95886,-4085.94,-2699.826,-9453.749,-9386.798,23747.283203125
270,1118.4305,-1059.5964,6944.427,-2872.1213,2714.7754,17868.77,32497.86328125
271,-18884.596,-10524.531,10361.976,4953.8706,465.8125,-9313.577,31863.00390625
272,2177.6836,23867.031,29746.719,-4753.7817,-1130.4003,-12279.255,34007.265625
273,14393.7295,-5924.1675,-14773.133,-7406.773,-5826.8594,-7614.035,33335.7421875
274,7682.5005,13085.92,24239.172,2232.9082,-2403.8538,-13476.024,28124.01953125
275,-2237.3386,15414.719,-7143.6055,-6010.941,6206.0913,2838.9907,25891.9453125
276,3002.077,13816.352,5514.801,-6662.0693,-13790.427,-10628.992,33744.51953125
277,16131.226,25048.996,-8012.4336,-3387.5823,2560.396,341.68488,30531.865234375
278,2153.988,786.6957,14196.029,9062.825,-3036.9922,-11666.8,29081.9921875
279,11425.716,19684.111,-4507.8013,-7341.727,-143.92982,-4042.1406,25776.83203125
280,5169.9194,20829.627,4684.372,5344.7,5160.313,-4429.9097,21852.275390625
281,15646.02,-1620.8167,18814.086,5316.378,10267.987,-3787.3794,28407.77734375
282,-3879.2817,10048.866,22185.36,4017.6926,-14647.06,3840.8982,35307.48828125
283,20423.008,2456.2378,-8401.016,1472.5205,-11114.307,185.01581,31826.806640625
284,-6718.665,574.70746,-33624.867,-2627.2783,-2949.7898,-59.557854,31940.509765625
285,4525.4297,15333.04,-16755.814,2422.2908,1754.2191,-4105.975,29615.986328125
286,8582.957,4001.9128,4743.4,5387.3857,-1892.0621,-3611.9834,12453.5029296875
287,3899.8337,3115.0493,-24304.96,-8764.588,134.16858,10221.881,36303.72265625
288,12688.474,-23354.5,-10551.274,-2107.0515,-216.62277,6786.7734,33958.69140625
289,-9230.852,8056.046,-14987.752,3909.6758,5842.3926,10382.081,30051.91796875
290,-5280.425,7152.8145,-11070.33,3024.9856,-222.74092,-4583.8203,18727.796875
291,8727.829,-5735.1562,-11334.258,8526.984,-12869.988,4919.3057,33303.8203125
292,-4435.9443,64.798805,-9256.246,-3680.9229,-10821.967,15749.394,34659.9140625
293,-409.89032,-9054.892,-27104.002,3649.8655,1574.194,-2858.1138,25068.830078125
294,6306.5293,16179.474,17776.055,-5190.9814,-17596.254,-5011.8057,34653.5
295,12354.204,12158.511,11748.504,733.86334,-11919.765,13494.346,31215.970703125
296,24351.457,24306.383,41222.688,2410.0386,-14460.837,1810.1918,30659.478515625
297,24996.814,33403.973,42448.824,687.5951,-15290.713,2617.6338,30853.25390625
298,13713.296,2003.8397,-14741.575,3975.931,-12625.287,-1126.5356,33808.65234375
299,15119.751,6936.6016,149.40862,-8305.363,10346.772,348.30447,26401.490234375
300,10783.558,-2885.9314,5141.2896,-3093.3499,16891.014,2897.4104,32424.890625
301,-8854.847,-9637.617,-25693.428,5916.7905,16781.262,3981.6694,35614.44140625
302,8735.69,3591.0186,5557.741,-2597.2488,-2055.5383,4552.5586,10738.1416015625
303,9696.732,10264.797,9199.578,-501.1984,-4.646486,432.48645,1472.09814453125
304,11392.661,8540.257,6199.417,1085.9312,7218.0776,13368.092,26762.84765625
305,19715.963,17240.908,31471.912,5040.3823,-7508.7705,9365.364,26113.52734375
306,21439.443,18022.838,31196.63,2253.6516,-5554.027,19341.395,37017.015625
307,19200.781,-2581.4575,-10093.329,-9284.701,6467.0327,-3347.4316,33349.9609375
308,7256.765,21110.97,-3648.3718,-5467.96,2195.606,-13468.43,33321.11328125
309,4470.6377,10515.538,6258.3394,-1193.8574,788.5289,-10172.113,18587.283203125
310,4910.863,4640.3677,-26479.816,4834.8213,3668.058,267.31122,32979.71484375
311,-18620.156,-15889.719,-19443.615,-3683.7175,3041.1028,-11702.651,22128.98828125
312,12131.332,16863.531,4359.1875,-2817.4175,2993.019,-7844.115,18837.66796875
313,-21309.727,-14762.463,-15457.565,-4063.8755,-12340.342,-11166.56,30319.50390625
314,1673.1932,4296.0195,18773.682,10503.09,3924.526,9781.613,30309.150390625
315,1196.0363,13438.019,-5900.2676,-6818.493,-2640.8538,4819.919,22741.794921875
316,-10216.572,-571.1509,3349.277,-9203.35,1437.182,-265.40845,20167.5703125
317,9900.761,21167.982,18171.82,8013.0835,-11118.62,12883.558,34111.97265625
318,-9179.927,-18475.55,-2075.6,-8355.467,-4875.8413,-339.90594,22000.654296875
319,25422.006,18985.598,-2490.9167,-8887.612,-7023.717,2615.1528,32347.8515625
320,-23154.816,-10297.892,1105.4011,-6865.826,711.01886,-8436.919,28256.451171875
321,-10920.128,6626.705,-19679.424,7065.495,-4289.187,-9900.572,32207.6640625
322,-33207.355,-37127.71,-45048.793,4185.872,-13967.342,5781.284,29107.73828125
323,18092.783,18286.434,20381.273,3166.6064,-16954.785,-11817.347,36280.25390625
324,856.5448,5156.5586,7038.243,-324.31247,-15975.117,13841.33,37024.2890625
325,14620.071,34353.18,45262.39,-4143.9873,-8379.586,5591.1377,32857.75
326,7068.784,10549.601,19256.154,2068.8188,-17434.117,-1221.8888,32363.4140625
327,4746.494,6424.943,4329.093,-1443.1505,-15080.653,-1252.9907,26399.400390625
328,-592.46924,-196.12025,1119.8715,4.702194,-94.90051,260.8662,1625.34826660156
329,294.20258,-287.08148,448.78912,-383.75528,-126.759705,-201.121,1031.02099609375
330,-12371.888,1083.0057,9934.55,84.73157,-1283.7866,11766.213,28262.65625
331,11196.511,22538.732,18884.371,514.48944,17915.316,6370.7534,34438.07421875
332,12789.914,-2752.155,4422.31,12832.008,9853.444,-2653.9673,31430.96875
333,-7721.9546,-11402.419,-37374.156,7282.5527,-2605.9207,-6106.596,32787.43359375
334,21014.117,9631.811,11930.857,-5033.282,9028.708,-12632.479,30132.4921875
335,-2678.8152,6124.474,15220.872,-6188.4927,5518.63,-8393.689,25650.357421875
336,10486.394,-8795.279,1099.7872,-10143.017,-1475.6237,-3596.924,25157.30859375
337,-8306.114,491.89996,-27410.688,-6806.978,5518.119,-1097.2648,29059.212890625
338,-1145.2102,-8937.591,-21896.3,-1004.1364,-7295.124,12821.507,31392.404296875
339,-12685.826,-1530.9274,-22511.191,2649.8733,737.4154,9831.832,25362.61328125
340,3132.7178,-6529.7905,-6600.8003,-6220.381,5248.282,-15371.05,31647.6796875
341,4162.5083,7808.8145,525.1741,-3697.4128,4481.398,8218.252,18538.310546875
342,22222.492,-3855.724,1685.7628,-11163.659,2697.619,-893.9204,31054.466796875
343,42218.535,43782.47,56803.75,-2873.8381,5411.4136,18827.041,36991.3984375
344,13.918834,1604.1058,5400.45,15508.972,1131.1011,8565.33,31120.65625
345,4409.458,3507.985,1915.4945,-2076.9504,1297.0284,3649.7927,7920.55810546875
346,14936.703,14203.221,6394.17,6147.1045,-4339.345,8810.952,21679.39453125
347,14710.632,7505.5615,14032.795,5873.018,422.82996,6138.6255,16264.998046875
348,11888.956,18045.188,12514.704,5041.6855,-2506.4902,-12505.55,24468.51171875
349,7986.3755,-1821.9586,18409.248,-6266.9473,-5698.9355,-910.9819,22908.904296875
350,-6943.8823,1899.2025,-6933.3804,-6388.8516,2400.8584,-1569.0522,15007.923828125
351,4788.3887,5423.358,296.66068,5443.4604,8254.288,367.48206,17808.134765625
352,16807.371,11152.747,-6398.467,-8318.988,1067.293,5298.89,27102.2890625
353,-10668.414,13246.34,-7716.7046,5813.5225,-5195.617,-2650.2463,26711.130859375
354,11422.395,1739.4636,-635.9797,2694.469,-5627.849,-13821.87,28501.47265625
355,15156.804,9611.075,4571.275,-5645.9297,346.83206,-1091.2776,13552.3857421875
356,-30521.857,-22300.996,-31536.086,-12649.375,4684.988,12954.304,33559.7734375
357,10446.138,12510.575,1347.9656,-7798.737,2135.2878,941.62445,17453.380859375
358,-5797.2246,2400.42,1382.6438,3381.8308,711.7783,-347.887,9802.4072265625
359,1684.9333,1096.3962,1913.3578,2233.2761,194.83672,-895.0881,4244.1708984375
360,-1271.6072,-1110.3098,209.22607,-3111.4973,-2550.6677,-35.723587,7109.55859375
361,314.2841,-1585.698,-414.14047,-299.0501,385.39893,-366.85358,1968.29248046875
362,-2554.0532,-1541.0801,-236.04553,-4323.3936,-1000.13257,-273.91284,7959.4140625
363,110.36396,14274.495,4832.168,318.73615,1978.3444,-173.88564,12968.2236328125
364,-6835.368,-1658.8107,-4084.7693,249.35197,-107.096176,-62.707874,4511.833984375
365,5453.9233,-996.34326,-19.421854,-10333.437,3155.743,-1279.2631,19783.435546875
366,11875.411,2335.993,5434.55,1990.7726,-474.97217,-1263.6781,9402.1328125
367,11035.474,6994.9375,-3569.4143,3252.338,2484.368,-4802.505,17031.107421875
368,15267.496,10371.6045,7977.878,292.39447,3542.5764,-4501.0054,11836.48046875
369,7547.6484,-4452.779,-8909.172,4256.9297,-3326.9666,1523.5658,17660.197265625
370,1842.3402,994.8341,1763.3591,5073.75,414.332,-1650.5112,9304.513671875
371,-1703.2355,1308.4124,672.09937,258.8064,43.253536,-82.22592,2790.23364257813
372,-1108.5248,-1962.313,-566.0152,1239.4623,-250.47517,123.394966,2515.78051757813
373,-1657.9507,-806.35815,-36.22155,-1010.81305,-109.779625,-518.4875,2425.29052734375
374,-3352.1228,2694.655,-3182.3042,-5482.0,-81.25938,-542.2049,11252.744140625
375,-5788.942,12721.89,6830.312,-1402.6215,360.43182,-531.58545,16596.478515625
376,-2428.8677,140.3146,-1388.0002,3449.5151,232.84503,-88.34434,6394.79931640625
377,-780.7609,1077.3994,-1469.9901,681.4135,-9.312004,1246.0897,3355.58447265625
378,-1784.121,-6021.8667,-3812.7466,-2701.84,2081.6987,358.30634,6983.00732421875
379,10352.655,-3697.516,-5146.91,-1032.3645,275.2031,-1970.3812,15327.8837890625
380,3738.0955,-5066.9443,-1740.7585,1080.0443,1738.3167,-993.6952,8650.5517578125
381,11251.09,-1377.1025,-1478.9796,-1243.0776,-741.2606,-351.53168,12939.2041015625
382,9781.571,-2977.596,-330.8932,1528.146,-2619.2976,-104.592476,12792.6669921875
383,-2615.3093,-2666.2986,-2593.4187,2467.3645,841.0,-1095.0522,4897.66455078125
384,-2510.6309,-1610.5035,-324.6998,1045.9598,-58.279602,223.26953,2657.58178710938
385,798.2465,562.1188,4276.3984,5873.0244,-706.0486,-315.82434,10874.1240234375
386,808.37244,5095.7417,-2212.6807,-6628.6846,1715.9233,2566.5244,14172.98046875
387,-7418.483,-5590.8706,-6501.1416,-4931.689,1314.5892,3148.2249,10506.578125
388,1526.8904,5487.936,9878.656,-4967.637,2181.5664,-1273.3707,12063.76953125
389,-2324.7485,-1679.0881,-381.5264,-367.4884,382.5751,-144.16087,1960.84411621094
390,15176.728,1607.583,2319.6355,-733.073,-2939.2144,2857.3198,15066.1455078125
391,17206.83,-9442.441,-391.0532,-1267.0677,-2808.4824,225.39934,24073.427734375
392,10248.51,-5441.6953,-2711.7534,197.88948,-2159.6934,3393.032,16107.4541015625
393,8871.424,193.26903,1781.2821,3857.3555,-2921.2097,2719.2986,12508.9111328125
394,3411.2568,16957.195,12832.685,2066.7139,-640.2703,-2988.139,13618.529296875
395,-4203.331,8042.588,3938.005,5833.8794,653.77734,-719.14075,14882.26953125
396,103.19224,3897.7004,12825.473,6201.9,-972.47217,-474.34766,15712.501953125
397,-3350.9429,1362.9402,1276.9636,-1534.591,-1845.7788,-723.41797,6377.962890625
398,5333.1016,807.28735,4984.36,-4332.068,1929.1831,-761.2211,9393.1005859375
399,10256.209,2643.7886,3806.5676,-4642.2114,-392.04312,1590.9036,11097.4697265625
400,12085.81,3032.6687,3728.5867,-4450.5273,-1063.2157,2186.872,12381.5791015625
401,1578.0181,9207.707,1816.8458,-6142.375,-130.74316,-914.91656,13122.3408203125
402,-6601.164,11787.967,-1702.8464,-392.9667,67.26477,-32.218014,16509.32421875
403,-1084.918,13005.111,-259.90433,-4764.082,-556.18665,-1487.127,16224.5869140625
404,15650.41,2421.0012,5824.3896,1409.0555,-656.2209,564.2392,12238.4140625
405,3695.055,-3041.3655,2629.307,624.63574,837.3286,1123.3577,6811.42529296875
406,5959.852,-795.7634,2376.7612,4297.6206,1101.3212,155.14723,9663.8740234375
407,2158.301,-9868.233,4548.874,-2650.0127,187.6525,3709.4336,15542.0634765625
408,421.63797,-3095.2004,-7218.0,-3967.935,-1891.8885,2927.4375,11293.6162109375
409,-16512.182,-7730.35,-11395.764,-6044.777,-2145.0955,1880.1519,13870.6162109375
410,4857.593,-1954.5967,-6600.0454,-1605.5387,1515.3416,-1477.808,10991.16015625
411,1412.3142,-5394.6973,-3261.49,5035.979,-1281.8494,5.33011,10834.111328125
412,973.20557,-2806.406,2677.9993,-4428.971,-1136.4396,-2482.163,10239.1640625
413,1956.5199,-8041.999,-846.8831,410.0952,-945.08075,2023.009,9760.19140625
414,-1662.5558,-3094.7263,1612.7526,-4676.8,1386.8193,1634.1511,9842.158203125
415,1993.1785,-2056.72,-164.41762,6685.736,-1546.2968,-41.67568,12393.318359375
416,2906.3486,-6129.674,-1968.2755,5352.294,-458.44333,-2788.043,13086.46875
417,-1630.474,-3672.58,-3890.0146,-1852.9135,-1221.3059,-931.87506,4694.81640625
418,-5860.8994,-1.890041,-297.3855,3099.0115,359.16113,915.7169,8024.85009765625
419,2256.5015,-10543.266,-658.07623,357.75833,1570.9652,4131.2593,13928.83984375
420,-2786.7036,2110.859,3014.272,-3747.017,-824.9543,810.36914,8680.9541015625
421,-5239.734,-2474.8704,6420.05,-3634.5408,2186.8503,-88.72943,12859.1416015625
422,-1673.986,2548.4324,4151.268,-1698.1901,-1044.7064,-151.65472,6257.8369140625
423,-5017.433,18339.195,3454.0674,-3764.4175,100.22877,-2786.1184,22028.6796875
424,-12577.081,-3244.82,-4995.503,6890.258,-382.42444,-638.2983,14761.6435546875
425,-3951.4749,8544.175,406.6305,-3841.357,433.70505,-589.7587,12905.5341796875
426,930.22876,7020.6133,-10927.231,768.5291,524.7784,1423.268,16080.541015625
427,61.21804,10068.275,-4837.551,119.39545,-2033.677,-73.215866,13624.5283203125
428,-4032.3672,7910.083,3722.4424,2776.8315,84.33737,-1120.1693,11707.51171875
429,-2335.5195,1617.8099,-3982.0234,-3695.8887,-1428.9482,974.3505,8648.7861328125
430,-3545.5554,-8876.856,-6918.7207,4372.1187,488.9357,128.84805,8940.408203125
431,-4243.792,6651.338,-8353.039,-142.4948,-118.306564,3335.6782,14623.3955078125
432,-8292.976,534.8905,5565.4663,4687.2104,-1607.2749,-1386.0454,15068.853515625
433,-748.50665,591.9345,2563.04,-2857.9094,564.41876,160.72884,5818.96337890625
434,13635.795,-3945.897,-2339.875,1572.642,1653.3369,-889.95734,17362.455078125
435,9017.562,2467.4346,9362.893,1883.963,-1345.8414,321.05945,7853.4345703125
436,14320.367,-2460.5815,-1837.8231,-1540.7526,1541.4528,-1643.4987,17143.244140625
437,762.69006,-2954.7458,-1925.527,793.1721,-625.7539,98.21966,3760.794921875
438,-3491.2415,-9448.333,-1002.0128,-7566.6104,6055.2056,8922.127,24022.533203125
439,6100.384,-6022.303,-3592.719,-5570.814,-671.41833,851.1719,14833.6484375
440,3901.4875,-3501.2822,-2437.0918,7064.6724,2700.882,-1324.3712,14997.6826171875
441,-3004.3674,1298.2695,172.50716,315.74908,-101.38956,274.42813,3936.00561523438
442,2800.6465,-5548.4185,2099.8728,4344.7905,1123.689,2.8524714,11169.9072265625
443,-940.43066,-3126.2378,-1313.7211,-2880.8552,-1140.7275,-122.37169,5740.02099609375
444,-5046.4717,-1285.196,6398.381,-1052.5977,-394.71045,-14.869582,10289.6328125
445,1417.6477,814.1879,6196.669,-4552.7207,-89.18753,-4701.474,12434.001953125
446,-2766.2751,-4441.3433,-580.9356,-2780.8308,433.88596,105.086266,5919.384765625
447,-196.57007,125.390526,-1772.0685,-3980.9458,100.28547,-580.1035,7188.64501953125
448,-4904.838,-1779.1163,527.798,-1449.8901,367.8769,609.4473,5489.04248046875
449,-7880.3447,-3695.6543,-1840.5657,2798.567,484.12247,216.75848,7283.9521484375
450,-3624.5095,-948.5396,482.7379,2814.3792,742.54504,-1781.8732,6926.828125
451,-1184.589,-5234.677,-3150.344,5079.278,-4.235899,-950.3735,9613.1572265625
452,-3840.921,2495.911,-2240.749,-2588.97,-533.5935,870.99634,7470.8994140625
453,-803.10645,3676.7812,3444.8887,-4427.413,1013.5398,-673.92346,9073.83984375
454,-1352.2192,82.05077,-1879.3992,2869.9717,452.46744,2202.5564,6555.0986328125
455,-7290.131,4318.936,-2621.8376,-703.37524,133.24127,-509.28064,10231.541015625
456,1389.6394,-1077.8663,-1938.1848,-3790.5044,-399.5753,-622.50793,7327.81494140625
457,7920.498,-5393.214,-2654.7979,-2151.965,1118.0911,-794.00916,12954.9208984375
458,6130.781,-6242.0454,1447.1849,1704.9073,1735.0118,-43.724464,11611.642578125
459,1802.3995,-3955.137,-3968.4917,418.63242,-1144.7151,291.06818,6159.32861328125
460,541.25024,-2497.637,1076.2344,778.43066,-664.58105,1248.7234,4355.1806640625
461,5332.3374,-1821.5602,7164.614,-4160.653,-1180.4368,-818.9607,11214.6728515625
462,9148.682,-2825.7183,7891.2515,-7156.168,-3243.827,812.9852,17807.09765625
463,4548.3276,-2585.0225,1773.16,-1297.9802,-216.65422,504.0881,6689.3486328125
464,-1987.7303,7668.6353,-3254.9434,-1897.4192,-1757.5613,318.38184,11289.802734375
465,-6195.3447,-404.5676,-4576.765,-17.943163,380.88428,2004.4241,6266.5302734375
466,-4065.7847,1715.223,4720.3657,-569.7681,-560.37134,957.2562,8030.4833984375
467,-1503.9044,1277.7778,1011.6693,-481.8884,-332.70398,-294.5882,2890.9189453125
468,457.73752,-6794.3013,-5379.627,-1017.76855,99.0518,3620.3816,9316.25390625
469,-720.31226,-1047.9297,2352.4558,3269.6814,-630.0195,-2617.6135,8023.39404296875
470,-4939.6743,-2244.7517,714.4375,4195.585,-70.85975,-104.53896,8766.4609375
471,-9014.652,3043.0435,-3515.4006,5627.9873,430.4731,-1103.7389,14441.4287109375
472,-1201.0101,2261.3213,-1653.645,-2024.5488,1227.6472,744.01263,5677.86962890625
473,-1043.3053,-2373.274,-260.2239,-1815.9777,310.14758,632.6408,3847.87084960938
474,-915.27655,2056.6619,3510.8413,-3765.7185,1977.9733,-2683.0486,9546.9404296875
475,-2322.93,51.3646,1590.8447,-1194.2384,2025.0985,850.7313,5515.013671875
476,-16550.732,641.9733,5022.372,2955.9153,-2826.985,-3312.822,21753.1640625
477,-435.45685,-71.670494,-29.648666,-713.0561,-821.38293,-485.21518,2098.82153320313
478,749.5205,1654.2856,938.81537,456.38205,252.24126,23.445267,1224.96728515625
479,3614.8374,-6675.042,-29.99039,-2999.249,-290.88766,-1177.9626,10633.1875
480,2957.0762,-4530.08,422.52933,-968.42725,-237.01492,300.41666,6837.96142578125
481,-1086.5258,-2027.7542,812.9062,2939.4756,389.0428,779.4282,5871.94091796875
482,-5193.028,-5866.394,-806.256,3282.0312,146.45743,-65.3879,7419.1279296875
483,690.7041,-2987.6694,-3854.951,2937.4941,1428.2866,-114.46137,7036.9541015625
484,-4706.253,-3257.168,-1473.5336,3914.2659,147.0215,-850.489,7487.6640625
485,-1102.5364,-195.76237,201.56003,-1831.9501,-358.42575,-1566.7494,4376.98828125
486,619.5231,-2017.8324,3395.665,-2395.31,281.1178,-503.28418,6339.8564453125
487,1447.7106,-890.6325,-297.88907,-4556.3433,871.5181,1247.3466,8582.5517578125
488,-7867.841,-3346.176,-2514.1729,2772.1826,-529.52625,387.82468,7017.6298828125
489,-8013.417,-2457.8918,-68.19955,1451.8905,318.19345,89.16513,7516.78369140625
490,-2704.522,-925.41254,1643.7695,3671.1458,-497.69937,990.3382,7645.53076171875
491,-33.650585,-4547.3403,-1321.018,2513.332,-260.1616,-448.91785,5998.1728515625
492,6129.734,-3436.8552,-3797.153,1753.892,-580.4994,266.7744,10273.7099609375
493,188.6566,-3352.2607,457.0685,1104.5608,323.23712,445.54358,4257.89892578125
494,2121.5713,-2251.8914,1258.4425,594.3945,-1185.1375,703.2128,4780.626953125
495,1409.2396,-2869.3535,-1555.7118,-1088.8577,31.095907,-324.0639,4276.24365234375
496,-3593.079,3577.1104,1801.0253,235.11816,262.438,285.1296,6515.181640625
497,-7037.777,-426.50455,-87.567116,-136.16129,-82.21375,1303.6477,7158.14208984375
498,-4330.0796,25.955912,-70.33735,-132.88193,250.91516,657.28796,4483.61328125
499,2692.7947,-1716.3121,768.8196,415.74496,199.34967,469.73117,3994.82006835938
500,-1231.2422,-18489.873,-8763.694,-120.01501,2471.164,3726.7046,16870.87890625
501,546.9843,-4227.3896,251.86478,252.2205,-364.97604,-573.35834,4800.98095703125
502,-3837.1724,-476.78247,-161.1216,4518.025,-299.2347,1036.4912,8785.318359375
503,-4329.2305,2868.3918,2912.1484,2858.1904,359.37866,-1038.7932,8958.521484375
504,-6530.1455,1301.4658,-2415.5803,1791.8279,-43.185883,698.6398,7559.228515625
505,-4299.101,1491.0662,-446.18903,549.5302,-289.73175,-350.5889,5252.47412109375
506,1052.433,-2215.0205,-2716.8008,-4651.401,-804.04926,1248.1653,9169.9189453125
507,2187.0417,-2296.2515,2668.9211,-2239.6445,-71.91697,-374.33075,6162.5029296875
508,5823.5903,1576.266,4607.876,-5317.918,-384.16693,-571.226,10030.783203125
509,-1434.6744,-2579.4246,244.44934,1402.3169,456.65994,377.6987,3606.26513671875
510,-966.6529,-4533.7495,-845.97205,905.1753,106.57884,-347.36322,4002.91284179688
511,3794.2485,-2364.7979,2340.4583,-2582.363,-646.9153,899.97046,7401.6572265625
512,-4277.9395,648.0426,542.81445,3875.4253,638.9652,-75.587234,8369.9912109375
513,-1106.189,1953.3691,-479.07483,-245.05197,205.44867,152.16365,2865.60913085938
514,-1958.9316,13.93135,1938.9833,4559.108,-1827.9121,-509.73206,9195.408203125
515,-957.0536,2703.2874,-290.59668,472.65613,-302.4267,283.22562,3547.96411132813
516,2284.1804,765.2119,79.256584,-3049.1301,1155.6914,536.10266,6048.1748046875
517,-1520.011,-3296.5176,61.877434,-727.23083,573.1517,-1047.0192,3785.42358398438
518,2815.6145,1539.0347,-7220.237,-10444.358,3845.408,-344.78735,21482.74609375
519,-3832.7322,222.5192,4793.5283,3461.5247,-967.2572,1120.2146,9919.3564453125
520,-864.6676,133.53938,490.1168,-2449.2754,315.6225,543.65405,4545.53466796875
521,-3868.251,1933.6317,246.10928,-3369.534,462.16125,573.6689,7899.88037109375
522,529.12146,516.48804,-154.39244,22.743105,-20.178114,1083.802,1996.33898925781
523,-5187.323,-1151.9271,-1187.4764,-350.9476,192.45963,234.6673,4097.322265625
524,-2747.571,-1054.3173,-66.81553,-676.6444,331.99487,-0.8162441,2686.73876953125
525,-5889.2305,-1734.5889,922.0607,-1770.3414,-370.58185,-1452.7472,7176.48974609375
526,-7231.5503,-4238.3013,-1985.1772,-1294.701,287.14032,474.15662,5170.18798828125
527,-1807.5271,-2738.7263,-584.18115,2779.5706,-233.51225,97.4977,5183.919921875
528,1242.1495,-688.10474,1250.3425,4338.892,273.02927,-1188.6449,8042.51025390625
529,-4461.141,3412.3286,4552.389,2918.8574,1145.2104,-124.877,10089.994140625
530,-2620.812,478.42722,1341.3236,3306.9045,-43.192028,-78.53483,6771.64306640625
531,-4317.279,-2497.5605,-1444.8191,5472.497,-235.61653,-573.0124,9865.6767578125
532,-2073.3806,-5254.0884,-1159.583,1154.1195,-142.89148,240.9901,4253.2236328125
533,761.17645,-5491.6953,2383.2207,805.23883,-78.683044,-1301.0321,7675.52783203125
534,-457.96024,-1604.5079,-612.2261,396.80664,593.87,58.98259,1643.88098144531
535,892.9126,-4086.9277,475.00208,548.029,280.98572,-455.87555,4965.24560546875
536,-2060.9443,2547.9282,593.69434,-254.05975,-227.02141,549.06256,4160.1181640625
537,-2744.7288,-2457.1646,-713.0074,1244.5415,45.13094,-508.46725,3009.10498046875
538,-927.97015,1208.364,413.59146,-124.65936,476.45013,-148.31596,2071.54858398438
539,-422.56006,142.91106,1432.1304,410.61426,-310.17444,381.8183,1985.61145019531
540,932.5241,4139.747,659.2122,-2364.1875,387.45712,967.31805,5591.3486328125
541,-3604.1902,-1920.0249,920.80804,3468.407,1271.7896,-764.0402,7640.9638671875
542,-6344.0903,-980.7146,866.668,4002.179,509.7113,373.76764,9557.0732421875
543,4889.2593,351.85956,-260.88348,1469.095,229.36502,-59.37904,5512.42529296875
544,-6237.123,-227.62173,-767.72766,-4870.115,600.13654,-518.2998,10305.36328125
545,4217.5225,-520.41113,-575.8938,-633.76196,114.94762,-236.35277,4911.8388671875
546,2122.4421,-3161.6375,-487.90817,-2252.306,277.15103,-77.788055,6034.01708984375
547,2958.678,-1306.3213,-2.0200765,-2230.5837,-593.24335,-229.5036,5519.86572265625
548,-6048.113,-931.82135,-3183.687,2541.4192,503.64423,-561.8105,6388.3046875
549,1576.7728,680.0622,-79.099686,765.3626,136.68347,471.68094,2131.19702148438
550,3970.162,-876.01874,574.38617,624.68286,-922.31494,-471.6475,4790.64208984375
551,-4225.211,-173.27261,-570.96204,-1298.3427,-224.10182,-16.282957,4491.49072265625
552,764.7317,318.42007,-258.38397,-1403.4479,-83.09391,-9.366471,2592.16235351563
553,-4919.2314,-6665.559,-1847.2334,-3527.5808,-206.26044,-408.1874,7470.64306640625
554,1571.2943,2515.6492,1542.7471,-655.96985,-64.31631,11.466061,1491.064453125
555,-2932.181,-337.1173,300.13434,-1848.0149,-95.36716,67.46852,4368.13134765625
556,-1587.4797,-690.474,471.859,-1310.1936,15.032086,1117.642,3477.94873046875
557,-691.26294,-175.94528,-522.5203,1750.2394,-448.48978,123.82897,3169.62353515625
558,-776.41174,140.07968,576.254,353.20236,688.7507,78.308044,1801.59350585938
559,-153.60643,-5369.896,-194.64944,1457.8687,-295.11575,241.3506,5814.5888671875
560,-373.13208,-4239.965,1541.3307,2692.6328,-2.112709,310.73502,6932.6015625
561,1150.3129,-1232.3217,1162.3038,-2069.0317,-77.42042,-192.83093,4321.79052734375
562,1652.1881,-3044.7507,171.70251,79.86858,-158.78618,-748.765,4367.61328125
563,2311.7573,60.655792,116.256935,113.38871,22.83362,659.22925,2507.841796875
564,-1169.9297,3023.3892,437.50558,819.07355,-64.98782,316.12985,3968.9306640625
565,3002.6162,950.1782,-402.5756,-85.057465,165.44626,-84.71835,2990.6923828125
566,1204.5648,-1311.159,449.4484,285.53528,-140.34473,1119.6876,3010.67846679688
567,1788.3331,-1307.1638,12.166632,-391.31177,-255.58926,-750.2914,3095.62841796875
568,-3446.7305,-967.4134,-3358.5542,1527.6063,274.32916,-983.3653,4007.95532226563
569,-974.3306,2078.519,117.68683,427.52994,206.45749,-588.8945,2982.48852539063
570,-174.59436,3372.203,-915.2173,-1562.9042,-340.58633,-190.57362,4851.81298828125
571,1863.4684,2549.2083,1482.6395,-2799.2236,208.98679,-91.097885,4953.7158203125
572,3453.2798,-2629.2507,-1916.8202,1188.2228,590.7064,-328.15997,6227.10546875
573,-1117.9551,-1206.4382,-679.8575,-1570.0377,-223.64742,-1441.5502,3744.03955078125
574,-3664.7961,2019.1342,-3681.68,-1173.627,1069.794,911.31537,6516.1630859375
575,-614.20105,-1259.4766,-1073.7933,-1878.1166,-535.9113,764.05066,3677.76171875
576,21779.225,10605.285,7191.392,4620.703,-8547.153,-229.12169,21401.6328125
577,11680.615,-7249.333,-789.54443,2619.9824,4169.658,-6234.8354,21613.859375
