Element Label,S11,S22,S33,S12,S13,S23,Mises
1,30997.521,35493.504,15410.413,-7631.835,8810.209,-8995.529,31362.458984375
2,26796.695,28071.428,2374.0315,-12664.341,7248.7734,-6675.2593,37439.17578125
3,21765.836,26231.594,-1380.4241,-14070.216,-2755.7878,3749.534,36303.3203125
4,10360.172,34143.11,15118.589,-4693.3496,2689.9915,2720.4238,24188.724609375
5,9355.479,31375.096,12641.716,2092.9856,83.77404,-5889.445,23249.1015625
6,34097.973,27800.91,5659.7676,-13109.104,5938.434,-6724.056,37766.21484375
7,8127.014,10266.506,-16915.283,-8068.659,-8434.05,5754.977,34544.76171875
8,19446.568,10013.486,12311.872,-1377.3668,4026.1487,-1355.4003,11507.263671875
9,12041.543,3780.0618,-23186.988,-2126.6787,-3348.1904,-123.70352,32642.103515625
10,8514.399,4255.385,3442.1204,-4595.6436,4266.8477,3174.6309,13056.681640625
11,27549.727,4427.847,-3136.9958,-10368.251,-2974.935,2348.7874,33650.625
12,11750.899,15870.103,5301.7207,-3296.2158,5245.551,-2081.6135,14603.666015625
13,14486.064,9604.694,-799.4097,-5300.534,-2663.574,-313.89185,16991.935546875
14,12655.429,11690.285,11684.537,-4560.1353,-135.84099,142.84827,7964.80712890625
15,12320.083,7631.1143,1364.0261,-3331.065,-1182.159,-2256.9177,11975.4130859375
16,15628.527,7278.0464,16533.24,-975.97906,-3530.2468,13546.266,25862.19921875
17,19700.77,3742.9375,30986.264,5626.869,-1485.4402,9516.169,30584.044921875
18,7780.8774,15963.15,22079.031,-10919.068,11888.007,-7888.045,33506.88671875
19,1337.7377,455.41586,2538.765,72.1205,-62.275463,-440.7327,1972.46667480469
20,17836.102,12491.077,31785.691,2651.994,4684.4067,-9499.368,25600.10546875
21,3349.0422,22484.457,3189.1064,-1913.8394,-17722.324,-4174.7114,37077.828125
22,-344.3888,283.21237,85.49854,178.58936,-102.89585,-356.51755,904.238952636719
23,-3528.405,-4589.96,24609.373,-6924.1016,-1452.5524,504.4552,31203.4296875
24,2242.0857,20765.78,31933.06,2192.1763,-4471.376,9211.176,31680.095703125
25,27016.791,37401.523,37955.605,6932.82,-10040.662,7174.2935,26738.58203125
26,1447.765,15159.279,8182.704,-1946.6978,-13406.195,-9434.561,30961.24609375
27,52246.34,63870.945,74057.0,-1190.2831,-13742.229,-1720.0436,30609.939453125
28,20359.615,26541.613,36136.184,4222.479,-9216.978,10171.661,28430.978515625
29,-15488.575,-12044.452,-15849.229,2335.1448,-21060.66,3523.7593,37383.12109375
30,-19950.465,-11087.377,-9176.206,-6987.891,-15454.399,-3142.9583,31492.658203125
31,24772.184,37981.754,50122.66,3979.348,-12204.068,2348.4644,31514.12109375
32,15459.515,17639.715,35626.707,-2014.6683,-9665.886,-11081.904,32068.533203125
33,15852.736,22423.832,31369.014,3361.5422,-9067.413,9187.484,26753.66796875
34,10237.238,19149.102,29031.957,896.3117,-17264.688,-2781.8115,34423.8359375
35,12592.947,34347.727,-9604.021,1322.6514,-5997.323,-1032.7941,39562.83203125
36,12697.563,19100.898,24708.9,-1961.1555,-16859.586,-1063.4917,31241.490234375
37,9770.125,22544.096,25812.016,-203.14923,-17550.217,-2189.1836,33972.484375
38,16704.105,29958.094,36332.45,70.29806,-12061.949,-561.5142,27170.18359375
39,-1040.473,17960.812,6943.3833,-7699.173,-11220.4375,-9906.432,33511.578125
40,-666.4657,7116.9683,14594.435,5210.522,-7389.2173,6553.9106,23426.61328125
41,11178.716,20001.703,38875.31,1893.1826,-7264.396,7044.5938,30307.181640625
42,93.486824,2389.9155,2893.4902,-1953.593,233.88332,-1000.54114,4615.2490234375
43,276.7314,582.4277,62.311295,-615.5404,-462.952,-780.05316,1951.93908691406
44,-12762.935,-12466.924,-12534.912,48.30722,-395.09778,-515.99585,1160.2509765625
45,3875.945,9010.961,9054.221,8551.577,-3240.1924,-12227.915,26945.185546875
46,20330.926,8814.316,38352.93,-370.03934,1536.2885,-10258.947,31435.75390625
47,-8606.066,12558.665,-698.84564,5170.1147,-1002.9945,-100.84495,20648.353515625
48,26280.52,13265.188,35698.816,124.73917,-1735.3136,-13113.364,30093.96875
49,33779.547,15955.435,43270.324,2081.6885,-860.9836,-12225.002,32257.009765625
50,23166.922,16653.826,33025.508,2057.2646,2004.1279,-13129.894,27308.44140625
51,-16366.424,12290.123,-28671.0,3194.6882,-2848.7542,-3418.9531,37619.6640625
52,15879.841,7315.844,29138.092,1969.0646,-715.62964,-14115.295,31201.916015625
53,35066.082,23232.191,45597.91,5192.943,-676.1335,-14779.206,33363.73828125
54,17579.309,10556.223,33316.875,3590.9753,-2105.7227,-14226.029,32659.580078125
55,29051.338,16494.508,40792.273,6236.9834,-229.00246,-10989.14,30365.98828125
56,6887.665,-8373.261,25378.4,-850.59174,3394.701,-2984.8228,30339.06640625
57,-9264.333,-10697.572,12808.32,-7908.282,4324.1694,-8453.442,31288.84375
58,53014.965,63514.895,76637.58,-9361.182,6747.98,-239.10294,28634.123046875
59,34722.11,27774.578,10664.17,-9578.412,5629.917,5727.217,30473.56640625
60,33536.215,36442.676,50267.867,3496.317,15954.793,-2222.2917,32479.541015625
61,30527.807,43013.75,53527.133,-1865.3071,13896.5625,1491.991,31530.2890625
62,16439.307,27482.342,42201.707,-3767.298,10894.306,2751.5146,30372.728515625
63,9523.673,23611.066,40069.484,554.84467,10869.005,1398.113,32594.23046875
64,-17238.691,-3307.5002,-5178.3755,4178.428,11024.804,-2184.0254,24552.826171875
65,14439.061,25364.87,32102.26,886.4994,16363.965,-326.39563,32317.060546875
66,8921.668,19711.865,27478.066,3159.7375,13804.83,-654.49066,29385.3359375
67,17954.207,22160.215,35816.805,-95.19408,15724.952,-2867.4648,32064.765625
68,11894.78,5759.2134,-5060.217,-3271.6514,15167.628,-8318.046,33925.5078125
69,1374.0583,15669.435,19835.262,-1014.9605,15814.325,-4143.5874,32956.65234375
70,25966.984,32891.438,42827.1,-4958.6006,13587.441,6851.9956,31367.703125
71,8126.5034,-9429.974,-10729.852,2615.7693,15995.476,1849.7341,33631.80078125
72,21197.455,24075.275,30228.459,2523.6436,16890.65,-5933.73,32318.21875
73,30008.4,9269.102,-6131.598,1864.695,-1792.3582,4084.2693,32508.650390625
74,15795.652,14473.224,27518.535,1072.1298,14693.248,-5858.278,30145.625
75,7913.056,11691.365,24892.273,4456.681,10170.006,-4503.631,25867.69921875
76,3975.8186,511.76688,8414.779,1247.5159,17054.867,3867.7766,31132.525390625
77,-21758.979,-23281.107,-15740.279,133.57951,-5960.0884,1452.6888,12674.9853515625
78,-8753.275,-3456.9072,-17352.836,-1833.5608,799.4891,12964.682,25764.3671875
79,3246.8894,2831.3376,3788.7454,72.283195,-150.47546,-698.87213,1496.77331542969
80,6938.9805,2542.1357,13786.745,-3278.578,-933.82056,3299.634,12800.7314453125
81,22976.969,22318.59,20418.848,-392.42307,-79.159096,12499.274,21782.322265625
82,-1439.478,-2822.573,10095.278,2140.2976,-429.44583,9100.606,20339.033203125
83,8143.874,-14858.388,3584.6287,3392.926,-8804.869,11243.049,33035.57421875
84,11835.598,7938.75,21423.635,3310.101,-6844.4736,11649.294,26925.970703125
85,8780.475,5666.927,16961.707,-4310.7065,15868.977,309.14172,30225.9140625
86,43623.24,31907.967,57663.984,-499.29276,1493.3103,10782.625,29242.333984375
87,22081.09,12283.312,39867.316,-532.9513,-2375.967,11446.602,31582.806640625
88,14124.709,1151.094,23682.64,2444.7837,-5464.246,11306.309,29574.859375
89,11188.456,9248.679,24740.623,-5292.995,10141.846,9819.83,29926.875
90,19370.566,4401.3447,38085.93,-3409.765,4314.8057,634.84326,30764.234375
91,17462.914,22178.012,24971.025,2857.37,-17199.418,859.6699,30941.447265625
92,13804.087,29552.63,41445.906,-1909.7389,-12252.8125,2893.016,32606.939453125
93,19780.623,29763.775,42009.188,2098.3809,-13688.633,-3546.5493,31383.76953125
94,8016.3325,10976.734,169.25134,4413.047,-15204.832,-7162.1714,31614.03125
95,-20907.756,-5563.5903,-6245.886,13768.89,6653.283,8082.337,33510.5625
96,16431.062,22547.24,31781.787,2050.772,14502.413,-8084.4297,31918.890625
97,21207.277,29367.986,33451.56,3902.9644,12557.604,-10141.038,30722.94140625
98,13743.091,-2270.9968,20873.836,58.79503,749.57056,-13937.974,31717.318359375
99,22691.92,32751.404,45064.637,424.87906,-14872.037,146.94447,32261.626953125
100,29682.834,29366.451,41990.67,-1291.0077,-4063.2612,-14441.962,28908.7890625
101,27226.465,35795.5,46518.793,-8596.983,-12541.114,-1439.3961,31306.296875
102,58658.906,70550.91,83307.01,1829.634,-13197.901,500.2346,31451.240234375
103,-19314.61,-31084.48,-32594.043,-5050.7676,-19798.383,2727.061,37859.546875
104,27666.059,34835.43,50185.633,-1128.1576,-10495.878,-4073.8184,27949.53515625
105,8678.177,10710.368,17035.89,4578.688,-12730.68,-3450.6855,25334.2109375
106,-4630.0537,9122.732,22086.375,-5484.335,-7163.6416,-7089.729,30503.4609375
107,22204.836,25678.547,42073.508,3628.6184,-5183.0537,-3370.3582,22180.701171875
108,-18730.826,-9986.175,-3525.4731,149.47112,-7742.214,10241.409,25870.025390625
109,18043.191,4060.8865,18738.768,-1545.4152,-1758.7988,-3939.3003,16392.490234375
110,-9892.557,101.88354,6977.6255,-2825.0728,15950.694,-1675.6753,31804.474609375
111,-16031.873,-4128.206,-37417.562,-7878.9614,6650.053,5778.4463,35674.7578125
112,-6821.7783,-4140.001,-12130.505,-4762.7974,10614.022,1241.3658,21453.658203125
113,25365.674,16120.652,7831.1826,-7525.134,4058.006,10607.705,28065.591796875
114,9338.94,16975.531,29034.475,-2142.4075,13445.009,5273.011,30582.892578125
115,16003.126,-14610.104,-15724.421,-9868.531,-1792.7687,2257.6365,35911.29296875
116,7781.8306,14866.549,34641.67,-3657.5107,10604.15,-1619.2118,31091.6640625
117,13859.055,31481.246,42868.996,-3133.1963,11600.769,4002.9163,33498.5625
118,4386.352,-5978.555,7746.379,-4208.7207,7092.291,-6158.935,21711.439453125
119,-1357.2113,3971.435,-1062.0153,-4387.2217,-435.02548,3239.9736,10803.3232421875
120,18864.244,28585.453,37799.16,-961.8861,13036.808,-2353.9702,28253.087890625
121,9112.134,18338.873,34268.184,94.544044,-12139.632,-5981.9443,32176.71484375
122,19734.152,22426.871,36346.047,2394.9238,-14630.983,972.7575,30011.955078125
123,19483.457,28789.28,35559.633,453.54092,15063.099,2823.8303,30011.16015625
124,13525.699,-1400.0945,-15819.162,-4829.593,2154.1274,5467.1934,28626.40625
125,797.12085,-29.849745,1608.65,63.91042,-86.10429,807.43036,2000.97412109375
126,25021.895,18119.025,38949.746,8275.16,-3827.244,-13127.905,33229.21484375
127,45134.39,33459.215,56057.25,10584.547,5483.092,-9155.742,32571.744140625
128,6676.0376,21397.633,2070.661,7037.8677,-11576.085,5317.3037,30678.4375
129,42658.367,21553.459,41856.12,-3629.66,-8352.916,-5125.7256,27509.734375
130,5292.129,-8283.029,13922.053,2121.4094,1898.1138,9532.434,25938.86328125
131,18296.543,17200.54,26935.484,3084.4546,-6541.4346,13331.63,27846.1953125
132,31361.697,17797.49,49164.832,-1268.3018,1233.5741,69.52463,27419.521484375
133,9135.683,13198.916,5495.2095,615.7234,-2575.9646,13652.862,24996.021484375
134,23380.74,17636.613,39787.027,-2973.4617,-2856.3086,12187.384,29883.072265625
135,12361.565,10963.928,17038.625,3658.8257,-6298.9805,-15586.297,30304.380859375
136,-4090.7744,9671.93,19351.852,-6251.681,-7465.854,-6068.566,28483.060546875
137,1496.1315,-518.4699,499.03375,562.84174,-51.291843,24.81694,2001.044921875
138,2831.1597,1052.575,7259.4487,1478.0201,1124.6827,886.59625,6584.505859375
139,15746.674,34281.023,48067.617,177.33298,12664.138,1551.1151,35743.12890625
140,6902.5674,15485.488,23937.379,3690.2366,16777.771,-7520.633,35674.3203125
141,20723.54,29946.266,39498.562,-1065.0394,15524.69,-69.03083,31478.06640625
142,5217.4834,1626.8615,-11917.779,-4655.643,-2277.2974,-5326.214,20265.056640625
143,9474.015,22472.209,30236.719,-437.3476,12556.239,-2279.0566,28623.396484375
144,23080.729,28579.332,35699.69,-4694.941,14393.694,6691.1147,30693.02734375
145,18100.244,24689.629,34958.137,1890.0337,15743.337,-7077.6396,33482.515625
146,18947.818,31272.432,44966.45,276.7271,14835.037,-71.61465,34185.8984375
147,6681.626,-2306.461,-32239.24,3854.79,-3003.7974,2490.283,36551.96875
148,23461.37,55384.02,28033.256,7680.7397,-727.10095,-6148.788,34438.3671875
149,25891.906,15286.249,7277.2065,-9369.665,14606.458,1325.6948,34209.00390625
150,31642.893,23873.178,49677.758,8.276847,-6842.1523,-11479.174,32580.826171875
151,28327.666,16839.998,41458.277,51.326992,2554.3171,-10315.515,28178.548828125
152,17137.436,9051.455,26871.803,1340.2313,4985.5903,-9370.65,24129.58984375
153,22182.117,12308.099,22705.582,6063.651,3630.1145,-12639.1045,27055.8046875
154,18738.807,33555.562,38939.21,-446.6496,-13324.606,-5948.553,31107.521484375
155,15464.581,20893.562,28441.557,49.44444,-16556.076,-1689.5001,30956.5078125
156,14454.771,21231.344,22584.523,-1874.0786,-17869.344,1126.598,32081.26171875
157,10153.88,17366.59,11010.166,-1288.6715,-17979.502,-3743.9038,32609.81640625
158,-19184.914,-18380.402,-9948.381,26.613138,-9122.188,-2158.3157,18497.294921875
159,4305.4287,8356.91,7500.3164,2245.2515,-6815.022,-126.22943,12968.5244140625
160,24512.756,24750.273,34912.543,103.95227,4460.892,12230.686,24783.904296875
161,27596.201,21369.945,44804.617,2759.2424,1451.29,6934.3813,24808.380859375
162,27896.557,25513.754,42777.438,-2017.5669,4299.293,15411.347,32291.931640625
163,3821.1597,-6011.9097,8979.814,419.4333,-3064.228,15196.757,29925.689453125
164,9951.602,10845.747,20598.69,-3149.9822,141.69275,6834.847,16571.443359375
165,16918.693,24506.57,32256.81,-452.4118,-10923.581,-13755.382,33206.46875
166,-21764.027,-16457.383,-24690.254,2002.1982,1508.5419,-18966.793,33916.41015625
167,-14680.787,12538.42,-12959.768,-8886.081,-2018.103,-6575.6978,32799.8046875
168,34858.285,21151.205,31682.838,-157.02197,-2225.4841,15026.055,29098.46484375
169,18405.732,14310.553,26391.215,-2223.1992,-8648.979,6511.884,21901.978515625
170,17911.012,13546.148,31665.148,3424.8904,3388.1775,10469.606,25821.115234375
171,19466.145,20377.05,27309.727,-1920.5165,-3977.0151,-16626.127,30708.404296875
172,406.55478,8308.235,2187.278,-1567.2709,-891.7024,-14007.086,25492.875
173,28108.02,2879.2295,13351.947,-7235.136,6134.85,-3720.1091,28167.783203125
174,19245.646,-956.8245,10509.221,1261.107,7514.207,14505.533,33367.05078125
175,3059.3027,-9921.585,-21061.062,4962.7847,14393.305,-6933.342,35732.265625
176,-10082.006,973.8088,-13204.754,4153.436,-4939.476,-17059.955,34125.96875
177,25815.691,10825.9795,26244.307,4477.9434,2683.025,-12286.177,27674.9375
178,31438.654,11141.318,3770.983,-2652.4473,2656.9036,13850.83,35124.37890625
179,28688.805,25210.592,24889.5,873.6324,-7325.5444,15953.555,30661.80078125
180,37709.105,39569.395,19972.564,7671.029,-2971.6902,-14261.803,34121.3203125
181,7618.428,35544.938,18265.275,3150.0342,2563.2732,1247.8783,25496.41015625
182,4397.669,14484.401,24802.178,-173.67677,16571.61,-2866.6265,34071.53125
183,16113.589,26056.383,35634.863,2788.8892,11682.379,-10062.638,31974.693359375
184,-14409.95,-29089.361,-17782.736,5506.387,5138.4307,2972.3127,19339.73828125
185,18126.059,20366.158,6720.094,3438.943,-7745.504,-498.99753,19413.115234375
186,15937.484,18739.125,35166.156,7567.902,7.820362,9655.221,27842.568359375
187,23020.834,19217.299,29108.941,2087.1646,18828.725,-5648.687,35313.48828125
188,-6305.266,-6116.7754,-5719.2207,1005.33435,481.53918,-50.63352,2000.98388671875
189,20971.822,29397.773,2461.7937,-6086.019,-10975.99,9829.327,36496.1015625
190,29712.898,34709.773,37894.082,493.78998,2799.7131,19442.174,34774.43359375
191,8244.821,-12439.036,-4570.492,11958.414,-7133.0923,3336.994,30692.748046875
192,13134.417,7498.42,24780.594,-4080.9985,407.21237,-15313.806,31417.109375
193,-8132.3174,7158.073,116.45706,7953.863,-11251.6455,-5139.6504,28714.97265625
194,10412.755,-9256.592,-1800.6409,6608.083,-2499.5354,815.0943,21155.546875
195,4483.733,7089.646,5620.916,5594.342,5211.072,15559.468,30112.580078125
196,8741.754,17267.041,23639.912,1074.5686,-11084.103,-9096.262,28069.318359375
197,12975.308,2250.6553,621.7979,13320.201,-1907.1322,-516.60406,26060.23046875
198,14983.515,6268.599,1108.7042,4709.3647,18717.174,-7079.0503,37621.98046875
199,17864.453,1620.313,24727.166,6977.419,-12612.126,-9296.076,36124.078125
200,25974.062,7547.6597,36343.297,338.5576,-4052.0437,-981.2517,26279.470703125
201,5026.7075,-5516.631,1825.5725,-2447.905,-13902.079,2752.0923,26611.291015625
202,-6136.5293,-14112.322,-32026.146,5130.895,4758.6016,2840.767,26429.458984375
203,12014.207,17467.73,-1251.988,-11614.463,5271.622,2333.9424,27972.833984375
204,-12152.449,-21729.314,-18516.928,-7975.9927,-19455.688,-7624.0503,39649.33984375
205,12479.7295,-9357.153,5595.8467,-4429.5645,-10343.093,-11571.859,33991.76953125
206,10915.281,17940.482,2689.2212,-1903.2048,-9476.943,5665.5986,23482.16796875
207,-4903.085,-12813.795,-6993.925,-3432.4434,12588.321,5427.0537,25485.52734375
208,-12954.0,-13614.917,-13955.75,390.1824,-11366.639,6079.877,22354.666015625
209,11602.135,1998.8783,-3879.7678,-7565.3867,-1105.2716,-5614.0503,21287.505859375
210,18804.738,19356.174,-2313.9407,519.2193,10538.801,-275.94586,28145.771484375
211,3477.7156,9425.667,-15243.861,2059.3103,-2422.0884,2877.6865,23503.09765625
212,953.1323,43.446014,-6515.17,5160.1357,3545.0046,-5430.3984,15995.5966796875
213,-20292.31,-22397.148,-10293.853,3139.891,9075.107,-11021.927,27686.5078125
214,4416.7886,3650.443,4711.6987,38.105675,-304.34436,-266.43393,1181.29345703125
215,-9851.449,3787.2783,-14951.676,-6861.373,6915.13,10887.756,30362.966796875
216,2194.1892,2863.5847,-630.6529,16156.481,1166.8915,-3213.1821,28783.205078125
217,-2155.9775,8885.369,17965.535,-5002.124,-1082.8778,769.8583,19620.84765625
218,-35103.04,-56376.26,-40897.598,-8597.485,-98.89215,12697.256,32684.8359375
219,-11600.706,13833.038,-4393.3735,6485.663,4418.517,8416.907,30212.677734375
220,574.31696,13189.974,-7605.136,10156.132,5146.098,1229.9689,26882.59375
221,1602.7273,505.3056,6192.8853,-3368.7488,-6343.5312,-2534.8218,14189.91796875
222,-1334.8317,29981.127,19922.125,3104.049,-760.1737,2007.7865,28453.435546875
223,2687.8967,25016.473,13379.299,7375.0376,373.30222,13378.404,32782.37890625
224,8806.515,12446.455,9531.167,4290.4077,18449.4,4589.247,33921.734375
225,11473.893,6288.9795,732.6609,1998.7025,3517.2703,-4006.9746,13558.4130859375
226,-25245.809,-29392.482,-32076.17,-9492.372,5458.9116,10135.656,26522.341796875
227,654.2336,-8113.898,-4794.3857,8704.619,7165.089,9789.767,26974.77734375
228,11644.189,-10883.441,-6425.42,11969.557,9094.894,-170.76042,33241.375
229,21419.406,22437.855,16577.734,14962.769,5983.224,1280.241,28519.771484375
230,-4860.297,11778.156,3671.1455,9630.399,-6675.5005,2933.3926,25404.89453125
231,6625.4756,-7718.812,2545.5098,1781.7893,18585.244,-823.0873,34809.06640625
232,-3172.5586,1561.0889,4024.4727,4398.0527,17452.504,-10269.484,36446.1484375
233,16569.771,9031.267,14418.397,805.78705,17242.283,9793.215,35025.66796875
234,-4167.937,8955.786,-2469.8713,-4360.1533,13165.994,-13447.982,35671.25390625
235,48594.05,31460.268,48570.168,-11901.941,8362.138,2216.188,30702.39453125
236,29384.467,35322.15,40265.652,602.4923,6116.7095,5448.125,17071.169921875
237,-24383.121,-31859.658,-16499.89,-1772.5863,17482.285,-3814.4514,33866.65625
238,8241.817,12537.366,14573.7,7417.1733,11190.132,-9782.073,29310.62890625
239,16360.469,22881.336,24963.338,-1004.79297,16373.232,5966.221,31216.939453125
240,18886.994,8307.097,-7852.4644,-2053.6538,-4579.2563,-1497.6375,25026.427734375
241,-11229.301,-17704.021,12187.148,3454.28,6774.074,943.60175,30298.4921875
242,21279.889,18184.553,21158.678,2902.945,20202.963,-4118.065,36191.9375
243,11095.046,10164.103,4633.998,767.47687,19211.95,1802.278,33991.2578125
244,11201.088,13308.111,19088.332,-442.91846,14810.034,12403.491,34207.73828125
245,11493.836,13271.018,16880.396,-2267.1108,16906.453,11595.123,36039.4921875
246,16485.549,21537.87,25865.16,-324.3902,16068.454,9047.257,32963.22265625
247,9231.788,14609.04,10021.481,4715.0947,18596.969,-372.0951,33614.6640625
248,4818.524,9482.695,13271.879,1795.156,12013.028,-15433.161,34798.5546875
249,12238.415,8411.366,18362.598,4841.4463,17283.533,-2350.037,32536.716796875
250,-8794.801,5460.242,5271.2783,6278.2646,14418.764,-5545.6816,32167.748046875
251,8881.489,16659.633,22778.877,-6143.4233,16094.526,-857.23035,32219.12109375
252,43.124557,1520.6256,345.14954,-453.3748,35.759056,-138.24625,1582.97338867188
253,-4010.3167,-13264.017,-14179.766,5736.1963,-17593.955,5283.4863,34728.12890625
254,681.6728,-702.24426,282.78787,-617.48627,-667.69006,11.108544,2000.99475097656
255,-499.70267,1213.0068,482.31915,65.83165,-727.1205,-250.99089,2000.98120117188
256,3116.5532,1967.2582,2126.1099,46.696888,-362.43683,-901.78467,2000.95361328125
257,5978.867,465.4608,9412.7,-3517.8186,2127.4744,-8606.191,18276.328125
258,-10233.166,7970.887,1213.4287,-167.3113,-2005.0513,-4516.2046,18093.38671875
259,6089.2173,10722.213,18050.635,-4063.4368,-1671.6394,-13177.75,26229.751953125
260,-27626.08,-638.1066,-34144.52,-2472.9429,-382.05875,4105.0293,31876.294921875
261,38701.008,20972.998,26807.736,10777.492,11258.675,-3053.6445,31648.044921875
262,23184.398,20817.932,28152.14,-236.23068,-131.49927,-17817.111,31537.31640625
263,-863.42334,942.86475,16223.3125,1276.3242,-10752.828,-11601.17,31935.466796875
264,-11064.562,1129.5023,11185.27,7260.372,-10386.461,-2664.4626,29588.970703125
265,9209.479,11548.094,15673.701,-2065.321,9760.324,-14417.211,30891.654296875
266,-10010.566,6656.496,-14613.541,-8595.109,-6539.7173,9982.731,32009.2578125
267,5621.2485,5370.093,7479.63,6451.968,13527.806,-14019.415,35602.015625
268,19394.898,24133.555,23708.6,-5409.7466,-11701.612,-16202.837,36149.64453125
269,9689.453,18425.03,12496.53,-1003.0294,-9454.289,-11179.554,26566.609375
270,13696.44,2087.0964,-19346.164,-3051.5417,-4263.6567,-2771.8445,30797.87109375
271,17534.094,8568.537,20924.068,3706.3752,5895.298,-11264.219,25463.48828125
272,43779.707,28974.959,49394.59,-4537.4185,-6424.6064,5527.2295,24719.958984375
273,19350.914,36529.387,60202.633,-1114.0399,2296.828,-136.81282,35802.2109375
274,-9333.069,1847.9863,-11433.793,2247.389,-7209.4985,13831.9795,29966.16796875
275,9422.784,6670.386,1396.1398,2799.4297,1670.1329,10892.207,20921.5
276,-15109.324,7946.106,-21924.28,2517.1064,-1727.5581,8924.886,31655.01171875
277,-540.2101,13469.921,-12268.226,-1421.8745,169.33524,-10389.218,28776.724609375
278,7830.1577,24145.922,5219.1367,-274.11746,9513.678,-3266.6978,24887.587890625
279,16221.601,24459.93,-1773.6315,-2715.7903,5897.7876,-6105.8853,27897.54296875
280,26580.0,16234.771,8001.6855,5191.992,-8312.82,-2640.2485,23855.244140625
281,12890.155,4367.648,-11038.024,-8931.015,7668.545,2941.5312,29714.12890625
282,-3934.609,10402.057,-4317.078,-3322.1042,-5094.8447,4359.6104,19472.279296875
283,747.6945,426.75256,931.30066,2618.6187,-860.4997,5332.994,10407.255859375
284,10724.386,14779.996,13848.981,-10014.321,-4086.5474,-8436.343,24041.923828125
285,-49430.1,-21798.16,-56512.33,6422.2314,-5163.511,-2566.3926,35112.07421875
286,-3302.2864,1263.8014,10234.884,8320.216,-58.698032,-4403.991,20203.1171875
287,-12779.78,3160.049,-23963.965,-69.93595,-15005.597,-4311.703,35898.87109375
288,6809.1343,2512.3857,-18993.309,5919.862,-1378.8425,10360.092,31720.560546875
289,11164.46,10904.593,19172.361,11186.773,-12621.201,-2841.9893,30721.6796875
290,-16109.742,-3828.764,-1884.8367,6680.4614,-12488.639,424.1861,27942.76953125
291,6901.2446,-9963.615,-13496.583,-1233.0153,3176.772,-5546.229,21991.06640625
292,1128.005,11562.274,19776.186,-6673.5156,16971.555,-4793.608,36451.2421875
293,10865.254,5818.1885,3692.641,4183.954,17100.969,6197.7046,32951.46484375
294,10699.48,8991.008,11775.98,937.96173,20934.432,802.85986,36403.86328125
295,17165.584,-14256.3955,8919.045,3093.5269,1409.0739,-4934.177,30065.3984375
296,2575.1318,2467.7158,2559.552,381.9163,-322.0634,37.023125,873.483947753906
297,-1715.4183,11849.827,-6075.199,-2075.8875,-7017.274,5390.4863,22582.990234375
298,7450.0645,14475.83,25470.271,-9286.786,-3467.6147,-598.09406,23310.14453125
299,-6607.876,-13460.631,-3931.6204,-4341.5127,5194.0317,-1868.2122,14846.314453125
300,4385.0703,11658.639,3946.5662,-684.252,-11420.878,-2721.334,21707.544921875
301,16539.94,12085.614,18651.42,-2734.0305,7339.8335,-14611.346,29295.443359375
302,21414.637,22514.5,25121.092,-1598.9606,4939.893,-17412.285,31643.509765625
303,28289.988,25452.363,24253.16,3489.2837,5169.602,-18096.611,33347.484375
304,11360.418,10707.279,-3448.0264,-2666.1038,-13974.069,-8093.771,31838.97265625
305,6783.1846,29864.441,5748.961,-4579.8345,-3542.4436,-7210.06,28534.392578125
306,664.3513,303.23593,-509.72925,40.482414,-55.798386,-779.2605,1709.06079101563
307,-4038.5125,14981.614,5898.7363,9755.433,-8315.186,3548.247,28323.29296875
308,18876.068,15304.918,31165.258,-9557.736,157.51326,-14559.651,33432.61328125
309,-2114.8904,14346.407,18628.594,1920.7983,-998.6887,10876.406,26995.388671875
310,3361.3035,10340.587,15811.42,-1857.9539,2010.6267,-15926.701,30004.76953125
311,220.66042,-215.89908,7.7445188,938.61847,386.58203,301.72934,1872.81591796875
312,-4439.4883,2055.4446,-5947.0776,-4785.681,3682.2397,-1889.3853,13203.896484375
313,13404.371,23980.363,20942.53,1405.2223,-10781.796,-7312.5913,24577.208984375
314,102.864555,5131.169,-21763.918,-9073.369,-4455.5845,5789.162,31944.810546875
315,10334.881,-6194.4775,13969.5,2164.99,15438.339,9788.925,36919.71875
316,26463.834,-1553.8864,-9552.377,-436.7357,-9297.86,-1910.7747,36659.84375
317,-25708.932,-18340.066,-7842.058,-1690.3146,-16004.641,9075.716,35580.75
318,32690.223,1688.0767,14898.089,-5926.808,-790.84,-4950.666,30114.505859375
319,-11151.548,-15749.96,-13784.45,560.51953,-5396.4717,5583.8057,14064.68359375
320,-10422.306,-12155.454,-8768.658,-690.1502,-13079.589,-805.28644,22917.3671875
321,4921.452,10563.723,7540.203,-14794.632,-3089.9866,7542.9727,29663.009765625
322,4418.4688,9143.751,9271.143,-1607.4309,3966.8845,-8068.112,16528.453125
323,564.04425,2251.1785,1620.7893,32.26688,-223.43143,640.29297,1887.61083984375
324,3955.1921,10570.172,13801.451,-663.22766,3317.3926,5745.369,14454.6416015625
325,2329.301,9156.71,-11447.069,-4313.9575,7217.8164,443.32913,23306.00390625
326,-12162.377,-15748.313,-17784.625,-4603.356,18586.406,1794.5146,33673.5
327,6841.016,15041.568,17967.004,3951.088,16232.215,-6233.676,32460.1484375
328,17341.916,12148.626,16440.566,574.06665,15174.414,10113.7,31964.6640625
329,10770.972,10639.472,15540.076,2112.842,6296.8433,-1063.456,12614.4599609375
330,7398.1133,11850.234,8470.209,-4448.663,17797.96,7720.86,34708.88671875
331,-8439.348,-11244.541,-22685.793,-8842.476,16653.246,-2063.1304,35358.10546875
332,22060.81,21514.756,28422.623,-1475.692,14444.614,-11573.186,32841.046875
333,7010.6826,6254.2637,20879.2,-2760.7622,17991.412,-3209.9424,35046.36328125
334,11691.728,11878.503,18531.15,-1839.5327,10004.834,10632.188,26364.884765625
335,1974.5067,12359.756,16116.133,-2855.6787,8680.804,-12896.074,30173.41015625
336,-5252.627,-13751.426,-11595.895,-3709.6553,1905.1738,-17568.1,32196.962890625
337,1203.6243,20832.83,3802.566,4.1462297,3145.4236,-16225.605,34066.65625
338,3924.0437,22849.041,-8513.316,-408.94223,-8519.532,2831.1633,31472.462890625
339,-8231.906,-18437.691,-19513.139,225.61945,-9221.951,17087.703,35320.60546875
340,588.2708,-13203.646,23240.709,1207.1846,-4787.0723,-9285.782,36709.23046875
341,15405.74,7659.773,2719.707,-6367.6704,803.1701,1119.7551,15811.65234375
342,9856.658,5544.157,6213.089,-2416.0896,10975.22,-3093.9734,20585.36328125
343,-505.10095,-19264.479,-4512.763,1398.1998,2112.3691,8186.4185,22651.6640625
344,-2842.1028,-16979.393,-7474.7764,289.83533,-4460.732,2636.019,15382.5673828125
345,11643.152,-1234.1813,-12171.46,5455.0996,5756.7485,2895.2522,25300.890625
346,-14885.774,8490.881,-13776.731,-256.96393,927.24054,14844.525,34432.97265625
347,-8119.7026,463.41382,-996.3114,-6061.702,-2800.0952,-2942.0632,14932.95703125
348,9753.764,-11435.7295,-24317.83,1205.4738,-3075.304,-5225.3975,31663.14453125
349,16074.627,1160.044,19421.338,-4998.7227,-8826.1,12787.02,32905.09765625
350,-8671.616,8014.4814,12422.969,3260.231,776.9768,-6794.8438,23315.857421875
351,19151.521,30830.51,15508.029,228.23122,18120.19,-418.05627,34320.9921875
352,12310.98,-9382.467,9099.257,-4769.0527,-4433.1484,-3149.5566,23836.875
353,5668.688,5865.0083,-25723.39,-2413.719,9276.486,2721.6973,35909.953125
354,6831.215,301.41257,15962.686,1973.4838,-15433.481,776.4609,30227.775390625
355,27769.762,13103.241,44937.7,-1600.2291,-420.47128,5339.7886,29247.07421875
356,-3978.6858,5737.8154,-25245.01,-6622.542,-2098.1455,540.85205,29982.654296875
357,11373.639,19026.174,19551.426,-1444.3295,-2527.1025,3031.5767,10763.134765625
358,2817.6099,10110.94,-4604.842,-1003.8292,8379.343,-2110.5068,19734.37890625
359,-5266.821,10405.0625,1450.7943,3338.0283,-3074.9563,-2867.6372,16489.99609375
360,-4527.203,-2118.3682,-912.92804,180.52171,17.943096,513.828,3324.16381835938
361,1269.1671,3421.2166,1316.8812,91.20577,214.95366,136.10352,2179.46166992188
362,14348.145,36520.71,17824.684,1338.2467,995.9345,14303.404,32384.189453125
363,-924.14685,-2315.2688,-2615.3135,87.34135,-515.98126,1030.7484,2539.99365234375
364,-14669.8,-7516.237,5548.925,-13236.808,-2852.5876,-1248.7291,29496.8359375
365,-4305.359,6195.6562,-350.65753,-2432.965,294.63577,481.68225,10153.6708984375
366,-5320.416,8265.598,326.64093,3492.704,2373.3008,-477.97812,13925.8046875
367,4026.7524,-4731.9595,-2662.5994,-2716.4077,-808.8541,-281.1532,9338.5673828125
368,10364.863,-323.4822,-2029.6072,1466.9308,-1536.3052,726.6552,12268.158203125
369,2839.5142,9887.44,4157.1646,2041.903,1362.858,-2554.0845,8931.576171875
370,5424.483,6726.559,3316.854,1877.5333,285.69632,6.077933,4438.71240234375
371,4817.0557,-60.493427,-2141.3625,638.1746,-1319.2976,1390.0837,7107.072265625
372,-4491.656,-722.173,342.94864,1144.1215,-1068.1407,753.30615,5330.166015625
373,-1293.4117,1740.2781,426.1886,2382.5217,-32.922337,76.48283,4898.32568359375
374,-1660.2151,-1898.4457,17.5447,384.24716,-280.3395,236.1279,2029.11376953125
375,1236.1885,-1063.265,504.05942,-1045.0665,-312.14996,-681.9597,3017.28588867188
376,18027.402,7878.229,-2719.939,10753.11,-201.0512,4762.5464,27165.1328125
377,-10528.911,11592.868,-8324.929,-1792.6407,2349.8364,-7086.265,24946.462890625
378,-434.21826,5249.934,2724.1824,4632.0283,-589.9936,1818.923,9983.4375
379,3231.025,3291.7034,2854.1387,2328.0815,-13.541895,134.79546,4059.9931640625
380,-27915.28,-14154.567,-16759.064,-8843.641,1948.4994,-9493.18,26013.11328125
381,28115.326,1091.0178,22575.346,-1767.9672,7276.426,417.50565,27929.01171875
382,18686.787,3299.5896,23037.57,-4462.0645,5411.932,1023.88904,21757.380859375
383,3714.204,-6060.7324,-13812.476,2555.4666,-6030.027,486.91602,18994.6796875
384,-9805.345,-3114.1208,-14142.618,-4224.9985,-265.22055,16.43206,12098.3369140625
385,-5402.2783,-764.7354,-3135.9216,2813.4275,141.43408,-1302.2778,6710.19873046875
386,-5501.8457,-1934.051,-320.47916,307.6755,-148.38828,393.66074,4680.2373046875
387,2079.3005,497.08762,843.90985,4715.6074,-120.68514,840.79944,8423.201171875
388,-1802.7528,4824.136,1299.3656,-725.52625,-524.1445,-227.20573,5961.51123046875
389,-4644.9185,4477.378,-426.82443,-1793.1536,1062.51,-717.77686,8781.1435546875
390,-7831.989,-1530.1511,-806.379,-4423.678,-1280.2803,-593.7099,10463.255859375
391,2596.2693,1620.6766,929.8335,-6638.53,992.95325,-1607.0735,12042.390625
392,-1849.3583,-10.837366,-291.93878,-1860.9142,-95.42221,82.39622,3657.73901367188
393,3799.1704,-2865.9893,3116.6758,-2694.7954,122.46815,-955.91516,8056.87939453125
394,7511.101,1288.8368,1974.5898,-1167.4602,-350.19275,287.0968,6294.7568359375
395,8213.156,1627.622,1267.5747,3781.1045,-340.1396,-637.1346,9503.955078125
396,-2067.411,5036.6685,-710.6667,2841.6628,562.4098,331.70883,8256.7802734375
397,-5636.418,-201.86717,395.90295,2615.7646,-395.0918,386.26624,7388.02099609375
398,-4416.842,-535.1523,-3064.8718,3078.7832,1419.0615,1366.0826,7191.931640625
399,-22797.455,-30105.164,-26938.035,-13428.787,-10824.514,-7722.3105,33342.140625
400,-2285.2188,-2187.7898,-12959.226,-13399.966,-2860.245,-5896.769,27973.5546875
401,-4509.323,1138.8148,-24038.053,-1033.4109,-8903.592,-1026.0505,27708.439453125
402,-21962.57,-615.4953,-10327.207,-7293.9585,-632.70435,-9672.126,28002.765625
403,19.39986,6492.1006,-4441.5396,-8408.355,1436.0166,5459.356,19959.25
404,-10142.655,10808.849,11835.421,1577.2601,3440.6023,1680.2068,22648.916015625
405,5401.0405,828.92126,-159.81866,555.1047,1493.6671,788.18353,5990.30615234375
406,3184.04,-158.09753,1869.0216,-226.6615,356.3577,599.7336,3180.93115234375
407,4805.1743,-1383.7098,-1491.5891,1722.7825,-2136.6196,1217.8378,8125.9052734375
408,8728.08,4365.219,1778.1562,-670.37354,546.0025,157.24562,6271.45751953125
409,6379.9917,-2766.7585,2894.2488,-2000.9197,-1333.9135,605.6293,9076.3203125
410,1144.5165,-6332.4927,-112.84753,-7160.573,164.60106,1283.6145,14385.0966796875
411,-1753.4443,-3641.0818,-680.10535,-2846.6294,-1353.1628,1122.5583,6350.17822265625
412,2554.7585,842.3511,-766.901,1486.8904,280.09692,-320.11603,3931.03564453125
413,25416.979,10089.915,33949.402,-10286.043,1283.234,12420.643,34980.8984375
414,7291.3,750.0865,975.1308,-1792.5566,493.11584,328.69397,7215.22265625
415,-38196.727,-35380.957,-36465.48,-10476.149,6222.1465,-9045.813,26399.349609375
416,2079.1797,-3167.3787,-8247.429,1163.0972,1843.9498,-2028.6915,10324.32421875
417,5748.5186,4298.3047,1527.8112,2675.7146,478.55273,773.15094,6144.52880859375
418,10547.463,278.15176,6398.1987,456.10718,-326.2439,1409.0074,9325.46875
419,12118.9375,2714.952,12904.904,8232.0,4050.348,-2391.4739,19134.125
420,8184.4463,8764.832,-12038.82,6195.5107,6785.391,-6076.0103,28019.38671875
421,-5920.245,-2446.9668,-905.34265,-2061.4773,-573.8202,1854.735,6622.06591796875
422,2019.7142,13561.371,418.18076,-4049.8547,2677.761,-2533.6653,15627.9453125
423,-7766.432,-10997.153,-16346.922,-6521.81,3205.8962,-8305.898,20536.318359375
424,-4115.152,-29.215693,-1698.1665,-2169.0488,1279.1885,415.6814,5674.7431640625
425,1001.32684,8143.381,13700.37,5540.0747,-1581.3213,7287.17,19505.509765625
426,17452.346,3276.4214,1023.1578,-9475.185,-2022.5946,1362.4714,22916.263671875
427,-4429.739,2761.8018,1506.8479,-559.36255,1449.6719,-275.2553,7192.962890625
428,-4541.5415,3491.171,464.3948,1306.2935,328.78195,464.11243,7447.302734375
429,-2291.5896,-561.453,182.9817,-2547.3716,-809.10876,251.56596,5143.60400390625
430,-6192.024,197.60312,-5896.49,3849.6768,-2096.542,574.36414,9882.4345703125
431,-6031.845,1482.4634,-870.1329,-557.41284,-160.06642,288.20734,6751.265625
432,-4441.0747,-7661.9453,-4414.406,1384.4143,289.2987,-4753.6143,9178.8916015625
433,-12778.029,-12037.83,-12505.631,-943.1797,4145.5967,2212.6052,8326.705078125
434,9141.598,3313.6655,-1762.652,1738.3054,239.774,-812.0736,10026.6748046875
435,5004.759,-2388.0244,-1387.9015,26.934212,2150.4927,-1957.3577,8580.767578125
436,29569.486,2743.4858,13915.974,-3327.9995,1785.8843,1430.7506,24365.583984375
437,6050.363,2624.5542,1865.7888,2248.7668,-283.2497,-1823.5066,6348.09814453125
438,4835.8115,1584.2977,-3380.7515,-790.22394,2419.6162,586.2378,8475.6123046875
439,21881.125,28742.836,23675.875,5244.0166,10844.796,12414.503,30588.83203125
440,3866.6794,-731.18146,1167.0786,1980.3038,-651.3029,1385.7604,5900.35400390625
441,5295.3228,8327.776,-309.28638,2085.4321,2466.032,-679.50854,9501.544921875
442,-2387.2788,1730.369,128.39946,349.48306,-295.65164,438.93335,3759.20434570313
443,1009.16876,-5214.4795,-6049.5405,2779.8713,430.10205,143.9585,8272.1484375
444,2646.0588,9010.141,6513.7666,-1508.5764,1097.021,3833.8174,9240.05078125
445,-741.05695,-1535.3474,-1071.9033,-2582.8616,-24.4488,537.37756,4621.60205078125
446,-2890.05,-1210.2603,1106.9564,-3180.7544,1626.5006,-175.938,7103.84375
447,-2365.318,-1796.4686,853.85486,-2046.5441,-195.41487,49.621956,4641.380859375
448,11189.039,2781.6902,6013.526,-3846.4265,-17834.488,293.6674,32446.998046875
449,-8979.079,-2332.297,-4007.8933,-1965.7648,2754.9578,1109.4391,8596.78125
450,2152.221,1673.9636,3561.1914,1702.2,106.55072,1298.1987,4082.92211914063
451,-7939.558,-2963.9207,-4867.7715,745.3522,654.9512,-1260.325,5160.1875
452,-3353.3833,-2173.069,1240.9181,1754.1392,-1162.671,-660.00793,5627.724609375
453,-442.806,485.4589,2057.4053,-5073.0635,-1757.2568,3392.6267,11215.765625
454,-4532.162,1414.2787,162.30707,-2428.5286,-1090.8524,627.0497,7205.9365234375
455,-924.02313,467.6457,1095.0597,-765.1161,-68.20292,-293.62933,2287.43530273438
456,-5216.247,-38.37945,-1172.9825,3425.0637,-208.86937,199.70631,7593.84765625
457,10454.99,6778.722,14380.6045,-10018.156,-7914.8774,809.18744,23115.958984375
458,4261.5874,8646.113,-153.33353,1402.2439,-2194.6406,-1305.6166,9139.75
459,4671.113,7951.3794,7247.2124,-2521.4885,6420.644,-1471.0337,12577.1884765625
460,7117.694,-800.11914,6267.024,1334.7802,717.4952,-1922.919,8640.724609375
461,380.6432,-3162.21,148.36923,-833.93896,-333.75406,589.37775,3904.54638671875
462,542.8491,-2256.388,-358.6941,1100.6171,1070.8546,-197.48474,3649.12841796875
463,-1008.2261,-5199.522,-3474.477,-1554.3118,244.98569,-1678.0186,5402.54736328125
464,1117.8553,-3668.5425,3823.1658,-1843.4453,-1618.1556,217.48767,7833.84033203125
465,1003.4761,-3194.515,-3905.683,-1897.6166,-1456.2538,1955.0997,7053.11865234375
466,-3741.4702,2580.1382,-650.13245,-922.19476,-320.61966,518.9602,5800.392578125
467,-3158.7595,741.1464,1236.7942,85.43112,-185.40489,112.13959,4189.3505859375
468,-10212.158,-9391.168,-15954.92,3257.9314,6575.5376,-1179.0767,14286.1533203125
469,3870.1597,7090.9946,11114.359,371.76025,-5227.4414,499.5562,11075.267578125
470,-2226.3271,-3734.9834,-4803.6475,-3297.0774,-9287.866,11716.386,26613.09765625
471,-5337.1626,-2050.441,-335.56226,-2259.92,197.43335,460.3039,5954.32373046875
472,-1522.4178,-824.6154,5970.3105,1967.3966,709.3212,-396.85355,8061.841796875
473,-3879.7693,194.31831,-140.78587,1758.3324,-99.427605,144.39084,4971.18115234375
474,383.3297,5140.651,5020.2407,-1010.2634,-1475.1147,-3228.3406,7932.85009765625
475,-2314.5173,-4901.3296,-4916.899,-2895.9553,559.9171,-1177.824,6082.27880859375
476,-6418.812,-6871.4214,5138.83,5021.969,11735.902,-1704.8994,25230.732421875
477,-2892.8062,-476.14047,-337.33234,-2641.0679,606.2922,-688.0609,5444.60888671875
478,-9243.869,-15206.148,5473.503,12051.469,-3206.8484,-7867.4736,31498.501953125
479,-1251.3226,-677.44574,538.39996,-3092.0845,-95.21793,-1052.6031,5877.02587890625
480,858.79846,3302.76,630.9184,62.584064,662.7782,167.61356,2827.66064453125
481,2757.4373,4517.1055,248.47151,974.36664,-289.74713,52.955883,4112.75244140625
482,2359.8564,-3533.0505,234.14941,-522.6267,-531.2255,470.7007,5389.72021484375
483,1296.9196,-5095.073,-1564.1747,-484.18173,-202.29343,43.61295,5620.24072265625
484,823.3606,3245.3418,1389.1104,3373.8752,-724.2571,857.5721,6537.9560546875
485,-2819.2273,-5448.637,-879.4812,3719.333,393.12994,39.811676,7599.04736328125
486,3448.0857,-438.5344,1504.1178,2462.6423,-2714.7373,1767.4785,7810.5390625
487,-4699.643,-5999.6357,1526.5165,3442.263,-495.37073,226.9787,9218.853515625
488,1857.8154,3367.2993,3573.4773,-1026.2576,-833.10614,-2740.602,5514.234375
489,-1126.2894,-946.49615,965.2742,-1548.8785,-383.91052,-486.09277,3518.38159179688
490,-1072.8044,-53.101677,-509.53354,-2623.5737,146.65771,448.48535,4701.06982421875
491,-8351.715,-5185.3047,-513.91235,-1674.621,409.99518,61.157578,7454.40625
492,-10894.348,-6703.36,-3256.6096,1120.2775,-1027.8971,-848.3839,7278.99755859375
493,-4848.4214,-1517.142,-5601.6846,1310.2327,2153.051,737.236,5904.3818359375
494,1776.994,-5290.633,-1248.194,-670.0237,-165.89507,431.02927,6301.50244140625
495,1223.4838,-2760.2007,-1142.4352,110.07685,-56.36346,68.54346,3478.82373046875
496,5749.0093,2373.7163,1480.3917,-897.08234,305.1963,56.688236,4231.92724609375
497,-2944.7524,1899.7565,1547.2882,-1908.292,-1992.6863,-489.59485,6741.0830078125
498,-5271.6553,14.826389,64.72504,-91.21303,813.9452,-28.524948,5498.00732421875
499,3203.752,-3602.8992,990.3797,-1343.1931,-533.2252,-80.53954,6515.275390625
500,-351.36893,-127.04157,-1946.2029,-4982.432,-663.67065,602.06464,8935.00390625
501,2045.6362,-2491.994,1529.5626,181.88757,-436.44583,-97.994125,4383.3984375
502,-4049.6887,-2172.8083,1489.1617,1481.7454,363.30875,551.696,5630.4150390625
503,-5084.282,2112.0244,-231.51393,20.266329,-438.34296,-266.02228,6419.0458984375
504,-1201.3075,783.48224,-6688.065,735.0735,-1471.953,-1117.4214,7536.62939453125
505,-6825.893,4436.7285,1571.9381,-562.6883,1239.0332,324.54254,10424.013671875
506,1192.3684,1181.1473,2659.1716,-2268.502,824.6884,418.5994,4491.37060546875
507,-1223.0181,-850.5221,-2727.5586,-2027.1512,-2466.1536,-968.7796,6029.2783203125
508,8183.661,-3981.0066,-5445.31,-11170.779,-9803.177,-557.2688,28836.322265625
509,-937.145,-2621.484,-868.96173,-4.579608,437.50635,10.729689,1879.13110351563
510,-389.60263,-1379.3633,-1666.6913,714.9354,199.21126,93.521225,1739.32788085938
511,1470.3849,-82.36087,570.89044,-299.47705,411.23032,-519.5089,1846.478515625
512,-2124.8972,-940.7178,-1512.9572,2357.8877,745.6534,1805.7881,5402.00146484375
513,-2328.4727,3534.6106,-768.4266,285.35522,137.78726,19.459646,5288.2119140625
514,-3492.7498,674.231,886.35004,3942.0044,-766.8202,352.08356,8188.20751953125
515,-2518.5957,3370.51,-471.15247,237.843,38.702774,-280.69534,5217.90673828125
516,-3274.6516,-7194.717,-13269.182,-859.2833,-4349.6255,272.43658,11630.7275390625
517,1274.1614,-2610.422,2009.207,-3485.2292,1038.6733,587.10065,7693.93798828125
518,3128.7302,60.690987,1252.9315,-2968.759,526.87396,772.3624,6019.9228515625
519,-3455.7214,-579.0748,-4333.1216,419.23697,4171.0405,1088.2576,8236.615234375
520,7897.132,-1337.8142,8677.359,-741.47784,2717.4517,-949.6862,10936.5009765625
521,-13508.426,-10180.463,-6963.609,804.7001,1660.2227,-725.8092,6627.29931640625
522,-1771.3822,2694.567,243.77313,-100.74681,548.2255,-456.69644,4069.86352539063
523,-1422.3772,-337.02026,-1299.617,-2191.775,-1764.4221,-269.44006,5002.88037109375
524,1419.636,-494.01495,-853.12134,-554.02875,-185.4441,-95.82721,2351.54907226563
525,-4120.064,-2879.0652,-3136.3635,-168.56361,-2558.351,2799.6792,6672.50341796875
526,-5631.3555,-2721.878,2675.7869,-126.66447,-317.60785,-784.386,7449.8837890625
527,-7579.014,-4508.388,-1248.0214,-378.09647,388.258,-148.61534,5569.33251953125
528,-1089.0599,26.54247,-977.16876,1737.1669,25.015879,-787.72,3471.15161132813
529,157.7437,593.6426,-90.549904,2365.2644,603.52094,-936.2774,4567.91796875
530,2231.9192,6732.276,4211.7603,1550.555,1448.7177,-1152.1895,5723.16552734375
531,-2741.194,-1153.4829,-3692.7593,2875.5737,-1255.0482,131.96317,5875.505859375
532,-5172.7803,-1419.8,-3833.917,3032.51,-741.6309,458.91803,6381.4501953125
533,-806.0408,-5991.9126,259.02438,1288.9471,-559.5126,-35.050385,6283.14599609375
534,773.7242,-5187.3027,644.5479,-81.27669,234.19592,34.587536,5913.4130859375
535,-129.50648,-4743.2812,1069.3489,891.5963,-269.97757,-109.847626,5558.33740234375
536,-44.14392,-2853.8674,1814.4965,1664.1046,403.16537,-618.3934,5149.16943359375
537,-6094.357,5316.5327,-1012.1203,-280.20227,51.018982,647.7005,9977.3037109375
538,-4115.826,-1920.7979,-591.28754,259.10104,-666.2733,826.2475,3617.357421875
539,1938.4088,136.57126,3193.761,-241.84807,1423.9581,175.96385,3665.48779296875
540,1569.4803,-852.50885,1056.8652,1539.3367,-72.56011,84.21362,3468.86181640625
541,1780.0051,6514.127,-484.0397,-790.9816,-99.377914,34.078342,6337.67626953125
542,-4283.383,223.64862,1172.195,4671.649,119.162346,679.93463,9612.005859375
543,-2198.3333,-2351.0273,1218.4922,4400.092,2896.9746,-1491.3087,10107.005859375
544,7305.018,-1346.5876,-2220.5823,1152.277,-484.01788,-77.68114,9374.419921875
545,-3315.6553,-1023.07544,-668.41235,-882.33606,-142.34914,-182.79897,2948.1162109375
546,7511.54,-1093.8569,15.696145,473.11118,134.8306,82.111145,8153.65478515625
547,4424.258,-6107.805,-766.8241,-2390.4802,-34.354015,95.40623,10018.6279296875
548,4228.4863,-4004.2034,101.74338,-3192.5227,-290.3963,-65.92382,9037.45703125
549,-668.0855,3421.442,8251.228,4656.1953,-1323.1753,-353.32465,11422.3447265625
550,2546.2463,-256.51804,-1273.8955,690.7818,253.55113,116.16236,3661.54321289063
551,1523.6626,-412.65015,292.49966,1823.0757,-146.28871,-202.10536,3610.9150390625
552,-6783.4287,-3313.4219,-5495.432,-2311.7004,1437.5366,-1082.5034,5914.16748046875
553,3176.376,2384.719,254.78302,-2394.7478,361.6297,344.4274,4980.18017578125
554,-8397.425,-8487.831,-2220.887,-2134.1602,277.89508,-521.7222,7309.47119140625
555,2119.6914,2175.4224,3808.6543,294.5137,-440.58246,-2090.771,4088.77685546875
556,2607.4429,1838.8295,1049.7899,-106.12898,-24.980259,352.1598,1492.49047851563
557,-3861.451,975.4355,371.30115,-1269.9344,362.43564,908.95013,5343.14208984375
558,2346.4146,2910.4531,322.16296,667.00275,397.9635,537.8783,2869.70922851563
559,1266.0007,1166.1831,-935.1447,834.5436,-831.1394,58.0226,2967.68579101563
560,-2686.1345,-6036.1064,-120.349594,41.073284,-28.696226,-348.0118,5174.1416015625
561,-2012.4388,-5599.168,678.48566,-28.934765,106.898125,156.24675,5465.10302734375
562,-696.66486,2916.39,6633.2036,-1640.5149,-3639.5938,-3049.5933,10770.8759765625
563,-1199.0273,-298.55276,1134.5615,154.84558,202.20378,362.8327,2178.23022460938
564,3212.4631,-673.45166,733.7785,2091.996,104.82646,103.655975,4980.64208984375
565,-1724.995,2439.472,-267.5657,662.67676,247.81046,18.973406,3860.07788085938
566,6500.471,233.22504,388.0004,521.453,117.110535,-62.475216,6261.06298828125
567,2595.0842,-1374.385,474.29556,1156.3386,173.63475,-292.24106,4024.18237304688
568,1763.0176,-2526.5264,244.4074,-1482.498,56.73445,-52.182186,4561.07958984375
569,-1473.7609,178.97742,302.31033,1111.6731,-813.7577,170.04994,2954.89404296875
570,1584.4059,3646.2524,545.3151,-370.03894,-48.18907,466.77405,2923.14111328125
571,498.95074,5682.065,-988.01917,-2158.7944,-156.29877,-210.95618,7139.38818359375
572,-5051.3105,-4316.395,-4455.967,-4107.888,740.07336,1316.2671,7610.6533203125
573,1733.2666,-2446.2131,-1918.1488,2444.1685,1910.7473,-4486.395,10237.0810546875
574,1743.2767,1895.5719,5468.474,2514.615,328.52063,-361.95822,5746.27197265625
575,-317.78436,-752.2059,-3235.2793,1830.7614,633.8534,1272.4219,4852.8984375
576,4805.089,-2890.2385,85.12417,1099.4646,-729.5434,437.29706,7139.41943359375
577,-1240.6239,-4444.223,-3164.9382,-1169.611,7782.645,-5636.64,16997.9140625
578,3743.396,1146.6858,5327.12,-4323.2217,-957.05206,-1595.6067,8934.205078125
579,5506.8115,-1626.9221,-5395.51,-2636.4932,59.94592,-507.21924,10658.9111328125
