Element Label,S11,S22,S33,S12,S13,S23,Mises
1,18072.56,4294.9473,775.7197,-1863.5623,-461.9089,-1546.739,16399.0859375
2,16979.678,9332.295,-1402.8281,-3345.1184,-1370.2959,535.73883,17201.294921875
3,12686.891,2171.0825,-3176.595,-5272.279,1417.9296,-976.90906,16961.734375
4,22091.557,9819.76,6990.6416,-1533.2711,3325.8774,5136.7856,17683.78125
5,5908.137,15925.309,11197.338,3142.1846,-2820.4924,-3213.5056,12641.27734375
6,20848.867,11025.074,7054.9907,413.49106,878.6543,-773.9392,12485.8203125
7,7713.699,10579.081,-8181.927,441.15915,2911.9338,186.92432,18236.09375
8,19316.113,16109.572,9590.833,-5941.808,-1675.0114,-75.818954,13712.328125
9,13990.263,17051.613,-10276.738,6028.7627,-1319.2247,2804.675,28467.642578125
10,19926.695,8432.436,6540.57,-1447.7793,-3114.9597,-3944.5222,15476.357421875
11,14618.52,13705.412,1050.8242,1030.4238,-480.08917,-1297.6448,13470.552734375
12,18138.11,9629.12,-2950.5518,-612.9536,376.59302,-553.2983,18443.490234375
13,-248.2815,9508.536,-181.28882,-1032.6041,-4258.886,4333.308,14439.2578125
14,27830.92,9142.065,2290.1904,-4595.875,3945.9282,-5057.2354,26666.0703125
15,21054.31,2342.7747,-4212.9756,-8020.9272,482.19168,4902.0576,27956.419921875
16,8758.978,25144.697,-8096.236,1308.885,-14469.175,-5175.128,39272.52734375
17,11445.113,8673.147,9765.996,667.7895,2484.3787,5340.9556,10548.9541015625
18,5395.426,-9590.066,-35106.508,-1612.1902,7784.5693,530.3973,38058.7734375
19,599.6352,5985.7466,11206.926,-845.74945,4496.0273,-1553.8956,12426.79296875
20,-44282.293,-48736.098,-50518.227,3547.3965,-3180.7478,-15493.38,28621.453125
21,20534.246,10124.265,-934.0879,1193.61,-15390.616,643.6747,32586.845703125
22,17405.441,15408.635,20016.662,-7961.3745,-15839.664,5145.87,32222.5859375
23,-16604190.0,-16604952.0,-16604238.0,-331.39612,582.08484,-749.1962,1891.08312988281
24,-4719629.0,-4720404.5,-4719051.0,-698.9941,403.75116,470.68744,2000.79650878906
25,490314.06,482628.56,493973.75,-150.81049,2447.4392,-7865.7397,17442.31640625
26,69548.6,81221.766,61557.86,8973.969,-14993.011,-9100.178,38181.13671875
27,32947.574,17958.121,533.6613,315.42935,-13202.884,-2732.2446,36539.30859375
28,6512.979,16038.851,37630.45,494.09296,-12730.162,5967.1978,36828.578125
29,14288.476,-4363.4946,7876.3154,-13005.811,1041.9453,4199.238,28862.14453125
30,-67980.52,-57592.527,-87486.44,2302.8367,-14391.482,-3889.5754,37062.8984375
31,75511.91,70612.75,100503.01,-753.401,-7377.867,5381.5264,31982.4375
32,19215.701,18950.78,25144.598,-2665.8455,-16307.373,-10766.316,34693.5859375
33,7694.039,13562.568,21241.562,-937.53076,-17170.285,9410.797,35934.01171875
34,13851.325,7755.541,-17322.633,1764.6343,388.5161,1095.1467,28850.25390625
35,10336.249,1741.4319,-575.75806,-6443.361,-122.376335,-614.9226,14996.2021484375
36,10295.565,18748.314,11267.203,-8947.963,-3827.6829,3830.7844,19807.98828125
37,14946.11,11232.485,-8823.527,854.5589,-16458.795,418.92288,36137.35546875
38,22872.863,28937.457,34386.855,1161.1536,-17497.807,1998.1489,32156.896484375
39,21991.006,11840.912,-2699.9668,-14866.818,6877.385,-1866.7286,35741.69921875
40,24944.5,24519.807,37017.07,3736.863,-20292.982,2666.5725,38074.8515625
41,21384.262,8737.987,16951.291,1710.2723,-17851.395,11994.024,38985.6484375
42,60774.88,62714.492,69048.805,3364.7283,-18906.51,-6333.974,35817.0625
43,19891.44,19039.62,22475.334,-165.65019,-346.4766,-1358.6843,3947.61328125
44,19748.523,20677.816,31516.986,-1258.8579,-3248.2988,-7304.6455,18025.1484375
45,8260.948,-924.3042,20565.479,1406.5714,530.45856,-10349.722,26017.69140625
46,28331.06,16529.934,29631.865,4014.6448,-8899.077,-14321.77,32520.482421875
47,-3126.4148,4948.2046,-20424.459,-4843.0376,-1817.555,-2090.9214,24443.57421875
48,10966.499,4038.0547,12622.732,2989.1467,-4871.7764,-9296.748,20482.1328125
49,46514.02,28977.457,52002.89,4874.5107,-10441.71,-7207.2466,31434.349609375
50,36706.1,19201.746,42058.395,5780.6963,-2580.0503,-12123.4795,31462.572265625
51,-12759.773,9722.903,-10507.139,-4443.7847,-1699.6986,-74.61904,22974.443359375
52,39576.91,13502.589,33701.125,756.38135,-13298.514,-7115.1016,35289.23046875
53,4252.8765,-4590.0205,18434.25,4518.5215,-8414.702,-12208.268,33548.6328125
54,52233.508,45526.8,32213.607,8181.8057,-14886.759,4178.79,35065.19921875
55,171842.48,188623.75,157258.9,-4159.1562,4348.6465,-903.0626,29156.421875
56,-3239949.8,-3239154.2,-3240150.8,-19.772928,-122.97291,-1012.14276,1988.20422363281
57,-8136.5664,-3333.655,-146.24338,-2325.9077,-986.3417,4378.042,11188.6689453125
58,15275.721,24418.166,9322.913,-3806.728,8698.037,-6962.321,24275.630859375
59,20081.432,762.76337,-10216.3955,-4174.7363,1485.6401,-4640.4624,28798.6796875
60,18839.902,17042.107,33597.516,8086.0,17057.094,-543.8221,36296.296875
61,39555.035,44989.34,48107.44,-267.51575,17482.38,4949.444,32354.373046875
62,17188.56,17404.89,21907.174,-4626.666,16630.77,12197.1455,36899.43359375
63,21739.154,26709.156,23451.166,2674.915,20726.234,-4597.854,37319.4296875
64,-13426.996,-23280.303,-52074.316,7622.571,5439.3076,4312.855,39099.4921875
65,18782.576,26687.605,33094.914,-4578.5522,20308.168,1192.3223,38191.78515625
66,23441.047,37775.297,44598.79,-4409.367,17505.564,-1933.8859,36588.55078125
67,9670.398,9676.446,17402.479,3538.7053,20824.332,3138.12,37786.33984375
68,15316.988,1380.5608,-17370.924,7861.421,-9942.665,3389.0542,36381.36328125
69,-36856.47,-31851.84,-47054.246,4190.5713,13109.092,-326.0278,27360.984375
70,18256.041,17853.75,26356.957,4470.977,18225.432,10195.481,37912.4921875
71,15256.259,-1860.9104,-22385.463,4087.7751,-4330.834,-3582.7563,34792.00390625
72,61013.504,69317.29,60700.344,1480.4958,12050.067,4322.9966,23872.66796875
73,4552.249,-5947.4175,-9480.629,-6054.575,9716.257,-12840.381,32367.28125
74,3061.284,9656.893,10655.6455,-121.50102,12222.325,-6988.5884,25412.75390625
75,25188.11,30500.086,39193.805,1219.9039,14587.611,-5830.3657,29913.505859375
76,11210.065,20057.914,37352.137,-2563.1704,5180.0073,-1905.2347,25327.61328125
77,10909.704,11957.959,14286.111,-2788.3032,-15693.431,-8906.49,31766.515625
78,20479.092,-8337.823,-1958.4946,-8459.606,-449.0015,183.00566,30044.599609375
79,-5843.225,9978.868,-19738.785,-12266.939,10077.509,-1098.2974,37722.7109375
80,-4499.3604,17104.156,-16700.238,-2585.6782,-8966.151,5584.4346,35127.56640625
81,10335.184,4950.0303,14261.322,1628.0889,-5636.047,9638.928,21154.931640625
82,-2819.6504,-3222.4053,-21911.686,7163.5825,-6851.2476,12560.724,33541.96484375
83,5602.8994,17809.654,-2587.709,11310.116,4246.511,617.1477,27478.51953125
84,9882.477,-373.90088,-18304.031,-7726.684,5478.538,8589.986,33182.71875
85,16209.04,22129.336,11096.175,7729.3037,-4844.643,11115.207,26678.50390625
86,17598.717,22238.08,9016.215,17013.496,-6559.3833,4973.107,34736.859375
87,8700.323,13281.164,4128.626,-19296.17,9828.411,-6097.589,39764.15625
88,-18163.322,-1244.0599,-20170.457,4763.4126,-972.25085,10849.952,27355.435546875
89,-21044.023,-20857.727,-37765.7,5274.4585,-2245.2751,1034.7683,19610.205078125
90,7551.576,4201.674,561.5653,-967.57245,7174.802,6222.8125,17609.04296875
91,25736.627,29147.049,39304.86,2461.1204,-14776.479,3882.814,29459.931640625
92,21643.295,28006.7,35952.48,1101.6554,-15533.54,6345.686,31662.396484375
93,22555.83,26466.896,33738.836,-1615.4584,-18099.234,-2757.5542,33316.765625
94,25496.361,11157.166,28365.201,11873.601,-15210.146,8331.472,39751.890625
95,4559.0903,14999.017,2664.0151,1116.3047,3035.942,1238.2633,12975.2431640625
96,14866.153,12558.208,9738.385,-2153.1997,21127.89,-7057.3237,39016.3515625
97,-20447.066,-26560.25,-35860.293,-3958.0073,9279.317,70.02877,22046.40625
98,38106.766,28786.66,38293.305,3766.0571,-8062.7583,-16205.482,33377.60546875
99,-208799.45,-202201.25,-201469.52,-17814.621,-184.4251,8987.819,35262.2578125
100,30857.984,10912.867,36300.434,-5285.876,-6490.9165,-8458.152,30997.044921875
101,60980.605,69179.97,62190.766,3072.4307,-15348.962,9086.231,32272.923828125
102,50554.58,47856.363,69292.555,-24.164206,-17076.516,-1510.4985,35925.19921875
103,15137.1455,-6776.8267,-8786.907,-4542.1255,-17614.564,4609.5835,39809.140625
104,25173.646,34975.746,41130.68,-1659.167,-16165.967,-6888.915,33599.71875
105,3714.256,-946.16785,-18180.396,-4761.7783,-16751.002,-99.84324,36178.70703125
106,15948.464,15700.769,4699.6743,3359.1118,-11614.669,-17710.58,38773.14453125
107,36523.52,44858.164,59726.383,-53.752663,-14088.828,1583.1213,31897.71484375
108,24131.746,-2016.3953,-10728.973,659.9234,2415.9958,8678.946,35103.3046875
109,20062.107,10879.926,14200.226,-3418.1733,-745.0637,2084.344,10705.1298828125
110,9047.934,21958.736,34908.37,695.0301,14024.985,-4612.7275,34014.0234375
111,-2114.0632,-6931.4814,-40580.023,4214.024,1017.79785,-3852.071,37662.0234375
112,13264.199,-2811.463,-29593.457,295.19406,4777.617,-4969.0464,39358.01171875
113,23272.79,6145.33,33076.45,-7405.1816,-8964.855,-7695.668,33773.6484375
114,38613.977,41120.008,40429.08,3285.7446,17526.662,10447.849,35866.95703125
115,17168.307,-11016.133,-2956.3853,-10383.828,-7973.477,848.2964,33889.85546875
116,31264.396,24840.23,33171.855,-6257.2153,15155.15,-4647.0293,30470.326171875
117,29649.998,23805.951,24661.465,-4884.688,13984.863,10194.141,31622.0859375
118,15757.266,18173.473,36292.31,7010.1724,1948.8252,231.16685,23170.90234375
119,10906.26,3257.8909,15053.227,5390.3706,43.829994,-5360.1636,16756.5078125
120,30499.553,40330.145,49286.43,529.05853,14976.861,-1891.6722,30812.2578125
121,37548.945,38520.062,37456.734,-2826.3643,-14727.445,-6344.7603,28221.748046875
122,14921.5,22979.219,30116.96,-2891.0059,-15819.204,500.05765,30821.318359375
123,25911.049,34987.457,35429.605,-3334.9448,20274.545,1984.3201,36945.08984375
124,17320.533,-5350.741,2165.4482,-5490.518,5087.2344,-5728.3955,25818.580078125
125,-7624.2734,-10755.455,-3090.6323,2457.731,28.012323,-3725.6309,10213.6435546875
126,40096.402,25118.434,60956.152,3878.3474,481.32275,-8729.392,35303.42578125
127,27706.12,15840.263,38234.66,10186.594,-4300.857,-7159.616,29952.484375
128,-485322.56,-487298.7,-466754.2,-13310.693,11261.284,2991.2957,36389.5546875
129,82212.86,74583.15,87628.24,1971.653,2123.71,-8258.781,18938.630859375
130,31863.805,24945.613,57473.633,4622.298,5998.0293,480.5353,32459.46875
131,-85.50098,-3485.3188,-22398.611,-18131.146,-3567.861,-528.19916,38194.4296875
132,-3576.376,19659.623,-19297.543,2686.6687,138.01457,2521.956,34542.09375
133,-9352.754,-4609.959,-12410.526,-9582.82,9328.416,12259.0,32151.90625
134,-1309.4691,12962.617,-8004.076,-13115.469,614.9028,9753.809,33862.18359375
135,29457.79,19469.021,43753.164,443.45102,-2244.5278,-13615.381,31918.111328125
136,-2923.6792,3418.5935,-12580.221,-1142.7458,-5970.2915,-9816.142,24385.20703125
137,2827.2268,-3474.7534,10340.892,697.11346,-2724.957,-7335.6,18129.76171875
138,-22004.252,-24460.203,-14541.997,774.4301,-3749.2808,-11336.006,22572.76171875
139,23154.281,10707.172,12260.431,48.208023,17178.578,-7218.994,34346.30859375
140,5402.367,-12436.216,-8461.917,2597.1968,13467.432,-8112.182,32013.873046875
141,22514.41,21165.682,20744.016,-860.2735,21643.998,-3579.4998,38060.640625
142,9821.1045,8489.904,5329.111,1136.5839,373.27042,-1389.1381,5104.20751953125
143,33282.36,35552.168,47338.652,-775.8219,15178.218,-6632.7554,31555.462890625
144,38640.176,46317.96,61438.89,-2132.5825,18635.902,-191.24017,38201.1796875
145,8673.033,14797.221,12456.085,3600.8828,13084.195,-12758.774,32703.142578125
146,7254.077,10938.089,13492.406,4520.3877,18477.115,4242.5386,34190.89453125
147,9375.692,1614.4949,-15210.346,10614.476,-6152.1553,524.0093,30434.59375
148,24955.219,23395.633,30276.1,1813.6013,-8530.502,-5959.4473,19332.9609375
149,32828.47,7499.2227,404.61014,-4331.9707,-3346.1594,3316.499,31535.5546875
150,42268.58,24922.13,58635.09,-376.4155,-7577.5776,-6687.227,34051.48828125
151,48867.184,44159.85,51064.64,1189.1503,-892.6372,-17173.086,30474.73046875
152,-1538061.4,-1547631.6,-1542598.9,-3159.2058,-2591.454,-7530.4844,16999.025390625
153,-713647.7,-735381.06,-720719.3,-12350.117,-1975.9327,-9790.466,33548.5625
154,309759.9,333249.28,325247.9,-260.4345,10386.158,9116.092,31637.875
155,24424.422,25701.484,22709.49,-2441.916,-17865.588,314.82462,31344.62890625
156,13833.478,16811.691,16475.549,-3032.2075,-16830.232,3169.4678,30256.755859375
157,21057.059,5011.9434,3035.4607,-5017.651,-16457.098,8883.552,37654.4296875
158,17276.547,22958.36,30848.72,-3441.6345,-16499.13,-2191.4673,31717.162109375
159,41475.504,53811.535,65811.43,-948.0753,-14882.52,-1574.764,33448.625
160,3190.355,40222.79,13330.951,-3264.9639,-4999.713,5334.883,35931.26953125
161,-42286.688,-29404.242,-53143.285,-4852.0254,16.096197,14660.487,33750.546875
162,-11357.139,11118.765,-9518.697,7911.686,513.4555,17060.14,39101.73828125
163,-35776.723,-44219.56,-56332.367,-1049.9277,-11531.283,10887.855,32834.78125
164,-12638.975,11918.665,-2102.1323,-16605.355,2944.9058,-5526.807,37419.38671875
165,24451.508,11016.136,10850.995,7086.153,-14025.534,-9749.612,34766.47265625
166,-4332.9644,18914.764,2410.514,8439.442,-473.41196,-12725.945,33605.875
167,-6740.0737,18512.42,-104.74934,8030.8887,7065.762,-534.71844,29296.34375
168,-39673.1,-44939.38,-43601.656,-696.88403,6632.7275,19252.314,35607.15234375
169,32467.79,26872.416,15443.366,-15934.489,6590.332,11337.692,38775.40625
170,-6153.126,-19759.11,-1681.2225,4930.37,-11377.14,-2200.3167,27234.77734375
171,6445.746,-13377.387,-12076.76,-741.4944,-13153.029,-12282.392,36634.58984375
172,-13315.214,13263.84,3240.0417,-1684.1362,-16030.707,-4703.5205,37233.43359375
173,26761.72,107.69388,-9811.178,2734.981,10578.987,2506.8416,38081.98046875
174,-2503.162,10807.911,27727.318,11.699816,2158.555,-10855.149,32498.427734375
175,-93.396484,-19625.71,-31544.258,11411.597,-118.788895,3416.4573,34381.5703125
176,-6807.829,-18873.16,-36711.887,-5407.313,-3663.2056,-10878.418,34088.3671875
177,-7645.167,-13080.854,2258.2917,9656.75,-3787.3442,-14583.578,33797.78125
178,-699.46124,16811.355,-17596.07,3194.4417,-3907.7883,-156.30724,31056.345703125
179,-15160.918,4920.1016,-6904.237,5586.9272,7127.3384,-8250.52,27493.0703125
180,-4848.8833,19110.799,-21206.1,6206.92,1672.2867,-1148.8787,36898.04296875
181,-6441.7363,-19339.357,-36917.51,-2130.305,-14102.315,-5768.1934,37578.09375
182,-13064.82,-25454.207,-39140.184,264.227,17974.158,953.6142,38503.41015625
183,18053.375,9425.0625,-732.2607,-4159.6514,18199.582,-1512.982,36300.265625
184,14010.414,17656.77,17606.646,-2904.7415,5495.718,4257.7305,13543.3291015625
185,-2742.0725,3696.977,-1039.9731,10581.062,11970.916,11347.204,34430.51953125
186,-2167.4998,-9207.659,-3650.311,4806.3936,-1759.1427,4281.615,13225.2802734375
187,10935.091,3688.6094,-4072.6113,-1445.2299,14992.569,-9902.455,33819.5625
188,-4795.468,-9026.676,-19864.14,3423.4673,-2537.7605,13526.84,28011.0078125
189,-1631444.2,-1627030.5,-1625203.5,-3107.621,2398.1863,463.78964,8817.83203125
190,-26490.135,-44298.402,-65736.91,-3827.3298,-6092.609,7798.05,38681.5234375
191,70447.45,60701.76,91232.67,-10153.69,5457.147,5083.255,34723.51171875
192,-18192.668,-41026.93,-59769.07,2234.2446,-6993.7935,-2096.267,38412.65625
193,-73082.68,-88452.27,-115690.42,897.30194,-5931.982,934.45605,38825.0
194,152439.11,127963.75,165908.83,-8531.218,4637.2354,2353.6792,37545.02734375
195,26005.908,12818.885,28798.248,-8160.3457,-2843.1292,17971.576,37569.5859375
196,314.44727,-14450.83,-27775.371,-4962.22,-10777.994,-11283.793,37371.58984375
197,9324.974,10808.342,-6799.7065,2320.5447,-4142.4595,4724.9897,20511.845703125
198,11055.036,9927.219,31558.303,-16287.346,7558.3594,-6073.1343,39021.125
199,6613.9297,-12559.327,-27087.457,6129.1196,-12534.975,-2585.1123,38227.6796875
200,42907.27,17656.012,21828.725,-6147.2065,2315.1184,-2408.5708,26391.640625
201,5768.006,-7665.65,-28681.459,305.64847,-8858.61,-10557.866,38399.96484375
202,17952.994,-4682.1035,-20271.21,-3872.8367,-1574.4976,11505.262,39468.66796875
203,24686.93,16433.436,-5802.7417,-2819.5977,-8792.188,-1335.1106,31736.408203125
204,13679.244,-4786.687,-19257.15,-6494.526,-12094.051,-2680.2666,37476.4140625
205,15218.381,4405.414,-11063.926,-3978.656,-13399.467,4100.5425,34059.6484375
206,3979.151,-5220.6636,-2867.089,-412.75485,-20204.43,-7645.6035,38328.28125
207,43277.043,4072.7324,20192.576,-1653.2036,-5678.4165,-237.05225,35636.51171875
208,29122.35,27394.309,28751.316,-3355.6868,-18316.084,915.78064,32329.822265625
209,30182.691,20917.209,21894.936,432.95807,-17777.447,-12396.386,38567.24609375
210,-1202.3433,-5466.9585,-29596.766,6311.599,-14046.212,561.4773,37625.546875
211,14798.615,20470.248,-2980.9746,-7117.5254,-14746.068,4584.271,36283.38671875
212,7546.4946,-3201.1025,-25924.229,402.3462,-11087.97,1780.5034,35424.5078125
213,-11991.469,-10312.966,-29082.201,2916.6995,6032.667,-1054.242,21485.62890625
214,-1465.0308,-3726.3467,1706.607,6340.062,-2676.3257,6327.453,16868.083984375
215,68324.59,57219.45,80636.82,730.7472,1081.8041,16700.27,35404.15625
216,-67802.95,-68209.664,-92910.35,-1547.3868,10476.273,10833.715,36178.5
217,26305.816,17540.258,38560.145,5707.2725,-8992.08,15014.086,36755.671875
218,69281.19,56001.37,79057.65,6623.374,2799.1567,14024.831,33866.84375
219,54576.926,52267.633,67055.016,2384.9153,-5408.592,18360.64,36138.796875
220,24253.146,18592.531,32769.543,1666.3066,-8670.995,17615.615,36298.7265625
221,-11744.906,6513.4727,-22699.344,-7738.012,-4140.8887,14688.993,39137.5703125
222,19018.295,15028.361,19958.654,-4722.916,10913.335,17091.793,36347.82421875
223,45744.25,40304.895,65689.95,-2712.7405,1984.7078,15597.111,36050.1484375
224,17879.137,10427.124,22935.771,-3040.4868,-2053.0166,16157.918,30698.4921875
225,-8816.44,-2633.6997,-14567.084,18739.28,6408.37,999.43207,35868.24609375
226,18959.377,15287.76,27101.137,1604.3707,-7124.7026,15970.305,32168.625
227,31286.494,17485.871,40016.82,-1785.4843,705.09283,15889.958,33995.40234375
228,480.88074,-14169.287,-14853.007,-10106.236,-1712.5012,-1461.8206,23382.22265625
229,46123.164,40875.28,60866.35,-568.5171,-3381.0894,15737.132,33173.92578125
230,1174.7543,8125.4233,14943.348,-948.1584,-255.81552,-2706.0015,12924.615234375
231,24032.803,14983.0,18681.766,-1337.2491,18466.66,-4689.5137,34007.33203125
232,35220.55,29525.643,24791.465,-1097.6635,16932.52,-13165.722,38282.62109375
233,23023.486,14308.429,17867.67,1496.4897,19959.748,7081.6177,37549.19921875
234,1972.0035,919.59216,-10761.453,-1469.3982,16989.402,-12873.992,38980.296875
235,37559.125,37961.414,25768.451,-3760.8694,19941.924,1151.4562,37193.76171875
236,40204.58,36550.35,38702.074,200.62662,21388.965,-670.8138,37202.8828125
237,-6392.8853,-14883.654,-36590.08,4483.9214,10686.522,3188.0962,34073.15625
238,13582.5,13969.392,7986.3994,-805.60065,21650.48,-1793.0354,38097.9375
239,45689.03,37646.355,47388.74,1025.1852,20089.01,-3386.809,36462.4921875
240,17365.639,26745.87,-6916.625,1634.3872,7963.584,-192.88258,33223.05859375
241,-1447.077,-18630.65,-36635.86,1531.077,12749.259,1804.7579,37858.8359375
242,59101.45,51210.41,45812.38,-2061.6458,20844.553,-1940.1863,38230.0078125
243,18163.008,13019.413,14954.716,3357.3145,17538.56,13181.265,38705.33203125
244,15985.805,6204.24,5375.48,1321.9128,17046.64,13164.076,38747.3515625
245,35282.8,29420.656,29624.455,355.7577,21783.24,4523.6904,38968.08203125
246,22805.336,22465.805,29266.469,-356.51642,20488.117,-4834.372,37065.33203125
247,30608.922,25228.908,27294.527,2743.3413,20603.291,440.561,36314.53125
248,5719.3423,-6434.904,-16271.767,2420.837,12694.508,-11513.578,35535.46875
249,43154.52,36528.484,32344.709,-4197.6045,17492.635,-8825.951,35967.46875
250,-32700.947,-36596.996,-68778.35,-6676.531,-1556.7583,5988.156,37746.1484375
251,12497.461,10315.386,16266.456,-15904.327,10932.86,6621.2075,35723.0625
252,8767.659,11429.608,6733.8926,-5100.573,5110.0503,-10596.506,22580.50390625
253,5178.609,-10992.784,17665.568,770.68427,8808.114,11613.632,35475.7578125
254,6113.5015,11944.224,9351.882,984.7524,-1683.9247,-1954.082,6962.302734375
255,208.18317,-16.616648,947.11584,-122.78881,-695.4367,79.39771,1509.20788574219
256,12366.283,-5194.761,5085.8267,1900.3817,-10395.258,12147.058,31799.59765625
257,22238.072,14367.943,912.3163,-1751.1361,12408.776,1103.057,28699.70703125
258,16164.025,8756.9375,-2096.1902,-1343.4845,10645.339,-6849.7866,27188.025390625
259,-9790.12,-4628.0107,-16659.344,7427.5366,-6164.2783,-18142.88,37098.32421875
260,17467.13,16713.898,25002.92,2856.8254,-2312.9548,1472.8983,10491.5966796875
261,23642.293,11371.714,20364.162,-1833.5472,4747.318,9125.064,21179.845703125
262,7559.9707,9286.668,-988.7046,10254.143,-17351.312,-4230.0356,36920.83984375
263,3337.461,-13492.223,-11571.292,19834.504,-1170.6709,-7008.1333,39828.07421875
264,28588.082,-5344.247,14482.627,-887.43005,-11928.789,-2130.2568,36257.421875
265,-3507.88,4216.176,-6627.2666,4045.5605,-8510.454,-8288.283,23789.830078125
266,-4477.551,13267.373,18837.209,5419.4785,2459.4124,-1333.2739,23586.7109375
267,11599.294,8153.755,2058.1973,11189.013,-706.6127,-4308.455,22423.1640625
268,32983.902,18316.445,8551.472,2152.9275,-2806.8445,-6529.794,24883.154296875
269,-24444.205,-8087.487,3156.1199,13223.967,-9999.601,2757.0354,37752.73828125
270,88611.555,56677.89,51011.773,-6541.464,1293.7399,-1576.4293,37062.8203125
271,-498547.72,-496433.9,-517120.7,-8807.036,-3226.237,-11175.6455,32051.30078125
272,-7092871.5,-7093738.0,-7092702.5,-224.29886,213.49413,964.3922,2000.91174316406
273,-51777240.0,-51777892.0,-51778664.0,-290.65738,121.89594,814.7333,1952.9013671875
274,-2106139.0,-2123372.5,-2109528.0,-4496.1357,-143.27399,11370.7,26432.18359375
275,21279.734,21710.576,19085.488,6124.3677,406.71918,-2604.7957,11803.41015625
276,-9315.222,6544.1675,-12422.279,18024.436,-9182.1875,2799.8074,39516.39453125
277,39024.52,21110.547,-3403.498,6784.2666,-1396.6581,-3758.3638,39335.7265625
278,-2316.9895,-1593.1672,-1681.5526,606.3708,-592.38153,-613.96106,1937.62841796875
279,13631.809,5566.707,-17032.176,-760.4783,8307.406,-321.12912,31098.248046875
280,30609.064,-942.012,-2139.0022,-8004.798,11298.025,315.93124,40126.4921875
281,14720.166,852.0195,-7585.8535,3277.594,18519.926,1010.4942,38010.45703125
282,-11459.685,7402.3965,-22430.666,-3027.6985,934.02625,13542.905,35544.69140625
283,-8500.11,27522.771,18052.518,-4045.9521,2159.5015,-2652.0105,33621.2265625
284,-3880289.8,-3894127.5,-3878899.0,9358.627,-2534.0862,6294.545,24769.794921875
285,121204.92,78481.89,105292.51,-5985.741,3411.8918,1664.7307,39361.9140625
286,13799.886,3262.7505,-11314.798,2385.3555,-12515.423,-1738.3785,31195.91015625
287,-26233.066,-19497.146,-55979.3,-3923.3372,-7040.6924,4842.7446,37360.77734375
288,15925.361,-406.98044,-7133.4575,3646.2803,-8332.844,-2273.061,26182.919921875
289,30710.293,12332.499,17166.129,553.20886,-18583.148,-717.6184,36204.1328125
290,20643.373,6528.1147,-13073.184,7375.4165,-8730.666,3814.284,35994.984375
291,14244.09,10705.625,22342.508,2311.1338,4057.7078,2568.0754,13855.1474609375
292,29015.078,14742.215,11318.775,-1277.4198,18092.83,-9473.198,38993.1796875
293,11952.711,14321.901,-5778.8467,-3636.4148,15376.699,-10357.468,37853.15234375
294,28406.48,22397.693,23720.736,-1532.7024,20884.57,3389.1956,37147.1328125
295,16005.684,-3132.8936,-25908.13,6370.9634,-271.69168,5177.5093,39029.359375
296,-1713.8848,-1078.607,-5589.8677,3763.791,-9657.748,4315.773,19901.796875
297,-8508.678,-1867.2847,-15288.736,-5104.361,-3371.8289,20469.77,38786.75
298,73500.47,57744.21,72921.18,-587.51495,4026.406,18066.373,35613.4921875
299,26032.566,20549.852,34130.152,-2216.9038,-1492.4209,20001.723,36900.68359375
300,-7924.049,-14334.547,73.52761,-101.56628,-1094.344,-1883.2834,13060.939453125
301,13234.0205,11322.107,4242.041,134.0557,4436.0356,-10130.094,20839.021484375
302,7088.665,7500.0977,-23887.998,8587.074,-7819.332,-7232.3228,39166.65234375
303,45564.598,14031.039,2513.6287,-1153.7794,-16.466068,934.49866,38688.6953125
304,43290.594,19264.17,4451.0093,30.805515,5376.5493,3545.8442,35735.83203125
305,-900885.25,-899213.7,-911180.6,9821.39,3750.0623,5027.7856,23095.5
306,25903.043,6004.7563,-5857.3774,10126.826,3212.389,979.6612,33379.38671875
307,64942.78,52863.98,72705.53,2484.6184,-1648.692,14360.75,30745.576171875
308,-15908.791,-4280.931,-29117.387,8683.722,-76.33039,-14859.091,36767.89453125
309,7682.0728,6632.4966,9447.346,4709.1694,-6063.388,5050.822,16106.7021484375
310,36560.95,31749.94,34167.547,13326.687,1527.3582,17292.13,38134.14453125
311,-2513.1191,-9512.336,2239.8691,-7039.907,5579.0947,-4794.508,20392.861328125
312,11664.136,12112.199,10934.4375,-808.2572,481.7987,309.4141,2000.90270996094
313,-5298729.5,-5299349.5,-5299872.0,-133.37486,579.9254,808.24384,2000.85925292969
314,-10022980.0,-10023952.0,-10023568.0,-402.52466,245.46361,933.36615,1999.83618164063
315,159470.1,124232.15,151740.92,-12437.591,4016.3018,3301.7168,39677.0703125
316,-17334.684,-35363.254,-57349.742,10245.69,-1107.6748,-2067.4382,39194.9765625
317,-8984.109,-17084.6,-42097.727,-6936.216,-8983.607,-8678.989,38811.29296875
318,26801.8,-1333.9064,-13778.996,-2981.9717,-6150.7314,4760.9966,38792.03515625
319,56217.918,58531.91,73313.414,-1588.3047,-19073.41,-169.92732,36838.71875
320,14248.231,24153.352,20933.258,-2145.0935,-19212.684,-7564.468,37005.87109375
321,8341.478,1118.5619,-12247.613,2730.182,-12181.918,14592.232,37864.58203125
322,6317.9844,13295.076,18610.182,-3993.9434,-13870.41,-7149.266,29872.55859375
323,16934.502,15966.6,18085.182,368.9987,-59.739727,763.1294,2353.91821289063
324,15574.567,14718.557,25627.844,-1670.3276,-12748.293,12583.763,32884.44921875
325,26977.111,28983.273,22060.584,-9331.564,13695.342,11635.376,35610.78125
326,8870.285,2134.5654,3687.7854,2912.003,5539.2656,4040.1846,14275.12890625
327,18837.39,15644.401,9114.233,2173.0896,18178.537,4393.931,33721.70703125
328,25598.38,18969.617,17218.586,-538.2542,16629.83,13849.314,38269.40234375
329,-2251.4277,-13114.141,-23443.084,-841.5456,19332.105,3009.5288,38566.4765625
330,25686.312,22565.281,24164.867,1586.5555,19986.043,410.67065,34838.05859375
331,11288.79,3531.2812,-25935.635,-5798.669,6289.028,-4542.1777,37927.44921875
332,4642.2773,7843.6763,-2257.573,-263.4962,16918.377,-8211.7,33780.8359375
333,29788.025,27921.807,31905.861,-482.9185,21414.488,2519.228,37515.3359375
334,1192.6718,-2798.014,4128.5815,-6345.4673,11698.706,12558.581,32261.265625
335,11100.091,26030.633,10000.291,1048.9313,4934.251,-14298.076,30499.13671875
336,-8772.409,-2399.5806,-3798.1492,10683.87,-4879.9326,-17181.494,36512.2421875
337,15806.236,2261.1626,9932.554,2507.7715,9810.367,1628.5807,21306.412109375
338,350792.72,350842.28,350992.88,675.9636,-525.76953,-768.09717,2000.64978027344
339,21500.266,13314.625,26140.605,2098.6096,3021.8657,17173.076,32432.587890625
340,-25280.58,-24674.81,-40320.273,4796.835,-2939.393,17730.38,35689.1875
341,3799.5364,3853.7307,3200.1636,806.7566,-700.18005,-248.96504,2000.98559570313
342,-383.38867,4649.1567,2778.011,-4526.361,5410.0317,-10097.485,21784.34765625
343,6586.3315,-7329.8584,18162.656,6991.623,5965.4175,9274.746,31626.56640625
344,26100.945,13474.886,-7606.877,9930.959,-520.45917,2447.6096,34419.390625
345,17205.826,35044.992,6580.871,7467.105,-9277.401,3003.5078,32759.921875
346,8470.258,5711.246,-26559.404,5449.4966,-1005.0744,2509.2983,35341.94921875
347,-24239.229,2780.7698,3860.9958,-4180.312,-772.2828,12570.417,35898.40234375
348,-689339.2,-689475.1,-689854.8,956.78296,-572.9999,138.27827,2000.72631835938
349,243544.03,244084.9,242411.66,-48.270115,163.84567,732.61176,1971.03479003906
350,35501.344,20915.738,24295.059,-8400.978,-7303.7363,15687.737,35846.1796875
351,24948.322,30412.012,15567.205,-10416.733,1594.6149,18381.045,38933.9765625
352,-6441.4185,22672.883,1772.1078,-5613.852,2791.8892,8613.221,31882.064453125
353,-227.10834,-1761.7234,6175.273,1987.0157,-7642.2427,-6320.2944,18975.388671875
354,-4351.6665,4618.153,2919.332,-389.91632,-2082.3667,-3377.987,10761.169921875
355,632961.6,633830.06,634457.2,115.64267,-38.834805,-869.03876,2000.60437011719
356,131048.21,132319.03,130714.625,195.31503,-336.16245,683.2047,2000.98913574219
357,-203593.95,-199028.44,-194627.33,-11526.965,1428.5575,-5747.2524,23751.5234375
358,180681.34,182029.78,180214.97,-612.1615,62.27333,-260.36935,2000.97534179688
359,112955.06,124632.375,96419.875,-4578.001,1928.2766,-1612.0986,26166.470703125
360,-4189.4307,-511.39722,-2676.4436,3180.9446,201.35628,-260.69568,6397.88916015625
361,423.9625,1217.1967,-1053.8365,306.6104,135.43335,-173.92032,2100.75024414063
362,6116.2812,16626.824,826.98096,-8161.633,-4082.9316,6759.353,24103.02734375
363,-401.58154,-952.12256,96.40512,-608.7298,-58.9068,-260.30832,1466.49084472656
364,-4394.8145,16153.898,29069.434,-3880.41,-6859.0864,-2452.6116,32539.486328125
365,-3864.6357,14615.2705,15335.698,-438.21188,-2984.0427,-6162.94,22283.951171875
366,3396.1553,8537.565,1886.8657,339.0377,132.02806,-1255.2996,6449.52685546875
367,21846.107,11466.925,18360.06,-6275.53,797.50055,1774.3881,14601.2958984375
368,34298.473,12622.819,29251.729,-132.41295,-1415.4132,531.2509,19819.7265625
369,79525.09,78078.14,114322.06,6690.4365,960.1185,746.1557,37443.20703125
370,32985.426,43522.336,68118.13,9413.185,-1721.8622,3086.5242,35755.3046875
371,-1082.8906,-26913.83,-34040.305,5930.6953,-718.3189,1263.6147,31842.8203125
372,-16216.748,-9365.582,-680.08496,-3827.949,-442.4259,-124.18233,15049.0927734375
373,-68.1698,415.66385,701.7074,1995.2499,274.38834,-108.38052,3557.87646484375
374,744.87646,-1866.646,-545.28925,692.27,-170.08519,96.065544,2582.14379882813
375,-1045.9277,504.70523,-374.18167,-1129.011,-194.55704,-88.60978,2403.1611328125
376,-3633.5347,581.4168,4958.162,-11544.259,5707.173,-1135.7786,23595.861328125
377,-12495.174,-31020.8,-47812.184,-9828.217,-4514.882,-1764.914,36006.9296875
378,1093.5254,28515.965,32670.828,-1130.5471,-2642.837,2566.4167,30458.779296875
379,-120.62598,457.6185,2125.6108,398.8108,-531.52893,-762.99963,2674.3779296875
380,-2114.2366,-5801.005,-2768.8992,-4677.6772,5757.129,-6183.4136,17070.052734375
381,17416.535,5294.5225,13528.793,-2933.6768,-4581.2217,3230.7249,15330.537109375
382,20485.758,6703.5947,3842.3896,-80.03087,-2538.305,1227.2375,16168.9404296875
383,14578.919,2098.0815,-1194.791,3896.1616,-2502.0017,-860.7325,16560.64453125
384,17825.766,-5095.4736,-2243.321,2282.286,119.46746,294.6298,22001.654296875
385,-10106.898,-2174.64,385.77515,2940.4866,169.10687,1004.0224,10901.1787109375
386,-575.27167,-2513.614,-78.414246,-522.4349,-281.9375,221.88591,2484.37084960938
387,-9974.91,-1413.4277,-5929.827,5649.1577,-1506.8936,1643.5664,12871.8623046875
388,-13191.2,3527.9795,-12700.501,-788.39874,2194.1995,1962.3711,17304.005859375
389,-7991.6226,7569.6255,-1367.1027,-2746.5334,2571.0254,-611.8549,15051.07421875
390,-11196.346,4402.744,4591.903,-8703.823,-2098.183,-1731.5398,22266.33203125
391,4502.5693,-5085.873,-11584.021,-9488.6875,-2849.8357,1186.4325,22252.2890625
392,413.0862,1490.1628,-780.3351,-1580.188,132.18266,-52.281883,3379.54931640625
393,12643.896,-5299.346,-22276.164,5486.4766,-1299.051,1521.2612,31892.021484375
394,24319.42,734.2783,14003.765,1286.5139,2259.121,1726.3942,21180.015625
395,-21252.59,-23222.582,-57539.77,1770.9509,-1803.4761,-420.57245,35620.9453125
396,-7493.505,8277.527,-4794.439,1793.1349,-475.76562,817.1284,15025.6943359375
397,-10111.603,-3215.5107,-4182.4976,6280.251,663.83453,-36.330616,12707.216796875
398,-18781.936,-13866.457,-9918.12,4796.685,-1799.0955,1843.2814,12169.1044921875
399,17432.457,-12012.59,-3448.457,-4773.8794,1606.2764,-5717.679,29366.12890625
400,14202.431,-5990.094,-8164.623,-3918.3887,-621.0469,-931.2071,22498.79296875
401,16577.947,5259.579,-4720.3374,87.59683,682.5135,-1183.3676,18608.65625
402,-11227.234,-6103.1045,-40188.414,-5999.3877,4610.5854,-909.9591,34462.18359375
403,-3743.205,12684.171,4645.175,-7692.261,2513.7258,-406.4326,19984.724609375
404,20788.867,43716.42,54032.887,-3706.1514,-734.8813,750.9708,30218.408203125
405,5940.196,-5527.4697,-2412.9038,5335.5283,-300.49252,-795.3778,13894.7265625
406,8811.413,-3776.9282,-1198.0851,2915.4338,-1256.4585,-1364.2975,12979.7021484375
407,-6989.5684,8386.529,18071.7,7838.907,2653.04,578.4433,26184.193359375
408,23716.764,4683.627,12454.331,-2415.1543,9.465293,-2021.6761,17450.041015625
409,7400.691,-11453.887,3981.5303,2482.2136,-1200.718,232.48656,18046.89453125
410,2119.818,503.9765,-3559.3743,-12863.466,-863.6189,1006.4514,22964.5390625
411,9337.393,-1172.2759,7718.456,219.1198,692.3366,186.12201,9886.634765625
412,20.184052,-1249.2081,2067.5852,7954.949,355.14044,1393.4833,14298.5859375
413,-205.18628,-1694.4736,7502.4,-14560.217,-2485.6638,8583.786,30800.701171875
414,12061.129,-1582.1396,3097.0444,-301.9755,-1024.5337,1987.2911,12627.9345703125
415,-10479.486,-21785.504,-3094.1426,-6285.692,711.8741,-11028.166,27400.357421875
416,-17980.504,-12432.499,-32297.742,18495.977,-777.2994,-1807.8801,36784.7421875
417,70577.68,94490.17,111214.016,-4785.0474,-1166.4917,2706.0186,36689.81640625
418,13219.057,-4006.4478,-189.55591,6866.7676,2212.8726,342.9539,20050.923828125
419,-2410.0872,-7222.047,5510.801,10175.162,-727.4279,524.0385,20905.107421875
420,7605.6904,2154.5986,15857.123,376.1477,3585.0305,2756.0757,14302.080078125
421,-4493.214,3884.4019,8640.367,-9701.393,3468.108,1926.6663,21499.25
422,7598.0244,7147.1504,7049.847,-3267.052,-2602.557,-152.83904,7257.23779296875
423,-28993.99,-15986.404,-21755.525,-10656.748,4108.643,-2931.3125,23335.75
424,-3844.042,2131.5938,-1930.2307,-2779.1272,31.965933,-626.7235,7230.955078125
425,64441.03,56695.516,39093.35,-17247.86,5140.0576,-3891.5247,39029.80078125
426,742.77454,9819.56,-8988.836,-8087.692,-3099.7417,938.9495,22206.44921875
427,-8347.909,5206.425,7565.1406,5988.298,593.9882,-1105.1792,18263.51953125
428,-8901.843,279.79858,-1673.8096,3996.896,-655.2541,-115.24632,10928.6435546875
429,-2976.2378,2988.3848,6497.8115,-2483.2827,-1110.5802,355.005,9560.51953125
430,-16572.15,-5009.7656,2316.8394,2692.3774,2855.6287,-1201.8322,17961.755859375
431,-6841.417,9991.53,3291.1785,2323.2632,295.6591,-303.10986,15237.6728515625
432,-105838.9,-78029.29,-75617.26,-11882.069,7856.1636,-1553.8981,38239.015625
433,-8660.987,-1137.6285,-6881.5703,-2034.8279,5404.956,-526.4473,12135.638671875
434,13990.055,692.78784,-1988.13,2799.6655,-764.998,-1810.8706,15961.244140625
435,-2417.7466,-1106.953,-5526.613,3750.457,-570.3168,-392.22598,7687.22314453125
436,15721.56,-2517.6177,974.97754,-2568.1165,184.20137,361.1009,17362.095703125
437,5056.2095,-852.05994,1628.2786,3140.813,-709.226,-13.409443,7583.46142578125
438,5994.2993,-2859.9502,-16615.25,-4249.726,-1350.0518,-1423.916,21333.7734375
439,7015.116,-5527.837,-2162.8315,-10900.319,1967.1644,5062.968,23904.033203125
440,-69033.39,-43340.33,-29437.818,-1820.6876,488.04184,-1573.0939,35052.73828125
441,8138.7715,118.0329,1567.5094,-3582.6226,2870.4556,773.6074,10946.5458984375
442,-43.64657,1924.1345,-204.76492,1205.5527,218.97107,122.155174,2960.3798828125
443,1500.4827,-2597.2778,-1018.45593,8528.126,-878.48193,-115.37511,15276.013671875
444,-782.26917,945.4309,850.8076,-5656.266,263.39706,1770.2322,10412.4814453125
445,-5679.157,-4830.916,-6522.0444,-2333.2837,-768.26166,-195.97491,4512.5908203125
446,-5795.5273,1002.18756,-7855.469,-5227.7266,1874.7062,1346.1249,12744.5
447,-476.4554,902.95087,2478.1235,-4751.841,61.46286,-188.5358,8626.39453125
448,21009.783,969.9726,307.75366,-2077.8755,-5899.1484,2784.605,23577.912109375
449,-7601.041,553.9185,437.54807,-1656.6833,921.2627,321.1452,8755.4150390625
450,-11050.334,-18409.732,-9730.891,4964.0967,2061.1394,-337.88004,12354.1943359375
451,20104.682,26920.797,57345.457,4251.7085,-4769.9106,1852.403,36225.390625
452,-2577.5437,-5102.8994,5971.812,4348.629,-1135.8506,-743.20624,12779.60546875
453,-4564.1367,4003.2002,-2424.113,-970.513,-917.14276,2783.566,9393.5361328125
454,-10088.9375,8913.428,1253.4297,-2818.0564,-67.50211,617.7007,17297.111328125
455,-1830.8464,2448.996,-5018.6616,1420.5249,786.94696,1042.5687,7300.33837890625
456,-5352.808,-967.68036,1093.4757,4377.4507,216.11578,1529.8271,9857.16015625
457,3024.3044,5531.7583,2104.7866,-888.44727,-2586.7734,-1180.3885,6005.0517578125
458,-2047.2769,6964.4185,-3445.2852,-5912.1763,2301.2463,-1099.1113,14836.9921875
459,2786.4236,2299.155,-1328.4592,-4363.614,-1042.9686,457.77698,8728.1181640625
460,13598.438,387.99594,18607.75,15359.573,-2078.6086,-1155.936,31472.275390625
461,-1199.4521,-3248.3823,-3772.3628,2378.8367,424.5218,512.03796,4883.6533203125
462,1648.27,-3046.4578,-1156.0146,2399.4412,-118.57876,-68.08918,5836.708984375
463,1361.8439,-7554.7036,-10515.042,-2656.8765,-2162.8818,-205.03365,12247.517578125
464,4178.4937,-6655.3413,1357.4996,336.3456,-178.92938,-457.97867,9789.40625
465,3553.992,-1858.5449,-2897.6208,-1636.6521,-111.65259,-231.51102,6650.81640625
466,-4022.0952,7236.179,9767.882,534.5618,143.28717,-990.49176,12865.572265625
467,-7012.1436,2892.676,-523.5897,1756.3497,409.8649,309.03934,9272.734375
468,-3603.7554,3133.4692,-646.8943,1918.7648,2558.9216,-575.04047,8117.47607421875
469,-2361.4114,1571.4208,-262.74854,242.89362,-1100.398,-779.064,4153.10791015625
470,-956.03937,-3533.032,-2526.9287,-1289.1758,-638.26245,2437.7715,5394.13232421875
471,4706.808,2190.382,8863.707,-3771.0378,1775.3962,452.0183,9316.8642578125
472,-7810.945,-4255.2324,734.8434,1117.5214,-559.0593,156.32004,7748.85400390625
473,-7555.5522,-5008.504,-4529.072,2678.2632,-47.978573,-276.04477,5449.14990234375
474,16963.467,37002.76,4577.642,-12300.426,1394.1462,951.8508,35575.7734375
475,292.7139,-26.619349,-940.0114,-3927.141,323.0529,-372.86057,6944.45166015625
476,-11505.187,-2091.6382,-1132.3138,1851.9299,-4238.2476,-2365.7825,13399.021484375
477,-7041.288,-1754.9725,-4335.166,-3578.506,-964.03973,-138.38905,7888.314453125
478,-8371.755,-9260.733,-8911.894,3667.7192,1061.2561,-1175.3566,6962.8681640625
479,-10089.318,-8129.319,-14145.588,-1598.0752,-2805.6917,811.1926,7841.97412109375
480,-1701.7247,1995.2169,673.5325,-405.16974,-276.38803,277.18997,3388.24389648438
481,1859.0269,6071.881,453.31995,-431.72144,451.1341,225.84227,5193.16064453125
482,1964.561,-6511.4253,311.36557,-759.43915,329.7718,-224.97795,7922.83251953125
483,4816.503,-6415.2646,-468.83594,-349.4848,412.20972,458.90784,9809.7744140625
484,1262.0588,55.910744,2701.0144,5445.006,735.1492,-279.6053,9801.0771484375
485,-5873.3887,-3463.7598,-953.5645,4159.254,-378.08826,618.84955,8463.568359375
486,-1016.85004,1379.4952,15593.347,5576.5815,-275.29242,456.3784,18329.875
487,-6548.6035,-4251.302,4327.188,3351.0708,-289.37784,-483.87354,11542.015625
488,1788.0898,1920.2535,918.2309,-508.35922,341.57178,-849.25385,2044.03601074219
489,-3007.8423,-483.48438,-4402.5234,-2909.9678,-698.7453,818.92896,6381.11279296875
490,-582.9563,3815.5771,1517.038,-2250.49,1771.9846,-765.4335,6394.66552734375
491,-8530.7,-5490.662,1314.0741,1415.1342,-281.25116,213.89856,9089.2958984375
492,-10318.2,-3755.7458,-3363.3242,-1296.4592,474.60223,515.0163,7232.49169921875
493,-13405.206,-1357.9961,-17010.463,1442.2456,1254.7852,835.5449,14650.068359375
494,-2577.7183,-3818.9592,-1102.6044,2502.5884,-267.16714,94.49055,4957.5576171875
495,-1430.625,-6466.3403,-1389.7035,1526.5802,-833.7206,-163.59778,5892.62890625
496,5183.3555,-538.1361,1440.7828,110.78818,279.58408,331.1123,5092.0966796875
497,-4573.036,2139.8782,-917.789,-1348.2688,278.5874,1749.6361,6982.5986328125
498,-4619.6465,2379.4285,5182.3013,1165.0956,608.4552,-621.28925,9099.5419921875
499,1242.8248,-6207.9346,-868.42224,428.28992,-445.86334,552.2189,6804.5791015625
500,8937.34,-951.6834,7315.7124,-10128.564,-222.10127,280.72522,19812.470703125
501,1056.5466,-5584.3857,1438.5052,1642.2328,271.8539,-158.2664,7427.791015625
502,-5600.6494,-3314.5403,4018.6616,4596.4644,66.31163,-414.4591,11818.529296875
503,-5105.2837,-492.2416,-3704.0068,2372.4292,-647.9372,376.3943,5945.5302734375
504,190.4861,5312.7246,-1842.4457,1899.9037,-678.039,1070.1628,7511.8017578125
505,-5041.62,3845.4102,2031.7378,129.59648,-313.65503,-1455.4999,8535.310546875
506,997.006,-537.6615,4509.7314,-3264.0078,993.045,318.00308,7436.9580078125
507,1237.0864,518.4114,2841.877,-4098.7466,522.91235,-793.01355,7573.0615234375
508,6080.8096,3722.5454,6133.5825,-8058.62,1326.8752,-1627.7455,14619.9580078125
509,355.5597,-2965.0513,1307.567,524.9134,559.30743,-111.70854,4110.53955078125
510,-2806.8413,-3481.1016,-1765.57,2792.3398,68.30298,505.741,5139.43212890625
511,2565.058,-2785.0798,-214.51839,101.40851,-240.46709,-182.144,4667.2001953125
512,-10102.369,-3754.4355,-2232.1255,2811.8591,721.4027,702.95844,8890.4765625
513,1321.5332,355.47958,-93.38398,497.84232,-262.98438,190.9114,1621.33557128906
514,-6533.508,243.79999,1701.5187,5165.9316,491.43597,-805.66486,11860.3798828125
515,433.9178,2309.9253,727.88745,148.09514,140.80615,-497.8313,1980.68591308594
516,-922.6624,-2967.7822,-2025.1353,-4419.944,874.91565,-2693.6404,9263.6123046875
517,-4453.045,-9317.128,-2089.623,-2201.442,135.23132,367.76868,7465.96337890625
518,2564.04,1396.096,13644.726,-7270.368,2727.8447,122.78807,17833.416015625
519,137.08769,2112.3105,2305.1672,-601.1216,-733.0046,-1013.3831,3177.48315429688
520,4285.78,4523.769,417.5197,-97.07892,-3298.234,1081.3724,7218.8701171875
521,3427.9905,3090.347,2045.5609,-2934.5793,3890.214,1005.50104,8707.927734375
522,-2323.6284,2591.1003,2133.1675,-1087.3467,-191.62297,-210.22745,5089.5341796875
523,-1414.1814,-409.29294,-1080.7346,-752.9822,145.25012,263.2112,1660.71984863281
524,-658.7647,-763.9052,-2695.667,349.76013,-254.24171,503.5533,2295.09814453125
525,813.38153,4625.333,-637.6934,660.1617,670.3973,-1258.6997,5438.44970703125
526,-6787.0474,-1603.9181,-228.13785,24.742157,-807.18787,496.0996,6211.54443359375
527,-6181.9204,-3863.9993,-905.65955,-812.8618,398.6344,287.89697,4867.17041015625
528,-3058.5427,-1997.7146,-1423.6116,4320.989,-52.610977,-484.6871,7667.45556640625
529,-2630.7927,1099.1174,552.0787,5147.8213,-9.931137,-185.25055,9579.9013671875
530,-1732.6544,13681.511,2613.043,-105.59092,-3394.5884,-676.83655,15015.783203125
531,-2473.7722,-3040.258,665.44446,5063.2314,-622.0524,1347.5021,9770.9248046875
532,-6220.4062,-3299.158,2.465479,2601.6965,802.87,198.08649,7171.9775390625
533,-96.69889,-6951.44,402.60648,1746.41,419.5027,158.64067,7772.5595703125
534,-1527.2301,-3698.595,3147.9058,3276.4395,157.90869,-660.94293,8385.3232421875
535,-2278.607,-753.4563,-688.2233,792.8232,-293.7034,604.6304,2381.39770507813
536,-973.11096,-829.2735,444.2012,1543.6782,-150.9223,-662.9832,3218.9130859375
537,-4632.7656,1221.51,86.348976,-220.28676,-7.0107355,173.13103,5399.18896484375
538,-2708.5115,-4524.0713,1463.3748,767.89716,227.05573,-25.186115,5495.5224609375
539,-332.78586,2080.499,1986.045,277.3568,-91.709045,-496.56473,2569.17553710938
540,-798.46246,435.41733,2215.0042,1996.8517,-496.9301,-476.48306,4502.15087890625
541,-1809.3015,6240.997,1151.0315,300.37622,322.72293,0.5981877,7093.83154296875
542,-8111.515,-2911.031,-1768.2935,3712.9375,-466.02213,-625.47125,8802.0771484375
543,-7503.217,-3655.2615,-1007.75464,2375.525,-480.1375,-469.63995,7091.27490234375
544,5522.261,-2463.3108,-1724.0048,1645.7501,394.9122,380.43704,8212.16796875
545,-7224.079,-1418.9966,-2799.0012,145.28653,285.3458,109.52051,5285.44482421875
546,3465.673,-2369.545,-1126.7721,282.2376,-184.43727,305.34933,5381.7412109375
547,8458.506,-3309.9487,-1450.5889,-2384.9055,90.44528,141.2283,11714.0791015625
548,7377.294,-2208.366,-144.6786,-3220.78,406.7785,254.29048,10400.603515625
549,-595.5871,4806.279,6015.9785,3316.5,-456.16995,-814.91223,8531.8349609375
550,151.22562,-774.5587,-1666.1658,-74.3287,-131.8322,173.49567,1623.72766113281
551,1426.9628,-61.43298,-501.97742,344.80322,-501.55606,63.793995,2046.62109375
552,-5255.6963,2235.9656,-11.099224,-1049.3307,700.44727,-870.8407,7168.703125
553,-1086.0345,2684.2732,-450.87912,-2288.9497,-185.43013,-144.28021,5301.64013671875
554,-6308.2925,-10940.81,-2904.3242,-2775.6223,-127.98265,-452.1528,8520.0263671875
555,2204.7673,1285.7738,-752.0883,-1716.4719,654.4279,942.3186,4433.70751953125
556,1995.7952,2251.805,2383.0325,645.033,236.13173,-241.92068,1306.67956542969
557,1494.0657,711.39197,609.80664,-985.09125,-62.202347,-84.9616,1909.68139648438
558,-1308.6079,1930.5453,1690.903,663.6403,360.9455,31.587572,3389.45361328125
559,-2477.8276,629.7552,-756.9043,616.50323,282.25778,-13.433711,2941.17553710938
560,-4223.1587,-6044.3154,-353.75616,-997.3777,-258.41583,390.8138,5383.1689453125
561,-5513.924,-7407.8257,-1270.0342,603.61566,475.595,-582.0484,5694.11474609375
562,-1504.0005,-934.20435,-2397.1638,-2010.6664,-391.80515,-123.56185,3777.03637695313
563,49.919353,-5459.4756,-273.72733,-671.5079,-1050.5566,-22.661034,5774.1142578125
564,1102.0295,-1901.3236,-94.62025,1468.316,-33.9557,-168.49611,3662.59814453125
565,-1516.1451,4870.654,785.96515,-1545.5691,-212.31104,-46.618732,6220.6025390625
566,1990.4667,-1015.43964,7.460738,221.4334,-40.220325,-80.06284,2679.22314453125
567,1908.434,-3158.1558,723.3097,530.82416,-90.10757,0.6601779,4684.0146484375
568,-917.6035,1552.3754,543.64874,-1835.5118,42.096783,453.06216,3918.57299804688
569,-3998.183,174.54228,-1184.4662,1173.8278,-1501.0808,-1078.7643,5288.8857421875
570,-717.7077,2632.0317,992.82764,637.063,261.2221,-32.497547,3137.23852539063
571,197.57101,6621.6455,750.5986,-887.8766,-281.36514,710.00366,6491.27685546875
572,-365.32007,3521.9243,2772.4749,-2688.7458,-33.431286,80.57959,5871.11083984375
573,-26657.826,-11829.451,-26449.1,899.8159,1466.6654,-1800.9834,15344.125
574,-4172.232,165.68604,5335.409,7901.795,-664.0863,-830.1154,16083.3701171875
575,-1941.8773,-1745.3888,-3868.427,5853.4893,-620.51324,-183.80275,10400.7314453125
576,-10940.506,-11706.734,-12051.672,8659.665,725.64886,685.22797,15130.3701171875
577,-3119.4297,4820.657,6016.128,-797.6707,540.53345,-35.676502,8761.01953125
578,16138.468,-3142.536,-2116.0583,-762.3542,-1714.3406,-1140.0258,19169.734375
579,12196.701,-7724.828,-8171.7363,466.03723,-2695.5483,908.9376,20758.087890625
