Element Label,S11,S22,S33,S12,S13,S23,Mises
1,10909.642,-650.11255,47.950195,12631.093,-3133.9856,-730.2901,25213.982421875
2,11169.086,1947.7441,-978.48926,12503.967,-2300.1863,-1068.0967,24676.353515625
3,7269.2627,6022.5176,-1693.2065,7832.576,-707.8676,-1459.7538,16206.4775390625
4,18993.432,9654.673,3507.669,3657.282,400.48672,62.738235,14933.9736328125
5,22075.35,12563.733,3648.2783,-4133.073,7017.9277,1039.4883,21377.53515625
6,14160.944,13012.679,5271.7505,7297.9194,840.57104,2183.65,15694.9892578125
7,10288.555,11345.4795,-6240.869,7453.6567,-172.27576,-3455.26,22234.787109375
8,11176.372,-2125.2422,9959.589,9757.9375,-3953.4001,3207.7036,22926.765625
9,9596.448,6401.993,-6230.9893,6312.4336,-2732.154,-4866.9546,20570.57421875
10,12840.433,11403.66,18487.65,-1918.6469,-11146.45,10851.718,27912.759765625
11,5860.9497,5537.5425,-3595.5615,1699.0675,1434.8464,-323.39267,10080.7978515625
12,16163.646,13265.809,6446.6387,624.4527,-1864.9346,2960.3945,10609.1923828125
13,2619.21,8948.601,1942.0742,1916.2495,5393.206,-1731.4297,12331.875
14,-8880.234,-20371.844,-26894.32,6202.797,835.46716,578.7676,19185.3203125
15,11102.273,-18545.516,-15937.439,6746.386,9716.913,6079.011,36594.11328125
16,-16748.143,-10755.766,-45081.53,-2306.5789,-4148.631,12643.014,39441.1640625
17,38796.605,54616.4,60717.688,-3263.0095,-9825.201,-13650.886,35561.19140625
18,1874.8657,-7604.8647,-16254.297,-697.1402,5614.1123,-5708.2764,20986.62109375
19,-30470.615,-30304.682,-31120.39,863.3454,-238.47432,588.6921,2000.9853515625
20,3732.6416,27842.582,2569.8015,2321.858,2212.2053,-16881.418,38684.34765625
21,-2388.129,-2742.7412,-19340.469,687.3965,18867.336,-3334.0354,37204.70703125
22,-2263.6147,-3242.1672,-2675.3542,-947.2091,270.0353,350.89612,2000.9853515625
23,15778.252,24647.531,12749.492,8083.7305,-8590.517,2908.343,23611.58203125
24,955.972,-7496.2183,-11963.0,1656.1714,800.728,-2316.0693,12465.572265625
25,11150.239,8594.641,-26691.955,-4215.0786,-5362.2563,3890.7004,39074.6484375
26,38930.29,8284.023,12176.238,1566.4102,-14412.745,3904.865,38876.0546875
27,36726.234,9009.357,8463.344,3549.0532,-1038.9783,-3843.9065,29478.97265625
28,20226.344,4116.9146,-10411.525,-3456.767,-11122.76,2136.432,33545.8203125
29,32986.664,9483.137,-2528.7676,560.53424,-13823.961,3563.3237,39891.90234375
30,-2171.1294,784.35205,-6031.16,5198.93,576.395,-1149.8318,11004.208984375
31,24544.85,5560.6675,3465.0415,-3110.687,-13592.031,11001.092,36754.66796875
32,5609.543,-20795.098,-13885.49,-7157.662,3642.143,-16239.705,39334.18359375
33,9436.451,-3514.6606,1048.4988,-3363.7756,-19337.756,-4413.174,36656.17578125
34,34284.83,35813.31,29199.857,-4986.4155,-19608.469,9614.248,39259.8515625
35,25731.625,6566.007,-10572.078,-3436.1897,-10464.954,9063.049,39998.51953125
36,10424.098,-1074.3109,-4662.998,11292.769,4559.765,3839.1426,25990.912109375
37,-19112.457,-34149.13,-40964.8,-1680.1815,-48.894745,-19588.412,39174.40234375
38,18166.893,-463.52832,18206.223,8112.818,-3528.2673,4416.7705,25320.9375
39,2515.2776,-24568.855,-40570.195,1330.5099,7392.5923,84.825615,39903.12109375
40,11463.306,7024.7656,-310.1455,10236.567,9228.919,-3138.712,26561.12109375
41,15329.692,-8673.885,-12679.477,11869.881,4090.999,-1633.4883,34194.45703125
42,21663.896,12809.987,-6777.7783,14848.815,7498.1294,-6505.9756,39907.53515625
43,21152.51,2148.4446,16824.125,10734.276,9683.408,1721.0446,30553.1953125
44,2090.8008,11127.029,7350.764,737.6795,-3598.2036,-6165.2437,14706.96484375
45,10436.2295,-15267.256,10314.926,6061.786,-4069.7273,-10549.099,33931.40234375
46,62259.836,63243.316,61755.004,547.0081,-25.098999,679.66125,2000.98559570313
47,23386.543,22175.336,21458.168,-10965.147,4239.9814,-6792.5044,23577.533203125
48,3660.705,15423.358,1608.4799,-2233.7683,9242.58,3911.52,21996.732421875
49,1969.6757,9960.463,15621.336,-996.7036,8769.524,-17272.354,35634.66796875
50,-2146.3618,20326.18,-6922.823,2855.0469,-6243.074,-14331.072,37318.7578125
51,11698.365,43082.895,7109.2705,-3920.819,-1871.1428,-4334.347,35539.5078125
52,-40245.34,-30402.963,-18442.373,2192.302,5465.052,-6417.5703,24191.388671875
53,6458.9224,10513.898,-10484.508,3333.1013,9753.964,-15713.523,37838.08203125
54,-10639.135,58.464417,-18723.299,9934.232,-1589.1906,-17185.3,38156.52734375
55,21029.182,14030.501,-4538.935,-490.41324,-15492.653,-7731.8345,37734.58984375
56,-9782.693,10170.717,-24941.264,-6757.3022,11200.213,6706.629,39732.10546875
57,-15529.657,-540.4642,1184.2717,12646.253,3866.0493,-14807.032,37892.87109375
58,10630.382,4141.4087,24065.469,13299.801,-142.31476,-14848.019,38754.27734375
59,6883.0527,163.62079,13423.489,8138.957,5368.658,-17898.793,37123.734375
60,-19977.553,-6014.577,-15876.947,4243.689,-1941.4622,-15924.651,31315.19140625
61,-1442153.5,-1429056.8,-1427403.8,15458.541,238.41054,-1473.6707,30323.115234375
62,285838.6,308880.7,320562.44,-5641.1455,-8093.5815,-3667.6143,35621.80859375
63,-538.7954,34059.3,4269.0615,-11775.357,872.043,-6305.7734,39891.703125
64,-161575.81,-190059.97,-151172.48,-8329.079,2032.9756,-3227.5737,38310.28125
65,15605.81,1310.2385,-14558.749,13388.167,10016.06,835.7388,39036.3046875
66,-163.80363,3828.7441,4213.083,1124.6938,3082.1265,-1589.5349,7582.6005859375
67,7792.068,8817.526,38514.664,-2172.9368,-13595.526,-3074.0452,38864.55859375
68,-18479.234,-20194.996,18314.332,-2600.1511,-974.3212,-5935.352,39352.953125
69,-5841.479,-15896.382,-33848.543,-4869.931,16011.397,4129.8506,38669.09375
70,-4681.713,17594.055,21645.516,2788.9902,-2845.9639,7608.7847,28708.677734375
71,30601.074,33994.188,67778.03,578.0292,-5853.859,5518.996,38244.9609375
72,-37747.92,-24932.244,-64680.508,3546.5015,9923.424,1347.3086,39665.6875
73,-36345.63,-21121.285,-33028.613,16946.059,11413.093,3174.3232,38403.06640625
74,-1420.9266,-5827.953,-36474.414,1262.5947,-6114.9526,-3556.3604,35335.40234375
75,499617.38,478852.47,459929.2,-5431.4653,2607.837,-5800.301,37310.15234375
76,-35213.062,-23905.465,-42738.64,17395.434,8421.597,4690.9546,38159.9375
77,47990.69,32051.025,21797.777,3969.6646,-15102.791,3892.0613,36050.484375
78,-75193.055,-41249.363,-50274.12,5625.912,-10384.003,7044.084,38659.79296875
79,-71140.77,-101311.84,-87035.15,11784.583,-3381.043,2864.4395,34042.8125
80,-167436.0,-158975.75,-143105.84,10231.445,-9130.896,3805.4036,32638.990234375
81,12215.168,17585.232,11008.888,-9166.526,600.38336,-973.2911,17110.505859375
82,-85.01265,-1394.7356,-1491.9081,-573.4224,242.82295,-494.4467,1936.19396972656
83,12105.901,13056.391,-12343.086,-4740.6543,-5046.339,-11923.34,34528.41015625
84,-8325.959,16452.107,-4972.247,-12886.887,2079.9714,-1308.3607,32533.541015625
85,-13485.067,14026.9375,7082.383,11888.736,-5155.188,-6591.293,35329.42578125
86,24235.271,6270.4863,-3895.63,14107.799,-4012.4905,7176.5254,37531.49609375
87,-3251.4639,501.1498,-23715.965,3444.8647,2577.5513,18307.855,39632.54296875
88,2733.6157,13999.985,7003.288,6392.8833,6682.7637,5197.9043,20849.388671875
89,-15323.703,3990.727,-5663.129,-6481.336,-7829.729,-6622.307,26856.79296875
90,5212.123,7795.3135,-21847.908,-2720.9658,20.087976,1878.971,29010.7421875
91,19323.6,10429.094,42784.18,-10683.179,4973.1006,-10608.24,39904.53515625
92,47725.87,31729.666,69455.11,-3282.2515,4827.669,-10619.52,38938.21875
93,31060.992,17155.861,53833.812,-3702.334,-2586.862,-11164.843,38259.26953125
94,-243629.03,-282412.44,-255735.3,-6551.006,6457.8438,-4119.804,38548.265625
95,-210670.06,-230088.19,-222987.0,11673.496,8540.513,-8447.735,33635.16015625
96,5400.232,-10832.146,-28029.871,12650.51,2885.1252,-8937.505,39788.52734375
97,17617.455,2856.0483,-2237.0269,-7229.429,-5369.115,-1120.7416,23792.095703125
98,-1623.3129,3416.7334,3666.9863,-10567.974,2810.4456,613.20325,19662.044921875
99,490463.0,474170.12,468384.9,-2678.3665,9935.624,-11010.386,32780.19140625
100,5949.307,36796.08,13475.386,5431.4155,2926.919,-10783.459,35200.2890625
101,39142.66,13482.243,7509.163,429.0302,-14188.732,-5508.006,39280.19140625
102,21625.562,14619.952,7769.564,-3857.1948,-7571.048,-10946.715,26834.40625
103,11840.401,-498.75806,-14513.537,5689.662,-14401.906,-7670.5493,37649.33984375
104,9976.127,-10314.128,1072.752,-7171.263,-16968.836,-4366.7607,37223.96875
105,36454.816,12011.451,-3982.4019,9967.2,-527.3638,-3278.7917,39690.62890625
106,21079.97,3105.4277,359.13037,16100.535,8518.903,-441.7297,37094.09765625
107,10182.104,7973.4014,-22056.299,7788.9316,4595.161,-10467.367,39332.35546875
108,-10448.979,-9500.712,-28247.465,8946.977,5666.691,2886.2368,26382.4453125
109,-11381.129,-24996.336,-27075.102,15124.9375,-6021.543,-14088.542,40106.4453125
110,-1516.2097,-11686.743,-27778.977,15382.863,5172.2524,-6540.326,38007.20703125
111,16060.564,-255.84277,8963.871,-2712.9434,-2364.8213,-175.6574,15483.71875
112,54824.133,71185.86,84802.95,-11992.371,-6933.135,-5704.652,36731.671875
113,3247.9639,-21733.562,-11876.06,-3859.0361,10945.572,3611.8428,30302.16015625
114,-1761.6497,-10956.159,-35803.703,5241.4224,11638.017,-924.37366,37705.59375
115,-1.2944336,-482.47778,-12949.922,-12095.773,-3213.4739,-6205.6416,27333.134765625
116,-72980.13,-67515.74,-69731.945,12970.074,-15195.238,-10503.723,39382.734375
117,1055615.4,1079712.4,1083715.6,8513.0625,7568.307,-121.52678,32900.70703125
118,345450.3,363647.53,356325.66,-9434.015,12188.114,9764.481,35358.14453125
119,-13975.516,-27385.672,-23134.3,7583.1455,-1243.6881,1072.4435,17930.361328125
120,11511.27,13797.778,33401.156,6604.07,-5411.588,-6077.9336,27638.103515625
121,12974.97,-1619.5132,-25225.719,-3544.2485,10557.429,3930.935,39155.99609375
122,12585.045,5622.0127,-6776.5547,-3797.675,-20141.754,848.8029,39383.234375
123,29092.883,9259.222,-8417.525,10481.153,1746.2303,-5228.8516,38433.9765625
124,32059.674,7465.595,15350.447,6349.9463,-16144.44,-8591.116,39967.92578125
125,11784.052,14079.974,43080.652,-8429.529,-9362.288,-3086.4568,37651.0390625
126,15777.787,-11981.33,9083.63,-7556.473,1585.8595,-4695.939,29572.921875
127,-11653.032,-18951.148,-38710.81,1449.6786,-131.08676,-16270.659,37262.23828125
128,29626.47,15662.483,10905.49,12149.339,-12325.747,-9233.767,37926.60546875
129,-7348.365,-8256.419,-23899.305,2011.6458,7130.6245,-18396.785,37943.796875
130,39208.348,25674.97,30719.195,8606.971,-9611.345,-16044.797,37576.73828125
131,-231.06783,-26643.488,-19848.168,6292.774,14629.8125,4426.057,37201.78125
132,14399.059,12573.473,30698.555,9937.527,-2660.739,-10546.317,30821.078125
133,5258.991,9939.854,-18100.959,6521.0425,-7750.8716,9013.604,35049.64453125
134,-9337.016,-332.59665,-30842.018,-1649.7186,6036.3633,15283.304,39438.56640625
135,35886.188,56099.688,20624.068,-9473.42,-5703.554,8151.2056,38938.078125
136,-1051.8652,-20799.85,-19953.314,19439.104,3008.2705,3069.9172,39535.30859375
137,-49063.523,-49111.266,-50589.246,200.67451,-328.7363,658.7011,2000.9853515625
138,3157.009,22637.727,16651.967,-2972.8335,7133.3574,4640.8667,23291.658203125
139,-12470.626,-9596.893,-25352.562,-2303.4553,-550.47766,-18679.465,35704.5625
140,293621.44,256220.81,283176.75,4349.085,-4389.179,-9311.4,38625.1875
141,3838.9614,-13562.052,10816.052,-8913.771,-6989.5747,-4440.313,30281.365234375
142,6426.9824,-612.3565,5095.7646,-6353.558,11575.8,-856.87256,23817.15234375
143,-48874.168,-27550.578,-24135.043,-8539.806,13396.365,-7428.7485,38235.12109375
144,688.28345,-7230.0723,-1673.449,1477.3513,5359.985,2488.5056,12684.28515625
145,-29332.936,-15018.073,-8772.789,-18840.574,-4632.7607,-3781.1477,38800.76953125
146,111738.51,141473.6,129958.805,16343.025,983.2444,1671.0894,38560.78125
147,-24683.076,-33693.375,2662.7031,5502.461,-10572.065,1630.4885,38852.0703125
148,-37522.766,-58607.805,-65007.71,-5209.61,16357.087,-5052.09,39763.47265625
149,4505.1924,15066.664,12764.682,-6082.0957,2184.3323,-19329.273,36588.0234375
150,-2990.4429,25319.12,-10652.647,5707.7144,-5091.362,-4216.345,36137.05859375
151,9031.607,4873.303,2371.1028,4297.393,4409.6235,-6045.7266,16042.0361328125
152,3748.115,34048.69,1986.3339,-454.47064,13761.801,-2234.3662,39476.1953125
153,-7262.5913,-32295.281,-27807.916,-669.13873,-18387.033,1977.1007,39519.109375
154,41867.46,26137.295,47201.82,8010.1846,-12949.987,-11915.311,38487.96484375
155,24582.146,12421.827,7560.9473,-3414.9275,-15646.9375,-824.2127,31656.193359375
156,7840.4487,11533.214,559.0114,-6842.4146,-14297.961,-3158.693,29618.025390625
157,8613.72,-6430.7183,15050.528,-9106.493,-4909.2563,17077.83,39505.05859375
158,22493.584,16766.762,4422.9683,532.28644,-20670.367,-3039.1917,39575.35546875
159,-2909.9116,6701.5376,3554.3613,8145.3975,11040.911,-3191.1096,25832.7890625
160,209.26852,-29349.281,-39713.05,8645.623,-209.54045,-3604.6323,39380.26953125
161,20900.25,-2165.75,6278.878,16017.161,9045.714,1767.2255,37855.7890625
162,32912.09,-1616.0889,-8995.783,4135.8945,744.315,1992.5267,39577.16015625
163,6645.931,22314.771,13403.073,6234.3203,-3100.4878,-6072.5923,21008.650390625
164,-44775.01,-25246.922,-54432.547,2743.6748,-4206.5537,16853.074,39886.76953125
165,4848.0337,23144.06,-17737.014,994.5997,-1870.1448,5096.0547,36734.3828125
166,-7467.1196,10407.127,-16467.164,2435.9211,4030.445,17895.646,39857.94140625
167,30398.592,19308.664,20547.176,10850.219,16817.145,-6243.291,37806.77734375
168,4572.085,-1399.4099,-6549.3345,-5531.404,-19287.895,-9343.277,39530.765625
169,5913.54,223.69852,-29429.59,-3154.8347,-4114.2812,11390.534,39373.69921875
170,739.56915,3640.056,18135.83,7826.13,4222.9688,-16917.113,36829.2890625
171,-8718.842,1758.632,-14927.219,12091.822,8512.604,-13474.701,37604.546875
172,223.89528,17937.451,2369.7603,1308.7893,-733.0695,-20698.555,39653.5703125
173,8896.519,11828.141,24403.127,-2748.3306,-13358.576,3499.8628,28255.115234375
174,23522.246,8612.191,30692.557,3083.9023,-3425.9963,-16068.262,34913.37109375
175,22861.271,42515.715,39830.79,4933.2812,-3256.8418,-17924.463,37542.33984375
176,12540.342,19592.805,27220.248,16682.48,-3342.1724,-9036.931,35708.984375
177,23672.066,-7440.158,5031.704,9856.394,-2561.783,3265.8413,32842.37109375
178,16193.598,2495.8447,6240.509,-1169.6288,-4037.6187,-2089.11,14712.640625
179,19810.193,13720.565,-11311.447,9074.148,-3673.782,-4112.2373,33975.9140625
180,-6212.4316,6864.525,28841.799,-10876.172,-7352.6973,580.93884,38203.08203125
181,-536.1453,13510.812,-14669.207,8932.211,7765.451,-1214.9897,31941.75
182,788.7495,13551.235,-9743.364,7840.1665,4131.301,4891.037,26750.638671875
183,18100.186,30813.332,-1160.0566,8668.903,-858.09357,-1252.7295,31777.443359375
184,62367.29,76429.22,39538.094,12390.425,4497.8794,3734.0605,40037.765625
185,-52324.18,-25020.19,-37423.25,-9524.695,12655.358,-8171.132,38905.35546875
186,19680.338,8740.012,9867.825,-11048.68,-17521.883,256.92148,37364.3046875
187,-39478.656,-39888.55,-40856.926,32.653923,643.13544,-647.3481,2000.9853515625
188,-14071.1455,-14317.836,-15190.737,33.532085,-833.39417,-541.22784,2000.9853515625
189,292591.16,306207.62,299140.03,-12688.049,3015.1165,-870.71893,25527.052734375
190,-288081.75,-290483.7,-259529.16,6131.247,-9900.856,4882.283,36986.06640625
191,-51744.734,-41931.78,-70605.53,4791.9336,2158.0312,-408.58133,26841.45703125
192,13132.263,7028.051,6132.071,12977.509,-8167.444,8398.822,30992.298828125
193,29489.887,25357.22,35226.996,5088.138,4853.649,6422.602,18595.525390625
194,36472.895,5411.828,8199.265,6397.18,-8042.139,-5421.634,35929.9453125
195,41784.44,38080.324,26535.773,-4281.466,-5534.876,447.51044,18364.578125
196,21484.293,14565.071,17328.701,447.55652,-2546.2373,-585.5908,7580.94677734375
197,19148.287,1899.0312,-5877.6157,-4164.3833,-3141.9082,-5597.67,25841.771484375
198,19666.168,18803.482,12096.597,3361.1174,-1322.5529,-2391.7578,10383.29296875
199,54767.3,23301.076,34542.086,723.4169,-11959.467,-7719.0923,37042.96484375
200,28975.734,13355.251,-5287.543,775.3112,-14318.686,1638.6233,38829.0546875
201,5765.329,-7800.076,-2401.9504,7103.444,-8247.735,3441.6548,23041.6875
202,16977.521,12895.211,25269.273,-5944.83,-20075.836,4694.3745,38736.546875
203,26856.592,7359.3887,10927.173,-12559.069,-12240.334,-9611.681,39027.29296875
204,-4187.186,-5902.5063,4642.685,-6075.129,-13946.621,-14032.737,37162.5390625
205,1688.4156,-19291.975,-39537.016,-290.753,-6054.1016,-7047.0703,39166.0703125
206,9311.46,7181.2153,16391.207,-2427.0583,-17692.742,-10573.174,36903.7890625
207,28738.17,29673.121,27890.52,-7349.893,-20195.49,2394.7153,37486.3359375
208,11649.846,25663.166,6615.034,-3013.776,-6711.7705,17589.781,37186.96484375
209,20943.186,19856.264,25806.23,-3912.1833,-19816.117,5063.933,36482.83984375
210,-5382.946,2842.6836,-16574.979,-13490.014,8588.074,9848.095,36648.94921875
211,5994.2246,-10943.443,7893.9517,2541.761,-11456.357,-11899.033,34066.95703125
212,-24544.184,-17082.14,-25782.984,-2306.8013,-7223.4995,-13267.186,27695.056640625
213,-19579.133,-43450.598,-35624.984,-8195.513,-7947.2026,-8115.623,32137.853515625
214,1006.95294,-302.25705,124.76616,-123.43672,-883.8382,304.08698,2000.98547363281
215,1396.0232,3424.0723,2936.3953,-223.18419,-370.44516,-164.359,2000.98547363281
216,-68604.55,-69398.555,-69230.01,87.19157,-381.6163,-1003.1972,2000.98547363281
217,-10417.347,4813.5127,-6316.765,-9136.041,-3776.518,10191.444,28126.912109375
218,-6214.3413,5198.9185,-20338.287,5494.3413,-6937.7188,11674.308,33686.4375
219,-12328.399,-1976.2821,-37917.652,-2438.999,3381.4287,9019.017,36373.828125
220,-3550.1506,-1490.5391,-23072.824,-5570.7954,-3690.2625,16158.384,36644.52734375
221,-39150.8,-34028.285,-56674.63,17110.941,3655.9087,3875.76,37237.1484375
222,70343.055,70291.47,109084.71,-129.59723,-2021.4701,2031.1354,39084.5625
223,79541.08,81422.836,115938.69,-10161.337,51.70599,1903.0581,39755.08203125
224,104904.13,108559.37,141504.83,-8362.106,609.28253,-6363.0547,39389.60546875
225,189352.7,189944.16,214936.72,-8652.728,-10755.5625,-8098.6665,37525.734375
226,-18223.883,-11585.293,6061.7817,-6986.514,-4340.2544,-17101.607,39407.921875
227,150669.66,160806.0,176113.0,5257.8447,3010.3625,-16672.412,37897.70703125
228,-417654.88,-390689.34,-415263.28,9696.82,-6120.3374,-10643.664,37452.53515625
229,-122885.875,-122733.73,-109785.88,7073.1045,7832.9976,-17472.59,37678.48046875
230,-119373.97,-104120.836,-100317.63,10584.257,11332.204,-8859.082,35523.50390625
231,-4391703.5,-4383299.0,-4383732.5,-3919.2922,1142.2612,-2137.7085,11440.560546875
232,-119253.625,-90116.89,-80608.51,-1633.5553,-4063.9878,9.916633,35692.515625
233,-813885.5,-805374.8,-825644.9,-249.45029,1589.2997,-147.44833,17850.05859375
234,528585.6,532512.94,536822.0,6531.6504,-2721.1277,4387.208,16089.08203125
235,578043.75,570253.94,609519.0,-226.95631,-6589.0586,970.17346,37812.48828125
236,28335.941,31277.992,64280.48,-6405.041,-9209.822,-3654.8628,40156.2578125
237,-145012.28,-168373.86,-145510.6,-9341.685,-14962.254,-2943.4382,38649.32421875
238,31797.207,31167.78,-221.89874,13019.5205,1417.3599,3458.168,39444.80859375
239,-20770.422,-10462.82,-18457.295,-21184.848,7069.6245,1767.7179,39918.1796875
240,-3049.2368,-28919.105,-26049.469,14496.759,9867.272,-4534.1235,39843.19140625
241,33621.82,48579.41,69616.43,-11854.951,-6484.0684,-1593.947,39195.9140625
242,-16901.453,-20514.312,-54053.402,7230.4116,-509.4276,-5885.406,38995.18359375
243,9439.201,11953.819,22948.424,-2169.3755,-16704.955,13668.969,39581.04296875
244,21074.71,22219.664,54883.246,-10991.746,-2715.5813,-1437.3999,38683.2734375
245,81.74219,-33685.41,-39926.914,1751.398,5156.6943,1216.9893,38514.34375
246,2572.0322,5015.954,40608.52,7401.689,-4982.843,-1906.3372,40118.9765625
247,-61537.04,-80286.11,-103619.086,7471.1978,-716.0237,1186.9152,38815.5625
248,278.21875,25954.734,36865.914,-9848.776,2843.9614,-6871.714,38928.3828125
249,11309.86,13185.339,36352.305,-11704.19,-1918.6449,930.11505,31753.39453125
250,-197586.77,-215703.11,-191003.23,-7117.299,-13077.514,-11253.958,39189.296875
251,67031.37,28134.867,55466.137,3819.7305,10760.92,883.9958,39879.2265625
252,100202.22,121842.6,118679.49,-4206.5547,-18279.484,-1206.6378,38337.08984375
253,5458.4995,-2007.7845,8024.1445,17762.426,-9222.31,6502.4023,37549.85546875
254,56484.223,87515.016,56075.145,-12518.004,-28.227983,-5199.3467,39076.5234375
255,87667.664,65779.95,74043.8,-16235.674,10294.729,-3211.5457,38809.328125
256,-19385.506,-7148.3433,-228.14134,-6420.0747,-8135.111,-12215.627,32437.2890625
257,-24073.559,-13752.19,-5324.287,-9041.861,7052.2183,-2719.6882,26099.90234375
258,-169582.39,-177240.52,-180658.22,-1108.5251,-2856.347,4423.555,13541.3046875
259,-25159.71,-23715.785,-25312.957,204.69464,-359.68396,621.94415,2000.98559570313
260,-25408.748,-1328.4598,-2983.4895,-14120.661,5541.1084,5099.319,36208.3671875
261,-6674.2393,15354.932,1879.275,-8829.581,8157.6074,2997.3228,28818.330078125
262,-10515.263,11683.033,-2922.048,-19030.32,-336.1183,4474.447,39098.91015625
263,7844.452,-6904.6074,-21541.076,-3822.2095,12550.542,10212.208,38430.18359375
264,-3317.8738,7389.917,61.6864,-4534.007,-7102.8647,4457.424,19039.962890625
265,-4617.699,4723.7847,11898.289,-6137.435,3320.2017,7266.8755,22588.83203125
266,-2434.2473,27968.252,-11377.316,3022.147,-5987.6704,-6405.8247,39169.41015625
267,-3557.4038,19736.46,7460.079,-1058.6849,3640.8203,11746.4375,29400.93359375
268,2875.2515,21613.59,-163.87305,-1717.1687,-3771.3567,-26.760578,21652.419921875
269,12036.658,22364.646,7486.035,6096.1826,-6769.2017,11974.39,29214.53125
270,3256.7598,12144.828,2887.7861,39.188435,-2148.14,-2574.3154,10776.9560546875
271,1374.144,7607.7056,-3449.728,877.62506,-7490.4927,-3175.4705,17119.60546875
272,1882.6487,16888.482,-5474.4873,3306.2915,10131.711,4542.623,28148.857421875
273,-16443.18,626.0229,-26918.88,3689.8123,-18093.479,1619.2987,40134.05078125
274,-3693.4644,15800.559,910.61206,-5274.593,5301.4175,-2440.5234,22295.962890625
275,4180.9424,13737.768,4994.6777,-5247.768,3662.7073,6070.7715,17822.587890625
276,-1707.7234,4504.389,-10424.157,-5503.5645,5465.301,-6294.5117,21634.529296875
277,17178.465,14105.872,7101.773,1162.831,4877.2485,-518.29956,12499.7626953125
278,26373.127,9089.306,-8096.849,2620.7324,-12006.042,-6533.1523,38369.55859375
279,3964.3894,-20938.908,-38353.418,759.3163,6923.9883,-2762.2112,39058.44140625
280,-745.83936,4423.5566,-3254.421,-1509.3458,-6604.873,-5120.9917,16197.671875
281,-2529.5435,10281.916,10158.487,4069.2913,-3007.6921,-1157.295,15601.3291015625
282,-665636.75,-707483.56,-677539.7,5466.2056,1580.5369,2235.684,38818.33203125
283,56878.555,39412.26,16608.86,10409.256,3684.7827,265.18533,39866.765625
284,-45183.574,-39791.4,-16363.213,-14628.004,-4856.257,-2201.0364,37835.2109375
285,-253646.53,-243889.94,-273884.72,9821.02,1166.5684,-13484.266,39257.44921875
286,-1998625.6,-1996650.0,-2017353.5,-4025.633,-8907.831,-14003.322,35589.046875
287,28491.52,30822.207,10348.847,11256.491,-13289.009,-2084.9932,36053.21484375
288,42190.516,16682.479,11875.384,-8240.817,-1690.2406,2221.6614,31992.171875
289,5037.4746,-167.38133,-3216.1113,-3843.197,-13685.196,-9559.72,30538.212890625
290,26107.223,8837.806,708.0972,-1561.2882,-16782.025,5657.93,38117.9609375
291,32351.29,15256.858,15861.953,-3245.7576,-16096.273,12284.101,39291.40234375
292,17719.45,23117.906,28799.66,-2457.7485,-20584.355,-3275.0864,37597.1484375
293,38709.75,41364.473,50016.285,-5963.6836,-19335.932,2112.8772,36695.96484375
294,26717.998,-1887.2666,-13386.721,-7511.635,-6193.8164,-594.5012,39558.41015625
295,36841.07,39506.008,71690.65,-11304.548,-2652.1191,-1212.9604,39212.453125
296,-25976.88,-27135.398,-61682.703,6677.635,453.40005,5939.2915,38406.98828125
297,8130.7305,9115.111,40275.934,-10024.6875,-821.3896,-9474.711,39692.03515625
298,-10849.041,-8169.461,-42664.707,8939.597,2679.3762,1597.3295,37062.24609375
299,23741.848,34203.344,21125.057,-2100.083,1700.0365,1300.1919,13062.884765625
300,-10512.298,-6824.1772,-16309.248,8644.939,3407.1836,12760.371,28567.45703125
301,12490.376,19802.162,-15997.056,-9026.883,-1577.9601,-1169.8298,36459.828125
302,5848.078,-54.546146,-8692.02,2351.8447,-49.974636,20758.805,38338.17578125
303,82415.57,68685.52,106258.305,-7392.3003,-1790.569,-9651.722,39209.38671875
304,2118.3308,1073.9841,-2566.6924,9148.743,949.64703,-15691.205,31789.828125
305,6433.783,13023.126,-7702.5615,638.2003,8938.58,-3036.0662,24596.23046875
306,6318.274,10974.625,-18284.592,158.20422,-683.0394,-16547.418,39553.359375
307,19343.965,21450.934,3804.3008,19582.766,-6188.7104,-1966.3857,39441.3046875
308,20096.959,7308.365,-2050.781,-10308.522,11437.387,233.8905,32897.33203125
309,-154584700.0,-154584940.0,-154583780.0,-811.10004,-569.2349,-369.38333,2120.54223632813
310,-93.18672,-22440.025,682.0047,-819.77637,-400.98676,11364.05,30120.236328125
311,128970.96,122791.664,140575.08,-4029.2935,-4175.709,-19543.383,38618.53515625
312,-15629.032,8408.793,-945.53845,17560.984,7044.401,-1238.0433,38975.58203125
313,-17201.684,-281.5459,-1233.6123,-4446.8013,568.96735,5273.7583,20367.11328125
314,-658.27637,11859.364,17662.377,-2423.9473,4449.6274,5743.5767,20952.2421875
315,-15556.402,-14540.631,-14841.2295,-828.80286,591.74805,159.05069,2000.98547363281
316,-5802.909,-9907.525,-19301.236,10191.591,11723.606,-1488.3777,29567.337890625
317,-1484.7382,13466.91,10873.348,10156.452,3898.7783,4861.9863,24849.125
318,27218.768,24658.873,12426.775,2682.126,-437.8291,-6233.9893,18061.962890625
319,5921.901,4679.5645,-7205.9185,-2430.7708,-8533.078,9910.596,26237.375
320,24557.006,9758.398,-3630.0151,5370.126,-11277.715,1157.3969,32687.494140625
321,3601.4773,8172.8057,4107.5225,-2318.198,-5764.0737,3885.2473,13413.46484375
322,31931.242,18108.408,10030.325,-11961.779,-1150.5997,9174.7,32461.326171875
323,31680.008,26749.39,27673.33,-2365.0305,-15349.659,15433.252,38193.9921875
324,5813.8027,10524.759,-7436.4272,-880.6496,-12153.328,-9943.683,31658.3359375
325,29430.11,29398.076,15115.854,-6529.6494,-12491.122,-1012.5178,28346.240234375
326,6242.455,4222.388,6340.955,-2814.1377,-2047.1377,932.5719,6574.865234375
327,-8012.6597,6053.634,1885.3998,-4685.2476,-3766.421,3877.7273,17610.390625
328,330.21548,10461.978,-20383.418,4881.0303,-2888.1924,9311.924,33139.20703125
329,-14898.094,-11546.079,-28642.033,-2821.1626,12433.252,15422.453,38044.609375
330,-21675.318,-16708.36,-47547.14,-14960.857,4695.8633,-2851.9827,39806.56640625
331,116215.56,134361.08,159951.98,-195.4199,-3909.7283,-1690.8665,38769.37109375
332,-21753.018,17662.416,-14485.962,-6901.076,-4119.8276,569.82764,38919.40234375
333,15319.618,-14250.815,25028.125,8042.3633,-4421.7715,4278.1816,39539.2734375
334,-28071.885,-39034.86,-66396.945,9275.515,3166.834,2150.0867,38352.328125
335,-13597.586,-5784.0093,14137.069,-8477.795,-512.7956,2247.897,29071.005859375
336,-62751.953,-52292.53,-68849.68,19881.148,29.12216,4394.4976,38132.375
337,-7862.964,-21577.623,4526.7964,-15965.332,-2047.5851,8810.722,39008.44921875
338,-4810.431,20123.77,-523.13495,-17241.354,5096.8125,2653.5647,39039.01171875
339,52.914818,15927.59,-14239.289,-11536.368,9809.3955,-3032.721,37398.99609375
340,-794.4275,14190.389,-2163.8684,390.79694,2488.4348,-6880.5693,20199.076171875
341,14601.196,19173.555,13943.876,5185.5063,177.34557,-7694.3613,16814.173828125
342,1468.3297,132.24225,-22140.322,-5286.2134,-6371.336,-8187.702,30566.96875
343,-53884.96,-78689.03,-57055.477,1870.0801,4126.169,-17700.014,39345.7890625
344,-108556.63,-92987.625,-75860.75,5875.4907,551.4957,-12246.439,36834.421875
345,1062538.5,1061584.0,1049290.9,5310.648,4751.585,440.55548,17795.77734375
346,-7406777.0,-7407928.5,-7407719.0,-390.92004,-30.296648,-897.0509,2000.97827148438
347,133929.66,146981.69,129533.85,6741.3745,11570.433,2828.4597,28443.21484375
348,-2930.6436,-13858.078,925.30457,-4771.8774,12049.626,-7861.883,29423.345703125
349,155050.69,155847.67,129492.9,17143.873,3022.3232,1018.15076,39830.33203125
350,-16453.775,13759.541,-1475.8368,-1743.1079,-2462.4248,-326.47577,26688.490234375
351,-1658071.1,-1647082.2,-1669184.1,-4175.1313,-9165.213,-9946.209,31103.91015625
352,-6664912.5,-6665634.5,-6665615.0,-457.24075,-447.70697,-869.4351,2000.96716308594
353,1589.141,5670.021,-19796.09,1438.1672,-1532.4257,-12134.201,31878.185546875
354,-19813.674,-18698.11,-20777.203,-166.87659,-456.47247,-125.893524,2000.98583984375
355,-13197.701,7517.0757,5585.732,9174.398,5631.6206,-4214.614,28173.88671875
356,114485.414,115318.92,114431.88,-3.4401495,-317.10397,993.01715,2000.54223632813
357,-8295.676,2682.4077,15672.951,1124.7706,-3260.746,3720.8132,22563.462890625
358,10227.956,20059.896,-13862.049,-6767.346,1214.9584,-4751.6143,33517.15625
359,11641.352,1304.2035,28571.744,2883.961,-3133.6628,-140.45438,24959.51171875
360,5576.291,6784.542,-19637.648,-346.9521,-1266.39,-2127.5276,26199.59765625
361,-13680.912,-4153.246,-33885.85,1913.8257,5055.0757,-1233.0486,27995.2265625
362,153926.2,152555.58,190223.78,-679.8819,462.70752,-37.940155,37029.40234375
363,-2694.1191,497.30444,4333.803,-3479.666,655.20703,-350.55618,8667.6748046875
364,-600.7709,-1370.9585,306.5699,266.46985,-284.67636,-186.29074,1635.70532226563
365,-11823.267,-766.2451,5976.874,-11634.969,1813.3877,-716.00934,25686.705078125
366,169105.61,171438.44,207589.22,-92.48517,-527.1851,-1922.3068,37531.31640625
367,-493.80817,785.9874,2408.2,1379.0219,-384.81094,-1056.1252,3980.08740234375
368,14094.61,711.85864,3692.2822,635.6504,5545.395,3665.902,16789.2109375
369,22175.945,-1282.709,7453.9443,-10913.58,1324.8682,892.8759,28047.525390625
370,27728.32,7983.3066,9508.151,-2314.84,-906.4749,998.29395,19586.0390625
371,16360.62,-2358.6472,-11040.312,5948.433,338.7807,2.6561115,26358.91796875
372,25495.172,-1114.0283,3509.8105,1557.2705,-1917.363,242.6095,24997.470703125
373,-1994.303,3414.4756,1156.4729,3783.6956,-1176.884,77.57113,8322.421875
374,-1201.061,602.05835,-670.0152,313.49103,-507.0542,-262.26544,1961.68322753906
375,-912.9763,-1332.298,126.59332,938.1191,334.6836,-385.877,2261.72387695313
376,-484.92664,-798.1829,173.76904,-400.37317,226.31976,127.21267,1192.24877929688
377,-6369.732,3369.5552,-3379.0347,-4781.2,-150.8009,9.897097,11971.5859375
378,-2838.1929,7294.537,-3735.5652,3911.0786,-674.18335,-29.09934,12642.232421875
379,226.9729,2307.686,-1655.8369,5066.111,858.5088,1804.556,10038.3642578125
380,-848.14136,1183.3795,-1334.4944,205.80638,634.8378,105.09424,2592.47241210938
381,-11517.111,8591.251,-10916.329,-2765.28,3500.479,-376.97415,21277.998046875
382,-145422.77,-134254.19,-175960.39,206.76524,372.4692,243.31923,37404.11328125
383,-716150.6,-696028.1,-740380.94,5183.435,26.586796,-1843.3704,39628.2421875
384,670956.06,658370.25,635185.0,-4967.7676,-5073.067,7337.5425,36062.8125
385,-223470.34,-202687.77,-247580.16,-483.5868,345.12888,-1713.9122,39040.16015625
386,-947670.56,-959512.25,-989729.2,-5665.7163,2794.1868,427.70563,39132.859375
387,-3106.3594,-2656.9941,-218.12402,-71.71378,641.58246,79.87976,2918.11840820313
388,832525.75,844310.56,808545.0,4864.5522,-6213.072,-8328.738,37302.3984375
389,79279.76,89490.9,119891.63,-256.32104,1506.2286,-1643.1876,36796.76171875
390,-30745.658,-1186.8644,-25401.547,-442.2751,2161.9653,-8126.5605,30936.19921875
391,-10962.592,-7656.936,-31015.014,2479.2747,4542.621,8880.703,28218.091796875
392,16511.215,643.8023,10121.217,-2191.5374,-2619.848,8041.3105,20498.81640625
393,-55.293518,890.94684,1608.4636,-2118.3894,828.84204,-5.482179,4196.771484375
394,-261.60913,-11117.808,2083.3699,-9077.135,-1829.0912,704.51544,20187.18359375
395,11361.455,2957.288,10120.197,-15533.125,1142.3235,-725.1049,28125.876953125
396,22305.088,5026.162,-7341.457,-2810.8628,315.14575,749.0393,26285.0234375
397,-475772.16,-491587.38,-519016.5,-1776.8466,735.23157,-131.94598,38044.98828125
398,-117193.81,-122088.45,-109414.52,7118.998,11453.696,-15502.263,37270.8203125
399,-4810354.5,-4805378.5,-4817763.5,-317.27747,-3123.696,-3936.9714,13877.8486328125
400,48976.137,37940.77,78085.94,-2717.8594,-1564.3157,714.2325,36351.46484375
401,-25845.309,-20718.434,-57797.375,-4982.342,845.59094,-452.95807,35892.4140625
402,399852.9,387665.16,431395.72,-1791.2242,-1119.4266,-498.9381,39269.04296875
403,-12880.093,8132.3525,-2792.6184,-2038.2034,-1701.3152,854.713,18832.294921875
404,-7317.2095,6850.9956,306.03558,1542.0719,-591.2971,-1783.5725,12983.46875
405,-7677.4766,13324.745,1589.3936,3369.5652,89.31914,3119.2258,19890.146484375
406,16085.695,-10129.891,992.88293,-2680.2231,-1266.7416,1932.1892,23599.740234375
407,-262712.6,-266587.56,-302166.53,-3694.7727,615.617,-965.3154,38257.44921875
408,11863.034,-4067.911,-15.696289,5856.5425,-1151.446,684.1859,17718.322265625
409,9056.128,-22627.2,-1877.2737,6389.658,1935.497,-10583.404,35308.8203125
410,19088.799,11354.441,-408.2666,-7667.213,2656.3948,195.40071,22063.564453125
411,-1193.6799,1539.1825,-16690.477,-14669.009,3945.928,213.76929,31342.58203125
412,8002.568,4200.243,-7189.7153,532.27765,-2002.0154,14131.898,28275.484375
413,-959226.94,-976889.06,-1003911.2,-432.26764,2386.5247,-674.2032,39222.7578125
414,-38485.617,-13836.635,-52057.258,-5060.617,293.2808,-2533.7964,34966.22265625
415,16842.832,19785.438,38122.633,-2635.749,389.84586,-788.52905,20543.455078125
416,3441.7988,22604.9,40006.305,1295.7819,-229.3905,1224.1991,31830.6328125
417,15260.214,-6453.052,1.1533203,9974.963,-295.7145,1537.5868,26054.46875
418,5644.5444,-4783.6396,7665.7495,13228.713,-1983.133,-624.2115,25920.525390625
419,78151.87,74855.086,42178.3,70.82219,-5810.4224,8769.537,38966.41796875
420,-16531002.0,-16534534.0,-16536953.0,193.83556,-1044.6525,-4605.046,9688.986328125
421,-18186.252,-6037.592,-14142.45,6332.686,674.02826,921.2946,15460.7099609375
422,30086.049,18511.021,36247.336,-8625.8955,-83.02464,-230.10468,21602.2578125
423,397593.84,406426.94,390550.88,-4601.273,-16422.959,-12957.386,39574.9375
424,-7163.1313,-52.720215,-4010.1902,-3116.3362,1336.4393,-1331.246,8825.5185546875
425,-4558.069,-8014.693,7314.8706,1104.5891,-648.29614,4155.553,15832.9501953125
426,-23736.035,14619.71,-19375.691,1299.6045,-969.5045,-935.9782,36516.38671875
427,-14922.114,-216.69336,721.45215,6454.246,2375.7192,2809.4038,19912.498046875
428,-8463.24,9272.926,421.40012,344.45987,-985.8546,-1012.12616,15565.1484375
429,-178533.55,-167029.11,-198787.5,-1336.4739,-8569.959,-10019.241,36089.21875
430,39299.996,49428.957,75672.32,-1173.4335,1364.1868,1508.1361,32766.83203125
431,7921.6245,2939.579,6968.4346,-3837.2356,-1785.1243,5101.6616,12361.0078125
432,-7421309.5,-7420680.5,-7430434.0,2573.308,-933.74396,-4362.1187,12998.3486328125
433,-85798.94,-88447.84,-106626.97,-6074.268,-2248.6863,2197.78,22934.75
434,-7803.452,-3649.8965,-3797.463,813.9338,47.26782,-137.95245,4325.75244140625
435,-918.2511,-543.7435,5560.5024,-2149.9114,1084.8868,275.7969,7570.578125
436,14301.611,-6142.1562,-10244.485,-4868.0537,-84.05335,2340.5215,24620.986328125
437,2434.7573,-1537.3027,-4124.8794,-1875.8694,-246.3326,1521.796,7101.9091796875
438,110393.375,101861.0,142547.6,3039.6213,115.48292,-183.633,37535.3984375
439,-9804.8545,6435.094,16825.914,-625.591,-154.00154,1112.844,23354.056640625
440,-5552.606,-5632.5605,-20631.496,-11639.58,-472.67212,-1154.4519,25244.439453125
441,6582.5254,2627.708,37955.65,-3678.8828,-7287.4883,812.4237,36412.8203125
442,3037.5195,-2372.8965,1147.2125,7323.7974,513.7045,-254.20958,13583.7431640625
443,-4379.742,-34.42505,-608.30054,-515.03595,-1759.7476,46.67593,5177.828125
444,808480.4,819673.4,780807.1,831.6041,-2313.0403,5823.7334,36341.59375
445,2600.7485,4136.7124,9361.741,-3285.155,1313.7379,162.12064,8678.64453125
446,-23244.775,-15454.603,-1527.4395,-2416.8606,-2151.718,-3749.9507,20898.501953125
447,-1957.7642,7203.225,2385.8662,3789.6218,-3729.6086,-7222.4478,17444.3046875
448,5503.531,4786.537,3422.0815,-2260.2427,302.0483,799.97626,4568.78564453125
449,-6083.538,-1712.318,-2154.3604,-1136.2251,1867.5992,-2667.9492,7284.3232421875
450,-3698.0012,-617.599,5579.66,902.95404,66.1957,330.11078,8352.9033203125
451,-1545.1195,2261.891,-1395.7991,2087.0095,1484.3011,-360.8584,5832.16064453125
452,-1156.8313,-6054.7886,2775.8042,6311.7295,-1235.7402,-1037.9066,13639.8017578125
453,876162.4,865416.2,841216.3,-2784.6885,11617.656,-5946.937,38670.94921875
454,-5445.747,-2379.0215,-3268.5474,-577.9028,694.8171,460.32413,3248.7001953125
455,-17040.414,-19623.854,-53403.32,-6191.2964,-421.5101,5327.5264,37890.24609375
456,-9829.592,10062.871,-1715.311,-11946.855,-3053.3147,-6094.762,29457.2109375
457,-96774.97,-82047.17,-122043.72,-4462.3584,-2886.3013,1934.6016,36380.3359375
458,-5038.463,-1232.3654,-3239.1816,962.0791,37.655422,-287.02704,3728.77294921875
459,-4517.1206,4581.3164,1079.4924,-1113.6096,-171.65274,453.75467,8222.5087890625
460,-21047.945,-12916.826,-30824.363,-1807.7036,-1383.7954,405.78387,16038.3505859375
461,17395.867,-1797.6411,3705.9277,4395.7456,906.38275,-5042.86,20730.916015625
462,-399.31616,-6452.032,-3830.748,2058.1199,1590.0852,-976.5366,7127.00244140625
463,-25702.906,-26737.25,-49017.15,-2249.3296,-383.57297,381.20364,23163.86328125
464,-25643.342,-30471.928,-13179.948,-10950.537,2045.7784,-12627.423,33007.359375
465,7610.4434,-8030.4756,3767.6335,-10062.0625,288.66626,-5065.7837,24088.83984375
466,-5824.8203,-7413.108,3620.7178,-3696.1282,764.29767,1867.7328,12646.931640625
467,33997.875,34648.684,59334.15,-1642.657,-89.39667,23.13085,25178.994140625
468,22690.92,25371.521,19061.266,-2586.6768,-3116.5166,591.92847,8963.9013671875
469,-8928.834,3544.6226,-11849.849,678.59717,-1965.0874,4862.4385,16865.666015625
470,-280.60278,2854.5046,6410.3794,1510.6708,2040.6538,-1900.7916,7987.453125
471,-3449.308,3943.8396,9082.299,2117.9587,-887.97644,-1037.2128,11751.6796875
472,17184.611,21652.06,-3009.663,-1293.9427,7022.545,6042.2188,27937.076171875
473,1690059.8,1679712.4,1657579.6,-1605.159,-12702.91,-2629.839,36585.68359375
474,-616143.75,-611035.06,-652723.8,-2196.127,-175.20815,1794.2937,39689.98828125
475,-5412.1216,4295.122,1723.7299,4749.0757,941.0698,-322.31003,12104.1796875
476,-1906.8524,744.50964,-2742.6328,-853.31,263.66278,432.62082,3591.46997070313
477,456.74023,1815.0669,5543.134,1121.3856,-2813.376,-124.325294,6954.9697265625
478,-18547.627,-1542.8481,-860.4004,-609.613,-8452.033,-8168.098,26773.345703125
479,-10746.38,1336.165,-12570.173,489.89536,307.4401,-607.3477,13170.435546875
480,-21231.262,-11734.79,-27291.738,-13621.576,2841.7842,-9261.11,31978.73046875
481,-791.17346,14.905151,256.608,106.9355,-873.081,141.50554,1812.23693847656
482,1206.8657,7068.3774,2768.7605,-827.1127,-1223.4385,-835.4905,6023.17626953125
483,-806.71387,-7529.42,-4269.063,-1876.2673,165.68375,1229.4279,7006.015625
484,-3208.774,-10006.75,-10536.5,-1226.8475,-357.55548,407.5379,7449.2685546875
485,-48013.117,-50587.688,-81764.66,864.45703,-2433.6443,477.08862,32857.140625
486,8715.534,11924.825,30768.145,338.55634,-215.34038,-536.7329,20668.6015625
487,4427.7314,-6092.911,4778.2256,2701.947,-2262.757,566.2444,12357.90625
488,-4892.3164,-2288.7686,-4588.9395,3997.3833,1055.1381,-13.456981,7573.52978515625
489,-7778.8164,-3425.6443,-6702.371,168.23595,394.944,135.10782,4003.81103515625
490,-23942.996,-8714.423,-1880.5889,-3453.533,-4939.649,1883.8602,22412.232421875
491,35266.83,34373.785,69252.086,854.2975,1855.0364,-479.5747,34631.61328125
492,-7047.4644,-2490.472,778.2285,655.89087,803.45123,173.06189,7047.20166015625
493,-3059.8606,2793.4668,-2127.7468,2906.0098,-1136.468,-332.4192,7695.1396484375
494,1829.7922,-3491.26,-1951.346,4221.1357,-743.02167,-996.10065,8976.5146484375
495,7375.337,6878.6445,21945.025,221.44035,-5737.153,787.5534,17902.841796875
496,682425.0,687219.94,724633.56,1056.07,265.2416,-404.92154,40077.6171875
497,9060.912,9359.33,22291.467,-2245.115,385.90433,240.34525,13672.2373046875
498,-7959.9785,5508.954,17500.611,-15345.944,-1993.7185,-5140.2803,35838.70703125
499,-1893.1484,4168.639,3407.6519,-407.89926,-2132.0574,256.263,6858.90576171875
500,-3494.7185,-2249.2217,1018.23413,850.48157,37.059956,719.98303,4475.07958984375
501,6083.752,7934.084,12290.963,37.975662,-3389.648,-356.08163,8082.18017578125
502,3673.3247,-793.1682,2030.4099,71.90764,369.0278,-548.66565,4078.9482421875
503,9048.08,3260.572,-20169.809,-3446.3328,-2494.7114,3027.389,28282.134765625
504,1186.0007,-5209.9346,2149.0874,1113.177,-645.3267,58.195045,7278.2109375
505,202318.64,201378.2,239203.88,1239.051,192.80199,-75.51063,37427.62890625
506,-22616.621,-11842.516,-38659.676,2422.5178,686.71533,1453.4492,23909.591796875
507,-3363.6912,1095.4333,-3013.2058,1065.585,1999.8623,-457.50558,5871.6669921875
508,-3403.2861,-426.1632,-2626.2502,932.4562,-658.7605,582.57263,3475.94677734375
509,3340.1094,8794.293,-1254.1091,522.3766,2608.7412,4105.396,12153.6298828125
510,-11260.642,-8032.1416,-19162.48,-3070.2039,-342.84467,-100.340065,11270.96484375
511,-12073.469,-4462.7393,-7264.5186,-3971.4524,-4032.352,2149.3638,12426.01171875
512,-1985.2462,-4713.64,-2455.859,680.9893,2679.7524,-31.094702,5414.69775390625
513,100.77844,-4377.2397,-533.00366,1366.9607,-342.54938,-183.77957,4865.72998046875
514,-5242.8467,-5798.988,8255.3955,-6704.3237,-1313.9519,-4952.773,20090.591796875
515,-2030.4238,1742.3236,-993.0392,5108.6846,485.88965,-547.16,9555.0185546875
516,-605.0518,1914.4089,761.07465,152.69899,22.43643,28.503012,2201.35864257813
517,-158052.94,-170555.52,-200490.28,-599.13214,2425.618,1339.1481,38089.02734375
518,-22388.113,-19704.414,-40925.01,-1074.6555,-583.8061,383.81152,20136.916015625
519,1946.9556,9521.628,17901.941,-2476.6328,540.7575,-178.48254,14507.1494140625
520,334.59998,-102.85217,5736.8994,-806.9445,659.8797,-243.36763,5931.0146484375
521,14179.701,33734.004,22047.432,-2254.0913,-3529.2087,10263.862,25672.423828125
522,-3602.1362,-921.80945,-3442.9807,1999.0044,-577.9873,-681.5747,4600.73779296875
523,-2072.2966,-554.9043,3556.5173,1109.8512,-261.25183,-339.43594,5448.91064453125
524,-5411.964,-2708.2798,-1665.3463,1230.3837,-743.82336,275.13583,4200.6943359375
525,2679.7769,8070.6455,3670.2075,2395.5051,-2896.913,-3390.2434,10078.494140625
526,-4550.5386,-18551.238,-7245.5635,-6337.837,11455.815,5711.872,27886.171875
527,4804.4106,274.97998,2330.5579,-1544.8546,346.53265,-237.23369,4808.26025390625
528,-811.92395,924.24915,-1856.5848,669.38367,-158.42593,-987.2038,3203.52294921875
529,-4062.752,-1371.7251,1590.8174,-139.39925,116.275116,404.88834,4957.94580078125
530,-11753.709,-10283.669,-5101.5947,1990.6571,2152.9646,1055.014,8109.6142578125
531,18322.232,31603.195,56331.688,4862.3994,1515.2483,-1114.8274,34609.91015625
532,117.54907,610.2112,4560.528,4366.153,-46.05145,58.603706,8660.2783203125
533,-2707.6716,5335.139,3057.6077,1368.0375,-128.51718,643.4051,7646.06103515625
534,-100.239746,2279.8396,2050.7837,2913.8643,-317.8235,165.64145,5570.38916015625
535,-815022.1,-811879.3,-853127.2,1604.1703,686.25195,1591.531,39979.51953125
536,4607.619,5041.31,18233.951,134.1366,-3135.8674,329.65845,14485.73046875
537,-870.81555,-5208.585,1255.227,348.06763,451.12637,677.18854,5908.32763671875
538,-2849.128,-6821.3237,-6698.2974,406.8329,3496.5193,-572.55914,7311.75341796875
539,766.0304,-3082.8062,502.0476,-246.49365,634.3367,456.75146,3985.28491210938
540,-2621.0708,1157.6595,1080.2031,-882.0783,132.92026,80.78993,4049.55395507813
541,-3975.4297,-2810.1682,-1793.2384,2204.3147,-51.602238,-628.13257,4398.36572265625
542,3451.0068,2023.1376,1694.1755,483.98788,-319.86108,27.37421,1904.90307617188
543,552.32837,-578.5103,-1828.8451,2911.694,3224.823,519.5394,7854.8173828125
544,-1263.1234,3201.0142,880.8093,-1869.6035,1319.5778,423.61554,5585.9306640625
545,-209932.47,-213708.53,-248621.72,3764.4458,963.8706,1667.903,37665.23046875
546,-3205.705,2207.558,788.75104,5209.8906,-137.72075,801.729,10346.50390625
547,-1895.7621,123.217804,1060.3611,1189.3239,-1990.9006,1160.8193,5198.42529296875
548,7131.1064,-1513.8268,-1099.4357,2592.0244,956.1704,-415.00552,9733.4189453125
549,-743.4316,-2050.5542,437.97162,-620.1523,171.81876,655.43945,2679.48803710938
550,4646.9375,-385.7644,3166.428,-733.9407,-1219.5759,-142.29573,5119.36376953125
551,-4089.5947,-10224.098,-19874.371,-2957.5881,-1901.5437,-315.26175,15078.0400390625
552,1944.9259,-1474.3407,663.05695,-2439.5847,-75.33705,-353.11707,5215.107421875
553,-2841.0764,836.52936,126.95233,1935.1493,-3.2987816,1063.6039,5103.6201171875
554,252.13211,-535.92645,-807.2765,1025.9829,403.36066,-611.1157,2382.20825195313
555,-25222.77,-26518.791,-43320.688,-440.9789,22.633404,-23.501965,17502.73046875
556,-4390.868,-3483.44,-6288.9097,1928.1688,37.320625,105.89358,4164.09033203125
557,-7637.032,-9628.573,-1658.5996,-3894.6902,-351.0264,-318.08627,9889.0458984375
558,-77.87576,2050.4255,-2057.3523,-1084.3593,-647.481,494.9353,4263.91845703125
559,8173.7627,6450.3184,7261.246,-1268.6327,-1947.3441,-44.022846,4294.27783203125
560,1113.1923,-1672.5372,-1535.3297,-1489.0841,-811.49255,-54.6604,4004.18896484375
561,65500.594,67673.59,100725.04,-1282.8022,756.45886,-64.542336,34287.12109375
562,-883.1854,1771.2125,1832.0481,1905.2476,-1142.7969,-106.572914,4696.05615234375
563,-3354.4988,-7849.683,-2548.1155,280.21713,-2959.811,-8.725272,7141.359375
564,-741.64246,-4079.4111,2352.6345,2208.6418,-596.32446,1302.1809,7199.39990234375
565,-4622.328,-3275.0222,-5375.1387,-954.39594,235.10068,-93.526726,2514.13940429688
566,787.7429,-1457.3425,2341.0637,396.32224,-111.032585,-172.3276,3396.73974609375
567,-3157.935,-341.87186,1578.315,-2418.6624,-835.24615,-888.8735,6248.013671875
568,507.97705,-1197.1494,-1439.9458,-94.41825,281.5464,-126.849945,1921.77709960938
569,-2845.801,487.75403,-3435.279,1353.4941,-331.21655,12.733031,4387.546875
570,6487.3843,3859.6243,10314.825,-779.65845,238.70587,41.248722,5797.55712890625
571,1410.6049,-1079.8463,181.73582,1107.8726,-772.95087,733.32056,3426.34057617188
572,2451.762,-1923.8912,-948.8065,-1415.5956,353.3587,183.56041,4724.1826171875
573,-3293.6306,-2115.8604,-4324.4414,2341.9053,-507.07013,-820.2092,4786.11767578125
574,-423.5406,2255.182,685.272,1802.8707,-11.515048,-101.01625,3900.87890625
575,-1006.75726,2801.9995,-572.2012,-1405.6276,367.94058,-440.88742,4467.326171875
576,-271.01062,1835.5203,611.50586,-1952.4766,-545.99664,214.55461,3978.21459960938
577,229.47388,-3286.683,-466.54892,4220.164,103.923546,-50.799393,7991.869140625
578,-8097.855,-753.90454,-4628.9614,-1349.035,1150.0105,1344.2164,7439.04931640625
579,7733.8906,-12084.202,-4580.6255,5960.54,1823.3475,-976.2093,20488.30859375
580,5223.666,5618.5117,3008.2244,-7271.3447,-698.7887,-7358.958,18124.125
