Element Label,S11,S22,S33,S12,S13,S23,Mises
1,10352.076,23476.004,25288.172,239.08029,-3446.044,5674.4067,18212.578125
2,-25862.578,-29235.537,-28987.643,-3265.136,407.94995,-8016.6587,15358.5556640625
3,26822.08,16745.184,23026.45,-9234.059,-7072.218,7039.416,25143.884765625
4,27006.203,9057.483,34112.234,3191.4355,3897.5142,-4894.867,25459.833984375
5,-4782.4775,5187.7397,-17968.332,14092.431,3844.7224,18.017372,32324.515625
6,-1686.9062,8035.969,17064.375,7312.272,4160.472,-1794.4858,22041.451171875
7,18337.104,-19550.174,-6856.697,7656.6377,4618.8384,-827.0874,36845.27734375
8,36692.324,11673.521,5639.119,11598.146,6209.7866,-6510.487,38206.31640625
9,-69215.94,-66892.695,-40759.113,10046.691,-6137.02,-946.38434,34169.58203125
10,24267.14,24674.064,38616.125,5012.5195,-3922.3486,6001.6333,20731.84375
11,-21857.65,-29783.59,-32300.945,5479.115,1246.0122,7555.43,18843.654296875
12,25849.162,-2438.974,-1713.832,-7475.426,-101.83015,-7273.5894,33265.95703125
13,3752.577,24440.492,20926.846,-8689.2,-9177.672,11168.502,34943.48828125
14,19355.775,20350.541,7916.4966,-1773.4537,5491.9814,-8911.418,21940.537109375
15,-77905.61,-78006.875,-77502.7,335.28476,905.6852,-574.5642,2000.45129394531
16,20684.441,16063.997,-4975.9043,1679.059,11293.406,-3613.9558,31488.1328125
17,-4032.9077,-28572.162,-2166.4783,9879.961,6144.615,4447.941,33420.37890625
18,14877.518,21935.527,13254.847,20275.826,3637.115,-1366.3671,36640.3515625
19,-21789.496,-21740.764,-21568.06,169.88501,-12.232031,1136.7047,2000.98522949219
20,-12725.066,3784.3403,2022.9878,-7349.303,604.2519,-9065.108,25617.2734375
21,4442.229,-2384.7812,-25493.621,-4635.6465,-3327.3057,3678.1448,29608.404296875
22,-1699.9386,27048.422,7064.967,3738.4067,-8096.112,-13541.88,37947.73828125
23,-13774.837,-25948.38,-13344.871,12832.69,8108.116,6341.2646,31072.619140625
24,-12418.67,-7781.349,-39912.14,1002.1843,6207.4263,5666.861,33464.02734375
25,-4001.1052,-38202.098,-22404.531,-7799.649,-6775.094,158.18706,34630.375
26,-36000.973,-20499.184,-9758.775,-2047.4685,-2458.6997,312.5977,23519.408203125
27,-14022.89,-22973.668,-28138.656,-16499.18,2658.4744,-3769.451,32148.43359375
28,-28102.896,2294.7812,-24670.002,3067.757,-3928.556,3478.756,30696.755859375
29,-8243.042,14499.018,16768.365,7814.58,-1603.0299,10853.474,33440.49609375
30,-16194.773,1018.1584,2773.27,-1224.6931,567.2813,-1568.5221,18504.64453125
31,5356.619,33110.77,45168.11,-3366.2122,4414.423,3151.2593,37048.08203125
32,28007.547,14900.283,-8851.342,-11203.847,-4035.484,2677.2622,38654.83203125
33,4413.365,1129.3779,15511.83,7729.738,5214.9526,5532.188,22870.43359375
34,5045.913,2283.3152,30232.455,3209.7253,-10162.423,8015.3813,35285.19140625
35,14838.255,19974.375,38150.637,-73.13334,-2213.861,-3032.365,22190.46875
36,-3001.6453,5636.211,1121.9647,13796.433,7283.699,-2912.7388,28489.142578125
37,-12505.205,-32196.135,-9576.703,423.88315,-4662.0913,-2347.0105,23156.9296875
38,-18227.68,-1213.3525,18129.062,-8421.995,-158.9531,-10209.6875,38965.28515625
39,-4745.672,-112.46338,-16931.746,-1204.021,-5285.4946,9685.9795,24413.943359375
40,-4912.8096,2812.231,-1768.4208,2836.6228,-12741.216,-17534.41,38455.09765625
41,2671.517,4629.02,-8341.874,-10202.478,-1868.3541,6736.4214,24608.27734375
42,14781.219,49532.45,39688.906,6508.611,-2110.5928,11453.433,38684.12109375
43,130563.29,129186.46,130702.73,-36.498524,366.5434,703.2196,1999.42297363281
44,120285.59,120690.25,121891.48,40.37126,-133.82576,785.82477,2000.98852539063
45,82177.7,82553.086,81129.086,-281.2293,-313.66083,-782.6019,2000.98962402344
46,-4855.0283,18216.926,-610.31195,1964.2689,-3449.5186,4268.271,23544.123046875
47,5645.7007,6421.2065,5464.8853,-327.47192,-141.54506,-973.6812,2000.07775878906
48,-4582.9766,7431.0815,-14385.709,-117.11458,-8696.835,-1685.2593,24365.302734375
49,-22399.148,-4879.0625,-4372.7373,-9953.814,1748.0813,10436.282,30809.59765625
50,33023.195,34561.36,22404.73,-10746.505,-6782.7207,4588.93,26059.615234375
51,1592.4066,29958.895,2209.8271,1368.3518,-9324.761,-38.784363,32465.365234375
52,3303.8333,18423.145,37101.75,1525.8286,-6091.8257,-5343.75,32617.083984375
53,250.07314,-20130.195,17067.588,-1677.6515,1619.1118,6828.133,34599.24609375
54,-19271.82,-26261.25,8878.288,1.8224678,6784.4683,7704.8887,36799.6875
55,3276.977,-21246.627,-35064.03,-3186.0447,-3442.5513,-7666.762,37061.0859375
56,28363.936,-6957.1577,26219.277,2285.4263,7248.298,1154.3916,36792.7734375
57,-5378.027,10886.048,27548.889,-960.40924,3106.8035,-1049.1305,29123.904296875
58,10195.026,918.40576,-6517.623,-10447.371,8154.238,3284.8127,27742.005859375
59,-26877.066,-43457.27,-13190.933,13331.407,2345.1287,897.1237,35231.0234375
60,13973.94,38434.957,49743.973,2429.7803,-6074.687,1775.6267,33774.8515625
61,-5561.934,-1845.3755,-7384.6626,7772.039,7670.815,3462.9358,20435.830078125
62,-15488.008,772.86615,-13756.273,-2533.488,-774.33734,2994.1104,16947.09375
63,-11605.969,16880.818,-21636.941,-9797.176,3710.7861,1867.967,39212.234375
64,25616.121,22814.154,-9510.81,-7703.3574,5025.2144,5890.672,38745.46875
65,9052.027,25414.184,21491.918,-15639.123,1809.6914,-11163.885,36556.75
66,16664.412,26824.416,-1542.1,8196.157,-6284.8687,11417.426,36479.90625
67,9513.155,-6518.273,-30784.814,-5770.7334,-3458.354,4613.339,37875.22265625
68,9625.699,-8089.203,-18291.926,-14442.786,6320.321,5008.3296,37676.5859375
69,27167.615,28078.883,6506.834,12068.417,6278.3315,-1924.6362,31825.00390625
70,50498.324,54801.32,76111.31,4673.7373,-10975.753,-3778.2207,32157.208984375
71,-79286.38,-70325.67,-70823.164,-8986.982,-1655.6956,-10737.759,25932.6796875
72,-9830.713,8073.334,16721.21,-14186.084,4495.091,-562.6649,34863.66015625
73,22078.516,20640.518,20091.732,18.133474,-121.19595,-516.6348,2000.98522949219
74,20893.883,40197.207,41652.684,-1371.2975,-6592.2046,6871.8438,26086.62109375
75,116028.016,116348.914,114895.06,280.46603,-228.42755,787.6725,2000.98132324219
76,187067.7,185458.27,186106.2,-705.6745,394.0941,159.99501,2000.98779296875
77,189289.31,189360.45,188225.88,611.9098,-526.799,528.0409,2000.98669433594
78,232470.31,232021.31,230965.06,-607.9899,-461.6965,393.2628,2000.98327636719
79,5296.1304,-1376.9677,25104.758,3044.7646,-7752.9614,1525.043,28003.771484375
80,-9928.15,15524.944,-27402.486,-7474.17,-702.7076,1993.0939,39736.33984375
81,-6195.87,6239.335,4719.856,-195.45511,21208.902,2496.1807,38811.18359375
82,-13337.367,15056.758,-13871.245,6207.4316,-1044.9299,-11571.849,36636.9453125
83,7207.6904,31650.48,-1268.2705,8957.58,-6054.9673,10862.797,39763.94921875
84,2379.1062,41526.91,23415.607,-10646.369,-4830.881,2570.9805,39767.1953125
85,-14184.751,11853.016,11654.8,14007.387,-6784.4023,-3364.6333,37861.73046875
86,2500.3562,22116.305,28985.844,-1512.7296,-2394.639,2195.5916,24601.998046875
87,-8982.66,16664.826,9950.336,1785.992,3747.0437,4883.6094,25571.61328125
88,-35030.668,-50298.965,-45250.02,-13464.406,13303.776,4386.4395,36250.359375
89,2925.7144,5198.885,-4388.5225,18839.787,-10795.659,2987.672,38942.546875
90,-1420.3776,-14348.899,-1952.9614,13483.757,10382.243,-13003.045,39199.3671875
91,2681.209,-19174.014,-9179.782,12463.283,-2836.4128,-14203.912,38137.890625
92,15663.251,-489.3748,-2904.6526,-914.71466,4638.9473,-10959.68,27077.0625
93,3412.6216,-6466.4053,-857.3408,5087.9814,-20765.104,-3565.5774,38509.9453125
94,4804.708,-8258.659,-15293.432,5421.709,-2586.0742,835.8361,20551.919921875
95,-34198.918,-6471.5635,-12952.647,-16484.047,2281.1646,3824.2703,38804.1875
96,-8243.055,4027.3516,-33797.742,-7510.6675,-9212.549,1438.8356,39334.7890625
97,8065.66,38263.562,26877.547,-2336.9692,-12383.643,-2602.3225,34561.32421875
98,41806.73,24590.527,13580.392,14962.671,980.5735,-6121.8677,37338.109375
99,-139420.42,-140988.7,-139932.12,-495.89755,383.09158,549.8715,2000.98693847656
100,-13444.441,13946.105,-9119.898,-2504.5496,-4083.0881,-2605.5002,27197.26171875
101,-2591.6958,-2315.1938,-20398.701,-11547.8,-11980.985,-4767.655,34942.35546875
102,-28180.283,6214.6094,1402.4053,2085.744,-1788.4999,1539.8766,32717.146484375
103,-17975.982,7882.5425,19446.885,4967.982,6191.9614,6866.039,37840.7890625
104,10477.39,27493.666,47803.836,4032.7114,1526.5845,-7448.0503,35635.09765625
105,6773.6353,-20663.049,-30702.92,9552.729,-55.33586,1373.7693,37529.5390625
106,9675.672,19024.484,5363.812,774.3747,-18253.402,10374.791,38348.02734375
107,-3294.3755,3375.9893,22266.943,-4727.197,6619.3364,-6388.6187,29125.603515625
108,10660.745,16793.453,3079.2654,-1192.0425,-17813.898,-11078.577,38289.1171875
109,12104.529,19156.486,42320.9,-7186.74,13520.24,1062.9202,38162.83984375
110,-3795.7834,2633.927,-9290.014,6215.01,1190.961,934.86633,15152.8935546875
111,-5229.07,24721.182,32025.906,678.293,7357.46,-4746.523,37423.5234375
112,-3970.0486,-26253.059,-25206.83,11963.391,3647.9834,-1045.3124,30771.47265625
113,12469.865,33550.23,2410.329,-7621.1416,-8168.3013,-1439.2021,33738.07421875
114,-69047.32,-56576.35,-43912.965,12475.991,-6182.2534,34.205208,32487.328125
115,-66705.66,-66424.95,-71361.34,3629.1326,7516.633,-11050.362,24462.291015625
116,136472.22,135800.2,136836.8,-896.5681,500.6468,-60.50686,2000.98791503906
117,103322.336,102934.37,104037.09,-802.27423,107.71669,605.38464,2000.97839355469
118,74768.3,75369.61,74650.38,452.39426,-658.9041,-711.6194,1970.28820800781
119,79474.78,79123.945,77755.63,-36.387894,-91.620094,-706.03564,2000.00805664063
120,11611.244,19092.951,11908.381,7277.6104,19449.314,3818.058,37300.03125
121,2206.3257,10662.414,13297.073,8966.853,-6019.3853,3825.9836,22238.537109375
122,-2441.035,-10336.609,-12825.935,-4203.9673,-19552.455,-7312.959,38059.7578125
123,20653.613,-6827.8623,-18979.105,-498.64694,4366.0845,-3993.872,36641.58203125
124,31121.318,43854.695,26320.732,14334.737,-358.75226,11522.16,35516.65625
125,31788.807,32542.914,32353.984,-5.514632,-281.32684,1049.5262,2000.98498535156
126,10124.459,8587.322,10613.856,205.14282,385.17557,-161.27477,2000.98229980469
127,21090.275,4729.599,-11240.085,6318.0674,90.67876,-7644.6196,32849.30078125
128,-15869.83,-25452.31,-7483.4517,-2054.674,-5068.683,-8490.943,23421.05078125
129,-34164.566,-14484.82,-1081.1548,-2212.8628,-4728.4414,8967.399,33966.734375
130,-10207.893,-12170.992,5488.355,-5034.761,-4067.8623,-9677.316,26223.646484375
131,1822.1991,13988.452,-1381.7173,-3167.296,690.13477,10035.6455,23041.900390625
132,-2179.7905,28125.062,-8320.73,8987.38,-5365.96,-5361.4697,39460.5
133,3432.0706,-7980.7383,19034.19,-7858.785,8763.328,10486.311,36018.046875
134,-22715.523,-20897.975,-15493.174,-12550.45,-14615.997,8428.829,36998.62109375
135,17711.504,17670.725,16367.595,206.05359,-557.2079,-630.39056,2000.98571777344
136,5051.5024,17757.39,-19497.627,1537.7555,-4711.918,-11577.04,39392.91796875
137,32766.85,34810.79,33249.223,358.84058,-226.14749,36.039143,1991.99768066406
138,-31635.557,-31322.201,-32228.154,560.3938,647.7312,623.99084,2000.98522949219
139,70289.81,87191.75,90080.56,-1431.4694,-2523.0962,5122.8174,21138.173828125
140,-91162.89,-67053.914,-70297.82,-574.93256,-9147.831,-5386.086,29199.798828125
141,-77337.11,-70687.01,-57742.18,9485.898,15702.597,-3864.2312,36774.109375
142,-5330.661,-17856.281,-42493.242,-763.4349,-3443.1719,8052.098,36114.92578125
143,8431.997,-3336.8716,28652.924,11765.863,8639.365,2273.8762,37948.69921875
144,20614.566,43326.45,11398.0625,-3034.5857,-6248.6836,3835.1238,31606.748046875
145,-8561.205,12889.585,11748.087,-2688.8865,-10490.739,4336.213,29072.646484375
146,-34233.08,-52535.246,-39005.9,2325.9053,-2414.0193,172.25111,17441.25
147,-22838.201,-45395.055,-7829.3716,-4901.843,-2305.7302,10396.782,38534.93359375
148,3960.616,-8101.85,-25500.104,3524.7395,-15641.446,3559.985,38305.671875
149,25212.746,9649.782,30537.646,2288.9434,5815.2847,3031.0776,22319.59375
150,8397.935,3991.8384,4305.0063,432.34048,4032.139,-450.83673,8250.8701171875
151,4830.331,16780.414,-345.28748,-249.7801,-7368.2637,408.9184,19874.69140625
152,-9094.869,-13636.99,15821.888,-11104.437,-2972.0735,-8080.471,36700.921875
153,6950.7954,3233.6877,28316.463,7718.975,1056.7983,13186.3955,35404.35546875
154,9577.991,-12623.566,-6052.9526,15326.908,-406.2275,4230.7954,33898.9765625
155,-10110.422,-13409.47,-29302.701,123.024956,-16700.402,5847.1436,35429.28125
156,-9509.614,-37485.676,-11234.215,3676.5544,17.721346,-13904.02,36849.75
157,2501.044,-29562.195,-1220.8552,3460.6882,-10381.196,8596.217,38774.85546875
158,-17715.166,2445.4517,-26982.389,-5864.006,4301.753,6725.44,31201.513671875
159,-32503.021,-1599.9668,-9170.293,-3575.7332,-12254.948,-9273.939,39054.94921875
160,5902.659,-2120.6523,13005.377,4368.4907,-9714.954,7791.9697,26350.4453125
161,-24690.729,6898.1763,-23151.469,-10132.847,7795.1543,6842.9395,39779.3828125
162,-11921.4375,5111.114,-33473.766,-2274.4263,-4815.313,-7379.1245,37015.359375
163,937.0908,-14938.662,-24820.055,-5552.1694,-5721.7676,14954.91,36989.18359375
164,-10825.949,8761.519,6862.041,-9379.149,-18203.555,647.45447,40116.60546875
165,1260.0751,7961.1553,-14298.793,-2710.4355,-2279.8345,-6702.774,23741.482421875
166,28240.836,19485.686,55278.97,-1672.42,87.213974,1054.7891,32499.04296875
167,-18101.889,-18558.492,-46203.758,3779.104,2110.967,-6041.079,30704.875
168,10755.178,30591.574,33326.82,-4591.248,-6355.853,2121.088,25556.759765625
169,5691.2075,30596.03,39164.47,-626.8415,-2082.312,-5416.9756,31769.193359375
170,9089.865,-2948.4956,-2705.7188,-5958.483,11207.173,1739.7009,25188.30859375
171,-487.38226,-1124.0494,-10503.605,11241.1,-2669.3835,2256.5674,22585.2421875
172,5553.349,22813.11,4270.628,-5357.2847,3043.3352,-777.83856,20913.78515625
173,6592.81,18924.15,10431.087,182.88272,-3478.2107,-6808.56,17173.435546875
174,-6101.7295,-1565.2979,-14114.217,-8641.395,-3901.3293,9043.935,25222.76171875
175,-6984.044,16881.793,1346.4055,-8659.161,6038.9355,-15380.765,38525.50390625
176,-18571.873,-19072.418,10489.608,-12702.343,4621.445,2883.247,37847.4296875
177,10217.629,10959.518,11195.004,-1008.58484,-218.94722,96.274506,2000.9765625
178,-2341.7932,13395.752,-7873.3003,2702.0178,-1385.5958,-7850.0527,24038.5625
179,-7956.557,1256.7223,-8316.758,7597.9556,4917.6064,7209.549,22135.966796875
180,10368.748,22008.484,-5531.0186,1638.1913,-46.33895,13474.695,33557.6328125
181,-3422.9321,-4138.468,17497.9,8768.865,5342.373,1110.6888,27805.85546875
182,2951.8174,15308.545,13809.8955,2753.3113,-1040.0321,-14904.783,28789.94921875
183,-22555.451,6950.0728,-1353.1736,-15448.648,-4633.6274,3546.185,38892.77734375
184,-23075.18,12.488978,-6444.58,-2182.2246,-13081.519,10189.051,35563.609375
185,-11396.576,-6062.4697,12202.229,9657.015,7311.8057,14187.378,38774.78515625
186,15428.981,6135.568,-498.69116,-4514.173,-14151.686,2787.4988,29619.0859375
187,18176.684,2591.6665,333.56528,-13853.706,-8169.6284,1416.9473,32637.580078125
188,61401.727,61715.95,61583.195,-385.1138,-1015.29565,-361.42438,2000.98522949219
189,9528.194,-8465.479,29464.436,7181.202,8052.667,417.19635,37811.6328125
190,26370.611,16904.77,37097.258,-13405.097,8721.618,-8565.42,35966.49609375
191,-14520.751,-16254.087,8199.621,6036.4126,15701.697,-3571.397,38023.82421875
192,14157.07,13288.489,17673.771,-16954.457,-3351.9219,-10724.875,35458.59375
193,-2248.9414,-3002.7234,-38762.246,-6697.075,-4603.428,-1134.188,38836.23046875
194,-17496.1,-10.385101,18595.879,6688.049,-822.36395,-1301.2782,33445.26953125
195,-1033.1199,23772.324,-2348.804,667.0435,23.164663,-15940.452,37593.984375
196,-35345.156,-29265.312,-2304.4326,9716.659,7136.767,2800.457,37247.01171875
197,-4072.5566,-9063.755,15285.63,13548.365,9259.845,-6156.7207,37654.96484375
198,-10643.924,-36626.957,-21482.268,185.43057,-9655.509,-7824.869,31216.18359375
199,-1375.0684,3116.725,-20947.156,-5879.494,15293.938,-5734.8306,37352.91796875
200,-15521.416,-10895.105,-33559.113,10924.754,-1883.0623,-6919.1562,30700.51953125
201,1754.9307,25704.814,5014.352,-4107.8066,4437.79,4060.892,25794.08203125
202,13197.305,39667.246,5433.6143,765.7654,5974.003,-477.9697,32801.64453125
203,3387.6484,1477.0553,3593.3198,-6503.846,5579.899,-2358.3599,15526.6572265625
204,2442.7517,-26105.803,1031.543,-2186.705,986.953,5856.5005,29948.064453125
205,509.6582,-10396.474,-9187.714,8458.706,9325.477,3208.9214,24772.08203125
206,10371.866,4374.6143,31264.031,10170.11,13460.394,4196.333,38786.76171875
207,-744.1089,-357.4458,-17256.29,-2130.0684,-3431.926,2997.8496,18843.923828125
208,21099.713,11093.507,5628.4204,7033.5,1759.7028,-20278.053,39698.54296875
209,-14.65625,16336.255,-6576.213,-7964.898,2566.9177,-407.67902,25065.48046875
210,3349.591,8531.247,-7675.4883,-189.81223,10179.737,8476.949,27057.26171875
211,2312.0344,-3017.1228,22419.086,-1890.6733,-16771.107,-8056.6475,39863.640625
212,-10131.197,-16928.744,-18514.172,-8852.983,-1448.3318,-478.70938,17366.740234375
213,-23279.479,-29777.713,-17769.148,-2904.919,-6220.2837,19469.023,37241.3515625
214,24295.207,1653.1816,20166.45,5851.9053,-6556.025,-14318.484,35818.43359375
215,-25197.918,-38114.156,-18641.275,-13918.898,3033.7732,5034.877,31294.95703125
216,-26878.662,-18560.193,-1095.4268,-17435.418,-5265.889,-5668.408,40137.984375
217,-7043.421,-2573.2595,784.1958,-6114.825,4967.951,6355.302,18805.5234375
218,2209.2473,8774.566,-7093.573,-1443.9926,-1835.9247,-1212.1769,14542.943359375
219,-13237.47,-15605.2705,12931.889,-11298.738,1639.0623,-8932.622,37186.35546875
220,4791.298,-5777.7817,-10447.564,2717.3984,8917.64,6011.4033,23494.76953125
221,12887.693,41350.918,19563.469,-864.9935,-2706.0486,11685.094,33144.2890625
222,-10057.503,6071.643,1397.7771,14800.848,5681.7134,6521.449,32988.44921875
223,7753.1406,-10437.182,9975.82,-12794.298,4367.461,1154.357,30472.337890625
224,14563.333,-4130.728,2994.613,-2218.5837,-886.23663,14487.65,30229.712890625
225,10826.191,-5427.055,-25244.867,8770.031,5864.3003,-4112.4194,36927.8203125
226,16942.059,1672.5455,-18025.566,9106.832,246.47498,-7077.887,36348.71484375
227,3615.9185,-1840.6694,6140.4053,9341.795,-19145.967,-2894.5845,37902.109375
228,31339.736,24360.57,-1999.6678,-11284.017,3830.578,8287.166,39491.54296875
229,-11005.039,-4159.7485,2364.61,-5417.6504,5380.268,17337.244,34795.41796875
230,19959.168,12604.29,-16972.521,-5877.329,4842.778,5225.6816,37447.63671875
231,-8565.235,-8760.848,-33197.754,6650.2285,-735.3945,-8860.391,31173.697265625
232,-26100.348,-36475.004,-60933.18,-1245.5887,3872.146,-3695.1924,32406.47265625
233,-5926.001,-1270.0963,-29874.195,-10666.858,-5154.8296,-9768.429,37603.49609375
234,18163.914,8537.791,-7680.5547,-10471.317,5445.3604,516.17395,30504.384765625
235,-7971.3047,-4171.7534,9418.427,-20095.66,2236.862,1161.0808,38488.0234375
236,24885.828,14926.474,-5099.3745,-5630.8184,11520.334,-3648.4038,35112.2890625
237,17404.137,4139.5586,-20860.076,-6481.4097,5826.051,-251.90681,36886.11328125
238,18429.05,-948.9935,28773.068,-14333.339,2095.861,-6805.9697,38097.62890625
239,-20530.707,-4608.9424,-30761.916,10511.314,10087.787,10134.262,38287.62890625
240,41421.715,20651.023,57745.133,407.03586,10783.378,5609.8022,38479.53515625
241,-21299.143,-37612.88,-42.489273,10551.214,-1413.866,2822.837,37797.42578125
242,8200.594,-14489.789,9999.714,15796.559,1680.0771,4117.4316,36970.7265625
243,13788.902,-4765.0454,-8976.799,15259.107,-1909.5038,2044.4359,34090.046875
244,9250.984,-14363.835,8732.768,17349.94,3219.4092,770.0373,38491.875
245,33293.645,20494.764,45163.566,8628.8545,-4199.008,12797.775,34989.19140625
246,-62169.426,-74239.59,-61360.035,11977.437,-8091.7686,10274.196,33160.1875
247,77759.65,73937.19,80323.62,5008.7124,3276.846,3926.7756,13591.146484375
248,71603.34,73195.46,88879.016,7714.0757,-4553.556,4921.657,24225.44921875
249,42515.72,43760.05,43186.35,250.72247,-278.5931,-897.9422,2000.98693847656
250,62551.465,63294.113,63925.05,-490.51468,-569.2978,-545.1314,2000.94775390625
251,40908.586,41581.88,41714.27,671.6163,-216.42188,806.27313,2000.98425292969
252,130278.05,128997.75,129673.3,-319.44205,-782.6441,458.10684,2000.98327636719
253,-306526.7,-306734.3,-307611.78,-183.7166,370.24536,-912.1815,2000.9921875
254,59146.633,57007.695,57726.42,41.619503,280.1205,116.49571,1958.474609375
255,53338.992,53003.918,53197.016,-211.80336,1016.9537,-276.49115,1884.50732421875
256,43783.152,43826.062,43559.945,-23.668491,-1144.1506,-67.77418,2000.98559570313
257,11965.409,12604.411,13902.7295,148.54462,-541.95844,210.55875,2000.98486328125
258,5617.8853,5818.1626,6828.905,666.6365,-227.39685,645.87445,2000.98522949219
259,44448.34,45007.383,44009.81,319.40518,-416.9799,-899.1009,2000.70483398438
260,43824.605,42310.918,42971.504,-3876.364,-529.6796,-1316.5029,7269.6298828125
261,6340.4023,18334.174,7101.8745,-4054.0298,-5203.79,1652.1376,16553.849609375
262,4086.7373,4663.193,5375.6396,6825.378,-3199.8064,11067.296,23220.236328125
263,-52939.777,-31747.498,-51381.92,-9063.009,-4442.9946,7091.455,29580.84375
264,-13207.408,18909.496,984.3872,-1195.4156,-10692.709,11202.38,38741.12890625
265,29763.8,31367.178,55030.473,770.4214,-8230.972,9190.493,32540.533203125
266,-8803.378,5162.005,-9696.796,8684.149,13674.489,11566.573,37374.88671875
267,28828.258,5904.177,23226.514,-13081.431,-2635.4458,13633.21,38990.76171875
268,-5977.698,1849.5824,-8012.732,-17241.143,-1572.1434,-3914.0928,32038.76953125
269,-5062.069,-1518.1519,29786.045,-7844.0386,-1440.7008,4095.2659,36668.5
270,9691.897,-15021.627,13372.362,7407.599,-2197.4578,13671.125,38145.3046875
271,5285.1807,14468.958,-8842.773,11260.108,-7879.175,1453.3329,31410.822265625
272,-5188.483,21449.408,10157.925,2320.5676,3648.439,17345.87,38665.48046875
273,-24797.37,-21444.734,-32248.602,-19835.736,6733.8433,-3427.1755,37991.87109375
274,-44.87728,5930.242,41296.723,-1488.0359,1048.8447,-203.76242,38831.3828125
275,4915.7397,17634.344,28459.543,-1151.2893,18419.488,-4661.619,38776.671875
276,10541.537,5262.7354,16205.926,516.2795,2381.7673,117.99519,10378.443359375
277,7871.223,15869.026,-11986.972,-7041.354,8066.035,12954.573,38269.078125
278,-5804.472,19942.432,-9546.187,9112.688,-4960.0776,11566.969,38698.265625
279,9016.954,32813.965,49222.113,-784.6337,-3836.7317,612.76526,35680.875
280,-27033.889,-3112.2434,-12991.805,-18078.902,-966.3939,-3288.7463,38069.73828125
281,4647.085,-6154.802,2819.178,1645.8591,584.8845,1161.0859,10652.4345703125
282,25032.424,-10820.821,12449.242,7086.5635,452.63712,-2350.1638,34065.91015625
283,-14973.271,-4142.277,11495.408,5167.939,4349.249,1356.0438,25953.931640625
284,-22162.914,-21607.812,-30060.562,5070.182,-1520.4675,6110.0146,16220.8974609375
285,-13344.761,-8242.605,-8629.054,-2937.9878,81.7807,-663.55334,7172.580078125
286,-10881.797,20828.934,25766.73,-502.0299,-5993.4946,9984.859,39926.77734375
287,-7204.9546,-28794.523,-8958.591,12968.079,-9284.782,-9586.728,38342.86328125
288,5763.462,-6359.9688,29694.947,10791.963,6292.2017,1586.0659,38542.79296875
289,5895.0503,-2661.7507,-265.53824,-3763.9934,6315.2554,-10297.33,23210.171875
290,-19990.287,7979.3745,8818.711,-12153.834,5202.9146,6293.025,38074.23046875
291,12774.333,21393.94,12627.762,-797.6531,-3727.1958,5451.769,14433.7294921875
292,-17176.469,10963.153,5649.0728,-11897.114,4884.026,-2163.273,34362.27734375
293,21225.21,19868.55,23426.572,19407.078,6799.743,-6400.248,37432.2890625
294,55001.066,49822.47,66941.25,15963.168,-6054.3887,3945.2463,33946.26953125
295,51211.367,43608.51,63384.492,3476.6875,415.15884,15358.515,32295.044921875
296,12864.274,-17607.941,-15936.221,-11221.094,3229.5735,920.2213,35944.11328125
297,7794.633,4688.616,14120.008,-12454.663,7806.7295,7016.6113,29414.1796875
298,13449.297,13797.187,-11000.704,-7575.8687,6186.506,-1525.9757,30006.919921875
299,-3645.561,8067.618,-19496.447,-2909.6045,3433.3354,12978.992,33767.39453125
300,-5411.508,23022.293,-14133.265,-5981.4927,3891.4844,626.5292,35867.6171875
301,1782.3804,321.62662,9018.661,-18378.633,4718.2847,-10372.953,38314.1171875
302,1497.657,17428.44,-20798.924,-699.22864,-1942.0331,-8833.811,36783.41015625
303,7958.47,-10617.937,-18859.861,7141.02,7306.6255,5964.3477,31400.330078125
304,-10238.175,-41449.977,-17283.008,9932.921,-9536.631,-6361.2725,38654.26953125
305,-13528.131,19088.436,15174.008,9199.125,27.600063,-2890.4724,35077.43359375
306,79957.266,79653.04,78412.73,384.75626,518.9871,497.8377,2000.98645019531
307,-31598.33,-36154.516,-6862.47,-2691.885,3280.2888,2233.6526,28536.1171875
308,4568.5083,5311.1226,3112.707,-249.56715,101.52504,106.2961,2000.90026855469
309,55235.203,55794.98,55447.58,-321.71194,-736.87506,-779.77814,2000.79565429688
310,-20410.87,2793.0706,1663.6648,-15559.309,-4272.8237,-1776.6271,36111.0546875
311,64994.035,64239.17,63676.035,-119.54203,291.72534,144.92404,1293.53137207031
312,-5171.7695,4108.2866,35420.58,1777.5021,6531.9717,-4963.0967,39604.7265625
313,-15555.8955,23400.807,7765.165,-8355.019,5097.7334,-3985.904,38574.953125
314,3222.9292,-15529.3125,-9582.525,-16096.078,-7111.154,11028.291,39614.6640625
315,-45237.8,-57896.844,-51623.094,-1540.8558,-6755.7007,3960.0906,17643.123046875
316,-6099.181,-16490.123,-42155.71,11093.789,-2082.837,-6959.608,39508.51953125
317,-7461.738,-29752.314,-33069.38,2050.1084,-5765.5547,-724.0731,26376.4765625
318,2671.2534,10299.03,-16882.977,4164.1963,10795.2705,-12865.212,38573.078125
319,-4434.2437,-23258.104,2418.4263,4771.1987,2456.1506,10440.988,30720.09375
320,-7045.7534,-2283.3093,-9572.963,6722.895,8289.81,4162.511,20852.759765625
321,8643.39,13852.072,-21193.498,5215.8745,-898.47266,948.99,34051.734375
322,-38694.1,-20562.49,1200.0079,-1732.5665,-11375.614,2421.5308,40146.75
323,13162.78,-6886.748,24990.31,8964.003,-995.81995,-8843.896,35463.9140625
324,-1510.9784,-5312.0166,20556.055,-2323.1794,-1219.0038,16731.566,38023.21484375
325,-9936.647,-8738.39,8481.85,-3797.947,4524.4443,317.3638,20581.396484375
326,14426.015,8353.589,-15324.8125,-4501.7036,-2093.513,4469.697,29583.869140625
327,-1731.5046,-1753.1722,-12124.712,16377.146,10487.413,8892.507,38465.7578125
328,28948.486,17404.295,1001.88715,-9752.001,-1042.3772,-11720.694,35949.24609375
329,-13684.443,-22616.273,-49860.52,7640.5317,7672.616,-2805.8362,37956.89453125
330,6981.0986,8246.18,19726.465,17668.373,5960.9277,2212.8528,34723.5234375
331,-64207.254,-65970.38,-49358.56,9041.541,-4343.0166,9978.225,29159.923828125
332,62947.395,63263.215,63775.473,757.42975,-184.05698,743.25354,2000.98461914063
333,-4608453.5,-4608922.5,-4609981.0,-293.15042,607.4717,-517.1741,2001.02563476563
334,122857.266,122350.57,122021.68,-579.33295,899.48645,112.95526,2000.98486328125
335,-9938.168,-989.74176,-2552.2737,-3819.4968,-4923.7476,886.2122,13688.875
336,-14569.967,-3015.8171,7470.1304,-19096.527,-2844.5154,447.70737,38516.44921875
337,-31176.271,8497.126,6329.507,1928.2361,1679.4702,1103.9417,38935.234375
338,-14220.431,-14629.799,-43707.367,13013.644,1555.7377,6363.8423,38657.43359375
339,12408.591,28285.195,22899.016,111.10707,1292.5078,-4989.149,16591.76953125
340,11149.912,37462.5,5175.3716,10479.823,2173.1145,3548.0615,35590.26171875
341,-15178.358,7559.132,-10330.04,7922.9062,-5515.5874,7888.791,29942.322265625
342,-2974.116,6011.0977,25099.717,6727.3184,-1065.5731,13346.881,35919.62109375
343,-6915.781,-7986.578,13747.963,16308.654,-10061.681,-1737.6172,39508.8671875
344,3541.88,1860.8628,-20716.225,-2802.115,8689.168,-11308.08,34411.94140625
345,-27732.23,-12180.203,10929.495,-7611.095,1890.2119,-678.99457,36348.51171875
346,-18012.164,-4813.7534,-11068.09,-17925.463,-5283.843,-6966.008,36387.73046875
347,-11135.325,1430.5707,4229.4272,-13029.809,7945.217,-5327.63,31380.94140625
348,19510.049,20450.947,7850.3213,7208.001,855.44574,5881.2783,20239.43359375
349,4155.755,-10210.396,-37160.156,-8242.815,-216.36826,-2026.7668,39193.5703125
350,-9816.518,-18252.424,7182.399,-5161.7485,7118.632,-5770.4966,28902.94921875
351,15438.311,-18245.205,-11595.34,-762.1043,10733.548,-1932.1782,36240.56640625
352,10922.088,38835.68,10021.041,-3142.6917,6701.9443,-3322.6335,31664.322265625
353,8189.0806,27950.465,50113.64,7801.9897,937.2049,-644.5107,38809.640625
354,-1946.6045,-6090.459,-38078.402,-5034.585,-7630.4985,7123.162,39697.4375
355,-26120.72,-26474.918,-9073.027,13779.14,-6065.3926,2701.487,31601.30859375
356,5510.08,5099.9556,43509.76,3649.7288,3875.5737,-771.60944,39326.02734375
357,-34547.594,-10324.612,-40108.457,7791.44,-5855.6685,13247.615,39545.6796875
358,-10863.884,-8689.089,-12122.139,667.13336,-2408.244,-2039.1241,6344.88623046875
359,-2473.3477,-4606.3945,-7859.0728,2531.1218,592.24786,802.51013,6653.72021484375
360,-61308.152,-56900.426,-53054.13,2729.1404,2926.3154,454.83246,9991.5302734375
361,-10304.599,-7656.5176,-6033.483,2891.126,-705.2212,-1546.277,6905.451171875
362,-31397.936,-3810.8271,-41131.504,-3195.0117,-411.15875,-4911.2515,35040.04296875
363,-30832.73,-16592.945,-9617.694,-561.6559,-5346.681,-2220.0303,21266.044921875
364,-2742.6475,25834.586,20636.443,14153.738,4264.753,2085.327,36928.65234375
365,16968.584,32192.926,20211.129,5484.1294,-1187.184,-986.061,17038.228515625
366,18409.49,37679.64,29669.932,9437.678,-2366.021,2604.7097,24197.166015625
367,1133.0029,18449.412,18966.922,4758.864,-7697.449,2187.1763,23856.466796875
368,1395.1118,13873.737,7904.8413,6447.0615,357.84048,159.38983,15556.810546875
369,-8081.7773,8896.887,-14238.767,9302.639,4701.9727,-8249.629,30997.30859375
370,1272.5862,2222.575,-2271.9595,-1310.2257,-231.72414,-2534.7092,6435.7578125
371,3114.223,3243.9282,2172.8657,822.4613,-2122.586,-2572.4946,6035.205078125
372,-2344.908,-3424.5166,-3037.0532,-2212.5134,2061.1582,-1260.541,5752.828125
373,7355.963,5894.412,3718.5151,-192.29697,-802.01886,356.91037,3531.80322265625
374,15864.139,-12890.443,21897.693,-11212.63,859.83734,-5374.7983,38765.63671875
375,29006.225,20041.404,21295.762,4577.6187,1534.4746,-1101.6938,12011.0419921875
376,-462.6753,12293.555,7497.5625,-3144.5095,3865.034,3239.2537,15182.283203125
377,3386.013,-2519.7,746.28864,1102.4216,-1798.4159,1087.871,6569.27880859375
378,109190.9,117980.945,112231.945,-275.07416,9752.465,7998.4785,23179.033203125
379,-133722.98,-142298.98,-139552.39,-4953.662,-3897.582,16092.424,30880.81640625
380,-55865.4,-22206.854,-58609.477,7541.844,953.69495,-3302.6575,37932.5546875
381,27296.203,3324.8733,45028.48,438.60632,3283.481,7749.5176,39079.54296875
382,53883.99,61107.74,47745.457,13936.909,-7059.3193,-13088.563,37153.1015625
383,18669.537,5376.432,-1513.002,3628.3987,-7876.0425,1008.54126,23332.302734375
384,-1402.3901,121.48889,-901.7124,-1347.4321,-22.119526,-2005.1409,4395.4375
385,6160.6406,27230.451,42281.605,-8348.64,-608.5345,4464.1978,35462.609375
386,13772.795,16030.027,30138.273,-1282.3412,-382.3706,-3.0473144,15535.6083984375
387,13602.16,440.55176,3068.0415,-107.06283,3435.694,-2586.764,14179.9169921875
388,-19179.299,-21333.426,-10069.676,348.22766,1072.9736,-761.4336,10621.00390625
389,-32006.643,-34803.797,-31881.053,2871.2212,6200.946,-2025.5519,12672.2783203125
390,5456.444,1680.4543,3361.6392,-1890.2218,-3.093819,646.22906,4765.29345703125
391,-25627.23,-24886.94,-39855.336,7466.744,-884.46875,1728.6608,19801.22265625
392,10509.528,19551.215,15807.787,10144.374,-3026.8032,-572.83356,19977.798828125
393,-14093.717,-10722.807,-23007.602,3752.47,2640.6494,2731.1418,14366.90234375
394,23992.568,15332.609,15079.696,-6896.0303,1776.9579,-1503.3141,15367.73828125
395,14085.215,8971.082,6112.3247,-554.7151,-2560.7527,1646.2644,8813.2265625
396,1655.8746,1570.0896,1354.6965,-481.49942,1490.4093,479.85495,2849.99975585938
397,162294.8,153212.28,161530.22,-6368.547,-659.31866,-1718.8939,14421.353515625
398,103790.41,125543.32,98978.45,-9304.431,-5408.236,12646.995,37793.1484375
399,80202.77,54416.625,82191.66,-9365.484,7417.7646,-8282.075,36798.80078125
400,16325.936,-6038.8936,33068.43,6012.1523,5801.686,-2474.9177,37185.10546875
401,-18647.523,-26895.29,-10518.912,6764.055,-2688.742,-883.8477,19037.640625
402,-22718.768,-53827.242,-25725.373,1158.9431,-3218.58,-1337.2318,30392.724609375
403,458.55392,3535.823,-5367.1064,6335.201,3989.5088,8656.369,21313.98828125
404,12885.793,19668.725,31889.488,3872.9019,17806.951,7652.2847,38081.2421875
405,26321.766,32519.809,43280.63,1023.91205,1149.8354,-3280.8572,16134.1455078125
406,24204.885,33311.734,32480.867,-497.34802,-882.17334,-7696.985,16027.0380859375
407,13455.942,19706.648,30868.162,4940.441,6548.0513,-1066.4178,20944.798828125
408,-517.3823,-8592.396,-366.3999,803.9562,1624.5359,-367.22784,8758.35546875
409,4332.3784,8501.704,6362.9927,4013.247,-6517.4463,1617.2423,14022.7158203125
410,-31716.395,-20243.066,-26080.236,3024.7595,-11235.67,-6772.628,25347.818359375
411,542.1394,422.3456,1334.7947,-890.46875,-21.636028,-542.1049,1999.86242675781
412,-23555.201,-34898.16,-14056.584,-5268.1553,-15927.01,-10330.917,38614.52734375
413,42130.71,41727.44,42456.375,-85.13046,1082.109,-123.92466,1995.17102050781
414,-13958.802,6916.5957,3709.2454,5446.452,4314.3735,2223.5254,23211.62890625
415,-18124.643,-1229.541,-3257.4814,5342.861,-3620.1184,-1909.2365,19778.38671875
416,-33309.35,-59641.58,-61511.836,-431.47635,-6291.2104,14439.783,38612.83203125
417,18729.299,36877.168,-8032.519,-1523.597,2489.6624,-2998.2546,39796.203125
418,2315.2612,2201.425,1360.6136,-134.20103,703.33484,-741.6688,2000.98083496094
419,1206.9175,2744.6187,-4962.77,2582.0688,868.58514,3883.937,10836.796875
420,-25671.746,-17966.613,-1622.7041,-18890.65,1481.8472,3861.742,39677.71875
421,42084.266,41987.38,41897.28,72.93325,247.48778,-1122.1906,2000.96911621094
422,-3336.4795,306.96106,999.34174,742.6622,4204.7705,166.25687,8429.38671875
423,-35786.28,-41402.33,-28569.674,13499.343,2666.8284,-11876.792,33396.9375
424,-23967.475,-16511.957,1639.042,-13015.18,3824.6047,12868.68,39613.6953125
425,-9966.495,-5922.6304,-17467.47,-3118.9424,-1970.1825,465.46954,12017.84765625
426,-15324.957,-5623.725,-11507.343,-741.6858,-2072.525,491.0977,9322.6826171875
427,3947.4634,-3357.824,-7760.587,2803.507,770.18243,1577.1788,11736.0966796875
428,-21188.844,-32943.535,-34221.914,2369.728,2812.2036,2151.3098,14466.8818359375
429,-8940.112,-1792.9883,-24860.943,715.3218,4427.2246,-1225.1042,21981.37890625
430,25393.096,29658.564,54349.883,3364.4377,-6161.9478,3007.8743,30136.1015625
431,10693.921,5194.9663,35675.82,-14588.083,-1683.7039,1235.0593,37989.8046875
432,-6486.8125,-590.3977,-4822.9185,6342.0654,-3193.9814,-5587.857,16512.650390625
433,729.6024,4805.409,642.08154,-24.539747,1985.1062,-2720.067,7141.19140625
434,-51418.875,-35295.777,-40401.066,7300.397,-14982.014,-10897.755,37326.37109375
435,4206.9316,12012.08,-786.47314,10609.402,2304.087,1940.8887,22129.947265625
436,-16205.11,-32953.004,-26814.41,10739.472,-5207.393,5799.538,27269.56640625
437,-163626.77,-168742.0,-159167.7,732.8908,18060.648,6165.039,34103.5703125
438,-27153.129,-16874.883,-42648.902,1908.9589,371.15686,4756.6,24171.30859375
439,12178.644,19628.732,17945.713,-18118.082,-12687.749,2021.1014,39061.28515625
440,3413.2544,4381.4897,1277.9985,-1260.5297,1803.3864,-1438.9672,5319.72900390625
441,20612.152,42054.777,15337.235,8848.542,-7290.911,-9030.794,35210.0390625
442,-16516.682,-22463.994,-9854.977,-9622.354,1369.5835,-1591.8601,20257.50390625
443,-14165.537,-10676.1875,-18804.967,287.01096,747.8421,927.4859,7375.234375
444,26188.777,25680.73,50119.895,-253.62015,-3098.4712,-958.8133,24836.810546875
445,-2885.4678,-1006.35864,-3789.1836,-3658.6294,-3882.9033,1034.1056,9728.390625
446,-22196.447,-40290.117,-57489.727,5503.3994,3436.3696,-4358.08,33431.6953125
447,15781.066,13962.863,28253.383,7115.641,-3009.7798,-1749.975,19230.244140625
448,-9835.497,-2068.7324,-10636.702,2548.2556,-958.4518,886.7348,9580.3408203125
449,-50416.453,-23561.93,-44309.598,2093.5352,-475.5783,-1652.5613,24829.064453125
450,21993.781,36579.926,32512.805,-4278.319,-6179.1934,2627.0088,18977.2578125
451,9740.454,-24558.469,-3163.9312,-14041.026,-683.21765,-2628.5725,38909.02734375
452,-20732.998,-19579.547,-40547.848,-2481.857,3130.4927,123.35776,21557.796875
453,4509.4756,285.75293,2506.6016,1041.8701,-221.00862,-831.1282,4343.62646484375
454,11801.505,10944.249,25700.582,-2671.3582,-1213.0388,-2543.6306,15845.103515625
455,-39699.086,-51916.805,-30142.686,-19341.307,-5378.941,1558.601,39669.88671875
456,-30940.494,-42471.434,-18848.229,377.5995,-6780.455,-4294.0015,24744.443359375
457,-18858.127,-7870.7593,-16725.672,8939.229,2671.1836,2130.9358,19406.115234375
458,5237.6016,26269.932,16174.517,-2073.0813,-2114.6233,-959.3762,19000.404296875
459,580.96216,7316.5957,5018.4907,439.7416,4075.7297,-2607.5017,10294.798828125
460,-2647.6436,-300.97607,-20713.086,4251.6406,815.1707,3119.09,21439.908203125
461,-2042.2802,-708.0034,159.28284,269.07266,-896.81647,7.371174,2513.93774414063
462,-35573.73,-32772.18,-55561.24,2763.1233,-4112.7627,-1176.291,23262.52734375
463,5859.006,-17032.084,-12559.887,9262.361,12634.585,6913.632,36349.63671875
464,10751.574,9572.466,9131.163,1588.3132,-2175.6143,261.23895,4906.9580078125
465,3057.9746,3331.9219,102.42114,-1525.3478,-394.03323,971.7352,4460.79150390625
466,38552.74,62216.133,18702.488,1193.1304,-2338.5686,4985.505,38973.7890625
467,-22927.258,3052.42,-9813.657,6815.6055,-990.92145,12613.605,33553.46875
468,-54707.453,-77915.97,-48867.28,11198.504,-5544.015,-9238.316,37851.70703125
469,-5310.6396,-1306.9846,4836.3926,475.80002,1422.016,-1290.4226,9492.4931640625
470,-4327.908,15314.563,1171.7607,3392.0874,3847.411,-4701.323,21290.3671875
471,-19998.09,-33749.645,-46650.9,7435.6094,-2421.2124,2346.559,27072.69140625
472,14377.117,17624.271,30224.023,-3718.7942,-2878.5437,170.37834,16632.634765625
473,9830.621,15905.709,34264.617,-1063.3596,-398.88535,-1765.084,22331.6875
474,-64084.57,-44598.18,-39494.6,4819.13,6001.7407,10475.412,31814.36328125
475,-11175.535,-3772.7925,-10682.465,1656.5356,3204.6182,1368.9579,9800.859375
476,33148.52,31414.104,43909.383,5330.66,1462.6111,-6211.1587,18570.654296875
477,-4850.201,5557.1587,6333.512,-392.6894,-1429.73,1760.9834,11527.958984375
478,-7434.5796,-4894.491,-6623.3794,988.4875,3546.6365,-459.9367,6808.1875
479,11490.261,9445.085,12132.025,524.80237,-3452.4312,506.57437,6577.3154296875
480,-329.0724,-1746.1177,4765.6143,1621.8458,776.81525,3716.699,9291.193359375
481,-5062.8115,-9520.819,1535.2476,5060.4224,819.62195,-2870.9885,14013.8896484375
482,-5265.364,-4163.4814,-8089.441,5769.681,-4142.7104,3227.293,13960.7099609375
483,-26160.834,-29450.316,-36699.895,-1543.197,2108.3965,1921.2954,10898.5751953125
484,7276.085,12491.975,19567.07,-2664.0044,-3364.0432,6799.279,17552.6953125
485,-7419.776,-6463.9785,-4404.1113,2658.9553,-744.0913,-98.68085,5479.578125
486,6998.325,-15605.105,24093.682,7256.508,4557.9272,-4496.935,38347.6484375
487,17505.99,19844.307,33135.83,-2641.5076,1004.3299,1157.444,15530.2861328125
488,-20490.781,-18388.2,-34348.36,2053.4312,741.6482,746.53094,15542.2587890625
489,-8028.964,-4768.1235,275.1455,-64.58233,-2252.2637,2628.603,9405.9658203125
490,1721.261,7188.42,6371.439,1793.1357,1056.9893,-3915.0142,9223.3623046875
491,-14905.79,7860.634,13411.276,9518.769,596.6945,-5816.4683,32401.7109375
492,-2101.24,2482.312,-4141.4155,-1906.4304,-3502.4404,2445.511,10008.435546875
493,6719.6924,-854.5762,2560.0984,2285.6218,-1467.0406,47.236313,8080.92822265625
494,25858.672,13823.01,24505.312,-4510.1235,-5637.679,-8780.312,22760.8359375
495,-12733.703,-33485.547,-1860.543,-6912.2744,-3366.767,-2676.338,31198.318359375
496,-7002.172,-8907.525,-18250.582,-1307.7626,748.861,1813.9609,11198.6328125
497,6857.0176,-10324.955,15603.183,6072.091,-31.909292,-4295.465,26228.970703125
498,12603.007,8194.875,24996.256,4802.988,1409.0144,-2904.1606,18114.078125
499,-742.7887,-5153.6807,-1095.1014,989.12213,973.1789,-101.39698,4881.93017578125
500,12765.604,14127.581,24405.238,-292.16925,-3122.7712,-2376.28,12958.953125
501,1219.4014,4951.794,13224.939,260.74936,2141.4824,-1393.175,11534.2509765625
502,15023.42,30311.508,-8856.388,5879.133,2657.8489,103.58315,35971.72265625
503,-16588.06,-31131.68,-21562.232,1999.6935,-692.2899,-3961.1492,14980.7548828125
504,201.1712,-1449.303,4548.796,1973.8591,412.42896,-1916.9213,7212.76416015625
505,34380.12,33135.754,20507.895,-521.98596,-500.2731,8555.635,19947.17578125
506,-27107.121,-4347.168,-26566.646,-1309.3082,-9235.737,-14082.866,36905.65234375
507,1646.398,-2384.7012,-20393.525,2579.349,-744.6859,2259.8071,21215.69921875
508,-181.17268,5024.5566,-4203.8135,727.58954,1973.7942,-584.5972,8861.3232421875
509,-6946.5635,-4863.387,-9099.915,3055.2107,831.98175,4458.6924,10157.8388671875
510,9346.351,12043.424,5996.4873,44.62483,3065.138,2078.284,8287.3154296875
511,6990.869,-1216.7051,1596.7639,-186.20854,585.03577,-1611.267,7817.1279296875
512,-35998.1,-24905.602,-59840.383,5848.802,1335.347,-3565.944,33197.7578125
513,9669.925,9046.493,7313.1455,936.81775,-1406.3433,-1426.5603,4375.53369140625
514,-6749.687,13417.563,17548.408,12334.985,649.30804,-14009.564,39415.90625
515,-17693.998,-5309.3584,-38268.133,10468.236,2161.1445,3801.4502,34894.04296875
516,6816.531,14905.899,21557.295,560.67535,1467.5283,4578.6274,15289.8662109375
517,27251.4,26270.053,17940.338,8795.256,5491.0366,442.89706,20040.810546875
518,-25153.07,-59402.72,-34979.184,12177.617,7946.168,1723.4839,39702.25390625
519,32804.27,6351.0586,48952.113,3432.4685,-664.3548,-4422.095,38510.0234375
520,4801.3267,5031.5874,8029.429,1428.2262,-3208.7131,-1695.7672,7440.7158203125
521,-16075.125,-5245.085,-9459.309,48.81463,-13078.993,-4981.015,26019.763671875
522,4192.698,2034.5225,418.9508,-59.5844,998.4704,-2.6056924,3708.90600585938
523,-3305.2827,-3109.102,-16057.621,13728.6455,-3955.42,3666.099,28598.015625
524,-23233.43,-11662.219,-29209.822,1181.7693,-4095.0833,3752.5645,18316.88671875
525,-18745.355,-17534.857,-24668.295,2468.7424,4200.8633,-704.4292,10790.3056640625
526,29224.672,19267.738,48596.35,1763.0575,792.08026,-1833.6036,26240.783203125
527,-5532.797,-2575.4072,-6156.87,-664.6012,-454.71222,2530.9001,5669.47900390625
528,6858.2583,-5671.887,7577.753,-2058.6165,-72.47488,-9496.804,21209.310546875
529,7786.948,-2427.2676,7875.17,-331.5382,-3578.8855,3825.1394,13707.2685546875
530,6878.472,-4435.219,2467.0674,-3313.48,6002.329,-2647.3894,16112.0498046875
531,10226.75,7833.4746,9377.042,1440.1034,2650.342,3884.5989,8773.8896484375
532,-1117.5776,5769.717,4215.399,1140.0438,-1387.0514,-2093.9573,7872.1337890625
533,-968.20264,6249.959,12614.272,4927.7236,-621.8995,-432.39294,14598.4091796875
534,2920.8599,9972.553,4986.528,-1334.0149,1932.5085,4369.9546,10642.3193359375
535,-5192.6235,4360.061,2826.9922,2293.2837,-1706.4523,-1546.5913,10518.953125
536,-12615.993,7028.2275,-668.64526,-1074.3881,-1603.5055,1669.8196,17705.357421875
537,6413.089,483.55505,-1165.2668,359.31784,14903.766,2078.1726,26969.70703125
538,-5207.079,-4841.169,-7162.71,3094.6165,-2686.555,-328.5992,7441.8134765625
539,-12124.608,-2870.5322,-17093.033,197.97873,5587.4336,-1527.5544,16033.634765625
540,7846.5786,7753.288,19650.213,-2257.0247,-3579.3022,-363.3262,13948.0595703125
541,-2713.821,-4260.245,-3409.2307,1993.6843,4578.597,1396.3939,9080.9892578125
542,3440.902,-1866.2517,6132.8413,7273.5034,-8997.697,-4583.1553,22678.23046875
543,4620.8247,8570.9375,16910.307,904.78906,-2732.351,1472.4862,12224.880859375
544,11222.092,2778.0454,11416.482,1794.3802,1548.8431,-607.05316,9536.3955078125
545,1831.9717,-9230.65,-10117.251,-3002.512,1305.7778,-1875.0597,13254.5751953125
546,-2465.0327,-12035.725,-6141.5806,-5205.938,-1799.8,-2141.924,13217.9716796875
547,-8001.1777,-20831.385,-22502.701,2078.0566,659.9385,5795.0063,17431.54296875
548,-2176.7449,413.64307,-5513.16,3311.396,-3627.9583,1588.3918,10316.763671875
549,1391.1982,-3810.7412,-14319.697,-4737.397,-2986.9146,1202.2504,17046.85546875
550,34031.145,2754.0742,42144.008,3908.4177,4076.307,5412.297,38488.63671875
551,7802.3003,8088.6914,11265.602,-6398.986,-1310.846,467.4165,11821.0009765625
552,-9590.382,-10162.441,-7029.37,-1352.2482,294.80402,-3840.4697,7638.400390625
553,836.178,-1935.0681,-5503.4233,-3078.1245,-1668.9182,-2076.2715,8945.103515625
554,4122.0444,4864.2793,6566.336,-1187.819,20.376472,-1716.0789,4216.63427734375
555,21805.643,17260.76,15208.8125,4233.215,6579.228,1046.8418,14869.3974609375
556,5960.317,-2445.318,8224.917,-249.81232,-733.52686,1498.4215,10166.4013671875
557,5828.8315,4700.4653,-265.40088,803.5674,1939.298,-247.32233,6703.70458984375
558,16992.986,13513.068,29480.613,-2274.0654,-2753.1973,-1214.9652,15943.318359375
559,1191.1758,6000.338,12554.008,1787.4414,-1386.377,129.79366,10630.0419921875
560,-9919.976,1476.165,-22924.969,-570.36884,-1980.683,13954.929,32313.6796875
561,-1014.0117,9699.224,-12.048828,-898.8728,4377.0005,688.9471,12898.2685546875
562,-345.90967,-2444.5022,-3636.4749,-2544.244,2118.181,3122.2637,8393.5419921875
563,405.71045,1352.9395,-8690.998,-2870.4812,578.21423,-121.9664,10864.1904296875
564,6434.721,3471.5874,10257.597,-3584.5183,502.7039,4089.8438,11144.826171875
565,2392.02,3404.7476,5244.5757,-624.74194,329.60733,1523.9231,3838.96923828125
566,381.05493,-3423.9067,-4654.7744,-416.27844,488.83444,-1703.3365,5533.2607421875
567,848.73145,11857.735,-5747.5073,3081.0159,1378.7723,-4191.0938,18005.6484375
568,9222.717,13143.428,20501.762,5539.676,6774.3013,3327.2031,19008.294921875
569,-2890.6213,10690.064,-8136.3457,-1390.1833,2305.0374,-1918.4347,17775.595703125
570,4541.662,-4762.3013,-1962.5042,1879.9807,-2913.2883,-5155.42,13570.3046875
571,-8376.661,-3663.724,-12451.3545,-2205.5793,1258.3451,-9315.207,18376.125
572,16235.213,19286.223,10194.271,3885.3218,494.01352,12231.597,23645.037109375
573,10279.501,28106.777,5222.4893,3831.0598,5476.789,-989.12634,23884.92578125
574,-28057.168,-17647.844,-38811.74,2058.4004,-5070.1147,-2776.3315,21187.634765625
575,-21698.371,-22125.297,4584.068,11984.654,6649.7812,-10569.645,40010.953125
576,1416.92,1741.5236,-2078.2603,2839.9224,-256.87827,1470.4495,6658.55078125
577,11888.502,7163.6494,551.1451,5798.4487,-3789.4956,-3006.5813,16381.63671875
