Element Label,S11,S22,S33,S12,S13,S23,Mises
1,17990.254,9498.966,6498.4683,150.26405,1732.4951,-3101.6753,12021.5048828125
2,15673.707,2677.8352,7848.701,5578.6836,-1834.4004,-298.02975,15236.708984375
3,1320.4958,951.26074,-4183.6636,6633.6924,1875.1587,-1725.001,13412.41796875
4,-636.7781,9348.557,8981.491,-1883.9808,3945.9387,4193.5947,14362.9560546875
5,15553.154,-4515.9023,-6591.2456,2630.9434,653.3628,-4231.207,22901.525390625
6,10081.166,1074.4312,807.99536,8141.4346,-1358.299,-226.5695,16974.38671875
7,6847.0264,-9828.799,-10800.051,3571.5183,1320.45,-3620.9312,19443.619140625
8,7672.543,-4153.0244,7296.1826,2644.7495,3099.9768,814.69525,13687.21484375
9,854.833,-31566.701,-12687.715,8986.9375,-63.65942,-912.2533,32253.529296875
10,13513.159,9733.524,2853.652,209.52351,2680.454,1833.6498,10926.7880859375
11,7520.256,8798.193,163.22115,3027.2942,1356.4908,-77.24159,9909.21484375
12,9687.293,2898.3062,5556.851,1532.1874,602.2951,-2629.8896,7999.337890625
13,-930.23175,-1361.4889,-1970.7502,7909.2046,599.21735,991.47034,13874.89453125
14,23446.8,17800.658,6731.893,11007.451,-1696.0095,1839.94,24477.943359375
15,-4653.4775,-27980.262,-2374.2852,11390.701,797.9213,1257.1982,31597.400390625
16,22127.623,28200.727,25393.35,-5449.698,-5516.427,19224.936,36289.109375
17,40644.04,38922.04,31563.113,-3424.811,-3599.6226,16419.283,30864.69921875
18,10194.399,2442.811,13107.553,5129.83,6337.115,17956.8,35467.13671875
19,-11749.857,1723.3756,-3229.584,-4157.22,531.8552,-770.8505,13921.4267578125
20,-18150.979,-29364.232,-32644.836,-6327.1904,-2476.7886,5570.154,20121.35546875
21,12815.953,-8574.598,-9664.367,2835.108,-8504.828,-5986.1807,28821.29296875
22,1144.2408,1592.826,1702.3066,-1016.82184,440.9405,-136.65173,2000.85302734375
23,-17197.75,-7424.2603,-13294.779,-4268.208,14408.899,8011.298,30702.658203125
24,-35526.543,-14316.306,-36069.74,4032.517,10274.857,5057.389,30065.32421875
25,22145.852,35687.082,6808.8125,5363.0586,3220.5234,6038.4146,29207.224609375
26,40392.082,63842.883,27859.922,7416.0376,-2088.049,-674.5768,34355.81640625
27,-12034.989,18397.643,-2146.289,746.44006,1406.9869,11375.82,33448.921875
28,-7182.595,15651.935,349.16653,-2567.1572,7800.0527,8699.058,28904.552734375
29,-5802.84,11004.476,-8362.502,14761.642,-4690.8555,3271.5168,32922.6015625
30,-9600.452,8878.337,9841.812,-2641.569,-4029.8796,4477.6304,22135.916015625
31,-15235.659,9808.762,-21319.254,3118.657,4879.288,12446.136,37174.08203125
32,-2230.7698,6022.8047,9821.76,-6265.1294,-7174.331,-2230.5767,20025.07421875
33,-1579.279,13873.003,17352.008,3673.5588,-2073.4932,6891.202,22371.505859375
34,11394.952,4289.9663,8746.996,-7055.6963,-19418.996,5209.962,37426.60546875
35,18850.389,-9141.952,-11063.239,9136.223,-6903.7056,-5867.3525,36574.8046875
36,13748.274,9071.708,21845.578,-7033.9253,-19235.955,4268.9497,37927.16796875
37,10762.561,-5853.6836,-20695.145,909.5748,-15146.999,-574.5646,37878.02734375
38,24182.234,25921.564,48669.297,-4514.3105,-9047.538,7252.6836,32008.8359375
39,17714.803,-5906.844,-20268.023,2308.0771,-2144.9133,-7202.8125,35901.05078125
40,10550.57,-1338.1179,7544.906,-8997.397,-13872.579,4816.2036,31692.802734375
41,21287.262,10098.733,21516.01,2036.1398,-17128.729,12213.758,38313.70703125
42,-241.29877,2241.944,370.8339,-2870.3645,-73.33463,-1458.1459,6011.05712890625
43,1757.4537,3541.4563,2669.7258,148.253,92.13469,-712.97687,2000.955078125
44,-576.02826,-1683.3041,-1167.7014,-86.371185,-622.66376,795.3905,2001.10974121094
45,-9236.897,2278.3108,-1003.6401,6537.1064,4712.972,6292.7217,20474.654296875
46,24116.557,2442.6501,26728.816,5552.715,12751.262,1910.9766,33532.6328125
47,-24050.908,-12923.557,146.0015,-1236.4323,829.32324,9377.341,26655.46875
48,31200.137,17447.902,6025.2993,-11765.789,-6621.396,4048.0872,32751.75
49,5873.0938,2401.3916,4089.7354,-1359.2571,-955.26807,-4308.415,8544.5576171875
50,4107.544,-323.19028,-981.20215,-7358.991,875.4479,3223.954,14796.11328125
51,9800.912,-7911.4595,5559.6685,2349.652,-4734.792,3652.6772,19504.802734375
52,8691.071,14299.668,17890.965,-3948.6292,-1905.3643,-1301.8854,11280.3759765625
53,1805.3351,-3289.295,2771.2231,-5673.0728,-1121.5684,10440.2295,21427.30078125
54,10391.881,2593.3936,-7107.7866,-11280.72,7231.489,2507.08,28072.89453125
55,-5537.163,-16209.299,-13231.175,-8020.0264,18530.13,527.54346,36261.2109375
56,1747.5349,-12661.452,-4039.299,12547.574,9795.049,2404.9766,30581.521484375
57,14450.735,27241.902,31605.965,2842.64,-136.58858,14652.938,30114.84765625
58,-25783.037,-769.0377,2513.1003,1565.8832,5829.4043,2731.4817,29159.1640625
59,-12927.799,-41191.23,-25742.295,11313.534,-6014.57,-6144.888,34736.7734375
60,5611.1187,-19076.271,12989.001,1530.8123,2300.2622,5155.7856,30800.83203125
61,16779.467,22007.25,25150.088,5317.2915,4025.0535,15035.481,29415.2734375
62,6783.644,24298.598,23164.777,8688.101,-410.5169,13293.371,32331.04296875
63,6018.363,14912.339,11825.204,10118.204,-992.942,15898.969,33609.51953125
64,12576.002,20031.55,21175.057,6910.268,3643.832,16741.477,33005.109375
65,10214.883,23296.398,26303.432,10391.464,-1610.6003,13361.524,32967.03515625
66,5582.0464,6787.4175,17242.602,14816.728,5521.3857,8654.164,33137.7890625
67,-1743.8944,2715.7375,21080.277,11541.712,96.508064,7557.3003,31781.1796875
68,3563.0034,-8141.5146,-4422.9604,6310.636,3600.9307,10430.99,24332.87109375
69,6573.3037,-10339.943,5914.6797,12803.223,6139.6113,2553.2053,29996.013671875
70,13274.918,14322.22,26878.05,7197.8545,1307.9921,10725.724,26030.34375
71,6325.954,-17241.945,4661.2554,-1126.7765,9395.133,958.1908,28113.208984375
72,7761.033,-16628.744,1658.8044,9905.241,3810.5974,6444.9053,30753.541015625
73,10589.085,-16809.596,6584.432,4676.3784,5198.3154,-5790.954,30071.267578125
74,-11896.167,-13536.905,-6992.0796,-1785.7893,2278.7837,-934.4745,7909.0986328125
75,4752.314,-833.50525,23734.48,3049.308,-6064.204,-7809.578,28613.66796875
76,6855.348,-2738.1833,2148.876,2455.3213,-2151.35,-8505.514,17833.59375
77,11905.686,11848.102,11441.234,-701.7092,714.15045,-517.68384,2000.87365722656
78,-12653.999,-6758.1147,-26734.305,9581.036,393.53635,2889.2473,24838.0546875
79,35338.746,24121.879,27832.516,845.1348,-3825.9229,15401.924,29251.98828125
80,24400.316,12290.846,29017.79,718.5224,-5888.6343,10312.191,25465.1953125
81,16837.172,7258.9766,18134.096,3025.2002,991.252,19593.883,35888.859375
82,17968.078,10197.525,6687.9346,-4271.7207,-10640.32,14638.906,33723.2109375
83,-11012.965,9542.2,-32246.082,-3013.8003,-2788.8848,6329.7793,38478.44921875
84,22581.787,27483.902,19677.258,-151.02376,-6919.8184,19524.414,36524.42578125
85,2303.1287,-3881.7595,2704.2217,-1206.5479,8293.978,20104.646,38265.16015625
86,15972.383,24889.178,18605.475,-582.57184,-1532.2957,20716.908,36859.14453125
87,13426.692,-3175.7288,652.14435,-4593.6465,-6044.058,17521.037,36340.03125
88,45834.957,22418.264,26556.066,-5924.6543,-8410.837,11178.075,34072.6953125
89,-32063.053,-13787.504,-49544.46,2571.9138,3487.5808,4310.9756,32728.658203125
90,36784.062,40162.49,37684.137,-10588.851,439.36185,15235.768,32288.068359375
91,11084.557,19221.646,16631.588,-4944.158,-14037.776,7236.7124,29554.470703125
92,17893.65,18776.88,36615.027,297.08423,-15926.331,8266.859,36068.9140625
93,31626.633,18446.664,47782.164,-8959.611,-8750.576,1410.692,33528.40625
94,12656.731,-8921.352,-13672.973,9088.145,-12367.173,3266.491,36460.33984375
95,17004.152,7286.2065,-7156.807,-2149.5632,5460.006,15056.1045,35025.01171875
96,6456.4463,8637.474,10674.893,13063.439,4350.007,9496.153,29199.494140625
97,3766.0737,-23042.195,-13383.434,280.60876,-2219.2163,-8509.547,28022.998046875
98,7533.6074,5302.6343,-1471.3916,-7409.2915,-4516.6597,-3051.6902,17883.2109375
99,17878.736,25701.328,14074.738,-14871.276,910.98926,11945.853,34633.58203125
100,-16568.5,6033.624,-3042.7476,-6679.379,-1066.4937,-4905.592,24444.63671875
101,-2099.883,6170.7837,-5378.0547,1799.1547,1590.0096,1340.4419,11355.5546875
102,-7295.3765,3871.3286,5998.491,-6487.74,9658.387,14418.598,34391.671875
103,-3108.9016,-1971.542,-5841.4717,-6200.9287,-2422.8953,672.0838,12090.8779296875
104,11839.855,13331.532,35378.504,-7512.902,-14038.892,3215.8767,36232.70703125
105,8394.684,8799.919,23810.22,4835.25,-15699.194,9408.498,36147.59765625
106,276.07828,-16873.055,1075.1466,-174.54951,-6068.6294,-11801.397,28928.009765625
107,7868.168,11615.931,25410.96,-8197.24,-12601.645,9516.49,34723.6015625
108,11123.94,-3141.336,2387.6335,-4815.1523,-5108.9136,6873.31,21089.869140625
109,-205.70616,-14805.659,-6946.4575,-4499.9214,6519.994,702.19684,18706.677734375
110,-20245.445,-22423.062,-8027.4663,12617.963,1206.8999,-9278.79,30346.724609375
111,6623.276,-25144.74,-5249.373,5178.611,-11689.406,-7153.581,37641.70703125
112,4685.668,9290.878,12424.31,11622.816,8949.493,10796.207,32259.58203125
113,-6934.791,-12893.183,-14078.571,12337.777,6521.6387,-8969.423,29488.638671875
114,-15403.843,-2783.3542,5108.2812,5765.159,6094.3257,6427.935,25617.173828125
115,3523.0833,-12104.058,-7873.476,9156.778,-753.8297,3758.823,22172.6015625
116,-10322.768,1081.2545,5201.411,2117.5032,-1714.718,-3607.9026,15979.2646484375
117,3642.2703,-8350.019,16794.9,1018.0384,-955.78235,-3139.629,22582.259765625
118,-9048.828,-26886.86,-3628.647,-6755.168,-5545.649,-4106.491,26907.404296875
119,-5223.5366,-6503.3804,-5431.7334,2474.3582,5884.7246,8878.507,18977.771484375
120,15089.206,17903.887,19185.457,3285.5618,2848.413,14410.693,26323.01953125
121,15874.16,26631.477,26519.68,-5563.235,-12260.481,6539.5913,28047.0234375
122,19166.166,18630.746,29223.037,-9961.841,-12535.739,9434.387,33808.046875
123,16843.451,18277.23,28258.064,7879.248,5173.566,12031.886,28580.18359375
124,13092.47,-10573.496,-15634.369,8415.593,7347.5806,2358.5642,33114.59765625
125,912.1236,2597.0935,2173.4697,516.55884,-362.91956,-409.80365,2001.05859375
126,-10131.354,-4610.5083,-6826.063,-3995.1238,-226.63548,-4436.423,11412.2451171875
127,12886.304,6440.915,14193.463,-2172.1262,-2238.3477,-1085.837,9186.8916015625
128,45993.918,43244.945,30431.072,16528.361,247.35155,-1511.3716,32149.240234375
129,27648.457,28454.996,17401.137,12483.427,8400.887,-2247.0115,28430.6640625
130,-28254.633,-15393.663,-20851.676,6561.906,5376.536,18827.152,37473.7421875
131,25366.393,16763.316,11754.944,-3258.4585,-10133.314,16375.601,35868.78515625
132,24504.18,16668.963,26836.002,-1674.728,120.63565,20281.508,36435.8984375
133,34686.934,29856.928,28846.014,-7652.5317,-2547.387,18169.854,34854.20703125
134,25495.314,22110.918,26998.113,-3748.3987,-9777.0205,17322.102,35325.4296875
135,-2698.102,-5161.9185,6403.2446,-6239.087,4173.7837,-2667.4612,17369.9453125
136,-18178.564,-14198.479,-3577.0615,-7261.4497,5199.8086,10288.531,26977.609375
137,148.67516,-164.2573,145.86897,1070.3113,325.77844,224.2512,2000.75378417969
138,2344.802,2037.6539,3109.3193,634.46985,-778.8689,-144.00156,2000.85546875
139,19930.393,13142.502,32082.033,-2654.0857,-227.05734,-7315.231,21402.02734375
140,-11020.665,-22622.818,-4702.709,2174.1982,5656.8184,1672.0294,19141.46484375
141,9364.151,11810.103,24476.996,14242.07,2839.0027,7980.097,31955.44921875
142,9186.593,-12753.558,-9272.959,2930.4146,-5905.7524,158.54419,23400.662109375
143,8027.224,13431.108,21674.807,13234.177,2989.234,10107.755,31629.8203125
144,-4043.6147,7427.67,3274.0974,9294.624,5467.437,14019.917,32244.66796875
145,5522.5957,3881.2686,17868.62,15464.322,4623.677,2430.0654,31219.68359375
146,-2142.4973,-625.99585,15967.927,12244.379,1706.9928,4778.0244,28806.72265625
147,33626.58,31245.885,35663.633,-1724.1719,-3647.4526,4382.3096,11005.037109375
148,738.2331,-34911.605,-19928.148,7556.024,-7012.039,-6451.0356,37481.87890625
149,7755.837,-12164.497,-1455.8011,-13496.616,-1668.1648,-11282.84,35141.23828125
150,253.32721,-16447.916,-10779.89,-7613.421,-1866.7128,15742.206,33825.9140625
151,2017.2993,-600.10675,-14323.3,2904.8306,-4664.9155,12857.124,28593.90234375
152,7464.208,-4705.101,12734.245,-10374.61,10612.76,-1219.045,30087.302734375
153,19105.479,3544.4497,-10008.101,3101.5146,11174.665,-1110.2081,32309.1953125
154,-3900.3872,8253.977,-16060.284,-11966.704,-5379.598,3505.9597,31570.380859375
155,25814.854,30584.092,31959.371,-8034.6035,-2139.368,12051.847,25967.91015625
156,10742.785,22429.715,33220.676,-2370.0527,1059.5593,9459.802,25842.31640625
157,9481.474,15655.805,21068.926,-7221.126,-16341.123,9837.704,36724.90625
158,12420.355,14850.686,34088.746,-8884.44,-12768.302,3933.9702,34569.9453125
159,5740.435,2819.2676,10520.145,293.0287,-12726.656,3890.5374,24018.970703125
160,72900.1,80831.6,78484.695,-6003.181,-8694.802,15716.685,33552.31640625
161,41847.656,57177.91,52661.664,1027.0485,209.94672,19032.361,35723.48046875
162,9387.587,19378.895,19095.684,4215.3823,4589.937,18844.451,35762.09765625
163,19578.383,29475.105,26243.2,-3031.3381,-7816.607,16297.84,32926.11328125
164,34323.7,27914.705,33909.668,-3807.08,-10722.443,14061.495,31940.005859375
165,3916.0955,-3922.0964,3492.7036,6731.179,-146.94765,5725.401,17106.419921875
166,5621.285,-9375.158,4206.1675,-1009.35486,-4963.938,-9664.079,23724.162109375
167,13871.178,1500.2037,2439.3489,531.7165,2953.2275,-3084.9983,14066.6025390625
168,21498.654,28362.738,43583.223,232.28935,-1457.0565,15876.06,33851.62109375
169,1136.1039,14228.392,17686.262,1241.0115,2619.904,19172.816,36832.58203125
170,26312.557,33528.727,39944.7,-3368.099,-9475.037,17152.742,36408.0703125
171,417.10025,-490.09167,10661.741,-4988.38,4140.392,61.87033,15529.37109375
172,-13164.89,-2952.551,-8579.918,9965.463,3425.0098,1943.2535,20565.568359375
173,-8422.12,1010.6819,3798.7969,8456.908,10743.289,8931.675,30384.01171875
174,5910.5566,-2461.374,-11042.298,-3635.9897,3114.4253,9838.948,23973.63671875
175,4274.012,-22438.148,1642.4833,-5264.1133,1416.9402,11840.55,34057.6328125
176,-14166.04,-7729.7476,-15423.362,-4426.6055,-2464.7874,-3722.0898,13025.7861328125
177,-7793.923,2602.8462,-1184.7214,-4581.834,-1220.0757,-4858.089,14876.439453125
178,10134.688,8538.716,14831.294,-997.3339,-4538.347,1611.5243,10230.626953125
179,24124.92,26103.234,22770.326,-3053.2656,-7791.442,19586.28,37005.16796875
180,32396.213,11137.725,5154.319,9438.908,10249.225,-5398.4155,35843.69140625
181,15107.491,6435.663,17276.238,-5615.4585,-17288.338,-2197.4421,33233.37890625
182,14934.086,13647.426,32175.795,10726.577,8858.949,6772.5107,32238.76953125
183,3617.4817,11373.189,9189.715,10522.405,10766.191,10180.695,32230.724609375
184,4623.068,6379.86,5498.5005,508.53485,436.83334,-337.13773,2001.00622558594
185,-9208.592,1718.8287,-28.484514,-5343.088,-4040.0457,5210.7275,17872.736328125
186,-6287.3076,393.65704,6395.3696,2636.205,2894.9922,7445.949,18250.23828125
187,1745.1631,23985.553,14638.133,1282.5101,-15775.802,7633.0337,36062.04296875
188,12646.409,22749.404,9673.691,-3892.9832,-1466.395,322.71973,13898.5703125
189,-14230.209,-39082.0,-13080.963,6712.958,-2510.7783,-3739.299,29043.822265625
190,2629.2434,-9711.095,-5487.3027,-2638.4087,8447.849,12069.369,28106.802734375
191,2309.8452,-11398.778,17920.402,-9719.55,-3428.9602,6472.4526,33014.7734375
192,-757.47925,-3578.6692,-6443.378,2043.3232,11516.383,-5519.8623,22936.017578125
193,-7684.497,9913.845,2806.5288,-4382.347,5990.047,9449.106,25850.576171875
194,-15849.969,-2736.0525,-4013.121,-1742.2328,-13252.29,-1980.9525,26544.42578125
195,-10344.983,9508.653,-9024.127,-1785.1158,14837.486,4072.831,33007.0390625
196,18109.496,34776.504,36783.387,10534.188,6207.2295,7077.2886,30232.86328125
197,2302.3806,24281.518,-182.14757,4608.4883,-2840.848,-2295.133,25447.82421875
198,-36547.344,-25141.21,-13045.874,8707.032,-579.3634,-3123.5256,25924.341796875
199,4998.7295,12480.49,7124.664,-5023.138,-12319.776,366.15692,24000.400390625
200,16469.24,8761.137,2034.7709,-6398.1123,-11591.869,-10851.1455,32181.83203125
201,9102.994,-1350.4762,3911.7747,-256.60672,-12910.806,-9576.515,29280.55078125
202,13423.452,3092.1343,4446.2246,-5237.8306,-6783.5645,-4901.9434,19672.87890625
203,16723.852,7330.5796,11745.172,-8510.053,-14499.782,-2891.582,30648.53125
204,14168.741,4651.518,13839.352,-12519.099,-16185.16,-2807.9192,36976.5625
205,14197.95,16074.272,11931.088,-6342.827,-9070.989,15578.846,33294.99609375
206,21398.66,27923.518,33198.34,-11009.1,-13969.745,3481.5818,33018.8046875
207,14258.022,-5935.3584,2157.0117,5001.971,-15019.27,-827.3819,32614.337890625
208,14579.241,21444.645,21314.678,-7893.293,-7444.657,10167.193,26637.470703125
209,13750.497,-17540.355,-5999.1675,-4179.547,-9638.312,-3549.3792,33467.5078125
210,45046.605,50395.27,27681.541,8013.5947,-8418.672,9939.49,33536.38671875
211,-3534.574,6510.236,3510.7373,2989.7349,-7918.189,5665.571,19772.9765625
212,991.5203,29434.514,9797.346,-9542.656,-2480.263,1069.8597,30514.884765625
213,-5183.056,-3560.8245,-5618.2617,-79.5298,-166.63417,353.52374,2001.06396484375
214,-6761.033,-6103.1875,-4938.464,-578.5721,-67.40382,300.52405,1960.70422363281
215,11779.066,26563.875,21221.916,-9157.185,-1359.0492,15522.386,33883.38671875
216,-23376.07,-27191.832,-49549.418,-4204.777,-8730.883,-2634.2727,30037.91796875
217,6515.0596,19451.863,23644.736,256.72446,-4976.7593,18481.56,36584.01171875
218,41651.094,32716.525,42738.16,-9356.731,-4733.812,16935.992,35792.12890625
219,6283.179,20154.854,20306.828,-1536.6104,-3523.684,19556.121,37231.87890625
220,16198.172,21702.781,23249.379,377.6511,-6122.9795,19474.426,35942.54296875
221,-6844.339,-2463.4414,-14418.56,-11177.668,-6064.273,355.81042,24398.15234375
222,21006.66,23384.463,19564.668,-8481.302,7598.4873,16538.646,34939.24609375
223,-8594.61,-17701.592,-17017.277,-7968.4556,-8575.359,14893.003,33965.82421875
224,67975.164,61929.53,67227.25,-198.72307,-1720.3744,17966.646,31780.27734375
225,7470.552,17196.174,22583.363,-6204.0435,-3985.3972,11456.493,27071.712890625
226,23769.936,26094.264,29945.889,872.73413,-6700.8423,17400.314,32779.4375
227,24299.238,40595.59,33151.145,-6983.577,-2637.1755,15918.593,33571.6171875
228,331.30423,12302.849,15972.221,-1932.3407,-8873.174,10833.877,28288.34375
229,11325.051,22680.69,13991.355,-3438.169,-6003.7144,15180.707,30671.4921875
230,12705.569,23340.334,15943.671,-8211.815,-2361.4883,12198.434,27469.693359375
231,941.6664,20067.41,9152.818,14430.192,-919.8093,12376.184,36917.63671875
232,10577.188,20588.121,3969.0115,10891.897,8380.053,9670.889,32514.5390625
233,9041.891,11868.101,5526.297,13261.009,5146.881,10580.643,31195.62109375
234,5588.3286,7920.361,2151.454,9483.237,5153.723,9687.518,25618.10546875
235,-6597.4487,-2744.802,-17483.193,1006.1007,4110.2837,12486.11,26395.267578125
236,-2745.2947,-304.47235,-12887.9375,5126.4263,11323.828,6962.164,27249.41015625
237,-5126.8916,5950.2983,-20679.393,8843.29,2300.8718,-2765.582,28465.787109375
238,-1907.2316,-2806.6697,21768.346,14093.93,3762.7834,4227.3096,35702.08984375
239,5000.8853,-2320.42,2240.3516,9767.535,4713.4937,13064.584,30098.6171875
240,8090.308,9532.219,-15818.567,6717.6597,-6048.9697,-138.06165,29212.943359375
241,-2407.82,-15690.846,-36976.848,5711.4473,4708.5737,-2869.8174,33186.69140625
242,18606.393,31781.934,11423.988,5721.8193,4239.3164,14305.407,32952.70703125
243,26737.46,1305.7435,28654.445,8735.075,1814.1583,2305.5635,30885.6640625
244,4454.9385,-6182.33,-3483.2598,1112.765,5363.4927,6491.3457,17554.32421875
245,-1035.5203,-19414.855,-6617.6333,5437.5684,10987.151,15208.996,37565.39453125
246,6646.374,-12056.472,-9646.9795,5348.0664,7338.764,-9348.882,28637.7421875
247,-7290.5273,-3367.3723,-3047.6804,2563.0352,17598.367,4146.9805,31892.8671875
248,16461.92,-317.07553,5572.251,-2295.0356,4082.857,-1659.8794,17072.732421875
249,1716.2723,-8553.368,-8261.046,-708.03625,1352.1562,3226.7146,11864.7763671875
250,2523.3196,12040.131,-25165.623,5158.9727,-5439.612,51.517555,35907.921875
251,18013.156,16823.611,-12725.843,-10038.922,-4419.9355,7663.863,38037.97265625
252,17561.03,13203.458,11955.05,3288.936,-1182.3041,9257.882,17881.748046875
253,9093.458,-8854.755,14371.967,4482.535,-2588.4602,-64.20769,22915.779296875
254,-4402.4297,-3979.5984,-9292.43,1177.5183,-6175.3213,-4702.2607,14527.7568359375
255,3578.6458,16556.533,-3145.5674,7069.969,1091.1921,12566.123,30465.62890625
256,-4461.013,4521.1304,7752.537,-7868.2246,54.39412,-2320.6494,17945.4140625
257,2128.4204,3782.4707,2552.5857,-626.8269,-154.32878,-424.17877,2001.04443359375
258,8241.898,-6157.238,3389.3333,2853.5505,6013.9653,-8255.414,22324.806640625
259,20041.316,-1664.1364,3821.7317,2695.8044,-6854.668,-811.54535,23385.583984375
260,-2344.3145,-10483.309,-10141.567,584.6196,-354.70474,5673.2827,12709.830078125
261,14758.955,-18447.395,-3751.2637,-3776.0479,7247.048,6739.5464,34164.78125
262,-29469.281,-17463.193,-11423.646,-2517.2278,-3594.2883,7151.3555,21548.208984375
263,1191.4688,-2019.1978,33.953907,-8104.2344,3879.4136,8548.182,21664.05859375
264,4642.9263,-8308.645,2427.148,-10364.599,6620.033,4751.2695,25795.890625
265,-549.07666,6501.173,11604.987,-1301.7667,9452.107,-7474.015,23503.86328125
266,-12514.779,5804.8696,3582.807,-5833.9175,2974.442,-4111.266,21890.4765625
267,-7778.604,-212.60872,-16364.583,-2812.2874,3591.0881,-7957.2017,21172.875
268,-9177.318,-6524.1353,-11052.704,-12035.181,8936.195,-6215.786,28382.1015625
269,-9981.042,-14254.326,64.96114,-5576.598,1035.1355,2023.2019,16459.115234375
270,-21904.5,-6750.934,-25078.451,-8300.359,6763.565,-5177.8833,26686.287109375
271,-14553.821,810.56256,4606.4683,-3584.9417,6512.4927,14462.575,33197.6875
272,-45192.52,-44509.258,-33516.574,-4436.4507,8818.383,12166.691,29414.958984375
273,-28930.97,6315.2646,543.5366,775.7045,7529.168,3166.651,35694.9765625
274,-1124.7771,-21370.723,5896.427,-3423.757,-4222.4004,-11406.639,32868.421875
275,10165.762,2657.7532,-18826.918,1342.5925,-9389.417,-3550.5972,31416.232421875
276,-12828.502,-343.92648,-13296.042,-1538.0835,4636.477,-2613.526,15937.3671875
277,-23596.639,-3629.7422,474.28204,-7289.7974,-2304.001,-3133.2424,26500.28125
278,12701.29,2275.4927,10491.67,-5657.1074,4786.327,-9234.541,22607.703125
279,5934.4053,14627.905,-15730.471,9697.568,-490.09094,-1850.2548,32037.583984375
280,5532.438,-3188.5154,-20368.008,3809.3462,1968.1864,-1785.7612,24201.919921875
281,5635.805,-1345.8152,-14617.571,1114.0618,-5608.7163,-3970.9465,21516.1015625
282,-19249.188,8447.394,-28475.842,-1777.1946,1952.0347,1434.31,33687.63671875
283,-15979.429,7246.852,-21376.678,-2906.459,2061.611,-185.6981,27058.1796875
284,-4324.553,-19026.434,-10352.039,17119.738,-586.77893,5286.699,33585.671875
285,5479.0015,-12813.768,3852.5967,-5544.7246,9984.076,-9153.352,30824.46875
286,-37464.492,-51791.1,-50571.68,-3936.9775,-4575.6797,316.8467,17288.134765625
287,-15840.895,1530.2931,-27701.572,-2854.4424,-3484.9668,1283.0543,26726.11328125
288,4064.8176,20432.527,-2309.5837,-5821.0283,-6229.255,16699.674,38308.8828125
289,21396.771,18111.842,20757.209,-3900.3772,-6393.0596,5082.6665,15964.0791015625
290,15527.608,6875.593,11565.045,-3498.5945,-8690.705,-4469.4897,19481.0078125
291,12447.056,-6534.9297,-11326.088,-1482.8302,-7258.2085,-6511.3716,27677.638671875
292,4258.83,12897.869,8093.2188,1470.1201,12399.871,1944.5472,23136.724609375
293,2208.504,-3443.3481,-377.98727,13474.416,5262.0605,10152.639,30999.849609375
294,1242.5425,-346.6621,494.84802,10003.027,10291.466,1965.0878,25127.78515625
295,4854.7134,-9216.455,1226.8901,5980.2505,-1933.1718,6544.456,20176.78125
296,1407.6353,1235.8079,1041.6309,113.32858,698.6823,-316.58035,1379.95092773438
297,1079.0398,7082.6353,7305.9824,-9631.139,-3689.1384,16932.408,34880.640625
298,28910.281,27379.74,35970.676,-1478.8899,-5023.188,12010.373,24041.70703125
299,33134.637,37854.074,29831.78,-7874.939,-9628.715,16990.242,37134.28125
300,-10069.949,18873.1,-9728.058,577.4569,6139.899,5023.824,31901.935546875
301,8827.63,10662.827,14071.929,-7561.6133,9275.047,-4026.7031,22349.55859375
302,-2457.5625,13318.848,-513.39606,2040.8134,6243.6924,-501.95712,18767.1171875
303,-7603.844,9944.46,7905.6694,-2911.9275,7035.1753,9577.014,26933.23046875
304,4898.1772,-2292.0151,22461.545,-13024.555,-1379.2487,7256.0366,34044.515625
305,-9376.816,-26914.281,-7429.649,8136.057,-11661.242,10987.463,36252.11328125
306,-9639.386,18226.504,-21443.697,-889.8374,6731.343,145.42744,37190.84765625
307,23717.818,23496.682,32051.793,-96.35948,-8745.765,15824.586,32435.9765625
308,10241.2705,4621.238,9088.915,-9841.053,-3584.2808,-921.73535,18922.615234375
309,2270.0203,2915.8809,8049.8096,-9971.71,883.76605,303.79944,18193.822265625
310,5209.724,23403.303,14565.847,3061.9229,5522.3306,4630.3066,20790.76171875
311,1612.4323,-3493.9136,-9686.585,-3728.91,-19178.371,-3653.1797,35794.234375
312,-13395.297,3293.2905,-11902.031,-13258.863,5226.335,6023.4497,31208.9765625
313,-37929.52,-21184.65,-19740.092,1413.6816,459.26038,-7052.5903,21506.083984375
314,4092.921,-21678.254,-10410.93,3457.1885,5321.1055,-15201.304,36259.78125
315,-9986.151,-2848.8823,16422.07,10963.521,4979.943,12086.578,37856.36328125
316,6472.5073,9051.48,17217.719,-5390.3,1323.1272,-4906.8228,16094.9619140625
317,-11560.794,11334.944,-9290.389,-7353.3135,11912.901,10511.158,37373.86328125
318,13988.267,8496.059,12165.378,-2434.3,-14254.578,10278.814,31109.388671875
319,-4236.901,6564.895,13270.745,-6440.878,-4272.288,6141.5723,22944.525390625
320,53803.945,46920.344,58099.875,-6329.814,-9299.026,6054.5947,24186.775390625
321,16852.564,8666.625,13201.902,-4134.1123,-14897.364,6649.355,30002.693359375
322,-1300.5936,-2250.2969,-2605.7236,-302.81622,-824.1608,329.23935,2000.95629882813
323,-6910.344,-8015.3594,-8262.967,-663.3058,606.0719,93.01087,2000.95581054688
324,1940.8092,14239.798,-659.7868,-7312.614,-9057.634,12362.143,32481.158203125
325,3558.685,7552.4697,1377.0557,-4262.5327,9743.96,11884.427,28151.08203125
326,-12599.479,12232.56,-9197.008,-11936.925,-11453.595,1920.0243,37091.79296875
327,11925.12,-5763.8228,13367.254,13544.783,-2065.2908,7316.8467,32623.25390625
328,-5293.5137,2023.9773,-28899.252,10756.0625,-4045.5786,-1048.2305,34394.5703125
329,10636.747,2620.5698,6576.811,11599.943,6031.458,-5752.0107,25695.62890625
330,-4531.9575,-10870.877,-27764.3,-3798.6812,9324.443,-3059.7026,27656.22265625
331,-8975.524,-25162.654,-32957.594,1236.7253,401.64536,9841.335,27287.177734375
332,16688.5,-1266.0924,26647.098,4305.677,-9920.992,12361.065,37544.9921875
333,8630.779,-291.11816,9546.988,-3858.1023,-6406.6577,9563.93,23039.333984375
334,1781.4281,7231.3296,-18347.621,-4612.5225,-642.9865,7543.5537,27934.986328125
335,-13586.037,6464.598,-3692.8809,-5855.725,1188.2579,-7134.7944,23693.009765625
336,-43.19881,-10119.663,4472.4507,2083.6724,-1209.0806,-1398.7622,13809.7177734375
337,-7812.0625,-1225.228,-2067.4258,-9690.018,4749.009,-6634.9614,22802.740234375
338,-18461.246,-31854.637,-2053.8552,-12911.056,1912.9932,6367.316,36069.77734375
339,43735.758,29568.006,42709.82,-7771.3906,-6422.644,14085.351,32975.26953125
340,11244.863,17949.986,13502.901,-11186.563,-6843.658,17175.836,37892.87109375
341,-13650.452,12801.698,-1622.8705,-2078.0615,-5915.1523,11789.154,32574.501953125
342,11123.854,24490.516,28151.053,3062.4592,-4760.4414,14017.384,30439.759765625
343,8916.726,14144.892,7863.011,904.7248,6370.4927,14078.186,27436.181640625
344,19110.008,22969.867,18002.105,-5020.247,8147.141,8432.468,22549.017578125
345,72.182655,7853.89,17372.398,7392.734,3648.612,6411.2876,23503.951171875
346,-8710.174,-227.75168,-5692.23,-1880.2455,-6356.011,777.4082,13750.4794921875
347,-5629.177,5973.9077,7892.3525,-2737.0017,1690.4777,20240.844,37692.09375
348,26674.111,32308.77,17849.602,17162.926,9465.649,-2465.343,36470.1484375
349,8146.415,22598.496,23589.77,-2088.2976,11694.263,11658.268,32484.875
350,15266.775,15061.542,2410.1304,-10410.975,-614.2552,5947.4907,24394.9140625
351,-16954.4,-13354.393,-10041.099,-10604.037,-4777.024,15482.481,34070.28515625
352,-3560.147,-2775.1423,-7823.2896,-1518.7755,3117.5015,1222.9629,7918.37109375
353,-3939.4287,9946.307,-1823.2965,252.97757,-8280.197,-3892.6477,20475.41796875
354,17810.662,25798.598,21490.928,-13003.48,-15152.381,8279.289,38074.2578125
355,-8562.869,-34265.117,-11.785001,8089.6187,7169.729,6085.4634,37618.45703125
356,-8473.824,-26398.41,3498.8467,9252.226,-4021.928,10584.421,36341.015625
357,-17544.703,-35384.906,-3397.6296,7130.806,-3171.2454,-2671.8352,31223.8828125
358,928.5294,-129.18542,13797.69,-16413.791,2401.2651,2583.5994,32029.779296875
359,-14759.362,-3873.134,-767.7438,-12717.925,-2274.3057,2860.2148,26215.5703125
360,-6769.4346,5574.6543,-1770.4636,2566.0808,45.145363,-526.5338,11672.64453125
361,2560.6382,2891.101,1410.9165,1935.1267,-769.6933,-2404.4868,5671.60546875
362,658.73694,-906.7997,4.7371883,-225.19415,-3947.5513,1220.6241,7295.62548828125
363,1165.0222,-1299.7275,779.76917,189.50233,-1226.919,1092.681,3671.43530273438
364,2823.8228,2758.5405,-901.0162,-476.31976,-495.34274,3397.299,7048.2041015625
365,1799.2832,7993.781,4116.0425,-3172.783,-1772.2792,-2618.3093,9464.5244140625
366,-798.1827,1095.1234,3081.3489,996.02814,-1146.6027,528.96356,4364.62451171875
367,10435.681,-2713.5254,4065.3843,-1878.3708,4515.6772,-2139.8467,14670.1611328125
368,3624.062,-11353.21,-144.30806,371.71185,1482.5969,2756.2153,14556.041015625
369,-6660.2446,-8657.847,-2808.0435,1265.5663,1858.4247,-2200.4136,7497.779296875
370,9253.076,5351.378,-618.47125,-3184.2197,3617.5977,-2155.5261,12560.755859375
371,-2764.456,384.83145,437.44916,-100.77535,22.727493,-90.836075,3184.84838867188
372,-7575.0654,5.5547385,681.3705,2672.8088,-1591.5553,-1193.6755,9815.8583984375
373,-952.665,1996.6753,-104.87029,-234.51657,-1470.779,-1476.7921,4484.89013671875
374,-1672.3226,-1317.5292,-488.8878,443.77567,-1387.5131,-169.33472,2749.35107421875
375,-1608.6486,-3901.1897,-885.8696,-973.28015,1329.6688,-1018.5826,4323.60595703125
376,-1535.0203,701.22705,3691.4946,-1554.1833,7.4869266,-2301.9429,6616.111328125
377,-10148.978,-5638.3936,4790.2046,-4497.4165,578.7562,4457.683,17246.392578125
378,-1045.7113,1168.3495,-1751.1019,2918.1824,1145.682,1508.5045,6578.24462890625
379,-2.4941947,2274.362,815.7391,-201.93036,93.08905,-524.01636,2227.70825195313
380,3460.1306,-4841.7026,2347.6594,660.66986,5249.2124,379.928,12055.1923828125
381,6890.309,802.6974,-3761.1665,3953.5522,2457.217,-428.2242,12297.41796875
382,4892.1777,5265.0894,1779.3331,4461.008,-718.80756,1846.2128,9081.134765625
383,8338.208,11591.871,1405.0332,3551.331,1994.4468,116.41907,11446.5458984375
384,11661.994,8296.473,-1833.3435,4782.548,861.50616,5741.8965,17826.525390625
385,-3531.9404,2342.7048,-890.9803,4187.5967,-1968.329,-2597.6719,10509.328125
386,792.61346,-1945.271,-1045.0017,383.8185,-375.51202,-666.2041,2835.15869140625
387,-3520.0452,1207.486,-3523.0554,7234.536,-359.662,-1112.4232,13545.4736328125
388,2420.223,10078.032,-1468.2871,-1959.4883,-1078.0459,-1073.2197,11045.39453125
389,-2644.5654,1788.3381,-1913.381,-4763.9194,445.37354,-1619.0706,9668.9208984375
390,5619.064,14905.073,2247.0093,-749.8241,-401.57404,-799.7163,11532.68359375
391,-3374.8225,-11431.333,1842.2153,-8300.086,-2642.9895,2990.656,19713.408203125
392,-3731.0625,1177.2316,-728.6731,-1504.5706,-493.8454,-1077.3529,5419.77880859375
393,17291.64,-2835.6292,6149.344,-1819.3369,-2457.1958,-718.7773,18291.72265625
394,7105.7363,-899.06903,-861.5881,3900.3757,2535.0898,1221.86,11540.1884765625
395,4548.8496,-2824.3035,1465.573,2418.9788,-369.75586,-1006.57654,7882.93310546875
396,-5981.916,7634.3467,2396.0132,-2026.9014,977.5849,1317.4086,12724.580078125
397,-3730.6404,5128.071,105.61031,1418.7601,2258.9219,1178.7328,9204.5859375
398,-10489.725,4979.2104,1038.4985,3240.957,-1184.1392,-2305.4407,15669.1318359375
399,6985.701,1064.6085,3916.2783,5345.4507,1397.3596,-266.93164,10867.3583984375
400,3219.0112,244.1186,1537.328,3922.2595,-1346.3754,2706.1975,8957.4697265625
401,4258.5376,10672.037,1879.9789,5054.58,2620.689,177.79494,12624.9990234375
402,-3046.6636,-3255.6064,2906.4595,-2590.3818,1099.0621,1045.3704,7984.962890625
403,-9415.995,-4323.0884,-1739.6454,-1928.6785,394.45724,-4033.4592,10305.419921875
404,-6961.9263,-1253.3063,-855.0797,-3302.5303,407.046,-3732.9685,10490.119140625
405,3505.5803,2035.7614,1415.1306,4396.8584,363.7078,2219.6763,8754.0048828125
406,7717.064,5042.6865,3178.3333,4232.9424,-2469.1733,-1303.7268,9631.046875
407,3577.5334,3473.8376,5080.2617,3087.6904,-809.10236,121.44068,5747.560546875
408,-4254.5938,-17101.184,-4545.7256,-6031.395,-3036.7173,1709.1272,17519.732421875
409,3120.0403,210.60083,-1991.1477,1265.0264,1065.091,2492.2422,6823.22021484375
410,-2342.5222,-5806.1167,-5511.029,-7697.0444,-613.801,-1695.5222,14090.763671875
411,3901.452,2520.3513,-805.44305,2964.5557,989.47125,-443.22656,6888.677734375
412,-315.0302,-301.65195,908.50793,4072.0273,-1542.9772,1151.5997,7895.94580078125
413,1665.9932,-6149.7026,-1140.6016,353.50916,-1685.0829,-5311.9487,11856.2392578125
414,4727.48,-1281.5038,-1611.0927,3190.731,343.31506,-406.9065,8342.0390625
415,1275.7626,-7479.82,1.8287716,440.0477,-1950.2235,-3733.0007,10996.63671875
416,-5077.05,-2303.4863,4475.742,-1681.6382,-633.82697,1402.4999,9383.1318359375
417,6276.9165,6580.2925,-125.54189,7605.2866,-879.3833,1874.1123,15146.083984375
418,4325.2866,3292.53,-2892.0647,5789.501,620.12,-441.18332,12165.341796875
419,782.19946,5249.1855,902.1004,6098.5913,-1005.7383,-1422.9983,11837.25
420,2800.823,-4019.4026,1931.4949,-2173.5332,-995.08887,-1053.676,7862.330078125
421,8348.68,4369.9766,-1410.5298,-7089.4863,-1148.6862,879.9186,15142.8828125
422,-1312.2301,-867.53094,-75.670074,-368.92587,-1473.1344,14.784249,2845.39794921875
423,-5789.6626,-3224.894,-2054.2944,-4444.3833,-101.77542,-1191.591,8631.28125
424,-4520.3047,4556.805,-2741.0337,-1055.6772,930.9124,-1788.0355,9216.478515625
425,-24327.346,-1240.0731,-4219.423,-8595.8,2336.7322,1769.9277,26843.171875
426,-3012.8562,-3449.0222,-3105.8188,-3373.812,1977.3235,1506.2498,7269.24658203125
427,-8708.212,8118.4263,2129.0115,-3107.5796,-909.05554,4000.6082,17253.75390625
428,-4561.1235,-596.81934,1859.8187,-1550.4388,3275.3801,-251.8521,8430.6494140625
429,1374.2185,6632.788,378.6361,-2663.738,-4190.499,218.43867,10391.802734375
430,-8581.687,1305.222,1986.8077,2562.7495,317.47757,3612.753,12810.7646484375
431,-342.51144,9532.507,-2716.8254,870.7368,-1543.662,-2249.9158,12296.720703125
432,-8470.477,5917.7173,2551.8518,1239.3853,-2734.313,-1374.9913,14234.8115234375
433,-776.13055,41.444607,686.9719,-357.7934,-1298.6608,-425.22208,2756.61938476563
434,4286.5425,3414.3818,1733.6077,3978.8584,-965.2007,-1349.0929,7797.46826171875
435,2693.2266,2191.354,3776.6252,3892.9949,-1088.6814,1111.5999,7395.82470703125
436,10385.602,815.0276,189.30249,2786.5452,-1214.8872,-41.988483,11211.7626953125
437,6042.7324,-1129.6403,-1478.3674,3670.2415,230.61815,1348.9752,10004.8251953125
438,6969.726,-7019.6826,-4768.921,-1729.1113,2277.5283,6746.136,18175.384765625
439,8202.306,-2195.3347,-3302.3218,327.07355,2083.393,-1528.8528,11882.8056640625
440,3776.8188,553.29083,-1931.6183,1294.2847,1079.0446,569.87427,5836.85546875
441,13285.267,-2491.0583,1182.8906,1395.2568,522.0941,882.0537,14608.9345703125
442,-258.78116,1139.9476,1040.4232,787.79346,-35.43189,-862.4734,2433.9970703125
443,-437.6407,2759.3394,192.40022,3828.1624,2178.282,-396.0087,8202.017578125
444,-947.33215,-4917.077,-1951.3013,-2077.997,464.9393,2106.0906,6300.0712890625
445,-3864.3655,-2297.3154,-1790.2789,-90.407616,235.72696,-3421.6487,6230.69384765625
446,-5839.574,3006.0051,-28.099815,-6660.635,-681.0272,-213.67773,13972.5517578125
447,-1316.3539,-2641.0125,957.4503,-3643.415,-794.8379,1213.8331,7488.37841796875
448,-1265.1858,1410.9559,-2592.3806,-866.19464,-1801.9719,-3720.7847,8124.029296875
449,-5609.8843,-3978.5093,-75.56845,-29.135109,212.8657,390.5615,4985.73876953125
450,-5802.567,-1159.2454,105.87812,-1096.8307,815.8576,228.7792,5899.0126953125
451,-8813.885,-2794.7026,-673.90076,-4245.0,2889.7588,903.8671,11621.400390625
452,-9181.854,-955.8203,-718.9291,-217.95738,-2235.974,-223.35164,9217.5556640625
453,-3259.3213,-537.8233,-1243.8392,449.82846,254.24622,1116.124,3243.72436523438
454,1130.0187,13841.342,2374.1448,-3572.2402,1864.816,-646.7015,14045.6787109375
455,-202.45358,3264.3193,3082.8828,-3569.318,1358.3705,1108.9965,7672.5263671875
456,-1793.656,644.0328,-2096.1047,4187.366,-4745.4355,1194.026,11454.595703125
457,-3055.981,-4818.758,-1227.9695,1268.5956,449.43518,-1242.808,4442.8681640625
458,-5500.7007,-3971.2214,-437.36606,-1224.8688,1730.2683,-722.3117,5939.69677734375
459,4314.6924,-718.9535,-783.19775,647.6249,-947.35614,-315.32532,5469.37841796875
460,734.75287,335.80475,-6072.69,-1976.5464,809.96985,-929.01715,7749.98095703125
461,36.249916,-1379.1946,-3203.6226,3226.8591,1065.9047,1985.7327,7374.9658203125
462,3231.273,-3405.3599,-370.2697,2116.0938,-552.29193,81.73503,6890.759765625
463,3275.951,-1865.924,-1686.9409,1579.4429,-260.82547,703.05035,5892.4912109375
464,-2700.7742,103.414635,2911.116,-3364.9426,713.6365,-2499.7534,8823.98046875
465,4747.8257,-1757.6986,180.63817,-471.74353,-1618.4644,-1228.6818,6820.84912109375
466,-1579.6711,6057.2197,679.38745,-1189.2592,-622.659,2359.7815,8263.4794921875
467,-3369.735,3994.058,-1514.4984,-409.20056,-118.45924,1813.7095,7376.91259765625
468,-2770.004,-2344.788,1160.8376,1699.8339,-2239.8025,-339.87024,6166.5107421875
469,-6150.1187,-2765.7014,-4008.0059,1204.9102,1251.3617,56.35424,4225.61181640625
470,135.47289,431.22333,641.6528,1440.4082,-1166.9946,-861.4,3567.90844726563
471,4569.5894,4075.566,3867.0435,-911.929,-6.9721866,-659.9269,2047.45104980469
472,-4780.9185,670.0775,255.65433,2682.3875,859.31903,-2009.7394,7971.4580078125
473,-3887.0176,4301.868,980.76807,-630.0714,3669.3184,-1690.5642,10052.26953125
474,-8162.497,-4973.5513,-2102.7065,-2870.4255,-3982.9849,-4236.6265,12398.5341796875
475,2558.7844,3293.7034,1539.1471,-868.989,98.59348,696.25104,2465.36010742188
476,2475.6228,-217.09862,2128.1042,-1394.7622,1511.6873,2539.2056,6202.4287109375
477,-1956.7126,1618.3412,-948.84827,-4080.0322,2208.4941,741.6353,8741.6259765625
478,-202.45876,-4664.669,-2576.1875,384.62756,-566.93823,1160.8995,4517.185546875
479,-2127.7458,-7665.798,-481.7138,232.32225,150.00629,-2830.869,8171.0546875
480,-71.11984,2440.612,1868.8517,144.55435,1747.7302,900.9811,4106.24755859375
481,2019.1614,4261.8564,-1022.393,-76.49009,-704.42883,-1566.8853,5474.81591796875
482,3858.6062,-1938.8826,602.08215,-1297.2604,600.6576,927.7916,5835.20166015625
483,3342.211,-5745.368,-918.8678,-1593.7805,225.1605,-1016.24133,8537.490234375
484,2847.0457,-843.04553,1149.1178,5873.397,-735.63904,-3193.4443,12080.66015625
485,-2133.8481,-2507.906,1281.7888,5298.3335,-2221.3457,-275.3353,10598.666015625
486,-1369.3018,-642.5565,-1891.7063,4601.945,352.79422,1635.1816,8550.3955078125
487,-6137.9937,-2564.4175,-644.54224,5142.179,-923.9331,175.28352,10261.400390625
488,-2296.534,-1014.12665,-1057.5707,-991.1099,-1100.255,-2147.72,4691.20703125
489,-1345.4182,-3753.6184,-2606.8938,-1646.0948,-3087.0674,-3393.049,8695.404296875
490,68.59263,-3567.7944,388.61407,-3356.0022,3620.7896,-1338.7859,9642.8779296875
491,-7818.6,-2334.9885,-2288.503,-27.384977,-819.56506,296.38205,5710.3330078125
492,-8475.079,-4210.313,-2411.7673,-1687.654,799.1552,-723.56903,6412.8388671875
493,-2000.4558,-3506.0544,2104.1384,-2508.4993,-3380.667,-1950.5696,9480.13671875
494,2547.0225,-1504.5898,1077.1105,2741.3716,-773.4274,-1930.0532,6938.00634765625
495,1446.5063,-6587.9683,-876.19226,3319.9077,-384.06775,-367.741,9230.365234375
496,3515.085,-1304.311,602.5903,686.3435,-218.69916,-1819.5126,5400.12109375
497,-3315.895,-285.3346,-1263.4519,599.8134,-332.7751,-371.51205,3000.39599609375
498,-5232.9814,586.93536,-319.99704,-86.94601,1422.0267,-353.0685,5989.89306640625
499,3803.3147,-4050.293,-239.42395,727.91205,961.7857,-1122.7292,7376.92578125
500,7762.9507,-4428.9307,-2109.8718,503.40952,3166.4011,-4117.5933,14403.076171875
501,1025.4,-3027.4941,567.255,1127.6783,458.6443,1754.2018,5334.486328125
502,-1162.5692,-1617.9785,3088.8567,4490.4805,73.71299,932.17163,9128.775390625
503,-7631.6016,1840.435,2969.5974,4158.3267,-1049.4183,472.23477,12551.408203125
504,-3567.5808,-3886.8423,-3417.553,-79.0484,105.41343,3102.2483,5394.09375
505,-4174.184,-647.40814,4285.987,233.45807,340.80634,153.24937,7399.859375
506,353.00333,1498.7203,1824.5024,-1517.3632,704.44293,851.1747,3515.88427734375
507,1824.9749,-2336.6797,1662.839,-1688.4303,-67.603386,-1238.162,5462.24658203125
508,-404.4298,-4970.8994,165.26375,-3692.0586,4901.2876,-1200.866,11877.1494140625
509,-1152.8807,-4428.161,321.04944,1642.2971,535.7345,-1236.736,5591.8212890625
510,629.9205,-1686.0784,-622.4032,1142.807,54.45702,815.8086,3155.20776367188
511,2145.872,-964.67224,1087.3501,1084.5629,411.34174,160.5053,3408.38623046875
512,-4078.9756,3885.4958,1929.9094,5710.8486,-957.3975,-734.7955,12405.357421875
513,-2480.6267,1597.2827,-321.74078,296.12155,1321.928,-1457.9949,4936.515625
514,-3864.717,80.508896,534.953,4366.2104,747.03796,-1897.9888,9340.068359375
515,-1852.3035,265.5053,-762.29865,503.60815,-9.771397,340.02502,2114.90063476563
516,3157.3665,-1201.8615,-67.85182,-1191.7377,2330.1125,274.02087,6009.9658203125
517,-1430.6163,-5140.174,-589.82336,-666.6219,-797.5385,-2505.5728,6297.7587890625
518,1426.3907,1437.9525,643.0822,-1390.5663,-422.3056,174.26505,2655.16796875
519,-2423.6943,-1694.6912,3268.8948,763.196,-699.3066,-1352.8163,6123.0654296875
520,-3404.9734,-554.0644,732.23865,84.272835,400.46948,-3244.7876,6748.16748046875
521,-2658.931,-481.56653,-756.1021,569.62177,87.06757,-1703.4478,3730.93481445313
522,-3607.9417,271.6724,40.48845,-987.4228,862.88043,1250.0887,4904.57080078125
523,1115.4333,-318.20734,-1883.5521,-730.1048,-67.3487,-847.15344,3242.76806640625
524,-4486.0947,-1298.0022,-1772.0922,-473.81842,949.7715,2614.6992,5724.23974609375
525,-2370.375,-233.29607,258.09097,-123.31616,721.31287,645.32684,2952.03955078125
526,-6761.694,-1614.1174,-18.707727,-1076.201,-611.73706,1885.7695,7247.14013671875
527,-6746.7227,-2703.6653,535.90027,-327.28033,565.6074,487.06952,6475.46337890625
528,-666.01514,-1844.1273,-487.7632,4921.275,-1734.848,-1798.6163,9644.724609375
529,-753.86414,1621.645,1752.981,5876.1646,1461.4171,-927.1306,10887.8896484375
530,-3957.0747,-5195.803,2366.7166,-2403.0454,-1035.4906,58.558258,8361.1689453125
531,-7003.3105,-4206.5073,-343.3097,1488.9536,-2072.1453,269.78983,7300.79931640625
532,-2157.0215,-3368.2039,-1160.3562,5390.8296,-2656.0498,-1135.9718,10765.021484375
533,1034.6244,-2724.346,840.2956,2475.5928,-701.74854,124.35704,5774.64892578125
534,632.0168,-1879.6016,487.0846,2090.5896,-527.5008,506.18695,4547.56640625
535,2127.1287,-1021.1027,276.3409,272.32788,-108.79816,-335.65964,2847.11596679688
536,278.46002,-903.0659,244.73279,352.71436,45.821278,-1085.3611,2295.83056640625
537,-1718.5669,4693.218,-27.289316,-500.84943,334.49268,-322.62155,5876.0322265625
538,-3213.6016,-2559.0806,723.7363,1626.33,-1085.7971,-1015.84814,5284.0810546875
539,-1167.1123,3071.2537,2765.9753,1513.8578,-704.77954,1485.9371,5634.93798828125
540,-596.16125,2264.159,2759.0894,348.18842,-418.69275,-1392.3992,4067.92211914063
541,1156.9845,2911.2405,-523.3145,-452.5471,272.00687,186.14183,3128.70581054688
542,-5156.1616,-1486.0852,979.0119,4145.968,1158.4872,-648.4325,9243.8125
543,-10529.241,-1591.1656,-1258.416,4159.775,-610.49054,-608.7509,11709.6142578125
544,2750.2998,-780.83295,-2741.9568,4027.01,751.90814,538.3972,8628.791015625
545,-6891.645,-2584.3896,-1524.5471,-3518.2249,159.4733,150.8385,7843.40478515625
546,3733.5383,-3052.6343,-1747.7139,171.2819,548.0969,267.9621,6332.787109375
547,2278.2712,-2740.16,-430.2521,-712.04034,-256.78687,-1754.3773,5466.31103515625
548,4144.776,-1866.1595,-76.40467,-2362.9695,509.13437,-892.25916,6963.71826171875
549,-5295.05,-3916.5925,-682.47095,-1020.10034,-3635.291,-349.56702,7742.8818359375
550,2990.6475,356.81482,1077.587,391.04483,-761.8098,-1566.9269,3888.93090820313
551,3344.4712,-1579.1157,-108.84735,187.59465,-664.8227,-1713.2389,5422.31591796875
552,-2860.2004,-123.45278,204.54771,7.238157,-176.78929,2963.4468,5910.58349609375
553,-50.60773,1351.4016,-199.10202,-1241.9772,-523.9596,496.81363,2896.11206054688
554,-5374.6714,-6286.3687,-2087.8848,-1628.54,490.31152,-129.27788,4833.0625
555,-330.37952,1371.4933,-878.5986,-2268.9536,821.5454,675.51404,4792.50830078125
556,1106.3917,845.4864,700.58044,-496.4824,-177.00568,319.35275,1125.30529785156
557,1934.198,0.8387183,142.22961,-1944.1178,-66.73724,-1965.0957,5140.1806640625
558,-1722.9604,1044.4122,-1066.5883,2036.0848,533.25464,1038.3342,4774.63818359375
559,-2075.3086,1893.3069,-187.96684,790.4721,1884.4302,612.4041,5047.2490234375
560,-565.8002,-5694.9536,-320.37802,3530.2803,1321.3953,-378.38467,8407.3583984375
561,-1966.3182,-4322.3936,-1502.3856,1109.6165,-2191.5745,-1459.5139,5599.345703125
562,1944.4021,-1563.0529,645.68195,296.5826,-880.202,127.079895,3474.23510742188
563,1074.969,-3663.337,-489.49915,231.21327,-1234.9666,-111.70004,4717.98828125
564,2977.952,1444.7279,686.1595,821.96796,474.1464,2085.9607,4454.693359375
565,-2175.266,2309.54,1606.1327,872.5184,-97.64758,2040.1923,5679.1943359375
566,2478.8516,-2057.1006,982.4249,1534.5294,-483.68286,-1179.8724,5288.5654296875
567,2592.2195,-2227.0334,399.78104,-922.9402,-604.09265,119.92705,4599.94091796875
568,2292.6216,347.9135,322.95367,-1046.187,-69.39486,1181.9108,3364.48510742188
569,1536.4232,3882.7175,809.65094,3663.4038,365.01205,593.6476,7032.57080078125
570,-1696.7921,3014.7505,-148.79907,873.1481,-760.1591,1090.8154,4989.16845703125
571,-453.47235,3382.256,-224.18675,-2705.2769,-461.08835,921.5197,6247.14990234375
572,602.5792,-235.3681,-825.53625,-3024.2288,-116.91159,1585.9841,6047.3056640625
573,-2239.7122,-991.55975,-1261.1292,3343.0676,-58.58873,-3439.4326,8385.80859375
574,3544.502,2943.1667,3125.1484,6039.8433,-254.93544,-807.5508,10577.1357421875
575,1542.2063,3763.2715,-1790.0444,5865.2593,937.07367,468.32248,11398.87109375
576,1320.441,-427.30942,-1602.1724,3016.0493,-1107.1409,-1341.9507,6546.58203125
577,2319.5518,-2302.411,996.7214,-676.6715,1555.4592,-423.52612,5115.51416015625
578,4109.716,-8773.66,1463.1027,782.9805,-6011.5093,-2684.4324,16454.818359375
579,7766.3535,-1954.8843,-1561.5588,144.54225,-3414.8,572.21484,11263.2626953125
