Element Label,S11,S22,S33,S12,S13,S23,Mises
1,14041.332,10466.364,13066.294,798.3302,4137.516,-11870.575,22050.990234375
2,-1881.0598,-4161.4814,-11674.063,-3117.6082,2934.8528,2670.6716,12456.6064453125
3,-13.638672,21225.92,6871.8486,4548.924,8680.455,7833.1504,28713.896484375
4,18536.46,21472.385,1499.1279,484.54343,6485.346,5969.142,24138.892578125
5,8052.425,24484.213,21689.557,-3368.4465,8311.03,-11472.545,29461.998046875
6,3656.8286,9861.126,2315.9329,-2205.0166,2397.892,-856.9753,9091.193359375
7,5733.759,3435.8916,-8018.2188,5711.403,-5452.053,3488.5664,19655.587890625
8,20199.021,28607.988,11795.795,3167.4114,2920.3677,2529.9133,16937.29296875
9,9168.3955,4592.541,-4042.235,-5662.4673,1211.7118,4684.321,17361.83203125
10,16350.859,19899.63,4533.1074,-5415.2266,1747.5048,-19403.318,37693.41015625
11,-4377.9214,1586.7332,-3881.379,2952.021,2045.524,149.652,8463.1513671875
12,21175.898,10081.994,-809.4053,-485.55325,-2762.446,-6882.5425,22983.34765625
13,4612.0933,2130.2664,-9748.564,-17216.807,-92.33055,4382.5366,33520.859375
14,16948.031,1790.2197,6764.776,-2492.7783,1834.1088,-325.77545,14427.548828125
15,-10214.291,-14944.901,-7332.048,11635.103,6348.579,5665.31,25838.888671875
16,9089.508,11230.573,24362.201,5078.723,-11005.072,3352.1606,26068.4765625
17,16776.293,10948.281,26694.379,-2204.505,12514.842,9230.209,30498.6953125
18,-13991.819,1666.1654,-5208.259,-4088.8208,13595.804,12223.607,35181.43359375
19,23176.502,24247.465,23606.352,214.69621,-349.0553,936.0841,2000.98522949219
20,59986.49,77316.94,87131.73,11165.284,-3029.56,47.121593,31117.541015625
21,32071.266,45930.43,65766.33,-6130.678,-9740.675,420.41516,35473.6015625
22,2841.8772,28103.469,34422.293,2904.45,8263.199,-1951.6201,32852.3125
23,16498.086,22328.572,43851.348,5071.8584,-12260.751,-3260.0295,34391.06640625
24,29990.254,25929.408,43570.938,-4096.6675,-13613.597,-3265.775,29906.662109375
25,-25276.523,-9728.742,-12234.911,10667.783,-7137.4,-6407.898,28748.30078125
26,10216.8545,-1239.6915,-3084.4268,-1369.1727,14741.662,-482.8376,28531.787109375
27,16919.637,39709.3,48213.67,3932.5415,1932.1635,-3957.3386,29834.22265625
28,-8936.205,3449.4744,-10474.157,3870.948,-9467.055,-1664.7272,22292.62109375
29,15171.377,11362.976,13681.714,10812.802,-5706.738,-10501.561,28113.140625
30,37950.727,28845.008,18881.186,12535.4795,-6681.405,-191.6057,29637.2734375
31,-44624.383,-22781.732,-34479.07,-11538.328,5021.617,-8394.579,32324.66796875
32,-11254.222,12630.584,2121.626,1792.4753,-9188.954,8600.369,30245.103515625
33,12022.095,28984.682,19918.82,3143.6675,-6278.7363,7683.8423,23263.244140625
34,-66199.35,-42456.027,-52713.156,-10242.681,-9765.494,-9777.197,36235.73828125
35,13718.149,14366.829,16262.526,1010.2979,-20336.105,-1101.1661,35392.30859375
36,-20062.389,-15389.15,-10611.113,10412.729,-15251.845,5094.6265,34175.93359375
37,14782.413,16252.258,41959.848,8083.7285,-9131.13,-6351.2397,35609.1875
38,-136.96553,-13749.565,-26393.564,-4925.5522,-12364.274,-2656.1611,32708.8046875
39,9583.328,2386.5603,11958.879,-3843.6763,-19269.264,5222.113,36257.12890625
40,998.1688,19286.742,11597.62,-2473.8416,-3893.6123,3874.137,19022.0546875
41,4756.2354,-6709.5996,3511.7444,-4193.578,-7352.741,-8679.082,23657.369140625
42,-6979.5205,-23863.75,8145.785,557.8326,6906.8384,8652.841,33732.66796875
43,118748.24,120635.22,119171.2,93.21562,18.384045,534.2573,1955.71801757813
44,2779.9858,1476.6511,2217.7468,174.96745,919.4523,-176.93295,2000.9853515625
45,167005.38,164312.23,156672.73,2695.6255,1592.0146,-9371.436,19469.55078125
46,36997.156,47014.633,44088.44,-2321.5017,-5573.769,16052.6455,31016.615234375
47,-43353.656,-58746.312,-56399.625,-2383.293,-4217.5063,-9649.705,23581.17578125
48,9609.702,-826.37805,35563.824,4344.492,3739.9436,3206.1428,34392.01953125
49,-15354.735,-6412.594,-17913.057,9974.286,9209.756,-12830.747,34002.734375
50,-142229.88,-136242.7,-170452.95,408.12564,3575.737,5461.888,33611.2890625
51,40836.695,53247.05,41077.47,-12406.206,7468.2896,-3631.6428,28630.7734375
52,-42628.848,-33461.953,-67378.375,-10111.014,-730.8407,933.14886,35133.45703125
53,5700.429,15626.286,504.61615,5302.539,842.9277,-9344.788,22924.8671875
54,-62235.62,-33540.53,-66541.234,-2729.326,2304.5332,-5204.8584,32940.07421875
55,-7958.685,-37036.203,-45575.07,4571.774,-5318.3755,-3216.753,36678.39453125
56,-8016.5386,-29892.084,180.22858,7077.762,12575.042,3284.826,37176.3984375
57,-56952.695,-32893.664,-28027.08,2115.0564,-601.04565,-7964.0977,30403.79296875
58,-6112.491,-5518.3477,-36969.633,1218.125,8016.4673,7442.009,36527.29296875
59,5035.843,5351.8936,4588.207,446.38232,815.4748,-568.4576,2000.9853515625
60,-6094.635,-6108.994,-7062.7256,1058.0028,1068.7045,-368.52222,2848.75927734375
61,19633.338,17613.412,24312.148,-1742.9554,-21220.77,-466.29547,37365.109375
62,25.672419,16848.656,24709.39,567.0441,-11041.814,372.55392,29054.96484375
63,9749.82,10325.717,12092.384,-3586.5198,10886.465,436.628,19979.41015625
64,-12374.906,-6122.7524,14282.836,7046.675,-7770.2603,9218.719,34177.6015625
65,12645.1,2642.6904,17995.809,1913.0977,16989.174,-5373.7695,33848.28515625
66,14923.398,-5832.3403,3206.798,-6463.9478,2289.6162,1162.6692,21680.013671875
67,-43970.66,-30092.176,-48599.312,-6157.923,15821.603,2478.421,34079.79296875
68,1415.2521,6182.219,-3659.9656,7694.5566,-7228.4443,13011.215,30247.646484375
69,9021.434,-5311.5693,-7966.048,1177.1992,3558.6797,-12984.395,28257.05859375
70,11581.336,9952.044,35693.77,1349.8267,-10434.129,2517.9893,31216.1875
71,82970.0,77756.62,84863.6,2938.4583,-19652.027,-9776.821,38883.234375
72,64483.96,44504.13,31800.406,-2401.3098,-2639.5664,1747.1503,29355.662109375
73,-76874.95,-89033.55,-104182.43,6228.824,9796.981,2019.5867,31274.314453125
74,111352.375,104102.24,132053.95,-1672.2966,-11367.041,10249.045,36638.1796875
75,-50988.758,-64456.066,-75639.32,468.73532,13220.917,-764.4971,31366.1015625
76,-21714.516,3877.432,-9321.261,3394.9897,6797.619,-519.88605,25795.048828125
77,-45341.11,-54268.586,-54550.207,-4205.471,6043.101,-19052.418,36522.4921875
78,179890.11,187018.19,192887.5,-9841.403,2016.203,8863.823,25798.296875
79,-46572.383,-45274.348,-44492.945,-2402.9739,1797.4475,1916.0723,6429.546875
80,-129758.79,-119896.836,-132166.42,7456.058,6480.8125,-11695.944,28809.12109375
81,-6425.011,-12303.305,3547.3113,-6628.2427,16136.535,858.13495,33283.5546875
82,2063.5369,-10636.074,-6127.043,11126.119,-3496.9028,12101.655,31172.990234375
83,20808.85,21681.326,46487.25,4108.4414,3494.2446,-8811.236,30950.259765625
84,31878.592,19928.143,25795.758,4908.066,11256.6045,1642.8633,23824.76171875
85,-25994.107,-47470.28,-21803.373,2879.0261,779.21,-12727.36,32885.16796875
86,13729.816,23406.209,23884.197,3754.548,2951.6946,-1672.4989,13240.294921875
87,-29539.8,-9068.903,-36680.84,-3415.9392,13382.103,9392.19,38119.8515625
88,14364.07,24944.81,446.58984,-3885.8982,7701.5483,1858.1815,26201.265625
89,1323.5609,4736.537,2537.53,-1539.4681,-2779.5005,7834.9185,14947.357421875
90,7404.8003,24590.129,2515.8467,-97.130066,1828.026,1912.7402,20598.171875
91,-12849.651,2573.4587,-12739.118,7598.2812,5503.084,12791.049,31481.201171875
92,-4815.919,1084.4784,-7475.709,-7508.6445,-4971.4014,1784.2664,17618.669921875
93,-2001.542,-4260.9224,-2217.2085,-2160.5786,73.71187,17045.92,29839.150390625
94,-11607.335,-20207.383,-19076.736,2805.2495,5638.0083,-650.0113,13629.1162109375
95,-20435.488,-13161.157,3283.971,-5515.535,5959.37,5749.5557,27202.265625
96,22836.604,28280.514,14831.584,113.4568,-16829.516,-7525.2773,34013.5390625
97,3472.2043,-5087.9736,9090.739,3011.868,4643.865,-5186.8784,18043.333984375
98,-15122.484,-7345.99,-21091.545,-2522.094,-11885.747,-5330.977,25897.40625
99,-6770.1885,-10765.514,12324.919,-784.4803,235.03163,-1923.0863,21679.10546875
100,-9998.0205,-19733.734,5281.4287,-6044.705,-10974.414,2013.0554,30985.28515625
101,7547.633,89.3605,-3757.653,-11966.392,1639.0433,6454.3584,25724.2421875
102,21352.855,-1953.6135,33178.2,-6014.3784,309.31552,1910.8092,32838.94140625
103,-18324.1,-17644.527,-14902.902,-2214.3496,-5501.893,8918.583,18814.55078125
104,-28290.723,-35492.934,-44472.83,804.5355,-12301.214,-3281.0842,26179.828125
105,-5949.396,-5229.0903,12470.743,172.49759,12218.188,3577.7634,28511.314453125
106,54382.67,30055.744,26033.414,-5558.669,-10529.75,-3463.7874,34163.5234375
107,-17104.36,-16948.406,3181.4849,2241.2795,-6938.7144,-3690.3186,24672.6328125
108,14921.969,-2880.3047,7414.5977,-7550.395,-14455.024,5078.5054,33389.75
109,-1881.9299,9165.655,-14882.639,93.30797,-10029.624,1387.5315,27244.7421875
110,25453.498,23993.053,-6046.61,701.52783,-7740.295,-1933.7651,33775.98046875
111,1900.3431,30678.309,16838.793,9195.1,-4579.5605,3264.412,31144.28125
112,16277.898,-3090.0166,13029.864,2158.1008,-11383.053,4776.285,28176.06640625
113,-17048.096,-17924.57,-20743.814,1610.4878,4001.3975,7500.22,15354.537109375
114,-30066.412,-17961.541,-2557.735,4556.2026,-10501.413,4805.4253,32135.005859375
115,-17518.592,-10233.481,-28558.576,15984.966,2191.5027,-9218.954,35934.86328125
116,61174.44,30761.121,62106.258,2381.4248,-6575.99,-3299.8518,33668.8203125
117,25030.824,5747.5107,-3203.548,6497.065,6024.1753,-1159.3916,29395.814453125
118,-10546.328,-2544.2173,-19.304688,9718.337,8215.666,1626.7194,24173.9921875
119,35237.13,20692.43,7883.5723,2311.284,9923.298,2405.0615,29844.775390625
120,2099.4202,-10617.73,-11418.421,-2997.5256,10493.899,8316.118,27154.083984375
121,48101.95,38340.9,27380.582,4602.5186,13403.326,-1737.8622,30560.568359375
122,-25075.982,-37243.586,-44322.82,-4365.3003,7165.953,4852.354,23794.109375
123,176019.48,157666.08,178158.72,37.07334,1792.0071,9878.745,26136.046875
124,107478.03,108990.516,107004.68,60.52563,194.14183,-466.28952,2000.98693847656
125,-22819.186,-20920.686,-31001.842,-1742.728,-6343.5703,5727.143,17729.337890625
126,13784.022,26336.314,42152.41,3911.183,12050.978,3974.6575,33692.74609375
127,31616.965,64428.79,43446.52,426.35394,1079.2502,-6971.1733,31276.76953125
128,41298.363,36229.504,60033.926,7971.181,-4928.4604,3314.2808,27715.0546875
129,-99335.49,-98549.484,-100653.37,284.43155,52.628338,347.60364,2000.98999023438
130,59510.22,59149.336,67241.92,106.75499,152.31424,419.23788,7958.06396484375
131,-132669.75,-131700.28,-135418.94,-8402.935,18254.168,-3107.2754,35377.96875
132,4880.393,-2692.0505,-4914.1733,-12370.555,3774.1084,-11035.741,30761.873046875
133,-15909.273,-43622.004,-27950.607,2221.5781,6653.1816,-7809.88,30164.123046875
134,28739.879,28834.521,36133.207,-12362.679,-6267.5474,17658.035,39569.46875
135,-7877.431,7027.5596,-10235.622,224.70804,17980.395,7394.263,37375.515625
136,47236.613,54505.453,82022.28,126.78112,-8566.623,-6146.4575,36654.7890625
137,37994.176,28329.664,15663.178,-5896.459,8788.553,3582.0002,27400.19921875
138,19350.834,29993.322,625.4613,-11743.899,-814.6075,7712.697,35459.72265625
139,-18859.627,-39037.15,-49126.09,-9877.233,-1606.0195,-5205.209,33078.5234375
140,-39180.707,-21959.867,-8367.891,-251.3553,-4800.002,2197.8079,28269.505859375
141,30700.064,30283.664,29037.717,-337.07202,-385.39163,569.4796,2000.98486328125
142,29582.203,31062.572,29348.979,66.06906,451.946,-512.16187,2000.98364257813
143,4076.2866,-14646.225,-30630.357,-5418.761,5360.159,992.36456,32901.75
144,25908.305,6326.3584,-7673.1777,1729.8618,7936.2817,919.10583,32466.029296875
145,5381.2734,-7421.8228,18883.668,6090.044,-5740.5835,-9486.511,31610.392578125
146,-15818.735,10548.3125,14446.804,-3135.861,-2013.9332,610.16046,29257.421875
147,28134.766,11294.635,42311.453,-6590.9883,-7180.48,-3109.098,32207.2421875
148,-21385.87,7926.148,3833.5205,-4978.793,-1144.2612,-3326.055,29452.705078125
149,1396.6514,6737.659,12421.315,2633.817,11804.742,-1768.0778,23225.671875
150,39433.516,34192.684,39612.66,-199.96666,-6655.0977,21268.797,38968.109375
151,-26880.918,-11496.616,-19888.023,-440.94525,13329.14,-7753.9634,29865.5234375
152,-53099.043,-45631.914,-46555.445,1196.1799,-11584.663,-12897.484,30913.68359375
153,45028.418,13557.974,37970.008,-1097.958,-3013.3699,9068.401,33100.515625
154,34928.54,36690.58,50156.54,12341.544,-1087.3043,-3792.397,26679.5625
155,41547.492,23770.568,45433.29,-2488.198,-3155.9739,116.45313,21182.31640625
156,2580.4668,5673.81,-5298.2104,3723.871,5428.181,2783.6836,15787.8935546875
157,-4910.4316,-6011.9634,6551.1304,11892.812,-2740.2231,-833.17365,24374.8203125
158,45816.465,60174.3,76440.734,-161.9871,11593.616,958.47125,33322.1484375
159,13532.729,21076.264,40665.92,2728.8386,13076.68,1134.7135,33580.29296875
160,-1279.4769,20.376785,-15992.937,3281.3657,-18295.264,1057.3948,35736.63671875
161,23946.105,28872.549,45432.918,-533.979,14631.031,3275.5322,32486.048828125
162,-4318.8564,-7943.29,-18282.389,-3252.6938,-7868.405,-5047.1206,21246.236328125
163,-22388.072,-15588.925,-7189.4395,16982.326,-309.40656,6454.0244,34122.39453125
164,-53936.918,-63493.773,-39236.33,-2932.3235,7755.5664,4487.7646,26731.896484375
165,17710.928,24486.863,9521.897,2614.0786,-17621.324,-10020.517,37705.80078125
166,13188.615,29077.504,17474.797,12670.411,-8726.962,-9165.37,34129.6796875
167,-20586.246,-13225.469,-19346.95,-3632.135,-3918.5913,12942.549,25194.576171875
168,84785.12,78299.41,106594.52,-6347.8774,5887.284,10902.627,35222.62109375
169,89416.57,71319.56,93322.64,5842.77,-9287.243,13115.842,35926.25390625
170,20948.44,5068.6123,26258.2,-5128.031,-1332.3406,11138.222,28654.421875
171,45677.816,38550.965,51620.715,2344.6729,11774.996,15869.356,36282.47265625
172,-4130.187,-17158.54,-10003.063,-10555.155,5962.104,5501.404,25678.494140625
173,26633.693,35073.312,29202.055,10869.082,-5568.468,16061.742,35742.421875
174,-55990.844,-74900.19,-43663.16,8250.104,-2561.241,437.52332,31098.07421875
175,-13397.254,8555.49,-13644.128,-7891.0835,-10250.908,83.45325,31455.92578125
176,-33161.89,-31925.092,-49876.06,2770.1382,5904.129,18739.082,38504.828125
177,23496.111,13247.318,18313.012,8798.66,16348.8125,-2712.9185,33689.1953125
178,34981.99,47263.664,19709.572,-679.06274,-1372.2542,-11635.492,31382.220703125
179,10734.211,19861.602,19943.098,-6758.666,-249.68037,15117.958,30115.5
180,-5395.5283,10489.923,-14745.508,-11792.673,4860.029,-4659.703,32272.24609375
181,7767.502,32894.555,17519.18,2841.5266,-490.79776,-12615.609,31366.212890625
182,-704.73456,-3660.0227,-24061.672,-7592.09,7823.5947,7343.4004,31679.263671875
183,-36858.67,-17837.404,-11033.234,-7595.636,-13086.91,5344.2114,36195.21875
184,19624.295,13889.704,39873.137,6644.0986,-3601.0078,3730.9702,27786.943359375
185,-7514.8745,-12579.925,3325.5342,9215.575,-16116.803,-4927.952,36124.296875
186,-21717.021,-35184.906,-55659.85,-6138.035,1117.7477,3065.5806,31958.244140625
187,-2029.6859,-10871.744,2680.5798,3028.9333,11487.213,-11565.763,31091.9453125
188,-16425.844,-25603.652,1383.5061,-9459.545,-5173.923,-6102.4014,32020.794921875
189,173.57121,2112.7861,-3597.2947,12148.04,-5269.828,-13894.311,33622.69921875
190,37785.984,45389.62,66084.19,9535.03,-4763.68,-11401.61,37070.91796875
191,-13794459.0,-13794441.0,-13796361.0,20.763144,275.10413,-200.25536,2000.20275878906
192,115708.945,104103.25,114402.38,8464.058,12573.516,13607.264,36958.2109375
193,-32402.26,-3886.3179,-6941.5615,8547.772,2498.3562,1932.4786,31376.619140625
194,22070.986,28453.531,21259.012,4548.923,13966.642,-4777.8945,27610.556640625
195,79223.516,86137.11,90015.28,-10478.098,10168.341,1196.731,27083.2734375
196,-42922.977,-58118.273,-83908.52,-1315.5616,3520.4766,-3091.6892,36864.2578125
197,3063.2188,13586.391,-4787.7925,3725.1958,-1268.1614,12079.682,27188.328125
198,-7523.0415,-4201.897,-17904.908,7650.749,-15345.351,1480.532,32278.630859375
199,-60878.586,-55862.48,-44671.81,-5860.634,6536.1313,143.15283,20923.47265625
200,-11609.189,-19925.023,-35824.965,1952.3374,1315.4822,-4772.4,23219.30859375
201,23540.277,5725.1313,12796.127,8133.6,-15214.235,-927.945,33717.59375
202,-22421.922,-27776.01,6755.7354,-10604.788,-7184.863,3364.0923,39527.515625
203,-30845.012,-25582.32,-27427.832,-4155.7803,-13891.049,-3167.5168,26118.65625
204,25017.092,20719.832,29051.03,116.31179,13903.573,17501.625,39382.26953125
205,11596.427,49510.4,38445.254,977.7181,4935.027,520.81494,34887.36328125
206,10207.547,-5185.1304,-16706.578,1683.3588,-3413.3228,341.4161,24306.939453125
207,814.47394,-1769.6104,-38671.08,-2155.596,844.76434,-2977.962,38812.85546875
208,-6152.7524,-23324.52,-32089.84,-2090.0383,-1969.045,-3832.139,24310.66796875
209,51763.43,38860.594,72945.23,-5279.897,12702.708,315.6312,38163.6484375
210,-26496.727,-12304.649,-31075.367,-4150.047,-601.2977,5653.88,20880.896484375
211,-100199.83,-95036.766,-130648.664,2989.746,-1127.8458,2133.748,33989.53515625
212,-28028.422,-14750.523,-13999.325,12272.418,3026.9414,-6297.406,28020.296875
213,78628.85,77081.66,94179.03,8809.433,-10803.973,9380.174,33394.91015625
214,-72011.42,-59122.832,-101453.945,-3084.6086,-4221.9883,-3402.3186,39104.9609375
215,48368.77,32416.328,65219.863,-1376.8103,-15725.45,3062.8325,39786.36328125
216,-2675.3398,-37934.598,-10917.826,4311.7085,-2713.7188,10703.18,37974.58984375
217,-11211.728,-9300.752,-7606.4736,-3381.7173,1294.5487,1083.0144,7253.5849609375
218,-2488.738,-17199.904,-17110.783,-5336.5254,1083.863,17052.23,34298.84375
219,17957.203,33681.33,20425.33,4007.9604,10446.038,7102.0396,27228.623046875
220,7876.9253,12003.679,8962.067,492.5001,-10754.245,12659.25,29020.482421875
221,-2853.7024,-8503.934,8667.168,-8218.671,-9178.96,2472.3577,26523.35546875
222,32371.422,23310.303,34900.73,643.8576,-209.2259,14950.325,27988.056640625
223,6214.564,17363.037,17581.25,7852.6,5873.272,5987.5186,22864.73046875
224,-8174.6963,-8078.4907,-6429.302,87.472755,4743.911,16340.851,29521.09375
225,14310.296,5847.2227,13979.506,-9350.584,9950.913,5577.5786,26863.060546875
226,19529.227,-3896.7917,20119.383,-6870.917,-1139.8391,-9664.327,31443.212890625
227,9283.015,8876.278,14315.528,5092.2026,-5467.887,7937.9644,19597.380859375
228,10686.752,9937.182,-7777.258,-2131.7905,-7634.4277,-16951.078,37123.3828125
229,10228.799,12729.163,12242.364,-3199.402,9814.445,9870.827,24844.51171875
230,6005.2583,21686.602,5019.769,-9909.394,1382.6583,-2562.0059,24131.81640625
231,-15349.751,-10711.765,-20025.848,4013.1345,-15677.057,4876.204,30364.826171875
232,-20187.537,-9363.196,-2633.6128,-13066.142,5453.293,1621.1183,29061.458984375
233,-16651.525,-29497.299,-2912.8054,6578.7437,951.73004,-8485.129,29644.5625
234,-18629.01,-19710.775,-15497.077,-3689.3687,-4532.364,-11321.138,22390.466796875
235,-68184.555,-83237.12,-71879.81,2976.8235,-1828.9072,8370.967,20771.37109375
236,33534.277,8621.531,42217.85,7207.569,-7598.231,-1589.9606,35341.35546875
237,18648.473,52472.074,47584.875,1391.3077,-6929.2876,7836.708,36561.07421875
238,19136.7,2172.4795,13091.546,14458.115,-12931.758,5011.103,37761.265625
239,-6242.1606,-3326.6367,2965.2334,13727.87,523.5024,-11291.17,31860.4609375
240,-5116.7915,1496.0846,-6398.245,-10114.653,7722.642,5881.036,25366.166015625
241,-29580.344,-35819.777,-58766.49,1899.9161,-6598.3047,-8392.437,32579.09375
242,-38850.234,-4547.716,-21866.68,-10047.852,-3220.2297,3903.04,35527.6484375
243,55769.78,50284.543,73938.16,585.97064,-8069.232,10854.562,31775.26953125
244,85531.71,53494.12,87075.41,-6153.62,7046.496,-8712.497,39604.66796875
245,-137174.97,-110200.62,-114026.336,9524.318,-8490.14,-3373.8748,34082.10546875
246,-49450.3,-56451.86,-69462.484,10393.319,11913.753,-7741.19,35200.09375
247,-30147.547,-7905.246,-43789.402,-3013.7847,11378.857,6105.091,38881.1875
248,-67266.695,-72431.76,-59060.82,-7851.947,2186.8428,-9559.071,24694.76953125
249,149458.7,174088.53,160944.62,-5793.282,15575.305,4357.049,36620.578125
250,13665.628,16125.543,19844.059,-3275.0945,13591.995,15156.357,36118.9296875
251,31313.674,37328.996,53666.957,-5772.62,13161.842,-10609.392,36861.09765625
252,-1713.536,16201.441,11816.323,8956.711,15261.791,-891.5597,34690.57421875
253,47906.582,62949.844,59845.082,-1631.0182,11206.004,5654.9175,25881.88671875
254,-231540.8,-229219.03,-242314.45,-10465.485,-11644.907,-1607.0769,29826.416015625
255,-197008.92,-213019.95,-213871.08,-10965.74,-3166.2288,6091.8286,27800.2421875
256,60878.07,59455.336,66971.0,-7279.849,3115.7961,9439.6875,22433.298828125
257,78036.23,87376.93,55624.957,4462.8745,-7105.6255,10126.416,36300.20703125
258,-1347702.2,-1348157.0,-1349335.8,-45.469677,49.372154,-787.02185,2001.00256347656
259,-93724344.0,-93724984.0,-93725030.0,-39.96075,-131.57834,-1080.8513,2001.0498046875
260,2213.6614,1876.6261,185.92458,-333.08954,-170.58371,-118.19516,2000.98559570313
261,-81414.8,-81664.67,-82937.734,-422.65143,690.8256,-108.10718,2000.97888183594
262,-74282.87,-74945.375,-79233.195,2683.3,1636.665,-5026.9097,11274.34375
263,90276.305,78220.836,71225.016,-5638.1294,8046.6753,-5925.0166,25952.720703125
264,-29597.277,-10159.572,-13498.2705,12066.51,-8984.763,10076.133,36161.3046875
265,52206.21,48713.203,21449.893,-3302.172,3216.413,-4740.3887,31335.01171875
266,6310.3467,19599.625,-203.11269,4933.2544,4789.112,14114.851,32327.9140625
267,-55243.535,-33037.793,-16223.527,3013.4827,5501.6836,-5510.896,36855.75390625
268,-152827.95,-172091.06,-193312.77,1359.7341,-213.9888,-5330.899,36347.8125
269,-69322.57,-72753.086,-102366.63,-2008.4019,4362.537,11398.369,38069.4765625
270,-67043.87,-40993.914,-24603.21,7142.4087,-1754.2794,-4738.5522,40048.32421875
271,-84095.91,-93065.734,-124337.68,-4787.2173,-4404.525,-5890.475,39622.484375
272,-21302.398,-2503.3962,-29184.668,2497.395,5960.1724,-16901.02,39318.2734375
273,8198.682,37569.176,31107.316,7667.745,11731.236,-3520.532,36620.00390625
274,2453.328,29392.242,43778.83,6526.635,-1304.7915,-5117.784,39137.0859375
275,-2224.2646,13293.704,40608.49,37.126305,-5758.327,-3660.1648,39375.6796875
276,20275.037,42843.4,43451.367,-2192.5388,599.4189,10080.511,29047.73828125
277,-12740.281,-12275.095,-32022.867,13641.001,7360.162,5153.7817,34372.01953125
278,8487.657,-12364.267,-21247.205,8949.564,13601.024,852.11395,38682.8359375
279,5060.6636,4842.8066,23785.846,4115.1895,-4241.1416,-1488.1077,21590.9453125
280,45245.734,22180.803,62020.26,8379.592,5221.012,4477.661,39406.30859375
281,-185686.77,-204505.69,-229320.58,-6128.609,706.1328,-31.0343,39383.98828125
282,53800.18,17789.486,43646.867,-1178.0193,-1475.9225,-8887.683,35803.671875
283,23898.35,39338.484,7515.2905,-9252.712,1181.6803,4315.104,32812.29296875
284,-82998.12,-109988.99,-111998.195,8091.253,-6214.854,-11569.271,38737.5390625
285,11221.962,15396.099,16223.486,4596.4375,-4360.527,-18992.209,34987.109375
286,-10373.49,-1707.5443,-17718.229,1764.1653,-3275.0266,-19828.418,37599.27734375
287,4366.089,-8503.244,10633.499,-3529.0469,-10687.668,-7349.1743,28768.55859375
288,-27993.44,-18119.447,-10300.038,15885.457,4452.6816,10920.723,37552.05078125
289,-45517.99,-4941.6035,-36471.65,-4073.6099,-2558.8496,700.397,37843.21875
290,61386.94,56109.027,90368.266,641.7618,5366.2085,8912.535,36696.84375
291,15262.894,30144.357,15120.111,11698.483,-10622.038,-4174.403,32014.4765625
292,-22354.393,-6744.789,-4905.25,3020.3093,-19824.688,1975.2385,38650.80078125
293,-50288.44,-38841.84,-74450.62,-1602.2766,-9326.81,-8482.7295,38418.09765625
294,-7156.867,-23703.62,-28320.898,-3653.806,-501.18106,-3939.43,21421.416015625
295,-2763.7031,-14958.475,-14656.146,9477.791,-7820.6704,-2170.9358,24743.28515625
296,-12935.982,2430.5566,-18832.568,16671.354,2812.4307,-4239.3276,35678.52734375
297,-54630.84,-42819.574,-78225.63,-5201.58,7505.6177,-2277.1606,35222.62109375
298,-71677.266,-38693.29,-46098.27,11193.387,2287.228,-444.08414,35926.20703125
299,-18385.922,-18561.146,-12239.876,-3036.3816,-1727.8007,14218.64,26115.232421875
300,19104.748,7417.91,37264.61,-7165.0977,-10434.168,554.72437,34060.95703125
301,-24902.71,-19116.182,-9707.183,-11747.939,12472.898,-5509.4014,33886.29296875
302,855.8466,-1927.52,20249.803,-4124.857,470.21338,5386.957,24012.865234375
303,-32575.564,-33287.664,-52581.387,-4305.516,12152.808,592.3495,29769.634765625
304,27503.752,53092.77,36330.63,-7777.098,-14333.722,-3757.0962,36701.55859375
305,52413.547,61001.547,83177.57,-15483.109,-217.30376,-3889.3555,38995.90234375
306,250567.25,257092.38,286280.3,-1966.5197,-7597.8794,-1892.2415,35784.0
307,14710.52,11876.5625,-13409.13,-9283.188,4344.8496,-8029.68,35037.828125
308,-42286.004,-59498.062,-77088.2,-2357.722,-10479.796,-3025.5383,35805.68359375
309,41455.62,43060.105,41318.953,405.60703,-482.1007,16.332033,2000.98583984375
310,18243.965,-7154.953,18031.656,7922.431,-4882.5225,3809.435,30710.013671875
311,-1459.9594,8264.915,29612.027,-2865.0527,-3887.6956,-5241.086,30170.271484375
312,107253.53,125488.266,139955.39,10322.808,-554.0562,3970.0771,34256.30078125
313,-74731.305,-85308.11,-104238.72,-13382.358,-5322.5493,5503.496,37196.48828125
314,-26448162.0,-26448224.0,-26450032.0,41.20472,202.96329,-403.3245,2000.37280273438
315,17513.46,30876.328,37173.375,7591.766,12344.644,153.17178,30537.048828125
316,87383.1,66820.766,99241.695,-9906.498,8111.078,2149.6707,36234.30078125
317,-51576.89,-72173.336,-67677.93,-14563.203,-2506.8025,7758.7925,34460.734375
318,8249.676,8511.093,-19858.766,-8231.388,-3515.2312,-3002.828,32632.642578125
319,1171.0114,-1789.2977,21134.479,-14396.398,-2138.8303,5905.38,34734.91796875
320,1619.115,-12177.615,14348.139,-5279.5825,-6333.285,-1374.0051,27159.048828125
321,6397.4556,19589.963,23682.537,-6138.877,8831.603,2611.6477,24744.572265625
322,-18414.285,-35341.31,-11983.1,2729.229,-5407.76,10353.767,29469.0390625
323,24100.42,23638.752,-4643.344,-11528.239,4766.751,-4209.9653,36512.80859375
324,44202.387,28668.986,37246.168,4621.2573,15562.106,9512.181,35265.734375
325,2676.8296,8598.34,21214.209,1614.996,-8879.013,445.04626,22668.455078125
326,4864.24,2908.337,4085.6165,-414.61523,186.3232,-397.98517,2000.9853515625
327,3866.011,29918.414,18842.2,-1815.2196,1911.0507,12763.881,31975.609375
328,-23563.893,6828.3965,-16124.718,-10962.665,3492.4746,7489.412,36309.01953125
329,138820.05,151835.7,167466.31,-3156.171,-5821.2886,-8758.759,31286.73828125
330,-25744.887,-17592.547,880.19604,12618.281,-9512.621,-2885.9333,36502.296875
331,-184015.1,-177380.86,-206613.84,-865.475,-3811.9775,-10868.721,33239.5859375
332,-16554.006,-18131.389,-36561.973,17489.762,1917.7849,50.306213,36055.00390625
333,28750.494,8545.932,25757.887,585.63306,18106.723,5520.985,37851.66796875
334,65559.84,70725.67,90646.98,9946.914,-1408.3711,-13970.082,37612.73046875
335,102226.9,91720.445,111887.69,-10662.217,-4844.841,2750.71,27191.583984375
336,145774.9,157337.02,137721.53,6141.8867,7683.968,-621.2645,24147.66015625
337,-142833.22,-161267.19,-145813.34,493.1966,-2186.0654,-428.57773,17589.037109375
338,23935.201,20248.074,5988.7837,1532.4071,-4988.522,2303.1616,19160.18359375
339,22643.6,3162.3848,17558.633,20187.05,5042.14,953.1787,40098.12109375
340,1966.807,-12958.239,21390.107,11191.222,1961.3384,-8550.911,38685.14453125
341,-30217.611,-4467.8394,-21562.578,4131.6406,-5034.4355,10975.403,31681.56640625
342,-21447.598,-2715.3699,-30626.166,-3879.203,10197.343,-2515.2373,31355.36328125
343,2530.7532,1386.3196,2754.3047,-878.2441,-78.66236,136.50116,2000.9853515625
344,40632.016,48135.953,57732.22,1987.2607,8054.789,-13870.702,31687.265625
345,34375.11,27291.479,19599.107,4103.1426,504.79068,6762.759,18770.10546875
346,33264.99,25803.21,9286.438,11532.877,-4310.009,-4027.907,30905.48046875
347,131453.5,133204.73,157430.5,7904.671,14897.224,3571.837,39036.9921875
348,148781.2,160007.45,150568.83,-19496.703,3608.049,9662.711,39606.54296875
349,15994.474,14326.17,32505.262,7428.447,-14157.472,9160.106,36352.50390625
350,-7587.9067,-9292.5,-21160.871,-8090.495,-8511.698,3864.3362,24950.134765625
351,18615.426,19048.613,84.89746,994.8564,-11893.701,3632.05,28609.79296875
352,28511.324,9832.145,-6832.686,-5553.0166,-8867.917,-5054.4854,36646.76171875
353,19578.041,32539.31,45048.965,-5338.4814,-2364.8804,-17846.25,39298.4609375
354,17658.316,-14110.881,19703.996,13073.459,-2550.6736,-503.5174,40143.25390625
355,1920.7749,-7970.77,23216.824,7796.398,4245.35,-7529.0796,34183.28125
356,-9630.639,4671.91,22411.254,180.7621,-3314.8674,9407.74,32734.4609375
357,56611.598,66473.89,79873.914,-13223.393,-9565.597,-2503.3123,35026.5078125
358,-47379.406,-24068.254,-9631.542,7543.365,-8345.996,-5639.3755,39540.44140625
359,-61221.965,-69173.77,-99676.65,-2608.443,-8681.692,1178.1896,38560.359375
360,-3675.9456,-22791.898,-12863.417,1183.7749,-7306.5923,-6905.015,24116.4375
361,-7622.678,-10104.283,-22001.738,-1736.3555,-2030.8062,-3493.838,15338.533203125
362,9045.475,16024.256,23619.182,98.62802,811.6566,254.84854,12711.8056640625
363,387259.06,389376.53,424211.78,-501.4393,239.55542,1764.3567,36083.32421875
364,-6537.052,-11144.958,5351.38,-2714.3945,-904.43787,-1214.185,15694.8701171875
365,485067.5,493404.2,453872.47,2758.8777,2772.3691,2844.642,37052.1484375
366,24240.5,25643.426,48024.566,448.9399,2273.5674,-2930.4146,24003.263671875
367,9506.769,-4161.3257,-31247.27,-2479.477,2530.4978,4253.754,37183.53515625
368,-18680.564,-8005.615,-30826.762,-3030.6177,-8192.372,2808.111,25371.2421875
369,-25407.744,-26439.023,-29515.553,-371.422,674.61035,2523.8977,5881.38330078125
370,-34085.184,-28478.074,3718.3223,-3416.5986,-2587.8208,-6654.941,37901.859375
371,9172.6455,12435.985,-16651.078,-54.838387,1187.1929,10398.544,33021.38671875
372,65889.44,63861.375,98543.42,3541.0674,-2639.2363,-10469.729,39038.18359375
373,-6703.9873,-17877.72,-8124.994,-5128.9326,-450.9478,1436.8882,14025.529296875
374,-2544.9133,5015.971,3729.9854,5036.0356,2672.3132,-267.25424,12116.953125
375,873.72614,3133.9202,1506.592,2960.699,-3134.2664,237.3154,7746.97607421875
376,7882.02,742.4532,-10303.86,-6634.803,-430.67807,621.0068,19637.60546875
377,-118946.445,-116936.55,-134459.77,3217.376,5494.1084,10600.791,27103.939453125
378,-239426.0,-244079.62,-281218.56,-984.6284,653.13995,2290.6804,39921.390625
379,102768.67,103500.84,140889.67,524.23236,468.70746,-197.01895,37781.41796875
380,15026.917,24872.271,41110.855,3798.6733,-490.6487,-957.9894,23817.271484375
381,-1458.3373,-2232.668,-39040.57,66.37533,-2156.4438,5101.5713,38418.28515625
382,295551.44,281639.12,254889.98,-1415.9103,-239.9774,8413.899,38726.98828125
383,120892.055,136776.08,106130.85,-5420.966,10711.519,8361.894,36698.73046875
384,-126768.09,-118642.516,-98508.05,-1379.149,-3382.5215,-8688.712,30025.6171875
385,78610.59,76983.086,41271.645,-4925.2188,577.22266,5670.1987,38811.1171875
386,15687.658,11429.237,18515.674,-296.7832,1252.7206,-2292.0261,7675.0908203125
387,3621.0103,3392.1294,7352.6006,5937.139,526.8599,-2409.2405,11782.451171875
388,1573.696,-628.2388,14878.791,14580.679,-3778.6797,3909.8345,30621.15625
389,-1043.0436,230.89038,-8326.432,-493.21664,195.53734,1946.0768,8726.7021484375
390,-25637.29,-25634.879,-28575.973,-4681.7134,1313.2401,-7356.1094,15553.427734375
391,11502.443,6030.8555,25979.176,-1308.444,2503.1082,6297.269,21485.443359375
392,33848.188,22638.535,59461.688,522.00183,-1927.0416,-3534.0588,33440.2890625
393,-6032.8135,-5881.4805,-13406.111,-905.1165,-608.8573,-596.7982,7755.1650390625
394,28643.256,29286.404,56773.098,-3690.5273,221.01001,-743.59393,28570.533203125
395,12981.754,20590.5,27766.846,-3401.9238,4468.7817,-41.43515,16081.9892578125
396,24330.959,17622.04,6447.6836,1633.7335,-105.37712,2685.8706,16568.82421875
397,-24053.273,-23620.229,-41299.63,1598.7573,-2837.6836,4465.605,19918.41015625
398,-12679.862,-11967.885,-18021.62,-3966.6155,-1973.8778,3472.4363,11309.669921875
399,-33262.35,-30516.414,-59554.695,4178.3135,3611.8972,-5628.697,30944.849609375
400,-259030.1,-270341.56,-269482.75,3169.2622,6445.16,2386.4954,17053.1953125
401,37746.523,38484.83,77582.484,-3275.571,155.53949,-408.00845,39884.80859375
402,-217404.03,-212437.56,-243769.34,-7193.402,-5870.591,-6363.3066,35083.32421875
403,-346331.8,-360962.8,-320772.03,-6148.72,6408.6675,-3696.695,38973.88671875
404,70927.07,69051.06,73246.44,3379.279,-6265.419,-1431.1421,13092.728515625
405,344178.03,364802.53,376315.22,7110.2163,-1970.627,-3202.1406,31455.240234375
406,-17876.049,-15813.91,-29566.324,963.7284,4140.426,3733.0132,16156.849609375
407,-25467.727,-18450.639,-8368.166,11906.017,1555.7902,2953.7324,26083.330078125
408,-36951.043,-29689.102,-48677.56,-752.9673,-2032.1149,-3887.7124,18298.5390625
409,-32146.812,-26908.87,-60572.074,-2554.3264,249.71909,2583.6504,32001.6875
410,-4923.49,5707.7573,24265.727,-3607.9817,2397.4246,-3514.803,27350.92578125
411,15925.856,14399.049,32263.338,-5456.1,1237.6421,1826.6735,19952.47265625
412,-4746.6797,6794.0806,2430.2087,3866.5962,471.4972,655.065,12193.2802734375
413,-33176.957,-18959.482,-37509.34,3959.0002,1173.4017,2578.4868,18804.23046875
414,398485.88,398067.38,434074.94,-2692.054,-4990.594,-523.4995,37133.9765625
415,-41499.9,-23387.602,-41485.7,2077.4966,-2700.339,3894.9617,20202.326171875
416,-7370811.0,-7371193.0,-7379887.5,-25.825771,431.8218,-1612.9585,9350.287109375
417,-66543.8,-69618.3,-103623.83,-4775.519,-1867.5596,4358.979,37500.14453125
418,-13748.248,-3865.2207,26600.705,-992.5501,1299.7407,-4401.8447,37324.18359375
419,-77230.05,-67406.375,-111124.5,1716.9539,-208.52293,2298.4324,40039.09375
420,104721.61,98905.57,139606.44,-326.40417,2096.8708,-1741.5652,38422.3671875
421,-5305444.5,-5305390.0,-5314105.5,-140.2389,528.46484,-855.4399,8864.5400390625
422,-41171.562,-42914.86,-78779.664,372.6568,-243.36275,693.3494,36795.14453125
423,-81387.55,-74150.09,-38625.49,2986.6428,158.08327,1538.0936,40067.671875
424,-4312692.5,-4312243.5,-4324538.5,74.70915,1749.6174,-1293.4255,12651.7685546875
425,20941.324,19516.768,47997.668,-3580.3696,3551.1697,-4230.5493,30043.3125
426,361866.88,364871.75,402759.16,3436.6428,-1540.2065,1132.3204,40059.03515625
427,38713.754,26965.521,71512.6,-1167.8701,261.33325,1635.1805,40142.64453125
428,2105.1475,7321.118,23320.22,4736.554,-3752.4932,7136.425,25079.126953125
429,3951.4387,-262.26538,1086.5884,-2967.105,-4291.701,-677.6939,9845.6123046875
430,-9423.519,-6674.505,-2775.0637,-3747.7273,-3188.226,-119.09388,10303.185546875
431,-36452.367,-39573.582,-72860.42,3808.362,1075.252,-3324.5576,36080.3046875
432,14067.207,18447.168,27222.633,-4406.2285,-1845.914,-7790.924,19626.291015625
433,-223837.77,-226140.6,-263464.06,-1004.3309,4375.656,4731.8735,40148.859375
434,-334614.5,-314197.66,-344256.4,3503.7246,1556.5677,298.77792,27405.03515625
435,-28000.43,-28524.617,-46567.094,5769.5625,3520.8274,7591.8154,25401.232421875
436,-34397.77,-32421.04,-69593.84,2062.6985,-1246.9868,-543.9778,36476.85546875
437,14649.993,40354.117,32245.328,-5012.308,1425.4507,3903.4333,25400.806640625
438,37237.035,16086.712,-5196.9277,-1516.5433,497.43588,-2445.6428,37095.4296875
439,-6603.9595,-4283.2925,-23173.713,-2798.123,-3078.2427,-1130.8771,19342.87890625
440,-76270.69,-38002.4,-44802.61,-3638.2053,9713.035,-1386.2388,39736.33203125
441,27611.104,30513.604,40985.95,-8224.069,-1428.2667,2991.0513,19604.986328125
442,-8907.299,-14688.914,-45919.074,6275.9717,0.9476987,-5786.6626,37522.40234375
443,5478.923,8667.4,4861.093,7264.258,-2260.5112,1352.924,13843.673828125
444,42531.26,49336.0,82174.25,-3536.0327,-288.84158,3650.3845,37760.3984375
445,73464.734,68491.53,33492.934,3213.4998,-2813.2769,-290.71365,38453.43359375
446,-16034.016,-11539.908,-25131.516,-101.764885,328.80286,1665.8712,12350.2001953125
447,20048.59,19258.266,48121.953,106.725655,-1324.1171,1290.43,28656.8515625
448,-9383.226,-6548.537,-14952.006,-3471.1584,-3716.5586,-245.69772,11515.158203125
449,534067.3,514083.44,512330.34,-728.3593,-2238.0476,12327.422,30165.814453125
450,-18282.287,-9892.863,-4216.2153,8542.421,323.14258,-4217.785,20562.875
451,10666.929,-3825.712,17012.436,-1734.4608,3530.725,-4358.1025,21110.841796875
452,19784.184,18202.451,57536.473,-1901.5558,-2291.3257,-551.91364,38922.53125
453,29779.879,22504.834,46794.867,1497.3782,-191.7825,-1012.0194,21820.408203125
454,132361.27,124643.41,158564.6,1368.5295,-5067.963,-2945.4143,32513.244140625
455,-25149.361,-20647.191,-51056.14,-2012.7844,-2400.7576,1984.1024,29143.13671875
456,-16123.846,-15158.004,-37987.95,285.332,398.056,1198.3638,22474.806640625
457,2469.4976,1947.3086,8471.006,-1724.1423,-2961.24,5030.967,12271.162109375
458,350697.53,350195.03,383403.75,-9315.185,4041.358,-985.98846,37398.078125
459,145022.16,129270.8,155674.72,942.73364,2398.1958,-4587.38,24747.265625
460,-27097.78,-39655.406,-69759.6,-183.01346,-1175.7357,-941.837,38064.453125
461,201.67969,6531.9634,35217.246,3495.4753,4350.154,2438.499,33996.609375
462,6306.003,6388.4033,17021.717,1771.7019,1600.6576,-2678.551,12352.220703125
463,-55945.414,-34096.16,-53713.45,-2175.5798,160.63278,-2874.329,21740.904296875
464,12209.848,16862.434,24477.736,5700.1157,-2190.9,-606.621,15101.267578125
465,-9238.308,-1579.78,7534.4414,1638.8057,1554.3364,2113.473,15499.3173828125
466,34888.242,26702.42,67581.375,-1809.5558,-2396.4036,128.14095,37822.875
467,-2634.4946,-2990.941,-7932.259,-3631.125,96.57412,310.04776,8134.89794921875
468,2362.711,6746.1533,16500.994,347.21182,1612.0151,3666.1946,14339.1650390625
469,-373387.34,-368785.84,-403402.47,9368.447,-1705.909,-1334.3528,36572.82421875
470,177557.05,173287.06,212880.25,-1455.8875,2483.2646,7509.862,40135.31640625
471,3913.3232,8046.29,40263.855,-8640.325,1043.0762,7439.3438,39767.67578125
472,19156.535,13810.054,28614.848,1593.8881,613.8883,435.98434,13339.24609375
473,22252.35,15893.473,26755.47,882.71204,-18.78247,-2085.7712,10234.1650390625
474,-291.18848,-7432.824,-23512.889,-2092.0396,636.9845,3130.6372,21636.986328125
475,-124735.73,-129754.07,-152828.95,-3294.1614,-8545.534,2939.2905,30838.01171875
476,-49641.027,-62888.63,-33662.496,6635.402,-3731.0566,-5503.1763,30119.63671875
477,554707.1,546510.6,584228.5,-2705.3613,6211.2876,3842.7485,36914.2734375
478,7344.8027,6302.825,10688.066,3150.6812,1007.18475,888.32904,7137.0693359375
479,482731.38,498932.7,521924.53,5966.4897,994.2968,-4632.497,36575.2421875
480,14280.224,10009.568,21770.71,2534.7131,832.46484,-3290.485,12655.84375
481,14066.844,4893.515,-6660.996,-5600.021,-546.66144,797.05994,20506.904296875
482,-5392.2275,-3062.8486,-18540.465,-48.5168,1214.9822,-1100.5974,14730.8837890625
483,8517.767,1944.1108,11840.66,-1154.6392,-104.78504,884.6596,9081.7685546875
484,-31684.78,-44391.34,-68587.016,-7352.605,-484.03937,-250.8086,34891.33203125
485,-15013.6455,7475.382,7724.007,-2169.3047,-2956.4429,-12.0225935,23489.341796875
486,-17867.12,-15385.896,-21023.254,-256.56775,2318.855,-1550.8207,6891.48779296875
487,-7164.2197,-7115.9053,7991.7764,-1890.8063,-3616.497,302.60257,16709.626953125
488,4593.0615,4800.1533,10197.44,3352.0154,-3082.064,1493.4933,9959.3310546875
489,2848.3262,24454.588,34065.176,-6482.491,-162.77264,886.8119,29922.39453125
490,16402.906,12931.223,24026.484,-628.3099,2564.4387,1185.4689,11034.833984375
491,-21592.6,-23762.988,-44233.996,3192.964,-2439.354,-2211.5066,23050.193359375
492,-27011.297,-24116.336,-18418.049,-5976.4126,510.2903,802.2188,12931.046875
493,-34507.332,-34876.188,-42054.64,292.3527,-86.72314,-1180.562,7666.43359375
494,-8060.157,9065.952,16232.017,-2651.2673,5118.2896,6137.545,26078.142578125
495,-14756.244,-22116.215,-47757.094,-2557.595,1843.3708,-3570.7864,31119.279296875
496,-6056.293,-17656.264,-21998.3,-5968.138,-2825.2727,4620.36,19965.615234375
497,10549.018,20695.793,48560.434,919.06024,4491.539,913.1181,35038.38671875
498,48827.28,46613.414,81317.6,7370.5166,360.80923,-2651.801,36289.27734375
499,-3698.914,10609.778,11250.591,-3933.2085,1671.1398,2662.0933,17040.166015625
500,-3062.7417,-8057.8237,-10837.833,516.9616,-46.245464,-1122.6235,7152.25048828125
501,-35346.03,-37075.64,-52251.55,-623.2638,-2740.7373,1485.1373,17025.43359375
502,-4455.132,-9187.109,-16148.691,2419.433,-1489.9579,-2253.9417,11969.0830078125
503,23447.598,17708.674,30901.91,-1700.7418,2524.9675,-378.41162,12629.9365234375
504,-13765.518,1836.8523,5821.6245,-4364.9297,-1250.7861,-1163.9006,19682.466796875
505,-106633.27,-86032.52,-109893.04,-7938.6685,-5809.102,1214.2493,28229.384765625
506,7102.963,14665.475,-14448.944,767.2009,594.4294,745.9229,26251.81640625
507,9250.88,20818.363,13975.871,7438.133,3725.6658,1606.7317,17799.998046875
508,-9024.146,11803.189,13987.223,-4588.0396,592.6883,1193.9525,23505.6640625
509,18777.713,3392.3457,40445.418,11500.769,465.36108,5979.9546,39297.54296875
510,6742.1436,7207.4507,18502.38,-2048.6208,2478.624,312.55768,12820.37109375
511,1629.9443,1833.8008,-2429.2314,165.16547,165.47964,1742.4508,5159.29736328125
512,-11293.019,-3794.2217,-13184.954,2306.217,1397.6759,377.3664,9810.3125
513,-18732.186,-21327.3,-43331.977,102.70551,2683.354,2258.4404,24186.349609375
514,-12074.559,-8851.565,-21215.457,1550.8337,-2170.3872,-2720.4565,12921.083984375
515,1433.169,-7008.278,-18696.299,-4392.0503,805.939,2334.5063,19562.73046875
516,-9323.073,-2952.3696,-11104.248,600.1739,1141.7981,-2410.1804,8804.7958984375
517,-142258.8,-142584.98,-180736.28,3959.4702,1688.9712,-1685.5525,39143.14453125
518,24104.215,35010.125,58877.402,-5207.1655,542.31757,4380.685,32995.109375
519,-12282.087,-12011.37,-21435.502,-2280.6018,-11.346443,1465.4156,10410.6875
520,-50844.02,-59001.234,-80048.64,-3601.1204,270.7912,-1522.7856,26968.546875
521,259298.06,247374.72,225252.27,2737.3438,-4466.431,9996.6,35741.640625
522,-361756.47,-350789.16,-357759.44,4097.362,-12.128356,-8052.177,18365.72265625
523,6042.258,11234.584,11835.061,2581.084,555.89526,-1983.9073,7947.28857421875
524,29624.84,19390.824,36996.16,5075.3955,881.7045,3176.3225,18557.689453125
525,-8730.729,-9874.691,-18496.234,380.9515,-853.56366,-1227.137,9625.0224609375
526,-18833.652,-5014.965,-45746.426,-475.78232,5675.69,-1919.5529,37356.7421875
527,-18499.8,-18155.809,-16395.879,2321.0015,-2984.8042,-978.20245,7041.30908203125
528,-17474.441,-14591.485,-3984.0166,-213.33441,105.71485,2239.8354,12908.5771484375
529,4274.7676,16592.182,20486.453,-4296.431,393.48907,642.6646,16490.388671875
530,23777.844,28835.402,39431.484,1268.3256,3168.4644,-1845.421,15382.0126953125
531,-71289.87,-61829.75,-103232.07,2499.0403,666.4202,-1841.7012,37976.5546875
532,-13928.742,-16203.363,-24743.236,2333.075,1751.5995,925.55835,11208.5810546875
533,-21652.666,-19214.719,-34244.58,4634.2144,-2698.6206,-397.98157,16791.333984375
534,34498.875,20462.418,48545.125,-6154.8335,-2402.833,-377.028,26886.279296875
535,10372.067,4400.1343,13047.6875,-1005.47906,-442.3125,413.44913,7933.111328125
536,-15660.301,-15899.316,-32891.48,1958.5972,1157.4543,-1153.6866,17674.064453125
537,10714.682,9931.268,16548.775,4499.695,-1968.257,-4000.9153,12633.5556640625
538,-2817.4414,20647.97,25577.576,2792.8481,-1808.7555,750.89386,26935.2578125
539,-14138.461,3531.7437,2162.1348,403.73718,82.032555,4985.0537,19104.244140625
540,20276.648,15505.639,34267.152,-9993.745,-1437.9702,-733.3905,24345.169921875
541,11010.886,10816.092,15997.783,954.70135,416.74948,1147.5325,5751.904296875
542,-1844.6133,18268.855,21061.656,-7863.264,2413.4155,-884.43744,25958.37890625
543,1853.19,-4632.659,-7632.187,1562.1179,-1727.4492,1395.3917,9624.55859375
544,5470.1045,-6200.842,10488.28,1344.4169,1651.7466,-469.7937,15304.5498046875
545,16819.047,12748.087,50728.918,4864.319,1105.1027,-107.446625,37137.32421875
546,-5873.317,-916.7007,5271.103,-4274.47,246.92546,-637.752,12236.990234375
547,-4932.842,-20248.293,-19272.502,-136.52103,-649.43256,-632.58563,14936.2724609375
548,2267.7515,-12176.882,6223.409,-6344.656,1334.4429,-319.8888,20195.193359375
549,15819.877,1708.7715,29989.918,-3675.224,2775.8145,3437.9731,26437.9375
550,105906.18,102085.305,141341.97,-2432.6372,-1841.5343,-113.55505,37863.64453125
551,-11389.687,-8656.835,-25323.43,147.86595,363.59198,-645.0918,15537.2822265625
552,-6055.6333,-4271.979,-16917.412,3533.851,-1165.7599,-1113.8019,13630.7109375
553,-185633.7,-183396.0,-210769.56,-835.48645,-521.4827,2717.8076,26798.03515625
554,18079.037,17700.068,34356.05,-2264.322,233.88156,-1529.3104,17141.0390625
555,-30347.592,-23416.254,-25507.236,2751.5825,997.6907,260.4825,7989.09765625
556,100145.09,100452.42,125144.19,285.19366,4357.1343,5276.9595,27533.669921875
557,2632.7734,7369.9014,5712.5435,-814.4875,1145.051,853.7804,5044.4541015625
558,-23832.94,-8921.929,-29991.137,1429.4497,784.69257,-548.3556,18999.1015625
559,3611.826,2666.6062,10877.518,-1298.3971,1201.6101,1860.4832,8962.404296875
560,10042.046,5411.8584,-5761.994,853.1834,-1625.424,-2517.0344,15071.3896484375
561,8387.052,1786.6123,41093.844,-3874.3164,72.975395,-1670.531,37183.30859375
562,-4341.3833,-1962.7339,15171.678,-2173.029,492.17422,3144.9504,19610.400390625
563,173086.27,178797.02,171153.47,-839.6527,3355.5388,5590.4893,13305.6669921875
564,18394.213,3496.645,5242.89,7246.891,-1421.8749,-3701.3198,20092.009765625
565,-12865.189,-18309.428,-28376.918,1413.6234,1315.5956,-341.12222,14047.7880859375
566,15791.461,20511.023,27303.04,172.73917,-219.39734,-565.5105,10082.3818359375
567,-5487.2725,-10651.262,-21848.543,3965.1956,22.43288,2976.0625,16840.701171875
568,9360.808,6873.087,13291.33,-17.503075,-1121.5691,-170.35841,5939.48974609375
569,15186.2295,8507.299,17299.715,-2460.373,-920.81635,62.33315,9160.044921875
570,-34361.02,-36539.918,-67152.2,4961.201,-3660.9822,-3853.9802,34163.85546875
571,12179.347,-6278.838,-11145.097,-4618.0317,-365.73276,1240.5159,22873.65234375
572,-9896.135,9890.806,-4022.9172,-4829.2197,1471.4116,2812.4575,20248.30078125
573,-138469.62,-137354.86,-149413.66,-9076.184,-2358.7444,1231.4961,20039.626953125
574,-26592.262,-25843.895,-57551.1,-1505.2417,137.25262,-1358.7661,31536.818359375
575,23434.945,2796.146,339.29688,3674.3188,3165.9937,-112.02105,23522.599609375
576,24501.912,-3329.5947,9817.284,8509.162,-1348.9648,75.65611,28358.94140625
577,50698.27,54432.406,86550.74,2076.1921,-3429.606,1995.7153,35009.03515625
578,-288566.72,-313144.0,-272405.97,863.70605,243.45833,-894.40247,35597.97265625
579,24839.299,37380.41,56446.914,317.356,-1909.4886,1193.0026,27846.662109375
580,-35316.688,-26187.766,-36722.34,2806.8345,-5113.3325,-7439.8354,19138.236328125
