Element Label,S11,S22,S33,S12,S13,S23,Mises
1,-2327.3142,6284.6035,-12505.654,19896.098,-2311.5142,946.45953,38362.734375
2,27718.309,63228.71,28705.895,9322.913,4146.6655,-196.7562,39234.48828125
3,-20227.0,-8670.4,-1325.3486,14850.62,-14462.605,-2916.023,39837.44140625
4,-46185.54,-39529.22,-26630.621,-3575.2925,6064.1577,-318.10626,21107.140625
5,-68939.0,-65923.9,-94036.87,-608.39594,7178.7915,-6761.559,31741.740234375
6,-4673.5957,13562.445,-7193.0024,-18539.682,-743.97546,2787.6853,37960.21875
7,-9596.6045,10844.652,-14506.441,-10112.879,-1850.2444,-11688.603,35626.76171875
8,18701.328,350.51367,36082.43,2364.424,12956.8545,-742.75604,38469.19921875
9,-14967.67,-32483.094,-16771.64,1920.9294,-12323.599,1034.374,27355.8046875
10,47186.86,56741.844,22235.238,-7368.5566,2059.373,2426.8452,33846.30078125
11,-20978.768,-28176.215,313.15625,-15790.133,404.34238,-2159.5247,37694.33203125
12,-8683.0,-38309.625,-909.6748,3577.5142,-973.3116,-2281.935,35004.546875
13,11145.68,-19195.89,2708.8704,14637.984,-5644.854,4071.5825,39037.7109375
14,48105.26,52228.074,28562.008,364.3549,-1411.1375,7145.722,25279.75
15,-15663.582,-22685.121,7988.1646,-13565.162,-3271.8298,-7862.3257,39298.63671875
16,-11489.369,-35179.934,-9315.798,-3846.193,-3523.1987,-16498.926,38932.28125
17,7326.6206,19808.836,-6261.916,15371.266,-3002.8188,9697.199,39090.3359375
18,-15056.627,-9797.039,-23179.213,-18509.135,7576.779,-9056.238,39779.3203125
19,-10456.873,19055.086,11967.802,-4954.6313,1354.5809,-13672.59,36769.48046875
20,23901.777,49612.76,35407.984,-1216.6825,6427.024,11026.582,31475.84765625
21,-92036.61,-85295.41,-120740.75,-5319.493,11607.947,771.48584,39418.0390625
22,-16488.475,-3685.9092,-8013.0234,-6929.3315,-6690.7183,14873.848,32699.685546875
23,188284.27,188499.47,190148.45,-0.96583754,474.13574,264.07782,2000.98889160156
24,56244.74,56165.785,57765.953,44.198986,532.9372,314.1052,1895.8759765625
25,-687123.06,-687911.25,-687736.44,-568.75433,-876.89484,-266.22217,2000.97839355469
26,73849.9,74399.02,73826.87,-14.288376,718.9009,-844.2259,2000.98364257813
27,-273339.56,-272157.53,-274288.62,324.95328,18.600643,-297.99213,2000.98937988281
28,22767.945,21816.32,21433.916,-926.25995,378.53494,413.19104,2220.73120117188
29,204107.78,204071.73,217468.39,2088.1548,2364.0964,-3852.9531,15917.6806640625
30,363943.03,359211.12,374515.53,1066.4193,-745.66595,15021.332,29431.23828125
31,73728.5,69593.414,87924.805,5846.3096,-5113.955,8987.571,26470.01953125
32,170687.3,174581.42,183841.19,-14047.865,4399.4277,-14481.145,37632.0234375
33,-135332.92,-135302.39,-146320.78,-2060.4492,6308.43,-19754.814,37735.30078125
34,180949.77,152974.67,154468.16,-4618.656,-7015.4062,12374.1875,37604.0078125
35,48909.098,45584.543,54489.19,-13104.52,18480.605,340.00223,40010.89453125
36,72894.875,33784.004,44009.15,-5209.267,-7948.154,-3619.1885,39300.4296875
37,3732.3801,6934.783,-6022.3613,-2659.1995,-8390.624,8184.06,23874.82421875
38,-106869.98,-87913.445,-121611.99,-7705.8296,-12674.918,-2106.2078,39109.37109375
39,-2093.0503,-12414.094,-1565.0063,2776.2742,9270.448,-8599.095,24799.853515625
40,-7718.0337,-16587.457,-653.62634,-12841.978,-10713.819,4364.9946,32977.20703125
41,-26720.143,-41505.207,-1301.8066,4951.9077,3852.6587,8216.71,39511.234375
42,25829.805,3306.918,41542.3,-5776.7886,-5308.2803,6784.4097,37825.7265625
43,-29398.594,-21285.703,-19805.785,-5402.117,9032.509,14060.688,31708.54296875
44,19215.307,32832.484,1616.0781,-1348.1898,-4660.2637,-2585.0085,28730.92578125
45,-1341.3438,11977.71,3127.98,1609.8009,-5928.2495,-7903.0557,20938.63671875
46,-17173.902,-48730.965,-48604.188,1779.9536,-8429.696,-5822.3403,36280.109375
47,12357.499,14997.702,4349.437,20701.047,-1057.6542,5987.01,38584.08203125
48,20514.28,17595.076,-4539.677,1773.0328,-3350.003,-14826.032,35575.51171875
49,-22161.838,-8370.266,-11415.065,16677.377,2426.5103,3961.7676,32506.015625
50,-67682.27,-58098.984,-67327.83,13452.927,2818.1506,-11404.531,32334.625
51,26821.516,21829.66,31184.982,-399.1205,-4041.3865,995.1537,10871.41015625
52,51533.33,54815.445,76232.64,-2415.387,7637.519,-10072.843,32196.990234375
53,63163.92,63888.805,67125.15,-2714.909,-2927.6902,-15.830907,7821.27880859375
54,48724.26,49171.1,48033.168,-805.96655,-410.89096,433.0567,2000.98461914063
55,51028.4,51280.457,51098.934,976.9591,534.5254,273.24075,1998.80224609375
56,126659.82,124870.21,125446.375,-705.21924,33.61493,-40.74951,2000.98291015625
57,26012.137,28260.027,23016.305,-7998.8784,20758.285,603.4437,38813.91796875
58,11782.043,2048.3203,7813.7817,7324.525,20528.309,1835.7281,38822.11328125
59,37995.008,20852.695,43723.098,10399.73,-8121.424,-12618.872,37747.9296875
60,20088.602,37762.418,37307.42,-10904.967,1650.0016,4559.859,27052.33203125
61,4307.4297,18228.316,33066.246,9870.291,13934.806,611.4417,38683.82421875
62,-19943.232,-3888.8518,-9410.819,2995.9143,12527.412,16552.209,38977.4921875
63,7981.64,27735.58,26889.832,13761.452,4609.5195,-13572.266,39480.64453125
64,-12311.595,-11531.699,-15360.066,11985.14,-5457.6064,-12242.25,31339.81640625
65,-29418.979,-8560.698,7061.6084,-733.2558,4813.082,12889.427,39679.98046875
66,-38352.566,-13154.63,-12571.081,-3914.2441,-16007.059,3492.3245,38745.46875
67,16025.259,-1878.487,-12019.798,14499.641,-9604.564,3264.787,39298.8046875
68,14541.518,-12478.955,-20758.795,-8395.783,1493.6062,-10707.872,39806.0625
69,64804.934,45944.11,33269.824,991.5749,-1327.8301,-9078.3,31794.673828125
70,33946.41,22353.184,25550.898,-9303.427,15639.124,-11996.519,39149.88671875
71,-25144.781,-30586.88,-32121.076,-7389.7104,18016.438,10952.552,39214.71875
72,-10043.445,11458.557,-26203.277,-3911.5718,1888.5111,7850.7915,36227.75390625
73,2110.6738,-16896.441,16357.638,-1764.8135,7723.4634,185.64426,31991.29296875
74,-24043.762,-15946.294,-8170.2056,-2921.4426,-11999.486,-12926.92,33880.47265625
75,34156.355,36436.62,32220.342,-3157.5261,-7137.031,7617.2056,19239.267578125
76,-73670.055,-78199.68,-91431.66,-8520.996,1532.2605,-15822.114,35091.625
77,-29141.82,-34450.445,-34009.914,-430.49646,9107.948,-6584.542,20137.66796875
78,-16382.942,-44910.0,-21120.707,8236.718,-2578.5186,-14998.797,39993.16796875
79,-29670.6,-44067.344,-33020.06,8691.444,1452.8466,-18050.113,37156.95703125
80,-14945.9795,-35344.914,-12329.697,14976.096,-3426.6394,7758.538,36945.79296875
81,-37772.426,-35181.043,-19782.547,-17610.83,2033.0757,8245.946,37822.52734375
82,21911.387,36917.234,52398.754,-4568.569,-1023.5647,-4465.936,28683.767578125
83,-41663.246,-24429.184,-3267.4766,-11007.641,-3612.588,-4951.4937,39821.37109375
84,-17076.705,-6569.367,-4404.4697,-3763.863,-10752.031,5749.5537,25026.5625
85,-45122.875,-32281.586,-13009.134,-12010.273,-5314.083,7451.9897,38312.71484375
86,-21866.771,2713.1309,-10716.087,6625.7046,8209.061,16054.078,39515.7265625
87,16168.102,21731.906,-7440.373,1638.0372,-15602.091,6072.1753,39605.65625
88,27626.36,36239.562,-1567.9177,9652.602,5489.237,-1582.6191,39438.265625
89,8814.556,-6302.426,-12528.303,10699.038,2108.4438,16113.341,38691.9296875
90,-5962.967,11282.23,-16044.09,16606.766,2103.6284,4626.7026,38441.19921875
91,240477.22,264250.38,264400.56,-13851.083,9026.345,-90.40514,37266.10546875
92,-37291.89,311.13834,-34327.625,-6137.0073,-5299.6533,-56.302876,38840.26953125
93,95941.734,100216.945,131894.66,-10423.719,-3745.2654,-2146.4229,39230.69921875
94,-13060.697,-26941.682,-48245.934,-8633.21,11725.116,257.4246,39730.4375
95,32948.465,61162.027,33282.94,-11800.404,173.06528,-11357.298,39893.3984375
96,42967.14,4794.8696,23108.027,8010.668,-6225.05,-6788.208,39248.5
97,-1963.0922,4641.9077,-2837.4983,-10076.014,-2673.7559,9752.706,25720.359375
98,39013.434,24083.994,51448.72,-3421.531,100.13254,-12017.026,32117.810546875
99,130969.8,129979.94,131274.22,-307.33698,-279.3392,838.9634,2000.71667480469
100,-397192.56,-392097.2,-405293.2,2666.4407,-1596.0676,3860.8523,14371.8212890625
101,55334.72,52714.953,45274.01,65.30594,-11239.758,5538.473,23510.798828125
102,-85466.06,-82219.53,-94158.95,-15304.447,3347.2783,-10585.782,34449.8984375
103,110376.83,105461.96,76996.56,1318.8918,9812.397,6213.782,37205.37109375
104,35828.395,14476.015,41180.613,-8916.888,-9020.01,-12435.055,39311.0546875
105,16171.359,16686.04,43525.023,-4945.356,982.607,-3217.7366,29012.70703125
106,-34128.5,-46969.473,-31762.184,-2490.5764,-13628.67,-13810.487,36727.30859375
107,-24365.422,-4393.9233,-18731.389,1070.8951,-14601.351,11754.867,37089.7890625
108,-18994.617,-10915.722,-7668.3423,13982.087,-14503.968,-8934.581,39485.70703125
109,-2943.063,-18785.18,-2770.15,8085.0625,-19230.184,-2596.308,39742.53125
110,6117.492,-23924.854,-33394.47,-8966.454,887.6454,1273.78,39052.89453125
111,4383.648,-3655.7944,-26895.582,12804.608,-9076.737,-213.2202,39124.5078125
112,-28501.107,-3669.1892,2989.615,12129.452,7638.4126,-7122.9854,39936.60546875
113,-8032.2705,-18997.738,-10123.057,-13582.219,15305.346,-9010.574,40018.1015625
114,26069.928,17424.143,45104.75,-8729.087,9336.763,-9836.481,37175.66796875
115,32314.352,49075.984,24403.818,3308.736,18104.246,3530.2517,39110.671875
116,10370.478,-4966.122,-7374.933,-7464.869,-8294.954,2428.813,25869.783203125
117,14224.134,-11759.08,13286.428,3334.7664,-6929.3125,-12497.024,36021.8984375
118,-31756.559,-10794.888,-8122.852,-15212.039,-1255.5359,-8922.872,37951.83984375
119,-3690.5642,32054.502,11327.121,8476.245,-8989.488,-690.54297,37760.2421875
120,-31438.979,-23152.514,1698.6836,11374.081,-8160.827,1677.3384,38581.37890625
121,-281492.88,-288943.4,-289198.62,4955.928,-2200.8484,4761.507,14618.748046875
122,-138837.23,-172857.44,-148628.3,4817.8784,-11715.103,-3419.3389,37902.34375
123,24324.916,17227.367,24608.799,-10636.319,-16195.415,10548.667,38891.66796875
124,-4745.941,-5043.173,-15377.622,-10382.157,17898.29,-7877.4717,39755.984375
125,-56590.39,-35296.65,-71603.38,40.495083,3023.0037,1295.6849,32108.458984375
126,23926.514,1234.4628,18916.541,14145.138,4415.368,5901.5596,34490.125
127,37506.754,46550.95,52765.75,2353.5652,-2226.5815,6365.555,18157.11328125
128,103849.195,105697.875,104877.26,370.45673,439.4878,-381.5939,2000.49389648438
129,8015.285,7499.9614,8188.096,-1096.268,-46.500294,28.296452,1999.69372558594
130,23345.566,17838.812,19775.244,-21944.998,-348.42026,-3566.4585,38816.0078125
131,-28766.7,-54767.46,-12392.394,-2507.3945,6516.9243,-5077.8423,39919.0078125
132,1087.8505,16080.033,22967.668,-7395.318,-12724.1455,11509.125,37717.7578125
133,20023.51,5536.611,20958.879,-13292.293,3275.0232,-11279.606,34179.1875
134,5644.6772,28207.693,30873.203,-11782.85,11165.052,2434.5972,37210.21484375
135,-1142.3622,-375.0574,-5086.324,13426.783,2560.9448,-13660.137,33756.1640625
136,-18098.016,-16458.299,1425.9095,6760.629,-2363.4685,13497.27,32438.615234375
137,-5235.2173,-2029.1569,-30353.336,-5684.099,-1220.0577,-3318.1204,29260.0625
138,26511.133,18927.127,32515.676,1748.0356,-2527.2886,3558.258,14332.5576171875
139,-66290.96,-62267.145,-99471.695,1276.5413,3234.9175,-7822.6016,38347.45703125
140,2493.993,-38098.426,-22381.531,-4795.257,763.3791,-205.29285,36436.74609375
141,-14243.718,-55199.945,-25973.248,-7980.3887,-199.1416,-4332.17,39775.35546875
142,-6374.1816,-44245.703,-18920.76,-11079.33,-6226.857,-1207.5885,40068.2109375
143,-26390.416,483.12228,8057.128,11104.228,1169.2092,-6530.8115,38536.48046875
144,-62169.48,-39701.758,-26267.047,7972.734,4873.0747,10121.508,39451.3125
145,-20605.11,4387.6597,-1126.9417,-2399.2878,17857.127,3990.149,39228.671875
146,-32554.15,-772.52,-23997.998,13225.762,8196.877,-1223.63,39270.49609375
147,817.94354,39882.977,2561.9731,2711.8547,-2239.194,-4828.6973,39598.5
148,13346.922,19922.162,-4844.0103,13343.777,12559.319,-4143.2915,39403.4609375
149,5699.962,28272.742,8977.311,6841.316,-16209.454,7860.908,39500.94140625
150,-23251.312,-35641.477,-8708.501,2786.4602,-13054.098,-8078.921,35714.50390625
151,22259.766,-5106.599,26268.205,-6347.258,5430.8447,-6124.8174,34591.43359375
152,2475.9763,1523.462,1320.9808,-751.8139,-526.11395,-379.25168,2024.52563476563
153,201695.11,200090.61,201938.36,-552.36816,-104.22144,-5.882413,1992.96435546875
154,125830.08,126941.55,125230.945,365.6542,406.13596,537.73376,2005.90661621094
155,205519.3,203744.97,193944.88,-1197.3457,-13419.272,12005.139,33067.8125
156,-338888.22,-373918.16,-360698.97,10553.019,-1847.6984,-6402.516,37497.91015625
157,-62519.36,-42894.703,-68774.445,16166.133,-3311.0996,-6686.9766,38704.984375
158,-53084.297,-59606.918,-39552.645,-10117.656,-12871.927,10989.174,38475.42578125
159,40451.54,13680.2705,52812.008,-3722.9846,-9005.355,1453.7687,38621.22265625
160,-5913.2427,-16543.05,-2140.7212,-3634.9634,-3993.8052,-8149.3745,21308.5234375
161,-34011.59,-63503.535,-23205.592,-5435.84,-2630.1611,-6043.702,39041.15234375
162,4137.0615,-27507.412,14656.525,-6978.8936,-1257.9027,-925.3615,39979.3125
163,-8131.2617,-39875.047,-2747.389,8743.196,-3945.0332,-4490.9175,39294.83203125
164,6997.9478,-4667.703,4091.7573,21077.492,1761.2406,-2102.4277,38288.109375
165,-111852.07,-105949.45,-95020.336,-319.99512,9151.717,1629.7462,21870.849609375
166,-20603.705,85.16304,-9377.497,-10525.589,1590.4507,-41.80775,25724.64453125
167,-30167.793,-37025.355,-20837.277,8568.295,-7832.6807,15402.309,36249.99609375
168,670.0917,10225.088,34441.34,5014.9497,3527.8713,12698.266,38802.5234375
169,-5478.5024,-11376.595,27832.738,-5442.475,3068.618,7076.131,40102.6796875
170,-6760.5728,20520.957,-7372.9814,13529.627,5745.979,6457.36,39174.7109375
171,76245.44,75095.9,51266.848,2241.9734,5107.2227,-12131.338,33635.93359375
172,11746.413,11145.427,20386.121,19230.926,8128.7686,3050.4712,37627.5234375
173,2846.4634,-17429.889,22037.342,7043.3296,-7540.24,5667.5254,39803.203125
174,7645.6504,-13646.487,6995.3784,14925.062,2867.3667,-6048.2437,35250.7265625
175,-26101.36,-14405.821,-4407.749,17688.725,-9200.009,3467.8633,39778.78125
176,4240.4424,3320.435,-923.6322,21099.967,-4667.882,-207.91988,37734.4140625
177,-26231.318,-43189.426,-6269.918,3804.3074,-7790.9766,-3669.6484,35922.94140625
178,-11684.327,-27448.389,16309.14,-3085.909,-3194.7305,-3128.3333,39521.859375
179,24723.32,30208.18,41236.254,-17300.564,548.4849,-12191.291,39457.6171875
180,165910.44,164795.31,164474.3,835.2772,102.00597,-243.37993,2001.62646484375
181,-38119.332,-27264.893,-17957.734,-15264.079,12778.233,-4019.0752,39277.87109375
182,3528.1602,-14077.204,-2816.934,16950.662,-5027.5737,11019.144,39250.1015625
183,34429.484,36098.777,36292.84,7094.954,-20794.477,-4854.2065,39013.89453125
184,3658.1929,19792.48,25405.828,505.24814,-9352.42,-15886.796,37453.06640625
185,11532.557,11359.885,22275.916,1529.2622,6104.6885,6734.4536,19291.98828125
186,29841.416,24487.502,13478.72,10282.202,86.4241,-3105.7717,23556.923828125
187,21849.744,3936.0366,-194.83255,748.78674,-9050.336,-6046.641,27731.88671875
188,-5289.0625,-2313.6714,3378.1973,1272.8179,2064.3674,3063.708,10197.5400390625
189,9829.011,9660.055,9760.308,-300.0394,-442.104,-1023.5209,2005.21374511719
190,78666.055,78805.484,79038.19,-534.62213,498.6649,874.9278,2001.49829101563
191,54281.137,53977.758,53431.344,845.5919,535.96466,387.27805,2003.29284667969
192,47230.664,47812.656,46725.742,376.13162,498.50336,804.86383,2000.22021484375
193,280488.66,278144.12,270009.16,-7276.664,3980.0334,-1421.8574,17412.173828125
194,-815186.44,-816445.4,-811102.25,-9685.431,-2610.4465,343.66534,18045.154296875
195,-35663.46,-27573.53,-10259.391,9021.253,-5436.381,-11205.668,34854.11328125
196,317802.47,323590.12,342335.5,-12230.807,2557.6633,-3330.212,31544.4375
197,26884.846,44397.434,61298.797,-7001.7915,937.203,9939.845,36530.05859375
198,123717.34,107424.31,98250.03,765.7202,-12736.206,-3092.725,31877.794921875
199,148526.12,168287.67,174167.55,6516.6084,10958.786,-8253.005,35118.46875
200,117290.164,136125.4,111862.41,-16229.616,-6980.644,-3170.3,38118.265625
201,79853.76,47348.316,85832.96,-3532.3674,5554.933,-5918.9473,39010.48046875
202,-97378.36,-85440.805,-86672.9,-15195.001,9370.839,11355.173,38369.7421875
203,7865.6567,-26613.523,-20300.273,-1216.4384,-11693.789,5346.2676,38876.9375
204,57831.92,34697.39,26950.934,13292.707,-8017.0786,-2871.8757,39013.80078125
205,23117.4,1111.8619,-12260.807,12205.087,5775.0713,2080.458,38952.234375
206,-36616.734,-15599.339,-6844.157,9651.688,4268.652,2094.953,32398.9375
207,40673.2,48722.914,14333.768,13283.511,186.41415,-3883.4163,39310.18359375
208,12417.482,28503.617,12611.794,-16836.432,-10174.582,1018.91315,37679.609375
209,-8942.657,-11595.6455,-5343.12,5362.033,18017.096,-1442.3535,33104.1875
210,-76334.7,-69942.74,-38255.773,2006.585,-2451.6355,6664.1475,37560.69921875
211,-41204.824,-28179.361,-25176.115,-6714.425,-8837.637,-15501.864,36170.23828125
212,409.843,-12479.814,-3250.7927,-8997.623,10064.058,894.3941,26105.294921875
213,1918.9486,-3969.3945,-3751.8303,11725.943,-18990.783,-1580.106,39183.8203125
214,17218.842,-10090.207,16096.748,1775.789,2678.0247,10759.066,33085.46875
215,-32037.334,-38776.027,-31850.057,4503.1772,-3761.9316,-21956.059,39952.53125
216,-27829.912,-33114.9,-17409.527,1712.3668,3036.6814,3378.646,16195.4853515625
217,-5872.0547,-31165.047,-13049.717,8203.221,-9034.175,-14376.115,39704.59765625
218,-22958.51,-1508.5999,-16760.088,-4467.538,-3619.9983,-18610.174,38778.4609375
219,38057.93,34551.625,19009.182,-15065.031,1970.8271,2885.5957,32028.990234375
220,-22811.023,-3828.6013,-1298.566,-3342.2893,-11542.548,15294.226,39366.2734375
221,2228.1262,-25907.305,1041.9033,-5921.8926,-1250.8973,-14021.191,38201.00390625
222,-20525.115,-3612.2178,-4260.8003,-1530.4873,-5833.347,4558.3228,21141.033203125
223,-21740.14,4583.418,-9574.388,-11435.946,727.7319,-1148.8315,30308.087890625
224,-6051.128,13316.755,10162.084,3169.3115,-6053.277,-10080.864,27729.03125
225,-21777.084,-5222.732,-3312.9255,-1168.6823,-9457.437,15997.828,36735.91796875
226,-7494.3438,-9275.076,-14802.979,2198.9402,15911.404,-9476.807,32970.08203125
227,18502.3,-8486.915,17275.639,395.55,-14322.304,7905.618,38731.984375
228,-14079.47,5247.419,-15195.335,8807.857,-3549.3352,-11562.238,32679.111328125
229,16371.274,8638.224,6703.825,17261.963,4381.093,5971.743,33719.33984375
230,-18062.42,-24915.676,-4016.8167,9029.208,14105.914,11187.515,39465.12109375
231,-10092.028,-21917.125,-24615.484,1983.3082,9997.733,1511.8351,22305.69140625
232,3987.07,15008.818,-1358.5917,10834.332,-1359.677,-3165.4326,24428.013671875
233,19983.178,3678.8477,25047.578,-376.87418,-6832.0005,2860.5867,23217.55078125
234,-17041.945,-23609.816,-34650.742,1018.5132,-12043.609,-3443.0496,26671.62890625
235,22313.314,27162.61,56806.215,4811.588,-10132.067,-936.5124,37763.359375
236,-81456.27,-60908.89,-87326.984,3744.7847,5644.5444,-103.25417,26738.9765625
237,28019.443,5437.7856,30251.488,-5688.6733,10872.95,7062.644,34157.0703125
238,-28497.066,-32617.227,-14743.131,-7224.6655,-10202.093,-10780.594,32868.12890625
239,1370.9766,-8837.702,-36043.23,10401.658,2442.7366,-3821.8264,38838.046875
240,-20021.191,-16938.57,-28989.758,7768.8726,198.94128,2896.3796,17998.23046875
241,-482.67667,23104.896,41151.09,6877.5166,-3298.8596,-4451.1924,39264.38671875
242,619.8689,-25972.5,21.323498,10845.404,9536.964,8289.611,39031.75390625
243,-11424.612,-6623.2583,-7660.9697,5809.649,1734.499,4948.592,14244.1083984375
244,548.7268,9810.923,-23575.387,974.89746,-11012.791,-9985.193,39458.984375
245,-24367.162,-6359.4434,5582.4683,7518.3706,-13128.949,7102.2593,38986.48046875
246,27231.729,30412.113,49435.246,-7803.507,-16251.233,-6951.2437,39401.09765625
247,10345.328,6227.2217,31254.416,-13822.008,42.250793,12864.21,40123.15234375
248,-12704.0205,-13564.076,19202.322,-9477.394,-8030.0635,1372.5945,38919.87109375
249,-10210.996,8825.069,3353.8306,4934.17,-8165.6787,12303.17,31864.279296875
250,18297.94,29792.584,-7406.4424,-4869.026,9369.615,-1948.8104,37870.6953125
251,31874.584,26239.893,33630.94,-8552.1,12170.947,11881.558,33646.046875
252,14361.75,-1482.963,22992.078,9391.026,-4317.7183,15320.174,38560.4453125
253,-39014.71,-37115.363,-31520.064,96.15045,-5267.9717,-6734.372,16275.1318359375
254,-63876.805,-35953.152,-65692.88,4032.2747,-1729.041,2320.4492,30127.064453125
255,6630.2773,36750.492,14718.39,12014.99,-8808.723,1092.7708,37396.15234375
256,12864.722,-25948.83,-18421.209,-3312.65,253.60938,-5924.6704,37542.0078125
257,-18306.05,-25056.656,-34154.047,7992.343,-1428.9723,-9675.886,25852.91015625
258,20926.348,5961.4565,19624.943,16472.875,776.05743,8294.445,35049.015625
259,8024.136,-9105.296,-10570.148,3201.1333,-6218.6343,-15230.866,34107.90625
260,3595.8455,14885.024,24678.271,-15492.404,10784.163,-7482.2915,39633.36328125
261,-35187.45,-51146.664,-15941.405,-3729.7358,3223.3357,10903.804,36903.11328125
262,-1743.9757,-14998.198,6534.3125,-13709.35,-2339.7537,4932.5664,31736.091796875
263,30605.848,29058.396,58204.297,8796.523,6718.886,7315.4077,36536.125
264,928.1883,-13817.869,18054.988,-10132.079,-8032.0664,8783.798,38682.1796875
265,-59086.145,-40734.953,-35569.3,13700.664,2322.7722,-5251.2627,33470.640625
266,23345.834,20227.092,36659.04,-4751.7593,-1869.6694,19563.084,38142.5703125
267,-17875.58,-10434.778,-21212.373,71.504555,-5764.116,-13443.957,27078.376953125
268,4441.5396,11023.4375,24336.723,27.422436,8396.206,910.00525,22850.974609375
269,77163.36,77313.016,76426.78,-974.4881,394.00406,68.72596,2000.986328125
270,33902.477,34978.4,34516.94,-513.2955,877.4287,-99.644684,2000.97631835938
271,61933.83,61966.113,61658.945,129.10805,-755.54034,-847.7763,2001.04516601563
272,149484.84,149510.16,149784.53,59.85453,-1106.7346,-276.29623,1999.30456542969
273,-69938.85,-69423.09,-68770.9,284.4516,-723.1346,-604.1114,1983.45666503906
274,43725.19,42900.848,42412.03,224.25377,-528.2123,-756.87427,2006.96447753906
275,6695.4033,-31834.924,-2981.1038,-10132.802,-4027.511,2091.5938,39688.66015625
276,37934.414,35150.914,18530.715,-7123.2485,-2400.057,-16660.996,36503.56640625
277,7514.016,-9001.936,8168.0874,5329.4453,227.17293,11696.213,27924.451171875
278,30471.178,19900.322,4251.1846,-16023.508,9613.248,-88.05729,39618.03125
279,1253.5913,-126.30838,5588.3213,2123.4832,11235.87,-4537.742,21925.115234375
280,17874.654,8596.52,-197.14989,-2240.0488,12091.038,-9054.158,30733.818359375
281,-20298.63,2972.2217,-25195.668,7559.9126,-2935.4443,-1163.8502,29678.994140625
282,-5284.076,4305.2627,3507.1387,862.95483,-1508.9628,5588.0425,13699.728515625
283,17452.305,25189.89,20651.545,7464.8594,2954.1619,-10565.942,23950.40625
284,4830.754,4780.6953,6548.124,-40.611767,533.4809,183.84978,1999.49768066406
285,38181.35,38027.63,37428.887,-289.5082,-43.05334,1044.3649,2000.81555175781
286,-19991.713,-6882.0464,-12673.63,-8348.526,10379.652,14666.707,36154.14453125
287,-227675.16,-197371.64,-220500.5,-12330.706,-4540.969,1748.4845,35770.5625
288,-166719.86,-189850.77,-168002.02,-17926.059,610.40894,-4464.9927,39140.546875
289,-84620.52,-113804.6,-116380.055,-8976.55,-3859.014,8600.816,37971.5546875
290,33837.152,58949.44,17996.752,6422.8696,-508.78568,852.23114,37497.32421875
291,35197.957,22725.98,51994.734,-15683.159,-2319.483,3731.8948,37986.53125
292,13052.744,26493.262,31204.8,4321.8486,-8287.228,-1222.2445,23080.7890625
293,-29721.951,1395.7659,7044.8726,-8306.18,7135.5586,-1511.4637,39275.84375
294,72558.71,71290.78,100610.01,-721.1438,-9016.284,-82.80952,32703.376953125
295,-12362.833,-2210.3582,-5168.101,8154.548,15964.256,9578.358,36346.80078125
296,-26893.213,-44608.68,-60609.367,-1817.551,3927.9722,10254.771,34999.96875
297,19783.303,17899.84,25322.492,-2785.6687,9168.178,13565.442,29532.57421875
298,18394.887,-14666.597,-1523.1327,6029.236,4054.844,-13651.192,39353.72265625
299,-4075.0376,28665.123,2446.9785,-11631.189,-2081.0742,-9397.487,39808.38671875
300,1983.2019,-7025.348,-2443.273,177.83163,-7370.498,13678.965,28022.873046875
301,-22364.877,-38767.465,-53840.773,-4757.937,-7877.9233,-6947.006,33799.0
302,-70304.63,-53670.19,-49801.2,2702.4558,289.5524,-15966.817,33808.44921875
303,-276165.28,-290073.7,-282789.9,2609.5989,-8782.204,-3901.1372,21039.47265625
304,27476.576,26591.576,25943.81,469.07126,-527.7868,493.94244,2000.94860839844
305,68455.93,68752.64,68314.195,116.14464,965.5857,579.03357,1998.38830566406
306,51707.305,29416.271,60381.49,2684.8987,2235.1228,14018.339,37304.73046875
307,53169.793,69316.38,57806.18,-3397.0671,-569.3037,-16862.832,33105.95703125
308,22495.256,11363.119,-9810.177,10047.225,-6142.46,-4317.9014,35775.68359375
309,10346.73,-473.47137,3864.666,1454.4397,-949.22406,-12288.414,23473.841796875
310,21471.166,16173.657,49934.875,-1358.8777,10435.01,-4449.409,37156.8671875
311,27281.422,18305.793,35517.973,208.90843,12828.203,-7917.0264,30069.72265625
312,51857.375,52725.37,53100.324,-52.193405,175.01895,-943.5341,1997.57409667969
313,-26074.604,-27270.064,-26339.598,51.963455,838.642,-475.09213,1994.43176269531
314,2061.455,2414.6396,3139.9363,-85.26079,-909.19727,-426.65976,1988.66809082031
315,104691.195,104780.836,104683.98,-599.8063,-751.83154,-637.5052,2000.7568359375
316,462397.8,450236.16,461897.12,789.8672,4562.9087,-10319.656,22932.19140625
317,-35926.027,-46014.293,-36896.76,-15100.915,3230.3801,-10902.213,34130.8671875
318,10094.725,-11054.201,-16499.24,-14608.745,-10444.327,-1565.9064,39584.55078125
319,21924.262,-10433.307,18661.783,-1199.9324,-9503.976,3.4749277,35034.07421875
320,78703.95,64154.523,77741.74,-11169.819,-11176.445,11803.848,36954.5390625
321,-6826.3984,-21819.754,7661.9814,-13967.526,8178.374,-2744.9705,38216.234375
322,-1598.1685,-7270.5996,16377.369,-11508.021,10986.679,7659.174,37318.56640625
323,-43993.754,-32762.662,-30382.328,-12400.59,-3338.6804,-4193.432,26571.71484375
324,-18904.143,2715.596,22163.408,3771.5093,3479.5022,1838.707,36813.35546875
325,7602.812,-20488.602,15610.954,-3812.166,11816.875,-4676.505,40079.17578125
326,706.83923,-7066.1987,-1054.1371,-824.35077,-861.7017,6581.574,13566.5263671875
327,-10296.5205,1694.6804,-2968.5852,10329.277,-9335.634,12625.197,34195.7265625
328,5777.3765,-2265.1775,2082.177,9399.299,687.6101,-4733.6562,19552.486328125
329,-27321.031,-8424.748,8970.996,-3916.688,-12914.621,3778.2703,39719.08984375
330,1859.968,-1888.0496,29852.018,-958.152,11684.951,2067.338,36437.71875
331,-72432.96,-43697.63,-68131.266,6257.0327,-13895.881,7580.592,39871.6328125
332,16717.463,-17455.229,133.06337,-7559.0947,-12129.576,5692.7886,39825.9296875
333,-26940.117,-15030.17,1005.6501,-13447.125,-5689.204,-1248.5629,35131.66015625
334,11199.177,22976.625,51044.164,-3945.0498,-5621.258,-5278.7095,38498.5625
335,14532.944,17064.533,19735.22,10239.773,-7307.4995,3069.917,22876.478515625
336,22646.746,47427.168,43122.37,53.97801,1299.4114,-9918.35,28742.322265625
337,-26395.197,-5399.7905,-40550.676,-3293.832,-68.469376,-13764.43,39234.234375
338,69709.414,70068.086,70582.97,152.93416,760.61774,-733.5061,1999.57543945313
339,-9862.324,2413.1191,-7266.3184,-842.08856,535.9716,-15702.615,29466.322265625
340,-43676.496,-38508.05,-47650.297,206.7531,4565.1226,19016.549,34793.375
341,34970.3,107.76962,3287.3083,-9185.387,463.27365,-3944.9053,37617.859375
342,13031.288,11107.731,15886.384,7975.268,-11500.804,-11459.627,31605.900390625
343,26049.555,18226.598,11713.614,11604.695,7727.486,16686.629,39661.671875
344,33142.03,3440.5884,-1602.5726,9817.029,-3630.7686,-7267.9478,39300.6015625
345,5486.0645,-15227.253,-14005.341,5855.2515,-11540.351,-1516.3292,30240.923828125
346,-11547.387,-8057.572,1978.5955,-2286.0154,-4813.9,-6215.6924,18682.365234375
347,4002.3438,18156.205,-14536.839,1576.2604,7275.744,-14519.212,40063.9453125
348,-15394.164,-15508.374,-16551.617,-127.08401,-18.82877,961.5089,2010.86096191406
349,64226.555,63982.508,65462.105,-161.34303,710.4144,426.52292,2006.390625
350,7482.9224,28474.965,11551.302,-8424.634,-1547.1732,6208.55,26599.94140625
351,38549.56,40048.383,57205.516,2929.5251,-11010.274,7109.489,29383.47265625
352,9319.238,1178.7759,12688.832,1495.9067,16098.303,-4777.1255,30946.62109375
353,18824.22,34602.566,14989.03,-8148.002,1455.9669,1166.8489,23103.93359375
354,-53091.266,-46838.586,-32471.96,330.26663,-9588.509,510.27524,24743.740234375
355,28876.209,29105.969,29109.223,114.81206,245.53207,-1122.3654,2013.22204589844
356,1497.399,1318.0344,466.3249,86.49234,-795.4129,-628.83575,2004.28002929688
357,-429085.53,-428725.84,-429223.1,55.894474,535.76544,985.7549,1995.85131835938
358,90872.58,90028.3,89007.516,-400.93515,-492.3066,245.39087,2001.65576171875
359,120731.36,120652.22,120909.08,-152.78046,708.6518,-889.693,2000.7900390625
360,13131.068,6223.067,20021.375,4057.644,-2139.0461,-2166.0095,14832.0546875
361,4365.7246,11660.735,2344.8296,3069.4365,893.6067,-1136.9745,10323.841796875
362,10788.312,5458.9277,9919.217,1978.9729,-507.57434,2721.2483,7698.27197265625
363,-228.2045,3494.789,5957.397,201.56398,-1025.1249,1531.5923,6277.35986328125
364,-26073.398,-11261.092,-37989.03,6659.306,-985.3539,-6828.955,28526.13671875
365,10194.259,6945.4683,17626.334,-6404.2773,-2541.6062,-2289.254,15750.595703125
366,1632.3141,22895.365,24932.945,-16528.715,2782.2415,-1191.0778,36696.9765625
367,-63965.25,-86718.54,-74213.49,6558.319,6642.2847,-12849.2,33856.4296875
368,-39366.074,-48589.555,-28809.828,19838.73,-3252.1772,-599.48114,38825.328125
369,118259.28,101866.664,123327.125,6382.9146,-1765.1682,2530.8674,22984.0
370,4986.7764,4801.0786,4414.8047,528.9271,-796.80597,-7.000865,1731.92358398438
371,-85049.52,-74356.17,-108285.86,7637.745,-6540.2275,3496.0261,35252.59375
372,5027.3047,12111.8125,16180.95,2260.1133,7959.5444,4788.9863,19229.314453125
373,-4675.838,-9396.864,3215.1084,-1868.3336,-2521.141,-300.1646,12313.376953125
374,-5565.2974,-15915.626,-73.369545,-254.99855,2013.529,-437.06497,14389.7490234375
375,-1776.6978,-1088.0735,106.05922,-5400.7046,292.70975,-438.42093,9542.482421875
376,15894.638,5036.269,33527.7,15575.352,-2525.742,4022.8013,37626.546875
377,24633.176,-1154.8842,15624.0,16833.469,3630.4778,55.59547,37463.4140625
378,-47163.586,-8220.14,-31771.686,-8776.959,-5045.1343,2131.428,38408.11328125
379,14990.51,10294.717,868.9125,3042.4294,-2742.9233,973.2777,14433.978515625
380,-598.93353,554.7006,6184.6157,3689.7393,4533.3594,2668.7876,12782.2353515625
381,-15006.965,82.43725,5747.2153,1734.8942,-1218.1998,-3689.8845,19989.626953125
382,-6646.618,-23936.367,-6540.2715,-1552.6816,-1631.5348,118.961334,17777.685546875
383,10885.583,665.2641,12102.815,4542.6924,-1188.7147,-3239.4124,14697.1337890625
384,12846.158,-13620.515,1148.8175,641.5154,475.55273,2409.8743,23389.279296875
385,1773.2404,1497.4875,5584.322,1755.5841,-830.3794,-501.85095,5265.1376953125
386,6820.229,3803.687,6598.926,308.12247,-259.39612,-527.7972,3131.02490234375
387,8595.608,10661.843,5191.6567,6236.755,2321.9312,-3960.7961,14241.443359375
388,10144.245,19548.072,18600.295,-2376.6626,-1509.0587,-2299.654,10957.193359375
389,-10232.558,-26638.584,-25753.709,723.4929,-2162.978,1801.5122,16756.05859375
390,604.5102,-13772.592,27125.746,-769.7831,3741.791,993.9288,36580.3203125
391,35591.93,43485.332,4702.0757,-10206.262,-699.01154,-579.46027,39689.94140625
392,2964.0068,4813.361,953.6742,-4622.6143,-60.31536,-956.22015,8833.970703125
393,-33400.74,-29801.902,5620.797,7068.3438,3612.924,179.21106,39803.76953125
394,3213.9048,-9235.052,31645.076,-8885.507,-606.103,-4274.0664,40124.90625
395,-18455.957,-22383.8,2087.7544,11815.758,5746.7515,9067.979,35815.65234375
396,-7249.443,-4712.8203,-19028.496,-3526.122,-840.8544,-83.44027,14645.892578125
397,7057.738,3194.7017,11753.674,288.8352,3010.0625,-1837.0795,9626.615234375
398,4481.4106,2493.2458,-16035.549,4349.6875,73.68586,4466.38,22376.966796875
399,-2378.4355,15245.499,-915.7596,3135.8333,-3806.045,-2841.5398,19599.63671875
400,9569.451,-203.35074,2704.7742,-74.213394,-4515.726,-3874.0571,13481.8818359375
401,338.79486,1053.8274,12290.914,-4306.9785,5464.048,2496.3784,17283.853515625
402,-12947.196,20157.818,14646.917,-4144.689,-3837.9263,-950.6919,32284.81640625
403,22131.922,-9618.52,30259.174,6974.711,-2354.1667,-549.8278,38673.7578125
404,-27401.969,-21048.4,1072.3143,14170.489,2494.8699,9708.873,39675.01953125
405,-30128.184,-49960.336,-7067.765,5702.0864,3260.185,-744.54333,38904.05859375
406,12025.88,3710.0823,8157.9077,2814.115,-2285.5894,-1687.6979,9996.1435546875
407,46551.676,84887.62,57873.52,-1748.1833,-1265.0089,-2448.2244,34579.5546875
408,17116.594,2411.1873,536.1114,7678.568,-1871.7921,-13038.966,30737.18359375
409,37338.715,3462.244,7913.8525,-9768.862,915.3409,-4198.3306,36855.26953125
410,-2562.8164,2889.6843,13044.473,11164.89,-4136.532,5844.0864,26757.71875
411,-30172.412,-27661.334,-2398.847,16033.791,-1774.12,832.8935,38609.66015625
412,-6444.955,-8937.186,-17418.506,6328.7676,3460.834,526.3159,16006.388671875
413,347.73334,-1854.6604,7518.979,-6370.2896,4333.926,719.98486,15865.5869140625
414,3026.6829,-15084.001,-5796.1924,-280.92114,-1087.8617,1654.2734,16063.8916015625
415,-28064.992,-15092.672,-19294.42,-7365.833,-2368.8035,1177.5944,17753.583984375
416,-48097.336,-38269.977,-60805.227,-9232.505,-12497.771,3055.9246,33693.75
417,21884.562,22215.785,20357.855,-9.586339,77.74912,-588.5883,2000.98522949219
418,3185.0762,-8494.801,-329.5575,3825.2332,-486.2376,1603.9833,12650.947265625
419,-8274.04,-15760.745,-17048.916,5250.455,-1187.9442,-744.69696,12488.1337890625
420,-28985.324,-16366.0625,-12348.016,-4696.5107,-3678.85,-5192.9023,20341.2734375
421,-10847.106,-32247.586,-36788.88,6465.0293,-2101.417,3417.5547,27376.384765625
422,21687.494,11078.91,10402.497,2412.2944,-4332.102,-4033.678,15580.3037109375
423,6477.178,30463.477,23103.309,-7504.85,6236.374,-3307.8372,27774.84765625
424,11089.169,19050.012,29691.668,-3262.2744,-1019.8622,3464.7258,18231.759765625
425,-88191.266,-93769.21,-93073.67,-1292.8507,7407.9478,-7083.2554,18651.609375
426,-64419.785,-64712.066,-44388.15,10555.768,2711.9814,3058.9043,28135.646484375
427,11323.929,10989.91,14393.038,3791.2793,907.7133,-3477.2969,9613.748046875
428,10951.298,10062.675,9212.954,1655.3763,-872.25867,1624.5055,4548.310546875
429,-14910.871,2039.7753,-23499.494,1054.9873,-4645.1943,6020.8115,26143.728515625
430,11319.848,18822.373,19072.87,6383.5967,2540.7532,-811.5591,14206.4453125
431,-1114.3885,4267.3843,-9152.543,-55.51518,2828.3223,3653.391,14173.3623046875
432,12734.196,12982.699,14957.398,-5605.406,2028.5498,-8198.956,17684.09765625
433,6812.1035,-14577.218,-31302.379,-34.102413,8715.263,-4389.6704,37157.1328125
434,16930.562,10021.979,10212.112,18697.025,-3480.8394,3886.1218,34305.1328125
435,9419.594,26133.982,11183.561,20067.258,-5250.342,-4420.865,40030.16015625
436,5771.073,-6335.3633,-8439.321,-2802.3975,5652.9146,-1019.8348,17291.92578125
437,-1996.6204,-4498.121,-11596.005,1948.6783,209.94986,2796.8901,10458.72265625
438,69957.69,46036.145,46151.016,-7523.094,-1940.3075,10602.407,32982.17578125
439,-8147.3193,-3176.8765,-17646.697,978.11804,6566.3394,481.3069,17177.751953125
440,1708.9304,18376.379,-16755.572,-1734.4406,-1919.514,9565.193,34943.59765625
441,13129.811,-2066.0947,2978.469,-6016.2827,2015.7335,467.6428,17353.357421875
442,-2899.776,-779.22,-10276.501,6717.4507,-1060.0126,-1756.2585,14918.1845703125
443,9064.934,-294.02124,1425.631,4992.825,-3238.0847,-1936.2933,13854.287109375
444,1350.6755,2651.5852,7691.2656,-3676.5212,-939.6259,1421.273,9105.27734375
445,-14553.953,12599.826,-1862.1627,7617.903,2766.6208,-4600.4556,28536.498046875
446,-4077.4766,12164.711,14595.724,3835.905,-549.06976,-6681.1934,22094.466796875
447,-3535.3877,-982.5281,-7366.064,-6058.112,-3211.967,2221.3945,13668.4482421875
448,6365.3486,-5627.116,14412.657,14295.904,9127.092,8486.674,37204.65625
449,-6460.2837,1691.2368,2091.5352,-9049.013,1394.2987,4293.624,19407.7890625
450,-1481.374,-15618.338,-19834.031,-11488.264,3303.5808,7407.7124,29504.6953125
451,56714.723,24777.04,47552.555,-4576.4355,-5752.924,-10396.945,36024.3203125
452,-1078.8145,-12223.202,-7811.1445,-229.18642,-2634.996,-443.21658,10773.599609375
453,8430.893,16663.004,-1139.5552,-11503.73,-4097.668,-603.7272,26203.427734375
454,-11653.942,3515.5303,-20575.166,4388.3193,-844.57306,-3318.8767,23194.5703125
455,911.86206,-3177.8057,6110.786,1749.6877,4707.063,-3199.4863,13091.208984375
456,-4672.837,-9917.76,-12411.371,3254.537,4864.606,1240.8499,12417.505859375
457,66980.39,35525.45,27234.078,374.7421,4046.3098,760.27124,37016.7265625
458,-44898.05,-15615.255,-23109.205,12234.438,7686.1787,1840.2081,36477.84375
459,-10368.518,-5211.5293,-29094.348,2712.4648,-611.88586,-2857.91,22836.783203125
460,-18545.246,-20003.988,16168.111,-3531.2637,1166.8116,-3822.251,36648.40625
461,5102.799,29868.104,-10796.471,-5753.9893,1963.1108,-5723.643,38327.8515625
462,-4684.761,-8705.349,-11148.569,-161.40291,-3528.791,-473.4482,8370.50390625
463,-37245.69,-48640.543,-21071.29,14346.275,-2299.5437,2700.723,35084.9140625
464,28029.92,7741.1807,30037.611,-14980.567,-2287.7698,3161.0771,34283.0625
465,12338.604,6827.8037,17704.691,-1542.577,1031.823,999.7431,10102.787109375
466,-10088.972,-4721.4062,-23724.334,-4885.8135,-3356.4922,1374.149,19974.9609375
467,-9829.009,-9126.281,-3500.2026,1752.8394,-40.144596,409.76443,6769.49609375
468,-1209.3906,-22651.162,-5822.372,-17598.355,-3607.1565,214.96207,36747.765625
469,-19527.215,-17950.578,-23354.668,-14557.789,3356.6582,-2511.1252,26677.255859375
470,-23833.59,-25933.264,-19359.781,-3187.7913,4212.639,3021.791,12038.9287109375
471,4151.88,23249.773,-11797.308,8109.345,3500.9683,-2926.0508,34401.1953125
472,-3295.59,-3800.4639,-6314.419,285.08237,-609.3766,260.61,3066.86889648438
473,16924.043,7203.362,18084.72,1246.1375,-2757.5068,2723.141,12523.498046875
474,-54520.203,-75264.77,-32694.484,3418.1895,-4305.7188,4760.8193,38963.19140625
475,2287.8057,-13513.681,-18519.41,-1244.1321,-925.94293,658.46246,19035.720703125
476,-3523.685,-14485.171,-1397.5791,7986.7437,-7574.2505,7212.461,25836.2265625
477,26176.28,29674.66,28884.523,6632.283,-2426.4458,-3515.979,14028.8837890625
478,2346.064,-2958.357,20841.021,-3625.415,7776.427,-4902.494,27590.90625
479,21969.672,-2000.6738,41314.414,52.34581,497.8705,1728.6642,37712.2421875
480,-5902.9146,-2118.3794,-3113.963,-1959.4159,2783.3782,528.2722,6866.0615234375
481,16066.109,17224.045,18146.885,-6899.989,1995.5327,-968.43494,12682.6904296875
482,16064.021,-8229.416,-5892.9175,12071.473,-2169.7693,9505.792,35513.859375
483,13492.416,-4061.3506,4696.089,-3048.4602,869.49457,3124.3406,17045.0390625
484,-1101.2147,4425.4507,910.8526,75.70209,321.38287,736.41034,5042.45703125
485,1128.7498,2903.2014,4869.5444,3519.497,2301.585,1117.7728,8203.966796875
486,-49342.832,-28994.287,-21111.951,16577.576,-1617.6481,-4108.977,38981.25390625
487,-10605.92,-8477.81,17195.082,3482.4001,2348.5005,-1548.3291,27899.47265625
488,-5601.857,-4970.869,1120.5879,-13579.24,5073.199,-1078.1364,25985.267578125
489,8932.67,11088.811,2773.2388,-3585.8472,-2311.6,182.75818,10515.404296875
490,3785.1768,1794.7422,-30773.613,-2929.2026,1978.4166,3414.3687,34669.02734375
491,-12257.258,-16327.25,6968.1274,-310.19476,-2651.4285,4002.0317,23105.302734375
492,-10833.619,-21356.193,-7817.3584,-469.05905,-271.48416,3835.144,14020.248046875
493,12403.221,-1366.1367,25518.072,4561.3574,14141.022,-1342.1276,34783.69140625
494,-14981.35,-39671.332,-7168.1504,11657.414,-944.3824,4898.841,36686.59765625
495,7068.41,-8809.466,17292.502,-5539.6875,-2205.54,-707.0291,25042.626953125
496,5228.402,1540.364,4000.7168,831.7103,1482.6355,2163.4375,5769.94970703125
497,-8590.193,5223.493,270.84534,-1742.0494,-4329.765,6581.2407,18499.0625
498,-9238.612,3411.9446,10006.496,-214.32097,2340.2798,2649.9067,18016.21484375
499,1611.4448,-7809.869,-12110.832,-1249.0233,-1679.1271,497.96326,12714.6630859375
500,39964.715,30764.611,18843.107,-15558.531,-1679.2163,-7958.976,35512.5625
501,-5818.4756,-20385.95,-19621.213,15685.357,512.88794,6164.1636,32473.48046875
502,-245.08691,-11801.29,-18388.322,3388.2087,1036.748,-1567.3999,17265.298828125
503,-27595.924,-16707.715,-16778.79,451.42493,-324.95572,652.76416,10954.02734375
504,-16170.305,492.417,-14157.703,-15523.977,-9578.422,1041.0182,35350.14453125
505,-12272.836,-729.0812,8751.945,-3305.8796,3421.4114,641.4193,20043.296875
506,-8373.671,11147.669,31195.36,-2150.0957,1648.4263,-5536.841,35893.46484375
507,14723.102,27429.824,10084.225,2053.423,-541.54175,-589.96155,16015.5712890625
508,11065.432,8519.399,14441.139,-6449.7754,-4200.8047,-575.22186,14324.9462890625
509,11447.537,7628.449,9030.546,843.6858,-1077.8696,1820.7301,5173.255859375
510,33593.3,41613.918,8367.004,-9292.016,1197.5427,-8753.384,37366.015625
511,-21152.11,-22552.486,-16947.285,11793.202,4404.4404,4490.082,23694.90625
512,-23607.812,-17057.818,1170.9727,14206.99,-2826.2683,-439.16644,33535.76171875
513,6498.6426,-8393.843,1616.2622,1488.776,618.05054,-109.65164,13444.1201171875
514,-10464.093,-6795.128,-15794.977,1418.6656,-2721.966,1664.8595,9900.447265625
515,-2003.8867,3283.2183,6490.5513,-9.598355,1021.7318,-126.17741,7640.53759765625
516,10969.859,8662.413,-397.14307,5537.926,-2320.0293,1696.6334,15003.115234375
517,-21965.15,-23202.531,-4452.089,1933.6895,2613.0142,-993.0722,19093.673828125
518,-47864.98,-64991.742,-24791.293,7659.473,-1608.4558,1066.5059,37524.32421875
519,17741.91,24450.3,41416.008,-9970.936,-4995.6255,764.37585,28662.353515625
520,-3680.646,1897.3799,-25770.953,210.03745,1453.2539,-429.7885,25482.126953125
521,16693.164,404.57617,19187.889,-11190.838,-4985.7207,-2191.4724,27872.240234375
522,22670.838,24169.46,33673.016,6430.6685,2377.3489,-2285.221,16232.3203125
523,-6411.034,-1496.5483,887.5198,2112.983,-709.40027,-2019.8232,8288.263671875
524,1234.7971,2454.4343,1853.0533,1941.8705,246.26071,-911.935,3886.52783203125
525,1059.084,15760.375,8310.351,305.3152,1319.639,-188.48965,12950.5380859375
526,-9110.887,-5759.684,4164.871,613.83606,132.4409,-1107.8835,12159.431640625
527,-20847.658,-19860.738,-12495.709,2989.3352,1125.6282,877.5337,9767.6015625
528,-4284.517,7351.887,4378.933,1290.4055,413.42224,293.65073,10743.21875
529,-35427.38,-34680.934,-14109.952,14198.843,-1691.0834,5734.492,33928.328125
530,11950.148,29503.29,11285.586,2216.6624,-7904.788,-3327.9827,23572.09765625
531,13628.685,45500.664,16874.66,-5340.6436,269.44748,-597.6267,31776.728515625
532,-3502.6182,-1449.9895,-6023.6587,3705.443,-480.42435,3279.6016,9481.265625
533,5559.4697,-14662.196,-7519.045,-2339.2773,-2958.6936,-1437.2485,19088.458984375
534,48727.28,59596.434,49344.168,-10573.498,-555.22107,-9526.079,26839.783203125
535,56.25244,-5264.3203,-10717.577,5194.0356,56.767807,-734.51556,13023.9462890625
536,-19775.59,-43651.504,-23936.484,12992.226,1244.6165,8352.926,34761.79296875
537,-10267.764,-6976.6675,15669.093,867.1261,1508.5261,-2977.9055,25176.92578125
538,-5733.5396,-1738.5264,19270.332,4145.4453,-939.12964,2635.0562,24825.26171875
539,-4943.1895,3336.2974,-5686.3496,893.702,-476.78723,-2783.5151,10078.5478515625
540,-5606.671,1035.1602,1305.2683,2400.349,-496.95612,567.1143,8060.50048828125
541,-12208.344,10271.517,9769.835,-6106.71,-279.23364,3565.0098,25388.099609375
542,108.042725,2301.2275,7827.458,6177.625,-1485.6362,-654.6654,13033.2490234375
543,-9818.304,13080.801,-4867.5205,9354.819,-72.23655,-4930.8257,27766.94921875
544,13749.266,-14588.271,4791.358,2695.3655,2061.3948,-9.191763,25767.388671875
545,-21866.793,-10353.812,-10456.102,-1499.2356,-495.4162,-236.1928,11791.0283203125
546,6060.547,-12430.228,-1874.9718,1423.1473,1135.034,-320.57007,16382.8125
547,2656.4844,-16385.39,-5104.5654,-4638.9854,-715.23083,1296.279,18605.865234375
548,13113.197,-25151.566,-2355.9111,-2490.3882,-3683.3765,-882.56146,34252.12890625
549,-17931.865,-57.59961,-43117.242,-2499.9949,-2505.504,-4364.4355,38712.921875
550,-8176.8516,-13494.364,8986.954,5515.6787,1041.3759,-2089.5178,22842.08203125
551,5895.9136,6721.2236,10878.165,4969.4834,1139.3398,762.29193,10055.69140625
552,-6838.1206,10505.041,4177.7236,-2190.203,3015.9995,-810.1379,16575.078125
553,924.35016,-360.68222,-2703.1401,-10924.068,824.1492,2202.5833,19614.947265625
554,-20436.193,-25089.262,-7561.865,-3503.3428,-708.32086,-2009.5568,17255.28515625
555,14203.877,14991.886,13478.547,-4683.17,871.55634,1167.527,8595.525390625
556,2820.5564,11098.722,2012.4495,4017.1187,-500.92505,644.7748,11237.544921875
557,-4904.359,1887.4819,-635.23346,3636.037,1944.0654,-1889.5681,9852.470703125
558,5665.63,3721.9346,-5837.2393,2875.984,-791.2717,570.2142,11891.3203125
559,-21683.604,-11846.434,-19221.11,11344.103,-564.09296,825.05676,21625.73828125
560,-22512.12,-24429.06,-14104.004,-4034.68,114.85689,1359.9193,12037.9638671875
561,-9654.353,-27210.45,1856.9014,-10687.219,492.83417,-2216.7954,31637.626953125
562,355.59808,846.7215,2908.3257,-4422.8276,197.51076,-1650.5786,8513.423828125
563,-3578.1245,-15381.971,-16207.105,2212.501,3576.415,-1287.6804,14414.6962890625
564,-242.0586,-7979.577,-8239.2,-3462.2505,-1954.2443,-402.5478,10480.9501953125
565,9400.249,12620.3125,-2664.2368,-6580.5225,-677.5272,940.31146,18130.322265625
566,814.98145,-6754.4404,-8752.872,1326.5498,630.565,-1544.2659,9489.107421875
567,-11129.105,-20256.016,-11061.068,8986.832,1980.6273,-35.770603,18384.451171875
568,10299.379,5067.217,-3475.9868,-4884.903,-23.55072,-597.6517,14755.3828125
569,-6966.9614,-6244.239,-19907.002,-2113.8208,-2549.7524,-1900.8875,14868.341796875
570,-4149.4746,-58.57617,-8193.905,598.0666,302.95703,1069.8022,7376.9951171875
571,-5503.028,-6314.5825,15590.258,-15604.085,-309.88113,-5037.5664,35631.2421875
572,19896.75,16171.891,20869.602,-3325.595,-638.4629,1690.8062,7837.27490234375
573,24557.28,47683.367,12646.681,693.517,1361.6865,-6693.846,33068.8984375
574,679.60583,4174.388,-6902.6045,6851.061,-479.18396,1731.979,15706.7119140625
575,16272.688,18134.775,21192.414,4389.4453,630.2541,-4902.3438,12231.205078125
576,-8424.239,24993.96,-244.1172,14126.129,2976.316,175.36346,39187.1875
577,3178.0986,-3999.8745,-6759.6206,46.559734,-4263.432,3435.5544,12995.962890625
578,4704.7705,-22660.123,-10449.608,-18096.082,-2827.3958,-77.482544,39625.74609375
579,-36334.33,-62087.27,-33419.85,-16554.05,3712.2449,-447.55432,40134.9921875
