Element Label,S11,S22,S33,S12,S13,S23,Mises
1,45198.81,19902.883,44529.027,13101.503,-11139.635,-1108.4366,38913.984375
2,10432.227,-11709.664,-18722.992,-3618.707,-9617.871,-5717.2603,33310.5859375
3,-49545.77,-28309.21,-51757.438,12708.483,12161.985,3948.8481,38443.33203125
4,-45148.832,-73468.88,-55022.5,16804.701,-145.25429,-142.62053,38304.1796875
5,82764.86,79672.34,67831.65,541.05695,-14476.806,-3683.101,29269.28125
6,-105263.56,-146047.12,-125278.086,-4102.685,2778.9824,-9448.525,39863.578125
7,101588.49,125809.41,142310.95,-2245.228,-3222.4658,9378.1,39607.5546875
8,23245.498,-4599.41,-11051.3955,-4440.8687,10757.287,-7820.282,39829.8125
9,28491.885,31756.775,9099.894,-1464.7134,-14469.29,4503.953,33843.6953125
10,31253.346,30200.469,30135.47,-413.93945,867.83606,-128.16095,2000.98510742188
11,-92777.2,-111340.21,-97215.305,-5702.932,-12439.581,-11889.358,35605.73046875
12,105374.875,120189.664,142830.98,-2120.8098,-10802.603,3596.4072,38339.51171875
13,-35026.383,-38858.074,-12486.425,4589.924,-13419.817,635.2999,34839.421875
14,153193.19,151182.16,159231.52,238.89595,527.1961,681.79694,7419.46630859375
15,206414.55,205294.81,205205.02,209.26811,-714.15125,571.2331,2000.6884765625
16,9590.335,-7993.7563,-8465.184,3765.3645,3898.0068,12216.002,29215.091796875
17,433889.1,432928.22,432685.38,86.19541,-63.02118,-958.16656,2001.01220703125
18,43941.074,43562.477,42716.93,-117.5381,-961.4529,60.317654,2000.98547363281
19,247669.19,247810.97,246433.94,487.66122,-288.12506,663.41895,2000.9853515625
20,-608711.5,-607070.4,-609043.06,-280.06128,-128.18852,350.5201,2000.13830566406
21,-23307.375,-18877.91,-26432.113,-12370.888,948.66205,17067.05,37133.46484375
22,5207.3296,3244.6282,3396.914,-269.87207,-96.649284,-245.58145,2000.98547363281
23,8342.05,9973.261,-11072.4,9937.449,-6574.924,-6527.6724,31064.9296875
24,9775.596,-5531.129,9718.601,4175.362,2007.7681,-1507.3004,17453.849609375
25,359.64532,420.89896,-128.63655,732.5599,734.4983,-409.6612,2000.98522949219
26,1202.0802,-1383.5303,6307.087,7570.929,-2109.4014,-1791.9401,15520.4638671875
27,14928.711,15736.555,15571.7295,-1066.0742,-119.11207,41.609528,2000.98120117188
28,45479.43,26723.855,32421.406,-6341.1826,-156.25452,1289.0897,20076.431640625
29,-147884.75,-142534.1,-136434.22,-1672.3601,10588.214,-1172.1573,21149.92578125
30,41914.434,47499.69,76636.12,709.2356,8459.45,-2346.0728,35715.109375
31,-23767.168,-33380.37,-33483.414,1239.2104,-14649.625,-3105.9917,27763.248046875
32,23177.95,1949.2739,-5808.6445,5.7488074,-10767.82,1026.3622,32039.513671875
33,-1897.5663,-12326.622,-526.9243,2093.996,-11561.536,11205.771,30262.322265625
34,-2001.9468,-11170.896,-1114.2634,13275.261,-11546.271,-1621.985,32086.384765625
35,22282.035,25015.78,8445.585,-5424.593,-13119.424,6824.8794,31322.826171875
36,-8542.258,3873.414,-22481.953,4100.362,-1643.3633,-132.46732,24085.849609375
37,-8347.801,2567.24,-15509.329,5638.751,-4754.7104,1698.6315,20505.08203125
38,-4626.432,-22360.37,-38408.91,-6005.017,8845.069,-1032.2921,34680.47265625
39,8115.894,-3488.2737,4434.399,3832.0615,18157.83,-5570.029,35096.1484375
40,11987.252,-29575.293,-21944.408,-414.99014,-1805.4167,-3881.0535,39038.43359375
41,-16781.344,2163.0774,-20800.068,-18364.697,540.9014,-6686.607,39974.6171875
42,-18871.92,-16549.637,-19439.021,7185.6753,8304.074,3945.6748,20384.095703125
43,1783.0781,5808.3804,-5322.4224,-9442.769,5612.034,8924.215,26385.607421875
44,7838.677,831.5677,-3814.1655,-5942.755,-5827.7607,6495.7812,20920.2890625
45,-14820.905,-9158.163,9948.388,145.68857,8197.915,-2381.138,26907.48828125
46,201806.92,201089.52,200029.44,691.2768,45.343613,68.696884,1962.87048339844
47,570868.4,571101.3,569716.44,853.2462,-205.85056,-41.127285,1991.44018554688
48,-511345.56,-510348.34,-510554.94,119.4487,-800.2015,503.90164,1885.90270996094
49,201651.33,200377.78,199740.23,-293.08228,302.58978,-458.69885,2000.97998046875
50,82145.27,81630.586,81231.11,46.9428,921.3333,522.98303,2000.94982910156
51,173252.12,171852.55,172058.08,251.42789,-813.1834,179.2867,1995.81713867188
52,-568411.56,-566815.44,-567149.8,380.0799,-691.78174,36.740086,1999.70874023438
53,199626.69,201373.16,199606.08,-66.893364,-450.06738,314.27094,2000.99377441406
54,105051.49,106714.914,106169.56,-376.9681,-680.0501,104.78319,2000.97192382813
55,75070.23,74822.125,74009.19,-344.83505,-589.39075,-748.5423,2000.98413085938
56,40265.1,30726.219,42720.79,2746.7139,888.20294,-545.18677,12096.9794921875
57,30902.324,29822.76,26089.773,1337.1229,-2290.344,-1922.147,7163.470703125
58,27556.508,24973.623,26176.291,95.29772,1113.8,-334.51337,3015.94848632813
59,8685.847,9022.803,7497.3975,365.9443,-231.95142,-710.49,2000.98583984375
60,20779.836,20311.393,20838.516,251.57684,884.54584,636.7721,2000.98571777344
61,-13239.58,4820.1187,-618.1023,1866.507,-455.4426,-4097.8726,17859.615234375
62,95026.31,95334.58,95354.56,1070.5391,-375.34866,-117.6716,2000.98693847656
63,-337676.4,-339715.22,-338009.56,-4.248672,-247.75899,277.55347,2000.95520019531
64,-518787.16,-517916.97,-517804.38,281.73685,-591.381,-785.01764,2000.98999023438
65,29740.797,28151.795,29346.602,-790.148,106.99589,-119.247406,2000.98620605469
66,-37632.508,-36288.855,-15532.001,-1578.1298,-6711.787,3032.8606,25114.79296875
67,-27617.668,-14976.001,-16981.725,889.9376,-5311.6816,5045.149,17374.044921875
68,59485.492,77788.71,66039.04,11885.015,1453.2821,1909.3235,26439.349609375
69,268099.84,266637.0,269769.03,-5820.721,-15346.675,6436.868,30657.322265625
70,-105371.12,-115026.51,-103786.945,-686.22943,12478.9795,5599.223,25955.21875
71,15169.676,14911.521,15126.259,155.9214,-473.55563,-1032.926,2000.95666503906
72,31445.146,30886.824,30462.486,-239.05463,-912.9926,448.3788,2000.9853515625
73,56326.535,63555.457,75275.49,-5779.736,886.45734,4251.738,20764.03125
74,30353.287,27480.865,29637.146,-508.10538,2374.127,424.76898,4993.1796875
75,31828.318,31481.99,32544.984,-376.2477,652.6273,687.78955,2000.84289550781
76,2315.807,960.8592,-1868.7926,527.2115,-4235.2026,-2023.8181,8978.25390625
77,25145.22,23327.08,23623.342,-521.80975,-52.098988,-328.72507,2000.98486328125
78,47598.605,46955.914,47306.363,-260.60144,765.5826,-759.6529,2000.98547363281
79,349204.94,349329.4,349888.3,-502.75616,-577.6663,-784.6707,2000.98620605469
80,128075.79,119427.74,119648.73,-1024.4745,448.40158,1.7433691,8756.615234375
81,100703.63,100956.57,101652.07,71.437645,-1040.7529,39.278137,1998.2626953125
82,1294064.2,1293533.8,1294530.4,949.5789,294.6642,311.934,2000.86791992188
83,732690.0,732747.9,732680.9,1118.3116,190.61774,215.34175,2000.98608398438
84,256052.55,257823.42,257575.12,-344.79248,53.152145,-541.8678,2000.98229980469
85,2292.7388,1333.6434,1302.0121,249.77579,-350.03656,912.5058,2000.98559570313
86,8951.92,-7359.276,7595.6597,-1983.2256,-5803.0244,8582.829,24074.716796875
87,-16964.217,-15109.383,-13519.397,-16582.72,3254.9138,-121.45266,29422.8671875
88,-16225.386,-9495.783,-13617.792,-4193.394,-2404.2666,12998.291,24728.544921875
89,-14877.959,-9436.402,-12513.857,-1460.921,-4459.9897,8320.231,17207.302734375
90,99587.32,98672.32,74250.96,4981.6763,5715.158,892.0319,28185.333984375
91,27496.49,29575.824,32927.695,13170.6045,10840.63,5510.452,31409.8046875
92,19676.38,37654.97,18141.28,100.398056,-8410.774,-995.6524,23841.408203125
93,107202.01,108635.38,108583.34,-734.6624,-173.20316,322.53168,2000.98608398438
94,70435.27,78029.59,76493.39,6568.289,10277.514,-6680.9004,25071.490234375
95,207762.1,207886.47,208321.06,378.7538,-1047.4181,-89.32257,2000.986328125
96,290959.28,291091.2,291439.44,-856.49506,-729.51514,-85.6484,2000.98693847656
97,286095.66,286564.1,285852.22,945.60834,-421.46924,-363.2152,2000.98498535156
98,366964.7,368677.8,368069.06,-734.64795,194.57803,-53.99641,2000.98986816406
99,271492.66,273440.53,272702.84,-408.63028,447.45963,16.688389,2000.97692871094
100,34982.086,21413.047,30442.531,11617.039,12586.631,6954.1333,34181.0703125
101,-124287.14,-123073.914,-125166.266,-155.40927,-329.09293,-312.65228,2000.49353027344
102,37894.207,38712.734,38249.53,822.8574,223.69539,-662.606,2000.98522949219
103,-2560815.0,-2562015.0,-2561350.5,912.75464,-285.3877,191.78397,1984.49108886719
104,14417.817,16833.115,13602.15,-192.1453,-832.4522,-338.80927,3317.09521484375
105,21465.418,14041.632,29161.86,-376.94226,3691.7876,-2799.3096,15372.283203125
106,8925.202,17360.178,15157.291,1680.5659,-34.285767,-4771.7817,11584.7470703125
107,2480.9968,674.7551,23485.19,3362.9382,6129.288,4004.7698,26021.61328125
108,-4648.207,110.55187,22786.916,-2776.4534,1883.8175,2078.402,26296.5078125
109,27880.56,19050.557,4949.964,7129.8057,-412.20142,-5802.5063,25599.28515625
110,-4394.193,-3846.4248,-17257.553,3603.3782,8010.089,-14846.714,32642.37109375
111,-966.1975,-6539.197,15051.649,-10150.631,1123.0284,2859.71,26726.775390625
112,22698.7,27311.275,26037.738,-5067.4497,17366.957,8292.61,34715.9375
113,2420.3555,2862.174,11475.864,4312.8154,11823.621,4405.9624,24731.140625
114,-42434.984,-74502.555,-44546.73,-4512.028,438.0891,-7393.5234,34506.71484375
115,-410711.12,-412375.62,-412229.62,652.06274,-40.17258,240.96133,2000.86108398438
116,29179.875,29118.387,31314.045,410.71805,156.2878,186.8201,2318.1328125
117,-478165.56,-478228.66,-477463.3,-573.12537,-724.7545,-548.11115,2000.986328125
118,534865.25,536126.8,534896.9,-588.0992,66.788124,677.154,1994.79821777344
119,65126.86,66226.98,66113.08,-615.3092,-768.1156,-7.997527,2000.98522949219
120,1474425.2,1472863.5,1474701.4,324.1523,496.1367,-28.82785,2000.67956542969
121,-38789.246,-39277.977,-40389.723,2135.7607,7783.648,497.9464,14078.4228515625
122,22940.207,18037.777,28643.709,-6220.3154,-15747.656,-5838.017,32354.521484375
123,9969.735,1453.0043,25904.734,-7933.8325,9039.569,4922.5557,31126.294921875
124,17747.17,53366.184,21969.55,742.41736,-3664.1846,8537.692,37373.1796875
125,33703.344,35460.64,25707.875,-3106.3313,-631.8862,10761.388,21415.74609375
126,-97236.72,-108474.13,-85597.586,1281.6674,-2231.7493,4003.002,21458.91015625
127,25350.42,26138.246,26198.035,80.90647,776.78674,707.75757,2000.98498535156
128,-154477.28,-154912.11,-154413.23,3519.257,2605.8093,-5665.3228,12411.080078125
129,-95079.516,-94812.81,-95470.55,1044.8313,-50.250904,-361.89783,2000.95678710938
130,4652.4395,5734.628,6364.835,-151.0521,-242.15352,709.2913,2000.98559570313
131,-5521.811,-13591.621,632.8222,596.2267,-3620.5505,216.06535,13899.6298828125
132,-36196.465,-54961.03,-27839.506,907.3588,-1521.3483,-8039.7456,27965.84375
133,8526.314,-6791.6484,9843.773,1989.7296,12810.316,-2411.7385,27896.15625
134,-23640.232,-21948.967,-11475.2705,-12044.254,-6795.3584,-6581.8315,28878.3125
135,-123078.81,-114836.53,-122188.13,-4297.6426,-9105.801,10541.137,26436.52734375
136,128427.53,128457.14,129177.48,756.7579,-643.35986,-409.4952,2000.98266601563
137,409976.16,410675.1,411963.97,102.21437,87.27846,520.14966,1978.99426269531
138,-1228918500.0,-1228919700.0,-1228919800.0,12.602788,648.112,624.10175,1981.98608398438
139,-8480748.0,-8479270.0,-8480036.0,-238.26257,-818.49506,-247.77953,2000.84631347656
140,423194.84,424134.0,422731.5,332.466,231.3886,773.9846,1954.79760742188
141,33990.727,33852.332,35200.09,-48.706573,-637.3011,-613.51843,2000.96765136719
142,199192.06,197932.61,198907.56,-411.07465,-2522.9773,730.15466,4744.61962890625
143,65414.957,62431.145,67493.96,-1515.4292,-2335.633,207.44078,6543.162109375
144,31587.879,29243.443,38023.844,-7799.332,7572.462,-533.4969,20429.77734375
145,76008.914,78336.8,80844.27,-7015.8203,5956.6387,7424.2856,20904.8671875
146,25023.824,42565.113,50366.402,6684.1553,-5682.6953,4299.9707,28138.65234375
147,-149099.95,-154165.19,-151513.86,-1554.8029,1601.2859,-1439.8301,6357.70849609375
148,752.5724,3323.733,-1088.0719,-2693.8472,-5849.278,-70.11823,11796.5576171875
149,63814.016,63419.867,65366.406,300.73328,296.6072,311.74802,2000.98767089844
150,44098.266,40298.94,49412.457,2693.9136,547.3012,1485.7158,9599.896484375
151,485547.1,486847.3,485396.56,805.62317,56.028286,214.87877,2000.99328613281
152,189168.78,189329.23,189181.25,879.4643,333.61658,664.4852,2000.69836425781
153,21146.934,17328.838,-6194.0815,-3238.0374,-11511.006,-4495.911,33872.1484375
154,-15725.932,-13981.438,-16073.467,230.44664,493.77158,-2462.444,4780.37158203125
155,6654.863,8240.189,6015.8525,502.97125,529.3243,2919.9631,5577.87451171875
156,14618.061,13337.968,13349.233,860.7514,22.387466,227.61107,2000.986328125
157,390.4798,-3312.7444,5189.2544,-213.29184,617.5769,-1636.2727,7989.111328125
158,15615.437,14739.291,-840.4655,10117.3545,-4756.198,610.2908,25163.6796875
159,-2116.325,-33358.934,-25239.084,-4675.444,-9464.526,1694.8187,33634.44140625
160,-9767.543,-5458.08,8769.966,-5764.5557,9432.101,5327.058,27093.181640625
161,13665.028,11160.613,2818.348,3521.954,-16335.768,-3738.8716,31248.6796875
162,24619.213,8387.687,28382.066,-4731.9565,14018.392,8672.096,34943.30078125
163,2358.8474,-10727.551,-2510.9072,500.62964,8388.792,5585.401,20897.328125
164,-21059.16,14197.184,-823.9784,-6503.2974,4312.377,6704.456,35448.1484375
165,-11760.749,568.37964,-17305.277,-12276.28,10651.499,6953.695,34476.87109375
166,-16170.235,-39015.406,-30756.76,116.50467,-13608.321,10799.403,36151.32421875
167,-77290.0,-93059.51,-104010.79,11084.6455,5241.5254,-1106.8408,31559.6015625
168,-41513.707,-14551.489,-19743.088,-2909.828,3049.9922,-7537.6846,28942.97265625
169,10434.182,18282.781,17736.475,4360.141,265.92746,7920.4673,17408.5390625
170,-10869.344,1810.7617,-495.41547,-12321.504,-9101.42,-2883.0693,29423.853515625
171,4323.4585,61.08292,13803.876,2924.4065,1830.1458,-10129.875,22181.142578125
172,117128.37,119210.16,117612.41,16.407757,-379.06998,62.217716,2000.99365234375
173,-54982.28,-54699.027,-54088.414,922.49603,103.0814,-514.1339,2000.978515625
174,74533.61,72931.34,72613.02,151.05095,-438.2468,245.42215,2000.9853515625
175,55190.95,54867.016,55090.703,1128.582,97.575745,154.68509,2000.98645019531
176,8732.069,7793.8325,-3268.481,-8004.7524,-3866.6157,11462.96,27657.056640625
177,24700.945,23999.537,24966.889,858.8918,117.55926,577.39746,2000.98571777344
178,323706.6,322714.6,323300.2,220.35832,1013.2397,101.85348,2000.70861816406
179,12933.174,21685.426,19025.59,-16920.404,4549.0664,5430.025,32708.33203125
180,98783.0,102494.97,117886.56,-7062.6855,423.7547,7149.8228,24725.6171875
181,17256.95,-2800.8247,9896.438,-12974.173,-7945.8105,3366.2085,32206.29296875
182,-109358.72,-90680.43,-88549.19,11909.89,2173.6882,-1021.84076,28914.916015625
183,43092.49,42745.785,42450.035,-175.09535,-59.433945,-1094.0997,2000.98571777344
184,-1134273.2,-1133644.4,-1135564.5,411.34076,-428.7147,-151.78835,2000.73913574219
185,-17748.262,21549.963,11384.893,-2873.5122,-1596.9191,-1945.1735,35944.16015625
186,-51397.582,-24300.094,-20402.723,-46.583923,-1364.0724,5269.766,30724.1328125
187,8271.9,7292.117,7489.9814,777.1838,626.0907,-264.9963,2000.98559570313
188,26108.822,27051.264,27884.67,-442.6699,300.68024,-508.80707,2000.98669433594
189,13475.182,12633.0625,12256.472,51.840332,-950.1508,199.5011,2000.98571777344
190,-689.0404,-203.65405,1317.3162,-384.9104,-20.046667,300.5888,2000.98559570313
191,-21227.053,-28270.34,-13056.516,-6720.437,3891.687,2260.9338,19239.982421875
192,-549195.7,-534844.94,-517612.84,-7697.051,-4863.682,-355.0191,31611.0859375
193,49387.79,39630.242,64796.535,3059.6287,327.09677,-4270.5684,23793.044921875
194,1089248.5,1089263.6,1089536.2,-831.8502,-517.35455,-554.0118,1969.35400390625
195,30007.465,177.22176,33855.445,-8099.079,-2803.8835,-7080.2954,37285.37109375
196,5587.847,-9150.901,-9458.69,12206.931,-1927.3087,-4291.73,27116.224609375
197,-3041.838,13963.414,-2607.8591,-7638.459,16466.082,4146.216,36359.23828125
198,21506.928,23773.342,14165.168,4938.9814,-13441.401,-6255.903,28430.28125
199,3183.4692,15684.68,25232.43,-13804.659,-985.22284,-3545.7432,31291.099609375
200,3920.8936,-13795.395,-19834.686,4847.1953,550.89124,13191.12,32415.228515625
201,11690.798,3252.2236,37164.85,-6308.0645,-4072.1064,-1724.6749,33363.84765625
202,5627.3423,1204.8458,23555.969,2277.6187,-5961.823,-474.2399,23305.595703125
203,-14186.206,-11575.15,-5501.4287,-2371.8726,-13971.048,-11736.862,32791.40625
204,-15220.055,-7322.733,1528.1194,-10375.8,-5784.1035,-3776.1526,26013.8515625
205,-7981.0776,-12679.452,-21768.857,-11200.359,-2034.5187,724.4302,23189.087890625
206,9852.85,2713.9702,2024.6438,1642.506,-7399.2334,-4776.013,17237.462890625
207,-3959.1423,-5725.899,-10782.397,-1650.8053,-6263.0576,5980.7964,16455.580078125
208,-3545.1401,-20693.988,1107.4369,-3182.6394,10064.163,3735.481,27778.173828125
209,9161.0,14934.169,-13354.093,-5569.8413,11063.869,-2153.9348,33829.83203125
210,-15402.325,-7411.9453,-32768.688,-2214.9824,5444.5527,-2414.164,25006.66015625
211,4603.661,2778.9312,510.9955,-1057.794,497.0194,3041.7551,6668.30029296875
212,-8898.453,-2816.9102,-14279.542,-8679.926,-13149.764,12196.937,35912.875
213,-5313.85,3741.7927,13472.503,-5376.908,9990.808,14484.896,35783.0703125
214,13034.833,3200.776,18482.852,451.85144,10391.238,13110.977,31940.646484375
215,4900.4033,7468.9106,30061.566,-8588.007,-137.62961,4297.2583,29185.140625
216,-21372.406,-11306.872,-4922.5063,3950.5698,5181.7217,-4635.8696,19954.517578125
217,4913.4033,4868.8374,6110.291,545.38995,715.06647,-172.97913,2000.9853515625
218,2510.0762,2115.5618,1585.2169,451.82202,69.82545,-954.07025,2000.98522949219
219,8421.887,4317.9966,18401.484,-1584.6405,791.3735,788.2329,12987.126953125
220,2302.237,-3475.7498,-6082.947,-1946.0321,-4330.579,-558.33777,11126.7724609375
221,640.58606,1263.6334,3565.95,725.0223,1308.9115,1819.2427,4875.34130859375
222,-29125.63,-16333.462,-11503.361,-2482.312,-2615.4365,17998.633,35491.07421875
223,3734.4023,48.88971,9956.993,3744.106,-12396.721,5714.3774,26005.5859375
224,9174.284,36804.53,34403.98,10711.601,3569.5498,-524.6909,32956.5078125
225,59541.348,43950.414,36116.17,-7862.7285,-1864.8716,-15752.25,36971.5625
226,-18097.828,-1401.1115,22783.338,-735.93054,37.087303,7775.638,38085.16015625
227,-5405.413,-16236.377,-8453.223,1467.3479,-119.35092,-6825.1587,15486.724609375
228,87479.97,51749.594,72977.54,279.0421,-2949.2454,8752.357,34999.171875
229,93584.58,87204.07,72702.35,1418.7352,2880.6414,-3967.722,20535.341796875
230,471060.9,454725.47,464826.16,-13142.607,-8966.038,651.7912,31056.396484375
231,77346.336,114685.52,97416.17,-10122.148,-738.8602,4535.9985,37661.109375
232,377361.0,377305.38,376056.06,139.63281,816.08453,-323.43283,2000.9169921875
233,16470.14,16313.148,14901.49,409.6439,600.09766,-245.71162,2000.98559570313
234,125264.09,130607.35,124824.61,-1370.0013,15376.92,-2610.28,27685.95703125
235,289827.66,290117.47,288604.84,406.14923,-186.37804,-700.1474,2000.83715820313
236,1038259.06,1036515.25,1025104.94,-726.9178,-3516.9773,-345.24155,13863.03515625
237,9736.429,30754.34,13519.029,5741.6875,-6147.3423,-2207.4067,24565.150390625
238,-43317.324,-20627.818,-24021.535,4989.489,8733.709,13276.896,35800.4921875
239,-103341.555,-120288.76,-111080.86,-17020.475,-1177.8175,2227.0679,33227.63671875
240,-20934.22,-12255.064,-41217.09,13662.812,-3980.1833,2291.7253,35861.671875
241,-40211.51,-12429.952,-43473.65,-4594.3486,9651.616,-2941.7751,35239.625
242,-53894.28,-66302.36,-40831.062,-94.33783,-4722.847,15532.297,35740.6875
243,-41008.574,-13203.823,-44351.19,-10382.309,8471.097,1795.7773,37756.42578125
244,52422.492,57398.184,22219.137,5326.0195,2094.6216,6971.652,36487.75390625
245,33764.285,40587.1,34771.355,-16261.197,12223.256,-1822.997,35946.73046875
246,-6347.542,-3571.8623,-20642.56,2798.4214,-8829.646,-5119.3066,24243.21875
247,6510.5654,22385.146,9346.197,19476.484,-4867.3335,-682.65027,37755.79296875
248,41391.305,25855.244,28820.809,-5120.5854,10383.544,843.1816,24664.51953125
249,-24724.354,-16146.808,-41972.234,8294.031,-15341.381,-1795.5637,37962.1796875
250,-46043.94,-19404.37,-39073.41,557.7964,-15884.19,419.48505,36482.14453125
251,211950.89,189195.23,216111.53,-9514.681,-5899.042,5600.972,33164.8203125
252,46334.61,44335.523,39348.09,2047.6062,3715.1692,-755.291,9723.068359375
253,-140596.9,-135826.75,-152830.53,2329.671,7829.7085,6465.6567,23587.7421875
254,44604.19,43157.133,45135.047,-87.96172,343.54855,-401.1214,2000.98693847656
255,756830.3,758266.75,758085.56,684.3289,24.891157,503.41287,2000.74169921875
256,-894960.94,-893048.5,-894156.0,-389.57748,508.97894,2.6371274,1999.61511230469
257,270990.2,271500.53,272487.7,-838.2617,-3.3627698,-191.27098,1989.10864257813
258,1185277.4,1185510.9,1185474.5,613.14026,418.5936,876.1393,2000.92395019531
259,26668.598,26916.367,27391.139,-803.64014,278.30453,-690.32324,2000.98547363281
260,89232.59,89694.56,91023.02,-469.5407,-71.47956,-455.94522,1972.89697265625
261,379597.78,379590.22,379533.03,-146.48097,-93.88218,1141.5443,2000.98522949219
262,418985.6,420066.66,420688.03,-509.896,-352.26505,-456.4939,2000.990234375
263,362947.5,363565.94,362392.44,761.14355,-338.38727,-489.50412,1958.11389160156
264,494958.75,495177.66,495102.72,-436.14285,-1043.3247,-208.62924,2000.98754882813
265,174969.56,175049.25,176224.28,-910.2576,92.66594,62.776558,2000.99328613281
266,82690.67,83260.875,82096.72,-221.5017,-791.0655,-566.44305,2000.92517089844
267,154596.23,155129.05,156484.4,157.50668,-462.76978,384.31775,2000.75817871094
268,11129.362,12899.458,15437.391,347.59436,9.56705,-1162.6301,4299.37109375
269,-38858.47,-33744.344,-43820.95,17640.646,-2749.026,-10138.968,36616.98828125
270,396037.12,399628.66,394498.72,-5028.5024,5385.532,6478.644,17594.853515625
271,41314.934,42765.64,48170.184,-6682.69,-4010.2742,19154.61,36360.32421875
272,-33536.355,-11068.63,-476.3266,9794.595,-212.27449,8237.76,36694.6875
273,10201.285,35803.227,22804.396,-1308.5013,-7136.409,13797.721,34938.32421875
274,30356.654,43017.242,33880.11,-1075.1123,378.62558,17831.256,32952.31640625
275,9653.809,19186.191,-16761.977,-3054.7947,2395.4473,-221.79355,32951.82421875
276,41075.586,1345.8573,7876.508,-7315.303,1623.2133,-392.7037,39122.21484375
277,19881.453,-628.11914,43673.547,5069.6323,2955.89,-2778.64,40014.37109375
278,-23931.518,-28619.902,7095.123,9873.269,3792.8794,5321.6743,39378.43359375
279,-9283.111,-5223.0107,23481.447,13591.428,-5482.3354,-1734.7811,40129.171875
280,14868.642,233.48119,26716.713,-5628.641,-15835.714,-3574.7788,37598.59765625
281,7031.7764,665.292,4212.9033,2803.455,-7899.955,-3348.2927,16582.25
282,-32503.133,-34830.707,-21378.959,19751.709,-5304.824,1557.5188,37645.03125
283,49084.91,6969.9707,16496.652,-1263.7836,-1411.2268,4393.6587,39139.35546875
284,96235.58,98576.05,90788.625,21000.219,-2680.5295,4115.8804,37990.79296875
285,11770.824,7316.797,-2895.8652,-20053.6,3493.0142,-6393.0454,39182.66796875
286,20078.416,37880.023,31998.814,-11242.986,-1786.7552,-7115.5947,28062.03125
287,15539.768,36303.566,6458.1895,-2949.102,2444.1787,-4986.486,28649.384765625
288,22004.338,18362.959,5129.7383,-1751.5632,-5909.665,-4596.3813,20345.060546875
289,-496508.94,-489260.28,-476910.62,15351.571,-6076.87,-3035.232,33764.04296875
290,8260.136,-980.6033,-18335.889,-17166.322,5651.3813,560.1168,39086.77734375
291,-14306.807,-9558.536,-33369.496,-3906.1821,10669.191,-6374.113,31394.341796875
292,-18535.9,-6286.8447,-5255.91,-8903.741,-9344.984,-128.05818,25760.345703125
293,1704.8052,8131.9863,24660.277,-6040.462,2804.1023,7642.952,27000.333984375
294,12770.311,12162.665,-17676.637,-1294.0845,-437.7591,11744.43,36445.5546875
295,3506.6335,22641.125,-6262.187,-7039.321,-5550.259,-3211.6592,30339.685546875
296,12546.512,12083.599,21573.27,-6296.014,5995.5796,-3010.3367,18434.259765625
297,16802.074,-4422.5024,22988.508,-3634.8862,-3227.0928,-451.63565,26297.34765625
298,-4092.2463,-1136.5773,7480.859,-13838.393,15081.662,3510.5618,37447.44921875
299,-16995.703,-31601.6,-42508.094,-7767.2676,-7033.5527,-6972.8306,31094.1796875
300,-8300.193,-12170.036,-4917.0425,8546.826,8041.069,-11022.114,28584.88671875
301,-114832.36,-80525.55,-74937.28,980.9679,-4110.8105,-2160.115,38307.7421875
302,-1043.5249,857.85846,619.05774,61.465633,-492.13766,-126.1962,2000.98522949219
303,-3561.3806,-5725.6343,3436.8748,4582.0127,-7341.428,-4895.0444,19114.501953125
304,21365.223,30920.244,10902.984,-7072.404,-5905.8853,13480.96,33175.7109375
305,9168.761,10178.512,23489.074,2065.7327,3604.3508,-14655.77,29795.662109375
306,-16006.716,-32361.625,-16353.341,178.84384,7772.361,5554.2036,23147.4921875
307,5873.549,23692.74,28337.365,11388.035,203.22646,13286.435,36614.66015625
308,50133.984,41062.26,20611.84,-2743.488,-4963.295,11379.787,34220.14453125
309,-12803.828,-13320.108,-40926.43,-6016.071,-484.8176,6168.1157,31623.55859375
310,9521.566,750.8761,-24716.14,-3600.7312,-5028.4565,-10145.149,37045.6640625
311,15516.222,-15555.782,-1456.7064,14953.623,1491.6732,5029.577,38465.10546875
312,32330.938,-1260.8505,15833.289,13984.654,-2585.0151,5278.5396,39201.30859375
313,622701.2,624137.3,623828.25,-403.1302,-757.5395,-163.97488,2000.98120117188
314,204266.97,205480.61,203320.9,-365.9469,345.37103,-1637.3447,3509.76147460938
315,821710.75,822292.1,822902.2,-829.19354,-389.06644,-375.15778,2000.97033691406
316,-587697.7,-587177.4,-588121.8,90.99345,-1045.9031,-93.10987,2000.9677734375
317,42968.723,60421.008,58548.055,-3480.7358,-8480.735,3156.7798,23609.61328125
318,2632.2673,2968.894,4612.2876,58.741127,443.29092,110.75448,2000.98522949219
319,1086902.0,1087389.8,1087743.1,-857.03613,-518.1067,-390.53735,2000.38171386719
320,-23904.184,9249.35,-1534.2307,14161.404,-2112.5703,-3606.9148,38884.2265625
321,-25129.408,-496.31476,-23658.695,-2336.0588,-2827.922,17068.87,38563.2734375
322,17282.322,-3572.4243,979.8723,7813.56,-18305.18,-4439.657,40102.7734375
323,-42404.05,-16797.873,-37591.453,11051.93,4669.663,-10752.547,36528.203125
324,-18251.746,-9654.095,-3737.3467,6075.007,1973.7516,-4936.6313,18849.744140625
325,-18882.654,-1242.318,7141.483,5134.362,-1186.826,1792.4695,24946.185546875
326,7346.844,6337.537,-6448.1562,-4031.2957,-23.982496,7368.21,19723.708984375
327,10214.679,-16266.195,-4374.699,2155.835,7594.6167,2894.2278,27200.263671875
328,23335.188,17769.154,5234.992,-8993.159,-6391.5527,9248.715,29658.96484375
329,2849.967,1499.9725,10690.57,-2007.804,55.807064,-5881.726,13775.6884765625
330,-9371.886,4722.0894,-2285.1077,-7094.9395,2119.64,731.01917,17750.435546875
331,18469.61,23861.219,14661.547,-5827.8726,-3454.128,-6856.7754,18515.771484375
332,9865.837,1539.397,-1068.3956,-4355.0234,2676.0327,-7481.951,18551.677734375
333,-234663.58,-231450.66,-214397.1,11204.911,140.27286,-1888.0887,27264.306640625
334,58622.68,69416.15,65741.336,18893.428,6036.794,3502.168,36157.26953125
335,24045.023,45970.89,58950.72,13029.497,-2903.609,3388.2139,38766.609375
336,-38305.66,-21522.42,566.58295,-7474.648,-7722.9243,-1215.5394,38617.359375
337,55305.188,35116.332,74482.66,6647.4136,-2393.917,-4671.195,37118.1015625
338,-48450.1,-36575.156,-23662.516,3451.0547,-7882.0933,12146.585,33553.20703125
339,12673.099,9801.07,2104.6975,-10851.998,-12890.496,6727.913,32820.32421875
340,400787.8,399532.12,401436.3,231.0149,-65.17784,-582.9277,2000.96948242188
341,-1163270.0,-1162304.0,-1163375.8,908.6776,-208.85378,225.21228,1951.05102539063
342,298625.03,297939.9,298085.53,26.201443,1085.5289,-110.969154,1991.21875
343,333468.0,332490.44,333273.0,-470.21954,915.26263,-90.30879,2000.98278808594
344,7880.7446,-926.8021,-27129.459,-7081.9214,-3553.1912,-1446.3589,34489.78515625
345,-2119.6978,-7260.2446,28956.834,12118.401,910.86255,2408.9124,40154.5859375
346,10553.965,3577.9673,6225.84,7812.713,-1267.0074,12977.454,27025.517578125
347,178251.86,188264.84,196854.06,-1670.1996,-6991.322,76.61086,20373.029296875
348,-16596.148,-11588.834,-12333.682,8773.696,2689.2021,-4662.2256,18431.9296875
349,-703252.0,-723132.6,-723754.1,-11834.109,-7527.5205,-636.5616,31612.119140625
350,450720.44,450035.1,449171.62,-609.61316,-588.889,117.913345,2001.00305175781
351,-2317.8647,-5349.109,-11258.093,-230.90103,12546.991,7335.276,26379.458984375
352,-5801.2837,-32004.26,-7622.2188,-5608.173,-10526.3545,7586.7686,35236.94140625
353,378293.38,366144.84,379455.0,7902.3984,3352.58,6461.398,22569.01171875
354,1435311.2,1428991.5,1440041.5,-2237.0261,-6290.318,-1124.6874,15156.5302734375
355,-479409.03,-455101.75,-452200.84,13730.557,2314.8362,687.43115,35395.62109375
356,-27923.44,2343.7627,-9687.076,10742.992,383.3223,2101.665,32505.880859375
357,-12508.776,-5928.989,23742.918,12425.945,1226.5885,-2780.9907,40123.28515625
358,-89201.39,-51577.625,-53798.688,-7578.142,1137.8417,1685.4891,39007.7890625
359,40129.777,47315.594,53808.867,-21126.852,-442.99796,552.51227,38483.6875
360,1143913.9,1181958.6,1168122.5,-1039.3558,16.33193,-529.88544,33414.56640625
361,-36495.34,-16967.89,-8897.497,18098.227,619.0523,1083.5342,39891.80078125
362,-12158.561,-10824.176,18188.21,15080.055,-1807.4437,820.8786,39702.12890625
363,-9241.271,1280.5854,28853.832,11187.702,-152.86157,-2027.715,39357.51953125
364,-49634.594,-6211.4473,-19623.373,4523.2993,2386.3198,-3148.4724,39890.65625
365,-12527.539,2699.75,20217.275,16274.955,-932.31976,-408.119,40040.08203125
366,12173.818,11683.856,26783.701,1334.021,4296.4976,-3312.1138,17733.466796875
367,3771.355,1393.9951,12318.015,1021.1347,432.72623,-2879.2402,11294.94140625
368,136286.36,139509.78,176333.5,-1177.0509,-2964.876,-146.84474,38931.57421875
369,-18257.707,-17787.617,-54544.03,-889.188,1787.9617,3009.0417,37055.3828125
370,-702218.0,-699030.56,-700024.0,-1712.986,-4331.7065,-2374.221,9486.0390625
371,-15984.738,-4212.411,-20228.926,1870.4155,-6420.7544,-7623.907,22696.041015625
372,126056.97,132477.44,164868.84,6169.5996,-1227.1484,1575.2113,37743.171875
373,-42161.66,-46243.133,-19713.188,-8030.2627,-1338.2571,8233.631,31849.982421875
374,-9722.731,-36346.562,-2874.4707,-9732.31,-80.473946,-453.31012,34969.1796875
375,-39549.582,-50778.293,-43091.418,-3722.6704,1263.9435,101.55346,12052.25
376,24315.857,52002.023,61002.555,-324.52292,3864.2148,-5275.145,35004.53515625
377,61612.83,68099.31,95285.13,-11456.917,-524.50574,1164.4696,36826.07421875
378,49800.344,60174.734,89608.45,1739.5634,1088.582,-2086.4026,36125.07421875
379,-19460.133,-21578.842,-39200.086,-698.48926,260.32434,-929.08264,18883.5390625
380,2820.024,2063.145,11300.377,-1921.4517,955.83905,1027.0481,9792.30078125
381,22575.244,16140.663,44412.492,548.4231,1281.5035,318.41144,25785.96484375
382,492219.28,491737.22,525713.9,-3466.6062,1366.2129,598.44,34365.57421875
383,19428.834,-14458.416,-6447.725,-14388.968,-3670.8955,-983.8528,40068.8671875
384,-10819.656,7700.8916,18847.09,-4752.603,789.58167,-3518.8096,27936.71875
385,-31040.473,-37151.285,-64517.227,-2446.4614,-1447.9684,-904.38153,31307.5703125
386,74596.59,74271.19,108635.2,5923.6685,1939.221,-9091.282,39170.328125
387,100155.055,77097.01,60507.492,5450.2065,-302.9008,-8477.189,38657.27734375
388,-55957.55,-25941.86,-40871.72,126.02102,-1376.1342,12884.536,34343.484375
389,-73974.5,-56538.383,-39706.19,8161.326,6907.779,1927.9327,35141.90625
390,54364.008,44159.902,21448.143,-4009.1873,5129.5327,2953.314,31702.1171875
391,-5237.432,-6476.902,17396.607,-4633.661,3007.7202,3116.7373,25740.70703125
392,-743.55835,-2598.5508,-1908.6196,-2089.683,-520.90717,-1145.2343,4526.17138671875
393,-4835.482,-14128.53,1838.727,-10530.6045,390.56985,-1641.2472,23111.66796875
394,-13713.094,-12016.48,446.62402,2023.5642,1103.1873,3561.2107,15275.2978515625
395,15734.106,19157.457,17683.545,3710.0608,17375.143,4742.1484,31988.908203125
396,-39028.08,-23454.121,-42888.375,1282.7557,-8763.436,-10901.008,30156.189453125
397,-10828.4795,634.2625,-17536.605,-2135.4,10510.504,-7603.201,27781.375
398,-8647.236,-14693.91,-17820.926,-2859.6438,-1388.3822,426.35745,9803.5390625
399,-46919.293,-73276.164,-87955.92,3923.5957,769.3866,-2843.5522,37004.18359375
400,-5012.8115,-3511.879,-35740.78,-8417.644,7422.6523,847.24164,37048.515625
401,2198.9038,-1089.689,22224.045,-6140.4287,-3254.8162,-918.4952,25002.052734375
402,4600.0254,19245.783,14983.875,-4197.832,14674.036,2954.1892,29921.1015625
403,-21586.494,-18350.852,-20051.87,10389.008,-616.25446,-1684.2069,18474.37109375
404,-3306.1973,-3482.7285,4324.2793,-1598.9098,14805.168,-3916.5142,27764.51171875
405,44448.824,30828.406,56679.78,-10015.763,-13079.804,5629.4,37562.79296875
406,103780.24,71999.74,80200.26,-15725.773,-2132.215,2700.9688,39925.63671875
407,-33314.367,-21982.363,-6394.4727,-7908.3813,-8075.784,-11305.321,36259.5078125
408,-108778.63,-71629.83,-109342.55,-2152.5251,4700.46,2957.503,38829.421875
409,-4933.8896,-11969.432,20095.834,-12332.8,1704.4745,-6731.433,38118.625
410,612567.7,624274.56,644494.6,502.51968,-1020.7749,-8860.588,31969.19140625
411,-96694.98,-128133.89,-134614.2,-9678.605,1813.6858,-436.74454,39058.9375
412,-204007.86,-167464.23,-208151.28,-2606.2717,-1232.2157,38.682053,39101.88671875
413,-31508.182,-26944.373,-38733.89,-4945.931,3154.1943,3153.9578,15462.5947265625
414,-39416.01,-11963.051,-34473.73,4025.722,27.345512,5430.3843,27919.521484375
415,14120.367,34152.85,11354.162,-204.90062,-5244.9326,-1717.1852,23576.818359375
416,22823.484,14383.661,48768.957,3639.878,-10910.508,6457.575,38540.08203125
417,-16522.627,-13870.778,-17702.553,-4813.626,-2822.6858,4422.445,12792.310546875
418,-24267.395,-17778.104,-34795.066,8468.821,-5309.5933,-5968.041,25056.947265625
419,4645.435,1614.4802,2910.2368,-5498.2188,-1975.3649,6615.4453,15512.19140625
420,-47205.168,-29700.867,-49782.44,-5866.112,-2233.5981,-1298.0979,21941.107421875
421,20419.018,19690.33,34777.703,7384.899,798.6492,11092.291,27419.0859375
422,111525.43,104147.48,127695.0,-7343.3076,-7737.627,-5789.3403,29616.24609375
423,-671727.75,-668968.75,-674536.56,-468.619,1399.2926,-7292.6875,13759.8603515625
424,-19855.473,-32502.244,-57704.91,-8572.161,193.69,2967.4927,36889.34765625
425,9821.634,32794.426,29122.557,2685.0337,-3916.5754,-6947.043,25871.021484375
426,-1257155.6,-1256682.0,-1251805.0,1825.8107,-45.77291,-8991.187,16698.822265625
427,49771.207,34717.492,51842.098,2349.4155,-1116.0767,1580.6266,17025.533203125
428,50756.93,48130.297,71148.36,-1482.2832,44.116875,1801.606,22194.708984375
429,-144305.2,-167501.05,-188342.03,-5802.807,-1457.2091,726.1567,39557.40234375
430,-2768102.5,-2768620.0,-2769178.8,-201.84798,-726.9408,-686.7691,1997.91723632813
431,5426.4385,8842.189,7068.547,9338.809,1263.3141,-2818.3967,17291.98828125
432,8484.531,37151.223,53165.992,-3319.2,-734.3418,-2791.4175,39942.30078125
433,-89402.445,-72569.08,-117667.05,-977.5663,1953.385,-1622.0111,39752.296875
434,65493.875,49839.617,91209.66,5220.768,247.80252,1889.4047,37437.703125
435,-3409.6084,-5746.624,2780.1995,-2429.848,-1041.5735,1400.4905,9224.546875
436,-24727.049,-20295.771,-39290.69,7391.7524,-7526.1777,-86.138985,25102.544921875
437,-30595.56,-42002.42,-57947.754,-6834.895,621.6312,-3636.9485,27335.783203125
438,-23808.04,-22535.07,-51377.848,3989.4797,-8755.658,2609.743,33090.40625
439,31353.303,-11288.736,11032.991,-6464.8745,1717.4297,-596.5204,38730.59375
440,-136583.08,-149328.86,-181098.56,3069.9172,417.50967,-581.92426,40081.30078125
441,30872.984,47061.023,46339.56,-5841.8306,-9347.421,2256.9224,25113.322265625
442,-20560.434,-22545.21,-40273.28,-478.5847,-2898.5872,1168.8936,19580.642578125
443,49228.086,38499.453,53200.258,20367.072,-463.5908,6801.778,39463.75390625
444,68960.055,70653.51,105101.336,-3246.0706,1439.1956,3371.7732,36328.8828125
445,15252.316,46111.2,4647.707,-1273.9629,-3636.416,2002.3312,38059.72265625
446,-12418.207,16716.668,14070.215,14341.405,3281.077,7592.67,40012.62890625
447,-36138.703,-28573.97,-25660.795,5158.5923,-3993.7603,978.92175,14775.2373046875
448,-7919.8896,-4894.453,-7324.422,-2238.2107,-600.7087,-196.17162,4892.14306640625
449,16549.07,20248.635,8766.37,2349.9634,486.89594,-5135.467,14122.572265625
450,-27063.943,10142.654,10554.341,1985.5936,-2958.0115,-1541.6216,38013.484375
451,9976.135,3495.4985,-1296.7551,3575.9849,10721.176,6958.3027,24989.376953125
452,-9032.795,-2176.7725,-13423.756,-2972.2915,1350.171,-810.38385,11416.3349609375
453,638442.8,635417.5,668890.1,24.067324,4458.8745,1161.1008,33045.34765625
454,-8813.3,2070.9583,14320.277,146.57498,1628.3242,-363.0096,20254.671875
455,-24614.824,-30490.059,-56174.188,-8216.574,-1098.4044,-2523.8547,32716.33203125
456,-90262.95,-58673.156,-94410.38,7776.0703,3499.7822,4163.2866,37633.48046875
457,-33466.664,-38176.99,-66935.586,-1940.7352,-1897.1772,-316.10165,31734.892578125
458,49322.246,92027.73,78733.8,5948.7573,3970.84,-2160.1543,40002.84375
459,26690.85,23476.244,40679.918,7974.603,-1557.389,3281.2078,21939.810546875
460,6868.267,6111.02,10593.121,-635.7138,5699.681,-5100.5024,13927.8671875
461,-14411.805,-13171.191,-6744.828,-1379.9619,-420.67133,3045.132,9212.6083984375
462,-64870.926,-49779.36,-90536.45,7237.224,-6012.3066,-174.46997,39236.140625
463,-174027.47,-151554.92,-139852.12,-11844.993,339.55222,1871.3256,36561.2578125
464,-37886.96,-43672.094,-57022.496,6636.435,338.7443,3655.6025,21482.462890625
465,-31523.898,-23325.46,1477.4629,-7770.572,4736.2476,-5564.832,35029.8203125
466,5477.2954,4278.697,2306.228,-963.34906,3252.4646,927.6147,6692.7255859375
467,-30424.74,-21313.164,-42968.83,-5155.014,-2275.774,-394.78754,21222.603515625
468,-6776.833,-6817.753,-4977.654,464.38306,-3254.172,-6679.763,13022.515625
469,13409.652,21598.469,21198.824,-2542.8643,-2243.079,150.62485,9924.9462890625
470,-114530.766,-93974.836,-93502.945,16609.658,-2691.7705,1245.7175,35867.86328125
471,-45312.508,-28210.559,-67748.734,54.99374,-162.77194,-4722.2456,35306.53515625
472,5586.257,4261.931,-4533.628,6314.8613,-2504.0327,-235.61018,15145.0771484375
473,-8662.243,-6512.869,-8142.7686,7369.986,-3815.7395,170.91307,14508.2880859375
474,91062.69,56490.043,90591.83,-9217.54,5451.7324,3554.1982,39511.52734375
475,-173562.45,-172783.64,-211031.5,-1373.5663,-2358.091,-1481.2908,38244.5
476,60911.477,74451.21,99135.87,11142.13,-3301.908,2119.7861,39312.97265625
477,3414.3643,11911.732,12114.901,-998.66364,5451.075,1308.5474,13086.0419921875
478,-49549.62,-35431.77,-58389.082,-2829.7463,-666.2958,2559.4368,21148.294921875
479,11192.764,9779.883,27253.357,-1103.4678,-3155.387,5605.152,20258.482421875
480,143287.3,142532.19,169768.06,13994.501,-5303.917,4767.875,38235.1640625
481,36959.984,33722.504,33619.727,697.21,179.02397,962.91486,3893.66821289063
482,322086.16,318363.97,357899.44,176.8747,-2963.2305,1657.708,38267.86328125
483,-8658.981,-16951.297,7209.5034,8143.096,-856.25134,-3106.3494,26119.638671875
484,368077.2,370707.97,407323.88,596.4059,-2706.2637,766.49097,38324.60546875
485,-22005.053,-21497.643,-42180.664,-1953.054,-6465.289,1685.5599,23725.86328125
486,-40594.996,-26322.697,-31314.504,-1459.74,-10884.876,3688.4512,23664.74609375
487,-5730.82,-13649.198,-20072.92,-1179.6617,-1864.7643,-2126.344,13527.794921875
488,63.438843,1204.9603,1745.4369,-1508.765,1136.3859,-1375.4095,4311.6865234375
489,-22324.346,-27437.205,-45561.08,-2043.4558,160.32079,278.91757,21450.373046875
490,2715.7524,14495.268,4282.3843,31.502588,-852.1807,1248.9175,11384.9970703125
491,-10554.4,2890.915,-11045.107,-1460.2715,-2575.4766,-238.04695,14631.5224609375
492,20415.256,22011.443,38321.105,241.98524,2467.6606,-666.2187,17730.240234375
493,15949.003,31514.93,42045.723,3079.251,1362.0397,-86.942894,23476.599609375
494,838.521,1884.6184,4542.562,-587.41815,497.81113,643.85974,3736.5419921875
495,-104361.49,-90266.61,-131574.81,-5674.973,5059.526,-151.41205,38681.78125
496,7544.632,4458.4355,17351.0,9523.565,5343.0176,2207.163,22545.6640625
497,4253.064,-9623.211,-10105.802,1241.756,4512.926,662.18024,16325.4794921875
498,-26520.016,-21428.314,-29520.477,1906.4099,-633.1355,-2251.4824,8804.4833984375
499,1607.9814,343.8694,1754.7026,622.5702,254.73422,-1970.9995,3849.2783203125
500,-50244.633,-9285.359,-28957.6,-5787.793,-3575.1206,1110.4327,37435.78125
501,7743.463,2711.9937,15034.225,-917.32513,1404.7031,-51.687675,11117.83203125
502,11119.909,16115.228,29101.64,-1720.9148,1260.538,-4033.873,17914.779296875
503,13732.619,24284.355,26279.271,734.46594,-1146.4164,2706.6545,12802.6455078125
504,11409.2,6425.774,10987.567,-1362.9912,1770.6592,-4286.911,9644.837890625
505,4424.9434,9378.702,-18208.586,-2612.5283,-2943.4336,-1006.217,26428.05859375
506,-30912.008,-8427.869,-21582.2,-12573.579,4564.387,-2315.6426,30588.908203125
507,5511.6055,6462.043,2109.8037,-8251.008,-1607.2135,-2744.473,15820.6181640625
508,-2490.9282,3251.4255,9720.804,2994.9614,-1635.0311,-339.61816,12134.7578125
509,4493.0703,9141.98,-3060.372,1861.898,19.097307,2404.7544,11896.7119140625
510,32538.242,22317.406,46271.938,5258.3203,-5003.129,9698.594,29558.10546875
511,14859.366,9261.657,21454.678,-2791.6921,-510.30392,-885.68823,11758.669921875
512,-15603.17,-2388.0913,-2397.3564,1789.4578,1179.9563,385.05563,13738.41796875
513,-7520.989,-1023.95306,3333.5713,731.5456,2631.1267,2689.531,11557.9052734375
514,-44591.35,-64450.29,-55006.043,-19235.344,-2118.3953,243.86368,37678.30859375
515,24740.129,35945.164,42731.92,-151.6956,-2492.0994,-3125.0476,17194.6875
516,14425.933,17170.066,23648.418,-2441.5784,-88.46065,-609.90137,9289.78515625
517,48986.375,31699.191,70185.17,-5910.13,-1747.6974,1974.3539,35218.59765625
518,-1055.6895,-19509.691,-37541.266,-12490.9375,4978.0337,3985.799,39856.18359375
519,-4277.7207,4524.8477,-3534.5625,-1025.1864,-632.50415,-3212.9492,10335.2861328125
520,-2725.4717,-11526.792,-5686.0063,-1189.1191,-844.209,-1035.193,8352.625
521,3936.589,-1347.8491,4513.2393,-6780.2446,-252.37082,-4555.2236,15220.4296875
522,-14412.063,3622.586,-11641.9795,-2304.2412,777.0619,-620.5193,17374.109375
523,31723.736,25521.045,39471.684,260.7191,-1208.571,-99.35988,12295.4326171875
524,-30242.531,-5362.823,-25225.773,1203.5618,1221.2274,12.684315,22982.005859375
525,-11340.09,-5122.6475,-11158.923,381.27795,241.20427,606.9363,6267.279296875
526,24315.945,33437.73,-7922.2363,-3431.5845,4732.562,-2255.8345,39170.93359375
527,7284.3735,2351.5674,6328.1255,95.13331,-588.89307,440.78934,4709.609375
528,9220.982,11119.875,9670.06,-7396.009,10593.817,-727.3627,22479.583984375
529,-47218.316,-65468.555,-24840.48,7361.714,-132.89172,449.8672,37489.7890625
530,-1505.9932,-11193.741,753.2781,7503.854,-559.2595,-1328.3588,17204.6328125
531,6610.8887,15338.132,19621.1,-7729.417,-3741.6667,63.212334,18791.779296875
532,-4922.4473,-19483.068,-17967.346,-3309.901,-15.789076,-498.86166,15028.4033203125
533,-12037.816,-4875.4585,-8170.237,2492.225,-214.77759,-1160.9506,7834.02294921875
534,17054.475,17331.158,34090.633,-4912.6353,1263.204,1886.8085,19325.18359375
535,-12855.409,-13062.335,-10174.919,-6858.0107,-650.3269,764.0369,12324.75
536,-3243.1938,-1266.688,-9682.602,-9121.394,-757.01654,-1183.8105,17709.404296875
537,-10980.698,-9107.258,-11956.749,-1112.7617,-1128.8936,753.8165,3941.27685546875
538,162162.69,161801.19,190240.02,14048.249,-1136.6388,-947.57245,37379.7578125
539,43862.703,43988.98,73080.625,-4270.9443,2309.3616,3793.2617,31046.775390625
540,4881.8877,10587.914,26405.729,2388.7415,480.39484,5554.047,21985.716796875
541,-7873.7573,-694.3794,-15074.877,-4223.851,662.2112,2433.9954,15090.0791015625
542,629.4281,-3772.3008,95.284424,-162.04556,215.61528,1731.459,5149.89990234375
543,13368.121,21412.719,21805.219,1855.4856,-822.82526,531.28687,9012.9638671875
544,257.698,-8343.072,4337.9834,274.54153,9.860384,1064.5454,11372.8515625
545,-5134.1465,-2212.0142,-8578.032,-863.32477,-1865.843,2168.9531,7566.7607421875
546,1808.0254,-13620.065,-8616.833,1790.7024,1283.2407,-663.9855,14203.8935546875
547,10922.563,2457.1172,9622.716,3566.2407,-1537.5454,1943.7369,10905.5166015625
548,-698.27246,622.3635,1444.8895,-364.34998,2229.6775,341.26712,4378.23193359375
549,-12188.098,-6988.284,-31363.645,-2458.581,1624.3401,-333.4679,22821.7421875
550,-11826.563,-11933.253,-14177.282,-5840.986,1540.0531,1154.0032,10897.16796875
551,-43705.734,-43961.44,-55533.34,-4916.266,265.0512,3809.3792,15911.85546875
552,46531.844,25976.105,64261.324,3883.5857,-4085.2173,2838.0935,34939.85546875
553,-15.609375,-12488.734,-19729.95,-92.30447,2511.4346,847.73944,17872.83203125
554,-2486.74,-1966.8285,-2743.8582,-2651.4336,533.8399,490.98105,4810.25341796875
555,2370.3655,-6110.7983,-5192.283,-3421.257,-30.957993,-33.942825,10005.251953125
556,-7386.918,-6059.278,-9753.662,-2828.8926,-103.3158,39.29935,5877.99658203125
557,13050.859,1763.0234,13344.99,-3139.7666,-2144.3145,1771.9891,13550.2900390625
558,15551.016,10669.4795,31165.814,-945.18896,2781.9607,-627.97235,19260.236328125
559,13393.615,12226.287,21078.951,-1267.6414,727.005,2767.0664,9938.544921875
560,11376.014,15368.598,16283.0625,-5313.7583,5075.7817,-3259.2625,14638.82421875
561,-334.05414,-106.92096,3492.5015,3301.247,435.15958,-436.16165,6903.51220703125
562,20403.219,18188.547,43325.72,-874.8682,1242.2887,-116.73851,24250.330078125
563,-35789.34,-39680.082,-63738.508,10525.632,1038.6721,-3020.634,32411.83203125
564,-5235.648,-2185.845,166.79614,-1497.3619,808.2834,703.38525,5672.90087890625
565,-2241.6396,-17736.371,-11317.742,-2799.9617,1231.9316,-1528.2755,14727.8564453125
566,-10377.024,-13246.345,-19966.17,117.28805,-3109.6125,-1131.7592,10274.40234375
567,10095.543,9455.912,21052.922,-16.89849,-4090.296,817.8544,13404.515625
568,-9270.043,-7349.401,-16371.975,551.26465,1808.4879,-2248.6404,9677.7724609375
569,-7956.4604,-12853.933,-14723.912,-452.17563,1786.0754,-1182.2278,7142.6044921875
570,-105629.516,-95883.125,-135183.84,7698.3184,-778.28534,1956.4468,38047.22265625
571,-4310.566,15.869995,-1073.5305,-173.79779,-838.81006,-64.01294,4171.970703125
572,-16272.607,-21023.363,-29863.965,1285.8456,-496.5589,-1241.9849,12371.45703125
573,7496.897,8196.233,13898.109,-1616.8245,2823.6282,-1877.3583,8906.3125
574,7516.972,9177.6,12323.088,-2387.909,-325.77277,464.40378,5995.5810546875
575,-2581.4333,-10665.386,-807.2197,-1136.4342,-1144.7139,1200.7527,9745.345703125
576,16490.418,14848.317,30854.117,-3026.0796,410.1126,407.59406,16157.7666015625
577,78634.77,68394.5,108160.94,-3623.382,-734.4413,-2070.948,36508.6953125
578,454.01187,2478.1526,-4573.7188,-601.15985,-2531.4788,290.38315,7753.3447265625
579,-4821.109,-9907.629,-12018.603,-24.46113,416.35635,-1621.8405,7034.15673828125
580,86558.19,82109.336,114522.11,-11631.877,445.01306,4085.4568,37185.3359375
581,-38998.97,-41153.656,-56358.41,-8537.971,-1157.2327,10.025989,22165.228515625
582,-13514.958,-25037.96,-54348.06,-1739.3126,-1839.6058,1504.4202,36818.7421875
583,-877.0849,-10197.227,-41065.906,-9467.824,736.4404,1646.7539,40076.45703125
584,32154.467,61564.24,19927.842,1640.5753,2083.6272,3048.1663,37722.41015625
585,21352.693,18945.133,-9751.031,13633.932,-76.694244,-2702.5007,38443.9140625
