Element Label,S11,S22,S33,S12,S13,S23,Mises
1,274.3062,1094.3423,-4048.664,1532.4922,1621.9828,-310.4812,6175.17626953125
2,6905.235,13965.31,15085.463,-133.84418,-156.39061,188.11989,7696.82080078125
3,-5451.997,-106.906006,-5434.716,1314.42,1212.5813,-1197.2576,6509.40576171875
4,-6474.57,-2975.156,-8812.151,-577.6539,2660.5,1568.2057,7450.099609375
5,21162.674,14214.505,12737.932,-929.15436,-1045.0852,2889.397,9572.31640625
6,8205.364,12334.542,15497.989,-2744.6921,-168.40868,-2500.4653,9031.1689453125
7,-4285.0938,-2009.0464,-16568.004,1254.0566,-1996.7092,135.81076,14168.2958984375
8,484.25244,10267.237,3602.5986,-1017.72504,1315.6672,-2760.5227,10299.7978515625
9,22206.71,21655.916,9624.901,-2486.2263,-3367.3535,-974.6755,14390.4990234375
10,-20065.936,-1729.3936,-10060.287,1657.1278,8858.542,-2372.245,22658.66015625
11,-1868.1782,5895.991,8433.226,-6159.6055,1707.0126,-135.63048,14458.1630859375
12,-5674.648,-3857.1042,-10351.0205,-62.65062,2195.2139,-598.0849,7015.21337890625
13,-1916.6855,16128.432,13815.021,421.61682,-2883.18,-196.8774,17743.169921875
14,-10289.791,-18510.572,-11762.492,7802.2256,4544.481,-1070.251,17483.15625
15,3585.484,9361.066,-320.44727,-2405.925,-11150.218,8177.4395,25731.919921875
16,-34078.42,-23622.408,-64693.25,-5065.3687,-3559.2776,6219.9893,39971.8515625
17,6503.2153,318.76123,40651.27,-5859.5977,-2203.7307,2714.3574,39436.04296875
18,289.2788,-4218.0337,-18415.47,4158.6055,776.2046,5551.6665,20785.279296875
19,-6088.208,-20260.18,12449.342,-3566.2993,-5512.892,906.7765,30643.0625
20,-15464.351,6321.9937,-12120.449,16025.339,-2587.617,-3949.6763,35359.53515625
21,12582.51,9463.04,10894.119,1589.0409,-4863.7803,4909.9336,12577.0205078125
22,-282237.88,-295346.53,-276819.75,11192.728,11103.53,9251.626,35702.82421875
23,-31695.89,-49137.957,-21049.172,13471.4375,-4677.826,6805.0195,36773.484375
24,-60298.58,-50627.973,-91331.76,-1190.5654,2854.492,-4971.639,38203.8828125
25,-13093.32,-13795.367,-15649.329,-2750.0994,-315.106,8789.652,16124.2861328125
26,-267.77832,-11725.095,-29359.143,3065.8118,605.3298,3363.4114,26598.9296875
27,19030.422,14783.641,11802.225,4457.3755,-3164.1355,2796.9744,12356.9599609375
28,3569.511,-1476.4282,-4317.579,2182.056,-3002.887,8267.938,17154.662109375
29,-8577.56,-6780.8105,-9895.453,4254.7637,856.2969,-7064.391,14613.6484375
30,-388.67847,-4962.325,-4226.0083,5901.5503,1391.5483,-6599.572,16095.0283203125
31,5634.5522,9422.492,-26014.285,823.2115,3983.8105,1499.0889,34529.23828125
32,9706.239,2139.7407,-1126.7908,-547.0783,-7978.537,308.22247,16875.79296875
33,17185.32,-2049.776,823.9624,4931.222,-5414.564,5792.943,24177.439453125
34,9478.692,6405.493,-2244.087,2258.571,5728.3604,-4049.6255,16546.4765625
35,-6347.957,-288.79004,-9672.727,-1778.6355,1777.8761,-4135.4253,11755.48046875
36,10696.601,-1809.2008,-9611.108,525.6308,-4187.6084,1147.25,19292.9921875
37,993.45703,12799.528,19094.158,277.4928,375.94208,5395.9233,18474.94140625
38,-5472.1484,-28423.102,-47571.84,-4488.2827,-5586.8154,3729.555,39098.625
39,7574.089,6444.584,-4265.079,3992.5334,-6957.7754,-4741.268,19711.951171875
40,21722.512,883.4592,-19639.367,481.47363,3496.186,-4819.582,37285.109375
41,9034.029,6304.3857,34244.293,2046.0114,-568.24615,1965.3632,27146.611328125
42,-150946.28,-161860.16,-187509.9,-7679.3325,-4547.5103,3958.6506,36646.0
43,7406.7383,5992.6934,-25633.098,1680.4022,-1613.9429,636.2604,32625.306640625
44,-9797.158,-8076.7246,-22800.605,-4306.125,-5351.5186,-12083.803,27821.220703125
45,-4950.247,5320.0166,-18038.271,-4516.198,-97.192375,-15279.288,34245.85546875
46,-2515.568,14851.633,5281.2,-360.49088,13161.387,13979.889,36515.328125
47,9361.547,-2121.8591,3653.666,529.9333,-4109.299,4962.515,14976.1064453125
48,-1654.4716,22524.621,-12801.705,-572.01984,-10522.529,8918.324,39372.34375
49,-1869.4097,7538.167,-9364.186,13414.582,-5081.8145,-5090.5703,30170.3671875
50,-3714.8474,13672.595,8235.856,4533.542,-5011.5093,-2717.0276,19912.349609375
51,8427.425,3189.3992,-10973.305,3749.9082,-2334.6472,-6751.4473,22304.416015625
52,-3720.2397,8566.014,5200.3887,5978.11,3510.399,-16863.121,33439.57421875
53,1831.8086,17567.258,16625.326,6448.7925,6087.5293,-4300.9453,22915.041015625
54,-839.959,4122.3965,-19269.791,1730.5222,-11809.539,-980.4882,29765.80078125
55,-9477.188,-5204.6675,-19895.668,-7354.79,2729.5679,1996.0786,19180.607421875
56,-31371.654,-35635.523,-49786.277,15126.777,13288.585,-5448.85,39800.11328125
57,-704.45123,1327.2974,20240.998,-2043.5454,7997.9126,4318.5605,25703.34375
58,13884.592,8944.08,15351.209,-9995.122,18004.2,10058.882,40118.6953125
59,12205.293,-10926.714,-29229.238,-6499.184,1222.4753,5733.946,39029.25
60,13326.67,-183.63892,-6192.0967,144.54483,14959.853,-7146.825,33533.44140625
61,6644.836,7388.1523,11067.736,4029.9868,17210.07,5541.389,32345.478515625
62,5560.7153,7523.2725,534.948,2508.5715,5036.1074,4151.4087,13625.044921875
63,6228.6675,-10958.705,-6667.26,4304.227,8996.455,201.40202,23207.17578125
64,10301.354,-5200.997,-5431.879,990.18835,-12176.034,6353.69,28509.1640625
65,16318.789,1223.334,12454.192,-455.60864,14033.226,-6975.636,30362.23828125
66,2611.8386,-6262.9424,5298.7847,1823.673,17479.85,9804.44,36398.09765625
67,4754.431,-5447.2563,-18889.303,3222.2734,-6073.2676,-14161.235,34136.7734375
68,-1770.3916,-1545.0159,-11726.129,5197.491,-11295.463,-1219.5175,23867.91015625
69,-1491.6772,-6224.399,17029.758,-3055.94,8327.786,-7315.9897,29150.341796875
70,140.08765,-8561.031,1551.1299,-1733.0488,5104.446,1645.9229,13611.826171875
71,23182.314,2520.8086,-12101.65,-589.7689,8897.538,10323.641,38744.171875
72,9262.792,-17322.32,11367.614,-3928.767,2561.525,10290.354,33923.73046875
73,-8092.108,14105.986,128.30156,-668.36346,392.73383,11181.061,27471.880859375
74,-5244.6934,-6982.199,17474.578,-6772.1606,-6524.6626,-14350.6045,37970.76171875
75,-1571.4303,-4137.711,-23060.879,-12338.289,13732.783,-4016.4473,38523.9921875
76,21666.57,31272.574,-4809.512,5742.5234,8836.432,595.4265,37172.953125
77,875295.94,888877.9,866990.06,-8258.528,12617.916,3864.91,33065.45703125
78,3958.3616,-3512.097,-1208.5789,-10220.412,-1287.7212,9618.296,25293.982421875
79,8463.925,-8409.142,18053.236,14689.741,3367.837,-9335.784,38487.9140625
80,104070.14,78472.28,111915.35,-893.7145,113.70665,-11959.47,36730.640625
81,959.85254,18067.791,10850.923,1236.2493,328.84286,-3426.395,16168.763671875
82,16631.723,13565.07,12414.152,-2322.875,-21885.09,4972.906,39262.0234375
83,-9146.587,7423.12,-130.26895,-8631.926,-5832.509,-1988.3158,23321.58984375
84,-6802.914,-2327.9827,1611.321,5315.254,2264.244,-841.7435,12467.27734375
85,-4298.3096,13496.58,-3791.6538,-2062.8198,4293.7,-2715.2725,19952.201171875
86,6143.4404,-3063.6616,13357.622,5712.9756,-5548.5,15019.898,32715.451171875
87,-10706.752,6603.8813,24663.346,1982.2236,-7947.92,8217.921,36637.70703125
88,-1809.6494,4274.0117,6080.013,-3197.2615,7147.2896,6679.339,19209.869140625
89,8557.96,-15752.463,-19937.47,-12460.248,8987.354,3195.1497,38065.3125
90,13450.774,-7773.146,5539.493,-6545.474,11243.603,-8375.221,32609.09765625
91,-1475.8594,28310.457,20432.219,925.1661,2544.9036,-2716.2578,27545.583984375
92,-4312.718,2519.8916,6027.078,-4800.243,1847.1709,3064.2585,13801.4609375
93,8893.444,-12792.526,-30111.887,9878.704,680.6628,-4791.6533,38844.109375
94,19396.844,8712.174,24262.027,-3300.8528,1432.8047,-291.02414,15129.931640625
95,-12586.0205,-899.20215,-25945.102,-1614.633,5800.8184,1118.79,24159.814453125
96,17196.082,4755.8477,-2183.2588,9860.297,9045.225,-5862.5386,30487.16796875
97,271.00247,18152.92,26321.81,6841.704,4689.62,-16448.559,39378.15234375
98,13661.072,15445.312,16303.617,10452.872,-7965.3647,2490.8667,23285.05078125
99,1132.7422,15845.059,27237.895,12099.571,-9869.359,5555.032,36576.64453125
100,5440.6655,-1954.1196,5139.955,-53.848415,-3700.5955,-7903.8877,16764.71875
101,17211.33,13420.614,23758.56,921.8214,7814.2773,-4623.7583,18218.943359375
102,7822.16,-246.48999,2807.1116,-2081.9841,4225.3696,3210.3926,12135.66015625
103,5545.0176,-1881.2153,7438.0664,-237.1586,-11534.418,886.94336,21781.826171875
104,7216.6533,-5609.577,-33325.984,-7237.2373,-5011.247,-1223.8766,39053.45703125
105,990.0586,-21723.316,-41789.844,365.83762,-3689.324,3252.75,38043.62890625
106,-48563.598,-45049.293,-82308.34,-6085.345,-129.14711,-8217.937,39791.8984375
107,29765.621,68844.375,68142.82,4066.457,-391.07565,-3345.996,39797.984375
108,-294790.6,-310923.34,-339072.97,-316.27045,-1113.4811,-204.47276,38870.84765625
109,5691.738,13601.962,3772.6196,-3452.384,-2485.2021,1107.8628,11806.90234375
110,18003.07,-2044.7227,3330.3945,-5346.032,16391.562,10302.826,39157.13671875
111,8861.324,7382.6826,-1041.561,-9272.85,-4514.5713,-5147.5063,22004.6015625
112,10632.676,2603.2295,-3890.2004,-718.8948,-5381.107,-8099.447,21071.255859375
113,15251.045,4821.5967,1506.5327,-3539.3325,-1246.0126,-11160.916,23880.404296875
114,199.28532,11315.28,8742.775,-7402.464,6355.6206,-8681.449,24764.107421875
115,14129.426,-12833.131,-5413.9097,-6866.49,12384.097,-4106.8906,35130.1328125
116,28865.377,10037.393,10235.53,-10679.992,7207.8877,-14267.554,38203.90625
117,4227.404,349.7907,35953.332,-6515.6543,-1223.0989,-2667.5718,36024.828125
118,-26265.482,-3382.6226,-6436.667,-514.4581,11576.032,-1541.6042,29546.6484375
119,16084.536,9913.255,38297.188,-751.51886,8601.308,3328.1343,30421.01953125
120,14928.902,9988.842,12980.749,1891.5533,11189.383,55.01274,20122.7578125
121,11104.579,-2181.0176,-4846.508,-1648.0182,-697.0259,4285.712,16844.345703125
122,-3882.4033,14395.066,26746.732,6537.3613,1123.9417,15589.543,39667.234375
123,18919.006,7160.4795,2742.974,4443.1025,15374.35,8514.078,34576.359375
124,-2795.1875,10954.03,-3165.4268,2837.3123,6397.0215,-213.3142,18474.89453125
125,-27944.898,-14377.277,-47115.195,1318.6794,3164.9346,-7638.32,31968.341796875
126,-26870.531,-2505.5972,-6458.7246,-6444.3267,6058.261,450.33694,27354.408203125
127,8170.7837,-1180.2628,-9828.86,-3305.457,-7238.5312,795.0759,20856.109375
128,-12435.579,1581.2812,-28237.025,-13247.599,1825.8083,11271.504,39815.60546875
129,-14821.057,-10713.642,-18807.406,636.9329,-988.0542,-6979.8228,14122.146484375
130,7293.686,-1110.2275,10376.78,-10011.7295,-7485.943,-4745.994,25346.33984375
131,140.62915,17410.355,-12622.701,-2326.2573,804.3789,7734.029,29651.076171875
132,8895.732,10701.15,-230.35742,-800.75256,1713.3507,-8614.797,18341.099609375
133,515.7441,6813.337,-24713.1,-9004.685,-255.07083,13334.189,40148.29296875
134,7824.9834,30656.07,1463.9062,-845.1657,3684.8987,5118.969,28782.66796875
135,-4017.4697,5975.648,-27527.67,1963.3898,6580.4487,-4238.6533,32907.48046875
136,-97043.64,-66819.766,-97587.12,-13819.178,2221.314,3845.897,39525.79296875
137,10887.399,-8311.381,9517.149,-5074.9473,4376.763,-2732.7175,22389.736328125
138,5293.564,1187.7733,9273.576,-17774.914,-10341.142,6985.6357,38263.515625
139,14443.428,12896.924,23713.297,8279.533,-3370.0105,-8840.71,24017.814453125
140,4758.046,-5830.082,-5263.276,-38.176693,6210.007,-5413.235,17607.796875
141,-532.0747,-2816.0806,-3588.9956,2746.0002,9817.927,2226.7498,18282.541015625
142,8263.569,3240.5977,10613.522,167.70508,-591.0252,-4557.0083,10295.025390625
143,15779.516,6481.077,4657.7256,-349.4952,-1137.0548,-972.4301,10668.7333984375
144,3920.8687,-7972.043,14065.382,2536.4182,9787.092,-6368.016,28165.8828125
145,9804.592,6628.722,2526.2615,9252.186,5527.26,-24.252476,19708.05859375
146,13452.228,2854.6968,5124.154,2520.684,19298.191,-6988.9185,37098.0390625
147,7074.1895,-325.28784,-15607.657,-2357.5918,-5388.7056,-9428.718,27782.654296875
148,1071.0928,14416.199,11690.217,-5639.0415,-10123.884,-356.08203,23503.193359375
149,14737.9,9520.993,6175.692,-1754.5984,1417.3481,-3318.2512,10205.5927734375
150,-9919.061,-4452.201,-33926.375,6451.2666,-2802.9578,13789.554,38162.3359375
151,3558.2473,2909.0637,30502.63,10938.187,7491.0283,7363.7476,37866.41796875
152,2978.2852,10880.482,30286.066,-2550.3003,-1227.5608,4434.205,25988.216796875
153,-4056.9922,15727.136,4091.7773,-1555.8911,-1322.8391,-10204.788,24930.365234375
154,20329.695,20709.008,58497.605,-4081.8538,-4573.764,-769.04584,39458.4921875
155,16810.658,12360.094,19238.02,6451.92,-5859.8687,-3213.1187,17186.36328125
156,19279.959,24146.56,58993.84,7053.247,-988.6931,4113.6226,40131.62890625
157,-6366.789,-1422.6992,-19146.129,1646.5132,-4497.666,3354.5212,18802.02734375
158,24900.053,41906.52,62535.414,11664.129,4825.0815,3807.8013,39838.34375
159,-23597.107,-36666.945,-25722.002,-18072.518,-8330.16,5657.605,37836.64453125
160,1613.9133,10723.85,18.598145,6357.0107,1886.7705,-7325.653,19823.703125
161,-1755.8936,21088.145,-2090.7778,-6607.991,8731.701,3606.7463,30469.04296875
162,-1337.3442,8397.514,-29658.219,4453.3955,5461.3535,4173.6445,37064.4609375
163,-30180.207,-8361.303,-385.46484,13227.219,4945.574,-9537.724,39810.31640625
164,-18498.158,-18869.518,-22003.379,-22323.672,-3869.5498,1414.0396,39459.859375
165,-13966.89,-17066.898,-16448.693,6016.796,16049.742,1255.9921,29903.119140625
166,-14190.149,-12196.718,-3461.3882,11552.045,3670.9075,-17984.314,38842.9609375
167,-14996.722,16148.27,-3660.1863,2224.6897,2922.1843,-9818.735,32789.3125
168,-69108.1,-75160.46,-64178.434,-21523.328,37.84258,-5298.0913,39556.8359375
169,-2961.7793,30606.582,24812.809,-12134.336,1808.4934,488.43695,37658.5859375
170,-20134.045,2672.5664,-40927.508,-513.553,-4440.783,2826.824,38867.2578125
171,-6741.419,13958.401,-2194.8545,5147.817,5487.7583,-3210.409,23575.568359375
172,-1581.5516,4692.629,-8419.798,2224.6963,11080.474,-10955.969,29534.88671875
173,13523.418,-11103.555,-14471.97,616.83936,5180.0107,5524.504,29563.275390625
174,11246.698,12800.93,45844.46,578.68774,287.48956,8532.98,36950.44921875
175,7605.4414,-697.11633,-14934.963,-1455.2042,2052.6057,8640.72,25156.26953125
176,10357.931,22641.236,20536.34,-5331.6807,-14638.368,-12695.4375,36621.078125
177,13580.046,17463.824,8221.353,3026.9155,-4778.339,-7710.4424,18410.548828125
178,-4140.297,4580.6733,-9653.187,-5597.305,-278.39062,10143.18,23609.306640625
179,21003.861,14277.8125,23262.248,3230.5784,454.6872,-530.5911,9914.8759765625
180,-4793.0264,-1518.3718,-10133.796,-2230.2832,-2876.4912,-15967.734,29349.396484375
181,751.4512,26562.75,38319.203,981.73535,4897.155,-1472.6007,34485.21484375
182,11849.692,455.60043,266.38293,5869.8687,-6951.17,3672.9495,20513.681640625
183,9830.614,3558.206,-5718.2744,-2893.8835,8951.45,-8320.805,25628.080078125
184,1506928.8,1518560.2,1504909.5,-1470.1609,7268.9756,4526.578,19731.29296875
185,-134750580.0,-134751140.0,-134751500.0,-40.86597,-972.56995,-411.6517,2001.82775878906
186,-18244.434,-11174.976,-34264.492,-2399.1545,-3217.4111,7074.2974,24866.296875
187,10890.168,135.31299,1274.4368,2590.6995,6081.743,1315.682,15524.3173828125
188,-2656.1145,-2303.4553,-3308.0015,16799.096,5951.853,-7167.4517,33283.61328125
189,-33216.688,-12335.69,-54487.816,6095.907,3933.2012,5449.1924,39744.3203125
190,9770.41,383.90256,10866.195,9097.582,-5522.1685,9255.771,26389.046875
191,-820.1416,-14893.662,-10285.414,-106.81107,-8842.495,-5109.6035,21618.814453125
192,8701.786,-437.4956,4185.9478,553.64233,-1257.812,-3037.7043,9797.7822265625
193,-2750.229,-8613.032,-18321.65,1482.8396,-4536.128,-611.00934,15968.5703125
194,6241.7363,-5100.849,17428.818,-1705.3354,4345.7275,4285.3535,22386.798828125
195,5724.4507,14911.502,63.34668,4520.004,1572.3723,10023.848,23207.751953125
196,11731.382,8951.694,8064.285,-3236.682,10393.688,-7075.012,22730.21875
197,-586.1233,20005.396,-19291.785,-7718.255,-590.4571,2463.583,36838.27734375
198,15585.864,8693.969,-23181.623,115.32205,4198.718,1902.7753,36701.828125
199,4165.582,-20048.537,-35762.195,-6301.612,-3328.2751,-171.1606,36961.953125
200,-2057.079,-3243.0513,-27529.36,-8105.3525,-4257.9106,-12738.17,36855.078125
201,19825.277,15164.576,51089.938,9661.802,2393.9592,3681.6418,38507.45703125
202,8243.367,11347.819,43587.07,11421.3125,-959.083,-861.3362,39311.78515625
203,-40536.918,-31371.602,-71514.36,-7490.6353,-2755.9114,-4058.1868,39598.53125
204,15436.713,37829.31,48314.902,9229.552,-9827.979,7434.275,39462.671875
205,-53564.965,-78692.19,-95624.96,-4396.994,3572.0332,6058.414,39369.5546875
206,33056.21,44437.78,74969.47,-7551.2993,-820.3366,528.7281,39788.7734375
207,-98314.07,-108521.31,-134507.02,-12982.723,2983.1177,1238.303,39769.8046875
208,-20863.451,1197.3914,-2953.9229,-18624.582,4118.351,-5963.124,40131.2421875
209,221065.28,210175.17,248710.03,1703.6738,-5047.276,9366.948,39143.7421875
210,69439.086,40766.84,46625.32,-17035.02,425.99536,1216.9469,39547.5234375
211,661508.8,671660.8,694573.75,2803.2266,-3947.619,4062.0137,31312.98828125
212,-3661150.8,-3656435.8,-3671046.5,4688.531,14875.82,-8421.777,33307.83203125
213,-1698937.1,-1691186.2,-1677346.8,-9987.156,8634.586,-1651.1129,29832.07421875
214,35212.266,36767.02,8093.1978,8729.209,-200.93951,10889.048,36938.55859375
215,125082.87,154666.7,161941.28,6681.0547,-8026.4146,-188.25462,38348.64453125
216,-138027.27,-133573.06,-173553.44,-6022.4727,-2038.6338,-1255.7467,39575.23046875
217,-222444.89,-223942.62,-254126.81,-9245.65,-4682.9893,5275.3228,36935.8984375
218,52966.43,43812.71,81705.64,11529.983,308.7567,2554.2065,39893.39453125
219,22798.896,4240.5547,44948.125,7949.609,-5015.446,693.9625,38891.52734375
220,46906.344,35397.254,70490.08,12423.8955,250.44202,530.6873,37738.19921875
221,-76783.31,-81283.64,-115326.99,-8667.7,-1700.4364,-3499.6338,40040.140625
222,24419.227,33174.656,61423.984,8310.902,2984.4746,3095.2615,37211.47265625
223,13242.012,35498.02,40675.76,7998.683,-6867.5977,8534.282,34486.3046875
224,-13666.234,-2581.506,-2679.8203,15661.259,-245.51772,-27.17893,29288.208984375
225,-41065.992,-32310.184,-71380.39,-5864.5425,-529.1305,4126.761,37631.94140625
226,-645.0059,-7722.934,-25049.984,349.9043,6132.5107,-9235.428,29017.806640625
227,59.499477,14145.281,-9477.888,6798.001,15211.45,798.5598,35474.33984375
228,-23822.73,5067.025,11512.504,11395.81,-43.119625,3535.973,38593.765625
229,-22436.203,13998.712,-15919.79,729.06287,-9282.687,8561.215,40156.25
230,-9950.77,-5534.015,-19626.977,-19070.48,-1305.5056,-7596.334,37751.15625
231,11392.338,-11763.232,-1136.7062,5995.8467,-6937.969,-2969.044,26110.201171875
232,4829.694,876.2295,-13410.594,7639.6606,1098.1536,1561.1038,21499.951171875
233,10062.302,-9815.279,-1341.9651,3445.7632,-2611.565,5461.7954,21072.744140625
234,6460.8496,-6975.4004,3828.248,1496.5482,-6522.689,1724.3729,17186.2421875
235,7564.961,-63.975037,-10448.488,-647.16907,-5159.4316,-10658.079,25829.46484375
236,19158.486,4957.834,2805.1992,-3880.412,-5309.736,-4763.7983,20849.345703125
237,14313.731,-3335.335,-7868.5244,3246.7222,-1387.6448,5916.074,23546.677734375
238,15049.959,-1711.4089,-4426.371,-1876.2418,-9651.172,1174.367,25059.021484375
239,9872.552,-1298.1085,-18136.33,-2626.0464,-12887.385,-9526.216,37250.3984375
240,-58.612305,6633.365,7523.0254,5053.2876,13182.473,3101.5369,26044.6953125
241,7706.0513,7964.747,9479.252,-3159.0344,-9284.148,-2570.904,17638.19140625
242,10077.626,3871.4678,-8445.376,13732.003,-2846.8118,3569.4507,29914.89453125
243,4787.939,2047.27,-1586.9615,7053.908,690.18585,9783.014,21644.93359375
244,11077.577,788.9784,-14851.478,2186.2888,-4660.148,10521.357,30380.666015625
245,3262.2837,-1697.6731,-14596.9,9875.871,-2604.2368,8124.729,27675.787109375
246,11969.842,9675.911,-19304.682,2088.233,-3438.6829,12065.691,37375.32421875
247,11083.906,-5315.018,-6285.167,10048.67,-474.27924,6929.2275,27081.728515625
248,1402.4043,4044.2285,-34000.35,-2554.765,6603.001,2876.4539,39103.2421875
249,-2248.502,9855.546,18160.887,-20556.232,1640.6135,2290.099,40093.6328125
250,4691.7407,-1252.9324,2414.067,-6539.0024,10011.256,4895.197,22974.48828125
251,9327.1875,-9122.341,-22913.064,-10509.116,-4932.173,-10673.354,39128.84375
252,4944.1885,2013.6521,-32463.441,1996.7317,2886.6804,5540.5796,37780.26171875
253,4264.007,-7721.2075,5186.878,6104.996,2320.1077,-1524.2914,17043.763671875
254,35370.45,19747.365,18629.555,-5775.254,-5102.406,-6220.869,23602.03125
255,-1555.1031,5139.4756,20420.734,-5374.4785,-3766.225,-3641.5837,23444.138671875
256,-4526.3823,-5366.0405,-3512.9453,-18778.355,-1734.7811,9229.934,36401.4609375
257,10300.754,5380.5444,-5327.46,-20449.766,245.95786,-5484.79,39199.03515625
258,-5589.988,-6438.324,-62.199707,-19186.55,-3971.5269,454.85358,34471.38671875
259,17771.105,12926.868,12339.976,-19553.174,-11118.473,1615.4989,39399.55078125
260,1840.3452,8631.261,-22528.576,-2564.5151,-4190.3447,6477.1484,31681.47265625
261,1348.6436,-11987.327,-17618.225,-10974.426,-580.2521,-10752.182,31524.609375
262,-18363.447,-414.87402,-23306.145,-4964.82,-4029.5881,1620.0144,23787.185546875
263,-4763.9663,17778.701,-5387.216,5370.5093,2034.7941,2894.6711,25430.2109375
264,19066.297,1315.7031,39902.84,6191.917,1335.0963,-348.0474,35211.3125
265,-1878.7549,1916.4844,-168.3018,6340.049,8765.282,3561.3362,19999.162109375
266,-11640.297,6758.574,-1688.0652,4463.3306,1525.5962,1789.5895,18188.17578125
267,-13956.643,6086.8438,-921.8032,6660.969,13861.304,-1435.6365,32032.494140625
268,-11136.035,23833.764,8804.01,-2987.2683,-1216.2166,-4541.772,31879.22265625
269,-4043.1572,9711.721,12807.546,5859.6978,-6912.011,-1721.1155,22284.2109375
270,-11388.068,-8563.346,-10486.652,5124.5103,1303.7341,-6273.7617,14429.3662109375
271,-11285.557,-18161.586,5873.3325,8760.094,6544.7793,2943.9612,29058.787109375
272,1695.0956,-19485.379,23326.758,853.9912,7420.743,3283.943,39679.37890625
273,-18033.361,-47098.01,-48024.53,-14319.924,615.775,5655.645,39809.77734375
274,-8668.537,-16228.027,-36173.812,9456.063,8803.508,-12380.05,39576.6796875
275,-40637.4,-36170.367,-75227.016,-8408.484,1349.974,1789.7136,39976.16015625
276,-8781.857,13716.454,3714.1277,4346.6006,918.8871,-7438.7715,24625.25
277,-8421.877,4698.022,1530.0459,9189.67,1465.0702,10321.352,26832.52734375
278,9904.771,-10328.698,-16348.254,895.0907,-11544.678,-1154.139,31203.578125
279,4077.393,-508.59766,11976.627,10351.222,10244.55,919.6569,27540.6640625
280,9460.485,-12430.049,2840.8928,-37.260464,10030.656,-4856.4727,27399.095703125
281,15705.819,22088.77,15237.222,-391.6855,4472.3843,-1300.3278,10463.849609375
282,13192.082,23578.598,51601.566,9381.711,1091.3696,507.28568,38113.28125
283,13003.463,11670.572,-20274.596,2332.7646,-20.754639,6219.0493,34600.66796875
284,-12642.749,8322.609,16227.406,1060.2681,4329.9614,7610.5615,30018.98046875
285,-8452.84,-9287.21,-6858.79,-331.34158,6518.172,-1019.405,11639.322265625
286,-48500.16,-54217.953,-89928.15,-1932.1569,-2088.3247,-716.3035,39216.28515625
287,24150.742,17856.16,15214.404,-5697.832,10367.089,2784.3213,22501.3828125
288,4013.211,-18778.354,-28377.498,-12413.95,1979.3137,280.61453,36120.44140625
289,-342.60938,-10313.852,-18172.162,-6887.4385,-7939.1978,1270.8175,23995.494140625
290,-12629.305,-15174.747,-35397.387,-4438.0044,-5461.7983,-8514.704,28861.6015625
291,12722.5,3651.919,43207.957,6083.024,-815.31006,-644.2934,37448.74609375
292,-1674.5283,-2183.651,-16800.4,-3503.4197,-2173.1956,-3721.4485,17716.884765625
293,5309.8438,-1937.8447,-8838.514,3757.6248,-18154.691,6967.497,36427.16015625
294,8630.879,-9115.533,-12698.698,1984.5643,7431.9487,16462.277,37173.90625
295,14688.943,-2660.836,5266.9585,-374.6871,5770.9087,-1398.9509,18235.1796875
296,335302.72,302639.0,333927.62,576.02936,482.18567,8009.059,34900.16796875
297,695623.75,704695.4,734704.8,4298.925,-3548.0251,278.68372,36722.4140625
298,52018.223,28602.867,70207.18,-7253.9893,-6784.381,1853.976,40140.67578125
299,-8835.607,-11591.254,-46613.426,2175.3472,-1980.7593,3202.584,37247.69921875
300,-26537.264,-15402.097,-32005.074,-970.7232,2429.5122,568.7665,15371.365234375
301,-7003.0566,8218.955,-5255.7812,9064.922,3775.9424,-3363.1626,23051.89453125
302,-4180.0938,13052.372,4926.4854,6194.8804,-4937.0396,11682.179,28646.666015625
303,-20918.031,7482.681,-3594.6704,2424.0525,3782.1833,-7485.226,29040.181640625
304,833.024,-2431.4775,205.93683,2641.4878,-4270.2964,4910.741,12529.4814453125
305,6927.417,-23334.918,5898.0146,3906.2236,-2661.2458,6815.3164,33046.703125
306,2462.0154,-14393.997,18727.59,-6239.83,-1364.1725,2956.8857,31168.662109375
307,-6357.487,-3808.0198,-13432.152,-6491.4688,-11048.9375,-7524.853,27149.806640625
308,-360.58902,-6331.2983,23097.408,-13919.131,-2689.8992,5304.1113,37594.17578125
309,193.71509,3596.1436,-15197.266,-5342.208,-44.24918,-4817.0195,21355.560546875
310,-1976.2275,18295.766,643.68896,-304.59824,-1637.6396,-2442.998,19772.0859375
311,-15157.579,11001.975,6236.2017,7997.282,3155.1348,505.9426,28370.169921875
312,4286.69,-16250.17,-5758.8003,-11976.032,2193.989,-2897.4983,28040.59375
313,2098.2622,4750.2715,-28149.06,-11809.024,-5386.992,1945.5303,38973.3671875
314,-9597.869,14548.389,27447.146,-12528.109,-3597.201,493.9461,39639.48046875
315,-12245.033,-10256.29,-11189.0625,-4092.5168,-2404.919,-603.602,8465.2294921875
316,3778.24,1202.1616,6570.3643,2301.0747,-1488.1511,-3722.6294,9258.908203125
317,14303.21,7359.6533,17523.785,983.00653,-7506.306,2391.8801,16432.99609375
318,33198.883,42977.17,68269.25,11638.484,439.67752,-1439.2242,37360.0625
319,22159.91,-5812.718,33204.61,7434.913,-2205.9998,7243.121,39385.58203125
320,-69959.32,-50075.777,-88092.266,-11761.915,-4111.8413,-206.88457,39377.45703125
321,303650.7,290141.03,323702.38,12059.644,-4715.009,2535.6033,37118.1796875
322,-2075726.5,-2073436.6,-2083531.4,5751.4126,2210.658,-11554.79,24463.6171875
323,-113970.336,-127709.7,-148949.75,-3670.9822,-1690.2516,4275.41,32180.291015625
324,150046.78,132852.36,170692.03,1701.2283,7906.0273,7045.5415,37709.08203125
325,-67296.555,-63884.97,-86900.65,-5652.059,17544.951,5667.118,39730.37109375
326,11187.165,-818.54126,1500.315,-5251.609,-11315.209,-1324.7413,24367.58984375
327,12926.215,-2115.3164,-7315.771,6214.432,420.83276,-364.8571,21173.17578125
328,11154.846,1107.7959,4154.779,2849.4292,11647.499,10491.1,29002.65625
329,10351.656,12438.836,5719.4336,634.05756,-182.14934,5837.873,11791.09765625
330,6317.586,-2339.87,-18122.72,8455.57,-6789.899,-459.78046,28532.81640625
331,9385.507,-744.18066,12471.804,1978.0361,5021.254,-10047.7705,23100.841796875
332,-2717.829,9911.1875,-4655.0176,3709.9749,-2014.0568,-8171.616,21011.818359375
333,1642.0073,-11261.857,-5341.103,-3227.3242,-3995.1873,-4750.33,16492.203125
334,-3780.5815,-15808.73,3365.9272,-13432.753,-14756.413,3312.6938,38848.44921875
335,13550.737,2975.481,36732.016,-13024.115,-22.700338,7098.2944,39425.84765625
336,6689.8965,-9.017866,7272.6587,15611.697,6783.9556,-9618.335,34581.75
337,3146.4321,11497.299,-3994.7676,6816.398,-874.9291,-8852.289,23603.90625
338,10039.125,-27810.02,7789.043,1855.6041,-7325.992,-1176.6299,39089.01171875
339,3311.5698,-5111.1953,-17898.576,-936.0936,-1729.6926,8903.655,24322.720703125
340,-21454.707,-8577.175,-22179.285,6061.1855,-7677.9634,8005.0093,25592.859375
341,20209.283,870.4027,-2856.6245,-5752.907,-1662.2609,-510.45474,23839.4296875
342,-49598.13,-38339.703,-71568.125,-6408.472,4100.3965,2167.5178,32319.037109375
343,-18885.896,8495.519,-25505.44,-12915.213,-4506.0977,-77.73618,39193.796875
344,205163.67,201297.25,231774.05,1618.5612,-15361.019,1613.9886,39363.75390625
345,10507.601,-5332.3496,-5236.242,-3463.8235,8442.897,782.2648,22384.55859375
346,13956.613,12728.627,-6759.6377,-420.3458,5957.663,3446.9456,23406.994140625
347,-7341.063,-458.64648,24583.705,15847.821,-1833.0499,202.26027,40131.0625
348,-8668.423,3791.706,28019.79,-8503.505,-7634.4604,-696.65436,37912.7890625
349,-4039.2224,-39785.69,-14508.989,-6399.7637,-1237.409,7333.4854,36082.8671875
350,-4563790.5,-4556493.0,-4581712.5,920.53156,13503.318,-5185.8765,33696.859375
351,16249.992,3955.628,40018.32,13723.847,-1245.9594,-3376.5505,40152.1328125
352,-20005.26,-3064.2197,-20728.652,11186.786,5382.2266,5654.7485,29292.376953125
353,-55249.594,-20805.082,-49793.06,12400.065,-4731.7334,163.6657,39456.09765625
354,22591.836,7555.884,46281.61,2842.103,-4261.608,1293.3201,35031.671875
355,-12778.474,-36456.0,-26073.318,2191.9514,-3403.5168,984.3364,21786.73046875
356,12585.913,-19981.486,11614.149,7016.416,-8923.352,2847.9368,37958.30859375
357,11812.68,-25734.682,-7898.449,6250.537,-2507.0464,-2084.2908,34746.62890625
358,12298.756,-13943.1045,-24.54248,-2795.4094,-3341.2202,868.5328,24006.455078125
359,13396.01,-15146.45,65.49524,-4205.0015,808.63196,-1921.8113,26037.98828125
360,10055.202,17541.39,35996.355,-236.1404,-1444.0452,549.04706,23283.330078125
361,2397.7217,2513.6165,5199.882,296.2827,-459.08316,501.46783,3031.634765625
362,-1976.8801,-4534.6436,1265.1265,-190.9087,-3253.2354,567.7658,7627.06201171875
363,1737.0331,-1787.4316,834.2805,43.07249,258.22226,2038.6505,4767.4921875
364,-2436.2388,4266.853,2375.3845,-4192.142,-1831.5659,-443.61667,9960.263671875
365,-275086.47,-284808.53,-318381.78,427.43008,-1161.2247,-819.7335,39429.5859375
366,4038.0488,2264.4648,2178.6533,-1220.3048,-476.01828,-1668.2585,4098.97900390625
367,-67763.92,-73519.26,-34883.75,-8138.186,2446.9277,3268.9905,39397.68359375
368,122569.74,113203.42,154319.14,-1445.6713,187.27394,-697.1217,37429.40625
369,23117.686,10625.357,50348.633,43.339466,1272.1383,-1037.9749,35296.6484375
370,-22310.248,-14107.465,-42055.18,4300.8438,504.96283,1796.778,26173.5234375
371,18125.67,14919.199,38405.07,-3683.739,-129.65831,-2676.8787,23426.8671875
372,2666.3767,6618.3994,194.2102,387.5817,-560.2555,1781.8685,6512.88232421875
373,-408.43292,2397.2468,-968.6968,-66.35045,184.326,-959.36786,3554.42700195313
374,-2057.0034,-517.4883,-8.280518,510.39996,413.15536,629.9749,2428.48803710938
375,-502.06134,58.07782,-256.3933,59.80189,320.0696,-57.459404,751.310607910156
376,-3449.3455,64.98035,-1684.8751,1089.4431,-667.7003,1883.4454,4980.27587890625
377,-4917.7246,-4935.0156,-74.545166,7151.6567,914.1707,1053.5791,13520.955078125
378,-1557.0767,-8778.395,-13341.489,-1945.3479,-570.9657,-535.3863,10913.8388671875
379,4835.86,1853.3519,1945.5809,761.5486,1723.5891,-22.156929,4391.173828125
380,-2804.3333,-628.0199,24.184692,3786.1418,2382.175,2629.7517,9346.484375
381,1217.7394,-4592.9644,-1581.674,141.23256,-2630.918,-1850.3452,7512.04296875
382,281.1516,-3534.8032,-481.83887,791.20166,-2661.7383,-45.895477,5947.35205078125
383,-5414.1235,-10363.7295,2534.0059,1842.4573,-3571.7222,785.1833,13316.0263671875
384,11044.665,10036.23,-4216.7886,6682.1367,2059.5154,729.40967,19152.349609375
385,12765.592,11800.103,14018.899,1085.9434,1769.6699,-1281.9708,4645.03662109375
386,-1899.2943,-2805.2969,-757.49133,390.229,-211.3896,-748.8552,2330.72436523438
387,9928.34,9385.379,19949.805,510.5917,-77.01568,1085.5836,10511.955078125
388,27173.23,15633.037,-11282.588,5233.0073,3505.5193,144.8049,35879.25
389,677282.4,683291.75,717877.6,-907.56573,-2513.6943,-2561.5706,38486.96875
390,-2886666.0,-2881257.0,-2912318.0,-177.09227,10102.591,-2234.988,33871.82421875
391,680932.8,687093.75,721527.75,-2602.2917,-319.68112,4181.539,38844.32421875
392,34.394897,-497.83545,-3741.084,-1779.4954,744.8511,159.39017,4875.296875
393,-283634.94,-270640.9,-314671.03,591.14655,43.428043,311.88617,39200.94140625
394,4370.5825,3935.5425,28051.658,-1016.6293,3473.8184,-3724.1223,25538.107421875
395,-52143.527,-40394.5,-81412.35,1146.7665,1125.8228,610.64685,36707.62890625
396,126573.16,133938.58,167309.44,780.6017,9.946984,-1603.4244,37725.26171875
397,-6428.5244,-1428.0527,-19242.064,-941.0544,39.82904,1449.9459,16193.634765625
398,34592.59,31851.324,69530.805,1065.2708,296.945,-1972.063,36596.5078125
399,9247.546,16254.685,2345.9917,1548.5541,-1010.869,-3066.6008,13548.5546875
400,-2003.6329,-5803.2812,-4130.0986,582.62213,1441.1796,384.50516,4309.5517578125
401,-4104.8467,-5602.1895,-383.53857,-1230.1869,-2306.3184,3674.832,9092.458984375
402,9642.881,19866.31,2627.8184,-2863.2527,56.322414,130.64844,15814.64453125
403,-3477.5933,530.4363,-5644.564,-1840.9216,-1183.8352,129.36903,6623.21142578125
404,-2226.322,4010.7542,-1265.3759,1403.1857,-121.302765,-933.57916,6511.27392578125
405,32473.365,31015.492,58142.375,2846.811,900.9778,1735.2668,27096.62890625
406,587.8588,-958.9316,850.7569,-2215.545,-2745.3347,1368.6582,6769.3798828125
407,-7550.675,-4226.457,-8741.333,2164.7358,1633.0347,3640.784,8845.94140625
408,710002.1,703483.75,744587.4,240.83226,2971.3447,1382.5645,38684.1484375
409,-73742.695,-66475.91,-106614.72,567.6375,187.57329,-622.80396,37074.0625
410,-2940863.0,-2946898.0,-2972411.2,-153.63786,2000.6698,-10648.932,34548.484375
411,-69799.93,-62643.875,-102120.38,3073.4478,370.23416,271.50558,36824.96875
412,-5182.269,-14601.0205,-10971.893,-5761.1216,639.8037,757.7547,13046.984375
413,-4558.989,-925.41644,192.99463,-10.754142,-572.9079,620.1394,4544.9150390625
414,10980.997,16856.742,2590.8745,-1708.0856,-722.2377,156.77005,12829.9658203125
415,-4828.115,-3475.9102,-2339.9119,-3319.0286,463.54626,1117.7422,6488.1103515625
416,-4310.786,-2989.6658,-2650.2227,4229.5137,730.5731,1495.8135,8018.04052734375
417,-3321.8916,550.8208,12062.447,210.94052,1549.5745,-2059.541,14565.6728515625
418,2103.7173,-10772.374,3326.351,-665.96014,1632.0095,384.08862,13885.0556640625
419,3430.0693,21296.66,-5511.351,-1364.6501,-1450.493,-639.40533,23917.396484375
420,-2009.6323,-64.89429,-1696.5933,1925.1,4248.395,4776.1714,11703.47265625
421,-2711033.5,-2711926.2,-2744121.8,-2454.1167,1824.9724,-3453.1008,33614.30078125
422,-4991.895,-1040.1228,-776.7428,-2130.096,-298.32986,673.81287,5653.99755859375
423,-16690.785,-14569.289,-2626.2715,-1446.9918,-1882.926,1895.7759,14148.2490234375
424,10936.333,45768.773,19235.883,5963.3115,3898.5942,543.87726,33856.3984375
425,13006.765,3236.0088,-6611.134,293.96066,-1737.0249,-914.2558,17333.970703125
426,-3583.928,150.7976,2703.6726,-146.18562,-510.22314,-1493.774,6126.892578125
427,-51777.93,-67265.52,-93735.25,1797.1328,1386.7029,0.29983395,36958.38671875
428,4287.795,4458.206,7897.522,864.6195,-497.1917,-624.7999,4074.24291992188
429,-308723.34,-301589.53,-343608.03,3224.935,313.7879,-1030.4097,39387.4921875
430,-19976.727,-27589.139,-28686.914,900.8144,-282.27765,1277.3988,8664.8330078125
431,14436.173,22080.809,39982.19,-4387.112,-2073.0825,87.625336,24215.81640625
432,-7030.087,-1616.7294,316.89795,-3190.4136,-207.05194,2078.1626,9334.4462890625
433,-966.9563,-4060.9956,-3166.1482,-2485.067,-306.36484,-207.33916,5151.92724609375
434,-5527.823,-2058.9902,-32870.453,3519.4124,-982.00085,1279.1945,29991.0
435,42876.6,31362.203,67726.23,63.123882,1568.5586,-209.31421,32306.9375
436,9134.821,-3327.9934,2290.7454,-1533.8539,-106.425644,-1684.7137,11509.7158203125
437,-1311.6951,555.8528,-3789.9873,118.64928,1220.3209,-389.80667,4384.4755859375
438,12622.044,12162.921,-23637.352,6438.7305,-1283.0256,239.99565,37786.109375
439,-5021.867,-840.4457,-62.9032,-1886.4032,-2055.0667,-1091.3995,6946.86962890625
440,16971.9,12337.06,14253.508,-949.07886,-997.7854,-894.33325,4935.642578125
441,6031.869,-4583.028,1192.3771,2240.531,470.88803,1115.1316,10206.9443359375
442,-1775.0461,3082.9124,2015.7659,-193.328,534.5469,463.85687,4601.0048828125
443,6830.091,15191.24,2356.8662,3007.1746,498.44513,1350.6624,12675.462890625
444,-4087.48,-872.3762,-1658.936,-3454.097,288.17603,-742.5988,6791.3583984375
445,16311.32,9722.0625,-3325.5723,2291.5508,413.83273,1559.5986,17977.701171875
446,680704.0,674744.2,716084.1,-205.03705,-4615.842,-213.95139,39526.10546875
447,7093.205,6784.552,14274.207,-2081.0183,-758.72485,-972.7167,8451.978515625
448,3680.5776,2621.904,647.80347,-1339.2194,-936.668,-21.018698,3888.66088867188
449,-8986.512,-1507.8992,-3394.464,-171.49196,285.0733,739.0522,6881.17041015625
450,518.7507,-1944.3065,1240.9276,530.21423,-74.36591,842.73444,3370.09350585938
451,1946.1165,-7562.449,4000.88,-162.09584,-1736.7441,-4640.245,13707.5166015625
452,2827.179,6746.891,-372.5786,-1505.6837,-1754.5665,-1512.8787,7813.31494140625
453,-5103.5874,-1649.9609,-2138.6443,184.25253,-756.7512,439.99524,3588.77001953125
454,-86445.69,-77692.46,-52966.125,-8197.11,-8490.224,-4181.0977,37077.21875
455,131209.33,128135.02,166598.72,-2780.9983,-820.35504,28.372978,37361.49609375
456,-16369.124,-14620.509,-18618.824,-1800.3461,-55.244854,1255.7845,5149.421875
457,3882.567,3091.082,3366.5237,1193.7489,4234.237,144.3077,7655.59765625
458,1988.659,1607.7655,686.44714,-2891.4531,-1486.1616,-1105.2147,6059.44384765625
459,2484.0442,4029.1436,-2769.1855,294.14676,460.45392,-2389.0483,7491.24755859375
460,-11020.108,-25491.768,-43059.93,-3261.0361,-116.121635,1775.8778,28525.6796875
461,-2738.5767,-3314.2095,8747.829,-411.65475,-1831.4802,175.09888,12228.82421875
462,-42.333862,522.279,3633.5757,254.26938,-535.86945,418.56888,3651.93896484375
463,154949.52,155901.06,192565.28,-3253.9744,-1119.7695,-548.98395,37636.26953125
464,191522.56,185682.08,226250.16,-3717.8933,406.21564,-517.82196,38544.91796875
465,-79.76752,-629.6371,94.49217,-242.38159,-1793.7473,1364.3195,3980.1357421875
466,-108.472336,-5557.292,5575.21,954.89,-2613.046,-1556.9332,11111.0234375
467,-27314.938,-32319.275,-61464.89,2330.0955,1247.4116,342.30508,32274.951171875
468,-4045.5237,-3803.1377,-3289.6016,1618.8469,-468.73798,-1053.7551,3507.03369140625
469,3460.4072,1005.49536,1840.5205,-128.55815,105.06246,2968.6855,5585.3310546875
470,1588.3003,-2609.6172,-7441.2153,2352.0999,-1613.4884,-654.7704,9324.3134765625
471,-54961.188,-48346.46,-22710.715,8266.84,5164.5522,-4304.3677,34801.46484375
472,-9528.448,-3386.379,-14936.49,2700.3918,-1032.0901,-1887.0898,11659.494140625
473,11867.084,7627.9854,23355.86,1816.3947,-531.23,-325.90662,14481.9580078125
474,1909.831,-1883.5924,5280.67,944.7556,1502.8352,-1160.1448,7213.228515625
475,1518.1556,3981.269,-1566.9971,-1012.911,189.71869,1310.9181,5614.77001953125
476,-17.535889,2053.038,5662.6733,1099.5247,1132.6602,-780.5588,5839.0234375
477,648883.94,644222.9,685660.56,989.08563,3250.5713,1009.0954,39791.359375
478,4253.4214,2983.8032,3317.7146,-3285.263,-73.5726,-4288.8687,9427.5009765625
479,645640.0,649902.6,686671.94,-1806.8253,1292.7589,-3495.907,39728.55078125
480,-389.15637,3626.5977,-134.42566,112.94865,-582.0354,636.22284,4175.7802734375
481,10023.507,12858.93,18959.092,831.0405,1413.6257,453.37247,8439.8857421875
482,3740.8865,-97.46094,1273.0999,-1884.1146,1418.7037,936.6062,5538.06591796875
483,3595.162,-1223.9268,-5.2404175,-189.2507,788.5495,2403.3445,6175.5107421875
484,-2825.4536,-2235.7847,-6901.282,2855.7964,-2122.8384,1269.0786,7885.505859375
485,822.6306,921.6354,5035.9536,1959.6929,-1586.0955,-1447.1956,6534.22998046875
486,-13805.955,-13070.771,-36633.566,1384.7527,-1515.0718,-1125.6615,23555.533203125
487,-3407.1394,-4810.268,2461.5513,-134.8772,946.89197,1579.9373,7407.95703125
488,4920.079,4500.6475,4243.414,-443.67947,30.28121,656.7727,1495.77416992188
489,-2524.1357,16109.957,1535.0686,-7480.5664,-1132.4391,2328.532,21818.73046875
490,-307980.1,-303992.28,-344427.22,-3460.537,-9.589325,-992.45435,39096.3046875
491,-10547.819,-9560.473,-15260.288,-3190.9849,873.8159,-571.9893,7852.03076171875
492,-12967.416,-4303.4824,-4460.5815,-984.40027,702.67773,1447.7776,9187.16015625
493,-756.8213,-3955.7202,-4564.026,-295.47208,2962.7886,-97.802376,6258.90234375
494,-1929.151,-1328.3586,1834.5276,1809.5281,-66.10854,97.935135,4704.263671875
495,1159.6715,-1813.48,-247.19154,1038.2178,925.5532,-1602.0927,4487.740234375
496,-2099.6963,1110.8628,-817.71576,-493.69568,904.0536,207.49014,3338.80078125
497,-57.393982,-762.70166,-192.33144,1436.4093,1228.1058,548.8829,3469.70581054688
498,-10566.391,-13448.49,-31954.266,1821.8256,204.69374,-1262.6187,20468.78515625
499,3566.023,2308.8303,1476.0723,-221.83226,1272.8517,-490.28336,3008.35034179688
500,-342731.5,-343891.5,-382065.25,5798.737,1354.2115,-94.14151,40115.6640625
501,3462.4224,-820.4346,1740.2626,257.8655,-707.5663,189.25089,3967.59545898438
502,-7049.4316,-6089.276,-19783.943,-2215.11,-22.085234,-960.89514,13885.544921875
503,3296.7183,8437.938,19846.176,-1200.0522,-415.57327,2236.307,15332.1220703125
504,-8720.676,-4730.985,-6903.56,-206.26175,2070.4836,1119.1368,5358.68994140625
505,-3234.7625,2219.9724,2320.8591,242.14618,-287.94876,363.4768,5579.9296875
506,538.0381,2304.5635,16754.639,-865.54205,298.04587,195.52083,15494.5263671875
507,96.7478,4981.03,4716.4224,-1252.8083,-524.6586,454.67978,5365.48193359375
508,-3892.4773,3107.7175,2467.142,-4434.5215,-97.94933,1450.6118,10500.736328125
509,204.24557,-132.01068,375.1105,2110.585,-691.1742,-1088.0613,4306.7646484375
510,-622.34576,54.815247,-2033.8557,2064.7622,364.7407,-628.09607,4216.5244140625
511,2546.1152,5906.904,-12508.476,538.2741,-1515.7927,-1347.5077,17370.67578125
512,-4325.8467,4175.485,-1366.9492,-1284.9951,1174.6115,1175.5193,8313.330078125
513,-2199.8193,-117.58411,-534.74963,-1394.0033,-1113.8795,-412.80383,3701.92309570313
514,-8025.869,-10939.651,-12675.062,2286.3345,-3450.4622,2349.702,9193.5146484375
515,-2274.661,2722.5034,-1609.9858,385.20267,512.2502,819.87836,5033.974609375
516,6327.1504,2359.1558,-864.26953,1239.4089,-873.5339,2398.3755,7942.30322265625
517,-4093.0105,-4441.9,-880.6008,752.2586,-1076.5486,-2008.9492,5370.68505859375
518,-294013.47,-299317.1,-335543.88,2834.0354,755.5286,471.64288,39485.6484375
519,-5303.9116,88.226074,2413.0208,2322.0208,-148.9391,-2128.41,8766.2822265625
520,3354.1191,3042.402,4256.1143,-1086.024,218.4322,-2281.229,4526.08349609375
521,-1770.3181,-2368.5427,-1704.6785,-1377.5981,-647.75665,-1211.8004,3429.12890625
522,114133.03,112470.58,149727.8,3530.9705,698.89496,-104.81442,36984.1484375
523,1742.5386,892.1176,-2115.7598,109.76979,2880.6428,36.658955,6104.34228515625
524,9724.645,4772.363,10053.396,640.3817,-322.35892,440.4847,5327.7890625
525,-4323.2856,-1915.6179,-6268.374,348.18674,530.4788,533.9571,4040.62060546875
526,-3786.8743,-877.5146,4195.6807,-326.57922,-740.4504,626.37463,7218.2568359375
527,-33420.99,-34070.582,-60575.28,-1526.0358,-401.60056,1114.1465,27043.16015625
528,3123.3926,2077.308,4164.877,268.8337,3182.6064,-1753.9532,6565.1572265625
529,-577.26843,2893.0205,-2588.6272,1554.7618,-1049.0385,140.66747,5803.54443359375
530,-1904.4829,-1300.2671,5471.3413,-526.208,-132.13838,2807.0425,8650.595703125
531,-3504.7422,-3260.5166,-2995.5269,959.3436,-1690.3785,-870.2879,3714.82788085938
532,-5391.953,-4067.8135,-592.5825,1981.374,-343.56116,1422.9468,6052.9521484375
533,-843.0115,-4098.505,-1733.7637,1240.9558,153.57564,427.82083,3705.61767578125
534,-4178.898,-3223.1555,-467.68677,1821.4541,1138.1359,400.67526,5045.8232421875
535,-2496.684,1070.7092,418.55103,-683.6492,-789.11316,60.16955,3755.82080078125
536,1463.7212,2220.906,790.5728,307.49606,-901.8757,435.36887,2197.40625
537,-810.5791,7836.4243,4024.2715,2469.4626,1097.8585,-56.174213,8846.443359375
538,-3420.3342,1827.6853,-1884.5569,1197.3815,-488.3226,-509.81647,5257.07275390625
539,1154.3533,-265.41052,1491.9714,519.4441,-699.60455,1448.0719,3343.29125976563
540,-2401.1,-6431.9873,-14622.27,1863.482,1738.2253,-259.4329,11663.0517578125
541,-3165.46,4533.432,147.4646,-1242.3151,-647.90295,-810.767,7252.859375
542,30.29602,3138.644,793.3633,-247.17262,1529.88,991.8914,4246.015625
543,-4915.849,-6771.3613,3737.9734,-1059.7192,-2443.737,-680.4254,10819.53515625
544,6262.7173,-3859.6543,-1142.0859,544.87946,1561.7976,410.36655,9542.162109375
545,8942.45,5157.122,29396.756,-341.41385,-1821.8229,553.2926,22833.28125
546,8115.709,1624.4048,1686.9915,49.744488,-1373.1713,-812.28754,7026.9716796875
547,11116.668,3072.1245,4343.032,-4458.7812,556.12646,496.0143,10835.779296875
548,1895.387,-3450.097,335.51556,-2732.9167,-32.53759,-599.4995,6793.89453125
549,4920.877,1644.6874,4045.4695,-825.91736,-2321.679,1983.6854,6217.21630859375
550,5195.835,3890.6887,4205.0605,-220.6818,439.62018,903.5549,2137.07006835938
551,1681.6661,573.4897,-12.603943,-913.0362,-369.85004,-1073.3373,2930.61206054688
552,-5365.5767,333.06885,-561.42883,309.3437,-1721.4888,-615.35095,6204.10205078125
553,812.6499,4680.866,3359.3562,-1243.7854,-1588.6912,-93.670815,4882.2890625
554,-9889.746,-11791.242,-11535.444,-179.67827,825.0598,191.89456,2333.2841796875
555,301.05914,860.01385,-3305.245,-329.44446,-443.04364,-1137.184,4486.384765625
556,-1300.1802,-2914.0405,-6460.198,-653.29816,343.58606,-973.35156,5037.81396484375
557,2749.9287,2505.9597,1676.6461,-1159.0543,-1876.9406,1028.116,4326.61669921875
558,963.8459,4560.536,-2582.045,-1023.18756,989.60443,410.77036,6696.85595703125
559,1815.6031,1087.3362,-1948.4425,-724.133,-548.86505,549.0425,3916.42553710938
560,-699.007,-4738.3438,588.1293,-735.7875,1039.0844,1285.17,5743.72412109375
561,-2349.7031,-6518.511,-4692.993,-186.848,-11.273425,-555.52277,3759.27880859375
562,-525.9723,-2908.4443,-98.75867,-1159.0459,456.5883,-2577.1511,5608.67333984375
563,3311.2148,-300.8202,2143.5303,77.73498,-417.8595,547.7574,3410.95727539063
564,1014.06665,-1444.8962,-2902.7256,157.8732,-323.8073,-83.88539,3488.115234375
565,201.88306,5657.7153,5129.3706,922.6606,-46.833363,333.64716,5482.439453125
566,1709.7896,-713.40784,-741.797,83.437386,10.320425,-390.1705,2533.65112304688
567,-1334.7775,-2858.683,-1314.3562,-623.79254,-254.77728,-476.7573,2097.09423828125
568,-1179.7935,-2501.7568,-2602.9724,-2833.633,1323.0009,67.57998,5589.701171875
569,-835.87744,3622.4304,1058.6926,4100.705,-156.87595,517.5718,8145.19189453125
570,-3687.0513,1325.6667,-786.42444,-974.471,11.053705,-363.96573,4716.7275390625
571,694.0559,8182.038,1096.013,-1823.2717,401.05392,169.17001,7985.17041015625
572,1161.7091,1747.6028,3653.9424,-3041.2761,-271.6133,80.47467,5751.794921875
573,3777.643,5322.1475,18754.57,1305.4165,1219.544,-1581.5856,14853.9677734375
574,5210.301,14749.351,-5771.3164,1452.417,-410.78635,391.3216,17989.935546875
575,8857.393,7357.3135,8600.451,4951.6553,265.93475,-1530.9365,9095.65625
576,-4091.3389,-10048.366,8745.403,-5828.1416,-1859.3733,2490.7896,20189.6640625
577,-3710.2837,-1415.3308,2838.421,-1209.0372,2066.488,2231.0742,8077.92529296875
578,48592.504,63688.52,27540.896,11815.741,663.54083,1668.4473,37647.875
579,-7327.747,-22340.344,12543.775,-11997.902,-875.52826,1481.552,36868.8515625
