Element Label,S11,S22,S33,S12,S13,S23,Mises
1,1280.2046,1317.4913,127.54662,648.4353,-19.757547,0.76555526,1623.44311523438
2,1463.4768,1409.0514,130.46274,-75.48224,-19.954224,18.647266,1314.02795410156
3,1050.4037,1569.5872,-189.21745,263.99332,25.457664,-55.30325,1634.01342773438
4,1143.258,1975.0875,631.33826,199.93835,37.156445,-162.1509,1258.08532714844
5,1035.596,1332.8699,-321.70703,196.05196,30.17836,256.35336,1627.67504882813
6,1368.1371,1818.407,-139.0914,-0.4376247,2.3779156,14.365151,1775.8876953125
7,856.1452,1554.2123,-149.17091,138.36472,-21.06329,-27.195896,1503.56921386719
8,1552.1714,1284.9476,178.8478,143.41498,74.37912,33.68085,1293.11450195313
9,883.1529,997.48505,-448.10443,226.05045,-70.73267,108.295815,1463.22009277344
10,1403.1807,1616.8423,189.104,231.05537,70.380356,-221.33437,1449.49011230469
11,996.42926,1815.5236,233.02103,136.6382,84.545746,22.505795,1399.28002929688
12,1266.3016,2180.067,-26.893015,150.29163,-82.491,-20.688103,1943.82531738281
13,1370.8151,2392.219,5.717144,-52.207726,-40.893322,8.812621,2077.1376953125
14,925.563,2097.084,183.3213,108.25518,30.154009,-7.151446,1682.55004882813
15,1300.7665,1461.7594,-43.15499,114.70995,-19.632507,170.45163,1475.19421386719
16,-2025.1066,290.24615,-261.16925,807.5684,-2290.1758,2103.731,5946.13037109375
17,-731.57367,-121.54821,-1949.9082,1676.5424,-347.1615,1155.1273,3923.8486328125
18,994.4319,2734.4365,704.4677,-300.16544,-113.72744,-170.20694,2003.05895996094
19,579.7036,1476.3619,575.5147,15.448896,-369.68356,126.94925,1125.53625488281
20,659.5054,1553.8582,-1445.8058,-442.23486,127.35861,-21.127785,2784.20678710938
21,1142.9805,1403.9347,-4028.456,-461.56787,-352.19446,217.23476,5414.25830078125
22,1521.3552,-3939.2075,-157.79282,-404.22626,2061.5,1417.4689,6537.23095703125
23,-285.94275,-761.53925,59.550358,206.60623,-82.33644,-453.83206,1129.67236328125
24,1121.1288,-1811.8807,218.87468,-1613.8682,-250.7221,-354.19183,3892.16357421875
25,-3178.8225,1253.1887,-252.20322,-165.03197,-1425.7153,89.4063,4630.40966796875
26,1461.5975,1709.1887,2596.0305,2336.2239,160.58131,258.6387,4209.421875
27,356.71097,1313.2574,-1190.619,1394.7305,28.863523,1139.8685,3811.236328125
28,398.5756,1529.605,1213.3248,-979.43634,214.32916,-13.090383,2009.41540527344
29,2344.4216,3551.803,1386.829,719.45526,-43.528538,-872.3651,2715.23999023438
30,1529.4705,1422.4167,-940.932,-288.50223,-42.58042,609.1919,2686.70190429688
31,522.094,1367.3702,4867.7183,633.2889,419.1636,187.13606,4214.380859375
32,-452.84055,2294.773,3931.5127,-1278.7979,390.8346,-1760.4271,5420.97412109375
33,-1008.4229,-122.14344,4079.496,-980.8297,1627.3427,858.6304,5933.43408203125
34,1078.4578,1940.2515,-3146.7322,1483.8425,975.6741,-340.50784,5660.8466796875
35,-447.72662,1921.424,-2569.893,-214.99236,444.68277,938.0857,4303.0341796875
36,1324.5938,3187.8235,-565.7829,-158.9441,9.830242,-306.9202,3305.45532226563
37,3228.921,-1245.8672,9763.936,790.8821,3173.3071,1652.8359,11500.203125
38,1723.9146,3171.7117,2382.111,-470.70947,340.40866,-68.74267,1613.35583496094
39,2741.9565,-278.19403,-886.4176,861.43384,884.48254,-269.06204,4014.78344726563
40,1006.0671,2235.9302,-464.4892,498.2638,-92.39361,108.106544,2507.818359375
41,2414.808,1427.5266,-2927.6118,124.74404,7.9202867,-141.61932,4934.44482421875
42,1292.4652,2469.3838,3010.1138,60.592613,715.9501,-977.589,2594.17236328125
43,3139.4207,3773.4111,4158.841,-1552.9558,-492.9841,1069.2872,3491.2890625
44,2629.5269,12.142539,943.5766,-800.4718,-141.23279,-115.596725,2702.32153320313
45,4146.708,-3469.9155,-2150.073,-410.10938,449.7384,318.05246,7149.61767578125
46,486.89822,3001.0098,30.18042,-1767.3191,851.89343,341.7732,4424.4130859375
47,1522.1693,1759.9719,35.491802,-355.9343,-83.233635,-157.67952,1759.47021484375
48,1347.852,2971.968,1457.2621,51.695595,-157.21422,191.27101,1632.16076660156
49,1101.502,935.9,-99.78076,3.9354117,-147.07387,-224.28409,1219.59753417969
50,1447.8568,848.46924,-891.884,-122.66976,-143.60425,194.05365,2156.66918945313
51,1021.07355,1483.9928,-492.05023,-249.67648,210.28812,8.496248,1877.28186035156
52,1284.2019,1803.0233,127.27158,-150.40405,-114.44103,-5.718548,1521.56372070313
53,2017.3876,913.71985,86.78645,-86.688065,-108.80644,-257.84744,1752.734375
54,1010.83466,1642.7516,-2.2504203,57.18516,79.27086,-59.695606,1450.93029785156
55,1836.0856,1017.06195,1287.1044,60.61932,-299.4392,-392.13394,1124.22155761719
56,2520.6594,1373.03,169.72835,264.86414,-230.3914,-77.21516,2129.2060546875
57,1018.70245,932.28595,-2998.6245,-374.40793,-104.35552,64.3293,4032.97021484375
58,1584.6295,1340.571,15.691648,802.83734,311.9447,-79.66249,2093.5205078125
59,1954.5508,984.0242,-376.9007,157.39377,315.98975,-183.1268,2142.27124023438
60,2065.743,1657.5707,4202.127,-9.070283,486.94452,736.6384,2818.20068359375
61,-95.52122,2827.7983,-1097.5765,1851.5603,-859.6076,346.72543,5034.0341796875
62,-580.5453,-106.08912,-1614.5625,2099.181,-191.89822,121.57339,3893.50659179688
63,1557.9927,1865.9642,-6.9140487,1468.1512,71.87656,-238.35936,3110.96044921875
64,1228.4746,2840.8005,2662.2715,930.28656,-191.86606,156.52997,2263.59497070313
65,766.3277,2108.3535,10.997521,243.90898,-142.24867,-113.29917,1913.87536621094
66,1474.1683,1935.1196,200.10353,432.94403,-118.28795,-120.97404,1752.48425292969
67,1136.6957,2210.3533,-430.1503,772.42755,60.797394,12.745108,2662.9892578125
68,1862.6633,2170.4792,-748.37463,-202.8675,-87.72607,-453.4472,2911.9384765625
69,951.9759,2488.5154,-1514.3492,664.1204,-102.84308,-22.38754,3686.423828125
70,1089.5593,2397.5872,323.03882,132.46483,230.55609,177.70638,1899.46533203125
71,604.98615,2250.0752,-62.46391,289.80032,-24.236248,-170.77895,2142.669921875
72,1005.43317,2137.6982,199.62553,430.9621,-36.367935,-44.194714,1846.82165527344
73,775.8085,1373.6848,-624.53204,228.70538,125.1263,105.71598,1842.02490234375
74,1543.2919,2254.9492,-329.84155,-221.01804,-195.64914,-422.20068,2478.76123046875
75,1159.0836,2613.104,476.83984,-322.93945,28.070951,43.158386,1972.92919921875
76,1937.7587,1940.9443,1789.1191,-747.8811,-171.69524,111.331436,1351.36145019531
77,851.02045,1868.6595,-545.7495,-384.07385,320.02997,190.81471,2294.99243164063
78,1205.1348,2351.1133,-19.122564,-179.89966,45.29285,37.279568,2079.052734375
79,1785.9552,3007.068,-279.66956,-464.06946,798.4021,-261.6126,3323.25537109375
80,1193.9204,1655.575,378.21835,-26.79288,-112.90536,-441.73663,1371.44360351563
81,864.9087,2261.305,82.51624,-576.19073,61.66493,-156.10342,2176.02612304688
82,1437.024,2701.524,1600.349,-504.9119,239.17569,-417.67377,1696.728515625
83,1050.2205,1747.0687,-440.8274,-488.01962,-138.83217,732.8117,2476.12744140625
84,-910.36456,-10457.924,-6673.0063,2802.0347,236.4284,-4527.319,12432.0751953125
85,1500.7596,-2194.1682,4788.3164,-152.72482,-723.63336,-967.8828,6407.73828125
86,1601.447,6678.2007,-7700.0845,-1844.8353,-1471.346,422.8927,13294.91796875
87,-890.73914,3526.2913,8143.999,614.2009,785.04553,197.17297,8020.42333984375
88,1510.4855,1514.7979,1068.0256,-763.53046,166.04048,-43.97071,1426.58410644531
89,3585.3975,8799.659,-1247.5182,1582.9572,1016.16376,-134.41766,9295.9619140625
90,1549.253,2331.5068,-1166.9819,-180.57472,59.794132,-93.51027,3201.47143554688
91,483.75824,1993.5822,152.30286,-721.5415,402.24545,207.64525,2250.88647460938
92,1169.212,1887.988,560.2498,-174.70047,-27.489483,77.38379,1198.73852539063
93,672.1432,1285.7703,-316.25192,-776.98175,-127.36333,-275.74948,2011.92651367188
94,894.4515,467.18317,1226.2614,254.80841,-157.65619,532.2659,1246.47399902344
95,893.13135,384.08334,1989.4426,197.33594,259.13022,-668.06287,1917.3671875
96,1125.8896,2077.0867,1633.5322,1739.1116,-255.83331,-110.432945,3160.0751953125
97,-695.71484,3450.5935,967.39655,1123.9064,512.13556,-712.2646,4377.25341796875
98,-1035.9359,3005.914,-1653.1628,-44.38917,765.20184,157.732,4587.9638671875
99,-4186.2485,104.10589,-5219.559,147.03572,-1287.1476,484.31888,5444.900390625
100,2651.5251,1935.1222,582.39355,-243.53935,-176.68158,-33.73468,1893.99157714844
101,1299.357,1671.4601,-1318.3774,-842.213,412.04996,157.44176,3267.52954101563
102,1002.03516,1741.8492,-1392.5254,-166.65353,358.86667,145.33804,2930.15698242188
103,2772.707,1455.6671,-2050.911,1857.6533,1045.3046,246.07024,5697.4775390625
104,3324.7415,503.8642,3072.969,1314.3127,651.5809,-408.0836,3777.04125976563
105,-1240.1362,529.0873,-1801.8011,-39.432766,-277.55676,-510.6135,2336.08374023438
106,3245.0571,697.9106,6322.2764,727.8243,352.2748,-999.6391,5362.33837890625
107,5412.0356,-3634.911,419.94974,-757.0009,246.76161,-7.2128673,7969.12890625
108,7359.9194,-939.3518,4826.3003,406.866,25.464312,1569.0309,7883.78564453125
109,2186.4182,-927.72864,-1969.3265,-330.60068,276.7504,-91.66497,3822.22387695313
110,336.2542,231.46825,-3779.3477,-1622.1288,-446.58096,-721.44006,5154.7587890625
111,-2816.2205,-747.2984,1541.9877,3515.8872,996.77747,2796.7756,8819.783203125
112,1212.0717,1962.4949,-644.5139,281.3037,-120.49334,-34.205677,2384.896484375
113,832.5243,1874.2137,-1953.9368,1424.1393,193.17598,-546.4039,4340.99658203125
114,1858.1128,3053.6985,1604.5712,399.61584,216.06183,460.98154,1747.42041015625
115,1472.2507,3185.3042,1197.394,379.26035,392.31122,171.28305,2112.39111328125
116,1018.6493,1741.6871,-182.87799,191.70337,92.66606,-264.2772,1783.462890625
117,826.60443,1867.7952,-573.73724,342.92825,-741.2334,-544.25964,2718.96923828125
118,1053.3014,2200.7476,-412.49725,-268.71472,-5.1310277,-152.69992,2331.04638671875
119,1360.508,2394.8904,508.71234,-362.88928,-86.31931,106.68804,1768.65795898438
120,820.89294,1996.744,-460.42798,-366.71454,-59.35721,116.622475,2232.90454101563
121,412.0885,1379.6642,-228.31374,-349.6115,410.07224,-79.381226,1689.97680664063
122,866.1966,1459.5122,793.8478,-942.96173,709.44244,33.155537,2140.3125
123,3427.3115,-398.47623,2319.6328,-409.92093,-937.2911,-284.45496,3874.04858398438
124,971.05896,985.3713,756.8682,407.25287,82.17849,169.18114,807.984802246094
125,-602.44305,57.08863,-1918.3335,1390.4825,-1487.1024,-285.86508,3964.12963867188
126,1106.92,2255.4656,-478.61237,199.91917,69.999855,630.54395,2642.25024414063
127,1274.7102,1699.7728,-153.51842,-512.0363,19.56276,134.16771,1915.54077148438
128,5159.8145,2902.995,1838.3215,-38.30473,1738.6389,669.34937,4364.24365234375
129,977.65375,-799.17865,-122.34146,2853.4673,-868.0602,883.4686,5607.27880859375
130,6377.0645,624.3848,3155.6423,1556.7439,738.0835,-573.9576,5901.86474609375
131,3115.285,2827.203,3456.284,23.97436,155.95349,210.08835,710.357238769531
132,598.11127,-522.35785,327.527,547.2251,1642.1967,-1465.206,4056.44775390625
133,860.0898,2623.5474,276.63422,695.38525,-294.2462,-233.80215,2520.61840820313
134,1524.0625,1067.6893,704.3786,-251.4947,-82.920105,-87.818146,859.993286132813
135,924.01965,-93.613,13.756997,-84.87009,260.87006,-215.41855,1141.41369628906
136,3100.3643,-256.417,3694.5842,72.70011,-1161.3372,764.3702,4408.00341796875
137,-49.054905,691.66113,-783.8803,-568.8837,-192.50932,30.884186,1648.59106445313
138,-76.23631,3405.4932,-949.02484,-263.9184,311.06952,164.91675,4062.494140625
139,1214.5997,2692.0254,527.08966,-178.28384,126.596924,118.64859,1963.89147949219
140,69.79558,2369.8972,-1740.2635,-263.15308,-349.07098,346.80646,3696.515625
141,1324.5863,2189.4436,-108.00492,-86.46711,-90.4476,-202.54297,2051.6640625
142,1545.3885,2512.8862,52.396404,-102.89683,-187.04797,134.75955,2191.06103515625
143,1584.0032,2313.272,973.31226,-0.37500504,474.95093,-26.896717,1424.44384765625
144,545.79205,2162.546,-70.18982,404.80875,70.47932,194.58159,2146.93188476563
145,543.30286,2434.0352,182.92543,573.4917,-13.520904,277.95532,2367.51391601563
146,1303.7498,2760.6895,1053.9313,246.06303,-421.7729,369.89777,1916.98828125
147,1608.0541,158.55943,-451.40387,803.9394,171.01256,-46.060844,2321.69873046875
148,2417.8843,1018.36975,-2852.2422,463.93414,262.38214,-143.86671,4824.0634765625
149,1158.5742,1559.2046,-1293.2681,816.8667,-54.965973,-340.41568,3084.28979492188
150,2776.1987,1414.5886,1485.1171,124.332344,79.845955,287.916,1441.21911621094
151,3644.1692,1959.8079,546.88153,489.88086,-91.49179,295.12936,2866.998046875
152,2289.1091,1096.9023,-1289.0922,125.84686,-76.71803,-826.2239,3474.48315429688
153,3123.4644,1576.2793,-2676.398,458.9135,-522.4706,-822.6884,5526.2919921875
154,2002.0303,1785.3287,1579.2404,1125.38,-243.46815,-89.94296,2033.62524414063
155,2972.93,1317.9613,-2254.706,910.87354,140.22974,1722.4639,5732.73388671875
156,406.72348,-2490.9568,-7842.5796,-555.10675,-1990.5583,388.45752,8112.20068359375
157,4751.153,2703.7231,2285.4458,1120.2488,172.98805,612.6147,3194.34741210938
158,-3468.11,-1787.2656,-4512.752,-232.83098,-2073.2588,-665.8436,4478.8701171875
159,3280.5452,4085.6162,4166.4746,249.88039,-49.849445,131.12343,982.919006347656
160,-844.8783,-831.39825,-5225.2974,979.6533,887.20435,548.0895,5038.755859375
161,3249.4111,1196.2443,347.96628,-3492.0542,489.85202,-502.6184,6688.6318359375
162,657.30176,120.301254,-1139.5197,-321.68,-4.225834,179.77615,1720.31652832031
163,847.45624,6824.5093,-1436.3267,2245.1038,8.09087,-671.9275,8430.138671875
164,-3272.284,-473.83536,-5450.835,2124.108,928.04926,-788.42267,6054.59521484375
165,-280.23575,1314.8313,-1557.0236,686.5214,-185.1022,480.54288,2901.8056640625
166,851.5786,4670.037,437.36542,-479.20166,1610.8633,-936.5667,5238.21240234375
167,1544.2686,534.85443,-868.53644,904.2854,-117.30838,-44.070946,2627.7998046875
168,2873.1282,2298.0227,190.14131,221.92575,241.01791,-84.781906,2515.8994140625
169,1669.8842,1197.4364,-93.509766,317.4007,-8.108591,44.454235,1675.71142578125
170,-450.91843,-242.39507,205.67255,694.908,823.5313,-2277.4712,4402.45458984375
171,-2036.7291,3299.3254,-184.65402,-1296.4766,-584.44183,906.1622,5527.34521484375
172,2229.3975,1108.2416,-311.44763,-367.56277,315.6659,164.69804,2376.93481445313
173,590.3242,878.09186,-538.45734,107.32508,-167.68367,-77.53146,1348.60217285156
174,705.7127,1272.6772,336.7212,290.8663,382.91544,-285.82562,1267.11474609375
175,2812.502,2390.5884,2576.3628,1114.4635,-376.90707,-155.7476,2087.86450195313
176,1454.8591,1962.9795,-198.96765,694.0644,297.30374,27.920536,2355.0703125
177,300.2525,2990.5122,2193.8416,-1099.9192,513.25446,-645.5572,3376.22875976563
178,1105.2319,2441.8948,14.670312,222.46204,-162.12282,11.757882,2159.03662109375
179,1561.3789,2166.2295,-165.55914,707.8369,178.6569,32.122765,2448.39721679688
180,1654.8287,1842.5762,587.2715,193.83556,-215.27309,-50.404934,1278.56359863281
181,2105.036,1629.0663,1401.4163,-415.11697,-87.10334,-60.65898,968.24169921875
182,53.377182,1701.32,-2452.205,516.94946,-447.32968,25.260626,3811.38427734375
183,2583.2957,2303.8774,3420.7979,2841.7986,-604.3989,820.76105,5325.2041015625
184,1538.7006,1257.7279,-832.6847,868.80896,-85.29035,21.709946,2706.26000976563
185,2185.5898,2653.1394,802.9319,945.78235,100.5155,348.69104,2419.79052734375
186,1278.9661,2179.9707,-579.51263,-134.63515,48.1524,49.0894,2451.28857421875
187,-3669.4238,-8417.86,-491.98047,4200.5034,2192.521,559.1122,10771.4267578125
188,-14127.092,-13853.725,1490.4021,2459.388,-3075.9092,-2729.3174,17566.6875
189,558.1887,1782.4418,2252.3574,1964.3987,-432.4699,391.15933,3858.96435546875
190,-515.0426,-466.3639,-193.93321,487.70697,-150.56708,159.66072,973.606628417969
191,-286.4571,47.62049,-63.24733,-1301.4042,-725.05554,-173.95718,2614.52099609375
192,5773.0176,-1841.3356,-3993.3984,1680.3308,-1889.33,691.8049,9980.548828125
193,3132.009,-5545.9194,-1702.4674,-2093.927,1543.821,1149.6143,8999.6630859375
194,-504.38364,-4282.651,-918.87665,882.7402,288.73224,-124.19022,3938.92138671875
195,1271.1084,-3423.5168,321.59796,-2176.2595,-2319.0566,1339.9476,7362.896484375
196,861.8745,-4481.488,-6705.7896,1067.8667,947.5085,-92.44805,7178.04052734375
197,1537.4204,-34.277554,3705.6392,-14.378013,276.79562,362.06003,3347.07666015625
198,752.4194,-4140.659,495.7805,-1995.5187,67.08557,-321.0975,5917.89013671875
199,3218.5828,-5101.304,-2079.1685,-254.74828,-1335.3956,344.96738,7688.40283203125
200,2839.1904,-808.51575,403.21555,11.590187,354.78757,216.82346,3297.43481445313
201,6533.6445,-265.21774,3424.4387,1438.9191,-307.28177,72.161896,6423.626953125
202,-39.50514,-2656.658,2047.3,-680.70135,623.80316,125.71356,4389.8291015625
203,-55.31422,-3553.6243,-297.76007,310.08374,-680.32935,3.2216132,3622.95922851563
204,1812.6975,-3157.49,-816.07,1151.2954,-933.87866,391.999,5059.7958984375
205,3166.5137,-1783.7057,2489.32,-200.31602,974.9565,748.7947,5124.94775390625
206,1037.2413,-5050.184,-1052.5488,-239.89082,-108.0275,-296.41803,5401.27490234375
207,-2606.6887,-5928.3384,1926.6589,433.72183,1056.3441,-1724.873,7712.345703125
208,63.72271,-5364.232,-1770.8557,-1720.705,61.78354,-249.4704,5652.52099609375
209,-388.96725,-7909.388,2747.487,-1058.628,162.44043,-122.232864,9667.8642578125
210,3491.845,-3727.6853,1521.8413,328.56827,538.43414,289.38516,6574.56201171875
211,4055.9294,-5769.78,-1496.9197,-1834.5266,128.40907,595.8051,9166.7275390625
212,2639.6494,-3571.6858,-294.4568,-1678.5575,647.308,-201.7082,6228.69921875
213,4626.139,-5420.5103,-1629.6382,-382.214,-88.11698,-244.21927,8823.876953125
214,237.31456,-4936.214,-5233.6104,-2519.3264,1255.0255,-3667.643,9618.3955078125
215,-4101.6587,-1364.4104,820.2605,-2952.0337,-1373.3882,2579.3953,8367.0322265625
216,-15826.2295,527.1051,556.38556,-2996.8904,304.37518,3630.13,18293.8984375
217,-3584.7048,3888.6912,-1560.9562,487.50354,2276.6597,685.90985,7905.49560546875
218,-10778.147,2416.968,-5495.433,1451.2648,584.33,-1417.5259,12069.9248046875
219,-1219.2642,4275.4595,2582.727,-2512.617,267.32883,-47.205875,6551.1103515625
220,-5217.101,3034.8777,-1840.1658,-1912.3794,-282.1344,688.43805,8016.52490234375
221,-4226.472,2210.3203,781.94995,-1306.5776,-174.693,1468.8077,6779.6455078125
222,-5028.086,1337.4468,-2247.613,-358.52332,254.7125,-964.2727,5824.2216796875
223,-2261.2786,-186.8196,1022.1024,-397.55338,93.90593,219.13245,2986.19970703125
224,-169.79808,720.1033,290.1983,-869.8977,-219.04608,-16.707895,1734.68054199219
225,-2133.2898,2354.6963,-1264.8077,-589.541,-7.3107677,-174.39067,4258.24072265625
226,-360.38553,2441.6565,-398.2894,662.97015,72.991776,102.98374,3053.763671875
227,-475.65945,2618.5825,-3043.2974,177.19037,99.65995,212.35631,4936.7255859375
228,-1455.0515,2371.4788,-1348.8307,-911.9845,-231.74628,-183.76959,4123.68017578125
229,-2637.8237,-762.3898,-1159.9586,-419.54257,54.167267,274.43823,1921.58752441406
230,-3039.144,949.56964,-3464.071,127.14281,-488.5623,-116.658516,4311.6953125
231,-659.2986,373.4432,-563.0894,217.05745,648.744,471.0036,1745.26037597656
232,-3125.0764,-491.3278,-699.44183,725.0306,175.88074,270.7376,2884.70629882813
233,-69.80471,2003.5692,3177.9324,1637.4216,55.452095,514.9075,4118.369140625
234,1482.489,-386.46628,-970.3686,853.73444,-424.71262,308.0516,2817.3818359375
235,1352.7228,602.8907,483.59787,733.6638,159.13701,-334.83185,1641.04455566406
236,1485.2942,-161.98709,-12.016288,954.63605,497.9876,-331.25946,2509.21240234375
237,559.061,428.84412,-651.2712,855.40906,-93.53323,172.68527,1906.60290527344
238,356.3657,840.267,-463.4758,378.7157,-127.29304,263.4936,1410.74340820313
239,2027.4143,1671.9493,1798.1595,454.06482,-73.98796,803.43164,1633.66931152344
240,1258.0244,223.20764,-971.0751,916.88556,267.4846,-566.97034,2726.548828125
241,-2.5724275,780.9984,-1921.6924,316.5991,-320.71277,135.14767,2542.60522460938
242,1200.3472,315.43298,579.31744,-7.5506825,357.06137,-208.52478,1064.09130859375
243,660.3476,-119.6336,207.48466,466.00436,141.81082,232.79718,1155.26000976563
244,752.6697,959.86206,2499.6965,-34.954525,70.35889,-243.7953,1711.69091796875
245,589.7223,836.8833,-1912.2401,90.19014,350.33328,374.73862,2784.45385742188
246,1028.572,945.74506,-114.722725,41.0599,46.640007,245.39519,1188.07727050781
247,1673.664,671.91345,804.7305,-350.37396,114.43568,141.44685,1164.34057617188
248,711.5509,976.75073,-1454.5151,-410.76266,-268.1965,-413.2598,2563.38256835938
249,1090.3931,270.12466,-115.51833,-524.39746,48.372623,-26.869062,1404.298828125
250,1411.0568,918.2034,844.501,-126.4702,237.97789,-86.2482,724.473449707031
251,1511.7687,436.48566,-510.19437,-645.61523,-94.54474,5.924104,2085.12939453125
252,1071.5793,403.65936,115.40116,-119.50184,-8.09673,60.41154,880.755737304688
253,296.06223,134.15907,443.96158,-787.98474,262.44763,-75.858086,1469.24865722656
254,905.44836,170.87648,-827.86835,-778.581,-192.47372,-311.3554,2119.26098632813
255,1557.0299,-502.92084,240.69942,-1255.5581,-523.77264,45.01481,2970.33959960938
256,518.7662,-298.2714,237.63097,-1061.8059,-56.274925,193.03241,2005.11096191406
257,-283.1979,-2584.649,-1029.4314,-928.75604,547.7639,-594.53394,2946.93627929688
258,-1521.6375,-4059.8938,-55.91817,361.63965,-87.15355,-100.4986,3571.67846679688
259,-590.22797,1241.8315,-163.11662,-891.47406,-704.20135,-580.1051,2763.65991210938
260,137.58868,2388.349,1415.8207,-278.3837,160.95096,451.09503,2177.95190429688
261,-1449.896,1392.1366,-1222.7485,-16.644018,-13.925789,-115.22132,2743.06860351563
262,-793.5318,1095.9805,-466.36346,-46.154476,22.605536,-390.77448,1877.53698730469
263,-1069.8079,1188.6428,387.84473,-164.82411,-8.308876,-84.54909,2009.09619140625
264,-1430.8207,1493.1887,406.95087,-334.4993,160.50356,208.77138,2664.07275390625
265,-521.4422,1296.1066,825.3554,54.377335,-118.617516,-147.90022,1669.18579101563
266,-1344.6707,1163.312,-704.2333,-100.64026,-147.60524,81.581635,2282.46459960938
267,-1265.8091,1052.5646,-1032.9258,-124.74059,-3.2790809,37.14569,2222.61840820313
268,-1040.5342,1099.6741,-398.3035,80.2303,-46.120026,165.60085,1930.39038085938
269,-2075.953,1141.7522,-1250.0154,416.81064,129.84239,-26.242956,2991.9912109375
270,-1975.929,1015.0461,-417.66794,379.18628,72.946335,2.5386066,2675.95190429688
271,-1547.339,934.602,251.0857,67.70767,-23.825798,10.38019,2224.0859375
272,-759.7118,1336.9286,-122.37789,307.84763,-260.8575,64.27334,1991.65234375
273,-2055.1091,960.9817,1663.3131,932.4314,16.107393,-116.496185,3789.21435546875
274,-1967.8193,956.39294,791.0247,815.31635,101.52661,24.39916,3181.46557617188
275,-1483.8508,-1749.2902,745.9366,2501.6335,-112.238365,-485.30048,5015.29052734375
276,-3113.544,-4069.3142,-1664.9667,286.92468,92.55401,622.0464,2414.5146484375
277,1414.3793,-4194.5176,-3608.7148,1233.9965,479.06152,13.732492,5811.58251953125
278,286.87445,-2310.26,501.34723,-484.22614,371.3587,1104.5555,3482.15405273438
279,-1446.9503,1486.937,73.04042,-35.59089,8.441696,-5.990879,2542.18530273438
280,-2676.7712,1019.48505,-553.92914,603.21906,267.71072,-66.89268,3412.07446289063
281,1156.2877,425.25244,950.72314,952.54,-149.6267,-14.627754,1793.37609863281
282,640.3517,180.6451,596.685,369.50656,-121.31989,195.39769,872.619445800781
283,932.48785,-820.9569,-77.091576,-374.07346,47.638454,136.69109,1675.18115234375
284,-1112.8137,3026.5068,839.0039,-300.52704,556.80475,15.088277,3750.47924804688
285,-207.76952,261.24753,-347.19855,326.80237,-130.39047,57.54081,828.341247558594
286,1440.5806,738.8029,2443.6926,-101.56302,170.04845,360.5474,1646.31872558594
287,-5149.213,-4384.6753,-1248.7783,113.83035,-869.5848,-568.4977,4011.58959960938
288,3196.6055,-5137.828,228.07628,-1605.5925,-246.50948,11.078924,7839.0302734375
289,4697.042,-3108.8872,-703.62164,3440.3567,1624.1895,253.27115,9568.546875
290,1063.6606,-3623.238,-1309.0618,-416.90317,409.06577,-520.0084,4279.109375
291,-2365.7837,-4672.698,-2435.0022,-330.86707,-2940.8508,26.938446,5607.439453125
292,2891.849,-5417.7173,-2421.7488,-655.4079,2162.1091,-1493.9836,8668.2353515625
293,680.53265,-2734.6013,-911.9118,-121.231,135.11372,-301.09592,3021.82763671875
294,749.30914,-24.815304,27.847176,63.555542,-51.312046,-220.0599,852.391052246094
295,1556.8844,477.67606,1234.2789,263.35736,-306.5771,-421.19382,1393.86474609375
296,1869.9792,749.0916,1359.7789,-447.821,-383.00226,483.99533,1639.90051269531
297,935.8399,86.81475,358.8205,-172.51593,115.373695,222.48698,917.393615722656
298,-131.3945,4245.785,-483.35995,1717.8005,-3577.1348,4966.7544,11919.3271484375
299,-3706.5754,-1430.3579,-359.27542,3304.2537,-1032.1808,820.8741,6836.54638671875
300,-7200.019,1731.6852,-1243.7249,1738.3942,-103.292114,-515.4275,8482.21484375
301,-1532.0833,4094.09,881.47943,602.8183,-690.99176,139.50554,5145.96484375
302,-993.2546,1992.4186,900.21375,-35.83642,-173.56215,-73.723404,2637.55932617188
303,-1402.87,1485.0128,2546.8079,32.15703,-30.771055,62.824104,3542.79541015625
304,-799.4074,1758.2085,378.05426,382.64062,-315.0453,-2.651162,2377.67626953125
305,-1209.3295,1124.7,-2978.284,214.50554,-395.84726,137.13873,3656.53247070313
306,-1185.3424,667.5426,-140.61052,-272.91263,339.89038,470.59302,1955.31921386719
307,-588.16626,3467.1572,-451.06772,-98.879425,-1538.2053,-239.47037,4817.474609375
308,-1170.2771,1416.9426,-921.7358,-309.29877,142.54343,48.991074,2543.14794921875
309,-1418.4059,1436.3772,601.21454,-299.4886,-75.59208,97.88021,2603.466796875
310,-639.09265,1227.6879,651.34186,54.97181,29.39232,241.96164,1711.26452636719
311,-648.8306,664.1347,414.31088,-1306.871,128.93819,333.07574,2639.07348632813
312,-1199.1146,-2094.8108,123.88848,2022.4163,-147.41992,224.5195,4027.97045898438
313,2529.0713,-1733.6533,-445.11737,819.66675,817.58405,126.37948,4290.37060546875
314,4677.283,-727.8019,2832.825,1186.826,418.89615,-723.6901,5382.4521484375
315,2100.4658,-2685.8262,1755.9423,109.948395,71.40808,-1838.7087,5618.93310546875
316,563.99817,-3574.848,196.38744,497.9078,-128.31546,-525.74255,4167.2587890625
317,-934.3081,-2270.3137,-1282.87,-238.33441,-250.5031,-239.5927,1404.13842773438
318,1462.1727,-4051.8555,-779.7587,-1350.4535,-975.9162,-262.0666,5621.6669921875
319,5404.052,-3250.7227,2497.5735,-2214.3696,14.27474,115.630325,8541.009765625
320,2620.4333,-3045.5664,-470.28232,-2424.0015,-263.56824,-247.20464,6493.3173828125
321,2619.2166,-3075.5715,4084.8438,-1976.501,-825.5399,142.13591,7533.25537109375
322,-5132.52,-4501.2104,7279.582,-2745.819,-1768.6252,-659.32495,13413.7900390625
323,-371.35953,5054.9014,2448.4802,3896.6697,-2657.341,-1434.779,9747.146484375
324,-851.9386,5058.696,5435.415,-816.6505,-176.9482,-160.46649,6283.0009765625
325,-4793.5396,-597.0967,-1199.5021,-249.98355,378.87772,71.07813,4009.78076171875
326,-0.032312162,104.88011,11.551266,1449.5294,307.25552,14.147056,2568.49194335938
327,1496.9745,1198.0228,670.49927,337.8648,18.234676,168.14873,976.542175292969
328,1037.896,186.07631,-99.73965,-9.59785,-120.03995,39.8048,1048.33654785156
329,1307.0618,-267.39914,-499.69055,258.2674,127.78806,-220.14835,1814.69311523438
330,483.65125,714.618,-1937.3685,-28.856104,-700.6727,9.150841,2819.47412109375
331,301.3777,176.79973,680.9947,-91.22284,537.7921,-369.6077,1228.56665039063
332,338.35904,261.24255,-776.27515,-217.78665,-173.5023,-27.12597,1182.0361328125
333,717.72424,217.23701,-269.72208,-714.29395,113.20846,208.22191,1559.00561523438
334,786.4978,81.43577,431.82,-1417.5645,235.26144,-454.61636,2680.9287109375
335,-694.06903,1175.9142,-452.80798,-49.313435,302.95227,-196.99583,1871.61633300781
336,-273.4942,1518.7748,16.4319,-215.54259,-341.84937,103.21095,1816.1982421875
337,-1447.6061,1104.9794,-133.57271,58.480312,78.68416,-43.701878,2218.728515625
338,-2286.849,-1448.626,-26.665646,1552.6422,-224.81287,-42.03237,3362.36889648438
339,-868.64233,1805.2866,1091.2095,-786.65857,187.4124,140.93265,2787.80590820313
340,-125.23647,1640.9657,1597.9226,1122.4792,648.7639,-478.50046,2962.220703125
341,112.970764,329.7006,-1702.1869,1082.654,-533.45306,-315.44925,2898.935546875
342,-753.52045,1250.8118,835.4051,655.50916,-383.46582,-497.05252,2414.26904296875
343,-1702.5392,114.08988,-2838.2651,36.540115,-491.9048,-426.75208,2815.93237304688
344,2721.9312,-3872.971,-40.5803,-1226.1191,45.715546,156.8054,6123.38525390625
345,980.44745,-103.1853,49.828625,313.79977,42.570507,227.46985,1219.81042480469
346,-1619.1865,1105.193,203.30907,148.12317,68.62506,-58.5655,2422.56127929688
347,118.967514,35.251682,2780.535,417.66296,-209.32498,-488.0038,2946.69067382813
348,1368.8541,1701.495,1735.1664,1584.8306,274.68085,-596.94366,2992.22705078125
349,-9273.103,-7375.958,-104.96888,-1043.6329,1421.4093,-1118.7269,9129.2900390625
350,-1031.6613,2031.9404,-109.35677,644.36755,233.51479,-48.542385,2971.02880859375
351,-527.1815,754.71564,-125.55243,488.99585,190.70511,125.369545,1470.82556152344
352,108.7459,2207.2195,1746.5092,-251.66988,93.53758,410.27145,2090.52294921875
353,649.92535,72.47165,-1331.9897,909.3281,-104.38769,87.682365,2377.68041992188
354,-105.14986,1067.523,720.50977,975.3699,-396.66458,219.48897,2135.23779296875
355,361.62283,556.3934,-2659.6155,673.979,743.0722,238.12885,3597.72045898438
356,-499.9486,-370.87,481.83395,466.42798,89.95454,-4.004885,1237.26306152344
357,1521.5042,1307.5588,492.40207,-364.73438,92.80398,-73.65122,1151.45849609375
358,-469.6934,-2084.7805,-256.07425,-591.8065,-19.625645,67.135124,2016.06921386719
359,-87.52789,-995.0277,15.709584,-324.49313,56.369102,7.9111075,1119.60241699219
360,-1077.1376,1045.54,369.4227,-314.36453,21.155119,-116.45216,1966.26977539063
361,-828.70026,905.2035,140.33368,-1087.4729,-95.68484,131.29974,2427.388671875
362,-897.60315,-528.93036,-558.8149,91.224335,176.32892,79.78694,512.966125488281
363,8.759956,-773.00903,-761.7923,-1200.3536,485.99707,488.77472,2519.98974609375
364,1137.8655,-1739.0657,1927.1038,-469.29764,-100.022575,4.9632735,3443.9833984375
365,1186.8745,-1737.6414,275.89078,163.03423,-7.730628,-9.987118,2607.43505859375
366,-259.3763,-2031.068,-1191.4104,119.88976,-48.108223,-31.24396,1552.19018554688
367,742.5447,-254.7721,1300.6144,18.952402,13.182175,61.79992,1369.56616210938
368,-331.3917,-267.11578,784.2111,275.28387,-145.25186,-177.97359,1250.0625
369,-1260.2528,-309.86966,-625.83636,-163.47438,-93.541885,80.82817,910.3818359375
370,-814.56366,-750.13617,10.209478,671.97064,34.92329,-61.222515,1414.49658203125
371,-724.4198,-616.2592,118.077,-237.30438,-40.398514,-56.8755,902.172607421875
372,-336.35727,578.03375,270.53345,-499.95767,-24.577747,132.6274,1205.79736328125
373,-459.51813,-137.74454,-538.0508,667.56635,-66.46271,51.83726,1221.97497558594
374,-710.5899,46.846107,-170.74611,541.6125,92.18911,-67.101006,1172.72326660156
375,1128.3986,1113.2876,-444.41257,-92.2019,-81.78568,99.830696,1589.23413085938
376,468.03464,-1347.9512,582.9388,-675.91174,53.4611,13.217573,2213.4453125
377,409.49756,-1037.9004,-494.60953,-173.59558,-199.09932,-19.302036,1346.92736816406
378,741.79486,-1018.2369,-200.81557,370.46292,-142.33829,-16.307446,1673.47204589844
379,743.86926,-748.89343,80.530594,581.89557,129.19582,6.660058,1656.55261230469
380,218.75941,-997.3473,-639.677,366.72565,-27.904522,-10.154214,1256.17944335938
381,-544.33496,37.395725,399.16617,910.7461,9.386808,3.3984005,1780.00451660156
382,-851.38763,-851.3593,121.073166,656.36694,-5.2280703,1.7494129,1496.06030273438
383,-665.8671,-64.01967,-132.66734,855.71155,-87.47869,-69.28208,1599.90673828125
384,178.98183,648.79047,485.4958,-810.054,139.12024,-128.25148,1498.87927246094
385,-253.93898,-2888.5945,-1640.0199,-717.7952,203.32253,320.7657,2681.26220703125
386,-495.53442,-134.64438,1426.2544,-1629.8865,-389.60452,-253.02808,3427.38891601563
387,-495.5708,-1283.8712,219.57796,-406.1824,56.935352,-123.46142,1499.00390625
388,90.367355,-2080.4136,-1848.7583,-630.11523,252.62292,-107.819016,2383.3896484375
389,323.45953,-587.3237,-754.2036,-544.2552,169.80618,54.8559,1411.92687988281
390,812.08234,-1812.7173,-1135.051,-208.0415,106.37017,45.550884,2395.84619140625
391,-842.7899,1770.3302,889.93536,-539.83203,-108.64861,-1.6949054,2492.50708007813
392,-1271.7579,-687.25146,530.02966,46.24969,13.5451145,20.871439,1594.74267578125
393,-413.80438,-95.54682,767.3404,782.5379,-18.616646,-96.54083,1728.17224121094
394,1148.9701,-998.18805,706.0658,128.54759,89.97174,35.32326,1983.19641113281
395,1206.8248,-757.99493,613.8216,-503.1745,241.67383,-76.06486,1999.78881835938
396,514.5544,-1107.2561,629.7471,34.46868,74.18062,33.832325,1689.33874511719
397,806.7062,-935.2725,210.32104,182.01149,176.05391,-69.53068,1599.42114257813
398,-792.1312,867.09564,-676.4877,-74.78207,-10.083498,105.256004,1620.13793945313
399,-541.921,410.7031,-637.8063,480.4039,182.79146,61.60996,1346.1123046875
400,-564.45746,1155.2151,1027.2987,304.46307,-84.42851,-47.457294,1749.25598144531
401,791.3477,-153.6984,564.43994,-168.72345,-19.323795,-3.0031023,903.720642089844
402,488.2608,-331.01926,202.27583,-42.721817,-22.929148,57.134377,731.813598632813
403,439.90952,-36.30959,295.94528,-296.37842,-20.923218,-96.26898,686.723205566406
404,2087.3706,-1889.364,2288.7676,-1426.5632,-499.66467,-382.28247,4893.72509765625
405,295.3379,-301.05893,577.7354,-663.0109,-29.542425,-116.32518,1402.07775878906
406,-2631.7512,-1596.8492,-2263.8726,-1492.5891,599.00446,292.27634,2973.51635742188
407,-346.75415,-34.30017,-24.428667,187.60463,57.82499,-86.889915,488.95458984375
408,83.73554,-607.7465,-570.4359,-507.22345,-136.18605,12.432471,1132.10876464844
409,549.90466,-780.6286,-136.59537,-90.07172,103.31052,-102.51856,1189.99084472656
410,-170.6036,264.64148,354.37027,-936.36304,204.8322,-87.14911,1736.52648925781
411,161.76703,159.69904,-233.3307,333.457,66.37261,-40.40013,712.027160644531
412,176.44974,-646.91223,413.6622,561.2154,102.35987,-34.72224,1381.82641601563
413,-77.007164,-577.97766,132.07321,990.6436,-29.654345,-63.639793,1832.57775878906
414,-832.87524,116.63023,176.22163,-496.14258,-118.14869,-139.93178,1341.93383789063
415,-2991.754,-2420.34,-458.13443,913.08344,226.4146,-210.60564,2843.59204101563
416,-299.0524,174.17604,-483.68762,-144.72057,83.82147,146.70917,702.773742675781
417,-1296.255,-325.56644,-532.1548,-531.00104,285.98203,124.4544,1386.39538574219
418,-691.2723,606.16235,-429.6954,-840.6487,-74.62348,-97.14746,1891.42004394531
419,-1491.2828,1225.1425,487.82065,-2164.2168,-78.23368,-78.25026,4473.0263671875
420,-358.6702,-337.39023,354.97128,734.86145,-13.821865,-50.605663,1457.00744628906
421,-495.10864,546.13464,186.6618,-23.254,6.282125,-115.20495,938.4384765625
422,-671.0278,6.0484223,-911.15845,21.028994,-1.3875756,48.094326,828.826416015625
423,-1327.8396,1317.3915,-1045.2228,-922.01624,43.06114,-88.77868,2984.80859375
424,-1525.6409,115.82218,353.6431,163.23154,-179.95718,-124.32208,1834.33618164063
425,-120.760635,-702.78217,-1238.5635,-259.5969,154.1511,43.5824,1103.08862304688
426,-182.7878,-397.39713,-514.9106,972.73254,14.208082,49.954674,1712.25109863281
427,-1028.3873,711.13525,-245.09982,-502.1273,127.00804,-96.5468,1763.4296875
428,-524.14685,-487.3411,-753.0895,100.58581,-61.299126,31.756485,326.873779296875
429,109.93094,573.33325,473.50232,-473.112,46.238667,-181.8524,977.535583496094
430,633.0578,-371.55612,-87.479095,-301.22574,-9.71402,-73.58713,1045.60998535156
431,572.61847,-1107.7708,-626.3139,-214.5382,-83.66892,-98.95964,1560.42749023438
432,97.08157,-1354.6692,-581.9286,167.23502,-79.842384,87.4399,1307.22827148438
433,-104.648155,-606.93353,-261.61053,-254.3094,24.351236,-25.395689,629.143432617188
434,652.0494,-650.10486,368.88565,-739.49365,-165.72298,49.565006,1771.26501464844
435,286.42072,-1061.16,-829.80304,-315.50668,-41.72496,76.25756,1370.77709960938
436,-34.105396,-45.831783,753.46643,-299.27618,-47.411793,105.479546,968.742736816406
437,-993.181,94.10807,230.70361,15.927471,122.486496,1.4461863,1181.1650390625
438,48.43171,-597.0009,450.70688,363.87057,52.440357,55.927307,1119.32531738281
439,-191.34363,-1120.258,-581.171,-1139.8462,115.69426,16.07816,2142.75756835938
440,91.07908,-1188.8699,977.095,-746.9829,-114.12274,64.33023,2298.43115234375
441,-804.601,-1144.5707,-198.1893,-947.0158,-93.84417,135.13951,1860.43041992188
442,-223.58685,232.74109,-160.12164,-374.37897,-140.83813,-59.59798,820.940185546875
443,-2127.766,-1859.2118,-354.11868,-689.4032,174.6117,105.85943,2071.84521484375
444,-738.6395,-180.57661,-535.708,863.79333,32.80748,210.11443,1616.61889648438
445,159.00507,-33.144444,595.3893,386.22583,68.03927,3.0920336,878.99462890625
446,-898.25793,-1085.7155,-401.7653,643.29333,14.619346,-14.342942,1271.79150390625
447,296.51196,583.0008,1048.3225,-134.78227,-62.470074,-60.862095,713.602478027344
448,248.27692,234.22792,1564.3792,-149.59483,-33.90011,-5.669001,1349.62670898438
449,-1495.3705,-1219.3026,-918.6753,77.68013,-5.036805,96.62915,543.851135253906
450,-181.43599,291.10178,-132.36827,-97.47912,-31.606457,-123.80632,529.150939941406
451,-250.84117,-433.4246,-375.83716,-349.0071,72.93197,-26.11826,639.968811035156
452,20.269394,-1354.7278,-48.65522,-326.93887,-13.403267,36.81886,1458.03625488281
453,364.89056,-704.1687,-1014.6345,-77.60853,24.155346,-39.777283,1263.22973632813
454,347.0194,-550.9953,-218.32123,-584.1252,-54.66091,10.351351,1285.00891113281
455,-73.041306,-455.88193,400.57834,-362.82898,81.62808,-16.725332,983.852905273438
456,125.70091,-422.4699,-137.07043,-495.82083,-8.723432,-3.7303803,981.468994140625
457,16.934921,54.9685,1034.0035,-720.2027,-97.960976,82.09287,1613.15686035156
458,16.780483,-328.18378,-877.51184,57.884533,133.52322,73.058105,830.547912597656
459,361.1062,-348.00613,203.41362,-478.383,-20.169407,118.81066,1070.51611328125
460,-1267.0,68.86659,-941.57635,211.59616,-15.910954,-40.107666,1263.17919921875
461,-988.4929,421.10306,-129.00098,-20.898487,-53.064278,-26.721544,1235.33410644531
462,43.84673,-1092.3658,-284.9071,-27.216305,-16.514086,-75.55592,1022.58996582031
463,-1131.5846,-263.46588,-849.81616,344.4506,36.32098,64.13181,980.127563476563
464,-855.10455,-99.43724,276.64493,1188.131,47.236717,24.410078,2289.12890625
465,-1936.0763,-1775.5383,683.8987,460.587,-119.64883,-126.83973,2682.73559570313
466,-501.6985,-326.51166,-93.50281,254.41824,59.09148,-38.305595,578.676879882813
467,889.73364,2399.6023,-227.984,-192.3894,-2.707294,108.94275,2315.87377929688
468,88.26968,22.132494,607.988,-42.710175,139.20296,47.783276,615.880249023438
469,813.9665,-930.0732,701.0845,385.91492,-263.5789,-96.13649,1881.61767578125
470,-92.73841,-1333.0437,-505.62817,-257.21176,114.36036,160.43152,1229.49145507813
471,-487.66034,1116.7544,1145.9343,-440.3168,-74.614975,109.021225,1804.38647460938
472,-506.83597,1203.2689,-275.78506,170.84822,20.2085,-26.151554,1635.10437011719
473,1667.1967,2474.9167,-697.73035,1447.5256,-55.247276,-36.698814,3801.93090820313
474,1460.3346,-392.08124,870.47565,-897.2453,24.36819,-37.815556,2260.07373046875
475,1396.7788,-738.6601,166.00667,37.351517,10.852783,238.22194,1903.01025390625
476,-1258.7179,-831.9816,-155.30966,61.00901,-58.35831,124.928635,998.475891113281
477,-2348.3242,-1386.7277,173.88927,381.00003,204.0113,90.441574,2333.615234375
478,-154.2677,-1135.4231,483.71152,-253.02669,11.882572,-25.607595,1479.89807128906
479,-2699.5098,-1342.5701,-273.98807,-3.6565998,-11.121785,-229.59537,2142.82690429688
480,129.19516,-838.39197,408.95096,462.0868,39.491894,-99.97748,1400.14794921875
481,-26.041216,-365.80045,129.46852,-3.3070402,171.13365,-4.841339,529.545837402344
482,-2344.9329,-2106.412,-617.0684,-327.26883,-163.04904,-12.929488,1741.21997070313
483,-4124.4673,-2495.4,-335.72714,56.441715,403.9798,-137.90335,3375.27880859375
484,203.80309,-525.0743,162.00642,543.08386,-128.90845,-237.3273,1267.35534667969
485,894.41394,-1512.7789,1200.424,346.13785,49.312588,-77.90505,2647.59936523438
486,-375.98517,-1669.1182,-317.24783,-165.94511,29.736774,3.1418762,1355.32067871094
487,29.664001,-495.55426,-518.86053,-320.39075,39.497437,6.5503936,775.498413085938
488,48.955063,-110.83314,-157.01628,-163.56227,6.3941054,34.52176,344.964385986328
489,-1414.2277,-394.18802,230.45126,194.51297,110.31155,-177.09622,1520.49755859375
490,-564.7219,-469.4413,68.606415,209.05623,33.090393,57.43383,702.946411132813
491,957.7857,1739.4778,-423.70697,361.1478,-27.368849,-290.2273,2060.5078125
492,-669.89417,17.241928,-629.91156,-889.5362,-32.634823,-288.38132,1752.93798828125
493,70.62626,1686.7584,1721.3728,302.1956,-33.228825,-15.1776495,1716.68078613281
494,-1774.7319,-1780.2676,53.203423,831.78107,124.19649,42.712864,2340.68872070313
495,-1069.3176,17.617027,427.7438,487.3408,-37.79113,-120.05027,1598.57299804688
496,70.144356,-558.9535,-601.1647,177.80833,325.6865,-164.35606,958.228637695313
497,-2105.3323,505.30447,342.67792,508.09598,-230.46912,90.04474,2715.78149414063
498,-327.0755,80.50165,91.76215,289.74484,-69.80465,48.0518,666.510803222656
499,-54.004272,-442.71365,764.45557,-513.2653,54.908268,-29.353825,1393.22216796875
500,219.46042,-1838.0056,205.53458,-539.09174,85.0381,-140.59196,2271.0263671875
501,-1054.4968,2785.9788,301.19363,769.67694,158.98557,147.5827,3646.78369140625
502,-82.57977,2203.5996,-1165.4071,-16.359758,38.801033,17.296576,2980.08154296875
503,372.45343,-627.716,684.734,62.111782,28.19937,7.062093,1193.44055175781
504,-1295.9445,567.7649,168.30046,845.74384,25.473913,154.23235,2260.01245117188
505,-92.44641,3042.0266,515.489,-245.78838,143.87416,-33.987183,2921.6005859375
506,-1328.5326,369.8352,38.68763,944.2616,126.880936,136.06853,2282.63696289063
507,40.09128,1870.1627,-618.6631,-601.0144,-130.78511,21.122103,2474.87255859375
508,367.13852,-264.33984,182.80684,-231.04033,-4.198567,-40.814835,693.92431640625
509,-1605.8894,-1833.7635,-145.3643,328.59793,-83.14059,-164.16893,1715.63330078125
510,-29.420174,172.76396,-1063.5776,-326.81445,208.9536,135.1105,1351.15612792969
511,-121.99982,-932.7183,-440.0335,700.06226,132.69144,161.32355,1449.7353515625
512,-1617.4293,1070.782,-720.1231,-30.650671,-20.300808,-50.321274,2373.00268554688
513,-617.65686,325.60568,-874.6427,-121.602936,-61.891685,173.54144,1159.48034667969
514,-1386.0574,361.3748,-237.87224,-0.6116527,-198.1872,37.486206,1577.18859863281
515,-700.72546,-573.1913,113.89145,-344.60046,105.44743,-60.076656,988.133483886719
516,1843.1389,-1421.2528,-2299.2185,96.50613,-40.328438,-6.734381,3784.97778320313
517,1927.602,-540.3524,-959.8601,-192.87788,-40.33242,-3.3333519,2723.71655273438
518,-2535.3926,-2727.0295,546.8173,472.25287,-137.26115,68.84858,3296.54638671875
519,-3163.2903,-1564.4939,419.1662,427.37695,70.54454,-212.00142,3218.73315429688
520,-1317.9026,605.0927,-64.18962,-191.38078,-96.55727,-157.22086,1752.37768554688
521,-546.49426,-590.8333,272.34985,1.2467515,89.03273,17.357813,856.427124023438
522,210.15314,-67.18045,711.33905,154.93968,-193.92297,219.1423,892.190673828125
523,406.3681,-718.05914,674.87164,1255.3997,-33.419136,-139.39528,2535.3642578125
524,-1264.5249,-569.31995,-426.95056,1227.0709,33.27468,80.44034,2267.685546875
525,-886.40875,-2069.068,-57.329773,288.72247,-32.34104,-122.63258,1834.36901855469
526,-978.32,-1326.0022,-1297.223,448.75922,-4.8726215,-30.461386,847.770324707031
527,453.6446,2283.1223,124.15934,12.610825,-68.21401,-10.10566,2018.18676757813
528,-238.84836,2145.3523,1014.2061,-125.02402,-48.011814,-1.044692,2078.662109375
529,-1887.6052,3357.1824,-1247.6262,837.91534,73.96826,-5.23792,5165.619140625
530,-1193.3313,2236.8252,425.50342,1401.4152,103.30093,220.55579,3860.51611328125
531,1729.2352,580.0078,2197.6116,674.3615,2.8013468,39.917217,1856.73498535156
532,1928.47,201.21823,962.61475,976.72614,18.138372,56.7397,2262.88012695313
533,874.776,3774.478,-47.93363,-2225.3496,165.17586,125.4983,5188.53466796875
534,-1772.8085,-29.674564,-236.593,1865.8231,-107.419945,-99.53978,3637.15209960938
535,-1891.18,-978.18854,-1046.519,1918.6732,163.53596,82.5644,3452.59912109375
536,607.2976,639.6238,1245.3545,-621.0367,68.56816,-44.367874,1250.84191894531
537,3436.191,-176.61005,-1096.9093,281.5016,68.747185,-75.949936,4182.50537109375
538,-1193.7981,-665.6105,-319.72525,-997.30975,70.787155,-73.57993,1896.43493652344
539,3978.3174,-414.27747,-483.67352,462.659,56.525543,-35.875195,4501.12646484375
540,3382.8906,-894.35803,135.34216,-1916.7206,120.98669,42.99644,5101.15380859375
541,3538.306,-2314.367,-992.69507,-2336.3435,-251.53139,11.008301,6695.59228515625
542,3561.617,1225.2373,633.94324,-192.63838,214.00105,-174.51031,2744.06005859375
543,3181.6973,1072.3811,-29.520039,-649.98486,-33.493908,60.07636,3044.55126953125
544,-1955.4727,152.61287,-633.7175,-874.84705,-79.35051,139.52272,2403.75732421875
545,-2633.689,-3043.1033,-1123.6704,-772.1177,-15.91696,10.2391,2203.5361328125
546,1137.8583,2074.709,162.79999,-102.16303,-145.7931,262.89557,1744.80163574219
547,2482.6711,176.77347,619.04474,-718.5006,22.127567,-24.079859,2458.63256835938
548,2514.513,622.9844,1856.5769,-171.54039,125.81779,97.977974,1711.96459960938
549,940.11285,1560.7886,16.546963,201.2236,-34.640373,76.24103,1397.84045410156
550,2097.023,1208.613,680.5341,206.2761,-53.093708,-13.131863,1293.79809570313
551,-1409.4598,-3413.457,151.09189,-273.18045,-104.02235,-150.36943,3146.87866210938
552,-2655.9128,-3925.792,-1052.1466,-979.7792,-128.56914,327.15594,3077.63427734375
553,1213.4857,-1800.0332,-194.62982,-142.26738,-102.56102,68.78146,2631.9521484375
554,1096.9756,-413.97845,-299.2131,286.07407,25.307606,-94.624115,1548.23962402344
555,739.88196,1244.2826,668.28125,266.97806,138.49289,32.61314,755.132873535156
556,2360.1992,290.2884,1046.4178,906.93585,-53.137684,-182.19157,2422.14599609375
557,-426.3673,2135.2605,236.4106,285.33673,-40.757576,50.431015,2358.02587890625
558,567.35345,-970.5766,-245.93806,-235.23503,-17.963356,-69.72467,1399.08740234375
559,779.84436,-944.812,36.009827,-423.99515,-113.32578,142.85251,1698.21520996094
560,-53.868862,-636.96704,-840.19116,-188.13197,30.692612,201.20522,854.552978515625
561,-1841.1804,1084.2809,-865.9992,1714.1844,-94.22565,-152.16806,3945.609375
562,1538.5024,3023.1392,428.51477,722.0348,43.649326,44.315647,2580.650390625
563,718.3217,4046.8567,-461.90692,-1630.4657,60.14301,-253.26176,4957.72607421875
564,1329.0453,1972.0287,1127.7059,-474.1491,202.86209,-167.38594,1210.53234863281
565,-1203.2843,-77.751854,-656.2596,-67.76686,-33.20326,41.313084,986.189636230469
566,-775.08325,-52.590218,-228.60115,264.69284,-50.52943,-7.4029512,802.384155273438
567,-439.92285,330.44568,746.34753,-603.40826,-36.9989,-245.92097,1537.75244140625
568,-909.82074,-1175.3052,1115.9478,583.9926,-480.86517,13.902144,2535.63525390625
569,-502.51456,-589.5258,149.88126,205.12341,69.69046,63.773956,801.845031738281
570,-46.169567,-358.87625,-950.40546,-135.34949,8.138295,105.106636,849.09765625
571,-391.84796,494.18362,-134.15236,-185.66676,108.69436,55.566452,878.21142578125
572,478.2828,-56.586075,47.32684,-264.73898,17.9748,94.78186,692.447143554688
573,-37.682587,-613.8749,684.78503,3.67704,-33.792347,-31.28646,1129.88500976563
574,745.2768,-541.3028,422.44205,-206.40396,103.02929,-58.4786,1230.47509765625
575,-659.3932,-1418.9979,-676.7381,-337.6824,54.239048,-42.61376,959.419921875
