Element Label,S11,S22,S33,S12,S13,S23,Mises
1,2529.7146,1172.2299,1289.6606,885.17694,1318.9613,-370.91507,3111.1845703125
2,232.24635,909.3244,-2819.5889,257.6094,-1500.3287,395.42337,4388.57470703125
3,1394.6653,807.2512,3353.2085,1216.887,1610.0657,-831.9352,4430.25341796875
4,2274.466,1858.9027,-4504.6333,-1149.2311,-3588.4263,1848.8849,9806.09375
5,3117.6104,426.14484,6824.582,3683.306,2619.1216,-2399.3933,10464.8798828125
6,-2745.0952,1327.5996,-7835.3296,-836.86304,-1479.0498,-280.42548,8492.8212890625
7,6975.279,1310.6257,8518.767,1663.3226,1172.296,359.38525,7484.93212890625
8,-7436.405,1798.0874,-8634.277,401.1653,-2098.687,66.446396,10558.5029296875
9,5808.743,3532.674,8690.789,1124.2693,6109.3896,-1119.1124,11813.9541015625
10,1744.7092,3131.7258,-5079.842,-2354.5352,-4255.904,2531.8972,12172.314453125
11,-1957.8777,195.6615,-5059.051,452.30228,1566.8445,697.2141,5510.94921875
12,6683.0483,622.6185,4403.9243,-714.8873,-1523.4375,-880.2193,6239.46142578125
13,-5047.935,912.6778,-3810.5178,2246.8818,2120.2332,1576.1295,8109.77734375
14,979.1847,-959.8556,2105.4026,-461.13382,-5149.0713,-2266.4277,10138.9765625
15,3330.0928,5831.6733,-2992.7744,1880.7921,3101.8062,-155.2016,10079.767578125
16,5005.158,-6441.4473,17208.607,2680.1575,343.33496,-436.39386,21026.453125
17,1562.2828,3228.9136,2080.3164,31.05273,923.2511,383.42987,2276.78979492188
18,2741.402,408.56143,6539.502,-354.7161,-1350.1298,5445.0415,11113.93359375
19,3212.0894,-4459.647,8147.887,-41.140415,-9074.246,116.29542,19187.373046875
20,-931.89435,273.37756,-13993.6875,2949.0962,-3499.6082,7682.269,20680.6953125
21,3453.6052,2531.5613,3655.8425,-1350.5303,-1095.0682,-1358.2745,3959.998046875
22,-396.60132,2851.3105,1517.5198,-1688.5972,27.940506,-689.74774,4240.23291015625
23,-454.50937,1987.2534,11293.657,771.1536,-951.69867,54.302673,10945.5673828125
24,623.48315,425.57816,-18697.252,2426.7593,-843.81134,-471.17096,19747.806640625
25,3795.271,803.0632,22912.068,-0.6137418,1112.4667,-3648.265,21800.205078125
26,251.00758,-446.1236,-19961.363,2997.742,-399.22098,3328.7903,21345.1484375
27,13099.554,13727.221,34873.207,6455.634,363.6916,-3253.0403,24859.376953125
28,-10818.415,3573.1218,-4369.355,-1799.8701,-866.4473,-390.46375,12973.9345703125
29,4200.9985,-6131.161,-14868.845,838.7213,1377.5308,3097.9766,17606.115234375
30,3434.784,1103.2648,2746.0146,462.16766,1730.3842,-2263.54,5412.83935546875
31,3999.2444,142.95445,-2319.116,1243.0652,-1359.3677,-3364.343,8634.9814453125
32,4235.179,-3844.754,-571.0823,1732.4841,2427.1921,307.39276,8747.1689453125
33,2189.5195,-30.70523,118.64171,-731.0388,542.6776,-798.32025,3003.13403320313
34,6093.465,4229.151,5790.78,1627.5197,-120.80087,1032.6832,3767.29711914063
35,880.3806,2458.1755,2458.748,-375.90552,-912.77936,-309.55902,2387.72583007813
36,843.99884,2916.882,-5789.668,-533.70953,102.08073,277.942,7948.0029296875
37,-1259.9005,-1468.3818,-2572.0461,701.4569,2518.2334,1016.7669,5009.361328125
38,507.6342,2427.3083,4720.461,-501.877,-1963.8171,-1771.4818,5923.31201171875
39,510.7828,-619.4178,-4710.4824,-2149.9775,-3.236904,1661.4374,6692.2529296875
40,1431.8376,3848.9646,1952.725,459.44208,245.74173,-1804.0646,3928.5048828125
41,647.4408,2826.616,1201.8158,1067.126,-431.29144,2457.9924,5093.87353515625
42,2035.3909,-748.5101,-7678.447,-814.52527,-76.3544,753.66583,8875.712890625
43,911.31757,-2846.4038,-5265.2397,19.920664,911.8817,-2344.0098,6931.05126953125
44,-1147.6141,566.2435,-1843.2959,170.51785,-723.09235,-1380.5359,3462.22973632813
45,5073.9688,2961.8096,7995.9497,-1374.1919,1395.6522,511.53873,5609.33544921875
46,-4383.2515,-8002.9365,-16912.395,2276.758,2665.0884,-1121.8438,12859.4150390625
47,4874.511,-7144.421,6067.239,-155.24149,-4044.468,2693.5527,15202.755859375
48,-4427.3716,7365.5376,-21466.105,-10961.616,162.3573,-4387.8896,32382.68359375
49,-5447.1406,1143.7133,-21702.271,-7407.795,1764.7742,-12178.905,32151.9921875
50,-4798.06,19372.996,17838.678,-969.1294,-2827.2583,518.1535,24023.138671875
51,5622.377,7809.2544,-10897.035,-4994.497,4601.3657,-1039.8016,21340.0
52,7596.5713,4213.8486,-3727.561,4128.0444,2380.3513,-5915.745,16567.46875
53,7405.591,9126.711,28753.684,-3372.8237,-225.26994,4192.0146,22560.13671875
54,-9210.032,-1654.8298,10724.3125,-2731.373,474.7493,-3723.6558,19196.494140625
55,-8003.0186,-4157.9556,-12161.472,5321.8535,-1135.9518,-5971.7734,15616.994140625
56,-12054.218,-5787.7915,1877.2185,5946.7236,-1374.353,-4711.181,18010.982421875
57,-1790.0193,629.44775,546.1355,1417.8091,1653.3911,-1408.5496,5083.58935546875
58,-3441.8525,-5417.638,-8268.328,12939.265,-1452.1436,3951.621,23939.681640625
59,14.070463,2543.3167,-1463.5415,3353.9014,-5224.087,621.1778,11361.9736328125
60,1622.5052,5273.751,-3775.5942,-90.976494,2181.4114,81.72731,8746.5078125
61,-634.3301,1434.4762,-15820.711,1763.4117,-2598.5037,270.34116,17208.38671875
62,981.5959,2611.4172,2217.254,237.93556,196.22162,174.01204,1595.44848632813
63,1470.7,1835.3285,-404.415,-679.9257,365.0224,823.59985,2855.57373046875
64,-133.5422,1485.0789,-3686.5813,-920.10565,225.92621,-373.60834,4909.85791015625
65,1084.1512,908.6154,4332.944,-308.36267,-715.4079,38.270515,3602.8916015625
66,1247.6287,157.20409,-2308.6467,670.43994,-80.92923,94.39292,3369.43896484375
67,3313.6763,-113.27853,-2168.4106,-541.38306,-1243.269,-219.51091,5354.57080078125
68,1333.1244,1298.4132,544.207,106.8967,109.73318,-1409.0874,2573.55737304688
69,4097.901,-1324.3046,-4518.0957,-137.09656,-516.01984,-2118.3364,8440.0986328125
70,2210.5361,386.59586,204.79776,-462.51303,-1181.6083,1839.6058,4321.365234375
71,5540.214,-698.9434,1939.7958,-93.21433,-2180.0564,-1813.6925,7319.76513671875
72,525.20917,-2054.6287,-12441.742,1730.9276,3227.6045,-3790.7344,14989.8095703125
73,2921.8428,-4759.5273,-5826.0435,-857.91974,-1769.26,-2525.0918,9952.9091796875
74,-4815.113,-159.30133,5894.474,-2350.324,-3990.3135,5174.93,15204.919921875
75,3020.017,7074.786,18888.506,5573.8745,4221.323,-10226.265,25774.005859375
76,-10250.465,-3797.7205,-2803.203,942.9663,5915.859,-4918.9443,15142.3935546875
77,6901.621,-7690.3784,-6882.6753,4504.524,-126.309166,-5053.7935,18421.05859375
78,5334.3257,-4336.648,-17751.723,7886.0596,-721.48865,-7646.9507,27690.93359375
79,9653.891,-10351.498,5926.78,1514.2941,-2635.9324,8155.4175,23807.578125
80,1197.3585,-1697.2638,25693.64,417.36642,-2737.299,1326.7009,26601.421875
81,6066.0435,-3989.7234,13936.867,-12582.358,-4303.62,3560.103,28473.658203125
82,-13388.263,4183.5093,11516.964,-2694.7434,-498.73907,-10278.317,28824.8359375
83,-8746.044,-23712.361,-47108.656,2628.8494,207.11261,-658.13525,33818.55078125
84,563.8862,2183.9316,7266.019,-873.42914,-396.63855,-1394.398,6728.9677734375
85,-991.90234,-1229.8849,-9551.677,1310.8289,2118.2883,-3739.18,11482.5927734375
86,6045.926,8786.953,14462.55,-690.8623,2245.2148,4568.866,11595.734375
87,1070.9779,1484.1444,-787.1478,1522.7695,-1504.4923,-5895.3027,11063.53515625
88,6732.297,-44.80361,13184.571,-114.69045,-1084.7852,-969.1351,11733.5439453125
89,943.9274,-3533.3625,-12356.047,332.85043,-911.8346,432.8654,11864.9228515625
90,2973.8296,-680.809,5417.7363,-123.32733,568.1452,98.37193,5413.2880859375
91,-101.78935,2573.0732,2014.882,-125.43216,825.6453,-156.3024,2852.88330078125
92,4366.3022,1611.0281,8536.089,-667.6855,149.4384,-269.32663,6171.67578125
93,-8366.434,-4605.3745,-31076.418,-477.63834,2007.6488,-306.49747,25067.125
94,-324.01642,3785.0847,360.75494,-1454.0966,408.95642,527.0314,4713.6015625
95,982.79425,1037.6538,-3263.7625,-230.59415,-1.506714,796.96234,4509.3447265625
96,1860.986,4065.0076,184.26462,659.6954,355.02005,-1116.5939,4097.40087890625
97,1430.7081,3615.971,-2241.0366,722.7914,240.36525,337.4067,5325.6875
98,-366.21924,8601.567,12161.348,-917.3648,928.76917,1057.972,11553.658203125
99,-10.3996315,-391.8724,-4461.1416,-1158.4452,161.71797,-310.76785,4759.302734375
100,9616.658,-23.885757,20509.326,-597.2141,-2987.8982,-433.646,18574.66796875
101,1770.5854,-3306.613,-9037.845,-920.1362,3038.188,-2938.6985,11994.2958984375
102,-7592.886,-14990.513,-35047.812,-4533.214,2480.657,9784.628,31188.529296875
103,1788.1041,11964.415,-6319.2974,2894.5015,7203.4253,7613.524,24627.025390625
104,1282.8752,3957.9812,20215.018,1716.1776,-2824.0195,-1976.0924,18958.181640625
105,-1810.8268,-1179.5869,3143.0708,1762.8451,154.02467,2167.4832,6730.56103515625
106,139.46053,-2652.1804,-16227.233,2186.358,-2229.7295,4220.676,17682.47265625
107,6021.2334,1831.059,5432.574,-2799.8816,1499.7156,-2097.4846,7674.71630859375
108,-454.61703,2001.376,2613.0288,-34.539303,-1170.4943,58.16329,3468.73681640625
109,1094.4059,1101.6565,-1038.223,-1555.1704,-1726.5607,-320.21915,4590.20068359375
110,2402.195,3905.8767,3392.4143,-358.06345,-308.69055,1419.1621,2909.498046875
111,-167.40431,-1624.3912,-2198.9468,606.0236,25.138468,447.28424,2234.708984375
112,1376.5068,2065.1733,-264.01825,741.5652,-53.621822,-1596.9591,3688.43823242188
113,-1420.5254,1936.1373,-5615.6006,1126.0405,847.94464,232.59517,7005.0361328125
114,1725.2391,-336.12268,225.69543,-339.32,802.91675,2200.85,4496.376953125
115,1551.8629,987.52655,2121.2874,-484.48563,1106.8334,918.25165,2805.89453125
116,-1264.6442,-1195.693,-16428.99,2198.9333,5016.778,3252.0488,18781.515625
117,1010.1845,3962.2078,-4240.0415,4575.297,2792.239,7709.84,17784.623046875
118,6960.0737,1036.4083,10846.609,3580.3525,18.014688,4457.1396,13087.1513671875
119,2196.814,578.07874,26793.615,-7906.6084,61.18297,-268.5576,28899.9921875
120,-1509.8243,-7880.952,-2030.0294,-5666.7817,2038.2606,-244.5268,12104.8642578125
121,2925.116,450.95673,-660.2705,402.98135,211.0992,2322.9668,5187.97021484375
122,3755.7283,-770.7934,-2079.0605,-1169.411,-422.12903,367.51782,5758.9248046875
123,1849.796,322.97522,-4497.6074,310.96988,273.26385,334.153,5811.92431640625
124,2044.1456,1907.1248,-1580.1122,13.65897,-104.76569,2334.3591,5388.748046875
125,3504.4019,3649.7297,8138.306,181.11801,-394.70093,-359.10962,4666.19873046875
126,-1868.6804,-2031.5356,-1064.5122,1812.8506,2031.316,-7790.474,14321.8935546875
127,-8649.032,-6684.496,-12669.524,-4266.8193,-3306.676,6662.443,15764.078125
128,-1916.7283,-2879.029,-19987.066,-1440.0673,-2704.797,3737.132,19497.22265625
129,2028.7865,3985.3625,-11434.115,4057.627,-2955.2437,2720.367,17584.47265625
130,594.7725,4775.7583,19907.152,15.246821,4366.98,-2406.58,19603.341796875
131,-3061.5784,1210.5178,-8138.4517,2510.7517,-947.25226,1433.9862,9668.85546875
132,-18374.762,-7524.485,-44060.695,81.12282,-80.85014,-1746.229,32640.19921875
133,15140.923,3134.1917,34086.613,2201.2012,952.7675,1284.738,27436.970703125
134,-2334.0708,-1345.2241,-13534.875,-1913.2902,-1190.727,1229.0928,12541.1025390625
135,1288.9011,2543.198,-2082.388,-3335.833,2192.296,999.12445,8244.0302734375
136,802.04987,-659.56415,-10571.223,-4714.557,1118.4124,-54.521614,13612.748046875
137,1415.324,3107.4985,1168.5922,1577.0269,-62.295383,-498.44873,3399.98266601563
138,7008.1616,9496.356,33016.305,-6619.575,-4571.7124,798.1507,28530.166015625
139,-11396.763,-2030.5879,-19507.838,-515.6916,1604.0454,-1067.3549,15537.662109375
140,2827.0186,34.813354,-4632.9937,-679.9511,980.1086,-280.37296,6864.6171875
141,3249.8555,-9394.748,13295.974,-178.58568,-664.5228,-557.08856,19753.2578125
142,7660.8774,16325.783,26369.975,-7460.631,1549.5597,12601.369,30225.29296875
143,4754.077,-5594.5957,7382.7344,-1865.0302,-1331.4813,-9037.681,20049.951171875
144,-6570.099,-6197.465,2876.637,3328.9673,-5433.825,6964.3423,18793.380859375
145,5030.0195,2808.1975,17168.715,-1360.0822,-2373.492,833.3146,14275.41796875
146,1618.7076,-866.7565,-9510.906,-879.8252,2594.4268,-1246.805,11382.5556640625
147,-368.49802,-24.194677,-7038.9824,387.54453,952.2007,-105.97398,7079.1875
148,1401.9415,-160.27061,-6557.0083,17.510262,-603.0867,-362.42786,7405.2646484375
149,1768.1024,3307.7795,-325.63593,653.02563,165.2658,1283.1028,4034.64379882813
150,1695.9618,3218.955,5480.0225,-336.90503,-1065.741,627.1199,3975.3349609375
151,-11232.412,-1347.5925,-16323.267,-562.06647,2434.0276,-815.0927,13952.16796875
152,2339.9814,3146.1426,1696.687,359.66733,-974.1047,-1077.9669,2881.5068359375
153,-6813.7554,-1428.6888,-16796.363,589.923,-4922.3486,-508.33554,16028.60546875
154,7746.863,1393.731,17865.041,-4557.5215,8058.135,-5110.166,23291.134765625
155,4305.53,-1052.4056,12265.604,1225.705,4312.7925,670.22125,14013.3857421875
156,-1137.4017,6016.59,15538.496,1787.3905,-377.0045,-2176.3323,15303.1328125
157,680.8956,-1813.628,11953.703,-248.13692,1900.9443,-2908.3804,14064.8720703125
158,2373.018,2556.1885,8235.895,3777.1008,-3352.9868,1484.0723,10792.0068359375
159,2714.0127,1462.7523,-521.2706,1626.5433,-2371.5608,2331.071,7006.8564453125
160,-2958.1216,-4494.5625,-12914.354,-2722.6294,-3077.4749,-967.03687,11817.19921875
161,3413.5542,2509.6538,-2651.64,258.84268,-1552.5997,2156.5095,7314.7509765625
162,1969.8594,2708.6917,7716.176,-1902.0068,-435.1481,-699.16223,6496.7607421875
163,698.03076,931.79004,6110.5444,1129.3579,486.70386,-2478.3914,7144.85693359375
164,8148.871,3177.2507,19084.016,-341.78342,318.39215,-526.81555,14147.330078125
165,-1159.7241,-194.09811,5556.3535,1574.1932,-963.8846,1689.8093,7638.11181640625
166,-2060.6067,5110.909,989.0244,3404.595,1528.0554,1033.077,9156.462890625
167,-5591.6763,6948.912,-7269.8228,-548.93475,-325.47202,3354.7688,14700.771484375
168,17761.31,-19494.37,-7805.4805,-7514.906,-1641.655,5256.4556,36736.02734375
169,800.83344,2706.9023,19906.03,4625.354,6848.231,3037.184,23765.01171875
170,-24299.688,-30038.863,-30828.121,1504.6884,-904.2094,-5451.3945,11682.8466796875
171,8175.641,-40.007072,-2922.3496,4607.356,694.17004,-2509.623,13546.53125
172,295.77274,610.9955,-510.2454,60.21174,408.4484,356.80075,1377.09582519531
173,-1261.8411,2725.9922,-1676.4856,-390.35043,1261.4554,-1208.8882,5229.095703125
174,-258.26572,1559.6603,15052.373,2081.292,-5408.8193,-2264.1484,18056.2265625
175,8765.162,3330.2383,-5092.688,-196.3454,-105.92296,1357.3352,12326.3310546875
176,-4354.6646,424.71216,1752.5737,12463.389,2684.9514,-647.07947,22800.0703125
177,-10256.539,3311.1511,9626.343,2216.5898,-7848.583,1081.3463,22642.767578125
178,2563.3484,3271.2297,2281.5608,767.0718,181.79257,-2713.9468,4974.01611328125
179,1619.7682,381.8937,1133.0372,41.485943,231.99734,-2225.2405,4023.48681640625
180,52.693806,3180.1301,5583.737,692.14734,511.17862,-2030.7081,6137.40576171875
181,3937.931,-678.80365,2949.4004,192.1319,-1535.7152,146.95592,4997.84375
182,1734.7538,3337.5244,5292.0405,-375.10678,242.89929,1344.7847,3942.85424804688
183,-3671.108,11429.363,-6036.5615,4562.596,-5856.2666,174.92313,20851.146484375
184,11860.474,-2795.11,24527.857,2520.0813,1086.3442,-676.0811,24183.89453125
185,-2320.7183,-304.01318,-14235.774,-1394.1873,-637.79315,244.4633,13315.2431640625
186,-6866.9385,-800.4614,-14436.545,2066.371,-6451.627,2244.4165,17111.81640625
187,1779.6302,3148.3647,3404.5908,339.77893,-559.3362,360.8402,1991.31323242188
188,2916.2158,-4495.1772,-7290.3843,-1025.9132,1988.8027,1684.5114,10343.81640625
189,4168.69,508.25354,3332.9683,-496.22183,-239.17503,1506.8527,4331.31103515625
190,-3640.7788,2141.7654,-845.746,2577.4116,1264.3502,420.3198,7095.24658203125
191,-3825.5784,-1704.6992,-907.28577,1058.3961,-428.78998,141.06746,3285.89453125
192,-92.29479,331.09647,-2151.843,100.53233,-11.519371,1013.51117,2899.19409179688
193,1845.3209,1031.3635,1516.1356,85.07784,-16.33593,260.58487,853.917785644531
194,1048.1743,-3000.2112,2481.5288,-1353.2026,631.5697,359.41522,5596.81640625
195,4761.744,-6242.7373,-16999.07,2617.7986,-683.498,4060.5151,20654.021484375
196,-4282.2812,-8469.605,-1987.1611,-10153.441,1896.4552,376.32404,18785.720703125
197,2502.4731,-6390.3984,-11588.358,3780.5627,-597.958,336.9696,14022.0556640625
198,863.81714,1913.0717,-3818.4756,-3028.7046,905.92645,-3249.3674,9465.4189453125
199,648.4226,-3505.4353,-2337.519,1571.5137,-1612.4996,19.979582,5383.10595703125
200,1509.2325,-615.92444,420.14966,2400.9302,309.38266,210.34297,4593.6044921875
201,2845.3347,-2415.5366,3377.3235,-1888.3542,2226.7036,127.097725,7508.61083984375
202,5497.1113,-4924.7183,-1476.8462,747.13696,-1628.7618,-1544.2498,10067.6005859375
203,3422.3755,-758.9492,3890.4585,-174.30096,-281.70706,391.88428,4522.13720703125
204,7818.2393,-28.608952,3308.637,236.69936,-1706.772,422.73898,7481.09521484375
205,2667.9055,-4575.445,-3348.8123,-2025.4998,564.8672,-17.620275,7638.8427734375
206,1651.9594,-2936.265,-3128.315,-394.94592,-378.5606,-347.1308,4819.67041015625
207,1997.5896,-1634.5227,2716.263,334.01056,-1569.0131,667.4201,5037.40771484375
208,2562.8652,-153.67458,3236.5466,-545.3718,-251.10568,957.2023,3673.37426757813
209,458.88748,146.3865,-169.92767,-1300.545,868.244,-355.6315,2830.50805664063
210,635.69543,2449.3342,5001.42,-1129.0775,-1082.2041,1312.7858,5190.29443359375
211,2624.9595,48.175167,-3378.0288,-1320.0194,84.16032,296.3227,5720.07861328125
212,3083.208,-948.7374,-3977.1758,-1285.6627,1458.8666,-1414.0615,7414.91015625
213,2076.0132,616.74023,7093.2095,-1929.5446,-1630.911,457.40207,7375.62744140625
214,433.7107,-1266.0603,-2451.0134,-805.00934,-1961.8134,3856.9019,8026.5068359375
215,716.60974,-2135.189,-2460.3225,286.63242,1640.3162,-80.35525,4183.71142578125
216,-1373.3914,-1737.8391,-10025.102,605.80164,1743.3221,-2587.4666,10106.19921875
217,883.2007,-383.12335,-4848.42,-1853.3381,1009.8227,-1906.8171,7174.1640625
218,-313.6178,607.79535,3616.3494,-1288.4407,-20.417223,9.370575,4201.69873046875
219,-2364.9143,1366.3596,2620.1943,1216.2609,-1118.0178,308.859,5352.275390625
220,-7650.287,-3264.092,9820.644,1584.9198,-2232.1753,-4719.222,18361.322265625
221,-3797.222,1709.7592,-1102.9945,-79.46598,690.6147,-928.7585,5175.53955078125
222,-545.9226,5183.332,5944.873,-486.9177,1141.4106,-1710.7408,7153.11083984375
223,-2030.9977,1674.6587,-336.64697,-165.25952,166.56026,-504.96127,3354.72045898438
224,-790.4493,352.10678,-10127.259,-437.49338,2267.9312,1751.2606,11151.4462890625
225,-9836.821,174.93736,-21506.922,288.52924,1382.5935,-90.193634,18954.515625
226,-2000.0035,2809.5027,-2531.4976,1605.889,25.052908,3.9525416,5805.91357421875
227,5485.5557,543.22003,10775.877,1367.5868,-593.97375,1113.594,9431.3466796875
228,-208.59349,-1844.5178,-1312.7365,-1144.3679,-70.163795,-75.44507,2459.6064453125
229,-1857.0845,928.0543,-4065.9336,-1307.9528,-121.03587,-979.4993,5180.96435546875
230,-7986.6855,4209.541,-16344.555,-671.6636,-423.5222,872.07874,18019.697265625
231,1337.5055,-2667.3167,-1671.4135,-1241.2202,-1271.7983,419.02115,4800.31640625
232,13618.206,2311.0671,31551.674,3851.26,-1780.2742,1174.2593,26652.921875
233,887.4616,2137.5664,7965.0757,-2382.7354,-308.5416,-813.72516,7881.11376953125
234,1054.1693,2530.9668,2700.7,63.974026,-136.16415,-338.84808,1694.92053222656
235,417.25323,389.17645,-2785.9165,-729.914,-230.675,1467.4613,4288.29052734375
236,1272.3716,2209.2761,-2916.018,-200.45251,803.65894,-243.74802,4957.91357421875
237,-537.3352,1804.6066,-1154.286,-47.823704,280.18735,-424.9247,2845.0380859375
238,2449.8977,3203.8264,4981.912,889.42816,-180.3147,-143.72487,2757.4091796875
239,1733.5717,2034.2103,2425.097,133.95007,-221.74199,155.33197,796.499877929688
240,2932.6023,1851.1334,4260.679,539.9174,65.45014,349.80682,2371.52172851563
241,1692.8181,1802.1823,2691.6548,-582.19403,-177.16248,-313.78714,1518.8134765625
242,952.2981,-28.63392,-4029.9062,698.4699,12.367949,1202.2205,5166.955078125
243,2274.9746,1634.1768,2853.742,-1312.1417,290.65692,-813.50305,2918.97583007813
244,3398.684,1029.093,3341.5308,-344.93552,373.7492,-955.40894,2999.537109375
245,3491.6277,1727.5847,-3223.0732,-159.10918,456.38113,-384.5891,6123.60693359375
246,2294.313,-751.086,-298.54135,-706.10425,740.14667,-340.70877,3404.19165039063
247,3347.3123,-280.17105,1556.7715,-636.79126,1730.4069,73.04672,4481.6240234375
248,-5641.1167,716.4852,-11834.559,-357.9502,2147.1384,1138.2104,11672.8251953125
249,2051.2473,137.61275,-1191.6882,-1345.0247,-471.9555,1040.0066,4160.91064453125
250,-2894.6624,-6254.163,-6046.299,2807.3235,-5317.247,3059.8738,12131.865234375
251,-9966.301,-2056.761,-17696.205,2442.4229,-2917.8948,-6620.321,18930.841796875
252,2491.4531,-6715.346,10689.959,454.3493,4578.872,3114.2634,17890.669921875
253,-2442.9749,-8914.023,-16788.361,1060.651,-8422.815,9541.852,25380.7421875
254,-3114.545,-8605.088,-21470.02,-4198.0513,-2021.0212,661.50555,18240.7578125
255,1025.841,-15683.931,-7471.0073,-7868.875,594.89294,-549.22894,19928.791015625
256,7702.603,-2328.9358,20516.566,-1550.1594,1355.1498,955.63824,20219.57421875
257,-3856.1033,1916.8907,5555.9927,-4091.3186,5086.646,-2230.9238,14503.40234375
258,13048.39,-2501.326,-38.01463,1406.2339,3398.8225,-4085.467,17326.837890625
259,-2201.8108,-3883.3306,-12357.837,3239.4583,-1717.6376,255.29259,11376.4423828125
260,-3123.2874,-8034.9834,-7518.9746,2415.4365,-3101.033,7754.541,15767.291015625
261,-1188.9642,574.9076,2095.5007,-1633.4979,624.2416,2977.05,6623.29541015625
262,-2749.7512,2500.4817,-14864.663,-4873.845,4271.767,-177.8928,19079.94140625
263,-4562.588,6230.077,2986.8271,-3155.3523,4599.639,-7528.035,18850.72265625
264,3107.8062,7071.326,5739.923,-6033.264,-4044.0283,-2645.1917,13836.8896484375
265,-6945.73,-1689.8882,-11580.959,10182.432,-3782.8328,6564.3677,23594.8984375
266,-2555.305,-2428.1235,2596.987,-4702.5454,1236.8181,1813.3511,10329.69921875
267,2850.9692,6301.0347,28585.805,597.18353,1169.4048,-4659.708,25606.8125
268,-2201.9211,10515.294,-5661.5713,-3027.844,1908.8417,2031.8191,16386.375
269,-4462.071,-543.28815,6.22232,-356.00058,-1038.4413,640.31836,4759.994140625
270,-7167.594,2455.363,-24.85391,-3089.6099,1429.1428,1465.3324,10774.58984375
271,-1808.7222,-6203.5913,488.73212,6721.5044,-978.78973,278.41043,13165.5859375
272,-4276.3306,-1581.9812,-5873.699,227.0138,-250.4803,-100.08186,3806.291015625
273,1958.839,573.0068,5529.752,-351.97574,148.72856,835.97174,4706.931640625
274,1269.6455,678.1306,5254.9966,1747.4098,3007.3433,-2044.96,8211.4892578125
275,-604.25226,3085.2156,-4590.965,2635.5168,-2898.0513,752.6023,9588.9560546875
276,1422.7332,1971.3905,1847.799,765.2586,438.43298,-1593.6886,3193.98681640625
277,1239.2173,3043.6704,6351.497,1062.7804,1401.811,-508.62906,5497.8564453125
278,1576.7234,3557.7751,-1951.1432,245.37375,1728.2968,-379.9131,5738.81103515625
279,-1247.0505,-2129.4385,-1551.2411,-1083.2589,749.9481,-935.1901,2904.1494140625
280,750.7107,-10016.744,-16988.896,2218.3293,120.6911,2056.3135,16343.599609375
281,446.3124,-1290.736,-2610.6968,-1908.2952,-66.55542,-185.04561,4253.61669921875
282,-3103.4858,-2063.2075,2101.9263,1759.5385,1740.8969,-2682.643,7920.43115234375
283,-614.1877,1465.7246,-1986.9652,1208.4669,-2522.494,1106.2484,6017.248046875
284,849.9821,716.46436,-754.139,563.8576,38.42237,247.58745,1875.89624023438
285,-7.265308,139.2978,-6810.4,-953.3236,-77.578705,761.07733,7196.072265625
286,1286.138,-5062.0176,-9327.49,-50.06881,1480.1265,-6153.821,14344.322265625
287,1458.5612,-39.1177,1854.9509,-677.3606,1065.1382,-412.1662,2878.10424804688
288,1697.2719,1033.0325,-742.06537,16.693317,235.17953,-215.11278,2253.18920898438
289,3589.2007,5653.763,15213.059,-188.91937,-530.68,-522.6107,10823.5673828125
290,-12813.066,-12721.184,-26413.596,-2338.8293,525.8488,1067.0647,14383.6123046875
291,-4584.7173,-1525.8838,-7099.6724,-80.294,-1223.141,562.07367,5369.3232421875
292,4748.4785,-4379.6743,-2465.2087,3371.6777,1666.3143,-2385.6643,11358.7607421875
293,621.9524,-3639.277,-5562.979,386.62015,655.36835,-159.04182,5645.251953125
294,-2806.5735,-2687.1826,-2494.6545,-3260.853,-2420.7146,241.74437,7051.857421875
295,693.93835,-2415.135,-3186.6797,275.2138,1819.4862,-1991.1874,5891.833984375
296,796.34247,-264.03012,4215.191,-658.5044,38.72968,-500.2843,4300.5126953125
297,3012.05,-73.99251,-1740.6571,-89.39869,-753.1112,-375.169,4426.3515625
298,7096.22,1760.0571,15161.817,149.5483,-732.0865,1243.2391,11953.23046875
299,-3905.988,-2003.8835,23578.57,-773.6859,4509.621,1922.3544,27939.8046875
300,-4225.286,-1194.297,5684.7026,-2057.7146,1221.3114,3939.869,11878.6689453125
301,-7754.3657,48.760086,-2634.5737,-1781.9021,-2212.4497,2104.576,9200.4736328125
302,-4965.8765,4494.88,4825.366,302.29202,-2233.651,2253.27,11100.2333984375
303,-2665.0706,2975.8086,2606.0107,2856.6438,-1101.5325,1370.3943,7976.564453125
304,-46.600777,1159.7218,-361.99622,-574.67816,-106.34161,-369.7075,1835.72827148438
305,-5889.9946,6602.462,3535.179,4660.2334,-4707.67,-1524.4373,16302.2490234375
306,7077.2017,-4618.943,10369.545,2158.657,346.6311,-560.4923,14192.5810546875
307,1166.8041,647.1559,1909.7211,14.784658,5527.342,-1096.3828,9821.8818359375
308,-728.4506,1021.84735,-4454.2275,1485.1746,-1004.58527,1021.0579,6019.85498046875
309,979.1218,1214.3922,7070.5063,124.01976,2840.9263,-919.2034,7907.00537109375
310,238.65416,1435.0006,118.61759,473.34537,-152.97333,12.27102,1527.11511230469
311,5243.691,-1235.5446,8846.979,-1587.3167,973.59607,773.5985,9513.5947265625
312,6434.462,-5264.873,3645.2407,2814.5515,-1153.6027,-236.14174,11829.91796875
313,-15253.962,1720.778,-19834.135,-1912.4817,205.68399,558.85785,19972.57421875
314,-1474.9927,5299.8677,-981.5985,687.98096,280.42667,-964.0074,6873.3759765625
315,-3428.7766,6973.2573,7547.1206,3554.1655,1728.2283,-2241.5642,13282.748046875
316,-3795.6174,689.4792,3050.3213,1278.6066,818.9995,-4534.701,10241.3671875
317,-1773.1975,124.140594,3628.106,1938.5549,35.97422,516.3602,5882.48486328125
318,171.99858,-4757.7715,7197.633,-1784.6293,1031.8212,1188.0973,11192.869140625
319,4895.921,2528.9932,2520.0127,-1144.5623,1551.0981,-1013.96893,4455.9921875
320,4401.335,-6818.441,10883.963,4585.523,-1936.1698,-285.91812,17754.267578125
321,3353.1497,-634.8205,-248.81934,1066.1501,-207.5591,817.4212,4478.54296875
322,-896.1483,-2214.6462,-7363.775,968.9452,-433.99997,-1068.4526,6468.96337890625
323,1690.8672,1184.3372,-155.37338,-888.53015,-242.90955,-1135.6161,3023.9619140625
324,-4207.8745,-1731.9594,4725.6133,-72.06172,581.0186,4534.768,11248.9775390625
325,-3307.9739,-1234.7028,8079.4287,1224.908,-1802.6901,-2979.7178,12298.318359375
326,1431.1388,-591.16565,-571.3339,-1218.9075,-1082.3435,713.60455,3680.93823242188
327,-786.7051,-195.09161,-1601.264,-1067.8419,-528.1758,-68.767586,2401.53540039063
328,-4539.7036,-5146.8555,-10251.399,460.7905,2957.3723,-787.9145,7632.94189453125
329,1140.3542,2060.242,1872.4232,293.61752,7.338157,436.35693,1240.44934082031
330,-2536.6746,2158.5518,-3374.023,1802.9204,-808.294,937.59064,6405.20556640625
331,708.69226,581.2505,143.17615,-499.6555,716.0151,-229.8446,1646.04516601563
332,972.7899,1114.4885,-965.5618,82.10431,757.81946,588.8528,2614.43774414063
333,1597.4886,1016.2132,1708.894,-414.35175,737.3141,-627.71313,1934.70397949219
334,2096.0947,-123.6837,-576.263,-488.65463,-425.67764,-912.4958,3145.59521484375
335,1514.305,-224.79016,96.08498,19.019745,54.727,1239.8866,2681.67993164063
336,3244.5427,578.22064,680.13586,-361.58475,251.10002,1059.2885,3285.6630859375
337,-4979.4277,1249.5275,-8305.808,-2238.5461,523.18945,-1627.961,9715.4404296875
338,12297.156,-4155.502,23364.664,2632.5781,5989.86,-1937.3193,26738.66015625
339,-4042.3767,-14973.068,-18490.455,176.05032,-2958.4465,2102.5652,14488.3408203125
340,878.6046,8182.742,29247.56,-3249.9365,-2898.5183,629.0183,26627.333984375
341,-107.20781,5699.178,-2204.1694,-6496.1074,198.15926,-1409.7441,13526.4677734375
342,-13178.2295,-4589.3506,-23141.072,-6411.9937,4573.1235,-3455.5063,21920.302734375
343,-4777.625,-2002.0851,1093.9467,3993.7146,227.27,-480.84067,8635.9736328125
344,-1059.3552,-129.99837,-3056.3745,1776.045,-383.7995,-1793.6473,5124.85693359375
345,-947.6412,1292.856,2340.3179,1928.7761,-592.8401,-83.28639,4549.6767578125
346,-716.1558,-3060.9614,-2786.6287,520.4779,495.40015,946.1501,3027.32055664063
347,-3646.1384,-3214.4973,-15578.096,-3986.2554,608.368,1079.729,14141.666015625
348,1748.9519,2720.164,2213.9067,1537.8657,44.23792,792.3254,3113.22485351563
349,326.2246,1391.5369,-1673.4258,-83.162766,-531.2779,476.10437,2968.38110351563
350,436.6249,3243.5535,2144.8774,-524.56256,-141.93456,44.61078,2625.63061523438
351,-1083.7046,579.4307,3822.9624,-944.5095,272.60703,-244.19829,4664.66357421875
352,1675.0426,469.88928,1024.9984,-606.07074,-666.426,26.94557,1878.31396484375
353,-4291.3574,377.58984,-4015.5537,2068.2683,-721.09283,-193.74136,5923.947265625
354,760.7413,193.48387,-1988.2932,-1022.818,23.045841,413.41138,3157.90307617188
355,-3155.683,-1005.2846,-1635.8344,341.716,-326.85815,-139.34981,2096.41284179688
356,-415.12286,-21.907211,-142.6019,-70.93752,569.7146,45.654438,1056.78771972656
357,3869.9414,4057.5974,22079.37,3200.0273,673.5633,1544.7089,19168.759765625
358,89.741356,640.82745,700.777,247.72577,216.94632,279.73862,948.888610839844
359,532.5569,1477.0653,-470.40372,856.69165,392.6484,569.81995,2546.31005859375
360,1726.9376,2317.7598,2194.3052,861.4889,57.800358,470.06995,1786.27575683594
361,-1092.5887,1179.0841,-6619.575,-96.18233,-1421.8049,-206.05194,7381.27978515625
362,-207.86526,732.0541,1625.5604,-252.51335,-3.6560502,-741.4886,2088.62915039063
363,-524.6086,-6.1568155,2343.0576,963.1258,742.74347,-224.64044,3405.111328125
364,-1554.734,177.9611,-3687.1409,1828.3507,169.71648,-929.4043,4893.93408203125
365,-1527.4448,-181.46661,-395.9628,1900.7191,48.588764,-171.30511,3535.85595703125
366,-799.5723,-1098.5432,285.80646,451.62473,61.74029,138.02513,1507.45166015625
367,1993.6832,1343.4884,544.21796,-588.1492,113.89349,-5.4162064,1630.34643554688
368,-744.04517,516.4482,1178.4037,-151.44388,-83.83751,-165.57042,1741.70947265625
369,432.9975,212.95842,-427.18207,-354.0037,-39.40691,74.44272,998.144592285156
370,-635.034,1436.0553,857.35486,-183.30579,-73.677246,-254.11594,1933.02294921875
371,70.34214,230.46199,921.6288,-924.8043,-177.35931,252.65459,1861.6337890625
372,-628.66974,-720.33954,-585.79407,-343.11603,243.83199,236.14548,844.401611328125
373,-132.82347,566.0487,577.18964,-896.8152,-145.1565,343.97424,1824.09729003906
374,1313.1383,-394.49255,59.410416,-1174.3562,-123.003586,51.924225,2556.90209960938
375,984.27545,-30.189314,1098.1526,509.47034,-183.85115,-21.720491,1427.98120117188
376,490.56873,-1007.9396,-1154.0411,-509.50336,50.738026,159.09378,1829.82067871094
377,1416.1061,-237.54639,-101.2335,90.49654,-204.1473,167.76901,1661.857421875
378,-1253.8601,1259.3802,114.44946,-548.80096,311.15497,32.347042,2438.62573242188
379,-1042.52,-279.25436,-258.22552,368.80496,-98.62703,156.05632,1053.26220703125
380,-1156.2631,-686.5292,358.83084,773.0563,45.98543,20.600395,1898.66625976563
381,-115.92272,-770.6967,288.84937,-492.4798,150.90979,149.03326,1311.55126953125
382,872.755,489.9377,-279.8484,-520.22296,435.3951,170.743,1581.72973632813
383,-1493.2715,376.88043,-1365.5061,306.42404,293.87894,307.9421,2024.87475585938
384,-987.46576,633.26086,-356.64197,1128.2532,-318.21442,-216.94467,2503.22631835938
385,1705.8687,857.1247,252.57121,-724.5923,-165.30508,188.44093,1833.73168945313
386,-48.30485,-2512.6907,-1063.2017,-856.403,-19.942339,-464.44815,2729.60131835938
387,773.49866,-807.4941,-863.3862,55.45535,-584.45215,-242.17967,1949.60473632813
388,2141.689,-1507.9718,1023.4017,-199.70108,-35.02853,101.268936,3262.40844726563
389,487.93835,-582.31726,-933.5178,444.32468,142.83458,139.0436,1534.97265625
390,1117.4941,4.1060266,-491.9612,-75.07979,170.05028,-38.708374,1464.98754882813
391,897.92914,399.49985,496.8045,77.695984,-59.6556,-209.89575,608.568420410156
392,-488.72638,124.376,13.884291,389.26315,-79.69746,141.59196,924.195617675781
393,58.82219,655.6494,-740.4655,439.63452,413.20328,82.19172,1607.61096191406
394,97.45379,373.0205,631.97174,-1047.9338,-164.85776,233.42963,1937.48547363281
395,33.667274,354.19644,366.7536,-123.501076,-114.9637,169.83734,528.075012207031
396,265.77036,-149.9307,326.48865,-265.8208,-11.111956,68.42591,654.319152832031
397,-688.70935,-582.27374,95.486916,-449.8531,11.600155,-151.99916,1104.375
398,430.36697,-677.03265,-878.3731,-1285.3942,65.18296,80.0462,2545.29370117188
399,568.5619,364.63727,828.65186,-166.6578,-47.040836,-277.0875,694.669860839844
400,1603.2925,-85.61549,-720.4266,-28.553423,177.4343,-15.435387,2103.60229492188
401,380.4697,321.2678,-349.35114,-490.00595,18.040382,68.691185,1108.32568359375
402,-1365.5413,-488.6241,137.68695,-541.62695,35.655514,140.14351,1628.89099121094
403,153.23317,579.41626,-72.58383,744.8015,-181.37793,180.84612,1479.818359375
404,1393.5812,-1309.7719,167.94435,-448.99835,-123.03198,78.63033,2483.08911132813
405,16.138956,-69.26162,1109.898,-348.04456,-709.0854,120.27694,1792.26696777344
406,1065.03,-1154.1499,1351.6843,-402.0257,-188.17822,398.69708,2590.57006835938
407,463.8755,-2111.993,-735.4326,-871.275,211.23946,65.06238,2721.78344726563
408,-514.1351,-787.01996,-129.23672,589.4767,73.92567,-48.477848,1180.48266601563
409,-39.797474,-652.93,-1160.5215,-130.34181,-186.34679,247.80745,1133.2119140625
410,-171.33849,-489.05728,1489.4176,1052.9347,72.24847,-14.951507,2594.0419921875
411,1264.6116,818.2587,577.6507,200.46703,-81.95389,76.457405,723.026123046875
412,661.2913,-160.73808,79.62728,-818.76355,244.7052,-92.68976,1659.05322265625
413,-536.3678,1162.46,-980.55164,15.95876,201.3685,-90.01582,1996.15319824219
414,-77.51684,-795.9441,506.8439,-1439.3331,-309.12753,12.731472,2789.20092773438
415,470.0861,-705.1494,-717.3446,-19.61346,-55.988495,-92.01189,1196.50170898438
416,-410.81366,-569.2171,-1178.2108,-514.218,175.95863,-47.14882,1176.96447753906
417,-190.63992,1427.0992,114.07644,-745.97687,-12.738434,-167.04614,1992.64270019531
418,780.8802,547.4592,-318.1428,-174.7741,-229.58014,-28.2017,1121.58239746094
419,2003.2014,-794.9287,2329.1956,-181.29207,736.5575,-27.243782,3252.13110351563
420,396.22314,-902.29004,-1085.7511,-1015.72144,-325.81436,-357.89575,2399.1298828125
421,-1326.8075,-2233.3835,-2357.0784,-1080.9159,-264.25192,7.2993927,2159.65356445313
422,143.23466,706.783,585.062,214.01056,-211.46233,-57.2341,738.366333007813
423,-610.0956,260.32413,-1174.4835,34.2125,-65.910675,-55.08754,1262.16748046875
424,342.2155,487.74036,741.1185,646.61536,81.2486,134.47784,1204.42602539063
425,-2297.2698,-1425.1475,-185.81644,584.5532,-509.14413,232.98239,2311.49731445313
426,-1455.5111,358.70386,289.1454,706.86646,-225.06151,-69.85721,2198.99951171875
427,747.07825,-1304.7361,-33.151524,256.7963,398.24933,-72.20283,1976.63696289063
428,216.69595,488.6077,604.29944,-325.00046,-50.16777,155.83388,718.371337890625
429,-0.4008244,465.79922,-339.27786,-649.49054,-241.6993,-39.815147,1391.29077148438
430,-1856.0328,-1639.9581,-2052.9905,-1012.7737,263.93024,86.932304,1853.86584472656
431,-69.23918,-1072.7007,-406.46625,-317.96796,-88.530556,-100.74403,1067.48986816406
432,-709.1889,1658.6763,-832.5304,-119.303795,-104.40511,28.969439,2447.85083007813
433,14.632643,747.5504,1427.6174,533.53754,257.77097,-210.09311,1638.24133300781
434,536.58014,-270.33765,-100.690346,360.49094,105.62403,-27.504436,984.177307128906
435,224.99167,-436.23425,122.46692,-201.29068,87.23922,105.39362,746.758544921875
436,-429.02353,1330.9014,-1162.4576,13.252711,133.48883,127.29118,2242.4638671875
437,-2128.132,-32.08972,-48.51936,140.74316,-95.876144,146.28333,2123.77612304688
438,-334.53622,-1193.0562,-274.4364,-207.5483,71.41711,31.633,969.431518554688
439,49.06437,716.9094,-648.57996,800.41986,358.73007,-72.07931,1929.328125
440,-884.59467,446.8836,325.97586,-489.41962,118.34714,437.406,1720.77075195313
441,-958.38464,-251.21265,210.19177,-549.00323,-481.7831,-11.388999,1624.87731933594
442,256.01517,578.76324,-892.5313,-379.3976,62.294796,-25.722065,1496.48620605469
443,1164.7393,-216.40752,-302.0884,295.28714,-63.860718,-108.60143,1530.50524902344
444,122.43598,715.44507,-340.13037,-363.86426,161.79767,115.288605,1164.2744140625
445,853.9858,-891.13477,-269.64505,-226.23433,83.46135,248.10031,1645.06091308594
446,428.44675,359.53278,363.70865,-837.2122,99.243385,95.69693,1471.14685058594
447,-552.4645,319.82114,-23.463821,-1119.132,-315.2992,-462.3324,2296.98681640625
448,272.3294,-2277.776,-2010.4045,-21.705652,13.874275,305.3201,2484.82421875
449,-825.2599,853.4917,1352.573,-502.47717,-155.5619,-31.571182,2176.73168945313
450,-1765.6396,-1244.4877,274.12857,237.8986,69.10587,58.63303,1887.76391601563
451,919.0639,873.5944,639.5655,9.837336,-48.241547,247.5174,508.473022460938
452,2072.527,-1372.1614,-71.7949,-532.28143,-7.6987576,-11.60823,3150.87719726563
453,-77.20825,-696.344,-38.588585,-828.4143,83.142426,-21.930391,1577.88562011719
454,84.824814,-1045.5653,150.52809,-880.1688,177.79916,254.22151,1992.28112792969
455,1631.9751,-588.47266,1757.9025,-548.93317,-345.15277,131.07086,2557.1025390625
456,-1598.1578,-1863.6731,-440.67642,-206.54517,-178.37025,-25.319675,1393.8955078125
457,-1606.8014,1403.458,527.6995,378.4079,-68.672195,200.58649,2785.10034179688
458,-1250.458,292.5223,-1007.8999,320.71243,358.33887,293.01215,1736.87023925781
459,-785.2253,-1118.7085,-5.0348644,-272.46902,-10.119228,-111.91071,1113.86083984375
460,6.3447595,447.68478,600.7678,212.53757,51.894966,125.33005,690.286804199219
461,-368.35065,-1350.2656,634.7705,-22.054817,-178.99635,-71.34707,1751.638671875
462,-2172.1855,-1467.5726,-676.14874,151.16609,-31.865488,252.7003,1394.14868164063
463,1384.5538,-671.93884,486.12912,-595.93463,-273.1473,-191.83337,2142.04760742188
464,65.74902,778.14417,-346.44482,-306.5374,-69.791405,132.76053,1149.10388183594
465,613.3284,292.6982,-514.93445,-204.2382,-213.63573,-359.57227,1289.94677734375
466,1000.1564,1789.9662,476.729,-1.7605412,66.45887,24.789185,1151.64538574219
467,215.35793,-1034.2632,23.715845,-291.44632,121.74837,-55.09598,1291.19995117188
468,172.64119,3.9131534,-268.3359,-515.4198,37.595924,-135.30804,1002.32861328125
469,202.08954,-1022.0763,1431.4011,773.40674,-152.8989,-289.0293,2574.85766601563
470,1148.3782,-560.0924,291.66034,-506.4175,-189.27757,-154.73341,1771.39526367188
471,315.85757,1326.9725,-68.28565,-982.5172,68.0033,-31.8571,2114.53784179688
472,-996.5242,-500.73956,-759.05725,-613.4275,97.000206,121.90728,1177.34936523438
473,-702.3268,-403.51553,105.68177,295.42175,38.969463,-267.17117,990.5771484375
474,-889.88385,-798.40515,-1042.1222,586.936,-294.97192,114.10338,1174.32409667969
475,-1136.6335,-206.85663,1068.0577,260.40952,-44.396175,-142.74463,1986.39318847656
476,609.8321,-510.06854,-500.4366,1067.7634,-457.26175,168.12277,2318.59887695313
477,-51.961826,-1113.4207,-183.03708,-12.993193,-90.30544,56.115326,1019.39349365234
478,343.85736,-12.829832,663.32324,271.5544,-111.98522,-83.78882,789.393920898438
479,-1604.2059,-1636.4545,301.01965,149.86935,-156.16042,-44.524952,1959.29931640625
480,41.154545,-7.120356,1124.5815,421.65988,-137.14102,7.4637475,1348.49108886719
481,1646.0775,3764.529,-455.63864,275.7349,-130.7801,189.93369,3707.43237304688
482,2188.9995,-492.48465,749.9541,914.6939,81.9058,-101.19096,2821.9267578125
483,620.39105,-1226.3439,-229.31226,-556.0174,9.415363,-135.5695,1883.11389160156
484,-610.5229,2772.4263,684.04913,822.4122,419.26575,-295.77734,3399.95288085938
485,1138.2205,-240.26743,594.0923,467.36118,96.35663,85.08066,1466.65588378906
486,-183.92926,1643.2491,-288.2993,-185.95023,-65.295105,3.485818,1912.25939941406
487,1076.4723,3438.2065,318.3971,830.9718,70.56083,-80.86907,3170.005859375
488,1567.9574,2226.8362,172.59454,-1662.5317,196.31442,-301.95294,3461.46118164063
489,1040.0712,-758.69794,1.2378305,260.85455,-82.73298,261.02823,1695.6416015625
490,-753.4756,-873.65735,-112.28594,-303.82544,74.626976,17.223663,892.835021972656
491,-1229.6733,-38.98725,148.2275,-551.8616,123.91534,-63.08165,1627.06896972656
492,324.6886,477.52625,226.74161,-830.13196,6.0610743,-234.75981,1510.20764160156
493,-1544.582,-664.28174,60.607304,-294.22983,-60.38416,-225.67862,1536.86608886719
494,120.16517,-418.41782,-1114.5682,-292.09692,-3.550675,70.55577,1191.875
495,-507.17752,-348.58267,-179.83849,512.98444,170.9107,73.382416,986.729064941406
496,-1833.1671,-912.8688,-511.81027,122.67955,-255.70355,51.434223,1275.1982421875
497,-2882.5198,-1842.94,-23.45541,434.6124,-35.44551,286.46396,2664.4638671875
498,-831.3903,411.3783,-655.3368,241.7116,55.160397,21.426834,1241.95556640625
499,1494.1146,-208.1448,322.18484,371.65118,227.9428,-261.77408,1746.99816894531
500,99.59953,-538.78644,-130.61136,-33.440624,-244.09416,260.3597,836.081665039063
501,431.28815,519.19495,-292.09418,614.0353,-225.44466,-244.75122,1434.53930664063
502,-1629.2925,-1706.2333,209.88083,185.6709,191.81561,2.049512,1934.89001464844
503,-2636.0527,-1286.6783,44.511356,1132.9182,-111.42881,182.79262,3062.21313476563
504,1148.216,2968.9353,-157.48851,134.88966,114.600914,-322.6492,2793.47412109375
505,7.4002104,237.83345,-214.48373,256.8544,-146.59677,-293.56384,821.215576171875
506,-484.47327,-37.19643,457.25543,603.997,-172.38063,203.41437,1404.78137207031
507,-1384.4128,-1872.631,463.33875,554.76404,-8.711965,-220.69923,2371.55859375
508,711.4634,918.92957,-126.35759,1131.9474,251.84047,-279.64273,2277.62841796875
509,304.56512,-577.23895,-554.93994,239.87808,-155.17694,389.4423,1207.58947753906
510,-1562.1608,-146.15681,-347.86636,887.06177,140.49637,174.64465,2066.7578125
511,190.17035,457.28598,380.70767,362.7605,-287.59387,58.975025,842.680297851563
512,-98.981804,18.62962,774.1127,85.45658,128.86693,39.915745,865.995849609375
513,-308.98367,-1006.9945,1864.4336,-1175.7953,-16.681616,293.29352,3336.82690429688
514,-1062.9724,3051.7087,239.52434,554.7326,-20.004192,217.71127,3786.06909179688
515,827.181,2429.6677,5.9325814,-22.130592,89.697296,-254.73503,2186.03002929688
516,-27.750593,-302.69675,-308.88693,-543.5035,38.432335,-20.828064,984.508178710938
517,-1741.5486,-158.18195,-46.872425,774.09814,132.7014,240.99216,2172.65454101563
518,-1356.1589,1751.1921,128.94185,-622.2659,125.90457,-30.572397,2908.337890625
519,-887.91644,1209.7656,22.635723,624.4472,41.316883,-94.65859,2126.29516601563
520,-727.85333,2384.1152,-229.52551,-709.9391,-176.99298,-104.71625,3165.56689453125
521,714.78534,-182.20763,-815.69745,485.3158,-202.99667,135.14705,1630.69091796875
522,-808.0292,-402.78583,-144.38206,1183.5687,-75.28255,-120.07279,2144.40454101563
523,518.175,-477.55597,-632.07275,432.853,-22.006378,140.78383,1338.73486328125
524,-1002.9489,-670.9081,-264.51898,931.901,122.0291,60.310192,1752.49670410156
525,919.337,-651.0239,954.6832,-329.29623,302.26257,19.492464,1767.29309082031
526,-862.20374,1320.0186,-291.0769,-279.51474,-94.5224,-214.92851,2059.54516601563
527,-792.73114,-438.43887,508.16437,-675.39667,-38.086056,166.53923,1677.19848632813
528,-198.38812,-1614.4596,-2486.8037,494.61612,-338.11337,-26.64622,2254.01245117188
529,496.5248,278.53107,-1500.1776,408.63626,76.22776,-124.0256,2040.49084472656
530,-1096.1143,994.57336,-575.9259,-631.26776,85.22377,123.58537,2194.79516601563
531,-2556.909,-2236.5564,506.60968,660.75653,144.11948,-26.621693,3143.34228515625
532,-1966.7616,-1485.058,261.39468,307.152,-115.93141,-294.29202,2169.46508789063
533,-996.40436,1387.1129,-55.130093,-496.19357,-110.25063,54.40204,2259.99487304688
534,253.53107,-682.7483,-399.1458,-308.95718,-13.559264,220.02084,1060.02880859375
535,1273.7302,-802.4393,630.8085,-175.27907,5.960469,-66.37006,1869.35900878906
536,-343.60004,316.2722,-524.0505,377.3515,195.73238,138.87491,1089.51489257813
537,-1181.9479,-1055.3861,-606.5526,804.8502,-168.19215,241.53963,1574.01281738281
538,-632.5586,-878.6391,190.07869,-109.21402,-4.7073393,-258.16833,1084.21630859375
539,-398.00055,-1421.5514,-352.29935,1537.3743,-23.53118,384.15598,2937.93627929688
540,-97.61359,1971.5432,-362.39658,-387.10617,168.52899,-287.88806,2383.86157226563
541,-1081.3903,1690.8064,-233.78857,395.22833,-73.70174,315.11963,2614.68896484375
542,-412.05856,5242.389,-364.07434,1199.0204,18.384804,-57.09092,6002.29150390625
543,-1183.926,3223.4888,160.55084,710.13525,-168.91573,215.93845,4128.6337890625
544,1956.4657,647.39935,2085.9563,1123.4912,384.02014,-106.606636,2482.56762695313
545,1638.6145,-547.5639,1217.3611,1205.5123,-134.98549,46.255894,2908.05053710938
546,795.3142,2310.415,490.48178,-1522.9606,28.012175,229.71767,3157.40356445313
547,-1548.495,522.59,-514.68005,1206.838,311.62534,-25.409761,2807.07836914063
548,-824.8588,-1103.163,-197.59473,1145.4932,31.632944,61.39917,2143.888671875
549,3166.5393,-2.7019086,-1115.9236,1020.1751,-150.10458,-181.197,4254.3837890625
550,-944.1772,179.61354,-264.82,-825.31586,292.5174,-144.82158,1823.19348144531
551,3484.2808,770.2159,-477.96158,232.95496,383.69888,23.97277,3594.15258789063
552,4686.326,-865.97046,-784.6401,-2097.9375,-44.540306,-48.656956,6603.0390625
553,3611.9392,-1718.3135,-1155.3914,-2426.5178,-72.12487,-132.37589,6592.42724609375
554,78.34188,-532.4797,670.23224,672.14185,-230.73439,-23.95016,1612.98986816406
555,1985.8395,695.19586,62.639454,-766.61957,96.16701,-105.02861,2169.388671875
556,2322.4456,702.2037,60.836178,-449.78842,241.24355,96.3481,2210.2216796875
557,-454.25204,-143.71175,-395.341,-1335.8827,-404.90347,-67.13692,2437.35961914063
558,-2207.7087,-3488.638,-20.973194,-795.36646,-2.8089912,-78.95633,3337.69311523438
559,479.59457,2750.0476,459.45972,-379.92712,-228.43164,-53.68644,2408.173828125
560,2318.729,-207.52036,1586.3833,-752.36395,224.92407,183.91449,2649.44897460938
561,2417.8638,26.358912,2487.6555,-608.30383,-50.98999,13.314965,2647.54711914063
562,1317.6934,1777.4208,64.153145,413.2688,-106.30594,69.53774,1708.73693847656
563,1626.6466,811.15295,138.36482,-335.89377,-33.051697,-14.705824,1417.29614257813
564,-1498.3531,-2827.011,52.736126,-796.21216,-55.1147,-211.44301,2877.00805664063
565,-2237.5781,-2541.7964,-131.01924,-336.7095,67.55752,196.59425,2375.02685546875
566,1694.5122,-256.31845,365.64102,-89.06998,275.87,-167.89984,1820.966796875
567,753.1174,-1098.4442,8.059251,169.43953,192.0701,-241.17102,1724.8662109375
568,1440.0764,2408.267,-440.935,505.61655,10.07928,-66.58526,2660.32397460938
569,747.92993,900.0523,148.76944,-85.20793,52.395573,-211.83322,798.697204589844
570,1576.0575,2404.3613,-326.0283,-1.3874316,-176.05794,-25.601116,2444.27563476563
571,1459.183,-1493.3727,-459.63885,554.86255,-49.49161,-23.404411,2768.87036132813
572,-278.43958,-1654.9987,-553.1638,-249.76996,-52.211918,271.0449,1417.01928710938
573,402.86996,-254.29979,-146.2896,482.77795,-95.77147,-18.072634,1048.94104003906
574,125.220695,2643.454,-754.85535,1727.5728,-94.275955,122.61922,4284.57275390625
575,1395.2102,1912.275,536.8021,1323.8844,127.685745,-349.70047,2668.68237304688
576,1002.69794,3134.2615,466.8133,-1401.6406,-77.28934,-436.92703,3529.50903320313
577,1709.4672,2511.9377,465.8219,-928.8095,-92.290855,-162.25818,2425.1181640625
578,638.6399,-457.80164,624.4364,773.17883,139.96577,-15.629813,1743.48303222656
579,203.09561,-144.48558,-171.01872,-435.685,48.539234,48.747696,845.222229003906
580,133.1815,341.04105,179.41518,-136.09578,-69.976006,-266.7233,565.166442871094
581,335.5643,-323.00943,-341.87442,-599.1785,3.1221275,207.86113,1285.76513671875
582,547.0279,-466.07434,615.61523,-239.29309,173.62799,171.85045,1204.73559570313
583,124.499466,1009.01556,391.89743,37.98547,100.70832,52.475296,812.630798339844
584,81.61637,827.2898,-698.75275,-160.64798,-664.57074,-234.84958,1820.64672851563
585,-463.5919,276.4347,-508.1992,187.88403,135.1935,-142.74608,896.9404296875
