Element Label,S11,S22,S33,S12,S13,S23,Mises
1,11056.604,9742.188,24389.922,-575.82837,-252.9483,-3130.4902,15086.9873046875
2,-1810.7179,-182.79126,-5839.7593,962.8205,1815.8776,2015.3336,7092.271484375
3,-6972.571,-3587.6743,-13260.777,-3907.3293,-3413.905,-1386.5287,12602.2734375
4,9245.924,1752.5391,6522.84,548.0297,6398.026,8677.791,19818.634765625
5,-2428.183,4563.6943,2635.7168,5000.396,-3525.936,-8344.823,18982.625
6,7893.2705,-686.7223,-3407.8335,368.17715,-2569.52,5904.608,15138.5263671875
7,18295.826,15236.681,32724.877,-4257.4795,215.64284,-2181.1455,18179.2890625
8,-15725.156,-5824.999,-12881.042,3428.3687,1562.1398,495.1972,11011.9287109375
9,13147.622,7901.149,9585.386,-2929.4683,-3107.39,-1184.2113,8969.162109375
10,-4322.0786,1471.9951,-15155.96,4047.6511,3716.0515,1156.0946,17558.58203125
11,-49457.113,-29974.457,-35927.31,-6649.6445,-6452.267,12828.853,32408.638671875
12,10858.572,22776.535,26754.975,3015.5542,4288.047,-885.579,17031.623046875
13,4530.493,7950.088,4028.9082,1624.7423,-3415.2715,1288.0756,7845.345703125
14,-19173.912,-5678.7764,-16350.818,1774.3248,11400.445,-1242.1267,23579.107421875
15,21431.076,6705.1377,10420.399,-6768.268,-6569.657,2275.5874,21410.048828125
16,-521.1113,6500.3135,-11142.047,1499.6323,-10443.132,9670.1875,29174.3046875
17,153496.11,152844.12,153332.14,639.00305,454.2793,-739.44586,1956.90795898438
18,2600.4844,4572.11,4692.0947,662.2623,-388.4206,265.41068,2473.45581054688
19,3115.9922,2796.497,2881.7024,305.8048,137.22762,-5693.79,9883.162109375
20,3369.9858,1333.9858,-27290.576,-1552.276,-245.79912,1400.3301,29917.94140625
21,1450.1144,1399.8179,2321.1738,678.1482,154.19826,763.2979,2000.98547363281
22,-3531.288,-4471.047,-4374.3228,442.84628,-146.86415,-784.1307,1816.37927246094
23,599.2666,2475.2817,1601.1288,-856.02435,-4780.152,2351.1772,9485.5498046875
24,20122.406,11559.669,31083.896,1205.2095,-4573.45,-2808.2588,19444.818359375
25,13284.89,14232.239,21515.81,-3204.7837,-2712.6199,-4881.292,13609.4033203125
26,30945.756,33053.867,35467.63,2179.044,-9517.809,-2597.6365,17933.564453125
27,7483.1187,8644.575,7694.819,1128.721,-4069.9731,3101.636,9139.169921875
28,-23348.08,-24337.547,-19828.57,3903.351,-19863.984,7082.318,37373.36328125
29,5651.816,-2836.586,29411.338,2166.0115,-7359.58,-4892.927,32964.15625
30,-400.32254,182.46078,12625.081,-1483.168,-5894.8174,-3980.3884,17910.5078125
31,4586.0566,16679.469,21881.68,-2952.5786,-9855.112,9188.34,28408.19921875
32,3918.3738,4153.528,5259.867,780.86755,-2169.8164,879.1697,4451.048828125
33,5714.7036,8488.155,12403.443,1334.827,-6848.418,-843.83875,13493.1220703125
34,7543.7163,9823.521,11786.03,1910.1959,-6821.9243,513.3226,12840.408203125
35,-5607.4263,7853.6406,35097.17,6829.9775,2930.9277,-898.3806,38187.37109375
36,-11293.203,-1217.6255,1845.1112,-2056.1746,-3583.543,-1468.878,14122.2578125
37,-9981.526,6641.712,-495.84372,-1024.71,-6504.5024,3679.8984,19476.349609375
38,2870.9475,3103.1987,5094.227,131.4554,-5022.7236,1314.3765,9241.1259765625
39,7091.0703,5116.997,-24653.23,4903.675,1219.8885,-8956.985,35583.9453125
40,-9490.312,2915.308,-15331.334,609.2882,-4735.537,2408.1497,18608.212890625
41,8726.537,17048.451,8513.387,1907.2526,-11492.881,-11195.858,29228.189453125
42,-40.4048,-1083.6354,18528.256,-686.2616,-1335.4984,2845.0432,19907.31640625
43,12261.692,5373.26,18109.158,1942.3953,-6723.9033,4140.593,17897.15234375
44,1860.5814,3341.5752,3334.7979,153.54117,465.02325,35.739628,1704.88940429688
45,25803.592,24809.6,25828.906,341.9952,113.415665,-841.65137,1878.41064453125
46,1601.7798,393.70123,8185.9316,4670.641,8115.5625,-5454.379,20125.783203125
47,11595.234,2413.443,11775.269,2134.7332,4588.2373,-1967.0774,13207.041015625
48,12189.259,1000.1022,16749.027,-1360.2567,-5625.256,-4144.204,18681.900390625
49,1074.1179,2283.0515,6058.0986,-39.188644,1863.1074,-7160.4224,13583.4208984375
50,-23130.041,-10712.485,934.06226,5521.2666,-7426.9546,-5823.8086,28162.7734375
51,14987.347,6111.97,35014.96,-4336.479,-13.495418,-5639.5215,28450.984375
52,8803.729,9303.801,8791.498,124.55053,161.03987,-5794.408,10055.1572265625
53,7402.9707,7004.2573,7570.376,1963.046,660.78186,-6815.507,12348.185546875
54,8670.519,9067.881,8536.755,-471.69244,125.57142,-4492.09,7840.9404296875
55,7886.999,11609.161,22457.469,8695.388,2617.0017,11189.438,28194.068359375
56,-4442.2334,-4954.826,-3832.6528,-69.9978,-3556.5107,-4476.5483,9951.1943359375
57,8256.096,8399.725,7357.164,655.701,-1247.2225,-4378.332,8026.43896484375
58,-3321.497,-3023.4128,-5133.431,-1304.5366,1036.5996,-7433.4937,13342.099609375
59,9574.987,7791.413,7114.9326,146.35295,1707.5369,-7709.4375,13855.0673828125
60,1915.1843,3179.6543,2379.0544,-566.4071,-298.7254,-429.8574,1735.51257324219
61,288455.97,288893.03,289717.22,122.6767,-558.7176,749.213,1973.86303710938
62,-12157632.0,-12156941.0,-12155597.0,506.2255,73.40389,45.856884,2000.94653320313
63,264559.53,265290.66,266152.9,158.93343,-587.65656,572.6357,2000.99133300781
64,180006.86,180947.38,181924.61,387.42877,-488.16928,163.32147,2000.97814941406
65,26084.484,37927.63,47678.152,7276.5723,11915.054,2668.2014,30934.1015625
66,5523.6484,4982.5005,5755.1484,419.00772,-531.75854,-847.967,2000.96398925781
67,3580.636,3990.6362,4098.862,1002.4798,50.267773,-648.40894,2123.19702148438
68,2727.793,2993.4758,2299.5151,3083.4048,1339.1295,-353.03073,5885.88525390625
69,-5097.049,18057.76,16034.889,-7436.344,1906.1268,2739.7134,26319.453125
70,-7733.156,-4742.566,-12237.63,-4953.269,2852.1465,-4196.3267,13911.9111328125
71,-778.61816,14186.205,28333.303,-5869.5107,-3775.9377,-2540.241,28306.89453125
72,9966.671,7143.2583,10481.326,-2327.2363,1935.1823,-3862.1934,9051.0830078125
73,5269.5396,-3904.0215,3882.0427,-4126.91,32.899323,908.28064,11266.029296875
74,2698.5188,6649.3613,24140.732,3624.9187,7091.501,-2036.0684,24359.5546875
75,-11767.076,-4709.6504,1242.7936,1543.4661,8485.701,-966.8743,18794.1640625
76,10366.502,6282.7197,8473.29,-1382.1162,5447.2944,1480.6033,10670.3515625
77,-10458.428,-777.8848,-18574.19,-3813.976,-5640.1157,4168.152,20720.421875
78,-2153.91,1404.4917,1736.5929,3545.0542,-2424.2024,2841.9583,9670.4150390625
79,-1848.508,-2571.5273,3311.194,-71.208374,-1250.0999,-6601.863,12897.0185546875
80,26230.459,25088.432,25084.809,1328.9763,7609.891,1707.1462,13750.68359375
81,-51914.81,-53069.668,-53416.598,441.4964,2234.6365,-575.2144,4291.02392578125
82,6137.3955,3574.3562,5683.2026,-4373.8667,-10292.592,1675.4026,19729.083984375
83,2686.1902,2357.8193,3784.5386,147.66055,777.7354,-386.88947,2000.98486328125
84,-9984.274,-6144.6553,-2291.3782,-49.46839,-6795.3716,8452.846,19931.78125
85,21466.596,16984.545,21632.912,2529.522,-906.06976,-4572.61,10258.9716796875
86,28132.994,15367.6045,24881.68,-6234.1094,-4180.7715,-3282.0312,18258.3125
87,18294.889,-7551.587,27082.107,-2511.7688,3931.1145,-10497.49,36989.91796875
88,16372.6875,22951.082,21051.318,9989.042,-301.59088,7783.3677,22710.025390625
89,5433.839,1087.01,24012.139,-8560.277,-8360.665,15202.1045,39593.61328125
90,43584.94,65636.555,49231.88,-5973.8794,-5450.093,4279.02,25391.7265625
91,3537.472,2232.605,10899.121,-2560.6213,6222.649,-10330.315,22836.005859375
92,-24852.023,-28514.297,-38606.594,9512.663,-3675.654,6281.6406,24137.2734375
93,184717.8,186040.86,186396.34,443.3163,-567.9944,179.66571,2000.36791992188
94,-629385.6,-628820.7,-628453.94,407.91544,-895.8183,199.63303,1920.17370605469
95,504095.84,504268.44,503373.25,-527.2116,904.8273,-111.49363,2000.98266601563
96,475154.9,475175.8,476598.16,637.35535,184.19977,445.68048,1992.38098144531
97,2090.4805,-1214.449,20468.424,-12899.325,-7899.9873,7033.7026,35273.71875
98,4671.517,5823.588,6760.4736,212.6267,-6144.511,-2796.364,11838.244140625
99,-150957.23,-179475.28,-179822.83,11851.771,-7030.5815,4144.8213,38006.98046875
100,94445.69,100887.8,101103.69,-4233.7427,-8560.036,504.30627,17812.84765625
101,-4106.552,-4357.2173,-5826.3296,228.35272,-896.67456,-5370.494,9575.203125
102,6594.7207,9605.713,20017.562,-4637.83,-258.15988,9735.212,22313.091796875
103,4723.1016,6030.563,20879.611,-1589.5974,-1976.4655,4629.7227,18033.8828125
104,6201.6987,5056.3657,6975.1895,-677.11304,-6027.4067,-7236.043,16439.017578125
105,5805.586,14322.983,32064.344,2188.394,-13065.847,-447.90613,32642.4609375
106,6964.7915,6870.2773,11657.841,-2974.359,-3445.9385,-429.55203,9230.095703125
107,8900.74,9360.933,9814.413,-315.96606,-2130.2896,-686.4475,3994.20141601563
108,1260.5295,-1432.2708,8388.518,-1914.6116,-3603.2163,-4134.663,13359.8896484375
109,13718.676,16416.527,15760.103,-295.6847,-3086.1406,-385.10168,5934.5048828125
110,3967.5283,-468.25922,8661.019,7217.34,549.8428,6372.172,18480.126953125
111,-19966.227,-29579.457,-17166.771,-18387.72,-9700.001,-1924.4353,37879.65625
112,226276.16,226326.97,225906.6,320.68893,868.8619,-651.33685,2000.98547363281
113,-35176.02,-27589.03,-19827.875,677.7627,-7883.1167,-14724.799,31858.2734375
114,5810.144,-4301.5654,2519.4575,-976.87854,-5537.0713,61.31415,13215.61328125
115,-6437.743,-6284.715,-8042.7183,-421.0536,4985.1274,-2114.6555,9557.54296875
116,7469.17,5649.1143,6521.0723,-3178.5957,-563.7792,-6005.9136,11914.8154296875
117,9090.554,11718.014,19736.701,3235.4893,-12791.712,-5200.616,26376.12109375
118,-35497.08,-30210.498,-26995.469,-833.66394,1782.1057,351.10187,8201.423828125
119,-31490.156,-31673.621,-31456.258,944.3889,-638.692,-145.07527,2000.89038085938
120,19653.78,10542.471,11528.855,-2964.2595,5514.114,-7451.287,18951.08203125
121,-4644.6543,20532.86,31689.408,2270.178,-678.68994,-1154.8739,32559.39453125
122,-1269.4606,-2468.4397,4275.227,-21.134562,-5950.169,-1802.2911,12441.4111328125
123,-3633.3076,-5165.259,2729.7075,-4211.0405,-6691.753,-1744.3951,15787.611328125
124,5498.549,12883.028,19099.414,-709.2787,-4858.624,-2614.4944,15228.703125
125,-13073.722,-19592.021,-16241.146,761.6111,4587.7114,483.33713,9872.0244140625
126,-2846.561,-4986.7734,-2501.657,-1934.6412,3898.0227,-7716.433,15520.306640625
127,13153.141,9616.993,29678.934,-5213.4272,-1384.8209,1571.7974,20946.314453125
128,15062.74,16564.334,16319.443,-2042.3828,5319.831,14412.059,26879.083984375
129,-906.44446,-18891.264,16293.974,3953.5193,-6085.8857,-6380.2764,34767.55859375
130,1316.7363,914.1329,20195.201,5979.6675,4823.9893,2726.517,23739.052734375
131,-5607.9297,-12187.913,1272.6489,2213.4333,4802.5806,11951.702,25462.41015625
132,-71545.0,-63074.055,-54321.316,12811.502,-8244.297,2166.5002,30543.435546875
133,17657.357,20871.66,26099.545,237.94073,-286.82654,-6673.75,13729.5302734375
134,10223.062,9935.457,10061.305,351.49887,123.88395,-960.2137,1801.41235351563
135,7022.898,3865.125,6216.112,394.3871,984.8691,406.32974,3456.388671875
136,-2450.3904,-2423.84,-2183.5686,-326.21692,17.365196,-787.83453,1499.0068359375
137,3083.6477,-641.1318,9911.597,135.42908,4249.968,-3318.528,13160.8154296875
138,2317.8286,3049.2842,8004.9756,-2299.7615,503.88135,-1411.2826,7163.96044921875
139,18275.107,14456.974,17313.822,-6241.3604,3361.4072,-5014.9575,15428.6171875
140,-1286.5922,2540.1423,4245.159,-225.26898,2622.3623,-1422.587,7136.4892578125
141,729.19714,359.30228,25064.184,-562.19635,933.74585,5114.9697,26141.58203125
142,11660.805,14460.46,33380.32,-3942.7747,6682.823,-3735.646,25322.919921875
143,6054.6377,-3343.4932,-2388.9402,1448.1659,2031.9453,-608.27826,10002.6484375
144,15703.299,16737.23,16970.766,625.1398,666.5031,-211.22388,2000.98413085938
145,19700.125,21701.242,21107.484,-430.0524,-276.10165,131.00888,2000.96496582031
146,155162.1,155193.45,152841.69,302.10522,-279.93484,-1127.3846,3127.28588867188
147,57699.266,58055.496,58131.29,-586.5504,-531.59436,805.06335,1995.97790527344
148,84969.85,86299.555,85697.734,669.4254,56.44945,663.2297,2000.90661621094
149,3911.6538,94.3488,18794.176,1007.92126,4893.736,-7225.6133,22899.6640625
150,-2433.331,2437.9863,28156.83,7336.795,3447.052,11051.601,37067.765625
151,5005.362,4881.2905,4944.176,-749.12006,-160.30319,-862.5083,2000.98510742188
152,-3007.4802,-11914.102,-11884.397,1689.7213,3655.8403,-14570.945,27652.53125
153,7172.3174,3760.692,10190.822,-9014.312,-12116.962,-10899.56,32736.609375
154,3336.8958,4500.629,6903.5786,-1566.0233,-8034.088,4355.571,16365.6591796875
155,9130.888,10473.877,12696.021,783.5834,-4692.127,-3022.8884,10248.3955078125
156,-7793.569,-6175.9634,-5393.414,-1536.7573,-1460.1729,543.77655,4343.1728515625
157,1946.8313,2714.5317,4716.8965,1009.4392,-5425.9644,-1324.4603,10137.98828125
158,3628.7463,3101.8203,6862.1387,1012.53845,-5841.884,-97.040344,10859.236328125
159,14156.369,9980.506,38639.11,2219.8647,-4556.558,6734.127,30531.859375
160,-3829.275,-5263.386,-4269.443,-56.741905,-1904.1122,210.92345,3555.16918945313
161,-4374.9126,2394.9512,9992.658,1625.4601,-1500.3182,4869.4463,15517.9052734375
162,7914.3564,33083.02,10078.197,548.38727,579.3258,2521.85,24590.060546875
163,-11838.627,-18041.254,13309.346,3799.6187,657.81696,-10061.537,34281.0390625
164,1029.2216,10737.488,5321.948,-2341.5178,-11476.337,9808.085,27769.869140625
165,8572.547,7583.658,18518.94,-1031.2699,5642.648,11173.903,24145.845703125
166,4090.6487,9708.962,9700.57,731.4388,5791.852,-10332.632,21308.447265625
167,-12176.182,-9454.801,-9625.155,243.64116,1151.0903,-5555.6772,10184.35546875
168,-10472.892,-7705.223,-4184.8154,1037.891,-1128.2877,-20888.395,36685.453125
169,-1860.8359,4548.248,21537.871,-888.34314,12726.2,9442.607,34559.16796875
170,5275.8057,-2885.4253,7798.5176,4019.592,821.1012,15181.074,28904.103515625
171,4290.839,1289.9669,5815.3394,839.1944,1343.2958,16286.209,28620.83203125
172,535.4746,-20196.152,619.9729,-5624.7373,-1754.0627,-7551.515,26585.30859375
173,2902.9185,2351.1094,9371.402,-2505.3965,2816.2664,-4887.6353,12649.39453125
174,5444.526,4432.9272,7576.5996,-2635.972,164.11037,-5194.8896,10469.591796875
175,10049.861,15524.331,45940.027,3173.7466,-5664.539,8792.598,38470.80078125
176,12231.13,-3597.026,24117.656,-7101.2075,-6795.368,3020.239,29952.29296875
177,21865.092,1467.5496,40016.797,-4155.548,5670.9414,8011.998,38166.15234375
178,2249.8813,-10036.863,-24137.283,-4226.3906,3732.4304,-11339.321,31688.404296875
179,11716.875,13744.005,13460.388,48.41921,356.82175,7.69146,2000.98510742188
180,11302.154,9807.653,11490.722,-296.45676,178.70435,-1959.7488,3798.9755859375
181,11368.181,4373.356,19299.102,-2632.3574,403.14328,-13586.284,27245.904296875
182,20088.826,5668.945,4244.332,-7807.5312,5995.6953,-2155.513,23133.5625
183,3699.886,5574.438,36573.2,5376.9253,-2925.0063,-9219.169,37281.7109375
184,288568.75,288539.94,287412.88,35.331482,716.17474,-621.2675,2000.98901367188
185,-21569.676,-5728.076,-34882.332,-4080.9148,34.423203,-8654.947,30228.568359375
186,2233.9626,14356.741,21033.184,1451.3049,-5163.0234,2544.0022,19446.8203125
187,9836.948,10471.22,10018.083,168.28287,-293.5829,-1055.1763,2000.9853515625
188,2968.7434,7353.0854,-5442.6885,-1620.0837,-291.19138,-7186.579,17027.107421875
189,-4916408.5,-4915572.5,-4916460.0,-186.41853,-913.80225,292.45,1900.14282226563
190,21236.902,21311.557,22192.379,285.92093,-933.9874,208.36057,1959.50769042969
191,423.86172,6363.5376,5239.846,-5848.458,1903.908,-6899.281,16916.154296875
192,3273.431,2264.7505,3157.2754,3154.9875,-13566.203,6645.9985,26747.1328125
193,-36820.836,-43324.062,-48672.26,4603.0645,4979.584,13683.083,28377.974609375
194,10040.177,-7553.071,7334.8706,-5407.037,-16633.217,-3323.8584,34929.78515625
195,6842.854,9329.156,13928.412,-4184.407,3468.275,-15938.413,29824.2109375
196,17175.336,28307.996,52368.426,2551.2131,2071.1848,-3860.7927,32369.888671875
197,1844.0547,-27445.793,-29285.883,6489.2847,-284.7252,-3271.8486,32769.91796875
198,-2192.7922,7398.96,14922.39,-6565.2227,743.9151,3043.8445,19481.484375
199,-11425.176,-3761.7705,21830.35,1811.1514,-1839.2405,-637.4331,30512.544921875
200,-11686.609,-6471.936,-15031.343,-8317.649,-2191.261,1604.9908,16896.876953125
201,-6166.627,25099.008,13196.468,2584.1562,-2376.503,14206.662,37276.4609375
202,-6271.002,-15402.138,-24682.785,-6765.909,-11378.392,-6589.427,30170.32421875
203,-3521.2053,-685.77216,7549.2144,-9635.768,839.1069,-4287.1606,20856.654296875
204,31944.627,4552.176,6641.9883,-7230.3096,-10362.78,1956.0387,34466.515625
205,-5986.3423,11472.099,22054.332,12028.202,3550.2305,1158.6595,32823.81640625
206,-8543.848,-1509.1151,-23609.156,5278.662,-8427.405,795.9738,26095.755859375
207,-2508.6719,1702.0576,29166.38,-6129.418,-610.2552,4548.4707,32612.2109375
208,4842.3774,5288.399,28226.18,1621.6042,2168.3987,522.064,23651.294921875
209,-22429.25,-7308.43,-37801.74,2479.9329,-11641.703,-568.2465,33517.21875
210,106.47913,18624.545,1215.909,17216.846,3033.1895,2829.3525,35559.5390625
211,6308.7666,20849.576,32863.1,-4072.2764,-8215.227,4255.653,28930.919921875
212,-3029.8037,8866.643,7838.239,-14334.607,6541.77,-1562.268,29706.8671875
213,18703.506,21378.21,32068.746,-195.0686,-1139.8657,4306.1636,14480.220703125
214,-5551.018,-13985.409,-8497.612,-1635.0846,-2735.4167,-3230.542,10804.900390625
215,-600.5501,106.38241,-6108.1772,-12691.963,-5300.002,3777.234,25397.982421875
216,14964.618,20599.873,12288.197,-1582.1166,-3395.6292,1209.9989,10024.6748046875
217,7350.4756,8351.771,6908.7,208.31282,404.6231,744.5999,1981.0947265625
218,9879.733,5832.08,20059.295,2468.1462,11492.596,9633.279,29225.41796875
219,23194.172,-1430.093,8241.034,2168.4263,-770.69916,1018.56244,21925.8125
220,5813.0083,-7732.6704,12428.444,1429.5466,-10131.857,5038.409,26591.55859375
221,12138.562,5602.3154,20701.357,-2728.0854,12633.757,7342.8745,28895.1328125
222,22431.873,23015.688,30420.838,4622.544,6954.9756,3076.1936,17236.822265625
223,2244.1343,-11570.996,7329.11,3401.0518,-6401.279,9151.921,26379.30859375
224,4484.3467,-9897.687,-10186.101,2702.322,7616.3237,5697.4863,22458.6484375
225,-10974.445,5485.772,6341.91,10046.182,6675.636,-362.39514,26881.734375
226,-61023.76,-49092.914,-34724.902,3004.6863,914.1226,8161.936,27379.7421875
227,45723.977,51066.867,37929.14,-4802.692,-410.95798,8062.698,19891.66796875
228,149514.03,145703.23,116018.93,-9427.141,3752.1733,-6734.8584,38127.75
229,165635.19,166774.45,163077.9,2608.4934,-2592.1343,3910.9854,9859.4443359375
230,-405912.1,-404976.94,-405012.0,426.62695,486.01306,-796.63245,2000.37121582031
231,7462.0464,6526.28,5606.941,96.11222,413.1352,-540.62946,1999.43115234375
232,319686.78,319119.4,320823.12,-426.76352,-353.60315,-524.27515,2001.0009765625
233,187664.89,188286.86,186819.17,-562.54987,-525.9899,184.06677,1873.26477050781
234,118104.555,118647.766,117482.914,-765.07776,-298.495,565.4602,2000.44055175781
235,9647.568,-10381.262,-2793.4019,5733.327,2765.003,-6245.835,23352.384765625
236,115277.0,112284.664,115947.375,539.1159,-297.18704,-1642.6586,4543.2744140625
237,78051.445,89741.29,73716.055,6131.886,8694.632,-2450.9958,23743.21484375
238,178876.53,154895.52,165723.94,5619.663,2156.6997,175.4062,23269.197265625
239,332435.6,312004.88,313096.97,9897.234,8003.786,-4160.9927,30566.056640625
240,-67700.98,-60809.156,-43161.96,11156.771,-2755.7393,-7055.232,32032.38671875
241,8578.874,-18666.482,-9446.503,-1263.4478,12377.497,1818.6793,32410.4140625
242,19865.678,4741.0464,26377.629,15865.103,3783.2144,3076.501,34584.50390625
243,8841.673,-25246.867,10040.338,-11317.814,1458.956,688.34064,39955.125
244,19737.486,-17178.287,4217.664,-1671.9641,9305.447,5575.4536,37311.26171875
245,14870.453,-21103.96,-3769.5806,3615.8274,5375.569,600.2098,33136.6640625
246,1359.9277,-40861.043,-16001.065,4499.4697,-2836.1487,-1775.9767,38017.703125
247,3237.2664,-2165.7083,8681.698,9260.617,12297.942,-6395.9185,30363.9375
248,8824.009,-8745.892,5364.6787,14612.241,1556.1226,1872.9225,30302.296875
249,-6286.5503,3842.514,8659.176,2284.7688,1024.5583,3968.5637,15512.724609375
250,16796.635,32664.25,35111.996,-9413.893,5003.2905,-17044.713,38847.6796875
251,4409.342,-18167.678,-26698.31,-8957.752,8436.946,-3491.4238,35579.91015625
252,19984.002,4465.7803,28793.525,-4019.4243,6070.7817,-11397.809,31684.25
253,-56736.25,-66487.31,-47047.613,-17010.186,-6537.0303,-1121.0421,35825.0625
254,195845.88,200843.1,175220.17,625.41077,-5791.2656,11810.366,32767.466796875
255,466.2218,392.99826,-10557.498,9713.408,-861.0773,-12597.565,29700.029296875
256,-15287.988,25677.367,12882.874,6957.6567,-5492.796,-4285.937,40107.05078125
257,-5463.0806,3397.1338,740.9881,4882.836,4551.9736,525.3895,14019.28125
258,1557.4823,-69.32222,-3360.6401,6994.774,9713.302,1902.9006,21436.46484375
259,17790.055,767.03656,15874.387,-1107.7023,1536.706,9261.034,22998.00390625
260,20265.72,15409.113,13363.554,-2536.1357,1410.0109,-11476.144,21402.6015625
261,14091.904,9568.1,-16200.273,782.7303,-3713.636,-1752.3608,29214.181640625
262,32067.936,24053.762,27776.596,4504.1406,17275.31,-4228.6675,32527.939453125
263,-282.7041,14079.98,-21124.36,4851.635,3277.8425,-2044.7919,32486.83984375
264,8200.857,-5001.4546,8436.636,1444.0686,-298.51038,-20654.824,38260.3984375
265,16677.148,13130.645,37766.54,5965.835,3313.6194,-9077.53,30315.873046875
266,6206.347,-11873.998,25561.53,-2126.6443,750.5466,-3935.8594,33364.66796875
267,-5292.992,3519.855,-24276.602,602.9556,10760.025,-1178.5822,30950.53515625
268,21265.182,2620.878,30810.428,5101.959,-11101.077,-1547.9607,32736.31640625
269,-10763.051,2512.6191,-27698.387,-8721.069,4904.0283,2286.191,31684.01171875
270,13897.0,6729.2627,27555.545,188.34523,19266.549,-3462.7292,38542.32421875
271,11933.56,687.34314,20340.738,-6497.625,-16609.48,-2906.348,35655.70703125
272,41842.664,41916.594,54802.31,-269.6189,17775.062,-7515.1636,35840.0546875
273,5189.8955,-8951.702,-4021.7373,17607.504,7538.625,-7448.362,37703.73046875
274,5255.0596,-8490.612,25553.586,7063.6226,7181.773,-8572.455,37481.58984375
275,13476.609,22688.576,7472.127,-3489.2217,5156.8315,4628.005,18888.759765625
276,10733.645,-1570.1022,6971.168,6711.833,7338.283,5839.2056,22764.712890625
277,-6429.749,-16416.258,-30823.453,-6174.3687,-12129.295,1340.8622,31816.611328125
278,-6454.37,9819.569,-2019.2448,179.2146,4413.7773,797.18494,16516.103515625
279,-12555.853,-9357.5625,-13996.239,2520.201,597.7443,2887.393,7877.04248046875
280,1284.3328,4787.705,-13997.123,6642.5938,523.7965,175.35884,20799.53515625
281,59547.53,59264.496,57986.49,-280.01303,-431.2236,-615.2589,2000.96179199219
282,56082.09,59445.914,56309.47,-1638.2372,913.8272,1571.4347,5344.81787109375
283,111023.04,105356.75,106683.97,18128.385,-758.1798,-2421.1653,32118.12109375
284,-14492.901,-18485.928,-18592.85,-10803.979,4176.435,5210.033,22367.87109375
285,-2761.4023,9820.314,39904.33,1082.0049,1048.397,-4040.9827,38699.5390625
286,-155608.72,-140779.56,-169340.31,-4240.7163,1775.8829,6837.7573,28561.609375
287,-1052.8159,-968.5913,12073.971,3937.5918,-524.11633,1287.0402,14950.6328125
288,-37708.934,-23207.354,-24061.797,-7431.4727,-16545.367,-4772.4565,35410.33984375
289,15894.042,13910.361,21409.504,4685.3184,10152.219,-2932.2322,21122.25
290,1649.0376,4589.6636,23859.77,-2140.2048,-7815.695,10159.373,30712.95703125
291,6651.13,-6799.2197,4060.505,-515.09485,-17126.459,4280.1724,32992.1328125
292,-32676.59,-10410.875,-34296.28,-1785.1412,-3192.3945,7394.8916,27177.869140625
293,1006.7217,2524.8376,-11518.592,9147.191,-9302.464,-5373.9106,27847.09375
294,-8368.9795,17410.98,5127.1797,6187.0513,3009.9795,1276.4673,25411.19921875
295,-15710.986,-40285.375,2532.8752,-3894.466,1099.3375,-3427.604,38333.3046875
296,19075.03,-16953.182,-13910.744,8857.727,-1146.6654,3193.7515,38309.234375
297,9.902003,-1617.7084,20506.766,13499.445,-1097.8295,-8802.138,35197.80078125
298,1545.2671,22102.592,864.583,18192.564,252.21986,-1960.9192,37969.65625
299,11856.404,11358.575,11671.174,890.82355,-208.13522,659.12836,2000.98522949219
300,13053.13,8003.551,13483.609,1722.8484,1259.2705,12790.534,23071.8984375
301,26916.29,6421.316,27687.055,589.1139,-6758.1772,11022.54,30642.84765625
302,4042.2004,9276.141,12640.361,6825.7026,1952.5222,6928.983,18749.94140625
303,30715.69,-46.24177,18569.969,-10878.269,-3730.9182,3856.5493,34081.92578125
304,30451.613,6658.4707,35010.7,-2251.0771,-7404.381,1178.0693,29651.544921875
305,13646.088,1119.2444,15791.759,-810.8763,-4867.245,9919.684,23593.375
306,4906.032,-11286.749,22848.518,-7838.2505,-7253.936,-8045.968,37564.12890625
307,-381.75735,5110.761,-12549.0205,-6656.129,-1929.7078,-10304.584,26602.17578125
308,-220721.94,-205865.48,-216892.05,-3337.6372,-4006.5825,1982.7723,16488.037109375
309,12504.731,27736.168,42419.344,439.534,-12105.313,2710.596,33667.12890625
310,-10175.565,-4159.4795,7177.566,-2860.4258,5541.406,4125.5654,20016.369140625
311,11173.759,1128.8462,12434.333,6459.4106,2838.1682,-2985.2874,17065.31640625
312,-8649.589,-9239.027,-13895.545,1208.0276,-12430.756,-2601.6665,22650.17578125
313,-17400.283,-2204.821,16618.912,7110.576,7225.81,-4139.4717,35085.5234375
314,-5742.8203,12022.197,-7342.8906,3725.6328,-3214.4075,-10910.402,27862.703125
315,-8848.449,-23223.555,-9750.464,-6162.8633,2049.3376,-14504.521,30857.3515625
316,7861.0386,11733.843,27693.75,12773.663,9326.946,3357.233,33403.8203125
317,6241.929,14484.477,16769.887,-3333.2957,-18541.658,6855.563,36023.71875
318,-6918.248,20712.486,9851.239,1541.7479,3720.9875,-1923.5895,25319.73046875
319,14641.718,3431.005,22600.924,5614.2046,-5437.0854,-295.36044,21488.6640625
320,30432.545,22598.977,42563.773,3652.7476,-7841.2812,-2683.8381,23444.744140625
321,35791.332,39126.906,35842.992,-825.3476,-5549.748,-5849.4478,14423.8427734375
322,3327.8674,4371.763,9125.449,-4145.676,2448.1377,5945.023,14290.5390625
323,-5744.9614,2564.9412,1277.524,-2057.8716,-8240.196,3753.0195,17851.5
324,-12244.606,-15571.993,-983.2344,7219.9287,2681.682,2491.4053,19285.708984375
325,25707.764,23178.227,23321.238,282.2378,-2813.4802,10419.603,18861.2734375
326,18371.076,7302.7935,34150.992,2952.318,6359.494,1624.0504,26486.9765625
327,186681.4,186849.61,188339.92,137.74385,511.20245,470.09967,2000.97082519531
328,207866.53,180193.44,210378.67,9799.295,1361.7574,-7189.9375,35921.5390625
329,5871.903,12693.367,44837.52,-7812.1445,-1451.9486,-3135.1436,38960.875
330,245939.72,276957.62,274586.97,-10617.439,-5792.5474,-192.97505,36512.46875
331,-5387.8154,-25985.518,-13188.603,13948.125,2417.491,-5082.778,31672.173828125
332,14050.1,-11070.515,8060.169,18547.08,344.2574,475.35825,39363.3046875
333,2260.7217,12041.3955,27357.957,5560.8726,17877.594,4217.5005,39812.33203125
334,149555.89,142937.19,127954.03,-834.6809,-5909.326,-13155.67,31520.41796875
335,15502.797,-7422.0596,13262.672,-3282.673,9104.128,3638.1692,28282.5859375
336,8738.462,-2173.3289,-2468.6013,2892.6174,3217.63,-9270.034,20888.70703125
337,11383.278,-9861.211,1907.8593,-6976.861,-5399.965,-814.5743,23985.634765625
338,8171.2686,12488.067,27494.633,-1715.0415,-980.165,-8027.3574,22663.48828125
339,-7758.3315,-13271.122,-16346.967,4807.6177,-1342.3439,8950.796,19284.802734375
340,18016.596,39132.43,30879.781,8994.798,1962.2047,486.66452,24386.54296875
341,224382.08,228555.97,203640.77,-4537.008,-7731.9434,583.0485,27862.47265625
342,56877.977,57252.203,58487.715,122.98123,67.62137,778.0252,2000.98889160156
343,59846.906,58945.57,57855.81,-527.12335,52.34054,-194.58655,1984.3427734375
344,522080.0,520959.25,520016.78,-265.16907,-403.58884,-177.34892,1998.63781738281
345,-7339.468,-1574.7423,-17864.645,-5674.83,-499.7703,400.27023,17393.30859375
346,212487.84,204577.98,186084.16,14526.612,6979.4683,-3413.1562,36946.265625
347,2876.0913,2868.0566,-4575.252,-4714.8755,-2000.3329,4339.4746,13807.60546875
348,90239.28,92006.69,91803.914,73.66011,525.5525,337.71503,1998.3759765625
349,-558339.6,-559173.75,-558385.2,386.90332,-793.2931,-553.0505,1978.498046875
350,-8334.484,1291.9092,-25702.916,-4635.1465,-13363.352,-4946.019,35144.0703125
351,-5210.2666,-7676.7324,-3247.888,1673.7495,-8030.5635,5150.027,17210.955078125
352,55215.02,55797.324,56619.895,126.54987,-434.8614,794.5296,2000.96911621094
353,39319.285,53675.51,42442.3,12711.805,6778.7207,-9823.272,32910.984375
354,17558.672,17452.305,17174.47,-1016.79144,-138.15764,492.2826,2000.98522949219
355,171475.95,170558.27,169626.8,-165.9221,633.66547,-137.66077,1977.02282714844
356,2223.7297,-308.64746,592.506,2667.3535,388.7418,-2603.313,6860.92919921875
357,793.0502,2546.8044,-2397.7778,-2057.4695,-1145.9482,-1307.3431,6373.345703125
358,3799.232,-3418.4966,906.28754,-192.08574,-1690.0596,3490.0217,9208.94140625
359,70.33412,-601.3658,304.0855,686.289,343.4247,-217.9034,1603.76940917969
360,-1243.6088,374.53256,-74.26076,-619.80164,-3316.1555,-1214.9615,6376.919921875
361,-769.8943,6407.312,-11098.673,-1859.392,1383.5989,8839.954,21974.466796875
362,295.66626,3385.178,4871.7397,949.0342,843.5477,-83.675575,4604.93408203125
363,-11363.818,-6928.058,-15345.173,-4077.9958,5969.756,10062.594,22666.251953125
364,14589.685,369.14355,9782.966,-2529.244,-3555.8674,-437.8575,14651.728515625
365,-7041.2256,-9764.293,-3279.9885,-656.4826,-1130.137,-68.564,6078.05419921875
366,9665.123,4682.849,18571.48,1252.2593,2531.2356,-242.72139,13138.6005859375
367,-4575.351,-4770.4556,-8911.124,2124.178,506.70584,1488.4365,6240.51611328125
368,979.6611,151.44983,1845.8953,-389.4666,283.5262,-296.8568,1764.73974609375
369,76.582886,1129.3497,2230.1143,63.96242,212.84157,27.293446,1905.06213378906
370,-1720.8694,-1306.2479,-534.6924,65.4394,-97.59372,-147.3918,1092.56848144531
371,-2071.225,-1015.4764,-1019.62555,-44.269638,-10.846326,270.95633,1156.16882324219
372,-4298.069,-62.07715,-6314.915,-1681.5585,3219.6406,-966.8879,8540.5166015625
373,-7517.672,2940.961,-2046.5125,2795.6436,-94.90406,-1110.1957,10453.0966796875
374,2274.8665,3277.7444,3390.258,723.9275,367.4178,180.95778,1790.72570800781
375,1438.4622,1446.7794,-240.11072,17.885433,-442.93317,235.84901,1894.21240234375
376,-940.23926,-23833.365,-863.5625,2445.9717,2040.9688,-2189.771,23889.05078125
377,-34884.36,-4929.6914,-41404.402,4513.9995,-1075.1134,359.1419,34642.19921875
378,-42397.8,-14517.639,-58085.08,-403.3506,-277.8058,-2351.6882,38445.66015625
379,118096.26,132398.3,108336.016,-13647.709,1923.7656,-4647.0405,32773.0
380,-56297.18,-84680.1,-50382.383,12300.846,-3522.8572,-2254.6873,38921.3203125
381,31624.05,8068.6924,27006.643,-11747.33,5080.7974,3075.0776,31420.0859375
382,-1702.0986,-2875.7393,-1156.2465,-326.36154,400.34064,-67.38978,1769.18029785156
383,-39069.047,-23038.426,-1636.1016,-10663.849,-2413.934,-2814.746,37954.38671875
384,27266.996,6269.907,26125.395,3625.1904,-3872.3054,-4211.942,23576.30859375
385,23613.47,11615.827,11571.308,3205.582,-925.15497,1243.1205,13509.6484375
386,7566.032,29187.418,14468.441,8038.194,5527.268,-10542.949,31382.14453125
387,-1609.1334,-2452.3838,-704.48755,-1003.4814,-147.63853,-36.09587,2320.02661132813
388,-7374.2427,-21638.502,-8032.0713,-1982.8766,4971.6357,1482.0946,16942.701171875
389,1982.9591,4444.147,3521.197,-1726.2485,-697.4244,2404.2244,5690.1337890625
390,-425.8484,-7876.3174,134.53442,1789.4618,2196.0098,39.095905,9169.357421875
391,14266.014,49922.773,40690.676,-1315.761,-1840.1056,-373.46457,32298.91015625
392,1788.9902,-27974.275,-5780.0127,2878.6997,-3190.9763,-5905.4453,29629.27734375
393,-5781.1836,-9947.065,16443.852,15756.338,-921.9582,9152.375,40031.5859375
394,60325.8,57086.445,37838.246,-17106.24,-567.0726,5951.4736,37794.625
395,11598.802,13818.16,10182.959,2823.0464,390.4967,-839.8222,6046.037109375
396,11376.267,13114.458,29618.414,-5699.8125,-2781.6323,-2905.937,21215.521484375
397,50689.6,21525.113,61256.96,8521.069,-1481.0021,-2807.2793,38967.6328125
398,-3271.9343,149.04028,-4535.1523,-1173.8921,1508.0845,403.53552,5391.26806640625
399,-4561.918,-2810.818,-6473.9453,429.4514,495.28192,84.78593,3373.5908203125
400,1521.4531,7004.915,9241.431,-574.7397,-1176.2426,240.49414,7255.98583984375
401,-5053.1807,-4250.36,-9011.013,-435.77454,2412.6196,-447.51147,6174.0654296875
402,16348.328,40922.668,51275.64,4522.144,3494.3054,-8278.452,35624.12109375
403,-2965.0505,-763.49756,-5626.254,-1414.1262,220.72998,-1698.6167,5708.67236328125
404,2517.6553,-3503.8062,14164.658,-1539.2886,-9730.151,-5032.903,24681.34375
405,-2122.232,-2538.0413,-4231.462,576.48,1924.3615,722.97485,4173.640625
406,-14444.181,-10327.275,-7135.6113,-5686.1133,-321.31064,3654.4487,13328.3818359375
407,23265.814,47.39453,39259.047,-710.70844,6211.8145,4722.838,36747.8828125
408,-3026.502,-10651.251,-12924.829,-2006.9664,1689.9493,2323.4294,10839.1845703125
409,-22220.602,-42392.65,-23705.15,1794.4657,488.68857,4438.6226,21181.35546875
410,903.67773,-7651.0464,-5449.4214,134.6839,2162.8113,2552.683,9634.9580078125
411,-4405.676,-4538.015,-4971.7944,-589.4439,411.7466,15.595031,1347.12731933594
412,-7686.5527,-8193.563,-10657.735,598.4634,-843.055,-2603.468,5578.4765625
413,-158801.16,-182836.44,-169269.11,-10093.285,651.307,-9785.494,32091.060546875
414,3629.5317,-1115.9512,815.02844,-1936.4453,-1872.7399,-111.962296,6236.45654296875
415,15934.019,3896.4272,338.61523,3400.4888,7045.1045,-6506.5864,22605.01171875
416,4338.9087,4528.4517,5573.3223,1486.471,-1638.4482,-14.78807,4001.08862304688
417,6497.25,15091.336,4522.2627,-2938.5654,3380.011,2255.9253,13045.2529296875
418,9534.009,10116.087,552.30176,-1492.0096,833.0993,4418.854,12392.6259765625
419,-4974.67,-9666.161,-18113.15,-478.03702,5420.9062,-1736.4363,15194.7548828125
420,5060.768,4326.4995,-1932.8257,5580.229,-2394.5637,759.62256,12516.5517578125
421,4351.6606,5478.2856,4717.708,429.544,-1608.8672,-65.630875,3053.30712890625
422,399.31,14939.237,-15711.281,-6688.441,13350.13,-7593.518,39332.8828125
423,-12607.034,-6190.6606,-9100.813,-2380.8296,1061.0375,-4513.496,10604.8857421875
424,13542.967,7025.7285,8170.882,-3339.6614,320.32837,6804.5884,14456.7509765625
425,-5336.6826,-4348.969,-20734.441,-1954.0437,3241.815,-55.881573,17212.421875
426,26949.355,-2285.5078,27251.785,-12605.107,-5777.7935,-7528.0947,40130.30859375
427,5455.0684,-3645.4321,-15023.224,4699.3823,-1978.428,-6740.05,23023.830078125
428,4967.724,788.4231,7014.6533,-3309.1929,-132.00275,577.4188,8007.24609375
429,-1473.2861,2450.7217,-8193.91,361.6684,1182.8007,-364.87756,9587.767578125
430,-3601.2578,-5823.1914,-3871.641,565.5153,1423.9059,-625.2671,3553.04736328125
431,-916.28455,481.11502,-977.4659,-174.37144,227.36606,-801.6652,2053.35498046875
432,-42172.47,-28590.074,-50763.184,14966.254,5708.85,351.0468,33838.9296875
433,-9491.977,-1670.7662,-13188.645,3411.6458,-620.1881,5058.8945,14717.2763671875
434,3009.5151,161.22636,-10175.996,-3950.0994,-294.1303,-2686.8884,14599.376953125
435,10295.126,14617.884,-2660.5298,888.30615,1374.8658,-3165.596,16752.326171875
436,-4634.6187,-4728.942,-3023.4495,-1094.2452,581.10693,1535.633,3799.52807617188
437,-1443.3711,-787.139,3350.4194,-3029.4512,431.7344,11.3535595,6953.95751953125
438,-13040.595,18917.795,13840.793,8496.837,-124.33524,12474.196,39601.9375
439,-5313.109,-9738.335,-10592.043,700.81464,880.088,901.1476,5506.5947265625
440,5475.5884,2926.9905,8475.322,2951.2197,1163.9033,-349.30295,7327.89306640625
441,-5266.323,-2873.4397,-5316.892,-2095.302,-314.9576,-355.1942,4438.06396484375
442,1326.7518,-1700.0234,5186.6562,-1184.9401,-3830.9849,102.29535,9166.0390625
443,-1466.9462,-2526.5537,1522.5928,-1418.2052,41.527176,78.846794,4391.5361328125
444,1159.8367,-708.7256,1736.5382,2669.03,-716.3517,609.0888,5378.2265625
445,-2609.7473,-2091.6885,-3799.9543,1781.0088,-308.23697,-639.58575,3650.99877929688
446,10649.695,5405.057,22569.486,-9966.888,7130.916,-11669.74,33033.58203125
447,4312.572,3878.0,7674.814,210.52802,244.00502,758.9457,3872.2392578125
448,-2924.168,-9888.869,-10337.485,-368.5529,-3062.396,49.26908,8965.6220703125
449,-1066.5171,5849.1646,-14730.771,-6508.1895,175.68207,3001.3503,21982.326171875
450,-2798.6702,-3269.1763,-7856.1655,410.96622,-92.413605,910.41437,5141.87841796875
451,-2477.368,-6431.1763,-1095.5675,4630.4385,968.6351,380.7866,9517.24609375
452,8519.3,4867.0073,18683.828,3399.585,955.9275,-1710.6545,14141.1689453125
453,2389.8376,1322.4337,11650.886,-1588.7487,-2153.0461,-924.34143,10992.4541015625
454,141.29706,996.5914,824.34,176.2264,1096.159,501.03348,2250.51953125
455,-5221.0874,6471.365,3832.5356,253.39445,2052.9888,-1138.0989,11381.7919921875
456,5989.635,2338.1963,5971.41,1395.853,-880.61383,327.19073,4664.7197265625
457,1934.0934,600.877,3334.8816,1892.3148,-1236.23,-2288.2163,6053.2958984375
458,6809.658,6307.6973,11957.664,1267.3641,-316.35828,1111.663,6177.7255859375
459,-3231.459,-343.72696,-5380.6543,3595.8142,1726.4453,-818.5048,8300.943359375
460,16832.807,17350.33,21478.494,1167.1185,-247.55925,229.94948,4886.20263671875
461,-6408.3013,-5834.179,-13914.099,471.50055,-387.16165,98.3864,7881.72021484375
462,2004.706,-3993.044,5605.4287,-673.10095,-756.91473,695.75543,8663.984375
463,10607.714,7233.8325,18736.963,-2053.9807,4044.257,-2464.3367,13595.525390625
464,-33878.402,-30563.633,-6476.5117,11376.747,-4173.1743,-173.19954,33341.37890625
465,-11260.47,-5216.7144,-16970.486,1508.4062,-2410.3232,3566.4238,12886.2021484375
466,2688.8782,-1627.4717,-3794.217,-713.8629,39.6213,699.10376,5973.09326171875
467,4679.707,6335.2915,10553.998,483.92386,992.22125,-214.16338,5596.11669921875
468,-313.4991,-5861.7495,5028.31,-1785.2435,1502.4117,-722.7235,10337.1025390625
469,3178.0251,3743.4678,-13869.9,708.1679,-4537.529,5234.307,21120.0625
470,957.8303,35.633636,-2558.299,1024.6775,1726.5154,-2099.5444,5940.35107421875
471,7092.0024,-5901.48,-9938.254,5935.543,-7071.0337,3086.0867,22843.822265625
472,2348.5728,4483.1157,3639.8203,95.42013,-693.2287,91.71048,2227.46850585938
473,-2536.849,-86.834404,-6246.891,368.94608,-188.9672,699.0171,5553.19775390625
474,2274.984,-2414.788,1451.3276,152.9435,-499.85297,290.33527,4458.94921875
475,-12527.3955,-13959.62,-19867.94,1693.414,-299.16498,19.105686,7368.4521484375
476,6744.969,9110.093,14282.685,-3163.439,216.18689,-1354.8434,8958.3701171875
477,5785.3506,7159.3174,12302.576,66.7894,-950.0193,-585.6351,6257.59228515625
478,5083.6333,4689.762,5223.23,-279.40247,924.2071,-810.70166,2235.61840820313
479,-5283.058,-3993.556,-4626.253,670.2847,369.14532,189.65314,1764.03283691406
480,3840.7473,3583.7983,6296.5522,-1484.4949,702.66095,-1426.9374,4574.80517578125
481,8192.304,7629.7925,9309.106,1523.7665,270.4123,2726.6013,5628.49072265625
482,1374.6355,1761.1964,3436.6382,-164.70581,697.6802,21.344465,2268.74829101563
483,-2641.6077,1731.6089,6761.6753,714.8636,-516.2013,-191.87012,8298.6201171875
484,7579.6963,8846.28,12457.048,1140.8671,284.16983,-165.07741,4841.896484375
485,509.7682,-1965.7661,338.22302,638.2735,-381.42053,-567.3291,2890.8896484375
486,-5750.174,-3166.0789,-4521.513,-1372.4178,-1680.6875,-6.4078975,4374.58837890625
487,-4709.021,55.285374,5346.7993,4445.8496,-1288.3656,-1616.9445,12166.71875
488,-1404.8093,-865.7312,-2116.079,-186.80605,914.282,-304.48798,2017.54870605469
489,-3182.964,-622.2062,-1938.7052,660.794,-1325.0889,272.7621,3423.46899414063
490,-7990.2817,-8035.3857,-12899.311,1242.0161,180.46455,-2493.6934,6874.6064453125
491,4659.741,5560.9395,11401.23,1035.6451,426.46,-79.83126,6630.74853515625
492,7384.239,14109.351,18780.482,6880.395,-7110.9883,-2464.4436,20258.3046875
493,305.86737,-197.4501,-254.95042,540.4392,243.65323,17.448935,1157.93493652344
494,5181.3677,638.72076,7382.1074,383.4645,1845.0536,-3824.692,9487.607421875
495,6847.796,7777.001,12447.14,1187.5396,-526.18054,3162.5032,7879.00732421875
496,-1267.7638,-1841.3635,-3977.2695,1107.4512,-39.431767,728.3665,3375.17822265625
497,-7535.905,-3419.2102,-7744.638,1596.3634,1112.2883,210.78696,5416.642578125
498,1953.5968,595.8614,3203.4407,-958.7415,148.73232,-518.30786,2955.05688476563
499,1566.22,-374.00635,6926.6836,3163.4617,-2052.4011,489.61377,9288.6083984375
500,-6636.2173,-5612.6987,-8617.745,3790.2622,-129.19316,-244.49693,7094.35302734375
501,-3580.3672,2899.5469,702.2609,726.5137,-8.820346,608.9081,5939.28759765625
502,-1604.7008,598.11304,-1403.3115,211.22034,-318.09985,89.90993,2216.07299804688
503,3321.607,1847.6753,4296.4854,926.4202,-201.26854,295.38354,2741.86279296875
504,-3420.744,-502.61758,-1446.6926,1092.3523,-239.78267,431.17294,3310.84985351563
505,-1256.8276,798.1068,-2553.372,-107.86435,-84.17206,-10.730073,2936.76708984375
506,-8721.712,-1558.5275,-5194.354,-7286.466,1748.3434,3132.552,15374.421875
507,-881.6158,1456.8496,316.0261,-3242.713,-400.072,446.2876,6060.146484375
508,1017.96246,-4175.8657,-1656.0974,2275.4988,1333.778,1035.2338,6657.5927734375
509,-2866.499,-834.1912,2067.449,1854.5988,-139.70656,188.81046,5378.748046875
510,760.1837,-6057.848,-8255.418,-1416.5957,3898.3035,1673.2023,11238.6533203125
511,-4837.882,-6924.2456,-9066.778,2410.711,-489.15015,-398.12115,5660.5078125
512,-9157.0205,-8178.915,-11446.93,-2074.8118,-290.482,443.31427,4711.412109375
513,-4202.0605,962.7845,-13032.191,-916.7336,607.8807,-430.8024,12427.375
514,-3159.4736,2281.2783,658.3789,-2672.809,149.57402,517.26575,6760.71923828125
515,-938.7884,-8997.223,-1306.048,3832.875,-1158.4048,-2441.9023,11318.1650390625
516,-1295.08,-1365.4866,-2303.267,-1274.0778,733.2316,234.53955,2756.47412109375
517,-2339.7625,-1387.9806,-4274.403,1393.0082,43.55281,470.00095,3602.76098632813
518,-3685.8455,-2602.236,-942.83905,206.227,-402.4844,-43.62572,2518.97290039063
519,-2937.3997,-886.1406,5362.029,-667.8111,-425.84885,-1846.506,8256.7919921875
520,-17703.092,-8988.706,-20166.559,-1052.7916,-140.25533,1230.8477,10554.8974609375
521,-1476.6058,-1113.7167,126.27043,337.33792,-273.62387,-116.61938,1651.07104492188
522,3921.3933,2819.2666,6143.495,742.2383,-225.14253,-805.2895,3514.505859375
523,-6283.041,-7954.516,-12868.089,2260.5415,-186.33765,88.812675,7113.923828125
524,1208.6707,1212.5071,5597.937,1110.2522,2755.741,3783.4587,9416.625
525,-2311.4304,3124.735,5216.692,-21.677519,-310.94272,309.10977,6773.36767578125
526,-673.0606,-2240.595,-297.31305,804.4362,23.542774,298.59796,2323.32641601563
527,-5020.7817,-310.58212,-5451.4375,-146.69989,1338.7737,621.45123,5567.76708984375
528,135.9696,1454.1344,859.49304,-130.06952,285.46838,250.74495,1338.34655761719
529,-2108.671,2563.2256,-111.740395,474.3887,219.08809,413.75272,4221.08984375
530,-3042.846,657.49817,-518.17035,1956.0876,395.70508,-35.989197,4762.02001953125
531,-874.66425,-1458.0824,-1395.316,983.6125,-107.98631,141.45036,1818.01696777344
532,-1621.3322,-399.96115,3926.2043,633.11676,192.55736,-354.96487,5213.73681640625
533,-1076.802,6416.431,-651.32526,-3057.7866,512.43286,389.31323,9079.3173828125
534,-969.4369,-11820.086,-18848.12,-352.61304,2735.8394,-1682.1146,16574.212890625
535,2004.857,2342.1475,6156.575,1784.4318,679.9676,-463.42343,5247.2978515625
536,-2450.8923,-7084.457,-3323.3047,-955.5107,-807.9712,-239.30711,4801.86474609375
537,4461.623,88.11174,-893.85455,625.956,305.29977,126.92481,5088.21337890625
538,-5301.3066,609.6959,-3196.7468,-312.20874,-437.50006,967.2015,5531.92041015625
539,5065.4834,1371.1293,2594.0913,411.52228,-87.80845,457.5261,3432.9296875
540,3320.2898,-5745.3906,-7513.3325,-2600.4631,-331.49863,215.55258,11049.708984375
541,2744.2224,-1928.8555,-1749.7317,-2018.045,-341.35016,-28.839514,5796.7451171875
542,3844.6558,910.6436,-585.65906,-80.31129,-379.73654,-34.25877,3961.43774414063
543,2179.5205,-1415.0471,-2367.435,-3194.1956,788.43616,721.69196,7161.525390625
544,8406.372,13688.56,17507.068,-695.6666,-277.8991,-624.6528,8093.62158203125
545,-2810.3564,-4413.698,-1760.986,-890.8085,14.993128,324.27066,2837.45141601563
546,7448.522,6572.119,9609.172,-751.1346,-1298.7714,263.12387,3780.32055664063
547,1679.9547,-1877.3685,979.18384,1202.2914,558.0897,-262.93265,4016.35009765625
548,2514.652,2112.9668,4166.879,-446.35782,-338.21295,-368.2842,2214.19262695313
549,999.14233,772.08984,435.0393,-1050.8505,-1630.9572,-733.7825,3626.28149414063
550,4806.9175,4068.0134,5371.574,-232.6731,489.83688,-206.62682,1514.05358886719
551,-503.92654,-116.57277,6362.1895,-1500.5912,-1213.7787,-425.50912,7506.8134765625
552,-3336.8936,-3851.252,-1457.8179,833.37604,332.17764,309.18655,2731.9169921875
553,3049.0,-2167.729,3161.4302,111.48002,-1005.5826,-830.9066,5740.68896484375
554,-3124.297,-5417.0195,-7398.3115,115.93172,-220.40567,-161.96777,3740.2412109375
555,646.2975,751.5506,-123.11663,-1307.4991,-196.95854,-358.6147,2512.94897460938
556,2659.9436,853.84454,1899.0864,85.22651,302.00836,77.84638,1667.42687988281
557,-1204.6357,3398.8816,-312.34244,-33.926086,667.12665,-4.9638476,4384.01318359375
558,-1272.3641,-2268.3423,-119.6969,-2293.5403,-719.82666,-469.6767,4633.126953125
559,483.32257,-1546.8215,-1352.2743,269.12286,138.33653,-187.95135,2035.93811035156
560,1669.9054,977.78687,1819.1941,-541.0758,102.80907,200.95778,1278.98034667969
561,-712.1884,1922.5544,520.6509,2288.1348,102.14709,401.2002,4629.73193359375
562,-3847.2937,-1198.0558,-5800.85,773.7559,856.0975,-207.4877,4487.119140625
563,1352.4635,5726.1753,1683.2587,-2587.6562,261.33994,116.38266,6174.5771484375
564,-6008.1343,-7828.919,-12469.185,-1509.0101,-1004.7747,-429.61884,6611.35498046875
565,-2486.7979,-1781.8981,-1335.3885,-1247.0425,-699.9325,368.58127,2748.38452148438
566,54867.95,48966.414,42176.066,10348.008,7680.592,-5954.334,26936.794921875
567,-2401.8542,-5767.826,-4955.101,-197.82993,-1909.0947,-874.44183,4753.94189453125
568,3585.0842,4078.8604,9929.525,921.94183,-506.44888,-517.2984,6440.9013671875
569,-49877.152,-21046.025,-51926.55,-2747.8818,-7719.4336,-1565.3251,33215.8515625
570,3029.3372,4678.681,10597.576,-487.21393,-1017.1462,229.44322,7175.6376953125
571,424.12988,-5541.4604,-6331.581,1176.3965,2447.445,-5655.049,12608.9853515625
572,-3645.578,598.2995,1889.0446,1256.5862,-2478.083,1443.4966,7386.8154296875
573,4472.062,-1654.5782,8117.3247,192.07751,-737.62006,-434.84,8687.177734375
574,-823.783,1695.4436,1749.6747,538.04047,-199.23648,-414.98575,2826.70336914063
575,-8141.6465,-9836.272,-16849.576,64.05442,1605.474,1093.7368,8676.22265625
