Element Label,S11,S22,S33,S12,S13,S23,Mises
1,2514.346,-451.8992,639.37164,1557.7251,430.67096,464.05563,3903.14038085938
2,288.25638,3214.635,-1297.239,280.50763,-152.73149,-139.6275,4010.2080078125
3,4623.5566,2511.337,1281.8364,2293.9604,1328.3956,550.03204,5527.96484375
4,-647.00037,1582.3959,-837.19763,1986.3766,190.94363,172.5185,4179.25244140625
5,3213.3728,9668.641,1662.1746,822.02783,769.342,4.4370537,7608.7451171875
6,581.6312,1492.7167,91.99815,-607.2223,-160.97751,-96.782814,1651.6396484375
7,5935.642,2831.9023,-327.0862,39.645542,902.8077,382.93518,5683.91650390625
8,-1881.4497,1496.1442,48.940037,-872.7616,-1467.1195,-260.7276,4190.56884765625
9,9007.009,6410.4263,-110.50239,-393.97073,74.992516,114.78179,8168.1650390625
10,-6484.7617,-6670.11,-869.4923,1288.0538,-1438.2072,-2204.1472,7639.6171875
11,435.49683,1293.7483,-372.6358,-1014.47577,288.39325,114.87521,2336.6298828125
12,5884.6157,1590.3518,161.62732,-1383.638,-452.22894,71.30716,5743.64208984375
13,755.8718,-739.5152,822.61084,755.2264,214.44792,-288.68042,2107.0146484375
14,4177.057,-5381.0728,-1506.344,2742.1912,665.66187,233.63611,9663.7529296875
15,479.33398,6453.0767,1913.7795,-5086.5293,811.8028,1701.9927,10837.8955078125
16,-4643.715,3878.0793,-9628.493,-4623.2476,658.2336,717.78217,14384.6083984375
17,2117.334,5533.942,3331.3167,2081.187,-3005.2488,3397.6191,9149.82421875
18,3344.4011,3963.5046,-2382.5703,-618.6933,637.8009,-1546.7184,6802.41162109375
19,8053.182,7280.5776,9039.994,556.2742,314.50986,385.4659,2000.98852539063
20,-6282.9795,-7156.089,-6567.246,-2333.562,-223.85558,1058.5177,4521.41357421875
21,355.76413,-727.0246,492.22803,3393.0498,-872.77985,1156.5131,6494.2265625
22,-23020.191,-11533.585,-22076.488,-1752.4103,7128.3804,-381.32315,16854.76953125
23,-4290.4766,5674.0815,6449.7915,4468.093,1771.0969,1074.5669,13430.9248046875
24,6671.82,2955.7095,-543.5234,3696.7776,2181.3464,651.7628,9777.7978515625
25,2545.4155,-3617.5369,899.4028,1219.7924,-311.15128,149.98332,5947.15478515625
26,2902.8877,-1964.2366,-1439.7548,3848.3997,3843.3013,-2078.0195,11095.4580078125
27,4610.9565,-68.24468,1750.9456,2830.3096,2453.5164,485.7959,7713.0537109375
28,-46.636036,-340.2418,-154.68497,903.4837,-233.09273,-80.47787,1642.38549804688
29,2370.1978,-587.0352,-2055.8472,621.8197,-933.10474,-218.12163,4377.330078125
30,3428.2166,-1518.7854,-3011.5369,2867.0154,268.25967,917.9355,7841.48046875
31,1796.6945,-2230.5557,-826.6165,264.18744,2993.5242,1328.3381,6702.400390625
32,3768.2349,793.6388,-95.98812,3601.5881,1062.5428,-230.75017,7399.1201171875
33,835.2707,819.70514,-836.316,1721.0222,434.29825,298.26593,3533.68237304688
34,2410.007,1594.6521,-4320.7573,4241.3633,-1241.2356,227.30573,9961.150390625
35,-892.75934,1316.6062,2295.6096,1047.6115,-20.23177,31.318401,3361.4521484375
36,1511.7393,-4989.965,-2387.9124,4056.4102,-3150.128,-1050.1742,10703.595703125
37,-2094.2346,2799.7827,155.12222,2594.8672,-1151.8835,4346.175,9942.3759765625
38,-1342.4974,163.33122,-1389.5172,-1694.6909,-310.57092,-2769.5483,5852.9501953125
39,5604.7627,-2934.2988,-2677.1375,-1019.1637,1019.1724,665.7318,8851.41796875
40,3903.5303,4359.0938,1945.6527,-1070.8116,1741.1569,-2237.1633,5699.3203125
41,9795.092,-3379.4766,692.15125,-3014.6184,-3081.0288,52.7592,13865.6337890625
42,2508.4329,-12795.747,14583.606,-2319.2563,-3273.6787,-1511.1505,24899.134765625
43,-16801.734,-15952.487,-16289.499,-155.6727,983.76514,399.7012,2000.9892578125
44,20646.592,-6601.4995,14523.951,3425.3171,-5430.8774,-1604.0443,27285.810546875
45,22279.232,2173.8003,1409.3154,-1836.503,-4508.879,-13685.864,32453.04296875
46,940.1315,-2500.5537,6597.487,-5521.133,15239.655,-15458.72,39603.22265625
47,-15596.689,-14776.912,-11514.067,65.85616,-239.1464,-10288.371,18213.4375
48,-15025.105,5558.893,659.44226,-6400.145,1484.3868,-175.06104,21827.576171875
49,-6393.793,3608.2861,-7476.843,-1688.6532,-2348.0864,-205.59294,11716.19921875
50,-3710.5598,1631.1337,3075.1294,5840.962,3845.6562,-1889.3638,13991.390625
51,-3765.549,6473.838,-3244.7292,-3402.87,184.0791,3115.9119,12796.498046875
52,-6483.0137,12026.653,1759.1104,-2089.1458,-2622.7373,-8.26213,17079.5625
53,2195.8242,7056.5874,3018.572,-2073.1619,-726.6702,-1064.2843,6179.07763671875
54,-2411.0325,5999.2197,-703.6905,-1988.416,-1443.0819,2593.4211,9877.982421875
55,-280.23636,2098.078,-421.0827,1621.5187,-899.54016,-1558.766,4859.623046875
56,849.7194,685.58,-3913.724,2561.622,-4557.3696,-3316.9797,11702.0126953125
57,-1688.3151,943.7277,1630.8201,-1888.3086,-1920.4174,-95.12216,5567.4482421875
58,471.2174,-4855.605,-733.17786,-915.2527,5164.897,-2491.4639,11161.259765625
59,112.635956,-2807.96,-2387.887,84.09683,2402.327,-1161.5233,5372.30224609375
60,2639.5938,-527.94037,1863.6782,-4769.3667,2514.612,-2361.7207,10588.7275390625
61,2854.9878,383.68057,-183.11052,-1764.6819,-150.25853,-1792.7803,5184.74169921875
62,5886.1724,-2199.6443,-1323.0555,-182.00229,-123.94811,-1356.2765,8045.17431640625
63,329.187,-2138.831,-1979.7883,-1284.9045,-724.5423,703.28174,3706.14721679688
64,2903.543,-4376.0894,-1486.4885,-1652.6631,751.8125,291.40378,7102.951171875
65,2362.2307,-72.899605,-1499.4486,-3639.525,184.40918,518.7555,7217.09814453125
66,854.00824,-1604.241,4579.0557,-117.69498,-2943.051,-2422.96,8527.2783203125
67,1396.0057,4350.576,106.13472,966.2916,-671.4306,-2045.8629,5560.08544921875
68,2678.7512,-9424.121,-3274.0764,-67.47544,3247.5042,-2012.736,12396.580078125
69,1662.5079,-3545.1885,-2889.0718,2956.617,-260.34567,-4164.31,10128.4873046875
70,6039.8076,-5401.735,2827.8955,-1553.761,-3471.3335,3486.0867,13576.7236328125
71,-9608.587,5263.4824,2798.9707,-8212.598,2212.688,9883.52,26470.361328125
72,5257.818,7885.6943,-596.2886,4537.333,-550.745,-2149.5583,11536.6416015625
73,-7786.9316,-39964.73,1014.308,5641.8604,-2256.5137,-4292.0146,39523.51953125
74,-4715.8394,-15226.323,23295.816,-1937.5266,6125.8823,6682.662,38044.109375
75,-18724.61,-17444.393,-22457.105,-3230.5823,5067.2686,-2357.14,12056.4853515625
76,-9676.773,-40221.168,-18689.842,-3983.075,-5081.679,-974.1561,29441.6171875
77,-14507.184,-6264.216,-17178.693,7517.353,4524.887,9129.184,24043.423828125
78,-2719.9917,-6050.8765,-2638.6987,4362.0107,-402.6598,1155.2239,8540.7041015625
79,-8057.1157,-5182.968,-21159.57,7980.9976,1118.5591,-1868.9016,20564.880859375
80,-1277.9525,-13415.474,314.35254,-2352.3176,-1529.0828,-2151.5713,14376.5
81,-4113.0127,3240.254,-3030.1482,1485.9514,-449.84818,-2229.3723,8331.9912109375
82,4796.981,5590.2,5167.2197,-1611.7684,1865.8018,1843.8525,5376.7099609375
83,1409.5742,4086.8909,-1491.0413,1690.2532,-1638.373,1358.896,6746.1787109375
84,-1496.1421,2356.3076,-323.92184,-2433.3232,-568.26324,278.9953,5537.6005859375
85,1435.0801,3219.6628,2291.0125,-709.46027,690.82764,-1655.6886,3681.78198242188
86,-841.6619,5888.49,-4944.174,1044.5297,584.7343,-2763.8066,10814.380859375
87,3576.3926,-2321.874,1914.1758,-1747.0013,-1028.0901,-992.4025,6559.71435546875
88,2787.5925,-5543.8633,-2270.536,1517.514,3373.3516,1205.5927,9912.802734375
89,337.75787,1168.2849,995.223,1048.5592,811.7367,-2194.0198,4504.7021484375
90,-2986.7708,-3144.4763,-3098.3667,3963.2441,1291.729,-1696.6646,7796.3671875
91,-2411.2522,501.45825,6190.7163,3038.791,-211.86745,-1442.1995,9565.5595703125
92,512.3314,-1901.2831,781.619,1500.4996,521.00525,248.42917,3781.79809570313
93,-7098.5483,-2969.1575,-4700.277,2370.7983,-2687.7358,1337.6217,7536.6904296875
94,-1949.9246,3893.9602,3685.2322,-143.23514,2739.1072,-4799.3584,11164.49609375
95,4270.8257,3733.476,3109.145,-450.5368,1985.6091,1259.1464,4266.9951171875
96,1469.2546,-6962.7197,4013.3972,-3403.8857,-3464.5715,510.41098,13060.384765625
97,-13882.832,-12359.508,3440.6765,10813.807,-10254.492,-12486.291,37550.453125
98,4603.2134,9795.735,4763.7183,-1502.4131,-6745.396,1120.3124,13160.2724609375
99,1235.529,-221.96463,-400.61197,5881.678,-2061.063,438.40704,10932.4990234375
100,521.6316,331.25864,425.27267,924.22205,-748.7676,673.8924,2373.62451171875
101,3544.6926,136.51207,3015.1165,237.01038,-19.951086,631.06384,3384.62646484375
102,3752.7598,1034.2109,3702.9678,3428.4304,2052.4675,1953.0287,8160.93505859375
103,2868.3584,1405.4023,-441.6885,1529.2538,-1489.5596,-1208.9998,5129.46875
104,3381.0557,5925.1655,-2419.27,-1170.561,1101.8389,-1831.5607,8525.8173828125
105,-4645.017,-985.1417,-3337.4653,-1922.6807,317.4014,1568.4016,5393.5966796875
106,18224.967,-4914.715,-8044.9385,533.2524,-175.35722,3363.117,25545.107421875
107,-4071.1567,4425.049,7738.0527,2491.1248,3201.287,-4753.968,15115.2880859375
108,-7032.7144,10623.045,10027.887,-1121.073,2106.4026,-3403.7913,18799.220703125
109,3699.734,-884.1489,417.76315,-638.2688,1099.1218,-1408.9614,5247.95458984375
110,-1230.2076,784.8322,811.67737,-1022.17944,752.53064,1252.3234,3695.078125
111,2994.405,-3983.5876,-361.2009,-414.33273,1194.844,-1916.8768,7235.9033203125
112,5485.0034,-1488.3727,695.1506,-1336.9402,-548.60223,729.0881,6784.470703125
113,1271.9774,-3151.8804,2148.1023,-772.6475,-477.5898,2916.29,7225.19482421875
114,3824.6074,-2199.7595,7725.0107,3428.1438,1895.3867,-410.92603,11024.70703125
115,7393.6416,-8369.707,1001.3414,-2151.08,-5463.6826,-1331.9009,17243.533203125
116,-7560.4097,-9193.008,20217.447,3941.724,3431.612,-2786.0786,30411.361328125
117,-13284.553,-22146.705,-12134.944,-1215.3713,8410.97,-13804.744,29638.232421875
118,-1934.5906,-6502.1074,2002.4072,-5533.113,-2342.3694,-954.11273,12860.076171875
119,-22201.545,5812.8613,-4721.285,701.7608,-3219.0962,662.41766,25190.25390625
120,5632.938,1008.62604,1914.2843,1122.2904,-367.52185,-2362.6807,6240.755859375
121,2530.3718,3422.4897,-232.16786,2593.5178,-665.0977,-2792.534,7469.458984375
122,2511.6262,842.01685,1900.2218,1225.7081,138.42654,2905.135,5659.02783203125
123,4322.0825,-5574.316,-639.2783,-1847.6395,-952.0841,-2892.2783,10559.8642578125
124,3353.851,-2624.1653,1487.6055,-862.8909,-1892.1696,-259.02826,6421.763671875
125,-962.3949,20720.27,9934.959,-3652.724,1069.6504,3232.0671,20673.775390625
126,-19217.264,-24568.264,-23895.822,-2202.2036,5506.6133,16968.693,31540.67578125
127,1735.9211,5880.383,-4627.283,-1940.4944,3303.063,-2246.581,11966.9375
128,3753.5476,5352.7144,-445.0134,5606.8125,379.9359,1322.2782,11264.404296875
129,4600.1377,3164.1306,-685.9599,32.572243,2337.2446,-278.40665,6248.03369140625
130,-7191.375,854.0958,-6674.3,-3262.9397,4021.7002,1019.2667,12017.3251953125
131,1378.5277,7991.851,2176.8318,-1948.219,-1106.2617,-505.83395,7410.7763671875
132,2984.3198,3985.1404,-2861.362,166.59856,-2071.3386,3161.3682,9163.048828125
133,-2608.6611,-71.35061,456.9565,-4698.4775,1617.8596,-746.69226,9154.76171875
134,4967.719,2398.296,886.1017,-1981.4019,2879.2969,573.89624,7100.07861328125
135,-12155.284,-23745.213,-9758.358,1350.1771,-7000.4023,18218.818,36278.28125
136,-2638.096,2560.6497,10622.811,11929.888,1745.0087,-1762.2544,24069.8359375
137,13879.226,-14664.405,1908.6854,4410.413,2914.779,-1545.7312,26596.2578125
138,22268.555,21006.152,12337.598,5913.8486,-7084.0415,14217.679,30815.25
139,-2398.6294,-766.7964,2902.0505,-3084.6848,-2300.8484,7187.137,14882.9638671875
140,11405.319,2935.4202,-2676.0898,3041.682,-3371.136,-1267.6064,14745.3994140625
141,-467.61145,-5262.154,-1556.3835,-1206.3904,208.92902,-223.67966,4857.99169921875
142,3476.1218,-1278.797,-2579.5469,-952.5967,216.04092,-1797.8066,6560.85595703125
143,3262.4893,-975.3294,-8755.364,202.19627,-1799.2389,5238.834,14269.86328125
144,5824.767,-349.84152,-906.72003,593.55536,-2233.1992,462.81934,7650.84814453125
145,3825.1506,-191.11725,240.08784,-2390.195,-547.86255,497.38235,5776.35107421875
146,1428.5164,-4682.005,-1748.1853,-1713.5571,1200.2792,-3867.0686,9274.2705078125
147,4290.3857,-2215.2615,-3621.1697,554.0679,-489.97394,771.0565,7541.29638671875
148,2254.7954,3604.6182,4742.5825,3454.2307,-490.35654,2427.0264,7670.78125
149,-513.67725,116.45408,1655.365,917.15826,-2024.8889,-166.79567,4317.70263671875
150,-5735.5996,-11645.419,-11179.944,-5149.877,9313.532,13392.488,30170.470703125
151,-7097.5986,-4140.8984,-1083.7787,-10988.998,2160.1975,-3388.224,20924.646484375
152,5868.1196,4970.915,9575.315,1225.5055,-1085.5865,3820.7493,8349.2431640625
153,4372.2173,2834.8142,-7676.3374,4822.047,-623.4409,-1319.6532,14323.2216796875
154,6896.4116,1136.7783,2002.1158,4596.645,-3235.7175,-866.90234,11224.5166015625
155,4895.401,3644.451,4914.7734,2580.4026,-3503.9934,-478.8011,7686.779296875
156,5189.0586,2927.5518,-621.503,3305.3533,-1672.818,-1550.3125,8609.1728515625
157,-84.16736,-1368.4514,-3579.8413,3159.4739,5250.705,1786.979,11472.40625
158,2853.4292,-3259.5999,-1719.6155,1456.0835,-3215.7734,341.98535,8249.9521484375
159,-5716.5093,-17.212078,-11021.376,825.17,-3012.6562,853.56226,11059.5810546875
160,3088.9883,3973.0835,1427.249,-1773.6993,1176.064,-464.674,4387.17578125
161,2453.2222,4086.8296,5145.1035,1243.7837,1904.888,-2623.4373,6456.8935546875
162,1410.5536,-3474.9282,-2733.8591,2878.6272,1500.0085,224.8753,7249.6826171875
163,747.39044,6665.586,6146.809,6478.93,1475.5054,3658.967,14312.5478515625
164,3682.6519,246.23994,15404.209,8389.381,4745.8013,259.82947,21642.5390625
165,1734.4025,5669.95,-533.06104,-2458.7244,3382.9912,7899.559,16408.310546875
166,-2730.1724,901.38007,3320.0784,-6822.7915,-5784.082,-1154.1041,16487.451171875
167,4324.435,5679.527,52.863712,560.96436,3636.9167,2596.8772,9312.77734375
168,-8687.17,-13616.51,-19641.041,6874.226,-6039.444,1793.5806,18738.482421875
169,-646.9656,-5053.522,-13059.226,10471.761,-542.7903,3607.3186,22083.525390625
170,-1143.4672,2745.1216,18497.654,1078.1644,-626.2461,-3867.7876,19340.67578125
171,-8785.787,-427.06262,-7511.509,1792.6112,5343.142,-3560.5864,13934.19921875
172,-5273.809,11068.332,7265.2617,-3837.9617,-9867.114,8148.1606,27474.09375
173,2703.4502,-2953.6404,3045.6091,-1229.8357,507.57327,537.60535,6342.93359375
174,-4494.314,-3648.9465,2120.1482,8203.572,-1584.2456,863.1528,15828.2822265625
175,2017.5488,1957.1189,130.72513,-1686.2736,801.1328,193.0127,3743.99438476563
176,-24393.404,-26690.098,-30730.852,-3940.8962,18395.47,6777.3765,35077.81640625
177,-5365.875,4514.301,2168.1057,-2268.7646,3788.6853,-485.60654,11796.3310546875
178,6419.997,5229.371,1304.9261,-1960.7548,-804.58765,-625.8833,6011.85107421875
179,4554.1426,6413.0913,9277.856,-5406.0254,1586.335,425.9564,10618.7119140625
180,3105.5066,8118.264,5847.9556,2229.4407,77.309525,-235.52759,5830.703125
181,5.3295403,2236.8674,4826.443,-4466.117,1678.9697,110.95549,9262.654296875
182,4950.5054,1366.8552,1318.155,-723.3669,670.0361,-1631.4019,4890.85693359375
183,2072.3374,1596.3784,-2855.1162,-993.4592,-3157.2314,-2105.618,8266.0244140625
184,-2847.7368,-6313.849,-6326.9565,-631.1508,-9209.528,3727.1492,17589.080078125
185,-4075.8298,12112.377,3822.5432,5001.953,4089.3684,4667.4526,19676.498046875
186,-7701.359,-4197.226,-6451.0503,1506.4448,-8300.376,1324.6012,15107.001953125
187,1543.8062,-5081.1597,-2710.1982,-1643.2158,-1054.5974,2139.7542,7679.63134765625
188,-20554.22,-6956.541,8252.347,-8076.93,-3316.2056,-4195.664,30075.33203125
189,6291.5986,-1810.7773,1895.2144,2382.071,746.4835,1119.2079,8473.955078125
190,4071.3772,-3627.3962,782.15735,3657.094,1049.9886,-2465.753,10316.8486328125
191,5024.3203,-1218.1946,753.2217,2788.2644,-565.4009,443.59567,7444.5615234375
192,1517.1836,-3463.6013,652.96545,4587.7026,-3376.731,1143.4156,11068.9111328125
193,2246.6318,-1364.4373,-3690.8796,2377.6025,-1219.1747,1632.0494,7500.79931640625
194,4361.083,1724.5219,993.242,1983.9672,-375.64127,1152.7019,5062.8203125
195,2745.7402,-1763.6808,67.86436,2687.158,-9.591302,-3886.3386,9077.65625
196,2455.892,966.71924,4783.748,2562.1968,328.31314,1433.12,6105.9443359375
197,-654.05695,-250.40659,2695.9543,1864.0876,268.73743,275.17422,4571.8232421875
198,171.44637,-3511.8362,-2932.9104,3335.7065,708.52405,-2166.6665,7793.5576171875
199,1960.873,1247.1539,-2816.0864,811.55914,-1007.78723,-1212.8687,5418.05029296875
200,3996.3816,-2165.0515,-1307.3523,2525.376,2019.3132,1059.778,8255.24609375
201,-836.5855,-2468.1501,239.80649,4584.6797,1383.7125,-961.5923,8783.658203125
202,-733.83875,-2082.0447,-894.3847,4290.603,325.5843,401.80667,7593.23193359375
203,-8240.679,7522.341,1745.8936,3124.3374,-310.9815,839.556,14915.595703125
204,-3811.8447,9326.813,2129.0476,2178.1316,3515.8645,-2380.043,14077.41796875
205,-6364.5156,8297.941,-5104.315,-2100.5378,826.41925,1741.5924,14915.87109375
206,2260.9097,9931.363,6646.914,-4976.034,-1883.6432,3865.8562,13198.1767578125
207,4897.837,8500.47,-1008.1347,-4355.5044,-3590.8137,-4503.4717,15019.099609375
208,1442.4674,-5001.6704,-5087.8,-3370.0483,1733.351,3190.2227,10756.724609375
209,6136.533,-4401.6104,-1163.7499,-4776.6675,-2508.5583,-2988.835,14196.578125
210,12323.363,11975.171,1657.9574,1687.9052,-1951.5243,2895.2075,12461.04296875
211,-999.59283,-9960.889,-6915.036,1705.3483,11801.319,1090.6447,22189.947265625
212,2663.2156,491.7339,-3161.9746,2898.1626,2457.024,12825.069,23722.458984375
213,-2785.4204,-1021.4147,-24293.828,7455.3647,437.57016,-3209.9678,26493.353515625
214,-39130.68,-23696.268,-17333.814,10035.15,6510.2666,-3971.0767,29214.283203125
215,7590.4434,-14267.191,-5229.836,5942.995,3129.0112,899.5102,22352.89453125
216,-8519.343,11590.508,599.009,1380.0399,-858.368,-2152.279,18055.541015625
217,-5187.056,1205.525,12994.427,10865.788,226.28177,-4736.2524,26016.353515625
218,-5421.0825,-3331.309,-11697.335,-1729.8374,-340.80722,1459.6738,8520.0849609375
219,-6368.4507,8196.77,2037.2769,-2526.1504,-918.6114,-2265.5537,14051.5
220,2838.9219,2303.2437,186.13493,-170.17967,855.2511,-374.98264,2933.64501953125
221,5638.8477,3370.1838,594.54517,-4245.558,972.80927,1204.1301,8967.2265625
222,979.88116,645.36554,3899.051,-1770.201,-2445.6326,2128.7776,7109.79833984375
223,2678.317,3410.8389,6137.331,2536.907,-3410.2207,-2641.921,9225.1455078125
224,-6044.3096,5082.58,-1545.8585,-845.7656,-2748.7131,1001.3539,11036.771484375
225,-184.79698,1441.1368,-3916.3054,-938.28125,1991.4308,533.5967,6166.65869140625
226,4089.1038,4700.267,7989.1846,-575.96173,541.02576,965.6402,4227.4423828125
227,3806.5159,843.272,-3392.1646,-1929.675,1674.5614,421.2997,7706.24755859375
228,4755.5347,2278.4443,879.9565,1262.4122,1220.0187,-1752.2556,5478.458984375
229,3921.7979,-4153.9077,330.8641,-115.08173,-1835.2242,314.51395,7717.0673828125
230,6023.2383,-139.31366,-1698.9296,906.69495,-125.16368,-23.135996,7248.14111328125
231,564.97125,-4045.078,-391.03287,570.9631,1268.05,2815.944,6881.115234375
232,6717.3833,-2535.5334,329.10825,-2574.728,-1279.8304,894.4142,9722.0283203125
233,4098.386,-2716.2825,-763.6113,-80.910065,-1793.5839,-2098.4832,7734.8037109375
234,6050.614,-4810.6333,-65.443726,-629.29175,-1282.4938,-223.93018,9757.9541015625
235,-468.96625,-2759.0613,1925.21,-2579.1062,371.0469,536.0705,6139.21923828125
236,-409.83014,-1669.315,970.74945,1458.0597,-564.9999,-1331.4463,4229.04931640625
237,2028.6617,-2682.6272,-3693.4033,-144.69778,-3831.2449,-326.64706,8508.7119140625
238,2309.3542,-4475.794,2168.4675,-299.8128,2836.7202,-1555.9647,8762.181640625
239,384.00308,242.8633,1573.4832,1673.2449,-4155.6597,2463.2825,8945.0380859375
240,3391.1155,-4746.223,3219.8215,882.05396,111.090065,-102.67088,8200.880859375
241,3488.0767,-3372.4211,-5744.16,4119.009,983.71625,1887.0769,11551.9638671875
242,1392.3933,650.55365,1493.8956,-1490.1849,-1505.7527,-3449.025,7055.99560546875
243,-1875.8042,-2779.8945,-3605.4841,-982.7434,-1359.4014,-1263.6481,3934.09130859375
244,8612.982,-3682.9702,-4928.9736,-2957.8755,2902.7932,-3577.5845,16061.96875
245,5431.1377,-2795.8074,2000.1394,-3366.6572,-97.38335,-1189.8857,9460.8037109375
246,-6222.299,-7030.396,6811.036,-4876.385,-3247.8625,-4013.6392,18230.857421875
247,-5406.202,-7475.533,868.8006,-2925.4934,6281.0845,-2051.3672,14604.751953125
248,-14715.9375,-4668.0747,-12682.508,2950.3342,-2130.8008,3516.2522,12707.8408203125
249,5919.3975,1165.1244,11462.357,-10861.056,-9999.047,-6390.345,29257.822265625
250,-8183.162,-2750.2144,11884.318,611.9088,13954.813,2647.605,30488.658203125
251,-26879.727,-32186.504,-7381.859,-11065.244,-7962.544,-6344.8857,34497.7890625
252,879.1775,1367.261,71.75062,265.2943,-785.1681,468.70566,2000.97985839844
253,-6128.1206,14670.457,604.3138,2459.3516,-5862.5576,-1567.9731,21598.8671875
254,-10644.043,-11193.714,-10628.686,-221.77301,-238.34042,1060.6707,2000.96228027344
255,-6448.519,-6287.134,-5996.7837,-386.9894,762.9024,741.93396,2000.98657226563
256,9931.966,-5876.2734,-19530.072,3665.14,-5149.987,-3807.6328,28557.48828125
257,143.08218,64.99141,-1338.2631,-1435.7911,10326.344,-14354.105,30761.833984375
258,-7704.112,-5510.831,-584.1193,10991.784,2085.9666,2158.3052,20721.37109375
259,4904.669,-19822.656,7880.536,645.9696,12328.346,-10023.815,38112.05078125
260,-3179.5085,-3447.6548,3304.072,2093.8706,4210.901,-6078.602,14867.5283203125
261,2906.8604,-12498.278,-11529.195,2363.4182,5810.249,-3240.6145,19309.77734375
262,-1378.7466,-6388.8813,11164.405,-6996.0015,-7392.1646,7194.1753,26670.35546875
263,-2289.1335,3784.837,-7219.9565,-4433.598,-1886.9904,-497.79266,12710.3017578125
264,-1662.2648,-804.6574,-1973.198,-6468.561,-127.23194,2497.1357,12057.4169921875
265,3122.5618,6131.805,-3896.9731,750.55615,1069.9607,1210.8091,9432.6845703125
266,-942.9607,6498.74,-2896.6907,-2238.9348,-1566.059,3006.9324,11102.0751953125
267,2153.8894,4013.5955,-1957.2527,-434.83017,-2546.539,-817.2057,7073.24560546875
268,-41.095264,4798.4204,939.1608,-2013.2483,2134.1616,-2134.0452,7689.1962890625
269,3220.8162,9993.739,142.10275,-1327.0625,1672.2493,1197.9097,9704.65625
270,-1797.0763,4449.8394,781.83856,2653.2537,-1712.0474,166.88527,7717.5537109375
271,-3061.035,4117.4766,-796.2372,2443.844,-83.478004,-1132.1456,7885.79443359375
272,-5014.7974,984.6851,-1529.5657,4928.0356,1178.1355,-57.30345,10210.853515625
273,-3046.5605,-10871.87,-2799.6167,3397.0835,-124.98586,-2768.4146,10994.935546875
274,3419.6682,-3522.9243,-3041.531,4879.53,-2351.067,-1150.628,11707.8193359375
275,-7043.503,-4781.2793,-3580.269,3457.2378,253.53242,10.53409,6732.583984375
276,-869.43353,-419.9047,328.33206,-3102.861,5188.967,1836.5272,10994.369140625
277,212.23697,9607.309,1383.133,-661.2265,-356.91367,-839.8301,9080.0595703125
278,3061.9668,-2284.6006,1852.049,-1660.8325,5277.3667,-4555.3125,13328.9267578125
279,3018.4927,-2777.8694,2643.882,68.34854,-2181.4722,927.2369,6959.63720703125
280,2137.6982,-4797.071,1247.6866,-2115.0935,2098.368,-1186.2468,8576.8857421875
281,-6701.7363,-6175.0024,-3745.8132,-3134.9285,-1825.376,1930.4143,7623.435546875
282,-2949.3655,2618.1301,2876.5432,1425.5903,-67.88318,-734.8599,6342.97265625
283,4369.3296,3198.2764,1930.9856,-2213.7334,-181.98625,1437.8561,5046.28076171875
284,1148.007,-576.13727,550.0173,5120.09,1358.5912,942.85345,9441.8974609375
285,431.6405,-1195.9816,-1949.3395,3418.3127,-401.83853,-35.54778,6323.42333984375
286,9593.321,4212.654,-7595.1855,-2986.789,-69.558655,4805.8047,18110.0859375
287,-3794.0327,-1048.8323,-1906.3146,5084.7456,-258.65692,2395.9797,10045.109375
288,3410.9878,-493.48593,-858.384,2039.385,3101.0903,-2490.9954,8760.453125
289,2808.553,-2097.8481,-3386.2,3496.1946,61.1331,-1892.9814,8915.451171875
290,-964.34827,-320.1368,825.56665,4008.5962,-1283.987,31.825048,7457.958984375
291,1922.6698,-3364.7158,2682.7214,2681.8533,2201.4817,1455.4005,8661.6376953125
292,5022.2437,-5030.649,-3648.3862,-766.10034,-302.0151,1553.4882,9917.15234375
293,-1339.8207,2287.8005,-364.60715,-2908.5813,1971.6427,3145.0374,8791.3828125
294,768.22125,-5165.6562,-5365.429,-88.81382,825.8239,-2966.2397,8056.15234375
295,2390.951,-3589.1895,861.191,-1510.2865,-1653.6776,532.4409,6697.1181640625
296,-11410.562,1719.402,1776.5717,3810.0186,-864.4233,5974.112,18055.75390625
297,-10969.348,-11984.038,-8974.092,11012.807,-5634.2705,6502.473,24350.8203125
298,-2271.1519,12741.77,13749.964,-1321.3214,1120.2706,-2648.3184,16479.796875
299,192.36084,3994.9807,-6791.436,-1087.2607,1755.0475,-973.9041,10267.546875
300,-1292.2861,190.34714,-133.28302,2396.1584,239.82274,645.8267,4524.56201171875
301,-2523.923,1956.7157,11294.595,2532.5554,-336.22137,1310.1321,13184.90625
302,4640.183,13849.123,6393.236,-3586.8723,-1128.6633,-3287.6902,12106.9951171875
303,-1497.5006,10281.052,-3481.0334,-1985.4855,-736.59875,-970.3027,13502.240234375
304,-1570.6079,2066.1196,-918.11096,-137.3434,-671.85474,127.518486,3569.05102539063
305,-2452.5515,2531.387,-1715.4247,3277.5127,602.2447,601.112,7490.4990234375
306,14679.134,23004.36,2843.2563,-4451.957,-3438.3555,8811.438,25214.771484375
307,4085.722,4306.296,3138.4734,-5516.3315,1477.2656,965.842,10089.1083984375
308,5360.725,-19992.457,-671.3149,14094.511,-4453.037,6268.233,36049.47265625
309,-8900.395,-13529.944,1354.4075,13132.922,55.869175,502.98444,26310.796875
310,-2859.9373,2882.6748,-8341.875,-7707.5654,544.3921,-1658.5067,16789.001953125
311,1344.6913,17.704288,-409.55667,622.041,-149.58157,-297.54214,2000.98449707031
312,-2869.4714,-1278.1079,1863.1355,6561.075,-1011.4542,-2081.8147,12751.97265625
313,-1120.4519,-8801.058,-3420.279,300.27148,434.097,483.6663,6939.3408203125
314,1467.7507,-3211.9924,1953.1196,5780.4297,-1268.797,-2647.5784,12268.0732421875
315,6742.684,166.14844,379.18646,3568.3445,1142.9968,418.7033,9194.544921875
316,1067.2471,-278.0293,1598.4447,4446.2754,717.10175,81.17238,7979.79345703125
317,6.4674525,-1844.9554,-2891.1318,2604.37,-570.4239,-905.1004,5499.197265625
318,-4213.8423,1830.0417,2825.1133,1970.6816,-329.01685,2190.6199,8360.90625
319,14301.893,7905.1387,9938.727,-4929.096,-5387.7715,-697.2249,13909.5712890625
320,12097.533,17495.932,9403.059,-5456.594,7132.1143,555.23047,17140.537109375
321,13918.1455,9454.146,6667.4526,-6356.7925,8276.397,5900.8193,21709.77734375
322,2369.2402,-1331.842,5769.9917,-3268.5132,-3262.7083,9277.533,18975.056640625
323,32660.615,22019.15,29427.691,8379.536,-6478.681,-6688.805,23666.001953125
324,10861.424,11478.004,4016.4978,-13406.97,1131.1979,2397.8591,24734.23046875
325,-6358.649,1689.4371,-10965.06,2035.6532,-2117.0413,3658.3596,13751.0556640625
326,1779.6907,-2198.118,2433.7383,1260.1471,580.36725,-884.9597,5193.8681640625
327,3055.6057,-1922.1399,7702.5317,809.1619,-2891.638,656.81696,9891.7265625
328,2113.6067,-6219.042,-1084.4563,-1128.0784,1375.7798,697.2552,7997.92431640625
329,794.23956,-9727.05,-1509.3853,2111.5833,4368.9727,-698.28534,12801.173828125
330,11601.313,1423.3834,6077.5767,469.7763,1414.9198,1369.2122,9496.0
331,2294.5713,547.68286,2406.6897,-3434.4211,-4743.713,1933.6249,10833.787109375
332,6943.0566,-7359.957,268.16263,3683.0408,-4543.5796,2819.2463,16737.099609375
333,-21174.338,-1198.9518,-17281.031,-1452.3209,-9661.526,6382.3574,27294.138671875
334,21121.578,22100.578,11898.655,-50.068275,15761.134,368.67862,28994.91796875
335,-4358.528,-12713.085,-8373.4795,12898.789,-1107.8633,11435.414,30781.484375
336,-3183.4524,-14574.842,-2391.103,-364.31085,-12469.258,-8912.017,29060.8828125
337,-3281.5918,1240.3164,1690.992,-4426.397,-1200.4932,-915.8367,9397.205078125
338,-3476.028,573.35974,552.6733,2737.8018,3397.1274,2239.3242,9405.6376953125
339,-8022.9614,-2511.542,-11119.27,628.37054,-1155.4681,-1197.2806,8155.87109375
340,-3909.5627,3945.916,-8600.112,-1289.3392,-1568.4686,-535.37366,11566.4892578125
341,-4893.7295,-2230.8726,1819.0919,4255.6514,2781.0984,-1804.9419,11026.6123046875
342,702.16235,-2098.6,222.73805,845.105,351.58826,-147.3131,3051.2158203125
343,2779.2847,20.340498,59.528313,326.8918,-1308.9448,-2082.8228,5097.08056640625
344,8100.2803,9746.225,3786.3694,-8443.476,1703.0066,480.28787,15864.708984375
345,2530.7744,-5515.045,768.06665,-1082.443,-1202.331,-2389.1443,8867.6826171875
346,-5411.8364,-4458.401,-1045.6854,-4279.667,-1749.9312,841.4826,9059.09375
347,1805.3408,-1838.8922,963.08673,-1246.1213,-861.94904,-874.4014,4483.47119140625
348,-2500.862,1681.1149,752.7257,2046.601,545.77924,1111.0911,5624.1669921875
349,-454.32474,-1474.0565,-914.06946,4940.2153,90.25424,484.15427,8644.4921875
350,19041.998,19111.691,21897.375,-953.09375,11522.0205,-9472.599,26041.2265625
351,4743.341,3796.156,10149.41,-4183.6094,-743.992,1717.3342,9912.5849609375
352,-2192.8113,732.3835,-1178.8768,216.74348,-31.56713,-1660.2814,3877.16357421875
353,-2616.6255,-1318.241,-2393.4807,3.9865701,-312.7496,1299.4329,2608.6259765625
354,-1039.6113,260.21408,3236.8057,-619.833,2331.2944,-2803.6406,7446.96435546875
355,-7686.2656,2827.2363,-1000.7089,2752.1897,-2455.9434,1031.7036,11355.775390625
356,-2207.9338,1606.2694,2489.2986,2619.1526,-1328.0546,-6195.9565,12638.6962890625
357,-4588.271,2038.6543,2142.0388,4836.565,856.5007,804.85126,10905.6484375
358,-6865.6953,-2580.174,-3915.8428,6541.435,3413.2803,-1697.3376,13652.5126953125
359,-3122.6343,-648.9394,403.857,6141.449,-1083.0857,753.3361,11322.80078125
360,-1635.7053,-1571.6459,1918.0143,-1067.9084,896.67993,-37.93722,4271.1923828125
361,5987.8345,3376.5232,107.101944,-613.5736,-162.11096,126.38987,5225.1044921875
362,-537.1482,-3719.8015,2705.426,-451.64066,-670.11383,184.99661,5746.7666015625
363,-1417.8481,-3923.637,-837.53174,-588.4289,267.74133,-250.86081,3084.23266601563
364,-3899.3481,-6224.701,-245.66287,-5081.0938,-1687.3678,-1518.985,10962.158203125
365,-2295.362,-12137.705,-13950.104,-985.1683,628.772,-2061.2056,11611.984375
366,117.203476,-688.49786,-41.834545,-1940.4617,-936.1423,242.53122,3827.275390625
367,-18664.434,-17559.275,-83.20511,-10258.014,941.90063,-5598.0767,27171.78125
368,345.18954,1683.867,-756.95935,-1400.7936,-2065.97,-69.45188,4815.396484375
369,1156.2762,1075.1954,-451.85114,3889.1897,-890.74786,60.11473,7087.3681640625
370,295.17676,-1125.5466,105.15331,2393.159,800.083,-582.4183,4680.1982421875
371,1744.4608,1820.7664,2980.857,2904.2688,-652.23645,-222.81668,5307.509765625
372,5223.386,688.49194,1142.701,1187.2903,27.357697,-488.87753,4864.1552734375
373,-182.42082,2676.0432,665.24146,1164.0773,368.77225,58.693703,3309.05981445313
374,-2438.1272,-4042.54,-1012.0998,1583.9415,27.942152,239.99533,3820.65161132813
375,-1300.1046,-3767.5872,-417.34833,-399.953,48.392002,-152.40105,3098.79077148438
376,4210.116,-4171.6133,55.220352,-1965.6873,761.7055,830.0288,8251.7001953125
377,-2651.5547,6999.6665,-894.3042,627.64703,446.6784,387.20193,9027.9873046875
378,3821.204,2131.6814,-272.6817,585.3948,-75.86638,-291.8741,3741.466796875
379,1329.0137,1868.1415,-263.53265,877.2676,266.20493,-354.25824,2565.80126953125
380,-8357.749,-3843.6328,678.97675,-2432.2434,838.1191,-938.58734,9151.197265625
381,-3617.5398,-1981.3301,-2925.336,1236.4004,-1718.8025,256.61133,3958.55932617188
382,422.9258,-7049.0483,-1935.0157,-640.5061,-549.63617,-336.01587,6800.556640625
383,1504.119,-4589.168,913.21906,-1306.8539,1582.965,-569.14606,6891.2626953125
384,3249.0107,-2312.3345,2115.0757,905.0613,-416.46658,-147.96683,5380.66796875
385,-1368.8495,1433.7903,-975.11176,2254.3147,2.2219179,95.03354,4709.48291015625
386,-2027.9163,-282.99045,-42.653847,-400.19778,156.18834,-258.7502,2067.94873046875
387,1428.2777,1167.2896,4360.9043,3405.7341,123.56374,356.68756,6682.6904296875
388,6812.79,11313.658,9752.222,-2130.8867,-1816.3075,-842.181,6427.66162109375
389,6548.6064,20754.668,17152.383,-487.63937,-118.710556,2681.7979,13636.20703125
390,-22783.752,-27805.656,-20295.11,1983.465,-964.4966,-472.93076,7692.51220703125
391,15520.055,17569.588,425.6154,5800.792,-97.37253,9546.996,25246.59765625
392,-1931.3854,55.791122,-455.83228,-2734.3733,-110.97154,392.3843,5111.08349609375
393,4875.232,656.0032,-384.73978,2550.2292,2479.8555,-1264.5997,8126.12255859375
394,130.35445,4259.2544,2620.9868,395.67395,341.08755,249.89929,3738.11962890625
395,304.82336,2181.3706,-397.88016,675.4327,1681.9375,-596.022,4031.74584960938
396,5065.1816,11383.392,11636.8125,-1218.4417,-296.62164,2197.9495,7797.17041015625
397,993.37555,2384.145,7320.434,-2136.0085,-8.690316,-546.8168,6910.23046875
398,2023.5673,3361.392,10108.092,958.5783,-155.10535,2623.6553,8933.8193359375
399,276.3711,4116.1807,4883.351,1674.6746,1510.8845,-1002.5434,6046.12939453125
400,5136.365,-1956.5299,2379.5244,-129.53384,-747.5382,81.88814,6332.63330078125
401,4891.449,-3746.1975,2316.221,513.07495,1327.8546,-648.7211,8144.85595703125
402,1793.9287,3283.0105,302.48074,-2377.7456,1710.9202,965.40674,5933.08251953125
403,-1097.4987,5347.3413,-2953.79,-743.7456,1015.7173,1.6874311,7854.92236328125
404,791.5387,6331.6206,1898.7013,-2154.605,-910.33276,-1861.8212,7252.3623046875
405,1620.1694,1556.4641,-243.81364,3552.873,824.053,-138.47734,6582.03466796875
406,1954.9677,364.76135,-257.31125,-662.9504,-150.62154,468.5684,2439.3017578125
407,-890.27625,2475.9468,691.81525,-51.425716,180.51782,-233.68686,2962.8232421875
408,-1958.1061,15471.461,-23.79452,2902.2273,208.49115,2981.5752,18052.3046875
409,-2249.5151,-2600.936,785.13477,-702.3891,-1710.0156,-472.5325,4617.51123046875
410,-17910.84,-5387.6104,-3225.9585,4398.8916,-2878.7227,-9076.924,22774.072265625
411,1707.8793,884.6591,2299.3103,-102.87502,675.44867,-161.31326,1729.99096679688
412,2291.6814,-2511.9387,-260.17133,166.23763,-451.84222,-1331.0265,4831.0322265625
413,2162.9043,-1859.0833,-587.1547,2889.2913,959.206,2317.0032,7522.5166015625
414,-75.66852,541.3073,793.4848,-720.6975,-301.6955,648.7003,1921.86145019531
415,-13140.4,3370.2764,-2145.1501,-2506.5803,-1072.5463,-792.0987,15366.8837890625
416,-1378.2305,228.69395,-2660.9993,2097.9248,1444.4984,723.3153,5227.060546875
417,-2216.0413,-489.1881,-176.90514,2039.6495,-365.4706,-318.95126,4099.41650390625
418,1747.7151,-4292.3647,-2114.6008,1615.1132,33.14235,-298.72104,6013.99365234375
419,1993.4756,-1109.083,-1093.4359,1502.132,-492.02112,-382.7649,4184.7998046875
420,2892.8584,1820.771,-2911.9893,-2051.7832,1208.5034,2247.9973,7797.0302734375
421,16133.58,18894.248,19233.32,-9512.412,-10830.662,-3034.2146,25683.833984375
422,3613.6396,1375.1816,-88.338165,-1010.25977,-375.70566,-939.012,4069.29736328125
423,2804.2712,-10358.805,-4008.438,-639.0256,870.99774,-57.417385,11554.8359375
424,12318.651,10108.716,3457.9636,9156.765,-2483.6782,2611.65,18823.419921875
425,176.35855,2899.8281,594.60834,1387.9291,-1025.0312,-1437.7847,4646.06396484375
426,-1498.9601,3101.5254,-33.5153,-3767.5405,-812.9281,-223.24657,7828.4990234375
427,-266.67795,-5210.7466,-11171.414,-3122.0337,-578.7423,-1395.7379,11204.181640625
428,1161.7941,308.30356,376.63074,559.4951,-819.40186,154.02473,1923.36462402344
429,-9328.589,1823.025,-4896.3154,388.91238,-1082.7526,-471.74142,9960.671875
430,-291.57104,-1233.7098,-6161.267,910.6236,284.52432,-828.8658,5882.39013671875
431,-2211.9116,-5138.4897,-7056.5044,-4094.2263,392.11295,-1385.9991,8623.755859375
432,769.6863,-484.13974,-785.0363,-483.01752,617.12,626.2637,2249.20825195313
433,4346.869,1708.9899,-3503.996,1604.3535,-151.694,-393.1971,7492.6337890625
434,-3920.7659,1611.1597,-1210.8795,3525.1277,-54.36845,441.72562,7799.26904296875
435,1555.1019,1056.6433,-2292.0647,47.898746,168.86514,146.91081,3645.36352539063
436,592.6153,-2020.2748,-2488.8086,1045.3676,119.591995,512.9415,3518.744140625
437,0.110018395,-222.20906,-2122.4673,-200.27745,71.232124,-143.79054,2068.92553710938
438,8190.104,698.51575,359.36118,3429.8625,-1552.4525,1686.7562,10480.33203125
439,-3783.137,-7983.572,-5785.86,-909.71655,844.56976,-1082.2993,4623.74365234375
440,1716.6716,1856.814,1730.5077,168.10277,143.02151,191.77599,523.800964355469
441,468.19156,-2041.9868,-845.22253,-2212.1843,512.2981,-735.9905,4671.490234375
442,1399.0284,3661.913,-338.26257,-2593.32,-115.61948,178.82643,5690.52587890625
443,3896.7185,-2240.4702,2836.671,3127.2485,335.39325,692.25824,7962.23876953125
444,-422.60294,3764.17,2327.5122,-1907.05,39.420578,-460.53796,5012.939453125
445,2126.8926,-2731.7834,-3830.8096,-833.7507,594.76013,201.56918,5781.25732421875
446,25183.748,30012.229,17131.123,-1661.661,2482.8625,1047.1714,12534.265625
447,-4492.7837,-3610.6714,581.7715,-1782.7753,70.927444,366.24454,5657.31982421875
448,475.8862,-2579.3826,3673.6636,1001.12115,-794.65686,-193.1794,5860.3447265625
449,-4316.517,-684.5806,1653.7754,2012.2198,-58.41647,129.93855,6273.7236328125
450,3897.5552,522.0132,-410.06396,1896.1992,-232.70532,-57.91325,5135.03125
451,2602.3206,1850.1655,296.55115,-440.92706,-416.35953,1272.6637,3179.67724609375
452,-1564.3843,-3300.615,-5730.886,1028.6222,-145.0074,-832.2477,4295.9755859375
453,3765.761,1393.6832,1118.3619,-1006.86017,1124.1184,428.9775,3706.7412109375
454,-11165.472,-28898.748,-13726.311,-8063.992,1575.0011,-2474.3743,22282.466796875
455,2490.4744,5876.6396,1670.4454,-2448.2893,2809.2566,-746.9152,7631.97802734375
456,-3057.7993,-2672.1086,-2301.47,110.38318,223.32765,-313.48874,953.984741210938
457,701.87,172.14987,2319.3396,319.14062,-485.11282,652.7064,2458.30224609375
458,2314.3638,-511.5813,-463.71832,-2015.0945,256.37814,788.747,4700.890625
459,-1655.8048,3867.6628,-4334.4595,-2893.1968,577.2996,356.94287,8886.6845703125
460,-1598.8271,1496.5493,-648.0274,2303.6846,-1842.559,-595.23474,5891.6181640625
461,1866.5309,391.33798,1308.4181,-783.4424,-127.91123,-172.45401,1908.92919921875
462,304.93594,-1022.5472,-421.80667,-917.8047,333.67746,534.7559,2246.02709960938
463,-2159.1375,747.8144,-5532.5195,-2783.3042,976.9738,-402.55823,7498.41845703125
464,-5697.652,-8500.031,3342.5051,4375.602,-2485.2964,2083.9978,14279.6591796875
465,1664.7384,1619.0237,2360.6873,-1880.0492,-60.409306,339.4711,3388.01928710938
466,46.616383,-7833.651,-1630.4834,-3056.367,806.178,176.28052,9042.2578125
467,3616.9055,1284.4691,-1565.0701,1757.5303,-1628.9371,-311.21402,6141.99560546875
468,-2334.5342,-3995.4124,-2679.683,-199.38512,-342.56873,-6.15265,1666.08239746094
469,-720.1593,-2577.6438,1354.312,-2266.8005,20.379326,1152.2188,5568.3212890625
470,1729.8212,-895.83984,331.7725,-332.4,-892.7325,497.5903,2939.89868164063
471,-12090.226,2425.9834,8752.412,-1730.7969,-2166.3518,-1818.8396,19379.642578125
472,1585.5579,4627.966,2801.2773,2113.2393,-670.0546,-673.6369,4810.5224609375
473,26.100233,1009.1189,1441.5045,1740.2825,646.4058,429.2878,3531.35400390625
474,630.3485,5388.2334,936.61,-866.8213,-130.08003,-728.0365,5016.88330078125
475,4704.5015,4100.9067,-1193.7043,-1376.6287,-2.3808672,-449.85693,6155.1181640625
476,6076.3296,1968.2356,3741.0564,-2867.9966,-55.93961,-1029.3799,6371.88232421875
477,-17667.943,-8153.393,-17323.068,7012.6904,6534.7397,5458.351,21269.392578125
478,5087.614,3947.3555,3288.7664,885.96466,18.571514,-3003.296,5648.015625
479,10879.058,-13187.223,-11586.172,3778.2302,4292.366,-293.3436,25329.318359375
480,-2776.0698,2661.9045,806.3596,1028.6945,4.3625355,-52.58313,5109.52001953125
481,999.75024,5113.8804,-762.16156,-405.6926,209.7584,720.53204,5427.9267578125
482,2743.4297,-191.44841,685.4055,-1868.6963,-289.26144,24.086416,4187.810546875
483,7309.735,634.1017,1091.5201,-1009.02484,-389.6575,-723.3047,6840.99072265625
484,-1105.9312,1884.34,1271.6315,-924.5418,307.31207,-650.7234,3406.30981445313
485,-3878.438,-3687.328,-574.9726,275.19794,-217.66565,772.24567,3532.2099609375
486,2595.2563,1888.5087,1558.9639,165.3144,-229.79128,-8.799848,1040.01354980469
487,-4735.876,-3344.929,-605.1065,1209.6978,58.19254,-229.30359,4220.2265625
488,3724.7065,2961.1658,378.21225,-284.6333,-191.87419,-734.09515,3346.19409179688
489,1176.9773,-5169.7188,-1528.081,1223.1345,215.1829,1012.9006,6175.32958984375
490,13051.178,5691.5156,6390.013,-3225.1106,-4775.3765,-3541.8706,13666.126953125
491,-4911.6245,-6236.5728,-906.1155,-2103.536,-204.80533,-185.74506,6050.669921875
492,-12687.526,-8847.76,-2999.791,-2498.8694,231.60727,148.07135,9505.63671875
493,2519.6855,3426.3591,-1391.0481,807.5295,361.00314,-252.10843,4711.64599609375
494,2692.9336,-3215.1519,-170.54433,-2056.2039,-180.73695,269.6798,6259.98486328125
495,1084.4862,-3600.2102,209.58746,-1383.2313,85.477776,-515.8508,5017.31103515625
496,1942.0095,1235.4434,18.006622,-1914.8103,-136.7168,-847.15454,4006.26635742188
497,-3397.9468,-160.23848,-84.31396,-117.92904,-283.11932,46.786373,3320.10522460938
498,-1582.2722,2088.5706,717.0116,-577.2205,-114.57469,-293.8528,3408.73364257813
499,4730.3726,563.6367,-398.96814,-232.05826,-253.29074,-233.46349,4776.6884765625
500,17297.19,-1470.9232,278.06412,-4839.34,1322.6674,-3087.2,20653.673828125
501,786.7836,-222.26187,1144.4779,-339.21747,120.4035,-141.95877,1398.642578125
502,338.5584,-1221.0681,285.06293,-105.53344,-696.0788,-911.29144,2515.99072265625
503,-5886.5435,244.56915,-641.43823,-136.02917,202.03275,422.03458,5801.3486328125
504,-100.733894,2020.4022,-4820.78,491.87314,-117.35813,186.6022,6136.8974609375
505,-6586.9067,-427.12753,951.38367,-829.7542,-90.34489,-612.7041,7179.88037109375
506,2266.576,3518.8357,4351.609,854.4363,-811.38745,-313.19116,2786.39794921875
507,1494.2332,7350.0024,2529.6587,-3196.453,268.8573,676.8452,7844.87548828125
508,-2769.185,-556.62775,3679.0298,-3526.2585,-1305.5927,1219.9602,8893.25390625
509,1115.6041,1661.6349,387.14716,361.76367,322.19687,-203.41714,1433.4384765625
510,129.20267,791.70233,-1179.093,-413.78687,148.15211,-136.10513,1911.1171875
511,-400.82632,1348.712,-1690.95,-617.31226,857.4461,343.4401,3268.8134765625
512,415.3735,2888.5193,1035.6327,2150.0115,-604.61646,-215.48996,4480.046875
513,-4833.9854,-281.2778,201.27301,-929.8641,-3.1758044,56.330105,5075.47119140625
514,-2606.716,1314.7405,2269.3528,3034.6443,-104.823006,-451.7893,6950.185546875
515,1074.847,4895.2812,460.93866,-1350.1666,-12.395098,-130.73811,4778.97314453125
516,266.60068,4181.514,-514.57544,402.4994,-117.441315,-305.08813,4449.90478515625
517,-7875.907,-6768.2173,-2698.464,26.519325,518.39886,839.11725,5021.80908203125
518,-13138.601,410.96463,4762.701,1807.636,-289.535,1099.1176,16588.271484375
519,1942.251,-136.36205,3411.1045,-1640.519,-200.64996,-268.15393,4235.7705078125
520,4107.796,3942.941,4063.7783,-1024.8168,382.2658,-711.51385,2264.89379882813
521,-151.80942,1409.1812,-4267.946,94.76347,594.6538,695.4559,5323.84033203125
522,1422.6365,2829.019,-1688.4149,-498.85666,1749.864,1244.4456,5532.67236328125
523,-1064.4061,-4259.7695,-2714.8,-1379.4176,-45.968513,113.35844,3662.48657226563
524,5547.758,1251.3048,-1720.2045,-1562.4542,-95.25953,144.8395,6889.86767578125
525,-52.68575,2967.9592,-648.06024,1063.5792,-401.2261,123.55823,3898.65747070313
526,-5506.275,-6697.692,-436.11203,138.22548,109.56352,-299.2042,5790.38916015625
527,-4643.699,-1079.702,699.8436,-258.93356,-615.2665,-1139.0658,5238.35498046875
528,-2718.653,1408.9592,-1229.532,145.42139,-108.63037,-531.6701,3749.001953125
529,948.06256,2556.5637,-304.2846,-36.954052,453.89334,415.02597,2703.50610351563
530,1571.4175,5578.1216,4226.251,14.764888,-68.2128,-751.0301,3764.4970703125
531,3943.855,161.14204,1228.9967,3425.2937,-349.02576,309.48904,6874.6318359375
532,1649.9624,2375.1987,165.4416,2693.6418,187.64912,118.959274,5071.6474609375
533,-981.9238,-4324.5195,-592.37976,81.1286,-231.74915,710.94196,3784.70092773438
534,1254.9285,-2809.6538,-192.27548,-1808.2971,-206.10732,-471.94025,4830.982421875
535,1543.3652,-1581.3077,-12.169664,383.0543,-86.611496,36.850033,2790.96801757813
536,765.94543,1924.4246,1620.2609,278.87415,-125.027245,-73.48627,1174.15100097656
537,-7289.9814,5081.058,-341.42734,1213.8495,-60.30913,34.53614,10945.271484375
538,-5138.5337,3381.6362,662.3786,4414.1406,616.6946,762.4404,10870.046875
539,-2826.9824,319.88345,3167.6667,-654.9534,-32.080284,178.69476,5325.4111328125
540,-404.41348,-1343.7957,1399.7867,578.6453,226.65656,-195.71199,2665.6953125
541,-3508.173,1026.045,47.034164,-3564.6187,289.51566,-19.443865,7446.51953125
542,-4665.053,1664.6559,-1558.6156,4886.756,-198.8617,315.2107,10104.9580078125
543,966.60645,-1103.2974,-2203.1123,4426.073,927.48254,273.72766,8327.4501953125
544,8618.719,-1673.0287,-1943.4193,2093.2075,215.42924,6.693084,11048.0712890625
545,-3254.2314,-1004.76843,-501.62573,-926.40924,-594.7421,974.14343,3595.51953125
546,5963.9146,-1639.2568,-350.27155,-2459.1846,251.24417,55.343517,8246.8564453125
547,5080.4688,-6583.778,-1323.5452,-2902.0708,-85.685974,-68.174515,11299.1181640625
548,4140.44,-8554.833,-1007.20667,-4239.7227,-129.4927,28.542772,13277.6484375
549,3003.3342,1875.5874,872.65564,815.70593,75.96235,-615.1541,2560.74609375
550,1958.403,1437.4033,-663.6505,-691.8067,-95.555595,60.47598,2693.44946289063
551,2571.1162,1666.0504,299.10938,-576.8609,155.28304,-275.29874,2285.35693359375
552,-6182.345,-103.28021,-2138.0664,-503.38464,617.8162,-296.3229,5558.28125
553,2501.346,1665.9344,551.3497,-3702.4775,-130.16068,132.1801,6640.75390625
554,-8815.8125,-8006.6006,-2361.735,-1230.8645,390.6066,-648.3881,6584.16650390625
555,274.33493,4935.788,1702.862,-1738.0112,-159.96043,-66.52095,5124.73486328125
556,905.4456,2066.8499,2088.2927,-564.5438,-316.67297,-109.38697,1633.12414550781
557,1048.3234,411.8049,2375.3071,-7.923817,299.73904,215.5574,1849.271484375
558,3435.9211,4582.141,710.76953,199.17754,-162.26778,-138.26608,3481.27197265625
559,7648.446,5522.433,1094.8694,310.66574,-574.2505,149.8525,5906.1416015625
560,-4172.642,-7988.551,-433.01474,-1742.6833,566.48285,115.21815,7275.2607421875
561,-1174.5803,964.421,390.32114,-2990.1938,198.10663,-285.84433,5555.49755859375
562,-334.12692,-1055.6364,218.49918,-612.78314,-395.95502,-333.7319,1776.4228515625
563,1839.058,-4111.7153,-54.139236,2431.751,-375.3849,-409.7624,6811.50537109375
564,3292.4102,419.4488,-548.36017,1888.2534,-234.79395,-70.78544,4779.95361328125
565,-3470.815,4619.868,-92.63215,-1561.617,-129.39209,-361.7266,7569.5556640625
566,2089.1008,-565.92944,20.303223,400.55795,-117.56729,117.90436,2530.0
567,3450.5403,-915.85455,1331.3219,-1060.1431,198.32239,-244.06982,4239.2880859375
568,2906.9595,-1166.4844,1125.5667,509.31152,-22.796906,-234.76727,3668.10595703125
569,-1944.1451,-1431.6857,-3681.692,2858.162,-36.669144,-586.51984,5451.18603515625
570,1120.5367,2508.6428,2081.8647,-31.263437,-82.848724,433.89484,1450.82141113281
571,-5929.1133,2563.9148,-1246.1053,-1580.683,-31.021414,416.59085,7893.56591796875
572,1968.4768,2367.7239,318.6782,-1356.4736,182.99841,787.83093,3320.0107421875
573,1226.6558,2254.1587,-1646.3842,13.279496,198.61087,-210.69073,3537.5439453125
574,-1229.0243,-4002.1914,-6850.48,1497.0903,-214.98305,190.93976,5538.39794921875
575,1243.0608,1311.2389,4367.303,1130.7034,620.09125,1413.7651,4531.8583984375
576,-880.7371,4.2999506,14.634627,1300.6671,-210.67932,215.09937,2477.84375
577,-1442.9266,-1499.7078,-3635.7385,533.75635,116.04932,1092.1522,3026.65112304688
578,-13687.813,-1969.3702,-312.21335,5235.8867,-277.1528,547.9906,15584.0380859375
579,4204.485,2889.05,-3314.1877,-474.98676,-301.14978,-18.50074,7022.849609375
