Element Label,S11,S22,S33,S12,S13,S23,Mises
1,-106.44537,879.72736,581.8362,1855.4119,110.145035,-242.24945,3362.67944335938
2,2325.6753,462.58997,915.3783,755.36633,715.4059,416.66113,2569.14233398438
3,1285.6051,1516.2256,-2468.187,720.2245,401.38904,369.35886,4178.3525390625
4,1821.732,2202.2598,2422.6514,446.68835,-586.4234,-377.1526,1527.82189941406
5,1748.6488,2820.4436,1908.993,534.6447,218.96971,-614.1496,1770.73864746094
6,976.77026,1414.4961,1006.0666,423.84732,-174.76595,-491.03183,1238.36352539063
7,-424.79633,798.1862,-1503.8435,891.92633,335.07288,457.47067,2707.5712890625
8,576.15247,941.72485,1634.7079,1414.1016,-187.38406,-265.8436,2680.22583007813
9,1192.3735,422.58362,-1267.9409,300.12,86.69331,-501.27243,2407.9833984375
10,1997.7836,1981.2844,-523.2845,1046.2559,-165.73413,673.45636,3322.86767578125
11,-819.4728,-218.46367,-1691.5216,-55.264305,191.63757,-484.19604,1571.13488769531
12,2003.0011,2146.6934,1290.3964,785.5786,-228.62898,-579.2877,1909.39428710938
13,1271.59,935.8865,-1061.5702,1314.6268,71.42961,-706.09106,3386.56396484375
14,1292.0988,2655.286,2685.892,945.8478,-152.1794,211.70645,2188.32275390625
15,1847.2709,-417.81503,468.17633,273.85635,-276.96423,-1735.6244,3660.74365234375
16,1591.4868,237.13725,13.56208,-2582.9631,1902.2217,1114.6056,6065.0244140625
17,799.70105,-1239.3259,-1328.5464,1870.203,-1030.7898,781.2885,4456.37890625
18,760.07294,2023.6075,238.71353,522.58344,280.57294,-767.423,2312.86596679688
19,-10333.015,-1924.6381,-11532.555,970.9698,5799.1226,2303.5583,14207.8447265625
20,240.04599,5735.102,8306.462,-1403.9438,-4255.6064,698.0494,10613.333984375
21,4963.8525,2191.4607,866.5484,2185.9797,-79.72134,823.3342,5431.662109375
22,-5822.9053,6208.9746,7837.4854,3592.2305,4901.515,-4999.3745,18782.44921875
23,1566.812,-706.9407,-466.62106,3095.9731,1248.8173,5.0378966,6173.74560546875
24,2487.2476,253.39902,1223.0314,1597.0656,-2132.924,45.593132,5007.0390625
25,-636.5064,-165.40005,-2334.1494,1828.3303,3102.4553,-1667.6063,7151.95751953125
26,1647.3937,4028.9473,1234.762,700.8493,1635.2092,-592.27576,4168.025390625
27,2055.353,3220.9683,7699.213,722.8396,1350.8638,-1044.5614,6078.53271484375
28,-531.6443,1189.547,-688.8749,-308.54486,63.09943,445.90808,2037.619140625
29,-542.3134,-1158.4331,-4762.551,442.78146,-285.96613,1419.4288,4740.0068359375
30,3080.5728,-3167.1619,-4024.5583,745.9304,-754.8791,2661.232,8351.7265625
31,-372.16562,63.285282,-920.4481,-3467.3877,1353.7316,-535.4181,6569.25390625
32,-194.70241,1005.3319,-2269.5789,-1028.7941,345.66095,-638.4761,3604.40991210938
33,-2392.7175,1692.0382,-1344.5911,-1612.0258,-485.64474,808.2608,4895.482421875
34,3880.4082,-2248.0989,1255.7004,3286.0598,645.0886,171.37991,7879.9267578125
35,1310.1069,362.9999,372.69534,2715.64,-288.08014,-371.77725,4865.76318359375
36,3042.5415,4142.816,887.17505,-2219.24,979.5843,1208.1455,5500.94384765625
37,2241.5764,-2806.0413,-443.02734,1202.8528,1292.0654,-1827.4995,6205.06396484375
38,2950.5437,-2014.5297,1793.935,-198.78543,-1360.3435,1571.6721,5773.01123046875
39,-2255.1086,2237.25,-2801.6482,2335.3875,-1226.6646,-16.665676,6619.0859375
40,-5480.3477,-3454.0647,-11314.642,-224.98193,284.49414,131.11722,7100.20947265625
41,4126.456,-3129.872,4938.833,1571.294,598.43176,-874.9377,8365.8193359375
42,15133.846,-3095.3237,4769.8447,73.62546,0.6020431,6444.8916,19375.607421875
43,13457.543,4586.561,14570.004,-228.2658,-7747.051,1712.4757,16697.453125
44,-2281.16,13467.714,1863.639,4133.7793,-2107.4512,-223.9177,16268.662109375
45,-866.06525,5822.357,12212.319,5129.933,2154.7659,5504.7715,17666.0859375
46,-938.3697,2442.677,-6608.6313,-1606.4552,1838.086,-4167.48,11521.1201171875
47,-2103.6787,-4248.618,-5249.45,1417.2012,-93.514656,1344.1663,4384.189453125
48,1731.5049,-961.6466,-10980.49,158.57495,-4538.574,-813.8957,14087.982421875
49,1436.0304,5144.0244,316.4374,-736.57495,592.6458,1684.8398,5509.2216796875
50,2215.6914,5766.1777,3263.4392,-1541.6404,-2268.6677,2294.1567,6952.9638671875
51,390.74472,1024.1583,-1192.2523,146.3308,1046.687,251.66348,2729.5947265625
52,1837.3955,3571.966,-5814.8823,-826.21423,-445.28162,362.02963,8824.705078125
53,2280.0896,756.2894,839.6721,2332.2834,603.0354,125.18563,4433.787109375
54,2609.5637,898.0119,2281.92,943.55896,1714.6698,-735.2923,3948.3076171875
55,2850.9475,3006.2527,890.4505,1178.0248,-51.117012,260.47766,2923.4833984375
56,577.82227,2620.4568,-2349.9294,2270.517,-1454.1418,133.42181,6370.80419921875
57,862.554,-1104.1523,-1882.8685,1380.2959,1198.1453,1236.2035,4540.1259765625
58,-558.3379,-917.13293,-1394.5017,-1562.8711,1256.9357,-646.34644,3721.36303710938
59,356.25735,2249.98,424.20587,-553.5696,670.6445,798.0173,2764.27758789063
60,569.1548,375.16083,846.5349,664.1914,632.17474,341.16928,1743.54760742188
61,1958.2766,1263.0862,-2153.3167,-957.457,91.22268,-386.7005,4213.53759765625
62,1127.1167,1450.6378,-1418.5527,387.20374,-1076.9648,259.72638,3397.11499023438
63,202.06664,1169.8457,-371.22504,925.86224,-592.17426,232.1285,2367.57348632813
64,698.675,1148.1162,1564.9257,284.42303,558.7389,504.8606,1583.34094238281
65,1823.379,691.884,1019.3957,-467.2609,641.22723,261.30603,1763.611328125
66,1845.6514,-1465.8741,-3631.851,-537.5213,518.7938,846.4531,5162.75341796875
67,2431.0166,1367.315,2774.3774,-317.06656,-155.50694,31.338234,1411.26843261719
68,2060.022,-1587.1671,-2051.99,448.4566,-130.60844,-2738.8716,6194.52294921875
69,-1144.8052,2973.5708,-326.87808,721.15497,1037.1608,-774.4736,4565.9853515625
70,757.30023,-2878.1968,-7246.781,2523.892,863.00684,-1954.8456,8999.5576171875
71,1980.0613,645.11475,3923.8308,3351.0208,-3421.9553,-2785.8726,10012.7802734375
72,2355.6562,1755.8275,11582.581,-842.0523,932.1983,470.3697,9819.7958984375
73,3067.3416,-3721.2678,-16291.014,3580.7366,7574.7373,694.6256,22393.244140625
74,330.67203,-2491.3665,-10957.484,-2607.5066,1662.8438,1269.6956,11707.244140625
75,-341.0433,5407.3667,-12301.231,1401.597,-2575.2864,5856.177,19326.576171875
76,-2945.9753,-4910.5923,-2735.7603,-759.3532,11474.884,-2520.2856,20496.85546875
77,11360.573,-8753.916,-3510.4785,-10088.285,1603.88,7261.9287,28246.44921875
78,-11292.03,-10303.97,-1571.1696,264.58047,7113.851,-8437.1455,21247.435546875
79,-7012.905,-6675.759,-5720.011,8702.64,1787.5437,-6301.1997,18901.28125
80,-4260.646,1824.1896,-350.12793,1879.482,1002.786,710.6167,6606.9306640625
81,-160.29486,9232.84,7793.687,-2184.8882,4151.49,-2972.4841,13012.1787109375
82,-7220.262,5194.621,-4029.7168,1966.5399,1586.5342,-876.0712,12089.4287109375
83,4898.4297,3796.5403,7931.4365,1306.4214,-186.13895,-470.3968,4432.076171875
84,443.14224,3591.1816,-1717.9026,-475.69247,1679.7161,1341.5857,5993.8359375
85,991.90656,1049.0199,-2041.1805,1801.2167,-957.49316,537.0963,4767.07958984375
86,815.8093,1729.0519,284.61826,351.02304,425.8432,50.8926,1588.31079101563
87,179.67334,3056.4507,2886.5317,-280.6648,-1595.1305,-581.3338,4086.48876953125
88,-599.2823,-155.92809,-1778.3176,1496.9607,393.82376,1006.843,3512.6318359375
89,52.257996,1746.1693,653.489,958.8395,986.787,-1091.2206,3385.85791015625
90,89.72768,1350.2288,8.017187,504.90195,-319.04877,587.80524,1950.701171875
91,1821.9789,2460.4026,1236.7585,75.784065,-1049.4457,-106.24058,2116.31420898438
92,-922.7833,4138.033,1951.8735,1654.3401,-853.64307,159.03233,5458.93017578125
93,-2007.3646,-1486.3125,-3341.1855,883.59625,-1670.9216,-1833.262,4852.45068359375
94,1212.6261,326.9812,-2604.3633,-2268.1055,-973.59174,-572.99603,5588.81005859375
95,803.6201,-1479.4908,-1443.142,327.1591,-1509.9221,975.1542,3891.58056640625
96,2804.1785,-2231.2017,732.0662,2082.5625,739.028,-1398.8999,6303.5927734375
97,2461.3042,1742.5262,1590.7445,436.6647,9.546721,-1247.1044,2426.29077148438
98,-818.8781,936.3008,-4892.4946,892.0977,1183.7368,1330.2452,6222.92529296875
99,13651.253,16908.125,-2427.9438,2370.7842,-10284.61,-2214.3408,25892.220703125
100,1682.6083,2656.1592,1292.8002,-3348.4185,-3252.717,-1927.8218,8832.0419921875
101,2284.9116,773.4131,580.84546,190.5429,1243.0317,-1489.2899,3743.13159179688
102,-1411.7981,-919.698,-4201.5103,-966.7684,785.5964,686.71735,3932.89013671875
103,1670.5654,2655.1858,11276.615,610.6704,305.35864,-1964.0807,9836.5986328125
104,3730.7532,-270.48633,8367.949,2493.2478,-292.15393,443.74164,8692.7373046875
105,1988.7427,926.1894,-2941.0664,-541.8092,-122.98098,-525.7331,4684.98486328125
106,1607.4171,285.75647,672.3528,-2185.3362,-1126.5198,-1714.4034,5323.255859375
107,1514.4053,-3974.7397,2700.6555,3396.4482,-1050.6296,630.07837,8784.044921875
108,-1032.7953,-1957.9918,2768.6768,1712.4084,780.70856,-1463.8444,5989.8544921875
109,-1893.4465,-5519.944,-6235.6675,4165.296,-196.45953,-2236.5713,9134.052734375
110,-6160.8643,-9462.136,-1726.1249,5836.094,4890.9707,-1901.4805,15165.6591796875
111,1261.3373,2039.0077,-264.73373,1401.094,378.52963,-193.60802,3248.37548828125
112,2958.2288,-331.16272,-251.33202,-722.5998,-723.279,884.34814,4005.73803710938
113,-493.48633,2436.8274,-1228.5609,-7.8954487,1418.4426,735.80176,4352.1728515625
114,-0.6543113,1892.885,560.62823,308.84265,-1353.3464,-1171.2961,3568.51684570313
115,1933.4373,-185.69168,1984.6105,-1167.7413,-748.77985,-778.5765,3491.87426757813
116,2108.4558,-921.8026,4375.274,1181.6074,1323.4136,-2378.7927,6899.9130859375
117,-197.81978,-306.90884,5914.7993,1280.6154,-197.60193,-422.47336,6604.19189453125
118,-1130.7161,8964.209,2825.8997,3355.7542,2800.2974,-3242.6477,12902.4462890625
119,5510.0967,9218.915,34263.258,2190.2102,-5231.992,2819.6506,29227.091796875
120,6553.222,1522.1415,17066.033,-6471.5425,-4959.804,1021.7207,19781.1796875
121,-8548.167,9538.712,12924.477,6188.8486,-4423.7075,-3579.2673,24736.271484375
122,115.01623,2337.9595,4715.3076,1442.143,-670.71875,972.1494,5128.55908203125
123,1086.2122,412.21304,3785.0625,2126.0806,367.19943,-347.99222,4887.2841796875
124,1903.5385,-1489.2462,3022.4858,1763.309,-132.73134,-3000.9414,7277.15283203125
125,1774.5712,526.4843,-401.75125,819.9659,993.3871,-800.652,3237.04760742188
126,-270.88217,1771.281,928.0224,100.6984,-490.59033,286.87317,2039.31103515625
127,-6064.761,-6617.5063,-15453.913,-2637.044,2291.359,-1371.7109,11204.0009765625
128,-3841.3035,-7554.404,-5387.767,1405.9338,-137.6173,-2584.1274,6037.91357421875
129,906.5137,3007.4324,-1132.7745,-340.49316,-834.0139,-1305.8385,4517.42431640625
130,1877.8561,3627.5093,-2761.6328,-160.60187,-1032.6613,1107.2163,6297.45751953125
131,3836.5627,1568.2281,6128.688,1594.6543,1826.0566,-555.6835,5844.4033203125
132,2756.974,1560.2273,-1629.0952,2132.317,751.1649,-473.79648,5606.0068359375
133,1057.9193,3649.2397,2756.113,-437.37833,1833.8949,769.11176,4199.55322265625
134,-576.4369,3685.6526,-1478.4504,134.97371,-2131.178,963.77094,6268.21142578125
135,-1239.5239,-1174.0514,-2736.5566,-3053.213,-63.90843,697.72906,5637.59375
136,732.423,1611.2188,-2204.494,955.8837,-23.83311,294.8781,3870.712890625
137,-8121.562,-7130.547,2215.544,1658.7935,125.46788,-3088.209,11597.705078125
138,-975.39136,1493.2854,-4477.0254,-65.23574,4900.8105,-1216.6339,10173.8583984375
139,-5368.1274,1264.001,-1210.6843,-4077.9019,2797.4824,-3648.0356,12123.8125
140,876.0994,9862.466,-9642.538,-299.29782,3436.2517,3364.9092,18856.8515625
141,-687.6968,-9524.295,-11829.658,-546.6083,5087.99,1859.1201,13881.6416015625
142,-502.1483,-3193.1013,6165.8633,-1753.0891,-3055.5903,3433.0972,11926.2412109375
143,2148.8184,-90.8416,-1029.843,922.4233,-1493.8452,-1076.5643,4552.486328125
144,1280.0775,-1268.9188,-3482.986,160.50433,-1330.7958,144.77588,4743.03076171875
145,1415.3402,36.554783,384.1846,-621.1673,-1049.2812,-895.43994,2899.74951171875
146,2304.513,697.9511,946.416,-177.13841,13.688903,-1073.5251,2407.4189453125
147,388.22803,2081.8867,-637.3031,890.8182,-1316.8823,173.93076,3651.171875
148,1007.34814,1086.1167,-404.3331,-452.8686,-368.37408,131.17659,1784.4423828125
149,348.49933,-1368.428,-119.85359,-222.70645,966.05817,-1318.835,3244.94116210938
150,38.364517,2603.3667,-2304.122,676.6496,-365.1659,-946.7844,4747.39599609375
151,-131.31738,2230.0483,1845.5736,794.0763,812.6755,-198.33759,2967.65771484375
152,5134.138,3979.245,19355.803,-3909.881,4725.1846,-353.77682,18254.673828125
153,881.9686,3946.6362,2102.4292,-1090.7573,854.6387,-1070.5073,4042.25659179688
154,2147.3528,-600.68726,-1921.5282,2309.3667,86.65261,-345.35254,5413.49462890625
155,2185.6445,728.81647,-1595.436,580.4054,1153.9901,-1280.37,4564.45703125
156,3160.755,910.6942,-736.00305,-579.29877,-1129.0188,312.61002,4074.744140625
157,3037.1074,864.7321,2279.614,1092.3085,-585.65393,-352.25616,2937.36083984375
158,1720.5875,-350.4551,2463.0657,1829.8341,-441.41812,247.54391,4146.25830078125
159,1867.8196,-671.50476,6114.942,3756.4824,218.3097,-235.43593,8826.8779296875
160,1893.9227,963.2183,-3721.9497,2310.5295,-349.3442,-2204.677,7625.02978515625
161,6335.1265,644.1603,5319.316,3198.8586,-843.74133,1834.4441,8400.4384765625
162,-1997.275,-8581.579,-2091.0427,-964.1423,1371.2599,3830.6658,9756.85546875
163,2747.7651,1848.0806,-4176.751,-47.323467,401.95734,1431.5992,7012.01318359375
164,-598.0016,3351.0493,-1597.3925,-1984.3859,-810.5714,-3141.5588,7995.814453125
165,641.51917,1998.3009,518.7748,-1204.605,-39.77172,1209.9929,3282.17504882813
166,-729.0677,4014.277,273.69757,-2867.4941,1080.9717,567.2731,6920.033203125
167,-7282.22,7500.1763,-4684.922,66.2692,196.78421,3124.7898,14706.9091796875
168,1112.5808,3767.919,-733.6813,341.66943,270.9933,198.25412,4006.29443359375
169,1264.0,2227.8916,109.77558,264.39813,501.40506,1021.011,2732.25146484375
170,4124.5635,5428.241,3248.8281,1435.2188,-763.8206,-180.2485,3411.07861328125
171,-1903.5397,-1543.4767,-8032.224,3248.6748,3262.024,2097.949,10802.099609375
172,1230.5872,1304.1803,-4319.83,-1230.2864,987.11304,-3239.2405,8376.3388671875
173,-4121.217,1965.7839,5089.7217,146.60606,238.01599,-465.50903,8167.64990234375
174,3836.7373,3767.5173,3036.6838,-1972.2072,-1052.9286,1749.8934,4977.0126953125
175,-1668.9774,2429.0566,-1434.0491,1681.1556,3206.74,2254.5784,8394.2890625
176,-1321.2493,4908.8257,-1627.2114,1856.896,2.685074,334.1068,7175.841796875
177,1669.1641,1976.3728,2145.1482,-90.51117,1199.6133,984.3766,2724.609375
178,-10630.716,2196.5015,-2572.1326,2018.4056,-3194.8708,601.97656,13039.9267578125
179,3300.4934,5015.1055,1974.4935,-565.4872,143.32655,-1350.3713,3669.22436523438
180,1696.4423,2213.1797,-110.67679,628.55804,823.1767,-1070.8611,3335.39331054688
181,2002.655,2250.193,-71.74172,2511.1626,551.53705,-2708.9297,6835.435546875
182,-3365.9116,-672.44196,3883.5127,-3205.8076,678.7639,106.32009,8516.484375
183,738.8134,-366.83313,-1180.4368,179.3991,400.4191,184.07788,1860.9609375
184,-18866.842,-10712.768,-6493.6553,-2575.069,-2482.1704,-3875.2385,14216.9501953125
185,-12676.08,-12580.927,4729.4585,1896.8724,-2742.9773,-3856.859,19475.5703125
186,-1841.0725,-2206.3577,-1963.1743,2497.483,728.5554,1566.1195,5269.3994140625
187,2217.5168,-1317.62,2772.4937,1596.0803,691.72577,719.3435,5039.578125
188,-4865.8237,-4019.1702,-710.9155,-690.0035,303.8016,-1363.7332,4663.3486328125
189,2345.9402,-2550.798,-4805.324,1039.7164,176.32848,806.06635,6736.93505859375
190,1567.6421,-6662.1553,-8628.52,-1345.0891,2341.1724,-2354.2146,11237.302734375
191,-1370.065,-3525.1377,-3051.567,942.6946,135.57141,-1364.492,3486.359375
192,1205.6912,-5816.3735,258.94656,796.1397,-1452.3928,-623.8073,7277.009765625
193,-865.723,-6397.722,-7613.6733,1092.2305,737.69214,325.4775,6658.638671875
194,3008.1958,-2819.813,3058.6836,-177.83447,-115.61769,-576.7573,5949.40380859375
195,-5839.798,-7699.174,-10070.627,-4016.0151,-674.26807,-3794.9434,10317.185546875
196,1673.5953,-10653.373,1947.6681,-2694.9412,-2350.1968,-1932.2196,14316.6533203125
197,-800.3981,-555.86755,4093.2625,487.16776,-132.25084,831.5095,5064.55810546875
198,3593.377,-1432.7122,7374.3955,1579.6367,302.00006,204.0465,8151.421875
199,-1705.7236,-5265.864,-3477.081,1369.1176,1073.6873,1196.3354,4783.4658203125
200,-844.4773,-2901.1897,-3622.095,1010.34094,220.2104,-1586.7683,4122.35498046875
201,2958.135,-4738.519,-2071.512,966.4724,-2869.3413,1308.4978,8857.9033203125
202,3343.4219,-2170.754,3450.2686,-224.86626,-322.71622,-317.8486,5636.83740234375
203,4482.447,-7315.935,-199.97206,32.13653,543.68494,1081.0824,10501.33203125
204,2626.4556,-6864.2314,-4688.768,487.27106,1310.2589,2199.9702,9723.2392578125
205,419.2413,-5273.81,-3228.0505,-25.307762,1124.777,-2466.6958,6855.68408203125
206,-2926.5383,-6140.694,4175.072,2141.3486,2531.1526,1706.7565,11193.958984375
207,1894.9867,-2069.135,-1285.1458,-1112.958,871.46844,-5168.219,9967.29296875
208,1837.2969,-8138.5635,-530.0606,4599.7017,-1584.3201,273.6367,12358.4931640625
209,6399.763,-5895.618,139.21135,173.85715,-2100.419,-4953.055,14153.4189453125
210,3786.972,-1112.9829,-7123.6567,3543.6587,-84.80036,-586.8171,11327.7080078125
211,4251.3525,-5792.696,-3276.4934,1295.4335,6595.2065,-4993.16,17095.640625
212,-5676.343,-10471.652,-1089.4916,-1640.5403,5485.6743,1400.312,13048.53125
213,-15474.3125,-9299.613,-6617.791,-3372.6396,-160.59534,-3238.8865,11293.8544921875
214,-9829.587,-9531.34,4792.5044,353.91122,-632.8489,-5932.9834,17796.39453125
215,-8926.247,2546.6262,-5548.351,2498.6372,109.8072,-2245.6921,11754.912109375
216,-3291.7087,3489.6375,-980.7633,-1331.019,-1549.1965,-2464.5122,8148.13623046875
217,-2764.427,5696.1074,4235.462,145.6014,716.1647,1463.9532,8329.9482421875
218,-298.3446,4677.212,704.3457,757.9383,516.52484,2120.5144,6065.1591796875
219,-2507.1272,7614.461,1717.3906,-246.51285,-193.96991,2026.5444,9494.740234375
220,-2891.012,1948.7146,245.38596,-1631.0741,-1054.643,83.382706,5423.97607421875
221,-832.3886,4388.675,1377.1775,-999.5543,868.2236,-138.33041,5091.3232421875
222,-1374.1089,-636.949,-3011.9224,-153.01248,-184.0988,774.6832,2530.90625
223,-790.6999,2202.9746,2542.5972,1252.9552,863.48627,549.96674,4236.5146484375
224,-3855.2273,2323.2117,-1742.3704,-1156.5265,96.24089,-182.8331,5807.2236328125
225,-11.301058,192.98827,6430.344,-743.37646,-1275.9371,269.90295,6854.267578125
226,-1799.4498,2076.1348,-1330.6956,-2738.4016,-665.02844,-570.6662,6182.5146484375
227,-2101.2485,347.51147,2461.1355,3119.433,-796.1031,125.344475,6839.63818359375
228,-3758.2778,3792.1877,1807.0126,1368.3541,805.1403,243.53659,7328.11767578125
229,-442.2637,-1390.6696,-106.92851,-1086.6273,-168.59576,-936.8907,2755.140625
230,-2567.9336,-1847.353,-5218.8145,-80.21315,-1143.3337,-1355.7141,4348.72412109375
231,-992.2062,971.2262,-479.35687,712.23596,616.92255,-852.5374,2820.49951171875
232,-527.21857,-2714.6538,-2542.394,1969.7327,694.73724,-150.38988,4194.4140625
233,1945.2112,-1560.557,-2123.6821,-536.63464,857.189,-269.03455,4226.94873046875
234,1290.6576,-891.3456,50.43883,1248.5488,-443.399,591.2363,3147.734375
235,1444.1362,-596.8772,970.5649,-603.3796,-580.32916,0.8951231,2350.74243164063
236,369.83557,-880.3953,-461.10764,1398.4061,-1520.0758,515.49646,3848.42724609375
237,591.1941,-229.06566,1619.8202,473.14368,-21.760853,-1197.5825,2747.77465820313
238,2162.825,82.79633,-1822.4153,1711.1874,200.97096,2013.3356,5743.296875
239,1920.8108,-3023.669,-176.28291,623.98834,1049.052,-503.5901,4868.990234375
240,2586.3154,-869.67535,-1257.468,284.32794,1032.6951,-335.53674,4148.99072265625
241,1798.173,-450.1242,-265.4593,2119.65,-1052.6947,-1351.7389,5192.1669921875
242,-668.7179,27.78651,-357.54395,1609.9583,131.17705,1166.0918,3503.1474609375
243,544.2242,38.02663,1906.9662,1579.2388,634.3943,-269.28424,3421.98974609375
244,0.0022105197,98.88666,1811.7239,734.9729,-1688.6116,-1169.9166,4170.5947265625
245,-1313.5072,477.8844,-508.604,340.4013,890.72266,128.87024,2278.74072265625
246,1804.4799,-2617.615,-4052.1287,-1888.7288,955.03235,476.51343,6486.57470703125
247,2218.0022,-4433.0347,-6536.9097,648.068,-750.26416,-1240.5652,8379.80859375
248,-520.8482,6639.3594,9157.511,-1851.2589,1606.2267,-2415.3677,10543.4111328125
249,5328.2163,-2233.255,5344.618,1773.908,6485.733,-1017.15393,14001.37109375
250,-615.24536,-11484.876,-28114.357,4293.6606,-428.47452,-5722.0024,27009.740234375
251,14172.642,-11069.813,-9612.69,-740.57556,7241.178,-518.5298,27609.40625
252,-4202.7324,-1568.51,-11325.439,-1024.3004,-7642.3936,-1336.3958,16129.4404296875
253,1481.7837,-9827.417,15516.777,237.05257,3543.5168,6006.297,25093.19921875
254,-12804.636,-14225.561,-28258.186,329.0925,-2161.0303,-5700.999,18185.4921875
255,2771.7761,-3286.5796,-5318.3696,-823.7687,-1397.2463,-1124.4138,8051.50537109375
256,-2271.7847,-10461.659,-7372.2524,-3351.5273,4434.248,-507.38406,12032.240234375
257,-5068.9463,-9424.627,-5764.7505,-1747.6726,4427.847,74.12705,9188.1689453125
258,-3007.5586,1228.3163,3174.989,-6730.3496,-431.09433,-846.2728,12983.716796875
259,-2985.3362,7032.4785,-297.00995,292.26956,270.9873,664.4791,9080.4033203125
260,-4116.9565,-1282.4209,-3113.8044,4030.8691,-547.6218,-1788.9556,8089.6171875
261,2128.6943,-1248.8474,-3008.684,-1258.8073,1608.2565,1693.768,6447.36669921875
262,1672.818,-160.49089,-592.54504,-2112.7954,-671.7358,-2544.93,6206.060546875
263,3423.5554,2214.3193,2759.6726,543.0073,5256.0186,-135.29083,9215.03515625
264,-614.8017,6362.0317,2853.936,-1636.0317,-696.9202,295.13745,6801.158203125
265,51.18589,4054.6375,-2841.7588,-757.73676,622.2416,236.9625,6247.48095703125
266,-1656.858,2793.9744,1210.6416,-3173.244,-105.08841,1148.9531,7033.60107421875
267,-1460.3883,4246.0894,-1390.3086,1689.9911,2042.5724,688.0389,7394.16015625
268,-810.4917,2601.3755,1031.3716,654.3462,2127.6846,2166.6028,6139.8076171875
269,-608.99506,3959.8228,6.508778,-518.0615,115.35206,1065.5879,4763.646484375
270,231.16301,723.186,-2478.3267,-99.279076,-1502.7334,80.3826,3967.3828125
271,-2572.7654,1800.3907,-1699.1354,1097.2084,-486.60736,53.767544,4516.396484375
272,-1542.1682,2864.64,1758.4802,-101.36105,-980.64545,-532.6368,4419.9365234375
273,-2253.478,1842.3273,54.86189,300.81598,-423.14493,1170.0879,4191.1201171875
274,-1441.1869,2669.43,-469.8938,1705.0189,-549.85614,431.25717,4902.4697265625
275,1298.9855,-1954.4086,-139.82956,1456.6,-852.5773,-410.1551,4126.0302734375
276,2495.089,-8171.062,-8743.662,808.75867,881.6546,976.3727,11285.220703125
277,3277.7166,-272.3359,2458.6357,-216.35132,-752.84705,-1478.5946,4331.9130859375
278,-1959.898,5237.501,4403.025,-163.27995,1880.6317,-893.25104,7718.60400390625
279,-981.58405,2431.3696,836.47815,29.383554,-783.2969,-688.59814,3466.1787109375
280,1158.5833,-151.33264,-717.966,1023.3301,404.918,77.37144,2535.87109375
281,-33.18026,-2452.0234,-832.03204,531.5827,646.2829,1231.6298,3347.86352539063
282,1540.3403,-35.80531,-3721.5798,-224.88185,842.41425,2047.2358,6060.75146484375
283,-21.276285,5956.9,871.67914,-1741.8966,524.1687,264.33612,6429.16845703125
284,-2992.5862,-970.3596,-1126.466,-496.26505,67.42237,-441.0365,2265.85546875
285,92.47626,3280.209,6498.5713,862.0886,183.85306,-83.63108,5755.93212890625
286,-1615.6295,-3378.9512,-6107.038,-2079.515,-1805.6664,935.9241,6383.146484375
287,5660.3267,-10301.621,-5097.067,4130.671,-2412.0427,-940.36633,16434.427734375
288,2083.187,-4204.4526,2524.63,1453.5518,734.1127,-1965.8354,7877.41357421875
289,-2007.6722,-3017.4734,-883.0808,-177.61702,730.833,382.0494,2356.88305664063
290,-1417.698,-3136.545,-1252.2734,-575.5804,587.67426,282.43213,2352.744140625
291,2108.8462,-4935.806,-5481.519,-1213.3304,3620.2996,-321.52106,9890.1787109375
292,-1372.2639,-2751.5027,-513.4352,1472.0098,1670.8625,1481.6033,5028.4833984375
293,2620.0164,-1446.4839,86.95357,962.62994,255.27153,383.84583,4008.69091796875
294,-863.4674,890.2004,-141.56015,-657.63617,479.11954,-287.16495,2136.35864257813
295,2375.883,-1285.9491,-2297.8503,-152.65381,-1590.5638,594.4635,5182.482421875
296,1641.9434,515.0369,4866.5107,-967.73676,1667.1726,345.8983,5177.68408203125
297,-6957.4053,-10355.173,1706.3232,168.97275,7804.304,2740.0984,17926.904296875
298,-8598.204,3325.4668,-4992.91,1805.747,-235.89574,-49.734676,11051.708984375
299,-754.99414,4664.8286,2458.0151,54.298737,1221.4612,-2889.2627,7198.0712890625
300,-697.2244,948.1001,1782.9808,1479.2811,1635.527,57.942524,4401.98876953125
301,-447.74484,1855.3838,1112.1946,1015.3439,-765.3284,-171.64934,3013.8701171875
302,-760.6522,4857.5103,-1067.8153,1406.6791,406.16125,1646.6619,6924.5517578125
303,-1667.676,2020.0414,-284.01932,1178.3088,892.4268,58.275597,4120.185546875
304,-41.26904,705.1337,-795.02203,2144.0454,930.6034,319.1183,4287.45068359375
305,-3273.0383,2246.8708,-2248.7031,561.8271,290.2382,-3.3380127,5202.31884765625
306,-1764.5211,1208.6835,1007.81885,1451.6154,-386.8589,1017.7411,4261.57421875
307,223.79948,2796.4993,4266.5884,27.418982,-671.52026,-421.4259,3801.3046875
308,-1231.9954,-191.20006,-1784.0717,208.6902,828.51746,604.7812,2291.26635742188
309,2808.7214,330.92862,-138.35141,1955.8317,-319.81152,3035.389,6851.70703125
310,-1004.3684,3573.2986,1596.9996,1047.8397,56.42204,1576.9985,5155.4033203125
311,106.05984,2295.0989,-2080.3496,-175.27072,1303.7831,663.47455,4568.4482421875
312,-6312.09,-6327.8936,-3716.051,-482.9904,930.918,-699.29083,3398.14379882813
313,-2621.6829,-1910.09,248.46976,1987.6421,267.7765,318.64304,4367.33740234375
314,886.6827,-4455.077,-723.58374,1747.8098,2004.75,1969.4132,7441.97900390625
315,3127.45,-625.703,2466.6726,3267.2468,-403.2098,-1022.1787,6905.7783203125
316,1982.2618,-745.61206,6780.174,-499.63388,-429.53946,-1101.4219,6963.5595703125
317,2914.3708,-3504.7449,3481.289,428.473,-761.4047,-279.39752,6905.77490234375
318,-1867.4125,-4110.8535,-5419.108,577.50726,497.2654,-1541.8435,4307.4072265625
319,1854.9116,-4595.583,3339.7102,-122.89039,-864.84796,2118.1702,8315.0654296875
320,6275.6274,-5583.3926,7566.696,6318.6987,-6892.439,2009.2555,20785.09765625
321,6772.695,-338.2618,39.59619,360.74893,2053.2925,288.88434,7830.09326171875
322,-18.824347,-7052.6226,-6577.887,1461.1927,-1059.9592,-1685.5195,8041.095703125
323,-8962.158,-5855.4414,3985.9202,-2740.509,77.45465,-925.7443,12735.720703125
324,-8889.738,-3532.1187,2646.2444,-903.6564,1894.4578,3245.5938,12033.1171875
325,-2796.926,-5463.8486,-824.1868,2519.8308,-891.1782,2731.9856,7751.63134765625
326,-2511.0205,2793.2686,-1006.96857,-481.65363,1204.4125,228.5406,5255.87451171875
327,2636.098,-2066.7598,-4145.6772,38.466305,-62.05745,1402.9768,6491.27490234375
328,482.11203,-1732.0299,-243.1046,283.7993,668.3595,880.74866,2780.56201171875
329,3266.7295,-3128.9265,2801.7898,1700.5459,432.79874,-103.65317,6885.98095703125
330,-1373.0454,316.8032,141.34618,1172.5623,-1123.5104,-267.58984,3273.564453125
331,455.07205,535.6595,1072.5249,256.74582,729.4211,4.8449597,1460.12829589844
332,3642.2776,-1892.7765,-4255.2505,703.8096,191.0565,586.0434,7205.5830078125
333,4190.282,-5071.484,-5791.398,-529.2735,-912.85065,598.74664,9868.2333984375
334,-1081.3356,-10816.968,-12768.375,1707.762,-4432.747,4199.195,15433.259765625
335,-3627.0012,-1352.4167,-6214.571,2700.5986,7640.773,-1967.8254,15046.4560546875
336,-3415.355,-1705.063,-17083.273,-2382.3884,-4692.505,-3603.6294,18307.314453125
337,1183.1326,4820.5195,1246.636,-16.423622,483.92798,3826.941,7592.3271484375
338,-2317.4167,1297.7084,3984.903,2939.3145,410.53094,306.44846,7530.6533203125
339,-1967.5101,3114.2085,-4873.8037,-2066.7986,-477.21622,567.0274,7968.8212890625
340,-4032.893,-553.4729,-2560.4138,1773.2585,-418.50168,57.31703,4372.62060546875
341,354.24573,-944.78625,3881.7527,2991.0732,-1028.4475,246.403,6993.42138671875
342,-1913.1299,465.52115,810.96576,1017.0282,-1904.6007,-741.1443,4715.12890625
343,4611.2607,-2238.5857,121.5582,1960.7467,1141.7562,2247.0742,8180.25
344,1657.5936,-4894.909,82.53436,-120.25354,490.55814,-146.67247,5993.77880859375
345,-1058.471,2793.7622,-2302.03,-1604.3622,-202.12685,2786.6704,7233.0986328125
346,-629.44006,547.4961,2923.053,706.1276,-1761.3339,662.70087,4684.5048828125
347,-772.387,-1436.0059,-2124.0652,776.5176,-362.96848,772.8741,2316.59326171875
348,-2240.3572,-4851.054,1035.8213,2467.339,636.19336,-192.72298,6759.52197265625
349,-2304.2964,-2106.0525,-3622.6565,2629.4744,-777.5833,335.9306,4993.35498046875
350,-10785.724,-5766.619,1509.834,1040.6938,4958.1465,-2461.095,14485.4833984375
351,-679.6081,-334.3412,-975.4972,82.70863,138.01372,471.14407,1025.92199707031
352,-654.2005,-1705.3341,-1190.5079,669.678,-0.41223687,-301.16144,1564.05810546875
353,-1229.2239,1540.6947,2060.7195,2908.404,683.38055,436.0748,6060.63134765625
354,-2282.1597,1281.1676,-2532.8386,1930.1276,-88.121414,544.7106,5073.75537109375
355,-1334.0109,630.33057,-1039.6073,2113.953,-343.64398,960.637,4460.5087890625
356,-2036.5044,1813.9485,-224.08107,1554.6774,850.39374,991.62366,4847.96240234375
357,-1658.1785,792.946,-53.951008,2809.4983,394.86316,918.66113,5597.2138671875
358,-315.74774,831.04254,2109.6428,-528.25696,200.12457,709.1734,2623.41918945313
359,1103.759,1318.2805,-721.72925,-730.91864,-261.6137,251.58159,2401.65869140625
360,398.48026,-318.8679,-999.33124,-1066.2701,-333.9087,457.69028,2416.49951171875
361,566.25745,587.5652,1346.5979,319.79858,22.179989,-62.974384,955.481262207031
362,-910.5856,1174.1803,579.3641,-948.74054,-192.6067,260.4662,2544.63110351563
363,-3500.2158,1544.2343,-1289.8026,-1568.5652,400.05194,674.34546,5329.88037109375
364,-1541.436,-1316.538,-643.46045,87.01814,309.40295,963.97864,1937.177734375
365,1584.7559,-1738.3795,-1384.2169,-3555.275,-1169.094,-348.18103,7237.10595703125
366,1745.8733,-3353.1873,-557.59125,-489.85364,-48.474552,1128.2107,4909.82275390625
367,-1180.1116,-6853.298,-2689.5522,797.9877,-1354.6979,-1594.6743,6398.83154296875
368,1996.4734,441.9924,-349.55988,608.2851,-226.19095,271.6563,2399.65209960938
369,3892.1238,2675.9224,4141.1646,1204.5387,892.725,-1040.5504,3440.33422851563
370,1649.2113,1896.821,1711.5618,244.34187,255.01755,214.46445,749.636779785156
371,-1528.476,-299.12616,-1111.0712,492.96402,-182.24504,278.704,1494.69030761719
372,-676.3898,652.167,862.3836,648.52856,323.45847,-226.1341,1953.8662109375
373,-2051.6018,-1345.1227,-431.61334,927.63855,-46.664158,-104.98603,2144.79028320313
374,325.67517,247.29257,-1004.41943,-256.26263,604.3912,676.3224,2082.34301757813
375,244.37195,1858.3811,567.2676,677.49365,382.10388,673.92883,2316.39233398438
376,-1035.8688,-880.31647,-3120.829,187.49571,-11.56419,-283.80804,2245.68090820313
377,1168.8971,2076.202,-1304.2295,-341.2241,-341.35986,-197.46288,3162.16577148438
378,-1847.9302,-2918.635,-1161.2404,-1111.9807,1314.6234,-957.1757,3741.1171875
379,-591.0981,-3043.343,-2000.6785,-221.91245,10.009929,274.9326,2217.78833007813
380,-297.39273,-3808.251,-61.73506,262.56436,69.74822,207.84445,3682.39526367188
381,1212.8495,142.45432,878.8415,957.0051,-269.72327,493.18726,2143.66870117188
382,249.50533,-1882.1527,-457.30905,556.1217,38.22353,-78.19085,2118.34936523438
383,-610.2009,-1099.9868,1589.2352,995.2508,433.83136,642.2204,3305.78344726563
384,117.22292,-482.41315,-321.30145,1096.3452,11.715605,84.77557,1979.09143066406
385,-253.178,610.50446,1762.3003,964.5955,-207.92639,-428.41568,2557.15087890625
386,-5240.7,245.06741,-2438.3086,-885.8651,383.68317,120.14747,5041.1298828125
387,-2412.3374,6078.7773,1753.8218,-2409.1453,-643.03894,-762.8434,8630.1103515625
388,-9194.477,-7634.966,-2359.697,-1485.397,600.4193,-251.90599,6810.17333984375
389,-62.099472,5294.7803,2402.074,-3705.3599,400.16052,835.37537,8082.76220703125
390,-889.6105,-3490.1907,278.42722,415.8927,351.73636,-129.9066,3479.30859375
391,-1655.0333,-4647.7427,-2246.563,-1178.7672,-1317.0818,-1510.3534,4873.60546875
392,831.07196,-647.7466,750.8567,-419.65646,394.66678,793.84973,2227.31396484375
393,1863.2224,-339.37698,189.63869,247.52646,479.28195,690.6797,2504.02661132813
394,-1465.0931,1924.927,1095.4733,-1100.7517,432.68597,-39.227894,3683.69311523438
395,-1159.5377,2317.1187,1840.5261,-166.13971,-965.5283,631.31396,3838.30004882813
396,-120.41205,906.4884,1721.9484,279.672,904.8119,56.95917,2292.88720703125
397,703.9052,898.35156,2312.4968,-1329.5349,57.088146,-282.1999,2804.33032226563
398,190.96982,-2811.557,267.14993,-270.6494,-480.73218,953.68427,3590.44677734375
399,1445.2896,28.576088,317.3961,688.97687,54.57305,186.92352,1794.19677734375
400,-966.6501,804.2874,-599.69336,200.54294,469.64264,-153.74577,1863.94152832031
401,54.407425,695.3032,-130.1903,60.389812,-424.97522,-589.7732,1469.4833984375
402,-721.1879,1002.47644,245.91289,384.43225,-223.52167,-803.62744,2184.04370117188
403,-1206.7316,-2989.1787,-2607.4841,-289.50833,-219.7513,-374.54227,1860.00561523438
404,581.4228,-502.88266,-324.92172,-7.8871374,386.26855,36.90466,1210.91162109375
405,1881.835,799.2545,2483.6829,-25.332747,-695.3193,-92.98638,1914.16345214844
406,5795.5034,496.9884,2974.0752,-1584.3392,-287.91724,568.89624,5462.17431640625
407,1819.1656,2390.9329,2048.2913,-1224.7694,319.40665,1048.0116,2889.57373046875
408,-8737.469,-11747.88,-2077.4705,-1265.714,-287.86588,-1737.5742,9358.4013671875
409,438.26117,1088.09,-767.4295,-950.6788,942.7849,268.19125,2872.82788085938
410,-1067.3767,-2799.0425,-1343.0962,-15.329756,314.49734,-194.26497,1734.32434082031
411,193.0746,1629.7548,2479.2385,-1676.0614,467.20233,-125.404755,3624.31616210938
412,1602.4006,-1018.155,628.0568,-87.67316,111.49657,177.36682,2327.67407226563
413,-2807.1326,-1901.8889,-240.38457,-1254.9027,-378.2719,-283.28635,3237.05004882813
414,-2022.8333,-5491.288,-856.20593,1628.0542,1671.4247,974.2698,6051.26953125
415,-344.87274,-3149.6387,-330.78088,76.01992,-63.681984,205.32642,2839.43920898438
416,1300.8282,314.3311,-150.33038,790.3685,505.02704,955.93835,2651.0625
417,-714.9891,-2467.5012,-259.74384,706.9666,-718.43243,-894.3064,3086.02709960938
418,-1182.0304,-2291.2625,-514.4601,299.9705,-584.25916,245.78755,1972.76306152344
419,-7584.635,-6943.8228,-1833.5691,452.48016,-583.4013,218.07979,5619.43115234375
420,1115.0122,-18.527838,-25.287401,-9.212773,-15.819567,289.67465,1243.12536621094
421,-1772.8927,-2758.4167,-1569.2046,-495.7965,-388.45786,448.97516,1734.46337890625
422,343.949,532.24756,-675.9141,-637.0506,-112.68153,105.72703,1598.98168945313
423,-319.53986,1106.093,-746.4566,534.652,877.67737,153.06323,2462.13525390625
424,386.3214,1846.9763,1448.7059,111.12712,229.13388,-197.30206,1421.87744140625
425,-1331.5148,576.079,-1236.8297,-372.36615,-260.1816,422.7688,2150.0029296875
426,-2902.5063,-748.1459,-1062.8113,86.23879,-204.4324,-490.89554,2221.03686523438
427,1283.2933,534.0879,-349.1725,182.25407,-287.035,391.68448,1676.38549804688
428,-676.96136,-1305.7461,-1889.5457,619.4019,-283.56836,-299.8517,1662.89477539063
429,147.4844,3587.7632,1862.2999,-279.5914,173.99171,-493.99237,3151.83862304688
430,698.214,351.08328,-1725.7335,-485.0411,-55.20723,-348.0112,2496.5712890625
431,1955.2169,673.8855,382.39838,-72.34322,-430.006,-293.71207,1711.5732421875
432,916.27594,-2067.018,-175.23894,501.25607,-506.8355,-102.33963,2896.71850585938
433,194.84427,-1316.0083,-6.064909,-439.56326,36.421486,-605.8317,1924.63488769531
434,1359.1324,-737.6212,1131.3616,-88.131485,-160.88525,-750.17316,2399.98095703125
435,-9.2937975,32.496876,869.9012,-677.39386,95.32995,-37.36165,1464.93225097656
436,4318.0806,927.12256,970.4447,-1587.6324,-447.7138,-1514.9943,5138.3134765625
437,-1321.5027,-3122.7637,-1223.7549,-545.89996,465.22147,-224.64253,2263.81787109375
438,1387.8169,938.36383,3594.3489,-300.77878,-372.48007,899.3073,3029.25952148438
439,458.87888,-1817.7085,-1035.6417,-671.6821,-24.418377,-108.059746,2324.72045898438
440,-2178.735,88.16369,572.7278,5.810185,-133.6229,-50.427555,2556.048828125
441,-599.3269,-2225.427,-185.514,264.30423,40.536476,64.16586,1927.48425292969
442,-38.9889,-1823.1924,-1166.4707,-1321.7617,197.8255,36.989933,2793.8525390625
443,-1751.8944,1550.6721,-1026.3708,-75.00134,-162.37274,185.30807,3039.1162109375
444,1077.64,-7058.3506,-198.18695,-808.92163,47.060993,-1048.3369,7918.88232421875
445,-462.46222,-665.9118,675.7749,-1001.03174,-241.12547,23.65575,2179.6435546875
446,833.45886,-1218.5771,135.23009,-656.82666,-79.10928,-91.24547,2145.60034179688
447,-2277.2786,-1447.1627,459.62552,-834.7041,-145.27159,-59.117935,2841.08740234375
448,525.28735,1070.5281,616.70593,1381.9485,160.876,150.23444,2475.98461914063
449,2109.5198,2105.2195,2641.5496,611.7601,546.34186,-82.603516,1524.48400878906
450,-2365.9487,-74.811264,-1668.5972,108.67316,161.24814,343.6303,2146.056640625
451,2161.6252,903.7175,1625.7399,-269.6917,-204.99806,94.44445,1251.57641601563
452,1586.4318,411.62198,2411.0627,-2291.9211,-408.85825,99.68907,4395.337890625
453,-1757.2174,-2677.704,-1871.033,-1316.5161,393.06494,-391.85986,2622.84008789063
454,-2974.9844,-977.9864,-2256.723,-319.3438,-166.86552,-20.375973,1860.17553710938
455,-414.1247,-1484.0356,-1593.3905,-289.86374,-936.9041,207.68158,2070.86791992188
456,-803.96497,-312.17557,-762.5562,384.6427,130.72615,131.68411,877.694274902344
457,444.11423,418.17935,591.7091,-273.30576,-84.08898,-304.44708,741.383728027344
458,-205.08414,-1844.0372,-3832.02,-2102.9028,599.20514,-372.80945,4965.59716796875
459,786.9694,-142.2928,-52.41579,-1012.5031,-156.66449,-364.88025,2082.455078125
460,479.82062,46.02625,1925.4039,-336.1983,-38.810226,102.65258,1811.13049316406
461,-1049.4464,-9.44902,-1454.918,-581.16223,387.19254,21.488024,1769.76806640625
462,-164.0688,-2466.843,1144.2506,-545.9895,-15.817696,-211.74988,3325.17846679688
463,-475.31958,-1004.3035,-413.53555,-791.95215,235.37344,-467.31888,1737.59936523438
464,-1207.0834,-196.80302,-307.84448,-1140.8735,-0.27752438,-211.40509,2227.03100585938
465,-725.7194,483.88873,670.6224,-284.4742,-109.11544,-166.96727,1444.30786132813
466,699.5726,-214.45898,-580.26416,401.51242,-254.20631,-87.3514,1415.63220214844
467,-1012.5517,-1337.9852,-36.73039,359.57367,981.168,-236.82283,2195.42846679688
468,-479.54492,-1376.2964,-142.02324,266.5224,-463.6193,173.49141,1472.74780273438
469,-3182.2678,-234.12068,-75.2358,2505.073,430.9441,313.4576,5372.45849609375
470,-429.13568,525.1963,358.67014,628.7103,-220.76714,218.74712,1501.71716308594
471,-1247.5962,523.7913,1866.8967,929.5296,227.18698,-268.82944,3206.96606445313
472,-994.7393,-495.11505,-978.0378,1005.87683,260.4719,121.12747,1877.35876464844
473,946.4452,3205.5647,-199.0766,-745.5789,-16.87316,537.792,3397.04125976563
474,2202.0693,-1128.255,743.5274,188.99768,-31.62402,-222.99286,2936.0390625
475,1807.5929,-4606.623,-155.0609,2331.0583,484.42834,-671.43024,7124.833984375
476,344.31564,1131.7285,1297.0685,380.5578,648.99567,49.511433,1575.74108886719
477,-1840.6785,5583.6196,2784.2993,-783.54315,429.606,-782.9594,6812.3408203125
478,-1842.6049,404.68423,291.39255,1035.8174,738.9057,-135.95827,3117.80297851563
479,3067.266,4564.017,494.12628,1763.3087,-650.8319,194.74591,4839.93408203125
480,1192.0189,454.15436,-1097.6084,-1695.1187,-159.77075,-213.36385,3595.947265625
481,1266.4692,-2846.4082,-402.4483,-191.9526,109.776115,206.2253,3620.94873046875
482,-2104.3835,-1570.3103,-978.76654,-376.20782,12.106982,8.314585,1173.1708984375
483,-1996.1544,-1849.1672,338.33292,499.74274,23.355186,144.32753,2437.55053710938
484,-298.20544,327.9893,-1453.7985,-831.1392,525.25836,585.7818,2525.99047851563
485,-648.26746,1200.7279,663.4614,-326.92554,232.3089,120.02696,1799.94409179688
486,-430.68732,-1522.9602,-881.987,455.21573,482.81824,-222.67578,1540.63208007813
487,-1044.3186,-1561.3866,-826.9576,522.83344,210.80171,578.91376,1544.60205078125
488,3330.335,2897.3591,3144.2542,-2575.3364,309.18643,638.611,4642.07470703125
489,-1427.3107,-2203.748,-775.7327,-529.0616,317.23596,-140.00684,1653.40808105469
490,-4026.839,-1685.8988,-452.95734,22.629154,430.84457,-469.6138,3332.62915039063
491,-617.8763,-1115.7971,-1911.4037,1022.73694,-137.5426,-119.209595,2124.71728515625
492,428.26947,447.32175,-639.42596,42.609974,-293.7321,-304.91843,1305.330078125
493,-555.00464,-2301.13,-682.6047,-397.1735,79.93853,495.64612,2017.87890625
494,-332.36127,-1773.7701,-1045.815,-21.037724,-154.63776,-66.36341,1282.41015625
495,-309.3585,-588.73883,-900.31104,290.59198,75.92074,-162.1959,782.12744140625
496,-962.06934,242.04729,1330.3749,854.9227,74.56362,11.90362,2480.8486328125
497,1528.5255,877.01654,152.20383,488.70605,200.7537,-218.88364,1550.21826171875
498,63.321953,1363.517,-1602.4681,-179.87314,-313.4633,414.38016,2745.57641601563
499,1224.6907,5520.0728,2139.447,858.7218,49.436127,-275.41925,4219.59326171875
500,-340.60696,313.86633,817.7157,-426.4639,394.77356,-299.84216,1514.86779785156
501,-20.309301,-920.4934,-806.7961,1620.8761,67.05104,504.73703,3062.74267578125
502,-1805.8689,-1646.895,-1922.1077,554.4168,-70.358696,421.86142,1236.18334960938
503,-1687.9017,360.21805,1429.8446,310.18198,106.91215,-111.59229,2808.89770507813
504,362.5798,2760.2698,1653.2712,-158.39665,-59.423244,349.29318,2184.49145507813
505,7.2015724,-841.2346,942.57764,-802.3817,149.57443,-293.67786,2155.38525390625
506,-1496.463,-2525.0205,420.22455,-1720.5348,48.94193,397.2224,4008.0302734375
507,-1322.8516,2832.727,-46.77913,932.8618,-90.358986,-175.77007,4040.08032226563
508,34.751373,2477.7551,-837.4234,220.84685,256.39426,278.0081,3071.65771484375
509,566.78577,1434.7749,826.86664,-607.3362,-24.114597,509.24496,1575.31188964844
510,-1160.9504,1608.1824,194.79404,573.339,-66.05527,509.38474,2744.00537109375
511,1782.206,3126.0247,1881.3883,132.30423,19.667225,-123.55455,1334.86828613281
512,-1856.4421,-820.35596,165.79482,650.6669,-450.5085,1053.9946,2877.39379882813
513,1066.177,3340.504,106.659035,-93.07433,-622.9327,-161.22679,3089.27197265625
514,-336.43027,-885.58344,-149.2346,-162.26405,-102.81318,-148.20673,784.860961914063
515,-1519.6561,-2344.2952,-276.08377,233.36624,-405.98993,-276.96423,2034.69665527344
516,1567.4786,2505.8137,-722.34247,-249.88895,-361.36594,200.48799,2995.33764648438
517,-455.76724,-472.05316,1598.4174,936.6672,254.39415,-537.9542,2819.177734375
518,2564.1406,1451.6628,2296.8787,-1366.0337,-40.001587,154.66997,2585.81225585938
519,1674.6107,944.8567,-166.58275,-410.8133,120.672325,562.5385,2019.46850585938
520,-3115.9702,-2084.454,-2517.2546,-681.44543,184.20587,-80.92568,1522.97302246094
521,4544.889,75.105286,-671.13794,-368.91605,-563.88715,-448.08035,5082.90478515625
522,2270.7678,71.1028,-829.5335,220.49763,-167.15858,47.893753,2804.876953125
523,-909.7217,1064.3965,-1436.1211,-367.03348,-263.8591,88.61248,2418.67211914063
524,-4204.0625,-2816.6206,888.3433,760.36127,-318.62964,117.375244,4782.52294921875
525,-3502.26,-1469.1416,1190.2749,-899.3136,131.37354,-575.0836,4481.4296875
526,-3340.3933,-173.72137,-1146.0942,-651.1815,-525.9979,-152.2316,3172.66333007813
527,528.59924,2016.6345,509.36893,-217.20189,236.83398,-47.52032,1599.94055175781
528,532.91925,982.71576,1600.8823,385.1987,-736.43274,136.02751,1729.2021484375
529,968.5615,-1095.8063,-526.2368,1937.4268,215.87599,-140.2332,3856.14990234375
530,-1108.3279,1102.155,-1055.3982,1639.1217,-582.0249,-181.35515,3734.5849609375
531,-635.84656,-608.38855,-290.62943,94.61267,42.80302,-149.06108,457.666259765625
532,-722.1796,-553.45703,501.12933,-49.29482,-690.7852,-64.626915,1664.30908203125
533,455.7845,1085.0955,480.81717,-501.09494,-635.5741,-126.52782,1547.283203125
534,199.53221,3802.6125,1002.2121,-81.79283,96.7712,57.304558,3285.17553710938
535,-2338.784,1544.7919,-1788.7748,848.0993,292.48468,380.60583,4012.19506835938
536,-2119.7073,973.0718,626.73096,1608.1442,416.8525,304.93643,4143.998046875
537,1477.1746,-26.984638,1349.607,773.9108,-186.64326,-388.9856,2107.6376953125
538,1936.9761,-137.00381,465.26486,1469.9835,86.89146,-49.18995,3150.7919921875
539,1122.7423,3395.6306,174.81458,-2356.7969,60.872807,199.84145,5001.35205078125
540,-2172.0225,-138.69936,-479.63907,2849.697,433.2707,-330.95328,5367.6328125
541,-2684.188,-1948.5452,-2015.0312,2522.789,-40.46625,48.916912,4427.43310546875
542,3139.0422,74.61685,-937.656,1201.6495,213.20467,9.99139,4240.98876953125
543,274.94434,1048.9077,413.49435,-1095.2504,-175.98175,-237.14073,2090.77001953125
544,1618.1302,-743.5573,-53.53115,646.9716,91.67404,31.570618,2389.1416015625
545,6015.044,-273.9439,88.9137,-2545.4485,375.96686,-307.8732,7585.99755859375
546,3123.0935,-2515.3083,-1652.6484,-1693.2612,-372.59598,160.89124,6063.6025390625
547,1991.9731,735.602,2166.5664,809.9612,-91.31671,-276.6304,2012.71105957031
548,3908.3015,915.28925,909.0008,-1056.294,289.42053,-209.16286,3564.65893554688
549,2344.935,809.3625,-770.7865,-82.04771,-257.57294,86.99566,2742.84887695313
550,-18.519632,471.90646,-645.36206,-1254.7267,131.73062,520.1203,2554.90112304688
551,916.58905,1757.8818,13.000597,-17.084467,30.71018,-215.91068,1558.19934082031
552,-2722.1448,-2198.8743,-559.4161,498.1892,-160.58313,236.06061,2192.85815429688
553,1433.2397,2306.3657,-270.29294,125.79049,-224.06293,598.2774,2534.49438476563
554,1757.8752,-478.16272,170.40553,-917.31494,64.45311,358.07587,2625.22387695313
555,253.55847,-1167.1332,900.5494,296.32306,-464.05035,262.97183,2114.95849609375
556,1682.1675,1844.9725,1058.3303,416.23178,480.36957,-143.9757,1338.44714355469
557,1135.0897,846.81036,996.4131,505.1379,191.55196,43.61681,971.408935546875
558,-1644.0881,-3284.0156,428.5174,193.8185,-12.430155,-180.9503,3255.052734375
559,-2755.0457,-3142.0437,-1579.9464,-1298.1853,18.719864,57.70527,2655.61352539063
560,1231.6707,-1019.2951,614.2024,-210.20836,31.385689,257.80563,2095.97778320313
561,192.77394,-1080.3331,-860.82526,526.74054,262.31512,-266.13205,1625.05432128906
562,2821.9814,1213.8444,970.2946,1148.1263,-2.9121203,-177.03122,2661.89990234375
563,-12.221631,2195.9233,-897.11505,832.4852,-258.48495,170.79749,3159.10864257813
564,846.0874,320.31796,-247.32797,278.63086,39.093525,225.76146,1134.68115234375
565,-592.9733,-2089.2544,-1567.8411,41.653522,-130.08351,216.39287,1388.16271972656
566,34.697506,524.06726,-850.3302,-514.462,102.69731,247.1684,1569.96594238281
567,-2476.6848,1731.8549,-1382.7765,2017.2626,493.89087,-407.81006,5267.20458984375
568,166.6554,2788.6802,-823.08093,713.63043,-67.50991,-303.15933,3502.41333007813
569,739.50073,4962.0166,672.3788,-2567.246,189.57108,-37.777847,6164.5693359375
570,1727.3259,1630.3679,1223.0942,-1343.3838,418.1706,-375.97794,2564.65966796875
571,-196.77802,501.92877,9.300858,-104.48251,-190.08615,36.138462,729.202941894531
572,173.69556,574.9074,419.92612,-272.374,482.92505,-211.68697,1086.02783203125
573,-1513.6842,-1898.5762,-284.86664,-251.5167,-150.8694,245.00252,1602.88549804688
574,993.2883,221.7825,-429.03574,-570.52826,-314.1163,-294.76025,1747.58728027344
575,-543.3665,-910.27893,-600.0948,206.70213,-293.86136,-477.49496,1090.07971191406
576,-1715.8396,356.1569,688.57306,-2108.7856,325.08865,532.1102,4427.17041015625
577,1358.4264,-72.08913,215.12791,-663.89264,213.28574,1418.5162,3035.34130859375
