Element Label,S11,S22,S33,S12,S13,S23,Mises
1,2296.994,1872.3556,-282.8244,-824.1508,1188.379,-723.5707,3685.83251953125
2,1558.0137,2899.13,161.1706,-370.89087,-1845.2002,1066.5323,4434.24609375
3,1013.17126,3304.5532,583.91327,-1258.025,2629.7761,-1426.3143,6165.74853515625
4,3331.7615,4832.0874,124.6384,-1921.5255,-4361.5674,2454.9717,10177.2099609375
5,3248.0554,1675.6307,-36.47866,2031.7723,2143.186,-3021.698,7851.8798828125
6,732.1339,1387.8676,-3694.6672,-766.0009,-1300.0782,662.22034,5574.57177734375
7,4433.4473,2062.1016,4150.552,796.38055,2971.3523,-1349.6396,6235.9052734375
8,-3406.045,3442.2258,-3568.991,-180.13031,-4742.7646,1388.1243,11018.19921875
9,4602.7783,3465.5881,2008.1704,-1448.2577,8961.949,-1546.6697,16108.791015625
10,3934.509,3378.0227,-1582.2057,-3995.609,-5066.182,1859.7185,12764.9033203125
11,538.2415,2906.9717,-24.858099,614.1651,175.06932,392.85767,2991.37939453125
12,4491.0674,2369.0144,-337.16895,-499.41882,-1054.081,197.16501,4665.54833984375
13,-1841.3766,1338.7611,539.19293,1049.7367,2246.9167,201.68542,5175.2900390625
14,317.44534,2111.2676,-52.997887,-423.57916,-5587.8154,-1840.0719,10410.880859375
15,7508.8384,10170.773,930.07605,1713.955,3099.6206,2171.9417,10939.201171875
16,271.37903,-1156.8605,1928.5212,203.5836,2996.1392,-3904.3909,8940.9443359375
17,706.7504,1203.8646,-523.2046,625.5138,1372.922,-760.37,3306.71655273438
18,451.76416,2701.9092,2607.8784,-1132.5144,-969.68256,3109.3474,6366.5654296875
19,6507.169,-4932.5566,-2612.5945,-4324.2007,-9039.176,-1217.3287,20380.669921875
20,-12054.344,-661.2498,-17499.889,4585.9556,-321.60486,8942.225,22908.328125
21,1001.2233,1314.6719,336.1245,-1443.9658,-576.47815,-2250.335,4815.931640625
22,-709.0227,106.36476,611.0303,-1032.1257,-748.37164,-1466.6113,3558.07788085938
23,586.20703,-665.64374,-1701.4926,2567.596,-555.37604,18.766027,4963.95751953125
24,1022.2445,-1422.6193,-7821.3984,502.55316,-1049.4324,1615.8815,8629.0615234375
25,2873.241,3593.2595,-6563.2285,2480.616,-3336.0896,5108.4995,15049.8828125
26,6499.645,-1033.6664,-7190.953,1491.0193,1162.6201,4994.1294,15053.111328125
27,408.68033,1208.6056,21957.273,1299.0276,-2064.0178,-2740.1025,22093.25390625
28,1374.147,-3976.396,-8402.395,856.3793,735.62854,2370.2388,9621.6923828125
29,-1375.3154,-2231.148,-3171.0012,-1124.0347,-1578.4832,-364.7357,3752.9208984375
30,2418.2605,-2396.75,954.8018,-70.278366,1345.4064,-2752.9348,6816.20068359375
31,2562.4524,-191.90974,4534.775,2805.9143,220.6405,-1049.1816,6631.50927734375
32,197.69034,-4279.8457,272.2449,1840.7914,2611.7463,3718.6377,9617.7802734375
33,-1059.3835,-263.78906,-1611.5118,587.7082,-1186.7335,-1915.9564,4201.30517578125
34,3706.1106,-801.8686,-891.02277,156.59895,1371.7788,-2873.4717,7156.89501953125
35,696.6096,-2016.4191,5085.787,-139.22568,4716.8306,-439.25153,10291.541015625
36,3548.9854,3507.3164,2456.8806,-1769.808,-1048.7181,267.9117,3749.71215820313
37,6340.5205,317.8922,4556.1123,384.91772,363.73303,528.98865,5512.73193359375
38,1760.3429,3387.2026,34.396477,-722.22943,34.374874,-1045.4287,3644.25463867188
39,841.04315,2491.9897,2848.4248,-749.18207,1307.7998,1240.3966,3856.38671875
40,1172.564,1670.6672,-2379.4841,-522.44,672.56415,-642.2148,4248.24853515625
41,2063.547,2247.0503,-427.0586,-575.77924,-925.3657,-1102.5664,3728.8408203125
42,2884.2283,2161.9753,-2021.9023,86.85226,2653.3093,-76.57246,6496.8203125
43,2507.4348,2257.2485,1466.5382,-301.6171,-1096.3121,913.15204,2695.51489257813
44,2909.8694,-109.93277,-409.7042,-34.4155,412.22256,409.6616,3336.33349609375
45,-202.70883,-3369.435,-16695.842,-1454.3586,12441.599,-401.27896,26476.990234375
46,10232.412,-430.17847,24549.273,-1940.9724,-5055.3438,7707.2935,27156.89453125
47,-6342.5483,-5225.8315,-6997.852,-6200.964,6448.6875,-1852.4242,15900.1640625
48,-8710.849,10744.87,-4112.6777,-4705.563,1565.788,-6856.7856,22913.6640625
49,12063.216,5573.519,-226.2267,6855.403,239.34885,1449.1458,16150.9560546875
50,16065.652,5609.3,-10941.671,-2430.474,5352.2295,-2472.5635,26044.84765625
51,-11183.051,4293.166,7402.094,5213.8223,-2055.1729,-904.3684,19848.673828125
52,1349.5919,3265.7605,26740.178,-3802.9587,-875.97003,2505.502,25772.5234375
53,-15204.573,-5154.0146,-20145.836,-3547.5034,-692.5225,-5840.4404,17793.751953125
54,1159.9393,12793.695,7694.2954,-910.4164,4473.321,2333.655,13449.1337890625
55,6019.2607,28145.281,14320.387,7643.704,-3753.3997,-9733.532,29606.861328125
56,4320.091,1531.5597,5759.735,2319.3408,2849.8376,-1870.6321,8053.7890625
57,911.9487,5241.861,8130.9126,6597.346,-1247.961,1158.9094,13374.6201171875
58,-1233.0951,-3959.4014,19219.746,-697.199,10924.585,634.43787,29020.986328125
59,-738.5973,1484.9708,-10131.185,2454.7175,-4313.619,-1691.1179,14018.8623046875
60,1098.5952,2378.3506,15467.897,1578.5786,2373.8542,4337.003,16447.962890625
61,4032.768,532.67053,1671.3965,38.98819,8502.376,-2958.932,15896.64453125
62,-203.37436,6700.3335,-2865.8687,2568.3445,-2820.5364,2119.127,11413.0927734375
63,1090.7125,1451.6687,-1553.2301,1433.8158,-249.70944,-1278.8962,4397.31103515625
64,2652.4917,1708.6722,909.8268,486.20972,350.7631,219.84563,1872.48913574219
65,594.7382,1241.6158,-4681.0664,696.9765,807.98627,-308.33792,5946.96826171875
66,1222.6364,593.4075,4009.229,-97.644196,-132.97855,-252.71243,3191.81372070313
67,218.236,247.21686,-2228.8496,297.37036,107.12499,536.7778,2687.76733398438
68,1619.6854,-152.29326,-900.4724,-145.93399,-1261.6115,-379.35773,3208.74682617188
69,4009.481,2090.9673,4180.2153,552.5436,-775.18036,502.2599,2740.953125
70,2629.3704,2570.1294,-865.5123,512.7123,-1010.2901,-1046.1101,4375.4306640625
71,2471.528,2758.553,-472.97156,727.1313,-768.8647,188.64815,3614.4140625
72,3576.2812,2332.5251,-1912.136,-589.6748,513.4294,41.493164,5165.5146484375
73,1544.23,2118.5715,2478.9387,-1378.1741,-618.15784,432.73434,2841.29052734375
74,3731.8394,1949.3551,-2741.6816,-1585.3939,218.29346,-654.63684,6520.26123046875
75,772.9773,3187.6138,761.92255,416.3243,-1206.6821,1383.2994,4060.302734375
76,879.1213,672.6453,-3547.8171,-1044.189,1308.7559,-4313.7227,9108.2646484375
77,354.35815,3447.5073,2076.5603,2464.126,-1745.7269,3486.5,8428.048828125
78,5591.786,4103.146,4184.238,7805.604,1310.0306,-6401.248,17690.697265625
79,3651.5723,3728.5676,1483.896,4263.933,-6366.6006,5123.7085,16117.474609375
80,5321.8174,-4754.8315,-7940.3086,3606.8674,2591.519,-11755.413,24850.1640625
81,2759.3862,-5079.419,5612.7026,-597.0968,1213.3917,8137.142,17206.994140625
82,5635.3345,-6747.1436,9522.437,-233.41917,-3812.0574,-4107.5557,17633.55078125
83,-4656.5596,-1243.6244,2357.0432,-3752.908,-2387.2268,8078.399,17088.96875
84,-4454.438,-8621.707,-10164.276,2.2054062,-4601.7,-2361.5706,10316.5859375
85,2275.4465,-2724.378,-14655.395,-3304.1685,7363.536,8875.385,25665.83984375
86,2005.6583,1662.9658,-1637.3711,-2511.1907,-236.40456,-482.78696,5650.29296875
87,-2338.434,4379.5337,1176.3591,-231.8064,387.47034,1309.0719,6294.85546875
88,828.2007,4783.3228,177.38705,901.49854,-1964.6243,1164.1691,6060.01708984375
89,-2391.9976,592.6886,-1285.2517,1161.2416,-389.23798,1109.158,3875.64282226563
90,-1794.7058,1579.3033,-8654.504,350.08423,-1252.9141,684.94775,9384.578125
91,1835.9344,2580.44,6359.407,-1556.6206,1990.894,-14.102646,6067.05224609375
92,2433.6963,2544.4578,2638.2427,-739.4255,828.10376,-189.57072,1958.77014160156
93,-978.6804,2277.093,-7201.6606,149.10052,-127.2149,-947.5955,8508.537109375
94,-485.6298,3451.0742,-61.096745,-376.0173,1687.1865,149.49353,4799.75146484375
95,611.9145,887.08856,1131.07,-548.9344,471.22556,-614.90717,1704.953125
96,-3013.834,-790.2657,-11174.226,-1166.7786,549.9329,255.37296,9740.044921875
97,-250.84299,2679.497,-673.0878,-297.86673,-753.47314,-1064.2643,3920.43603515625
98,-362.64047,1077.9357,-603.78064,-20.915522,-759.71436,884.4544,2561.32348632813
99,3204.217,4385.607,3874.3157,1501.2686,643.82666,-552.3317,3158.04321289063
100,882.867,4913.4233,-2124.0242,1208.4875,-415.95682,1343.5663,6908.11962890625
101,-94.82257,1193.1102,-359.6483,94.9561,-91.31693,-1015.315,2283.55883789063
102,3377.2637,1773.0822,3926.5378,-277.5069,-761.18024,-752.9285,2725.09741210938
103,-24.923706,1131.6292,-2587.1448,-267.1765,-1247.5173,959.2239,4302.24560546875
104,3726.1282,-584.54846,4006.0608,189.33473,-2127.6868,8060.064,15114.5478515625
105,-6929.9053,-5016.3843,2627.8572,3583.658,-1273.0768,-2371.631,11704.1572265625
106,826.5107,4.1820955,1748.3053,-2676.8086,-13.6624565,-3488.8503,7765.091796875
107,418.89017,-1210.4624,3368.737,-1219.2465,2882.414,-5291.3345,11381.65234375
108,-1620.5879,-2769.6494,1281.3694,383.53244,2430.7163,2678.974,7264.5283203125
109,4765.425,1889.6057,-916.57385,-721.8208,-1406.6664,-1281.6678,6053.28564453125
110,1681.695,1718.5206,-1182.4772,-1462.0505,-1701.5964,-3.1128724,4838.3271484375
111,1487.1115,1230.2856,4610.0933,-327.77032,864.24677,96.357315,3634.82592773438
112,-90.97923,2231.249,-1628.2908,-973.219,878.387,333.87146,4100.80810546875
113,3035.4177,2992.7358,3483.245,-1077.4482,-28.867758,521.91156,2126.93310546875
114,2225.3962,2267.08,14.560997,-1288.8324,-647.68933,853.55304,3661.84594726563
115,1439.9637,2350.8923,-909.10333,77.3283,244.8239,-1298.8428,3707.62329101563
116,1630.3007,3344.965,982.72455,1288.0259,3038.2642,-748.8192,6230.744140625
117,1669.0781,1516.8628,-345.9126,-1241.1427,55.501774,548.52454,3051.20141601563
118,2532.1812,3929.8281,-3874.0068,5262.421,3546.1304,7065.6274,17958.837890625
119,3115.8953,351.03406,-3965.3582,2243.9663,-1469.0829,5199.579,11870.0283203125
120,8755.444,-4430.5005,16175.888,686.0155,2919.0125,1649.8108,19024.119140625
121,4893.461,-5424.6025,-9929.607,-4476.539,638.26404,-5456.376,17997.13671875
122,1179.9524,5598.611,3264.87,-272.47946,1607.2363,876.0778,4993.37353515625
123,3276.194,2228.2195,2127.0723,-945.07367,1521.3438,1955.8315,4723.69189453125
124,-1328.8077,-3482.8662,796.7866,2806.702,-1365.8427,196.42937,6563.67529296875
125,1406.6603,3483.3042,-2216.0435,-641.52325,-530.48456,2034.6812,6281.57470703125
126,-1939.8997,-887.7731,-1585.1515,245.71742,-1667.2821,-1138.5327,3642.65942382813
127,-1320.0101,411.92267,494.08917,-365.87296,592.2791,-4038.9417,7317.224609375
128,-11311.298,-17355.48,-22973.318,6596.63,-582.40045,10562.603,23839.408203125
129,1770.9237,2233.226,-4900.8555,2172.511,-7810.361,3943.4944,17077.142578125
130,2908.895,6212.2837,15938.472,3330.564,5456.202,-4258.9385,17738.22265625
131,931.28705,2082.312,671.07025,-628.42163,236.52773,407.80835,1882.44189453125
132,-2913.5657,-1252.0945,-17937.137,342.9202,-4387.6787,-2068.1794,18010.259765625
133,-96.90758,672.1742,8227.288,846.1616,123.87344,4484.894,11225.798828125
134,-2013.0859,2144.3782,-5741.9897,-545.10364,424.3797,-1644.5524,7499.15869140625
135,148.64514,1809.0903,-295.91895,340.33316,78.117775,1018.90845,2678.28295898438
136,-470.81915,6138.3716,29951.135,-2360.4915,-3845.722,2524.1252,29125.765625
137,-10717.361,-9049.656,-19403.197,-6407.6426,-1316.3145,-2637.4387,15554.7529296875
138,2164.8765,3125.6626,2674.048,-903.32117,724.8485,587.80963,2398.72973632813
139,-7817.0566,6264.6416,-3846.465,-1801.5194,-1086.4314,5620.8867,16315.87109375
140,-7683.661,-8400.617,583.0092,-7431.3535,2085.924,333.5163,15932.37890625
141,3412.2366,-3151.625,8927.071,-14.66955,-833.41864,-7360.411,16562.236328125
142,-1045.1987,-4801.115,-4966.3115,4165.5586,5119.398,-2744.1787,12962.5048828125
143,913.6376,1653.1627,-430.47208,1733.7582,1840.1571,-1509.1671,5418.1708984375
144,-398.12643,2097.8823,-1712.7633,1759.1731,393.9106,2233.8594,5996.634765625
145,3253.3508,1847.3582,926.5068,-108.32981,196.05069,1542.6202,3377.72680664063
146,-486.53912,2226.051,3278.1387,-1143.7521,-1405.806,-403.51172,4654.1123046875
147,1383.5273,2760.6047,4114.0527,175.1575,-29.065603,595.5828,2598.21044921875
148,-1145.301,-23.59055,-3705.2039,540.1445,-1982.5675,607.1913,4945.28466796875
149,-527.57184,-1294.0422,-6384.0503,1154.4413,1621.0311,-1615.8291,7078.92236328125
150,1429.201,3297.3223,3219.475,980.71423,-221.63155,3370.4778,6361.10302734375
151,2216.875,2222.7234,-1746.0365,2041.1934,1547.846,-1088.0988,6242.3271484375
152,16.645546,2422.0881,-2597.166,2143.4834,-917.0158,652.40295,6040.59130859375
153,-874.0436,20395.336,24178.678,796.2035,-2110.6377,-1744.0491,23907.33984375
154,-13839.739,-5965.9155,-11583.669,412.23166,-94.66339,3503.5125,9310.3994140625
155,1851.665,2130.7722,2556.9316,-1080.7542,-2252.6963,1033.18,4723.224609375
156,-6229.033,-826.093,-10198.015,1539.7875,-4250.864,-330.3013,11315.4052734375
157,-2873.2524,4249.88,-10574.633,2627.187,2255.8218,-2315.7559,14729.865234375
158,6745.092,2852.392,14719.52,-627.02374,-1691.6396,-5106.7944,14063.751953125
159,1882.6458,-1391.6934,-2546.2158,1148.5348,-457.71085,-2336.1135,6065.69775390625
160,3072.5178,-418.28366,-5018.4277,2328.6475,-2623.0894,2885.094,10549.22265625
161,2669.416,1945.3604,8370.623,1270.9342,1550.8519,1467.5195,7461.775390625
162,2016.0664,1575.6399,1013.7483,-999.546,-4730.9556,1540.1271,8832.6806640625
163,3573.6826,2536.1943,26.3271,-2040.4799,1021.9806,483.2418,5128.7763671875
164,1145.8638,2718.5542,-3996.442,-235.4269,1264.6135,-521.26874,6540.87890625
165,2195.3958,3538.7268,2581.5544,-567.8423,-1098.4459,1083.7236,3089.55883789063
166,825.8812,2502.4097,-4238.04,-954.75854,-541.2328,1257.6632,6730.712890625
167,1671.8229,1183.4492,511.80347,-951.98773,969.3393,935.52515,3030.00830078125
168,1727.5054,1318.8984,7442.7954,-932.1723,912.9766,-725.86847,6469.53466796875
169,1771.9612,2747.7834,1310.8685,-812.7461,-369.07166,1959.9923,3940.78662109375
170,-1947.7548,-282.97318,-43.958885,243.04025,10.731002,-641.807,2154.02709960938
171,-1043.335,1364.446,1500.9014,458.00906,1488.0343,-47.776188,3663.80737304688
172,-483.39255,1948.6932,60.383686,-628.96826,2719.3523,-889.9107,5534.9326171875
173,532.8205,-1516.776,2103.494,700.9527,-91.143135,-3068.0046,6294.7587890625
174,-3008.1077,-3183.4146,-21126.814,-3045.4656,-9653.701,6925.551,27864.638671875
175,20661.896,-9275.657,8044.275,-1236.8337,-2082.9568,13732.811,35511.91796875
176,-19891.709,-16904.361,-36033.45,2882.384,3148.6199,-2235.6516,19681.494140625
177,18311.03,979.8763,-2478.7478,2776.041,-1472.014,-3019.9548,20718.419921875
178,856.26355,1191.2572,437.40277,-716.52783,-1210.8595,-506.1114,2671.18041992188
179,-1277.7859,1667.7722,-2995.9412,-865.21826,1263.5847,-367.82602,4912.32470703125
180,11115.084,-710.4432,-1199.2732,-6021.283,818.3213,3016.2844,16850.314453125
181,1227.4584,-473.50217,-468.31113,1473.0747,-51.040516,-3388.4949,6621.7685546875
182,1536.2383,1957.9133,312.63315,-857.2445,-289.0919,-100.07055,2162.48754882813
183,520.12695,2809.1072,5469.8584,655.33203,-537.15515,1689.2847,5396.708984375
184,226.10918,7482.7915,-2272.2378,4895.919,-9855.07,-935.8171,21046.03125
185,11185.253,21305.205,1313.5583,-7295.625,-10.5214405,-6719.771,24390.76953125
186,1656.2805,-8309.014,1516.6313,6924.7036,-5387.9785,-320.99503,18143.58203125
187,3004.8506,525.085,10237.067,1199.2451,3280.9739,-333.48773,10645.7021484375
188,1204.1565,3831.357,-861.5828,1889.757,-116.60912,1790.7456,6080.396484375
189,-573.5682,-1038.0096,-3063.4253,-1908.163,283.17422,-439.54068,4123.361328125
190,2809.628,1913.449,2181.7927,-937.9547,850.02094,-752.10724,2671.80493164063
191,-2348.989,-3060.3538,154.94748,-3258.5762,701.60724,-349.743,6500.4326171875
192,1735.9706,880.7157,-391.42828,610.73627,297.8602,397.475,2301.50732421875
193,1066.2211,972.6618,2161.0552,624.52625,-181.93346,-679.51355,1991.09558105469
194,-1557.8912,-0.63667893,3506.945,-2272.5674,-3225.6382,488.01266,8222.697265625
195,-52.482315,-2396.336,-2851.4023,-132.03647,-3322.7568,3107.396,8301.17578125
196,2510.1023,-1206.2797,-9655.133,-3347.2168,2749.9106,2910.8264,14082.26171875
197,-453.67612,-732.1633,-5777.443,1466.8204,-841.8703,947.39404,6181.5078125
198,3151.4846,2642.1636,-13265.962,1021.06,705.79034,-4136.6836,17815.408203125
199,-136.95935,1742.0917,-2598.291,1147.9933,-1004.9641,291.222,4631.62060546875
200,1883.4941,1248.9971,-1126.434,435.01013,331.4811,-135.04575,2916.25024414063
201,721.9926,-414.78787,-3954.9634,-1200.4028,-1334.9253,-140.47821,5251.44677734375
202,905.79156,-908.5565,1779.515,614.1089,-179.15555,-2169.1548,4580.81494140625
203,679.93024,-509.7305,1925.497,411.66837,192.8901,-124.14202,2261.591796875
204,3103.9165,164.57858,4680.321,347.4487,900.19403,2071.061,5605.30419921875
205,545.06885,-1391.631,-5311.658,1112.4109,711.971,176.00414,5659.97802734375
206,424.58908,-1728.152,-2239.2866,199.8025,715.30554,-30.846296,2766.49536132813
207,998.3264,-1106.5725,-264.0902,64.09681,947.2962,344.74762,2535.35473632813
208,2419.6768,-1655.674,942.5348,144.22025,-142.74988,204.9573,3608.33935546875
209,1325.7605,-1000.90216,-2093.7988,-860.8302,-98.4378,-359.78992,3433.81518554688
210,946.1583,-176.32027,-4145.2056,-750.822,187.67348,-825.3215,5030.63916015625
211,1880.1157,-1255.6656,-175.88702,-170.91176,1293.7585,-1046.154,4000.6845703125
212,865.46014,-1274.5692,-149.99127,100.1006,-108.907455,-315.09854,1949.68615722656
213,2927.4387,-88.284996,-255.27208,-209.76758,-746.7549,363.08322,3438.9658203125
214,2153.044,-2539.2178,-257.43637,-857.78094,312.00027,-432.58493,4424.69384765625
215,3881.2568,798.43274,675.3924,-399.01672,85.15174,-2316.5227,5147.4736328125
216,1518.0332,-3148.822,657.19684,-1766.4893,-446.84564,-471.4449,5397.2607421875
217,1483.016,-1543.3916,970.75226,-1865.8424,928.5204,1538.3502,5291.630859375
218,1337.9061,-3535.1223,-2128.0461,-2546.7314,309.73816,909.4344,6410.62353515625
219,-1433.2574,-5183.0967,-86.09835,-1681.5483,-81.129814,73.37119,5426.46044921875
220,-5215.865,-159.82356,-1040.3636,-683.0197,-384.2491,693.60834,5017.23291015625
221,2080.156,4727.69,-1411.4155,1171.356,4677.1235,-13.207093,9908.9736328125
222,-1153.8347,1668.0521,221.84717,-180.48557,-429.9011,-395.80807,2663.7734375
223,-1461.9966,849.08154,271.38513,-39.937252,-2402.5354,-1343.3186,5203.3203125
224,-1039.8474,1236.6315,-1322.126,-277.91425,693.7486,1013.35614,3265.10034179688
225,2520.557,-2280.7314,-573.8671,590.7849,1841.8192,2159.5603,6556.3466796875
226,-108.83897,1294.2551,-2415.7622,-260.18768,-2509.8813,-466.97235,5503.0166015625
227,903.8925,782.1219,326.0784,-33.916634,106.981445,326.88388,797.923400878906
228,1079.6038,501.31534,1442.0105,-443.229,888.8863,-536.91425,2121.29077148438
229,711.14575,1727.1354,-1044.0643,-766.6585,-1123.037,-49.984055,3383.88818359375
230,257.50385,1087.8773,-3765.2458,-385.13214,-1012.82874,-787.9664,5059.40087890625
231,148.00215,5087.1777,-7778.9043,-1359.0795,-2503.3608,-884.5205,12372.2490234375
232,248.83041,5259.0137,9644.227,-4.1765275,497.72037,300.3565,8204.6708984375
233,658.7601,2359.7317,350.313,-385.42398,160.6955,245.14598,2053.416015625
234,5748.253,-145.23898,14958.164,1446.024,-307.84848,617.15015,13473.4609375
235,384.42706,1926.4731,1943.9546,-494.13718,520.6099,15.049359,1987.82971191406
236,148.91722,2304.4753,637.59467,80.424324,-179.83234,-942.38464,2571.48852539063
237,607.58093,1146.4435,-837.6917,370.11325,295.40833,1088.415,2717.47680664063
238,-100.7052,3402.4172,1125.5441,897.62384,399.58618,815.2349,3790.76098632813
239,905.6216,1265.7676,686.4069,1258.2015,686.8719,-825.2217,2909.34252929688
240,-722.218,2296.7769,-3069.1318,-156.10922,-128.3965,-398.07095,4722.880859375
241,227.47002,1864.81,-3418.0608,1240.7765,1200.4393,1573.6527,6189.55908203125
242,565.31287,2628.0115,2898.9346,89.91136,-218.80846,-325.31024,2317.82690429688
243,144.77936,2391.4924,1256.9742,494.5168,99.42633,1096.7433,2856.17749023438
244,2332.6433,2824.9482,-193.25513,397.26022,702.74097,-262.2463,3166.59765625
245,2852.986,2825.6904,-4705.5293,1890.6443,-721.5307,1297.3617,8617.4501953125
246,3537.5938,1495.1765,3559.852,928.48456,262.6254,441.1154,2755.78295898438
247,913.9733,2111.6516,-4181.922,-1905.5632,-154.32523,-600.7315,6749.32763671875
248,4291.8833,700.47546,2982.9863,-953.59485,1048.7273,242.78067,4014.34716796875
249,1351.9567,1250.9369,1277.9504,-233.99171,-230.12688,134.14653,620.744079589844
250,4376.0176,3014.0117,4968.933,-1384.2535,446.04712,945.69244,3470.232421875
251,1934.1981,6518.3667,3569.5742,2130.0073,4133.78,-193.90154,9010.0068359375
252,702.2282,1441.8723,-43.338654,-60.11098,764.0736,711.6261,2221.68798828125
253,163.24591,-646.04517,-2605.7988,574.21454,1376.751,-466.74658,3662.0556640625
254,3036.1318,3074.0947,-1870.7223,2236.181,-578.4555,59.52822,6346.724609375
255,4083.1157,-309.29028,-87.74691,611.6243,1020.693,267.49182,4778.23779296875
256,-384.21457,-2337.7488,-5153.1973,1941.5118,-912.8908,564.489,5657.52392578125
257,3490.619,-3271.352,-6046.993,-1531.082,-1536.8486,-2498.1243,10248.7783203125
258,2713.1304,493.80157,481.89404,-168.81664,1006.62744,3148.121,6148.93310546875
259,7497.544,-4612.28,4233.4326,-2644.9473,-1579.3676,-4272.3223,14177.5556640625
260,1508.97,-2277.6814,10212.777,-2534.723,1659.5039,2160.1816,12829.2138671875
261,-5478.7266,-6448.933,-4304.6885,2313.4004,4319.935,-372.32098,8712.9541015625
262,10740.31,1151.4773,5386.105,-1871.1417,-1017.48206,6787.6147,14869.333984375
263,-1233.4373,-695.63043,-2708.6743,521.2153,-1560.942,849.1228,3680.5703125
264,1321.6816,3250.9355,4381.6826,-1160.7008,4786.905,1412.1411,9270.900390625
265,-1691.0477,2896.1323,2814.1345,-2688.683,133.10625,577.3503,6588.85498046875
266,-4230.36,704.65283,-5000.284,-6618.6885,-39.87559,-125.44985,12657.796875
267,101.113556,3975.5525,10997.354,-4001.4685,1952.0486,-868.56854,12379.5185546875
268,-3159.7007,2163.4275,-999.646,-6473.746,-1637.7284,-1069.1254,12597.896484375
269,-20049.098,-2979.1453,-32584.42,1838.5367,1468.8112,2390.1868,26386.490234375
270,-2288.4111,3027.2427,10889.37,-3709.929,-2408.657,315.65646,13815.0673828125
271,2004.5619,9307.176,11476.938,-6297.9746,5032.5967,1001.72095,16488.35546875
272,2303.1519,14259.459,-9268.921,5031.1284,1468.6095,-3234.4111,23000.365234375
273,-7032.869,2186.1194,-4868.8237,6268.9697,-3365.5173,1886.8799,15240.8515625
274,-6140.1094,4639.365,-4658.7183,2354.6904,-1115.0946,-1038.486,11225.9677734375
275,-1654.4492,-6152.197,-8281.873,32.48794,1093.8606,-1114.4777,6454.68359375
276,-4781.97,333.62662,-4724.0947,887.6727,-546.0314,-86.16723,5399.7431640625
277,-2319.1194,-3147.0679,4688.3394,66.67196,2628.5015,892.97437,8872.6767578125
278,-2794.8564,623.7566,4688.715,3285.7495,3818.012,-1762.8599,11293.8232421875
279,-4296.0806,5645.512,-422.78452,4876.0312,-3235.0073,17.095747,13343.7138671875
280,1975.9747,5739.8247,4522.5503,851.80896,2154.8333,-753.2441,5373.58984375
281,-769.61456,2833.356,8436.843,-13.598059,1394.0204,365.75513,8414.3583984375
282,-556.66907,-918.2407,1608.865,303.59756,231.4163,364.30362,2537.4384765625
283,5642.6235,-5295.7036,-9167.367,-365.8261,1658.9735,3540.063,14941.2353515625
284,1298.1593,-1261.6736,3415.726,-318.01663,-229.08456,1021.20166,4477.37109375
285,-4760.4062,6499.143,8891.031,2368.9998,1900.9108,-5404.901,16575.4609375
286,-162.27478,2562.629,2752.137,286.65115,-3291.5374,1346.4323,6794.498046875
287,580.20337,573.5615,-344.30737,942.0352,186.62347,12.3142185,1901.54016113281
288,-51.520386,813.36884,-109.16891,919.62244,380.50314,782.25024,2368.21166992188
289,826.7225,2309.2786,2622.217,698.3582,-448.23352,-666.28033,2481.42944335938
290,1171.8234,245.08998,3793.5813,1335.1987,1248.6273,-892.11395,4751.33642578125
291,-395.93484,1680.5724,188.74382,-186.48428,-261.62274,-661.20636,2249.642578125
292,-149.95386,702.4689,-774.5604,232.70145,-42.214924,-481.9889,1585.53552246094
293,2850.7961,4351.0996,8006.5913,529.6478,14.106416,-1829.3723,5655.07421875
294,-6619.2896,-295.2027,-15436.684,-1439.5472,2194.3367,2026.9962,14369.7900390625
295,369.12726,-2668.8933,1094.543,-1473.3695,-141.66861,-2105.4731,5641.92724609375
296,968.75995,-2154.7302,-4427.2046,3149.294,-245.53989,1511.7217,7668.72314453125
297,1279.8872,-126.10806,-108.20816,-305.83133,-1419.7657,746.22894,3154.41772460938
298,1462.9325,-1875.6404,-2877.9683,2064.1794,667.42126,-948.0494,5684.39404296875
299,5540.159,-1306.293,1987.7206,-660.0086,-442.19562,-7.5564127,6088.1640625
300,1782.033,-48.75062,3152.037,337.7067,-117.39429,-335.0133,2908.09985351563
301,292.50983,869.363,-1828.9247,39.552963,95.00986,-514.69244,2623.64233398438
302,985.96106,3739.8677,2190.3916,827.57947,-778.78796,1616.4679,4175.02880859375
303,-1404.6066,3388.5437,3049.8635,29.006008,-1728.1465,-4490.1724,9534.8095703125
304,1248.6737,-458.06747,2183.611,218.87125,-548.79425,-327.0018,2598.22998046875
305,-1646.8741,-2779.6191,-4741.251,-361.67935,2423.9192,2754.0857,6937.34033203125
306,2147.5867,379.7039,1133.7113,1054.5475,724.7679,-107.70509,2703.29760742188
307,-809.81506,1949.0437,615.952,-169.94995,-114.199486,6.50096,2415.8896484375
308,2691.0237,3267.2805,1018.77136,639.7676,1456.3163,-2676.7603,5760.01416015625
309,1771.3694,2135.9321,2196.282,-172.00885,597.22327,112.96816,1164.31213378906
310,-2563.1492,1093.1476,3642.458,8068.696,-3897.5945,-512.36664,16457.865234375
311,165.027,47.77055,6714.7856,2975.0312,427.99933,2569.883,9518.19140625
312,-4737.833,-1346.8943,-5762.149,-102.20884,4855.059,-152.98163,9318.66015625
313,-4402.726,2171.3223,-4917.28,550.266,-1327.2323,-260.1593,7298.05712890625
314,188.02107,1649.8684,-1822.7256,815.416,-187.19188,-137.25764,3357.9541015625
315,2674.167,-6928.93,6499.814,-2161.0579,1735.7361,175.17201,12912.552734375
316,5238.389,1385.815,3419.429,96.40283,-3191.2917,-469.69418,6510.45458984375
317,-8373.499,7112.024,-19881.434,-3860.8113,4666.377,-493.2131,25714.060546875
318,-913.7647,3806.093,-1980.4708,-2286.5867,348.41205,51.433186,6671.369140625
319,1237.8955,-6204.6777,15037.685,6456.7017,357.46606,2759.9446,22289.779296875
320,-991.6863,-1447.8469,976.2583,-3080.6414,-392.8522,200.43896,5833.79541015625
321,-2313.902,-654.8311,-3653.4067,-1925.5275,-659.7744,-2526.8904,6193.02197265625
322,-1114.286,432.89526,1542.3405,2141.7158,-1385.51,-964.59,5258.53662109375
323,-419.3939,-1950.4417,2686.7507,210.698,1141.2163,58.261646,4560.5244140625
324,-570.4447,-347.82147,-681.966,-442.5553,453.1097,-234.2614,1206.21362304688
325,7924.816,2668.2432,20538.727,1868.0184,-5119.0884,26.16018,18496.86328125
326,2340.6296,491.69516,2516.8662,1074.7155,569.65186,1261.4829,3603.8916015625
327,-728.4349,-986.03,-2860.3306,999.027,-858.78503,-733.5904,3298.98974609375
328,-152.5871,-1273.6808,-3033.29,-451.34927,449.62408,-695.87573,2999.35424804688
329,1455.3171,-2272.8752,-2111.5874,-753.2099,270.15582,2521.485,5858.21728515625
330,-725.98615,-2288.8313,1226.7172,-1233.0999,-30.840515,574.9066,3855.29760742188
331,167.25772,1013.3335,1084.7964,-2288.9658,-560.3449,-875.0427,4442.810546875
332,-357.03748,1076.4547,-188.09077,-470.41656,-492.61975,1156.6589,2691.97631835938
333,2496.323,683.638,-2579.5056,215.98776,812.6668,1307.1338,5205.38330078125
334,1672.1178,1336.745,1327.497,-30.750391,13.087614,-465.36658,876.761535644531
335,1812.2777,1214.7522,-309.833,451.92026,795.897,1197.1196,3225.63354492188
336,-986.1438,161.87993,-8256.824,1308.4819,-264.79297,-513.747,8286.5068359375
337,27.32778,765.51483,-4160.8037,-415.25024,-828.1444,44.320618,4874.181640625
338,-3697.962,-6162.7217,-6721.513,-571.9416,-3089.8188,3481.5305,8587.7841796875
339,7243.396,1584.1788,15475.942,-5657.7515,-3755.1155,-6229.45,20028.544921875
340,-313.7152,526.5276,-7888.1445,-6381.572,-55.677055,-2017.1771,14100.78125
341,-14779.07,13383.82,-17969.414,-3258.365,641.53174,-3551.3943,31049.939453125
342,-832.1652,5080.9346,4660.982,2277.1404,2455.1826,581.3162,8204.361328125
343,-1434.2616,-728.4361,-1062.3125,706.9124,-186.64775,535.1616,1684.30578613281
344,1689.3541,274.18765,44.409077,-390.8574,-473.1097,1244.9956,2856.662109375
345,-2966.6636,-861.0155,-8061.707,-1437.8151,761.9377,-885.4462,7170.580078125
346,716.5496,1085.7938,862.18243,1156.5251,169.56856,-1097.3395,2795.55883789063
347,-609.3395,1202.6525,511.24564,-21.232868,-451.42212,120.571434,1779.00109863281
348,863.9911,-3155.0566,-773.59937,-1683.7266,-60.653774,141.3693,4563.84619140625
349,1715.221,813.0723,-1019.07794,235.77267,377.1228,-99.09924,2538.97827148438
350,-5031.7417,2392.059,-5339.8823,1376.9692,-396.28506,-1478.3298,8379.19921875
351,-401.3893,906.2318,-356.01266,122.916824,-27.66974,571.31604,1636.89501953125
352,-9.98328,1073.6804,10.077275,829.6535,-479.71872,10.761768,1977.0439453125
353,1703.8809,1155.4977,-132.31787,2460.3447,2613.1501,-337.65686,6453.9130859375
354,-1087.9492,-2544.9812,-84.46342,-2254.883,-895.4229,834.95197,4933.79248046875
355,-1505.1613,19.381203,-3785.8125,1456.1654,-522.8466,686.47345,4426.9228515625
356,-153.72272,1157.9537,829.60284,856.12823,50.789116,130.13184,1911.81262207031
357,-866.3706,1787.2445,-2567.002,718.6038,1597.609,661.191,4996.4384765625
358,-768.84827,-714.57324,307.24316,620.32837,-72.83918,-93.68978,1516.30651855469
359,1756.2098,1296.6431,284.9735,-1503.1835,64.76404,-86.43056,2917.7529296875
360,560.1208,-1266.787,264.7616,-336.50647,-343.38712,-213.23233,1927.45764160156
361,696.6423,265.35144,-368.4837,70.257385,-83.12062,41.524384,949.649536132813
362,-2457.1138,499.7804,-502.6573,-1245.3038,41.573986,-1.9218088,3382.53515625
363,-421.4028,1120.4784,126.11776,-287.47424,-155.96819,-17.304113,1467.91198730469
364,-837.45593,-779.01434,960.12537,807.04895,-208.26746,102.04864,2290.19921875
365,-231.33682,-1424.4769,112.36614,-1032.6138,32.130856,35.885605,2271.04272460938
366,1026.5416,-2070.4817,-538.1412,291.3954,141.43315,8.525254,2740.23510742188
367,767.274,-1171.2527,235.52803,227.25432,147.06165,-141.78339,1813.82409667969
368,1177.2115,-1239.158,-747.3064,343.1626,62.036076,130.25739,2303.908203125
369,386.867,-466.56577,468.15686,468.9145,-6.393142,-241.49687,1280.25708007813
370,-36.254776,-738.49243,-432.74503,403.1037,74.68693,-311.81937,1080.65625
371,-1258.5258,-655.196,29.253538,155.70377,-141.93196,-23.722874,1174.85327148438
372,-946.9269,-746.687,129.98506,563.8473,117.635895,-117.354454,1421.54736328125
373,136.35886,-1051.6703,301.27213,-77.250114,-0.65119183,17.504644,1285.82849121094
374,-263.48535,408.9504,631.07434,-126.84781,-70.56144,69.2577,853.504943847656
375,-1277.475,1195.29,-876.2067,445.75238,225.6109,-294.94397,2508.60571289063
376,140.99559,62.283936,-216.81448,229.73598,120.88763,-27.08619,557.169677734375
377,540.9829,945.0053,360.97638,-125.297386,-21.340387,17.704075,563.709106445313
378,-751.34283,-1612.7914,791.52435,-533.3474,27.798647,84.97588,2308.46118164063
379,1582.4089,-77.015335,-97.00728,662.2675,-337.03253,156.35974,2125.36499023438
380,1194.408,-744.361,431.43646,188.79738,-230.66089,76.803474,1773.68774414063
381,41.173355,-391.85464,-832.83203,442.43045,191.19789,-135.83614,1151.16821289063
382,229.18298,-482.94693,-113.10544,278.7531,66.009285,46.574127,795.754699707031
383,-153.70796,-81.71683,184.60744,371.2247,-171.21523,15.811664,772.917663574219
384,-1202.8907,510.0146,-62.181095,-111.42598,-141.54596,40.24678,1543.87438964844
385,-208.6721,-344.14108,-291.45975,670.93585,111.51885,-135.9188,1207.13977050781
386,-455.9527,778.7095,-151.80267,-376.74228,10.783007,17.358555,1291.67810058594
387,-379.59735,-63.15811,-254.64058,-1093.5154,-25.725004,-19.882877,1914.86437988281
388,-260.23938,-1302.7767,215.26794,-612.45154,-61.891758,138.81665,1733.00842285156
389,-337.8354,-740.9671,231.21909,-914.9293,3.0984445,23.963366,1796.880859375
390,-246.03442,-720.5118,-26.382225,-518.98096,40.960014,64.94196,1096.95263671875
391,963.9014,-731.71643,253.51794,192.2083,232.00876,8.581798,1564.53283691406
392,982.9922,-2244.9531,-597.37054,-402.71472,-6.148219,-27.005756,2881.7861328125
393,494.09756,-1320.1157,788.666,50.755825,36.15074,120.167274,1991.86352539063
394,955.7707,-1167.475,-253.11737,359.56857,-75.50739,101.15986,1959.20617675781
395,-513.6842,1072.1007,-317.99252,-81.459885,58.093998,71.34169,1512.60864257813
396,-1213.1787,-404.26117,-240.27074,331.26715,113.642235,2.899522,1087.14208984375
397,-445.17142,-27.68822,-208.48396,888.38,-81.28882,-148.144,1607.73779296875
398,803.33105,-13.6334,547.97046,230.14334,-108.726105,138.15326,880.704467773438
399,68.83935,-1348.312,-480.266,-198.58339,-52.55189,-245.83653,1356.30639648438
400,762.28235,-1189.7793,520.095,-296.5409,-7.191967,-56.680107,1915.73413085938
401,721.9473,-421.33292,-547.55414,43.43246,507.4667,33.026382,1499.60876464844
402,-2414.466,2165.4001,768.651,886.5151,154.11066,286.98392,4382.37548828125
403,-1279.3451,1091.3136,-295.61798,622.5437,239.70786,37.924038,2365.38305664063
404,118.19157,716.7371,378.3595,1411.7943,-274.83072,-92.307495,2549.87622070313
405,598.9258,-336.67557,349.77762,-373.02835,18.008493,-63.283947,1065.25085449219
406,-21.068775,-83.76839,54.114086,-464.99835,-53.47231,82.74074,831.915832519531
407,689.3298,384.32132,-84.126366,-428.21246,-6.232162,-59.264973,1008.02038574219
408,200.34111,-2699.831,94.8791,-1611.7463,144.0645,-133.47021,4003.14233398438
409,189.32173,-1108.4219,-218.97926,-721.0147,19.400846,86.935486,1704.22045898438
410,-686.1979,-1849.2235,-357.07422,-949.04956,-27.535248,17.127293,2132.83154296875
411,1.951599,-161.97964,15.692041,-159.31859,-8.72927,-102.21303,370.179809570313
412,-263.58093,-226.993,5.2419233,169.07608,-18.604498,140.93988,458.431488037109
413,611.06903,-1108.6135,-678.02277,-534.8596,48.85545,-41.036224,1809.05334472656
414,22.291206,-896.4757,-381.5057,-554.5577,132.8602,109.080185,1283.52758789063
415,447.5756,-834.1289,-269.70932,-1671.2861,-13.044858,279.27695,3138.79052734375
416,-530.9784,-303.1413,-295.2518,849.4246,197.49431,-51.94163,1530.83044433594
417,529.8432,-506.78848,750.8414,918.74664,-167.1192,160.89346,2011.53466796875
418,188.49973,-295.56482,186.7945,-702.767,-245.64362,87.391846,1385.30676269531
419,-44.22676,-1018.02893,-98.24613,-371.70105,-128.12608,29.920288,1168.34240722656
420,-187.7523,-418.85968,295.48624,892.6535,-4.9725637,-56.968323,1672.99462890625
421,-232.26498,-318.96375,-488.69788,-286.94348,90.543434,-162.8103,634.166931152344
422,-49.70024,32.557465,-845.6544,-895.6512,1067.0935,-117.17494,2563.12524414063
423,-538.5643,628.4951,221.45491,-644.48914,49.143272,-176.75655,1549.10998535156
424,-179.92886,1127.6212,1215.1305,1152.8746,441.14023,-275.08902,2574.87158203125
425,-544.4542,162.64148,-772.56396,-59.148125,-110.11528,-97.2901,888.021118164063
426,-510.02332,744.98364,313.18448,310.53104,-83.02805,-139.2566,1260.05114746094
427,-1221.0339,-63.612442,-51.322968,258.48718,80.46501,-29.52639,1255.58178710938
428,-185.12723,-639.56775,-386.60977,-554.89,-38.38813,187.65247,1090.55932617188
429,-296.87866,-390.1207,-492.8725,984.82697,125.50974,-151.25522,1747.677734375
430,-702.3399,719.50916,270.6431,0.35263094,-52.531086,-170.80658,1296.42553710938
431,-321.65564,-477.62305,231.1741,160.53435,59.61615,-142.4277,751.666809082031
432,-135.33159,39.64307,-575.81805,-664.6315,479.41147,-23.548506,1522.52856445313
433,785.5256,-1294.1395,-136.72739,241.18182,26.521482,-63.535114,1856.42309570313
434,660.02545,-1039.7568,-148.47655,-850.17957,88.749664,-53.189487,2090.26098632813
435,362.01495,-350.43356,-169.34334,101.84447,-82.67992,88.79575,697.594421386719
436,-537.7148,-554.1043,-28.164997,-259.92996,-41.435467,102.7309,712.575073242188
437,-187.60796,-2172.9653,426.7917,-732.0696,3.0627084,221.55772,2700.7412109375
438,-805.31226,-953.9953,128.88239,-144.39455,-149.87671,-109.12743,1095.16662597656
439,151.79192,-400.37054,430.83936,-41.867363,162.63358,21.25651,789.172729492188
440,-196.50185,-1229.565,345.53256,-128.84933,-14.751212,-31.787382,1405.1572265625
441,206.32439,-327.12936,108.37681,345.34,-75.86794,92.449875,801.625854492188
442,204.96693,-823.8019,-187.07135,-1059.8958,-175.5057,50.196014,2068.53686523438
443,69.30778,-292.89014,-64.740295,-480.33258,-25.819452,130.62209,919.754760742188
444,158.95398,-1472.2811,410.2096,-1168.2654,1.7066858,-74.66428,2691.68701171875
445,-792.03876,258.72223,593.0289,-711.625,-724.09094,118.25125,2168.23413085938
446,-720.7205,-2404.1646,-338.4321,-878.1229,12.114076,-93.815186,2442.09619140625
447,-139.47365,-186.54947,1034.849,1200.3813,112.06268,-148.28737,2421.3466796875
448,-596.5596,401.92346,-1015.41766,798.01605,37.505722,275.65387,1932.17419433594
449,-974.4438,-932.15466,159.20729,613.0176,-21.35444,-202.73483,1578.30798339844
450,-405.72296,-208.28561,1067.3248,198.14545,-200.89197,40.585003,1470.31140136719
451,-27.050392,184.82481,150.32582,-304.13715,-92.91991,-71.23378,597.825317382813
452,58.140427,152.37306,222.86208,-614.25757,-0.07610362,7.768176,1073.59631347656
453,-1557.3872,-960.59216,-77.04066,410.64505,-112.69214,69.79724,1490.8818359375
454,-54.91144,-296.97333,123.88673,-628.59045,-226.42894,84.41732,1222.46057128906
455,-193.46083,-1.8553491,498.9547,542.5067,-87.16008,148.72603,1164.28979492188
456,-438.5845,-265.2232,-100.97402,-255.57838,-117.71318,-0.9395562,568.365356445313
457,-172.01666,-839.66547,29.01257,-619.34686,-108.100914,73.50063,1349.97058105469
458,404.5659,-662.45215,-722.36334,127.707726,225.78181,59.04602,1190.95031738281
459,526.58215,-303.08347,235.43971,-134.95256,87.00576,-105.52852,801.444580078125
460,-293.61203,-598.95435,285.7834,-10.103729,33.376766,55.934204,786.68994140625
461,-1148.0901,-398.09555,-589.88043,-517.94464,7.8794518,-86.399826,1132.61499023438
462,-946.5534,-1217.0276,1375.7511,-360.543,-36.20053,71.77299,2550.24243164063
463,-596.9217,-98.026825,178.1267,-473.18677,2.5940046,25.269617,1066.10571289063
464,-382.38593,-86.827515,-364.11453,-52.989765,122.63896,32.202076,372.751892089844
465,-458.38617,-554.4615,-987.5254,107.22294,295.9151,-201.93848,811.114379882813
466,449.1288,-1355.7467,-238.36485,-186.24023,-169.74802,19.195045,1637.37219238281
467,-156.28552,-482.67108,72.78738,-186.97043,-72.09395,25.213669,596.776062011719
468,-405.02798,-433.22806,452.94324,964.1204,-117.06116,-4.083309,1894.95361328125
469,-1962.6484,-1580.8278,146.98627,517.35974,-74.45546,-71.25168,2150.7412109375
470,75.81213,779.2586,773.91394,919.2404,-170.22571,-107.29651,1774.14282226563
471,197.12047,3371.7551,-897.66284,-73.5144,70.17451,-102.22641,3848.99072265625
472,-220.32419,258.55463,185.51852,-342.12427,-2.6660087,2.8264062,742.210266113281
473,-186.72943,-441.23,-78.085976,449.34775,-0.055997007,-86.675545,855.86328125
474,514.2499,-875.5619,-241.84306,-256.64166,169.40932,1.4911506,1317.62158203125
475,-1166.1604,-872.8594,-87.76266,-329.1316,43.297623,-16.856363,1124.3359375
476,-504.5598,-28.111168,153.56293,-32.694424,21.068357,80.54649,608.743591308594
477,486.45038,896.02704,-322.0477,367.45276,35.421867,10.244767,1249.68310546875
478,1586.9465,2148.3113,357.78848,550.5687,-71.189674,89.97523,1861.40649414063
479,828.66034,-105.882416,249.36687,158.9318,131.69995,-283.73837,1018.28857421875
480,651.7861,-1406.8221,-361.23022,40.78604,-125.08857,83.80424,1803.23815917969
481,-977.916,-1682.5544,-316.3536,-50.976837,-19.681404,-25.37503,1187.95288085938
482,-2003.9989,-245.5852,154.6973,390.07175,262.71036,-19.981913,2149.61010742188
483,415.334,-582.80396,170.56601,-685.6121,114.648636,-72.93932,1509.12683105469
484,-1678.8702,-868.87537,-404.183,-449.3037,-3.1012862,-55.18501,1364.99658203125
485,-591.7602,804.6631,-216.186,-654.7084,-79.9168,-106.81867,1704.67395019531
486,-144.42134,-1283.184,-535.13007,625.10474,83.58768,187.03412,1517.45935058594
487,-417.49197,530.00903,476.12772,-806.25433,-123.34577,-98.3717,1695.41162109375
488,-2647.957,-950.5972,242.61305,-759.3761,-225.31639,-8.848388,2865.76025390625
489,-3240.8494,-1099.6246,105.4397,157.50352,61.225082,26.90055,2950.45336914063
490,-859.15576,-17.08909,-926.9163,999.1966,161.22014,-1.8743858,1960.58520507813
491,1213.1492,-1109.7898,323.54517,521.5886,261.10873,-215.13568,2297.93237304688
492,340.50928,-694.62024,-652.47485,644.6569,-123.979965,112.40942,1536.36315917969
493,-653.1173,-951.4898,-536.0098,211.85017,-143.30385,79.918175,594.215576171875
494,-1083.331,-727.4926,-964.76776,346.8721,51.591576,-95.93888,703.596130371094
495,-1938.1562,-1417.046,323.5184,-113.934044,10.996174,164.63187,2080.56787109375
496,-1140.7363,-1648.4177,522.78674,-284.12238,-73.758286,28.534288,2032.37023925781
497,96.35302,843.9723,437.78268,380.4834,107.07264,-35.243053,944.813293457031
498,-1100.8055,-832.63983,-163.15384,-704.7467,62.75213,-59.27179,1487.2841796875
499,-741.4652,-1484.1765,925.10364,474.98566,47.218315,111.39453,2299.47827148438
500,-1674.913,-1600.9078,-130.78976,379.50797,80.7959,-71.12134,1656.00659179688
501,-880.73303,-164.34627,-395.5178,542.9757,151.11516,-54.87435,1167.49768066406
502,-925.09155,-41.824535,27.329906,860.19904,-69.92881,30.486835,1755.93579101563
503,-1244.3973,25.97666,-328.38434,501.0742,50.43035,-40.296604,1433.51940917969
504,-1138.6914,-616.56213,581.14825,-558.76154,-30.211432,97.75207,1816.73791503906
505,-323.86514,31.058764,641.65356,-339.63278,99.6454,-44.36438,1047.49951171875
506,-928.4305,-1591.8849,-533.76215,-607.8431,-60.743317,117.54894,1420.81713867188
507,-498.3655,1591.5725,-459.58014,255.749,-129.07335,67.952156,2132.68408203125
508,393.4863,1183.8098,-611.9752,227.91203,278.1039,-249.7789,1733.55981445313
509,-107.10143,-977.73785,-145.70726,-732.65326,142.51921,15.0216,1548.49645996094
510,-527.6098,-139.70987,648.06213,796.3597,134.88412,16.350124,1742.00378417969
511,-854.0075,2382.6172,-384.26852,-30.502724,83.76762,-19.048988,3033.30786132813
512,-829.71106,-115.566696,-133.40964,985.81506,128.31596,84.93638,1866.57702636719
513,-149.65842,2818.2004,-228.65817,-618.1034,-88.882744,20.4849,3196.87353515625
514,399.55692,-914.3504,-312.37762,-107.80665,65.10153,124.26658,1179.70129394531
515,-1670.844,-1761.3932,308.65317,585.1782,-107.515236,24.706945,2273.68872070313
516,-166.79565,-1038.4093,-156.59349,-274.00806,63.14462,144.88034,1033.86682128906
517,-303.09433,-691.28754,267.19858,1204.0525,-46.76137,-40.027145,2248.97875976563
518,-761.45605,1201.2256,-456.84164,-545.95844,90.17251,64.15739,2068.3330078125
519,-513.7637,1646.9132,84.817245,-142.07233,-70.78077,-36.72423,1952.71948242188
520,990.8143,-331.33176,-1974.2135,-65.25349,-85.52125,-3.4956691,2579.537109375
521,1033.5702,563.92267,-1289.4812,-225.39546,105.14083,-12.619745,2170.75390625
522,-1843.3064,-1741.8903,387.22745,468.63327,-75.77322,-102.32785,2338.12817382813
523,-2222.8335,-2635.8313,-105.192245,304.4153,-23.522356,67.28738,2413.04809570313
524,-820.17316,514.4657,66.94024,507.08466,-127.38022,-34.660446,1485.9140625
525,141.18547,-1753.6909,-222.37856,-168.05867,-12.782478,-105.887436,1775.580078125
526,-343.01767,319.688,592.4579,575.23956,-124.47978,-139.29626,1338.56115722656
527,-277.95755,-646.56964,-444.5598,1564.1862,21.356735,9.148126,2728.34643554688
528,-1816.755,-729.27893,-497.60336,966.0126,149.99686,-15.607443,2087.1005859375
529,-1080.7942,-1978.8359,574.3372,108.104324,98.92513,-1.7691879,2257.59692382813
530,-935.1871,-3102.284,-387.0128,778.85175,-114.37854,82.79173,2839.787109375
531,-231.4704,998.35406,437.79053,-289.11594,95.64106,-17.364122,1190.13244628906
532,-573.9696,37.88008,616.2908,-336.54544,-14.343379,59.17398,1189.00366210938
533,-1386.1067,2286.765,-496.74,857.1663,83.68149,50.251743,3639.67236328125
534,-696.5494,1612.6744,-258.57358,1116.2776,-88.986244,-11.860169,2876.69213867188
535,1473.1798,-903.08264,1502.4486,1122.4187,80.7127,-35.638268,3085.42626953125
536,1855.1434,-573.31696,1043.3022,957.5248,-55.200268,88.97526,2714.48583984375
537,1162.2184,1779.4414,-261.74564,-1232.6699,27.06976,124.192024,2809.70385742188
538,-1185.9547,-233.1685,-130.3093,1526.1793,104.36627,-244.00478,2866.24243164063
539,-866.1256,-1247.0116,-175.5469,1433.0438,107.43155,17.394573,2661.08642578125
540,-138.79872,8.539603,489.73135,-1183.0352,-188.24295,-19.03659,2151.80444335938
541,3626.0127,1220.7039,-839.38885,213.11066,-89.78918,73.96576,3893.77685546875
542,-465.72867,270.0255,-299.43417,-1467.13,81.35927,52.313053,2632.89111328125
543,4406.444,431.33417,-435.90848,-301.96155,108.602745,62.588875,4507.95654296875
544,3534.9155,-1027.2483,-520.42865,-1711.8804,144.78558,-25.91136,5254.95166015625
545,1381.3156,-1592.7212,-789.5328,-1850.8766,-99.74415,-23.693968,4172.5361328125
546,2195.86,125.998985,289.80484,-1214.592,82.87429,-163.16559,2915.18041992188
547,2594.8994,925.7331,-416.65823,-785.2329,93.78619,-25.852419,2950.75756835938
548,24.261808,37.511147,-160.00082,-1153.429,-47.0202,-62.504597,2011.49645996094
549,-11.679805,447.4894,-297.5886,647.39716,220.5106,126.00667,1369.21069335938
550,-2088.9902,-2840.3909,-410.94135,-1209.7377,-109.1082,-4.627595,3011.23095703125
551,-936.6652,2892.6448,29.760134,-417.89572,99.602905,-129.03033,3535.60034179688
552,1965.4547,-866.07587,1188.911,-1196.6254,-87.120705,-6.8238077,3277.25903320313
553,514.60016,-207.63292,2041.0254,-858.12146,-15.864691,-89.23371,2487.52685546875
554,1156.8318,1231.315,32.7159,255.97522,-149.70355,9.291112,1271.60314941406
555,1626.9158,1061.4155,-45.618824,-144.59528,71.263214,-163.30507,1526.20703125
556,-1348.0941,-3078.942,750.01587,-1119.6392,-220.0051,2.0799844,3864.63500976563
557,-1453.4722,-3938.217,221.92363,-1322.279,-39.419617,116.88351,4293.5712890625
558,816.9252,-1697.7782,68.2573,-504.45837,-15.154361,-87.59708,2405.97216796875
559,122.42,-939.5807,279.77582,1008.0428,-95.57697,78.29036,2100.94311523438
560,2185.8655,591.51874,398.3038,1270.3981,18.434319,5.174093,2780.31616210938
561,62.4712,755.55225,-70.02548,-227.82533,24.420689,4.1760626,864.466430664063
562,1224.5139,-1267.025,-161.35023,-702.31665,-12.728579,-1.7981449,2481.06689453125
563,1000.6775,-1897.8021,-276.85666,-24.629059,-99.69515,106.500145,2529.03833007813
564,-764.89075,-973.0346,-319.40717,-805.48755,-31.530226,-11.630535,1511.39758300781
565,-756.4079,1740.558,-896.8084,193.69089,-100.833496,183.76242,2617.15161132813
566,1492.9774,1450.1904,711.2579,991.03644,21.618929,41.870087,1879.5185546875
567,1187.696,1659.9335,-447.4039,-896.6537,91.05087,-294.331,2522.98266601563
568,980.791,2629.6172,1169.8628,-444.3067,-171.17986,257.8778,1822.70825195313
569,-36.454224,-68.046524,-79.30125,-259.40424,155.72203,-193.45688,623.198791503906
570,-379.57013,-1187.9683,229.07237,138.27383,-9.063108,54.847527,1258.01782226563
571,688.3352,-1529.2893,346.85406,-413.45294,-195.20226,157.24335,2231.25732421875
572,-1571.2032,-684.24457,-306.90585,549.06116,119.26522,-66.84181,1491.39013671875
573,-419.3338,-233.30412,-107.61874,137.47673,85.40438,1.0540178,390.345581054688
574,-634.15607,457.60956,-43.572823,-374.45413,-49.279007,24.480309,1151.38745117188
575,591.50464,147.5204,26.121675,-752.69934,86.448784,-53.67192,1412.97204589844
576,-499.64664,-1120.938,-304.2409,-361.56903,62.56583,2.3643587,974.446960449219
577,-429.58716,-1051.5103,-1065.307,-494.01642,86.72737,-83.69099,1082.26306152344
