Element Label,S11,S22,S33,S12,S13,S23,Mises
1,-191147.34,-189049.19,-183206.83,1824.6316,-332.96332,230.9908,7827.7783203125
2,132341.62,135910.14,140852.17,-1118.3588,-844.55084,1149.2815,8040.4111328125
3,84078.195,85050.92,86148.836,476.91714,-86.99215,-162.60503,2000.98889160156
4,28413.994,29357.824,29860.895,-861.8581,-152.61664,170.24896,2000.98364257813
5,3969.196,5935.0713,5737.862,397.58588,67.83561,-3.8774724,2000.98522949219
6,256858.48,250852.78,263879.25,-197.92976,-1702.6174,1286.6495,11887.173828125
7,233553.14,237965.86,244556.17,-754.399,343.29852,235.42693,9706.322265625
8,86443.78,85139.91,87121.2,28.893076,-561.2345,-68.78747,2000.97863769531
9,31340.277,31214.295,31766.043,-525.2266,204.44724,-966.12024,2000.98400878906
10,28634.521,29014.402,29119.158,60.5361,-892.61346,684.98035,2000.9853515625
11,-44319.137,-35041.86,-16725.172,-2937.5227,5362.5605,7322.476,29402.5859375
12,158568.12,178698.58,186689.89,2999.1218,6549.269,-3005.8228,28508.46875
13,327184.2,327455.8,337374.56,-3372.81,737.25824,5969.0234,15613.951171875
14,9330.674,10617.413,11012.103,411.64893,529.5459,-334.15598,2000.98522949219
15,-6009.3066,-6430.9697,-5142.4893,-450.13312,-3.278933,836.9326,2000.98413085938
16,32088.494,34141.824,33548.387,163.20775,310.45612,-308.05396,2000.88989257813
17,18455.688,12840.024,10019.453,207.50584,1440.5253,-3619.4194,10049.16796875
18,80057.305,56732.723,68090.4,-14788.393,4218.209,3456.6333,33962.25
19,43470.52,42077.273,41531.695,-555.62714,4.748804,-162.07036,2000.98657226563
20,-4725028.5,-4725072.5,-4725658.5,206.7759,-677.18884,-842.29584,2000.88134765625
21,146669.38,160044.94,164132.06,-179.62581,-4833.965,737.0188,17947.30859375
22,42895.332,42161.246,41480.125,464.61438,139.06367,773.6268,2000.97985839844
23,28752.76,27315.568,28459.057,18.607792,94.29792,-865.2178,2000.79833984375
24,14340.965,13988.041,15604.913,-353.4162,49.17381,-695.93164,2000.78076171875
25,95578.02,96915.92,95437.41,352.23767,-475.4547,564.3713,2000.95166015625
26,7846.174,7894.6504,6772.2017,547.9305,306.33173,733.4652,2000.98559570313
27,6202.183,4687.6323,6463.672,-379.65576,341.61053,-392.9157,2000.98364257813
28,31359.152,32908.97,32665.428,-591.8849,-365.0956,-395.50613,2000.98522949219
29,-21992.205,-22477.75,-21284.97,949.6505,5.5193224,-270.18958,2000.98364257813
30,-76143.945,-77882.66,-76094.87,-330.30725,277.65134,-333.89517,2000.97338867188
31,11804.303,11934.986,12873.671,-663.73883,-586.22186,-458.42062,2000.98522949219
32,46975.71,52559.12,52817.043,1046.0708,-675.37805,1472.2659,6620.798828125
33,-24256.133,-23077.791,-21983.924,-150.4861,-10.70121,-143.37689,2000.98388671875
34,32584.25,22086.906,10213.354,337.8566,-5363.677,202.51828,21507.87890625
35,-113736.6,-96268.29,-85364.02,-3407.9253,-4419.1,340.2178,26613.876953125
36,94132.25,86812.35,74281.7,543.4774,-4895.415,-3208.6147,20149.146484375
37,-193572.98,-184961.66,-180738.4,-6598.73,-12462.699,452.56482,26936.208984375
38,58561.156,55971.598,54483.676,-127.112175,-2737.0356,-250.97858,5956.87158203125
39,364760.84,381459.62,394395.5,365.13385,-3954.4822,2866.9622,27095.6015625
40,-5046.0986,-10452.119,-15726.566,1378.8281,-4917.249,1275.0381,12987.5830078125
41,81282.65,84646.38,93508.44,-2053.682,4828.93,-553.0401,14254.34765625
42,16081.887,14711.323,14133.584,410.16718,-201.13594,-352.9911,2000.98522949219
43,115137.54,113008.36,114397.7,-151.53769,-322.69052,197.15337,2000.85144042969
44,279762.75,280241.06,279306.84,668.2778,735.76953,-358.4199,2000.98718261719
45,85646.61,85357.1,85518.74,582.2231,-982.2078,99.12525,2000.94262695313
46,141749.89,141412.66,142842.39,-268.16,-29.318714,799.67224,1952.54895019531
47,38276.594,37272.363,37235.844,673.0125,342.1573,644.8265,2000.9853515625
48,325448.75,324860.78,325167.84,-117.49096,-998.777,478.3709,1995.00537109375
49,6756.839,6011.958,7210.7725,824.2914,-486.70456,224.42206,1999.78454589844
50,-221914.5,-220681.17,-220618.83,848.7548,185.31322,-123.262405,1977.78491210938
51,21717.75,21072.697,22176.172,-316.9197,959.56226,78.31341,2000.9853515625
52,21358.646,22885.781,22126.17,-644.4792,525.6337,-223.25562,1993.38488769531
53,40621.305,41244.797,41652.61,-387.20346,453.73132,842.06573,2000.98498535156
54,-281195.75,-279676.4,-279660.53,-444.9334,251.07848,543.01636,2000.09887695313
55,46668.02,47451.59,47242.355,-971.1048,-295.41254,-373.8043,2000.98474121094
56,64701.848,65458.723,66798.89,-416.521,-163.25584,82.19675,2000.98608398438
57,-4903.8613,-4867.4077,-4869.2056,-987.5263,-101.39458,590.53894,2000.98522949219
58,7795.2886,5706.555,6507.715,209.50076,371.1298,206.39478,2000.98364257813
59,140106.03,122662.54,139365.23,5405.044,-2750.9631,13459.908,30753.15234375
60,-17325.45,-15799.297,-16108.757,-717.05225,-26.667677,-369.93222,1976.81518554688
61,7584.686,12612.357,19427.445,5980.573,-3820.1455,-2823.5742,16762.666015625
62,-53886.414,-42928.36,-41302.445,1722.1357,-4108.343,2764.6094,14933.228515625
63,-1360.2523,1932.541,-180.95464,-2426.966,4773.1367,-6507.529,14879.947265625
64,144072.97,149847.7,171544.22,7287.686,-5048.8525,7712.783,32305.462890625
65,7952.4995,14505.913,13371.243,-1703.1543,2112.6545,1647.446,8187.375
66,8608.291,8100.2246,9002.503,372.94547,968.42914,-230.42859,2000.98522949219
67,-29173.078,-4732.99,-9613.021,-748.97534,-1090.3053,1286.0432,22629.076171875
68,-7817.4175,11891.117,12536.221,2026.227,2029.2202,-2154.5881,20979.830078125
69,75476.5,48343.418,51754.57,-8350.585,1412.5602,1033.5156,29557.947265625
70,39853.21,44609.79,53121.43,6956.9243,5378.83,1339.4996,19311.498046875
71,-8532.588,975.6138,5676.574,-329.7679,-2408.0845,456.0158,13249.5029296875
72,39668.164,21133.57,45044.816,1213.5514,-2216.5498,-2230.1865,22498.271484375
73,16660.31,14834.126,16229.504,-637.97314,125.311386,-25.759937,2000.98486328125
74,-65049.31,-62859.723,-64051.44,328.22543,150.92831,-49.33658,2000.98620605469
75,10971.861,12021.655,12141.277,6.203761,-724.11926,-629.50397,2000.9853515625
76,9813.623,9223.608,10777.719,-601.19763,-437.8736,-407.43146,2000.98608398438
77,-21937.074,-20783.91,-21525.738,263.42786,938.7672,205.91806,2000.9716796875
78,13386.987,11458.405,12829.59,-173.1852,-438.95068,-356.27637,2000.98596191406
79,-65839.82,-67711.7,-66800.0,-239.68126,353.12646,525.6537,2000.97924804688
80,454627.7,450792.62,464837.53,2495.917,-2081.0784,2179.393,14284.072265625
81,-57282.93,-64932.254,-59803.566,5791.7344,-115.11114,6382.4346,16384.849609375
82,89204.336,97673.734,103383.58,-754.12524,5993.718,-4210.2515,17758.115234375
83,24461.707,24204.074,23886.717,112.867424,-1012.0729,-462.81442,2000.6337890625
84,-79676.3,-85391.016,-76324.55,-2732.239,-1962.9579,4765.23,12850.05078125
85,31758.863,38452.29,53386.766,-2967.358,-5762.4556,-5075.109,23897.841796875
86,23387.17,23958.078,41028.805,6028.8965,-572.4511,-269.59726,20291.017578125
87,31141.559,15668.687,34341.582,2408.1978,3934.022,-1629.5237,19260.25390625
88,14286.697,31659.498,14927.702,5068.323,8202.766,970.55927,23933.966796875
89,147471.53,168798.08,142493.52,2322.852,5275.3057,4486.49,27309.8046875
90,-65287.46,-91266.92,-70384.414,-1897.7009,-5475.591,-236.58653,25873.021484375
91,-10439.969,-12085.926,-11654.916,411.5462,636.2224,-178.86145,2000.9853515625
92,-998.87195,725.95123,770.7086,-501.51956,-243.40909,-76.192795,2000.9853515625
93,-134108.47,-135682.92,-133594.69,-1983.9388,1921.3849,-169.10695,5149.833984375
94,-99151.79,-99636.58,-99476.125,4112.2646,-849.72705,-647.18164,7371.41650390625
95,28884.959,26304.953,22037.844,-633.1007,-4025.6492,-1191.0159,9484.1650390625
96,-442486.88,-423445.66,-418378.2,1674.6891,-12267.249,491.05936,30746.2421875
97,55961.098,66704.81,67249.86,12054.491,-814.18317,11052.374,30429.69140625
98,-36037.285,-25052.469,-17449.701,1537.6693,-6024.8354,3595.831,20414.76171875
99,6418.21,4808.025,4846.9424,-699.6929,8.921989,33.80959,2000.98083496094
100,24437.059,24501.865,23986.262,-1076.6399,-306.68307,50.617744,2000.98547363281
101,19316.053,20574.719,18948.219,-278.1567,-689.7966,232.2696,2000.98498535156
102,4485.948,4790.2866,4592.1187,-1025.344,-341.87137,-377.59833,2000.9853515625
103,40953.992,40637.266,39374.387,760.968,206.5177,120.54583,2000.98120117188
104,43500.883,44358.87,46006.188,-7.810002,160.44493,168.63142,2241.8505859375
105,-148646.52,-148450.69,-147239.64,-438.70166,-670.9506,-333.61716,2000.98547363281
106,35877.973,33976.105,29332.12,71.008,-3414.0667,-1232.9475,8576.6611328125
107,62071.277,45583.133,33383.2,-1181.6471,-4609.922,-3437.3882,26930.306640625
108,-12050.656,-10431.755,-1375.2633,-1499.0289,3206.3557,5172.449,14735.9609375
109,27001.586,32830.527,27331.355,-2428.0745,3676.6445,-415.64362,9535.2587890625
110,28942.67,28125.014,30249.086,-183.33818,-118.161064,-373.15237,2000.98388671875
111,-24408.344,-49085.37,-54176.0,1217.3994,6085.8247,1436.0468,29702.46484375
112,-1359.1833,-447.815,-1087.5869,-622.70526,800.2678,-295.82608,2000.98547363281
113,16401.967,-12289.23,17931.139,380.2143,3445.5264,1382.9683,30185.814453125
114,110446.15,128676.586,140088.52,6556.695,-8548.332,-804.9615,31949.3671875
115,8447.7295,6774.364,6567.7134,340.7746,356.98206,167.9229,2000.98571777344
116,-83897.96,-83750.9,-81867.81,-0.5126632,-13.141058,-230.09637,2000.98046875
117,-22180.27,-14085.125,-21666.566,-4368.5024,571.13696,5729.5625,14776.685546875
118,10827.914,9190.465,10793.714,383.62946,-89.48863,551.3575,2000.98303222656
119,10100.638,11909.994,11018.166,-508.37292,461.7577,210.91843,2000.9853515625
120,33399.69,35455.266,34276.207,-486.66153,-105.948875,150.37813,2000.98889160156
121,130145.6,130796.69,130749.74,-625.9648,-703.0856,562.7044,2000.98571777344
122,49151.023,34271.51,43674.305,-2911.9905,-1791.6304,-1403.4932,14521.765625
123,112905.07,117158.164,116455.92,-566.45685,1965.6741,-888.6704,5524.373046875
124,-7884.2183,-3649.536,4282.038,-2326.0085,-5179.102,-2662.961,15244.8154296875
125,-49027.082,-69106.94,-76554.47,-1017.39905,1083.5476,3388.3381,25481.0078125
126,36186.305,34410.074,36536.633,38.364273,41.453014,176.84613,2000.84533691406
127,73002.516,73114.87,73266.79,449.08215,-1055.1735,44.615856,2000.98498535156
128,14932.798,16983.463,16578.895,256.92453,-2.6642015,-296.88425,2000.43530273438
129,80030.11,80725.2,80299.0,161.53816,-1066.4177,220.12852,2000.98657226563
130,81432.27,80064.27,79685.28,11.023219,-590.0782,376.48053,2000.91833496094
131,38592.59,24735.404,43857.043,-923.0247,-2810.9304,-4074.2354,19202.7265625
132,-32534.035,-33061.53,-24845.379,1363.3707,1429.5665,-848.37695,8792.9501953125
133,63852.63,63650.707,63730.387,-224.94193,-621.0943,-942.3091,2000.9853515625
134,72801.77,74825.46,73538.875,-78.294876,212.6372,-484.06247,2000.9873046875
135,43096.78,43718.344,43563.77,40.702007,1085.9791,221.16406,2000.97924804688
136,33851.812,34786.91,34961.562,-547.3315,-714.7738,409.95328,2000.95812988281
137,-102775.84,-106653.7,-88691.586,-2318.0176,2342.2275,3089.141,18144.61328125
138,111411.77,111239.375,112734.484,-460.70645,530.2446,414.88092,2000.9814453125
139,24991.95,22905.91,23697.594,169.00146,-58.980137,-439.89365,2000.86950683594
140,23847.996,24962.924,24097.979,-848.5163,-39.664272,-520.3979,2000.98571777344
141,10976.136,14461.456,19440.268,6159.8496,665.84064,3311.7825,14225.1103515625
142,63.125454,2613.9666,9027.373,5737.132,6797.437,3266.0713,18258.130859375
143,2076.6204,7289.479,5423.9233,2255.701,2096.6482,-211.11263,7036.716796875
144,-180682.5,-162558.6,-158105.34,-6467.64,-10976.116,1603.9421,30391.64453125
145,-55373.605,-52498.34,-51813.062,-1056.5667,408.7126,365.11948,3867.4521484375
146,214287.02,189575.66,192745.44,-7086.8916,13635.675,928.79913,35403.73046875
147,-188234.7,-197312.33,-212647.27,13983.483,1045.0726,2548.6306,32651.875
148,163731.53,140775.34,127548.66,5946.1475,7135.5737,-290.93387,35561.765625
149,57858.8,56436.277,56109.633,518.92114,446.90598,-22.034452,2000.84936523438
150,263544.22,263597.84,263770.0,133.24484,1101.2417,284.26138,1993.89599609375
151,3929.7742,4780.6587,4458.5337,-203.08469,-1053.0155,-1.8157268,2000.9853515625
152,62377.35,61322.902,60481.508,23.111319,513.65295,409.79898,2000.98522949219
153,4586.4707,4796.6855,3651.1968,34.419548,-883.32245,-425.82333,2000.96032714844
154,80289.98,83022.76,80301.55,-1083.2728,1413.2247,665.2768,4275.09521484375
155,45290.36,40508.453,41533.445,2505.6152,2488.459,366.9855,7538.66455078125
156,267260.38,239876.72,239650.4,102.51808,-4351.617,-1106.0145,28576.63671875
157,-300227.75,-308684.75,-301983.6,-2851.8774,-1513.488,-166.06512,9545.1015625
158,41474.25,38137.65,40141.62,-133.73741,3363.4233,1111.2689,6794.013671875
159,27834.418,27499.652,27725.762,-822.2513,-88.52685,788.34375,2000.93969726563
160,52177.207,57702.56,57306.22,1728.2299,-1855.1135,-1347.9071,7296.02001953125
161,10245.895,2355.968,17293.998,2386.4116,-4083.7053,-1146.0066,15446.376953125
162,40239.574,29411.834,46885.32,-5617.425,2098.6582,-3323.7603,19349.0546875
163,-7329.404,-11003.076,-2043.1375,104.56561,-684.6714,-2355.269,8884.9033203125
164,-58131.547,-57644.703,-57956.35,-432.6329,-1013.6674,-243.20601,2000.98571777344
165,72713.11,72890.016,72844.68,1089.8088,304.24847,214.36705,2000.98522949219
166,1672.5823,-565.5422,11878.27,-2718.4497,5314.581,2978.4092,16294.90234375
167,79295.12,73331.79,87794.67,948.1913,1393.0227,-4562.7505,15148.0751953125
168,-230813.38,-224448.53,-217849.3,-1066.5956,-154.49908,565.90894,11424.07421875
169,712.4894,639.1621,-947.9379,-418.70322,-524.29047,14.556617,1997.962890625
170,23859.348,23796.615,22845.605,-967.378,235.16084,-144.41653,2000.98596191406
171,33234.336,31768.69,32234.715,113.36967,829.1793,211.56651,1979.32446289063
172,235186.64,227087.45,250874.77,2431.2527,-2880.8208,5091.9053,23647.15625
173,149852.23,126250.29,126953.21,13619.276,4628.211,4714.2734,35047.734375
174,-24.148525,1735.019,1783.9684,-397.0945,-270.80914,-206.31772,2000.9853515625
175,9608.609,8481.374,8878.615,983.4895,22.59184,173.8056,1993.63659667969
176,56093.492,54989.645,56204.17,6.824207,-938.9912,-43.166077,2000.93640136719
177,-101059.15,-103271.6,-97550.32,-2139.72,272.84756,5525.394,11424.466796875
178,14808.882,14061.483,15522.029,-746.1038,-177.8559,461.25513,2000.84216308594
179,54112.543,54471.836,56003.47,-150.5453,548.5243,51.729095,2000.98767089844
180,-48584.277,-49739.824,-47170.86,-287.6754,6236.3,7305.374,16792.6875
181,19197.912,1020.1159,-7197.8325,-681.41644,-3143.4016,675.4167,24078.115234375
182,-205496.67,-233466.3,-230582.2,1938.2742,4865.3276,4624.1577,29264.044921875
183,-4086.1343,-15173.604,-16439.178,-3686.8303,7935.773,-5828.441,21683.76171875
184,33926.906,37521.68,36153.03,-2732.6265,-2382.4746,135.1908,7025.72021484375
185,3444.912,9056.251,8803.986,4257.919,-5692.704,-6452.799,17511.748046875
186,-14625.825,-12790.334,-12990.765,6.8932405,229.1543,-517.7091,2000.76428222656
187,-13643.311,-12301.712,-24969.139,-5508.1787,2987.3687,-7185.277,20443.748046875
188,17706.566,17824.143,16296.054,-585.2166,-505.27853,117.428375,2000.98364257813
189,293001.94,293612.8,294845.34,347.71216,458.07022,-349.4531,2000.94299316406
190,31446.629,35785.316,49450.426,-4590.6216,-798.20667,-9326.53,24309.12109375
191,196712.1,191966.47,176986.22,13434.77,-1418.9852,-3945.56,30203.3359375
192,-23035.316,-11046.668,2593.683,-4908.791,-2984.5735,-5992.544,26458.642578125
193,18453.258,-14320.005,6155.2183,10519.888,-6016.714,2270.4607,35754.06640625
194,-47065.156,-42300.0,-81077.6,9248.713,-964.2217,292.90338,40016.125
195,-3574.1646,20289.812,2409.185,-9268.805,2198.3147,401.46854,27114.8828125
196,-794.88434,25462.74,24920.6,1601.1578,-1505.408,-215.6744,26270.72265625
197,-19139.842,-16858.943,18393.965,5459.537,3948.6794,5878.213,39600.9375
198,46955.51,13140.772,26575.406,2137.7156,5894.009,-3491.3132,32002.072265625
199,55483.81,28761.46,26244.56,8933.786,-12284.366,-3867.3147,39047.39453125
200,-43379.227,-48481.004,-63969.504,-12386.338,13493.074,493.65207,36771.25
201,26436.113,16913.4,45077.44,-13524.643,9196.607,-918.60187,37692.296875
202,32659.146,71744.234,57361.33,9189.661,4913.346,3263.7598,39116.28515625
203,-52668.793,-36580.85,-33884.574,6899.825,18231.543,2089.752,38243.44140625
204,-25054.07,7124.963,-2495.797,2454.7395,11990.659,670.827,35626.078125
205,-15693.429,7219.1084,118.62778,-18703.168,-2034.1371,-3422.054,38854.6171875
206,-946.20087,-17326.809,-20752.402,16043.9795,-9034.062,-6502.178,38471.78125
207,-9368.67,-40600.62,-21546.434,13517.872,-1355.2037,-2368.242,36248.19140625
208,15396.368,16860.354,3097.1943,-6070.513,14967.693,-14293.852,39585.48046875
209,17053.594,38681.93,13346.476,12923.408,3980.2122,-1319.4222,33399.08203125
210,6588.5605,-16276.625,23891.418,2620.6628,8862.742,208.31421,38395.53515625
211,-23646.883,-63459.89,-51731.242,4329.234,-1793.4607,-1632.6989,36463.09765625
212,24687.857,22841.266,24365.701,-429.12216,421.26678,10.28086,2000.98645019531
213,3480.0598,10260.435,14294.342,-5317.7725,9212.472,3311.0762,21492.603515625
214,-24551.316,-47814.73,-39331.07,9396.858,3193.999,9636.571,31462.6484375
215,9081.452,445.45068,7476.7515,-7970.904,7985.106,-244.25467,21103.744140625
216,-13159.53,-23354.639,-11180.852,-13916.258,132.91904,13303.62,35214.015625
217,-3929.6162,-17308.38,-40289.664,7880.7715,5182.5977,4679.177,36703.86328125
218,-11320.013,-39145.066,-50535.43,-8029.4214,103.04067,2867.7148,37934.54296875
219,78328.875,71391.24,91003.64,10734.276,119.57817,6182.5845,27515.509765625
220,36969.715,47265.97,53299.53,9181.278,-1467.0203,11420.908,29243.72265625
221,-56089.188,-54280.285,-79327.055,4736.457,-8154.2817,1333.1166,29281.669921875
222,-42508.836,-69831.33,-72229.27,-8213.589,-934.02966,13366.759,39481.6875
223,-12185.091,-2727.0005,-35592.344,4371.4307,-4091.3376,-4839.729,32195.607421875
224,-43672.88,-73872.414,-60813.08,4868.2515,-7180.57,399.77185,30239.59375
225,109198.3,102002.45,110995.41,13566.922,803.8509,-270.0298,24945.599609375
226,74846.64,83581.87,80067.586,-10088.686,-12535.307,14767.552,38586.84375
227,55464.227,54221.758,61579.812,14236.829,3047.549,-1729.737,26295.3046875
228,-109544.836,-113472.38,-102500.19,-9574.564,-11193.642,124.58758,27270.4453125
229,-1619.0979,11448.165,32680.875,6653.8765,-5882.7617,-5002.296,34795.78125
230,43059.305,26538.713,27452.88,-2211.3748,-10240.077,6303.2915,26591.45703125
231,2580.7512,4439.701,3493.1172,350.66162,-444.29294,-387.64026,2000.98425292969
232,915.883,2054.854,1752.7809,-539.3482,-431.7469,115.73535,1586.36071777344
233,-17085.844,-9743.996,-19651.188,1663.3309,2770.07,6730.25,15701.169921875
234,3566.7356,805.09674,-5762.413,-13678.474,10856.782,-4327.504,32248.859375
235,549.15607,-28082.732,-5514.4644,1143.7684,2871.7236,-1153.0352,26750.572265625
236,-3422.7786,-12186.687,-7674.44,-12652.333,11204.058,-5954.358,31950.3046875
237,-4976.6465,-25727.836,-2822.698,-7003.4155,-5389.6396,-9920.057,31771.984375
238,2739.009,28221.457,5414.6846,-597.5284,-792.6146,-7847.532,27857.47265625
239,24598.445,-8495.287,8964.907,1192.91,11876.023,862.9809,35381.54296875
240,16917.217,21297.328,4815.0684,5828.457,-7436.2812,-6134.4316,24481.779296875
241,16373.1045,20671.07,33861.152,-209.50569,-1033.2369,-3882.1904,17253.693359375
242,1855.1143,-25635.99,-1592.3271,3524.5586,-10980.353,1022.06287,32786.8515625
243,-8388.862,-16580.404,-22084.111,-13188.767,1462.9463,13909.98,35372.1640625
244,2744.0632,23864.424,24106.674,-8709.413,-8568.216,-3696.5618,30660.12109375
245,-1175.6548,-13837.835,-20871.275,-3640.647,-5218.6333,-3249.9622,21260.546875
246,26697.043,20515.57,24940.744,7025.6904,11510.787,3061.4238,24579.08203125
247,-14254.959,-10250.317,17862.723,3339.4504,3637.8484,-2634.4858,31826.751953125
248,3736.33,3512.3752,3416.5574,-224.20628,1040.9985,-416.85614,2000.98522949219
249,7524.154,6976.437,7228.941,-603.631,-931.78467,164.0251,2000.98547363281
250,2009.2853,356.36282,585.4734,587.2179,-97.70647,-422.25,2000.98522949219
251,14372.401,13840.576,15154.646,-558.4405,-658.0124,-391.01254,2000.98571777344
252,-375.53958,619.928,-188.0151,-109.72542,632.15985,801.97644,2000.98522949219
253,5374.4155,4431.055,4842.8604,-995.7994,-342.0001,48.88652,2000.9853515625
254,6545.6426,-1181.746,21037.861,-2485.1401,569.0994,-3534.872,20945.388671875
255,-156891.81,-147701.28,-151027.36,-952.11615,-1191.8625,1073.6031,8683.2763671875
256,-61234.203,-57759.14,-40471.727,-16528.354,-6002.3677,-342.9733,36041.68359375
257,79291.336,77664.94,79044.85,-202.81952,-128.11887,-713.2653,2000.98413085938
258,7001.0854,6448.7915,7516.4707,422.5381,791.8213,493.97955,2000.97485351563
259,54042.35,50088.43,53862.312,-2834.7295,702.59033,-1380.883,6801.6572265625
260,95956.64,97930.69,98263.44,797.69916,-922.6115,-69.597435,3023.50561523438
261,16882.082,25818.637,24540.3,-5502.983,1326.9576,-1278.0813,13080.658203125
262,16237.144,16578.496,15874.651,-177.85228,828.76514,-701.27954,2000.62182617188
263,18379.443,26621.941,25355.87,1032.4911,3764.261,3758.445,12132.2275390625
264,74922.06,74796.14,74085.97,858.83673,519.153,352.58984,2000.98645019531
265,-8453963.0,-8453186.0,-8452673.0,438.11536,784.75195,-323.57486,2000.73681640625
266,83747.836,83334.164,84604.99,-810.33215,-378.23798,338.82346,2000.98291015625
267,20348.027,18901.105,18873.986,589.6379,443.9658,280.50565,2000.98559570313
268,2204.2686,2859.3228,2676.0122,767.7438,601.341,519.03674,2000.9853515625
269,4185.2544,3510.8994,4657.3477,-870.13104,416.60416,-268.26352,2000.98522949219
270,38655.91,39876.68,39189.574,852.5371,182.02682,407.47287,1975.23596191406
271,63340.62,63536.207,62264.195,655.31744,-248.67548,-611.7254,2000.98608398438
272,19633.57,20325.855,20615.756,-334.04037,-450.13196,875.04504,2000.92761230469
273,10436.343,9335.919,9744.565,-232.22672,-694.0222,699.7414,2000.9853515625
274,42574.844,44201.242,43040.04,616.6533,482.05872,142.62973,2000.98498535156
275,418618.06,420324.7,420583.0,-249.65671,-337.51205,134.81567,2000.84765625
276,244743.7,236049.08,237441.98,1952.9314,314.94684,-1650.471,9237.828125
277,-37509.76,-24419.572,-42862.113,-17444.465,10545.959,-2869.1187,39259.89453125
278,125980.445,126104.73,127136.6,-785.6436,-478.45303,-292.70847,2000.98693847656
279,-106759.27,-107842.16,-108579.734,-98.4573,-697.4625,1.3565425,2000.95385742188
280,5347.197,2705.5874,7599.6157,16061.893,-4094.6025,8172.6567,32289.765625
281,6162.255,-4776.3423,17082.818,10558.485,-5659.1465,-886.9333,28129.1640625
282,17508.143,27384.617,19622.39,9487.049,4044.04,5325.986,22029.68359375
283,14240.826,-8923.952,3027.6782,14852.79,-2782.6497,12942.89,39877.21484375
284,-12084.199,-30499.623,-31006.338,-13772.2295,8819.158,6246.9336,35611.01171875
285,233223.8,228823.31,228707.11,10636.597,-9560.289,-9494.644,30065.642578125
286,-10458.513,5753.4834,-22009.674,12186.44,3119.4348,-1890.9551,32695.15625
287,8441.884,35351.105,27593.723,-16564.867,-3492.1604,-1154.2504,37938.171875
288,32664.133,38834.816,48998.727,12877.896,-2091.7046,-11589.793,33432.2734375
289,26370.191,37726.535,10105.329,6151.3477,14434.736,9452.873,39810.73046875
290,-74046.02,-69810.99,-78446.625,-16667.012,-11553.932,-4298.9854,36677.3671875
291,42699.074,28204.268,30807.742,-18482.756,840.9497,4068.9507,35436.81640625
292,-8026.974,-12172.3545,-2533.292,-6414.334,1478.7162,8546.357,20475.587890625
293,5621.548,-19715.996,-22631.092,-3058.9963,3707.6562,4661.154,29306.00390625
294,-39520.97,-4926.034,-9271.596,-7654.7354,-432.90326,-5393.5703,36455.1484375
295,-1506.5723,-3743.6025,25772.818,-4746.0293,-3610.4805,-1417.7793,30379.36328125
296,7930.76,2791.7925,11277.347,11996.326,-2373.0513,8930.298,27252.283203125
297,-30805.277,-16644.213,-7389.465,5648.974,8829.25,267.6808,27332.357421875
298,-11142.393,-13674.072,-17073.574,-7819.7573,7100.903,-5184.3643,21021.884765625
299,-10441.006,13865.83,5958.502,-11397.75,7146.406,3547.5134,32277.546875
300,74842.02,89954.875,104793.1,-8381.616,-8002.5244,-3541.301,33366.41015625
301,13478.738,-3261.8496,11425.667,7223.4673,-669.73834,-863.96906,20253.720703125
302,-12937.814,-14739.146,-2601.4116,-10654.04,56.7418,7557.412,25309.763671875
303,3395.4937,2473.7544,2899.3176,-761.1868,-412.33383,-610.2513,2000.98547363281
304,-27231.395,-28121.797,-27753.012,-1012.26764,-125.26222,-306.79132,2000.98559570313
305,26094.004,27705.148,27022.842,-394.43106,216.45157,691.52704,2000.98596191406
306,13575.96,12869.105,13445.661,41.228035,720.7567,-819.7264,2000.9853515625
307,47720.94,49025.23,49413.94,-2064.916,84.477554,-1255.0618,4460.69970703125
308,4760.0547,-12868.307,6027.1196,8092.7114,-721.0827,-6572.2236,25735.560546875
309,4636.5522,6553.383,6551.7905,-47.495663,89.447426,317.25644,2000.978515625
310,-5891.002,-19861.977,5028.376,-11414.894,1845.0824,-1568.4053,29588.298828125
311,-1312663.0,-1311954.6,-1311042.6,-328.644,680.9659,320.9433,2000.93859863281
312,-233826.8,-232521.77,-221161.72,-5618.392,-8841.447,-109.85515,21790.54296875
313,53556.016,54152.793,55094.09,678.5617,502.88187,140.93007,2000.8798828125
314,609748.75,608065.8,608501.6,-171.30136,488.87082,-550.795,2000.97680664063
315,33505.85,33417.332,34243.52,-564.8168,389.33072,-811.23804,2000.84936523438
316,-69144.85,-82100.9,-83688.06,17192.982,4075.5452,-718.56396,33602.33203125
317,94497.67,72293.08,79906.78,6673.3633,-17198.17,-1004.9846,37495.54296875
318,95347.19,85010.56,85555.44,-17155.816,-10010.4,-2547.291,36118.79296875
319,-74978.73,-69372.266,-72012.586,-6531.4136,10207.479,-13610.662,31935.986328125
320,-22300.154,-57206.746,-35175.25,7532.5825,3340.6736,-4663.515,34695.20703125
321,13269.036,27154.232,15795.49,3153.374,2130.0786,2011.6492,14821.7587890625
322,9219.425,7455.046,7887.7964,13.798187,577.7037,393.85867,2000.98461914063
323,14900.466,33172.95,24021.762,1369.2753,1063.4646,1699.8444,16373.728515625
324,96091.89,86776.54,79738.12,15143.285,5717.9824,2631.6638,31760.048828125
325,18104.262,7943.8887,-3326.541,12761.236,12167.519,7494.5264,38025.8359375
326,-2649.593,8587.58,-11587.674,-6926.38,-2310.5823,-9853.499,27528.4765625
327,-16255.476,-34632.273,-47875.38,4360.6167,4947.554,1526.2014,29898.49609375
328,1622.36,-4580.665,-19722.781,11218.366,11185.837,1384.0249,33471.76171875
329,-1126.2952,14036.359,1346.2208,-1206.193,4036.6025,17832.463,34724.15625
330,5882.564,4897.9937,10701.115,-3981.2202,-2828.673,-837.99756,10128.8330078125
331,-14112.159,-15109.881,-47103.324,7827.166,-6695.445,-145.37448,37078.83984375
332,-7603.8286,-6766.3926,-5780.228,95.154335,638.46234,-291.09186,2000.984375
333,25190.252,33547.258,38755.516,-1437.9023,-8474.806,-3962.4282,20230.251953125
334,15577.601,17004.129,16183.127,-833.25696,312.51105,173.357,2000.98571777344
335,140605.83,139212.73,138960.75,712.4553,184.9715,88.093315,2000.98645019531
336,-130937.28,-132428.23,-131953.95,-161.90279,100.46602,-847.35394,2000.92395019531
337,367700.97,367078.78,365643.28,330.43045,183.40678,-279.55634,2000.96215820313
338,-42811.234,-19229.102,-33734.42,-7495.1987,1690.1437,4681.0723,25832.072265625
339,-1467.1493,-1931.9546,-11338.665,-9733.071,-10789.723,13961.623,36211.98046875
340,-2498.7375,-3452.3518,-2972.9277,199.78981,-521.0178,892.1411,2000.97875976563
341,-27830.072,-14558.934,-8434.52,15535.477,4275.9214,7122.7295,35014.46875
342,18566.076,-15544.505,21387.404,-5848.2993,6626.615,3064.0076,39118.24609375
343,6583.451,-3802.8447,26051.617,4371.479,10550.506,-8039.921,35697.01171875
344,30558.246,27861.158,23504.72,1385.4952,1241.9731,-3968.392,9779.2236328125
345,60686.06,73987.88,49112.035,1036.9135,1254.9921,8413.069,26175.21484375
346,5291.4985,-14796.793,-3993.0269,7475.223,5885.553,11581.331,31259.708984375
347,-26371.562,-25849.121,-24777.707,412.66202,603.59436,373.01938,2000.47570800781
348,-32776.15,-60597.383,-44418.0,1325.1881,-5755.311,8226.68,29888.744140625
349,-268425.44,-277700.94,-270394.38,4518.7446,1202.2737,-4878.6943,14444.6279296875
350,31783.719,43001.195,61172.13,2249.3184,-7328.5425,12090.072,35702.33984375
351,-99909.09,-98327.59,-99579.83,584.76764,450.99402,304.9948,2000.98388671875
352,-16102.012,-8421.909,-12756.454,-3734.859,-1044.1932,1706.2032,9916.3720703125
353,-2314.4343,-2286.2126,1992.8013,545.06323,-2216.3928,417.37177,5880.6962890625
354,14469.665,-12921.419,5164.5264,1208.6189,6870.5205,9723.054,31805.455078125
355,-1735.0376,-8444.42,-9303.548,-962.1494,1452.2891,2732.2441,9111.4345703125
356,33835.258,4475.6777,24883.336,-437.05222,-7401.4985,-15054.264,39039.84375
357,-8332.027,-624.03613,-2829.2627,-107.74067,-3922.1387,-2247.5017,10421.919921875
358,-1711.9395,-12749.909,-10090.648,-3852.0398,3660.2493,2424.47,14209.03515625
359,-2959.4443,14925.423,4237.695,-4202.0312,3126.851,12521.399,28206.498046875
360,-16673.744,-21533.15,-22085.68,2713.785,-4920.3267,-268.52808,11024.66015625
361,-115149.805,-99085.48,-141159.05,-2501.6094,612.1378,1865.9888,37184.78515625
362,-37240.84,-14639.59,-30708.422,10857.104,-13720.089,-8103.1655,39002.3671875
363,41242.734,30375.45,32471.969,-6019.9277,1225.0498,5545.1562,17469.3125
364,1815.5952,4063.2622,22741.441,-3088.2185,-5668.3457,-3126.1704,23456.96484375
365,3531.3008,-339.28748,-1463.1133,1805.1268,-157.08907,434.45844,5568.66650390625
366,-1558.9534,-1290.5282,-875.57275,3146.7732,-886.8925,-237.14783,5708.81982421875
367,-1798.9309,-2600.5598,-222.13074,-2894.4202,3485.2527,241.30185,8132.74609375
368,-13104.83,3767.9817,10108.744,7722.4253,5795.7637,14035.014,36090.28515625
369,-83943.81,-90312.41,-115962.25,-188.1451,-3631.2563,-8333.298,33314.00390625
370,-111412.92,-119693.91,-151494.16,4022.5945,500.31555,613.90247,37330.86328125
371,-7479.284,-655.51514,-2608.7979,-1401.7845,-413.44815,-2358.1287,7755.03173828125
372,4321.6826,12024.826,-1322.3271,6961.717,108.91658,2225.9287,17174.58203125
373,12817.354,4159.94,17876.172,2797.2798,3210.7583,3198.1934,15146.791015625
374,-7168.748,-14203.677,-27787.32,1686.2134,2499.1665,4089.022,20174.07421875
375,9799.571,-4033.3306,13210.239,1517.4991,-7658.5874,7013.392,24095.529296875
376,20878.887,15599.07,23620.814,2605.5247,2691.589,-336.837,9607.9189453125
377,600.1238,-736.8252,10016.06,4494.815,-710.1092,-313.6089,12862.884765625
378,-3362.7163,1702.3386,736.3522,1436.9421,-1143.0426,15.716155,5640.02880859375
379,-1511.0212,1003.9487,3101.8804,5716.796,-886.32007,3303.4307,12212.3935546875
380,-6481.9556,504.66235,15844.66,-1639.1989,2920.2598,1631.2784,20806.9921875
381,-494.04102,2772.9458,12078.584,1766.9167,432.13852,1976.4218,12219.4296875
382,3526.1,-554.70654,10496.626,2583.98,-9268.101,276.78723,19277.974609375
383,-11775.295,-15947.637,-15865.799,421.07733,6830.5425,-5510.9688,15769.80859375
384,1540.0844,1977.5072,1296.2633,-2686.388,14.578228,-2082.0996,5917.2236328125
385,6227.155,2301.6465,2027.217,-4833.055,-2546.6926,-5217.308,13702.3837890625
386,7001.935,-1908.9779,-4110.6304,-162.35677,2428.6707,-380.8581,11048.978515625
387,17222.223,15400.941,48391.836,4313.004,-1393.1747,5882.4023,34598.66015625
388,-11807.68,-5804.8843,-7405.779,945.0034,89.72931,4918.8105,10211.4599609375
389,-3980.4092,-2790.2148,1813.038,-821.52106,-2714.5107,4995.708,11273.28515625
390,-12153.634,-8586.535,-11859.793,433.66574,-2452.1887,705.9864,5644.6005859375
391,-15343.615,-33356.84,-21572.787,-3413.019,78.31774,-5927.447,19784.8359375
392,6275.258,-10643.183,-6825.262,-6543.2993,-3209.1519,-911.1188,19951.12890625
393,6167.749,-8549.009,5055.128,5027.336,647.7607,-5056.513,18847.619140625
394,-62923.215,-81530.72,-70874.2,-5513.744,6417.606,241.80365,21827.640625
395,-58037.938,-53687.01,-34445.426,3206.3474,9891.327,-6796.9956,30591.541015625
396,81013.16,80018.03,101837.375,-4492.7686,8931.743,1217.9797,27562.5546875
397,-19174.545,-15785.843,-37376.664,-941.0906,-3002.7686,1148.631,20931.95703125
398,87.03638,-7437.5596,1075.3335,-3693.8342,1186.4574,-2743.9932,11522.9150390625
399,114421.34,117240.42,152483.44,1859.9178,-1534.205,761.48895,36993.90625
400,16397.4,3344.3877,14196.607,-146.44295,-9293.279,-1510.004,20310.033203125
401,3803.9343,-9033.506,7849.767,334.3152,7048.3716,-1002.1901,19633.998046875
402,4121.3433,1447.4312,-3165.9832,-6647.2075,560.9723,2567.5469,13930.05078125
403,1715.9153,-8500.514,307.31885,4829.8823,102.77657,1796.7943,13102.2568359375
404,12198.495,8158.5337,14389.259,3687.859,750.6512,-3563.4688,10514.6376953125
405,4684.081,29060.398,19213.104,-5514.0366,8981.33,2750.8203,28408.466796875
406,16591.502,1712.0718,3614.0554,565.0297,1978.6732,1291.0941,14643.0361328125
407,13848.144,-13518.222,-2649.265,12966.806,3248.8318,-1977.299,33427.77734375
408,-239333.44,-242868.02,-276549.12,-8607.787,576.5299,-456.80255,38598.7578125
409,602243.56,639101.5,620091.75,-5711.8174,-6033.7417,-8583.7295,38044.078125
410,545.9053,-19569.04,-12550.764,3496.5144,3172.9158,2407.4614,19923.89453125
411,5472.3965,3566.879,7598.7783,6181.4395,-6431.1597,-3814.9353,17163.203125
412,40276.176,11118.074,25156.084,-5997.3784,-3883.5574,-3212.3767,28671.390625
413,-14.945007,-5963.5244,4252.4053,141.2794,2233.9446,-1745.2035,10156.23828125
414,-26844.04,-16979.549,-22887.555,-1295.3478,1043.8956,-8758.961,17674.681640625
415,-28761.547,-29569.023,-1681.252,-8069.418,-11565.649,-8363.735,39526.65625
416,3083.689,1865.5718,9636.054,-1238.6191,-811.312,-1810.8378,8295.3876953125
417,166554.42,134742.69,135848.89,-11771.933,-225.42119,-3199.6934,37744.16015625
418,22554.809,12625.393,23914.05,-6058.128,4732.2817,-3002.0803,17839.87109375
419,414.50427,-267.94604,1662.8827,1635.6287,2470.0642,-3032.248,7535.8623046875
420,-8173.6836,-5274.8115,-2457.9602,-4366.344,-1684.5198,2307.0483,10304.31640625
421,-8056.37,-2897.0515,-8346.0,1735.1255,1467.4946,1.3296922,6609.79248046875
422,-9185.651,-4806.3345,-2979.2517,3396.4922,2383.1711,50.27586,9064.91015625
423,20.269653,-2383.1033,1228.3315,-2538.6013,-1049.9031,3779.527,8696.775390625
424,-93812.52,-87196.74,-114719.73,-9184.191,13890.08,-6253.01,39602.37890625
425,-8498.48,-20011.014,-301.41992,900.0384,7235.188,-3975.2717,22382.6171875
426,19023.047,16349.4795,21095.85,4609.1313,1343.4989,-5027.4336,12726.3017578125
427,-687.57324,-4078.8167,14825.696,6051.726,2868.498,4742.2114,22512.04296875
428,-1972.5557,-23461.16,-11043.623,-6149.0713,1920.419,-2942.0054,22351.359375
429,8935.801,2252.8774,11575.096,-2995.4744,1093.4735,1095.4094,10167.1513671875
430,-13586.023,-26216.43,-3408.9717,4182.396,-61.590836,-6327.488,23753.732421875
431,2511.956,4177.639,3705.6287,-5584.8066,5901.844,-7865.019,19643.119140625
432,-423411.22,-435580.8,-466764.9,-2373.6387,258.9735,-1524.4756,39039.984375
433,-7686.1826,-13084.453,-8565.972,-74.39535,156.48637,367.70032,5065.73681640625
434,-7425.3843,-378.80597,625.24854,-962.8284,2744.443,-560.5688,9168.275390625
435,-3442.821,-12232.8955,-12277.641,5987.0273,-1161.7219,1262.5673,13929.2939453125
436,3355.5547,2038.8746,5533.03,-6719.0005,2705.4785,-2167.1724,13447.146484375
437,-3291.3584,-4895.188,-4087.0247,1928.2749,1097.7747,802.687,4316.50537109375
438,-6299.157,-971.10095,-4292.9297,2470.262,8319.278,1822.8146,16050.8427734375
439,3362.0444,4998.637,3260.2334,-1777.1941,803.53076,-1684.2611,4772.61669921875
440,6253.4204,31757.424,1350.894,-708.3593,7550.8296,6561.323,33184.7265625
441,325.14908,-601.5141,6565.306,-6901.4277,3701.0825,2335.4763,15682.068359375
442,18595.67,24612.215,46890.336,-5801.4067,-390.45688,-193.71828,27714.431640625
443,-131646.97,-118896.04,-160079.05,5112.1367,-2459.5645,1465.2078,37901.125
444,-6662.8477,-3194.265,-1077.5474,356.5083,-5153.7407,-104.68465,10195.6298828125
445,2074.7188,22747.988,16667.639,2157.4895,923.9058,998.285,18925.349609375
446,8804.916,5700.4307,7039.3926,345.6248,-7723.0347,-5624.18,16776.8359375
447,-11148.48,-5827.6035,-10010.114,-1796.9957,-555.93134,-213.42685,5856.78369140625
448,-2138.4905,-2765.521,5280.58,-2457.1023,492.52856,-4675.693,12021.392578125
449,-3586.8005,10161.828,-1326.052,10694.987,-8895.512,-962.5302,27319.802734375
450,1449.6003,-871.76434,1376.2798,5535.2275,-9986.503,5665.7603,22195.345703125
451,4464.1255,-1399.6693,3224.7678,-167.92792,911.5474,-249.5599,5605.0830078125
452,101340.09,99531.16,136548.3,3059.8208,-1914.098,2470.6309,36931.96484375
453,-4986.646,-8381.237,-3330.6724,-2453.974,885.1846,-1123.4788,6640.03662109375
454,4217.157,-2225.2915,6340.602,-1581.5948,458.97757,1294.8016,8535.818359375
455,-3192.122,-10605.975,-4499.139,1030.179,-2058.6575,3637.1309,10127.568359375
456,10209.135,5217.449,8273.449,-1302.6711,-3187.4597,-1477.76,7818.14208984375
457,-2005.646,-11755.038,-8370.6,-2185.7712,1464.0782,-3590.9104,11530.6611328125
458,-7387.344,-5059.689,-138.75993,-1862.1819,-1293.0577,-1883.3569,8194.388671875
459,-3290.217,1332.39,484.10706,-730.73413,-3580.0518,94.962616,7631.912109375
460,-10654.603,-21237.441,10308.888,-701.22076,-1430.0515,-3398.7646,28558.41015625
461,-10164.326,-4429.9727,-10713.296,-2642.105,-4997.617,1063.0581,11644.4462890625
462,-5748.4575,-18029.693,-22154.434,628.5541,-4512.0967,3605.8723,17882.068359375
463,-6419.3086,-8897.938,-9610.108,193.7919,4224.002,-2907.5344,9349.6796875
464,-4746.2607,972.51917,8357.286,3608.4531,2411.4407,-2383.3442,14248.509765625
465,-15464.334,-8187.519,-2178.5078,152.6667,-1283.7899,-2325.1284,12410.4658203125
466,17159.234,40480.176,-837.96924,-1350.9613,268.14606,690.7205,35980.54296875
467,-5458.8145,-8928.968,-10652.144,-1713.9677,1718.1345,2529.776,7606.52978515625
468,-3992.9688,-7214.889,-8495.227,-8883.072,-2058.4539,1623.011,16537.421875
469,44.76646,4128.8774,5570.4404,-362.86246,-2012.0345,5406.5366,11174.8525390625
470,29086.133,16371.839,8863.043,-5765.407,6594.452,4808.6167,24759.904296875
471,3470.7825,-4636.1,8735.344,4390.6978,-1872.3334,2970.0586,15196.435546875
472,3358.275,-581.4288,4318.9062,-1207.1538,-4615.6772,932.3445,9545.76171875
473,-2343.963,2462.269,-6343.1025,-389.9066,850.0593,2646.5862,9052.673828125
474,-2330.607,-3908.0422,3191.4424,-4892.1113,2296.1606,-4266.206,13561.30078125
475,2112.7024,-4360.741,4105.926,184.09506,-79.06761,750.9343,7784.1875
476,-2148.863,-3381.4067,-4253.9585,-270.2543,-2301.691,3074.8313,6916.08154296875
477,1042.9492,240.85764,5483.187,1566.3464,782.49567,285.69733,5776.03955078125
478,-8704.71,-2001.5281,-18558.697,1432.8937,-2053.5144,497.35455,15087.7158203125
479,-6085.9116,-8456.709,-11095.381,2908.5571,-2619.7854,-1125.5004,8283.0078125
480,6998.2163,7070.3447,13588.634,2441.7732,-3336.808,3958.8953,11885.7744140625
481,1628.9805,4403.9155,2051.9429,1631.4556,-3772.2656,-1459.3326,7985.5703125
482,-13933.961,-4514.6216,-10078.846,-103.96437,-566.02655,-3539.6606,10288.556640625
483,-4212.432,409.11978,7224.281,-226.57625,-23.653147,-560.0507,10019.90234375
484,-14413.841,-4106.0664,-7137.5464,-2925.518,-1330.528,-1319.017,10972.6279296875
485,2515.4973,24036.121,33174.38,-13059.045,4847.933,-4406.115,37197.7265625
486,-147.03798,-3003.6694,1693.2432,-4017.979,1224.6921,1963.6029,9016.8330078125
487,2909.163,437.97067,1628.6862,1788.663,-474.36884,767.88715,4077.26416015625
488,-576.47205,-9253.531,-6063.846,-1766.3553,1562.5552,-1363.264,8946.98828125
489,-17448.928,-17213.365,-7972.735,2765.4897,-1548.079,3403.8723,12349.6552734375
490,-5313.809,-1254.9905,-3101.2961,-776.0929,-443.0176,-1232.0022,4397.53076171875
491,-3902.7183,-8007.723,-4102.7505,-1192.6144,428.85086,-3160.7327,7131.57470703125
492,-7366.8784,-16785.578,-9957.114,-23.686491,445.51068,6791.583,14491.32421875
493,1189.1813,-2404.268,2366.496,-2119.3625,-2027.0109,-1669.3124,7258.84228515625
494,-7561.346,-230.37772,793.5147,-2612.3635,3825.2344,-367.25687,11272.65625
495,-8053.9155,-474.63245,-1000.36084,-2194.1772,1889.2253,171.29115,8886.84765625
496,-35519.05,-41162.418,-19460.555,5688.2485,15816.113,-5685.011,36398.1015625
497,4810.028,1612.1659,16556.195,-517.3341,-3032.314,8231.227,20430.57421875
498,-4417.2524,-3476.2014,421.46295,-2640.1375,-3538.3376,2596.2122,9921.52734375
499,4730.975,1849.3899,4015.291,-5591.3066,-4956.3496,-132.81274,13201.919921875
500,4669.068,4675.0513,6398.6177,866.11053,-5738.046,400.01978,10221.8896484375
501,300.32498,1299.0989,-1028.1193,-1918.8662,-997.9537,3766.3457,7789.6787109375
502,-6725.87,-8944.048,-3583.8286,-1482.0364,739.92017,2338.1008,6811.3310546875
503,-15.809738,-1181.5432,5337.9497,-2428.0544,-1500.2969,-5855.121,12788.630859375
504,10147.875,6859.576,11499.091,3640.8384,1743.9714,-7004.925,14600.693359375
505,-1121.7241,250.88661,-1554.6807,606.59784,-1091.2179,-360.80948,2780.73657226563
506,-1045.3909,-4754.3315,-226.50798,2415.004,-4031.411,-1156.7307,9366.5166015625
507,-6159.692,1335.6229,-510.3414,-597.9111,-736.023,-565.5407,7029.11376953125
508,-5902.8994,-15272.999,-8802.013,-3127.1843,1947.2637,-3931.878,12495.2392578125
509,1054.1771,-4048.5842,6907.329,-133.38078,-1786.8938,1886.3829,10510.587890625
510,-1028.0638,-3573.0854,3550.85,1127.6903,4306.981,-1700.1198,10355.3642578125
511,14520.56,15482.91,27464.24,-3143.2046,-2085.763,942.0307,14190.18359375
512,938.81464,2438.5938,13773.908,-921.94055,7772.744,90.05411,18208.791015625
513,-9996.693,-13149.369,-16087.3955,-553.18,-669.17303,249.72395,5502.953125
514,403.12723,10076.6875,9649.91,-2916.5032,-4553.3555,662.4628,13366.5673828125
515,-3145.6711,1049.08,-1026.6449,523.56104,632.25696,-2425.0374,5732.4892578125
516,1353.8663,4300.877,1449.0844,274.32993,-1272.9448,-1233.7756,4250.5146484375
517,-6128.71,-6931.002,-1826.4999,-4034.463,-5917.112,5597.1304,16445.5234375
518,-6827.4937,-9329.19,-5511.026,-4346.1807,5047.2075,-4149.7227,14001.298828125
519,-5105.113,2627.1462,410.37537,-2030.8032,326.633,-152.96,7766.8525390625
520,-5149.895,-5666.8105,-3031.575,-520.8522,-1721.494,-798.3402,4179.234375
521,-1689.8605,351.16412,-443.2779,2280.5234,-4056.4744,-1891.7373,8881.3720703125
522,7312.292,26941.275,32170.291,-3741.6584,2076.0938,5255.0957,25555.009765625
523,6432.0386,1679.2605,-4293.618,2284.49,-2838.1233,9075.6,19328.037109375
524,-10679.686,-3893.9844,-5208.7544,1764.268,-3490.6172,4486.4985,12046.986328125
525,-234.5058,-6267.726,-3062.2275,-1152.0773,-331.22064,53.439766,5626.27978515625
526,-10868.562,-10109.239,-4198.9224,-4847.609,3160.9036,13.210991,11851.9462890625
527,3257.5627,5328.3384,1132.133,1284.1532,-1757.2777,816.99786,5424.06982421875
528,348.76816,1259.9033,5124.6416,-264.47974,1675.0243,440.76923,5338.3017578125
529,835.5387,-24.485891,-1039.5858,-1518.633,1961.2367,1847.2899,5598.08984375
530,-2799.7473,-5253.0273,1798.749,499.3143,-76.93149,-1017.57196,6505.24462890625
531,-1919.6301,6934.835,12471.97,-1003.1494,-3216.4905,-1303.3268,14044.291015625
532,-3407.6995,1115.1611,4279.589,260.46588,1750.1793,-752.8741,7474.99169921875
533,929.7785,6264.911,1729.9045,1944.9103,1660.6594,-2364.6877,7825.06884765625
534,-9847.54,-3311.9282,-6743.7847,3664.1387,904.8825,3294.7065,10361.5654296875
535,-2058.2625,-6113.3325,-9549.413,6213.523,5747.0786,2477.742,16598.546875
536,2805.7507,-1138.0271,-3475.2295,-797.0624,334.56326,631.57153,5802.72998046875
537,-9569.399,-127.48905,-4822.9688,-2029.385,758.2689,2995.4192,10385.59765625
538,-2689.8389,-183.39575,-1797.128,-1213.0579,-303.466,-892.0872,3452.52416992188
539,-6943.497,-5878.946,-6249.8115,-2784.1104,-876.29724,150.58237,5147.9638671875
540,5628.4707,1812.0498,7806.1943,-3605.742,-368.22604,568.5745,8246.173828125
541,-29177.107,-16326.451,-20938.018,10014.513,-5067.8647,3180.976,23139.171875
542,8766.424,-1882.122,4843.9194,-3161.7915,1595.6998,2962.7698,12287.072265625
543,-311.7259,465.17218,-774.5287,-1490.4719,-1565.6738,1359.7913,4554.4404296875
544,-14297.585,-14304.702,-10552.521,-1759.5045,2784.392,-1175.861,7123.6396484375
545,5548.542,6754.958,2774.9646,1118.5796,-90.551476,-1583.9733,4878.46630859375
546,-1851.279,-8331.983,-2205.462,-4213.98,858.27045,1904.8071,10305.205078125
547,15916.966,7394.3535,16532.021,-5218.6987,242.83638,-2093.2085,13163.625
548,-1718.5262,2297.179,5436.229,-2030.2524,1975.534,-979.3695,8095.4619140625
549,-7216.053,-9256.687,-11393.142,-257.29825,2809.939,-3022.7285,8024.01953125
550,180.59253,-1390.0869,1149.4364,239.78421,-1374.6691,691.1012,3493.12646484375
551,1596.834,-1361.794,6889.8125,952.4346,2428.9382,-2737.1426,9763.478515625
552,-4055.7742,-6071.924,-2625.2175,959.1243,1319.4166,54.265835,4121.49755859375
553,1237.8844,-7703.0796,1341.4979,-3891.641,1363.3705,3978.7522,13393.294921875
554,-266.96777,-1851.0809,-919.80316,-3468.2522,888.2055,-3097.5562,8314.9892578125
555,1779.7284,-6669.455,-403.5,-1509.4445,1989.6483,1761.7291,9259.1103515625
556,3529.3755,4198.692,-318.46243,1639.4628,1588.3518,-2504.8289,7230.75830078125
557,-621.9377,6904.937,1842.6313,-1404.5396,-369.06366,36.5227,7106.91650390625
558,-2411.9841,1376.2031,-1788.161,2076.712,-488.24838,1770.9519,5953.02685546875
559,3285.9958,2243.5352,351.6173,-296.79987,1433.1617,1805.362,4779.3779296875
560,-1444.0592,-636.57263,-445.3519,-666.0767,-982.8109,2433.334,4778.6064453125
561,6868.4077,-486.91626,5339.207,-2917.4958,-2846.949,-357.0715,9768.5556640625
562,3302.578,-3514.787,485.1034,-2751.831,-2547.1218,-3631.7231,10814.634765625
563,320.6392,2492.9553,-5468.3647,-824.74176,-988.35,-4979.7646,11409.3095703125
564,-2344.6765,-11888.062,-9957.568,1463.0616,-3360.9194,-1253.9177,11018.4150390625
565,49258.99,48905.69,81902.91,2073.6914,-1408.6107,-788.81085,33136.12890625
566,2939.2666,-7079.2886,-8346.475,4342.554,-2113.4236,807.41187,13660.2099609375
567,-3206.183,-5052.357,-9926.0,185.79152,3077.1514,-877.98944,8184.19677734375
568,-15954.303,-22329.105,-45997.582,-3129.1357,-4323.982,-3315.4583,29498.44921875
569,-1575.1669,-10911.554,-9241.708,2615.397,3825.61,466.31268,11808.6962890625
570,16952.29,5046.0938,11188.633,-8881.392,1824.8824,4021.7805,20037.6171875
571,614.69116,-3882.7393,293.15833,6958.3203,435.6969,-6435.1216,16998.255859375
