Element Label,S11,S22,S33,S12,S13,S23,Mises
1,22836.914,17040.31,42087.41,6523.7515,-6259.0464,203.63141,27588.0234375
2,-36547.277,-39436.13,-68724.39,-1178.107,-4271.5034,12669.044,38615.69921875
3,15598.562,10981.082,29844.412,844.6815,-11090.737,-13203.934,34412.65234375
4,-40860.402,-47189.793,-37561.16,14161.518,-9762.641,12198.6875,37494.33984375
5,7635.8936,-854.6142,28412.918,6151.775,-4872.113,11345.879,35371.078125
6,34344.727,6073.2407,15697.197,4130.182,3401.6562,4301.8467,27590.2265625
7,-18294.793,-23486.717,-33364.52,-343.104,-6603.933,-6708.2104,21023.822265625
8,61917.934,48191.184,84662.66,3002.5518,-8246.142,-9113.799,38706.37890625
9,-14538.265,-16534.328,-15532.558,8230.913,18569.096,5196.852,36355.0234375
10,71524.91,73945.4,55673.508,-1453.7937,2445.4753,-1529.2866,18077.376953125
11,-18153.13,-20407.582,-4084.598,18890.273,5946.78,-2891.5854,37900.21875
12,1337.249,12802.821,29935.037,12094.886,-3169.4531,-9996.468,37285.19921875
13,-48873.61,-48677.477,-46989.18,8817.365,16206.583,9290.429,35823.9296875
14,36394.883,39801.36,54630.805,-38.939064,-3688.956,-13872.827,30003.80859375
15,-223358.2,-217133.53,-227821.17,1221.5403,-8046.7856,-2227.9927,17322.40625
16,-9600.524,1395.2999,1782.823,-13702.589,12482.167,-2778.505,34339.1328125
17,101807.414,103203.984,101826.125,-32.539864,455.2315,695.235,1999.8916015625
18,251850.78,241979.02,276021.53,3372.0383,-8171.3745,-4594.2217,34900.30859375
19,31159.613,30629.58,31270.297,82.66606,1007.53455,437.6071,1998.056640625
20,142727.55,141892.28,143254.53,-655.5248,-251.11217,-608.30035,2000.98754882813
21,-22767.72,4241.226,-4949.175,2228.6316,10911.245,-3113.9075,31094.681640625
22,-22439.84,-30714.295,-55001.49,117.83812,-859.56335,-678.46643,29375.78515625
23,53331.12,51688.766,52908.793,-533.8572,-165.44756,-543.02985,2000.96313476563
24,25267.44,24825.154,24734.225,1119.0652,11.689139,28.93472,2000.98571777344
25,-25484.21,-32027.79,-26814.125,-6393.876,-10621.879,2712.9514,22783.392578125
26,21652.336,19693.541,33129.523,3986.6482,5152.925,14584.549,30389.296875
27,-29420.709,-24883.604,-49951.39,-870.1145,-10589.132,2150.6372,29795.640625
28,33411.25,6102.27,12485.308,-5428.4624,4627.016,-1663.3337,27805.427734375
29,6342.659,20334.055,39973.355,7776.66,4109.131,-1776.0724,33132.9140625
30,30731.76,27122.494,63345.156,7842.015,2582.8774,-1036.3137,37444.6015625
31,9574.922,-10207.607,-16544.756,5703.246,14168.281,-5614.9863,36759.46875
32,19892.377,29086.877,54510.83,6466.4253,8251.003,9382.61,39477.30859375
33,-17744.252,-43447.24,-44202.76,167.72702,16092.686,-521.08575,38189.73828125
34,53656.004,41833.473,80594.5,2575.7107,-1547.2499,-2680.8945,35108.15234375
35,-29267.209,-23808.375,-9161.08,8535.057,6672.919,13451.492,34917.79296875
36,-13096.997,-28575.654,-46916.844,-3677.924,10249.206,6479.2783,36627.15234375
37,10928.8955,23562.545,29713.633,12906.144,12644.08,-8395.132,38287.26171875
38,-8894.632,-9729.348,-14434.694,-2520.643,-15816.998,11603.096,34644.671875
39,-15345.853,-13508.442,-16810.648,-3870.603,6468.348,76.50393,13367.646484375
40,-25510.5,-12262.0625,-37528.67,1684.4801,9482.459,6682.298,29856.36328125
41,-7920.812,11074.285,-1561.3447,-1784.6274,1104.9392,4158.155,18588.8671875
42,-30625.4,-22625.895,-50908.164,-7786.7803,-3539.0664,-959.6621,29323.61328125
43,-429592.3,-429432.6,-429840.22,1054.0562,377.33615,-191.77567,1999.28674316406
44,94706.71,94796.68,95315.65,-517.1893,-974.22424,100.07421,2000.98767089844
45,203020.22,202474.62,202994.88,694.55634,693.2844,-525.2123,2000.29663085938
46,69963.17,70717.25,70753.695,-217.05318,692.91296,773.32745,1993.30676269531
47,266264.72,267152.25,268262.84,10.788078,-249.28632,519.73944,2000.99572753906
48,191713.0,187790.52,192092.48,-2647.1594,4767.0103,-4878.1143,13326.7373046875
49,534375.4,542710.5,550660.8,2268.2632,-13289.543,-10.536805,27280.39453125
50,-410432.28,-393573.9,-390637.56,4944.503,3747.0247,6033.6895,23811.97265625
51,-120299.41,-108116.46,-97211.39,-1554.2288,-5731.5244,14137.309,33250.3984375
52,401807.53,393670.25,378065.8,664.2785,-842.6299,-11305.401,28698.11328125
53,-65962.234,-67533.62,-87123.74,-1262.9417,-563.61017,-13236.348,30795.560546875
54,87952.516,77436.086,76751.516,5330.667,9720.234,11597.604,29840.798828125
55,41415.363,53755.72,40317.03,510.073,5401.6123,8850.548,22143.935546875
56,216975.77,224167.58,223500.7,658.6363,-2684.516,-401.60953,8412.84765625
57,20575.305,21317.127,20878.059,-952.7871,281.18884,456.78555,2000.98498535156
58,167445.52,169478.89,167701.58,206.74733,-238.87259,-87.25829,2000.44152832031
59,14561.263,16329.687,15610.843,-631.45966,59.067432,-376.12537,2000.98486328125
60,59809.98,66505.82,65622.55,-1429.0377,927.81683,3269.1064,8970.525390625
61,57858.87,48903.07,29412.11,-8494.111,4733.5605,5297.4326,31662.58203125
62,-56137.38,-61499.58,-66300.53,-15148.752,-12197.545,-1774.5542,34954.078125
63,-48645.805,-38662.336,-70481.24,11288.13,3574.6204,1312.7783,34931.6328125
64,45541.05,32276.002,54729.69,7766.7676,12507.152,10359.216,36803.1953125
65,40800.797,37226.168,69623.04,-2561.5994,-8406.117,-3447.2195,34840.3828125
66,-155182.42,-162609.64,-190291.38,3016.9058,-0.3729471,6326.203,34269.63671875
67,-165992.67,-191404.8,-188393.06,-13218.013,-6201.011,-2266.5906,35117.37109375
68,-83406.25,-78548.836,-59349.62,-10174.926,2322.2136,5139.5723,29857.55859375
69,48022.527,56656.035,55664.035,-2770.5479,2363.8655,2661.4675,11313.650390625
70,-167696.88,-177723.89,-185381.55,167.52681,11097.398,-684.8889,24635.591796875
71,30397.518,30132.486,28864.988,78.06374,-74.39731,-807.46704,2000.90368652344
72,663382.56,664566.56,663246.3,3208.559,4401.0244,1966.4049,10108.095703125
73,-81269.43,-81691.945,-80936.61,808.3643,-731.0378,-57.34875,2000.84594726563
74,-385679.72,-384588.75,-383998.78,287.6835,576.2472,438.76407,2000.98046875
75,20653.719,20622.38,19519.287,12.412456,-781.9436,-552.8129,2000.9853515625
76,2815.1685,3394.5984,2937.9043,-1083.2981,-193.04509,174.97849,2000.98522949219
77,-3038.402,5638.2534,6592.9683,3736.1904,-3802.9475,9371.394,20813.7734375
78,-12811.275,-16283.828,-13137.556,-2816.723,-4648.732,6385.531,14899.361328125
79,-58788.746,-46286.92,-54928.008,-231.36919,-5846.6587,2073.2114,15444.7431640625
80,2753.593,-7001.159,5155.2314,1219.9487,-2276.5142,446.6803,12039.9912109375
81,20815.547,26618.418,19505.717,13956.55,-6339.5913,11234.111,33563.859375
82,12671.987,27408.791,34092.88,-12009.8125,-9039.611,4177.832,33023.71484375
83,32278.793,32448.582,61310.246,-9293.349,-5881.9004,1102.8977,34705.37890625
84,79149.47,46342.703,73748.46,-7569.9346,-3769.8003,5847.4424,35290.06640625
85,-44139.426,-30684.455,-6479.6055,-3272.4688,-3435.929,-8833.551,37339.328125
86,-227756.25,-224661.08,-244720.77,9109.476,761.9383,-11565.274,31651.83984375
87,89793.34,83901.71,100550.43,4222.756,-6956.141,-9901.793,26581.916015625
88,30635.773,29334.582,31244.918,-34.014023,-410.618,-461.09546,2000.97204589844
89,152070.77,150381.6,151746.08,315.4038,560.8702,305.70172,1983.12780761719
90,-862297.4,-861857.6,-862198.2,-945.21985,-612.9704,-86.089554,1997.33679199219
91,-37555.938,-63666.434,-57951.367,-4601.961,-14189.469,-264.6724,35113.58984375
92,6123.967,-10688.934,4791.1553,-498.35114,3853.4907,-7023.4385,21338.25
93,-3755.365,20734.281,-6362.119,-11262.098,-9857.742,965.7206,36677.0234375
94,-7109.7495,4018.2844,12427.575,-4241.085,17137.137,8991.468,38284.1015625
95,9422.448,9585.993,-10209.018,-11142.461,5507.201,10957.33,34817.69921875
96,-526406.94,-553588.1,-530548.1,-7639.511,267.07935,-10490.535,33894.8125
97,166975.52,166787.08,167766.94,-671.70294,-768.97656,-144.71643,2000.33715820313
98,92243.04,82697.38,71922.805,2211.5632,-8188.0854,-3223.3083,23601.65234375
99,7948.717,-8437.374,2459.103,-7149.363,-11087.208,-2613.6084,27409.81640625
100,-37015.176,-39468.867,-50153.133,14025.325,-447.32687,13620.744,35967.94921875
101,-61670.277,-39432.996,-76526.29,-3592.9133,1883.5417,4734.505,34090.640625
102,-68589.75,-77958.71,-99038.62,-10475.136,9263.351,4690.415,37178.63671875
103,20114.303,47594.566,53284.203,12293.8545,-2320.4175,-2736.118,37893.51171875
104,-71229.76,-73432.46,-90031.99,-12970.26,-801.61646,-9199.803,32824.9921875
105,35285.824,49037.895,52991.62,-355.9603,-9701.592,16008.2,36202.94921875
106,-4079.5083,-9077.582,12770.211,2700.4768,-4317.228,6228.9536,24234.326171875
107,25357.926,23687.812,9489.677,-3803.6057,-17259.38,2699.416,34453.01953125
108,-26265.316,-12479.927,-38576.074,885.04156,-1442.5288,11733.779,30544.02734375
109,32837.723,30793.176,49834.445,-18275.432,961.11035,-665.24896,36522.4921875
110,88185.055,90215.69,89099.19,-486.58972,252.0534,-7.758282,2000.98034667969
111,41983.785,42127.53,43465.973,-1015.1877,623.29364,1308.0428,3375.60595703125
112,103633.19,92089.43,124692.625,-7823.519,-7046.977,6986.43,36040.19921875
113,-12006.191,-4718.44,-31936.969,-14637.616,2781.6218,-4652.6265,36421.5625
114,50519.18,49318.516,47511.117,2831.4636,2783.3442,-3600.9077,9647.3076171875
115,-400189.53,-400289.88,-402666.44,1211.2131,-1136.3427,-11608.202,20455.380859375
116,31519.88,32083.113,31094.387,-572.11633,-673.52075,554.7137,2000.97277832031
117,176247.98,177802.11,177389.64,715.0532,-412.6559,70.21123,2000.98815917969
118,149360.08,148976.11,149656.61,-125.7697,-1091.8617,101.28053,2000.9833984375
119,40682.617,38748.258,38719.87,-29.64694,-244.34988,-89.25065,2000.77905273438
120,53279.793,72162.93,72289.49,15058.44,4364.272,6687.7227,35079.42578125
121,-38247.86,-37043.39,-49145.938,-8817.535,8583.229,1188.036,24327.796875
122,52386.902,43826.688,43381.754,308.71112,-11444.683,15302.418,34249.1484375
123,-103304.04,-73336.055,-80400.04,1820.573,-9105.001,-5454.4883,32927.00390625
124,68297.76,75248.47,101406.484,-2859.3066,7527.658,1924.1296,33466.42578125
125,543029.94,542457.7,542449.56,-41.686172,1098.9816,118.09766,2000.63024902344
126,-967748.8,-968113.9,-968406.4,-139.93259,-874.93164,591.55646,1931.49792480469
127,-409109.53,-429892.06,-419534.7,2034.3102,-5043.407,-12980.819,30301.228515625
128,138547.02,150418.23,122122.54,1034.0674,7970.802,-2268.3315,28546.67578125
129,-218377.16,-231263.45,-227425.36,8832.124,4213.837,1777.5533,20690.490234375
130,-810.9478,-2968.944,-28247.803,6477.2627,-2523.8813,12056.609,35767.15625
131,-44865.78,-35704.1,-75105.71,-449.5124,-3811.3594,503.28952,36337.0859375
132,19620.398,45155.277,37406.02,14143.582,-2355.6343,5176.4463,34804.61328125
133,-24796.305,1227.9153,-37180.25,-1860.997,2139.3765,3592.4712,34867.50390625
134,-16334.837,-22404.139,10059.339,-9821.0205,1405.4076,1531.1128,34583.21875
135,-98066.586,-97600.71,-96879.34,274.78238,814.2818,-488.11807,2000.98364257813
136,33497.887,47707.984,62817.26,-1024.9573,-900.5577,3979.7085,26420.07421875
137,108814.86,109611.86,109125.914,320.3863,1025.8717,-108.078026,1996.06518554688
138,290960.6,291802.28,292012.38,-761.801,-614.4198,258.84204,2000.9912109375
139,127137.09,126676.03,127366.555,589.20135,-146.38455,-917.81537,2000.98522949219
140,59399.25,58340.95,62872.027,-3581.3994,-884.64246,-1682.5269,8134.81103515625
141,188296.2,170991.45,200212.81,2173.8333,-6903.66,-8439.936,31914.412109375
142,-18134.871,-29266.17,-49996.754,-11407.45,5939.48,-1405.3467,35868.765625
143,-131042.2,-144556.47,-125244.24,-15450.705,-4632.1016,-5349.2,34073.3125
144,-79056.53,-58556.582,-63881.258,-16147.524,-5825.1895,-3748.4321,35575.59375
145,207214.19,221591.47,194014.81,6038.0244,-8950.4,-5530.94,31814.728515625
146,25758.068,16788.303,34287.617,-9968.006,2979.587,729.2702,23580.302734375
147,61034.723,69422.836,56865.02,6661.152,-10897.25,-5019.514,26223.5078125
148,142364.02,138555.97,142953.5,2586.6223,-1443.1486,-2238.2322,7644.7646484375
149,12881.137,14911.95,117.03165,2193.652,-1029.0919,-10695.359,23531.970703125
150,38273.99,38547.02,39572.56,267.98386,553.2842,-692.09033,1994.2578125
151,130277.836,130424.15,131465.69,-249.94,718.75226,578.59503,2000.03552246094
152,-171931.23,-159113.64,-183123.7,2105.227,-1835.5098,-3797.7168,22353.83203125
153,675320.06,674148.8,665277.94,-6918.3374,11590.817,2836.218,25714.158203125
154,16794.725,-602.9746,-8492.179,-7292.0405,9312.924,-777.6102,30392.4453125
155,-55328.188,-51544.07,-87683.3,3333.7573,4389.014,52.210037,35703.62109375
156,-36498.574,-9330.362,-7054.171,-3170.6682,-8553.633,9526.461,36428.6484375
157,52236.453,46773.71,76967.16,12567.1,5466.145,315.96402,36609.8125
158,-22698.521,-49777.605,-51479.4,-1900.7299,-11968.74,1668.5728,35088.44140625
159,4605.3022,13623.682,39454.082,-2321.572,1686.0892,-7365.3755,34189.6640625
160,-30914.305,-54214.484,-15981.028,1674.9288,3501.9421,2275.5837,34272.30859375
161,189877.81,173002.19,210567.19,328.17334,-5788.8027,-4177.856,34859.72265625
162,-2228.3076,-3254.4622,-15934.191,8337.328,8575.735,2336.5112,24907.439453125
163,43157.97,52417.395,56735.01,-1317.1593,4287.4126,203.06557,14311.9384765625
164,12370.993,7147.0107,9656.664,5808.5405,-2377.053,-7570.0356,17622.79296875
165,703856.25,694143.06,723357.94,-4885.642,8292.352,1557.0173,30810.0
166,-48708.03,-37201.21,-49224.895,-2959.5627,-1526.7692,17095.549,32383.09765625
167,255501.98,266979.94,245101.3,-2983.9348,7946.073,10248.017,29841.140625
168,15211.117,25973.225,6809.797,377.23206,2922.1982,-2789.078,18061.078125
169,-47858.68,-31143.594,-41593.363,-2487.5574,-8770.371,2830.3655,22074.373046875
170,15417.078,36257.227,18774.14,3204.6238,-2823.1394,3162.0532,21455.416015625
171,229654.92,235117.25,232898.22,1240.5217,8692.178,9094.889,22406.91015625
172,151851.89,153834.97,157795.72,1520.3287,926.9922,1175.8105,6413.6064453125
173,-57521.746,-85175.414,-95144.03,-6265.48,3340.0176,5181.1235,37034.24609375
174,-40552.98,-37800.83,-56293.01,-911.83167,7139.3613,8160.691,25570.26171875
175,-21302.947,-19305.848,-32339.225,17259.69,-5563.7705,-3070.1987,34097.859375
176,25379.725,25462.209,26191.723,263.1679,354.59787,-969.4989,2000.9853515625
177,-666474.56,-656434.6,-684139.5,5770.2104,2982.7766,7429.9307,29705.111328125
178,17834.11,22132.201,3305.9126,8291.638,4125.4263,-1835.792,23651.791015625
179,-119413.695,-117758.12,-110436.375,-8157.4473,-11858.741,8241.892,29896.119140625
180,-163697.69,-163140.17,-153156.28,13161.257,4320.8276,10601.119,31911.92578125
181,-28096.275,-36523.797,-44883.582,-6927.8027,12935.295,857.9722,29317.548828125
182,35196.957,15689.188,34236.586,-9756.008,-12099.913,-7405.5527,35384.03515625
183,150072.31,136732.06,162899.62,-7416.0186,-12452.5,6879.4404,35857.88671875
184,5196.3125,-4536.277,12554.654,-6100.979,-13956.876,3904.2598,31020.36328125
185,-22757.299,-24113.607,-19219.93,505.58423,-12127.586,-15813.87,34804.9921875
186,89537.75,91365.44,89850.09,-25.084347,-83.54316,-607.9295,1999.67358398438
187,24612.58,25214.328,25086.396,496.99118,769.3413,-628.7018,2000.98510742188
188,163624.92,162627.73,161760.66,535.33136,-414.32553,76.36191,2000.76892089844
189,138919.98,139249.36,135448.62,3577.8997,6451.9956,233.76587,13294.923828125
190,55425.074,42566.01,61919.754,9747.7295,12722.896,541.09424,32597.564453125
191,25372.223,28468.941,46306.383,-7659.3633,-9530.53,-3600.2898,29502.173828125
192,52451.496,26369.154,50062.73,-5459.476,-7360.5312,-10078.303,34356.3203125
193,-56729.99,-28716.016,-17792.006,1820.5487,8113.1523,495.7891,37660.21484375
194,43144.875,45825.598,71296.46,14262.585,-1551.8527,-4714.3975,37528.61328125
195,-27347.332,-43242.473,-28632.252,12756.75,14177.43,5365.9487,37569.47265625
196,-64342.332,-58486.45,-55729.742,-3684.7378,19857.111,4625.923,36686.20703125
197,21074.209,16338.848,38061.047,1123.45,-16462.467,-7642.963,37195.22265625
198,30883.363,23122.875,9577.55,9435.574,1104.6147,-16315.649,37658.6171875
199,-44706.05,-58548.14,-65024.33,-11534.361,-15542.388,5309.845,39135.58203125
200,-1196.8558,-20483.889,21475.27,-7955.885,1462.8921,4851.746,39877.5625
201,28066.125,38340.543,33537.254,6689.332,-11690.831,-13738.195,34492.9921875
202,-39286.145,-50984.016,-37468.34,-3722.8123,20685.06,-1644.5364,38661.5546875
203,-3225.213,-5224.658,11585.641,-6377.4346,-11453.772,-14818.607,37779.9921875
204,-17757.46,-9177.871,-12826.105,-3727.4834,20227.512,-5741.9253,37731.51171875
205,-26265.07,-28729.248,-45935.89,-3156.3538,-14693.992,9418.041,35892.44140625
206,-11588.472,-12061.881,9597.545,12060.458,10519.533,6080.489,36583.65234375
207,21963.223,48396.117,21012.316,-8365.365,13278.567,-3828.4922,38827.93359375
208,61529.883,66696.86,74694.33,6110.2227,-9590.444,11752.933,30566.4609375
209,30126.465,18562.367,44731.676,887.83075,-4269.3994,-14362.061,34522.328125
210,-20626.4,-17106.809,-37713.64,-9323.708,4504.4014,-9226.661,30684.828125
211,6577.358,16145.119,19575.982,-2367.1497,-9303.107,8317.468,24902.470703125
212,28555.727,26530.355,63898.54,13.194315,-2736.7437,2153.276,36894.15234375
213,62752.344,59315.824,87559.23,-574.9382,-5262.817,12195.331,35251.98046875
214,29322.979,22519.5,32658.283,4207.272,3235.341,3995.7817,14577.6455078125
215,8545.714,15863.531,3378.3884,-191.42998,4679.667,-581.25507,13597.3017578125
216,-74123.625,-70861.54,-101036.06,2694.674,5090.5503,-2860.254,30769.779296875
217,-15772.278,-19093.965,-2476.4912,4717.671,-897.4613,6634.282,20813.521484375
218,12676.589,9863.714,19114.373,-1087.8153,11649.564,-3288.6582,22596.4375
219,-55968.06,-67713.19,-91908.75,87.13361,2971.4714,-8830.121,35608.6796875
220,-35572.02,-43406.33,-59393.69,-405.94623,14676.43,-10263.05,37481.9921875
221,48903.32,50950.375,84912.85,-6179.969,5303.461,-5390.215,38900.93359375
222,51243.477,50866.133,61436.58,-3116.321,18477.59,-4459.0264,34941.8828125
223,33474.227,55921.805,51684.48,-3283.9753,4274.325,-15872.832,35633.3359375
224,-152118.3,-140322.17,-129656.63,7772.8325,2781.642,-14955.617,35414.53125
225,23676.486,23108.15,-2647.9648,1121.7773,-5737.331,14501.437,37573.12109375
226,62399.22,47761.133,49959.516,-270.786,-14065.498,6649.97,30221.3046875
227,230054.16,234924.86,225035.69,-6504.59,3044.7424,11974.672,25656.79296875
228,-103680.836,-102051.75,-103285.8,28.464508,-2698.595,-2477.7341,6514.10791015625
229,-88902.734,-91976.9,-84563.13,1953.9662,-1577.1392,1451.2576,8176.66015625
230,-125019.445,-125193.82,-124635.984,-1106.0236,155.17068,-17.342493,1996.82641601563
231,25057.295,27048.576,17649.643,-2913.0735,-86.049736,-688.143,10024.4736328125
232,-123404.15,-95518.93,-90792.77,-6586.261,3768.856,-4837.2183,34273.2734375
233,188714.64,170274.48,181143.61,6067.86,127.00718,7357.7734,23036.158203125
234,-165112.6,-162399.73,-169547.9,8883.993,10122.707,13702.733,33860.62890625
235,17713.479,25031.44,2908.3794,-11021.77,11572.133,4024.2664,34581.08984375
236,-8974.034,5205.4766,-3876.6096,-15788.261,-5975.04,-8669.887,35145.0546875
237,-88657.53,-76942.6,-61701.785,8317.288,8696.394,10566.582,36296.5390625
238,-65758.42,-69669.31,-97583.86,-9765.861,3371.3555,2272.8726,35205.109375
239,178467.86,171046.8,208926.98,3920.1262,-1609.4298,734.7693,35557.87109375
240,-13508.332,-41828.695,-37687.195,-9429.826,6574.27,3203.3547,33602.359375
241,-77601.1,-52751.555,-70652.164,-15334.101,-1409.6444,-6168.18,36312.73046875
242,339623.5,320831.12,313162.6,950.5944,13134.48,-2147.1707,33017.5
243,55734.023,42173.227,17131.424,-2870.7478,7108.687,6222.956,37987.8046875
244,478145.78,474954.56,494777.66,-8697.794,1358.7654,-9185.258,28731.16015625
245,108049.92,98118.484,126832.87,-6997.6953,4159.121,-4605.1616,30006.578125
246,514736.38,514583.72,516094.78,11.199051,-298.76736,-743.7948,2000.94848632813
247,-78778.54,-77809.74,-76191.914,-1558.7924,331.1295,-3639.648,7244.50390625
248,565076.8,565567.4,567090.6,-75.366104,162.52658,446.9864,2000.96643066406
249,401991.25,402155.06,403593.2,354.57077,434.12012,493.537,2000.974609375
250,145531.4,145474.14,147393.38,9.597928,376.87103,15.77143,2000.98767089844
251,320942.06,320636.47,322070.2,-559.2981,435.31662,511.69382,2000.80944824219
252,347496.97,347132.44,346960.0,364.73962,-856.65216,-625.6789,2000.140625
253,-18096182.0,-18096182.0,-18094196.0,-0.047996163,131.81514,57.921085,2001.59594726563
254,639971.6,640214.25,640391.4,-353.72302,930.754,546.6512,2000.99145507813
255,135528.33,135893.52,136160.66,-426.65247,-868.7526,-544.4648,2000.474609375
256,316862.72,316833.1,315236.2,-4.0570583,-234.38464,-591.495,1952.62707519531
257,484183.16,482689.38,482223.8,-98.716835,526.2764,-4.752287,2000.94543457031
258,-11288400.0,-11287939.0,-11289230.0,172.64404,645.92957,-677.8113,2000.85693359375
259,582993.2,582757.25,582783.6,43.812927,-1127.0939,159.23907,1985.69677734375
260,-1504769.6,-1505524.6,-1503479.5,-48.25772,72.831955,221.4705,1838.08032226563
261,236625.0,235525.16,237298.94,-15.550709,582.67957,439.55316,2000.99133300781
262,233089.81,234403.61,234566.78,-56.16544,812.85077,3.2062361,1989.65710449219
263,-273836.22,-274932.53,-265709.7,7124.3257,5575.896,14259.422,30523.513671875
264,98000.09,98739.76,99984.02,-468.92603,280.31125,173.53288,2000.34436035156
265,26102.232,16582.006,46676.88,3765.6396,-7156.8115,-5130.9277,31384.794921875
266,76810.63,85330.164,51613.03,-2349.3862,-2481.953,11112.877,36437.625
267,-200104.92,-204376.89,-183165.98,-2422.089,-1469.702,-15630.928,33683.78515625
268,114693.34,115890.85,119557.414,1106.0645,2706.1287,-18073.416,32013.326171875
269,150277.25,135925.84,130011.76,-7505.5835,11218.756,-2190.1055,29778.97265625
270,317282.7,294313.16,319631.5,-12089.129,-3559.4163,4823.437,33664.71875
271,139847.06,138856.8,137132.5,-2449.508,-9223.379,12554.642,27417.7109375
272,-248229.95,-248137.02,-249047.86,-691.1278,618.91504,471.8797,2000.943359375
273,36437.94,36281.785,37111.16,1013.3816,3.945634,336.78052,2000.9677734375
274,-77778.52,-83931.44,-80178.96,4384.373,14880.001,-8678.665,31252.51953125
275,20179.264,19609.541,37126.805,-8560.689,18375.805,713.53644,39135.57421875
276,54353.24,66276.56,38277.84,11837.496,-5222.376,3457.4617,33620.1875
277,-110674.66,-101264.875,-89950.92,16692.213,-8605.75,1461.247,37248.94140625
278,221915.14,220921.69,221999.14,-275.92477,866.41095,385.60953,2000.98645019531
279,-167219.28,-148756.56,-175989.73,-1476.3868,-5655.464,1939.5588,26334.330078125
280,101553.55,84136.234,118412.8,1002.76434,9146.815,-7154.067,35899.73828125
281,-13454502.0,-13454503.0,-13452512.0,0.2029516,96.575714,-65.684494,2000.75366210938
282,297.0613,-9599.924,21119.725,1749.2632,4030.4292,3915.3477,29008.927734375
283,-50503.2,-46921.004,-82053.39,583.9834,11380.708,2206.7432,39057.12890625
284,51938.266,47716.938,70261.23,-2482.604,3418.9739,-16707.738,36357.9609375
285,65571.72,70671.04,60504.375,6231.1274,-13787.843,6337.7715,29745.88671875
286,-107046.14,-109957.17,-77200.375,158.00705,10210.41,-1455.7911,36129.16015625
287,-13357.505,-8596.345,-31750.096,-12221.457,-2358.7039,-13260.152,37957.91796875
288,36652.676,64593.92,71988.71,5346.464,7183.4634,9708.051,39564.0625
289,51747.055,62843.44,37094.168,7217.117,-11889.016,6124.5864,34543.7265625
290,26855.996,21898.998,53872.6,-1631.6964,-6115.024,6473.6104,33679.0859375
291,19237.854,6614.337,32487.508,-2039.8699,13621.522,-6753.5225,34757.9453125
292,17243.463,22999.344,8796.286,-1989.3092,9038.71,1842.8486,20500.26953125
293,48495.363,72131.11,49771.293,5539.6035,7018.963,12476.632,35170.68359375
294,-364420.56,-333944.0,-352498.6,-278.99692,6410.3413,-7066.4414,31319.775390625
295,-223648.34,-242332.94,-251436.03,8849.788,8410.934,-4664.756,33384.66015625
296,-40557.406,-43209.297,-47166.613,1103.5024,11216.215,9415.837,26081.119140625
297,-21266.555,-7494.6494,-38589.715,-2833.007,8815.655,5266.937,32692.15625
298,-14216.048,-4967.9014,4518.981,-3874.4172,6167.293,-1585.8141,20735.22265625
299,-58985.656,-51019.76,-68970.72,8354.11,212.5037,3548.6436,22135.59375
300,-45732.113,-32562.375,-63399.254,2583.347,-2068.7246,6253.8125,29469.169921875
301,195539.08,189929.55,216698.73,-5952.631,-7080.254,-2843.087,29645.142578125
302,54658.67,76006.35,71105.29,-5759.858,-4512.072,-14584.7,34261.671875
303,-169961.61,-163157.22,-193063.89,1048.2369,1562.0189,-11361.655,33691.09375
304,-424440.22,-424136.75,-434023.75,-872.6714,4421.8096,15188.537,29118.05859375
305,27298.598,40246.87,32485.533,-5116.982,9042.784,-938.5671,21305.1484375
306,468878.62,468931.44,470562.03,-27.255543,426.02167,486.3067,2000.98364257813
307,96023.74,63555.613,67481.234,6683.1094,3197.04,-3641.4893,33861.01953125
308,194348.33,193897.7,195621.33,-556.93005,419.96866,221.42772,2000.99035644531
309,146524.95,146516.17,144536.88,-0.050552756,-33.59824,-100.07894,1992.111328125
310,126773.305,126567.664,126011.68,-272.88214,-613.3776,-853.6409,2000.98449707031
311,295427.94,295535.9,297419.44,-29.185555,-139.28299,245.23872,2000.97241210938
312,-71041.766,-69792.56,-74844.98,673.9268,3206.5542,4204.27,10296.2158203125
313,14419.435,12936.527,14137.4795,637.2004,552.7342,54.54719,2000.98571777344
314,-168205.81,-167087.92,-170479.14,383.48184,16001.056,-1785.1724,28054.626953125
315,-140128.1,-120099.07,-124141.38,832.29663,9218.964,14970.316,35579.7109375
316,29447.488,26789.926,55784.12,-1774.876,14821.77,423.30734,37943.57421875
317,45.070568,29421.465,20714.295,4902.192,5442.271,14214.91,38080.73828125
318,7076.0156,-3720.6853,4359.742,-11966.58,-13670.566,7966.454,35710.83203125
319,-64605.684,-53191.82,-59032.51,-62.15151,-14669.475,-40.16035,27263.931640625
320,13850.056,12368.29,19609.244,489.4154,-15009.905,5513.5415,28490.4453125
321,-26044.264,-32740.814,-54036.363,-5128.8306,-10811.452,-3038.3018,33139.43359375
322,-28189.748,-22353.186,-34836.215,-1380.2772,-0.40838456,-1945.2938,11580.2197265625
323,25804.13,23051.12,24817.55,-2969.6724,11695.59,10142.011,27408.6640625
324,-1925.2338,3146.9258,9495.67,2454.8718,7199.4956,3212.1792,17400.197265625
325,-1650.7816,-2412.3987,-144.64716,-8246.381,-4568.1895,2608.6853,17059.447265625
326,36252.574,34870.87,35667.11,193.87836,348.79797,833.31946,2000.98583984375
327,99952.99,77502.766,103475.16,-12640.64,-7072.826,-4790.232,35968.91015625
328,6327.7847,1127.5868,-22076.71,6076.0815,-8745.432,2097.2239,32242.015625
329,-163445.23,-148864.72,-180289.2,-7327.215,8746.635,5342.686,34901.46875
330,-90067.445,-98910.695,-107573.96,8151.839,-15061.578,-6697.647,35275.38671875
331,5999.7554,290.89825,10568.523,-4956.5195,18279.13,-1229.75,34061.1953125
332,-316505.44,-314593.97,-300829.5,145.15942,4959.0767,-4375.102,18726.712890625
333,442134.44,443120.8,444354.94,-85.452194,-256.7261,-153.86009,2000.98974609375
334,223232.69,221627.31,221890.89,357.96695,-606.4099,-312.38126,2000.9814453125
335,24715.668,24944.748,24804.416,-1117.1053,75.31294,258.6677,2000.38488769531
336,56106.656,56032.82,57149.496,-358.17914,420.5892,799.67126,2000.98742675781
337,-101850.9,-103504.95,-115101.11,388.9413,3031.7146,-12385.711,25389.6171875
338,60682.31,60632.32,61002.363,-436.6957,-93.697914,1046.3145,2000.92517089844
339,-18810.197,13536.056,-168.30612,9830.49,2940.6426,-5434.5137,34572.59765625
340,21360.824,17142.334,383.48932,-3116.5889,5394.345,15682.329,34979.91015625
341,183073.22,181681.08,182934.5,731.549,-247.60359,387.44754,2000.98571777344
342,219616.19,218133.3,219708.47,164.80931,-81.06039,720.748,2000.98852539063
343,41421.63,42285.594,40580.97,169.21883,4.5651126,761.1404,2000.85424804688
344,-10347.754,10665.588,7671.455,-4522.711,-12125.476,-1569.2662,29957.345703125
345,3070.6475,23656.633,27140.84,8916.024,-1594.7963,1069.029,27517.146484375
346,-71729.68,-69558.91,-43948.312,289.826,4988.6304,-6076.4233,30031.4765625
347,158226.45,154012.36,169882.05,-2024.5527,-8641.814,8504.107,25613.044921875
348,5994.9946,4891.659,5108.717,377.67096,6844.8433,1382.0781,12154.791015625
349,122169.89,122924.055,121342.12,-305.83264,133.0004,-772.8561,2000.958984375
350,1479.6357,3881.8381,14295.163,1923.3625,307.36606,2847.388,13226.0
351,41772.56,56897.945,57245.637,14996.689,-2272.3206,11268.31,36128.57421875
352,84771.05,85000.8,85620.38,-37.420807,-850.3839,-645.8238,2000.986328125
353,-195982.78,-206842.55,-197553.56,-1667.8326,-2589.4749,1690.4888,11848.1201171875
354,-297180.84,-297094.7,-297145.88,254.22504,1052.4169,400.6325,2000.94653320313
355,23096.893,23935.463,24554.453,890.1563,-412.82416,1073.4974,2819.75390625
356,9886.278,7564.7266,12285.263,1581.4458,-40.324738,3985.6985,8478.1630859375
357,-181793.2,-184775.25,-194148.36,-288.43967,8241.729,13791.931,29989.642578125
358,-108847.664,-107939.45,-112829.414,2035.0675,9162.804,7135.3086,20912.40625
359,-41930.664,-29702.988,-28516.959,5823.6567,-8717.221,-14580.796,33659.15234375
360,-5132.324,-2990.7998,6295.641,-2405.3098,-3975.5928,885.67145,13335.556640625
361,-1358.4882,-99.69971,-6337.1963,3820.9521,2840.9353,-1279.6123,10274.3955078125
362,53572.875,62547.03,69157.23,-1343.1957,-2651.377,2267.4075,15015.8720703125
363,1715.0151,4502.448,12605.9,-4621.3267,5855.6147,-317.18707,16225.2900390625
364,27741.326,27734.045,27129.176,0.1747285,1097.9445,75.65873,2000.9853515625
365,3984.458,2755.8748,519.0957,-2751.83,-637.1999,2347.4346,7051.79345703125
366,345.72766,4274.8286,-6301.4424,1749.532,-3001.334,1074.9402,11198.8037109375
367,-109558.18,-110337.234,-145967.03,-473.25323,-4035.1704,3084.8333,37093.33203125
368,-324.8999,6524.9106,11754.091,-8525.848,-1297.2375,1613.5485,18466.521484375
369,-12453.3545,-7462.1445,-22888.297,-12168.099,-439.8128,-2036.8671,25359.375
370,-13074.609,-9324.43,-28538.453,-7908.7554,-8523.642,498.21356,26786.822265625
371,-30031.531,-28525.139,-61308.03,-410.94235,-10562.789,-1096.7443,36965.3359375
372,-4585.74,-51.08545,-6771.777,8301.448,-1098.7534,-89.36537,15672.990234375
373,21906.924,20946.312,4679.879,388.6957,430.41586,-1438.4761,16981.224609375
374,785.0558,4422.4053,-3180.2153,5294.494,1761.6915,183.35838,11699.712890625
375,1346.059,3771.3923,3889.5815,-3979.1292,1588.0311,1602.0132,8303.5009765625
376,-31092.262,-54324.457,-68987.5,9515.73,8148.2197,-934.68463,39608.625
377,38622.367,40394.625,60465.74,-3956.6995,-2059.8347,717.14386,22423.197265625
378,-40183.99,-40869.88,-51610.47,-1083.289,-4631.461,-2699.5498,14592.1943359375
379,-11220.751,-20275.549,-10587.967,3692.3623,239.09447,1195.6143,11553.359375
380,146407.05,156679.3,182939.45,-6785.6445,-5126.655,4143.8213,36515.234375
381,120817.93,119571.89,157488.36,-604.7221,-505.15628,-1590.7943,37435.546875
382,44442.797,78194.43,72580.36,-8815.1045,3783.0527,-3305.8716,35917.203125
383,-42147.035,-36334.215,-40421.902,-1138.0073,-2215.4062,-15923.934,28391.21875
384,35693.8,52917.77,23471.902,8137.687,8448.333,-5505.5635,34062.765625
385,-15500.588,-8946.454,-21784.986,1680.9193,4611.4062,1330.0186,14185.1201171875
386,-10864.561,-3596.4272,-4390.246,3629.5269,1840.6411,3441.6204,11528.4365234375
387,4020.8525,7339.8955,28916.977,7571.807,-740.7826,-4338.6436,27898.3203125
388,-2828.4197,-9900.212,7301.932,-1457.2875,486.37393,-1231.5431,15359.1943359375
389,501.1543,357.5078,-5832.952,331.00073,-7923.407,-2921.4102,15921.853515625
390,-20857.385,-18683.04,-17625.783,-2358.7476,-1040.8047,2420.7017,6757.5654296875
391,-58189.055,-56260.555,-90885.63,-2878.278,-7436.94,4169.3535,37131.77734375
392,-4541.6895,-10337.03,-2300.116,3133.366,-167.59117,851.8806,9127.7939453125
393,-19156.033,-24383.416,-30644.217,-7457.367,-2301.7644,416.3943,16807.802734375
394,-74619.43,-76060.94,-109486.07,1426.2621,-6096.731,1356.862,35925.42578125
395,-6755.947,-1305.3428,-7699.8223,-8790.819,4015.406,2922.106,18481.525390625
396,1250.4565,3189.4111,-10698.626,-2491.617,-3454.35,775.2191,15031.0947265625
397,-5646.9116,-11080.772,-6598.3643,-4977.599,-2145.6116,-2395.2402,11428.6484375
398,9113.076,12933.114,-13172.72,477.39978,5252.787,-3120.0442,26627.900390625
399,-10707141.0,-10707141.0,-10705143.0,-0.15068115,-43.583286,-48.785347,2001.21020507813
400,-29431.531,-26779.668,-12287.423,1280.2699,-2194.363,-1631.6444,16817.810546875
401,-62317.816,-35705.152,-30251.75,-7143.481,3177.7246,-139.81897,32657.9765625
402,74232.71,71479.44,46319.15,275.31934,-274.0789,-1313.101,26749.19140625
403,11098.575,11747.609,-255.2544,-313.13376,-516.15857,-2571.0112,12554.8173828125
404,-27000.748,-29247.672,-9757.518,-457.24106,3483.3914,3221.1533,20230.63671875
405,-49212.8,-46268.812,-79085.28,674.6491,-8013.01,919.6919,34431.15234375
406,20183.479,18241.877,23746.18,-14987.022,865.7611,977.8926,26501.5078125
407,16770.379,15904.251,20330.326,-3167.4753,-871.10724,903.8591,7164.69384765625
408,-56001.96,-60161.598,-94103.875,-1779.7053,-3926.284,2785.5044,37277.265625
409,-124756.86,-124101.09,-153642.84,471.36963,-9224.46,1403.0579,33400.8515625
410,-55288.95,-57110.44,-51382.92,-1784.6006,-2007.9868,4029.603,9800.6748046875
411,-27400.139,-28171.447,-48361.68,579.42285,-6450.6367,63.441532,23444.9296875
412,4861.5654,-3882.6064,4424.076,-12054.553,-3486.0046,-7712.004,26900.6484375
413,-9319406.0,-9319406.0,-9317408.0,0.060145803,-40.693653,45.722393,2000.81066894531
414,-14953.007,-6408.6406,-10927.148,-2043.791,7917.738,4057.2546,17458.5859375
415,192860.66,192958.25,193178.34,-296.77606,8164.7456,3536.256,15422.328125
416,-27294.281,-33286.473,-53758.86,1733.8885,-1943.2124,-2428.034,24813.96484375
417,-35446.06,-33371.57,-39794.53,-2441.239,-520.13727,-2518.9429,8364.171875
418,4699.9907,-1820.9194,-21690.352,7708.27,6641.352,4190.8755,30498.337890625
419,7019.746,-1944.6958,18467.691,-3180.938,-11721.769,-8684.843,31350.841796875
420,-97315.51,-96839.31,-99552.914,67.48803,7788.6562,3340.8123,14892.4296875
421,-18568.47,-27814.049,-22421.49,-2006.896,-1496.3691,3313.3787,10790.6796875
422,30635.5,17923.023,24102.861,7412.2886,5337.8794,-8365.119,24113.626953125
423,8836.3,8804.259,7954.353,19.880413,996.3759,302.13864,2000.98522949219
424,-16370.617,-11660.316,-10909.702,1002.3139,1086.5037,1123.272,6051.98828125
425,-33671.594,-34857.44,-47378.12,3017.626,2876.8643,-9043.926,21692.080078125
426,-23071.664,-23933.104,-926.67773,1289.744,-4105.9126,6587.4326,26381.201171875
427,12337.401,18431.72,7659.4956,-6359.696,-1694.0333,-2454.2495,15347.59375
428,-10666.232,-10106.397,-1182.5112,-858.36505,-341.0383,1431.7771,9677.515625
429,-42.49536,1981.0486,8362.485,-1595.9624,1491.3007,6.6096754,8487.8701171875
430,-478.19702,2379.6382,5777.6743,2507.8672,-320.8829,3766.6707,9548.05859375
431,-2770.984,-7779.25,1322.9839,-2025.4028,2538.8188,-1684.8274,10124.548828125
432,464.14917,890.10425,7210.8545,-7423.0024,5160.7217,-564.30237,16999.501953125
433,-8761.714,-6484.677,-8189.858,-3009.7217,2458.4495,593.9408,7111.62939453125
434,-57862.14,-54512.855,-88719.48,866.4613,-6631.083,641.2392,34671.9296875
435,-12621.391,-15628.387,-18616.764,123.98635,-555.5732,-526.3187,5362.984375
436,-45336.57,-18325.082,-60185.023,-1059.0466,-8353.784,1732.6372,39659.8515625
437,-34860.258,-32694.55,-52698.08,12804.853,-1640.4487,617.55005,29370.388671875
438,-84517.39,-88829.914,-121819.484,1340.6688,-5049.8364,2708.9458,36784.34375
439,98264.83,104066.305,120541.89,-1953.6852,3822.4983,-4434.787,22692.9921875
440,-53937.26,-57235.023,-79145.35,1158.882,218.52121,-1693.9209,23999.439453125
441,101738.016,68932.805,82261.93,2428.354,4882.32,-8833.163,33761.79296875
442,15642.991,12212.103,6798.368,4098.094,-1285.6927,-459.90033,10753.1435546875
443,4688.7754,-11785.848,13237.885,5650.2065,-1315.7745,1557.4852,24363.689453125
444,8121.1284,4667.238,4111.7974,-10088.315,199.60178,-6142.2563,20803.3671875
445,9674.25,5052.6055,25479.998,-2432.6375,1025.879,1399.1721,19261.705078125
446,-15165.3545,-14183.609,-12314.28,-755.2402,1351.7445,2116.5679,5189.0078125
447,11996.242,1360.5767,7925.484,-9715.328,868.82324,1442.9277,19443.9375
448,9719.195,10792.03,7865.1045,-8899.662,-1020.9409,3401.7349,16793.810546875
449,16425.73,14707.238,20705.824,-12527.644,-289.34903,101.912224,22354.767578125
450,10442.869,7092.4736,7135.0596,2215.9087,-2481.792,797.1517,6797.00390625
451,40944.703,37277.67,68020.29,543.6394,5652.2715,3318.2588,31234.357421875
452,-2061.691,-13559.927,-10096.131,-2546.5366,467.8056,890.8685,11263.7373046875
453,19887.582,14683.857,18087.182,413.85892,949.2002,-272.3892,4938.701171875
454,10120.521,6912.537,5120.2783,595.23267,-1420.1371,1733.6722,5948.36328125
455,-5077.894,-48.041748,-2718.582,-201.34938,1459.5068,-826.2297,5249.65234375
456,-924.76025,-8345.12,-15672.15,-3820.5693,798.9141,-969.13153,14547.818359375
457,15679.596,14826.71,7159.3584,-3933.2202,2079.3965,102.49937,11201.291015625
458,9756.67,5938.887,24237.932,2406.9312,5417.7305,-4847.3623,21342.326171875
459,48703.77,49052.79,40875.766,12361.895,249.62663,4573.374,24197.419921875
460,-35191.684,-30235.6,-66325.54,-491.57278,-5323.8115,-3210.1633,35564.7421875
461,-9888.149,-14173.744,-3719.2832,913.9701,-271.13013,1714.7847,9716.3017578125
462,19213.008,16181.03,42163.336,2475.3264,355.73703,-187.6836,24987.244140625
463,-76659.586,-74968.39,-90842.516,-166.07892,-4689.4814,3452.8855,18161.09765625
464,-202534.3,-202106.69,-217886.5,421.9153,-5842.948,3837.8967,19737.787109375
465,5146.252,-6104.986,8825.954,8531.421,4762.378,-2966.9878,22233.689453125
466,-9028.953,-9080.186,-1489.6426,89.356026,849.85675,-325.25778,7729.04833984375
467,-9887.619,-6485.339,-6148.241,-2114.0479,-204.09052,-1115.5579,5486.52978515625
468,-12426.87,-20502.814,-12189.221,-4680.2466,1168.5497,-451.61398,11731.1171875
469,4433.221,-2315.1572,2378.0916,-9892.778,-6132.63,-217.63057,21034.876953125
470,-1045.6616,-5557.4995,-4646.11,984.1713,895.9069,4668.558,9368.8466796875
471,-8224.345,-2391.1978,2511.9854,-3265.029,558.0731,510.29498,10971.0791015625
472,14370.704,10619.003,20861.43,-1320.0155,-4204.514,4092.4214,13749.9423828125
473,3134.2092,-4930.4897,2513.7812,198.85349,2032.326,-2936.4155,9939.71875
474,-25963.477,-18733.873,-38425.656,-457.8686,-2375.0305,-1760.8483,18014.513671875
475,5141.416,-8656.413,3056.494,-8892.8545,2079.2148,-2828.9424,20980.619140625
476,67311.15,58421.34,77680.04,6205.719,-1941.8765,-2507.8687,20601.791015625
477,-8321.824,-13011.022,-19048.367,-1049.1096,541.69995,952.35077,9677.373046875
478,-35550.0,-45229.38,-18066.43,-1693.7927,-2592.8909,-8382.554,28428.390625
479,-3817.627,-1046.9512,-6352.247,-1807.5006,-2062.6704,199.2483,6618.7353515625
480,1817.6359,-2755.0298,1077.7278,-1847.1748,1248.559,-651.4912,5853.16748046875
481,9374.715,7747.011,-10112.32,-101.33466,1182.2378,-1788.9412,19091.873046875
482,-1885.0276,-11133.155,3677.3125,-1509.1661,456.58432,76.34394,13243.2763671875
483,2875.511,-4797.6714,-10197.892,3618.631,-679.21704,163.2739,13047.0087890625
484,-13948.366,-17019.03,-18432.43,536.42487,-1718.4812,3012.611,7260.64892578125
485,-9683.331,-1487.0022,944.27344,1373.5481,-4255.753,3300.9448,13627.228515625
486,-16747.203,-18749.312,-18663.121,-3355.9631,-231.93678,482.8971,6204.17041015625
487,-19648.074,-12875.097,-1187.6895,4400.494,512.18805,-1449.7432,18077.958984375
488,-23909.205,-21274.707,-33118.668,1358.961,1658.256,1893.7964,11856.0634765625
489,-13786.834,-8128.6777,266.44238,-7815.4375,-1739.6534,2707.3032,19086.76171875
490,5140.181,341.8269,-3848.581,-4259.9854,-725.08923,896.35706,10914.2490234375
491,-24967.203,-26934.906,-4468.168,298.07346,-139.87547,1190.2095,21656.25390625
492,-13479.674,-21871.875,-16844.207,2842.6812,227.27249,294.3201,8841.4150390625
493,5969.736,21083.455,11742.438,-1838.3756,-5139.7256,1814.0593,16545.79296875
494,1540.2946,-10930.132,5039.0107,-2441.4268,-640.5041,-752.553,15237.927734375
495,-7638.448,-19101.27,-14223.72,3407.7588,-2767.757,7715.0103,18321.03515625
496,-39393.375,-38445.57,-35885.99,418.18787,784.4468,271.57635,3530.97045898438
497,-3637.8008,8060.212,-4943.248,735.54114,3177.6716,7.7487745,13628.4580078125
498,-8505.422,5752.7983,9175.346,922.01685,1233.0034,-1048.9657,16559.66015625
499,-3420.086,-6416.4526,3125.796,-1204.1569,2715.9988,-2399.8826,10733.07421875
500,-122455.19,-122661.78,-148773.47,-350.11548,-4701.5903,4245.388,28425.517578125
501,4415.4077,-1020.5664,12249.062,-834.5231,2085.3347,-520.9962,12224.931640625
502,12578.3545,3108.1287,1761.7126,-6464.283,708.66437,2358.2004,15741.654296875
503,-15866.693,-1875.853,-4249.022,1907.648,-1136.5657,78.38026,13527.1591796875
504,22289.86,10049.514,31303.75,361.84106,-2226.7437,3076.9763,19623.474609375
505,-2754.224,7251.1426,-423.43237,2173.2527,1879.328,504.43665,10380.154296875
506,5815.338,15799.49,17795.418,576.9344,603.57153,2066.953,11768.73046875
507,-2052.0488,13422.406,2750.9644,5352.407,-2426.2837,1566.2214,17296.478515625
508,-164653.77,-175986.66,-206631.11,-2107.606,1418.2268,910.98517,37903.2578125
509,12693.818,9593.607,17377.986,-1469.1678,85.79763,-928.9177,7427.02880859375
510,4888.1807,-325.62756,1097.0768,128.83629,-1780.5282,500.05936,5665.7734375
511,3775.9224,4084.1108,23039.365,681.7427,-531.83887,208.95296,19173.21875
512,15753.746,14581.457,23730.668,649.6185,978.9801,1015.31116,9032.7509765625
513,-258.9414,-3390.7078,11636.838,2844.0417,-1227.2,-2448.321,15340.7607421875
514,3938.0164,8268.831,9184.517,-4358.283,5221.719,-3367.6003,14013.0390625
515,-8294.981,-11073.917,-9041.284,2704.5425,-3088.3386,-742.76917,7643.1533203125
516,-40438.742,-49136.855,-55545.164,230.12645,3771.8833,425.80258,14691.7626953125
517,21707.53,22910.2,23623.713,8985.342,-817.70044,1773.3792,16014.4697265625
518,-21897.408,-26181.562,-41175.9,-1598.3304,-866.6696,4204.7227,19245.22265625
519,-27799.594,-35169.715,-42456.273,-4309.6562,-1034.43,1.166361,14833.9130859375
520,21020.404,10372.156,13094.33,4206.3135,-2950.287,-548.9633,13111.251953125
521,-40343.39,-38987.586,-36156.797,7678.665,2151.1338,1337.0485,14485.181640625
522,-8216.602,-4341.115,-8417.432,-712.1089,-1257.5747,430.8257,4760.32080078125
523,-14011.368,-4776.2017,-14254.39,820.47644,-102.12414,3797.4407,11528.408203125
524,-2261.4172,880.9084,-1150.8998,3020.1084,232.56906,1681.5869,6605.03466796875
525,19298.584,12694.935,35972.188,4774.6094,-678.95087,-2016.6495,22664.91015625
526,-21329.426,-21877.613,12387.889,-1352.6709,-120.17646,-1655.6595,34196.44921875
527,-20197.01,-18054.26,9206.749,-1691.4832,1884.1111,-9.273994,28729.787109375
528,-5493.0723,-3107.7983,6360.182,-3164.8933,-5.2458267,-1811.6619,12562.32421875
529,-598.7487,-5289.6836,7249.5967,-411.35202,2037.6538,-311.53052,11561.67578125
530,29483.309,19750.537,21157.668,-1849.0906,3571.5188,-512.00134,11503.158203125
531,2401.8896,-15194.591,-21754.09,3009.143,-870.877,134.11395,22306.53125
532,-1313.5704,-7993.8145,8161.4653,2504.792,2671.2766,-1394.391,15612.802734375
533,-7736.7847,-13132.119,-6394.727,1700.1599,485.76932,1213.2727,7207.44384765625
534,-13521.526,-26742.572,-30228.584,-817.7326,-2289.3896,-863.00916,15906.0166015625
535,-16162.399,-17498.717,-11870.725,1524.1492,320.91843,-1808.7526,6559.88330078125
536,-683.4911,-5049.3027,4619.966,700.2137,-3.2871914,1753.3676,9001.9267578125
537,-27324.027,-23769.582,1885.2559,-2862.3347,-1609.3868,-494.22366,28197.083984375
538,-13814.283,1573.6514,-11749.65,3543.1597,5910.415,3187.9346,19550.716796875
539,10698.775,17074.768,17449.941,5283.927,1618.486,3592.2212,13172.5634765625
540,-12376.922,-9705.398,-2417.9785,4539.3706,768.86554,698.9001,12031.98046875
541,-21614.57,-8043.876,16021.321,1502.9404,1600.7083,-5031.475,34355.33984375
542,-38890.094,-37574.11,-33519.9,3626.2327,1631.5278,-330.3331,8441.884765625
543,-20514.781,-26626.574,-16051.824,2233.4658,1123.971,-1563.0598,10518.23046875
544,-38762.02,-42679.234,-9577.156,123.56182,-1016.1731,91.22763,31378.22265625
545,-20447.465,-5730.856,-5892.5776,1827.0848,291.28378,-499.2215,15008.052734375
546,-23185.225,-34711.062,3375.004,-895.36334,-475.06912,629.3183,33892.32421875
547,-17468.654,-23976.64,2178.664,1378.8129,-519.6204,1039.0981,23790.50390625
548,12329.655,-5528.427,5622.5,3145.4492,497.90677,-1209.0137,16701.212890625
549,-31171.906,-21166.727,-39046.832,-8855.093,673.70776,-1630.6073,22033.7109375
550,-4958.1895,-16809.266,-22440.578,4833.7075,-1391.8483,-1343.0009,17894.515625
551,-10957.992,-12624.724,-16697.135,6667.714,1001.8273,-505.49304,12779.0029296875
552,-11238.37,-10857.636,-8091.4297,4303.807,-4398.242,-2887.4995,12143.51171875
553,-6087.938,-11766.186,-7743.113,-4374.1494,-99.56236,-353.15942,9131.6513671875
554,-36711.543,-44333.125,-30882.887,-1104.5393,1133.5941,83.6324,12000.8935546875
555,-17961.857,-16581.156,-27964.818,-2123.115,-1760.774,2097.1897,12320.515625
556,-3592.854,-268.3191,-4632.84,3560.5823,2530.1565,101.831184,8535.865234375
557,-2007.8218,2935.8228,11863.876,180.37984,-3003.051,1480.8594,13491.4150390625
558,14957.533,19990.162,22749.57,8491.446,-1194.3094,-464.16827,16372.7900390625
559,6286.922,13523.447,1034.1558,5128.3843,-1132.4751,483.02396,14192.2177734375
560,-8030.9604,-9218.85,17369.594,912.8962,109.563934,3323.4163,26691.640625
561,-18807.658,-21973.408,1081.6299,754.5872,734.9948,-1893.6093,21969.443359375
562,-367.682,-8174.7144,1533.7329,-6705.196,-1890.4994,-2328.3047,15532.98046875
563,-11234.633,-19203.52,-11054.798,-16512.355,2443.5598,-1321.1249,30101.349609375
564,2250.4973,-1117.5771,12245.752,-2618.0593,-1389.7493,212.65907,13092.2265625
565,12976.285,-701.63525,810.301,3234.5784,170.17572,-1362.5697,14343.482421875
566,-9283.106,-4982.242,1757.3623,5119.2695,1462.097,-1690.6594,13657.0400390625
567,-1571.481,-11593.01,633.6968,9583.044,10.969978,-270.98624,20077.796875
568,11902.943,15829.5625,718.8662,307.01663,-444.8876,-14.355194,13612.2998046875
569,3053.1016,-6567.5845,-2870.5566,-10893.096,-184.47382,-295.1773,20663.97265625
570,-1804.3115,-7271.227,-7261.503,-3607.3186,-2977.3306,2243.291,10514.888671875
571,-31249.256,-26936.768,-10222.197,3850.959,1615.0667,42.935974,20551.796875
572,34070.29,20896.914,33887.51,-5202.741,393.60284,-4758.0903,17909.55078125
573,10088.762,8106.6006,17542.29,-8085.3574,2708.8298,710.5067,17143.654296875
574,10752.514,13547.274,8111.5615,-4823.4033,1511.2957,-2426.4607,10792.4501953125
575,8547.049,25056.9,7762.6167,7142.7515,3239.829,4810.859,23240.49609375
576,-12213.516,-16361.811,-19260.139,-688.3502,-845.69104,992.931,6645.04150390625
577,-4115.734,-12140.875,-14034.707,364.91238,5062.3154,4210.4624,14616.8505859375
578,-123514.94,-124230.06,-159460.92,31.272135,-5134.9897,3084.45,37075.16796875
579,-144793.95,-145048.2,-178001.9,16.160908,-9201.433,3369.9485,37181.43359375
