Element Label,S11,S22,S33,S12,S13,S23,Mises
1,-61730.586,-63739.027,-97055.34,-289.08453,5210.8765,2802.4114,35863.56640625
2,108490.87,112337.945,128254.45,-3226.9756,13868.797,-7326.6787,33146.3203125
3,-16098.772,-31574.4,-15303.353,-4462.83,-6312.6895,-8179.4697,25148.54296875
4,16044.851,36158.867,15962.411,4278.0015,-5806.409,-6432.8896,26199.845703125
5,-29050.148,-21644.807,-31722.578,-6138.498,6961.29,-14038.414,30519.25
6,88451.445,88898.75,123305.664,1201.3768,6430.972,2361.2598,36668.17578125
7,-74370.92,-71159.44,-42767.58,-1742.7148,-9547.114,-4344.0576,35309.44921875
8,-14489.456,-9963.411,-34195.41,1675.755,-13321.353,1534.8932,32339.87109375
9,-68139.45,-64447.664,-88036.61,-93.94028,-4664.2637,10082.187,29210.037109375
10,44942.62,45716.15,48156.258,1503.6385,-8993.533,5892.269,19027.08984375
11,-30565.822,-35851.516,-63227.26,6190.8906,-9794.009,2419.9697,36638.609375
12,11400.366,-3061.0737,12067.883,-1751.7902,17248.902,-2434.1567,33745.9296875
13,156695.23,147571.86,132887.95,-781.45825,9704.632,-254.0593,26784.046875
14,11616.88,11720.627,9820.082,-125.83296,-367.3335,204.92526,2000.98596191406
15,78261.69,78617.66,78598.19,379.194,-941.43506,514.3008,2000.9853515625
16,66830.95,75249.4,54782.39,4073.295,13433.707,-8291.825,33390.1171875
17,-123678.99,-150199.2,-147257.47,8272.842,-4998.4194,-3977.346,31011.12890625
18,869746.5,882309.4,866143.44,-365.24234,158.02855,-8512.546,20831.181640625
19,110431.27,108880.15,109375.5,-430.04196,718.5378,75.8333,2000.98974609375
20,8891.453,9068.844,8393.802,821.74475,-669.24786,-298.3671,2000.98547363281
21,7951.449,6375.1255,6431.264,137.75067,-659.4903,284.47458,2000.98498535156
22,57423.367,57863.676,42597.04,-7531.663,9828.678,-3920.6118,27067.36328125
23,49898.57,46151.773,65980.8,144.77197,1640.8767,-407.70953,18481.67578125
24,-26531.457,-19433.305,-15806.186,4410.543,6305.3574,4039.8267,17772.943359375
25,2718.4602,-9110.2295,10225.78,-4083.2446,-3803.472,-2971.8772,20124.451171875
26,19085.941,23795.309,3664.5767,-5416.808,1305.6958,-6719.578,23690.07421875
27,262186.06,271940.75,267381.22,453.42896,-3483.756,-6387.5684,15195.2626953125
28,-13105.151,-38530.227,-26065.016,-2346.3633,-1659.5907,-1933.4165,22822.802734375
29,-32404.162,-38823.56,-39344.54,-1876.6067,9800.469,-6495.243,21681.82421875
30,2742.8274,1290.0721,2394.629,-578.97925,-483.66617,-436.11914,2000.9853515625
31,502.83588,43.78682,-103.19909,-7.9712896,-989.52277,-505.46408,2000.98547363281
32,6250.7188,8233.037,7308.1133,-101.15115,-69.9636,-579.36414,2000.98596191406
33,44307.227,42089.83,43366.164,290.91214,-97.80861,-43.242233,2000.98547363281
34,-25452.814,-26800.012,-27019.924,-40.12788,-692.4546,365.6348,2000.98571777344
35,18428.691,18030.746,18266.463,235.63353,-1113.1261,5.8759747,2000.9853515625
36,26126.312,25428.223,25306.88,630.6149,-376.92044,-774.1553,2000.98522949219
37,15436.691,16718.412,14802.754,-531.2125,277.56494,-151.6986,2000.98486328125
38,31986.049,29949.354,30141.164,-259.86142,41.446056,-25.439877,2000.98425292969
39,-4667.83,-8737.133,2554.2776,-931.74176,6424.0347,8446.756,20941.8046875
40,-91570.89,-90550.61,-91356.79,1189.0465,-971.7505,-152.44708,2830.63256835938
41,88159.164,82232.27,94796.97,5490.1753,-12183.757,-3514.4373,26293.376953125
42,12078.136,-19032.967,-11412.459,401.34085,8039.21,7625.824,34025.28515625
43,283070.12,282785.4,283554.1,149.80836,356.9408,-1016.74274,2000.982421875
44,139329.36,140257.08,139091.14,-820.7648,270.86707,-456.25098,2000.99377441406
45,189928.22,188914.5,189301.56,-554.085,373.94806,-791.2701,2000.98425292969
46,24196.035,22297.924,22162.96,131.01736,144.31778,65.191864,2000.98608398438
47,31005.117,31626.281,32253.094,229.03152,-20.655859,-944.67017,2000.98571777344
48,20761.068,22716.344,21742.137,-496.6182,240.58234,-272.693,2000.98754882813
49,11323.778,9720.359,10304.217,741.9179,-55.472137,-350.10083,2000.98571777344
50,29224.781,28801.598,29753.64,-563.7722,534.3054,709.78864,2000.98596191406
51,2708.4966,2927.4304,3433.589,-872.81366,-526.1045,397.16946,2000.98571777344
52,15627.05,14656.768,14242.689,363.0903,111.185486,-336.87436,1512.5224609375
53,1219.3601,-613.4573,1386.3004,-65.064995,18.551523,-314.72226,2000.98559570313
54,8502.408,7187.133,7217.078,-701.5736,522.6881,73.6151,2000.9853515625
55,57716.05,57178.336,58551.457,486.20645,431.46393,658.28326,2000.98352050781
56,611.9855,2644.6506,1441.6608,342.04306,-255.11766,328.66965,2000.98559570313
57,-296805.16,-293343.03,-302297.75,5682.6484,8191.8755,-2992.8462,19652.998046875
58,650699.25,665835.44,652611.6,2943.0652,5945.4834,2639.8203,18887.892578125
59,-66376.78,-66855.445,-79559.74,6698.0635,6988.632,1796.9714,21412.888671875
60,85848.07,86060.76,86121.88,-713.8171,-108.36283,-890.3442,2000.98547363281
61,9986.465,10607.878,10587.743,-733.06805,-669.197,-474.0794,2000.98510742188
62,41364.27,43339.83,42326.41,73.19182,508.06613,-308.597,2000.98522949219
63,-48357.34,-41712.082,-33223.566,3893.525,4799.894,-4448.064,18616.501953125
64,-243178.98,-242351.84,-220520.25,-7296.685,-7539.4966,-1372.7097,28831.759765625
65,433833.75,452903.28,448649.97,6107.5425,6497.0674,-5503.2056,25100.33203125
66,207526.34,196941.95,184526.31,383.2082,5413.772,-669.5409,22074.91015625
67,113113.73,115785.79,103465.12,1493.2257,2047.8918,-4314.0312,14181.7001953125
68,67367.77,65492.01,66336.95,355.01486,-571.06616,-0.09280609,2000.98864746094
69,-199869.95,-200134.47,-199923.53,795.90137,799.6453,-205.42715,2000.98547363281
70,604842.5,604491.9,606090.6,-129.02028,-469.06396,-625.9828,2000.9853515625
71,70744.914,72641.805,72285.94,-556.90015,-85.493065,24.490719,2000.98327636719
72,92750.305,93270.664,92490.01,-219.41257,-1031.9067,-252.35448,2000.98596191406
73,-261113.58,-260109.48,-259639.25,267.95023,-496.0508,-670.5405,2000.98693847656
74,-1274899.2,-1276560.9,-1276131.1,353.77344,-206.79622,650.2567,2000.96520996094
75,316406.06,316331.03,317073.25,-952.6627,-476.19806,-182.7087,2000.99194335938
76,-183397.86,-181659.64,-183644.66,-403.56818,28.540426,23.234148,2000.99096679688
77,60819.97,35133.695,36122.758,-11562.763,-300.37146,-2331.1523,32450.322265625
78,-8702.327,3079.5608,-7423.3345,-11712.354,-1254.8035,9688.005,28691.6953125
79,17316.377,17532.035,18002.146,-91.379135,-1026.965,385.58353,2000.98522949219
80,11488.191,12670.158,10903.773,374.74435,585.4896,-204.03722,2000.98486328125
81,61690.305,31283.195,64733.53,-1131.836,-4070.7537,-2942.2876,33255.328125
82,-143063.66,-115454.01,-142515.92,12198.78,-949.133,-570.8364,34606.08203125
83,-39262.957,-56743.88,-59944.2,-13923.8955,-1469.9252,2170.357,31209.08984375
84,68877.25,66689.64,102850.39,-962.8732,6689.3994,1204.074,37076.33984375
85,-56952.645,-42781.016,-48254.598,15893.825,11950.012,7339.7227,38743.89453125
86,4649.063,3823.8315,33589.52,5071.5205,6727.8193,-5916.6753,34352.3828125
87,246762.0,276844.75,266993.94,9614.367,-4015.3105,-6094.4966,33804.96875
88,99552.766,106895.34,117732.25,-15953.6045,-31.26978,-6122.016,33569.5625
89,-187698.44,-163046.27,-159560.52,-2210.278,-493.7357,-1731.8553,27022.15234375
90,121964.11,141004.25,147731.11,471.74042,-7046.913,-3392.5625,26833.392578125
91,21035.7,21307.746,21472.023,-785.3016,-74.05092,-727.36426,1897.21130371094
92,27493.652,28932.066,29491.809,-230.30064,153.03929,-442.3709,2000.98522949219
93,-384427.84,-385784.16,-385464.78,831.0607,-248.03738,-282.23856,2000.98498535156
94,-83677.984,-82579.77,-83611.82,-475.20294,249.2881,-816.9603,2000.9853515625
95,-145358.53,-152467.22,-177330.16,-2735.199,-2233.401,9731.044,34160.3515625
96,53007.438,50999.22,52108.37,-180.6693,-6.2736764,-538.566,2000.98559570313
97,-502986.2,-501228.94,-501251.16,-526.94934,67.9515,-189.45152,2000.98278808594
98,-206597.97,-206343.08,-205541.53,-871.7587,357.86768,377.75446,2000.986328125
99,-140.3823,-4304.346,2480.63,-7292.0596,-2997.8743,-5992.5947,18147.72265625
100,7917.9395,6999.188,5732.592,388.2673,2941.3833,-69.47814,5480.32861328125
101,31525.643,30172.268,31468.752,88.14914,397.77405,-763.34644,2000.9853515625
102,9021.478,10901.412,9730.67,-470.10504,-58.292267,457.12057,2000.98486328125
103,-3119.1633,-3032.0234,-2927.3564,981.80963,-551.1692,-240.18109,2000.98559570313
104,19777.54,19849.129,19652.008,-759.17126,256.79913,826.07764,2000.98547363281
105,84166.625,84158.41,82832.984,768.4544,377.00546,112.93827,2000.98352050781
106,3911.9473,7505.2153,-22173.176,8685.263,-3634.222,5085.999,33624.4296875
107,14105.594,15990.494,14457.379,443.7272,353.58484,90.690544,2000.98596191406
108,-34880.22,-16317.807,-20561.781,-2285.441,-12302.519,13505.057,36064.9609375
109,-89668.17,-92092.3,-108720.766,1632.4004,1540.3279,-2581.0217,18915.30859375
110,341292.44,328789.3,349987.3,1085.1409,-1603.5714,-2041.7866,19089.150390625
111,212778.3,212146.67,213196.0,-660.3598,747.50806,-246.41495,2000.98706054688
112,-125683.67,-106114.3,-110703.484,3332.59,-3876.8198,159.45111,19816.59765625
113,256955.53,251798.22,258690.33,6992.6714,-14047.186,6643.228,30159.8125
114,151410.44,149979.56,150454.45,-829.7059,80.21182,329.64548,2000.98742675781
115,-142401.47,-140675.39,-140865.42,-491.72122,245.79243,369.6255,2000.98205566406
116,-349680.94,-348343.62,-348437.7,-862.0963,36.866123,181.4425,2000.98315429688
117,281836.3,282435.5,281481.66,381.4313,321.97583,-923.6139,2000.99340820313
118,-566561.6,-565276.6,-566968.75,-137.90115,450.47485,-530.16675,1961.93640136719
119,44009.44,45472.797,44925.895,-16.549992,397.3321,-793.57947,2000.98571777344
120,344119.6,330400.06,346839.88,1055.2456,-451.14252,-2678.0442,16075.2421875
121,-37794.37,-36187.504,-36860.227,447.2795,432.5798,544.3002,2000.9853515625
122,-53731.242,-52643.676,-51981.582,-58.05989,-478.66934,-567.22217,2000.98693847656
123,167623.0,166432.25,168439.28,-429.3298,516.4963,630.80884,2367.11303710938
124,-526281.7,-526702.3,-529400.5,5673.1396,-7437.5986,-2054.898,16845.38671875
125,351492.44,351707.62,352234.88,-25.542732,-153.1862,-1079.1697,2000.98303222656
126,-46997.85,-48798.656,-47788.53,-703.7976,-24.707653,154.81815,2000.9853515625
127,142788.84,144109.61,144066.86,-374.78738,-586.42456,535.7349,2000.97485351563
128,34057.082,32070.682,31862.531,3297.428,167.329,-1054.3844,6359.31201171875
129,33572.87,31820.898,33728.3,-72.9687,-372.66452,-261.69766,2000.98522949219
130,2237.749,36854.164,22011.418,-2759.7607,-1237.6525,2169.9084,30763.1328125
131,79645.71,119129.14,95382.414,-2538.4749,-1628.2677,-2425.1282,35073.8515625
132,134505.1,170604.34,163348.23,-6089.667,-1269.8441,-3377.441,35272.90234375
133,31900.629,30653.443,20986.914,-11180.141,-1877.5852,-15713.806,35119.609375
134,57448.29,67260.87,39190.445,-14727.497,-4791.9644,-3288.9673,36889.43359375
135,133830.88,133020.12,133895.08,693.9131,-71.52432,781.14514,2000.98645019531
136,41574.47,23317.852,26831.646,16104.759,-7341.026,3152.1177,35370.46875
137,-138910.34,-138705.89,-139263.95,-1008.55524,-477.42606,99.07427,2000.9853515625
138,26730.156,25853.984,27158.385,937.6627,-36.054817,109.77412,2000.98571777344
139,116076.95,115689.945,116420.18,23.92628,-780.7478,-768.7892,2000.98474121094
140,70511.17,71481.664,70544.97,-831.02167,161.01003,561.0096,2000.98889160156
141,58590.6,57102.23,58179.95,774.2133,-296.35666,237.74303,2000.98645019531
142,321875.75,317662.06,348576.5,3199.5984,-442.68393,723.5149,29598.384765625
143,-3544.755,14406.077,6633.89,1609.9877,-6111.6875,1445.2928,19215.177734375
144,454759.75,456715.12,435047.22,2839.3364,8932.844,-40.47961,26353.94140625
145,133858.62,131979.14,133074.27,-93.804535,-653.4279,87.76963,2000.97534179688
146,99754.57,98520.67,99768.83,279.63474,-133.30153,851.6168,2000.98718261719
147,-194588.7,-185213.1,-186651.25,-2002.4194,13964.808,-5985.234,27946.95703125
148,26081.434,8473.999,20522.32,4.7273607,7163.6113,6976.3774,23302.4765625
149,154845.75,158218.38,154051.39,32.469627,646.0813,-2015.1254,5303.04638671875
150,7620.9434,9070.898,9277.509,-135.40869,-282.35306,-649.3926,2000.98522949219
151,2664.841,4169.9077,4039.4963,-473.38098,-522.7936,376.73135,2000.9853515625
152,2624.3262,1417.7106,2014.5552,-141.85965,-229.65726,-947.51605,2000.9853515625
153,-97341.99,-97067.0,-96164.35,275.4529,235.51773,907.61536,2000.98522949219
154,-21117.588,-11819.599,-22283.086,-1675.6635,-8052.7993,-6478.4155,20676.64453125
155,12816.647,13278.336,14807.446,61.016773,-99.26466,485.08096,2000.98669433594
156,-910.2522,267.40298,893.88,-671.5027,77.25801,94.63493,1978.54504394531
157,18028.23,16351.041,16313.893,168.32298,-181.58542,-452.36475,1916.89038085938
158,19506.04,18014.639,19166.281,589.93134,-512.2173,336.5464,2000.9853515625
159,-156154.28,-156100.16,-156996.33,-176.661,-825.71906,-607.5446,2000.98547363281
160,-111370.05,-145570.17,-131645.52,10457.033,-1419.7821,2993.952,35331.38671875
161,135681.48,114873.94,140649.33,-5510.4775,4718.158,-9417.179,31383.611328125
162,10055.075,21970.424,-6930.692,-3086.536,325.8821,-9308.639,30360.07421875
163,11121.785,8822.552,11865.144,-368.76373,-4976.8877,1849.5944,9619.1162109375
164,16233.171,17341.736,16899.973,-106.68731,-847.2143,542.25824,2000.98559570313
165,160077.95,158499.08,159320.62,758.03253,124.97922,-347.65063,2000.98669433594
166,141270.4,141192.61,140416.77,991.1807,125.68196,-337.09558,2000.9873046875
167,-1970.9534,-1739.703,-2022.1687,838.06824,-146.03941,767.01636,2000.98559570313
168,-23895.959,-24582.754,-44442.85,2105.1067,2498.9521,-65.75006,20989.91796875
169,56715.684,42613.332,67337.34,-3352.505,3448.9805,6811.6665,25886.0390625
170,45612.824,52085.84,51688.812,-7040.5117,-3804.6716,7586.0586,20106.3515625
171,116624.49,116588.37,116902.23,1041.1443,123.063324,-453.9047,2000.98498535156
172,57653.188,57215.145,58455.668,-348.61075,-607.8095,669.2478,2000.98498535156
173,41120.055,43954.926,66619.05,-3093.9768,-8332.534,-2360.6658,28977.20703125
174,26072.227,25256.9,40861.88,-2955.4548,12870.925,1036.2322,27529.33984375
175,260973.02,260413.3,259204.17,-250.74278,-346.6,-578.1827,2000.9833984375
176,19969.752,21039.32,19603.992,594.8814,226.42561,610.8799,2000.98522949219
177,70482.766,71536.43,70860.96,-993.82056,-7.3699217,248.99576,2000.986328125
178,-26697.445,-35678.74,-55631.367,-3338.2966,6504.2266,12421.183,35793.5234375
179,-11336.299,8684.09,-11627.784,-14084.747,-4634.9277,-7598.9053,35207.30859375
180,-13518.947,-14847.488,-14408.83,742.36646,413.351,-393.01175,2000.9853515625
181,82094.83,82272.33,82084.234,-254.22513,-976.40704,-552.7025,2000.9853515625
182,-583554.75,-583320.8,-567064.06,8713.466,-2412.399,-404.37732,22668.541015625
183,1009661.7,994041.25,1016250.94,-1649.0544,-5865.2837,-2723.9338,22890.29296875
184,9229.338,10183.866,19961.139,-3640.7222,3259.7412,-12989.41,26146.80859375
185,-12650.57,6580.574,-7394.426,-1451.5823,-1700.2964,-7128.9,21536.951171875
186,-172109540.0,-172109970.0,-172116930.0,377.2847,1178.8003,-2136.9023,8362.400390625
187,535230.5,530767.4,540611.06,-539.1051,-1073.8931,-1219.3478,9037.4853515625
188,59856.652,58626.07,58336.33,-634.2722,182.67668,-497.3569,2000.98522949219
189,84805.54,76758.15,100224.516,-1183.2881,-3362.4111,2619.4226,22029.296875
190,62567.703,59618.316,59122.4,-1568.6155,1641.235,-56.21151,5087.19677734375
191,-14131.123,-35800.83,-23131.959,-3297.4373,1268.5679,-2542.9836,20307.462890625
192,13682.962,12870.709,12407.333,-371.4009,-398.21948,-788.1497,2000.9853515625
193,-49088.37,-49379.13,-48505.863,-665.1463,372.48764,-745.4795,2000.98547363281
194,31268.771,33797.14,42019.11,-4238.003,-5879.503,143.71777,15888.0849609375
195,-70453.63,-69939.42,-70363.555,139.6529,-1092.541,-91.52705,1972.50756835938
196,-38081.07,-37869.61,-38993.418,-171.26265,145.37383,-97.77965,1118.07690429688
197,-61262.637,-59809.832,-61025.832,511.12372,-427.8106,531.80444,2000.98559570313
198,105306.125,107293.65,106451.6,-21.232061,397.6363,425.26553,2000.98803710938
199,-13589.093,-12470.328,-12592.342,-750.38,516.39575,-358.10736,2000.98571777344
200,3296.3271,4642.861,3569.2644,207.55066,-190.63322,-424.88165,1516.56079101563
201,12044.377,13275.214,13144.466,-891.2299,48.483494,284.5434,2000.98571777344
202,6198.3433,6678.6724,5980.939,1.7963977,-860.1572,683.5974,2000.98571777344
203,31488.93,29748.213,30992.15,-631.5629,-115.11922,-344.209,2000.98596191406
204,7929.5146,7480.29,7374.0894,1035.3967,-399.0937,-128.0466,2000.98559570313
205,1773.471,1194.7439,1676.1395,1026.8403,-256.6869,-343.99863,2000.98547363281
206,1522.3284,1292.9452,975.75995,-622.1571,-525.1117,-772.33356,2000.9853515625
207,103920.9,90067.83,88791.62,2240.4722,9470.35,-3755.0718,23187.044921875
208,17733.264,21506.57,19195.523,1635.1945,-2151.957,-249.59352,5741.0556640625
209,34408.457,44183.855,4977.743,2500.7036,-5764.351,3243.5034,37408.9140625
210,-18621.74,-14599.032,-3972.3582,-10899.895,-2098.9443,1748.6771,23466.35546875
211,29164.807,43394.055,14526.338,-9877.796,2580.5027,-6195.3896,32448.24609375
212,21202.607,-14345.444,1173.674,-10277.514,-4654.549,2362.407,36762.09765625
213,32661.857,36494.227,68385.73,3286.88,-6391.383,-4723.0615,37092.54296875
214,31113.723,17443.398,39639.19,3693.183,-1202.0842,-1609.8173,20715.58984375
215,-10092.546,-6337.5283,-25737.297,1642.0847,-2154.005,9315.676,24494.0546875
216,35366.418,26273.201,39922.75,11922.372,-12730.1045,5957.2188,34116.5546875
217,-21187.941,-3468.4612,-3140.274,-7797.8936,2651.2544,-3425.8577,23635.173828125
218,-18454.818,-27399.385,-24321.35,-4168.589,-5234.196,-1753.6394,14335.1123046875
219,-80799.195,-75749.88,-106554.66,7443.843,9199.037,-1950.2955,35360.953125
220,-44556.234,-37548.9,-64270.516,-16933.535,-2316.6016,1891.2616,38248.72265625
221,37052.617,61017.58,70574.016,-2362.8682,-6244.1,-13924.992,40126.0078125
222,44970.652,54565.633,16729.305,7278.49,2918.9814,-8587.978,39577.30859375
223,82871.53,88992.34,62333.367,-13537.013,8106.83,7430.892,38698.3125
224,25248.336,50944.88,28216.049,14882.788,1982.8962,-667.97015,35643.87890625
225,-24386.738,9496.539,-6068.0386,-3110.966,-8832.843,-5302.4805,34790.72265625
226,212211.5,188305.33,193981.02,-9251.863,5194.649,5334.2456,29851.986328125
227,-177867.61,-180501.39,-189410.75,-10024.659,10458.35,10384.845,32602.552734375
228,59225.535,83580.35,92089.06,6201.0327,3927.721,-10592.726,37027.55859375
229,50812.03,23574.309,54670.6,2165.7231,2782.39,-6959.8364,32318.6484375
230,49202.477,47226.03,53943.688,9065.403,-12524.612,8847.704,31428.396484375
231,57688.707,55759.43,57166.887,-280.22507,47.00426,-507.9643,2000.99011230469
232,94537.24,93939.77,93818.96,546.3472,-880.58496,-335.87115,2000.98718261719
233,26615.51,26072.342,26608.604,-290.23648,778.9883,739.2418,2000.98559570313
234,21974.805,23499.068,23448.096,-181.96213,-376.3836,-640.6591,2000.98449707031
235,40164.5,41980.6,40746.086,-496.9692,410.6249,-242.83893,2000.98315429688
236,64749.855,59827.566,59872.52,3193.4417,1439.0317,-5395.1387,12171.232421875
237,97433.81,98052.56,98103.03,-901.63605,183.11136,591.01324,2000.98681640625
238,-1402405.4,-1423658.2,-1414297.9,1271.4375,8385.807,-8772.73,28054.65625
239,-26260.943,-17411.348,-20862.078,-8201.128,3506.3943,1620.6825,17499.287109375
240,3080.978,24678.477,38729.0,-9734.587,5505.74,965.2955,36678.96875
241,439978.84,442883.97,452539.12,5829.3213,-3218.6702,12550.9,27116.58203125
242,-852095.7,-852103.06,-850860.4,300.34818,-133.86327,845.45776,2000.98559570313
243,356755.06,365098.9,350131.47,3587.566,943.8625,-6821.657,18698.86328125
244,145616.97,145184.36,144914.45,-181.02017,-796.37524,894.0503,2185.33471679688
245,182373.2,181515.64,181285.94,-786.9295,310.14825,-539.27057,2000.9873046875
246,5891.003,4250.238,5631.2915,415.40878,-356.80157,-506.91623,2000.9853515625
247,68782.17,70187.0,69116.56,-491.01886,-322.20392,671.71967,2000.99084472656
248,6142.962,6904.778,6684.6562,-530.09357,687.00757,-654.18695,2000.9853515625
249,4446.878,5185.6104,4883.277,9.2185335,784.5321,762.3272,2000.9853515625
250,274126.66,274561.9,274560.78,636.93933,908.1884,-202.89226,2000.98571777344
251,174277.1,172825.42,174305.08,-701.605,311.84235,170.00075,2000.98596191406
252,56198.59,55623.273,55202.027,-1038.4547,-17.986847,75.308876,2000.98388671875
253,70849.24,72325.23,72115.23,279.56354,777.64856,-119.11553,2000.97924804688
254,88457.22,90401.94,89939.734,393.36218,-169.49252,-344.8938,2000.98657226563
255,39796.742,40102.617,40022.54,-738.56494,-94.21117,868.9848,2000.98571777344
256,52482.035,52349.566,52810.324,1099.3107,-47.70375,-180.48076,1974.5400390625
257,30104.594,30509.627,29643.602,645.52094,357.07687,556.35516,1767.61975097656
258,-1105457.4,-1104625.5,-1103758.8,-337.29456,252.90866,-659.9151,2000.98840332031
259,16786.54,14802.781,16191.598,-231.24066,-110.10162,-482.39978,2000.98559570313
260,58679.812,58113.117,58846.586,216.37895,-1347.5155,579.0172,2652.75390625
261,42968.03,42254.7,41726.605,229.17813,424.89117,-844.65906,2000.98571777344
262,19301.932,18559.477,19805.71,369.6313,-378.1259,813.6459,2000.98596191406
263,16081.263,15731.078,16232.284,-161.19012,151.62096,-61.277424,597.076538085938
264,-654920.94,-655388.56,-656286.5,-465.21997,782.10284,-157.83092,2000.984375
265,13671.389,15026.694,15128.564,-423.4903,-260.30954,38.349506,1652.58081054688
266,105543.43,101280.32,104768.08,6808.22,3108.0383,8049.1274,19438.892578125
267,10725.103,12028.567,12020.599,-706.1074,-488.38962,185.99226,2000.95300292969
268,6696.4844,5360.5874,5247.3125,88.257324,-652.0899,-502.0412,2000.98559570313
269,32689.791,32495.838,32970.52,403.6723,693.3513,-448.30637,1644.64965820313
270,79978.81,78796.125,79962.84,-648.3344,-259.671,251.54709,1741.62170410156
271,3136.7727,3329.9392,4426.197,917.91797,-82.83578,39.9246,2000.98522949219
272,82393.7,94621.54,83701.56,-258.95352,4969.6763,-9716.18,22197.85546875
273,-91679.28,-98773.555,-78837.07,532.50055,5923.914,-10024.63,26720.138671875
274,32194.033,34389.824,10901.238,6919.3096,-1174.5532,2836.2441,26016.556640625
275,-31091.193,-27040.309,-25520.045,-3106.2595,-6177.724,-2539.988,13699.3896484375
276,179673.23,179134.6,180111.27,334.60007,209.89233,-798.13293,1759.83837890625
277,10460.886,12265.381,13631.396,1233.2249,-6756.4727,1473.8445,12474.619140625
278,-412719.38,-425009.5,-411917.94,6196.575,-13902.137,-8477.718,32743.779296875
279,155068.94,148407.14,143303.81,-1890.2327,-9081.622,1270.9722,19168.03125
280,-255997.34,-260762.98,-265797.53,311.8385,-2124.2097,-584.79645,9322.302734375
281,-142342.1,-142159.92,-141939.83,137.23201,994.5753,534.8464,2000.98547363281
282,90978.05,99540.27,130660.96,4146.724,-1046.3588,4823.3247,37854.1328125
283,-23732.525,-13124.955,-54807.742,7019.749,-1846.302,1412.7936,39646.78125
284,-13355.17,-4317.977,-22294.75,-17522.57,3578.6853,-338.48,34673.64453125
285,3461.2937,1912.0188,6951.1826,-561.5354,1991.1254,-2719.2961,7416.859375
286,3017.9124,16582.752,12638.927,-15872.094,-0.7884671,-7812.313,32938.24609375
287,21758.105,22590.588,21197.55,-226.37666,-424.52872,527.9518,1733.35302734375
288,848.127,71.64877,744.40393,180.60626,-60.728413,1058.5974,2000.98559570313
289,70606.33,69735.16,71095.39,-520.4082,-127.905106,-756.79224,2000.98388671875
290,9730.224,10389.684,11698.153,-101.61604,-457.03717,334.88852,2000.98510742188
291,15410.557,9391.53,18765.889,-1829.95,-5549.5977,451.64822,13066.5595703125
292,-412840.06,-385072.75,-417508.88,-4303.1616,-6904.2656,4273.1895,34289.94921875
293,71671.57,70524.31,72430.82,-55.668293,-356.68597,532.0587,2000.98669433594
294,514632.5,513415.34,514972.7,678.7217,-139.30022,429.12045,2000.97338867188
295,551701.5,548256.4,534200.1,1473.1127,291.1103,7702.201,21038.267578125
296,-49949.543,-31957.73,-37975.793,5002.8926,-5957.2046,9983.487,27059.345703125
297,24244.33,4045.4912,29436.857,-4803.9683,-1911.7726,-16197.304,37511.26953125
298,-31196.326,-42771.383,-47754.6,1644.1302,-8468.47,7593.778,24753.7109375
299,-64594.113,-43912.906,-69853.086,4548.4736,5315.7363,-16874.547,39562.84765625
300,188175.98,199060.11,179031.2,-13831.01,-316.16428,10685.028,34904.5
301,11389.854,10881.373,10123.959,954.42816,-129.11816,35.46165,2000.98608398438
302,7580.1953,6335.65,7421.697,836.273,-28.23625,419.02133,2000.9853515625
303,34850.73,33634.48,33385.953,251.79291,-81.3037,-806.3524,2000.98571777344
304,26035.59,24501.375,24811.324,140.4781,248.88666,-691.22705,1911.22351074219
305,-51710.125,-45876.57,-38640.445,-1230.8447,-6146.342,-4517.242,17541.326171875
306,32641.428,32937.176,33409.906,167.58362,-1050.7335,228.6334,2000.98608398438
307,258300.56,290802.4,257825.34,2552.2085,450.27725,5440.844,34365.66796875
308,39249.61,39630.02,39658.203,-718.1012,-686.69135,543.46814,2000.98571777344
309,32361.217,32343.516,32555.645,121.56796,-1089.9711,343.48154,2000.98547363281
310,16884.992,17243.574,16409.518,-664.8728,846.8546,19.42832,2000.98522949219
311,97885.97,97948.086,96980.0,305.16907,530.0483,-816.65894,2000.98669433594
312,40147.742,56520.332,78663.5,4370.28,4228.1777,-1585.4255,35205.0234375
313,88308.39,101073.805,89715.234,-10942.339,3273.954,-1414.4342,23331.06640625
314,-121694.734,-116203.65,-133750.3,9468.209,-10401.523,2142.8896,29137.23828125
315,-57629.37,-55771.49,-45702.477,2361.6965,3570.8713,-5008.4497,15930.58984375
316,5215.345,5300.476,5767.4336,165.61404,688.8402,862.7682,2000.9853515625
317,12422.491,13676.892,12138.164,-447.01822,97.30777,-674.54614,2000.98522949219
318,-97075.29,-96409.336,-96068.59,-993.29865,-283.0758,-75.5068,2000.98559570313
319,-97991.28,-85411.97,-86377.266,4700.61,-7836.558,3101.3958,20649.60546875
320,-65670.94,-36313.082,-68585.9,3139.7004,2055.1235,-639.4587,31613.732421875
321,42316.27,31943.404,15932.778,-12526.268,-11287.656,1566.0873,37287.078125
322,-64842.34,-35404.137,-52634.727,-11451.156,5865.5396,5193.7217,35125.32421875
323,-14187.975,-35843.523,-14250.062,-7338.4106,3335.7312,6459.6895,28066.759765625
324,-29169.578,-22409.025,-28259.06,642.71893,-6486.9146,1989.0059,13406.20703125
325,14337.652,4760.8296,-5835.2583,-1499.2792,4567.1553,-440.441,19374.51171875
326,39047.87,46601.363,29749.22,-4382.643,1060.8267,1459.914,16767.53515625
327,-454127.06,-468853.22,-449087.2,3644.2803,844.71796,-7542.211,23002.517578125
328,160976.77,155719.16,187403.4,-2010.2648,5186.396,6604.956,32994.6484375
329,437385.12,431756.8,455368.47,-598.32574,-7213.3706,4496.627,25963.927734375
330,-241048.83,-249313.97,-226625.53,-1702.4493,-3777.495,-4766.2007,22698.193359375
331,-26785.305,-24171.902,-18873.945,937.37695,-95.6206,3932.6353,9889.6025390625
332,6283.956,6931.762,6156.7183,-30.70716,673.91754,-840.70447,2000.98547363281
333,256738.33,257430.03,257969.45,852.9382,373.03152,-295.20416,2000.98815917969
334,225740.88,225121.62,226615.83,-289.56326,201.10255,-804.2078,2000.986328125
335,99.39276,962.2587,407.49826,997.8016,174.96198,342.3792,2000.9853515625
336,15206.309,15651.353,15925.421,335.38568,187.73549,-144.17001,949.046630859375
337,8995.465,10002.113,9925.848,167.0443,993.9752,-68.03817,2000.98571777344
338,-135301.4,-147080.6,-126472.29,-1758.7034,11478.604,-388.23782,26938.982421875
339,64159.34,97366.195,96171.625,9496.022,-1493.4501,1872.7335,36772.140625
340,-121977.24,-131289.72,-158126.88,4490.726,1927.9006,-3524.6628,34143.74609375
341,685612.4,684937.4,674066.2,8102.1484,-9585.607,5065.194,25990.978515625
342,-151086.02,-145016.16,-165570.02,-9473.632,10032.53,10406.562,35080.46484375
343,-117986.58,-115724.04,-118210.18,-13336.29,-4452.569,-14156.505,34640.1640625
344,37472.24,26395.9,28678.71,-19364.924,-541.1274,-5933.194,36525.3203125
345,-11692.011,-27068.58,-22250.236,-4481.394,-14198.413,-10955.546,34794.69921875
346,-71924.086,-79278.6,-63254.867,480.56052,7763.9253,1611.119,19552.9453125
347,45315.19,62306.2,44972.21,-5161.0293,13824.606,-10218.552,35512.87109375
348,10728.603,18670.727,39250.016,-4752.5933,-3014.5886,13927.296,36427.4765625
349,-19048.61,-22226.63,-3266.6228,-9764.323,5275.192,-3587.176,26785.048828125
350,-43578.625,-32437.732,-59346.348,2780.681,-3567.6982,-10247.671,30411.07421875
351,-172863.25,-211469.2,-192732.45,6137.8813,-4166.09,-2830.5374,36156.0625
352,-1891721.9,-1899926.5,-1923252.8,-1859.61,4983.8203,-11124.634,35482.04296875
353,-111876.87,-117761.336,-95809.27,9556.091,-9545.76,12256.635,37220.16015625
354,-3465201.0,-3467192.8,-3483509.5,2876.0176,7138.056,-13977.308,32656.81640625
355,-85168.13,-79418.484,-82002.36,-815.80566,-1539.1138,-5750.984,11541.3681640625
356,158992.22,157714.64,171404.89,-7915.145,-6221.059,1624.4235,21989.4140625
357,-26502.383,-36304.61,-4913.9917,-4875.6084,-5697.781,2793.4585,31078.5390625
358,-8153.8623,3176.1746,20163.33,-3099.6575,-12603.537,-3028.3613,33797.66796875
359,-10961.173,-19202.953,15682.315,-9620.124,-297.38644,6566.9985,37478.984375
360,8203.856,10857.44,9745.287,3183.4617,-63.81036,-858.53345,6160.67724609375
361,-9215.022,1879.5581,-16239.57,1723.1375,2807.3777,1132.8041,16934.279296875
362,-51524.848,-65157.46,-94024.18,-910.4358,5807.439,-2258.4106,39136.0625
363,-7104.6416,-3265.5366,566.7156,-7667.4307,-4102.2666,-4623.8877,18306.625
364,17192.14,20030.738,11285.624,-4499.9507,-4388.7837,2428.0483,13997.4990234375
365,-20139.709,-12277.038,-38282.09,-5369.364,-5128.453,-1126.4982,26510.666015625
366,-28212.729,-19818.297,-33502.332,-1593.7328,5070.0967,9291.141,22058.17578125
367,2621.2673,1947.9551,33197.13,9380.6,8194.472,-7397.755,39818.828125
368,-6406.155,3583.4124,-5446.5957,-7949.686,-53.017815,10943.345,25298.181640625
369,23464.83,15414.756,19109.582,13808.653,13565.898,-10715.911,38953.0703125
370,-6149.8506,-27165.652,1389.9727,-389.678,8473.831,-2460.5608,29849.697265625
371,-28298.754,-32027.893,-32897.92,1126.2103,11584.253,-2705.6968,21124.869140625
372,5258.4644,6623.958,-2754.6846,2084.8047,-1026.6414,-2960.7085,10932.3203125
373,16204.988,12631.264,-325.05957,-279.62228,948.05817,2339.102,15693.4814453125
374,3247.874,3317.7183,-3020.2031,722.6072,2529.1255,1897.4507,8443.2412109375
375,9662.268,12993.484,7532.585,-1414.3837,1894.8921,406.11063,6324.16455078125
376,-28591.992,4312.174,-30764.473,-2176.9502,-1168.5956,11661.915,39814.59765625
377,-66022.37,-66337.555,-66052.65,-22166.525,-3906.538,-2342.2903,39196.90625
378,13329.485,19775.92,27563.316,917.53314,-1568.9331,-1193.2281,12906.689453125
379,-3065.5796,402.5504,-2165.8604,5467.8594,-4654.3105,-2136.5166,13345.0908203125
380,13041.391,-14677.74,-5186.758,16989.072,-1813.3567,4387.6143,39100.52734375
381,-153824.64,-156909.02,-179280.23,-3068.8193,13386.717,8052.9067,36597.80859375
382,248.30963,164.20299,-1355.0913,-595.7236,-17952.906,-11468.496,36946.0078125
383,85576.48,87744.23,94826.77,1625.4988,-629.3794,-20819.393,37143.92578125
384,7604.8755,2360.189,3965.548,-8183.204,12627.234,16548.316,39018.4609375
385,-683.124,6064.906,13884.536,2009.812,12773.486,-1297.2365,25808.951171875
386,9341.843,9637.678,13296.721,1694.5208,351.88458,-6075.437,11587.798828125
387,-34255.402,-28684.672,-58623.086,5941.5254,-1200.8062,-12756.189,36864.0078125
388,-2108.7798,6186.8706,10728.149,-4525.769,5212.4355,-6906.663,20326.732421875
389,3382.7256,17779.91,20910.846,-4426.3745,4036.623,-7610.1304,23314.4140625
390,-15058.542,-1295.6382,-1243.1548,-7007.084,-3459.5151,2562.434,19825.31640625
391,10364.95,-1209.7173,3718.8125,2749.0625,7897.7363,-1923.6886,17947.52734375
392,1888.7405,2239.9634,-2940.0923,767.89087,4453.2354,2545.7063,10287.9404296875
393,14514.723,23191.197,-8043.9346,-2349.2815,967.0054,-8122.4316,31578.287109375
394,-7211.7344,15382.023,14736.258,3963.3396,6648.9155,17366.768,39760.1171875
395,8662.993,-2707.6338,-8238.475,-5230.0723,-3352.1826,11233.947,26779.611328125
396,7787.081,19445.87,7856.0,-3289.8105,1746.0881,848.84515,13375.5458984375
397,27637.55,18550.682,33079.414,-2938.473,210.9619,1376.218,13905.1748046875
398,2330.9583,-2922.2979,4079.1836,2359.076,-9298.493,2087.1804,18138.01171875
399,8004.8584,7934.0913,20405.992,629.697,2292.006,15266.614,29509.806640625
400,61459.105,55546.844,95077.65,-6594.5127,-3818.6426,-2707.2258,39498.33984375
401,54761.977,58994.742,60969.926,18530.477,-10430.048,6060.4766,38689.26953125
402,26079.023,51489.438,24478.236,-11514.187,6725.7485,-8618.69,38015.921875
403,-59120.11,-37362.55,-71630.15,12603.453,-1827.593,-6110.8306,38738.4609375
404,79622.7,85631.97,111024.04,9098.603,10954.331,4782.292,38864.03125
405,5657.7705,-9668.166,12153.488,2859.1145,894.51324,-5194.3677,22011.361328125
406,64117.996,68657.984,42084.477,-1320.4744,-6929.719,-6620.7275,29781.125
407,701.64453,-15799.841,-16003.913,-3825.549,-2131.111,10927.123,26295.314453125
408,-26052.45,-38936.42,-20828.04,15902.756,-4280.0513,-1563.6361,32887.484375
409,12620.301,-4064.7935,-327.02832,-8898.55,-3074.2974,1123.459,22353.775390625
410,-1681.8262,9513.529,27626.85,-25.08516,5845.6045,608.9548,27565.212890625
411,-8778.594,-15976.596,-14381.227,-20.828575,-1852.2556,3678.096,9682.5615234375
412,42249.152,35417.637,73191.945,6112.4053,3311.8572,120.07052,36885.5703125
413,61672.3,61805.703,69257.445,89.934715,-3210.6545,3173.685,10849.255859375
414,-38432.3,-36228.016,-68483.45,9702.534,-2314.119,-10203.812,39812.16015625
415,9987.517,10517.52,8394.403,181.69469,-283.29678,-16.983,2000.98559570313
416,-26999.838,-32422.578,6450.6484,3408.3757,2363.6284,3994.598,37804.9765625
417,18284.098,-6492.2734,4864.172,2251.4988,7050.2925,5071.53,26513.294921875
418,-74651.23,-83275.41,-101910.94,-3332.683,8804.822,14849.448,38856.00390625
419,143359.25,151605.03,153357.14,-159.27644,22014.691,-1021.55396,39276.671875
420,131892.84,131828.55,130391.4,186.91629,226.7182,726.40283,2000.98315429688
421,-12674.547,-3094.6826,-9895.288,-7209.3965,257.77814,8141.824,20684.935546875
422,-20345.465,10270.808,14527.831,2075.69,-6219.5986,-6670.577,36718.90625
423,81762.49,81011.48,81063.78,-205.74841,-182.45972,995.137,1930.08898925781
424,19735.018,24123.79,36738.715,-2055.1387,2056.5554,930.42395,16177.6943359375
425,54625.254,35221.68,39152.78,3178.5288,-2675.2947,-6739.3477,22443.529296875
426,4164.503,36560.875,2144.8662,10666.69,-5782.2983,3354.9058,39930.42578125
427,3156.0154,4036.281,-13649.316,-855.2484,5179.483,5150.389,21453.2578125
428,3040.4636,2172.4607,-8567.505,5636.8804,-3206.2622,-159.6439,15863.880859375
429,-19984.701,-10793.645,-20204.77,-1077.1984,-3748.804,-2780.686,12465.3486328125
430,-2010.5,23901.004,28964.807,-11663.218,-3573.0452,-2041.7139,35876.96484375
431,3474.5232,4796.924,-4549.5693,-2706.8005,-2448.0056,-2828.5156,11861.9501953125
432,-13829.207,-15829.003,-46974.742,3552.7832,9906.587,6900.4688,38877.74609375
433,53178.062,40603.445,55993.48,-4498.509,6270.3535,5379.7812,21608.75390625
434,6918.2837,-1786.1152,27197.305,-1053.5575,12549.607,-7983.327,36476.43359375
435,-11015.218,-15956.975,-4944.5327,4983.456,2038.2498,-1187.3964,13508.2060546875
436,7656.545,1559.04,-32322.703,5695.36,-2774.4958,5735.9287,40135.44140625
437,-9535.076,-7794.7275,-897.6333,-4071.3643,683.34174,2552.0088,11544.228515625
438,-25427.51,11961.051,-6453.187,6518.7485,1627.6189,10638.831,39031.91796875
439,60857.145,59558.25,96062.29,-3236.9976,1126.6923,-7822.259,38802.359375
440,-8335.872,-10956.174,2600.254,-2307.526,-7828.0327,6661.9746,22092.4140625
441,11604.204,4752.3066,42279.324,1852.0458,5154.1567,-7582.608,38217.3828125
442,1410.332,-1668.3672,-16154.646,4896.8506,-1924.9167,385.03888,18639.412109375
443,-43082.203,-53285.836,-65909.75,-2239.1462,4092.924,-2432.7913,21802.291015625
444,-19847.994,-31232.62,-26574.23,6519.973,4092.5022,-4241.1104,18166.265625
445,4770.7676,510.25732,-9336.673,-4457.3037,3599.8171,3107.6597,16867.669921875
446,-8477.498,-4775.9707,-5352.0854,-7393.904,-6717.1074,-2046.2394,17995.27734375
447,737.2344,-5312.3433,-11562.656,-3879.4285,2492.4878,-3460.0242,14600.6240234375
448,-82478.29,-50387.812,-86898.945,838.9195,-2923.687,-1032.5929,34959.34375
449,6355.6133,-4737.7676,7682.504,-4975.031,2635.6704,704.883,15366.427734375
450,11049.857,-2043.7953,-8753.643,4851.7983,10645.672,-7488.3335,29717.982421875
451,39890.42,33486.89,20971.918,6944.6265,-6729.155,1691.9513,23809.3671875
452,-23953.895,-22919.385,-31857.117,1299.2249,-6762.476,-3105.6665,15585.2431640625
453,-12593.404,13363.632,-1339.6201,-5927.237,-5415.3745,11642.339,33291.2578125
454,-16709.416,-2994.8672,-13278.723,-4731.3584,3392.3154,-352.07767,15964.35546875
455,-3990.2673,3060.4573,-1501.2362,1825.8372,417.77988,-4084.83,9946.8935546875
456,15417.303,6398.4536,4157.0864,2321.4492,5353.663,-1290.1335,14619.2939453125
457,-10570.76,-7895.321,-26247.299,1626.2012,-1376.5322,-4032.8062,18901.380859375
458,24709.426,34491.44,30646.121,17585.912,660.98773,-7080.2256,33946.30859375
459,-55322.848,-39323.574,-54102.047,-7465.469,609.8487,82.67879,20156.16796875
460,49196.453,10562.096,21632.688,-5021.557,4491.7954,5484.529,37601.640625
461,6042.124,-4767.0195,7406.9126,6157.2915,-2041.898,-941.4079,16197.4052734375
462,28259.387,21093.594,38915.36,354.95712,3983.8281,2232.5718,17441.34765625
463,2282.4636,-2218.8594,3171.2085,633.9036,-3041.3242,1825.4235,8000.205078125
464,11430.125,7271.7256,178.09131,1807.3146,1014.5404,4136.18,12701.2236328125
465,8727.48,-3594.365,387.2339,-867.943,-73.777504,648.7992,11052.578125
466,-9224.36,-3426.3037,-10590.346,-779.7672,-1295.1252,-1700.4773,7676.87890625
467,-9418.364,1783.228,-9225.67,72.87681,-4358.941,-1771.9838,13776.4697265625
468,-5632.501,-7566.26,-1944.6167,-2902.1775,3423.3857,-6302.7007,14285.310546875
469,30892.865,11052.712,37578.883,-10337.359,-979.2161,-6142.3037,31743.1796875
470,67574.836,88330.63,47160.93,5280.043,-3842.6448,2104.0986,37582.625
471,9561.962,1933.395,5005.452,-9344.061,2396.7356,2397.0442,18455.408203125
472,-2594.9023,1834.7798,-7276.2236,-2045.1882,1908.6459,-3969.1604,11533.1474609375
473,11212.562,5223.969,19211.902,1366.4324,-5209.613,905.4329,15402.548828125
474,70169.016,81411.33,61077.555,4041.1318,-11467.319,11695.14,34133.16015625
475,2050.5234,-11360.916,-16494.152,5978.1235,5542.553,5411.399,23712.533203125
476,-93001.71,-73732.125,-92751.03,1106.9829,-744.42236,-11853.373,28167.275390625
477,5883.5156,4556.525,18474.633,-7733.6597,2124.305,-491.5792,19253.490234375
478,-124326.445,-131994.66,-162756.34,-9076.187,-3681.1965,-5169.635,40111.4765625
479,4891.275,4134.149,-7882.475,-6179.882,-1395.6167,-3212.6365,17477.12109375
480,-2118.8381,-1487.1687,-11226.408,-2244.0447,1595.5271,3810.2751,12465.90234375
481,9082.963,10063.819,4500.909,-3956.597,-838.74023,-500.61368,8733.72265625
482,-11958.978,-23425.66,-27646.191,-1799.5504,-226.6452,2095.8647,14857.333984375
483,-15312.761,-23096.65,-37394.16,1887.3424,-1211.2977,-5629.2954,22055.673828125
484,10519.048,2491.7537,-4342.738,-1544.5557,4898.3516,1313.1617,15821.564453125
485,1561.2338,8753.3545,-10122.537,-833.6674,-5460.157,-1675.8384,19292.962890625
486,-4441.9893,6361.1147,13551.971,4473.907,244.13193,1185.9724,17622.287109375
487,4994.1973,11791.959,-1959.3916,-785.4782,1057.4069,4203.956,14144.1083984375
488,-24839.799,-27393.674,-20441.654,159.21927,-764.7039,-257.445,6255.1953125
489,4400.1865,3485.418,11814.247,-6874.639,1082.1901,-3272.8809,15492.5107421875
490,-7019.344,-4057.5327,-13852.768,-3483.4102,4235.286,-8918.615,20113.373046875
491,-2033.7751,-846.1614,13484.095,-5926.4336,446.0592,338.38867,18168.482421875
492,4764.8105,5361.607,16861.447,-2054.937,-2697.1604,5564.86,16335.876953125
493,24585.582,23874.32,3137.417,-11441.034,-7437.7266,-2669.7466,32020.43359375
494,2295.3857,-6150.972,-11423.8,-441.1626,1437.5055,-1017.41766,12392.2724609375
495,-6668.7314,-16221.125,-5912.914,-211.44096,3797.8076,-1680.0419,12284.5888671875
496,16706.736,10092.933,28598.398,281.11777,628.02704,2555.7122,16876.56640625
497,-18760.115,-6507.4487,-1450.9521,8015.541,4025.0168,1951.7545,22145.62109375
498,-7806.906,8011.2607,665.37305,-211.48643,589.4793,874.7924,13836.560546875
499,20181.12,11133.8125,16641.473,-4004.5837,1869.3501,-1902.1088,11480.6845703125
500,-10333.71,6804.8857,-19760.662,4956.818,10509.881,-2050.4766,31013.8671875
501,5959.981,4489.224,8787.888,-646.2808,-6551.0303,-4627.884,14442.0322265625
502,4410.8755,2060.7507,-8978.6875,-3071.8445,208.67131,-1073.2693,13609.9736328125
503,-10514.804,1019.66846,-4743.5586,573.5405,396.13095,-5288.666,13607.005859375
504,-33695.473,-37499.76,-10116.375,6573.6157,3181.794,-353.3034,28644.91796875
505,-19058.432,-16337.901,-44009.56,-4896.6543,6324.9985,7611.436,32612.73828125
506,16494.346,20862.057,6274.218,2878.101,3528.4097,-3621.5354,16422.923828125
507,47733.086,59634.023,79866.54,-514.55945,1807.8367,-5667.415,29978.83984375
508,-77132.29,-76179.88,-114612.09,63.169353,-1809.6565,-3708.7507,38632.109375
509,27342.932,17486.031,32149.48,-3401.0742,-3482.013,436.1117,15468.8330078125
510,434.01416,-9786.397,-5046.3745,277.6546,-2653.2075,3822.4448,11985.9375
511,7131.7134,3069.674,459.2019,3924.2173,-3024.2017,1741.0796,10800.392578125
512,6506.6387,15707.374,4974.14,4497.2207,-1406.8057,-20.946365,12950.513671875
513,-5349.1416,-2720.428,-824.1821,2765.3738,3589.725,-3494.7607,10664.46875
514,-10759.3545,-4719.6206,-17802.15,1098.9384,-3335.218,7572.124,18374.470703125
515,514.4624,3231.4932,9292.928,182.30165,448.25937,176.35434,7835.06005859375
516,72853.27,74374.6,112303.41,-484.16864,2182.9534,1037.7295,38946.63671875
517,-43623.83,-38773.312,-57539.848,70.63329,3156.9846,-3562.3142,18779.453125
518,9335.36,7147.1846,12542.523,-3978.2246,-4612.3677,4036.9482,13501.234375
519,8774.213,-10718.542,14734.82,1886.5574,-1759.3789,-3233.4072,24145.66796875
520,-3429.7866,10426.384,-22711.531,-8101.657,-1502.0795,-4890.2837,33262.203125
521,39516.242,23882.473,57794.617,-12607.109,1750.8734,6056.197,38214.140625
522,-4293.199,3509.2983,4258.385,-1321.7592,-1956.1007,202.51225,9172.1318359375
523,-10410.217,1419.8877,4726.289,2993.29,4126.2715,502.11557,16392.4609375
524,6873.6816,7452.961,3627.1377,-322.75537,-1312.6965,680.1555,4430.13916015625
525,2321.3557,6331.756,9092.941,9514.401,-1739.6138,-1056.4099,17854.388671875
526,-9834.894,-16951.27,1407.7539,646.3626,-670.5551,-6029.8833,19202.28125
527,-3281.942,-10638.614,-2845.599,-4795.978,-3214.4346,-1086.0885,12691.0126953125
528,-3059.5725,4198.571,5734.8184,-251.01022,1996.4535,4909.1284,12273.390625
529,4306.781,4748.9194,4483.291,4952.813,1683.7767,-2419.7256,9990.505859375
530,-3069.415,-156.6676,9081.452,12052.566,7465.958,-8882.083,30990.7109375
531,-432.75684,-3662.653,-12836.711,6160.519,5464.1523,3729.0908,19219.0546875
532,-5841.6885,604.46045,-8202.068,496.6344,1345.8325,3881.1917,10663.220703125
533,-30712.887,-34858.195,-59056.68,3843.0913,-4383.5767,-2238.7612,28636.546875
534,24154.566,6559.915,22729.742,-834.5731,4419.413,2871.471,19286.052734375
535,5806.35,-4139.917,-3512.9697,78.63556,-5257.482,300.49905,13277.7373046875
536,2452.947,5330.719,-740.1621,2371.185,-109.280014,292.72122,6695.29638671875
537,-25554.83,-12123.435,-4347.1816,-3420.606,-1882.6161,-702.71783,19812.4765625
538,-5656.783,-5466.946,17306.758,-1126.2173,-10149.329,84.62416,28911.142578125
539,-5320.167,1971.2185,-3715.2856,-8426.95,-1645.8192,2045.594,16666.078125
540,4180.118,4650.3486,-5031.2344,278.99857,-428.64185,3263.0952,11051.23046875
541,-19582.09,-9038.647,-4754.877,-2460.2385,5373.0415,-1445.3708,16903.1015625
542,18394.797,24810.492,47809.78,1779.818,3732.4126,2148.865,27979.166015625
543,-4507.7974,4463.3306,-1042.1359,8217.3955,1401.1158,7776.7153,21243.802734375
544,-12835.647,-21467.957,5230.25,1436.6271,-634.9877,3100.456,24353.30859375
545,-3921.939,8386.51,6773.7163,601.8199,1153.7003,4395.8823,14046.31640625
546,-3123.6094,-15060.131,2540.0156,-2216.3494,2730.6128,444.12778,16728.96484375
547,-2937.6204,-16964.021,1687.8462,-4687.039,192.93474,571.092,18708.517578125
548,-19186.348,-25340.264,-3672.332,-475.8596,-2290.3162,772.8432,19804.927734375
549,2087.3428,-9404.431,-3622.3308,-5151.0776,-4045.007,4861.1226,17280.78515625
550,11690.732,3159.1099,7767.4824,295.31888,737.46924,-1104.8131,7762.97900390625
551,20635.84,17199.732,33043.598,3005.7974,2184.5222,228.34137,15810.4697265625
552,-13249.935,-13708.25,12682.953,-2360.9456,-4663.734,4936.435,28977.3828125
553,6464.218,668.9447,62.664062,-4630.4155,-1653.1328,104.26655,10489.029296875
554,-7681.0454,-2880.34,10324.742,-2652.9612,-1018.87885,610.74414,16916.34375
555,-13693.148,-6428.254,-28029.674,-6567.8955,-1820.6931,-366.53143,22410.43359375
556,-26.892822,2576.231,-5149.2056,1496.2089,-194.82219,-2968.959,8923.1328125
557,3017.2207,9943.64,13736.277,1795.839,2389.9167,-3574.2761,12400.2158203125
558,-12992.544,-9662.763,-26665.598,4893.3823,-3611.283,-831.346,18883.888671875
559,11147.688,9925.2295,2769.7695,5859.544,-665.5555,-2137.074,13396.8349609375
560,-2734.4116,5570.62,21285.816,-1872.5459,5799.0835,850.426,23665.01953125
561,-14685.514,-9432.947,-10657.724,-3789.6257,1076.816,-1818.979,8896.333984375
562,-63352.04,-59520.64,-97176.86,-106.52369,3324.0496,-3973.8464,36999.33203125
563,19585.676,437.3291,14054.037,5615.438,-850.0477,5287.633,21725.119140625
564,-70.41107,-1159.922,-595.16156,-1134.196,2576.1511,-3710.4438,8121.68212890625
565,4969.793,6221.3853,649.05615,-865.1653,-484.15552,2925.6868,7366.8671875
566,-9732.097,-11906.351,-23503.03,672.20807,-6355.192,1054.1968,17037.587890625
567,-3684.169,-2908.196,-1146.5203,2150.5828,-3275.432,-1500.6704,7608.486328125
568,10070.941,11279.78,2022.4292,-4776.648,-4236.6973,-2911.068,14956.271484375
569,11508.054,6814.3564,28208.941,-5062.3994,2039.7133,3183.3052,22340.6484375
570,-3696.1658,-2445.236,-12448.366,-5445.1323,-1700.9261,-2801.8806,14501.505859375
571,-23434.799,-13389.519,7708.9785,-2532.7456,1005.7974,-2236.9856,28200.81640625
572,42790.176,49548.25,70132.336,-5643.305,1218.3904,-7779.8896,29833.857421875
573,-7700.5923,-12837.029,-21680.465,2145.1997,-640.8115,-1757.3925,13202.8759765625
574,23382.182,25863.559,24713.768,3761.7886,4995.6025,-2582.9165,11914.7744140625
575,-26546.957,-34169.805,-31673.342,3193.864,3974.9648,1276.29,11322.5458984375
576,-34323.867,-19791.992,-13158.12,-42.93435,-3360.3599,4032.0378,20838.419921875
577,31528.643,55810.97,63760.92,-43.769775,-4277.624,5980.6235,31750.275390625
578,-15613.377,3340.4534,1799.6888,11852.015,-12747.724,-9965.108,39233.30859375
579,8273.801,7463.75,18071.39,-1212.3358,6338.314,-8003.614,20535.115234375
