Element Label,S11,S22,S33,S12,S13,S23,Mises
1,26370.324,13150.996,22501.062,2394.6006,-12871.105,5937.8115,27541.677734375
2,-25704.18,-30242.506,-38850.94,2767.1504,6074.874,-4319.93,17984.396484375
3,37728.773,26433.656,53160.32,7663.6826,-3282.2651,12049.686,34410.9609375
4,-32345.95,-41386.797,-42538.766,1101.2046,7940.0195,-19745.6,38156.44921875
5,-3290.4392,-12402.643,-13050.679,1981.9738,3147.7375,9640.109,20240.103515625
6,-12754.236,-19249.432,-23575.295,5159.214,7158.466,-430.77664,17976.041015625
7,37304.336,31088.158,45801.227,1646.6189,-7548.7754,5958.4863,21195.587890625
8,-35636.02,-50853.15,-62861.203,3174.5127,-13759.771,-630.61304,34027.9609375
9,12971.487,-3251.4607,33561.527,2888.4648,-379.63272,-11071.949,37608.390625
10,4356.023,-11596.54,19056.16,6857.8184,-8381.514,2397.5562,32774.4765625
11,2.0642087,5555.4424,-8933.525,3571.0376,-3161.0532,-6820.3633,19185.755859375
12,13129.803,3744.4727,15283.301,-396.12384,7617.0386,10572.589,24955.9765625
13,-4892.0615,-21608.94,-18538.266,579.29095,10634.982,-1902.57,24263.66796875
14,37496.87,25754.027,59942.207,3573.7993,11449.042,-3123.2148,36960.53125
15,-35559.016,-35671.645,-34623.027,116.81925,-973.5291,-204.56604,2000.98413085938
16,13755.92,15287.985,-18829.021,5442.887,-4695.374,-8021.1733,38237.15625
17,26620.078,23793.787,21631.084,-7267.012,-13390.436,-15866.503,38345.20703125
18,30218.736,12449.414,11286.24,-7675.48,17664.03,1351.5176,38158.1328125
19,821877.44,821851.3,823327.75,-78.32138,409.302,-667.72363,2000.13244628906
20,63553.793,62544.324,62928.426,685.3469,-497.90857,-597.7851,2000.92578125
21,-6876.129,-518.4492,-17612.348,2576.0486,19521.19,8486.697,40039.4140625
22,-2304.8384,4610.1133,-5106.8896,-11112.8545,-7879.0615,15824.68,37189.125
23,53379.83,29043.217,25034.654,-6994.6772,14141.279,3009.0247,38467.65625
24,1619.3392,-37477.113,-24552.87,-2318.6372,10142.999,-1223.6995,38981.2578125
25,24658.457,35897.883,24158.004,12527.121,12189.136,-12004.583,38484.30078125
26,13540.884,-3068.1382,6490.635,-3614.7646,-18722.5,7502.286,38316.00390625
27,46736.99,41048.84,58373.18,10737.479,14351.063,-5450.8657,35872.265625
28,15938.742,30462.715,37386.85,2442.5903,956.69824,-1134.4755,19594.923828125
29,-22666.875,-19743.723,-12191.322,1489.3348,-17557.639,11620.387,37738.9296875
30,-24502.658,-2375.3105,-38399.582,3677.4392,-4738.8135,-8882.707,36536.19140625
31,16696.104,22004.217,20933.76,-10944.699,-14980.015,7849.5737,35228.52734375
32,5762.0615,1945.4893,21373.98,488.38226,-18953.426,-8305.949,40040.74609375
33,-16178.293,-6903.114,-15533.676,-1496.0353,10472.2705,-7733.7686,24405.30078125
34,42649.4,14326.488,10637.116,-10869.302,3643.2837,6173.3423,37800.37890625
35,5587.7417,2520.5415,-10187.548,-3118.737,-15617.738,-841.1977,31191.748046875
36,8576.535,14722.078,4143.636,-7593.202,-12763.05,15997.697,38911.390625
37,15058.183,7916.406,13509.001,9464.308,10407.686,-1156.2289,25298.828125
38,11176.388,15966.909,-7246.9326,12523.375,883.2184,5774.6836,31992.359375
39,2827.2715,-5851.96,-5066.7563,8324.689,19840.89,4340.7803,38917.1171875
40,-12083.816,322.5989,2580.4011,-9588.524,-6223.997,5059.927,25609.96875
41,4129.833,11020.994,-3209.5386,-724.73175,1593.8256,-6318.9307,16760.50390625
42,-5622.7114,6321.457,-6596.534,-2797.3652,10096.404,-2990.2468,22613.173828125
43,1239853.5,1239437.5,1241519.6,57.447876,198.91272,-254.76189,1991.34301757813
44,720.17303,1108.8127,916.3286,974.89606,-424.70297,381.52725,1985.537109375
45,218857.83,217576.78,218702.83,266.98358,354.14,-805.66327,2000.97717285156
46,-1145.8461,-693.8773,-1420.1263,-399.1564,-142.69814,1010.1824,2000.9853515625
47,87830.1,86551.85,88108.4,787.8129,35.42544,-153.95554,2000.98083496094
48,3121.847,2251.1104,4062.5295,249.20235,-666.5759,86.62918,2000.9853515625
49,126.91656,2352.6377,11911.175,-5540.324,1786.2825,3452.1533,15968.8505859375
50,7133.924,7992.451,9182.684,387.34772,-185.18889,302.96945,2000.98486328125
51,29878.154,36445.766,24949.94,979.09454,4763.5522,-20345.107,37583.34375
52,-105637.984,-103909.09,-93270.94,4700.9526,3706.1897,-10779.078,24302.70703125
53,-32843.42,-59350.293,-44542.06,-3865.385,-12548.993,-5171.1753,33568.68359375
54,24723.01,2209.45,40685.66,2127.1167,5646.1035,-1636.3958,35189.27734375
55,-12703.837,4142.092,11967.358,3173.4373,5126.9316,-12812.396,32838.76953125
56,-26976.318,-8281.437,-35517.254,4213.765,-11300.82,-11012.223,37179.5390625
57,-6149.9263,-19018.082,-968.16266,-5317.3115,-12480.257,-8236.772,31855.0625
58,13326.181,-7641.432,-327.0035,-8681.6,-10626.345,-5209.1475,31401.421875
59,33020.5,17704.877,23173.703,-20204.791,2417.4065,-5739.6494,39010.01171875
60,-18829.635,-42307.953,-19744.393,-10735.831,-12110.629,-2818.777,36608.796875
61,883.6529,-12055.062,-8445.728,-8512.096,-19806.123,-1461.9661,39170.96484375
62,-12419.336,1705.1355,-7096.0825,-15316.685,-12424.173,-8631.386,39281.48046875
63,-7335.825,-10352.007,25059.766,-9.087913,11322.846,443.6798,39261.8671875
64,-12590.008,4638.787,-2013.9116,7689.1445,-14921.131,-13339.123,40069.41015625
65,-14406.756,5697.85,-5721.117,-450.8728,-15911.195,-7196.782,34935.703125
66,-27343.604,3071.879,1230.5352,-3686.9766,-8313.855,-3190.6455,33928.88671875
67,18066.18,-4588.482,21317.385,-65.47498,-4303.2544,6722.526,28082.07421875
68,-2025.864,-1174.514,-64.140175,20526.88,559.1563,-4813.052,36570.421875
69,-16022.326,797.94135,-16329.345,12021.888,-14141.446,-3284.4695,36797.578125
70,25758.814,8315.991,14813.482,-10580.64,-1177.3785,-873.43475,23988.1640625
71,-78251.14,-70032.82,-65160.95,-2470.7048,-1215.6356,-2221.1812,12994.6875
72,-10212.041,6612.401,2939.6665,-7091.038,-3757.7214,4474.478,22091.443359375
73,7493.148,7329.9746,6827.4966,43.993214,-1056.5035,-310.07043,2000.98400878906
74,3313.4768,5084.0947,9751.079,-683.52045,-2232.5369,1304.8988,7392.0107421875
75,-139359.53,-137935.73,-137648.88,643.5619,-48.29975,280.43134,2000.83850097656
76,-154358.2,-152936.53,-153607.4,384.14816,711.08826,419.06772,2000.99035644531
77,-177824.73,-178712.61,-177679.4,-861.37665,-502.4531,-158.78482,1999.34997558594
78,9337.32,9881.611,10352.755,10.802555,-518.2124,-898.7571,2000.98571777344
79,-20975.723,-22018.969,-22064.24,-4265.3516,9142.338,-3806.3262,18706.380859375
80,2835.957,-13425.59,-15564.246,-885.7137,-6091.7134,-6755.9355,23545.658203125
81,-29893.799,-6963.3745,-23779.408,5242.159,9924.265,8593.302,31975.50390625
82,18467.428,9419.35,8716.472,12054.553,7962.312,15104.245,37406.79296875
83,-12386.429,-11390.942,6891.5566,-5034.8286,17232.426,-6108.076,37845.53515625
84,8635.423,-2059.8506,317.23758,-10107.196,-4946.7856,-7591.2734,25443.59375
85,-3022.9138,-19832.77,2637.6436,-4176.7725,-18927.72,502.3315,39212.69921875
86,12662.608,11683.616,7644.385,3489.2278,12622.59,-4638.3677,24500.712890625
87,14293.136,3544.085,19998.582,4667.133,7912.748,3649.8638,22418.02734375
88,-15949.09,-9866.866,-41031.797,4509.235,6912.2593,-12823.4375,38940.38671875
89,34777.67,7668.822,5726.641,1975.8912,6132.033,-11706.748,36427.65234375
90,21383.654,8705.918,1080.6263,-7904.126,1013.74915,3527.6755,23310.591796875
91,-17539.494,-27923.951,-48590.34,-7790.457,-2010.1539,-7176.571,33139.87109375
92,-1043.0842,6361.0444,26812.482,-15995.13,-222.48715,3064.9292,37687.796875
93,27655.184,3509.176,-13189.007,-1384.6931,3791.186,774.7346,36272.9296875
94,2254.4531,-13206.093,-22820.482,11608.763,11446.804,584.37823,35756.27734375
95,-12328.346,-6768.7935,-12749.266,3620.6724,-19174.225,9946.403,38373.15625
96,37817.258,6224.4043,28675.98,3034.2068,3923.7493,4280.935,30358.82421875
97,17438.297,25497.281,24097.252,-1838.7743,-5331.24,21570.598,39330.7265625
98,-5192.949,-22139.0,10082.08,-976.63824,3209.8364,7218.9653,31136.115234375
99,22995.625,24037.443,23793.389,-218.33421,-393.02255,-914.0302,2000.86267089844
100,41461.824,41608.99,40022.496,-611.979,314.44662,304.74713,2000.98413085938
101,-38791.46,-24422.107,-28583.5,10590.443,8396.351,-14878.415,37095.40625
102,-11527.008,-20150.31,8368.514,14897.575,-7118.925,3107.2527,38582.0390625
103,37238.945,28782.998,24458.908,6515.9165,-11365.838,-7967.806,28846.859375
104,-248.06662,-1197.0345,5603.395,-3519.334,15420.397,13469.829,36544.8359375
105,11288.077,4903.0474,27752.064,2114.9485,-19173.318,3078.108,39517.66796875
106,3039.1433,-11897.146,-10865.865,4065.8142,19072.973,7260.432,38830.6796875
107,-16874.682,-12111.644,-635.16376,6535.6426,677.2132,-19561.184,38555.13671875
108,-11069.317,6587.8745,-1166.9915,-732.7794,12926.869,7766.0396,30312.408203125
109,25653.832,31628.352,5373.2593,2195.49,6559.3647,8393.04,30381.390625
110,-7771.6196,-5448.75,-2767.0686,-462.3221,-2744.6704,-11235.763,20513.02734375
111,-6049.858,9604.44,12283.723,373.04654,19064.33,8280.359,39882.7578125
112,218.22809,11910.543,-13990.369,-2492.6875,-17985.832,-4431.7417,39405.046875
113,17401.08,18142.457,3457.8289,-17289.963,7951.929,1706.9966,36063.42578125
114,17466.238,8300.717,-6810.2515,3060.0698,-13126.88,13736.54,39521.671875
115,11795.314,12300.973,4674.7026,-7960.8804,-7477.6216,11269.498,28167.986328125
116,9287.531,11426.269,13323.075,7211.3633,-3143.9539,-3905.0945,15609.0595703125
117,317.45352,4887.0034,13306.21,-8728.521,-7036.692,-1746.3046,22726.435546875
118,7253.232,6096.999,6957.799,-313.4487,921.79926,160.12625,2000.84448242188
119,33865.418,34253.5,33917.863,340.20236,788.4314,743.607,2000.98571777344
120,9377.425,9365.929,9340.048,1121.7372,-87.66344,261.34637,2000.9853515625
121,-2238059.5,-2238867.0,-2236713.5,382.22183,6.6602426,70.55186,2001.00317382813
122,13138.003,-4867.7134,25796.24,3371.3875,8018.145,4415.667,31588.328125
123,17747.09,13903.997,-7252.4175,-15241.668,-5726.5566,-6112.4634,38092.8046875
124,69724.59,45196.477,30850.094,1541.4008,4026.2715,-3301.3303,35324.125
125,13033.407,25476.541,19580.213,12651.493,-9548.294,-11507.583,35597.66015625
126,-13604.335,-25414.727,-43179.85,-1087.8179,-15067.553,-6508.958,38427.08984375
127,1073577.1,1073237.0,1074995.2,-28.047417,351.38568,-574.82904,1993.27978515625
128,-321250.78,-322097.03,-321304.44,785.33466,627.6689,315.27264,2000.9892578125
129,-6788.683,-10288.921,-23947.402,-1848.5264,-4364.5615,-9702.614,24422.0234375
130,-3912.8582,5931.9404,-12419.404,18417.053,-7312.283,-3907.4363,38429.19140625
131,-7358.587,-3416.5847,22378.436,435.55933,-2346.1543,-2470.2986,28600.630859375
132,-23773.754,-52749.41,-12283.049,6561.5054,272.84326,659.44727,37884.875
133,-15406.394,-11354.22,2685.644,4585.5674,-13307.556,823.9329,29441.837890625
134,16199.454,13017.779,20407.588,-6220.7725,-14425.507,99.264046,27957.640625
135,-16233.249,-13281.777,-25260.213,-17438.523,6990.9556,-2844.8833,34641.6953125
136,-26788.07,-20507.41,-43599.25,7837.912,16516.758,4691.729,38683.2421875
137,123188.914,125424.84,123877.24,98.94784,69.62321,-84.520325,1999.86730957031
138,-8930.855,17300.65,4548.196,-247.25249,-1671.3757,-16030.485,35995.75
139,-495186.7,-494735.44,-496768.2,-204.84567,267.27423,210.43591,1972.67883300781
140,-147117.98,-147581.48,-148662.56,107.66193,377.63986,-743.12427,2000.98767089844
141,33198.652,38169.97,39401.48,-1108.162,4434.7095,-4130.638,12092.28515625
142,-762.9152,619.3131,1849.8333,-930.83606,-416.35562,41.302044,2872.30493164063
143,12464.126,-6626.5396,23196.791,962.7586,-2301.9006,-2766.3887,26947.59765625
144,-19553.395,-7844.4,-24092.486,3845.253,-10508.358,-9775.985,29549.896484375
145,-18761.53,-9937.407,-8775.585,7050.668,-5301.3584,-3932.641,19217.517578125
146,13966.438,37911.11,13182.149,1474.9922,-3348.1716,-1318.102,25260.873046875
147,7895.8135,7922.994,-12483.865,-157.16724,-18928.422,4897.2056,39531.8046875
148,19385.016,19238.986,37427.254,25.307041,-15426.304,580.3716,32297.111328125
149,-3091.6592,-7787.1035,13731.72,-10070.18,12026.348,7221.599,35758.15625
150,-25035.84,-25622.191,-4248.661,5041.099,-619.1822,9666.215,28325.509765625
151,-20715.225,-5319.453,-18164.643,-8742.243,18298.762,-2081.0022,38092.953125
152,51246.652,50991.36,49806.35,352.95325,677.2011,-400.04486,2000.39538574219
153,19118.729,18519.71,19250.266,383.8939,294.0917,-974.1949,2000.91918945313
154,11789.857,38154.992,5237.2773,-2647.5117,-2917.4749,-5333.24,32291.013671875
155,-8617.3,-30328.363,-7932.073,-10459.316,-9488.53,-1653.593,33063.703125
156,-14043.797,1910.7805,21992.883,-3535.2087,2090.0618,10775.433,37110.22265625
157,-32677.756,-15204.8125,4655.036,4889.4326,1691.777,6261.657,35279.71875
158,-21534.184,-26061.65,-19986.541,-2171.9553,9.954783,18958.871,33501.7734375
159,6860.865,13795.836,33044.57,8008.6045,-2284.7068,-15045.582,37937.82421875
160,-31326.246,-33204.09,-26851.58,8384.942,-19521.273,-829.2695,37258.24609375
161,-17878.715,-20875.744,11417.514,-5272.1436,-8360.816,-8285.447,38132.59765625
162,-4108.3906,15828.128,-362.47137,-2675.1904,-9369.299,3877.3657,25821.29296875
163,28852.662,62940.832,32783.67,5811.3125,6649.6953,-5896.309,37171.546875
164,-9163.141,488.4746,-4832.068,-7429.8374,4648.9478,-1544.9728,17541.849609375
165,35997.766,11049.848,27573.72,-13692.567,-4178.943,4516.4507,34047.69921875
166,14582.135,-5525.162,7792.7026,4704.11,-6829.9,-16698.03,36833.1875
167,-29312.53,-28229.871,-5149.654,5137.4834,2034.4331,-4539.986,26688.740234375
168,25671.717,11661.611,-5117.8926,660.53577,-2941.6106,5431.902,28787.189453125
169,12140.164,29051.654,17386.838,2106.1494,-10016.311,5057.7246,24815.837890625
170,-22705.623,-26612.852,-11162.014,-4832.6294,13045.371,15595.776,38780.37890625
171,-31113.352,-25310.771,-7300.838,-8328.306,6300.3623,7153.2886,30711.66015625
172,52935.01,39255.3,21320.102,8955.998,1487.166,-2136.2856,31860.791015625
173,3009.611,3201.5583,3382.9963,-754.07153,-804.30756,-290.2581,2000.98547363281
174,11018.428,10357.485,10899.957,-98.47841,-930.59143,-578.5813,2000.98522949219
175,39416.855,38203.81,14444.94,5600.0596,-3477.652,-10421.41,32418.474609375
176,-3525.89,-5232.485,-2548.5925,252.72168,-6547.3164,-6341.294,15967.6279296875
177,67693.31,66890.7,66121.49,276.5887,621.45825,-504.16898,2000.98413085938
178,19206.291,19647.824,25479.326,5080.6626,1906.6028,-10047.935,20688.255859375
179,25664.775,26351.908,15668.27,4202.2324,2260.9119,1970.7793,13683.3681640625
180,12437.595,4897.712,12138.691,15300.167,-2058.2983,1707.5293,27900.314453125
181,-7448.4844,1696.2532,-8099.107,-9336.413,13836.056,10074.412,35075.57421875
182,13952.746,-1790.1152,1286.4728,4956.857,-8977.712,-1493.2849,23044.90625
183,10862.484,-5877.709,10213.482,-506.59415,20876.12,167.2619,39725.078125
184,270.74866,-264.68976,13884.604,-6355.992,743.6441,-3306.3945,18669.890625
185,-17539.262,-8129.473,-4232.158,-3660.257,4610.329,13113.394,27572.580078125
186,1203.3411,-16952.664,4777.19,-4676.912,14094.05,-9096.816,36291.9140625
187,12723.832,9408.672,27841.842,3523.37,2632.0745,5789.5273,21171.79296875
188,467555.12,467695.22,468677.66,-198.55998,812.2791,-510.80505,2000.71960449219
189,4742.9814,25147.662,-1152.3978,-5695.6943,-15651.123,623.85614,37480.171875
190,-62051.848,-80080.81,-66798.766,-16652.766,2302.408,4937.2314,34394.33984375
191,8702.629,13562.196,1638.4673,4112.271,-10696.531,-13952.16,32951.69921875
192,-45958.492,-32134.035,-49498.14,2763.716,12116.535,-13660.655,35717.84765625
193,-13418.646,-18054.387,1216.4741,-15647.619,9578.538,3767.6821,36822.50390625
194,4744.339,904.06696,-3191.9478,266.48108,16904.4,102.18822,30079.484375
195,15163.232,-8507.018,-25259.89,5680.3604,-1284.7007,-2398.707,36830.64453125
196,1699.0718,-9668.861,2067.5134,4062.7131,-3767.946,18272.928,35033.73828125
197,8011.847,-625.6504,17690.346,3070.0369,-17012.264,6937.192,35955.2265625
198,25302.486,-7833.717,-152.48137,-3420.6807,-10548.824,-1960.8146,35818.33203125
199,7232.5757,429.0638,30881.996,-8765.967,8917.717,4773.3506,36110.11328125
200,26138.127,8774.854,10560.836,-573.7523,-5688.439,-13150.488,29841.767578125
201,12986.78,10485.74,37567.176,-6489.32,-13535.707,-7865.2476,39159.8515625
202,4097.6167,13362.297,-10841.496,-3852.9304,-11070.891,-13224.806,37206.625
203,-16640.412,2829.9246,19489.521,1691.9429,-7237.214,-6455.336,35661.4375
204,-19938.975,259.71738,-13622.182,5101.851,8249.298,-13620.46,34045.38671875
205,-39591.83,3659.8616,-9281.587,1645.2008,-1717.974,-4871.3784,39580.49609375
206,-14768.918,13729.298,-14391.443,7619.831,2153.4421,-5293.312,32767.18359375
207,-5626.5723,15903.074,2162.451,5992.915,-14229.502,13080.332,39811.6328125
208,14938.878,7360.4336,30850.436,-7471.6025,-15222.1875,7240.0615,38092.91796875
209,-14573.719,12257.073,11728.935,-874.9535,-1642.7212,-15729.325,38191.9765625
210,-32718.275,-28073.248,4619.2554,-4568.5996,4700.842,-4955.9307,38010.88671875
211,392.6358,21905.486,21478.906,-2990.0752,-8264.812,-13418.212,35009.94140625
212,-13050.811,7269.5713,206.7649,1844.894,4529.2417,-4976.403,21571.486328125
213,-2444.965,-10130.4795,-10520.668,-2476.5798,2817.955,-2810.413,11319.734375
214,58400.22,45065.96,24839.738,9908.641,606.9646,-6073.097,35537.30859375
215,8679.921,25286.1,25187.988,14632.885,-118.26122,-4853.492,31420.06640625
216,-21498.078,-2874.805,-10434.049,7295.752,2409.162,6191.934,23564.951171875
217,-6909.785,9288.638,-17051.633,10379.332,-1446.9524,3530.8135,29939.947265625
218,9252.636,29772.082,-8374.801,-2358.1394,3386.4497,-11717.842,39452.37109375
219,6898.088,11685.203,-16430.016,199.63443,-11035.157,-2499.6768,32603.373046875
220,-3117.2227,8191.118,-3740.4043,8330.668,1270.6348,3522.295,19636.125
221,-914.10205,3197.0684,15443.559,3396.1958,3562.2227,-10140.107,24461.43359375
222,-2338.19,2874.5254,862.5266,-1891.0599,-4853.0757,-12784.76,24340.66796875
223,-18838.668,-6007.1855,-457.36423,9604.98,-16279.887,9062.271,39810.8671875
224,9613.606,-6521.192,20321.07,770.0375,-5344.0205,-10246.742,30825.087890625
225,3811.487,-20618.77,-15594.167,-2978.4187,13382.017,5445.2256,33943.05859375
226,-3122.3022,-14243.439,10386.77,6863.967,14825.0,-172.61378,35456.796875
227,77859.06,51005.027,78405.04,849.6059,-4002.1177,-12777.681,35722.859375
228,-4689.439,-13826.783,-4424.599,-335.11063,1167.6622,-21758.162,38867.2265625
229,20128.758,7649.522,14693.039,-12965.843,-15817.6,1003.3578,37086.296875
230,-4549.154,-15555.901,-10131.088,-5220.4795,2341.3708,-21204.254,39216.515625
231,-435.98727,25775.283,6499.0127,-12001.071,9046.505,1491.2935,35179.7734375
232,10697.891,3525.5156,-5653.4365,-3949.274,-10235.307,-3513.0444,24487.349609375
233,-13493.569,-33738.63,-4632.3413,-2736.5334,-5034.1807,-6216.1353,29701.779296875
234,25344.92,4259.9087,36742.36,-6064.0396,10675.893,-9683.143,39348.7734375
235,-6886.441,-23452.494,-146.51495,-5986.3467,-9387.617,-16421.842,40155.15625
236,12712.962,5638.507,1728.9498,8544.277,9695.647,5799.3022,26361.27734375
237,15828.152,8937.749,-15955.527,-569.8957,-9975.234,-767.10077,33762.89453125
238,-13811.006,-46145.047,-51993.863,-4998.2373,1954.9137,771.0353,36837.62109375
239,44936.67,53809.45,72363.93,-13216.992,8790.721,-6250.75,38219.59375
240,12803.839,-3728.8904,-6535.5547,-6283.0874,-11482.996,-12100.405,35789.3671875
241,37225.297,29251.29,28098.875,6224.066,-5853.6353,-11988.772,26912.94140625
242,-6910.1484,4981.3096,11181.56,-13909.055,5895.0415,10213.875,35372.16015625
243,-29409.445,-9287.817,-15847.42,5415.1294,-4901.627,17899.906,37910.25
244,-31556.379,-1450.513,-10452.474,-3961.8882,-2121.7278,7378.087,30664.1484375
245,-15097.405,7847.328,7558.43,-836.6587,-5619.9736,-9556.067,29844.984375
246,-18416.885,-3048.7808,-4568.5034,9914.374,-6878.7344,-3830.5273,26381.568359375
247,-3579.9143,-13845.614,-9968.262,-9235.886,10635.793,1055.4938,26061.88671875
248,-41118.38,-38598.074,-42236.055,1855.8022,-356.56772,-12232.706,21680.607421875
249,-30272.361,-29263.28,-21135.549,-2521.0596,16.340126,6544.0356,14927.19140625
250,25934.963,25033.205,25299.137,-182.25957,-392.7002,-965.672,2000.98571777344
251,71376.4,69769.19,70263.37,212.35738,93.10499,-776.6475,2000.98120117188
252,-20529.453,-21768.7,-21274.969,303.7709,49.651127,-922.32153,2000.97583007813
253,35351.48,36496.746,36822.145,193.59383,-745.07623,-381.18546,2000.98571777344
254,174859.9,174333.83,174882.2,588.04614,522.0945,782.0552,1994.73278808594
255,84389.18,84327.914,86356.0,-9.280644,30.78047,-52.28367,2000.98364257813
256,484872.06,485704.72,485163.7,283.04724,306.49615,-991.0063,2000.99609375
257,-27882026.0,-27881826.0,-27882988.0,-155.68729,944.18365,179.98172,2000.54699707031
258,2873.642,3491.3237,1883.518,310.34283,754.8897,-103.2324,2000.98522949219
259,-17413.434,-17329.094,-16128.134,-302.28796,-712.134,468.22238,2000.98522949219
260,75700.42,75458.14,74861.18,-248.80972,672.9768,-794.0376,1998.89831542969
261,237.07784,408.43423,-203.44708,113.13895,991.19507,-489.63455,2000.9853515625
262,44036.47,44691.69,45591.35,104.05967,845.21796,-5.102591,2000.98132324219
263,68773.38,68387.52,67140.64,175.5088,110.85116,-750.54236,2000.98498535156
264,26822.44,27303.377,25918.682,312.1121,634.60126,583.23114,2000.90075683594
265,-21846.91,-17043.877,-9291.34,-1102.6959,-1667.3375,-1461.5966,11781.4814453125
266,16626.668,16747.521,15043.336,-209.50932,-160.38512,-600.5986,2000.97619628906
267,-38020.363,-30371.256,-17068.338,-3163.1592,-1198.0474,4643.3516,20886.28125
268,-17621.408,-32243.36,-37568.8,-15244.959,2058.1594,10205.168,36638.7890625
269,-3904.2266,10713.191,1634.7998,-15709.54,-7836.555,3736.3716,33613.51953125
270,-5881.9434,15806.116,15765.277,-2038.6802,-4219.287,14470.003,34110.21484375
271,5006.55,9937.124,-6861.313,605.7331,-9117.115,14275.835,32947.484375
272,10163.437,30857.525,29544.75,8668.765,-608.4199,-14193.945,35124.90625
273,-3107.8284,-680.40045,21553.67,12597.902,3365.6003,11377.1455,38113.5078125
274,50167.61,18222.064,29111.986,2931.6018,13395.785,-1995.4668,36976.9296875
275,-14372.159,-20737.639,-31230.969,7448.971,-16969.922,7238.879,37483.66015625
276,-4847.9663,-34294.68,-19680.758,7692.1875,2631.2917,6559.8223,31268.478515625
277,-8905.297,7186.9785,26237.436,1733.2983,-134.09134,-7956.6343,33577.3359375
278,25319.104,26525.268,3618.072,5237.43,2694.1582,3623.7808,25338.259765625
279,-27293.969,-38645.227,-62745.336,5760.366,-6527.0005,8453.71,37748.89453125
280,15328.985,-17107.334,1852.5264,8464.014,10944.962,7025.363,38973.90625
281,-26457.855,-37493.266,-39980.168,5506.8843,-10288.659,18178.385,39437.50390625
282,10565.404,7324.3945,8098.308,67.80626,16853.479,5731.287,30972.09765625
283,8371.609,3899.1655,12273.482,5025.87,-1829.9381,-20105.875,36759.23046875
284,2679.6606,-17218.85,-5122.8623,-7722.5576,-1544.3995,-9768.566,27819.333984375
285,12300.305,25564.684,25104.576,-7181.066,4382.0054,979.10846,19627.466796875
286,-23631.451,-11378.172,-50563.094,2719.0127,1758.176,1373.1631,35250.05859375
287,-25275.004,-5893.76,-1263.8346,-7982.7646,5705.0894,-15741.831,38974.8125
288,23695.365,-3833.8318,-10392.862,-2828.0046,10368.062,4335.9863,37206.5546875
289,247.76506,-28143.46,-31369.562,8345.064,-9848.437,4784.1685,38426.84765625
290,-33766.484,-52561.723,-48870.49,4518.688,-18332.604,-4935.248,37948.48046875
291,29675.428,57623.434,23874.771,7748.2505,-9820.597,717.46,38050.46875
292,10371.085,3782.9653,4777.6235,-1394.0272,-16946.762,-7414.21,32713.2890625
293,9356.867,-5909.2373,-8509.988,-15801.259,9144.24,-10133.458,39843.1015625
294,-25319.973,-14727.498,8085.4746,7167.74,1747.6685,11115.002,37525.99609375
295,-36257.285,-34696.176,-9346.688,196.17299,6494.2017,3632.4446,29168.9921875
296,-16366.053,12780.486,12460.853,-4446.2188,-8185.3984,-3700.8782,33789.125
297,27163.22,4408.648,-3921.9417,7845.0356,8183.854,5389.5576,35347.28125
298,-21762.195,-6998.805,-14705.253,14543.801,2314.697,6134.7656,30448.638671875
299,13831.102,42600.22,1136.0312,-3756.6594,3849.6536,4205.8335,38651.22265625
300,8049.8574,1118.2806,-1854.0786,-712.6097,4938.699,10989.051,22681.671875
301,-35159.277,-23903.938,-24172.824,970.3756,7827.881,-14322.256,30426.330078125
302,9357.676,-1774.6283,2748.563,-330.7863,1375.2302,-410.7621,10027.0693359375
303,86738.17,89385.03,110619.04,3207.8242,-3667.4683,11006.627,30801.806640625
304,79312.19,70344.92,73504.21,5168.9697,7484.386,-3343.4827,18541.90625
305,-44356.605,-40057.598,-66358.39,-1010.0607,6644.2905,11601.095,33710.5703125
306,2187.7852,-886.31726,19719.455,9312.142,-657.9054,15951.492,37356.3984375
307,1125729.2,1125512.5,1127228.5,-1.768844,338.68732,-583.0468,1995.91101074219
308,-62268.08,-76791.59,-41795.6,-2894.2588,3189.1343,-12042.927,37658.00390625
309,76443.94,76437.45,77333.17,172.26378,763.3042,-675.59296,2000.68676757813
310,100385.77,100362.42,102329.38,25.62383,-30.241463,-241.70119,2000.88000488281
311,46322.99,47719.11,47055.707,22.06933,842.4116,369.8594,2000.9716796875
312,-9638559.0,-9638895.0,-9640467.0,236.8449,-484.25784,-83.12064,2001.20031738281
313,-7885.4824,-3340.733,6397.4204,8739.636,3195.0186,-8191.28,24915.921875
314,-4358.437,-12993.253,11021.432,6841.786,-9657.604,-13982.692,38087.89453125
315,15668.842,-5593.2495,686.2936,6511.0903,15743.314,-10351.436,39372.43359375
316,38238.805,17953.428,52579.39,-4321.8853,-7114.274,-2552.5215,33696.79296875
317,13481.061,19473.777,-3273.4968,-1160.8575,-9437.107,-9148.713,30648.814453125
318,-2050.1948,-15037.918,-14051.766,203.1752,-2657.1812,-6795.043,17795.19921875
319,-14805.586,-113.69609,-14526.944,-4834.6846,-17268.889,11561.36,39718.97265625
320,-18195.834,-12880.973,-45437.508,3680.881,-9027.509,-8006.537,37317.4296875
321,-9555.15,18290.36,10860.64,-1986.2697,-14468.64,7616.7646,37915.62109375
322,-13979.566,-4167.892,-15543.546,-3570.3762,1276.476,6607.9062,16975.99609375
323,-8848.246,5127.874,-6457.893,-1189.4137,-5320.3774,-3634.0557,17216.861328125
324,21307.19,38563.297,51947.99,-2008.797,-12898.623,-5951.2173,36405.64453125
325,-54821.98,-23941.922,-41226.004,7588.795,-4664.231,7884.995,33810.32421875
326,-12112.836,8278.516,6127.7925,7924.3916,12430.229,-348.9094,32075.87109375
327,20796.566,3915.7446,386.36563,-1277.2036,9318.073,16116.35,37437.6953125
328,5544.5347,-14251.457,3037.8599,-3657.6912,1357.1691,-15592.837,33520.35546875
329,-27497.303,-5790.9043,-5194.832,560.4419,-16794.09,6579.9604,38228.46875
330,-16510.082,-10336.234,-30470.3,7781.4917,-3007.2004,12760.694,31882.330078125
331,-8418.172,-12278.995,-21757.428,2472.3347,10206.156,-13729.367,32212.759765625
332,-3727.3225,16519.377,11998.991,-4846.805,8765.783,-2279.6912,25601.21484375
333,33795.086,32235.379,33517.93,400.59622,105.795876,-685.948,2000.95056152344
334,11788.055,11691.479,12922.548,-343.2151,71.782425,861.9306,2000.89672851563
335,138719.39,138996.78,137550.9,345.87793,367.64206,-700.6612,2000.8955078125
336,994.0518,1257.9949,-173.64517,-269.37762,-702.71094,432.47534,2000.39831542969
337,4946.8525,5791.8413,7020.989,53.292683,473.34943,141.20894,2000.98596191406
338,28584.078,452.9122,6197.548,-6985.127,6189.897,13381.35,38226.45703125
339,3609.4324,-19612.395,4112.304,10343.005,-10089.704,-9651.855,38170.64453125
340,-12181.597,-2307.14,4563.319,19758.125,2617.237,-584.5152,37487.00390625
341,4227.9863,18148.078,-8851.359,-5549.7944,4413.5654,-9118.776,30776.607421875
342,-4821.6646,-16525.627,-9025.514,-5378.9106,-14511.433,-9970.584,33499.76171875
343,-26531.93,8562.127,-4727.95,2452.3677,1904.7473,-2983.364,31582.337890625
344,25873.574,8785.461,14831.402,-2023.8604,16666.107,-4585.341,33673.203125
345,-57873.477,-60950.195,-57249.082,-2731.6865,1267.5396,2210.0088,7323.6513671875
346,416.3863,-5471.543,7071.0903,1576.6874,11643.88,2278.8472,23407.52734375
347,8876.75,18221.97,1174.9287,-4867.1606,-1859.5432,6719.2256,20868.921875
348,-6305.997,778.90216,6611.1772,7171.2715,17953.838,4984.8965,36350.8203125
349,-5744.3774,-27190.416,-15632.816,17344.94,-8517.894,-4303.8403,39005.375
350,9274.827,18383.346,7487.0806,5907.7744,-1759.0377,-922.4115,14798.1572265625
351,3000.9395,19503.564,10553.685,-8198.069,-1748.2764,-1412.2343,20530.90625
352,-939.40967,7702.744,1175.1854,-4561.957,-3853.7815,2140.0566,13476.3671875
353,14634.38,23810.506,13084.366,5525.6113,-6914.9585,2787.0618,18951.970703125
354,-31521.084,-52006.48,-33463.28,5669.9624,314.86646,-8790.0,26686.552734375
355,12415.814,40261.504,3078.7847,8145.5693,208.52779,-7588.8296,38658.90625
356,24054.96,43146.52,6304.6313,9617.367,-785.60077,8512.397,38925.0390625
357,-22739.176,4569.477,-6650.2134,12942.433,-8956.545,9660.664,39854.90625
358,3009.1968,-5534.9814,-4274.034,1543.5573,-1052.111,3600.9062,10638.9521484375
359,-3194.9956,323.15234,-3671.293,4916.402,-3438.9463,5638.174,14752.59375
360,1430934.5,1431079.1,1470165.8,-32.77046,347.75406,608.69885,39178.0
361,-663.09814,-7813.2793,-5506.177,3831.717,-2339.7024,5836.828,14234.6796875
362,1359844.6,1360108.8,1393750.5,-12.569045,-1157.0205,894.8011,33869.47265625
363,-1855.667,2815.732,1946.168,2927.4443,3200.254,-2674.7146,9819.01171875
364,-24599.709,-39802.375,-11288.278,-999.59094,5088.156,1992.5126,26519.056640625
365,3504.5771,13051.896,-7604.943,-4327.3315,9020.366,-7148.216,27824.59765625
366,369.10303,11485.383,3934.379,4708.75,5503.914,6146.506,19167.291015625
367,-3785.6758,-2602.6682,-3547.0842,-15960.906,-3021.2153,252.60185,28160.263671875
368,6341.2695,11311.488,-1192.352,-4691.3564,2680.8296,-6057.786,17792.685546875
369,733.76416,7140.2617,4542.382,-1380.4971,-977.81464,-8076.7734,15343.9677734375
370,4227.642,6334.3496,5928.5903,1039.1497,1927.4263,-5849.5293,10990.1513671875
371,-2613.5996,1086.5017,-311.33096,5626.4077,3588.7056,-482.30502,12032.2998046875
372,731.5116,-3098.1792,664.64185,3485.8271,-58.55464,-354.10168,7159.2138671875
373,7389.119,2044.4387,4390.3857,2086.4683,556.6053,-3576.6697,8596.3896484375
374,611328.7,611390.9,650347.56,-141.09225,-1359.8964,835.3514,39086.45703125
375,2244.067,12057.736,9770.782,-7798.828,-9899.636,5728.524,25573.7421875
376,1955.1367,16849.14,3194.7583,2412.4312,2432.6865,1285.2826,15654.8486328125
377,5200.88,10219.216,4404.9385,-286.9786,1096.3185,2800.9006,7563.033203125
378,542824.5,542670.94,582632.1,-131.31252,266.6263,590.3549,39901.0546875
379,6973.9326,8739.895,6319.9404,-3917.8381,-5568.0615,-6858.5986,16878.408203125
380,-5118.418,-485.89075,3845.963,-6702.6807,-2411.9487,-12889.49,26663.455078125
381,-6110.6733,-20996.805,-15789.983,210.62462,7007.8257,4430.707,19430.748046875
382,10523.441,4761.247,4174.242,-4623.7983,-1616.3767,-11509.328,22501.119140625
383,10331.288,7009.581,7624.5566,392.77188,2819.4692,-4139.0547,9223.638671875
384,5440.1694,5292.205,573.86597,1006.8628,1699.8662,651.832,5997.2802734375
385,-2524.9248,413.29028,-7959.5254,-4253.2583,10974.578,984.8278,21740.294921875
386,3757.0264,1914.1301,3778.4182,-2980.9634,823.8194,2014.5132,6656.22998046875
387,-8014.4585,3033.1265,6554.174,5242.489,-4687.758,-1170.4312,18050.818359375
388,1926.6289,-8729.755,-8476.435,-5812.1763,4000.8787,-834.54626,16198.0830078125
389,1852.6177,19880.648,-6378.959,-2450.608,2000.3649,-280.9738,23904.5078125
390,-2528.1978,1790.2866,-1569.3948,-4188.985,-531.09344,223.44983,8310.642578125
391,-22596.242,-14885.469,-17457.793,-1570.7168,7862.8677,-8883.945,21814.83984375
392,-9889.836,7896.328,6662.4053,9683.666,-4416.9697,3584.0186,25967.44140625
393,-4700.716,3729.1877,-874.0718,-8062.936,5379.73,-2022.9255,18643.556640625
394,253.46387,-91.80151,-7167.1235,5487.4023,605.2346,3880.7358,13756.3173828125
395,3600.0146,-3524.273,6792.6865,588.58966,-2863.1665,3038.3838,11705.6376953125
396,-7601.2324,-1573.6558,-8351.094,-2716.6748,2332.8691,-3040.0137,10373.36328125
397,-3577.2578,-18041.602,-29835.453,-1633.539,-1839.9567,6887.454,26064.828125
398,18604.236,8304.679,-12041.332,-871.93994,2458.0784,-12075.299,34459.27734375
399,-7725.1523,5295.7236,-11991.114,-4741.9556,2527.68,15571.621,32516.76953125
400,5602.4414,-14348.004,6307.941,-7578.122,2850.8545,-6029.076,26801.271484375
401,-19802.127,-1655.249,-6382.16,-8800.428,-3479.1074,-326.2183,23126.79296875
402,-32496.553,-27492.781,-8179.495,-11814.865,5921.4697,896.6014,31953.970703125
403,11364.575,8822.65,-4131.8975,-3629.1658,6584.928,-842.32104,19466.279296875
404,-7607.2373,-6114.1797,-18084.5,-1895.1387,-250.57283,7511.573,17546.5
405,20374.217,15644.436,22037.23,-3049.7615,-7701.248,4147.726,17042.412109375
406,-5548.5376,18955.914,8233.754,-4984.541,3612.6792,-2912.0193,24327.4140625
407,-12231.673,6104.011,9355.904,-387.3582,-2294.248,3224.9138,21303.494140625
408,-4837.16,20515.77,3652.5613,2620.163,-1456.0801,282.38403,22952.181640625
409,-5175.6167,9992.311,1253.4026,2110.5806,1158.1022,-5105.185,16415.21875
410,11204.282,16051.447,6800.078,-3271.9138,-8060.384,-8576.19,22625.619140625
411,1555624.2,1555609.8,1593465.9,-149.83345,1281.1057,757.20306,37937.4296875
412,-7050.179,4001.449,5405.908,-8916.152,-3581.247,543.998,20432.564453125
413,-4887052.5,-4889439.5,-4913037.5,2374.557,12489.78,454.55154,33232.6796875
414,544.4417,-1471.4929,-1242.6171,5134.801,9581.867,2951.4268,19604.15234375
415,-5141.8955,9863.591,-1683.8652,-3399.827,-4754.5586,-571.17725,16991.345703125
416,12236.328,3233.1821,10805.562,-1086.3071,-340.93112,8891.658,17643.58203125
417,14418.978,19028.535,9631.825,4993.8623,-238.748,-9062.821,19688.134765625
418,-5350122.5,-5353360.5,-5375198.0,-497.21603,11680.613,5685.704,32635.935546875
419,-1330.7468,-4009.3293,1352.8491,908.22614,-5627.9346,-3617.255,12582.28515625
420,-3071.0205,-15519.001,-23611.467,5263.3696,-4340.8765,6685.8013,24390.853515625
421,-5864462.0,-5861782.0,-5877521.0,-985.23376,12004.887,4287.091,26516.400390625
422,-2520.2354,-2652.2231,-5859.7856,589.6975,5313.6025,-6526.9707,14975.96875
423,-25821.025,-3098.6846,-9560.394,-1091.3993,11524.012,-1606.4196,28652.34765625
424,-22577.684,-31434.484,-35478.81,-8682.373,-157.89546,-1586.3126,19089.107421875
425,6791.323,3951.7075,4378.1763,-624.65,-3414.0913,4140.0566,9725.8994140625
426,6369.113,-902.4779,263.24927,-248.74684,-658.71027,-963.34033,7073.1640625
427,11525.422,6737.8877,8612.286,-677.14056,-1211.9722,-2501.3953,6481.76123046875
428,5332.5254,3150.6062,-177.45435,1519.7794,-4247.5654,1175.4077,9396.685546875
429,1304.7393,-5923.62,-7205.96,1571.2781,-971.2053,3017.8096,10035.9736328125
430,6879.6055,26425.078,14935.1875,-5442.02,-14311.245,5391.855,32862.8359375
431,-14883.099,-16811.062,-39509.613,13844.885,1780.7747,-2103.4282,34066.58984375
432,-18892.871,6907.3296,1821.8799,3571.7832,-2580.066,-5605.409,26698.53125
433,5609.7554,12932.027,12831.895,137.18272,-1622.7036,8331.554,16404.048828125
434,16406.576,14442.228,8637.656,-3560.0347,-848.59393,14611.856,27012.123046875
435,2318.6804,6827.506,6275.492,2139.7793,-12.090848,2885.9272,7541.04931640625
436,-4175.2676,-14135.522,2316.7915,5420.9775,-5450.0483,-2457.2139,20034.96484375
437,8898.622,-2191.0134,-16941.293,-5757.001,4847.6313,10520.679,31719.201171875
438,-14375.744,-11969.87,-12240.763,949.1307,7938.1343,-1352.3374,14228.1689453125
439,-9819.81,-1876.5739,998.2363,-3864.822,5532.132,1698.8508,15475.0478515625
440,1819.5338,7226.091,-668.0117,5497.251,-98.744415,3270.3938,13101.2509765625
441,6256.3613,13719.544,2457.726,-905.68195,-3960.3384,-9060.776,19856.6171875
442,-741.39526,7019.193,-4345.556,-3346.8767,-3438.4805,-5496.244,16152.0087890625
443,-2133.283,-9437.113,-144.49365,-1624.2062,-2882.6726,697.31744,10301.9072265625
444,530.9563,-11720.083,1414.281,-4117.2925,884.2756,4282.3315,16428.849609375
445,3688.679,2230.7146,2258.5527,-5951.376,-1278.1178,1179.7308,10835.982421875
446,1659622.6,1659432.0,1696867.4,-57.20294,-1389.1418,487.81607,37427.53515625
447,-7326.072,2575.6975,1310.6807,-93.47778,-3206.4993,-816.6769,10954.05859375
448,9569.498,-500.33862,1672.5403,-4905.9307,-511.33765,2954.6416,13543.302734375
449,1321.102,-2781.7058,-4959.0986,-12452.3955,-913.6665,-8419.347,26661.85546875
450,-3208.4106,-811.7793,4748.6084,2835.373,2918.5747,-4836.2495,13031.8125
451,15209.69,-7484.339,4196.7827,-4595.5054,-492.20953,2755.48,21754.00390625
452,-3485.6313,-2152.3005,-1612.7358,-853.5785,-2643.924,-398.39227,5140.16162109375
453,6725.6895,-4015.1006,-964.5305,-1988.9883,-1541.9774,5166.331,13819.5244140625
454,531.12354,-7699.797,-8276.223,-1133.2708,-5411.648,-472.0802,12853.17578125
455,-2029.1499,-8349.54,6779.5,-3316.3213,10204.958,1451.779,22911.87890625
456,-6086.1787,6994.1787,12638.177,7791.926,3641.9697,-3588.4448,23180.615234375
457,-5948.303,9376.659,-18131.713,2310.9358,224.45317,5854.131,26248.52734375
458,5831.3857,-1703.9194,-662.4276,-2135.4211,-3078.3467,-1811.1996,10097.90234375
459,-6946.1133,-1819.6108,-15901.055,31.291729,-2429.4727,3676.6177,14513.51171875
460,-9565.603,-2368.641,-8069.5244,-3885.086,-1479.2638,2285.9111,10525.6728515625
461,-10066.908,3958.419,-13061.486,2971.691,4081.061,-2627.1008,18569.875
462,-10539.249,-7017.5107,3317.8633,3669.9028,-10379.031,9022.752,27630.212890625
463,714.5233,478.11475,5555.724,-2429.4282,672.6548,-425.13205,6651.58544921875
464,2436.1575,-1848.8728,4214.1113,-2823.7935,5279.85,-3501.0757,13170.63671875
465,-184.5946,-6258.639,875.9475,-2302.919,1258.6292,2831.2898,9443.0869140625
466,-8407.52,-8768.545,-10981.055,1351.9526,-2556.4697,-4525.2026,9609.71484375
467,10538.75,10592.953,16657.996,-6074.318,7428.1777,-705.09784,17743.544921875
468,563446.9,563478.5,602653.4,88.07708,109.13206,443.11545,39198.96484375
469,1508.6528,-10060.247,-7052.9287,1772.6553,1701.3466,4747.9517,13922.3505859375
470,211.2987,-4401.916,2670.836,6825.808,-8024.6167,-1122.9844,19375.734375
471,-6597.7456,-9199.309,-2421.7144,-1174.3186,4222.5986,-2831.456,10805.142578125
472,-10551.737,-9365.247,-4232.6313,-8294.559,-3211.9807,633.7358,16504.416015625
473,14734.653,15172.976,12924.223,-7310.3247,-72.87141,-3264.2336,14020.251953125
474,1663282.9,1663158.4,1701929.6,28.417976,-348.5927,304.9112,38717.4921875
475,-1396.284,-10980.351,2500.4229,1970.6882,-3905.6013,3373.1904,15360.083984375
476,1622497.8,1622642.6,1661415.5,37.889202,322.4174,505.84818,38859.46484375
477,10884.879,1886.759,422.18506,-368.18213,3728.5605,-111.44515,11766.0517578125
478,1011.375,966.78394,-6363.1245,580.2549,3810.9028,-2516.3875,10845.830078125
479,7675.821,10919.955,2521.9,-3788.5,-1818.2527,-5957.534,14603.4326171875
480,3463.8599,-3557.7869,3212.8625,1408.0815,-2524.1667,663.86145,8601.6611328125
481,9303.836,-8862.174,-2508.1335,-5703.209,1725.8304,-4466.754,20526.109375
482,-6289.258,3033.458,-684.4423,-266.0848,-2340.363,-2613.4285,10159.193359375
483,-426.93262,6104.3,1351.8728,-175.42113,-5762.1562,-1681.8522,11932.681640625
484,7532.232,15285.787,437.17188,1273.9609,1383.898,-3944.802,14925.423828125
485,-6690.8667,1515.1353,-5951.1724,-325.35678,-2411.0725,-408.81857,8948.43359375
486,3801.2354,4321.5244,-13049.886,101.10654,3804.321,-2171.6716,18724.212890625
487,-1028.7983,-4365.24,8305.468,-861.91565,6099.062,2079.0386,16006.09765625
488,3185.355,-2436.3396,-5106.363,1082.8,-2835.5918,-1685.9651,9482.0400390625
489,-13233.024,-21378.83,1055.8721,-1857.5764,726.21313,-4498.6045,21437.52734375
490,-10618.606,-9052.775,-14130.819,-822.89,3608.1228,6948.7026,14360.6240234375
491,-8786.598,-23070.17,755.0303,-2594.2024,-4133.585,3024.164,23026.888671875
492,10161.64,-1179.03,3239.105,-4410.082,516.9059,162.59058,12540.0732421875
493,-3700.5159,-17546.996,2477.8506,-3381.4475,1385.1385,-1405.407,19011.306640625
494,-3797.092,-2580.1406,4668.716,-3970.9639,-464.031,-597.0034,10576.8271484375
495,647.926,2172.093,-1448.7789,-3396.0127,-2216.8176,2652.2512,8964.365234375
496,-3137.011,5281.965,1814.7845,-2072.9429,1758.8954,-4059.7954,11195.0263671875
497,-4368.4395,-13724.127,1569.1167,-3670.131,-2552.4226,-3986.5503,16910.5078125
498,10446.113,17558.59,19717.023,-9504.488,-6625.7383,4221.1055,22951.21484375
499,2377.5203,-5260.9277,-2596.0508,3672.2754,1147.2797,4334.383,12077.173828125
500,9777.04,1670.0854,13252.734,-982.112,3204.946,1674.867,12169.826171875
501,-7729.301,-1472.1594,-3890.1646,693.64056,-1969.9634,-1930.2444,7357.443359375
502,-38851.727,-39709.945,-20826.273,-1553.5543,2592.2222,4877.9194,20973.912109375
503,8468.876,12550.367,7278.754,-6442.2344,1311.737,456.5226,12378.48046875
504,4788.054,17854.295,7955.7344,7425.2915,1224.6257,2562.0535,18137.4609375
505,4233.8696,21201.54,4167.437,-4084.9277,-2254.5186,2091.7673,19169.46484375
506,-5730.6396,17796.64,-4536.4463,1223.5685,-6856.357,-3760.73,26735.9765625
507,2078.7996,-1758.9155,-827.1621,-1175.8087,1571.4363,3623.4524,7935.01416015625
508,2714.0347,167.30115,1849.6567,3875.811,2326.536,-1553.1671,8577.4521484375
509,-1495.1364,4878.2866,1359.549,6430.291,-2025.7504,-2000.4359,13376.7626953125
510,14002.78,11418.43,-3136.999,228.3319,3448.4805,2093.0046,17467.974609375
511,-313.80847,-2721.655,-1250.4136,2387.7104,-4350.2236,687.0645,8928.19921875
512,-4604.7373,-3242.6387,-3088.738,3654.1887,-4164.4917,-2707.2864,10777.9912109375
513,-6423.4414,3363.2563,1804.5675,-1123.0099,-829.4148,-86.0445,9424.6484375
514,-838.0183,-954.74634,-9930.682,5702.343,1823.6732,1830.798,14114.23828125
515,-19483.629,-11132.852,-6300.6704,-3258.9592,1648.7921,2226.8809,13723.443359375
516,7911.4707,-1615.9204,-578.2322,-3382.34,4038.1826,-3392.0881,14132.2939453125
517,7017.827,17932.018,9691.071,236.06973,-5742.3374,-7565.109,19180.005859375
518,6088.361,-769.0171,12323.844,-106.42921,-6868.5884,7492.5933,20943.908203125
519,-6594.253,-2653.1611,-24255.766,6430.4624,-1224.6382,-4899.708,24446.677734375
520,4182.4277,5079.15,-3603.8271,8316.773,-2844.9585,-3809.6306,18540.208984375
521,4982.881,1470.6171,1100.0491,-1535.7632,2731.7039,2060.093,7481.25146484375
522,8463.015,3321.4482,-5129.633,-1775.5701,2358.8423,-444.90366,12963.50390625
523,-4687.9985,309.93042,-6550.893,365.32712,6704.119,-1119.5376,13294.9765625
524,-5547.56,-7311.6978,6934.3926,402.3433,-2606.561,4346.695,16077.3310546875
525,-11486.337,-17211.686,-137.57812,-970.1593,697.675,-4868.0083,17376.015625
526,5661.915,8624.361,1448.199,-1776.7441,559.82434,248.65149,7043.4755859375
527,7220.6484,16179.235,11089.8955,83.203674,-261.7497,-591.4432,7863.8466796875
528,-4617.5146,4137.2607,5433.1626,-453.21548,3786.306,-5138.394,14577.5380859375
529,13070.998,303.2246,-3922.8032,4694.98,-1821.0789,3825.0276,18836.197265625
530,-14950.545,-9568.773,-3239.6992,3448.716,-3368.7659,3234.8494,14289.916015625
531,6851.8203,-4649.5107,4732.082,-3911.1682,-517.4067,2209.358,13180.7705078125
532,-358.02417,-4801.8926,892.8013,-2262.6582,-2812.9175,4017.174,10694.880859375
533,4403.2524,-6244.906,-2579.4705,6552.14,2253.1038,-3654.2686,16488.5
534,-3684.0222,-5071.1807,-3996.9858,6633.81,9.675725,-627.74036,11610.029296875
535,-14751.839,3032.8062,2653.8008,308.52222,619.9756,-826.252,17696.9921875
536,-24032.242,-2143.567,3337.5117,6979.816,1747.8854,4346.472,29002.140625
537,-3012.8618,5413.894,286.14172,-2189.4348,-2944.1707,3044.4082,11058.2236328125
538,5160.8013,6136.8213,3543.937,-1732.3865,-515.3454,3020.128,6504.5146484375
539,-9268.162,20633.08,2879.2078,-5498.6636,-1928.5966,908.34674,27977.8671875
540,-5751.502,-1894.9614,-3798.5994,2376.335,3874.2507,-47.776455,8551.75390625
541,4990.185,-5121.5513,-4487.013,5120.482,1048.3925,2182.4006,13873.62890625
542,4914.2544,-13085.638,-423.52002,2373.8508,314.59927,-235.73909,16546.23046875
543,-9789.523,-4178.923,-27.28711,-1158.7704,3263.7656,1206.9783,10600.15234375
544,6108.676,-14115.661,-2142.835,-2530.084,1301.145,-433.51395,18305.09765625
545,-1017.4888,-17428.168,-3996.6619,-5702.8,1332.471,3256.5486,19078.865234375
546,8229.783,-16549.205,1376.946,-1205.7062,-2641.225,-1961.8214,22978.009765625
547,1714.9656,1368.4343,13264.312,6973.0405,-212.36731,-305.27835,16846.19921875
548,4740.875,6972.0195,3642.3745,-1174.4229,-1132.6222,-895.96124,4362.35791015625
549,2623.1924,9378.88,689.7495,5676.041,-874.74054,-1994.5145,13165.1572265625
550,-11139.071,1777.6926,-430.75464,-4270.145,-499.13315,-6368.468,17897.375
551,1102.4868,-291.57483,-6369.5244,-4419.4917,361.1409,4793.827,13239.6083984375
552,-20145.754,-9595.249,-1354.458,-761.2831,2386.3381,-6578.6377,20367.28125
553,8360.384,11469.37,14474.081,4364.861,418.22092,-1040.6548,9432.1435546875
554,12228.436,9104.829,7278.1646,1505.1464,-1348.522,258.08218,5590.27294921875
555,-3030.6377,-807.3773,-1263.8174,858.8503,2428.8025,-1086.4688,5252.40869140625
556,14848.037,11372.367,3055.7124,1105.3376,2895.0964,-2639.5159,12643.740234375
557,6576.164,9175.097,3673.2021,464.99908,300.6988,-4952.064,9859.7666015625
558,-22429.053,-14829.1875,-3579.1904,-5285.3013,1702.7017,1983.5411,19342.2578125
559,-8834.561,-2947.181,-4929.318,-10208.934,1242.3048,-3133.2612,19330.53125
560,-478.79492,15719.254,-338.2041,-2948.6152,-422.01135,4301.001,18499.5234375
561,-14472.03,-11447.555,-10664.316,2886.4453,-1438.5273,-2008.161,7445.1806640625
562,-188.21619,-3361.8413,-2355.4653,343.82187,286.94455,5126.1987,9344.849609375
563,2096.3347,10310.021,801.3345,-2801.813,-799.47296,1309.1986,10506.5849609375
564,6022.5107,6008.6587,-1350.5408,2495.6575,-208.5501,-3012.7178,10015.2255859375
565,4058.578,-1299.9845,-2990.9858,-352.96466,340.6653,-2693.8162,7945.2412109375
566,7788.547,7555.055,3370.2683,-3316.3752,1271.2384,-6271.8945,13205.9541015625
567,-1910.1943,-4024.3325,-8489.033,4289.555,3144.525,-3933.948,12850.4833984375
568,5693.6685,-654.8191,3859.841,-77.071144,24.274303,541.109,5737.78466796875
569,-13032.068,4400.448,4302.474,-8620.033,2346.143,-780.0292,23311.96484375
570,12891.983,16507.555,-7510.616,-3163.9802,2722.6938,1323.073,23677.595703125
571,9660.434,12682.379,-7343.2754,410.10962,-1369.3615,641.8915,18894.673828125
572,1397.0442,9767.967,1486.3279,-4165.9644,-116.92906,7722.5615,17330.712890625
573,-703.8894,9359.468,484.21606,-1102.2788,5123.0225,-6298.323,17091.349609375
574,6043.915,1758.4702,-14824.459,-3390.9531,4209.9663,-3162.032,21956.462890625
575,4150.9434,-4282.854,-21847.943,4137.309,4108.6924,-3547.8362,25837.166015625
576,-15839.343,-1691.5396,976.3115,-8042.476,7398.707,4343.3613,25688.19140625
577,843.7822,2144.8228,-18639.451,-2697.7114,9319.109,-2594.5928,26630.876953125
