Element Label,S11,S22,S33,S12,S13,S23,Mises
1,-14970.148,-15000.195,-19974.348,36.87406,-644.52637,-143.04576,5119.009765625
2,-20279.91,-20387.393,-42642.66,20.931374,109.034004,-272.29947,22315.017578125
3,25323.656,25389.232,43310.383,-133.72752,-168.99034,612.29395,17989.1953125
4,-15625.187,-16126.326,-10378.357,166.71999,1065.4216,835.02637,5999.19287109375
5,28521.658,28845.602,3601.7578,183.87091,2273.659,-1156.6377,25471.6015625
6,-33588.59,-33426.07,-53413.953,3.62561,482.63748,-11.528621,19924.67578125
7,37686.094,37349.125,49949.855,39.626205,165.81328,-149.00267,12441.853515625
8,-36470.996,-35398.2,-43651.414,-43.961517,226.44208,1812.3364,8392.0048828125
9,42889.355,41206.434,38161.01,498.92535,627.90564,-4614.4556,9112.6943359375
10,-10705.178,-9577.863,27053.342,-3.6929207,-2846.7737,603.2124,37547.5
11,-42064.0,-41650.227,-61194.332,60.459282,78.967545,-3.1005166,19341.306640625
12,38101.8,37190.47,43167.203,-55.37955,-88.3785,-266.88644,5599.23291015625
13,-17034.977,-15690.037,-412.96094,69.20691,157.66708,2406.0918,16528.806640625
14,7753.9277,4538.0234,-27384.787,-700.45105,-475.9469,-6886.198,35727.8515625
15,-16637.68,-14963.436,14533.825,-2027.7012,1958.9285,5841.689,32380.55078125
16,-16597.258,-16996.82,-30469.693,1218.6683,-1024.7491,998.42725,14059.07421875
17,-8659.437,-7737.877,-18216.852,-269.24615,5183.572,2163.3245,13995.2431640625
18,-33562.273,-27684.926,-59907.555,-2986.1914,50.120922,-775.9707,30199.724609375
19,386533.53,382260.16,378944.44,340.06747,-2172.0488,1169.717,7875.91748046875
20,-38474.445,-16729.77,6220.1035,-553.85315,173.82965,-2362.5947,38939.9765625
21,15380.704,15856.785,8963.74,-325.7375,-553.3342,-310.93707,6781.2958984375
22,-11158.043,-17436.703,-3257.0654,-4434.852,-15343.566,-2416.3472,30565.49609375
23,-42995.652,-43530.105,-55345.105,2730.0596,-19390.373,-4153.3965,36718.73828125
24,-54683.75,-63291.03,-87513.17,-572.81104,-7592.8853,9717.399,36421.25390625
25,55506.023,61130.586,77548.6,993.27905,-1045.3877,-3619.8647,20954.228515625
26,-39120.867,-48089.73,-63371.258,5204.8765,-725.0925,2455.3496,23493.8125
27,239554.67,239582.53,274384.28,-191.028,585.3402,-400.7868,34838.93359375
28,40804.176,36662.36,66733.46,-3129.4336,-889.9201,492.87122,28798.63671875
29,-50647.08,-43030.49,-20012.428,482.061,-1200.3329,1647.4685,27862.603515625
30,6643.1714,-1844.312,10240.672,214.82523,-610.9602,1007.33624,10946.029296875
31,-14690.874,-15556.238,-38377.74,36.027973,-293.5486,-1349.9568,23389.0625
32,-10256.586,-7890.58,-22658.291,-223.4848,-137.85577,182.02026,13749.509765625
33,-4794.3438,-4304.2246,-27353.06,-118.54715,524.37396,-308.67593,22832.98828125
34,-40791.586,-36966.02,-61135.84,639.9534,-2305.5132,-236.38567,22884.369140625
35,-40182.625,-40025.04,-59618.344,-63.633198,-336.98102,-280.32397,19530.0625
36,9126.291,11011.486,15004.753,-1107.1045,2605.7498,-163.3715,7152.28173828125
37,5764.0386,6839.446,13620.783,556.1131,1193.6144,-404.26367,7754.2216796875
38,16213.614,11635.513,24657.918,-190.9377,-1243.7191,414.36893,11670.0107421875
39,4940.1333,4840.7593,9685.454,59.39347,-1388.381,-29.64755,5366.146484375
40,-10033.398,-11635.616,-18851.717,-839.15497,1005.4884,1912.3528,9072.9169921875
41,14760.3125,14214.613,25231.719,-100.89403,-60.650993,265.54477,10766.40625
42,-6137.6694,-12874.167,-10208.6875,1998.0886,2988.582,4741.08,11863.1630859375
43,-15195387.0,-15194307.0,-15193134.0,98.24826,222.00671,-73.41751,2000.53955078125
44,285656.03,269950.97,308971.66,-6791.403,6875.919,5531.486,39095.23046875
45,215621.06,230071.47,254599.48,8263.358,159.75484,8963.282,40135.08203125
46,185015.88,193558.72,225973.67,-1746.3295,-2307.9026,-505.98047,37769.3203125
47,60425.258,63721.758,95114.31,-1729.3813,2271.141,-10022.892,37758.0
48,80462.1,92601.39,116880.4,8860.768,-438.40085,3749.193,36191.82421875
49,-158290.33,-119593.25,-139253.72,-2680.2036,6886.7646,-6112.908,37404.96484375
50,-23906.693,7989.338,-28862.723,-6557.2085,771.5996,-3083.1968,36868.578125
51,31045.771,29950.62,53523.062,-1075.2059,1140.9675,-2989.2288,23774.443359375
52,-12541.904,-20286.059,1437.9238,14077.419,928.00824,8650.195,34427.48828125
53,6437.785,6024.3887,41025.82,20.749435,-2608.0532,5762.959,36480.734375
54,60610.723,59890.38,62147.32,611.88495,1956.4341,320.87155,4111.19140625
55,-27006.223,-34964.66,-62054.133,-893.4222,-1975.1871,-2202.9846,32271.107421875
56,-42810.72,-29821.166,-61365.113,-2640.4888,9139.81,-10058.095,36455.8359375
57,-24724.355,-24788.648,-37497.164,2238.9614,6255.558,12372.646,27459.234375
58,-3664.38,-8124.4067,-11416.802,299.07703,10233.539,-7064.935,22574.32421875
59,-5947.446,-6198.4004,-5783.5957,-2226.9878,-711.9633,4160.32,8273.7431640625
60,801.5155,-2729.769,-2444.631,-642.7396,1251.8375,-1406.336,4839.2509765625
61,17871.576,8501.332,20960.13,1070.5253,810.6396,548.6846,11514.9384765625
62,9890.85,7679.49,16114.916,1345.6597,1056.3865,-56.543705,8135.26953125
63,9289.889,7376.879,14485.84,-1273.7397,961.6757,1319.0966,7311.578125
64,5865.543,3301.5327,3408.3857,2159.239,703.98987,-723.41516,4832.73486328125
65,1019.37476,1681.3721,9075.468,-886.95483,-352.77924,-495.39926,7967.14794921875
66,19215.928,20989.463,32757.57,831.44586,-66.0012,492.0194,12857.6103515625
67,-10110.066,-13640.57,-28378.133,2571.9282,2164.967,-411.2319,17779.3203125
68,27251.137,22088.71,39814.543,7064.9565,1013.4504,2050.8281,20366.326171875
69,-9242.564,-4182.8496,-34573.26,6529.845,-4587.344,1447.0117,31507.783203125
70,-29206.816,-25406.195,-60551.137,-2961.3406,584.4045,-782.57477,33840.94140625
71,3472.3252,9516.376,31957.785,-5592.8223,4815.782,-113.444084,28969.591796875
72,-8952.773,-29589.4,-43710.176,-1182.8353,1739.1271,769.541,30524.078125
73,145215.8,146904.1,181998.62,536.1224,-6356.613,-2020.2429,37789.58203125
74,273365.88,274800.72,312378.66,-891.5602,639.25616,-4529.2954,39156.515625
75,-188590.6,-185900.19,-224746.17,-4104.7515,4559.768,-110.54661,39047.34765625
76,-279246.84,-269157.47,-248635.31,-311.509,16729.002,1622.3693,39721.23046875
77,-48885.863,-47923.43,-75557.55,-1506.3513,-11135.378,4209.021,34204.0859375
78,31705.805,30713.0,49719.105,229.65231,-448.30212,293.44247,18557.150390625
79,-16253.152,-3424.1318,-33334.25,-678.52966,280.78607,1755.9811,26198.275390625
80,-7853.1963,-6336.586,-20560.045,-4355.647,573.4473,1787.063,15827.751953125
81,-17501.734,-28548.438,-23146.324,-253.58698,404.65735,2120.3816,10281.49609375
82,-11729.288,-2253.3994,-28821.389,2438.7407,-1309.3551,-338.95508,23816.49609375
83,16367.695,15762.102,27772.771,-51.663055,42.772236,307.84424,11732.3125
84,10278.632,16998.738,24190.008,-3237.9075,-835.3055,326.92224,13381.564453125
85,2991.9172,3133.2842,11784.333,407.49844,-747.1774,253.32442,8857.150390625
86,8301.567,17071.83,29101.258,801.0748,8.017931,1237.3821,18265.939453125
87,8043.837,16287.079,14763.523,2075.5112,-2438.1282,571.9342,9457.8642578125
88,-8164.1885,-4609.0,-12927.834,-495.11465,591.17706,1792.4478,7980.5908203125
89,115.03369,5472.321,8385.727,682.097,-7876.534,-9551.847,22672.115234375
90,-9561.69,-4876.976,-7502.556,-484.0689,-4962.2876,10247.708,20153.474609375
91,4417.5264,6068.749,15956.984,-1211.5596,-3245.016,-47.86035,12362.537109375
92,-2967.4238,-5403.6055,-6266.0986,569.973,-1575.182,1545.8309,4936.298828125
93,20786.824,19557.395,30310.102,-1020.0466,-1526.2769,-585.37396,10726.162109375
94,1732.4302,2932.4832,7269.985,-829.8455,645.3652,-428.89777,5415.400390625
95,35373.023,24582.596,56030.98,22.815727,533.65295,-83.21763,27694.2109375
96,-41925.832,-39443.75,-64537.48,-3285.6436,691.5097,334.85355,24652.15234375
97,-31576.81,-30544.59,-13584.975,-15020.15,4883.618,3850.7505,33151.90625
98,-176378.05,-157611.5,-199870.03,3627.5508,-2061.1887,-3870.98,37974.9453125
99,62797.79,58983.93,40704.77,-298.76953,534.899,-349.45828,20490.970703125
100,-13504.891,-5221.9653,-1615.2144,-906.6491,-1617.663,892.0988,11144.2373046875
101,49813.938,45910.367,63515.426,1919.6448,-1045.7875,862.8796,16523.4140625
102,24761.012,24941.781,10905.741,78.217575,254.94374,-357.4783,13967.9111328125
103,1375.148,2930.519,23245.266,172.50671,-922.2113,1724.0585,21407.076171875
104,9050.897,9348.316,21126.732,1361.8877,-617.71234,1.2828652,12207.849609375
105,7402.477,7335.857,8858.029,1404.9323,1308.7489,-622.2716,3800.22119140625
106,-5877.549,-5435.721,-13239.883,1209.8546,-726.4847,-1315.4463,8295.65234375
107,-26167.99,-27139.424,-44584.527,523.29266,-1758.6418,-306.15195,18237.412109375
108,-8220.902,-5308.497,-11978.37,1976.31,13909.942,7216.859,27963.7265625
109,-10753.733,-10547.874,-17975.387,692.0955,913.98834,-50.21509,7591.57275390625
110,-17417.299,-19865.533,-30706.826,-239.51509,3602.0388,2843.783,14609.1396484375
111,2526.8398,691.9894,3501.3765,126.23863,-1317.324,-722.68695,3595.16235351563
112,16539.514,19467.375,30940.629,430.9926,-540.02203,441.58997,13259.6064453125
113,-23099.418,-21433.188,-38424.61,-446.60672,33.983826,129.94553,16242.708984375
114,-47776.44,-39060.49,-76636.33,3450.0066,-104.34141,989.75476,34627.75390625
115,-24391.111,-13953.693,-24214.541,-836.8741,-1738.8927,-4747.981,13635.6240234375
116,-42418.7,-18576.943,-5027.336,3998.837,-8896.109,-4427.0635,37673.05078125
117,71117.51,69492.484,76117.95,1076.8641,751.4102,-3229.4766,8498.9599609375
118,-8786.766,1285.6221,-27862.475,13111.531,-10002.361,-6747.8643,40124.21875
119,-457031.22,-441623.94,-463421.16,7824.792,-18060.176,1957.4705,39374.53515625
120,15413.516,17942.271,34662.96,-1161.4768,-1975.954,310.8847,18555.560546875
121,-32085.113,-34720.6,-51912.23,3224.54,-824.9736,722.4108,19560.33203125
122,17481.582,16016.721,28095.186,10.671693,-2966.727,-913.7448,12619.484375
123,-24099.361,-33698.445,-56013.234,1445.2417,-27.520885,141.2821,28471.42578125
124,15366.334,14978.902,21566.484,1036.7844,877.0761,1428.3682,7255.85009765625
125,-400346.5,-401310.0,-396689.44,-565.1814,-10923.012,-17982.312,36698.9296875
126,116647.914,101339.3,139512.94,2555.7458,2083.7903,-12227.286,39853.94140625
127,-107367.91,-103269.29,-140757.2,-930.51825,1561.2043,5908.722,37190.62109375
128,-19362.492,-7106.326,-2386.8765,2067.3232,-2082.4692,-4096.076,17506.9765625
129,3353.9536,-241.07227,13444.769,-2452.243,9686.625,12693.088,30559.802734375
130,23365.06,23328.969,35516.918,-784.3532,-394.96228,274.12573,12273.8173828125
131,17415.332,15590.17,29491.031,292.14838,-43.42843,44.782215,13094.3330078125
132,8463.872,12201.194,16273.342,8.69176,743.4335,2539.5745,8171.62841796875
133,575.88354,5925.2104,3348.2236,-4608.3755,1656.9424,2986.4873,10962.4853515625
134,10701.372,11515.676,21504.422,-757.3352,197.60466,-955.5139,10637.14453125
135,112378.5,97140.41,130967.17,-5878.019,6466.736,11025.105,38141.34765625
136,10903.463,8024.0645,10454.556,-1502.2216,1311.2427,-16262.717,28505.365234375
137,440751.28,464506.28,484710.88,-2286.8042,4685.998,458.99585,39175.015625
138,-107005.57,-99891.47,-141629.12,3506.1265,1335.7926,2612.1274,39476.80078125
139,30563.787,16954.586,32630.54,2505.7803,-143.62479,984.4014,15473.0244140625
140,23205.695,15891.485,2863.9873,3114.493,-1209.8723,-4.3648777,18761.419921875
141,-44157.516,-39813.93,-71203.61,-962.1182,979.2684,94.83569,29555.302734375
142,-10161.592,-10057.489,-24137.797,-313.90118,409.16495,-800.8654,14125.2294921875
143,10506.457,9915.203,25552.805,-1125.6986,-1845.9893,1216.9806,15940.7060546875
144,5874.189,8546.09,18110.965,-761.10583,-411.073,124.79966,11246.0576171875
145,10558.787,9409.434,20255.518,-3426.7405,-239.6079,647.51685,11964.54296875
146,14194.502,9377.823,13031.668,2915.159,1622.0828,160.67789,7239.95458984375
147,8362.593,6758.593,20172.408,2534.5757,-415.26596,-372.51447,13460.8076171875
148,-3307.3481,-4359.718,1108.2483,951.20593,2176.663,-2125.2566,7465.24755859375
149,9456.607,10307.793,19709.783,1138.2272,-726.7733,636.07587,10188.7109375
150,51068.79,37591.53,73746.67,915.2502,224.07306,-14112.846,40021.73828125
151,59289.566,41603.59,85204.17,1031.6945,-526.5636,3752.3623,38586.93359375
152,-98550.59,-98130.19,-135365.52,71.11075,122.999374,-563.5211,37040.59375
153,72353.75,69780.84,83378.89,-3885.153,-628.4973,835.70654,14321.4423828125
154,6244.818,-96.43701,-23676.06,1461.5581,-957.6596,343.23425,27481.771484375
155,23390.016,20470.156,38573.51,-3146.9058,6682.9175,-4066.9082,22286.998046875
156,10369.966,3444.5825,15749.836,-939.74884,-549.15027,9368.219,19519.380859375
157,-1056.8658,-3118.678,4327.294,1617.1876,-1913.5767,-2628.477,9159.654296875
158,-10010.7705,-10993.489,-19995.105,875.9612,-1852.4316,-860.3399,10279.001953125
159,-5310.0127,-6546.3057,-11984.635,473.44513,-2998.1562,415.26013,8123.04150390625
160,-22989.596,-24051.426,-38177.81,1559.0913,392.91504,-380.36978,14962.3359375
161,-19895.59,-18941.082,-33585.586,-1132.8604,1536.3599,400.04346,14587.861328125
162,8911.34,7272.912,17073.117,626.18994,232.83412,1412.6428,9486.685546875
163,-3641.8613,1150.4297,-9327.578,4208.9985,-1014.52997,1738.1624,12158.92578125
164,-3220.0542,-8250.0,2594.652,1406.9214,-154.0266,-3156.8374,11147.427734375
165,-98944.76,-99817.35,-65111.438,3235.8887,4485.6836,6535.268,37348.14453125
166,75767.11,76557.734,55036.977,-4390.2295,4864.3486,-150.013,23992.265625
167,32265.387,39859.75,43654.0,-284.44553,-4653.791,-13668.393,26955.083984375
168,-13817.096,-12569.055,-25639.79,-1432.2078,-1425.2793,1363.9504,13187.79296875
169,12811.493,13108.275,21501.17,-502.24246,-511.27194,305.09076,8651.0
170,-3670.6147,-2816.7422,-10551.0,-1020.0904,71.92259,153.25104,7559.861328125
171,29872.223,8430.203,46051.23,-7443.067,3264.8945,7774.3027,38051.6328125
172,-11351.208,-22278.102,-22615.342,4208.047,-1726.3075,-17225.373,32793.28515625
173,1147.6362,-1650.2174,-2935.0474,602.9523,-158.86708,-1364.7075,4452.77294921875
174,21127.988,22279.688,37186.293,-509.62976,-163.76425,-978.06104,15634.2783203125
175,17729.453,23277.45,41664.07,-2456.7026,-1022.03326,-759.8068,22222.2578125
176,-70937.875,-71854.96,-110162.945,1260.9901,878.5504,3734.2554,39400.43359375
177,1145.0508,-38438.19,-12423.9375,-2842.6985,1574.754,8062.206,37954.26171875
178,24891.777,24844.418,40624.37,405.96622,-249.51257,-486.88702,15800.4501953125
179,-6534.915,-5056.8135,-14010.686,710.39386,-1786.6274,-86.040794,8957.353515625
180,-4678.4077,-2513.1177,29079.834,1744.752,-129.27524,-1198.4481,32934.8203125
181,5626.8057,8777.639,13818.436,-736.3173,1117.6841,326.02655,7544.078125
182,-3402.1074,-13643.042,-19401.754,2180.4185,1288.8838,-167.11351,14708.64453125
183,30251.316,29567.715,48212.945,1049.1519,782.1835,398.9612,18465.673828125
184,-43915.74,-42259.984,-68265.54,-784.3385,-1943.8456,-3706.356,26274.779296875
185,-42769.406,-42800.953,-63057.703,13.451957,393.75632,455.41556,20299.35546875
186,-36087.57,-37309.418,-56038.68,222.56944,-3877.4734,4557.089,21970.814453125
187,-37917.035,-38054.223,-55052.36,70.418526,833.26575,-55.41527,17128.76171875
188,-11306764.0,-11305801.0,-11304847.0,143.29692,623.5377,83.29436,2001.24975585938
189,-61489.117,-62258.523,-91660.04,1127.8657,432.61057,-454.4889,29877.419921875
190,-112372.28,-112558.95,-149317.25,-773.1731,301.85562,77.21451,36880.26171875
191,-100860.664,-101721.87,-137896.94,428.6355,-116.37299,-21.589897,36621.3671875
192,-43472.8,-43247.664,-66322.95,9.313567,522.98773,138.0748,22982.658203125
193,-42495.44,-43178.6,-64027.05,211.93312,543.80615,91.725006,21222.97265625
194,-42778.926,-42954.69,-63659.742,51.31705,-33.906124,-20.171043,20793.79296875
195,-125812.85,-126810.055,-163138.2,-614.0402,30.263771,-74.02441,36852.48828125
196,-80149.17,-81438.84,-116218.45,-593.36444,-231.13945,-193.27003,35460.78515625
197,-43890.19,-43750.75,-64152.434,47.15852,-226.345,51.273586,20336.458984375
198,-40580.63,-41415.473,-62867.78,112.70838,5.4285603,125.68792,21883.634765625
199,-43764.598,-43706.215,-64194.645,-134.04059,-109.3718,-312.5931,20468.658203125
200,-17273.188,-17946.709,-14437.823,1288.8307,-4834.9204,-6488.4976,14553.935546875
201,-43975.633,-43859.29,-64094.39,-41.542347,-422.9687,-34.714798,20190.6953125
202,-42939.414,-42792.516,-63587.293,-35.9346,66.3846,-14.489974,20722.146484375
203,-43162.98,-42986.098,-64055.273,204.39093,-188.3449,-284.9263,20992.6171875
204,-45332.57,-44836.113,-65695.7,34.08876,0.16782926,130.46518,20617.16796875
205,-42442.145,-42561.977,-63262.363,221.45834,445.20285,191.99008,20781.080078125
206,-43307.285,-43862.395,-64412.21,139.09879,352.3182,-131.88887,20844.498046875
207,-42261.574,-42252.254,-63620.35,91.40829,-460.66187,210.4159,21382.025390625
208,-42735.38,-42574.188,-64181.67,422.98178,932.327,-337.50806,21608.162109375
209,-43075.043,-42979.902,-64457.37,17.828999,907.33936,-465.7036,21502.76171875
210,-40513.293,-39895.637,-63376.547,-314.65567,-558.22595,-269.83603,23209.51953125
211,-50288.293,-50409.89,-56693.9,-215.84889,4267.8237,493.843,9786.8291015625
212,-43721.355,-43418.664,-67307.75,4.0439863,427.79523,10.806537,23750.755859375
213,-41017.82,-41078.094,-63706.57,-172.81087,198.21371,-495.87363,22679.51953125
214,-44011.965,-44683.773,-69332.19,259.39346,-519.027,-1219.6971,25100.3515625
215,-43008.586,-43120.066,-63425.477,26.193926,-248.83768,309.12732,20373.02734375
216,-41201.836,-41357.184,-62167.48,-0.60957336,134.11707,-374.008,20899.73828125
217,-43181.418,-43089.117,-62910.46,38.792633,-217.73297,97.31623,19779.783203125
218,-40309.535,-40324.023,-62495.664,-135.11232,295.76367,-46.32059,22186.18359375
219,-41686.65,-41269.1,-61982.367,147.76196,9.411915,-359.75827,20518.748046875
220,-42023.285,-41941.2,-61869.414,23.372305,-207.95584,-32.73413,19890.68359375
221,-42594.156,-42546.203,-62324.8,-114.20854,-154.56693,173.22621,19759.748046875
222,-43750.824,-43614.555,-62987.11,116.86015,167.66559,-41.517033,19308.158203125
223,-38937.688,-38657.074,-59346.297,-166.61726,355.6146,-282.32724,20567.421875
224,-35721.574,-34211.445,-57043.555,-356.5183,-58.894665,89.75721,22125.146484375
225,-42407.785,-42314.28,-62140.49,-13.913183,173.97647,-178.56668,19784.34765625
226,-38391.06,-38005.387,-59921.727,-92.27389,138.22398,-670.8463,21759.0234375
227,-39309.4,-39590.918,-59750.348,83.83219,-149.7276,-118.481735,20304.8671875
228,-41200.773,-41062.19,-60684.754,-121.38571,67.90434,-209.23787,19558.482421875
229,-41711.594,-41322.05,-61504.203,16.561422,-291.99866,192.33705,19999.419921875
230,-40589.266,-38370.004,-60490.6,-120.182556,-555.97516,-3344.5503,21901.673828125
231,-35224.246,-34912.938,-51355.457,9.670873,484.7301,-139.57872,16312.5185546875
232,-25608.46,-26415.457,-38932.117,-99.03558,1318.4238,202.74782,13144.8232421875
233,-35387.0,-35469.29,-49893.695,-61.962955,28.015125,-147.69368,14468.4677734375
234,-30885.238,-30454.707,-44396.062,-281.04926,414.60593,64.47826,13758.986328125
235,-23078.98,-23431.047,-35043.09,136.09895,2593.3792,275.5191,12629.7998046875
236,-23781.043,-23753.305,-32287.256,-349.79172,1331.4071,641.2762,8916.8984375
237,-22901.95,-23294.088,-32385.39,480.23224,1279.6285,91.34185,9591.6552734375
238,-18485.846,-18531.293,-23630.98,-342.35327,1807.438,313.50198,6057.02978515625
239,-12752.079,-13734.276,-21431.785,238.63916,846.0539,-505.38052,8417.9169921875
240,-22853.697,-23112.895,-30856.492,28.893032,1755.8246,61.49728,8443.9453125
241,-19768.322,-18834.562,-24029.992,239.12685,1252.5312,245.38937,5298.28369140625
242,-18788.88,-20175.504,-24981.297,895.9174,1411.2772,-235.76659,6342.875
243,-17288.67,-17106.236,-21828.027,-151.2456,1993.6459,62.04494,5785.431640625
244,-16421.621,-16808.42,-23282.252,-292.72403,1501.579,-105.07735,7184.60791015625
245,-33135.703,-36008.043,-55318.05,492.40176,-722.8695,-487.32098,20966.619140625
246,-54383.74,-55396.348,-81262.95,738.53955,120.1912,715.7263,26448.361328125
247,-30060.229,-30772.1,-48694.32,369.82266,676.2193,185.6438,18340.02734375
248,-59403.336,-67202.14,-95353.59,1479.6918,-1934.2268,-1818.2444,33175.04296875
249,30853.64,11300.1,25217.947,9419.501,3448.8499,4670.908,25907.935546875
250,-72233.72,-75190.67,-107755.28,490.24454,-139.70692,1022.48474,34196.5703125
251,95140.555,100617.766,133159.08,4012.227,-6169.4976,532.7522,37822.03125
252,130421.81,120073.234,86630.27,2851.0952,-2217.777,-135.9783,40134.88671875
253,-21389.223,-24983.455,-42330.54,6529.225,-2311.8994,-2935.052,23365.78515625
254,1347188.1,1344057.9,1341032.2,363.57883,-4869.7397,180.07515,10003.0390625
255,67102.28,67180.63,67238.08,-520.3101,-1014.382,-174.05537,2000.97631835938
256,-203850.45,-181074.25,-161354.03,7357.2495,-2274.767,47.426395,39175.3984375
257,206805.77,178653.75,166222.34,-7930.0063,5664.8374,-411.483,39780.38671875
258,-58216.18,-74163.55,-102606.84,-38.228348,210.31158,47.078896,38949.69921875
259,20549.582,26912.512,58562.64,612.0963,-4208.7056,-9533.883,39630.2109375
260,-14839.77,-15671.6045,-21259.52,-323.38394,-9252.11,2412.6545,17639.33203125
261,15006.459,30629.72,52701.96,-3758.1904,-161.7922,8888.743,36818.33984375
262,141741.19,151756.78,180237.42,982.0182,70.86949,-7864.6826,37217.97265625
263,-20268.707,-17387.426,-31443.523,1030.9154,-2154.2722,-2642.0168,14262.814453125
264,-16315.486,-8608.203,-33651.65,3588.3152,607.1248,2393.9585,23462.447265625
265,13066.861,12625.339,-23440.312,-30.540215,4182.61,2047.0359,37174.00390625
266,-43815.223,-43376.88,-68785.086,-2.7157767,199.06172,-355.4109,25201.775390625
267,59181.79,62350.89,95209.31,17.242472,1658.9272,123.27277,34672.08203125
268,103316.52,103824.58,140269.19,326.90054,535.72534,-272.19196,36720.39453125
269,-57343.383,-56823.055,-89154.43,-837.2336,-661.8086,-449.6666,32137.037109375
270,-29687.584,-29413.232,-46480.85,-722.3465,-413.97516,-128.76225,16994.869140625
271,19086.812,23069.27,38040.04,-710.408,2749.059,1104.6599,18095.611328125
272,-31058.594,-35690.383,-8581.803,4100.8496,-14396.316,-4296.433,36855.90625
273,-114695.91,-114307.99,-151202.55,314.44196,-250.61723,-884.455,36740.69140625
274,-68978.97,-70692.77,-102035.34,201.08598,185.23366,-86.01907,32237.482421875
275,-44143.973,-43995.832,-64149.0,63.039215,-181.18343,30.64362,20082.328125
276,-98266.8,-97536.086,-134744.48,-78.18876,-460.98062,-329.69183,36861.80078125
277,-48415.742,-48227.125,-73974.71,378.11856,271.07108,335.76074,25673.037109375
278,-41518.09,-40957.305,-60991.742,-179.62338,268.33902,463.56418,19784.2265625
279,-40427.492,-40212.504,-60222.137,-16.6461,-303.98572,-2.9589908,19909.994140625
280,-35545.137,-34710.105,-49610.418,-8.498312,572.1619,-104.35968,14535.7958984375
281,-26512.0,-26200.816,-38386.527,167.45914,1067.5582,334.7073,12191.6220703125
282,-42906.668,-43124.316,-62782.535,-20.094267,112.97531,152.21033,19770.69921875
283,-41731.81,-41827.65,-61790.574,66.008934,9.170022,58.829826,20011.611328125
284,-42599.867,-42675.652,-63469.05,-52.89717,-70.33391,-27.125765,20832.00390625
285,-161702.1,-162614.08,-199173.53,-453.7887,-36.523754,19.519014,37032.28125
286,-43552.965,-43402.812,-64999.664,141.55695,452.8203,451.85583,21552.06640625
287,-37591.543,-37418.875,-58370.81,-5.2464437,77.20416,1558.2515,21040.390625
288,-17846.656,-18989.293,-13606.848,-796.5616,-2747.8308,7652.956,14979.4736328125
289,-44579.168,-43574.855,-65303.47,-223.44427,-14.747604,-179.04865,21250.072265625
290,-44748.81,-43664.23,-66004.45,59.22379,1361.9325,589.3201,21969.27734375
291,-42028.05,-42266.61,-62761.477,38.5734,-295.76,-130.40466,20622.890625
292,-21404.28,-21452.227,-28512.344,20.613749,1381.3376,-172.3177,7483.361328125
293,-15723.812,-16124.634,-19237.748,237.38327,1454.2734,-285.29794,4225.86279296875
294,-37995.363,-37896.07,-62238.195,1178.5574,-746.2748,343.3677,24419.734375
295,-18420.822,-18791.676,-22587.736,35.39063,1927.6176,62.592567,5207.49755859375
296,-40476.984,-39975.746,-65265.367,-306.41684,-161.83743,-352.1791,25057.380859375
297,-42673.22,-42722.39,-62639.93,-48.93956,81.724915,12.54126,19942.865234375
298,-43377.16,-43389.38,-63860.367,-211.43413,162.97797,317.27094,20489.689453125
299,-40147.133,-39980.113,-59902.953,-149.07683,-101.45346,-17.398714,19842.337890625
300,-41464.855,-41468.785,-60779.79,24.055323,26.02658,73.08278,19313.482421875
301,-99602.05,-102191.47,-138108.55,-274.76218,-905.4578,857.6448,37344.86328125
302,67137.33,70451.46,103758.64,-1382.9427,594.1689,-1508.6901,35275.50390625
303,16325.061,15193.434,23823.7,487.64554,-3709.811,-1675.3093,10789.685546875
304,-29048.543,-25807.855,-51459.688,-313.5695,-613.87354,-786.3445,24262.51171875
305,5582.5874,11736.871,20773.938,3291.3098,2749.7556,-3602.7913,16409.826171875
306,137114.2,139683.45,152038.02,-3190.484,-8913.165,-17002.44,36429.35546875
307,-38676.68,-37317.652,-63118.332,221.7546,167.81761,-1091.2133,25224.2421875
308,-119877.35,-111566.375,-120710.15,8797.714,6238.3354,-18318.422,37846.14453125
309,-15009.486,-10175.465,2766.5225,-556.4476,-4782.809,-19688.365,38547.04296875
310,18334.387,18943.58,27076.771,6588.755,-2346.116,2483.7456,15386.013671875
311,1323937.4,1309850.4,1297526.9,-378.3046,-8248.017,-53.912582,26989.640625
312,-115400.3,-115371.93,-151960.72,-437.3644,-710.1858,1514.249,36696.9765625
313,-45987.5,-48786.32,-69919.96,331.47525,3215.3572,4051.4253,24376.234375
314,-44438.223,-44231.14,-65759.75,98.13193,-90.91238,-584.8713,21451.005859375
315,-42609.105,-42385.09,-64494.004,102.245834,-986.3935,297.93716,22070.751953125
316,-40938.953,-41357.562,-62602.87,155.62517,98.25735,-56.335094,21460.265625
317,-71159.04,-72320.266,-103369.945,89.73737,-229.2846,3.2376509,31649.150390625
318,-43548.152,-43240.7,-63454.65,-90.34381,-266.6513,348.73657,20077.00390625
319,-42748.707,-42182.855,-65147.797,179.61855,746.445,470.18903,22740.833984375
320,-43675.31,-43578.375,-65029.992,-95.88166,755.17975,-76.67271,21444.30078125
321,-46511.004,-46531.14,-53421.93,-109.489136,2541.3162,-212.38669,8195.6259765625
322,-40104.656,-40034.65,-63833.75,506.2384,2543.6404,-414.82922,24195.689453125
323,-50978.934,-50000.758,-76733.08,791.5828,-3472.4358,-5653.5625,28694.361328125
324,-45672.387,-45237.703,-66820.68,-33.952938,469.84998,616.188,21411.138671875
325,-40161.62,-40704.258,-60971.75,100.60473,71.89047,255.15152,20550.0546875
326,-38624.363,-39376.863,-57421.63,-59.239887,-1119.7661,-661.6983,18569.98046875
327,-16241.334,-17828.607,-24723.008,25.575937,1395.661,-351.39764,8198.26171875
328,-24683.432,-25045.72,-34384.69,346.51044,1263.5197,198.20045,9797.8837890625
329,-26798.707,-27005.207,-36206.23,-254.97311,1514.5145,-141.29173,9681.8212890625
330,-17178.975,-17667.004,-22193.76,-119.17504,959.0077,247.25351,5091.5595703125
331,-16693.662,-16756.83,-20584.24,-158.23587,589.6986,10.431158,4001.68774414063
332,-14213.771,-14187.213,-20680.828,275.7533,2040.7623,252.80592,7410.0791015625
333,-71539.35,-77944.36,-111849.84,-1262.7725,-219.09615,1112.2928,37635.2265625
334,56072.863,41702.574,34113.766,7229.3765,14037.734,10946.605,38478.55078125
335,-151726.0,-108438.17,-138752.95,1966.1011,2235.0208,-2547.7063,39071.93359375
336,-414984.6,-405137.34,-388068.22,-1569.0338,5805.6304,-17620.248,39954.078125
337,-13716.941,-13225.064,-28345.625,-801.31244,776.8868,593.86444,15040.9716796875
338,-82351.125,-81539.21,-115108.97,774.35254,-2904.071,4484.4033,34463.9140625
339,-44913.38,-43805.1,-66704.11,580.66943,-178.52199,-211.50075,22393.20703125
340,-42060.016,-42498.914,-62964.543,118.511635,397.76166,-140.03262,20702.4765625
341,-38388.992,-36848.633,-58839.0,2238.059,-3385.021,2021.9979,22665.90234375
342,-41520.797,-41483.37,-61462.785,-103.93046,-46.037247,109.94384,19962.60546875
343,-38569.61,-38619.34,-59681.344,-154.33073,148.99622,379.98593,21100.453125
344,-41576.99,-41765.94,-62468.953,-10.963925,24.533491,31.190268,20798.25390625
345,-35533.38,-35192.152,-50771.96,43.672997,1454.8656,-236.11636,15622.2119140625
346,-34112.27,-34334.496,-54405.066,57.09892,-4554.164,-104.31619,21670.28125
347,-41616.49,-41705.426,-61392.152,35.563717,-72.76087,-111.689644,19732.79296875
348,-103974.04,-103697.734,-139496.73,206.38496,3218.5825,-1845.4888,36237.77734375
349,-157586.12,-159661.69,-195312.06,-801.19574,-2420.9893,-800.14813,37022.71875
350,-43583.434,-43799.004,-63896.227,34.584133,79.6043,-208.6343,20209.658203125
351,-45396.066,-46577.477,-66483.055,130.01797,-415.1588,340.27753,20544.087890625
352,-40843.99,-40878.547,-60060.832,36.306263,89.23908,-53.229958,19200.53515625
353,-40628.43,-40586.22,-59952.82,24.180162,-65.350586,51.646233,19346.11328125
354,-39597.37,-39531.64,-59463.094,22.007442,182.78294,415.72137,19914.24609375
355,58799.06,61446.42,96237.58,955.5745,2730.6443,-2859.1003,36866.921875
356,-22708.43,-31053.594,-47007.58,632.88605,7724.2866,-3945.7417,26157.447265625
357,-39519.17,-40101.805,-61753.75,537.8463,1479.7078,700.0092,22151.0234375
358,-39975.34,-40438.797,-59667.8,193.67047,313.5053,272.26138,19481.041015625
359,-42765.83,-42727.203,-64136.414,7.013319,88.49871,-224.14134,21394.001953125
360,-40871.844,-40919.027,-59070.43,-10.857966,-3.5651586,20.736515,18175.0859375
361,-12880.566,-12887.723,-19714.594,76.06988,-336.21112,-135.19951,6860.49462890625
362,-44776.54,-44778.31,-64718.516,2.133743,-61.495243,-110.42115,19942.29296875
363,462.18182,537.98737,1123.1973,-50.223045,-22.087536,354.49515,882.388977050781
364,-92429.86,-92847.016,-79304.5,-816.39984,-4850.575,-21056.984,39757.9921875
365,-42813.914,-42826.13,-61535.734,8.050647,-1.0329245,-35.141422,18715.8203125
366,-40684.03,-40635.027,-58785.46,0.035451148,-109.27527,-43.352154,18127.125
367,-43117.64,-43090.703,-62474.14,-10.70274,-58.90886,57.719856,19370.517578125
368,-43319.266,-43329.586,-62380.824,-0.049104318,18.772676,6.0642195,19056.431640625
369,-44074.02,-44082.9,-63256.62,-7.004474,10.798025,3.3209789,19178.177734375
370,-44767.883,-44760.492,-64325.914,6.4465938,14.735095,56.547348,19561.9921875
371,-44122.547,-44114.875,-64422.652,-10.446914,49.48198,-0.101763524,20304.1328125
372,-43555.59,-43546.703,-62668.832,-6.540396,-15.808595,-17.755865,19117.734375
373,3014.0044,3144.899,5786.2993,30.164944,402.82297,-143.36435,2809.103515625
374,-136.42184,-181.51744,-573.4245,39.90085,-263.00592,56.14054,628.526794433594
375,108.39592,232.66339,347.02603,-11.457795,1.0148087,-245.3076,472.924072265625
376,-42186.754,-42226.992,-61648.637,12.747121,-487.4396,-29.293854,19460.197265625
377,-44984.152,-45016.992,-65093.383,-7.703808,-123.64797,2.357572,20093.978515625
378,-45205.434,-45199.75,-64898.664,-4.709176,78.39193,4.927046,19696.544921875
379,-11161.141,-11164.507,-17164.2,23.074226,-120.158394,161.61295,6011.6376953125
380,-52693.598,-52730.98,-75442.16,1.2667351,-624.7046,-697.57556,22787.68359375
381,-32146.07,-32105.809,-44606.89,-1.4726949,930.15826,5.001148,12584.5546875
382,-39679.113,-39673.09,-57419.465,-36.995525,304.99347,-51.353283,17751.564453125
383,-41318.31,-41289.94,-59660.676,3.6612546,-5.9830217,-51.89067,18356.791015625
384,-42130.223,-42154.945,-61593.152,-8.60198,33.805004,-11.004863,19450.68359375
385,-41652.957,-41650.13,-60317.3,0.8531468,12.111086,22.927479,18665.8125
386,858.242,794.1145,1253.5315,-35.281075,73.24919,-80.39127,474.27197265625
387,-41609.215,-41594.617,-59984.36,7.169699,-45.32022,-9.947033,18382.626953125
388,-42217.113,-42210.79,-60851.64,8.561273,-23.637077,-0.8701146,18637.740234375
389,-42908.74,-42937.066,-61925.49,-1.763077,-0.10146861,32.046345,19002.68359375
390,-43387.504,-43400.9,-62425.04,2.5698602,3.2251964,0.18745464,19030.841796875
391,-43282.707,-43271.258,-62565.664,22.636665,26.937546,20.156666,19288.8125
392,-682.1146,-308.20044,-1193.768,138.9022,-52.46341,173.38234,865.585571289063
393,-43512.414,-43529.176,-62541.29,-9.141643,-10.116095,-25.152555,19020.564453125
394,-43595.14,-43575.293,-62919.055,4.277008,-26.941273,-10.539582,19333.912109375
395,-43486.97,-43475.906,-62596.688,3.2278798,-27.382849,10.567983,19115.322265625
396,-42326.816,-42336.79,-60956.832,8.553167,30.488314,-48.13152,18625.298828125
397,-41328.85,-41333.85,-60274.35,19.323849,28.934023,-3.2127442,18943.09765625
398,-41382.74,-41337.918,-59635.965,-20.703444,-28.941042,30.90425,18275.861328125
399,-42295.56,-42160.465,-60934.8,17.16878,-78.73435,-208.33511,18711.154296875
400,-42055.918,-42047.945,-61155.465,2.5699134,-2.1864462,18.553564,19103.5625
401,-34917.242,-34815.758,-49601.816,-11.283839,848.2124,-50.590553,14808.9072265625
402,-43675.637,-43890.06,-65144.08,51.446163,-3086.7708,78.938805,22021.529296875
403,-43257.617,-43254.93,-62362.48,-8.509238,-178.04771,-4.1992207,19108.703125
404,-45072.555,-45114.805,-64626.703,-17.536627,-198.17567,47.209858,19536.267578125
405,-43807.535,-43781.434,-62951.81,-3.6054037,-33.659657,-11.568154,19157.4375
406,-42832.1,-42816.11,-61551.24,0.10418969,-17.086958,-10.955872,18727.171875
407,-44353.14,-44343.9,-63635.65,-1.9947804,-1.6108756,-13.771861,19287.146484375
408,-43175.367,-43139.824,-62338.414,-7.882459,-29.693035,1.1895828,19180.916015625
409,-43591.31,-43575.445,-62916.07,-3.1816247,-36.9692,30.969456,19332.87890625
410,-43465.176,-43457.04,-62446.34,13.093315,5.6355114,-22.587051,18985.291015625
411,-43651.945,-43653.508,-62759.254,0.77849823,53.095894,-29.300924,19106.81640625
412,-42426.047,-42417.066,-61404.43,7.6691165,-1.4959794,5.886567,18982.8828125
413,-47148.066,-47114.453,-67494.73,-25.857893,-290.90628,-441.9749,20384.1484375
414,-42493.402,-42473.8,-61910.887,-15.460788,21.9936,-8.008237,19427.353515625
415,-971680.3,-973262.56,-976149.5,533.7095,-19393.576,935.5752,33870.61328125
416,-45012.82,-44999.03,-64670.316,-8.92531,-21.114727,20.76795,19664.466796875
417,-46231.535,-46203.723,-66343.52,-6.33637,61.14611,-7.574933,20126.1953125
418,-41875.902,-41852.832,-60317.55,4.609744,12.455123,-6.369527,18453.2109375
419,-41764.836,-41790.207,-60170.246,0.1562129,38.113182,-13.326234,18392.87109375
420,-1023888.8,-1025270.7,-1028141.3,-692.60913,-19596.756,1030.3506,34217.53125
421,-43394.64,-43400.098,-62263.7,3.0615141,13.809615,-28.535727,18866.412109375
422,-41523.49,-41557.06,-59854.01,-6.4334326,-163.97972,-45.782303,18316.138671875
423,-1174506.4,-1173923.9,-1173817.0,417.72693,-18863.215,-1369.8518,32772.375
424,-41789.266,-41768.43,-60708.33,13.186479,-0.3529497,31.859932,18929.583984375
425,-45152.477,-45153.414,-65389.617,-11.179365,-98.28566,-17.625414,20237.419921875
426,-43614.49,-43609.984,-62678.055,7.1375384,-171.00618,-33.78549,19068.212890625
427,-41812.613,-41815.836,-60290.156,21.730839,-11.263313,32.523045,18476.06640625
428,-40940.51,-40926.86,-59165.0,4.5640135,19.021317,39.08714,18231.4765625
429,-42088.598,-42091.914,-61144.418,28.02461,-0.20602068,48.794643,19054.412109375
430,-41277.375,-41261.203,-59523.53,10.618266,23.943142,-23.323671,18254.349609375
431,-41771.477,-41773.85,-60327.188,3.272585,30.527756,14.05357,18554.6171875
432,-45746.5,-45730.426,-65607.625,-1.391475,41.589546,-41.40624,19869.427734375
433,-40310.46,-40316.938,-58060.31,-5.07251,-92.975845,3.8317792,17747.345703125
434,-43921.27,-43892.207,-63075.484,-7.290481,22.83035,13.967631,19168.822265625
435,-43215.094,-43220.4,-62137.477,2.3989162,-2.4532268,13.598711,18919.748046875
436,-41788.895,-41727.95,-60694.355,0.6673644,-31.417656,7.06075,18936.08984375
437,-43050.867,-43059.445,-62014.285,-3.6741366,-1.2127672,-15.081308,18959.1484375
438,-43713.9,-43720.395,-62900.34,-17.820772,-113.31561,34.357876,19184.31640625
439,-48920.973,-48844.27,-71074.445,39.210064,-616.9773,-519.0565,22235.923828125
440,-45910.086,-45903.33,-65881.555,-10.421252,66.63216,15.322385,19975.20703125
441,-42621.67,-42602.59,-61767.51,-3.1448317,45.961185,13.194322,19155.56640625
442,2876.9377,3035.2852,4561.2036,-3.3940904,-55.191246,32.348972,1614.75646972656
443,-42005.97,-42008.01,-60427.055,-3.0360575,-5.690085,9.125025,18420.07421875
444,-38208.06,-38212.78,-55055.445,4.6460576,-32.196503,-4.1602473,16845.12109375
445,-44064.098,-44066.227,-63293.875,2.6000361,40.692066,-99.27465,19229.611328125
446,-43110.125,-43116.56,-61948.875,13.514627,-24.65144,-8.800016,18835.603515625
447,-42888.156,-42898.62,-61685.918,-3.0968087,0.7878042,-18.497505,18792.560546875
448,-41277.176,-41269.96,-59679.7,3.9508991,-383.58517,-1.5852706,18418.12109375
449,-37312.875,-37315.363,-53845.27,-1.7761654,17.536821,-43.725124,16531.3515625
450,-42920.598,-42912.28,-61772.152,-4.1805243,-113.715355,-63.884995,18857.0703125
451,-44058.203,-44054.85,-63398.125,-7.5431514,-93.1571,-65.003525,19342.603515625
452,-41215.336,-41190.785,-59365.56,-19.566303,3.921229,11.940461,18162.5546875
453,-40076.19,-40066.48,-57887.312,2.8431015,-91.13924,-30.896072,17816.7578125
454,-42531.64,-42538.79,-61454.87,4.0998235,26.048244,-8.066969,18919.716796875
455,-41641.22,-41685.23,-60261.26,15.263461,-3.4807093,-0.66654736,18598.095703125
456,-40635.137,-40613.883,-59491.97,15.700455,17.426407,43.75479,18867.6640625
457,-39060.664,-39077.477,-56426.67,-0.5649911,-30.794739,-72.96978,17358.150390625
458,-42661.7,-42689.746,-61722.09,-10.965776,-147.23477,-14.579725,19048.115234375
459,-44100.51,-44095.188,-63573.406,2.707474,14.214729,-30.15603,19475.642578125
460,-44504.83,-44483.395,-63832.188,3.3214328,-18.81509,-33.282623,19338.19921875
461,-43127.977,-43114.12,-61910.37,-2.1559098,6.8318877,22.687292,18789.37109375
462,-43003.684,-42994.594,-61770.477,2.8584917,11.985251,-9.704156,18771.359375
463,-44028.83,-44031.79,-63283.008,0.8089531,62.76525,14.407171,19253.021484375
464,-43685.605,-43673.86,-63369.207,1.6557765,-54.282524,140.57524,19691.20703125
465,-41996.46,-42007.87,-60515.55,-3.2844784,3.2776418,15.419501,18513.408203125
466,-41225.938,-41203.887,-60109.562,14.605136,4.29241,20.997984,18894.712890625
467,-41302.85,-41353.74,-59275.56,5.346576,-26.865774,13.394676,17947.39453125
468,-38818.76,-38838.348,-56033.453,-3.0720043,-42.53655,2.8585804,17205.064453125
469,-39729.32,-39756.965,-57814.492,-15.693731,-40.293922,-24.753195,18071.5703125
470,-39132.54,-39133.77,-56461.836,-3.078464,-30.579744,27.844545,17328.830078125
471,-42594.47,-42608.277,-61255.758,8.481707,18.610899,10.462369,18654.431640625
472,-41290.973,-41298.305,-59605.945,6.586702,31.808432,15.77217,18311.4140625
473,-40820.02,-40792.426,-58984.27,-25.957348,-33.35647,42.957867,18178.36328125
474,-43492.43,-43471.29,-62585.46,-17.574024,-131.26575,-51.384846,19105.1953125
475,-14575.771,-14537.748,-22096.338,-27.15215,2.9942212,11.251945,7539.8232421875
476,-40086.91,-40090.973,-57996.09,-1.7080146,-48.34425,30.199528,17907.421875
477,-43217.004,-43227.74,-62007.234,2.464806,-22.209541,-15.3381815,18784.923828125
478,-39855.617,-39839.02,-57466.617,-5.584768,-23.411203,-0.15075153,17619.353515625
479,-42869.39,-42884.062,-61676.72,9.831187,12.024008,30.352064,18800.08984375
480,-870.14374,-704.3645,-648.1549,44.826572,265.93976,-112.34609,544.082458496094
481,3482.1606,3403.9236,5816.2007,-65.33637,-60.39526,-82.72532,2383.43286132813
482,-55864.098,-55877.125,-79622.81,6.1954384,-2.7318745,-17.038752,23752.224609375
483,-48415.613,-48437.3,-69438.195,3.8206053,41.129375,101.18695,21012.599609375
484,-44034.707,-44018.754,-63391.82,2.017707,19.974468,-1.7360959,19365.126953125
485,-43562.043,-43541.145,-62679.688,-2.663419,19.90126,-7.4972115,19128.138671875
486,-43507.875,-43494.406,-62575.918,1.8024247,-2.302777,20.980532,19074.81640625
487,-42843.742,-42833.195,-61648.01,-5.6387916,-26.357992,-3.3062387,18809.603515625
488,-38301.766,-38316.465,-55281.113,-4.1839848,-17.258312,-26.904427,16972.095703125
489,-42041.707,-42049.062,-60476.14,-0.08015374,7.459003,25.421963,18430.814453125
490,-42425.438,-42431.38,-61000.0,-3.0247266,9.415865,-24.852673,18571.650390625
491,-65365.086,-65411.63,-92684.75,2.4462705,-217.7699,-33.97462,27299.091796875
492,-58635.344,-58691.848,-83560.68,-4.506455,-265.6427,93.78349,24901.9140625
493,-42605.582,-42615.707,-61333.87,-19.497416,-120.96624,-61.746017,18724.736328125
494,-46876.008,-46876.926,-67230.7,-1.8600507,6.7827916,47.761097,20354.408203125
495,-47501.22,-47508.895,-68148.91,-0.990519,-22.085764,16.202642,20643.90625
496,-41080.906,-41070.3,-59120.637,8.180269,4.14457,38.613037,18045.166015625
497,-37244.25,-37244.336,-53966.24,2.0725403,-21.790545,69.50197,16722.421875
498,-39763.242,-39745.11,-57435.25,5.9160953,20.664442,-24.54584,17681.171875
499,-10714.911,-10833.747,-16730.795,45.04208,-69.26211,101.24894,5961.6533203125
500,-43656.406,-43633.78,-62648.383,6.5201926,20.983664,63.98947,19003.66015625
501,-8101.468,-8178.6445,-12643.584,86.29973,-92.8359,97.79332,4512.55126953125
502,-40411.75,-40464.258,-60085.617,-24.82991,32.373825,22.129295,19647.830078125
503,-49369.484,-49337.008,-70733.69,-5.0502834,-24.296518,-37.96324,21380.60546875
504,-40807.19,-40753.188,-59260.04,18.301632,-141.10587,-29.151018,18481.62109375
505,-45429.453,-45403.68,-65255.87,-11.553878,78.65966,17.532848,19839.818359375
506,-44634.79,-44615.492,-64070.74,3.1561155,92.388794,-106.26319,19447.134765625
507,-38959.33,-38929.945,-56583.63,15.020592,-9.7048645,-14.582391,17639.056640625
508,-48379.75,-48341.656,-70125.07,22.060999,-74.29429,-220.85854,21768.16796875
509,5497.0015,5324.4897,8443.956,-8.9856615,-43.14575,-216.75551,3060.95751953125
510,2678.6433,2558.8696,4881.0522,6.1174555,-123.83019,-109.04408,2282.65795898438
511,-43403.7,-43385.86,-62312.883,-3.00281,66.31561,-24.147425,18918.505859375
512,-43459.945,-43450.58,-62824.734,-3.041236,-27.037848,10.7731695,19369.541015625
513,-5520.9663,-5424.431,-8967.857,60.87502,-225.59822,-110.49963,3524.70629882813
514,-42470.965,-42456.85,-61204.42,2.258179,44.73482,17.079027,18740.701171875
515,-6532.4155,-6396.7305,-10189.097,91.47743,147.35939,198.90814,3754.3076171875
516,-43163.676,-43188.984,-62356.977,-5.1910725,30.517723,-103.71781,19181.57421875
517,-59395.266,-59375.305,-84581.94,8.50588,78.41342,1.4430579,25197.029296875
518,-43384.81,-43395.836,-62424.38,0.38992417,8.417706,34.495712,19034.158203125
519,-40438.082,-40478.973,-58294.05,-17.74991,-84.53062,-11.121193,17836.197265625
520,-38181.164,-38175.324,-55165.523,-6.860013,-20.60115,-47.66681,16987.5234375
521,-39225.418,-39236.855,-56528.895,-9.524325,-8.8732605,23.104664,17297.822265625
522,-47067.12,-47071.844,-67469.02,-0.87135416,-8.949706,-64.31531,20399.8515625
523,483.1644,537.5077,-439.21915,46.621265,-323.46783,-65.05086,1112.19592285156
524,2603.1616,2804.2585,4403.221,64.105316,159.97812,-25.016272,1734.83508300781
525,-40750.004,-40751.33,-58918.77,-0.7587538,61.414383,-38.70193,18168.5390625
526,-37482.645,-37524.41,-54213.484,-7.377796,-90.29364,193.02574,16714.076171875
527,-46873.258,-46957.312,-67350.81,-39.709217,5.1367564,-90.16059,20436.37109375
528,-43133.3,-43131.21,-62283.402,-6.659472,18.382671,-2.8895044,19151.177734375
529,-43281.0,-43269.5,-62207.2,-2.4565883,-4.451388,8.580293,18931.958984375
530,-42397.65,-42460.676,-62316.82,-13.33708,-152.41399,34.311195,19889.587890625
531,-41181.977,-41173.473,-59279.074,0.681817,-58.579185,-4.679533,18101.638671875
532,-40953.645,-40950.785,-59456.363,5.208912,-11.327024,-14.507687,18504.1796875
533,-41660.71,-41680.07,-60037.586,-1.3437297,-17.35201,-9.753594,18367.236328125
534,-42852.105,-42857.484,-61659.33,-2.1139371,4.1364427,11.233557,18804.544921875
535,-3913.55,-4173.7207,-6122.488,-46.304226,136.05688,45.241043,2107.24951171875
536,-3105.514,-3347.9614,-4863.9697,-32.912197,-131.68248,33.912987,1668.3330078125
537,-71091.36,-70844.78,-100351.68,-19.335722,-19.392754,-30.873829,29384.470703125
538,-47293.598,-47219.47,-68046.37,47.405903,-3.6330266,-67.67593,20790.427734375
539,-3222.1196,-3026.6687,-3735.9382,37.032566,340.18896,-192.50557,930.113952636719
540,-3964.6157,-3737.3035,-7001.9272,98.60415,-135.91777,68.36928,3172.69018554688
541,-36253.324,-36324.77,-53002.727,-63.501915,32.49051,-85.63124,16714.91015625
542,-41966.67,-41957.047,-60360.496,2.2876718,-31.201511,-23.453072,18398.763671875
543,-42188.71,-42187.797,-60709.793,3.0604835,11.709073,13.450318,18521.56640625
544,-29422.031,-29398.848,-43154.637,54.691483,-405.91663,-167.6104,13765.5703125
545,-45920.41,-45912.336,-65972.94,4.830609,34.854366,-83.02907,20057.173828125
546,-37262.1,-37343.484,-54318.91,49.649334,141.5048,37.10783,17018.3671875
547,-61429.18,-61591.645,-87579.07,-26.136118,-186.02142,79.38204,26071.431640625
548,-52171.22,-52321.117,-74983.305,-33.899334,-365.7026,121.668144,22747.380859375
549,-40701.11,-40672.816,-59312.92,-7.87615,-56.53047,2.2292058,18626.23828125
550,156.98917,169.32098,755.827,27.854536,163.53157,25.474762,660.209289550781
551,749.5671,888.8403,1868.492,58.09443,-36.42191,-85.346085,1073.08435058594
552,-40474.895,-40464.03,-58321.37,-5.6277285,0.13616797,46.6623,17852.095703125
553,-15076.453,-15110.29,-22775.768,-31.508905,52.78031,-26.677702,7683.32861328125
554,-75428.984,-75374.44,-106094.22,-5.466069,1.4378754,-233.76039,30695.216796875
555,13498.017,13453.375,20804.06,-68.879135,18.712566,62.989548,7330.32080078125
556,-3431.4014,-3197.8582,-5702.074,-86.54153,-248.83672,159.32944,2454.62475585938
557,-869.92413,-715.7794,-782.20575,-96.024574,80.37723,-66.602295,279.794616699219
558,787.9962,847.58405,2671.3604,56.603004,32.824345,-196.97517,1888.81628417969
559,741.9155,728.8366,1684.8824,26.427263,171.22456,74.84892,1004.26416015625
560,-46915.633,-46818.492,-67319.266,0.43976092,17.206087,-21.965267,20452.43359375
561,-45705.285,-45617.766,-65590.84,-5.788238,-41.99157,-100.57613,19930.359375
562,-37800.312,-37804.21,-54515.82,-0.96225756,-23.781998,52.817684,16713.861328125
563,-11750.65,-11800.004,-18123.863,-9.304809,-137.9634,-290.32755,6373.06591796875
564,-9129.685,-9228.027,-14152.246,-43.700745,-136.39412,177.35881,4989.7666015625
565,-3788.4573,-3519.632,-6696.324,104.765366,-171.35634,19.71526,3071.13110351563
566,-2972.9634,-3251.6182,-5803.294,7.4091263,73.861275,45.98709,2706.0322265625
567,-2224.4333,-2519.8618,-3813.4365,-8.122848,-169.5476,-31.95656,1494.07934570313
568,6687.5957,6630.5117,10727.046,-0.54660636,-36.71906,-184.83882,4081.36572265625
569,-16726.361,-16861.838,-25314.762,42.249992,249.69507,-202.31802,8539.9443359375
570,-1668.1952,-1661.6844,-2833.193,-5.327735,238.10388,348.317,1378.03747558594
571,-36282.566,-36323.65,-52923.41,-73.16705,-40.50639,-18.276642,16621.001953125
572,2610.4307,2386.759,4999.5493,-168.59619,130.59781,485.41443,2671.25756835938
573,-44143.582,-44123.465,-63446.15,-3.2030702,14.299473,14.221985,19312.666015625
574,-42264.47,-42248.63,-61018.004,10.181317,13.3291445,-38.380093,18761.599609375
575,-42932.05,-42929.996,-62088.35,0.1695908,-13.698756,3.3345747,19157.34375
576,-43732.176,-43729.348,-62836.668,-5.7121058,6.7208037,18.135178,19105.9375
577,-38705.023,-38708.45,-55942.47,-12.014316,38.05025,4.7036033,17235.873046875
578,-43373.082,-43374.523,-63037.273,-20.710983,50.72615,48.98745,19663.8828125
579,-43477.34,-43501.027,-62849.438,-11.772254,7.5648427,70.17415,19360.662109375
