Element Label,S11,S22,S33,S12,S13,S23,Mises
1,23204.145,14378.781,8990.373,7631.751,8985.406,5256.345,25579.4375
2,5853.1177,8903.468,-7833.2964,7928.212,-2882.5164,-2985.1172,21876.9296875
3,6299.1934,12244.377,5383.3223,-1917.7078,1182.4548,-3770.9866,9975.8447265625
4,-4842.6904,2196.3281,-13195.31,-5535.1367,3018.623,-2037.2739,17601.396484375
5,-17342.54,-13812.68,-37233.777,1180.4443,-3354.0566,4252.4805,23885.451171875
6,7118.9893,3924.7266,-12705.761,5673.194,1640.4098,974.0901,21151.201171875
7,18603.998,13072.764,4012.7603,32.969467,-2281.9897,-2497.6382,14040.3525390625
8,11254.359,11668.608,-2001.6206,209.29622,987.3245,879.05835,13665.9423828125
9,97281.01,96885.99,134100.45,3190.3066,600.09076,1532.8762,37537.12109375
10,534051.75,537646.06,575287.5,1083.22,1580.0441,2136.9072,39872.30859375
11,19858.195,17779.127,4698.2637,1395.273,-1953.9326,3928.1538,16316.0234375
12,23056.49,13387.285,18603.168,-716.61346,-1965.5333,-7310.8223,15612.189453125
13,-29985.324,-17221.393,-55284.555,-5048.774,5483.346,4494.863,36785.453125
14,520203.1,514205.03,556882.25,304.20166,-1162.4064,433.7756,40077.88671875
15,-3975245.0,-3975405.0,-3976302.2,93.06653,751.6524,180.96869,1671.34521484375
16,506.69543,13522.852,-14128.975,-4458.903,-3846.005,-4334.9536,27102.01953125
17,-8467.867,6350.9346,-950.8543,-12932.3125,-1169.1477,-4561.286,27073.236328125
18,366296.72,364309.0,364613.53,159.52896,132.38748,-357.94348,1987.89868164063
19,33437.324,8834.026,39481.562,-12435.428,-1798.0688,2992.889,35931.2421875
20,10246.848,3005.2798,-4966.698,1445.8273,-4080.9922,3633.3027,16418.275390625
21,-22326.654,-348.6785,-4931.8623,-1912.3177,-14799.168,-4039.194,33470.4375
22,-5570.4,-5841.1714,-6629.9775,247.67838,-474.3626,-863.2669,2000.97509765625
23,7115.0806,5842.457,7486.447,455.96075,148.98888,-600.983,2000.98181152344
24,-4422.2983,-729.9521,-7160.4116,6252.7124,1245.8093,6462.3335,16687.4609375
25,1209.8625,-8587.44,11239.96,8643.27,648.26,-4534.137,24122.85546875
26,-18.204128,8167.4155,-5419.381,5616.569,-20003.545,-5055.409,38886.03125
27,8564.359,1604.7622,1099.6443,-567.49506,-334.93622,-8770.071,16859.765625
28,10173.12,-1396.6503,-8150.1216,-1784.7728,-17944.195,8396.686,38008.640625
29,11161.225,-4481.959,-11897.662,-4239.8203,-4147.16,-16012.127,35922.08984375
30,13247.561,11510.952,23598.465,5508.6035,-11668.347,-1542.2336,25194.306640625
31,2544.3276,10618.253,-5210.859,-2661.6882,-299.91888,-15983.277,31238.83984375
32,-2838.5435,12877.554,-3489.6887,-1714.1488,-9707.521,10546.346,29712.828125
33,14415.942,-8246.843,-13287.457,10931.09,5897.149,1498.7314,33507.875
34,19968.893,12523.906,6361.7773,703.1245,11097.666,9766.416,28220.2578125
35,12445.438,8006.7373,11949.759,-1273.119,-5656.311,2653.6306,11820.19140625
36,12089.79,2710.4653,-791.9341,2245.8518,-4694.89,1473.4568,14861.33984375
37,21640.178,11214.736,7756.0693,-5563.4644,-16085.612,-10763.446,37058.91015625
38,21243.07,10937.508,7380.6914,8702.713,-2129.2463,3369.6028,20745.744140625
39,7834.488,-3985.7588,-1490.7263,12794.6,-11997.229,3253.6304,32727.904296875
40,13451.403,1234.4902,4123.7393,8368.233,-10748.934,2466.5305,26405.587890625
41,-7373.3926,-5283.4062,8410.257,1578.028,-4028.85,-14743.422,30475.80859375
42,468303.75,467097.38,467094.72,-334.98438,513.8245,141.0896,1626.94848632813
43,-7476544.0,-7477378.5,-7477502.0,379.5623,-434.11383,238.00682,1407.91052246094
44,-5018137.0,-5018817.5,-5018989.5,-184.86745,544.1663,843.4789,1932.60424804688
45,-1697436.0,-1691467.4,-1699598.6,3603.5056,-9683.159,10870.314,26980.494140625
46,14550.762,-5770.168,-16387.734,-11366.259,7307.994,-6731.4834,37751.375
47,-8054089.5,-8053507.0,-8057943.0,684.244,916.0797,1495.578,5297.72314453125
48,-32186.125,4559.1953,-24752.55,2518.3887,-782.0486,-12141.642,39943.0546875
49,25152.314,27690.885,9058.559,10009.446,3064.8718,-2504.5881,25570.974609375
50,1181.7513,5294.7017,13991.104,-16538.625,-1869.7109,-7395.6226,33518.1015625
51,-29463.564,-8297.816,-26504.277,8281.366,-6712.9746,-12531.034,34729.328125
52,-3650.2139,-9550.747,-31278.482,4791.7607,7.421546,-2130.789,26788.427734375
53,-6337.7695,-1099.3442,10225.304,-15564.64,-9704.76,-7462.9585,37301.74609375
54,27941.73,-6245.553,20052.379,-11239.312,-4213.014,-201.03682,37331.390625
55,33936.85,11267.702,29335.996,807.5866,-2473.3774,-4483.8574,22613.82421875
56,11805.478,-6961.263,-6382.8267,9285.545,6315.0835,97.999016,26832.880859375
57,4325.4087,4929.8286,4342.438,-13.609291,-962.23346,-149.67911,1789.06884765625
58,-1973.5847,-914.7105,-6262.6997,-6587.1274,4719.806,-15874.819,31258.4296875
59,-18316.293,-19191.492,-28894.064,-8137.7695,16328.522,6165.4595,34870.734375
60,13582.004,-6679.0283,-22164.555,-5919.662,-4409.7124,-5917.921,35108.3046875
61,3379.0295,13855.367,39365.633,-10768.449,-397.4736,-4146.291,37785.0390625
62,16999.418,4751.3203,5887.6377,-521.6444,16357.654,10245.983,35438.18359375
63,28574.04,26063.357,35943.61,-594.3239,19208.637,-7518.0317,36832.78515625
64,39100.11,20499.791,7652.3687,-524.3522,2850.1772,602.0654,27861.75
65,25769.385,22788.312,21728.525,-2231.459,16423.393,3200.518,29462.1953125
66,19958.459,13918.541,736.89844,-5884.9326,2764.8188,520.2411,20432.67578125
67,18028.055,8236.313,3152.6694,7655.265,11747.858,-4813.636,28824.615234375
68,34255.49,20084.473,21943.205,-3962.5376,12736.697,14957.503,37187.2109375
69,966.3697,16081.945,-4257.5293,-3179.9148,12890.202,448.25558,29396.296875
70,-31802.951,-34106.863,-70450.09,5438.599,-3612.0486,3496.2593,39678.92578125
71,17605.807,24364.232,-12725.842,-4787.775,-6279.2544,6618.4727,38589.47265625
72,7299.143,15412.626,25876.404,-9353.117,4380.426,4249.0967,25187.0625
73,331044.88,335271.66,362974.47,-8848.879,-5710.3086,-3154.5532,35566.6953125
74,28440.814,51495.85,63765.785,84.003044,-9047.081,2710.1113,35108.03515625
75,1221564.4,1217945.5,1223450.2,564.93933,5225.585,-309.80084,10326.81640625
76,-421298.1,-421522.62,-397169.56,-5504.3647,-9358.999,3703.1953,31344.244140625
77,-68229.4,-63001.74,-57843.414,-9237.049,-14825.279,-6742.3813,33654.38671875
78,250056.8,256639.17,258506.06,-6027.293,1944.2755,6305.9004,17283.51953125
79,1522.5342,12021.756,-2796.296,7182.2134,2840.4053,14035.889,30727.919921875
80,1321.1477,12564.831,-10849.787,-418.617,3533.5376,556.4098,21220.517578125
81,-13045.841,13233.893,-22109.578,7184.7935,10440.944,946.0917,38672.4375
82,4353.504,15402.143,-17669.174,-2238.82,9465.6875,7001.1826,35794.91015625
83,3936.4568,4546.663,-19034.008,8260.411,-4904.9326,6110.565,30511.08984375
84,-2610.9258,9681.709,-18816.594,4917.212,-6063.949,2161.7532,28457.2265625
85,3386.2134,6824.4165,-18534.445,678.9434,-1083.0381,13707.333,33708.734375
86,1406.3496,23566.404,12943.546,2905.1343,12545.811,2174.447,29668.267578125
87,73.123535,11770.395,-21075.584,3231.0002,-352.4893,8535.11,32889.37890625
88,-3320.2354,10585.603,-22758.852,7820.0063,10600.095,3856.79,37506.140625
89,-6538.461,4579.583,-10894.75,4038.8762,-9690.451,995.39484,22905.15234375
90,-1304.3147,19078.53,-7369.7676,5775.481,5483.5874,-280.1551,27683.830078125
91,-7713.848,13946.776,-9162.516,-2004.8435,1856.0774,-1300.5784,23024.509765625
92,-10602.007,-8157.542,-20181.361,-4228.337,9567.581,-8522.028,25831.822265625
93,-8092.29,-18993.604,-5029.372,-8235.62,4050.2056,-12547.231,29775.79296875
94,18476.096,24732.803,9695.726,2230.0752,-16696.541,8994.076,35568.2578125
95,2131.446,9644.675,12514.463,-1559.6027,-17079.898,-134.26059,31125.0
96,9753.128,4927.0137,11290.559,1.2722969,-14554.643,-10069.264,31189.06640625
97,19319.615,6014.3164,-10180.381,3930.6729,3961.7886,-4787.3696,28582.671875
98,2446.508,6858.505,-13914.017,-3803.057,-372.9374,-6460.543,22985.6015625
99,-483542.25,-471752.1,-457283.25,-9687.592,-8068.0146,-4470.802,32492.09375
100,12752.081,32598.346,31480.898,-9794.733,8118.6626,-11432.832,35364.15234375
101,10833.028,1830.9845,11377.016,1203.4502,-19973.33,7311.614,38049.3828125
102,10397.92,-7023.39,14508.091,1564.2571,-9916.414,-10997.572,32514.40234375
103,3265.62,-8310.894,-15770.843,-2863.0872,1432.1853,-19940.129,38724.64453125
104,11996.376,-396.85272,521.0247,-4741.963,-13010.509,-4715.3076,28018.568359375
105,7599.403,14278.645,9703.204,8500.372,-17429.457,6363.9595,35841.5
106,7369.8945,-6425.847,-17871.475,1897.4338,-4884.7812,-1968.0394,23942.208984375
107,13345.049,1189.2083,862.8401,13545.535,3543.5693,-1056.5336,27263.5703125
108,-4601.7085,-1061.3496,-13080.009,-11844.621,-7822.197,-13551.514,35634.36328125
109,11061.02,15338.236,11764.266,3521.6814,-6114.8,-7808.463,18656.80859375
110,-14920.127,-13965.014,-33312.543,10434.533,-14724.885,1428.83,36605.87109375
111,23671.967,9749.921,-5040.4336,3986.3662,8022.855,3014.913,29774.669921875
112,25173.236,891.2431,20876.363,-745.01483,6888.0015,-3411.121,26127.529296875
113,21012.26,13781.814,7599.9976,3817.4915,12401.706,-4468.14,26461.501953125
114,4608.5186,2572.862,-19159.92,-2772.262,2749.3428,-4296.07,24935.9140625
115,-7599.887,8348.366,21225.307,9377.924,-7942.7256,-4111.6714,33605.6796875
116,286429.5,288210.53,325285.2,-5140.7007,-467.57092,463.6428,39042.46875
117,-8182.8423,-33255.21,-26216.232,8458.093,12891.094,7999.0063,37507.30859375
118,-14559.714,-28804.998,-17560.795,-18589.45,2911.8154,-2267.5017,35309.3046875
119,-21936252.0,-21935566.0,-21936074.0,-533.9774,-831.8083,112.68961,1830.13586425781
120,19853.127,18473.076,16017.189,-3659.8767,18474.531,-5687.3213,34241.36328125
121,18555.332,14130.986,19014.658,2671.7214,-5243.401,-6978.6416,16486.85546875
122,13838.814,18616.646,21774.564,7426.456,-12296.133,-577.8521,25844.3671875
123,7184.987,2528.6172,-12330.537,-4081.3977,12034.587,5021.8555,29526.095703125
124,1082.9824,-13301.68,-17153.857,-7788.985,-3548.5613,-323.92172,22299.474609375
125,-722977.44,-729923.56,-720541.2,-12708.316,5926.337,13669.368,34950.390625
126,6765.621,5382.0884,5712.8027,55.227478,-898.68195,-44.415234,2000.98388671875
127,3880.621,15281.275,19766.605,2156.8113,-10123.166,-5464.9,24742.982421875
128,6057.2695,7014.412,-14242.729,-1355.039,-4329.4956,6242.414,24720.056640625
129,-5673.8706,25376.64,3514.4229,13489.766,-3617.1013,3428.747,37198.09375
130,855.51587,8271.275,-17646.553,-572.0108,11716.463,6446.4907,32741.515625
131,2870.1416,21993.412,-2239.001,13876.918,-2063.9517,-5113.0015,34035.58203125
132,-4679.1523,5659.6406,-20166.918,-8045.5435,-1030.5925,-11924.978,33628.5625
133,164453.16,155674.16,157152.53,1405.0529,7101.481,14496.621,29222.4140625
134,19330.998,17383.762,34681.12,-1061.245,2797.4788,-3866.301,18466.4453125
135,296867.53,296090.03,294982.53,631.8273,-166.12233,16.145575,1993.32202148438
136,10104.968,11406.52,16066.732,-3256.6604,11836.303,-17087.438,36844.6796875
137,-996162.2,-995818.56,-995327.4,-152.89406,621.84796,-231.96947,1385.55822753906
138,-4493778.5,-4481321.5,-4481600.5,-6665.2607,-1723.635,1800.9883,17426.982421875
139,-14126.757,3133.0422,-21411.79,-5262.3057,17432.908,1992.0067,38515.0546875
140,27602.498,49892.33,17609.037,-494.99368,-5928.2637,-8106.5703,33507.84765625
141,6218.3516,11265.192,25808.86,-2467.4897,8048.247,4184.316,23989.626953125
142,-20893.887,-24399.445,-61190.54,3580.1743,-2200.367,3935.8325,39928.6484375
143,21848.654,34285.535,18333.496,3825.2358,15780.889,-1265.5042,31726.34765625
144,29172.016,13489.943,10592.529,-2256.667,4035.5188,-2977.6716,19760.904296875
145,26231.85,8950.905,18080.674,-14616.222,10502.803,-345.4658,34589.00390625
146,26669.535,6704.5596,-10459.431,-4487.09,9561.699,-3320.0781,37465.0546875
147,9572.212,24215.316,22929.334,-3193.9307,18298.613,8993.383,38405.828125
148,22564.078,-3815.4995,-8064.1074,925.0642,12397.042,8372.718,38729.10546875
149,5397.629,-7878.2373,-30010.188,-7995.165,10477.04,-4300.175,39197.453125
150,-2992.0547,6314.7666,-15279.955,-15569.373,-2859.5981,-10092.042,37540.203125
151,-23110.607,1638.6785,-40690.273,-1470.3838,-1159.2225,-4569.0615,37812.7265625
152,4932.677,16976.307,5863.1,5582.542,-419.43362,-3438.649,16254.3544921875
153,27847.754,3022.8906,15753.571,5597.116,-2471.6519,-5647.521,25890.162109375
154,28660.371,9001.358,18384.164,9786.017,-8049.0054,-4684.246,28940.30859375
155,19498.424,-5108.976,14088.095,8715.444,-5111.5806,-4188.531,29335.2109375
156,16085.547,8038.023,17152.75,6629.383,-17634.717,-5055.2305,34870.5
157,7898.8384,13080.219,22293.23,-1904.4246,-7861.987,-2331.5447,19289.470703125
158,17054.574,8446.232,8768.773,-6645.9434,-11055.851,-7805.7656,27448.537109375
159,-4222.1646,3289.0059,-19537.56,3187.5183,-3178.9353,4886.211,23204.27734375
160,14185.201,6336.331,8773.227,3011.251,-12784.383,-6441.406,26275.763671875
161,5503.511,10742.724,23563.543,-19.59763,-7563.3823,-5432.7134,22784.912109375
162,3200.4285,1171.9719,10069.117,2280.5874,-10278.14,2912.4272,20571.74609375
163,1126.856,19249.63,-3417.9697,11496.118,-5710.801,3060.789,30884.98828125
164,-5034.049,8825.254,-19821.05,1260.6552,9454.25,6630.0264,31944.66015625
165,6791.4834,13838.693,-19899.172,3875.3398,-734.5026,2002.2434,31762.384765625
166,7809.8,20624.76,4209.411,4994.092,-253.15154,3716.203,18432.86328125
167,-6581.56,13025.246,-16074.575,920.01385,-5992.22,4632.4,28901.70703125
168,4938.461,-23941.84,16202.0205,168.0482,-3578.6575,-6239.866,37967.71875
169,-11074.501,-8966.466,-30251.664,16145.93,6997.239,-9501.235,40154.83984375
170,-4097.221,-2781.854,23810.047,3609.7798,-5944.9697,-4453.092,30796.8671875
171,395803.25,399663.75,435459.6,-2176.8552,2403.2002,6941.321,40131.33203125
172,142.09424,14902.1875,6368.493,763.56604,14278.858,-14912.772,38017.16796875
173,-35585.023,-20636.969,-39938.047,14482.559,-12458.052,-6219.762,38966.15625
174,-14331.192,4556.9053,-29826.57,1593.4138,-1756.834,-14717.299,39448.9296875
175,411686.12,414112.66,447439.4,-3677.3909,659.8641,9712.467,39016.671875
176,23533.729,7769.253,-1283.9756,152.72014,11332.911,5589.571,30859.4140625
177,10515.529,18790.156,24537.082,-1474.7975,1261.5371,-268.53412,12671.46875
178,28605.3,20378.014,36936.02,2595.694,10953.889,-5816.0454,26216.091796875
179,-29513.166,-17776.59,-52236.6,-4320.2305,-3037.2983,-14234.148,40153.4375
180,80351.164,80469.66,98171.25,-11130.327,4317.46,12986.1875,35340.55859375
181,2913.6208,14804.333,-1676.9233,4852.5977,7314.8477,5000.481,22874.123046875
182,4283.584,9636.325,-1469.9829,8610.099,-5407.734,583.7138,20092.4609375
183,5665.974,98.87814,-6572.252,715.6284,9820.92,-804.9624,20136.212890625
184,-1132.2646,-14509.826,-18488.645,-10509.373,-5200.372,-5313.9873,27298.439453125
185,24589.05,6422.8213,2183.2075,7761.5483,9292.842,-3760.9663,30120.328125
186,-7260.7563,2409.1484,-35808.293,6890.256,-2933.0388,-1220.4514,36840.52734375
187,7706.0757,5487.387,-6085.453,-1764.3485,5806.9766,2419.5623,17105.38671875
188,-10618.825,-9875.098,-17101.629,-6832.4604,9050.862,-4561.925,22262.8984375
189,-19378.646,-19198.88,7216.362,12043.7,3505.4165,2913.4749,34641.40625
190,-11381.195,-7515.142,-4539.473,6654.686,6987.1797,11471.182,26634.294921875
191,7151.5312,-11056.161,-26963.195,9625.143,1490.1871,1127.6672,34096.79296875
192,-695927.56,-695600.06,-697289.7,-425.34644,370.86737,460.10046,1999.80017089844
193,9836.469,8673.152,12187.108,10462.983,11056.335,-96.15112,26547.896484375
194,27331.062,16651.658,-2636.1055,-8277.343,13038.152,7105.834,39484.82421875
195,4773.5054,1304.5571,-30030.81,5678.2476,-3571.7725,-8414.622,38079.6171875
196,11621.724,802.35156,3204.1494,1532.0807,7937.5107,-6431.6387,20420.41796875
197,11000.576,-10613.83,-11732.584,6141.814,5467.175,8404.35,30122.255859375
198,19773.684,7333.2324,1320.1411,-4283.1167,2019.1471,4240.5117,19670.78125
199,44377.17,19319.076,1388.377,-1505.7563,2877.2778,-6710.144,39565.6875
200,17221.12,1141.921,-22327.773,-64.06037,-11858.732,-99.390686,40108.25
201,38413.336,21264.145,25044.635,4892.885,2502.15,243.66644,18284.853515625
202,25891.996,10505.299,-11762.086,-6802.7754,-5515.134,5076.461,37183.37109375
203,7011.2188,-11344.34,-26762.898,2506.3975,-14786.17,4824.0376,40027.83203125
204,23104.275,8677.89,18526.703,5332.0933,5758.026,3889.779,19828.92578125
205,-1671.1177,-3508.394,-18559.957,2026.1675,-10886.538,-18116.203,40125.25
206,-6714.9033,2608.7466,-13599.086,9677.068,-13481.073,-8509.636,35240.671875
207,17565.912,-3864.9697,16197.81,6739.016,-9515.558,11427.626,35092.55078125
208,19768.938,-1224.1348,-16612.89,1854.4324,-12268.867,822.656,38268.8203125
209,17307.75,-3302.9268,-10355.522,5948.8047,-12788.546,6514.0576,36660.63671875
210,13163.829,1610.6223,-1374.8726,-4474.3765,-16825.088,-9613.192,36924.6953125
211,16715.953,130.04688,3204.6016,6742.422,-10573.007,8696.562,30531.748046875
212,25877.27,6586.6274,-12713.927,6623.354,-3464.6768,7927.428,38381.12890625
213,11191.353,13202.335,26937.777,5933.739,-11970.728,3576.5781,28182.02734375
214,10281.917,1619.7812,8720.46,-12879.333,-3695.6497,-15047.929,35803.22265625
215,16951.875,277.34235,-4337.8877,-4336.581,-1771.1545,-4137.8345,22214.65625
216,-26383.182,-10855.534,-23048.342,1819.5712,-14437.602,4943.2207,30149.93359375
217,-11664.31,-14107.234,5915.1143,-9882.58,1566.0481,-507.94696,25672.494140625
218,-23502.7,-21872.707,-41391.684,-3183.7478,10136.018,-4772.4194,27546.048828125
219,-20679.326,-17182.14,5930.504,8266.509,-3470.8228,8080.4775,32623.328125
220,-392.46844,1196.148,10853.4375,838.7134,2676.0303,16128.56,30250.845703125
221,-11064.949,-2292.698,-37710.832,8077.421,-5099.804,-831.527,36007.390625
222,-348.97162,301.46786,10771.21,5706.5996,-9439.666,11731.078,29911.8828125
223,25141.754,23361.824,25025.398,1897.5673,-16400.357,14389.579,37971.98828125
224,13580.297,11499.611,13893.369,2470.9226,-5631.466,17519.95,32239.435546875
225,5596.352,10915.373,-10249.844,3846.6929,-18.50458,7982.901,24479.6328125
226,10387.889,13838.147,16092.042,2034.0645,13901.795,16322.011,37632.125
227,21501.932,13114.879,32230.498,-1840.9337,7947.036,7831.117,25671.740234375
228,24097.78,13653.819,43481.055,6376.406,4497.622,11514.539,35603.94921875
229,22543.84,23777.455,3521.4788,10475.81,-1554.0112,-10795.304,32755.560546875
230,4198.2812,14861.191,-19540.555,9115.343,4271.5957,-9618.537,38883.30859375
231,10664.024,6966.1543,15295.758,3502.5,-9709.818,17624.56,36107.81640625
232,6491.8247,6190.9634,16527.508,6044.776,7328.508,18573.383,37542.98046875
233,-11910.877,-21931.5,-35495.04,12776.149,7095.814,2165.2952,32788.7890625
234,11687.259,3204.4365,18050.057,390.79343,-4285.0093,16630.426,32429.51171875
235,-6528.712,5869.0337,-8453.821,-485.14316,6814.439,14356.039,30652.580078125
236,-14012.126,-13869.136,-22643.19,-216.84686,-6124.6133,-11012.532,23500.025390625
237,23572.332,-5085.717,-2165.3945,-5281.2715,-16057.926,1037.2573,40082.359375
238,18580.434,-18571.93,-9374.338,-9887.489,-7392.805,-2777.646,40044.66796875
239,20925.777,1287.1733,-1000.33936,-6826.3257,-4646.555,6792.367,27907.12109375
240,16465.441,-11083.563,-7324.8384,-6692.455,-3679.9534,-14313.02,38198.26171875
241,18755.855,-5785.4854,-22953.314,-3741.5164,6852.0176,4345.8066,39469.46484375
242,2588.6003,1925.5891,-17510.268,-5311.686,10628.456,-2337.629,28827.177734375
243,7022.6904,-10308.693,-22617.266,1081.8079,1889.5614,-7168.023,28871.548828125
244,9989.715,-9964.993,-19274.865,2714.4756,9420.194,8234.382,34093.69921875
245,18710.562,7778.6426,-8826.977,7917.7515,2333.6943,-8308.79,31437.294921875
246,-14541.939,-4491.082,4433.747,-1105.8533,-1907.6135,304.0038,16888.974609375
247,-5717.5684,-21624.104,-48875.11,-3513.6548,1158.553,2952.2053,38682.23046875
248,-12362.483,7604.9663,-9688.876,-10919.712,8994.516,-287.7909,30872.8828125
249,-2909.9507,-12095.964,-16895.111,5471.7837,20.539074,815.9119,15598.697265625
250,21578.635,10566.363,-15926.134,-9102.408,1672.4087,-1791.4952,37167.8046875
251,8258.362,2530.1108,12115.25,-1610.8501,-12528.548,-1857.0935,23639.080078125
252,23549.29,-15680.18,-16027.7,-453.9045,-534.7937,261.37885,39425.703125
253,-21150.998,-14229.072,13459.94,-632.44434,-4892.3135,2512.0652,33138.96875
254,1712.165,14986.257,42599.508,7815.347,-268.43207,4232.8687,39273.91796875
255,-6603.377,-14661.155,20136.443,11229.916,3555.906,7066.7847,39515.74609375
256,-33179.33,-30609.912,-41056.594,12352.375,9139.513,15194.3125,38598.3203125
257,9713.301,11284.89,23869.22,18435.68,-8350.5205,-4981.872,38521.2421875
258,20150.432,-11251.026,22137.043,-1508.7781,76.29699,5214.227,33775.609375
259,-6687063.5,-6685568.0,-6685197.5,531.1738,-176.07286,-41.792694,1967.88110351563
260,-280900.72,-278310.28,-264514.88,-17506.223,-3649.8152,-3401.2498,35026.1640625
261,-772524.56,-771012.7,-770902.06,-41.286594,323.2024,-602.333,1967.78137207031
262,-542793.9,-542973.2,-543789.75,-20.429579,-1015.85974,-62.731167,1988.54675292969
263,-2381862.2,-2370852.8,-2370867.5,-1031.1531,-91.40598,-3376.2512,12588.05078125
264,-1869846.6,-1854519.6,-1848810.0,-6687.652,-10653.969,443.74634,28815.171875
265,-81611.73,-58264.477,-61582.117,-1449.1108,-10058.741,-1772.2675,28247.130859375
266,57457.156,24372.123,26847.121,-10420.196,-4115.41,2765.3708,37661.0234375
267,37022.867,22696.854,40677.58,16763.45,-8008.4688,2444.4893,36391.234375
268,-7412.188,-17403.404,-5229.3174,-21327.033,-1597.9963,-2407.9775,38935.609375
269,14565.725,-25093.242,9351.374,-3869.5679,4774.269,-2566.5928,39067.77734375
270,4521.0503,38974.863,-1584.2792,-4015.357,5597.9185,1894.4946,39847.6953125
271,-19863.723,-17658.67,16860.086,4479.4976,6757.2827,199.3596,38338.2578125
272,3926.4927,6872.72,-11439.987,-14303.587,14039.498,-5425.144,39792.94921875
273,22857.512,21610.375,11767.9795,-21573.393,1297.4807,-4408.8975,39627.0390625
274,6482.4194,-9857.088,8998.812,-18296.885,8097.738,-4170.8975,39593.7578125
275,12549.514,-24805.559,-14078.955,1887.6459,-4955.3564,4794.7646,35540.03515625
276,-18559.947,-13796.973,-54849.875,1747.2306,2881.0698,-4662.2363,40146.7578125
277,-1191.4678,1775.8833,24647.553,-322.75165,1237.0638,728.06934,24622.76171875
278,-29618.406,-9546.659,-53306.32,-1680.2733,-730.5365,1807.9492,38201.140625
279,-105.54247,522.0074,825.6177,-761.94244,696.4377,-208.70175,2000.98547363281
280,17053.072,3578.6729,-17941.635,-1960.5635,-6262.655,12962.146,39596.7421875
281,-123.60376,5770.7983,325.94568,-4391.704,-3610.3315,-540.5932,11407.7890625
282,14216.083,17698.81,-17947.947,-11500.323,385.57764,-1738.0144,39559.48828125
283,2883.2483,-13103.407,29195.742,-5085.4097,1410.2383,1485.606,38193.46484375
284,-7865.8076,-20377.887,-15415.537,8269.716,12303.235,-9778.039,32637.267578125
285,14487.541,7153.8486,4649.942,9864.61,-2.529262,1772.6296,19487.78515625
286,3700.9434,-4248.417,-14548.795,-7680.9214,233.84267,-15859.686,34393.51953125
287,-5602.4746,-32553.504,3755.3447,9297.344,9734.954,-446.35513,40129.25390625
288,8263.878,30849.3,-7956.7646,5613.778,-146.03857,7745.734,37605.28125
289,1007.63135,21029.967,-13558.596,4967.27,-2729.3726,10029.546,36095.20703125
290,1569.6079,-10682.097,-7699.9033,4738.032,-4883.4004,-1438.2604,16357.1455078125
291,12803.531,2926.067,-27716.139,-4996.8975,3427.07,-18.130888,38069.91796875
292,28851.885,8606.508,11610.008,-4455.3022,5187.044,2298.449,22676.052734375
293,18228.242,2183.714,-21069.316,-5073.5947,-2068.3235,6604.2954,37311.15625
294,8165.3916,-4799.646,-14991.565,-7569.1387,-7743.271,4086.8103,28389.4765625
295,21157.932,-10807.991,-22149.229,2508.851,-803.1078,1121.0894,39211.8046875
296,18224.062,1424.5393,-24801.309,-397.54807,-994.16595,-5974.4146,39001.55078125
297,3349.4277,10603.399,40003.883,6777.513,-336.97238,-638.5206,35632.1015625
298,-2810.1172,-16268.766,-9628.864,-8955.621,8239.921,672.0886,24114.578125
299,3362.354,11479.251,9339.493,-6010.2793,2489.4993,-5439.7095,16396.001953125
300,17093.002,8108.8975,1718.2773,-2003.0349,-3673.981,-8443.389,21103.826171875
301,12923.89,23873.166,-5011.414,-14846.559,5944.1963,77.01491,37486.2578125
302,10127.822,-11394.091,2297.1265,-2123.526,5687.8335,-10771.881,28542.314453125
303,2172.5366,1774.277,30179.924,-4309.5083,-7396.9194,8015.692,34761.17578125
304,20536.684,4427.3374,4773.191,3743.572,2264.786,18997.35,37338.82421875
305,7586.0474,7050.23,8373.814,3767.442,1921.7166,19973.975,35381.75390625
306,15506.096,6088.861,18787.611,3942.2998,138.27017,14947.615,29108.9609375
307,1351.0898,13484.173,-5808.686,-19696.766,6712.135,-1444.7993,39882.98828125
308,18548.475,6505.427,-9254.861,-18053.947,3956.067,-771.2973,40122.25
309,-3638.8867,-17580.379,-35308.2,8906.969,448.05252,4063.724,32310.048828125
310,-30103.191,-3417.5566,-48495.52,3086.5005,1701.7792,-2533.6455,39971.70703125
311,-8746.733,-13610.603,-11434.728,-520.1112,8709.453,-4707.9214,17682.68359375
312,-5301.3657,-2499.5352,-12881.011,-6612.0566,18394.168,2675.18,35414.71484375
313,6891.707,6001.798,5586.241,-427.36386,561.84326,625.72253,2000.9853515625
314,22536.602,10969.172,31040.656,107.70139,7780.1426,14361.919,33240.265625
315,-34890.562,-44757.9,-67013.93,2923.165,-7521.998,-8906.59,35293.92578125
316,19395.96,-3610.771,15573.608,-2923.526,4878.1104,-8668.441,27900.443359375
317,-20662.139,-36783.383,-2074.0107,-1910.3615,-6277.4434,7954.2217,34986.47265625
318,-27459.14,-12268.63,-7868.7354,-6414.8213,-3247.465,-4770.8174,23244.7265625
319,-217359.3,-219961.05,-219564.3,308.8412,240.73122,1582.8673,3724.33618164063
320,10600.278,-4735.275,4962.7446,-5322.2974,-375.20523,-6483.731,19799.634765625
321,4132.697,3726.9753,4836.4478,894.17773,422.85995,-202.85306,2000.98559570313
322,221.9297,-6500.9414,2252.6372,2091.7327,3510.1538,7037.77,16175.6962890625
323,26751.703,-1832.2246,15670.016,-2636.8657,-1391.0072,12282.898,33201.796875
324,18337.703,-2512.4905,-18483.639,6536.604,5310.725,-8801.117,38314.25
325,26212.648,15466.658,-15038.382,-4177.0713,4375.856,-1826.324,38647.57421875
326,-1661.0945,5378.3784,-3434.219,177.9937,-15241.845,-1728.3541,27770.09375
327,-5608.901,5714.7915,11929.415,4639.4106,-4928.7266,-3755.551,20420.13671875
328,-5216.5,-5861.788,24829.227,-6046.2124,-5243.6357,5976.88,34955.3515625
329,-17128.256,-20804.277,-26233.434,-3749.606,3723.5916,1591.9226,12422.69140625
330,-14475.562,1921.8674,456.0691,-9401.67,3153.823,17962.633,38858.3515625
331,-7494.4834,-11370.908,-13492.73,-1903.2157,12442.514,4241.9917,23601.958984375
332,195.29785,5452.206,-7229.8955,-11148.733,1604.8751,-2729.0732,22907.537109375
333,10405.546,-9630.709,-8410.812,-5128.042,6459.0776,382.614,24145.10546875
334,-1157.9072,-21166.17,-17922.396,-3535.2573,-6806.8306,6714.1987,25645.365234375
335,1779.5625,-9310.812,-34990.004,-7701.9297,-3607.1238,-10433.746,40134.66796875
336,9167.725,16176.3125,22181.904,-9803.67,-11642.332,-8284.69,32064.83984375
337,-34261.914,-50659.574,-13146.578,-7171.893,-7970.478,2223.9382,37692.36328125
338,-4067121.2,-4057018.2,-4058204.5,-5881.166,4401.5137,5706.978,18737.294921875
339,9092.328,7008.876,20525.488,-15156.292,-7120.7637,-2044.0266,31822.443359375
340,-4813.6733,-43820.637,-21004.145,-10175.286,-1123.0995,2523.795,38543.94140625
341,-22844.057,21866.484,-2840.5056,4958.2686,2603.3064,312.9219,39989.79296875
342,-4404.1543,-4411.808,15556.598,-5626.606,-7530.495,566.46014,25780.771484375
343,944.61346,340.39526,1503.2255,-326.7413,-271.70703,903.242,2000.98547363281
344,19938.898,-3225.5151,32454.057,5482.658,872.0304,9864.097,36979.546875
345,6157.694,14809.138,-8408.568,6379.686,-2064.161,-4634.5347,24745.966796875
346,-32516.625,-26292.945,-38071.484,-4394.212,-4144.1016,-7.983401,14615.4208984375
347,10195.424,9193.605,11622.516,7731.6416,5803.6514,14304.981,29979.150390625
348,20466.184,-12443.174,-11953.883,-4340.878,-5305.1113,2170.4556,34960.8046875
349,8995.978,-108.35547,12255.482,-4421.093,-4878.0107,-351.75162,15924.294921875
350,1288.4546,11453.621,24314.88,16071.014,-6941.751,386.50693,36322.49609375
351,-942.71484,7954.115,3174.426,4281.3555,-11583.3,14522.941,33907.68359375
352,-34241.254,-23306.69,-28636.537,3599.4458,-6384.19,12410.001,26699.41015625
353,-13225.222,-8481.692,13185.679,1311.8303,-16110.036,-3780.9624,37701.53125
354,1238.8623,-10850.602,10531.333,586.7879,6141.9053,-11899.831,29729.884765625
355,-7335.0337,-22789.314,22430.838,2122.5208,-1624.368,-302.535,40081.88671875
356,-6263.847,3762.7754,-389.65656,-325.7429,-539.8465,288.6906,8808.1572265625
357,-6143.1865,-4916.347,-11985.058,1511.68,597.8219,273.9499,7138.1005859375
358,-71383.17,-78099.39,-104773.7,10837.026,778.4633,-9208.145,39297.43359375
359,-9262.4,-7951.683,-11884.17,67.12557,-1873.382,-808.0802,4952.69970703125
360,-32587.932,-42495.535,-57350.957,-6062.357,7938.311,2878.835,28110.419921875
361,21308.531,32619.037,36816.344,-925.44147,-520.3891,-5457.4966,16904.234375
362,7567.593,28593.043,-4131.546,-4427.4507,-1974.7299,-1358.3954,30016.001953125
363,-17632.643,-28506.578,-31286.342,-4771.869,691.9227,8324.6455,20828.92578125
364,38265.113,27827.57,38190.383,6054.0117,-3010.572,-415.98618,15678.9921875
365,8915.582,9140.151,-677.7905,-955.78015,1016.8268,-100.17435,10005.501953125
366,2790.1494,12476.025,8631.406,4645.1484,3265.0996,-2145.62,13486.462890625
367,23895.85,33483.973,52135.965,3117.7803,1683.848,-1052.7004,25683.822265625
368,-9984.708,-4208.048,6003.6216,3699.77,421.45123,1390.6761,15621.6845703125
369,-1100.6731,-1377.9646,-1553.7728,-1046.824,105.96543,946.22296,2482.69409179688
370,938.69727,78.05249,923.9646,-307.41074,176.07341,-866.47955,1832.24365234375
371,-631.4572,42.54358,2375.6982,-461.79074,896.7864,772.85315,3509.24072265625
372,106945.945,90130.93,122501.914,10118.027,-13032.65,-747.97174,40058.1875
373,7948.836,26779.494,4613.5615,9714.529,1928.8842,-581.30444,26903.80859375
374,-1798.6809,-19.948975,11856.667,3865.3364,594.19714,1248.3839,14693.5458984375
375,3387.984,5476.825,8133.119,-448.1764,-462.56467,638.69763,4408.63037109375
376,26731.97,42470.754,55894.42,-11255.447,6479.193,12147.888,39848.2734375
377,-42423.13,-32527.594,-72439.08,-3869.7341,-1163.5945,764.62,36696.6328125
378,15843.735,10991.353,-3452.7378,4806.0684,-921.3446,3019.606,20036.49609375
379,14337.839,2530.0405,6515.3096,9199.405,-5017.3174,-1107.6223,21008.02734375
380,19209.207,28629.207,8508.182,6848.8247,4927.633,2909.8823,23302.75
381,-22677.043,-16411.955,-29474.453,4345.7046,301.8586,1182.3743,13753.73828125
382,-2596.4783,111.959564,1769.4547,1110.124,-113.052444,-6.8894167,4278.7568359375
383,10670.784,11402.407,11413.106,2665.2527,-375.53824,-317.1594,4751.71435546875
384,18634.664,27845.332,37978.234,-5311.961,900.0425,990.85956,19257.96875
385,-8338.069,5912.5938,-3177.38,-7175.715,3436.2441,4217.7295,19985.859375
386,-19183.078,-19781.873,-22538.85,-8439.215,-4142.569,-2048.4233,16951.16796875
387,7002.0645,2071.6157,9055.2,-9420.521,2198.0525,-8460.939,23111.53515625
388,-353.44678,-911.8093,-1559.1436,-887.4486,26.935867,-942.47675,2474.25073242188
389,27665.838,6707.3545,11711.782,-648.74634,4859.267,2294.6772,21149.79296875
390,12083.792,5180.3315,10916.796,-423.0977,996.3834,-306.15555,6690.28466796875
391,-26254.88,-35252.105,-57317.42,3029.4478,-1372.6893,411.19928,28285.11328125
392,-14445.874,-2810.0625,-25208.92,2751.3752,478.3654,4638.431,21550.263671875
393,-21293.955,-6356.5176,-21340.076,4279.217,-1764.9968,2235.9265,17409.6796875
394,17145.205,13907.883,15250.045,3511.091,-643.73395,1611.7311,7345.48388671875
395,47437.184,8061.496,37178.01,-6069.6377,-7431.0317,2671.6619,39361.515625
396,-20194.156,-1291.2295,-12397.059,1050.8511,2227.799,1646.8643,17235.603515625
397,33644.645,20356.803,56820.984,-5645.369,-8022.5854,-2547.0518,36466.85546875
398,-10111.61,12619.589,24038.268,-3848.6423,-12547.256,-495.4747,37737.61328125
399,-11104.826,22641.846,22446.676,-8470.899,3869.8335,-1449.0076,37400.31640625
400,17111.195,-19606.49,-8319.8125,9789.701,-2590.905,2611.9646,37273.00390625
401,19332.43,9778.918,13094.75,2214.93,1099.834,-82.46566,9431.5185546875
402,3538.8755,91.03223,529.3647,2156.021,1314.0366,-2049.6848,6503.64794921875
403,-22623.854,-22618.553,-37125.35,-3838.3062,-81.19717,-272.9801,15962.814453125
404,-16351.094,-34098.164,-47768.082,-6486.107,-6277.5303,-3685.9802,32087.63671875
405,2404.337,-8281.39,-6177.212,-2688.2925,-291.33618,222.24951,10872.498046875
406,2483.496,15414.182,24979.28,-9757.545,766.6924,5810.533,27767.90234375
407,2707.288,-4968.6543,-3166.751,-2396.4683,497.64722,327.63065,8162.70849609375
408,8526.476,16670.303,14730.045,6993.8994,230.50491,2969.8403,15088.0263671875
409,3974.8604,6872.456,-26511.107,548.5665,-4247.507,-7848.361,35580.09765625
410,4423.7563,-7411.814,-12550.971,17660.28,-869.2902,-3.1533847,34135.609375
411,56239.68,60225.97,67695.98,1186.7852,-9542.618,7178.0884,23096.625
412,25741.834,22331.947,23342.941,5562.179,945.67664,1441.8235,10532.5703125
413,-1612.9692,-14033.435,1577.2305,6812.2036,-3636.5178,-1272.0204,19693.00390625
414,-36982.93,-40614.316,-64527.492,3376.519,-902.76465,-2890.7139,27084.705078125
415,17870.643,25066.402,26587.541,3365.1692,-34.484814,2279.5022,10705.30859375
416,68192.54,69651.15,78284.98,-209.25163,-11661.689,-161.55652,22303.779296875
417,5338.3506,9839.348,28360.375,-2654.8076,4135.341,-5341.2764,24590.3515625
418,2896.5713,-1608.5248,-1403.2104,177.10068,2165.5342,-1279.0876,6203.54638671875
419,-78566.664,-55308.34,-73409.234,-16598.959,-7143.9663,-3931.2366,38388.078125
420,27626.877,24436.516,27545.867,1137.4456,-12640.031,-763.4748,22245.62109375
421,-10635.599,119.64966,-1686.4326,-3494.7388,1174.918,2919.5552,12878.8486328125
422,37005.793,46551.15,56808.375,-967.4368,-1893.9454,1122.8993,17651.76953125
423,-66898.81,-77781.125,-87904.414,-18979.732,-4613.7373,-1529.2473,38505.01953125
424,-1876.5692,10136.068,-3382.1938,6204.0435,1095.0542,-3137.5037,17699.0546875
425,-9144.121,4182.4404,-1848.7776,-1847.8936,773.2173,2233.7039,12672.9423828125
426,12947.221,13759.217,22813.133,-3194.098,368.8678,-691.41064,11064.9716796875
427,-20153.482,-13387.955,-19908.707,3449.9084,1946.4781,3019.069,10890.01953125
428,-13822.732,4568.88,-12912.434,691.6198,497.31064,-1121.1025,18118.658203125
429,5392.4116,18394.871,-7918.6675,-3016.775,2424.3977,351.52362,23761.990234375
430,29242.191,-2945.8672,30284.883,-11298.889,-4967.7095,-4921.4688,40005.15234375
431,-20089.062,-27336.664,-33436.902,-85.288574,-2000.0996,-459.17197,12108.1904296875
432,8304.113,3977.8594,5294.1045,-2856.3047,-1401.9927,-318.80325,6740.30078125
433,-24140.486,-40618.25,-14681.677,6016.286,-129.65656,923.82275,25060.798828125
434,9742.742,13845.599,17708.2,290.54373,-165.15337,-840.03143,7074.80322265625
435,1126.4028,-10273.799,6025.542,1625.1129,-1335.2189,-3043.9082,15839.345703125
436,-48505.746,-28716.82,-31123.867,-18586.47,3627.6406,3925.838,38364.6875
437,-17761.443,-17396.613,-31809.082,2066.3748,-76.28203,1665.2689,14957.966796875
438,2883.3755,4904.784,12057.776,-433.981,-354.37012,-30.91507,8405.66015625
439,19122.152,21652.402,18482.893,4669.616,973.2619,1339.8711,9059.3447265625
440,-7374.9004,-16721.11,-46037.332,1794.5662,3930.4688,-5067.068,36794.30078125
441,-20723.707,-24582.42,-39463.938,-4400.5156,4265.597,2729.6204,20707.6015625
442,-8987.124,-7678.225,-9102.677,-3285.225,1325.4667,-428.32236,6330.63134765625
443,-59595.305,-32613.168,-55940.97,-3621.435,12995.2705,6513.141,36277.08203125
444,13638.552,10591.051,15318.705,-5284.502,-3292.1606,-912.84845,11662.8974609375
445,14167.569,4725.0107,1474.0327,-348.76605,501.0851,-427.16956,11493.2119140625
446,-35977.65,-45952.05,-57409.652,-6721.694,1008.055,-2381.7815,22375.404296875
447,14740.079,17629.975,23910.59,2430.8022,-169.98799,-1407.9684,9471.4384765625
448,11012.93,6794.078,13272.568,14281.874,8004.0894,-800.1107,28956.353515625
449,-17702.385,-7796.458,-13579.41,-4522.1997,-2998.7222,-4663.6133,15095.037109375
450,3587.6392,8419.904,12578.797,-2949.9558,-648.12836,-922.10034,9521.6484375
451,-24553.047,-12499.523,-30014.44,1745.1862,59.204056,221.9883,15818.9326171875
452,30110.793,22828.04,56868.29,12082.56,1641.4359,-26.437738,37548.90234375
453,-4428.771,-8836.219,-15081.184,-11826.238,1875.4521,3763.6367,23634.21484375
454,41825.92,23511.355,48322.555,398.00818,-612.5621,770.76556,22360.583984375
455,18212.293,13821.835,10978.061,8509.209,1517.0966,-1713.046,16515.958984375
456,4412.091,2350.5652,4533.5464,-1092.3842,125.86929,441.1009,2954.00952148438
457,-4242.147,-3900.3835,-10017.846,1409.3517,169.72957,-171.66112,6448.4931640625
458,572.95776,-4644.042,-6613.758,-3721.5186,-2856.6377,780.2298,10451.2861328125
459,-5636.6006,-4748.159,-12558.3125,-3121.0884,2506.7002,-787.0486,10236.2841796875
460,3300.7183,-2253.5056,-4864.5605,1344.3984,-563.8585,-79.75622,7652.7451171875
461,2203.1812,10284.925,12140.401,-2344.5217,-145.93924,-903.66766,10136.91015625
462,-13437.716,-3240.0957,-14324.62,-1268.4922,167.40471,552.6031,10938.4541015625
463,15107.572,29020.19,32693.953,-426.65607,-5148.6074,3034.8813,19127.759765625
464,-10445.527,-43178.367,-43950.105,-777.2004,2353.3616,2348.8982,33649.2890625
465,-9209.381,-26784.516,4643.5576,983.65894,6741.196,-14777.203,39224.83203125
466,-8738.973,-6508.1826,-8628.127,-1741.8241,3911.5908,-3967.2214,10342.2177734375
467,-7195.6694,-3235.232,-5325.107,5035.1523,-345.5809,-1663.2095,9822.9921875
468,3342.374,7613.6074,12993.603,2380.134,-822.4377,-1319.597,9716.7548828125
469,-10151.535,-21841.99,13976.195,9632.679,-915.62177,3213.081,36231.62109375
470,13484.959,6553.8926,37873.477,-1849.9752,-4899.6934,-1408.0049,30001.892578125
471,-35730.832,-30580.926,-66978.695,-571.4309,-4009.7488,4562.707,35714.7421875
472,-12753.74,-12850.401,-11716.403,-2024.1409,-3953.8684,2679.109,9050.37109375
473,-20763.344,-28138.734,-56127.72,-8459.254,572.51385,8221.738,38244.74609375
474,3867.0283,6994.6646,17415.51,-2479.8162,-6654.877,3376.7554,18343.576171875
475,6009.3525,5407.398,8694.38,-967.1356,509.7383,939.8565,3927.2802734375
476,5457.275,7584.066,11136.067,-145.14671,511.9693,334.23856,5087.1416015625
477,148.1372,-4676.244,-1255.4592,-2384.7202,-12.401315,564.3092,6040.67236328125
478,-2531.4478,-6181.4663,-11009.521,1647.66,620.62213,366.89963,7997.43408203125
479,-14170.654,-12421.609,-18048.588,1324.0692,-391.83017,-86.87183,5533.7978515625
480,8069.094,12588.127,23470.398,1446.5713,-160.32889,-316.9245,13952.740234375
481,17440.756,11351.543,25135.762,4302.0713,666.82,-1145.3851,14280.80078125
482,-19347.725,-15578.289,-29588.605,-53.038403,-141.84627,411.58392,12580.287109375
483,-34256.77,-8657.969,-38773.246,6504.6343,3663.5874,-4440.7075,31900.93359375
484,-8963.961,-5466.1416,-11170.339,-2257.5762,-842.7064,2593.6675,7900.765625
485,-1010.6987,4961.8013,12087.498,1455.4448,-505.39877,-124.451225,11669.2861328125
486,-6608.462,-6895.8506,677.3506,2311.5234,-132.67786,2121.265,9210.919921875
487,-25053.59,-43.998047,-34482.08,8769.568,784.7531,241.80164,34393.5703125
488,12689.609,3779.169,14232.503,1448.6821,532.0332,101.58448,10134.1259765625
489,-9027.082,-10956.09,-7001.3174,1814.1893,985.18896,41.96156,4952.1142578125
490,386.02856,-3234.308,-609.8063,882.3577,-571.81195,873.62946,4012.42114257813
491,12461.902,9420.191,16314.408,2912.4946,-980.25104,-676.2351,8094.09912109375
492,-3771.3403,-6167.26,-9286.6455,88.377,1988.9778,-2794.1948,7632.75146484375
493,-12373.747,-5769.8765,-12699.82,211.1562,-586.0853,-11.784633,6858.2392578125
494,5675.069,2782.3867,6294.276,932.56116,-415.05402,-638.85645,3859.07104492188
495,-7765.3228,-9374.987,-1153.9937,-6662.863,-1537.2688,699.0509,14095.373046875
496,4653.755,647.88525,11248.784,131.66032,-100.278206,-595.79083,9333.12890625
497,-6216.2695,2590.0127,2215.4272,2779.6484,-536.5441,109.27223,9923.255859375
498,-5476.508,2039.7568,-1387.3135,248.53595,376.99924,193.3079,6572.98046875
499,-29643.43,-29756.8,644.6211,-11885.143,-779.26697,1880.0637,36837.59375
500,6824.3486,11413.682,4457.781,907.3779,-998.9892,-315.4461,6579.21337890625
501,7888.09,5939.0757,13739.471,-2640.5945,1693.4152,-303.80396,8901.6748046875
502,-551.5327,-1893.7327,-4867.331,5536.4863,2533.8953,567.7605,11261.5234375
503,-3023.125,-17764.295,-19182.54,14372.262,-2706.396,-3333.139,30252.419921875
504,-4639.401,-7304.445,-7624.478,2063.298,228.25551,459.52823,4649.64306640625
505,2988.2288,-714.58374,5292.417,417.855,561.08203,-277.99292,5408.52734375
506,-6342.2383,-12154.421,-15093.332,-844.02094,-1389.3931,-106.44076,8213.5556640625
507,19440.887,12318.238,17752.352,312.59238,-1092.6522,-1187.4138,7047.06298828125
508,-1046.6442,-353.44458,-3780.0361,367.71362,-50.74725,-528.7719,3331.50219726563
509,-8746.822,-3764.2632,-816.6074,2880.4314,-1368.5974,-172.69667,8876.978515625
510,-6213.1357,-1089.8826,-7011.83,575.0329,16.58396,267.53394,5673.18994140625
511,39277.31,47579.445,77185.766,-2084.311,-8391.037,-3249.7632,38042.078125
512,7849.121,-262.60742,2157.9536,-710.98346,-73.8905,685.32666,7413.92041015625
513,-3993.8926,-4913.134,3194.754,-5641.009,5556.4873,-1396.6031,15908.1064453125
514,7929.783,40429.715,31862.395,8143.5566,742.60364,967.36523,32474.9375
515,17903.418,11976.353,30740.236,-5784.935,-119.77679,2019.8555,19714.908203125
516,48712.617,20621.107,57654.2,5151.022,-11352.746,-2040.049,39987.578125
517,-2279.053,1942.1632,3239.7969,-1898.9232,1253.1727,-485.63046,6420.021484375
518,-1065.7085,4030.9624,10193.15,-2803.2092,28.30007,-1891.7332,11387.1669921875
519,-4086.5054,-7736.755,-10120.427,514.8188,-1143.5769,1239.839,6085.82177734375
520,-235.32083,1312.0085,-756.4361,432.05716,-473.6456,682.84515,2470.62744140625
521,1246.7625,5811.498,3956.3757,-2085.1948,872.8896,2429.0571,6988.63525390625
522,-1343.45,2066.3896,8400.285,-650.649,-691.3109,-621.954,8786.75390625
523,10789.505,9955.071,13804.53,-254.18842,-62.571945,-90.118095,3540.11865234375
524,-3984.6904,-3961.7524,-2151.3955,1121.3085,200.7502,436.1554,2789.81005859375
525,11511.497,11673.27,223.81152,5369.586,-431.09283,-1735.4817,15011.81640625
526,7197.4014,3456.3333,8279.562,-714.5272,1236.8647,-509.47772,5110.27880859375
527,2751.8325,6480.6455,13556.292,2361.775,-1313.7567,397.27563,10617.8095703125
528,5316.259,1206.8613,13410.436,1545.5182,-86.59521,-14.653899,11083.955078125
529,-2524.4922,-8328.232,-4562.686,978.31696,88.39697,290.3354,5399.6416015625
530,4553.716,4373.866,12267.12,64.24093,764.12683,332.44983,7937.9990234375
531,-9103.035,-10177.648,-15128.167,1623.0278,-295.0678,492.46448,6314.5654296875
532,-11491.23,-10425.521,-20375.486,517.8376,-115.92653,814.69574,9610.91796875
533,-11990.111,-12165.066,-19523.824,-926.792,-442.17783,-866.25433,7802.8173828125
534,4332.4844,3016.9219,5780.577,-110.02937,1511.7158,435.35425,3632.28686523438
535,-835.5821,-258.66873,1253.321,-130.97157,292.06015,-495.3808,2129.50537109375
536,7153.1406,5823.708,10669.9,316.21866,255.49487,750.00354,4581.87890625
537,3404.1313,3660.479,7231.9463,3696.5796,149.58653,-289.84717,7419.5615234375
538,-3892.8564,-2810.738,-3980.4058,3579.2239,-1120.669,-633.939,6684.25390625
539,-27771.924,6240.6504,-32491.453,4944.1943,2248.5295,-588.6008,37804.69140625
540,-3250.9214,-2704.3118,-4935.3955,-464.29074,-548.474,-681.8269,2645.90576171875
541,-2402.4883,3125.8105,3230.9595,-2501.5486,654.60754,710.6897,7261.435546875
542,-324.65796,-1997.0173,-6768.4404,-404.89008,-107.27085,-190.4149,5846.18701171875
543,-1111.6116,-881.1309,879.7532,-1897.4877,-1085.821,-304.07544,4263.27001953125
544,-6839.7563,-7707.4155,-8444.068,-538.8142,-230.39977,-1157.1276,2642.29077148438
545,-5160.5684,-40747.895,-8327.993,928.67163,1002.06085,-739.80457,34220.05078125
546,3746.9287,3195.03,4278.567,770.1711,324.0485,185.24654,1754.45239257813
547,-1303.4186,-2491.314,-2840.0903,-363.10364,-70.44629,-234.83368,1588.36767578125
548,-18713.38,-2505.3481,-9810.653,-51.09472,-1932.5234,-229.65501,14457.9794921875
549,-664.28796,236.3775,-749.10986,53.052387,509.1539,-339.4587,1423.60192871094
550,4443.9736,1158.7383,10556.021,-3226.482,480.73776,15.2376175,10007.6962890625
551,10152.74,4682.345,-3810.0967,-124.71631,3168.4153,1379.9885,13578.6640625
552,1656.3036,2770.3213,5833.978,-691.81616,1188.134,-34.20194,4440.0810546875
553,8006.9565,6911.8486,15355.838,-1515.53,1066.1705,1012.5117,8753.818359375
554,-4969.6772,-4454.154,-8230.734,2182.135,558.0179,544.9849,5356.4658203125
555,-3177.7476,496.77997,1122.1794,359.78305,-284.34406,-18.72396,4101.6171875
556,-15784.203,-16328.14,-23110.543,1049.5212,-300.8592,-128.82228,7322.01318359375
557,1453.3647,-3091.48,-249.5892,785.4134,831.66254,97.97351,4446.39306640625
558,-10759.27,-16877.578,-46793.336,-6628.315,3895.5227,3710.451,36524.671875
559,10394.821,9951.19,14968.622,-271.82846,-30.712494,-561.2948,4931.04443359375
560,4281.035,2871.864,5173.3213,1128.4562,24.320868,-378.83008,2879.56127929688
561,-1891.4932,-537.1704,-3754.959,424.88858,232.17143,259.6472,2955.66918945313
562,-5012.38,-4441.782,-9236.169,989.69214,479.43564,169.31348,4928.49951171875
563,-1485.485,-3585.5332,-4722.988,492.07797,-35.845203,-203.34999,2991.1611328125
564,-611.4304,-1358.3031,-1045.7296,598.66656,-151.4882,-179.84053,1289.63073730469
565,4460.2627,568.28345,8672.212,-2687.3037,273.71622,-1440.9696,8797.703125
566,-446.78955,-2668.5542,-5423.0415,-1237.4161,471.73978,-866.04034,5114.15234375
567,6472.1064,6615.1123,10819.458,-482.212,-284.56488,-233.93954,4404.87451171875
568,-11916.083,-20587.666,719.5762,-730.41364,-2240.431,908.1661,19067.271484375
569,12720.738,13042.496,9292.1875,576.57837,-205.20607,-753.7873,3973.64990234375
570,-8045.332,-6292.252,-7809.4663,-4003.8337,-2725.6233,956.6694,8708.6279296875
571,-8027.629,-7565.983,-20070.598,509.2064,724.777,-1100.3251,12521.650390625
572,21055.86,9219.007,7477.2354,15738.552,7329.7905,1099.9241,32736.4453125
573,23361.637,37105.367,61609.08,9186.257,-2495.4768,7349.942,39496.87890625
574,17931.674,6680.8633,18738.33,-10276.722,602.9998,-1911.9163,21568.427734375
575,12969.053,3410.6626,7457.0913,-1255.0522,-1231.5853,953.9593,9003.61328125
