Element Label,S11,S22,S33,S12,S13,S23,Mises
1,7148.7095,10407.016,17632.49,-4266.7964,6338.797,4532.9795,17976.880859375
2,-6859.3203,1195.9473,-10195.013,-4061.7231,51.686646,3745.3364,13945.16015625
3,-44146.22,-40637.973,-46108.496,1474.3655,14195.386,-16312.534,37846.890625
4,87965.94,113085.83,83888.46,-9253.27,6440.093,6157.1562,35285.76953125
5,24616.488,12861.994,21056.404,-2265.2437,-17667.727,8071.3955,35444.00390625
6,35781.723,45946.09,62985.57,-5965.0874,-14198.404,4574.2617,36621.80078125
7,-98779.15,-105062.63,-128431.94,7745.8545,-6779.3413,-11811.039,38325.21875
8,176681.83,169868.8,210572.83,1489.7921,-658.61786,6262.982,39389.75
9,-168486.14,-171149.52,-139831.4,8842.386,2568.1921,-2822.6316,34391.2421875
10,-843.30164,11730.592,-215.87747,211.08698,-4775.873,1469.1956,15021.43359375
11,-37610.17,-11054.316,-38491.562,10811.891,2318.702,10136.276,37475.9765625
12,69993.54,41764.562,77701.6,290.1091,5831.486,-11767.897,39894.87890625
13,-136080.9,-118935.48,-126928.01,-1310.0054,-5957.1206,18572.018,36975.40625
14,125050.64,120971.9,112176.086,-2509.5852,5663.867,104.30445,15653.8544921875
15,-26069.797,-25620.625,-26613.656,-133.03413,818.18634,-632.6498,2000.98547363281
16,14578.471,-14733.23,8543.954,-8052.691,3408.187,-14415.146,39641.9375
17,-14988.885,-8658.787,-28079.217,12510.22,11029.527,-884.5404,33631.91015625
18,1681.6664,2027.203,2045.8748,-179.93176,-1078.1315,312.79288,2000.98559570313
19,189445.77,189283.05,188192.1,588.0974,393.46085,607.6624,2000.98608398438
20,-11929.014,-41840.16,-48238.832,-6620.5044,153.97478,-7668.2334,37881.14453125
21,3944.9226,5608.4673,4294.7847,-679.60565,-178.38812,267.77588,2000.98559570313
22,-6757.16,-1600.2715,-13186.673,-4425.8438,3772.5625,4814.64,16495.201171875
23,19107.922,318.27246,792.00745,-1518.8523,-8842.121,365.97766,24212.515625
24,-2592.623,-12477.765,19520.275,-8810.435,4949.385,-4247.9385,34143.53515625
25,15946.493,5902.1675,26877.986,17394.89,639.066,-4514.762,36059.765625
26,47697.332,31028.049,12427.612,-4707.9844,-5177.8843,7262.767,35200.390625
27,-79692.07,-44424.266,-48929.68,-2757.2505,2869.8196,-1847.7565,34102.46875
28,-2593.074,-29773.059,-24133.777,-16339.624,-975.3023,-7398.964,39816.015625
29,-33258.285,-9326.721,11322.3955,-2182.3433,804.6094,1940.862,38997.46484375
30,-53593.023,-41783.426,-49974.152,14773.867,10591.2705,-11422.052,38633.4296875
31,-20761.389,-10832.32,-19050.332,-9.832479,1155.9729,-3370.7825,11073.416015625
32,-5793.3555,-42287.73,-26870.385,11669.645,-3820.541,-5849.3115,39520.40234375
33,15523.973,37528.594,59948.97,4000.7795,4075.7656,2838.6533,40028.19921875
34,-4929.5825,966.0303,26313.768,-7852.971,220.66481,11404.537,37443.96484375
35,-15444.545,-44462.746,-11647.486,11077.161,765.32117,8709.106,39548.33203125
36,-11157.549,4617.0137,25435.207,1829.855,-2247.1218,12038.4375,38348.37109375
37,13036.09,-22502.67,-7921.3403,-3053.5408,10385.395,6359.054,37818.91796875
38,-13033.228,1431.814,-8591.773,-3858.6338,-14020.006,-7927.357,31426.0390625
39,-2922.8535,5670.9067,36030.426,-6887.124,5526.26,-2063.7832,38770.46875
40,-11695.522,-6433.8066,-17822.072,12902.911,1044.0369,10647.879,30664.53515625
41,-27666.674,-20804.715,-28357.574,321.95212,-2938.4287,-1965.6602,9492.642578125
42,-550.8012,1296.9958,139.11757,-645.6788,140.19327,-162.03441,2000.98559570313
43,105024.64,104109.85,105702.48,685.1077,-250.02448,-404.82953,2000.92297363281
44,-337569.97,-336958.06,-338251.72,-732.9463,415.46323,453.90817,2000.98413085938
45,158499.23,158853.8,157428.58,-582.6932,640.2791,182.41942,1999.98254394531
46,-81566.945,-81073.63,-82770.086,736.7788,-49.75906,-164.12733,2000.29968261719
47,15295.26,15757.363,15667.355,156.53415,-109.84477,1112.6827,2000.98559570313
48,20041.629,19257.297,20485.775,460.842,-826.049,230.00818,2000.92712402344
49,77704.35,78996.39,77151.03,525.31226,90.18241,-392.07315,2000.96508789063
50,222408.34,221930.14,221623.1,-35.763153,909.44836,-356.11115,1826.29626464844
51,424290.56,424180.75,423302.38,202.90344,835.845,453.97543,1928.14916992188
52,-197405.31,-196193.61,-196670.47,-5.4555445,-37.34298,979.7091,2000.39245605469
53,138645.03,138181.67,137799.33,-77.346886,454.85062,-754.26,1698.05493164063
54,25927.146,2942.3015,15298.261,-6090.8667,-8755.291,-9203.499,31501.548828125
55,270796.5,270207.72,271283.66,-602.19403,-825.17737,-28.721172,2000.98815917969
56,118765.64,99996.57,128487.555,619.2006,-1438.767,-3389.8938,25905.5859375
57,28159.008,8548.962,4210.63,160.08975,2752.004,-14603.244,33926.5625
58,4697.355,11944.26,-2036.6167,-1679.0889,7244.558,-15171.063,31671.072265625
59,10180.516,0.31689984,16745.615,4960.1924,-6516.3525,753.9767,20407.732421875
60,18474.002,5164.3037,-15314.332,916.8789,7219.148,6575.909,34024.7734375
61,8471.47,-2960.5105,-2564.8677,7485.038,-3669.3372,18858.004,37438.83203125
62,-7870.605,3903.3018,18715.287,14467.197,3803.73,-9269.18,38229.20703125
63,-10497.495,-21621.566,-37237.387,3116.315,16382.338,-5553.05,38315.75
64,-1476.0765,16223.193,27600.7,-10914.433,-13176.275,-4063.464,39646.41015625
65,-10024.842,-15566.346,-1728.3418,10036.943,18371.537,-6309.4946,39745.5078125
66,-22165.645,-15571.958,-24064.914,-12117.955,16317.172,-8693.484,39059.2109375
67,3048.6685,11074.794,24952.79,-10383.832,12548.994,-2935.0308,34498.5625
68,-15772.038,-500.55927,-3183.9993,-2056.7795,17385.445,-1097.8254,33503.828125
69,22174.922,48416.57,57119.52,2247.987,11853.986,-6245.526,39325.26171875
70,1134.2592,-4243.474,-26385.936,-4552.7417,14952.104,2792.776,37343.83984375
71,-119733.336,-111721.016,-143766.97,1719.1653,4360.8496,3311.9497,30548.365234375
72,64738.668,36187.668,42917.535,-4143.729,1635.6161,1394.1827,27086.4296875
73,103084.664,103340.27,102411.16,-9290.155,-448.08163,15233.472,30925.560546875
74,136911.58,137945.64,137170.22,-457.4807,-749.07263,524.0944,2000.9873046875
75,20506.006,25461.547,9001.629,9363.348,-3907.7336,-4840.464,24352.345703125
76,12798.547,27077.184,20924.67,-10857.972,-4483.518,6730.843,26529.013671875
77,227441.47,227330.92,228250.84,-493.0545,-456.38864,-794.35706,2000.99267578125
78,79045.42,78995.81,78870.1,-186.27176,416.40436,-1057.5399,2000.98522949219
79,255959.72,254882.3,254525.02,431.7025,241.3304,728.6678,2000.03063964844
80,180760.97,180457.05,182229.1,-126.625725,-628.7815,158.9214,2000.98059082031
81,13002.133,12844.141,14222.8,-391.45523,-615.343,-483.19797,2000.98449707031
82,3201.0796,14034.274,-13054.543,-1889.6267,-12228.095,7774.846,34617.0390625
83,31312.53,23674.865,44830.434,1482.236,-14673.728,-12770.999,38550.66796875
84,13245.498,18998.908,-19196.223,5402.866,-1488.6884,726.5561,36986.7890625
85,-17754.617,22280.375,-6157.684,-2207.122,-5552.71,4609.876,37998.3046875
86,-1892.3472,23139.902,32234.348,13455.701,-260.95078,-3329.8774,38905.1796875
87,-6314.598,-12240.818,2422.2236,5406.3506,1691.037,7146.4697,20315.24609375
88,-16523.178,12465.713,-20747.22,1187.0831,-2507.0251,2119.3577,31893.677734375
89,-17592.148,-8999.801,18082.416,-511.77008,-9506.285,533.97205,36231.5390625
90,-29207.713,-7072.8657,-42302.35,11410.597,-979.6732,6197.5913,38209.734375
91,10292.387,36049.105,13.098633,11496.609,5742.4966,4626.162,39918.44140625
92,-14676.922,-151.9707,-10581.765,11840.033,8255.951,10079.246,33137.25390625
93,3901.9485,23042.904,2708.2004,11261.184,2544.4817,5758.474,29832.8125
94,-1133.445,5329.981,10127.662,19254.414,-8672.695,4614.458,38697.89453125
95,-2954.8247,5261.684,15255.091,-4098.857,12859.0625,-10417.404,33489.18359375
96,-7486.575,-45920.324,-16922.734,1687.5989,8285.348,-7989.669,40118.78125
97,-5548.497,-28570.271,-45834.41,-6525.676,7765.335,-4221.0967,39844.83984375
98,-3876.5557,11372.75,27909.037,6498.5415,2153.0713,8430.331,33346.1953125
99,12422.131,8051.986,48039.535,3582.2725,3553.7993,-1021.1719,39023.9140625
100,1491.5609,5018.0884,18691.307,-11647.988,12281.62,-11227.555,38539.94921875
101,86001.164,84716.586,83881.71,7.6302304,408.00113,162.5313,1999.60949707031
102,157758.38,156582.4,157165.84,188.1818,546.02045,-809.03015,2000.35974121094
103,-2897.8643,-35389.176,-39185.312,3336.839,-4524.9097,-3675.1252,36452.50390625
104,30323.84,21002.146,8979.775,-2155.4438,-14832.845,-5026.2476,33064.59375
105,-39891.656,-15370.574,-13411.883,-14030.341,-5362.0825,-9063.888,39704.140625
106,-20260.053,-28140.08,-29870.938,-961.20776,-18551.602,-12238.329,39538.8125
107,45467.336,43625.723,73808.664,-6660.193,686.17804,12489.803,38226.80859375
108,-80044.01,-49356.887,-74254.84,7811.5864,7735.996,-10251.459,38411.4296875
109,6253.2485,-18518.398,-25981.684,-10854.903,5074.144,-9782.538,39648.89453125
110,-11730.004,-5583.2456,-3578.6724,6324.214,-5245.606,4676.6143,17951.90625
111,14064.315,-16869.855,14078.969,2198.3508,1321.1934,-5748.54,32806.22265625
112,-5124.284,-16240.43,-6442.6455,7157.9585,9029.897,8518.881,26957.224609375
113,8640.553,7691.3726,9347.953,-240.74225,555.6412,-526.3243,2000.9853515625
114,59128.37,54554.93,20866.605,-5634.719,3346.5635,5770.3906,39225.40234375
115,-2593.2952,3289.6274,-10164.714,6110.139,12285.349,-363.6792,26488.955078125
116,-15580.417,-786.675,3785.7788,8988.375,14047.81,-48.685993,33790.65625
117,-40066.73,-8130.649,-3957.8335,9452.958,-1215.9769,-7235.1177,40001.76171875
118,-688.0358,-14026.749,-767.74634,-8199.295,9996.498,-5305.6094,27618.619140625
119,8011.1484,20879.904,38921.574,-10534.383,10807.705,-6872.8403,39348.79296875
120,18600.438,13641.366,10254.388,-1849.7429,5971.0356,-1338.3497,13246.06640625
121,-473559.47,-474110.66,-475279.0,-94.51206,722.98956,172.11946,1999.15625
122,188645.95,189986.64,188702.58,416.17822,210.18042,-736.4481,2000.98498535156
123,143798.17,144741.56,145640.44,-151.34717,-182.24489,655.3977,2000.73681640625
124,16895.28,31211.049,-2684.763,1688.1262,13200.126,6743.156,39195.8203125
125,-13479.792,-125.49189,25425.467,11191.044,-3328.1335,-991.443,39803.2734375
126,-10161.335,-16155.653,21882.232,-2767.6868,2810.257,9498.817,39650.43359375
127,13545.647,6666.539,5685.618,-8173.902,19815.854,-3800.0596,38429.1015625
128,25147.246,26265.213,554.99536,2750.866,606.93634,14938.056,36424.7890625
129,-33.98587,-3612.5286,-10664.93,2808.6223,-10983.374,9853.928,27652.267578125
130,-13542.482,-11059.944,-698.27185,15322.772,12809.506,-5591.1343,37810.6484375
131,-25580.191,-15958.833,-57937.246,-3887.702,164.40616,3232.924,39085.1328125
132,-29799.14,-12296.748,-12327.672,781.19257,5886.714,949.6025,20354.107421875
133,25359.71,-1306.1422,-780.3789,960.96576,-969.6792,-15096.887,37237.9296875
134,149.20801,5090.957,-23149.97,-3082.7832,-8998.841,-11421.07,36676.72265625
135,9423.824,12413.544,19262.031,14197.129,5574.2515,3284.526,28400.208984375
136,274308.88,274379.94,272683.75,-620.0398,149.95659,84.7816,2000.98461914063
137,175445.86,175770.98,177124.92,598.54395,-90.71489,-418.49554,2000.97961425781
138,152621.84,153243.95,152089.38,997.4356,-68.669106,-33.543457,2000.98779296875
139,181913.14,171375.94,185562.56,-2501.679,-3006.1929,810.6108,14514.2587890625
140,55353.527,45659.473,33086.668,10333.808,11136.088,5261.5034,33902.53515625
141,52752.87,45942.164,39108.273,19726.12,5562.7646,3595.1558,37928.87109375
142,782.2072,9387.426,-20127.633,137.10251,14753.298,3984.1143,37307.64453125
143,417.76126,24397.006,17993.613,5337.1094,10278.39,-2262.2324,29668.203125
144,-26531.096,-23609.818,2866.4846,-10040.366,10180.16,-7462.9707,39589.07421875
145,-10984.023,-7721.201,-34926.242,-8622.169,14783.385,3533.0808,39725.48046875
146,-25906.227,1568.1633,-3632.642,-9172.543,8334.527,-11991.386,39130.30859375
147,-12703.509,-28581.037,-24954.043,-3383.101,18490.092,-8744.639,38691.80859375
148,-16125.962,-34540.0,-6343.1245,10662.731,-10100.934,10715.633,40081.97265625
149,16960.4,22887.395,31011.67,-1371.5856,-5645.778,20984.49,39643.4140625
150,-521998.5,-521527.16,-521410.75,70.862724,197.7848,1092.543,2000.98828125
151,94802.336,95243.37,95276.99,-146.28694,-761.5706,814.312,2000.9873046875
152,-38832132.0,-38831532.0,-38833476.0,485.935,-313.87823,-103.282,2002.17248535156
153,-32437.633,-11070.751,-6293.371,-1524.7585,3154.8015,-6827.328,27533.888671875
154,27054.777,8816.485,14438.302,3573.995,7661.516,-13454.193,31924.451171875
155,2205.629,13678.889,-10602.629,8078.498,-8985.79,-11586.2705,35824.3515625
156,37602.777,62701.58,37043.97,4140.7476,4339.439,-14787.986,37526.93359375
157,10253.625,-13027.303,-27652.877,4417.358,-4766.0796,5767.76,36371.58984375
158,-19010.066,-19537.883,-55698.57,4129.542,-5160.1694,-4543.699,38986.37109375
159,3043.4595,2819.3523,16170.874,12986.758,-6360.578,15867.48,39471.390625
160,-4679.5693,-14579.969,23342.168,6729.647,-1685.9512,2456.9214,36375.30859375
161,-23587.46,7842.1543,-13873.112,-659.36505,-5464.014,703.7278,29482.6640625
162,-17804.602,631.47076,-41088.848,2533.2502,7526.3438,4831.398,39629.93359375
163,-7435.334,14944.914,-5414.343,-7675.7954,4955.522,-3471.7996,27318.765625
164,14240.668,34478.832,453.97852,-5427.535,6181.249,3486.117,33438.45703125
165,11739.07,9484.928,-7218.8066,5279.8833,-9005.099,916.97864,25518.1875
166,1619.9255,-11278.034,29956.756,6526.956,-4606.751,-70.37431,39067.95703125
167,2367.872,-17001.26,-22819.17,4491.2065,6280.96,-1867.3658,26665.044921875
168,16454.105,15377.702,-20809.943,2748.7917,3150.973,205.58981,37446.45703125
169,41541.39,40916.895,42023.36,87.298065,974.4391,264.027,2000.96606445313
170,-116421.24,-116063.625,-115162.7,542.25867,711.688,336.9257,2000.98107910156
171,89472.58,88330.07,89769.87,51.713703,-191.77658,-846.9987,2000.98425292969
172,733.4616,25380.246,9125.2705,2306.1143,8434.693,-15212.868,37346.1640625
173,14106.932,9272.984,6421.482,-2516.6572,-10890.403,7543.198,24306.0703125
174,62470.754,63083.977,62931.27,-34.055145,-659.2276,892.7495,2000.98608398438
175,81047.53,81399.4,80525.65,-702.9951,532.9455,-601.9405,2000.37536621094
176,19497.186,18577.674,18377.025,-697.5196,83.053795,-695.9441,2000.89208984375
177,26662.115,-14246.746,1263.2424,1681.4962,9090.757,615.2552,39206.40625
178,-1272.7246,-462.60547,-34708.223,7243.985,5374.5327,6584.0874,38984.7265625
179,-27900.418,-31656.123,-33346.605,-3328.005,21806.703,394.52835,38517.5625
180,-4146.8965,-41349.652,-4031.0146,1118.3142,-7567.6216,586.4144,39559.57421875
181,1388.4673,10976.8125,-22019.605,-14719.521,-3140.9478,4189.692,39957.08984375
182,8093.162,-5578.3916,9049.361,-862.0999,7492.446,-16315.58,34207.203125
183,-2531.9917,5651.2173,-7413.3267,10217.548,2075.653,17494.07,37080.78515625
184,15600.856,20144.605,-4262.6616,-1052.8796,13509.121,-11324.096,37960.2421875
185,5427.8125,6476.589,6811.6484,554.2598,258.12744,-663.0338,2000.9853515625
186,6336.607,7548.443,6792.1147,198.91374,-713.61035,641.22015,2000.98522949219
187,18194.957,20417.156,17873.814,10131.619,-5211.5327,547.3076,19901.83203125
188,-1375.4857,-18651.586,-9850.431,681.9005,-7700.2866,-6538.1094,23051.966796875
189,47686.523,47737.406,47321.977,-449.2173,60.219387,-1038.1895,2000.95288085938
190,-19371.6,-11480.099,13217.55,-618.955,-1614.4662,2955.2732,30038.65625
191,2104.0972,3933.7678,-7843.621,20081.873,-1185.4513,-3311.548,36979.2578125
192,6022.772,19172.527,30441.846,-15364.432,11895.104,-354.65256,39763.76953125
193,45603.113,17109.902,33691.047,-13174.89,663.40137,10789.685,38544.1640625
194,8001.499,12952.653,45040.9,1428.1101,10837.446,-2859.3982,39950.48046875
195,32808.082,12952.784,4045.0898,-9527.156,-8679.12,9632.326,37776.59765625
196,42903.473,49330.73,82106.59,6727.9053,3017.5989,196.69765,38593.44140625
197,18047.541,42825.92,36230.957,-2408.3179,16881.043,-3963.2249,37596.26953125
198,-8417.395,-5081.8135,-41456.312,-6545.7065,5259.7485,1885.2941,37882.67578125
199,17053.568,37988.85,3952.817,-6008.5713,5968.8535,11239.732,38449.5625
200,-10133.882,-17962.096,-43482.484,5524.499,-8967.889,-6922.86,37268.72265625
201,-6804.531,5205.9365,33256.51,-407.09888,904.60394,-10631.021,40124.73828125
202,1873.5504,-27294.385,-3991.6455,2035.1434,-9099.168,3182.1091,31706.162109375
203,550.9253,-39749.83,-16128.597,-225.30516,-1329.4093,-5039.278,36218.7421875
204,-3986.1091,-7143.2676,17609.42,-4442.941,-14935.174,-8812.016,38805.5078125
205,25229.543,3054.9514,12181.095,-13265.129,-13406.964,3559.2778,38441.734375
206,-12200.779,4711.5273,4544.3906,3722.4387,-1476.6235,725.0406,18245.96875
207,-11010.008,-5368.8315,-21659.97,3755.358,9376.418,-8728.981,27202.353515625
208,2453.769,11304.287,7208.8643,12022.17,8308.789,6608.7783,28819.9765625
209,-14598.848,16031.583,-1773.0645,7587.962,4144.923,-13398.586,38375.82421875
210,-577.8481,-4529.1953,23534.92,-8581.167,-11671.378,958.21954,36395.65625
211,11257.928,-20285.355,-26592.328,8142.0044,-3950.4194,1922.3141,38606.7265625
212,25878.729,26474.627,24841.54,554.37415,-585.6767,-36.3914,2000.98303222656
213,19049.068,18141.973,17901.309,642.5234,-696.40576,265.48218,2000.98510742188
214,18498.375,19248.863,17833.057,177.86972,854.789,265.72406,2000.98181152344
215,11965.337,12471.514,12366.767,-816.89075,-771.97687,0.13994867,2000.9853515625
216,-200.34367,33419.465,33564.74,-414.7676,-2605.6208,-7457.877,36372.24609375
217,3859.5615,13658.572,7140.025,-6990.4365,-7911.1914,10337.219,27010.560546875
218,5333.127,-1577.8556,-29534.787,-844.5535,-7578.629,10332.475,38952.38671875
219,-150.09448,-4547.345,-6570.1313,2196.6697,-15473.046,11354.462,33938.40234375
220,-863.2351,-1258.21,7594.384,-2783.445,12137.968,11775.547,30923.3203125
221,4011.8606,5325.752,-8306.182,-3764.579,-9201.19,4995.9214,23259.935546875
222,7053.9424,7919.57,5194.407,-1375.4584,-1234.4429,9135.281,16322.50390625
223,-5738.512,2811.3838,-14114.605,-5530.529,14000.525,2953.366,30345.44140625
224,11409.181,18149.264,-6777.6436,1285.7607,-1616.1362,17587.39,37940.9296875
225,3358.1926,-7527.1714,-23420.67,4239.953,-2764.7034,-18000.678,39912.859375
226,-12621.7,9305.56,1468.8177,3231.0867,-7870.029,8.316983,24238.66796875
227,19122.338,13933.645,10647.812,-7567.0327,-7419.061,6500.056,22769.013671875
228,10081.456,-14988.239,25930.469,-1183.0396,8321.019,-3628.4243,39095.0625
229,-3397.2158,-27630.717,-45542.016,-2073.5894,-603.16376,8316.025,39542.2578125
230,18604.709,3869.7415,41300.14,6646.3984,-5907.551,-6442.9556,37793.84375
231,-3688.9678,-27954.668,-9746.246,12778.177,12656.55,-1457.2941,38148.5546875
232,-59429.496,-76045.85,-70728.43,-5661.067,-15863.58,-10765.285,37613.80859375
233,21646.363,-4669.1074,-4470.9663,-7190.2505,-8547.404,7221.381,34900.5390625
234,-30742.209,-40904.57,-59064.832,8905.199,-15557.727,-727.51874,39789.99609375
235,-21083.742,-20299.566,-45253.562,-10368.965,-13102.647,7402.9385,40071.7265625
236,3023.1367,-17718.473,-31969.822,-8746.592,-11320.5625,-542.5108,39290.81640625
237,13460.272,13494.142,-4996.8853,-2562.9717,-18722.807,-6008.428,38999.1484375
238,19358.984,15026.593,12670.59,20137.22,-7952.752,4468.7544,38738.8515625
239,8606.469,9107.134,-17551.19,2426.078,-15744.214,-3000.1826,38547.0078125
240,-7273.595,-4262.682,-36133.492,-7635.127,-10192.1045,-1626.076,37726.765625
241,22583.385,54045.14,24680.396,4843.979,-9245.94,7960.249,38015.984375
242,-7428.4478,894.67267,-36220.195,7462.048,-5050.398,-2574.508,37434.296875
243,11568.89,21708.545,-12377.751,-12768.269,-422.29617,-450.73428,37540.5859375
244,7615.027,34326.8,35781.88,-3308.675,-11023.076,-5473.3516,35238.375
245,-54093.43,-73443.42,-93381.08,1785.2955,3752.965,5993.5938,36294.78515625
246,43881.2,53610.254,39542.02,-3852.6765,-17981.996,-4520.707,35094.09375
247,-153650.39,-173664.77,-154189.98,-984.34454,3366.2415,-1470.7324,20819.640625
248,51271.82,27551.115,52244.477,5787.278,-4756.1655,2876.9265,27925.994140625
249,-98144.41,-97502.25,-98998.484,594.0416,-252.45767,-595.4764,2000.9755859375
250,168072.17,168903.36,168619.95,-355.66092,-851.3437,552.10675,2000.98364257813
251,181090.98,180818.11,181111.25,516.9291,21.424465,-1019.85767,2000.9384765625
252,38356.0,38635.457,38091.848,790.05524,75.6365,-794.19745,2000.916015625
253,-255412.03,-254439.72,-255044.28,883.01184,502.4219,-239.63676,1997.9375
254,74060.55,74621.7,75138.41,323.48837,140.59215,-958.9711,2000.98449707031
255,-415079.62,-415985.28,-416545.8,177.04723,479.76187,-724.6053,2000.44177246094
256,124633.35,124004.14,125132.54,-295.02963,-857.02454,439.5538,2000.85290527344
257,106356.66,105161.86,105295.78,-590.18054,-740.18317,-99.15087,2000.87744140625
258,12956.276,12666.833,13345.065,-1054.7803,-181.15767,-269.58432,2000.40808105469
259,111878.62,111630.99,111991.34,-817.2152,745.2049,-278.3841,2000.98608398438
260,-154427.52,-155548.14,-156441.42,-281.44443,48.859924,-484.55276,2000.98815917969
261,-315180.66,-314569.2,-314571.72,-755.01227,784.93286,156.09341,2000.98413085938
262,57631.574,55875.844,55792.78,-419.28506,-250.54735,132.78577,2000.9853515625
263,58185.13,58426.727,59552.215,872.7845,197.53195,39.237732,2000.9853515625
264,16310.772,15262.942,15564.13,-652.04645,774.9757,-133.39172,2000.92590332031
265,229402.08,228782.83,230597.4,189.98447,349.61154,-570.5286,2000.99047851563
266,198359.72,197524.19,197098.28,828.59247,-438.35773,-210.0925,2000.98779296875
267,1251.1027,23708.637,-8240.374,3573.6519,-1501.0013,12168.302,36011.92578125
268,108220.945,112252.42,108669.695,10694.884,496.52887,-17601.941,35888.875
269,-45251.562,-58100.383,-64807.27,15379.676,3887.9358,-10756.485,37393.94921875
270,-13549.825,12596.361,17124.83,-12837.5625,5537.2983,5575.6494,38758.09375
271,11450.962,27332.0,-15459.22,6929.1587,-1607.3834,-3425.689,39883.87890625
272,19865.166,9364.335,567.9697,16789.213,-6513.0034,-10439.395,39747.27734375
273,19923.156,15728.692,3245.6094,-5184.0205,-5773.5684,378.32144,20170.140625
274,14420.11,-382.30826,8952.402,-1158.0702,-6160.2773,8634.491,22574.451171875
275,47645.016,15620.743,19769.463,-2681.544,-7058.665,-6211.3203,34593.265625
276,18853.2,-397.29297,11806.375,8233.641,3677.393,-7252.589,26197.953125
277,14401.203,13449.987,13518.792,816.317,-382.2726,-490.68927,2000.98559570313
278,-35571.68,-18681.086,-33796.98,6256.0146,1350.3591,-20041.297,39828.51171875
279,-6604.0083,-20612.21,14547.637,-4766.324,9541.326,5651.247,37107.84765625
280,3453.745,-4591.224,35868.176,-4689.1284,-5161.7266,4281.3237,39712.3828125
281,64923.55,65180.766,80419.19,-4698.521,11337.217,2017.3131,26461.853515625
282,6493.469,4820.621,7557.443,4358.691,2971.7039,6514.4644,14714.3701171875
283,-4841.508,-6015.148,-7822.948,12354.92,-3096.18,15673.205,35077.1484375
284,-1062.7607,5260.547,-24534.562,-15755.438,-4215.5557,2682.4565,39483.2890625
285,-13117.64,-14717.64,18512.154,1695.2164,7850.29,-8699.644,38394.86328125
286,-358.89484,-13668.835,-23320.062,-4074.2734,-13017.983,-11735.719,37015.4296875
287,-2913.5635,29192.453,-4556.1475,-3579.939,3779.61,-2740.2427,34497.27734375
288,-15883.544,1885.8076,-9781.402,-1601.3167,7793.7666,-974.9406,20912.375
289,3234.3599,-4903.2954,20632.406,-11099.71,-6114.9336,-1726.9865,31642.189453125
290,1603.6517,-24961.467,10554.029,271.33514,-11024.15,-7015.1694,39192.30859375
291,1771.7754,2473.1616,16068.898,-1970.248,1363.6882,-9944.069,22555.486328125
292,14949.919,8342.1875,-24209.654,-7894.5977,411.85272,1448.846,38886.484375
293,14483.599,11897.598,19833.086,-12114.706,9403.354,-2591.5586,27836.203125
294,6030.078,-18693.455,21229.357,-2465.6978,1907.8226,-5129.482,36416.26171875
295,-20300.613,-28442.578,-27263.678,1754.1313,19070.373,-3896.3914,34697.21484375
296,-21533.59,-21783.201,-21937.055,706.7665,-99.869156,-885.26514,2000.98510742188
297,1843.3899,1186.7081,-12442.277,-3862.0872,7904.846,-9587.702,26516.208984375
298,2925.395,-18578.406,4224.251,310.93448,748.7018,7545.9624,25784.244140625
299,-7047.6016,-1990.9963,8655.493,-15963.841,3395.6343,-8325.874,34638.65234375
300,5151.449,13753.828,6781.009,4503.7466,-290.2531,4334.745,13420.591796875
301,5336.5674,6453.741,4904.725,-415.54306,-311.68967,-652.5477,2000.98559570313
302,-189040.64,-190013.97,-181423.89,-2596.2588,-10478.755,-6874.38,23617.404296875
303,105289.945,71937.555,67395.87,6631.5293,-186.92259,3613.661,38153.59765625
304,47324.977,12612.886,23867.074,2259.5466,13874.961,-2084.975,39329.77734375
305,-10616.403,2812.2505,-25212.81,4480.737,7284.5317,5220.2324,29842.431640625
306,-14033.661,8620.188,9580.446,-1501.8672,-8599.148,7669.9595,30675.076171875
307,33351.285,34175.004,32182.97,336.77133,-117.668304,-453.2398,2000.9736328125
308,-23277.535,-8413.843,-31968.842,10308.874,10578.359,10761.813,37783.9453125
309,48434.645,48329.895,47414.867,633.51904,781.64484,87.371185,2000.98547363281
310,44122.6,45517.29,45230.72,-824.93665,-309.9626,-124.567665,2000.98559570313
311,122790.62,122061.09,124158.81,19.306051,216.95247,391.27835,2000.97802734375
312,3489.7566,5183.797,-5215.8594,4875.4727,-8651.772,1802.3809,19975.513671875
313,244593.55,244008.81,244984.97,-161.78912,-444.9352,932.296,2000.98974609375
314,13621.611,-5749.027,-2194.244,97.650795,-7022.9395,-4509.566,22978.291015625
315,-16075.8,10503.654,-12748.911,-5094.2104,1457.5417,-2007.7837,26933.78125
316,2177.567,-5341.693,-817.7238,-88.29038,1018.29987,6791.9683,13583.642578125
317,-24136.664,7513.8975,-33661.508,5499.2964,1840.8556,-76.82875,38663.39453125
318,11734.143,21579.145,16335.727,-12625.943,-6755.16,1187.6205,26309.072265625
319,-20877.596,-38741.965,4104.166,6645.497,-4823.01,-2324.6401,40099.76953125
320,14077.024,-17958.896,4144.289,-1215.4921,-14709.525,1758.8065,38335.07421875
321,17717.322,7727.324,43816.53,6940.906,-7519.373,-1609.8002,36927.30078125
322,18216.174,2112.1174,37150.688,2761.0942,-6371.475,7186.371,34962.390625
323,49053.984,33870.6,31921.027,-1775.7488,-10310.948,-1601.759,24495.73046875
324,3941.8152,2293.7646,3183.2546,-117.90439,-577.10114,-554.3052,2000.9853515625
325,-9431.846,-23477.053,-4335.609,2852.0637,-91.48244,18625.617,36877.984375
326,10661.025,5034.7007,11926.994,3778.35,13989.53,9006.041,30226.7421875
327,-5400.427,-6200.5894,-8762.512,11460.615,5784.8945,-7087.532,25580.951171875
328,19478.223,12893.465,-4611.3735,10301.474,-15108.414,-1119.6538,38366.10546875
329,714.9039,8495.087,-4249.171,-15868.439,-14639.733,-2394.5188,39234.9765625
330,-10077.144,16791.645,-13459.405,-9650.909,-8218.644,-6299.6445,37753.98828125
331,1352.2203,-5913.9976,-3701.452,-15652.695,-12883.256,-7652.409,38082.1484375
332,19511.662,12737.583,36239.438,1915.4966,8144.4395,10363.934,31165.017578125
333,-55761.086,-41107.87,-71110.02,3183.556,9327.031,1688.0505,31227.42578125
334,279111.25,281037.7,280351.22,-64.83621,-206.23892,-578.33484,2000.89721679688
335,49683.29,50842.945,49275.43,-52.082832,683.76996,-450.41403,2000.87707519531
336,81318.445,82884.516,82747.03,382.8045,272.15698,601.6464,2000.98205566406
337,106855.02,107966.55,108067.625,-77.176575,794.63074,-494.5444,2000.98901367188
338,103303.555,104609.664,105102.68,-606.0299,-250.2932,200.92105,2000.94555664063
339,-18702.633,-23518.324,-18885.2,1785.746,-5532.456,-4824.0986,13912.2861328125
340,-8640.33,-14112.451,8099.1187,-237.5555,3095.207,-8004.542,24957.599609375
341,-13338.371,9077.965,-2776.1614,-629.6296,5029.2715,18991.898,39197.359375
342,17812.098,10685.268,36395.965,-11502.335,-4751.286,-14264.603,40045.8203125
343,-13777.95,-15825.052,-965.05035,-905.5594,-2683.7756,9684.461,22361.232421875
344,9360.558,-1296.8407,19479.17,10834.896,1088.302,-16320.633,38452.98046875
345,11584.471,-9959.568,1928.8579,17227.117,9466.53,-3327.1873,39264.90234375
346,-11281.955,-230.07616,7855.071,-5094.3394,-2251.644,1982.9397,19537.974609375
347,-4382.1113,1372.2437,-32169.24,-8510.84,-7204.49,3904.1177,37200.5078125
348,-133189.61,-139150.52,-122599.5,-10425.381,2177.8826,3434.653,24217.662109375
349,-12642.367,-2671.0889,-14663.023,14383.077,-10607.278,-3679.4504,33502.7578125
350,-12856.965,15680.035,-10141.786,14813.899,-2974.609,237.05435,37806.3203125
351,-3258.156,-11500.298,-17250.166,767.53406,-8226.831,-8164.5864,23519.6953125
352,41046.61,41870.484,45381.965,-289.5277,-1453.443,-1124.493,5126.86181640625
353,10482.856,13545.042,-16027.354,6841.14,-7760.895,-4578.951,34312.47265625
354,-18453.29,13139.796,11091.396,-1327.9515,-13728.073,5607.199,40032.4375
355,-15583.68,2720.031,-25878.508,-5490.958,-2130.7068,11629.862,33753.15625
356,4119.873,-301.32343,-23336.836,-4127.54,-3616.3423,3941.5867,28088.755859375
357,20136.535,18024.334,36052.42,12790.677,3234.0437,7472.315,31322.23046875
358,6907.066,4335.028,19700.28,10303.592,8208.665,-10389.43,32367.353515625
359,29120.281,8579.191,-1219.8258,10342.781,5513.5107,7575.48,36104.28125
360,19040.416,10181.012,7214.473,-15574.603,-1396.2643,-2760.3774,29495.484375
361,-16654.68,-12616.791,-30885.148,-3772.1716,4909.635,1347.477,19917.83984375
362,2786.0098,5248.0728,12318.775,-344.95605,-2805.1523,-2667.3594,10898.3095703125
363,-57500.605,-46396.188,-48391.676,-2216.3857,12571.965,-2890.9626,24881.806640625
364,3234.1794,4369.2363,1069.4836,672.96533,1460.6942,-3593.6768,7411.7734375
365,35793.66,34517.125,47040.12,2341.5017,-16480.836,-1664.5452,31338.19921875
366,3304.9272,-5166.3296,-21150.94,-8619.566,-6029.6772,-3181.926,28723.08203125
367,-7949.981,-1433.1309,-17263.646,-3115.2478,3450.517,-13653.9795,28531.306640625
368,18996.496,10921.083,8627.914,8417.476,469.25885,-10186.714,24769.314453125
369,-2230.1216,-1908.1365,-3021.198,-3551.1428,-5152.1655,16437.428,30479.7890625
370,-14250.497,-15970.082,-24929.176,-1421.7821,3565.508,2261.314,12576.6376953125
371,12946.339,26485.115,19685.742,-530.8174,1995.7688,-352.90436,12273.6689453125
372,16655.643,25093.865,19123.281,7318.6914,-2769.658,3550.359,16672.98046875
373,-11175.711,-16814.129,-25677.477,-915.9572,-7323.5205,4065.021,19321.4375
374,-1734.2131,1998.3706,1989.4031,53.15792,-917.3141,-308.2796,4088.61474609375
375,-696.8987,-3089.6746,815.3979,2936.6443,1185.4824,-795.8102,6604.44482421875
376,-1765.1086,-4526.649,362.14526,493.2604,2010.7771,995.15686,5818.6259765625
377,-27145.041,1598.2588,-19966.87,-942.0911,16263.585,-2211.0664,38499.62109375
378,-23364.271,-39625.797,-60621.39,-10198.334,1274.8033,4908.1724,37892.43359375
379,12849.383,14706.398,29011.299,-801.41034,-13.9382,-1769.1166,15683.1044921875
380,-1187.9348,612.8772,-10144.653,2001.8292,5271.2407,6631.5264,18080.552734375
381,33430.613,36680.043,44588.46,-2281.4807,3569.615,12519.466,24957.017578125
382,-18586.088,726.1581,-36405.594,-6277.2036,-710.2648,-3458.3347,34499.79296875
383,-1962.2383,31806.18,6183.5093,12126.113,-5601.161,-6959.7476,40151.60546875
384,6992.3374,-13598.07,3362.6392,4421.4355,3604.299,1515.2458,21608.1171875
385,36759.508,21256.906,14593.924,4735.838,-16840.65,1512.9506,36235.25390625
386,-4136.102,-12757.554,-615.24316,1924.545,-1045.2799,-1142.4319,11635.5361328125
387,2168.593,-593.9314,9090.728,-1694.9181,2347.2559,-1041.9802,10152.55078125
388,-32455.895,-27784.03,-2577.0723,-4575.654,-4566.0073,-532.0028,30019.73828125
389,3406.2512,-8212.131,3611.9243,-6731.0303,-4389.2563,4924.6177,20097.046875
390,17144.9,12952.983,15683.882,21786.111,1452.1438,-1068.826,38042.6015625
391,-21319.965,-17559.35,-12497.714,5923.7363,6583.934,-2867.857,17854.623046875
392,-7986.042,-7806.5195,-23963.953,-19391.203,-7486.726,-928.59143,39458.71875
393,6.9364014,-3376.82,-1102.8201,-284.17432,114.69724,-244.05139,3063.76171875
394,-4525.7715,-4125.0854,201.39648,3592.8535,-6243.24,-7062.792,18053.298828125
395,-5415.4194,-5188.7427,-26623.57,-7492.0215,10628.399,11486.012,36847.109375
396,6096.375,3980.447,14082.037,2865.2917,1119.4393,-5550.3735,14351.1015625
397,9507.455,12721.288,15550.174,-4663.548,3943.863,2300.4841,12458.2412109375
398,-6177.4624,8371.49,3354.2815,-6462.9883,-280.13428,3778.8835,18227.3203125
399,7772.7583,-11480.542,7037.7075,4619.073,6888.738,-573.45374,23757.859375
400,92206.17,88807.93,112064.57,-3218.775,3736.546,-367.5603,23382.896484375
401,-11952.935,10655.444,-16078.308,1207.0945,13781.458,7702.131,37061.44921875
402,-15046.875,-10389.111,-3743.063,14628.017,15210.956,1168.0029,37907.37890625
403,-53591.273,-70268.82,-65132.47,-14063.139,14966.988,-3334.3987,38955.9140625
404,-9926.258,-24437.266,534.85547,7740.5063,-7918.7437,-3475.8464,29595.876953125
405,32547.668,56526.926,75694.69,7339.1104,2112.8027,-626.7583,39726.49609375
406,9189.047,30473.297,13010.857,-5524.805,610.32715,-2821.7063,22424.43359375
407,-13822.863,-8755.098,-35078.28,10783.262,12184.568,1615.5374,37245.80078125
408,-14433.336,-17193.127,-27019.543,3140.4343,-1159.9564,-2696.5833,13664.98828125
409,-7040.3633,163.27051,-19997.37,13928.352,2548.8506,2933.377,30666.18359375
410,-11872.904,231.3584,-7092.607,233.16104,-541.7379,1642.4225,10983.5625
411,28563.193,20066.43,18463.016,-17962.38,-9597.348,7135.47,38540.9296875
412,15329.424,10873.262,24145.635,5219.286,-2487.4636,4431.351,17206.548828125
413,7054.7485,7074.0596,7550.058,475.05508,978.40295,270.1568,2000.9853515625
414,4388.528,18742.148,28129.736,-1780.5645,-4583.7563,-12654.81,31334.890625
415,17470.791,16458.709,17240.004,-867.94543,-157.01584,-524.7212,2000.98571777344
416,-12233.475,-6485.9517,-18911.67,-3210.8,-6997.609,-13.95479,17141.857421875
417,-1892.17,-5113.72,-4574.716,-1241.3162,-879.9507,881.929,4267.4833984375
418,-20405.656,-15413.073,-16306.331,-11473.563,-1856.8219,-3398.285,21475.11328125
419,-3679.349,-5635.8096,-14863.716,3395.828,3690.861,8353.721,19795.259765625
420,49283.824,51909.25,37570.176,-6787.9023,-5696.7524,-8140.995,24683.375
421,16713.365,22661.625,26220.0,-3016.5364,11677.26,7713.554,26154.9296875
422,4996.5034,5499.6953,3614.4807,-3666.396,-651.2354,-4550.84,10324.1826171875
423,12033.805,7260.51,-12152.574,10462.535,-708.68384,-1422.1338,28779.93359375
424,16899.967,5414.4946,10222.132,8650.115,-3353.3489,6856.9756,22339.966796875
425,2628.3188,12607.191,16498.219,1171.9567,-10792.331,-3646.5813,23387.654296875
426,19051.195,1128.9575,-16267.3545,-6860.1074,1491.9156,-1240.9755,32986.359375
427,69398.88,54579.4,81738.086,10447.69,-9989.941,-8873.73,37653.984375
428,41258.727,55331.176,62756.875,6799.03,3052.945,-1143.4482,22983.404296875
429,-13291.408,-12399.52,-12194.078,-5040.4316,1477.2404,-3263.601,10758.1943359375
430,9904.518,4380.6543,5660.4136,-2770.9941,1822.8356,-4672.121,11116.2587890625
431,-30256.582,-3472.5107,-15139.0625,664.4047,-5259.7144,-186.14603,25008.783203125
432,-4803.3394,-9855.596,-2550.0286,60.82675,-2054.5085,1929.5723,8113.62255859375
433,4599.956,-3869.4636,-6134.9854,-1090.7705,-2581.2205,1004.8958,11074.212890625
434,-37538.977,-35192.25,-68186.16,4403.1445,5837.723,1405.3022,34394.796875
435,-784.68207,1089.0043,-24235.566,15474.607,-8650.398,679.1958,39263.9375
436,4935.9214,3781.398,3573.8062,-3621.5327,2587.7961,-6864.21,14226.8896484375
437,-4857.694,-12732.626,-18749.213,5679.995,-1754.1608,5831.4414,18805.0390625
438,20964.352,-14300.704,-13557.48,3865.406,-7575.326,-1301.7961,37947.75
439,5776.245,5202.2393,-11834.396,-4871.4927,229.34381,-1137.3915,19380.109375
440,13396.07,12526.842,22472.828,1107.1803,-5074.4365,-10278.387,22110.98828125
441,-68279.83,-85432.25,-47827.44,-3153.2754,669.24347,1743.918,33220.6328125
442,17755.594,21826.38,23124.291,1553.0972,4300.2925,2321.3496,10120.240234375
443,-3285.0234,-1275.148,-10266.903,543.3701,61.758724,50.68502,8229.4501953125
444,6570.073,30957.639,31306.082,-848.6329,-3672.5925,3084.461,25971.87890625
445,-30335.13,-7914.173,-14997.662,16816.967,5781.9795,7837.359,39077.5390625
446,18478.123,19733.432,26141.85,-1470.5535,5084.325,4580.3364,14059.3486328125
447,-4018.3945,19965.154,6114.8066,1196.6738,-7144.97,-650.21246,24363.46484375
448,3731.727,213.63068,-1222.1636,-4237.282,437.7709,-726.4091,8689.7294921875
449,24822.314,15408.861,14196.336,11151.961,-6721.1265,-4225.598,25762.05859375
450,-15576.984,-17752.627,7905.415,2686.036,12804.175,9018.153,36942.01171875
451,16330.188,19538.525,28442.396,4222.8047,-1880.6241,2233.3418,14043.1083984375
452,-3728.701,-2576.633,-2702.6516,3768.7437,6069.22,-1385.9733,12652.166015625
453,3655.407,9722.259,9846.454,3100.636,-1584.7632,-13232.215,24479.1015625
454,-16526.934,-725.20215,-27277.104,-8513.581,3092.257,8282.507,31417.53125
455,-3977.7642,-2607.636,-1104.5502,-3512.392,733.01483,3443.0408,8965.609375
456,20238.047,7544.08,11883.517,2005.6888,-3302.137,6211.6265,16894.2734375
457,-27100.951,-17572.473,22.768555,-10936.534,-3608.3704,-3454.17,31649.9375
458,-12368.357,-41580.832,-42890.273,2261.9788,4294.011,11702.432,37078.8515625
459,-66679.29,-38714.62,-32316.66,-8354.331,-1310.2389,-11359.307,40043.84765625
460,34467.14,34863.29,16579.479,-11049.5,-16010.213,-3321.884,38672.6171875
461,-23707.828,-7117.435,-11728.984,5027.2505,-4828.0083,5557.4653,21410.396484375
462,-2285.1821,-3052.3054,-4602.226,2395.6858,-2630.622,-2450.9539,7757.556640625
463,12121.306,9806.791,1146.9199,-5359.2188,-643.7762,3540.316,15013.4033203125
464,-2748.6343,-14777.125,-7237.702,7431.0464,-8849.353,2551.9243,23042.80859375
465,89.19336,13922.854,2343.7356,3506.8923,464.7557,506.11597,14268.001953125
466,8439.113,8848.5205,14357.245,1310.834,198.00117,-3640.598,8820.6181640625
467,-42.597656,30814.531,-1006.4502,425.38748,11461.854,3700.3215,37663.98046875
468,2008.4178,1638.8564,-944.1078,-234.66403,-804.45844,4598.414,8561.876953125
469,77209.234,72300.21,109110.11,-3080.0308,-3007.3938,-7032.927,37447.90625
470,-33922.277,-20572.746,-6899.7744,10985.477,-11293.006,6498.267,37669.7265625
471,-378.49805,-12949.009,-18589.703,-6475.617,-7819.5186,-1133.4575,23954.775390625
472,-8.816895,12739.392,4196.067,953.9067,-3585.775,-4471.6123,15095.7685546875
473,-8392.243,-11506.206,-15143.635,-663.35876,6452.2397,7438.279,18068.00390625
474,33260.934,18060.031,-5788.0312,-1626.5137,7226.8887,3431.2532,36908.6796875
475,-10231.606,788.6782,-11458.405,6220.532,2674.765,2625.681,17166.890625
476,-16309.496,-18318.207,-24463.096,-10369.03,18058.166,-739.58734,36832.33984375
477,18.874512,-4686.557,-134.69446,-9645.037,1347.569,12770.929,28200.35546875
478,-27572.123,-12615.835,-3841.4,10584.099,6791.5137,-7794.995,32994.59765625
479,-16986.28,-1025.5879,-1420.5269,-215.93687,-5504.761,4865.3984,20264.736328125
480,-8261.63,-7970.5156,-5293.3555,2651.764,-1000.06714,2910.9077,7586.00048828125
481,-4422.0166,-3418.505,-6866.0684,1316.5249,-997.51074,387.1945,4250.6015625
482,5362.6084,-537.79407,630.8445,916.8487,-555.9746,-2534.6848,7211.66162109375
483,-10437.672,-22421.902,-9616.453,-1455.888,-2483.4932,-2940.2717,14315.568359375
484,16642.842,8261.242,22714.568,-3016.3635,-174.7023,-5406.844,16525.63671875
485,-11551.907,-18470.215,-25831.594,1012.5619,-1784.6931,6959.3784,17632.67578125
486,29377.758,26002.201,42685.617,-2264.4177,-361.0581,-3449.6265,16878.642578125
487,4182.01,1612.9775,12390.528,4706.3823,6267.056,-4163.467,18202.99609375
488,151.2373,-13185.056,-15825.119,3075.888,-17506.51,9623.959,38022.54296875
489,-881.74023,19477.066,29721.854,-13477.467,9534.704,4172.2773,39973.6171875
490,-15386.221,-16669.09,-20546.22,-1858.0646,-9116.706,-1921.3058,17100.474609375
491,-14512.702,-9697.076,-21414.385,-373.41562,-3985.2097,661.31085,12386.904296875
492,5427.5693,16524.668,25692.32,-662.06335,864.84503,6240.342,20719.802734375
493,-28983.371,-23610.355,-46679.39,-930.0893,-2151.1733,560.29755,21319.451171875
494,10395.404,3178.0566,8771.401,-254.19595,-762.5075,4963.47,10901.958984375
495,-211.45068,-6532.074,2130.1643,-1869.945,1520.5232,-81.537994,8813.62109375
496,2221.0327,-1037.3055,4828.356,-9308.597,2066.074,621.5468,17315.46484375
497,15914.262,18396.738,20895.502,1589.0466,1627.456,3314.0168,8190.1650390625
498,24270.258,4517.8525,-7516.2954,6621.282,3593.4084,-2384.9685,30983.990234375
499,-26279.09,-25349.875,-57940.008,-1396.419,-401.21356,8403.655,35367.98046875
500,11286.494,1821.7559,17293.365,47.486023,1047.797,-3153.4858,14685.0615234375
501,7824.771,-9225.53,7009.3145,-969.76917,410.4393,-4483.613,18469.138671875
502,18814.172,-2096.294,5513.0596,-9916.058,7901.6504,2878.9077,29037.767578125
503,-799.3635,-5743.219,-3383.7227,5530.4194,-312.11853,-225.65277,10514.064453125
504,5602.985,15286.031,19129.15,1744.26,-3.9704092,2570.9824,13217.4609375
505,-179.71143,-1906.3599,12572.357,-1323.7437,2123.57,-2362.037,14937.8076171875
506,543.4785,19638.771,21042.941,-2926.8843,-1592.73,-605.8632,20683.966796875
507,-16337.2705,-4024.1416,-18965.639,-489.45038,6873.337,6087.2246,21083.044921875
508,-5139.0693,-8752.236,-24227.488,-3161.876,254.09062,-1214.7034,18522.03125
509,-27921.781,6454.1035,11378.315,-2710.8877,-1038.3823,-2826.7842,37742.24609375
510,50210.652,33125.324,31088.568,-17567.797,2535.0676,-4314.636,36494.73828125
511,-3486.2864,-11023.795,5487.9805,-7615.3716,636.97626,4645.7324,21093.66015625
512,-212.53046,-6107.2344,3914.5073,600.2292,-1060.091,-879.00134,9103.72265625
513,14018.764,15530.727,18892.363,-55.199528,2105.6497,1790.1213,6449.2890625
514,-11780.255,-21564.836,-36672.305,98.010704,-4991.746,-4923.1353,24885.48046875
515,-2229.8289,1364.3948,251.65836,1235.9465,2987.1934,-2338.513,7610.2431640625
516,4650.3765,-4592.466,2711.3176,5654.311,3415.7317,-6036.3384,17649.2265625
517,5176.6973,5794.741,1933.3872,-2242.861,658.4446,79.57841,5414.46826171875
518,21388.5,3268.3643,25569.533,17430.863,-1488.0952,5815.724,37963.10546875
519,-9676.471,10786.612,10598.82,-5702.769,-4364.091,-2477.392,24249.603515625
520,-2252.188,-4288.377,5603.246,3608.4834,-2017.4308,-2935.3635,12608.3974609375
521,-4212.259,14080.773,3744.5474,52.68097,-6937.6343,760.7614,19963.181640625
522,-22940.605,-9499.902,-8440.391,4715.0073,12238.082,-12584.592,34454.859375
523,-2687.129,2050.2131,-9149.684,1178.5719,-5265.6187,-3122.668,14540.3857421875
524,39171.836,38164.2,39172.63,-6567.568,6774.574,-4325.026,18006.029296875
525,10403.631,787.2627,21290.852,-1649.4453,5931.086,-4310.004,22025.5625
526,-21.53479,-2075.4902,-1392.1323,-11.6789665,2952.3682,-10.064551,5425.1513671875
527,8558.188,4727.6387,-3389.6182,8257.928,-18623.256,-2069.857,37007.65625
528,-11950.83,-14246.765,-11133.535,7335.1396,4233.89,-14852.193,29745.06640625
529,5040.691,3343.3984,7949.8184,-166.77368,4895.264,59.495678,9395.017578125
530,-2227.9243,-10168.836,-2156.318,-1999.4103,85.9351,-285.36017,8711.5546875
531,-6054.5303,-4511.0044,-11528.601,2827.3267,-2111.3376,-1572.6346,9250.48046875
532,16788.904,6912.2173,-16287.279,-1921.128,1957.3025,6884.174,32088.015625
533,-3331.3516,-11102.212,-8964.265,2111.5034,-4418.383,-12614.824,24447.625
534,-549.1669,2792.9487,3758.106,424.17877,-17.120054,-3002.1147,6550.24267578125
535,5417.284,4768.4126,3752.812,-275.7625,-216.28482,5959.1177,10440.9384765625
536,697.8601,-6173.4463,-5444.0054,-704.97076,448.1401,-1077.6782,6950.70751953125
537,-14126.744,-6676.855,-20707.162,-1919.969,1795.6526,-246.15067,12989.990234375
538,-2265.081,-1515.934,-4205.719,-440.8156,919.6682,171.51286,2998.28198242188
539,2887.6934,11571.241,6324.33,114.525116,1954.3342,512.6176,8346.150390625
540,-8750.743,7403.409,-18442.098,-3524.7861,2899.1863,5805.8955,25981.6875
541,-6203.538,-13496.356,-19413.18,-2003.8815,-5150.413,-4462.4155,16814.001953125
542,6240.627,522.37305,-1203.3309,557.188,-4076.4863,36.520542,9814.9423828125
543,6963.8687,14772.9795,21399.252,3422.3733,-1236.8419,734.28564,14070.5283203125
544,-1522.9641,-7071.184,-3527.4917,-1470.1769,1072.8667,4654.5386,9930.3017578125
545,686.7905,-5395.421,-10987.451,-3555.7166,-10585.67,-6774.0054,24779.75
546,18850.275,10804.173,12785.463,4209.3633,4663.117,4638.4297,15351.185546875
547,-3577.1792,-11489.546,-14440.546,-1742.8429,493.7306,2575.6497,11153.880859375
548,10466.978,2105.8877,4448.935,1836.7587,4208.5264,2660.4487,11844.71875
549,11680.915,690.521,3595.025,-3643.2107,-1342.3428,1463.6869,12204.7119140625
550,-7630.3086,-7524.355,-16531.05,-1742.049,-5110.3623,865.4272,13033.6494140625
551,13817.797,17356.582,29836.617,4874.343,6566.295,-14557.56,32385.68359375
552,-1744.0386,-4949.182,-5191.233,-911.593,-3401.379,-394.43607,6983.92578125
553,-1096.4534,437.424,-1525.9547,3025.2205,1127.0837,-1355.879,6322.82421875
554,23527.672,22274.908,48520.1,-2156.26,-393.319,8706.187,29988.43359375
555,-927.94055,-3224.4985,1779.5275,-387.63382,-1066.6412,4593.961,9273.6083984375
556,-14882.188,-13135.441,-25938.371,12672.937,-1779.2307,5571.5283,27000.654296875
557,1506.1721,-1609.1931,-1710.3676,-4489.2236,705.23175,-1081.7965,8688.68359375
558,5234.5703,7163.1562,19409.348,-5065.5664,0.14691028,-2386.3015,16473.302734375
559,5438.4126,5465.2896,8470.175,461.25497,-1307.9545,-2084.751,5283.9267578125
560,11521.769,11890.848,12566.963,1996.2324,3048.9673,701.7635,6493.36181640625
561,-1761.1318,-6218.28,-2214.731,1677.8927,261.1729,3512.8733,7982.5810546875
562,921.5049,-7450.549,-1845.6923,-425.09012,-1902.5062,1574.0297,8568.2509765625
563,-21206.086,-25915.434,-11352.128,12955.639,-2022.1144,-15503.16,37450.51171875
564,13273.253,19983.322,25917.22,5354.119,24.544992,-2458.3635,14972.8173828125
565,1286.4688,5387.9175,119.984375,-4340.785,-3517.8845,-3134.653,12087.1328125
566,374.11108,-2462.3357,-6804.6973,-680.96,-54.59822,2129.5952,7363.69482421875
567,-6010.1567,-987.2335,-1444.9788,1451.8116,-3921.4067,1525.2169,9087.05078125
568,-2092.905,-5375.007,-10414.713,4108.569,-561.84827,-531.27966,10254.095703125
569,-1492.2186,-2704.207,-644.8855,-1041.2062,1940.8944,1296.7693,4776.21435546875
570,6143.522,1695.7773,6978.1313,-1313.8348,237.11232,2724.3242,7197.50732421875
571,21222.195,-129.39844,9084.478,6184.1646,-3666.3186,12009.106,30524.8828125
572,883.6999,-2755.2683,4706.1777,2648.7793,-2976.6953,-3468.586,11202.08984375
573,665.70496,5555.2983,1235.7839,-4629.033,-3236.4785,-1419.4955,11099.494140625
574,22725.824,6758.3496,17645.03,9408.101,-1713.5848,-10462.985,28326.94140625
575,6817.2056,-1572.8246,24811.502,-9391.821,-3965.9448,2712.9534,29648.69921875
576,5437.6426,-4055.315,477.48193,-848.53516,4040.3884,4701.4214,13604.3076171875
577,-25570.414,-17122.236,-50798.1,-3508.2751,4955.5127,426.71927,32125.962890625
578,6273.935,6406.0576,22822.146,-1054.808,-4917.8306,-3427.568,19565.583984375
579,30362.82,21326.316,27054.963,-2175.941,-788.352,-1594.1827,9295.2548828125
580,-30868.764,-22183.637,-39000.234,1396.2128,3140.4634,-3125.3584,16640.74609375
