Element Label,S11,S22,S33,S12,S13,S23,Mises
1,10550.774,-5402.7437,12400.924,9586.49,5431.285,5835.9614,27455.9375
2,-13870.393,-20713.863,-10970.042,1710.5919,-5639.41,-7553.9985,18720.830078125
3,7498.9707,-5543.738,931.4051,-8710.504,6359.2974,4733.687,23318.455078125
4,1558.5581,8727.613,-717.28186,218.87167,-2091.7888,-179.55525,9287.4970703125
5,-6156.682,2066.6753,-4866.1978,-7181.2754,3180.4077,-1792.4485,15917.681640625
6,-4609.1626,9364.968,-419.55768,-8410.233,2925.4744,-10558.776,26955.845703125
7,1405.9834,14348.723,-58.818275,-2325.6816,-1656.117,3546.4224,15836.810546875
8,1649.7825,4327.2456,13729.819,10262.478,2924.283,1457.009,21650.185546875
9,8291.164,705.7049,-4259.7056,-4152.1445,-2528.243,-7.0466504,13811.462890625
10,-3255.8408,22384.176,13382.937,-3008.432,-213.6453,1657.524,23306.048828125
11,-2585.3884,-1467.4731,-8261.043,-7495.9893,18.77244,266.46478,14442.6904296875
12,3213.9504,6259.756,6561.7305,-4306.81,10.125075,-3406.1943,10036.9560546875
13,-4647.5635,-609.45764,-20385.512,-6506.571,-2569.5117,5208.0513,23573.8359375
14,31999.379,1599.5449,-816.47906,-96.241646,1371.6077,-2306.28,32016.59375
15,-24040.277,-12993.871,-7638.8765,10456.211,-1139.8584,-1878.0106,23501.662109375
16,26083.178,15191.815,36083.312,5560.889,1391.5485,5323.3613,22608.267578125
17,6966.264,13646.251,23756.455,3830.6401,232.75293,10820.165,24693.8515625
18,7174.411,5667.552,40926.152,1227.3365,2004.1062,-690.784,34789.5078125
19,3112.2363,3464.8381,14880.408,106.70919,6331.662,2835.368,16699.900390625
20,-955.70807,-3833.9333,3459.8577,617.21045,-554.17566,-3825.9702,9298.85546875
21,1248.8582,11858.25,32157.762,-7882.4863,2546.7417,65.26583,30754.935546875
22,642.05493,2373.6345,782.0004,635.82446,-5684.5894,258.48932,10056.46875
23,7960.469,11460.724,12857.689,-7109.2056,2224.8284,-6167.602,17311.353515625
24,543.03925,445.92905,1020.9722,-505.7117,794.3913,-146.46053,1734.65283203125
25,-723.59216,-2039.4977,-977.1846,-118.545265,129.4355,-245.08023,1317.12768554688
26,9739.056,2971.5078,18841.05,1432.532,-3986.4255,-2809.2083,16363.080078125
27,-886.38715,-1351.782,-1354.704,-449.40656,-623.94855,818.97253,2000.98547363281
28,-680.66833,-2352.5625,-1742.2148,486.21164,-615.5544,59.71556,2000.9853515625
29,981.8166,2249.5176,9574.732,454.9701,2852.0374,-429.63846,9493.63671875
30,5062.795,4975.683,22362.824,-5386.42,4319.8413,-2467.6194,21496.435546875
31,-2773.7297,-2454.4907,-2629.9426,-219.05931,-663.9547,-299.91168,1346.47521972656
32,5850.141,5610.723,5914.3057,-164.67052,-726.12024,-518.49976,1595.75280761719
33,139.22893,486.03162,219.78535,-211.56421,-912.8131,398.69153,1791.5498046875
34,-13645.491,-8431.582,-1453.9362,-2201.236,-10327.449,3756.068,22115.205078125
35,3224.7002,8953.824,18976.09,-129.52493,-15167.617,3091.9597,30159.380859375
36,17639.709,25442.754,36066.93,-919.04614,-13331.713,-1425.2695,28257.625
37,5342.9546,23164.162,28228.959,961.606,3933.9475,-3971.5654,23022.384765625
38,-5668.0894,-3146.5732,-3725.349,246.209,-5273.7065,-1105.2797,9618.5419921875
39,-7584.484,-7191.9507,-13839.717,4748.946,-13005.776,3259.2917,25469.873046875
40,15542.309,16894.215,28829.734,2178.9128,-1816.8146,2113.125,14069.8720703125
41,3326.4067,3549.076,3808.72,317.95358,-562.25555,333.2743,1326.53833007813
42,4183.512,3723.4922,7591.482,-1584.1672,-4432.4556,4135.4727,11452.8935546875
43,11264.557,13204.486,12300.051,147.18935,-26.22607,-502.29462,1910.69262695313
44,-1601.6412,-1879.4418,1590.6211,-1672.4141,-194.09209,2049.5652,5679.84130859375
45,4824.762,7499.6133,17427.781,-5176.2017,-1805.1473,-1067.8419,15028.4873046875
46,12167.636,8223.096,21166.082,135.55771,1625.196,-7673.043,17794.15234375
47,-604.88855,-32.164803,18038.877,-856.3449,-2822.7322,-3242.9583,19871.94140625
48,7922.309,1951.1105,11376.057,-136.98032,3043.6272,-4446.619,12464.796875
49,4437.94,-6362.33,11711.902,1952.513,-1764.598,-8208.853,21703.71484375
50,-464.99698,-4755.7783,5065.9106,-1156.8857,2098.2776,-7131.0938,15572.880859375
51,16705.803,2930.8442,26253.977,2218.5942,2861.3765,-8051.547,25421.525390625
52,10888.425,466.7552,19310.371,986.8531,-4132.814,-7099.476,21741.2265625
53,10625.176,4067.0103,16703.936,862.4972,-214.06659,-5903.964,15058.748046875
54,926.5219,5153.2485,7984.4233,1392.8424,946.4242,-8253.457,15833.92578125
55,-3728.2795,-3448.0544,-3917.0684,-528.04865,-591.22784,-2063.293,3850.16381835938
56,-8348.756,-8612.476,-3937.3662,-1678.6803,-512.62634,-2109.8347,6579.494140625
57,-6476.57,-5869.7104,-6038.4,-364.78452,1049.27,49.926937,2000.98681640625
58,8234.495,8488.238,9781.614,-706.5425,2783.5498,-514.98553,5253.86328125
59,2267.5789,10988.582,28540.879,-203.3692,6532.8325,-4167.021,26785.4921875
60,13215.223,19798.932,25339.256,1926.5404,9297.897,304.9272,19526.458984375
61,8013.576,10910.206,14488.301,125.74224,10365.662,-1489.2255,18989.453125
62,8629.572,14230.055,20943.566,-3408.6794,6956.8086,-188.75403,17152.005859375
63,6630.3247,12145.511,24571.129,1053.5852,-3982.6177,5384.5283,19779.689453125
64,9152.666,16504.355,39185.547,-3962.932,8870.492,-781.89404,31941.107421875
65,901.5966,4833.595,11307.395,-218.7319,8427.76,569.4847,17234.37109375
66,-3909.5564,-2938.1035,949.5316,1529.2661,6636.1025,838.0353,12691.3564453125
67,8440.691,13387.039,14268.477,-273.75262,8543.819,258.0487,15780.314453125
68,1551.0585,8150.405,34715.09,-7557.859,-1694.451,-1381.9868,33320.41796875
69,-18210.479,-15082.263,7180.641,-183.90488,3020.276,-2578.6008,24949.5703125
70,5735.5503,12783.792,23336.588,-4425.8477,-1980.8861,-106.114334,17492.505859375
71,-3528.1125,5398.269,23376.73,902.9579,5401.928,-9853.156,30734.84375
72,24640.666,25992.135,37718.4,-4363.927,5805.7607,-5520.795,20121.357421875
73,4688.357,323.32196,17490.137,-3816.052,8948.839,-5829.566,24994.0546875
74,2290.6174,-1512.4535,12811.962,2249.3252,6932.8584,-2923.3064,18713.21875
75,-3364.96,-7167.7812,3050.3997,-3908.5945,2381.8923,-665.5017,12008.1220703125
76,2345.7646,4887.2144,20565.814,-6049.058,3667.4553,3425.1768,21850.4765625
77,5566.6055,5822.678,7319.0063,754.53577,-6364.7534,83.97679,11222.6171875
78,8994.331,714.38403,31686.82,-611.29767,-199.46669,6343.7466,29889.279296875
79,-525.9599,-1854.4501,2373.558,-1305.926,-2413.8115,-4548.701,9934.3798828125
80,-6655.4277,-6577.5693,-1282.3057,446.18463,-1061.4594,5342.6,10865.7998046875
81,19422.441,10343.938,29123.46,3276.1272,-591.69684,9139.799,23419.154296875
82,19228.865,15130.172,26987.297,-4226.9854,-1376.4506,-6700.317,17400.0234375
83,14330.873,5268.972,34754.207,-11899.711,-6124.7856,7259.713,37145.16796875
84,9410.494,-9255.049,-1035.549,3640.2197,-11767.731,10239.956,32129.48046875
85,7587.7485,-4857.178,26178.387,-7804.7964,-148.4066,166.75476,30244.689453125
86,30846.838,28436.955,50856.88,-508.8185,11911.149,-1572.3192,29803.537109375
87,4786.413,9267.43,25887.879,3322.789,7464.9736,1716.7905,24081.896484375
88,12039.42,33.650963,22975.588,-4615.934,-9640.004,6205.2603,29210.626953125
89,8054.0903,-1751.5492,26673.889,2390.705,-3099.4868,10640.403,31796.978515625
90,11092.977,4249.4473,25036.873,4392.686,-2930.26,7614.059,24377.44140625
91,8455.302,9834.706,14090.969,68.457726,-8315.201,113.64482,15276.45703125
92,1315.8458,3245.0544,3660.3337,-157.42426,-6226.8975,331.31317,11019.16015625
93,13112.28,10984.969,15358.025,-2725.6594,-5478.8574,-2055.7231,11805.31640625
94,-5456.388,5555.4253,22803.756,-2510.5283,8251.601,683.27716,28866.51953125
95,6961.048,-6666.9,8163.1597,-1873.5978,4794.2866,15470.21,31638.85546875
96,5093.4116,2543.3293,15030.821,865.11566,9512.2705,-1008.0559,20182.6640625
97,-851.3946,2311.9868,6667.0415,-4607.7476,8172.42,782.08167,17568.279296875
98,18494.004,15016.676,23104.898,4395.454,-2119.1797,-6770.212,16072.51953125
99,776.1821,700.4647,976.7565,261.27057,467.20352,-419.78995,1203.92907714844
100,1993.7316,2183.4036,3089.8203,-424.96655,328.8774,422.06454,1558.90185546875
101,2894.1904,2477.762,4936.161,-2545.119,-293.81448,650.96246,5114.3447265625
102,-2015.7892,-1708.2552,-2062.3425,785.09485,-1394.6696,299.61856,2839.86010742188
103,-6797.096,-9341.549,-8135.245,3053.8735,2097.8188,-4622.94,10495.5087890625
104,-2202.2773,-2061.1123,-1665.1599,-134.72668,-3615.122,-3634.1028,8894.6328125
105,38456.816,34597.742,44932.46,6283.059,886.1344,11583.823,24599.94921875
106,-1856.6317,-391.71698,-1479.7241,1432.5931,-7306.9844,1077.0187,13097.6650390625
107,6160.0347,4673.2153,5359.1616,460.05133,-121.84958,736.55426,1992.05822753906
108,-4285.8945,-1279.5093,-8468.332,358.04752,-5209.4395,7530.772,17059.955078125
109,2732.79,14254.212,25726.02,-1546.1263,1058.5388,-7333.9707,23841.3828125
110,-9166.041,-1402.3025,4147.5107,842.9477,6781.7725,2081.3726,16949.001953125
111,12614.43,6126.3906,30209.074,6560.085,10798.359,7697.1387,33503.3828125
112,7997.4155,19096.533,41444.605,-1197.9626,-1376.5192,-4898.1587,30864.8046875
113,-9161.767,15258.332,24468.35,7225.863,5478.3716,1137.7932,34009.34765625
114,6126.7085,9245.585,15986.497,787.40045,6861.22,-5018.051,17170.408203125
115,-294.62955,6002.312,24406.123,-505.68665,-3793.1719,-631.0291,23224.248046875
116,11980.681,6805.8066,13635.267,-1164.7385,3993.8005,2453.0667,10394.85546875
117,-5671.012,-6126.3286,-2493.378,13.588497,9279.396,3026.365,17249.646484375
118,-1641.8573,4286.5234,23996.021,-577.4496,1034.8517,-3134.3298,23961.23046875
119,16587.22,6470.7866,10152.677,5286.0127,-2770.8098,-2334.2683,14207.580078125
120,13883.529,19168.338,23588.445,1029.102,8842.602,-2622.414,18144.119140625
121,-12951.399,-2637.8184,527.51855,-1480.9537,-4440.2183,-571.11896,14688.0927734375
122,1535.9387,7650.439,13730.787,-681.45996,-5664.573,19.747995,14463.490234375
123,-1422.6487,-2088.2666,-194.20877,546.6995,4806.5986,-376.4738,8567.484375
124,9511.162,27587.486,49938.336,506.55865,3236.97,-634.9911,35549.2421875
125,2890.0513,3857.1384,2978.4304,981.3102,-55.481476,287.6384,2000.98706054688
126,-489.8766,-6745.3374,7649.307,-1081.3666,1802.8202,-6872.581,17642.197265625
127,4985.197,4260.136,20142.525,1709.4039,1495.6271,-6793.6934,19879.638671875
128,-22508.4,-19184.209,-9979.6045,-7025.1304,3901.354,5173.5146,20009.689453125
129,4263.743,3703.3086,4588.351,-252.53778,522.83765,427.47253,1470.02746582031
130,13312.73,4158.0747,26287.922,530.58966,7266.2085,3110.958,23647.80859375
131,431.2272,-8738.707,10717.735,1924.6179,-6850.0723,2302.0168,21260.46484375
132,8314.853,-8319.711,10910.369,-2241.1323,-2487.3777,8805.5625,24348.791015625
133,32007.936,31890.504,33366.89,1869.8942,-3068.2231,8821.824,16559.751953125
134,33641.85,33281.39,50024.08,1055.2037,-8793.937,-2191.8628,22894.662109375
135,24918.266,19322.008,38123.406,-319.4465,429.6958,-3701.892,17932.240234375
136,-825.3806,-955.6387,-2640.9893,1196.715,-5407.3516,-473.13718,9785.8671875
137,6454.715,6978.175,6614.568,859.2791,523.72797,274.27734,1865.34875488281
138,2242.3484,909.4187,1788.8007,-666.6437,-243.43204,-395.91583,1832.7919921875
139,6868.0,9613.74,13052.747,1801.3914,9245.127,-694.9531,17216.546875
140,-2039.2695,5009.8413,15592.682,234.29448,8628.648,-649.71906,21472.724609375
141,3332.8206,10635.18,21467.361,-1097.6143,4081.4722,3079.0059,18215.142578125
142,-1496.9272,1214.3284,-8421.369,3219.6985,4615.2686,5199.9146,15817.4443359375
143,8806.378,12904.839,24555.48,147.4311,9349.521,2141.365,21825.369140625
144,4702.433,6915.2188,7409.468,25.050539,7781.1357,1100.5094,13838.6357421875
145,2558.563,11892.898,19035.584,-1750.3928,7115.2544,-3776.149,20215.58984375
146,-9679.842,-5196.3105,-1206.6447,339.74,10604.909,-1640.9884,19993.107421875
147,127.40522,-15922.3545,5500.0566,-2323.9397,9217.682,14931.376,36230.1953125
148,12159.173,1201.1821,17290.668,-12144.087,8703.11,7208.6187,32065.59375
149,2362.791,14543.509,36508.684,-2990.6685,-7183.3325,1697.5684,32994.98046875
150,8375.196,7335.937,18864.365,2408.356,-1876.9799,-7709.833,18118.994140625
151,5631.429,1205.2725,15034.828,-3806.556,674.3354,-8014.4272,19676.44921875
152,-2779.2168,-3135.5767,-3147.4624,-389.38254,-439.1832,-2607.437,4643.38818359375
153,12709.54,9833.48,14255.425,2340.0637,-2088.5557,-2466.9136,7929.59130859375
154,-2384.4834,-1614.2617,-1759.9476,466.14322,659.91016,-77.794754,1574.396484375
155,22762.225,22150.883,28188.176,-4621.4253,-7073.62,-793.4676,15786.1201171875
156,-5993.8325,-6126.2188,-4092.4553,-190.7609,-7879.8975,-2448.8157,14431.2880859375
157,3688.8198,3198.7468,10991.668,-302.1038,-12916.434,-3973.2432,24602.5859375
158,-11237.732,-11644.808,-11375.86,2044.9464,-70.53965,169.12598,3574.17333984375
159,-5089.274,3792.6523,5305.275,-334.5899,-5567.8916,747.8631,13770.607421875
160,8302.627,-1615.5996,7261.1655,-790.09503,-7025.7227,2417.4465,16019.1650390625
161,25556.756,20433.086,34186.16,230.19778,6359.376,-3002.93,17130.953125
162,9922.21,17485.186,29857.254,-4333.207,-2183.7888,632.08203,19382.25390625
163,10484.84,7897.364,17080.297,-2.9421744,-3514.616,-2062.7146,10820.4736328125
164,30457.004,23227.352,38138.184,-3975.8887,4624.9243,8252.443,21970.478515625
165,9026.894,6555.5137,19713.102,-395.03174,-3130.393,-6814.2173,17772.994140625
166,1178.8535,-4016.6384,3769.8398,2540.5757,2959.82,-13255.735,24898.92578125
167,741.12836,-3620.6108,13128.978,654.3071,150.67561,-14093.928,28701.65625
168,5470.297,1812.8251,4278.764,-718.62177,-2380.2415,9328.45,17030.69921875
169,-1516.8009,877.4688,-301.0043,-1211.0323,-6626.335,7248.811,17264.421875
170,7939.7495,-653.20276,16535.592,-326.6774,-229.87529,6561.893,18741.53125
171,-6942.0737,-9866.088,1246.745,2516.9233,-2509.7112,-9741.944,20546.724609375
172,3609.2366,-7242.152,10062.239,-6570.77,2311.6382,-9874.302,25835.625
173,2403.1045,16207.058,31567.717,-615.1492,7965.8447,-665.09686,28833.369140625
174,1988.9108,-8066.077,16668.895,9481.491,6145.5654,11077.34,34861.640625
175,2213.379,18425.871,36210.39,-4265.8936,2628.5137,4184.807,31548.7578125
176,7381.8555,10722.22,26264.447,4060.8574,-259.4852,-10053.153,25641.896484375
177,29270.32,22975.89,42919.934,1785.6263,-899.40356,-10140.692,25146.400390625
178,9614.551,-3590.157,9880.385,2431.6165,6269.9307,-8525.104,23057.576171875
179,19257.521,8153.22,31170.922,-2389.2822,-6162.2056,8889.686,27670.353515625
180,1763.5955,3879.4387,22205.19,-4959.1694,-1532.0487,-11025.997,28716.263671875
181,14925.244,27359.387,45931.887,-2509.4126,-5420.3877,-2394.1868,29235.396484375
182,-8700.432,-5155.742,828.02185,2347.3057,9549.181,-1890.8859,19245.70703125
183,10355.215,15294.161,28581.438,1152.4456,8880.52,-1716.6097,22715.31640625
184,7580.9517,-2676.2798,11820.809,954.11273,7331.2715,-4607.3926,19857.849609375
185,9571.242,4868.5806,33598.062,-1832.8268,6356.2744,-7597.4766,31887.966796875
186,-7066.451,-616.7898,-17903.766,-6516.009,-6218.5957,-7956.821,25734.48046875
187,13964.354,14722.214,24795.982,12687.249,7726.6973,926.8164,27825.7265625
188,9857.922,2467.9365,3368.4111,-829.78845,-2579.3706,-6493.6978,14046.26953125
189,-2122.86,6274.8833,-230.75607,-3539.9785,-7758.374,-10796.38,25021.384765625
190,-1828.4775,-1783.5443,-1701.5385,453.4783,-490.87982,-97.58377,1175.080078125
191,-1849.1322,-2340.7432,-421.6123,-4078.4788,249.53358,-4628.5415,10832.3701171875
192,-799.6128,-1727.2616,-2170.6873,144.846,33.23865,565.99243,1579.81005859375
193,-11633.232,-4820.7036,9238.6875,5289.8794,-4648.668,454.784,22119.138671875
194,2078.6667,14232.301,2832.7002,2312.4333,574.43585,1249.0151,12681.767578125
195,3064.3818,3545.3572,3671.9497,-610.6998,-439.70612,-34.62566,1418.00378417969
196,-10525.957,-8822.019,-6813.055,-3386.2764,1265.4255,-374.95303,7070.27392578125
197,5794.117,-6184.4673,675.60815,-3162.0251,7481.3403,-432.6929,17516.888671875
198,8817.26,1858.8773,4781.8037,2849.1611,-1658.687,-7069.68,14804.4501953125
199,11428.198,31687.68,49990.543,-601.51294,-6708.4087,2430.8962,35638.03515625
200,-17307.398,-906.73047,20748.79,-554.7318,-8357.906,5610.3667,37390.16015625
201,5064.2114,20552.508,40228.418,-532.9747,-5524.685,-3300.9563,32509.73046875
202,6959.193,19578.535,-3384.4321,-2378.4375,-16374.546,3931.3943,35559.58203125
203,-15903.7,-3548.1104,1553.1688,7385.1494,1257.416,-6860.8276,23479.57421875
204,12501.911,22916.541,42021.32,-1548.0016,-9707.65,-6291.332,32879.6796875
205,-4670.018,7673.6294,12314.676,3640.7493,6514.2188,-1059.4171,20040.703125
206,7227.592,26885.143,40273.06,-6177.675,905.94257,4514.9663,31732.2734375
207,6155.648,-6715.7676,20918.621,-11234.743,-4214.4478,5473.3247,33097.64453125
208,-2246.5303,-10030.504,5008.245,6435.2837,-2825.6372,-10588.517,25578.005859375
209,14848.209,13658.933,34636.52,5619.57,5354.807,-4804.2827,25817.23046875
210,10733.806,26283.098,17072.367,-8445.782,-9192.6875,-8055.7764,29079.107421875
211,16790.033,15121.834,45012.73,7376.614,74.465294,-5758.049,33303.30078125
212,1287.6423,-7898.0015,-27451.27,-3177.0215,351.0914,-7198.5493,28851.74609375
213,8733.545,-2264.8418,24610.498,7915.1973,3517.9106,145.80302,27799.369140625
214,2403.4333,2314.6772,2307.6328,210.618,269.59247,921.6066,1705.21228027344
215,6676.7563,2889.101,13259.53,1358.0544,1918.6072,13889.764,26037.765625
216,8384.466,755.8653,37411.688,-6972.0605,3071.894,1436.6545,36090.7578125
217,12408.03,8342.052,22063.008,1994.9519,-8373.154,9319.521,25136.36328125
218,4897.5986,-7103.5947,16878.629,-965.4894,-4958.122,7486.038,26000.541015625
219,-2184.4546,-8275.746,3322.6316,-222.67464,13036.171,6381.8765,27076.486328125
220,13942.757,4657.8784,17902.906,4324.0557,-12022.835,1265.3806,25163.521484375
221,4319.836,-9216.398,-4102.5347,4452.3403,-7440.4565,-4471.089,20632.060546875
222,13759.96,12985.137,29071.742,-2380.133,8599.085,6998.7026,25153.296875
223,19359.172,13982.437,16771.291,1661.4581,-1169.981,12212.135,21942.849609375
224,18268.332,17936.738,17927.396,-2257.4087,290.27545,5592.0376,10462.6123046875
225,13840.513,-4902.14,34859.566,2879.9385,-195.25339,4488.744,35671.88671875
226,-13012.952,-11859.103,-13018.414,-347.60495,-814.9775,2121.4646,4146.6357421875
227,14160.147,16604.344,14892.758,1240.3834,2384.026,9410.199,17089.240234375
228,30657.04,12911.441,54705.66,3.1511183,-2576.9497,1776.2777,36734.00390625
229,8340.812,215.68556,14805.298,1059.993,-85.59727,6602.061,17160.60546875
230,-4508.276,-5649.567,-4263.509,675.3043,946.1566,4822.7124,8687.4169921875
231,2117.6428,-7652.1367,9964.233,-12316.943,6887.8374,-6882.68,31196.779296875
232,-21391.426,-3453.7466,-4308.2065,-675.74585,-14012.615,-2011.6322,30161.7890625
233,8402.063,21004.785,37297.043,-5406.482,3152.2275,9753.442,32132.25390625
234,-12777.941,7514.8096,16957.107,-3784.5298,-5583.715,-8463.959,32310.68359375
235,-9903.772,-5003.8296,-7914.7085,2431.682,551.6785,8961.193,16666.755859375
236,-21034.248,-13216.46,-14424.223,-1122.6832,4093.0154,-9336.163,19200.673828125
237,16116.217,22737.244,35912.906,3395.4138,10310.343,-1777.0134,25838.765625
238,-3349.6296,7760.924,11168.115,13335.533,-1342.772,-5328.872,28231.51171875
239,-5046.4795,12940.888,25283.693,156.22188,6055.236,8232.56,31800.95703125
240,-5640.4307,-939.9224,-27328.492,7570.559,9329.446,6028.034,33711.70703125
241,-5797.994,-7376.277,19123.855,-1396.5902,1481.2781,-239.32663,25990.94140625
242,-7369.929,10822.922,20396.021,-254.52972,-316.29016,7750.677,27883.677734375
243,-14034.792,17716.523,21802.006,-2363.6775,5743.8345,1871.8256,35788.31640625
244,814.07526,1906.3073,20727.938,-4487.241,6225.0103,6481.338,26051.59765625
245,4312.581,1763.5776,32529.807,-738.73785,6111.883,-3212.3171,31926.392578125
246,5020.005,11661.095,16491.227,-2596.1394,9287.928,-813.31934,19506.734375
247,1275.5145,488.84964,8449.106,-5811.2817,14202.73,-6982.411,30173.669921875
248,-2426.5945,9847.608,21521.604,3339.4734,-3327.4543,-4879.9683,23839.916015625
249,837.37317,-14599.597,10968.427,4606.707,-25.694574,2032.441,23945.580078125
250,3621.7017,13254.382,25483.258,575.53784,-7176.891,-6487.66,25336.08203125
251,14594.602,15248.922,30216.295,4463.537,10667.871,-3891.762,26093.31640625
252,-2727.4675,-2487.1665,-2040.9817,-89.50674,-589.44934,-410.26022,1391.17590332031
253,-1347.0566,4617.4893,25725.28,-4268.3345,-459.35828,-4206.143,26746.53125
254,-3534.9773,-2768.7874,-3136.842,413.9816,-508.36502,59.27776,1319.28015136719
255,9365.904,10659.531,9900.421,701.2346,464.75055,375.58423,1952.96520996094
256,-204.64896,-12308.362,5948.141,6042.1973,4669.344,-2730.438,21357.130859375
257,12839.031,9772.121,13648.68,-3058.924,-3760.65,-6511.5537,14499.796875
258,-9816.814,6394.402,-11096.496,-383.03403,-6763.7056,5651.0957,22774.419921875
259,19906.725,23069.934,18658.684,-311.6411,-7724.689,-11962.843,24982.873046875
260,-6065.581,10375.433,14919.192,-6425.791,1167.488,-4245.8574,23402.9921875
261,2113.8376,-10876.372,-1700.6284,-5673.9033,-5199.933,-4563.914,19337.279296875
262,-1688.7228,-23334.855,-1643.4218,4250.0674,274.82648,-5100.982,24535.962890625
263,20840.934,8550.143,26021.758,2160.6584,-3217.5413,-2583.6633,17511.994140625
264,14998.478,-2577.5598,-14293.01,-7763.6636,-207.47482,3160.4265,29376.818359375
265,15617.489,-8527.506,25831.893,4454.679,7429.852,-1139.1642,34102.421875
266,8235.861,1814.0063,-6808.794,-10370.689,-4278.4766,2845.1826,23933.703125
267,25840.406,16950.982,56311.723,7470.983,-201.76028,-1163.6254,38079.2109375
268,23110.965,13327.655,52025.69,-3438.671,-6107.746,-3285.7842,37342.1015625
269,24805.514,-2423.957,19552.848,4599.84,2536.4924,-5277.9556,28148.796875
270,4675.794,-4099.405,27025.184,11782.508,7674.053,743.207,36978.8125
271,10214.552,-1619.4867,-7457.5474,7222.9307,879.3948,-469.7998,20067.625
272,6881.0347,-7930.0815,14410.698,-9379.922,6224.0264,5440.7017,29266.974609375
273,4332.208,-2195.1533,7875.4307,-6568.925,-4945.9463,349.12503,16777.779296875
274,2423.8403,7469.1465,17021.518,4967.1562,-8318.687,911.41156,21189.833984375
275,-4715.5283,-12844.392,-8550.564,-9165.547,11717.244,-5300.7007,28245.4765625
276,3513.5735,9765.424,-6737.652,-1836.1626,793.34045,3514.9236,16041.48046875
277,-8884.272,-3225.859,-22479.025,13557.819,579.80206,-2976.3982,29542.9921875
278,21362.004,5095.546,41080.324,-4754.411,-4091.4106,6712.44,35033.6953125
279,-8248.509,-8257.928,4122.1235,1934.1434,8345.99,-3273.8093,20136.83203125
280,14405.859,30077.93,38564.64,7029.615,10516.93,-6488.176,32511.466796875
281,3963.6611,-545.9761,32771.566,4688.6846,5148.0786,2035.9438,33734.84765625
282,23236.238,1978.5195,33102.09,1625.7137,946.65967,11969.4795,34631.9765625
283,26521.566,502.28815,27686.488,-1830.9222,5703.2866,-2484.0286,28893.263671875
284,-202.221,-28288.3,-6044.5566,-5538.9995,-2066.431,45.57398,27635.677734375
285,1466.225,1712.5288,135.04968,711.9653,-172.18495,-196.74843,1971.3759765625
286,-7502.132,10859.051,7051.3955,11251.628,-8717.193,-10842.527,35244.36328125
287,49977.688,39651.566,66861.86,-9695.187,-2092.1013,-2406.3542,29640.248046875
288,-6098.4727,13721.946,36103.07,1319.6753,-1253.0779,-4482.0034,37517.55859375
289,21796.773,27887.38,48105.215,3282.096,-5348.948,6448.1577,28493.53515625
290,14502.105,26457.123,32466.31,12158.887,-4764.6787,-3069.1082,28120.33203125
291,5153.916,-14817.744,-29281.893,-3383.5334,-44.110985,-498.31244,30529.455078125
292,11164.546,1782.2103,33156.605,-731.2726,-1616.9374,-46.07757,28061.896484375
293,23221.098,22099.56,53220.54,-1957.7769,1344.9543,5529.6426,32303.654296875
294,-3599.3264,-3572.8582,11464.798,7637.453,13835.887,4095.8486,32033.5
295,-784.3673,7872.3887,40845.74,-4089.9326,-2775.5952,1599.3779,39097.21484375
296,7056.9595,-13099.493,6263.757,-1992.1671,-1528.2378,-7715.6357,24257.564453125
297,17086.379,7778.3237,46531.527,-870.6965,-4870.0825,1383.3364,36151.09765625
298,5911.9434,-8865.052,22802.908,-4646.094,-836.54486,616.2439,28657.62109375
299,-1090.4237,-5423.664,7741.526,248.20433,-6827.041,11172.602,25486.126953125
300,12120.87,-2196.1255,-19640.674,5531.282,6955.691,-1662.068,31690.056640625
301,31978.838,13183.146,36028.62,-3075.02,-13861.958,-9827.726,36611.1796875
302,15944.914,-3844.9468,36735.12,1820.5555,-5667.6245,832.0312,36656.41015625
303,38439.254,17566.686,55097.215,6235.7485,1230.3944,-1136.4586,34437.1328125
304,21391.896,8409.291,-3122.2449,1898.3994,-339.23148,-11639.945,29476.357421875
305,6016.35,5532.8086,1449.343,-3190.8616,4214.653,8016.5874,17190.54296875
306,-78.4803,545.03046,12344.809,1842.1631,11400.269,2029.4048,23651.962890625
307,4160.468,4203.1064,3302.863,-22.561726,-19.301294,4673.52,8142.59716796875
308,2744.1592,918.94836,1900.1593,3207.9194,6048.574,-14722.701,28167.447265625
309,4990.8945,6712.623,-15494.686,2813.9863,-10102.654,4761.6543,29255.091796875
310,26363.113,32044.486,46274.418,-2502.7231,7801.25,-5423.621,24601.439453125
311,4316.1914,8876.733,11510.881,4971.935,-15.188558,1684.1073,11064.365234375
312,-20716.441,10260.407,-787.99146,4808.206,-8983.324,-5869.964,33973.7265625
313,14872.401,24374.977,32430.355,-300.8368,-10567.247,-2339.5676,24154.240234375
314,7780.1978,7347.6367,-25188.586,1220.1141,10.085179,-359.98306,32828.67578125
315,-1115.0356,-1956.2263,-1620.7996,-60.984097,906.0194,371.31094,1850.76770019531
316,-3375.7341,-1060.1007,-2757.5547,10523.927,5613.17,2901.6846,21362.451171875
317,-9693.436,12301.488,4174.8774,-6968.85,-4066.2651,-5265.481,25486.236328125
318,17934.576,21168.64,42118.08,1378.1915,781.68414,13421.939,32635.359375
319,-34749.04,-26456.148,-46127.18,2400.748,-6816.7676,5090.6167,22957.1484375
320,-6392.193,4946.9785,-14195.572,-4964.815,4658.0674,-13333.846,30828.05078125
321,3020.3584,12345.531,18668.854,-1328.9138,-11720.06,-3014.8818,25110.861328125
322,621.33514,6415.9736,21013.723,-4580.0186,-11254.08,7065.098,30395.728515625
323,5044.537,3618.6702,4266.6406,-257.43198,64.4149,439.49606,1523.08056640625
324,4830.7495,7261.1196,20626.38,-912.2517,849.7067,8711.985,21198.541015625
325,6897.695,15586.735,31798.873,-3408.3628,-1351.4236,-1741.8938,22992.0234375
326,-1648.4556,6382.3364,12198.819,4299.0225,-14656.924,4441.7593,30069.0
327,-12116.773,-10165.64,18633.867,-528.22125,485.163,-3777.28,30557.435546875
328,-1287.3087,14751.421,32586.979,-5282.0024,-33.68076,3914.8008,31481.52734375
329,28308.838,40668.305,61344.727,-5201.987,9000.593,3787.4983,34685.296875
330,-10367.084,13589.351,24519.865,-811.8431,7421.463,2758.6328,33842.05859375
331,12067.573,15772.763,13055.465,-2908.3464,15334.017,-11506.125,33748.90234375
332,-1544.7869,-2188.01,6977.4966,-1800.019,8903.894,-13645.367,29743.421875
333,-10243.236,3932.575,16801.766,-3641.249,5805.3325,279.27518,26270.0703125
334,-3618.2292,-1521.788,5239.0703,-3852.4417,4411.646,3315.5496,14148.087890625
335,5580.7744,-1804.341,21823.71,-6232.232,-3572.9597,746.29266,24388.931640625
336,5857.6323,-6776.473,13754.596,-3025.4553,4925.627,-5156.932,22400.47265625
337,16150.245,-3799.0552,8330.021,783.33307,-2608.042,-1566.963,18241.02734375
338,-3865.9954,22333.658,6740.9536,10720.122,-7521.81,1035.2385,32229.51953125
339,-14117.571,-13025.668,-13348.097,-972.8922,-3003.669,5001.879,10291.0712890625
340,13535.057,-10601.573,-444.74805,-3609.8757,-6692.6475,-7290.6885,27812.17578125
341,9314.854,8758.963,10573.599,207.62234,5019.9805,-923.33765,8993.3740234375
342,27548.03,6506.541,44946.977,-2602.1738,-213.98944,4740.801,34632.9921875
343,4453.242,9136.211,10336.001,2874.3208,-1783.0881,7870.993,15785.095703125
344,14733.814,2619.2676,-19806.729,1126.4211,6470.967,7307.6094,34799.40234375
345,7873.12,-4406.3354,-3721.3113,-3416.865,-5751.162,2649.9675,17267.369140625
346,-17247.615,-6751.545,-8941.397,-10933.309,803.9651,1357.3848,21402.251953125
347,28360.516,1063.4769,33950.836,-673.64716,3475.4363,4634.967,32109.583984375
348,1448.5657,-1136.7675,-7638.4224,2016.2047,2949.7585,3488.8835,11856.6357421875
349,12324.393,9139.699,-380.54987,-43.641666,16040.471,25.0119,30049.861328125
350,4047.982,-1236.2583,-20160.174,362.65802,-8509.676,1660.1755,26682.263671875
351,17073.287,15443.552,33074.895,2401.7488,2116.9685,11585.302,26799.130859375
352,6492.725,-7018.947,-296.3529,4189.0083,4517.047,1368.2322,16012.3623046875
353,12722.229,-9521.914,7180.6577,13057.008,-7237.929,368.90222,32730.275390625
354,8475.974,-9881.163,-12496.244,-11178.323,4242.5166,5627.739,30260.609375
355,21839.848,20338.006,30918.111,10200.813,3287.4478,-2265.6794,21407.8515625
356,-1130.772,-24737.36,-28006.947,7918.3325,-3368.2876,-4641.02,30527.009765625
357,19040.15,4398.9985,12707.568,-11597.749,3770.9402,-724.85046,24688.21875
358,4464.387,-815.57086,-2362.8252,9098.329,5516.6904,10020.354,26063.466796875
359,-1098.2594,-2205.474,-1480.18,5171.7207,1303.135,2099.8472,9975.5478515625
360,-861.9706,112.37263,979.2026,1105.9017,-453.8597,83.59752,2617.8837890625
361,1516.0874,3556.8635,565.145,1093.362,377.2764,-42.99612,3320.93359375
362,-3769.1672,-7234.8286,-2171.8901,-3220.2266,-2767.2834,-2948.415,10013.0078125
363,1050.5099,-2626.6873,110.95635,-1606.331,-861.56287,-414.62192,4629.591796875
364,-1503.9135,14149.472,-1516.6805,-1766.8779,738.8111,2516.8472,16590.212890625
365,1056.1364,1344.6407,-1502.446,-128.41565,941.45044,2056.096,4770.61767578125
366,2043.343,-362.4491,-2499.7493,-753.87463,-1013.83093,994.897,4822.42529296875
367,1507.4363,3785.0469,43.23869,-2272.8035,1991.7301,649.2704,6271.2666015625
368,2820.0037,-392.82858,-1897.5266,-580.6715,616.49677,901.3103,4691.43603515625
369,-3667.6624,-5252.8096,-2894.8352,-53.712452,-810.8081,-1292.5165,3365.66186523438
370,2435.8418,3482.6638,2568.9316,1080.4745,1052.3438,881.14166,3182.45458984375
371,3156.081,-966.37506,3735.8376,-440.74335,-377.76443,-29.090212,4553.48291015625
372,-1435.0142,304.37958,2066.2227,-1410.4478,739.2259,1034.9662,4473.8173828125
373,-266.0596,2153.869,521.0938,1017.6768,393.3523,-87.31744,2857.421875
374,500.80463,-1746.5444,-643.3474,1338.597,-199.56679,76.1703,3049.71557617188
375,-1308.9977,-1730.3555,-251.69597,-1539.1986,215.4,84.18454,3001.46313476563
376,-999.8323,2171.5676,-324.17896,-2386.639,-787.799,-774.31683,5396.31689453125
377,-9408.422,1211.1078,1601.4653,605.989,-294.8578,-26.156631,10882.865234375
378,-4932.2876,-1035.9482,-1022.50354,-57.645164,-1371.4962,145.9695,4577.2177734375
379,2226.278,2724.1816,-777.28125,1631.8492,-34.153934,474.51614,4408.23681640625
380,-1691.1792,-11452.979,436.34647,1270.5771,728.4657,-1629.6141,11618.501953125
381,-4454.115,-14579.914,-70.62128,-2858.6165,-3398.2705,-305.85352,15019.1083984375
382,7886.5176,-5547.1553,7385.511,-455.34674,-1466.2775,1233.6355,13624.306640625
383,-3871.2786,-5257.6494,-13183.495,423.13632,78.28692,140.75276,8737.5146484375
384,-1644.6545,-3216.7278,-2428.0984,-3303.6543,-983.8822,421.98544,6167.19140625
385,-1553.7693,-1968.6799,-311.77475,2217.3958,-483.4511,-141.43954,4212.0947265625
386,76.36832,-627.9049,-52.275597,1150.685,-160.70107,28.35408,2115.19848632813
387,511.92328,-459.65808,513.9567,4.612839,933.0703,1133.9886,2723.171875
388,2159.4678,1907.7145,2496.955,-26.449905,-2149.1448,-1360.8983,4435.86962890625
389,-2306.6802,449.5184,-6832.2065,-455.03284,1917.5417,-284.77463,7241.93505859375
390,979.90906,2989.0059,1434.5128,-526.6462,364.83716,-83.690765,2140.60522460938
391,2776.4263,-2544.047,-3740.8523,-716.54584,-1325.8971,-7.098144,6551.47509765625
392,-1910.3843,1085.5199,4.226332,-1735.9371,198.54295,-128.81544,4014.18188476563
393,6289.3867,5204.178,5092.312,1785.9623,-4287.5493,608.169,8193.865234375
394,5981.9385,4990.693,2037.9142,2084.985,449.27606,-141.75868,5131.833984375
395,1811.5597,-361.26077,1285.953,2513.68,-112.25731,505.14108,4859.46826171875
396,1325.0013,4007.5696,-1558.3689,1335.5466,-583.623,-1042.5294,5733.96337890625
397,2643.1548,2335.1562,8333.295,589.85675,1469.9116,581.9289,6539.62939453125
398,2169.5603,2757.469,2790.9543,-34.779354,-1971.1677,-783.74005,3724.15405273438
399,2024.941,-1297.228,-9631.125,-1625.178,-315.84818,256.98395,10798.068359375
400,2674.2908,5780.9565,2658.7903,946.0357,-324.9363,1150.8826,4083.5107421875
401,-530.2336,-9203.74,-10326.295,-4716.2427,1345.5652,-1352.477,12801.3427734375
402,-5064.4287,545.7676,4974.3237,-3407.1643,938.092,-2413.8052,11440.1572265625
403,1259.427,-674.8542,1688.2543,-1595.2612,-384.6736,-335.56622,3629.20385742188
404,-15102.162,-3886.2651,-3744.988,-2761.483,1168.5571,1484.4059,12687.994140625
405,3632.7476,1066.7958,-2340.891,502.86185,1174.8992,-75.6095,5644.22900390625
406,1633.678,361.31702,-888.283,-1266.7416,866.8412,596.0304,3592.24780273438
407,1742.0891,2040.4775,2295.418,-131.7339,-773.2807,-1921.5575,3626.734375
408,473.5967,101.93992,-880.1762,32.496128,-1382.5262,-2442.7998,5010.66943359375
409,699.69446,2572.1047,2943.2812,-440.58646,-592.20197,1637.0787,3743.42431640625
410,5328.399,1965.786,3805.4006,-137.8605,1370.8427,1858.9143,4956.48779296875
411,1564.581,-3040.786,-1218.896,-1002.2066,-253.65744,-1090.9303,4786.94921875
412,1870.4647,213.10338,-3647.389,-523.97375,-657.55206,-52.942966,5116.41015625
413,-6323.6973,4827.995,2354.5903,2796.199,-906.00256,554.01715,11390.1201171875
414,1773.3351,2749.6416,-3246.6475,-2037.5433,-65.89328,6.560383,6597.146484375
415,3951.213,-511.7014,2331.8076,4472.8203,1408.6555,3997.6309,11367.81640625
416,1725.9441,-4695.5254,-4853.9663,-306.84155,1118.9417,501.7289,6860.8701171875
417,-3285.4998,-3776.7476,1955.1766,115.364555,464.40295,-581.0533,5655.11181640625
418,3382.4077,2265.1697,6092.25,-3270.1738,399.25653,-832.3315,6801.298828125
419,8742.877,2162.963,6383.838,-2641.6208,317.037,73.95693,7388.53759765625
420,-4644.773,-3413.992,-2649.867,-182.72285,-944.81433,351.04788,2487.3818359375
421,1198.7036,61.671337,-2749.5618,-2186.6418,-1423.1305,-795.6964,5891.67578125
422,534.9709,711.603,8.200579,358.9369,814.9716,-57.14091,1670.49963378906
423,-8140.053,-212.57544,854.2628,-5558.7046,1473.744,-842.5559,13182.6943359375
424,-1787.2498,625.5991,-3788.797,-499.81412,1128.7977,-472.75333,4460.935546875
425,-2485.2666,671.9119,932.8545,2533.8506,-203.84232,739.9818,5646.97119140625
426,-702.00037,951.8549,-1754.9332,1202.62,-975.20886,746.25397,3801.04858398438
427,-2742.2427,-2191.795,-9766.671,9.8959,-103.06853,-280.31946,7333.4892578125
428,-2887.2292,2102.3855,27.356253,1381.7345,-691.1269,-541.7865,5185.5126953125
429,-246.86589,578.3908,-287.14215,-928.891,-490.36636,-620.85474,2276.44116210938
430,2400.4773,-246.88834,-4937.533,2174.7693,504.54477,389.82095,7539.03125
431,921.0282,768.35956,731.666,-202.63263,22.418516,647.30896,1188.263671875
432,-868.19116,-2387.1304,-385.0177,544.1552,217.13664,484.28897,2237.83618164063
433,366.24658,2947.7344,-1012.1521,66.090485,1019.77765,-520.7342,4008.59301757813
434,-2708.0645,-2263.4814,-1013.9277,4882.349,-1076.8164,-607.14215,8855.0009765625
435,2218.0842,1371.5509,765.2207,269.06625,249.51276,-115.668755,1428.85656738281
436,1848.8661,2382.953,6243.616,-3177.727,645.20483,-784.2776,7116.1708984375
437,3079.797,2585.8162,1065.5863,-346.0022,-393.91202,-415.40955,2156.021484375
438,2298.0964,-460.63657,-4992.49,3134.5747,2636.2744,860.4543,9653.91796875
439,7754.4956,-5781.2554,5142.9785,2165.0925,3368.1028,-1978.783,14646.8330078125
440,-605.0548,-828.2728,-737.2644,267.63364,-345.58096,667.11804,1395.02526855469
441,2567.8271,587.4632,-1979.2593,653.62933,252.52127,-1592.9393,4967.72705078125
442,302.32547,2387.597,-202.08302,1730.5093,113.3669,201.45078,3846.93432617188
443,1912.5096,-293.1491,-134.17188,-2459.0159,-817.3543,-998.39526,5260.64794921875
444,-1508.4103,2094.9944,1028.9175,-2264.2034,93.74351,-591.2458,5170.53857421875
445,720.235,297.09692,-121.64503,-1460.9304,-140.54837,-764.1786,2957.3125
446,-501.40875,-1161.8706,-447.22296,-1148.7836,-25.385832,656.79236,2393.76416015625
447,-4226.8394,-2632.159,355.4888,-2745.6064,-562.409,-103.06854,6311.04052734375
448,1686.9005,2472.0,2123.3286,871.49304,-879.43744,806.3959,2648.35131835938
449,-6208.1177,-2426.5623,800.1384,-780.4009,-209.81616,-474.5585,6288.75732421875
450,6.829264,-1156.7812,-118.91419,1171.6542,-79.753365,-320.7708,2381.08544921875
451,-2102.1807,-487.02747,-652.8495,1406.6448,467.92532,7.2578683,2993.552734375
452,-2414.251,-2615.4395,-1697.8998,1825.1097,52.161453,-492.67523,3380.41162109375
453,-111.55116,-779.628,1004.39685,3062.8284,68.28654,-615.9782,5633.13720703125
454,2603.871,3364.6147,5505.985,-267.8418,-589.63617,423.4445,2930.76391601563
455,1273.7848,93.11532,2710.6736,610.89856,-1193.0485,-204.02843,3266.44897460938
456,-5319.04,-3397.4172,-8928.605,2443.3142,-710.15106,-468.60434,6613.5380859375
457,1714.252,956.27106,-594.65765,-937.1006,-775.1935,635.8803,3131.41625976563
458,1927.4177,1125.0787,1632.9261,403.00473,652.0263,-592.6373,1819.47839355469
459,1570.5996,3226.997,-158.10374,-1832.8486,813.8255,-888.10626,4798.6064453125
460,2986.6157,192.54523,1617.2158,880.97644,-696.7107,450.36072,3201.39599609375
461,479.49078,-626.41034,-353.83218,78.273705,90.05637,-156.82072,1054.68505859375
462,-747.3373,-718.10004,-1520.0645,-47.681442,270.21332,134.48,949.039184570313
463,1651.791,5285.773,-331.39325,410.4079,1498.5411,-731.6335,5761.4013671875
464,-4737.628,-20220.709,-1412.9767,6150.084,-2411.1055,1199.8259,20916.1328125
465,2375.9304,2642.0325,1713.3572,-2193.513,-199.60666,191.87791,3917.984375
466,-1130.1052,983.06714,-2211.3662,122.260155,642.39624,884.3655,3398.33520507813
467,-3469.932,98.7341,17.740463,580.79486,213.35355,-122.06492,3694.06616210938
468,-1957.033,1417.1364,-728.1385,757.1356,599.53455,370.47025,3458.111328125
469,-929.6269,-1188.8765,1703.6853,1613.2394,-327.21375,-533.315,4082.44213867188
470,-1703.8726,-5067.299,-1433.5043,2026.2369,-688.45,2051.7485,6217.951171875
471,-19.781504,-1334.8594,-928.88873,-1390.883,625.50183,781.70935,3189.19921875
472,-817.741,1879.4689,3749.7717,1795.9365,187.3047,206.78076,5072.20458984375
473,-2424.1025,-341.36133,1729.5117,1872.5762,-591.50665,-250.37357,4969.58203125
474,-649.36896,-945.03284,-646.2933,-840.497,-104.862816,43.146576,1498.73779296875
475,2732.1064,2483.194,-343.225,-2917.9658,-315.17877,-99.03618,5884.3134765625
476,7670.9307,3307.5278,1273.6832,-3967.58,1016.5798,-1122.3683,9281.9609375
477,1514.1685,819.52234,2334.1416,-809.478,33.91502,55.73651,1924.32189941406
478,-2587.7993,-1640.7029,2193.7654,4645.2065,905.5804,-2011.0017,9927.6484375
479,3930.8584,1211.3082,2154.7288,-1276.2406,851.4541,-256.19434,3602.57080078125
480,-2163.51,2298.6208,124.143654,-62.759438,-16.229786,-28.750675,3866.68432617188
481,3935.5134,5314.58,526.1176,-289.96268,161.08199,282.68765,4335.59716796875
482,3382.1501,-3468.2668,730.1655,911.6444,128.48349,-475.88425,6246.29833984375
483,5357.2534,-2940.5576,591.5746,-775.9122,235.9388,-336.2975,7371.0966796875
484,-1056.1327,2457.7595,1582.8997,2291.2021,-374.21002,101.611626,5122.35791015625
485,-3877.8188,-4763.6206,-57.600933,2073.7437,-112.97197,-395.45398,5671.978515625
486,631.6235,585.24335,-1483.0706,690.1265,284.12442,605.306,2673.236328125
487,-6338.1733,-3133.3027,-211.96509,1398.5353,315.1692,-112.92911,5862.75341796875
488,4906.76,678.3038,1121.9264,-1743.2916,757.89374,-75.47214,5201.7587890625
489,1993.4512,741.7581,132.88202,-1593.9119,-350.80365,145.17865,3279.27978515625
490,301.37265,-1271.2876,-1574.7834,-1560.8254,975.6529,-191.16536,3649.18090820313
491,-10009.016,-7960.861,-2769.5068,-606.3141,-422.63718,101.32646,6591.45703125
492,-11031.675,-7645.0776,-243.1556,-192.50316,422.72083,101.69628,9591.82421875
493,1501.8945,-1032.8335,984.8908,-675.5485,378.64127,1229.2869,3422.61865234375
494,3269.0212,-4184.244,-453.04657,920.19055,112.75904,396.60452,6686.82861328125
495,37.53437,-5544.266,-986.2896,-64.68654,122.62966,-458.84277,5213.3681640625
496,2709.071,-53.291534,-390.48013,-915.2874,-419.698,-174.86879,3436.453125
497,-6951.101,-25.4287,331.28226,278.50824,-482.45306,359.38922,7202.85400390625
498,-7156.3794,356.3395,292.49185,828.9562,-406.38202,54.17691,7650.56201171875
499,2433.1138,-2020.4928,-94.58633,-247.275,-446.84177,552.5317,4082.25561523438
500,5448.716,4746.489,1033.7958,-7010.802,2499.6633,-2064.228,13995.2294921875
501,2967.161,-2918.6917,1454.2395,-542.6355,-424.57944,-0.8373953,5426.92578125
502,-287.92017,94.48606,5542.627,1775.5896,738.024,-103.898445,6560.2177734375
503,-6970.7354,1428.8186,-414.22354,211.42476,186.06279,-112.69787,7664.5048828125
504,2093.8755,64.33817,781.264,3009.6934,434.86526,-310.382,5586.5078125
505,-6953.2446,2494.7986,-97.00678,905.2288,-74.06895,42.73147,8600.9150390625
506,942.9159,3536.0833,1477.3208,-155.88383,-6.1210036,230.10362,2419.9501953125
507,1936.0922,4065.7395,447.82697,-2446.3413,194.72556,138.79024,5295.76318359375
508,6748.713,-2721.1797,-1974.6013,-3227.0051,-2141.7822,2260.263,11978.9384765625
509,1613.962,-1323.372,-288.50247,1211.0991,63.082817,-539.2914,3455.98828125
510,-109.73086,16.805717,-1360.1256,626.53827,12.269967,-237.9371,1756.60571289063
511,1038.7867,1726.3152,630.55505,230.02632,-206.18422,466.90576,1363.92614746094
512,-4412.4644,283.48654,-344.9527,1075.4264,-737.2003,-246.00912,4977.685546875
513,-1500.9999,1971.342,16.596615,-768.7498,-159.0819,-221.42278,3329.65112304688
514,-2781.586,-1245.99,-226.342,2237.4253,400.56427,610.9311,4645.7275390625
515,-2221.3396,2431.482,353.53186,91.30127,-321.97293,-343.49368,4121.68212890625
516,-1489.8094,-5.519952,287.69318,-2092.3481,513.366,2123.29,5493.06640625
517,-7926.518,-7582.2773,-1005.3289,-616.5515,177.60168,-100.35573,6848.6533203125
518,2990.5225,-4282.6226,-153.44603,-86.73589,-668.772,1030.401,6668.29443359375
519,-1808.1802,772.7016,-29.903164,-179.02391,100.03566,-159.91486,2331.64868164063
520,3304.617,3464.5933,2638.2554,-1060.2162,426.96454,-733.4489,2471.66870117188
521,377.18555,901.5837,-1872.2975,-1688.9218,-149.37122,-172.82043,3902.396484375
522,393.33914,5040.066,1040.3553,1614.5529,-22.26901,-166.93144,5187.44873046875
523,1741.9675,615.2253,-1052.4615,-223.86272,37.000893,-148.48273,2479.99438476563
524,716.50964,-1736.4088,-1437.6744,-1185.5189,-397.49954,63.831566,3174.25366210938
525,-786.90485,-1068.5873,-1715.3346,-412.49295,-320.86914,883.35925,1959.61669921875
526,-6400.5483,-4029.0654,364.31763,-390.0989,-186.2855,-42.08783,5992.53955078125
527,-9827.589,-4394.226,-1177.1105,-1156.6141,482.5769,209.09706,7886.3232421875
528,-1831.544,384.3879,-1880.8549,815.2063,386.53107,-211.18127,2756.40161132813
529,324.15274,2424.464,1194.3208,1217.8472,-626.3618,-390.72568,3070.068359375
530,-1210.7167,-468.95755,-1036.2959,672.37683,199.19617,-232.14378,1445.07177734375
531,295.3072,-529.29083,274.39963,2745.8142,-368.38745,-454.0917,4930.2509765625
532,-2767.6506,-1466.9727,-2731.459,3088.2144,189.63356,-139.55368,5515.7509765625
533,316.8308,-5362.01,879.6867,1328.4752,65.7809,175.709,6415.8046875
534,1234.5487,-4228.253,-118.53713,1285.5951,420.77255,348.92694,5489.6328125
535,478.56516,-1772.4901,730.47925,1394.219,-108.95068,483.8392,3502.46118164063
536,-217.536,-164.95688,1858.3217,1893.2279,36.80003,-226.93832,3887.7119140625
537,-9068.819,3507.2678,-1012.98083,498.40366,-50.20887,-132.01628,11070.169921875
538,-6496.308,649.1878,523.21893,3156.5854,230.96092,-45.89221,8957.2490234375
539,-2080.0762,1610.9121,1180.4204,-126.96743,196.64075,139.7355,3527.42407226563
540,-1703.0295,-1700.5591,1282.0691,359.9118,-160.82974,129.3217,3069.17333984375
541,-2401.0989,5985.243,-430.6849,-1550.4254,-215.25491,-146.95108,8068.701171875
542,-4873.189,-2492.5986,-330.18997,4312.2295,-476.91037,-197.51851,8489.78125
543,-5020.3687,-5148.6406,-1853.1794,2519.9824,271.2004,-248.97609,5469.12744140625
544,8589.568,-2517.468,-665.4914,1007.861,124.013306,-113.12472,10457.4365234375
545,-5480.177,-1365.2462,-1187.1862,-930.93945,514.0759,146.77843,4599.39794921875
546,7238.4277,-2544.3804,-91.60988,692.5242,32.666145,27.621187,8897.6787109375
547,4269.972,-6862.7334,-495.93088,-3450.3335,297.52155,289.76074,11394.095703125
548,6046.8345,-6492.189,-418.7983,-3126.4248,-145.96512,6.376947,12138.6337890625
549,-1414.3956,-581.6734,-835.0912,1900.878,-73.24067,78.52236,3379.52978515625
550,447.70297,961.9458,-728.24084,-60.235817,40.532265,-183.80765,1539.2138671875
551,1255.5459,2162.1033,-324.35443,1440.334,109.651886,-76.19808,3320.74926757813
552,-4730.7104,704.2633,-496.4881,391.76965,280.86447,-150.58308,5021.93408203125
553,4849.0977,2614.2847,702.1198,-2776.5874,119.413246,-9.486984,6007.94921875
554,-10547.281,-8769.497,-2419.6746,-1333.8132,645.28094,-126.22848,7836.0400390625
555,2144.502,5518.6187,292.96252,-1959.9324,493.01605,-31.361296,5772.029296875
556,341.25406,1911.5695,1720.0046,-277.3901,18.597303,274.79388,1631.00549316406
557,1010.79535,2249.5725,701.72107,510.88785,54.532055,175.95001,1702.28833007813
558,2750.352,3765.9817,1218.0911,1065.8049,-166.3843,220.43942,2927.830078125
559,4153.855,3057.944,1580.4259,359.25034,-256.8954,119.12872,2372.98388671875
560,-4804.4673,-8045.697,-103.71285,-1829.3162,-167.81885,-158.28421,7618.24951171875
561,-4269.548,-4859.2554,-183.01796,-720.4285,7.637153,-50.714954,4585.00634765625
562,-686.1542,-2116.1858,-1340.1454,243.19109,-605.6729,-1564.903,3187.81665039063
563,2169.0913,-3377.8608,-588.7179,578.51025,33.345955,-264.2054,4928.84619140625
564,4800.1562,-1502.8164,269.20215,2512.359,8.038372,-73.73905,7116.94287109375
565,-2410.7078,3085.355,-99.298325,445.05954,-543.467,-384.09927,4976.802734375
566,2470.214,-3893.682,377.9878,-463.52823,86.08331,-151.11896,5683.0615234375
567,2035.0815,-1772.3994,1284.0096,0.53009135,88.872025,-272.98605,3528.25561523438
568,1538.2374,-3297.7283,-52.559513,-1429.3082,-363.85413,-241.29808,4992.47119140625
569,-1993.4463,-396.09705,-1214.9678,1727.7228,235.89943,347.68512,3376.20043945313
570,2896.1633,5827.2354,306.85254,-409.13382,126.07154,165.16003,4849.41845703125
571,-3331.3665,4525.894,-1563.9248,-2335.23,-119.92241,114.39319,8210.6904296875
572,1955.4263,2058.867,1145.8468,-1555.785,-48.775906,954.6515,3279.09716796875
573,-475.54657,2098.4727,-195.69162,781.41943,817.12256,198.52554,3152.25244140625
574,1570.7513,-31.726278,1679.6155,-1390.9639,-827.0464,-747.3602,3505.17309570313
575,1612.4016,2506.904,1770.2588,-303.1072,515.54803,344.9898,1453.92407226563
576,3660.0732,3143.3745,390.57755,-748.55273,-296.24353,70.33847,3350.57495117188
577,-2224.357,-1408.5712,-232.39928,1311.6301,604.452,556.4745,3192.89672851563
578,-4959.0767,-38.557926,4295.5776,1684.7264,-1391.0873,-1494.9318,9238.353515625
579,6235.9614,-2762.2627,-2667.5154,-3361.2104,238.88594,-644.5519,10744.0771484375
