Element Label,S11,S22,S33,S12,S13,S23,Mises
1,81.25347,2922.1045,33.011856,1978.5162,-290.176,107.701126,4498.97705078125
2,1310.6162,2680.3657,-929.1049,2162.7715,219.9571,-108.165085,4916.6455078125
3,3100.311,4828.2803,686.16064,1842.6512,-237.60764,175.73396,4840.83544921875
4,2098.694,7066.581,-1158.1696,2072.283,-29.542868,-474.5981,8064.00732421875
5,2806.6218,7829.1484,320.3668,1897.7875,174.9006,115.600395,7404.8076171875
6,1268.9473,4963.356,-93.89565,399.6343,-40.962162,63.710888,4586.63623046875
7,2410.996,4284.589,812.3599,2383.8113,178.79028,-108.27889,5122.49169921875
8,2756.5398,3225.6074,-558.1322,3082.0378,-80.96507,69.29116,6425.94873046875
9,2208.6523,4302.8555,1011.40497,3376.5327,247.91414,236.92813,6548.4404296875
10,1434.8279,4695.472,-56.135212,1939.6477,-478.0439,313.01273,5475.6259765625
11,3667.2773,4637.494,-833.4302,617.5194,-49.07759,-144.21742,5174.74267578125
12,3590.674,5022.163,662.0808,1734.6881,72.35569,149.13168,4891.61767578125
13,3735.857,4438.69,-1267.8915,2253.405,-526.5752,-246.89577,6730.2666015625
14,2792.903,1996.1869,733.5344,2729.6318,506.7949,65.46009,5135.27734375
15,-2560.4534,387.12354,-1636.801,2818.7727,-337.63705,-990.6771,5825.939453125
16,4138.7197,9860.292,2083.132,-1414.4077,-532.4131,-1873.5422,8130.53125
17,759.7494,1770.2733,-571.2132,1452.676,1797.9847,1560.7026,5241.56640625
18,3797.165,1859.5325,-1442.4591,1139.9901,-59.21551,508.18423,5073.4228515625
19,-7432.189,156.7504,-3790.4988,6749.941,784.26215,-1720.3722,13806.7626953125
20,1041.5201,-9180.238,-26800.371,4871.0137,15281.768,-6353.3975,38573.78125
21,4620.4297,3704.9038,3859.3896,-1787.2471,534.14,4.4337225,3340.56127929688
22,-3074.7646,-5940.6494,-7137.57,8881.212,-2838.1797,6724.486,20236.74609375
23,-5366.995,-1368.9698,8974.939,3799.1675,630.10406,944.4109,14543.1669921875
24,-1034.6501,-2324.8796,-7565.357,625.7717,-1756.2559,92.79128,6807.541015625
25,6669.897,2792.0178,3716.7954,2670.2483,1395.4528,-895.97797,6476.71630859375
26,4806.7925,3022.107,-3886.1,3425.9143,829.4972,-837.86316,10130.0693359375
27,8690.932,2322.4807,2958.2327,4038.8887,1122.5754,389.40524,9491.359375
28,-4073.4102,1041.6948,929.36945,-1761.6771,-314.9131,-302.12378,5956.86376953125
29,6008.954,5128.712,-175.96109,3746.6936,-452.37845,52.999943,8736.0908203125
30,360.7584,105.601166,-5012.4355,2599.5005,-569.4486,760.605,7109.5634765625
31,5496.9067,500.73343,-5548.2627,848.7778,-2383.1174,-1824.6398,10998.2216796875
32,-3258.186,-2469.278,-2756.9963,108.155365,-1229.0265,386.5271,2343.71411132813
33,1570.5869,-3056.7722,-741.61255,-1183.2764,1026.9858,-1025.2583,5155.3212890625
34,5667.51,-7559.8394,3215.9895,172.1619,164.37614,1932.8276,12646.0693359375
35,2951.8423,1776.3502,-2979.6167,2127.6453,-140.11845,228.29982,6586.91796875
36,4189.15,2801.6628,2078.7734,1881.8491,-228.3147,-444.88812,3850.31396484375
37,-1195.436,825.6065,10199.301,1134.3568,517.8085,-1076.3252,10910.3388671875
38,-3373.6025,-7387.593,-13692.309,-1462.058,-1068.4397,3034.9922,10892.1845703125
39,2105.5366,1814.7174,4652.846,2290.589,270.38782,-297.60098,4851.76171875
40,-201.86673,-9779.048,-8331.896,2471.4856,-3447.6067,-1018.74915,11706.974609375
41,-3461.7075,-2922.0598,-1368.1263,-912.6804,1156.5532,910.8764,3541.94799804688
42,4501.4478,-7209.5083,1187.4785,4453.8833,-4474.6743,-3061.6704,16031.841796875
43,6929.7324,-12787.639,11934.243,6000.307,2802.1628,2635.09,25785.541015625
44,31786.658,12328.241,14122.646,13876.559,-426.20874,-4352.9526,31336.875
45,15147.604,6990.677,21426.13,1823.0305,15312.329,-7242.9976,32061.259765625
46,9097.218,8567.022,19697.543,-3595.1719,399.748,11127.004,22999.001953125
47,6422.08,7097.7583,1734.4756,-5192.982,4125.8022,2066.381,13052.78515625
48,1939.9662,3504.4128,14873.317,4184.5474,1518.1062,7908.546,19913.966796875
49,5305.7324,11034.611,625.61017,1484.0177,-2283.7258,-1103.5114,10365.4130859375
50,10450.467,8772.963,-2756.833,-1875.029,4668.1343,-1800.8607,15515.876953125
51,4036.9912,8009.164,327.02737,115.44215,202.78682,-122.01642,6669.8291015625
52,2232.5437,5153.6016,-2672.7131,628.8076,-1033.5938,293.56415,7181.388671875
53,4486.05,4927.3555,-2013.1516,1323.2561,-592.88055,-766.59424,7305.68603515625
54,4214.1963,8013.7495,4312.3125,2688.363,784.8368,625.87305,6227.228515625
55,5147.676,1285.091,-3287.8718,3438.3376,721.3299,-98.31956,9515.8525390625
56,-5260.906,4205.206,-7028.754,3832.9834,-1390.4819,158.0503,12626.0751953125
57,2900.4539,939.0521,6347.843,1699.6555,-902.5103,-29.625263,5797.06787109375
58,1256.7416,4219.2646,392.48114,1786.0741,2337.76,2549.3245,7585.947265625
59,3643.0732,3504.1106,1842.0449,2232.4353,-406.53433,-1102.6812,4701.86865234375
60,1143.0555,4190.0405,-512.3494,2993.5225,1185.8441,836.1887,7090.015625
61,5446.3135,3084.883,-772.3061,2162.8086,146.79155,-237.00104,6620.35693359375
62,2540.7812,3351.8372,676.71924,2034.1917,636.5191,404.92935,4445.849609375
63,3166.1528,3792.253,101.08828,1005.6442,-1086.242,558.04865,4383.33642578125
64,5274.3115,2328.4832,311.94522,1383.9354,-515.29877,-57.767403,5023.65869140625
65,5435.934,3304.3137,-511.60205,1866.0356,782.85156,22.307514,6286.92529296875
66,3748.3022,4727.688,-2000.0905,1753.8713,252.66867,916.02356,7181.234375
67,2113.7986,909.701,1004.72394,713.1444,-26.659893,-70.143524,1699.14123535156
68,2001.776,808.9638,-2175.1404,411.4752,68.57181,133.71043,3803.0029296875
69,2694.1514,2751.3938,-518.4996,-939.23755,35.292923,359.84546,3680.6259765625
70,3148.094,1880.529,2064.3877,-32.903904,-506.28275,-618.2426,1823.83081054688
71,7516.0703,88.08524,11478.063,1753.5929,978.3469,694.202,10669.79296875
72,5028.711,-2436.132,-4268.021,-1213.2981,981.2662,1002.3608,9114.4697265625
73,-4470.0796,-4546.7534,-3623.7693,-1363.3248,2380.1216,-1205.2882,5264.60546875
74,7237.799,-617.7236,5079.3047,148.83736,1384.869,-3806.376,9934.6748046875
75,-1161.926,-6577.6855,4497.3135,-3023.2075,-1666.7635,3652.6147,12953.18359375
76,1781.5768,3451.1138,5858.27,-4160.7554,3926.072,-4976.208,13603.908203125
77,-5431.696,422.14264,-2258.4736,-1709.6584,-1035.9868,2201.308,7230.982421875
78,786.65204,-1349.4948,-10973.597,-822.9979,936.65796,-2498.167,11879.875
79,2418.7844,-8673.782,15154.673,8212.224,-8648.223,-3902.8782,29981.9296875
80,-1330.898,7726.376,1697.6278,1352.9181,45.076317,-293.24713,8338.5390625
81,-3713.986,-4738.175,-13665.072,4889.8623,6700.011,-3408.2373,18197.0390625
82,10730.59,5649.336,12236.998,230.3825,8386.212,10902.9795,24566.494140625
83,-2605.138,2758.739,-6900.8745,-2790.3855,-68.94839,952.1032,9816.25390625
84,4284.2793,1299.3123,9614.895,-184.89615,2087.7754,-1834.5052,8747.13671875
85,2453.331,3583.9763,1481.8491,-98.74927,-460.30392,-578.7582,2233.90087890625
86,-3120.2744,2925.5605,-2061.9602,-3418.4817,525.33997,-173.88129,8200.6376953125
87,1170.3231,-1130.9207,125.598335,-3898.9993,208.83446,972.4783,7249.66015625
88,-4388.672,-23.691996,-3146.5464,-32.117943,285.1064,-1321.3512,4545.2099609375
89,-1011.34076,3559.4915,-1601.1934,2934.7996,720.8518,236.64764,7176.5302734375
90,-12.365513,2885.443,2843.1504,1022.888,-71.663635,148.53532,3390.72583007813
91,-1901.1384,1138.5394,-3460.931,2584.4888,-679.08167,-3850.6902,9073.009765625
92,1926.2034,4196.4106,3903.6252,222.91792,-848.62805,2109.3088,4498.00146484375
93,-1970.8173,62.38502,5593.7344,-2142.7957,-2978.0605,-399.40314,9318.5791015625
94,2219.226,-5040.652,-6375.5894,2512.851,-2628.9265,446.3581,10220.279296875
95,-801.9571,-4531.947,8737.528,-492.90237,3384.161,-2312.914,13843.12109375
96,-1318.2584,-2195.625,-10063.07,1527.2892,-2367.5212,377.93268,9685.6025390625
97,7400.2085,4847.1924,4717.37,437.045,-374.9724,164.99834,2818.27856445313
98,4578.571,1748.5038,1538.3668,-546.5152,131.06342,-1277.9867,3807.2900390625
99,-1513.6558,-615.1094,6625.1333,-3332.8413,-5838.819,1547.3429,14230.80859375
100,2370.133,7943.9985,991.5062,-1252.8768,2701.9612,742.1795,8301.5810546875
101,6776.065,5018.709,1629.2158,2540.934,-653.5388,-741.0469,6544.5654296875
102,688.9399,2833.4275,2642.9316,-822.6315,41.75625,238.68251,2536.3173828125
103,4652.584,467.6516,10055.782,-1917.8823,3090.3994,333.31082,10456.5791015625
104,-1323.1084,-5164.137,1155.6777,516.28217,-113.45652,-789.33624,5755.55224609375
105,2817.7417,5775.263,2121.3914,2403.882,207.75781,846.0505,5559.150390625
106,8416.958,-2601.6384,-3435.9753,-10.753601,2073.452,-445.0109,12032.9072265625
107,4392.2085,-3920.7002,840.9387,4704.225,2260.952,-1597.2689,11898.4580078125
108,7692.6343,1916.5114,-4579.5034,6108.081,-2620.3289,2905.0908,16459.84765625
109,3442.9116,-5494.413,-4431.5054,3315.5493,-5658.5312,1518.8506,14403.5498046875
110,-5432.5337,-6082.5767,-8731.681,19282.271,-748.72614,1995.3265,33737.30859375
111,4844.1494,4592.096,-68.12204,1245.2108,-143.27501,-19.697311,5260.24560546875
112,5342.753,5006.314,6723.475,3579.6057,-1398.7953,185.47603,6848.20654296875
113,3282.992,2559.856,-751.4466,1577.2103,464.06238,-479.68195,4762.48828125
114,2139.1895,-3202.4097,-10106.783,4548.311,-1502.8855,894.4668,13576.4892578125
115,3596.7402,-16.430214,195.91547,1745.2589,-515.23376,404.743,4770.58544921875
116,-6254.2637,-1681.1749,-3538.72,617.77655,3947.7092,-211.9228,7993.8603515625
117,-7639.241,-4232.0254,4736.4995,-1314.7062,-1471.5447,-764.20856,11663.4033203125
118,4332.831,-2350.0193,3193.7632,-4160.108,870.6645,-2350.589,10445.8232421875
119,1515.2706,-20957.836,-3022.6758,13708.308,-4983.1553,1119.5665,32644.45703125
120,1458.321,1347.2736,-1007.79865,1782.9885,-21.394047,-2221.0923,5491.6748046875
121,-654.4388,-2031.8142,-1673.0071,-1911.513,911.8619,-2465.832,5764.44287109375
122,12195.563,-5516.3423,5561.584,-405.4653,3181.5774,1465.3882,16659.03515625
123,3026.072,776.12244,1284.5706,485.20447,455.8599,56.516132,2348.63525390625
124,4061.7546,3862.4248,1231.8672,247.41396,628.1714,390.6741,3051.10327148438
125,-30999.988,-18684.252,-876.7858,-1580.226,-3102.004,-3720.8433,27676.486328125
126,2418.743,40019.434,29498.098,-5253.925,7295.909,1180.3666,37088.8515625
127,5629.6445,6575.8022,-1276.8995,-1699.9758,-416.29044,-400.57248,8049.92333984375
128,967.26587,4576.356,-2159.8127,1041.2023,-568.68854,319.96326,6214.47607421875
129,3992.334,7406.2896,6167.612,1282.0933,1331.4047,-516.2289,4473.17626953125
130,503.46442,8473.134,-2040.7053,-1565.9468,-69.73551,534.06604,9924.2861328125
131,2533.5898,7738.1104,1722.662,-1423.7377,547.6236,-1238.3511,6598.97216796875
132,529.0008,3775.2566,-82.006226,967.6364,627.8367,-578.57025,4229.7421875
133,6903.771,11454.892,2764.6116,-634.3499,-2289.3074,150.72751,8583.78125
134,538.0922,8165.239,5027.5254,-476.63467,380.15164,-1159.7749,7016.91748046875
135,2508.1848,-9811.121,-24169.639,-14589.256,-10576.737,1988.2709,38997.6953125
136,-1165.1146,7007.703,5056.4937,7211.5483,4962.464,-489.405,16889.9765625
137,22818.14,11110.251,6199.676,5358.7607,7602.99,8460.241,26324.384765625
138,-6563.4214,8058.7705,6898.998,9500.15,-1028.1466,11493.8125,29469.4453125
139,3368.9487,-713.7527,914.1679,-3990.5242,814.8637,672.5608,7987.123046875
140,-608.89545,-2354.1982,-14450.2295,4058.4653,-974.01013,302.01263,14933.3330078125
141,2183.7043,-923.0038,-1204.5319,-531.1732,-474.1546,-515.26514,3594.84594726563
142,2620.1785,1243.9607,4.297275,328.18625,62.81977,2009.7468,4193.92333984375
143,2902.115,618.3826,-161.87292,551.42456,492.254,6.834789,3040.62768554688
144,5467.026,1923.3688,3241.7383,1824.1359,-479.83917,-806.867,4716.99169921875
145,4399.688,3276.5537,-136.67754,956.5257,-516.75867,-708.58563,4668.759765625
146,6150.442,3976.5195,2864.3005,1727.9325,-211.0743,-190.50131,4192.92578125
147,1435.5293,-1028.0416,-3694.0894,3512.2837,-458.8571,212.74075,7584.24853515625
148,3472.1372,4733.0317,5871.8423,638.0124,913.15704,-197.58502,2857.01416015625
149,1608.9,2652.2703,-2005.6989,3582.4612,-18.548162,258.91068,7525.25927734375
150,1099.8596,-26968.637,-8472.419,12577.878,-7028.1787,-2074.5044,35305.73828125
151,12334.5,-977.6985,3232.5635,2541.149,-7865.5615,-5134.9727,20566.244140625
152,1937.6658,6604.9263,4874.2197,2587.1501,-487.58105,425.4801,6167.44287109375
153,335.40836,3504.8198,-2283.2239,408.9267,407.41226,-437.48367,5174.52587890625
154,1493.4406,2712.5334,-596.5543,1823.9711,-777.8619,278.63046,4520.05419921875
155,4330.613,6300.918,5712.286,2273.696,-1301.5432,2358.756,6352.2529296875
156,5025.4395,3263.498,-2217.5813,150.06975,70.81016,-2458.6277,7811.6044921875
157,9600.173,3070.0767,10208.5,3270.3806,-1292.423,3337.8647,10840.0146484375
158,6540.887,-585.09515,-11867.46,651.5905,233.84563,-2130.6433,16538.623046875
159,4979.7803,2555.2131,10415.796,2972.8696,-1199.5747,5441.7295,12972.15625
160,317.0833,-14021.634,9188.44,-68.85878,4564.1333,-3308.3523,22513.2734375
161,-932.32666,4303.8364,-4836.934,-123.576706,-248.22612,1892.35,8607.099609375
162,4790.462,7878.7944,632.29846,-1259.7264,-1361.4622,1477.988,7519.623046875
163,101.18002,1344.8787,-1709.1421,1681.5535,1189.4208,-23.990705,4450.203125
164,6794.8516,7289.1577,12817.194,2118.9167,-2275.6704,1844.6434,8529.3408203125
165,9168.171,-871.7001,1585.3953,5998.75,-8259.21,-7490.9346,23729.904296875
166,5354.422,7912.7207,8197.134,1246.5708,1403.1183,545.51605,4337.53369140625
167,3692.3342,8396.777,-3851.2625,-1873.6145,-622.4721,1240.455,11438.3544921875
168,1801.4672,4759.5283,2695.1917,2509.3442,-876.4175,-1343.7144,5789.35498046875
169,12056.85,10316.372,6313.3916,2330.053,626.8157,-3403.7698,8845.5244140625
170,-1725.7046,6127.803,-25.600586,-1924.895,1668.5522,-3971.6545,10863.0634765625
171,5192.65,6475.1816,-3425.5596,-5405.1123,-1499.8425,2809.7969,14319.591796875
172,5167.3994,8594.236,256.9055,-5805.2437,-5214.773,-1499.9761,15560.1259765625
173,-5807.423,-4381.07,-3887.4453,5111.0854,2637.3486,3167.0999,11502.6171875
174,648.20636,2805.4521,-4122.0024,-705.1059,358.94382,802.3866,6442.71923828125
175,1924.0999,3442.76,970.1141,1525.7335,7.8938837,-1078.1769,3890.548828125
176,6343.6885,2818.7915,655.52594,2028.2976,117.18653,425.64725,6136.498046875
177,-7096.228,-4797.323,3966.9504,4430.4087,1106.4695,-5614.128,16104.6376953125
178,3200.2878,12348.891,519.7562,-1088.2198,3445.8113,72.04827,12433.5986328125
179,2037.1395,8008.813,-207.35793,-1651.517,-293.74786,-305.27536,7926.09765625
180,4040.0103,9422.064,-1528.4465,-3454.3262,1417.4343,821.8665,11566.970703125
181,4541.0,1552.633,-7327.8086,1491.5726,-463.18744,756.836,11107.0693359375
182,871.53955,-1346.2278,-373.1882,6291.216,822.77625,543.1568,11196.4931640625
183,4118.9272,5390.9243,517.45105,1864.12,695.09393,447.95886,5625.4755859375
184,-12581.292,-28894.033,-12211.083,5323.554,12866.522,-13009.416,36900.94140625
185,-3043.3408,-19618.326,8527.394,-9135.252,-1326.1365,10147.108,34130.9609375
186,-1174.7971,-40.181183,-861.69855,2821.6648,826.93756,-2058.2751,6298.9267578125
187,4371.6855,-596.3911,-217.6079,2090.4363,9.116916,-423.83765,6049.1630859375
188,-1567.1215,-7215.869,-3861.9946,-1419.9169,214.3979,1053.1056,5807.3330078125
189,3771.9011,-3362.1018,-131.06865,3824.9526,-900.7566,651.6027,9267.2548828125
190,-1014.4247,-9257.32,-12238.023,-383.91324,-61.708652,2102.8904,10729.37890625
191,4664.7256,-3772.671,-1127.2458,1385.6385,-21.695532,-188.28807,7857.17431640625
192,1034.4648,-10822.864,-9893.265,845.9306,628.76666,-274.4012,11575.6884765625
193,1782.4873,-3397.219,-7675.9756,799.625,-1878.7704,-602.89197,8994.3193359375
194,2539.2556,-5300.3022,2413.9287,-322.7966,-146.46811,328.54968,7822.57373046875
195,4482.923,-4844.118,6144.2627,-1176.0077,1560.5392,2993.716,11982.9453125
196,944.5132,-6871.8135,-7290.731,328.4217,1661.3295,-2450.8647,9548.2294921875
197,201.22815,-2167.1968,411.3819,-923.5473,516.73395,-40.251514,3084.810546875
198,550.98914,-2880.493,5563.8667,-1138.696,-179.38875,-4935.764,11453.267578125
199,5677.5264,-6531.662,-13077.205,712.0632,652.0372,-867.46545,16639.658203125
200,6090.08,-5533.5605,-3347.6023,641.6484,-363.53363,351.39258,10792.6220703125
201,-1285.959,-6279.508,7862.991,1472.5016,-1437.0642,856.0119,13008.576171875
202,4549.4575,-7124.238,-4074.7705,-1470.1777,-628.8524,-323.80438,10860.9873046875
203,6524.8965,-7407.7217,3992.063,-1746.4062,-694.6955,331.38797,13272.94921875
204,-295.49585,-7597.02,-9564.133,2202.7317,-1524.0671,-1472.7411,9978.779296875
205,501.18677,-9681.821,-13512.351,2499.1587,3225.2493,-2371.8508,14973.1103515625
206,6740.381,-3052.6812,19837.424,819.8855,-5105.084,4535.3687,23186.37109375
207,607.9747,-11850.408,-2496.0044,-490.64957,884.1119,-749.8385,11442.4375
208,-13561.846,-11358.207,-25710.873,4773.4985,5333.4316,-115.221825,18247.25
209,13072.717,-13818.454,6315.542,2053.192,-2701.957,1020.9634,24995.234375
210,3293.351,-9550.12,13415.006,9749.367,-4672.458,2101.2993,27591.525390625
211,15298.859,-2119.26,8726.884,-3300.9326,-7372.9224,1070.578,20768.17578125
212,-16670.61,-19865.924,5409.835,-2475.1025,-1939.1376,1637.7622,24617.392578125
213,24817.893,25368.18,20960.348,10007.48,5322.41,11710.38,28533.109375
214,33804.414,22307.406,45425.406,10309.164,1714.0549,-6898.9395,29517.314453125
215,1488.0304,9666.915,-1013.1049,-5183.5693,1349.1886,-1798.0072,13761.3193359375
216,-6572.5415,3762.0469,-3895.085,1676.9775,-575.0383,1276.905,10031.0673828125
217,-4214.222,-126.89414,-10495.476,4826.929,-4198.5566,-1590.3732,14567.1953125
218,4099.305,9186.719,5033.5195,-1097.5787,-1082.102,548.08215,5479.9501953125
219,-1229.1729,9544.556,-2433.9617,-988.51544,194.9692,225.83542,11563.015625
220,-1405.6693,7716.647,190.75597,-1548.4039,824.9564,-223.39331,8976.9794921875
221,-1424.5132,9084.603,1272.9585,-1100.6019,-150.3753,-515.0888,9688.5283203125
222,-2024.9396,7084.3267,-1825.2572,241.82289,-14.538699,504.3934,9063.0537109375
223,-50.734566,7768.15,-1600.0557,-32.66272,70.22903,-781.6592,8803.423828125
224,-10211.496,3560.2527,-9290.077,-852.48676,555.6676,-1938.6698,13863.7060546875
225,1874.2544,4077.3245,10608.636,1348.7001,501.34683,220.8976,8261.8330078125
226,-3231.642,192.2781,-3633.402,-193.08075,-519.827,670.46906,3940.97973632813
227,-4016.2544,-2745.6082,8748.715,-315.3641,-529.03345,2940.9307,13244.7890625
228,-6241.5684,643.7761,-5081.0625,-586.9898,-1236.3198,292.3662,6829.3359375
229,-1592.9427,-987.28107,-2857.765,858.21783,-1038.1842,763.90515,3150.619140625
230,-4334.3403,6324.503,1100.8107,1370.1102,-1710.2231,8.958885,9981.2734375
231,-3094.301,3864.3481,-2856.8694,2175.032,-276.99847,-2408.1787,8868.337890625
232,1836.12,-694.97815,-3193.6362,3250.5935,-148.10097,-484.68347,7172.42822265625
233,3738.7886,1266.4393,1182.0514,2585.1616,657.1925,980.4282,5527.8271484375
234,5377.876,-349.53473,-119.50556,1816.0303,-65.441864,156.61696,6443.5244140625
235,4947.581,347.54813,-806.6596,1595.6246,102.28936,171.16039,5963.1552734375
236,2331.0215,1669.6815,-1791.9457,1386.0704,-415.754,-1097.0198,4960.04345703125
237,2699.8367,2437.7717,-1106.1918,1818.4465,907.17444,-668.9939,5223.8779296875
238,2973.1086,-1787.2266,1313.8517,2380.3726,456.7075,1065.3617,6208.42626953125
239,1901.1262,157.39272,3526.998,1213.8927,-208.07948,302.09186,3652.86596679688
240,3027.3867,1733.2848,-3600.9043,912.1822,-613.8901,-42.71779,6376.79736328125
241,2093.2922,-667.81177,658.4444,1122.1483,118.347244,-334.95898,3142.76635742188
242,2150.6155,-2795.0183,-702.2553,-16.597322,-16.843351,62.633595,4301.4365234375
243,2004.3995,-1706.1003,-5083.2397,-2530.027,-1320.2843,1729.8783,8432.8974609375
244,1129.2179,-37.56953,-1384.473,1141.1499,-120.044106,242.73532,2978.884765625
245,6441.706,3476.5044,1786.0114,-666.66565,1851.691,-52.449375,5318.900390625
246,5338.0,4135.8096,6408.953,1093.1998,-2002.2604,-1359.5087,5003.6865234375
247,-2640.35,2549.6543,640.7002,501.8193,-822.2396,535.1596,4931.09130859375
248,-491.91425,-1992.4327,7547.1987,-1139.8926,1203.319,-262.65442,9348.298828125
249,-10066.738,6556.9575,-9617.096,2230.3628,-1417.4595,-487.35345,17051.052734375
250,1028.0687,9360.691,11062.917,-2247.951,-1392.7174,-3107.975,11682.103515625
251,-10584.121,7903.091,7415.817,-4660.7676,1178.8248,2764.4646,20622.076171875
252,6199.058,4388.5044,6836.611,-2647.2104,-766.973,3161.4338,7590.17822265625
253,7191.382,1918.2913,6015.7227,1524.3064,2968.9885,3551.2456,9707.6025390625
254,1269.1416,3582.3218,-2915.9773,-4918.451,-233.96486,-2888.6997,11415.708984375
255,-2534.558,-4296.808,-2796.062,-1314.1217,-5148.161,2546.088,10336.93359375
256,-4311.1187,-7322.268,5565.583,1725.3639,2834.7368,-2704.7415,13832.61328125
257,-17300.572,-17714.01,-39435.21,-7848.5186,5451.677,-5460.8877,29058.318359375
258,-10539.588,15260.095,6814.5435,-2980.763,-5868.3564,-9859.497,30670.1015625
259,-4081.727,22812.549,8985.882,4987.513,10044.885,-1684.9686,30470.69140625
260,3574.9727,36121.758,38434.8,-5525.132,-4848.598,8701.001,39104.421875
261,2818.484,-1110.0759,2096.2847,17761.332,-11579.989,-6153.5513,38410.93359375
262,14439.931,-10803.639,5221.826,10726.621,-10523.384,-11665.765,39688.66015625
263,8423.932,-7291.8164,21483.432,1064.8119,-4372.3555,-9993.638,31355.18359375
264,950.5715,4360.05,-12775.198,-193.7453,-1291.289,-404.91736,15887.912109375
265,-12573.061,-7720.0684,2023.0579,4632.5415,7668.7847,4155.396,21409.75
266,669.41284,2743.8394,-18907.256,1516.3209,622.6482,-207.51091,20888.98046875
267,-4733.5933,7449.504,-3206.9233,1258.3302,-663.03046,-398.00107,11777.2333984375
268,-2059.7651,4435.1763,-6164.922,1264.506,53.50726,-418.94662,9541.037109375
269,-3191.62,5292.901,2008.5668,2093.669,-645.4794,-536.8901,8376.931640625
270,-4086.2246,7486.5356,3782.2925,3307.474,-1152.2595,-889.36676,11998.1689453125
271,-3037.8955,3789.1116,1784.2479,2951.4944,454.48898,206.28181,7988.8408203125
272,-3469.758,5364.6616,2517.7664,3101.379,67.05582,-586.3637,9534.2392578125
273,-3129.5247,-454.58957,-4369.809,2640.2961,3212.6953,-858.7497,8130.27294921875
274,-6065.337,-7740.136,-3524.11,2224.0107,812.12476,-1221.5289,5900.21533203125
275,4902.0894,-5275.399,-7331.6147,3389.388,780.2797,-1323.8733,13049.3173828125
276,2206.298,-1465.6956,3378.5225,-2752.477,636.5342,1206.2543,6889.9287109375
277,-766.5065,8661.478,2152.2305,1362.8789,182.97798,-1326.9532,8991.2880859375
278,-3663.9392,4459.377,867.6548,2831.1145,80.43202,-237.88156,8599.234375
279,3619.0425,-1085.8068,1705.3182,2356.4111,352.14468,272.09875,5834.921875
280,2342.1443,-2307.1045,-480.7097,31.830332,-383.92822,-393.88892,4167.7998046875
281,-1087.4552,3158.2947,-4466.1113,648.86053,-164.82005,-494.86978,6772.435546875
282,-2045.2756,4601.962,2067.306,-15.708038,249.93436,-357.04688,5859.3837890625
283,-756.28986,1208.861,785.2785,-271.19876,-242.35588,-333.4294,1984.74621582031
284,3463.129,-2046.7574,4764.7065,2192.7598,-240.73775,901.2088,7500.6318359375
285,-5422.493,-4000.734,-434.9834,-1450.0559,-469.7146,-72.34129,5176.021484375
286,1593.5078,-18516.111,-26112.664,7929.403,2481.745,5197.298,30050.08203125
287,-8178.312,-4928.934,6964.434,2359.4272,281.26376,5499.7954,17272.462890625
288,4113.824,-5451.31,2414.6375,307.69507,60.321377,-732.1906,8945.9111328125
289,10065.872,1014.39465,9406.152,863.9028,-609.42114,-1382.2451,9245.431640625
290,5661.7407,863.3286,-3378.42,202.22145,2013.1456,-8.527731,8582.0751953125
291,5655.3296,-2953.8118,6570.712,248.68242,215.25175,953.7679,9267.6552734375
292,4534.647,-613.22504,-2272.6604,601.1751,187.49673,270.30624,6261.451171875
293,4142.8115,797.0224,651.4198,-739.0846,569.2236,-402.7957,3847.10009765625
294,2270.88,-39.71457,947.72595,-1655.6147,2659.2344,1658.6047,6459.3330078125
295,4503.4805,2221.1846,-4314.281,239.12775,451.45352,411.9869,8008.07275390625
296,-14480.004,14487.254,-20075.824,-3149.9387,-9007.743,-8509.446,39024.703125
297,-1764.7279,-2050.6665,16204.503,4029.4924,6090.6157,909.0763,22149.2578125
298,2620.9524,-2955.8733,-9169.947,1135.4163,-455.1343,-1424.7496,10721.435546875
299,-2208.044,3734.2712,-257.8486,151.57355,-196.92233,75.57202,5265.74658203125
300,-1706.9104,897.6689,-1898.9102,606.5708,-29.920153,-101.21263,2908.26025390625
301,2627.2966,14305.477,19294.45,-1209.301,-272.69357,921.65094,15056.2431640625
302,3474.0354,10212.436,13244.124,-336.5341,1177.3594,305.0683,8933.2744140625
303,-3653.8188,4183.485,-4803.4263,2484.4304,487.47577,810.42914,9641.328125
304,-5058.521,2063.79,-6317.34,2687.3718,-310.6366,648.08655,9192.01171875
305,-2055.555,3882.5244,-1481.1675,4914.329,84.29146,-909.0202,10350.4638671875
306,12873.581,-13750.827,4121.5283,-647.3381,-5636.2554,4651.5034,26719.056640625
307,-89.040855,1627.1472,5013.0767,521.3296,-3688.6096,-657.41327,7946.7080078125
308,3873.4495,-22389.412,-26973.191,-2058.628,14773.83,-1930.1849,38856.4140625
309,-36343.387,518.5224,-2020.3574,-5523.7163,-3952.6343,3166.57,37949.23046875
310,-2125.0322,24.9053,-16833.393,7426.9097,-10403.6045,3834.3757,28051.19140625
311,-2413.7852,4809.727,-4734.187,-3340.8333,987.8791,-3519.923,12161.646484375
312,-2561.8892,-1882.8439,-107.679565,3874.5322,-730.0693,-161.35023,7178.498046875
313,3006.9521,-2074.0488,3599.8474,5210.0317,-408.29492,159.72649,10544.6923828125
314,1737.8351,-1731.9476,-2213.596,4020.8354,710.703,-834.9696,8127.162109375
315,350.7294,-2201.0762,12988.935,-1756.6942,523.16284,-950.36664,14535.294921875
316,6867.3145,-4067.2727,3560.9055,-2309.1116,1700.1409,-78.63562,10910.0546875
317,-3591.6958,-2818.09,-4922.963,1536.0719,-1824.4011,980.81586,4832.23388671875
318,5.012893,-2297.0696,3666.7312,-978.7699,338.15326,-938.7211,5744.38427734375
319,5407.165,-9416.898,9911.55,10408.089,62.094208,-6439.4785,27499.32421875
320,11046.642,-2508.3176,16134.612,6623.5645,2095.4944,-5796.7393,22895.115234375
321,-6087.7114,-12307.072,-7903.0596,15045.362,9188.132,-1016.5672,31082.79296875
322,-18838.34,-14447.818,-10464.148,2331.9458,11353.277,-9316.256,26758.53515625
323,-1054.9607,21245.846,-6326.2183,5403.4194,-5554.4336,15181.478,38913.27734375
324,4189.9546,13685.615,-6471.3022,4259.45,-1736.0195,-961.1873,19269.3359375
325,-1782.9377,11435.984,8084.621,3260.5212,452.80637,-344.07986,13211.109375
326,2269.388,361.0425,-2879.2766,3247.256,-565.4941,-82.1635,7275.89990234375
327,926.5138,727.8981,-910.77155,1854.5016,315.43335,610.18024,3844.88427734375
328,5270.986,1282.7261,1040.8799,848.7769,-603.2039,-832.1298,4717.9873046875
329,5808.275,-661.42236,616.13794,288.31265,409.56107,304.60452,6021.18408203125
330,1852.9036,-2221.1938,-1898.3031,1818.0038,-502.95026,283.26224,5128.5517578125
331,1318.2909,-1315.1334,2897.4043,122.01573,330.91284,895.1323,4045.23876953125
332,1826.3789,2587.0947,2806.2866,-782.42004,17.660894,-1374.0027,2880.03564453125
333,4168.189,998.72876,-326.46646,766.8483,-509.75253,1594.1284,5115.58642578125
334,-10124.792,4028.7058,-15587.792,-1292.1761,-1281.6877,-1124.9846,17922.625
335,4255.4116,4726.799,1930.2916,-5521.8384,-843.58954,2646.5957,11015.6640625
336,9949.523,23935.447,27194.016,2073.6226,-8818.956,8440.955,26679.00390625
337,-13042.833,-18490.701,-48177.16,-828.5414,10954.683,6306.3066,39421.7734375
338,1886.2587,7338.5767,8223.05,-1892.3502,-1867.6688,-2493.8635,8671.6826171875
339,-1726.0499,-3160.3953,-751.042,1458.9498,-183.1664,-1525.7535,4228.06201171875
340,2335.067,798.5221,3543.6277,4700.825,-3463.1514,2718.793,11407.349609375
341,-2122.1904,-349.21432,-1192.9271,-829.96716,-769.2709,-362.6052,2568.21533203125
342,-2822.133,-1461.6141,-5551.658,291.29132,1327.9498,212.12883,4323.7470703125
343,-6146.0527,-758.97473,-10810.755,2254.7617,979.3559,2703.0503,10768.3740234375
344,481.69434,1611.6353,8181.513,2077.653,194.74626,667.7039,8140.3203125
345,-3054.8274,-301.2506,-2216.0366,-954.95844,631.21014,-707.2328,3377.533203125
346,6398.7935,-11458.753,8205.95,4032.06,261.83224,-1923.5441,20359.455078125
347,3425.4126,-2302.96,456.5705,1626.5027,193.05322,-251.0668,5732.28466796875
348,-827.29,3930.3416,-3570.6602,-1980.379,6471.19,55.206272,13439.3759765625
349,-86.90077,3585.5867,2862.3008,-498.98553,1639.102,-54.30452,4491.08251953125
350,-1735.0084,-800.5392,-2123.4326,-77.318596,-54.823288,-353.10986,1337.19396972656
351,-2715.3525,2779.919,1454.1462,2505.955,-236.43964,1284.7745,6973.4697265625
352,-26548.91,144.60704,-29458.06,-3026.0347,-9818.214,-362.711,33402.390625
353,-41.410774,-178.58559,-2459.791,254.52614,865.8828,-84.75082,2828.56787109375
354,-251.35808,2236.892,6565.0386,1793.2002,-1979.716,-425.63425,7592.2177734375
355,1999.3827,1288.081,745.15076,2609.782,-134.9948,-2571.1924,6442.63623046875
356,-852.4349,2901.4116,394.8737,2614.0132,531.1544,1381.536,6167.3681640625
357,-3336.4482,1139.2766,-1021.73236,3759.6978,114.47941,535.8147,7637.8388671875
358,-2192.493,-1470.5032,-2503.9363,4879.3066,3461.3145,-612.7971,10456.322265625
359,-3304.2263,-979.93787,1701.1553,4102.3677,-1291.8689,66.29246,8621.509765625
360,2250.849,-642.60443,-744.74335,-533.1014,-359.17914,-193.6213,3167.03784179688
361,3080.913,4131.113,-1896.0319,1447.0631,-461.08853,81.94306,6167.6259765625
362,5752.3066,-2779.9646,95.022606,-213.53627,-2533.096,329.37555,8731.9541015625
363,2338.878,-1403.5059,246.67758,-1283.6335,-66.95567,99.55468,3941.98559570313
364,2101.7576,-1016.52374,288.87857,-2145.4897,2040.3369,-1057.2236,6083.47021484375
365,-2579.834,5040.519,-2305.8413,-2495.2275,-414.55945,1014.43976,8850.8896484375
366,-404.55368,-2050.4146,-345.7556,-655.77106,337.93884,-317.72614,2178.22241210938
367,-6481.3843,-2482.5686,-840.62177,-9910.564,-14.846076,1573.9731,18092.625
368,3438.5586,-2441.1082,130.2854,-2400.1245,-1251.3978,-589.7301,7006.19287109375
369,1692.9923,-3675.6006,869.10223,1791.4963,-544.4168,-284.99884,5986.541015625
370,963.89606,-5257.9497,-3181.7102,-562.38794,608.00183,-16.293623,5671.21923828125
371,4548.1465,-2850.7622,2221.9001,1580.1359,-968.3163,-23.138802,7297.1630859375
372,1075.1616,46.751877,446.63754,235.26227,91.27846,82.98582,1008.95446777344
373,-812.10175,3380.3828,143.86206,2720.5957,70.27792,-3.4353895,6058.27587890625
374,415.358,-877.3301,-634.59705,1961.2163,-33.853676,41.55885,3600.54321289063
375,-1800.3862,-1789.9436,-658.2249,-1446.5405,-3.05165,-66.29333,2753.791015625
376,-223.66966,-1698.6285,-720.1507,-1725.0555,-1214.3578,753.9528,4092.24731445313
377,-319.3473,3753.9324,980.3154,3067.7678,370.13696,1020.6537,6690.04052734375
378,-2441.1797,-923.74884,-745.6194,-1322.8312,-507.95535,-550.5718,3088.3193359375
379,2787.805,3381.4875,-1098.4354,1733.9598,220.08131,12.492975,5189.2333984375
380,-13392.597,-10900.763,140.34991,1701.9874,3761.4678,-1227.2784,14535.572265625
381,-1491.6201,-1419.574,-858.0559,2259.8347,-1369.2198,91.06563,4618.51416015625
382,1800.6187,-1577.5487,-1621.0233,1176.4027,-1571.4592,97.16926,4811.37353515625
383,4671.372,-152.6973,965.2979,940.5218,1150.9573,-57.864017,5076.03857421875
384,4837.1895,490.85828,1877.3706,562.30554,-155.45749,415.5435,4040.52758789063
385,-1484.3439,-404.39935,1220.1715,1694.6317,-199.84187,11.815921,3780.94116210938
386,-1349.9664,1009.5353,-390.0555,947.3475,216.84038,-35.33846,2657.24926757813
387,-111.84198,326.54993,-1007.76025,1253.2927,128.22806,-647.7393,2721.74096679688
388,1057.2078,3471.9404,2078.3252,-2181.0054,704.7498,13.934079,4490.9736328125
389,-6894.6885,6424.4165,787.2346,-4177.121,117.08122,-1180.6117,13808.03515625
390,-11457.934,-10060.895,631.8176,-4150.4644,438.39438,705.3304,13600.443359375
391,-160.02391,9086.63,4024.368,-9256.997,-1680.831,-769.082,18211.099609375
392,-2485.7195,2040.4817,-189.65562,-1861.1488,-2.5530126,-85.09559,5077.33447265625
393,1238.9677,-5897.477,-4194.6416,-1092.8741,561.4318,342.94727,6823.3330078125
394,-24.591913,-1259.605,2718.683,-7035.2446,2174.7832,1077.3713,13363.908203125
395,1186.265,-919.6097,-1194.1218,821.03723,701.9414,333.58066,2987.04760742188
396,-839.71783,4693.4688,1824.3086,-457.89725,149.3764,-725.3111,5024.62060546875
397,-193.26938,-168.94286,2436.1821,-643.8254,415.8675,290.96213,2977.7490234375
398,321.15616,817.3224,1591.0938,533.63226,-62.225636,-555.5797,1738.02624511719
399,5027.8115,2357.5586,2797.3381,504.84186,176.90727,-118.55612,2655.18090820313
400,8080.55,-2082.6519,846.0816,626.03546,-1688.2639,779.1428,9677.3193359375
401,5120.215,-1417.9592,1841.612,993.46606,1513.9438,27.27209,6473.02978515625
402,-2171.676,1760.9534,594.16815,-1362.1868,-647.3777,1477.0736,5060.39697265625
403,1340.4879,2739.1533,-1516.5259,1041.5751,283.11908,167.15047,4206.390625
404,-1119.3713,4228.075,572.47595,1407.0529,2.3772988,-694.61554,5458.69482421875
405,10620.528,3479.206,2455.241,3027.1829,2744.994,1137.4998,10646.015625
406,2790.3196,1472.401,-1090.4589,136.44788,100.99467,-128.14879,3437.8076171875
407,2472.3213,3256.877,1860.2332,377.66623,-398.2158,-330.06454,1643.42541503906
408,10236.016,-6439.159,3540.3245,-1465.641,-272.9624,-401.39703,14778.12890625
409,-17196.89,-15555.409,-1510.6642,-7646.035,-2129.2974,-1233.477,20409.68359375
410,-16688.17,-21542.287,-3886.156,-2328.9756,257.2543,-24.591375,16311.6279296875
411,-1550.8698,7337.9023,-1424.7917,-1066.3583,-167.6678,149.21265,9025.9609375
412,2058.9768,1324.2416,2425.4355,971.47327,339.9694,36.87842,2031.12683105469
413,-322.2735,1954.3242,-256.83435,-3856.4133,436.5875,607.115,7164.60498046875
414,3380.903,881.64746,628.3754,-439.7164,-735.59717,473.58124,3133.62646484375
415,-6285.176,-1116.0098,640.5093,-3336.3892,-2357.8584,91.54887,9433.10546875
416,3777.3967,-1544.2712,1682.255,1142.6877,1988.6499,804.66595,6267.69287109375
417,-1814.7709,-2349.1646,1562.8492,1038.9486,-691.26807,-459.1539,4336.25830078125
418,2809.414,321.1402,-1058.8184,368.78418,273.24597,-458.34058,3576.552734375
419,963.3941,561.2027,-534.939,1310.5458,-870.23444,-3.9687688,3037.87841796875
420,-182.32147,-1272.2089,-308.76096,467.9521,1398.0798,447.2302,2861.27587890625
421,-13402.451,-14571.0625,-1556.066,354.49368,494.0893,398.89542,12535.271484375
422,849.9453,-1193.2195,1408.2738,-1361.1917,1190.7935,-392.83823,3987.79028320313
423,-5312.028,-3864.839,1444.598,473.48694,33.004593,-474.04907,6270.42578125
424,2580.7039,-247.20857,-1350.321,-2490.2075,210.29137,-410.41006,5619.1484375
425,-1048.794,732.8663,-2791.8022,2144.4744,-614.31793,-1275.2618,5396.77587890625
426,1564.47,784.5416,-73.74077,-1084.2032,94.38364,-960.61017,2887.18994140625
427,-870.78467,-754.6944,-2019.551,-585.5949,-36.749355,681.83466,1973.32531738281
428,2457.2104,1609.6869,836.96295,7.7265325,249.2633,-1.0063778,1468.63159179688
429,5427.2676,-216.4064,173.20099,-754.2738,120.10962,277.6344,5637.8486328125
430,-72.80707,896.6352,240.14156,1088.7382,705.2134,294.5671,2458.19213867188
431,-703.06976,1860.6825,-1836.1573,-915.0157,-366.9802,-279.31274,3729.8125
432,-1275.0209,-1786.9546,-196.72612,-623.241,425.49084,427.89688,2057.79345703125
433,2563.8872,1645.6952,281.30087,-1559.0671,542.78534,-614.6865,3642.37036132813
434,-4872.5645,-4275.6753,-1378.5782,4449.828,-438.05383,-503.96127,8439.1474609375
435,-414.5741,1066.9352,1411.0431,-2907.4412,409.06516,224.46118,5369.904296875
436,1632.4102,-1344.8527,-2058.534,592.1519,789.73413,-881.64404,4093.05639648438
437,489.81006,978.6138,128.79887,-506.84827,-194.3805,147.95312,1222.87731933594
438,11023.322,-595.7134,1624.1426,5277.0103,-1467.125,-1380.2178,14486.2021484375
439,-8050.1816,-11414.702,-3885.8406,-2080.9807,2392.6858,-512.26044,8580.57421875
440,-63.21011,-1657.5951,-70.9175,-902.7357,7.0204296,513.32263,2401.09936523438
441,1139.9617,-1186.3342,-252.58113,-3276.7495,1558.3975,-556.29004,6673.59033203125
442,-845.3557,3847.7952,382.85162,2975.2974,-383.21185,-36.00908,6691.16015625
443,2135.1306,635.7693,680.2823,863.5445,-496.8054,459.46976,2407.1220703125
444,239.47426,1171.5918,1228.0801,-2804.3826,-73.279,96.80142,4956.06640625
445,776.01636,2013.5864,-506.51657,293.5,-54.344654,-573.15955,2452.85888671875
446,6548.6265,-6478.138,422.2062,-3897.2698,34.61415,-113.008675,13154.095703125
447,2460.1768,-237.25446,1004.99335,-1451.51,-93.00328,315.109,3480.36059570313
448,1702.0356,-166.68405,-832.6014,-1087.5903,-593.9856,161.60721,3140.91357421875
449,-9758.839,-1596.4095,1174.1626,-1275.3787,190.96375,317.85803,10109.806640625
450,1498.9521,668.63617,-1253.8657,1540.4154,-79.46597,-85.095085,3625.0556640625
451,4454.944,2563.4016,2379.9954,1957.5552,541.3978,479.3177,4125.9091796875
452,-674.1069,-1428.0778,-1371.4412,823.83,-134.48465,-321.00232,1711.27172851563
453,1632.7377,-418.22183,46.31492,-473.91895,-1309.8927,360.91013,3111.51171875
454,2755.3147,1579.9728,-225.38602,-4611.1255,-444.09427,227.72421,8443.7744140625
455,5079.6226,821.00385,1623.0952,289.5717,-370.42294,41.598545,4003.96899414063
456,-76.67555,-1835.3373,-2069.7483,1031.7441,-381.09445,44.042953,2682.36767578125
457,424.23587,-947.8525,-1656.1111,-542.5405,-331.69113,374.63174,2233.87670898438
458,578.15186,-1772.3857,-846.30646,-1261.0912,-78.99195,563.0397,3153.83569335938
459,-1502.3761,2684.64,-2968.4817,-606.1521,676.34766,230.50963,5334.15234375
460,2994.722,-252.31023,-4291.806,-88.62126,-1842.1597,-964.3904,7278.15087890625
461,-1321.3771,-227.95303,-1470.1576,-170.21046,237.83792,173.44592,1314.25183105469
462,-2409.1797,-2270.2507,-2550.8645,-629.7021,-26.734901,-81.563995,1127.26940917969
463,-2484.5317,558.8391,-1747.4094,416.355,1558.5859,534.7373,4028.3466796875
464,-1968.7249,-12926.278,8076.3667,3035.8938,-1087.5958,-130.23839,19033.94140625
465,434.81113,1188.4556,724.161,-1949.5953,-188.42442,-157.98032,3466.66796875
466,1587.9556,890.7272,-659.9959,-1132.331,-434.67212,259.59332,2930.4580078125
467,491.25745,377.5358,211.20393,-385.5076,519.8999,-93.20536,1158.58203125
468,-1870.9401,-662.76605,1222.069,-667.1144,936.1038,-418.77945,3432.14526367188
469,1602.7773,-2666.5007,-804.3773,-719.06573,-34.762074,326.96738,3952.193359375
470,-524.2378,-1971.5282,785.422,1494.2999,-1713.617,-203.97122,4619.34765625
471,-520.9161,-65.94934,-256.00537,2637.844,445.5943,377.97736,4696.33642578125
472,-942.38336,853.9609,-295.12302,1486.4447,-387.15793,332.05444,3145.17163085938
473,429.17,-3171.015,350.52997,213.648,-45.502445,-105.33861,3586.20043945313
474,1976.1522,1954.0076,-666.3517,1386.7456,-455.79724,-369.55484,3704.99072265625
475,4297.702,2710.6846,-25.384043,-2970.5159,44.899685,-210.9235,6399.86669921875
476,-582.63727,-628.3358,-195.58818,997.9562,-881.86237,80.40323,2347.2900390625
477,8085.187,-1707.1464,596.2019,4856.441,-924.6774,-1012.6176,12451.3603515625
478,-89.76214,-1406.7697,-223.67216,1034.5286,2361.8496,-605.8899,4756.37841796875
479,-2165.4187,6668.9136,2464.054,199.26726,246.38332,1.3459669,7673.35595703125
480,-291.4399,4923.133,1331.6035,-1087.1208,35.474876,-30.246305,4991.4501953125
481,4468.7344,6960.3496,-443.6779,-1044.0967,-125.73537,-98.72237,6776.93603515625
482,1764.0498,-4009.356,245.81837,487.17188,-3.8110657,150.26329,5258.4853515625
483,4974.6777,-2506.9414,898.16846,95.17333,229.39691,5.7434115,6502.21533203125
484,1415.8944,6427.644,3901.9922,970.0625,138.6744,277.76184,4685.1708984375
485,-4641.2944,-5470.2847,-4347.611,2975.9639,-620.46356,159.51459,5368.1728515625
486,1573.666,688.1303,19.825336,-273.56226,-197.55756,-57.12975,1474.44909667969
487,-4101.349,-4102.301,-1068.1908,2002.7559,515.6182,-246.62802,4713.39501953125
488,427.5404,-1899.445,-639.25854,-532.77594,628.2452,-98.150925,2476.89770507813
489,4044.3887,-395.68082,-140.2821,929.5014,-304.6888,-78.57355,4640.517578125
490,4548.251,-1526.6272,-459.72333,1381.0104,510.49377,506.17426,6231.6240234375
491,-11869.63,-15618.896,-509.0339,-3583.9016,-7.859632,-55.467815,14975.1962890625
492,-12082.496,-9305.425,-1368.0729,-1611.2032,-118.29803,-5.734242,10029.271484375
493,1844.3679,2142.369,-180.40836,1183.417,128.70436,-2.9321718,3007.16748046875
494,3674.282,-4108.0474,374.29916,-2101.881,-140.0502,85.94025,7688.15283203125
495,4285.026,-6009.8804,-238.75906,-4019.3745,269.68695,-174.71828,11342.5595703125
496,768.1997,1266.0842,1628.0574,118.46976,86.20036,-16.473066,790.155212402344
497,-5419.009,898.15845,-53.16165,-397.64175,-381.92862,212.23848,5987.40869140625
498,-5509.3667,3180.4814,614.1809,-882.09644,-146.46706,206.64241,7894.640625
499,4970.846,-580.1618,-652.92346,-3219.9004,52.323193,-17.867558,7895.27294921875
500,710.5192,726.4803,-3792.0881,-7864.57,2844.2783,-582.06006,15204.8046875
501,3929.7214,563.75116,2082.227,471.09903,-105.05701,-224.45352,3061.76953125
502,7082.2944,-127.1019,1833.4503,-1255.37,522.23444,26.09331,6872.61669921875
503,-8312.647,5168.3257,222.75943,-1193.8674,61.207844,195.88248,11996.9375
504,-197.60092,1301.474,-2158.2358,735.80365,-253.24797,-182.50105,3308.62475585938
505,-6021.8286,1557.5406,253.7722,-1698.622,35.15529,-160.69112,7615.90625
506,1183.263,7875.3306,2251.4355,634.4958,-340.74377,-5.1678724,6350.79736328125
507,977.3199,7533.0054,1178.2059,-289.54114,-476.36465,-78.66623,6530.79345703125
508,-2449.7415,314.86868,3409.8262,-4186.8945,-3086.244,908.30347,10460.3154296875
509,458.41046,2549.521,195.98117,259.22906,-144.13988,69.31414,2295.36962890625
510,1047.7178,1287.7174,-2366.0007,293.61603,67.722755,339.08478,3625.974609375
511,-981.92584,3468.224,1249.3073,338.8035,-315.3118,-297.2333,3969.96044921875
512,-2082.119,-653.7053,1055.2336,1450.132,-508.9708,1.4110667,3806.2734375
513,-2498.768,2761.1216,54.85261,-893.96027,-39.174477,-17.480726,4812.345703125
514,-1204.0205,1093.6307,1292.3292,2644.8203,18.907217,368.83133,5212.44921875
515,-3674.317,3180.1597,-340.86276,-1675.6254,416.36752,35.325764,6647.83251953125
516,2927.4812,1498.888,439.1118,190.78084,206.17015,-345.7884,2296.39111328125
517,-12102.782,-8403.033,-2535.2153,289.6098,311.62686,185.34067,8394.9326171875
518,1629.6743,-557.2089,-1418.2953,-1343.0216,-896.57526,574.229,4027.27001953125
519,455.3641,1505.3561,3197.3228,780.7729,-114.220116,-16.836021,2758.73046875
520,2117.0974,2947.875,886.60254,-1108.4368,-709.8731,-199.74907,2923.00048828125
521,1199.0989,465.22925,328.88947,-621.74054,857.22174,314.13806,2077.84228515625
522,3799.3691,5213.6143,841.3619,4182.9595,-3.1448238,-266.80798,8224.25
523,2072.1826,648.4661,-1832.5553,-141.20494,164.00241,-67.52447,3445.1259765625
524,1145.3796,1331.325,-4602.475,21.395897,-78.93309,-66.45736,5845.89697265625
525,-58.230076,2139.0027,-187.67241,2071.498,-366.9306,89.78205,4293.0654296875
526,-6124.368,-4567.662,346.85382,-396.16043,-243.38235,-306.1335,5929.24462890625
527,-4948.9956,-11550.497,-601.7013,-1255.5303,188.57372,24.8711,9798.7275390625
528,-598.5012,2493.6367,322.66943,922.33923,197.72406,-371.5032,3262.65893554688
529,502.32266,2399.5864,612.77496,296.7,-318.5278,-70.60141,1996.41638183594
530,2738.9797,2558.728,2858.287,1090.2308,-133.85716,66.91193,1923.85681152344
531,1726.9716,-380.24512,2142.7012,2574.2065,-288.71573,-41.7604,5062.02978515625
532,1485.8821,-728.3987,907.12463,2995.0564,328.62863,25.2718,5585.111328125
533,2471.654,-4874.9336,-63.301937,-370.47406,-135.44482,-12.316469,6499.40869140625
534,1493.2837,-3521.3667,315.97583,-328.80664,134.3887,-100.243256,4586.68212890625
535,7118.002,-2752.7188,427.61148,3304.3242,-2.6661086,-5.799883,10435.9609375
536,1283.8477,-686.36835,2617.597,2566.3647,-85.17988,-302.47223,5323.845703125
537,-12398.198,4244.955,-759.8545,453.28906,64.13356,257.10614,14818.0263671875
538,-8393.768,-357.83725,1230.8468,4440.1553,-434.5652,25.125736,11814.3984375
539,451.31543,1935.3811,2248.4968,-9.454221,-89.14489,-88.412056,1677.12109375
540,1235.8541,4687.959,4903.444,-504.5726,138.25322,7.2274117,3678.12670898438
541,-6059.8145,6880.691,-562.62,-3310.247,-168.72234,-0.71443826,12629.25
542,-4804.103,-4783.9204,-2029.8179,5436.2983,-37.02153,-347.53073,9831.96484375
543,-2910.6064,-4826.264,-1715.3353,4476.895,465.85266,41.58652,8256.6435546875
544,10550.381,-5018.1426,-2229.2688,1615.9294,8.602973,150.8965,14650.607421875
545,-6278.03,-336.2654,-1628.3683,-573.0853,-51.763187,-139.88516,5508.96923828125
546,954.15137,-13032.481,-1444.3187,-292.04715,-20.720438,104.3758,12966.181640625
547,2353.871,-13814.24,-2037.8491,-3913.78,-185.0292,-7.491117,15992.033203125
548,4530.406,-9676.368,-613.3654,-5751.321,106.34948,-5.856437,15952.4775390625
549,1102.2152,1072.3752,-1218.9606,1900.2532,337.93002,149.83499,4069.68188476563
550,2344.7114,1803.3877,45.994892,1264.0659,85.42574,-66.72173,3026.81591796875
551,631.95935,2854.1082,798.74475,2081.392,-173.50641,52.168865,4205.9716796875
552,-4716.198,357.5492,-383.73065,-760.07697,551.5764,24.675646,5017.87109375
553,3721.5652,2357.1863,559.86896,-1774.2461,40.340607,-60.028484,4123.54736328125
554,-11010.106,-8352.454,-2644.4497,-362.55246,263.40808,-21.163124,7444.33642578125
555,2744.541,5879.1816,440.09235,-2558.4404,-161.60349,-117.83698,6489.755859375
556,1625.9102,4159.4497,4224.6353,3115.2935,107.841034,-192.67978,5987.45751953125
557,-38.651943,4076.2837,1466.9905,790.2453,-93.000046,119.177414,3866.01245117188
558,9138.106,7067.275,2726.495,1377.3492,344.31897,20.888523,6178.0244140625
559,6870.0234,3497.7085,1158.7609,1173.8999,-368.86032,133.2924,5415.39013671875
560,-4982.719,-6996.5615,9.346682,-2712.121,170.62111,-218.42429,7831.1416015625
561,-5011.3237,-4343.6216,-264.72867,-2613.0308,-197.06032,99.64583,6358.990234375
562,-2162.647,-2207.1086,-992.63477,-2007.2438,87.448944,-450.22977,3760.46142578125
563,7.0702944,-3524.6265,-786.6705,2055.0825,263.3833,-92.44535,4817.0009765625
564,4924.0303,-982.4534,-69.97879,1799.4111,-101.94508,-259.66415,6346.39599609375
565,-507.963,7329.7964,-647.67944,1675.5581,-62.96683,-9.666976,8424.9462890625
566,2722.594,-2053.459,353.14865,791.5787,186.77716,66.637474,4371.0556640625
567,2106.3777,-250.98811,1921.1807,-98.13376,6.711283,-76.0274,2280.62744140625
568,5190.0913,-197.79791,508.88177,-2226.1775,80.41947,197.45161,6381.6298828125
569,-2798.9233,2051.8115,-1758.3604,4101.327,-3.6417503,-224.34686,8377.2666015625
570,1271.406,1722.998,453.71225,-516.3896,193.53505,201.82266,1508.76159667969
571,-4309.688,5872.8276,-2588.7844,-3039.1538,152.39513,207.66322,10818.0595703125
572,3656.729,3778.773,880.8325,-1621.9269,-112.38249,406.95132,4060.28759765625
573,247.66208,1923.994,-596.60596,1015.30524,797.74603,393.47418,3225.57690429688
574,-292.0649,340.0921,-1603.6124,1890.3026,22.780985,134.35765,3704.63598632813
575,613.7415,772.1661,-885.55206,1438.7104,-285.39142,-52.76734,2995.47436523438
576,2888.659,-1524.069,-1323.1868,-229.02446,-741.87726,-208.49484,4534.8642578125
577,-810.9485,-841.19794,-385.42725,185.62434,-97.42354,667.2148,1289.27307128906
578,-17405.66,1666.6715,-567.6975,-235.34158,2182.5962,-282.17664,18461.521484375
579,12798.906,4433.1187,-4222.341,300.185,-3306.98,106.26385,15824.84375
