Element Label,S11,S22,S33,S12,S13,S23,Mises
1,166132.36,161673.84,162903.94,3510.0552,-287.14752,20337.387,35971.4296875
2,44654.254,40095.742,80517.49,160.24579,-1492.5681,219.49675,38436.1796875
3,-10972.471,-5954.256,-45297.645,-1459.7417,-4174.6978,-6218.149,39374.15625
4,4991.5767,16868.596,32906.816,-2548.4177,4963.615,-6941.6255,28752.888671875
5,-45994.17,-58582.73,-25572.088,8274.054,-9107.805,4350.6475,36655.67578125
6,-31507.01,-32661.422,-68065.78,6943.1406,5190.417,3092.0583,39367.47265625
7,-120808.305,-126555.734,-147722.25,-2972.2888,-3734.771,-722.51605,25934.966796875
8,100609.47,104092.73,128338.24,3987.5212,-9075.433,-2898.2546,31692.626953125
9,-99249.54,-91067.05,-121142.914,1798.7681,-11341.653,8637.01,36671.72265625
10,71733.78,74361.305,58134.453,-9200.258,13134.389,536.95026,31621.4140625
11,89439.445,91525.61,117686.805,484.3912,-9714.173,-9366.577,35921.2265625
12,1284.4475,-10702.632,-17728.738,1707.9377,-1494.8936,-18646.4,36548.58203125
13,-5448.462,406.04312,-19521.748,-1687.9739,13149.363,13044.408,36775.80078125
14,27744.818,31115.139,32275.76,2518.3313,-14582.263,-8045.601,29457.869140625
15,43188.816,44501.766,43771.4,155.13745,-496.54504,-794.50964,2000.98657226563
16,952.6115,2126.1494,1180.9944,208.42696,-171.87524,-935.1751,2000.98486328125
17,54478.195,62853.242,73179.24,-8025.8486,-5145.2188,-14060.742,33600.95703125
18,-65456.98,-54778.918,-58153.324,-14811.693,-4699.0825,-14353.091,37839.29296875
19,-4976133.5,-4975218.0,-4977122.5,173.2997,-7.394396,-630.4963,2001.13208007813
20,11975.107,19024.734,-6651.1143,-825.0907,-3668.91,-9041.587,28559.01171875
21,232386.7,226992.53,260733.17,2421.926,-3834.4565,-4928.168,33467.7734375
22,32377.615,32855.668,32831.145,-1047.7792,249.44449,319.55032,2000.98486328125
23,37498.465,40590.668,24624.324,4516.6177,1790.4954,-5758.719,19632.125
24,-6872.214,3626.947,-12538.137,10778.933,-15200.505,8569.004,38260.0078125
25,-16065.211,-46929.76,-23137.736,-6197.3945,-10906.765,-4799.5405,36408.1484375
26,31354.27,4896.3804,5169.6616,12509.627,5107.637,-2121.817,35413.3671875
27,144216.73,117304.43,109084.68,-6907.1562,-434.84338,1732.6768,34143.06640625
28,67867.58,33055.63,63908.62,826.00525,-2577.9795,-4969.842,34435.578125
29,-29360.883,244.7252,-23788.543,3308.6758,-7888.2725,9607.644,35199.5390625
30,81812.25,84136.3,90798.51,15428.532,-2490.368,597.9478,28267.76953125
31,-137649.0,-125739.22,-138460.9,-7568.621,-4420.3057,3732.8337,20602.021484375
32,-144297.11,-161506.33,-152646.73,-13165.297,477.32962,-343.83694,27261.625
33,-94508.01,-87743.48,-110215.39,3935.0935,2501.028,-3511.2563,22381.708984375
34,60462.188,60805.71,59962.586,246.21165,820.95166,-648.3201,2000.98413085938
35,-287305.88,-264117.22,-267917.72,9497.268,-8100.8647,7851.622,33413.16015625
36,187557.03,179274.44,196135.1,5830.9336,-3031.6655,207.2957,18518.48828125
37,-1292.5068,-16047.751,-1758.8112,3213.7383,-6878.0923,-689.25006,19631.306640625
38,48749.105,47034.117,50321.97,1017.0213,-171.54567,-312.32416,3405.35546875
39,-56008.8,-55533.39,-55623.62,-847.102,-608.28357,428.1363,2000.98315429688
40,-94507.266,-94066.81,-93680.92,419.52777,211.71158,-971.01215,2000.98645019531
41,60061.906,60915.06,61020.89,363.30478,916.32074,-293.74976,2000.78210449219
42,69406.484,70590.19,71433.766,-159.66876,427.20654,-299.2298,2000.98413085938
43,1187834.6,1188141.2,1188130.2,-355.57953,83.19756,1066.0317,1974.87048339844
44,907665.1,907198.44,909262.1,109.5284,10.094108,389.1554,2001.03149414063
45,646116.44,646859.06,644923.5,-343.91315,-378.70087,342.83386,1999.54345703125
46,36035.93,35001.844,45653.133,3802.7131,10875.487,-6919.662,25403.94921875
47,221082.8,222650.94,220900.06,-492.4377,-31.943455,-405.96735,2000.99572753906
48,31176.232,60410.508,31753.334,1622.0677,759.39215,3158.7134,29625.3359375
49,-13999.803,-17010.232,10897.785,-5858.1987,-6889.989,1948.0714,30994.53515625
50,3858.0679,28400.74,3910.319,-12081.089,540.3506,-1852.6191,32405.1484375
51,19991.621,15612.166,1437.6067,13071.23,4274.2437,5153.6743,30483.34375
52,49103.867,74048.27,72756.766,5689.645,-7577.6196,9286.163,33462.68359375
53,37661.57,41206.902,33935.918,5464.638,10602.002,-15460.795,34402.92578125
54,-16949.156,-13810.632,5777.383,-5493.112,-2578.0547,-15780.2705,36228.8671875
55,26049.703,5832.626,29633.055,-8042.961,4537.1836,-14506.154,37163.515625
56,12946.827,-18099.877,18570.39,8546.139,3206.4246,-528.0232,37694.890625
57,-5655.4595,-5753.0303,-33032.54,11049.715,-3799.9236,-3862.7234,34658.5
58,-17325.688,-12144.78,-20325.172,252.19017,12083.64,-15044.327,34184.90625
59,-6668.8916,-27534.865,-11972.413,14922.598,8928.795,3162.6982,35917.7265625
60,112611.6,119404.32,125347.71,6538.438,705.89136,642.02985,15900.3671875
61,45028.98,25438.045,22442.79,3748.6033,-707.8071,-8313.629,26504.046875
62,21537.93,25219.41,13493.228,5573.6147,14529.712,11660.701,35246.78515625
63,-82660.48,-71693.28,-91297.17,-13447.145,10305.165,1622.12,34037.515625
64,-37920.45,-17913.955,-19750.799,1929.2927,4743.912,6187.716,23673.3828125
65,-9756.3,16092.437,19031.596,-8966.664,6132.7,2572.6548,33565.73046875
66,51108.266,39547.625,52489.934,-10766.008,9771.655,-9557.59,32553.794921875
67,133217.98,164803.31,154100.23,-1705.037,-8864.368,10169.797,36453.46875
68,-117189.31,-120749.72,-86648.766,-6178.354,-109.33567,-1096.311,34238.80859375
69,-42089.746,-16442.848,-34089.188,5999.7964,3390.9033,266.83453,25676.521484375
70,-124161.19,-139234.66,-142293.72,14268.095,-3093.6992,-4823.1772,31494.69140625
71,-278780.97,-278552.1,-277876.5,-937.20337,-237.83958,-422.59213,2000.98547363281
72,-87085.27,-72440.45,-90506.03,5213.1494,4552.761,1988.9797,20781.013671875
73,-39674.293,-41028.66,-39772.355,619.3899,-265.62927,554.78973,1999.27416992188
74,418463.9,419397.5,418886.44,439.2671,745.6956,605.74176,2000.86962890625
75,34254.17,34348.23,36147.81,49.76982,335.68362,283.94174,2000.98596191406
76,551930.25,552610.4,552384.9,-158.25052,-584.1607,-921.0641,2000.99731445313
77,1669.3561,769.9912,855.9036,-265.36847,-997.6816,150.11588,2000.98547363281
78,29251.27,27568.08,32700.967,-890.7133,1357.0323,894.90106,5554.0341796875
79,22536.615,21255.154,22622.182,-571.41986,122.74885,637.7215,2000.98571777344
80,39850.613,41431.125,39727.93,-583.81335,-127.162445,-274.43744,2000.98571777344
81,5025.6094,5459.6064,4578.0347,-140.05867,392.88004,-983.0403,2000.98498535156
82,1760.2252,2233.9426,1224.276,185.14288,367.98907,953.82086,2000.9853515625
83,-14726.009,-33423.617,-15352.429,-1248.0979,1009.9898,-11509.713,27265.9921875
84,-10736.748,-9657.888,18438.133,-641.764,6294.088,4267.57,31552.82421875
85,-165.04594,-5943.5947,12205.56,5989.5664,-4055.8274,-2977.6182,21011.4296875
86,12638.259,757.1421,29068.266,-973.7827,-1935.8395,5023.0996,26383.60546875
87,-32541.703,-56090.508,-29350.916,-844.25195,786.5819,6.1272526,25374.41796875
88,-101735.2,-93544.664,-82685.84,14324.242,-2648.7244,5366.3013,31574.18359375
89,35074.723,30262.488,45029.617,-17150.69,-2437.512,-10172.52,37160.0078125
90,12160.551,7898.1187,-16710.412,11601.937,3958.5107,6511.496,36147.796875
91,47803.926,47611.8,46497.23,-156.0845,730.2349,528.46234,2000.98706054688
92,30090.076,29530.7,26413.139,-2782.9128,8.803961,1227.704,6287.43115234375
93,6776.518,8833.761,7606.411,213.93004,321.29962,338.26053,2000.98413085938
94,25491.982,25160.84,24778.102,-1046.7291,-225.6806,245.85602,2000.98498535156
95,-58285.707,-49907.254,-64306.46,6175.2915,-9243.89,-6710.673,25743.796875
96,15350.711,-7374.576,9965.295,-11674.269,2550.665,-11757.053,35582.640625
97,434080.6,435129.2,433777.84,429.03604,-612.3754,522.1666,2000.96704101563
98,111239.27,115015.06,100267.3,286.42728,487.0664,-17076.32,32431.908203125
99,-17689.074,-41730.27,-28522.488,9210.416,-6317.109,-12137.208,35370.07421875
100,58937.91,64944.426,44866.766,-10939.944,-10345.234,-2400.1912,31874.68359375
101,107566.81,85845.0,107209.805,-3685.7578,1859.7755,4426.1167,23960.6328125
102,94218.84,80838.74,92005.69,569.3102,-8362.911,1566.8872,19299.365234375
103,-99763.984,-73579.875,-67373.984,-4624.686,339.5442,93.77407,30840.748046875
104,58669.293,55530.527,60828.645,-1006.3676,-7347.1875,2401.481,14267.9892578125
105,37973.547,38489.336,37924.61,781.9152,-142.88628,777.77747,2000.97766113281
106,32963.78,32705.578,32184.584,1021.77234,354.83942,84.62147,2000.97412109375
107,10941.623,9532.651,11225.755,-437.82974,-223.16629,-520.63495,2000.9853515625
108,-100153.12,-100126.2,-100087.805,-1019.9405,109.954445,530.25464,2000.96179199219
109,-67501.625,-52118.535,-56854.676,3308.9673,-10169.067,-3678.4272,23872.244140625
110,52056.99,39025.574,80876.66,1972.9303,-218.06596,2164.0706,37440.91015625
111,-105282.016,-69780.125,-87412.5,4957.795,5679.9956,3607.4583,33983.375
112,77550.23,69627.05,73331.43,4121.661,19977.498,1150.049,36046.9453125
113,63783.273,40930.26,55397.816,-13943.141,6164.0947,-4419.514,34011.19140625
114,-30379.828,-47209.082,-18822.498,987.70575,2699.0303,6170.6724,27391.77734375
115,272726.94,271025.06,287764.3,4706.1694,-10212.191,-6603.6104,27654.013671875
116,31681.184,31577.502,31723.883,1144.4006,-125.6576,59.481937,2000.98547363281
117,362886.3,376265.4,371037.56,-3250.8293,-5427.437,1651.891,16267.9990234375
118,318002.78,319868.84,317854.34,-267.6943,50.547363,-3.0050013,2000.97204589844
119,920955.25,922381.4,921780.9,342.00885,195.07333,814.0792,1997.82153320313
120,-99519.91,-103265.02,-90248.4,-13633.89,13395.326,-1487.0654,35175.23046875
121,25349.363,25572.566,23597.65,-180.07404,254.58542,-260.07327,2000.98498535156
122,139586.25,140722.66,139765.94,109.38367,969.8336,94.52727,2000.98498535156
123,-25793.516,-42641.96,-45708.918,15286.99,-2588.4492,-6266.953,34408.578125
124,56536.87,81052.36,48403.613,7674.541,4924.4707,7604.6978,35909.484375
125,871205.0,869780.8,871609.94,83.252144,53.63147,599.7126,1969.10595703125
126,40647.57,42389.387,40729.223,398.65897,332.1784,315.04092,2000.98352050781
127,12719.001,-18250.146,11830.938,6858.8096,-692.0065,2072.4058,32982.1953125
128,34502.43,9222.837,39910.418,5711.9507,9995.129,-3573.6663,35226.640625
129,-26966.08,-4651.5825,-32086.555,-5004.9316,-9969.118,-11834.565,37840.265625
130,36030.3,35495.656,36142.68,-514.00214,-326.67233,918.81195,2000.98522949219
131,4251.7705,2889.593,2977.8513,-385.2713,238.6192,-740.4347,2000.98559570313
132,19229.312,27858.852,19941.11,2017.0078,-174.94589,-2862.7673,10281.8388671875
133,9038.785,10137.584,9310.368,-162.85527,-595.9237,790.84357,2000.9853515625
134,2135.5186,7016.9897,2334.2622,-5155.394,1136.4794,-785.77704,10409.5849609375
135,-995365.4,-996263.25,-996082.3,175.55615,293.00403,-996.15326,2000.85900878906
136,45616.406,45520.97,46526.254,-171.89125,-997.7231,41.502113,2000.98120117188
137,727611.6,729509.75,729376.9,122.41341,329.73572,296.46573,2000.78198242188
138,451422.97,450729.72,452841.12,223.99046,306.82947,-178.45523,2000.84631347656
139,91594.625,109729.99,119883.68,-3231.7869,-1106.7369,3975.3643,26430.0625
140,-183686.12,-187862.25,-169873.95,-10999.495,-72.89369,-3601.7302,25841.77734375
141,106709.17,90178.47,81521.49,5645.4805,-11794.913,-8675.492,35072.49609375
142,-93298.914,-76004.11,-61640.535,-8908.699,-12262.119,-3887.5762,38579.15234375
143,-14570.381,-6230.214,-9083.98,11014.935,14087.756,4426.053,32742.2109375
144,-19944.545,585.771,3024.0583,7833.367,13162.4375,-2316.1265,34603.8359375
145,20756.53,33843.984,26562.53,-10749.841,8266.521,-11421.1,32741.615234375
146,-18992.084,-17006.432,-18022.31,-13427.892,5730.5913,4519.172,26526.783203125
147,-44873.492,-58264.832,-59504.87,1731.3315,-7963.9087,15426.149,33326.171875
148,157627.95,162580.22,158708.61,-2624.2153,-14258.774,10993.2705,31835.427734375
149,12417.268,-6423.3086,-3031.679,1816.4095,9878.15,13137.632,33511.1015625
150,1514.252,-593.6421,1071.8516,210.66545,-205.56738,-111.99281,2000.98559570313
151,-9366.384,-33059.527,-17155.928,-8950.024,1806.6133,7001.032,28889.912109375
152,-55167.086,-63360.79,-50100.836,17340.092,10769.016,-2790.8284,37518.43359375
153,15535.093,32936.785,23287.361,4949.2603,-11700.565,-14549.537,36705.26171875
154,32364.648,57841.43,40321.05,-14788.408,-3976.7822,-1720.455,34958.296875
155,11320.334,11355.1875,11350.454,-352.8634,-475.18,-991.95844,2000.98547363281
156,37073.742,36767.133,36065.723,-226.138,-848.5353,-544.5005,2000.98425292969
157,-23720.06,-22740.389,-21675.95,-382.5153,284.36734,249.52864,2000.98266601563
158,27107.111,26474.83,26971.678,-995.5258,447.20663,180.96494,2000.982421875
159,61934.047,61545.36,61593.61,805.33344,-794.60925,-98.98785,2000.98608398438
160,6935.4595,8272.958,7027.9688,-853.28973,208.73856,-71.153725,2000.98559570313
161,10796.083,10075.266,10755.911,10.533611,-370.75024,-1016.36725,2000.98522949219
162,-12683.102,-12879.243,-13264.484,-185.37126,-1019.62933,-416.12482,2000.98559570313
163,8145.017,9922.179,8369.512,609.25183,-163.92076,-3.3279507,2000.98596191406
164,42860.203,44917.49,43450.766,-452.5104,-73.256226,-49.385014,2000.98571777344
165,-71150.63,-73360.555,-52195.43,-4952.7593,-1493.5375,-15541.935,34799.5625
166,46864.805,54489.3,29618.236,-4436.8486,-7258.29,-11234.747,32906.4921875
167,-58740.418,-40914.266,-56770.12,8417.375,7728.3457,6324.2793,28253.478515625
168,23000.037,22786.264,21737.32,-324.37744,-266.2279,837.742,2000.98645019531
169,54758.316,56025.95,56164.906,318.7601,-754.2802,251.5989,2000.97338867188
170,1713.5245,2123.555,2917.4563,-231.46593,-544.498,780.9933,2000.98547363281
171,-42452.008,-54236.13,-31095.594,-11117.136,8904.2705,174.6088,31786.486328125
172,-18498.045,-11003.102,-11148.195,10284.52,10292.097,-327.87387,26277.861328125
173,66569.02,55090.32,78211.03,-3955.5042,4657.605,17104.67,37291.54296875
174,12843.767,21886.088,12134.128,-1992.2546,2532.0654,-2645.4397,11866.7724609375
175,-44890.312,-49151.15,-79028.61,4050.3179,-2356.9702,-1260.5487,33298.17578125
176,3267.609,3904.196,3783.512,184.93805,985.0157,464.6034,2000.98083496094
177,19003.033,4734.904,36360.54,-2022.0071,-8155.706,1190.5927,31122.119140625
178,-74076.8,-63422.918,-88710.69,5452.3716,2954.3176,1598.7656,24629.267578125
179,-75492.06,-74502.51,-74948.71,-44.47384,293.73602,-1000.39685,2000.98254394531
180,19493.693,16123.061,45254.812,-660.00696,4574.3545,-10614.976,34116.58984375
181,29617.953,30596.504,29851.373,-500.18063,713.5533,-560.44415,2000.98559570313
182,-39125.363,-40501.652,-9522.434,2047.1027,7787.183,-7315.033,35693.015625
183,12749.541,39867.402,19298.977,-2891.8315,12732.868,-3920.2122,34032.87890625
184,-128246.81,-127732.35,-129641.35,57.446854,595.6155,-30.520002,2000.953125
185,-43935.688,-44521.305,-43633.758,-296.17987,-166.89975,1007.6721,2000.96667480469
186,-21921.162,-59660.805,-55418.35,6489.5557,-672.9344,-2725.8584,37843.92578125
187,-35906.04,-41187.688,-66474.914,-5335.1304,-9846.473,8634.456,37427.38671875
188,347809.47,348730.38,348231.62,-776.2746,616.97754,-372.66757,2000.98767089844
189,-16070.7,13113.529,-19807.676,-4231.6655,-9609.893,2092.8813,36313.3125
190,-66390.67,-81547.69,-89274.02,4179.115,11127.405,3760.1257,29543.318359375
191,85221.52,76025.46,108728.32,-7855.187,8138.3604,-3762.548,35771.328125
192,-145368.62,-155385.19,-158010.8,11350.778,7863.112,-1653.7921,26715.83984375
193,10234.778,8458.146,24981.883,-6643.7573,7072.3877,-2624.0652,23451.33984375
194,33123.73,9237.868,36476.406,-5996.823,-4885.111,-12862.95,36574.6015625
195,131240.48,136765.75,128200.02,12.137261,-186.3518,-1736.4385,8106.947265625
196,-32636.191,-42750.965,-38382.266,-4440.8965,916.07623,-2209.3516,12390.79296875
197,17489.07,27714.082,25521.318,-9157.895,-9490.517,1085.0562,24744.30859375
198,36216.902,39256.586,43601.92,3913.72,3451.9045,-3720.3027,12827.7265625
199,8924.484,10471.583,10803.916,143.0779,528.85626,168.67197,2000.9853515625
200,-15290.507,-14951.264,-15250.78,-225.76646,-382.58124,-1050.1965,2000.98522949219
201,12953.585,11180.789,19094.21,-4937.8228,245.65417,1165.9451,11364.0556640625
202,6342.2993,-6436.5366,-15911.178,1101.9629,-9594.193,41.533512,25572.173828125
203,13453.154,15182.306,14151.871,693.4108,84.60882,300.0133,2000.98425292969
204,23186.287,24143.934,22743.281,465.1677,-712.3938,313.42252,2000.98547363281
205,3004.5964,5047.3564,3700.88,493.8112,37.689415,-104.54724,2000.98474121094
206,9039.552,9304.371,9974.183,46.833324,422.30878,-960.2236,2000.96423339844
207,2063.4849,1496.108,2595.8474,-552.6362,727.7784,-443.9819,2000.98498535156
208,93253.58,92723.51,93490.8,-623.07,308.77606,-834.7218,2000.98681640625
209,21183.244,21562.188,20754.492,772.7337,-757.76886,-4.112434,2000.9853515625
210,14964.0205,13243.339,13286.437,-437.97775,285.6893,-313.67145,2000.98559570313
211,1066.3951,1900.5842,1094.1301,-232.13922,629.50696,-812.34015,2000.92395019531
212,19779.69,20453.969,21460.635,-290.8765,447.59326,578.01276,2000.98620605469
213,64333.215,63631.434,62867.008,46.85209,-355.60632,817.4535,2000.98645019531
214,-151341.47,-150914.78,-151969.81,585.87714,789.887,-292.93552,2000.98449707031
215,9399.461,8950.455,9466.633,652.2097,-910.9573,25.815052,2000.98486328125
216,48839.113,33160.74,44869.24,3235.77,-7964.2744,3514.1501,21402.74609375
217,1650.4757,-811.2185,1796.108,970.50836,-3539.4243,187.918,6852.28564453125
218,10719.5625,8881.346,8981.322,-467.6813,29.38687,215.9596,2000.98522949219
219,1526.928,2300.4768,827.8928,-339.27316,339.2115,749.5921,2000.98547363281
220,1160.1451,1049.6616,181.83371,-77.010315,-702.62427,740.2468,2000.98559570313
221,-33945.29,-34902.32,-54335.27,-7491.1094,7956.5015,3701.3135,28222.693359375
222,-6739.5903,-7475.235,-8694.246,618.56067,-612.26685,788.08356,2656.99291992188
223,2251.0432,3737.5774,3922.3818,-535.3325,-113.520515,-541.0248,2072.48193359375
224,19356.16,24878.465,28169.215,-3250.4602,1548.0293,7422.7344,16238.04296875
225,21427.91,15910.422,32195.701,11487.202,-4880.207,8841.769,30127.171875
226,35245.22,43264.414,17035.662,-7244.599,-5132.2734,-13777.787,36713.4453125
227,-6540.956,17642.219,-2338.409,-4037.8328,2703.2683,3477.302,24656.9765625
228,61510.707,53079.754,47173.61,8875.381,7051.0273,6965.23,26206.28515625
229,-24409.15,-48276.652,-67860.66,711.4753,-5990.3486,26.136517,39112.47265625
230,15067.951,44176.11,18331.91,6471.2847,-2782.3613,-1044.3408,30249.953125
231,16869.014,12021.201,4289.8433,-10118.739,-7266.0596,-1207.4056,24303.95703125
232,37232.59,30281.043,50853.395,6389.804,14965.482,-11514.208,38995.546875
233,-77263.586,-101254.15,-107162.78,-357.46353,2518.8284,7448.2144,30627.68359375
234,33458.645,24002.47,7965.137,-12007.131,-1069.6692,-1428.1656,30664.837890625
235,16272.519,28896.473,19827.928,116.8447,8338.688,9693.409,24852.576171875
236,5748.6187,8363.652,972.8848,-895.1817,402.36426,-14773.3,26453.2734375
237,61691.42,41182.457,66137.016,-9327.749,-816.7735,9138.074,32327.86328125
238,86513.21,117845.47,106245.49,-3456.473,1260.1707,7064.3296,30710.525390625
239,-2347.1887,-1120.7859,-17415.703,-544.4458,-16389.934,269.94263,32466.009765625
240,-59115.85,-73296.65,-54150.504,1760.4604,1972.9945,-16637.97,33876.30859375
241,-85584.01,-61130.688,-96073.766,-3528.8975,-4614.927,5882.0264,34198.7734375
242,-11359.653,-13941.353,12507.017,-3287.6626,-10135.631,1758.5328,31429.2265625
243,96750.08,82893.96,69648.53,-1570.1238,13876.484,4474.4805,34584.57421875
244,203837.7,227666.84,220795.94,1587.1989,-11100.254,-10924.7705,34446.56640625
245,-13961.576,1851.256,-27413.727,8078.57,-3181.257,444.94888,29503.6875
246,249541.1,264942.72,284550.62,-3059.876,-5111.209,1434.6537,32191.771484375
247,-29626.373,-44982.805,-61230.355,10219.954,656.1162,-5997.586,34232.359375
248,-99489.234,-106139.766,-119466.36,9756.503,-4003.0486,4246.125,26423.220703125
249,172927.23,161766.97,147452.62,-6630.254,6275.711,4129.2017,28113.861328125
250,226427.4,225914.67,211253.34,2486.212,-841.3354,-3843.8853,16962.560546875
251,270536.9,270890.78,270622.8,1084.7676,312.8892,-161.11966,2000.98645019531
252,375965.38,375942.53,376394.12,-12.946994,1037.0317,-440.8207,2000.9794921875
253,313877.47,314811.4,313962.5,754.3971,231.98555,667.11145,2000.9912109375
254,422593.5,423017.47,421170.88,-148.0073,42.656757,-605.3581,1994.31994628906
255,72686.02,71994.13,73157.46,-317.4856,-331.47015,-884.0148,2000.90087890625
256,495901.28,496797.9,495873.5,-706.1245,-406.12875,-628.14636,2000.99438476563
257,467285.78,467172.94,467290.88,802.80365,35.035744,827.3334,2000.98474121094
258,740624.94,741381.5,740600.9,253.94405,-450.0693,-933.0245,2000.98083496094
259,495546.4,494538.16,496312.4,-303.91034,-618.77106,-257.26434,1999.97888183594
260,620839.25,621277.8,619712.0,-144.771,-219.3043,-783.01324,2000.97155761719
261,308407.2,309790.0,309562.9,640.10736,73.61708,607.93274,2000.98254394531
262,19618.05,19541.482,18967.744,-7.09983,390.64807,1027.4575,2000.98596191406
263,18656.73,19309.559,20486.729,751.1188,2343.8486,888.364,4808.47119140625
264,186456.72,184601.22,164992.44,3697.923,-7780.5967,2356.999,25761.10546875
265,-49450.93,-26665.521,-63235.594,3482.93,7193.759,-8351.278,37737.984375
266,498668.8,482736.25,503233.75,-665.6947,-14611.486,-2569.0374,31765.26953125
267,-13288.773,-2683.3472,-16145.417,-3187.0903,-722.9224,20060.363,37285.73828125
268,40064.984,62176.066,76304.5,111.38285,1661.4457,5197.647,33019.27734375
269,51093.016,27344.39,59978.684,-9061.002,6530.562,2004.9154,35217.6640625
270,-15603.388,-24160.43,-17022.664,-1246.5728,-10453.905,-1619.1343,20086.6015625
271,6054.341,-8772.059,-9586.825,-1137.7239,-6653.3857,18673.906,37621.75390625
272,23442.984,772.8845,37093.184,6611.6206,3980.629,11271.303,39617.12109375
273,43091.49,46098.293,31673.703,-10295.646,12959.666,-9217.631,35362.29296875
274,-1718.9541,-26118.357,10582.07,5374.8354,-4178.3735,6575.1484,36270.16015625
275,-23485.295,20126.59,-4173.953,2768.2502,-3967.9355,-5123.5776,39770.55078125
276,-68943.586,-87382.09,-81647.34,-2738.105,-18108.219,-3527.1719,36203.078125
277,57140.375,54335.727,38561.383,-7230.558,-2860.4202,-9951.251,27917.888671875
278,-48186.28,-66371.29,-56615.57,-12878.173,11647.522,-11061.05,38987.66015625
279,30323.443,63931.074,67802.78,3253.7874,-2848.1262,4965.447,37478.60546875
280,-24525.93,-30415.17,-34740.473,-5847.7847,-17233.78,12810.754,39557.67578125
281,-91558.99,-81653.125,-119399.83,-465.07147,-8035.8374,-4813.6626,37588.734375
282,-164868.08,-148662.61,-179388.6,1472.4288,-6821.098,5367.7705,30680.603515625
283,-4369.4375,-21239.729,-45625.883,-2498.3362,4227.351,-1072.4653,36965.9296875
284,12280.007,31985.277,-1186.291,3043.5798,2507.278,-8849.912,33415.6875
285,-48882.46,-14857.664,-5500.1685,-1989.6633,-388.52103,106.43989,39698.859375
286,-164580.36,-160289.55,-159671.25,-8356.636,16158.224,-3955.0476,32575.1171875
287,11511.823,11264.741,11175.339,1090.7072,227.03238,251.12814,2000.97119140625
288,373.45105,1180.3524,1410.6022,-647.4651,280.09714,735.08563,2000.9853515625
289,12238.993,11191.375,10977.903,-252.33714,-781.2998,-452.7403,2000.9853515625
290,22485.074,18204.56,12012.763,-1695.1433,-7409.097,1314.8411,16175.794921875
291,20414.113,26443.059,20728.906,-5153.078,-7373.7305,3027.2861,17459.126953125
292,-13366.405,-4306.869,-12594.603,-7684.9824,-274.33038,-9805.91,23271.205078125
293,36131.727,45564.562,34814.01,-15045.336,11699.651,-6978.5835,36592.0546875
294,-120885.45,-156601.86,-145960.44,9254.721,-2120.024,-1391.4865,35847.875
295,-400220.88,-376491.66,-386358.53,-7396.1387,-11456.774,-9003.308,35033.671875
296,-64226.836,-79849.05,-103766.0,-2618.373,8940.871,-2756.919,38378.3359375
297,53971.312,55620.99,55837.156,279.1304,224.17235,-405.8637,2000.86059570313
298,-135231.6,-129548.59,-141943.88,1491.0508,2267.5093,-1937.1854,12200.3955078125
299,8349.658,7865.83,8070.9277,-294.98248,-1061.6167,-248.25153,2000.98559570313
300,9790.6,11467.613,10316.443,320.94775,-669.4362,-218.66809,2000.98559570313
301,35143.17,28505.889,32681.29,18193.48,-2514.0005,13054.323,39458.69921875
302,64016.65,55067.06,37176.305,10527.652,-7921.191,10512.905,37584.34375
303,-69360.52,-73993.16,-104561.88,-8966.029,196.01402,7604.161,38887.99609375
304,-52057.5,-79514.734,-71570.875,3111.9443,1729.2148,16083.747,37589.51953125
305,-52135.594,-23018.275,-35304.145,2945.379,4160.9966,8948.514,30971.34765625
306,11557.091,16294.523,3614.3525,15536.7,236.46588,-16.562954,29111.755859375
307,684124.9,684916.2,685896.9,288.95535,558.7259,-388.56174,2000.9755859375
308,-5010.6904,4241.0312,-21309.256,381.19644,-913.9174,2587.688,22914.1328125
309,111095.664,112265.484,111475.48,638.45294,9.221096,755.4978,2000.96911621094
310,-1883976.0,-1884092.9,-1885953.8,26.15115,-320.3097,5.1501527,2000.98266601563
311,-340816.12,-326092.4,-356910.3,4903.5996,8348.461,3876.2476,32234.751953125
312,304338.44,304800.84,304358.25,-961.9192,-197.3131,-548.71747,2000.24645996094
313,-26604.195,-12499.801,-14294.777,16921.543,-6044.8296,-9878.1455,37923.7109375
314,-4961.09,-6661.0234,25988.834,11625.485,2855.0154,-3287.4695,38415.25390625
315,58497.67,79921.27,92995.836,-8126.8003,-11090.256,-5633.616,39652.84375
316,121333.88,137334.88,109207.81,-899.73834,5003.696,9649.955,30887.001953125
317,-19598.008,-10717.405,-22628.883,-9513.281,-9561.335,4937.945,27090.259765625
318,-97464.99,-96845.06,-106269.76,-389.79153,-6443.0845,-431.08258,14454.060546875
319,25899.873,21993.602,24263.27,-2588.5273,-88.15692,-1866.3561,6489.91552734375
320,-73867.61,-72393.55,-73278.82,862.5303,198.81918,24.91657,2000.986328125
321,101163.15,100568.1,100762.305,-1086.1466,-250.25156,15.054708,2000.98388671875
322,-72322.82,-71867.71,-71315.38,626.7721,-807.2289,-188.83905,2000.98132324219
323,-5282.1606,-6232.368,-6222.863,257.3817,-866.31055,468.9605,2000.98522949219
324,87969.4,86755.11,87135.62,-674.1462,-582.26355,323.42075,1962.53723144531
325,19666.031,18241.822,19106.104,-240.56363,-865.1022,116.46161,2000.98571777344
326,3623.8699,4481.1055,5494.0264,-435.28052,482.13174,-190.62071,2000.9853515625
327,-47527.098,-66405.35,-44118.88,8909.623,5386.104,9265.149,31859.8359375
328,9909.637,-21094.76,-15157.583,6567.7695,10347.453,1627.2405,35651.14453125
329,27578.035,21502.54,5922.3076,8800.217,-11604.066,-9844.084,36073.88671875
330,126075.65,96975.555,132208.42,-8768.724,-768.7986,3700.145,36556.921875
331,145510.98,174130.25,143518.06,-6391.285,6612.2964,-6261.8306,35375.33984375
332,109777.09,110963.41,134112.62,-4096.9497,-6683.789,5872.6523,29199.21484375
333,315251.28,314392.4,316623.1,-166.83675,-11.273967,202.01114,2001.01513671875
334,268393.84,266937.44,268770.22,-512.4446,26.314346,-366.60208,2000.99951171875
335,497576.7,497777.94,498943.84,-264.94272,57.428272,846.3753,2001.00207519531
336,4165.3096,2853.649,4785.3086,-423.81763,-358.11322,232.56671,2000.98522949219
337,58791.668,50285.914,56519.445,11207.102,18297.771,1266.4414,38002.87109375
338,-5280.9126,30761.727,936.4658,3545.1072,-9428.478,5245.1875,38737.125
339,-26762.57,-22797.406,-21850.822,-5525.544,2417.7644,3513.1934,12904.6953125
340,-15847.311,-40003.973,-30828.229,-12608.651,1244.089,8333.439,33704.58984375
341,-24572.22,-27971.29,-60270.67,-8319.089,3901.0872,-1125.7369,37705.046875
342,25625.115,11290.72,-3025.2725,-12102.902,-7495.5107,-4353.3403,35783.75390625
343,17869.916,18142.97,17644.39,113.51708,770.5557,815.8864,2000.98474121094
344,-10607.362,14427.126,21442.686,2656.8052,-339.9365,1821.9872,29716.2578125
345,32114.465,31157.883,68472.7,-2740.0637,2392.2017,-2829.1282,37700.39453125
346,-33505.957,-13507.678,-50373.47,3707.2378,8094.8247,-7789.0557,37968.18359375
347,3369.9436,-925.5108,-36371.355,-289.15747,5950.329,-2986.4663,39501.1640625
348,-15954.487,6341.164,5481.0527,2040.2874,4189.2563,2366.1758,23676.853515625
349,-17142.479,-18489.654,7968.03,8092.8306,1114.8258,1200.9583,29507.931640625
350,31437.127,31459.188,33223.348,-106.140396,131.76666,505.43167,2000.98327636719
351,21677.664,33234.023,3654.5781,-4415.737,27.977655,-443.9521,26939.787109375
352,-30933.39,-33961.17,-31107.484,9188.95,-11547.827,-3319.6204,26364.705078125
353,23682.479,34390.816,16260.471,-6746.665,13246.169,-14733.583,39539.890625
354,-14401.876,6436.1704,613.0002,-3981.0227,8993.669,12063.184,32765.150390625
355,4186.8105,31185.48,20590.682,4531.3447,14655.4375,8748.556,38609.44140625
356,42859.33,52777.74,46735.91,2955.8267,-4824.6045,722.0417,13136.1494140625
357,-6008.0117,-22232.479,-33125.023,1152.7458,3815.8838,11833.176,32036.66796875
358,10524.385,27014.855,18543.812,5515.7334,-1599.7754,2951.5693,18140.720703125
359,-1892.0742,8009.2217,4388.8403,391.21124,1093.0774,-2072.985,9603.736328125
360,100194.75,113607.37,138964.36,-511.87787,-11425.724,241.5335,39440.859375
361,1323.0024,7315.969,12259.085,-3264.6426,-396.54437,1139.678,11239.0380859375
362,-321916.38,-319111.66,-320630.3,-1115.2156,-6490.895,9030.815,19511.701171875
363,-9239.531,-17896.178,20880.795,5308.26,-5598.5815,-3180.597,38102.83984375
364,-8420.106,-1410.3838,-951.6465,969.9742,-945.27203,-3823.5,10095.6865234375
365,85910.44,63262.38,97572.055,-4395.056,-5982.7285,-1948.4741,33011.5
366,-40072.848,-39309.355,-64045.723,-7024.377,14593.137,7474.0166,39345.546875
367,-32833.723,-50664.594,-52152.73,-6774.388,-9365.775,75.10867,27341.11328125
368,2776.3936,21470.23,-2430.331,1583.4078,-1317.7764,-3926.9036,23084.541015625
369,28440.531,32844.715,22406.865,5785.882,1192.4514,-3018.7302,14642.69921875
370,16327.826,2697.74,13.233398,1800.071,-523.77875,-277.0715,15503.224609375
371,2769.478,5782.9385,6215.862,1140.2722,-838.17804,380.5247,4125.0029296875
372,13153.242,7733.6797,-1007.88184,2892.1826,630.6167,392.23624,13413.0810546875
373,-6747.8774,-4020.1807,-6220.649,-379.9191,1163.275,122.58463,3289.05810546875
374,82958.76,68062.78,90141.09,-106.06982,-5223.4854,-2577.3171,21960.869140625
375,29489.875,37491.14,23761.328,14702.999,-2445.5215,1287.0193,28532.74609375
376,-654.8252,-22349.441,-24675.977,2339.221,-2636.34,-527.8712,23762.26171875
377,3361.168,7926.656,4280.1294,5435.254,-2790.143,-1089.9603,11534.181640625
378,51105.71,72270.914,48033.81,-5123.708,-9636.436,-1635.1536,29795.650390625
379,1330.0488,31086.256,38283.5,-1794.5032,-9499.774,1020.8724,37880.328125
380,-13533.547,-11154.998,-32369.27,3548.4136,-3462.294,896.28076,21940.595703125
381,11299.498,4548.382,27811.35,3885.9297,3761.3977,3200.0083,23412.775390625
382,-979.37744,13557.239,8680.782,677.44885,2073.8254,-4849.726,15781.142578125
383,-11980.858,-1615.8398,-5821.0254,7558.4624,742.3734,-1618.6602,16199.8447265625
384,12888.963,8284.967,-7641.6357,4930.2944,1530.975,957.9987,20757.837890625
385,-1430.4326,10397.61,21849.035,4473.954,-4743.1396,-931.62085,23165.283203125
386,17616.896,-4959.4297,19775.596,-8699.07,-2548.664,7094.3545,30993.291015625
387,22175.404,36043.66,38402.496,949.3093,2770.707,4993.6216,18197.482421875
388,-204875.61,-204361.62,-205331.5,-10.142086,-421.204,953.6397,1991.77563476563
389,-66373.45,-58255.21,-91454.83,-9224.997,-1688.2223,-888.3333,34129.421875
390,2516.008,8103.272,6228.0435,3024.4133,-380.1276,1191.167,7509.19140625
391,45489.02,45474.34,36574.88,-9316.194,9153.73,702.25354,24342.505859375
392,15270.209,12822.32,-15328.703,14930.192,3108.7722,-1428.7504,39638.76953125
393,16987.291,32472.818,56260.9,-4176.6704,3744.2847,-3010.4885,35994.8203125
394,18255.287,-18859.566,-4891.362,-164.21352,-3349.9277,822.23566,33014.69921875
395,-2302.6462,4287.257,2273.8928,3958.875,1926.3739,-3597.5532,11453.845703125
396,23685.768,22318.158,50943.457,2094.241,-1028.2499,3779.9055,29005.556640625
397,-38686.01,-41846.04,-28297.19,-3116.841,-16568.238,161.81616,31677.82421875
398,-8568.834,1318.3647,-14379.349,-2097.8005,-2146.136,5427.6943,17446.1484375
399,-19943.371,-33850.24,-43159.36,1651.8931,3765.1863,9463.887,26998.759765625
400,37460.33,61144.49,70497.16,11774.1,-3967.5813,-3018.2449,36883.12109375
401,8171.313,2360.795,-12922.148,2120.6826,5856.5923,-648.51654,21766.6015625
402,-33185.402,-31741.672,-65938.32,1235.5017,7650.466,2906.5457,36436.75
403,17607.203,11483.917,20475.791,-5507.852,2520.9788,-4700.679,15480.7314453125
404,10638.86,5563.6494,25435.88,-1229.7053,-2703.5815,-5569.5894,20960.275390625
405,11226.759,-8021.334,9037.507,9674.354,421.63452,-4117.5835,25793.78125
406,-55882.387,-57237.797,-55136.633,94.64465,2331.1345,-634.77264,4576.279296875
407,11313.592,8695.151,6823.439,-5666.4634,5629.9443,-5994.3076,17733.328125
408,11358.832,11311.848,9678.662,-61.836918,66.030464,641.13336,2000.98571777344
409,1986.833,-15715.17,-15129.527,-10077.505,-932.6892,2369.8389,25049.216796875
410,-9356.722,-7393.7837,-22360.889,8648.557,-4030.755,-1556.2926,21883.5
411,-193617.64,-193768.38,-193651.25,-321.69064,-4821.5483,-4172.267,11058.69140625
412,-3945.1177,2894.0164,14611.186,-47.366016,7876.3374,-1621.2771,21405.689453125
413,-447376.53,-447085.2,-447150.2,4.7824745,-836.0746,-782.44073,2000.98474121094
414,-7235.2812,-4697.6846,-871.62866,1307.1301,3628.176,-6951.958,14845.638671875
415,-14461.338,-5675.895,-4855.378,6552.639,1857.5697,1514.9259,15202.427734375
416,-18407.557,-12234.174,-25061.32,5430.3335,8993.844,-4212.861,22535.244140625
417,3050.331,3576.8447,11316.548,10194.766,1599.3582,-1373.6318,19732.953125
418,-38199.72,-38162.39,-37716.266,374.8124,-605.5153,-868.9974,2000.98547363281
419,-156135.08,-155752.64,-156983.03,-208.92757,-201.68887,924.00665,2000.98083496094
420,-37179.695,-34028.62,-66558.484,3178.4565,5336.0366,1963.6978,33059.23828125
421,36449.652,35681.56,35985.43,-109.88737,-884.45703,625.03973,2000.98645019531
422,-19828.793,-30410.37,-34535.11,-8332.93,-5538.786,2562.7402,22196.396484375
423,-22840.305,-10682.554,-17111.625,5902.4233,1022.0623,446.7804,14806.3935546875
424,-14013.926,-3100.442,9279.889,4900.4023,-983.4126,373.0842,21973.84765625
425,-24807.68,-44511.223,-24792.832,-3678.921,-436.4422,-3874.476,21788.34375
426,-1994.8911,-258.29993,4770.197,2867.142,-2906.1914,961.68335,9476.69921875
427,-79307.7,-80187.21,-60442.977,3052.878,-4721.4478,-1837.2101,21867.912109375
428,-27711.088,-4624.508,-29226.898,1160.664,-2689.5332,-1600.9435,24570.591796875
429,-26875.896,-18132.504,-33250.3,2296.1255,1400.0217,1149.8091,14088.1796875
430,-5838.145,-864.7245,1036.8748,-720.4351,4247.3047,2852.0586,10857.5791015625
431,-15944.541,-15029.159,-21657.775,-7859.5835,1384.437,3460.8057,16300.5966796875
432,-1525.7979,-21360.367,2034.208,2129.899,-3494.0562,934.70135,23011.966796875
433,22588.197,5011.824,2458.7065,-6654.301,-6309.4277,-1254.4204,24845.69140625
434,-24220.03,-22747.771,-20588.19,1236.8835,-2142.5864,-2267.2415,6617.67529296875
435,11544.655,4472.1123,24923.36,-2914.152,798.68896,-943.0818,18806.669921875
436,-54624.812,-71478.5,-70338.586,-315.8395,6184.163,-18118.354,36959.29296875
437,-10885.123,-1284.3291,-5155.9854,-7065.06,-2489.159,1517.8524,15660.0947265625
438,17627.54,7084.258,6631.6006,7759.982,-2895.4658,-4997.225,19921.296875
439,36419.457,24946.715,3768.2246,10751.317,-549.38806,146.2895,34217.97265625
440,7362.754,11134.211,11785.595,-2230.7307,-1384.0325,-1879.5056,6955.40087890625
441,-19302.943,-12576.236,-25655.082,10439.277,-1511.5182,-2573.115,21954.033203125
442,10852.296,10362.985,12246.877,-198.14267,4059.6482,650.08295,7327.65283203125
443,19001.986,4902.5957,9342.548,-3298.716,5606.285,3039.53,17622.640625
444,136495.66,104594.59,134922.05,-3081.395,-3800.8547,-2175.3853,32495.779296875
445,11773.094,10589.902,-18511.639,-3455.674,5609.5527,920.90283,31866.955078125
446,17110.934,32072.809,32295.049,1861.3229,-8070.598,-2137.2732,21136.06640625
447,-7723.7314,-10802.895,-3787.3914,-4351.0693,783.37286,-606.3621,9840.5341796875
448,-4858.7876,-141.72372,4140.698,4000.2163,795.21436,-1068.2954,10682.525390625
449,-418.8496,2409.255,25329.48,-1823.9277,348.43793,-2234.4995,24969.5625
450,729.3672,3642.9302,-5152.5576,3450.4668,1864.2686,2226.4097,11010.794921875
451,32801.168,32160.203,62024.758,-996.91266,-510.00354,-3127.0547,30104.111328125
452,13158.896,-17047.186,26524.479,-1657.2247,1362.8887,-3532.411,39319.375
453,18836.256,1022.8042,-10083.5625,-8693.617,-1373.727,8513.661,32990.28125
454,9498.23,14601.802,24956.445,5804.9,2081.18,-1110.2388,17432.53125
455,26774.996,16790.98,36520.383,-8179.6606,-1636.3857,-2126.3108,22677.4921875
456,-27197.994,-17432.467,-13961.574,2980.5854,-140.01373,1323.4313,13163.3056640625
457,22016.012,23643.713,34108.67,1974.3818,2449.2314,-5059.37,15351.90625
458,-22031.084,-21461.79,-34815.195,-3627.252,9105.821,4818.4336,22997.962890625
459,-2424.3887,-12369.117,-1277.0542,-721.68176,153.58548,-594.71326,10691.9697265625
460,6766.045,5109.7666,22447.465,-4391.941,546.167,1065.6819,18351.90234375
461,39103.875,37714.258,26497.883,-15918.417,865.6161,2316.461,30362.12109375
462,11984.023,12509.999,-12602.624,-1394.646,-1228.0356,3032.845,25605.96875
463,-3807.171,-12429.977,-17710.496,-7284.407,-2662.3997,-2043.8599,18459.537109375
464,-12267.627,-5394.0723,-26247.623,-8323.275,-34.788174,-1131.5981,23461.759765625
465,-25263.244,-26902.584,-30979.326,-6240.437,1910.2178,523.0048,12433.3017578125
466,-17510.82,-16147.46,-34753.598,-3597.2126,-2958.2153,72.856476,19691.853515625
467,-2188.2856,5330.58,-401.8059,4022.3135,-1132.1139,-386.40005,9956.029296875
468,16697.428,6807.955,5211.718,-12962.252,-387.34485,962.1564,24968.4375
469,-34315.086,-35145.953,-1925.7285,11296.427,-2310.51,-2180.1323,38597.58984375
470,-6306.638,2886.373,-13516.369,2808.6565,4128.423,-2355.5142,17152.65234375
471,9840.1,13699.467,14066.401,8331.503,-1575.336,5090.0337,17602.775390625
472,-15152.712,-15628.988,-13237.295,8323.898,-3435.1511,1731.1998,16033.1455078125
473,-124.32617,-11783.3545,-4050.2993,-879.8678,5315.9727,-266.52222,13888.3935546875
474,-11248.521,-15196.392,-37233.113,-7743.406,7570.8667,-3974.5532,31423.353515625
475,63580.42,40902.4,79631.43,3605.2522,6391.4688,989.228,36061.26171875
476,13126.019,26066.85,46079.637,2547.9546,-3939.8357,389.06436,29890.736328125
477,104928.01,127922.05,113109.75,1346.4854,5806.257,-2703.6091,23152.556640625
478,-4898.522,-7102.282,-20366.084,4217.801,-899.1749,-1297.3319,16457.810546875
479,1489.0513,166.51685,6584.5522,-9272.246,-836.6391,2398.8264,17656.126953125
480,3490.92,-12594.633,-14678.19,465.52472,1261.805,-546.7676,17404.736328125
481,-5759.7573,-9997.083,5592.273,-1394.9818,514.3957,652.96564,14242.0712890625
482,-7428.4756,-3905.7925,-4225.149,-1963.6525,-1346.6936,-711.2571,5469.23193359375
483,5370.2617,17771.36,20726.152,-3909.2964,-1026.0844,1772.4232,16049.6572265625
484,6261.1533,-9589.802,4857.2427,-5108.8594,-7692.9546,-201.68996,22066.681640625
485,83.39862,143.5597,-2438.8552,-58.742344,197.1648,850.5314,2968.89038085938
486,-2079.1885,-20052.771,-23932.328,-3039.4282,398.17593,-4.5043254,20881.09765625
487,-6190.4717,8041.657,-11412.935,-150.01405,-690.5781,6867.428,21145.62109375
488,-27113.158,-26402.34,-26939.258,67.33646,2547.7031,-7232.611,13297.73828125
489,-9954.389,-18366.055,-10013.928,1261.9984,1072.6527,1606.1101,9285.865234375
490,5833.8755,-7848.8916,11621.961,1142.0508,-649.99115,-709.9708,17510.26953125
491,-1128.1445,2655.584,15932.611,6841.365,-3034.2004,2188.646,20572.681640625
492,-2766.0972,-9667.288,-6948.2837,2375.5474,4732.5493,-140.6044,10974.29296875
493,-462.4275,-7370.0254,-1423.7946,-1811.5679,-144.0828,-2086.0007,8059.7900390625
494,-12624.429,-7276.551,-10998.891,-6737.0845,-1528.4574,55.997723,12873.689453125
495,-3533.0024,5966.721,1262.6793,116.97361,-75.24571,16.58452,8230.7060546875
496,-13277.706,5084.2183,1738.0388,3557.2004,452.95084,369.1298,18052.705078125
497,4093.6921,-8334.799,4065.9402,256.1555,1063.9509,1269.9279,12749.6748046875
498,10440.232,9210.372,11038.314,5089.0176,1063.781,2560.5195,10166.7978515625
499,-6332.8423,-11475.079,-14215.788,1696.7982,-1792.0955,103.894264,8145.67578125
500,4704.8447,7610.926,-7204.998,3200.4893,596.1657,3307.0706,15795.771484375
501,-22697.842,-2036.8545,-6458.064,2258.4348,-39.63837,1410.6896,19399.828125
502,4073.078,-3757.9915,2619.976,5120.1934,-93.40542,-482.09146,11464.3076171875
503,-10966.705,424.89233,3387.2717,5095.2075,-2170.8962,697.0012,16302.4423828125
504,-4410.953,-746.46484,-28199.95,-4445.08,2918.836,-1271.5857,27499.18359375
505,-18554.197,-5177.792,-35065.523,-74.81087,-3162.2498,-909.6787,26550.19921875
506,-71988.93,-77550.93,-78988.23,5319.0293,3601.5198,-95.0418,12837.9150390625
507,10592.604,2769.7979,6337.841,2419.4907,-875.5865,98.196075,8118.23876953125
508,13227.0205,1485.9517,9070.099,-4650.2803,-4125.315,69.937614,14908.744140625
509,-1200.3022,-8305.446,-10257.904,-1680.2255,807.6143,2105.7314,9586.2490234375
510,3267.224,187.28577,-6606.322,-3706.7107,-2955.251,4752.954,14551.7822265625
511,-10886.734,-7713.5,-12260.333,-2024.724,-321.28406,169.58353,5386.0380859375
512,3436.3174,5875.2124,20996.912,4721.9155,1552.6112,874.1799,18652.294921875
513,-15152.619,-11378.072,-11599.003,-1512.6613,-1106.4692,2160.7913,6164.93408203125
514,-69075.88,-84462.734,-93167.43,530.8822,3626.5532,618.12524,22088.734375
515,-8252.402,2784.3687,30326.582,1442.0607,812.9744,195.87599,34535.453125
516,-57402.98,-25687.998,-48389.637,-2373.825,3928.2563,-3272.628,29942.46875
517,30902.082,15889.033,19459.42,-1796.8467,2394.107,-3343.7239,15651.185546875
518,3398.683,-4661.172,5827.296,293.47498,-316.0876,447.3142,9570.375
519,-2470.6667,-4112.042,716.70337,-5928.8228,12.211347,1058.9142,11265.0908203125
520,-533.5088,-12248.49,-20244.979,-1806.9774,-4223.8955,3611.4072,19932.623046875
521,12838.531,25388.072,37709.633,169.73428,-1114.5955,-1239.1879,21733.888671875
522,-2624.2834,6266.742,7697.7837,3768.973,-790.6635,-48.708927,11760.9384765625
523,1058.1855,-2597.2876,-5747.697,1799.8096,646.5645,687.3247,6869.72509765625
524,-4170.4683,-10202.338,8999.177,-641.02277,960.6077,559.3663,17152.267578125
525,11004.264,-5175.0146,25039.754,888.1242,-959.63306,-327.7377,26292.572265625
526,-5228.559,-4626.45,-7941.0283,-2700.7551,-2690.6318,-2568.0515,8528.6943359375
527,-6493.296,-6568.969,-10218.962,2207.9915,-1639.2589,2802.5508,7736.56494140625
528,3412.292,-2782.6953,2421.6594,2635.6487,-4422.8013,-1483.4795,10924.64453125
529,-10818.067,-16831.816,-19590.842,5999.743,-959.83496,-121.7323,13083.1396484375
530,3663.3535,13202.621,6644.274,1411.123,533.94257,2910.363,10182.703125
531,-9485.043,-20870.33,-17013.062,-2231.9868,-1042.3828,942.2982,11020.705078125
532,10025.84,-11149.937,240.79587,-2518.688,33.642494,-3721.11,19938.140625
533,3548.043,1209.845,-8154.4897,5805.553,2295.7344,-2966.7239,16074.2802734375
534,2334.5498,1424.8545,1651.3751,2430.7258,1107.7974,2114.616,5957.72802734375
535,-21266.445,-14947.034,1004.8721,-3052.9412,347.87473,557.3261,20602.455078125
536,-27655.258,-21710.324,-2275.8584,-928.27826,-1443.3577,1812.2351,23393.693359375
537,-14283.347,-8268.13,-29424.383,-2691.4607,-1457.3992,-152.59254,19613.3671875
538,-16848.75,-9193.411,-9073.684,-2498.4492,734.77966,-31.65998,8937.81640625
539,-21469.705,-19213.402,-1689.6572,3474.1426,-549.957,1318.5216,19850.5234375
540,-28367.375,-12558.432,-18524.404,4032.8213,4148.1396,-1856.8684,17376.875
541,9613.772,-7716.4395,5727.076,3814.9963,-771.06665,1775.1715,17406.474609375
542,-8021.8447,-13679.936,22009.963,788.61554,-1735.1041,-1106.7283,33442.76171875
543,-1244.022,-5073.637,27727.809,-4865.467,-864.47217,2443.3738,32498.52734375
544,-127.29004,-23742.703,3643.0518,124.9739,-847.4657,-2040.2305,25992.890625
545,162.84473,-11683.545,16693.666,-287.41833,103.435616,159.63976,24693.966796875
546,3842.0515,-13057.805,10538.988,-1214.5714,-614.7043,1072.6753,21275.39453125
547,3714.9792,-4867.6787,3109.193,7450.669,-790.4403,577.9392,15435.140625
548,-8285.526,-12171.857,-2968.6416,1519.3372,-704.33636,-2666.3257,9683.8681640625
549,-6581.507,-3292.0317,-11518.351,1564.0607,1359.2738,-1241.3547,8302.849609375
550,-4692.6143,-815.4448,-82.25757,-629.9201,2536.3386,-3821.5823,9094.8125
551,-6764.754,-14648.672,-4804.5527,-8717.977,1583.5521,-59.155922,17804.36328125
552,-18222.52,-6409.2725,6365.4873,-4853.634,5479.2354,1858.9215,24995.296875
553,2398.3418,-2092.47,6472.5293,-4912.4785,4114.262,-1441.693,13582.232421875
554,-18489.09,-10999.066,-11471.223,7278.936,-2144.7104,-557.8762,15048.8759765625
555,-17734.373,-12590.379,-30414.629,5605.3354,-461.7037,673.4737,18674.482421875
556,-2902.5066,8676.732,-1714.5996,2167.312,1371.6261,-399.14023,11914.2177734375
557,15277.147,6839.644,647.23047,6654.1035,2328.9175,-1524.3434,17828.62109375
558,-27758.305,-21270.627,-14226.623,-4805.917,-685.7887,2867.9072,15257.2373046875
559,-15751.482,-8693.442,5335.6084,-1549.1072,1702.636,-1238.0698,19134.84765625
560,-3418.2979,7757.377,15680.857,-5356.461,4019.0398,-4417.135,21663.189453125
561,3853.059,-14696.648,-449.04614,2442.7734,163.03972,426.2716,17358.666015625
562,-6742.173,-15032.011,-1029.4336,-7242.035,-285.9868,1065.5896,17598.509765625
563,-7270.483,-4620.6084,-8513.067,-2605.5,916.84766,99.99125,5897.1396484375
564,21562.04,14450.436,15929.008,9028.463,-2802.4917,-2025.5356,17962.62109375
565,4494.216,-7203.566,-1167.6954,2648.4597,-1057.6276,-437.35873,11297.615234375
566,-2534.1753,-4738.793,-7278.923,-7161.788,2844.75,2707.9434,14733.0546875
567,-14766.368,-18901.572,-17581.564,-1296.458,-818.81433,-960.14935,4816.9775390625
568,2395.4927,2916.3418,1056.1879,378.88632,2478.4863,1360.561,5212.99609375
569,-22122.584,-22937.053,6366.8,105.721985,-881.6639,163.1337,28947.494140625
570,-11333.062,-8546.333,-23571.049,-7513.692,-798.9823,491.5946,19069.4765625
571,4185.6777,-7569.791,1475.5876,2198.0735,-6422.5454,-1449.3264,16069.2490234375
572,-3563.1797,-7.8310547,17321.307,4074.2256,3101.546,495.96353,21305.9921875
573,-7583.1025,-6657.2734,-16081.838,137.8039,-4500.645,1584.9614,12219.4404296875
574,2478.9736,-15440.008,-17785.623,-7028.7837,-4185.965,-8166.1206,27739.1015625
575,16367.364,2377.129,-21686.049,-8702.383,2328.139,191.47404,36810.0234375
576,-27794.684,-21014.398,-19498.117,-1005.013,-3673.3196,2833.9875,11231.947265625
577,28535.033,30739.041,32844.805,7139.1475,-2420.458,4088.6787,15315.4501953125
