Element Label,S11,S22,S33,S12,S13,S23,Mises
1,1337.9218,2069.6353,211.41904,-425.35187,41.21132,268.35687,1841.90222167969
2,950.5383,1745.1814,-672.16565,268.47696,-288.9577,-23.07306,2241.076171875
3,1801.5881,1934.6504,1073.6086,759.2637,166.97581,101.084335,1577.42431640625
4,515.4668,2480.872,-1187.1495,1057.0188,-507.52957,-8.2797,3772.64916992188
5,1750.7545,5346.2783,-1012.1525,366.83023,261.58566,-820.5798,5755.3955078125
6,911.59906,1575.1046,-1024.1417,46.072483,-422.36633,204.23291,2477.57690429688
7,2464.1577,2781.6707,1550.0209,588.8113,476.11182,76.31144,1721.72143554688
8,458.81607,2898.5288,-1849.382,381.05902,-461.4131,-276.2338,4267.8515625
9,3497.0986,2535.7083,1416.7625,1548.1451,860.084,277.11322,3590.53247070313
10,-1939.3705,762.20184,1328.9081,1556.1349,-915.2618,304.22665,4382.47509765625
11,1432.5281,2304.9485,-440.3701,621.69556,471.56067,192.98212,2800.208984375
12,2693.33,1656.4596,125.64368,441.16953,-487.61484,-109.76616,2517.75634765625
13,452.70535,1669.37,127.05841,369.95898,342.72952,322.32397,1748.48498535156
14,4244.697,817.7556,-354.31247,637.6998,-710.488,-542.8617,4555.51708984375
15,-2451.6055,1776.2871,-1940.5392,42.49461,720.1555,109.89314,4192.02197265625
16,1248.5901,826.7685,-974.24475,-1017.2208,425.6625,1212.311,3498.30859375
17,364.78354,244.6451,-902.47754,188.80896,424.36945,-134.82938,1473.05419921875
18,2574.7146,2677.1558,398.31125,96.01368,543.1865,-238.68622,2460.46801757813
19,10875.227,-1784.875,21277.102,-8558.293,636.4914,-158.67053,24923.68359375
20,2651.643,10613.441,-12356.049,-3660.4355,344.27148,-4754.622,22726.20703125
21,1479.5233,2348.201,-102.827644,573.2093,359.77438,68.49916,2453.78979492188
22,-201.83932,-382.65823,-1492.7222,-43.59287,-2513.143,-1466.9296,5184.07861328125
23,456.54752,-763.9453,4316.332,3664.2441,-260.65527,654.0461,7928.7822265625
24,253.06035,-1195.5793,-3582.3696,2080.3013,492.37738,30.43563,4996.595703125
25,3620.5527,1953.5021,4511.1753,208.51044,-447.73022,-808.95935,2784.2490234375
26,2583.7266,1698.5132,66.72815,2048.137,197.53674,359.07993,4240.19775390625
27,-906.884,385.64777,784.0448,1847.3673,-60.788807,-699.89844,3750.10083007813
28,-241.89911,884.92053,425.7333,-968.6524,-414.3324,129.84009,2084.13208007813
29,1251.9314,2000.3961,1850.9341,751.48285,-43.063145,517.731,1724.6884765625
30,2153.4216,3654.2612,1350.993,1191.4158,904.74084,265.20944,3320.5146484375
31,-2078.5227,950.05316,-3874.2615,910.52454,-411.1571,-1459.1259,5216.98583984375
32,-50.014366,2489.6277,-1247.5369,-614.03845,-1279.6213,-213.34615,4135.830078125
33,22.759125,1917.0408,130.66177,-2773.725,731.54474,-686.163,5430.85009765625
34,2314.219,3064.3335,1013.30707,664.85455,556.1254,-90.726105,2347.23046875
35,828.87897,2643.2708,-1319.8927,599.277,95.83748,35.72446,3593.98559570313
36,1695.8907,3371.2864,1382.6489,1438.5619,-1261.2758,1082.8262,4234.17529296875
37,629.0008,5565.3633,4703.0703,946.74744,106.728294,-944.696,5123.97802734375
38,-141.16946,-2379.5708,-3738.273,174.75589,383.7336,343.61713,3284.11694335938
39,1796.4897,2055.4822,-434.36575,-897.1106,452.06076,-789.3407,3243.18408203125
40,1295.4825,1662.9519,-809.5853,-2427.3884,-1615.1155,294.2184,5576.91845703125
41,634.62646,2023.8273,1359.0349,-2084.1763,365.61798,-231.1475,3878.27099609375
42,4371.2056,-487.8622,3038.2708,15.6304245,1173.03,506.30725,4879.365234375
43,-2302.386,320.11966,-20273.64,-853.9265,6587.7925,-10608.823,29103.251953125
44,-4181.884,-5823.022,-2745.0283,4973.6606,766.617,7052.39,15241.3779296875
45,-9404.578,807.59766,-8905.267,2009.8918,361.8745,-4225.223,12864.998046875
46,5503.268,-3823.0806,8984.536,-1303.5236,388.48074,3870.0405,13492.5693359375
47,-3531.6006,-2096.4417,-7516.041,4302.5156,559.9222,36.986103,8951.720703125
48,2913.1963,-1834.3,1193.6106,7.1164,-4256.317,2989.4426,9924.26953125
49,-2211.4465,4165.4863,-8402.295,-616.4937,-1631.4418,-991.5099,11425.6201171875
50,-904.34906,1614.0854,-6151.027,-4355.553,2839.7383,-67.59927,11322.638671875
51,644.62476,4072.5295,2637.7246,-586.9077,-126.56654,74.01054,3160.48950195313
52,229.68852,2725.612,-3557.4426,-556.8245,866.44617,183.1492,5771.2529296875
53,942.69116,1709.8907,-3633.4812,298.58823,-376.29163,264.9373,5093.4873046875
54,1206.7238,3536.4846,2062.238,128.06055,264.75665,70.86713,2107.39184570313
55,4882.5054,5246.345,-1228.1155,95.028496,605.17566,485.51855,6444.24853515625
56,-1351.8461,1652.249,-6520.9224,2415.2222,-336.55154,-955.75543,8476.58203125
57,1040.5184,1282.1194,1865.1542,1746.174,-55.573246,-149.94966,3124.62060546875
58,289.8217,584.3056,-1902.9218,1055.9794,-562.3509,664.19196,3340.36181640625
59,1236.0015,1425.1075,-1067.6505,1415.4735,84.277176,-168.55763,3448.9775390625
60,311.1446,1431.9202,872.1331,1333.0262,-240.49608,218.3332,2567.0029296875
61,1924.1652,1869.6062,-457.71548,25.961868,-315.8314,73.90334,2421.57690429688
62,2250.0786,1053.378,275.65942,190.81285,623.2483,-331.48138,2138.18115234375
63,2280.2795,2292.4417,1424.6461,215.54047,-27.553446,-257.18268,1040.54895019531
64,1476.0929,1429.9939,-1394.558,222.2134,348.69452,-127.13567,2944.79516601563
65,1367.3812,1984.0972,-1022.49744,544.4651,184.03592,-277.93506,2964.52587890625
66,1917.9789,1816.0673,449.51202,-245.86325,743.3525,160.82323,1983.37707519531
67,656.0268,2338.2495,-1278.6667,549.9256,724.3129,-26.569954,3508.6689453125
68,1687.7229,458.74805,-1939.6398,64.61002,916.87994,-116.64229,3575.68823242188
69,2237.3772,-351.53812,1428.1415,-616.1206,-547.1929,1729.3206,4033.73559570313
70,4045.0806,-431.85358,-858.35455,-1950.4972,147.51631,-201.86661,5808.193359375
71,2039.2949,187.05301,-578.3778,-783.3972,863.42096,-1372.9032,3894.439453125
72,1343.165,4074.927,9439.242,-3307.617,250.03314,-4722.6963,12280.576171875
73,778.7776,365.25815,-6632.623,-982.3866,1657.2072,-2056.2776,8709.4306640625
74,4439.6196,1420.4304,5169.758,-1766.1909,-1281.3251,1071.3256,5438.7421875
75,364.62808,-6310.854,7467.798,6291.458,-1210.4102,2043.9353,16676.625
76,2743.4314,-3707.8318,15684.473,-1246.0726,-8139.336,3608.2812,23130.91015625
77,-506.0566,-5070.378,-20259.355,-467.88718,6250.9224,-8162.4346,25270.9375
78,-425.06284,-7421.74,-10764.443,-5037.411,1796.6803,3985.9565,14730.5546875
79,-1907.9888,485.86234,-4738.6875,-1340.3091,-382.7556,1609.5994,5841.30712890625
80,985.8398,2350.5732,-479.23047,-656.32196,624.3323,135.78517,2919.81494140625
81,-483.91843,8315.615,2413.8208,-1337.2021,-1910.7859,-3168.993,10333.2041015625
82,628.9618,-607.0181,-3990.8716,-1206.5958,-450.5452,1836.3408,5679.21826171875
83,3872.0886,3539.0483,6456.033,1255.5863,1699.123,-1842.5209,5587.7939453125
84,2204.3694,2754.1616,-5945.924,1772.8096,-943.94183,1146.7113,9341.1455078125
85,1181.4254,616.2177,-1016.6568,-401.6917,-187.31325,-27.419704,2121.37573242188
86,99.96359,2451.7417,-1380.3572,-489.49518,466.4601,58.97637,3547.619140625
87,1464.3604,2202.933,3801.3828,-153.46567,-625.1596,-95.94856,2356.236328125
88,-1598.227,2.596211,-3325.663,54.501854,763.4569,-340.42148,3227.56274414063
89,-214.53403,2255.6624,-1813.4382,973.2396,115.44407,419.52444,4002.19213867188
90,203.44215,1588.2858,1111.6355,943.35803,228.6664,-53.785698,2078.51342773438
91,1517.0648,2905.0483,2162.9653,1898.9454,327.72577,-710.801,3755.40869140625
92,726.2991,2318.7761,-951.6319,1696.8546,-696.12115,535.6518,4356.1416015625
93,-754.6034,2744.4497,-5656.1836,46.653748,-1254.4005,-811.2228,7753.779296875
94,-29.950338,1650.5084,-4217.9478,677.7677,268.7083,38.545826,5385.18310546875
95,-1157.1782,3173.2605,1925.0696,-252.56668,-261.76474,-1233.6226,4457.33935546875
96,-1737.27,1714.064,-1532.9048,-368.24805,-407.8833,417.50748,3560.47778320313
97,4183.05,2318.4521,1628.1907,256.52487,-645.3348,-65.31262,2588.40283203125
98,2886.9387,938.6606,1589.3208,-820.0304,0.14188418,1056.1178,2883.5712890625
99,981.5939,3150.7983,-6369.352,1064.406,3501.6243,561.99054,10761.87890625
100,-5023.3657,3683.1057,-13349.429,1250.8975,2923.9243,-301.6322,15755.3720703125
101,1503.1147,414.27527,41.602646,-1227.3522,-1067.7228,-186.28455,3126.27880859375
102,107.61374,2200.5928,700.9747,384.6636,296.61578,1076.15,2769.9970703125
103,4854.357,571.03613,1687.3417,2635.1558,-1601.1316,1372.032,6998.70703125
104,1049.5969,119.97665,-1622.5415,-981.3481,-2046.7931,-911.36505,4844.52490234375
105,2518.4138,6244.948,2684.6018,-140.2643,82.47668,625.40594,3814.2099609375
106,1642.3005,-211.32767,-2157.4177,1279.1791,-674.53467,1186.6349,4618.3037109375
107,-379.70065,5329.988,589.03094,2163.1204,-252.24814,78.53454,6500.3447265625
108,460.21448,1423.8264,-1741.918,-781.6743,-1214.4489,-8.874527,3762.69506835938
109,-1424.5334,323.03918,-4115.444,304.50687,-1536.4624,-1753.5828,5619.8798828125
110,576.7448,2343.4382,2742.9219,-657.62805,180.49902,-769.9428,2675.84692382813
111,2628.6992,1995.2651,161.10689,233.74588,67.942894,253.23828,2301.595703125
112,2094.297,1530.8967,1009.1809,839.3258,176.48596,-371.9012,1872.24975585938
113,1868.4225,1361.6215,-960.7161,-130.26622,404.52798,28.265648,2715.01293945313
114,1392.4692,2313.25,2074.5989,226.86292,519.442,685.4503,1748.83752441406
115,808.049,2177.1184,1326.6891,200.60152,623.62775,-420.8841,1803.3779296875
116,1123.0056,-44.122498,-2794.9766,-670.6399,1666.006,-1014.9588,4990.63232421875
117,2833.5793,883.7417,-2609.4792,-1831.5469,1408.0255,1371.3678,6668.50244140625
118,1103.6227,-3275.555,-16437.453,-45.89081,-1222.4758,2015.627,16331.837890625
119,2904.026,-3559.7192,-1316.2863,-896.03186,-4059.6816,5474.683,13193.943359375
120,-7977.383,-12729.8545,-11718.757,-59.378887,1405.2687,-6937.3003,13004.4765625
121,1574.8436,-1419.9852,15930.856,9163.595,1454.8159,3738.0452,23627.119140625
122,1354.837,1995.4247,-253.09404,56.62979,296.38425,-5.879026,2073.42016601563
123,3139.6973,2808.8318,4954.433,885.7115,509.94406,767.871,2984.23046875
124,4796.552,2205.907,6448.8896,310.96182,1136.3324,-1735.4153,5188.55712890625
125,2284.802,904.17706,-2101.7815,-51.7655,1331.1198,362.63254,4561.81982421875
126,1968.0767,1338.4825,240.078,1042.5262,455.50192,-573.32,2676.48022460938
127,-15671.334,-15984.245,-12963.173,-1487.5011,3627.6487,-3013.7222,9035.7353515625
128,7215.785,-1129.3655,15245.383,1042.0632,1528.0369,2393.4585,15118.6142578125
129,-488.48743,3349.5789,-1667.252,-1511.5259,-1016.4616,-59.730865,5532.52490234375
130,1726.2783,4040.1418,-5585.8394,1806.2822,141.10736,1203.0588,9483.14453125
131,4066.1323,5978.6055,7164.4736,1204.7427,53.974274,628.76086,3588.9765625
132,-54.196983,1487.7461,-6021.3525,-336.49582,-189.31114,-687.8515,7003.7255859375
133,779.7764,964.7307,-619.1032,-37.78926,182.75078,893.4893,2179.27709960938
134,69.64887,280.62308,-3828.3813,-805.8441,-482.05325,569.4143,4436.15966796875
135,1468.3765,758.22955,-2694.2522,-1212.8834,1942.6725,-476.31317,5593.88232421875
136,69.81197,950.14844,-1842.2455,-1549.0618,479.04144,452.67276,3823.109375
137,-1756.8678,5046.488,7980.8066,6107.7466,-2688.0212,1282.8369,14607.744140625
138,1992.3683,2353.1714,915.57355,-380.83914,-520.1007,839.1104,2244.35400390625
139,-10750.182,-8125.297,-133.57208,4239.137,-7884.459,2194.046,18616.69921875
140,-11993.447,-4521.7886,-14941.958,6452.7134,-3907.5781,678.89294,16082.673828125
141,1610.1803,554.66095,6025.5146,-1668.9812,-1371.835,-1056.0177,6528.21435546875
142,151.92322,-525.2106,-941.18353,-375.9944,726.8271,-157.93848,1731.18310546875
143,1442.46,1662.4038,3091.7087,-518.8262,265.57486,-850.7375,2365.59692382813
144,904.7992,1449.469,167.7479,1077.2273,692.6248,164.77747,2498.65112304688
145,1292.1619,1458.2424,-943.82166,1031.2361,-12.952778,-221.92693,2955.86865234375
146,2463.301,1686.673,747.39264,629.0918,-340.95044,186.51729,1963.47827148438
147,1807.5406,1827.4634,2472.5496,1431.1837,-155.56004,-133.05518,2588.4267578125
148,1519.6362,1064.3655,-793.9202,1330.0021,158.3305,38.281494,3145.28833007813
149,912.22345,1285.2144,304.9199,1145.6943,127.588486,-23.367928,2173.19580078125
150,-832.9521,1560.9736,-6120.111,2488.7947,-2911.8887,-1361.6614,9794.0771484375
151,5693.229,7070.577,7642.619,-3462.1855,826.21875,-4595.639,10216.6533203125
152,272.25195,1865.0261,-5380.231,195.44115,-1463.2289,2872.9402,8648.103515625
153,2213.2092,2980.9597,4428.8936,-3090.842,987.4799,654.1116,6055.283203125
154,-1060.7733,2280.5002,-2219.338,2050.1125,-374.47153,829.1918,5609.787109375
155,1477.7383,2640.3257,2627.9731,-195.61429,144.07379,-155.44807,1259.74597167969
156,2245.182,2413.4019,-3077.2786,757.36316,-968.9459,-368.8568,5847.884765625
157,3060.163,2480.4907,5190.778,1911.5383,-397.67166,2459.241,5974.15771484375
158,1137.7666,3714.635,-997.49945,-60.051216,1165.2207,-1861.7509,5584.29052734375
159,1057.9894,3691.2617,7315.306,1080.3954,1082.1359,1797.1624,6805.52099609375
160,-1666.7297,126.7609,2222.8062,-1084.158,1660.7529,-1720.9495,5661.69140625
161,2905.9355,2014.8553,5757.2036,477.00812,-166.43494,-381.77133,3559.13208007813
162,1561.4688,1239.792,5661.064,-145.73372,1404.9644,-847.15326,5134.91943359375
163,-414.50223,-290.51434,473.95944,37.1404,-223.63347,-713.8026,1541.84802246094
164,-85.8812,-746.7713,-5536.024,1541.2756,806.7589,3174.401,8114.71044921875
165,1534.6543,8103.41,2599.3152,-1469.22,1678.1718,-1576.7322,7724.7275390625
166,-655.1031,3949.2405,-1418.5907,80.175964,955.70056,-653.3041,5416.46044921875
167,1486.0138,4256.824,1773.5286,-1529.974,-49.87539,1005.38715,4126.22607421875
168,-1148.0476,3236.3242,241.38286,-1139.0294,-534.87555,-771.3293,4647.22900390625
169,160.20554,480.52954,-1843.2965,-2.4621384,-708.8455,1667.4194,3821.86645507813
170,116.94519,225.6571,-1972.1683,-767.33435,-186.2313,1042.8901,3120.3583984375
171,783.91296,2330.282,2267.1582,-1448.7676,-203.47571,-921.777,3356.73022460938
172,7960.487,4777.397,11966.075,-4215.7437,-2433.89,228.62215,10496.318359375
173,-2266.2551,680.23035,-3711.9346,-746.8968,605.51483,157.38664,4228.38720703125
174,1584.5625,1451.3939,417.67236,278.17383,71.94766,-115.37693,1229.46350097656
175,664.0376,3201.1448,2062.5393,-1000.6707,-16.159992,-384.05222,2879.56030273438
176,2292.3386,936.46783,-1278.8177,506.66785,-464.80765,-72.428444,3344.17846679688
177,384.13495,2016.653,3674.7544,-2149.2834,238.97255,-2040.7406,5885.978515625
178,5150.2896,4802.568,6387.653,-1795.331,1550.3918,120.01456,4359.61376953125
179,2897.9119,1350.1261,3375.4146,241.3749,525.3754,-71.145386,2093.02416992188
180,1255.4934,2457.131,-346.5424,1122.3436,-1542.687,861.6244,4368.21728515625
181,1621.4701,1739.9022,-630.55396,1279.511,-539.85675,73.91644,3339.83862304688
182,1357.045,4810.1133,2492.061,-587.9553,-33.19861,1864.8518,4556.978515625
183,1691.1807,1686.1532,-56.980816,813.8095,473.40588,621.7504,2620.34790039063
184,-3672.5776,-1552.1615,1851.6091,-2743.52,3174.9836,853.76337,8849.1943359375
185,-1765.5967,-2240.5483,2494.8125,-1438.9357,359.82312,1183.9827,5586.19970703125
186,842.67706,-395.07047,277.9065,1181.9613,114.24997,-57.153553,2322.0673828125
187,1292.0593,-466.6044,-114.385605,1394.6251,-36.525646,-54.59211,2906.09741210938
188,-17625.082,-11471.087,-18441.396,-3118.0056,4348.6074,12280.732,24122.765625
189,221.63322,-4276.012,-4223.1016,2021.7037,316.45428,183.72234,5714.64697265625
190,-29.306963,-2893.0447,368.6949,819.98486,1063.7487,-494.52014,3955.32934570313
191,439.2167,-231.74925,-794.2329,773.9001,608.5343,-124.06979,2024.32116699219
192,3886.8513,-3595.1306,-4136.477,470.55243,-546.8403,-1010.7663,8059.14111328125
193,3684.8535,-2625.6953,-2793.1074,664.32025,864.2858,-797.56976,6810.34521484375
194,2056.511,-494.02667,2234.1467,-1102.1606,145.57132,523.11346,3393.91430664063
195,3127.1082,-2374.666,401.4817,-1279.1293,1976.8834,-39.391666,6272.1728515625
196,5049.4,-1601.2156,-3335.1213,-1989.5325,-135.28215,147.11777,8412.0869140625
197,3206.8977,-225.03342,2402.453,518.76495,-295.8836,2.6699197,3276.3544921875
198,5017.7085,-673.92896,3094.6172,-559.847,-157.04797,-103.03259,5117.96875
199,1696.5662,-2796.2544,-5358.075,-54.278316,380.08084,-216.88182,6232.294921875
200,3858.6843,-973.6781,-2182.555,541.6271,-85.73703,-765.18,5771.78271484375
201,1096.54,-2512.2952,4787.5,10.988993,60.81769,-1508.298,6841.29296875
202,2828.918,129.76804,1510.3087,-1714.2096,-768.2014,-1183.1184,4500.02978515625
203,-3482.9587,-7917.453,-3816.2495,2399.9453,153.34496,-961.93274,6198.6728515625
204,1962.0845,-7861.7773,-4332.512,651.53094,973.7625,89.857574,8856.3701171875
205,-5073.792,-5264.2236,-3.2978067,405.32242,-786.32886,555.1053,5475.76318359375
206,1175.7788,-4487.2407,1950.9935,-3824.8972,823.89746,275.59723,9122.2041015625
207,3218.983,-1761.3381,-1377.5443,554.7283,1041.7765,-593.0091,5317.28515625
208,-327.1486,-9052.47,-6862.016,-1453.064,-818.0964,-79.62725,8377.228515625
209,1944.6395,-2221.1948,613.90045,-1831.0547,-247.68466,-164.27802,4889.24267578125
210,2057.465,1002.5929,8120.249,618.51556,-340.28766,2210.2427,7772.78271484375
211,437.43378,-3826.4065,-2333.01,-2423.0784,-406.4826,2016.5975,6659.7724609375
212,-2089.9297,548.9426,2406.3337,-2465.1643,134.69037,-1149.4005,6128.9365234375
213,-756.01514,1482.3606,-5988.994,-2130.4778,-138.8122,-1896.3501,8280.7490234375
214,-1718.9198,1403.6349,-6028.751,-92.62441,-1155.9357,924.03766,6955.46630859375
215,-2238.8198,1348.3314,-1613.4855,-807.42505,373.56302,-491.45526,3756.935546875
216,-410.03226,2296.8352,2527.096,-1725.5681,488.05026,394.29132,4256.4267578125
217,-1425.8308,1199.8524,-1116.1875,-1021.9802,-219.79106,-10.431567,3075.00366210938
218,105.17451,2636.6218,3501.4714,-929.8111,-640.36456,926.8565,3968.19189453125
219,-1718.7214,125.33614,-4149.9775,-940.7279,12.728135,-599.18713,4186.57373046875
220,-1141.625,2272.1082,2006.4022,-232.87442,-415.55426,-7.2555075,3390.87451171875
221,110.76395,966.9984,597.3838,-431.09036,171.04018,222.76314,1160.787109375
222,-1433.6337,-343.87546,-1689.4662,-709.80927,111.69955,-319.67752,1840.466796875
223,-226.19978,2290.8113,211.52129,519.54456,552.688,541.345,2833.81909179688
224,-2422.444,3167.8303,-4625.3223,-585.80927,807.12756,107.264656,7171.955078125
225,-790.4228,1173.644,-1242.1348,-498.40173,-762.90875,-68.525085,2730.23510742188
226,1577.1527,825.5904,9084.001,1207.7708,-891.29767,851.7766,8455.49609375
227,-661.4167,377.0646,-2250.4788,3.7579927,-562.731,-888.8298,2928.11694335938
228,380.00162,1891.2043,1302.3403,810.6572,-357.95746,264.66367,2075.244140625
229,-676.50116,2751.479,2297.1597,1507.3236,-125.80158,173.29468,4165.77734375
230,-2242.3208,1640.3287,-411.39676,686.55743,-37.070484,247.21577,3594.435546875
231,-226.29549,-721.1405,-1656.0784,1283.7668,-86.4055,-608.0307,2767.18334960938
232,1314.9565,-312.04984,-839.8099,1065.3727,-91.438446,-16.578947,2686.13354492188
233,2005.6951,1027.8837,-135.13914,789.9261,66.75854,337.98984,2382.01293945313
234,1039.8976,-159.99135,442.93866,1063.5953,-9.754581,70.89478,2118.69702148438
235,2253.9265,461.84967,231.26297,628.9663,245.51567,50.728634,2247.9521484375
236,1423.4286,591.04724,856.9123,463.04477,-489.6654,-1007.3406,2224.6337890625
237,2962.8079,864.5041,-1676.9229,140.84575,194.05515,-32.461388,4045.9931640625
238,1842.9244,589.169,-40.74675,403.4145,556.19055,343.61365,2128.130859375
239,1986.4479,-194.29231,985.3933,136.30605,-279.524,-459.69772,2121.0380859375
240,1641.6045,-725.9311,-3466.2842,278.38028,1581.2423,-2265.675,6537.27490234375
241,1361.0344,793.3542,650.18646,97.016205,-363.6802,56.029568,926.53955078125
242,1375.262,-1023.1421,-4579.0713,-658.36523,-2285.7961,-1107.6326,6897.8984375
243,-70.08206,435.77197,-1081.9365,-1357.2911,2060.388,-976.83417,4787.1201171875
244,2436.7488,411.95532,1407.393,-41.064873,-62.713425,534.76086,1987.43420410156
245,506.03986,317.11185,-2004.4161,-1407.5038,205.2882,649.5671,3633.07446289063
246,1903.7115,801.97723,4121.8237,-670.2426,-264.14862,1753.8643,4400.31005859375
247,2675.0298,-18.08693,982.13995,-2398.8835,605.9533,1507.0193,5544.22119140625
248,1049.3136,-677.57697,-2021.7843,-1405.3868,-727.3356,560.0818,3945.09887695313
249,781.2791,385.0387,4249.9414,-1042.217,1434.2356,636.38715,4920.13818359375
250,-40.273586,2558.5613,6743.355,436.75327,2679.706,-2114.1743,8406.3046875
251,-2212.781,-1998.9371,-5385.7046,-1656.2957,-1288.4138,44.050537,4899.7431640625
252,-1545.813,-1248.3125,-5060.38,-5631.8496,3426.8213,-424.78625,12017.0751953125
253,7671.396,3618.3374,4850.14,-3832.9407,1603.0963,9286.229,17984.388671875
254,-3116.6504,2985.3826,-280.4069,-2456.4304,404.85532,116.70805,6826.93017578125
255,-11396.826,-4908.567,-33837.684,2638.1897,-11790.1875,-12192.812,39688.6796875
256,-15122.368,-14501.321,-10410.762,3586.835,-18544.496,-3851.814,33681.734375
257,-17724.07,-4388.4023,-23220.805,7073.666,494.72098,-454.2882,20804.3359375
258,-19088.867,-7776.6597,-15649.235,-603.38007,4034.8423,7080.981,17356.2734375
259,-5418.316,4260.8296,-9013.262,-5703.9014,-5478.981,905.69446,18207.896484375
260,-6189.0337,-4849.329,-24632.031,6634.7393,-4894.9883,-4328.857,25036.09765625
261,3730.8975,2541.3984,-8076.8335,-2061.3306,2578.3875,4054.5435,14449.96875
262,1815.3179,6713.3,-396.3599,-1439.8358,-4161.527,-1689.8278,10317.720703125
263,-596.1141,3793.9478,-4010.9072,-1568.5405,-932.70886,-4351.745,10617.3662109375
264,-215.75575,1211.1115,627.1627,-1380.4883,-373.0626,-50.778637,2772.40600585938
265,3823.6914,4778.9575,1226.5803,-750.68225,638.985,656.89276,3787.93530273438
266,1466.7859,3882.1965,5134.885,142.20206,1014.84766,765.4261,3916.2783203125
267,-2458.726,2748.8193,-2215.4517,-196.29553,218.06068,-167.75612,5123.8193359375
268,-1226.8893,3536.8708,169.92572,514.57794,379.7548,223.40411,4400.8125
269,-1625.415,1945.6947,-204.30698,191.58989,-424.1857,-203.05762,3235.9013671875
270,-3681.2178,1815.2106,-3208.0073,-924.54175,239.5093,-894.14154,5741.8271484375
271,-2016.4698,3451.5974,2863.2837,2025.1592,-496.7649,4.2368946,6330.33349609375
272,-4244.026,-503.22137,-547.9199,817.6611,-567.83765,-1526.0841,4877.318359375
273,-4561.871,1933.2744,-555.68774,2194.6938,224.29102,-332.7437,6866.498046875
274,-1305.1888,-707.7828,-1099.9178,1911.6674,-682.496,190.54028,3570.1728515625
275,1779.4974,-3526.7769,-3884.0674,360.89297,-138.62462,326.2022,5563.064453125
276,-118.915726,1052.3013,5934.995,-1144.7723,-591.16156,449.00195,6042.8369140625
277,-2055.7986,1709.117,-3984.2815,-948.26385,234.8345,-1109.2621,5631.04345703125
278,-2229.282,2616.279,-1637.5669,991.38336,173.62581,-286.4558,4924.17822265625
279,1167.3604,-1000.98083,371.55878,1180.2325,121.07436,-95.23114,2803.4736328125
280,1260.8679,-151.93604,-430.00714,133.7745,-501.23438,-591.1653,2078.94750976563
281,1920.8408,-14.69027,555.30066,-2199.4504,908.8605,-518.19794,4556.79150390625
282,-440.80157,1806.1825,847.1765,-312.3901,341.10464,339.76212,2191.322265625
283,-556.3685,785.3385,260.32935,841.96124,309.19186,-159.71437,1965.05090332031
284,1081.4156,296.30246,2825.138,1373.8912,81.57671,-58.262543,3273.96826171875
285,-2976.23,-246.764,-4632.937,-457.94446,287.68723,764.6186,4165.08642578125
286,2410.7827,-2871.8398,-2280.9883,-725.15784,196.05493,-1145.9194,5546.7314453125
287,-914.3116,-1422.8093,-1598.1652,1401.9869,946.20044,-633.39954,3188.20629882813
288,113.20103,-1464.7681,2117.3713,546.832,-185.12341,-187.53955,3282.46923828125
289,2925.3906,-2886.4185,4647.6587,-272.48145,-928.92676,2086.2476,7913.37890625
290,2530.4143,-4322.311,-5616.746,-588.98706,1252.9587,497.3962,7999.9033203125
291,1365.0338,151.25832,2331.589,-174.38286,-645.0987,79.40923,2222.44555664063
292,1316.2323,-79.77335,-923.0538,80.42312,-359.62332,-750.6544,2436.1884765625
293,2745.6863,336.7718,-148.21822,-342.88107,-1276.8436,-828.17163,3808.89477539063
294,292.2112,1348.9565,-2369.3745,-934.61926,-887.8342,2101.8232,5408.478515625
295,688.3546,-280.51477,-1022.95844,-826.19165,143.91743,-896.51086,2594.2958984375
296,-2890.8848,2140.5073,1182.841,-2135.1118,510.60464,112.38285,5992.47705078125
297,-519.0401,1263.3507,2430.455,-877.26263,-677.5581,21.524326,3210.40502929688
298,-1603.2599,-34.739273,-6549.9126,435.64603,-711.60114,-2146.1877,7113.04541015625
299,-1180.1731,2653.0073,799.4047,207.19421,-466.62653,-196.58052,3452.80517578125
300,86.24665,249.61069,-880.5264,1502.374,-268.6332,-252.11847,2880.59716796875
301,2635.0508,3821.4316,6126.0273,-1947.036,-272.0966,307.3083,4618.55615234375
302,-204.6759,3664.6233,3707.7476,-255.28836,-331.94348,-156.0967,3967.28784179688
303,-2607.5325,3455.1567,3123.2234,254.5367,-16.5768,617.0434,6015.92822265625
304,-6346.0986,6302.877,-602.8392,194.08104,1054.888,564.07745,11168.7587890625
305,-4445.7544,-1724.3273,464.30353,2448.8604,766.9859,300.56683,6178.91943359375
306,-17455.295,-15507.051,-11092.6045,5209.191,17269.848,-3288.2732,32256.341796875
307,1062.171,928.21173,-870.8868,1131.0206,-568.7533,-2499.3118,5200.33154296875
308,-8556.443,3856.8987,-21974.846,-5085.1416,343.26416,-1002.8487,24117.595703125
309,-6634.0386,3231.347,283.09885,-4858.2705,-3643.6409,-7218.637,18544.4140625
310,1392.6465,569.6512,-2753.4731,-2180.099,1741.6956,2008.4233,7065.10400390625
311,-1944.8925,-532.2309,-9596.403,-3825.4463,-8193.201,-555.9419,17820.359375
312,-2032.0107,485.1316,1396.0927,1293.6614,-37.780224,198.77077,3821.30419921875
313,1284.0691,-1148.0544,-883.78906,2385.373,-131.55182,-63.493805,4740.92431640625
314,1156.4701,-1248.5145,3583.759,-244.95935,54.669098,487.27957,4291.22119140625
315,2140.8342,1034.2437,4102.7544,225.25359,-372.23096,501.75647,2927.09423828125
316,-3663.3545,-4817.681,-1039.1448,1947.9208,741.40826,-297.7622,4954.4296875
317,-2413.2346,-2473.0151,-2064.5696,247.18764,821.06146,754.21313,2014.50439453125
318,-532.8855,-2097.8462,-2395.6213,-117.09506,308.19165,610.0195,2108.6083984375
319,2876.353,-7732.097,-3408.8716,-1045.384,1674.3506,-1046.437,10017.0205078125
320,3493.7798,-723.4091,197.13367,-538.4181,135.77591,846.3279,4221.82177734375
321,715.82806,-1913.9685,-240.76491,-1039.5243,433.05447,245.73051,3049.72875976563
322,-4448.9478,-8304.421,-2300.6245,1512.6013,1410.9103,-384.31064,6406.3828125
323,-4136.2393,4450.4253,-773.95605,-964.4563,-1576.9147,-1811.6224,8732.77734375
324,-1452.6349,1468.429,3744.886,-1814.6326,-23.865427,1313.8152,5951.744140625
325,-1483.8386,3537.9148,3309.5703,-215.80814,588.38654,1047.4768,5347.279296875
326,1808.117,862.15967,1397.9832,69.23757,-484.94852,-426.8431,1393.40148925781
327,1317.741,410.93588,-280.21344,-193.29268,728.5417,358.18945,2004.00219726563
328,2301.1277,198.6216,-80.98194,-25.672125,-463.494,-4.730538,2394.3896484375
329,-213.57396,-716.8484,-5786.772,184.57672,731.3287,2569.5127,7072.68603515625
330,660.49,885.3011,-2422.0999,-464.8994,-642.5,-937.0005,3842.73657226563
331,3492.2126,-234.04204,1751.9106,-1930.7266,323.29898,-381.53836,4728.8701171875
332,-366.30634,2674.683,3699.9333,-2315.6191,-3195.139,-731.237,7857.07763671875
333,-3307.583,4164.4697,8470.323,-4426.649,462.43533,-1990.3041,13336.2900390625
334,-10957.864,8971.006,11039.161,928.97205,-4894.6577,2612.6604,23186.0546875
335,828.21063,6361.0146,-2652.0886,997.51086,4035.27,6094.973,15008.7177734375
336,-158.17883,3278.03,566.1635,-812.743,757.49396,-451.30844,3762.61791992188
337,-2445.695,1148.5186,2030.6632,1693.8894,-1001.20557,-805.4671,5516.205078125
338,-688.0207,-117.62059,-4823.9077,160.34259,-613.87494,-237.22704,4600.7080078125
339,-1012.0668,448.8009,-5474.944,276.21774,863.08,648.9903,5683.1552734375
340,-634.54205,410.79117,895.9977,1970.8588,221.35901,-226.86833,3713.43627929688
341,-48.897858,570.3163,469.53497,1371.1636,192.05222,-182.35767,2486.3349609375
342,-1667.9714,490.87515,-2087.0132,952.539,82.15542,-438.03436,3009.77124023438
343,1586.7196,-2954.6145,-257.0584,-1017.56244,111.64028,629.2121,4470.0595703125
344,1697.1437,-453.6979,133.5431,274.86133,271.67792,-214.6444,2072.24487304688
345,921.01697,3368.4475,1455.2277,654.9945,-777.7344,247.46669,2872.84497070313
346,-191.92632,1425.8175,-452.6175,1061.4082,426.3965,-273.90613,2693.89404296875
347,-647.5134,-220.78583,325.76468,1027.231,-138.2427,71.59221,1988.05480957031
348,-1910.7975,-207.91238,-228.00847,1278.57,-188.28815,-286.98413,2850.20361328125
349,-3098.1157,-1481.4813,-377.61002,1905.195,650.8049,1171.361,4678.97412109375
350,-569.477,-522.3337,-698.4458,-2306.8179,-699.63544,42.79711,4178.89013671875
351,-1918.1802,411.654,777.93994,1028.1836,-295.4862,39.744884,3139.08227539063
352,1249.8995,3278.2317,7738.2227,464.59396,-241.34846,-303.44788,5843.8447265625
353,-183.81845,-440.89474,453.98862,1145.8342,-133.26968,508.62003,2324.87084960938
354,-2891.64,2007.9672,296.53027,1761.1597,-824.6648,894.2091,5682.77197265625
355,-3961.8699,-3855.671,364.9353,2483.3242,-122.01404,-901.9055,6265.6748046875
356,-3035.9866,-354.47726,-3772.7317,1893.859,94.14872,-147.97562,4534.45263671875
357,-2593.7063,2415.77,1543.9366,-108.61945,1168.727,-349.78464,5097.81591796875
358,-1087.9045,-586.12634,-16.675333,822.17737,89.602036,96.77908,1715.1982421875
359,1222.7109,1290.4435,286.49115,-761.968,-75.840294,-3.234232,1644.25671386719
360,989.836,-1598.5175,-984.23346,-279.0944,-971.48627,517.5392,3058.67822265625
361,-247.39664,-1067.1166,150.45055,-518.2377,77.20689,-5.2118673,1407.13232421875
362,749.04144,-859.08594,2699.2686,-3758.486,-353.9753,-523.90094,7287.224609375
363,-1335.809,1023.6261,-323.2531,-598.0561,47.95994,-151.51042,2313.42236328125
364,-338.5548,-645.3959,109.14747,-448.53732,38.414757,120.06258,1040.76489257813
365,-1166.9447,-189.21494,89.36645,-766.79486,1.8768477,128.71815,1766.23303222656
366,677.9706,-2069.7148,-912.46075,-502.75604,123.91761,108.30762,2559.060546875
367,385.64038,-1519.3846,-343.09695,511.848,-81.12118,-58.673378,1894.18859863281
368,472.1573,-1772.8069,-335.9738,222.28189,135.02306,-8.565549,2020.36047363281
369,1221.2584,-1072.7828,1722.0082,398.9928,67.46426,-68.62025,2677.21557617188
370,-286.47845,-209.57185,815.81116,-68.98518,-119.60871,-61.276783,1097.56262207031
371,-822.0031,-432.89932,299.13892,113.15234,-330.88614,153.3971,1187.25732421875
372,-845.5413,-597.5448,9.8054495,559.4551,112.248085,-27.213823,1248.99475097656
373,-670.08813,-473.0594,174.45944,-236.90952,-147.91814,-3.2200162,905.38916015625
374,-1122.223,-196.17221,-2045.2335,-462.5634,-167.03503,152.20418,1832.85791015625
375,-982.92786,885.17523,-750.1304,957.2089,134.58694,194.31726,2454.68505859375
376,-1445.1045,-543.4892,-329.62665,310.42648,-12.0867195,-109.82386,1173.53527832031
377,909.57306,1149.4254,-528.246,205.01505,42.63929,-43.828865,1614.62927246094
378,-1150.3632,-1616.1876,780.1985,-624.2646,1272.4409,-328.4814,3345.6689453125
379,1009.8008,-702.2782,-32.185825,-537.8224,-345.9712,597.3829,2128.4814453125
380,1312.9962,-1487.0792,-316.94824,454.83508,-396.54742,68.19738,2653.20581054688
381,1133.7743,-1072.3146,240.78954,729.3733,212.42914,-32.50543,2329.96801757813
382,1348.4917,-741.55853,568.44543,273.5489,-137.20474,19.581099,1904.87780761719
383,-396.82245,-284.28314,303.6455,917.79956,-15.988542,53.66634,1720.74560546875
384,-821.60596,-382.97708,47.66444,397.0296,-81.0853,-2.630957,1029.26281738281
385,-594.85114,-339.54504,-254.38144,1030.6029,185.78027,-58.412445,1842.38500976563
386,-1187.2186,647.9994,-117.470764,-392.43292,35.47817,-50.162716,1738.5341796875
387,-1093.0264,766.32263,-602.65643,-1089.5015,-53.02415,134.4161,2531.70922851563
388,-406.084,-802.9571,-87.13914,-1064.2297,4.4561157,-277.62677,2003.71130371094
389,-980.45935,-1099.8152,-286.1533,-481.96906,145.33101,71.46089,1163.93383789063
390,-547.35535,-1914.4717,477.21686,-810.29846,105.28122,-216.9779,2542.38208007813
391,-321.76492,-1749.6577,-1784.2197,-606.3199,245.37894,29.54792,1837.26599121094
392,557.0514,-760.0531,1285.3585,-2.4079995,-149.34306,-12.8660965,1814.35278320313
393,911.8308,-1493.3845,-236.8289,457.8056,199.01073,-182.91068,2278.07983398438
394,-909.24756,854.8077,174.38315,-289.29428,-88.453094,38.58519,1628.97937011719
395,-1266.3848,-514.7366,438.48648,193.54999,80.01392,-131.19604,1540.56042480469
396,-36.5889,-23.0039,-53.073235,1116.3347,-48.583965,16.064913,1935.75451660156
397,188.53586,619.5722,812.41223,-1517.1288,-167.83801,-121.1252,2709.18115234375
398,924.1418,-1798.1754,351.94925,-133.60928,-277.13748,-270.59906,2585.41430664063
399,1246.7703,-1452.6348,290.8865,29.456167,152.10797,-113.48227,2393.91552734375
400,-2365.3796,1794.4904,-2142.0728,-1228.0776,-162.19965,741.9321,4762.3837890625
401,-505.78207,885.2142,-1270.2454,324.02505,303.87167,135.25136,2056.5771484375
402,-1062.3887,2492.3562,1769.8193,279.51077,-45.41158,-444.4338,3379.78784179688
403,867.8388,-600.3646,112.29042,-92.45772,-164.59505,-11.715466,1313.20495605469
404,461.26468,-611.30115,38.927345,24.65034,102.20676,-137.45883,982.663757324219
405,42.27507,-537.3246,294.25116,117.81642,3.5588636,17.173475,766.836242675781
406,-239.74492,-1423.6217,1131.045,-450.37018,-159.19409,309.44537,2423.89624023438
407,79.79981,-1307.2714,-211.76546,-393.28055,-104.12293,52.10296,1452.31970214844
408,-635.422,-1023.67035,-1244.1113,-1061.9296,176.16066,45.041325,1940.92346191406
409,57.459072,-538.8443,-384.53217,-533.9362,-249.39676,-99.76531,1165.80114746094
410,99.81445,-334.4334,57.759666,477.1816,183.86858,185.62047,1029.54956054688
411,-247.73312,515.54144,-767.63605,-1743.8602,119.193375,-262.65808,3259.2099609375
412,701.9128,-814.57764,-79.75656,-401.81424,-18.16402,188.11348,1522.12683105469
413,478.03116,3539.505,1958.8146,-2113.1328,9.310751,-345.23193,4559.14111328125
414,92.567764,-647.9907,-211.5445,431.98297,34.940674,37.57135,991.677062988281
415,-1146.8232,-1028.921,-148.85056,751.9291,109.07043,28.162123,1620.6318359375
416,627.3292,-851.1451,-347.90973,417.92133,21.673706,-17.26465,1490.43273925781
417,-32.67273,-864.01776,-238.02101,1042.3903,-135.93579,143.52156,1984.830078125
418,-1378.1614,279.25363,315.0189,1041.6812,201.66304,-175.4613,2505.44287109375
419,-262.06827,-619.4016,220.85716,-324.3002,32.49108,-158.7228,963.185913085938
420,1462.9031,576.5465,1499.3707,-753.2818,200.74944,48.470715,1627.73803710938
421,2053.5608,-3885.134,4580.543,1883.7919,67.38519,-990.4802,8382.3330078125
422,-585.068,154.81075,-522.8473,-252.27902,149.21501,-58.161076,879.2802734375
423,-723.6106,636.41296,1025.9362,1200.7756,-232.55373,-56.288227,2651.12963867188
424,229.40315,948.84106,1229.2239,-840.94495,-88.36698,-183.6774,1744.74267578125
425,-632.2671,505.25974,24.900288,292.69943,16.948393,-3.0452893,1111.84497070313
426,-1680.7247,-268.01758,-232.23692,334.21637,-98.501305,-7.178878,1553.03991699219
427,-142.21997,-218.82196,114.680954,-281.82092,-112.065155,128.4702,645.75830078125
428,-177.06015,-744.301,34.83185,1033.5763,95.44661,-100.9124,1936.38171386719
429,-993.0336,375.93854,-321.26807,-297.43973,23.658695,-1.1048324,1293.37524414063
430,-947.5002,-531.4307,-554.88947,153.22716,-42.968204,4.9160233,489.847564697266
431,1772.8026,223.15843,3360.423,-406.11935,207.0956,-472.30197,2945.310546875
432,651.4142,-1449.1815,-340.04276,363.19235,26.226942,114.359695,1936.45617675781
433,472.24133,-796.8984,-223.0852,-152.45381,-52.812775,11.646347,1135.88256835938
434,462.50165,-1479.7485,-586.06537,-88.53881,199.1436,-96.52019,1733.69250488281
435,-172.30746,-988.67035,-19.827978,-214.55013,-18.489183,-114.707855,996.379150390625
436,181.45778,-498.96765,981.34106,-337.61774,-283.55832,116.60191,1506.98840332031
437,-1186.7693,-1968.2224,-932.28784,-801.5714,-195.46783,328.6231,1800.12438964844
438,-454.43726,-390.36243,624.6481,-198.22966,-20.557076,40.026913,1106.05053710938
439,550.70074,-1569.1252,67.345085,-907.33624,196.39273,128.80911,2517.52416992188
440,-1145.1399,-523.6983,302.37018,259.8753,54.174294,-43.185314,1341.24450683594
441,262.9,-504.81326,292.27783,626.2181,-151.38724,175.42784,1396.541015625
442,268.67654,-1093.7328,-1049.0834,-1239.0364,-179.30368,59.576332,2551.48046875
443,123.3787,-103.210884,382.8524,-169.18129,3.8587732,-286.34476,713.691101074219
444,-251.85094,-232.18704,15.336209,-521.0869,-55.257362,84.5096,954.830932617188
445,-566.82153,-921.28564,-278.50412,-859.2669,-69.30088,219.11919,1638.42492675781
446,-996.3132,-324.928,-3825.9812,-798.7983,-98.070564,363.81033,3563.388671875
447,-1908.9515,-1828.8173,-441.9579,-758.2812,-26.28023,110.67266,1950.57006835938
448,-630.7747,219.37393,-128.94878,1163.1677,-68.40847,95.43489,2155.96752929688
449,380.53387,358.2538,-179.45255,445.6859,277.75223,30.080204,1063.7978515625
450,-1019.46185,-829.62726,-122.97923,870.96655,107.161865,-33.33828,1727.15612792969
451,-461.65433,551.8786,-570.45154,7.869912,-244.36316,36.06234,1154.37548828125
452,-173.19936,633.20984,778.93005,-510.41107,-269.06738,-64.442444,1341.73352050781
453,245.00948,-88.078995,686.29706,86.49488,-208.83156,221.41211,867.765197753906
454,-1318.4905,-997.8825,68.90766,377.94336,-7.1123557,135.27171,1437.50573730469
455,-571.8695,-302.6814,-3388.4788,-259.69174,-27.183123,329.5225,3048.6455078125
456,-177.73712,-341.96445,-1005.95886,-498.9461,-111.23945,-125.5031,1186.64343261719
457,-87.171104,246.3455,-390.98563,-67.35089,-93.79451,90.48252,607.804016113281
458,192.12253,-918.7388,-1681.7924,-110.04774,17.647793,-85.69226,1650.21374511719
459,787.9972,-227.2063,-375.89645,-437.01666,226.68404,200.44131,1432.24841308594
460,-66.58839,-887.0147,277.27264,-251.4175,33.270897,-174.55754,1165.25378417969
461,-674.1521,-713.4594,-450.08102,56.68147,191.2167,123.758675,475.225219726563
462,-1064.6512,-1903.0991,1261.4318,-31.379862,-338.65546,71.30778,2902.79638671875
463,-59.17114,-210.53809,-73.19741,-537.8556,-21.37337,-104.48156,960.7138671875
464,-613.13715,524.8456,147.49408,-7.0732846,-21.888033,211.61409,1069.53649902344
465,-1270.4102,-73.82694,-489.47055,488.19318,-101.81557,26.59524,1362.14453125
466,-304.19946,459.64136,2375.095,-234.4976,239.44577,-292.74255,2511.88818359375
467,-852.9636,-1038.1051,-1783.1218,137.6468,-237.4835,106.19155,993.542053222656
468,-329.64758,-356.0394,34.884857,199.78716,-595.5382,-343.82257,1296.75939941406
469,-144.18857,-534.20966,150.13356,-192.50807,-82.745056,156.32089,747.369201660156
470,-831.1183,-427.91626,45.060028,1284.2284,-192.82883,-10.29404,2374.14794921875
471,-2128.8894,-1504.6238,60.028248,836.30896,-60.705246,16.745764,2434.078125
472,-50.32034,965.6065,170.05185,501.204,-170.99329,-142.06258,1326.1474609375
473,860.3847,2776.7969,79.259155,-539.4635,254.27856,70.698044,2619.50024414063
474,471.41888,-880.1064,-219.0296,959.94855,-238.46819,27.539299,2075.46655273438
475,167.54355,170.31789,-8.185068,-199.0567,318.0065,37.927116,676.71728515625
476,370.19037,139.89734,-487.40424,-468.6737,768.30255,290.45612,1809.40075683594
477,409.6692,-55.170723,395.93234,-331.50797,114.89336,-52.645153,766.477661132813
478,-634.2416,685.91864,-275.05002,-127.35101,174.23064,-99.65658,1251.86633300781
479,1365.7544,3509.3782,-686.0347,1799.557,-191.20667,304.83734,4827.72216796875
480,1558.9718,-460.61935,199.3061,-728.69995,-17.714218,-204.84406,2213.88940429688
481,960.167,-1550.7678,-243.3258,-72.659225,22.320261,-156.68536,2195.96899414063
482,-1179.3867,-1221.856,-277.43204,-135.14186,93.09735,261.30984,1067.36645507813
483,-2041.6903,-1103.329,283.54935,202.11691,121.369606,-29.39996,2067.53125
484,-6.6297717,-647.4183,407.4474,-142.92856,-355.65298,12.735293,1135.18505859375
485,-2657.1953,-967.23553,-340.18744,71.91612,188.1077,-2.839574,2104.88305664063
486,-390.16342,-1339.933,183.12292,452.4701,360.91586,-113.27228,1678.88940429688
487,-283.00415,-754.1321,-106.9749,-116.77973,10.113838,-52.205,620.705688476563
488,-612.13727,-382.6533,-18.85223,-476.0304,-131.25307,-57.752113,1004.9892578125
489,-2906.7324,-1387.695,-316.76736,14.686377,-230.88992,12.179466,2289.57690429688
490,-2842.6658,-1776.013,-321.43475,-55.307846,184.5329,29.84268,2217.900390625
491,306.89987,245.90077,270.75528,906.1394,54.20015,-103.85475,1583.4326171875
492,360.6238,-1756.3698,-84.34816,332.87454,-28.70321,-215.71298,2052.3505859375
493,-296.67206,-1566.8733,-564.59406,-112.10816,-15.289395,186.50996,1219.689453125
494,-133.63675,-572.13837,-365.83826,185.11943,24.225552,195.68692,603.182250976563
495,-758.3219,-570.2027,-28.41001,373.6214,40.02371,-65.082886,931.204406738281
496,-458.09668,-680.953,362.32016,265.45566,-220.4752,61.027332,1128.70935058594
497,733.332,1749.4338,129.29993,191.785,-202.84009,-40.440247,1499.91967773438
498,-787.7025,-776.42944,151.62347,-571.7928,15.426834,-172.57857,1393.83508300781
499,155.22292,1847.1853,974.7228,429.73434,43.00077,-43.011124,1647.07788085938
500,-2082.5332,-1615.4973,201.346,1067.9866,139.66301,5.2899075,2801.42114257813
501,-718.01556,-102.00464,139.99748,1053.6783,173.41176,-272.88092,2057.04443359375
502,-527.9162,19.680058,-719.1035,381.39932,351.64645,-116.89631,1135.54565429688
503,-2410.0342,367.82312,227.74464,182.72658,-96.97859,29.807993,2734.60083007813
504,-436.4813,159.93665,-177.30977,66.629326,124.62384,106.86381,602.06396484375
505,-58.5374,-285.11078,951.18835,-720.74774,39.53173,-219.13509,1734.02404785156
506,-1054.6533,-1961.5034,296.7075,-664.83215,13.711712,-254.9498,2322.84350585938
507,-759.5127,2382.9685,-53.33252,370.04965,36.328354,-55.97228,2928.97412109375
508,-365.4023,1154.837,-713.46484,235.75883,112.19454,209.23705,1815.8369140625
509,189.4632,-287.81827,825.61444,101.171135,40.227978,-146.495,1017.86700439453
510,-1539.5454,223.51347,512.1011,659.2967,6.553904,97.31762,2243.43798828125
511,47.438587,2445.039,207.11514,-289.68347,514.90015,-64.90384,2539.86181640625
512,-1032.0743,275.03268,37.103207,1124.408,-5.5011954,16.377636,2290.83276367188
513,291.93826,2114.3796,-357.43356,-97.66619,3.6951654,-13.855238,2226.12915039063
514,708.76135,-4.2559085,582.85254,87.93671,283.15137,-192.80798,899.843811035156
515,-1905.5298,-2144.6914,-209.10391,743.1419,-103.37947,124.7357,2253.06396484375
516,286.60403,-472.2607,-581.94366,-142.4434,-19.010128,61.628826,862.838073730469
517,-1015.9468,-490.95618,2145.609,576.94507,-102.94992,65.060616,3107.14575195313
518,421.5089,198.26825,563.5983,-595.67065,-339.21426,19.575233,1229.86376953125
519,-339.93466,109.8037,-29.827648,-171.73595,117.44916,178.00009,619.579406738281
520,-768.4573,534.36865,-160.72375,-226.73448,136.38129,270.8595,1305.7734375
521,1254.8947,-1496.3037,-2160.7688,-105.421265,227.74257,80.429596,3169.705078125
522,1460.98,-1122.7633,-1380.5155,-269.27454,-37.160347,127.467125,2771.0185546875
523,-1597.8851,845.5615,-997.44836,-182.85793,33.345947,93.66925,2234.6787109375
524,-3178.1885,-2537.4224,927.18274,381.98923,-375.93927,10.593026,3936.5146484375
525,-2515.137,-1511.4918,927.0517,-159.1555,114.037506,-143.76295,3094.873046875
526,-1194.6543,237.70378,-85.22991,67.65168,-42.67956,-41.68386,1310.64367675781
527,-1020.4068,-553.33075,139.91432,-117.758446,176.27602,6.7509575,1075.87377929688
528,653.4406,286.80997,1187.5797,166.8493,-154.96094,50.35021,882.447998046875
529,939.6929,-359.99292,660.14453,1252.2065,240.73946,-76.55913,2509.88427734375
530,-1824.8423,-664.3529,-160.68474,1366.2153,201.63214,38.452843,2812.64184570313
531,-522.0318,-1707.1558,403.55344,309.0633,52.83883,-147.81734,1928.37915039063
532,-626.8639,-1174.9763,-234.01773,420.2172,-184.63763,269.7204,1233.02355957031
533,258.552,2037.8906,120.41246,-113.16163,-53.80834,172.73575,1888.79345703125
534,-400.69055,1970.4276,234.63826,72.2293,71.49993,-264.1431,2181.67529296875
535,-1770.0701,2001.1738,-123.96488,863.23486,2.5955687,144.89104,3608.68432617188
536,-1129.217,1811.867,126.461334,1260.5206,59.766373,-53.46348,3364.47241210938
537,1549.4453,572.4954,1939.0411,825.8205,-216.08203,-41.172375,1917.79296875
538,1260.7427,118.273224,1492.2434,935.387,-288.46185,70.27779,2124.28955078125
539,258.2545,2791.834,57.8296,-2056.155,54.89977,69.69986,4435.52978515625
540,-1853.0605,-173.84291,-154.58366,1735.8408,45.39274,-70.94704,3451.54956054688
541,-2026.0894,-1437.3302,-1262.7993,2166.54,10.872802,73.76853,3818.1435546875
542,4020.5093,379.7615,-1093.03,283.33957,55.71013,-24.322071,4586.73681640625
543,-894.1744,-535.8271,-228.25409,-665.9299,94.911964,-329.97906,1420.31799316406
544,3199.1016,-190.06818,-984.7317,870.83093,314.17386,-25.479158,4169.4501953125
545,3968.9734,-793.2048,-478.23395,-1868.1428,91.27611,-16.435755,5636.77880859375
546,2758.0437,-1584.5704,-753.8636,-1903.6936,-317.87717,71.045906,5208.77734375
547,-180.01639,-294.0888,-1045.4386,769.91046,-171.09726,109.218956,1601.60632324219
548,2856.6023,810.0789,-324.56326,-106.5791,31.189571,-314.0525,2851.42504882813
549,3276.675,780.06464,-278.41577,-762.63916,155.19585,29.359247,3437.4052734375
550,-1542.4283,61.455395,12.301908,-1381.9988,128.56337,42.70664,2877.64501953125
551,818.8974,1218.8585,156.30748,29.876534,116.96686,-72.83434,961.062194824219
552,-2563.4321,-1877.0065,-293.2147,-424.86105,-88.59133,97.955055,2158.83837890625
553,1604.4418,2270.7263,-33.017193,72.86738,-256.9244,241.07645,2145.81762695313
554,2191.3535,146.90009,1206.6499,-1450.4606,72.51936,-47.27606,3077.37548828125
555,2584.2158,972.4182,1841.5569,-270.40137,-216.97075,9.509938,1520.943359375
556,1142.1042,1538.1542,19.099188,-12.465243,-89.098305,83.994064,1381.37915039063
557,2029.932,1173.5747,681.38196,142.84583,-17.359201,14.054898,1208.22424316406
558,-1406.067,-3051.6523,472.10107,-306.41702,-114.78011,-155.72482,3117.70751953125
559,-2244.7163,-2992.0789,-297.996,-771.6191,-217.61061,351.05896,2846.25268554688
560,732.64044,-1411.2611,-44.88175,-555.8968,-359.05984,261.03183,2247.70385742188
561,1072.1814,-855.0299,-236.63986,479.43185,-115.594475,-10.030076,1906.49780273438
562,2624.1562,-229.49303,-468.5831,1096.131,-22.986776,-382.70782,3595.58740234375
563,-603.19617,3084.7468,-64.43935,43.598103,-258.22464,32.83543,3480.41015625
564,942.1121,-791.83417,-223.87544,426.88678,-130.6043,-36.220615,1716.43298339844
565,1002.15027,-952.3694,-623.98926,-245.55525,-35.70568,-63.158356,1866.23657226563
566,-173.35356,-1346.839,144.26616,-464.38266,37.535103,360.3524,1700.416015625
567,-1990.8352,1536.2219,-515.8943,1462.2764,219.99521,-242.55586,4018.68530273438
568,1738.5073,3039.9016,-2.4631102,1031.9089,195.46597,160.5551,3221.29736328125
569,612.54755,2840.766,262.4248,-1633.4668,-29.28642,122.04836,3730.8974609375
570,1669.6058,1633.4736,972.8288,-712.0475,263.36136,-66.69489,1484.61596679688
571,-868.00073,-98.71043,-416.0624,-232.5695,115.21107,-91.440544,821.92138671875
572,-834.9683,-239.4499,2.0441432,465.8742,-142.52858,-190.40001,1173.70849609375
573,-456.24173,-776.81836,-48.632973,261.9702,-36.75824,255.31815,897.265197753906
574,814.7309,-113.259186,525.86334,-176.18431,161.58652,66.083496,927.953857421875
575,110.499664,-864.3227,338.0252,-142.95093,493.43408,-155.37206,1444.99182128906
576,-845.9185,-900.9861,-345.94345,-566.8342,166.53806,77.265274,1159.98168945313
577,-274.10672,-1491.4524,-1100.4829,287.82272,66.90001,-49.11838,1195.00329589844
