Element Label,S11,S22,S33,S12,S13,S23,Mises
1,19819.0,11330.55,3021.7043,461.9314,2318.7292,-5804.7637,18151.45703125
2,16506.457,18057.053,1544.195,1989.4858,-1484.1552,2752.6782,17049.576171875
3,15952.9795,15993.507,8265.088,3691.169,-2686.6074,-2055.2114,11602.427734375
4,15481.675,15052.733,-3586.3506,1220.3422,6791.2427,3176.4512,22993.361328125
5,12725.778,14713.06,9402.648,3715.691,-4100.101,-2261.9412,11348.884765625
6,19505.0,20612.898,1956.848,2507.0293,-1509.9785,-1820.0896,19085.0859375
7,14796.127,19328.627,-6606.24,2035.5597,-295.51175,390.58722,24264.404296875
8,21040.455,16035.16,-215.71497,609.3019,2017.498,-1155.845,19693.068359375
9,9415.802,15452.461,-5880.99,-1307.6713,-5914.57,2557.7031,22191.8125
10,19110.572,10493.327,2898.6897,1203.0247,5648.742,-5845.524,19998.935546875
11,21339.78,22219.576,5803.6055,1865.1559,-443.68588,-341.11078,16345.9931640625
12,18651.299,20486.486,-5339.5547,4583.2993,3666.2366,-1104.1134,27017.728515625
13,24707.703,34358.78,11813.382,1336.052,-2071.3723,1412.5345,20200.58203125
14,8655.96,24871.947,-2038.3433,1644.7094,5001.2275,-4946.858,26595.32421875
15,17216.492,10716.546,1940.9944,-3238.249,-7912.1797,4405.3496,21302.302734375
16,32687.123,24743.824,34687.42,2685.5999,-944.97876,16047.665,29662.857421875
17,18358.57,21961.973,5046.0864,-333.96808,-120.24528,16829.676,32988.921875
18,9315.947,2094.0652,-19470.982,95.88326,3357.0098,1311.9572,26682.333984375
19,12097.262,-9365.782,2388.1409,-4662.0317,2110.275,-11370.099,28512.15234375
20,23455.453,12436.8545,16583.21,7544.4253,-571.15063,-2722.3376,16937.5859375
21,10559.526,13116.928,-6401.1606,-3334.7515,-16089.648,3601.2737,34445.3203125
22,2348.5266,9547.936,1948.2024,4989.7915,-6547.322,-890.6939,16141.56640625
23,-18466.521,-4695.021,282.09433,-8797.156,-2611.956,2664.4822,23598.802734375
24,-30079.389,-19875.984,-30305.396,-2985.0579,-4729.6646,-2023.3837,14580.45703125
25,15525.504,20777.234,30552.48,-414.0831,-15034.241,6924.98,31574.337890625
26,9364.987,9754.344,-87.76898,-3594.5266,3747.2583,10549.07,22537.1484375
27,40712.324,34482.11,55829.09,355.48425,-14529.548,2429.7373,31826.5
28,8979.9795,14181.685,9792.168,7584.157,-13244.705,14792.819,37132.19921875
29,17589.467,-7218.6016,-18726.64,4252.4033,-6006.326,2910.7952,34946.5625
30,25503.795,5609.56,-7792.1333,-4480.1597,-14148.546,3198.1145,39159.23828125
31,18262.615,25332.305,33348.258,-752.4541,-19365.215,5195.3022,37129.6796875
32,9357.975,21914.379,19564.059,-629.1119,-14241.894,-3275.5369,27848.609375
33,1854.821,17448.932,24899.412,-536.18915,-18476.428,-2168.0413,38130.9375
34,19267.621,24595.377,31704.29,-6212.562,-20248.588,322.39694,38248.02734375
35,28985.42,36934.61,44575.094,3086.3835,-15440.203,-2658.9094,30778.052734375
36,5294.554,6772.9863,-28951.53,4758.3794,-3033.745,463.79987,36356.47265625
37,20660.854,29364.234,27273.691,-3165.0615,-20358.004,-2625.689,36823.97265625
38,11838.655,3217.4194,-8489.767,193.54962,-15389.806,2743.1184,32334.798828125
39,18116.656,28133.486,32304.236,3830.4175,-17324.715,-2981.7883,33624.9375
40,20306.877,1359.951,-7790.4287,-4422.4263,-8260.222,3067.884,30127.89453125
41,17088.697,-635.1279,-11383.417,-2578.377,-7277.905,-2471.6663,28589.08203125
42,17967.379,24058.125,17263.395,579.9611,-14798.995,7001.8477,29103.23046875
43,14955.877,15144.231,16452.467,3220.3115,-20951.85,-5538.0015,37974.37109375
44,17836.55,16329.794,24924.816,-419.7486,-17367.295,10366.447,35930.2265625
45,-6434.8096,13718.305,1395.0984,-1148.3907,-12321.583,-5465.5674,29303.521484375
46,2864.3179,2023.9115,2281.4812,395.06024,13.887082,-996.36847,2000.80187988281
47,-6043.7754,-9017.964,6148.7456,6241.8794,-1126.9047,-13870.011,29859.517578125
48,3460.079,19455.535,34235.758,1165.4901,3208.6226,-1474.7516,27426.474609375
49,-754.6972,11640.79,22343.83,-10490.93,11087.866,-5388.879,34452.7734375
50,14912.318,18721.842,21297.385,2227.7595,632.47296,-7193.491,14222.7021484375
51,11328.074,1248.0515,-3072.6035,-1627.9318,-981.2361,-12424.363,25253.921875
52,2560.0825,8204.579,-2956.6663,3831.1147,-5199.999,-12892.655,26781.48828125
53,19541.209,17633.264,24404.729,-3855.2705,-8315.405,-8755.492,22772.275390625
54,22504.217,18936.639,22015.416,-2998.205,-6873.1636,-12133.733,24931.78515625
55,24003.29,27468.752,31694.787,-1933.1637,916.137,-17052.094,30505.162109375
56,-8447.329,8401.543,-25202.416,-7350.949,1753.0098,1496.8162,32015.177734375
57,16303.994,10744.324,15951.812,6031.957,-115.17187,-17358.734,32283.837890625
58,29224.94,22372.168,38573.49,968.80396,-237.99176,-17756.422,33871.47265625
59,3429.9036,-320.20764,8348.591,-1010.176,4646.33,-13860.656,26474.181640625
60,-25266.275,-5767.032,-6573.681,221.57564,114.6602,-11888.406,28095.04296875
61,-5917.765,-22296.43,-11211.02,4669.282,-1409.5314,4639.973,18588.646484375
62,5288.621,1502.796,-2397.9702,1619.3495,11738.689,6.573508,21577.154296875
63,23912.287,19456.438,37187.43,5015.468,18310.062,-3064.217,36941.09375
64,10500.544,13742.585,12336.254,4264.8667,19196.043,-7782.058,36737.47265625
65,12328.591,16391.8,13667.845,-1362.7015,16430.254,10175.845,33748.12109375
66,18358.346,18357.418,13923.317,3657.3555,16384.693,-1859.5323,29589.564453125
67,7026.7646,8055.267,4043.0208,5771.68,21177.797,-1991.5188,38345.296875
68,18779.627,20358.906,377.50558,-193.70807,14534.268,-2312.712,31938.80859375
69,14394.072,19705.531,33489.285,3700.7495,18885.738,-790.7781,37475.2109375
70,23019.674,21387.533,16886.084,-4107.0054,17522.307,3379.791,32190.666015625
71,17547.441,15662.707,19102.604,1682.6985,15930.959,3565.786,28581.935546875
72,23992.115,20290.555,12490.802,8241.863,6240.6646,5414.899,22627.306640625
73,25579.441,33591.555,17957.77,-547.053,7512.8926,8017.901,23376.017578125
74,13125.433,5308.4507,-25824.518,4032.2957,-4467.602,4894.237,38134.62890625
75,18002.576,20372.443,16405.818,3875.9668,16321.803,-848.30725,29298.154296875
76,20248.19,21152.482,25809.168,-1568.1997,21562.064,5045.2344,38797.1953125
77,1690.5739,-637.12396,-19389.754,4350.2324,-1809.4937,8130.036,25799.5859375
78,10348.416,20950.81,21551.055,3376.3474,19614.654,7035.4126,38157.953125
79,18082.986,26395.174,15241.803,4465.164,18062.988,-3137.5557,34189.7890625
80,5798.869,17827.268,9199.924,5343.992,10156.474,-6591.643,25314.544921875
81,12068.607,6580.704,14024.969,-4267.893,-719.0055,2195.6743,10739.615234375
82,1151.6461,-4619.7695,-12465.034,583.6037,2066.733,4701.197,14841.677734375
83,-8769.963,-3762.7717,5625.356,5306.066,1472.714,6456.3037,19396.86328125
84,-8587.2,-9665.474,-9739.664,-123.10587,-313.0681,365.43228,1410.07019042969
85,4043.6597,10409.581,11562.8545,4196.9546,-3991.7087,16311.309,30789.892578125
86,37603.902,26918.887,39067.707,6570.177,-1667.3555,19511.135,37574.56640625
87,6373.1733,16823.697,28617.266,4633.0845,4812.8525,15159.98,34567.5078125
88,17206.121,25752.479,-314.8275,-1814.994,5694.8345,9287.963,29928.8984375
89,21381.746,8290.478,16330.196,3914.5615,6641.685,18215.533,36117.7578125
90,8170.102,27291.512,-8155.8164,2697.7754,-1763.6327,1946.8606,31414.55859375
91,7604.218,13203.159,1101.2991,128.76631,-6759.6,18035.094,34970.92578125
92,5211.478,9481.1,-13005.803,431.64575,12425.547,9489.142,34084.49609375
93,9475.213,17054.854,5927.9517,-251.76555,1566.5897,19480.76,35255.83203125
94,8210.384,10456.01,11594.763,1458.2467,-3759.7617,20357.55,36069.0078125
95,18936.898,9070.125,5082.983,-2308.207,-7691.528,16159.918,33607.765625
96,14941.487,9909.58,-10798.46,-11950.624,-10382.62,4346.9136,36971.3359375
97,9908.63,14073.747,945.5874,-5823.5127,-7795.117,7685.4756,24418.1796875
98,13744.426,22581.299,14173.123,5258.4844,-14157.608,2565.6787,27901.658203125
99,25681.459,35031.344,49059.35,-5358.0415,-15082.512,-7571.659,36822.92578125
100,11203.951,21281.19,-5093.958,-3519.0132,-3877.4485,5904.519,26800.275390625
101,30555.67,15664.78,8637.65,-1993.5514,13775.517,-3815.6128,31633.10546875
102,7486.6357,11576.5205,2020.7687,1918.5669,-4620.1562,2961.9382,13052.091796875
103,21161.309,9302.976,27496.18,660.5196,-5045.719,-15350.955,32256.99609375
104,21792.5,25203.418,40846.668,3325.8845,-11243.212,8803.847,30897.259765625
105,18960.22,16720.633,9724.884,-4707.1055,-13512.689,-13311.662,34863.6484375
106,16880.242,15780.196,22259.459,2684.9429,-18188.04,7180.083,34709.73046875
107,16612.223,28510.797,31723.764,493.12857,-16925.082,2863.505,32784.640625
108,11474.431,14916.873,24721.885,1600.4354,-13465.544,2374.2517,26651.451171875
109,16124.354,23769.424,17772.32,1727.637,-7198.234,-17327.664,33372.23046875
110,13617.319,25865.281,24338.059,933.4585,-18150.18,-3938.697,34221.05859375
111,-5849.024,-15568.581,-24461.18,5326.3784,9838.663,-3217.025,25817.373046875
112,23979.945,15057.107,-257.2529,-4480.1865,3795.8325,-904.0312,23594.220703125
113,21111.21,6043.8467,-15909.492,-8690.929,-2956.663,-7803.1143,38408.875
114,22588.936,4107.5127,-9906.623,-5528.7812,11862.903,-4.8182425,36205.6328125
115,11930.286,21534.32,20497.48,1448.9923,13875.312,8526.003,29754.06640625
116,4108.2607,11569.945,7978.078,620.98694,21599.379,-932.7058,38015.0390625
117,14566.209,2056.7397,-10717.386,4409.3896,1948.6908,2594.9504,23861.7734375
118,12717.009,11003.671,17129.71,-3368.489,13617.366,1062.9807,24973.904296875
119,3501.174,3177.329,-777.4188,2637.7478,8195.519,5.930943,15472.505859375
120,-10170.483,-1076.7817,-3227.8057,-11497.572,5290.521,4105.3247,24471.90234375
121,22721.803,20976.625,3601.1094,191.27847,629.34143,4394.8696,19862.53125
122,20315.453,26206.53,24626.7,1468.1361,-15344.574,5071.4824,28598.734375
123,13720.84,19410.094,32916.867,-1872.1274,-19297.2,4633.0737,38518.83203125
124,24979.785,11385.805,-13135.766,-8079.249,-9593.769,2380.7234,40104.82421875
125,37126.055,42534.96,47874.434,-1784.3998,-14872.45,-12560.31,35114.84765625
126,19091.27,5123.7603,-13317.18,4922.83,-5923.238,1763.3629,31305.25390625
127,15820.695,21045.5,13051.678,5688.723,-697.1676,-16508.012,31072.814453125
128,8418.635,10841.827,22161.6,-4532.14,-6302.4956,-12377.112,28316.126953125
129,5808.2114,17114.863,3295.3987,-6668.3086,4823.77,-11795.335,27985.017578125
130,4364.994,12147.549,-18801.191,546.9026,4020.3083,-2616.977,29111.236328125
131,16499.803,30078.07,33671.78,-5609.049,2811.8574,-16863.22,34889.66796875
132,6163.32,35072.348,28500.807,3824.8835,294.87207,9871.719,32022.53515625
133,20294.977,25878.215,9723.604,-1032.4379,-639.23645,11502.476,24562.033203125
134,240.50465,-3667.5762,-11590.064,-4678.5527,1671.4751,15385.449,29886.19921875
135,-1941.736,14265.663,-10119.713,-459.62527,3400.276,8384.918,26614.708984375
136,34276.824,19832.852,36781.984,6293.9985,-834.75885,13981.85,30959.630859375
137,13987.049,26192.977,9688.928,4753.4243,14597.726,12032.564,36896.26953125
138,18207.357,5278.5923,-8179.1367,-10507.271,343.66953,-2163.8362,29459.537109375
139,33231.035,20534.096,38984.1,-1018.49005,4935.012,-7701.127,22835.35546875
140,-13086.791,-17041.916,-8441.962,6540.2783,3559.0781,-9301.962,21942.986328125
141,10169.974,31944.695,13666.061,-9175.426,-4559.083,-4143.3687,27868.591796875
142,-5784.2056,7769.553,-3221.359,-2100.5608,2665.2234,-435.68475,13807.7197265625
143,-2576.7861,-2695.7778,606.88214,-5304.8267,9929.424,-3202.58,20530.51953125
144,18661.936,12086.759,30621.664,5248.973,17488.977,4576.0996,36441.3984375
145,13211.42,8959.637,2539.832,-2653.656,20246.305,-2138.578,36758.29296875
146,13819.714,14975.552,18808.715,9000.535,13187.294,1839.9207,28202.103515625
147,10105.158,9951.634,7327.6543,4533.734,17772.06,-3298.2996,32390.595703125
148,3764.1467,11935.95,12869.73,4408.086,18853.484,10202.073,38886.80078125
149,23295.832,29642.926,29531.201,6192.746,21177.045,-263.57516,38733.0546875
150,17852.58,12923.887,-7981.429,1374.8558,-6349.004,-2540.614,26651.916015625
151,16891.838,-2799.1682,-26679.545,-2265.8496,-1049.5996,-7429.458,40156.375
152,9185.347,4679.513,2872.1096,-1342.0487,-3748.1418,-21553.135,38378.0546875
153,-15830.073,15057.45,-17249.12,8591.779,-3082.946,8798.477,38497.95703125
154,14091.145,17428.693,22990.152,865.91724,5698.1816,-15966.986,30415.818359375
155,-9633.139,-15244.063,4661.9336,5564.3193,7357.587,-16078.438,36699.80859375
156,22257.377,12935.401,28224.879,-2367.6772,1736.21,-15534.7,30462.779296875
157,4249.107,13228.863,26413.057,-1578.5948,-14970.004,-5541.9565,33834.4296875
158,26370.145,26664.426,39420.707,-7578.9604,-18530.871,-897.5534,37033.51953125
159,17154.729,20755.361,28150.906,-4265.885,-18820.504,2485.8152,35072.1015625
160,15388.863,21109.53,28945.814,-1496.1199,-17676.314,-1315.0853,32988.20703125
161,14712.195,27725.54,35808.734,2026.7144,-17068.076,2085.3455,35202.2890625
162,22305.541,23478.645,21720.389,401.1947,-18588.736,-740.77686,32266.970703125
163,26376.262,31110.09,35398.688,1270.5549,-17346.084,251.77477,31125.482421875
164,20323.662,20634.246,34059.81,3072.3252,-20229.021,-1218.5914,38012.16015625
165,23954.086,30715.525,33284.21,2338.0205,3232.5889,15927.813,29639.787109375
166,8723.03,16444.854,10321.336,-362.67053,13933.952,14067.299,35019.50390625
167,8211.213,7595.2715,1896.1742,-4940.1987,-13505.616,15737.824,37414.28125
168,19024.248,11659.318,27990.738,2652.555,790.13495,18152.477,34816.60546875
169,3704.2837,19668.326,-2580.7307,-388.98093,10452.273,-7346.045,29745.30859375
170,759.8519,3911.3652,-18706.553,-1500.0823,5602.688,2656.414,23923.048828125
171,-10445.271,24150.281,8476.985,1813.8834,-1188.7451,-9195.391,34176.80078125
172,-635.74976,5855.9346,-3859.748,5647.597,2090.0708,17521.01,33214.6640625
173,23245.434,24826.762,11445.551,4566.1587,-974.98035,-7836.1655,20248.826171875
174,7526.435,24233.543,10438.472,5171.4336,1411.9463,-11243.93,26541.392578125
175,19726.256,19462.5,17226.29,4738.901,7325.0327,-10301.406,23502.271484375
176,13987.413,21917.082,26450.852,-2450.246,-5963.1943,-9160.631,22267.1875
177,19007.014,23843.824,26544.027,-126.078384,-20676.58,2304.6973,36637.30078125
178,21098.83,2139.933,-15098.52,86.9912,10800.047,-7520.858,38769.33984375
179,-4335.0977,13431.243,-10127.369,-3130.2527,5637.5176,12192.931,31981.927734375
180,23792.975,7125.3657,-4794.0947,1108.4106,-200.00537,-1776.7257,25136.181640625
181,20895.504,12.601018,-19626.83,1481.3676,5956.8213,1264.0188,36739.06640625
182,20112.74,15794.406,24718.234,2778.1545,-4319.2754,-12977.481,25379.412109375
183,-1641.693,21731.182,-5678.836,-3309.932,-2995.2302,14.71117,26771.8359375
184,-1667.4576,14995.532,-19943.068,-4309.571,-1838.0681,1764.1365,31486.009765625
185,19606.244,-5556.5415,-16946.816,-8478.58,-7761.25,-2271.1843,38227.73828125
186,12070.095,13022.0205,8819.9795,2102.6355,13862.267,-74.55957,24583.1328125
187,-57214.145,-53547.582,-65944.43,2577.1162,-3098.8926,637.70575,13100.5986328125
188,-48367.734,-57467.965,-84719.86,-573.61804,-5352.1504,-510.94238,34076.16796875
189,6958.5845,-6052.322,5938.952,-6227.275,678.4364,5241.4746,18899.57421875
190,12383.961,2186.9038,6156.1396,-2054.38,15171.046,-4328.095,28958.607421875
191,23394.354,11683.929,3979.928,-2397.448,-11126.258,-11154.463,32381.986328125
192,3602.1162,-4471.3667,-1441.041,-4631.1245,-9583.105,-5078.6113,21613.08203125
193,10415.068,9691.131,-8705.336,-3024.0588,102.86984,12484.695,29109.12890625
194,6694.913,-17560.742,-28649.549,1187.0304,-5093.45,-7633.6826,35173.015625
195,-3122.068,5481.6084,-17738.596,-2876.3096,-3681.6929,-18811.62,39249.67578125
196,-1818.312,-12483.638,-27169.527,1380.4454,-14053.538,1327.0908,33008.4921875
197,10563.802,3223.9355,18359.137,10902.3125,1852.2285,-1906.8422,23444.38671875
198,21829.338,1834.4246,-17171.385,-149.1556,-5105.8164,-10768.02,39587.40234375
199,20350.611,590.46405,-14625.08,3622.7659,-11539.95,-1681.4866,37013.5703125
200,15259.824,3952.3738,10783.868,3630.4187,-2453.2651,-1646.8761,12767.6513671875
201,18377.416,-3154.9211,-13791.001,-1288.526,-980.5311,1018.996,28579.1484375
202,7940.651,-5073.454,-24860.998,-2557.31,-11346.3955,-9957.946,39009.671875
203,13984.223,3014.5063,-17393.021,4445.8945,706.9757,-7111.274,31195.748046875
204,6675.349,-5522.4966,-27377.137,7088.376,4440.8286,-9038.228,36714.55859375
205,18062.293,-8506.585,2142.7551,2187.3916,-6940.892,-8931.532,30570.76171875
206,14607.571,7992.154,-16882.602,5829.3047,-4626.9556,-2775.5781,31880.30859375
207,5599.503,-11190.948,-25341.818,3451.5212,-4970.9766,-2510.5015,29129.7890625
208,4655.5884,1508.6226,-32060.227,2893.9412,4617.7256,-4977.8286,37494.5625
209,19432.883,4489.0728,-9907.33,-5603.2134,-2124.6501,-725.6108,27477.64453125
210,20408.385,7812.048,4166.0864,-2506.5654,-1527.9293,-272.34763,15619.2607421875
211,20330.502,3832.8662,-14716.293,2902.0066,-4151.665,3000.8105,32035.12109375
212,12804.338,-4164.4365,-15731.134,1244.3347,-3384.9907,-10284.901,31214.703125
213,8191.985,-5442.725,-18704.219,-2943.014,589.6417,730.7797,23900.171875
214,23504.98,25667.52,-1258.2675,5818.304,10930.887,-4801.748,34650.07421875
215,-34189.895,-45980.504,-61969.375,-10031.511,14521.61,-423.70914,38964.66015625
216,-29093.041,-16462.863,-29251.102,-3892.3252,-10884.728,7243.2417,26829.439453125
217,-19469.145,-14293.454,-13541.635,8835.756,-3692.586,2035.2668,17854.6484375
218,-1892.6868,13308.869,25711.021,-4696.007,673.8961,16193.22,37783.7734375
219,3101.8213,18089.611,-21586.014,2238.3142,1019.30225,-3655.4475,35529.890625
220,40.954494,11092.192,-6236.877,2901.3777,-8004.7026,18077.297,37799.0
221,15538.978,17644.453,16944.965,8970.862,-5884.3193,15237.34,32330.8515625
222,32641.531,40028.32,24281.393,2693.8425,1039.9634,17823.463,34121.16015625
223,7736.7026,5979.122,-1717.3793,1164.9447,-8912.274,18469.967,36628.25
224,1396.7792,19607.455,-20323.527,-1204.9491,-2366.129,3244.153,35378.90625
225,9901.164,13363.827,4477.6504,1100.095,11982.715,14992.437,34189.046875
226,10144.444,11431.075,17522.84,-528.718,4075.4856,20171.553,36303.51171875
227,30271.145,21746.951,33451.027,4837.4053,-135.01254,20139.404,37375.42578125
228,7850.653,23143.227,-15365.813,2882.9912,2006.9489,594.2847,34146.515625
229,15684.738,21837.57,24559.162,2137.158,-7615.1064,13694.726,28501.19921875
230,19848.16,18821.094,23849.459,-2360.8813,4822.9365,17686.121,32343.080078125
231,7899.2783,5916.769,-22120.408,-2839.8242,-2659.9912,-6576.0815,31949.21875
232,14181.567,9864.366,8668.483,3218.3394,-9528.57,19355.188,38112.40234375
233,2265.186,11043.527,3632.077,-1934.941,5901.3184,12036.016,24844.201171875
234,14792.355,11557.756,-6548.613,-623.14014,13507.815,140.21428,30748.61328125
235,25190.81,17413.771,8382.444,946.30554,3926.5535,1733.2247,16438.8671875
236,18275.215,14729.326,11193.551,7067.206,10052.808,10610.687,28781.6875
237,5233.4946,8709.095,-9446.244,6433.5444,7880.7305,-3058.641,24842.513671875
238,27513.664,32066.025,28999.643,-3061.0352,13045.419,6678.072,26241.494140625
239,31154.205,35053.945,40175.043,-5374.078,9859.382,3583.5044,21867.634765625
240,2277.6973,820.6869,-13463.096,4537.3896,5804.1963,7234.0835,23383.46875
241,23387.832,21695.045,4309.302,1967.4497,12809.086,-1714.1183,29106.7890625
242,33273.844,35227.99,37661.016,-1370.2317,16892.557,-641.0644,29621.5078125
243,19735.492,9779.444,-17672.844,8901.837,5352.5474,848.53345,38103.8671875
244,12574.014,3333.3047,-6129.636,5840.2417,-3693.898,-1094.3243,20229.55078125
245,34996.69,36568.645,34746.95,562.7636,14091.883,-13561.545,33931.78515625
246,6769.4375,8575.325,3181.9397,-769.24536,13336.134,12725.621,32307.3828125
247,26153.582,16004.286,12024.955,-2777.3088,12507.956,7802.8916,28885.51953125
248,15064.747,7347.452,2221.541,-10144.655,13443.686,-4864.65,32362.392578125
249,13355.846,6302.9443,-4412.655,-4382.7266,10289.834,7876.7783,28311.505859375
250,33774.996,11613.231,1811.9977,4216.547,9198.002,-1116.4957,33396.2265625
251,15180.957,-3251.6917,-4920.8623,5054.2036,3751.3733,-9482.417,27602.861328125
252,18167.65,2272.9858,16152.0625,-4069.966,4094.7642,-1008.8327,18102.87890625
253,2238.2334,-5156.0254,-22870.424,6843.6357,2347.8958,-8638.69,29671.27734375
254,11108.557,-4727.8594,602.0451,-3362.3828,-2064.7603,-2364.6616,16070.9306640625
255,-14032.275,-16318.256,350.15256,-4468.861,-9206.932,-2398.2864,24008.91796875
256,-4414.9595,-22000.672,-12546.445,813.6653,-6563.2056,7570.725,23141.763671875
257,-39382.195,-30220.191,-31674.8,-3224.9565,-562.22064,447.79196,10270.439453125
258,-26403.918,-25206.018,-30751.021,-1887.4972,-9525.052,-11695.35,26809.533203125
259,-3105.7576,5143.53,-305.5528,-11237.314,-9196.992,-6238.8564,28322.21484375
260,7070.5576,16590.201,-7799.629,-8638.768,11799.431,3108.542,33524.0
261,-17423.48,12111.452,-14513.431,-12359.9795,-1906.1887,-545.02814,35565.875
262,9088.183,26662.77,-4718.457,-3183.1523,4366.2476,-6722.229,31069.119140625
263,13035.981,16758.059,13681.478,-16103.289,-1801.0438,-6677.201,30549.9921875
264,7479.805,22161.902,493.53244,-5601.541,2194.4224,-8036.8975,25870.8046875
265,1920.5753,13304.021,-3433.9055,1283.286,-9007.559,-11165.711,29009.892578125
266,5339.361,12351.369,-11747.32,-2668.3474,1364.8446,9294.803,27332.46484375
267,11862.145,24857.48,-9050.1875,-3045.3618,-88.11352,-5625.559,31634.693359375
268,-2012.8027,8718.116,-8603.847,12124.737,-4562.4443,-3384.849,27697.82421875
269,6240.8306,17623.002,5671.271,-3804.351,1947.1774,2141.3662,14314.71875
270,4136.03,25064.105,-15507.953,-1662.9172,-2671.2744,-1064.9818,35610.20703125
271,4776.7817,28879.107,-11917.33,-57.32906,4151.854,-4568.382,37098.73828125
272,-15903.766,17420.674,-14858.553,253.58038,5290.525,-2873.2573,34434.11328125
273,-5116.167,4295.6406,-8741.498,6591.8843,-4213.324,-988.1559,17955.23828125
274,-9777.494,11497.437,-783.44745,2867.5537,-6513.0474,2297.7776,22581.7421875
275,-21677.701,-11140.526,1589.1046,2448.6726,-235.99878,-585.718,20649.3125
276,-28833.754,-29625.295,-39082.38,-2834.9976,14576.33,-4439.28,28604.021484375
277,-5090.2637,-27187.785,-21004.188,-2607.0964,-13958.162,-280.6381,31543.828125
278,16224.759,23100.12,21870.328,5464.238,-1483.936,-5061.748,14607.240234375
279,8127.3174,8389.884,-6501.488,-858.66547,6062.4326,1391.7081,18335.583984375
280,9538.438,10623.401,11378.858,9647.689,-5336.1104,-262.14413,19168.453125
281,17353.11,10609.097,1844.6499,8456.707,9090.355,5522.1533,27117.12890625
282,17082.996,8442.367,-1294.4417,7473.6675,9664.585,-3910.661,27336.01171875
283,14850.788,4185.0435,-12778.867,-801.569,2631.4478,-4563.603,25838.83984375
284,4879.328,19815.27,-14010.405,7202.487,1765.9395,1415.4386,32140.84375
285,933.9677,25169.205,-1206.5444,-2262.1692,-9440.455,3071.8494,30900.35546875
286,5741.6113,8305.192,31451.883,4522.983,3030.4514,-3518.3257,26976.62890625
287,-16749.824,-20206.055,-52906.8,-5510.9756,463.0369,2461.99,36114.33984375
288,19178.357,8019.6333,30415.58,4564.368,927.98816,-4305.0566,22290.576171875
289,9726.742,-6081.0127,-25039.672,-1849.0319,-8163.1436,3721.312,34069.3671875
290,20829.016,-1786.0625,-20503.438,716.02734,-1109.9806,-2478.3833,36176.484375
291,14507.157,-2394.9448,-23330.775,4381.173,-7892.659,2897.8318,36708.41796875
292,21601.18,-192.23161,-4887.2476,-1517.9459,-8484.725,3607.2222,29346.8359375
293,14495.56,5718.3555,8637.897,2245.1455,-2470.2607,538.77625,9707.5771484375
294,18393.027,10090.356,-2235.405,1874.6199,15013.266,-7967.106,34646.16796875
295,-5382.2905,4961.889,-10626.412,1568.1857,12135.741,-16144.681,37681.65625
296,39645.03,37715.78,30857.998,-13678.29,9806.494,-6316.5015,32147.55078125
297,8386.0625,2147.8555,-12160.417,-5747.187,3863.616,3710.2996,22761.193359375
298,-7094.8594,-5702.154,-6864.4126,523.8692,-503.04416,-386.85904,1924.38220214844
299,-10592.262,10566.698,16281.424,-1214.9742,-7571.08,7198.314,30546.958984375
300,23574.252,31955.764,27369.36,2844.9321,3805.5708,18432.334,33761.2890625
301,17809.588,21389.877,15880.884,5427.016,2318.5398,18423.617,33855.828125
302,-2573.1646,16364.043,-11269.712,828.701,-9513.44,-4659.1807,30620.857421875
303,7587.5835,20259.057,-1850.6129,281.55167,-10187.297,-10942.649,32249.763671875
304,-9313.93,15411.93,-19873.06,-31.382767,2584.5222,-8398.117,34865.08984375
305,-6422.2607,8681.519,-23066.771,5012.236,929.84033,-644.55133,28909.62890625
306,-611.28046,11952.299,-11976.805,415.1915,2684.6836,5110.049,23027.98046875
307,-1977.7549,-8413.353,3122.974,2920.4807,16917.36,1094.2782,31432.97265625
308,16332.081,12404.024,15110.391,-1006.8817,1014.29816,15022.842,26368.701171875
309,-21303.506,-12096.47,-25278.818,-6985.2437,1772.587,-14950.665,31041.064453125
310,2503.6323,11595.628,4036.1406,-13253.547,-1267.627,16112.249,37171.0
311,11092.739,26466.756,7865.9263,-3437.2112,-3525.0503,-11543.568,27728.412109375
312,-17360.947,-16662.89,-18626.15,-2179.9883,-5705.17,-1837.3236,11180.4482421875
313,10501.204,9038.159,8891.242,-8098.7056,2083.4019,12119.085,25549.607421875
314,-7801.164,-10978.511,-28022.268,-387.79504,10946.43,9769.226,31638.212890625
315,-19667.984,-20562.125,-41089.24,-3136.0403,1878.3878,10408.896,28383.80859375
316,9786.869,-25276.15,-11466.064,-4530.083,624.97894,-2971.6055,32017.78515625
317,19064.969,-2694.229,-19630.316,2283.9307,-5534.1763,-3730.4907,35750.37890625
318,19886.1,-3389.036,-20659.672,5103.6304,-1423.8889,-185.16011,36418.53515625
319,11208.211,181.7312,-24054.6,2117.7893,3136.8418,174.68848,31926.328125
320,8700.429,2221.6943,-26880.79,-1781.4946,-5401.854,37.769917,34271.58203125
321,17681.01,-9819.6045,-18817.809,1769.4363,-4384.6216,-6002.926,35494.79296875
322,15729.882,-4257.7046,-4204.186,14738.629,8892.407,2568.3086,36154.27734375
323,-77614.79,-86669.2,-107036.45,3854.3418,7939.0205,1056.9658,30302.216796875
324,-28011.44,-28359.281,-31352.742,5404.8643,9624.068,1440.9474,19541.181640625
325,-10613.751,8143.1978,-3835.1768,-8896.622,-539.2595,4574.376,23910.7421875
326,-2041.4393,9140.997,-7712.182,-192.74182,10519.001,15593.149,35806.640625
327,16886.68,10339.028,11700.196,-1413.7025,19834.648,2724.7903,35274.93359375
328,17389.064,11118.903,-6819.895,-4595.6406,-1052.896,287.66544,23249.265625
329,20941.21,7557.8423,3117.6204,3081.158,6239.563,2116.2285,20419.783203125
330,17514.26,9655.843,6306.1816,6558.707,12987.971,14974.31,37511.328125
331,6895.129,3551.8054,4463.682,4042.4402,6421.307,5478.7134,16484.328125
332,21729.076,17379.676,18538.904,3193.661,14445.468,4469.3804,27051.03125
333,-3847.0417,-8255.0205,-31021.57,-7538.2715,3307.9297,-7984.485,32135.033203125
334,14984.319,11248.7295,3765.1191,5234.9165,17979.328,-9593.329,37762.3125
335,-5454.38,2360.4382,2224.0376,-3446.5864,3265.8074,2863.793,12339.421875
336,-17872.82,1057.28,9403.562,2688.4072,-763.8997,11813.433,32064.150390625
337,3538.6975,12505.105,10674.176,-9822.317,15237.641,-8759.572,35826.15234375
338,17679.252,30901.324,7763.5146,-4631.1978,-5166.37,-12105.834,31437.611328125
339,9710.594,14395.994,-10492.605,-5139.2856,8149.488,-2216.578,28600.720703125
340,-2769.3765,1987.5123,12067.694,3056.9705,4997.1567,1205.6492,16718.224609375
341,2310.929,-2520.3542,-2356.009,-4054.758,-1757.8737,6500.2236,14419.6591796875
342,27450.01,23105.31,30853.312,5741.11,10618.528,14789.279,33742.46484375
343,1429.9734,23658.553,-6851.6714,-1288.4639,-3483.8855,5854.354,29849.583984375
344,12762.197,3743.1829,9804.915,-3861.3486,2139.5522,5483.41,14563.0634765625
345,23176.736,34778.89,13400.202,-1909.8136,5755.8457,-294.25543,21312.21875
346,13385.293,16690.996,16200.8,3083.0178,3812.17,16136.565,29373.91015625
347,14266.552,1985.9224,-7640.808,-1359.8673,-4598.588,-1736.5338,20970.109375
348,14270.379,9064.603,-16170.227,7033.2437,3864.966,-1676.78,31573.91015625
349,4477.2095,25808.855,-7963.5464,-4540.669,1166.9418,259.9893,30681.171875
350,12837.875,18656.232,-18302.441,-5332.842,-1902.8427,4681.665,36697.3046875
351,-5003.6904,12470.663,-1311.2484,-9849.179,-4595.705,-4203.858,25726.67578125
352,-19404.336,-28077.623,-35980.863,-9804.616,6885.6245,-12284.837,33009.28125
353,-2197.6885,19834.582,-5275.4634,406.9562,-7268.1055,4765.5225,28103.513671875
354,1969.4158,12481.143,-19880.52,-3430.8948,-6225.9316,6427.382,33062.51953125
355,3833.4458,13220.439,-4587.3335,-1566.2505,-1187.359,371.63126,15813.734375
356,1229.1083,16466.643,-771.5215,2183.9067,4738.1875,25.195637,18663.630859375
357,9054.053,18767.752,7022.741,-10842.298,-7185.39,10160.258,30585.32421875
358,-5401.6562,-789.67267,-9312.641,-2832.185,122.522446,-3762.9001,11008.6640625
359,-2249.965,9746.286,-6682.535,-5850.9624,-404.20242,3388.0383,18824.447265625
360,11672.307,10753.952,8741.364,-5208.2026,-175.96997,6281.1416,14372.5224609375
361,4468.901,701.04834,-17156.207,-10091.956,-227.29964,-290.27127,26576.537109375
362,19430.48,5159.956,3422.5786,-3757.4338,3142.7483,6076.7417,20352.53125
363,-7212.1016,2284.3625,-1720.634,187.32977,-1317.1381,1269.8043,8850.794921875
364,-2409.8374,-201.14044,-487.21948,2342.3293,-1335.4252,-168.63683,5120.86328125
365,-3804.647,7882.867,12235.105,-643.39514,1264.2128,9423.448,21882.583984375
366,240.25871,-6251.653,-1629.7109,269.4556,1172.2329,533.6452,6220.65673828125
367,8872.321,-660.77344,-7869.1553,-3410.399,3154.7964,5730.373,19360.294921875
368,-7843.235,8118.4253,-3829.8154,-7708.802,1903.3237,3534.9775,20819.564453125
369,-9291.45,5266.1763,870.7414,-573.38257,-1446.5233,-319.82916,13222.2421875
370,4666.864,-3309.4648,265.87943,-6030.0156,2533.1584,4480.459,15376.744140625
371,13511.413,2782.7822,-1338.1562,7.102003,-2057.1936,-1209.033,13906.0859375
372,11449.994,3536.9712,-2292.8115,1934.7699,887.2307,160.74344,12506.1005859375
373,8128.3022,5929.9023,-512.9577,7195.8784,1349.318,1161.2657,15011.89453125
374,11332.783,1192.7876,-544.36273,5034.354,2801.623,4071.417,16515.52734375
375,725.2175,3325.851,-823.9486,3324.49,88.17706,-1547.2347,7318.05029296875
376,-1126.2468,-1017.0385,118.38134,1584.3944,-114.109955,-711.6856,3242.61791992188
377,-1228.8174,-1171.841,-64.19877,1595.9065,-1454.283,-92.02786,3912.05859375
378,921.9286,774.2959,393.94562,-140.6487,263.85312,-419.36343,1009.16424560547
379,3714.8787,8956.085,-68.52789,6793.8,-1772.6937,628.7591,14515.3203125
380,-2125.831,-1621.4971,2658.3633,3906.3264,285.31836,2256.1077,9056.626953125
381,-6348.2485,-2608.8027,-1127.3427,3298.8308,2495.9312,278.34375,8560.7431640625
382,1768.1157,4267.75,718.0192,1365.4386,-436.2146,-136.85686,4024.42993164063
383,-3988.8933,-9639.019,-12487.782,491.49048,-4562.8877,-4939.424,13874.9228515625
384,17880.729,9721.116,7210.657,770.15594,-7927.8022,-603.92474,16875.71484375
385,19066.672,870.2617,3698.6887,-1426.4336,-2317.445,3415.359,18570.189453125
386,13415.055,-1116.8143,416.09604,3915.7585,1163.5651,-1005.7009,15631.5205078125
387,10597.077,-6679.6006,-520.0674,6853.7715,680.72705,-477.8359,19313.333984375
388,-565.29047,4634.734,1605.1097,6620.084,531.8295,-723.114,12424.109375
389,-2116.975,-2298.1719,-54.107,237.1519,-92.62016,-332.6378,2277.81567382813
390,-5364.088,2477.057,-1302.6599,3690.4963,-1849.3705,2096.4622,10508.9375
391,116.50016,3507.5718,-1651.9132,-9156.886,1352.7128,-1087.3208,16769.181640625
392,6724.6997,-12831.913,7517.253,-6813.604,4778.383,1210.1484,24713.4921875
393,416.4328,-5955.5273,-4854.8125,-3370.1013,1248.0105,77.02395,8576.880859375
394,-79.02576,-692.247,524.2105,-394.15158,313.3291,305.2675,1466.29064941406
395,16197.047,-5707.5337,897.9995,-2082.6155,3832.0544,1094.3646,20962.130859375
396,18145.639,1560.3419,-149.11874,-1042.0472,-382.84903,-347.14902,17618.31640625
397,16527.285,9089.1455,1437.6062,980.7764,-619.7142,1159.7013,13373.7734375
398,-234.64037,21637.262,-1596.8478,-729.1286,-669.641,719.836,22683.130859375
399,-9666.319,6533.0684,-124.142845,5525.5503,-252.2879,-48.39362,17049.603515625
400,-8935.049,5853.524,-957.1589,7818.85,1400.0468,-1566.073,19000.220703125
401,23012.055,-4504.716,-7246.208,857.73157,-2840.076,-3647.658,30107.255859375
402,-439.3899,8106.8623,-6468.068,-2072.219,-113.54231,16.080746,13184.373046875
403,15088.17,8208.625,-9594.439,-5576.7583,2827.5906,2635.386,24997.53125
404,18246.365,6760.058,3042.3552,1640.3726,772.5839,-774.3459,14146.419921875
405,5583.393,32877.1,3785.8909,-3628.7615,-2478.3608,-3711.1729,29941.392578125
406,-7403.8027,4392.559,-4450.4814,2299.3638,1337.7555,-793.7084,11668.6640625
407,2516.8684,13654.135,-1650.936,5343.368,376.75967,1483.8837,16748.5390625
408,9448.738,2031.599,-1555.4624,1342.2197,-2818.885,-697.6883,11188.833984375
409,2535.734,-3819.2778,91.43744,-905.48975,-304.57877,877.49695,5989.5966796875
410,2949.9448,-1623.5317,-1344.8875,3002.7915,2032.775,-959.1314,7869.3427734375
411,7855.818,3200.9744,283.0734,-8487.323,50.788303,1354.7626,16290.546875
412,7643.2354,-2774.6445,2954.907,-3675.801,-685.6769,-106.79871,11119.7763671875
413,-12538.07,-5132.365,4900.767,-508.45776,-3199.2476,-1516.7448,16376.6083984375
414,4403.9624,-6015.19,756.47125,-2355.5422,-475.7804,-453.45572,10089.6416015625
415,1904.9034,-10109.127,463.47632,6414.5557,-179.803,-1020.6375,15992.46484375
416,26787.719,3961.8562,22135.594,9668.211,3373.486,5813.5684,29196.41015625
417,7872.557,-7.361116,1988.9819,-2335.9382,-2707.4036,29.01334,9418.5947265625
418,-11947.494,-12087.612,-22628.875,-8086.7163,-6047.9956,-10462.395,27329.830078125
419,-1631.3378,2068.5198,-2620.1492,3275.6934,-1974.0624,-705.8868,7981.30615234375
420,-6203.33,-4965.144,-2093.6355,-168.1227,1673.8317,1446.1786,5300.78857421875
421,275.16504,657.2047,361.73352,4004.484,-1557.4447,924.1046,7620.16162109375
422,-24528.312,-7180.0874,-14544.611,1995.3319,-9306.48,-5281.239,24143.03125
423,-6942.336,-3759.736,2045.2064,1313.8284,-2403.9927,-760.96326,9303.455078125
424,-7621.2544,-7889.316,4294.355,1758.9291,-6.6000357,-1012.24255,12554.013671875
425,-5237.0356,-1183.2319,-2173.3582,5194.0522,2075.062,1700.572,10766.982421875
426,-5130.6826,680.3807,-1327.8662,-744.67303,-3439.718,-1896.5165,8606.99609375
427,14076.835,17696.6,10511.852,2312.6597,-3610.3506,-7392.999,16057.228515625
428,-2357.8755,1209.2843,1882.0242,-6192.0938,1409.7493,1026.6344,11820.6240234375
429,-3052.3042,-2666.2275,-2049.4446,-16088.565,-2512.9414,-819.88983,28253.40234375
430,721.3389,-5734.928,-3581.15,268.89206,562.4487,-3521.6458,8413.6015625
431,357.57944,4683.2144,2835.6025,-4703.923,1838.2961,1914.8329,10082.2177734375
432,-1921.1202,20531.182,4151.3374,4726.0435,1600.3118,1419.9026,22031.291015625
433,-6598.6543,17773.537,9639.487,-10161.854,13.49259,-4805.5737,28999.876953125
434,-9273.047,4316.988,159.28236,91.79686,-1094.5763,-1822.978,12611.958984375
435,886.39026,-3118.0889,4692.5166,-5162.392,-1433.8457,31.897263,11484.1484375
436,-2363.6213,2745.302,1582.886,3238.328,3004.3486,-669.3921,9022.0009765625
437,-7031.786,12722.658,-2257.9543,-1048.1132,-1667.3683,-1250.4978,18304.380859375
438,5941.6313,217.30223,2183.2495,-89.351746,-1554.5658,1893.7806,6588.80517578125
439,2362.0688,-2276.541,583.96857,-4924.913,1104.793,65.51872,9636.873046875
440,14830.709,1912.3608,809.69214,931.17035,3021.2378,-1209.2223,14721.26953125
441,3078.5437,-2998.318,-2971.0283,526.1635,1575.6464,-863.4664,6875.9296875
442,27942.469,6553.494,1715.8777,-2543.155,778.88,-3549.7898,25365.099609375
443,10222.027,605.05457,1575.811,1343.308,365.97522,887.478,9605.7734375
444,9162.8545,-5590.6826,-108.06536,-7602.3594,1172.7141,-4855.6533,20373.59765625
445,20993.732,7581.0566,-288.54416,-968.00464,-846.2501,1744.8698,19012.525390625
446,-1897.5238,6263.153,2589.759,1936.2899,-2678.4907,-1358.0905,9403.0263671875
447,-4564.6006,-1479.1316,-255.6109,154.79707,266.38617,-309.17764,3919.66821289063
448,2125.171,457.62643,475.64258,8989.238,-633.6237,-2013.4778,16079.083984375
449,-10392.456,-5592.8823,1108.2623,-5595.3623,-1393.9772,619.3205,14177.7392578125
450,705.32196,-4196.7446,-6823.331,-5816.0537,1912.2574,68.22099,12500.740234375
451,-4739.525,-4243.0425,-1025.5511,-1737.9686,-1105.1467,-1387.1017,5540.21484375
452,-18999.596,-106.80433,-916.4484,-7932.204,4350.512,4250.681,25338.546875
453,-5546.0024,-4710.682,-1444.1055,-4252.201,-480.9082,631.4517,8380.3681640625
454,4862.111,1606.024,-902.7711,711.7583,-921.3626,362.02573,5433.666015625
455,9161.273,1056.4829,-2012.8728,637.4592,4816.1035,1456.5225,13309.8857421875
456,-1860.4603,-317.8199,-559.5956,5225.67,-689.4331,1221.3071,9480.9716796875
457,3532.8474,1924.757,-453.33102,5400.074,3592.8152,3813.9656,13487.46875
458,-5525.6553,-6825.1133,-4484.4126,-3517.3604,-431.034,-1829.2343,7199.7890625
459,-7684.824,3968.042,1915.7487,2964.1084,2414.0054,-289.73932,12656.146484375
460,-3960.4788,6224.973,115.325935,3527.794,-1079.5309,926.22876,11056.5615234375
461,-876.4037,-7338.8525,999.5839,-7522.394,3731.1711,1786.8715,16688.587890625
462,5439.8804,-1067.1313,3230.58,4842.419,-5450.3687,-1568.7239,14131.3681640625
463,5078.1177,-2330.6443,1037.9888,-1164.8297,1292.5759,747.2938,7213.74560546875
464,5679.61,-2790.463,92.402176,1348.4109,376.6211,190.92908,7850.12744140625
465,2492.9956,-1908.5209,-999.2106,-3287.9749,597.8196,1610.7839,7581.96728515625
466,4471.621,-1453.8667,-3478.3442,-5214.5205,-464.39612,-1526.7097,11849.857421875
467,8253.307,1771.5365,3707.4907,1652.3173,2697.3555,4256.048,10843.0771484375
468,1907.0574,-6935.2827,-4252.5996,-4703.6807,-2822.829,-348.27322,12341.20703125
469,-4305.9365,3269.233,2224.788,-5258.0884,-1970.2638,-1095.3667,12196.3115234375
470,-6232.723,2403.3208,1250.8324,-4177.5864,876.64514,1822.3862,11427.2490234375
471,-1650.3663,8295.695,-276.34174,-181.04488,966.9837,2147.903,10192.640625
472,-7000.596,-3158.726,-0.6585333,2499.438,836.9774,108.019196,7598.974609375
473,8169.366,-7712.172,-4649.081,-7158.0654,-3886.269,1391.427,20439.921875
474,-8113.129,-8496.865,-1137.2826,-2947.2773,293.49734,105.32198,8822.5625
475,-6140.924,453.32492,462.63782,5222.9277,-1336.2429,-1264.8915,11642.1220703125
476,-5841.504,109.35604,-549.35754,3968.3784,-783.36786,-1037.9121,9178.4306640625
477,2142.8564,-547.448,3453.618,4703.3286,-1359.7969,413.51645,9214.45703125
478,3977.1572,-1197.753,-2421.2124,-3034.1787,368.72485,-1525.0435,8343.36328125
479,244.73001,11584.184,3338.1704,-4559.487,4349.0117,-2565.3503,15553.9765625
480,-3962.9233,-6709.834,-1783.7231,-789.52155,687.03687,-247.70538,4663.7607421875
481,1739.9205,-12388.036,19158.664,-7565.9614,5228.0386,8815.297,35156.22265625
482,-5170.051,462.174,-2411.6018,-2421.9324,-29.413858,3353.0474,8667.3779296875
483,2584.3477,1738.7686,193.32005,-23.270197,-821.8067,312.3743,2594.353515625
484,220.9378,3039.9934,-667.3068,802.3089,1738.3353,1123.8123,5101.5146484375
485,-114.34082,-7612.7915,-2048.2256,-2126.4978,-2598.3613,-553.7632,8955.775390625
486,-6506.7227,-13232.289,-2218.2903,-4374.1978,122.057625,-1258.5002,12436.3583984375
487,-1890.7733,-2644.313,-206.52992,4419.9277,879.76697,1092.1387,8317.5234375
488,-7137.2754,-6504.8755,115.79563,6509.7466,-688.48956,-832.8795,13381.0927734375
489,3729.377,1253.3092,2857.387,2593.4246,739.3319,1103.9042,5495.94140625
490,-5187.58,-5030.71,-267.4132,2683.3174,916.1057,624.70496,6982.11376953125
491,-6973.7993,-4026.881,-1522.0553,-3308.9028,-1047.4569,2581.216,8858.10546875
492,-694.90216,-1964.2853,-207.25844,-789.1853,1981.6149,452.8592,4090.5029296875
493,-3606.3186,514.39984,1305.3922,1428.69,-25.505499,-509.4697,5269.68115234375
494,-10371.274,-3187.3604,-590.82495,3131.801,-893.2646,1448.8864,10729.3994140625
495,2224.7344,2032.9365,1125.7537,6334.8496,-425.39166,-2710.0232,12000.01171875
496,6110.4385,-2226.6836,-274.3553,1265.168,2426.263,134.35333,8919.5712890625
497,2849.2468,-2050.4963,-81.01249,1921.0375,321.8529,-409.69263,5488.337890625
498,12853.592,-1403.78,1081.786,-3407.3179,1021.8252,956.898,14653.390625
499,-6153.8213,829.01263,-620.71686,-212.13977,616.5335,-1632.8317,7071.93310546875
500,-4574.5737,1415.5048,1899.2181,-2499.8022,281.60538,-1056.7202,7832.458984375
501,9547.481,-302.66315,582.79553,-2110.6453,1486.481,334.82297,10460.265625
502,1861.7009,1428.1028,4525.9766,-6849.2183,3669.9873,-2762.0193,14576.3388671875
503,-1120.8519,-4252.5425,2309.6775,-1006.18823,-467.4145,-89.57727,6003.00927734375
504,-7642.947,2536.5068,-231.24194,2704.8918,244.14262,55.52978,10258.8955078125
505,-6858.8867,1512.131,-1181.8557,22.509638,-598.46765,-135.18236,7477.36083984375
506,313.75,4145.9326,562.2404,2616.5525,-800.1483,-570.3156,6101.69189453125
507,-9325.011,3288.7212,363.3782,2658.5088,-113.78809,592.5389,12371.72265625
508,1461.4027,-3339.8267,-1214.3558,-3175.4565,1375.0175,121.07527,7302.81591796875
509,5077.5957,-6300.6167,1811.9167,-7619.5405,-1740.3936,-1334.8282,17075.572265625
510,10621.563,-6676.8447,7042.111,-7148.429,-197.5993,-1748.6056,20315.478515625
511,3468.6985,-4779.577,41.90287,748.7749,-383.27426,-155.05884,7328.4814453125
512,-331.7545,-4795.833,-1378.162,-67.43315,172.10707,-516.2899,4153.7802734375
513,5411.0376,-1736.2551,1319.8516,-2950.2708,1025.4037,178.46347,8242.748046875
514,-2503.4185,-2419.1587,205.19281,2411.8354,-690.693,-722.9937,5250.2978515625
515,-2289.6187,418.5182,-232.08937,683.017,425.9465,246.38042,2849.78930664063
516,-6194.512,-1472.1572,-584.72296,5937.1265,-172.01715,-325.87378,11551.39453125
517,-5227.3706,767.30804,294.35016,1572.0123,-806.4806,-868.84045,6704.7880859375
518,7381.5786,1965.7428,-7025.5845,-4122.9766,-1094.0834,624.9483,14650.267578125
519,-2039.9845,-7748.4814,928.1922,-4932.8247,2563.2385,945.24115,12398.7958984375
520,-1803.9995,-2445.1206,867.3937,-4376.213,-1356.4865,-926.96014,8649.376953125
521,-2561.8914,5349.327,453.21304,3459.3528,-1630.8561,-1465.4119,9906.9580078125
522,2674.0103,-1212.6313,22.368612,-2526.0742,-797.2718,-2130.8535,6819.30322265625
523,-1096.6302,-1423.693,-573.8536,-596.67426,-66.91939,-606.1132,1653.74157714844
524,-2801.5583,-4050.2676,2573.7693,-1053.2041,-35.70602,773.025,6503.0673828125
525,-7688.7363,-5215.3066,-813.8603,-107.755486,944.0825,756.09686,6387.56689453125
526,-3810.6057,-1946.5507,-708.95435,-1044.9441,-768.4579,-1042.0044,3951.951171875
527,-8777.884,-4913.4805,-1746.1106,-3113.6443,-168.97725,2104.9873,8925.7353515625
528,-4129.8677,-1547.4359,1487.2983,-1336.934,1883.666,-995.6092,6534.220703125
529,-4539.4204,-1368.8259,1423.6233,-270.2346,825.0411,503.84216,5452.2373046875
530,1247.7273,-423.83035,720.42004,5304.02,-994.0839,166.11566,9467.62890625
531,-1593.6023,-2608.0159,-1170.3341,1935.0178,-2664.214,-1096.8011,6146.0126953125
532,-2261.0288,6640.5796,-299.9779,-852.0013,79.980446,174.99658,8241.154296875
533,-650.094,-2319.8513,90.84316,3430.6252,-1702.3885,645.0361,7058.64208984375
534,-5687.5596,-703.6424,-912.4726,5382.9844,-138.84299,-15.732358,10527.6015625
535,-938.82654,-7157.032,610.3861,-912.3221,-527.27325,469.64844,7395.4189453125
536,995.7516,-3699.3862,439.64624,-46.88855,300.39905,89.38706,4477.03759765625
537,3245.8672,-1590.798,-53.64067,1595.061,-643.3958,-1086.9268,5544.38720703125
538,1816.5469,-1335.4006,992.0651,-158.54889,732.97284,-313.91983,3162.05908203125
539,-1912.5035,1189.5707,-1439.5453,-1304.619,1217.8499,901.4521,4513.62548828125
540,-31.507875,-3295.2534,-63.248333,-1507.6641,-2159.686,-1209.6165,5979.20166015625
541,-2433.3796,-1428.2904,914.37317,-1094.7076,-1039.8794,-810.38635,4202.64697265625
542,1158.2296,-2136.3606,517.94965,838.23346,564.68085,784.99,3750.7265625
543,2464.006,1695.2319,5.4503818,-1476.9207,509.77115,401.33905,3542.89965820313
544,-3375.4087,1812.5564,3344.5283,5962.9893,-380.92523,-1055.6211,12151.5341796875
545,-5559.093,-4457.2007,-1690.119,4528.169,1016.62177,99.01173,8750.01953125
546,2638.732,-1594.7352,-1268.1473,108.75284,1496.4805,241.771,4855.46142578125
547,-2627.5305,-629.72363,-915.8627,-3608.9219,-1142.5344,-336.6016,6843.27880859375
548,2438.2397,-1420.5703,-270.29044,178.16171,255.5688,134.4848,3481.41870117188
549,530.0818,-2152.1316,-252.63028,-1245.1499,868.18195,780.95435,3801.26171875
550,-3052.7905,-2603.1985,-542.7927,-351.83148,204.05656,-1080.8679,3061.83715820313
551,-2812.3047,-3149.3093,-1466.2504,5610.3423,3379.041,1201.2777,11635.7138671875
552,1649.1759,-416.1842,-481.6514,932.2195,161.9571,-291.29703,2710.27001953125
553,3463.181,-667.9251,987.6118,1805.448,-367.1357,-4.770909,4811.548828125
554,-2929.9526,2848.334,553.7141,-1091.2716,474.36407,666.3947,5565.50439453125
555,-4408.057,-5087.42,1369.3657,-2123.1587,848.3817,-398.57507,7343.3212890625
556,3571.568,2874.918,3309.7058,-412.34326,-138.20813,-200.60182,1029.35681152344
557,-807.8093,283.65387,560.92554,-940.7939,-1153.0248,-150.49355,2877.92041015625
558,-3884.5693,262.77454,1396.5758,-286.75397,-1499.5513,-1179.2397,5861.1171875
559,-3519.14,-842.7026,-1243.8082,2935.1455,554.0092,787.69135,5905.7646484375
560,2133.7307,581.9893,567.203,2602.805,378.08612,-54.796177,4815.8798828125
561,-2308.1108,-8503.63,-284.7242,4513.9023,-1245.6732,-588.2586,11037.8291015625
562,2032.7819,-3068.9497,827.03827,1095.8362,-1205.507,-2.70614,5412.24853515625
563,-5076.612,-6251.994,7300.6445,-978.5244,357.45016,1304.056,13322.2939453125
564,-934.189,-64.41319,-17.124552,-570.4574,-47.575905,997.8849,2184.09130859375
565,-1345.5236,130.60687,-25.699078,-1247.2601,-1370.7365,-186.58699,3518.6416015625
566,2704.7825,654.7127,690.30133,707.8964,-1191.8495,-1078.1018,3658.2607421875
567,-1560.8772,838.6276,-414.86322,1214.7952,-912.49866,-751.2701,3597.14721679688
568,-1535.0261,-5115.2803,-256.81934,332.99216,-188.1536,-226.02798,4429.49853515625
569,3097.0598,-948.88104,7.9759884,1262.3962,-69.97698,-1.0517744,4267.25341796875
570,1871.0905,1426.3695,-546.4275,-535.9851,987.7917,1062.1924,3484.37133789063
571,-4591.387,-3009.4155,-2108.397,1363.2281,952.816,-618.1723,3766.2998046875
572,-69.20464,-237.48975,707.9353,-480.904,-1219.544,2183.2842,4496.54345703125
573,-701.2065,5290.3735,-465.76993,-3270.7847,-1508.5201,-665.1456,8648.2412109375
574,-740.7355,118.559715,-3467.7593,-4686.9863,-98.5701,-832.14557,8861.626953125
575,2097.9038,-611.5449,2532.5127,-3860.9126,-2569.1553,-458.33524,8594.1474609375
576,-4209.2876,-11299.144,-10249.433,2458.9226,327.0697,-9490.183,18236.669921875
577,2002.2854,-2934.373,1692.2394,-3333.0488,-1160.1807,24.13061,7765.53759765625
578,1381.5448,-6018.9854,-2122.5051,4543.644,-1884.5238,-1669.3118,11048.193359375
579,-3169.1067,5543.913,906.197,-3051.6965,-4417.4575,-3571.3867,13481.8896484375
580,5579.6816,-642.39594,112.29504,842.61835,1011.0156,1218.5045,6651.22509765625
581,7701.864,-2474.4656,251.87445,-3705.0266,-1183.4283,1775.9106,11751.22265625
582,9624.439,-5336.604,-958.0864,-2753.036,-768.6997,3889.9678,15729.0478515625
