Element Label,S11,S22,S33,S12,S13,S23,Mises
1,73921.12,74775.75,76576.75,-238.69902,-123.805466,928.10425,2883.44213867188
2,17530.953,21415.982,40722.348,-1258.7091,7056.2896,-4592.513,26081.318359375
3,-21944.94,5860.283,15330.569,-6714.1714,7109.141,3729.2761,38140.828125
4,22210.34,-6368.2656,-3878.0918,-11723.348,-1940.8707,11898.531,40001.359375
5,5965.3887,1750.644,-15251.246,-18661.066,-139.5348,-7842.833,40097.15234375
6,-41954.54,-35839.81,-38628.152,-5444.7334,4732.2793,-4999.6196,16100.37890625
7,61877.582,40005.188,73794.59,11234.088,-472.5773,-636.8721,35518.60546875
8,26.738281,-34784.79,-33600.375,5577.215,8381.202,337.16803,38424.01171875
9,9671.549,-8475.549,-9646.885,-3994.7368,2633.448,2469.7073,20950.482421875
10,23373.05,23447.146,24036.283,2705.3176,2495.5571,-1683.4485,7038.314453125
11,20495.34,24043.434,44497.047,6037.671,-8511.082,11903.209,35429.4453125
12,-21548.77,-42857.332,-43621.023,9910.717,-5735.1304,-8774.331,33094.10546875
13,2392.4531,-21759.275,-30200.465,2196.124,-9003.489,-4625.467,34355.07421875
14,34315.6,9599.379,25422.654,-4322.744,-9320.341,4575.7783,29148.82421875
15,10908.389,4610.946,-12600.084,-59.026142,-3336.4758,-2100.8547,22156.494140625
16,-7447.7124,1902.3014,4503.7104,17069.992,851.05365,9456.218,35540.12109375
17,6312.0596,4698.5767,-15704.113,-7407.297,-9192.286,-6610.8345,31638.591796875
18,12623.287,-743.1416,13087.537,5441.8457,14382.722,-87.795044,29908.76953125
19,1598.5084,4965.8394,2556.8499,97.02577,-305.28653,-2396.1208,5153.86376953125
20,28931.523,16652.793,38048.402,-5935.535,-2417.297,-17702.824,37539.578125
21,9845.563,9985.723,10408.755,232.48444,-1082.5577,150.6755,2000.98547363281
22,128919.516,130085.6,129609.98,22.787437,18.422876,-942.8456,1923.74768066406
23,3400.3696,5108.488,4584.5776,-305.722,-671.8425,-155.09192,2000.98083496094
24,2941.599,3128.9644,2197.4915,499.71677,-304.09433,-235.16263,1385.89208984375
25,10538.461,9269.291,10964.945,-619.36993,71.069374,409.76642,2000.92431640625
26,9895.961,7771.6074,8577.486,-327.05295,105.18854,-257.8815,2000.98486328125
27,6648.0054,5024.114,6366.144,-731.8499,-113.30385,-173.25716,1998.53393554688
28,11052.518,11010.752,10865.361,612.78186,972.9681,53.096638,2000.97937011719
29,12620.491,14310.862,13032.786,-543.5452,177.59094,-480.484,2000.98596191406
30,40884.613,41968.914,41492.285,671.8647,-45.879612,-765.3641,2000.98522949219
31,-20114.592,-20541.201,-20363.574,-581.5157,-359.27087,906.198,2000.76538085938
32,24089.525,23935.92,23935.045,297.4788,650.2088,903.0353,2000.98547363281
33,11509.078,10464.263,11583.034,729.1677,182.65793,-614.9297,2000.98559570313
34,21393.365,19212.46,19694.46,48.131702,118.78248,75.70949,2000.98608398438
35,10921.693,11577.328,12146.193,843.90283,438.18042,-234.44037,2000.96020507813
36,-5857.622,-5585.7793,-5746.025,89.53223,919.76685,-679.6976,2000.98559570313
37,14964.744,16731.209,16509.373,-428.56314,-459.97906,112.91493,2000.43359375
38,14098.502,13256.2,13058.456,1009.57007,-101.63913,-6.2989473,2000.98498535156
39,3527.853,2811.3184,2839.398,-401.85373,857.9873,521.718,2000.88610839844
40,-377227.75,-376299.78,-377307.47,935.6555,50.66285,377.89395,2000.98046875
41,64137.42,64690.016,63573.61,-909.676,438.17496,-49.608665,2000.17749023438
42,662682.7,664142.94,663019.56,42.517853,-52.35654,-863.4009,2000.98046875
43,799.50214,1495.1484,1980.1544,-522.619,-730.9448,418.39478,2000.9853515625
44,1137.6595,10264.379,7159.9785,-656.0052,-13136.851,-7430.3354,27372.478515625
45,16795.297,17391.967,10023.013,-11176.634,292.82315,-9554.921,26441.611328125
46,17301.95,29878.814,346.3574,-10234.454,-6585.4966,-3586.3762,33791.16015625
47,2140.0608,9673.162,-6925.593,-3630.847,3968.707,5585.675,19688.232421875
48,23570.959,18245.184,26096.041,-134.26561,5835.211,-19992.408,36735.2734375
49,20746.63,12020.994,24281.955,-45.39094,3992.2383,-20339.91,37529.17578125
50,26045.588,30515.305,28254.05,-742.4614,-7707.7744,-19654.703,36793.87890625
51,1641.0662,22538.25,-5345.7183,10818.982,-1099.6233,-8141.6753,34426.01953125
52,20902.54,23029.404,39478.258,5212.692,-5501.834,-17576.988,37539.99609375
53,11294.135,9792.767,8800.174,8245.7295,3668.9932,-14259.44,29310.15625
54,49170.63,48503.21,48174.6,437.3062,-244.44522,-908.88525,2000.98425292969
55,-116150.336,-116703.71,-115265.91,285.44836,834.88513,173.72171,2000.98486328125
56,-23009.754,-24010.104,-23917.53,872.3343,416.03253,308.29044,2000.9853515625
57,-2056.6646,289.1361,-14363.839,9472.053,-12040.929,9443.464,34021.87109375
58,-8038.089,678.463,-22196.318,3611.724,-2837.4734,9422.02,27008.43359375
59,-6017.16,14626.663,-17861.346,-6742.6333,-7121.3086,3077.779,33584.34375
60,5413.5894,16339.723,-1304.7268,-3491.2803,18160.922,3713.5496,36129.171875
61,11528.694,24396.605,18521.139,10536.6455,1635.6141,20.068285,21577.5078125
62,27471.422,32707.01,32432.023,13878.434,-3963.1038,-3585.8054,26259.71484375
63,6490.2246,10447.81,34680.59,13302.414,2205.6206,2121.1772,35464.75
64,-9758.9,5967.711,31070.686,7782.791,876.51465,6680.175,39876.87109375
65,6366.0933,-3682.9517,-12755.767,9234.709,12962.688,-3036.532,32589.375
66,78.12665,10205.06,19951.572,1464.6132,6666.277,15699.747,34284.84765625
67,-19409.232,10668.434,-3093.7134,9284.763,11099.364,-3449.741,36661.1484375
68,6274.6567,13584.986,9947.524,11424.694,973.55396,2855.765,21423.388671875
69,29726.654,-3801.1646,9284.32,2558.362,-2670.1824,-7033.5513,32342.767578125
70,-5626.422,-28360.74,-43210.582,-7990.705,7267.94,-5225.9526,38819.1015625
71,25081.248,11597.973,9508.426,-2741.892,2859.996,12957.562,27660.923828125
72,-1642.6858,-19049.309,-15514.603,-3353.1165,3220.981,-940.4763,17929.44921875
73,11669.501,-8429.328,5144.887,146.54161,-188.04608,-14540.848,30820.052734375
74,-16707.01,-2990.2969,-2430.8093,-1281.95,-3192.247,-6928.5625,19381.744140625
75,17022.092,4462.111,11923.547,-6192.743,-914.4051,3667.2,16661.76171875
76,820.708,2088.0364,6454.61,-4778.88,-14620.224,-12471.239,34678.06640625
77,9866.253,6290.972,3851.214,2501.838,8268.363,-258.25058,15859.79296875
78,-15895.713,-13383.637,-33830.723,-957.2429,-11081.135,3387.9077,27903.1640625
79,-8251023.5,-8252615.5,-8251359.0,-63.916943,14.030493,791.0478,2000.75610351563
80,49117.008,50774.58,49527.47,625.2621,19.653463,445.07544,2000.9853515625
81,-192315.4,-191591.39,-192522.3,-79.10401,571.3749,871.9899,1999.01818847656
82,97339.85,98305.13,98282.23,-115.248604,-448.27823,-903.89136,2000.98645019531
83,7617.8926,7410.1943,14042.346,-8014.931,12.88675,-20209.775,38218.765625
84,-33055.637,6179.8936,-3390.0217,-4033.0808,1297.3544,-5898.9316,37600.109375
85,-1892.1775,-22194.861,11895.398,1619.858,-12576.561,-1822.9982,37075.2265625
86,-27040.32,10138.287,-692.2446,7302.9126,-4240.567,9315.033,39637.6015625
87,-20167.906,-4958.99,-14399.988,6433.548,-1006.59625,10887.445,25684.177734375
88,-6815.19,6273.115,-36990.73,4381.799,2625.3525,2657.151,39702.3046875
89,18289.088,37203.723,16127.444,10143.033,-5100.1763,-5938.9595,29930.173828125
90,16313.604,7876.5083,20679.24,2916.024,1277.0315,-5111.1772,15357.443359375
91,14741.727,17630.793,15441.814,-1343.9296,9769.471,11285.812,26089.6328125
92,2759.191,16541.746,-17621.13,-7888.3496,-4366.725,4907.2974,34674.73046875
93,1277.9136,1547.9261,1663.6761,1068.5873,-159.22955,342.39447,1992.7265625
94,-26516.604,-27180.027,-26839.541,33.46258,-660.25824,729.11957,1798.94506835938
95,-22531.814,-23449.107,-22882.941,-729.54395,92.37247,462.87228,1705.19311523438
96,63130.758,63009.207,63218.74,295.18182,-1067.0244,312.71585,2000.90063476563
97,-25058.434,-17549.549,-16194.305,8322.477,-3165.5366,2325.2615,17957.439453125
98,25514.041,3814.122,17105.469,17293.72,-4149.8706,6192.489,37723.31640625
99,9295.529,5502.616,-6572.9067,9577.838,-2137.602,-6169.01,24679.724609375
100,14514.244,12446.497,18105.42,-3489.4402,-1731.5184,-21172.064,37615.01953125
101,6063.611,5814.1816,5126.227,-856.9263,-325.9052,504.06985,1997.7392578125
102,6122.29,7474.816,6439.956,-133.28394,-26.292637,903.3212,2000.98022460938
103,9572.846,9729.194,9658.668,-574.211,-132.19691,-990.61725,2000.98547363281
104,-19823.256,-17998.709,-18398.059,-78.449486,-620.153,-154.80185,2000.9853515625
105,4862.9883,4526.3115,4003.0144,743.9307,-204.1083,278.02542,1606.40808105469
106,3864.0322,2409.575,2423.8142,-795.19934,-56.795742,15.722266,2000.595703125
107,57456.562,57637.934,57800.05,6.9003477,-1056.9492,433.43356,2000.93542480469
108,-447152.5,-448352.4,-447046.1,-293.0037,-216.27625,-799.7082,1973.63977050781
109,1230.3326,562.60425,837.3008,423.66208,-821.06036,-602.99927,1997.40075683594
110,-13166712.0,-13167972.0,-13165794.0,-292.0765,110.63,204.61104,2001.31176757813
111,-39268.062,-36788.742,-69398.6,2155.9993,13073.612,4144.635,39584.55078125
112,30605.219,12103.033,22750.5,-7188.251,9237.654,5906.56,27827.61328125
113,32897.047,23488.654,42367.8,-762.1533,67.19868,9304.9795,22996.123046875
114,14415.509,9252.326,8844.656,15636.016,870.7478,-3797.684,28424.044921875
115,3332.2197,8008.8438,12279.384,11379.574,9420.418,720.5864,26764.802734375
116,12426.591,-6219.0664,4406.9526,-5051.6655,8978.779,-131.85965,24102.05859375
117,18032.277,-9626.326,15965.639,-2595.294,2575.0347,6739.921,29807.509765625
118,20955.615,10951.795,3150.1753,669.87335,-1106.1536,5881.659,18649.03125
119,11241.179,22179.035,19155.87,-3034.0952,2577.8567,-8914.848,19536.787109375
120,14640.192,-5456.1045,9373.617,-8187.469,-4453.8057,3153.2278,24823.39453125
121,-970.3445,7673.4883,-13918.539,1666.3884,5897.4683,6868.5815,24667.728515625
122,9596.539,-6070.6943,-25853.338,5665.855,10331.777,-7450.947,39113.2578125
123,15485.843,15407.359,15203.458,-81.0246,-637.9347,-948.61615,2000.98303222656
124,-86569.9,-84375.12,-85129.41,-61.51751,295.56284,-0.38231573,2000.98559570313
125,8093.193,13016.853,25054.943,17859.385,7160.6606,8108.0195,39196.26953125
126,16524.664,3138.1035,21087.766,13137.305,9896.696,355.06985,32757.96875
127,2624.0342,-2941.9204,-4548.645,-1345.8927,4976.28,1567.904,11384.3623046875
128,2347.4053,-1627.192,-6455.085,957.6706,-4605.425,733.6813,11237.92578125
129,24932.156,7748.111,18660.154,-1581.1842,-2499.2502,-17541.256,34295.44140625
130,-4543.743,-3155.041,-3822.369,-913.66284,-131.60663,1.5502024,2000.85180664063
131,4230.7964,6001.918,4352.3145,359.10828,-445.1425,-169.50664,2000.98583984375
132,-80978.99,-92621.21,-55544.715,-1280.2201,-461.61176,3900.1497,33611.6796875
133,142922.19,111809.92,125517.29,239.96642,-5942.145,-6934.202,31300.9140625
134,-37039.6,-351.55197,-24664.41,-4712.776,3074.409,11069.759,38829.65625
135,-1283.2101,-32249.945,-2510.525,-510.48047,7169.6455,-9055.481,36379.08203125
136,-34171.746,-4769.5737,-46421.99,-3674.1802,264.03027,6911.6367,39481.1328125
137,6974.9907,5215.44,11564.558,-3913.663,3270.2217,1789.2659,10948.673828125
138,-112371.36,-111922.07,-112019.65,104.58302,-164.16391,-724.2401,1361.90112304688
139,-2014.89,5743.678,1906.6698,-12499.277,-1297.3889,2274.8938,23117.5078125
140,12426.783,15320.873,1289.4542,-10334.499,-13670.157,878.23663,32372.6328125
141,3548.305,-16848.256,-19429.4,3670.996,3851.8955,-992.57874,23732.341796875
142,19370.912,5273.5176,6141.949,4747.4346,-2973.6018,6068.1294,19795.353515625
143,5123.4707,3065.2593,7312.8535,13041.988,3274.7004,17963.635,39039.2578125
144,-10300.904,16416.426,-6075.4624,16041.586,-1393.4893,-887.288,37402.703125
145,4751.4937,20778.133,353.93066,875.4282,2041.3534,-19232.969,38356.11328125
146,-27181.059,-7031.0234,-51202.75,3737.7373,-4447.5093,-313.33197,39606.19921875
147,168.5708,7346.4644,-26931.033,14238.216,-2347.7139,185.74919,40065.54296875
148,11449.706,15899.207,14070.243,-4230.8013,1340.0956,-2222.3865,9429.146484375
149,-17353.797,-1803.8965,-40586.695,4455.071,-10351.722,4975.836,39976.625
150,19712.541,28892.273,-763.9326,-11218.984,11136.099,2461.8447,38201.29296875
151,24142.19,14922.789,30924.084,907.731,11224.643,-16661.54,37507.15625
152,-107843.69,-106788.6,-107382.79,186.83255,-422.57657,-663.8061,1673.826171875
153,35893.97,35414.97,36162.668,-802.0403,-437.60397,-594.95,1999.13513183594
154,17118.984,16342.907,16782.416,348.82822,-274.33878,-993.0999,2000.98522949219
155,23558.482,22360.883,22858.273,598.19055,358.98682,697.1052,2000.98596191406
156,20042.799,18697.559,19673.506,-571.13934,428.12833,584.075,2000.29333496094
157,-53527.785,-52559.26,-53124.266,1029.1909,-129.1958,144.8358,2000.18896484375
158,2724.7783,2594.8484,2255.0735,590.7433,-388.42468,-880.8754,2000.96337890625
159,51171.137,52940.406,52653.395,-244.67677,-573.3272,-209.28658,2000.50109863281
160,-2824.8882,18063.203,34056.785,8603.6875,1913.3773,-4057.3342,36174.875
161,-63042.617,-44793.824,-49553.473,-13407.056,-6856.682,7022.4443,33121.7265625
162,15545.848,16111.143,16529.203,-76.437836,1035.5979,-113.04288,2000.97827148438
163,-532231.25,-533024.06,-531606.6,-780.3736,-64.37265,465.7101,2000.98889160156
164,106526.34,107889.13,106365.76,237.51178,746.04407,-145.06996,2000.98559570313
165,-5663.821,-305.68756,-7913.8403,-1087.7653,6853.782,-20279.184,37736.41015625
166,15797.007,22356.205,3475.2295,1520.5692,3470.1045,-20195.123,39271.625
167,136545.22,135696.84,136962.53,-2.3325508,-20.689547,-957.77075,2000.30053710938
168,209217.44,209392.44,209218.52,90.988335,161.15068,1135.8932,2000.98547363281
169,-18342.832,-18710.012,-18306.057,150.91895,-154.50526,1112.7028,2000.98571777344
170,14421.135,16367.605,24918.762,-2311.288,-4383.1777,-20782.402,38248.44140625
171,15339.566,10479.649,15017.675,2406.703,7110.0757,-20574.217,38224.19921875
172,11907.258,26541.652,-14975.7295,-1784.5735,-4090.7546,-7138.8013,39280.03515625
173,16749.61,27780.988,45923.94,-7488.425,-7059.1733,7416.6313,33671.12109375
174,200836.75,200478.28,201027.73,-109.0454,-1018.5577,-455.50598,2000.98620605469
175,3254.4827,20565.584,28589.195,-454.5751,-5922.087,-4808.0405,26041.02734375
176,40381.723,25186.736,56877.207,2723.5935,-496.18115,-12659.382,35459.97265625
177,6350.978,19066.283,-2553.9568,3618.435,-13923.8125,-14079.929,39621.15625
178,69297.44,64229.707,96381.555,347.66647,-2762.8289,-11131.08,35936.76953125
179,-16155.439,-30685.672,-53257.492,10794.858,-1201.1868,-561.54596,37462.6484375
180,5063.057,7167.419,5647.4785,-288.3058,-220.59172,-151.15985,2000.98571777344
181,11446.039,14454.168,18447.707,-14421.296,6349.291,-5198.445,29375.90234375
182,63525.855,62491.27,62849.074,-78.19095,-889.2827,-511.50607,2000.98486328125
183,-2263.301,18106.506,17547.18,16839.393,6102.812,3491.2695,37454.5546875
184,137592.02,139169.1,137917.45,139.02875,-99.70647,-782.36224,2000.98168945313
185,-410863.34,-408978.84,-410839.53,-276.18243,192.2869,-84.395164,1966.76208496094
186,-7507.177,-206.95056,-26231.826,4597.6196,8500.161,-8255.976,32019.6171875
187,3454.9775,-16130.748,-15134.352,55.33456,-10453.723,7518.659,29368.67578125
188,-1468.127,-13244.29,4774.554,4549.2686,2868.0454,1455.5055,18554.890625
189,-19395.318,-20945.771,-19693.469,-619.44006,-299.71048,429.2687,2000.98522949219
190,43791.664,42181.938,43824.332,326.53598,126.97568,-574.6947,2000.98498535156
191,23735.992,25857.781,24970.871,-108.792816,272.37894,336.0153,2000.8896484375
192,26971.266,26560.068,27155.953,884.53613,-94.089,671.07733,2000.98498535156
193,803.9282,1703.978,1116.6917,-1041.3165,97.9076,-178.54614,2000.95532226563
194,45384.51,29780.03,54414.75,-1485.0765,6258.3506,9450.916,29292.216796875
195,8546.568,6940.4224,8047.7163,262.75064,-317.18085,699.4395,2000.97497558594
196,21820.957,23139.174,23291.652,464.99274,403.4746,-507.2385,1967.44689941406
197,15248.035,-2016.3241,-1523.9014,-7652.409,3966.072,-1225.9243,22741.484375
198,24303.465,24449.898,24778.275,731.0343,191.70918,-839.26404,2000.98547363281
199,10505.359,8453.729,8768.192,-50.820797,-59.087708,325.79468,1999.89038085938
200,11936.035,10815.1455,11721.967,8.95118,493.7742,858.2902,2000.98413085938
201,2644.52,4063.709,4126.5024,-771.367,-71.295265,-172.30733,1999.12377929688
202,34804.69,32819.305,34543.863,-395.07962,98.6786,67.73438,2000.79663085938
203,1324.7441,2148.0708,2176.2717,436.12167,-656.50525,692.4492,2000.98522949219
204,99.774536,879.9839,1004.6837,913.1259,-339.75284,-380.64905,2000.9853515625
205,15765.955,16236.406,15597.239,191.25322,-749.47424,791.6041,2000.98510742188
206,2410.7085,1742.341,2244.264,-185.55063,-610.2434,-898.2002,2000.98522949219
207,41512.387,41923.684,41382.98,256.0182,-997.9402,-438.5162,2000.07873535156
208,-399851.62,-400803.44,-400052.47,157.79483,250.25516,997.70355,2000.98413085938
209,200907.34,201775.94,200874.47,-1004.29517,-245.02623,55.55655,1999.82250976563
210,409649.3,410455.16,409078.9,-739.0366,205.8812,-517.64264,2000.98828125
211,179796.95,181400.11,179900.75,-263.38028,20.50076,-675.3346,1998.01892089844
212,198853.84,198797.12,198527.72,-36.210743,8.4753475,1141.449,2000.98559570313
213,57296.195,57951.645,58027.918,-57.133698,212.06607,-1060.4722,2000.98413085938
214,106135.89,107968.6,105986.94,-216.28508,75.18509,-239.62383,1995.88562011719
215,-746138.94,-744146.94,-745690.56,420.21533,-87.34861,-241.799,2000.99328613281
216,81103.125,81867.81,80741.95,742.40247,-644.63354,193.58485,2000.9853515625
217,-348389.62,-352690.7,-358321.5,1892.624,-108.245705,-1701.735,9689.8193359375
218,2236.7297,2657.7024,1828.8804,-40.950077,551.17975,925.82446,2000.783203125
219,-207106.17,-207890.11,-207932.16,-1020.8461,93.3836,-259.5451,2000.97998046875
220,24943.006,23968.967,43541.977,-2588.7825,-8065.9043,-10295.365,29970.853515625
221,-8149.308,4325.976,19392.799,-8329.284,-9150.581,-6911.4487,34252.5859375
222,-50392.66,-66082.664,-52974.69,-3904.871,-9210.939,11409.824,30052.478515625
223,-14902.588,15985.014,21092.646,-8743.995,-3553.0073,-855.0149,37514.4140625
224,-30421.768,-10834.316,-1737.4028,-11509.104,-1699.635,2942.5417,32812.00390625
225,3446.2122,41122.46,12148.687,-7963.3906,-4690.3384,4174.133,38417.06640625
226,-19956.244,3377.6992,-6224.927,-11387.135,2517.5015,-1675.4653,28793.259765625
227,29371.145,21626.639,32960.168,645.646,7808.5786,10582.656,24915.93359375
228,-4515.6343,-11979.292,3784.8596,-5461.3936,11284.701,14750.598,36205.12109375
229,-7877.259,22953.8,-10955.271,-8278.6045,-1117.2742,-10054.596,39592.453125
230,-5466.7505,10446.012,-1743.4558,2794.8672,-6544.4883,20130.953,39692.83984375
231,1043.1127,2262.568,-13104.477,-1975.51,-7820.935,16399.67,34942.09765625
232,-5309.8013,7217.68,-7529.7827,-3827.4194,6282.55,-975.8653,18838.591796875
233,7820.836,-796.69684,-9207.758,8457.911,12890.332,-6347.404,32426.06640625
234,-6442.7466,12170.049,-8299.825,3461.5112,6647.216,-3094.3179,24117.98828125
235,12201.384,-542.5879,18766.287,-82.87059,3836.5525,1408.601,18420.103515625
236,5895.0103,3327.5476,9061.264,7566.7925,-5125.644,985.5499,16680.705078125
237,22582.633,18117.22,3827.0645,18016.139,-7243.189,3888.7463,38268.2890625
238,14504.884,-3932.5535,-10947.014,11591.5205,7242.7725,4190.7886,33639.5859375
239,21011.52,-8529.869,11747.673,5149.7095,-336.98138,4325.573,28650.943359375
240,6460.853,1757.5078,-4789.958,5241.542,3959.9485,-2997.3071,15880.8740234375
241,-3427.387,12132.068,13139.632,14089.409,-6393.263,-1925.465,31433.533203125
242,7338.368,10348.618,-556.062,5624.4883,-6570.6934,6495.8843,21122.595703125
243,2294.079,-12814.35,-33055.02,6482.8574,3249.011,-4735.764,34187.52734375
244,14490.969,4249.042,-4889.5283,7280.7144,8584.464,-2588.9614,26119.353515625
245,14615.987,1417.5798,-7619.218,7480.508,-3674.547,4554.153,25411.3125
246,4794.2207,-3101.9153,-4988.348,2841.3467,-4606.1665,-7028.2964,17800.67578125
247,19774.746,5021.4424,8033.2646,7830.198,1398.5436,-8446.616,24210.255859375
248,1337.7261,-637.4573,-13363.673,5015.9946,-9316.227,3996.6418,23974.37890625
249,1848.7568,-15408.467,-10386.255,3307.5723,-2975.9875,-348.932,17208.130859375
250,22165.326,-5980.9473,-17042.434,-4009.5818,-5849.3545,-8217.351,39741.14453125
251,22127.586,-312.01953,4718.29,-4531.8184,-8509.514,-618.9812,26381.03125
252,14034.123,-2959.7014,-10089.668,1180.0875,10124.01,-6691.577,30112.921875
253,25492.814,-3328.2603,-4595.1226,-9906.694,-3659.9521,6198.374,36313.1484375
254,5247.67,2946.2654,13798.19,-5420.3887,5403.934,-1286.9069,16697.419921875
255,-379.97946,8227.216,-8895.093,9371.483,-5144.1265,72.14495,23722.521484375
256,24635.19,-14384.245,743.76025,3929.2087,-10044.953,-1538.2738,38951.3125
257,-5987.3623,-7523.666,-5204.5283,-614.0563,5302.286,285.28018,9481.2333984375
258,8760.38,10346.165,7974.556,2628.576,3183.1956,1874.4138,8126.81396484375
259,9010.898,16876.84,13985.881,-3823.0486,12113.983,1389.3093,23181.328125
260,14034.189,13960.366,-7879.397,-12554.735,-4016.76,-1817.182,31776.82421875
261,9745.09,20782.986,5216.6147,-13026.098,2434.5059,11995.071,33923.30078125
262,114.87734,2647.8367,-10567.697,-840.6969,-11.90895,7835.442,18272.794921875
263,7037.463,8989.647,-12768.288,-1202.7092,9510.823,2212.2422,26928.27734375
264,-3188.292,17955.355,-5066.8477,1480.1029,-3347.3809,8652.5,27478.83984375
265,-3330.514,17729.637,605.9267,-9133.286,-1064.7355,-3946.1355,26009.443359375
266,-3321.0957,3748.1836,-15921.454,679.2992,-7792.435,5226.957,23734.63671875
267,-13941.711,16568.383,-1039.4706,-8806.415,-290.77454,-7444.95,33209.62890625
268,-12468.546,6421.046,-24395.9,-11735.633,810.78796,11881.166,39534.984375
269,1704.7676,6882.1885,13759.395,197.71593,3985.1802,6560.1177,16928.541015625
270,-2534.7551,-11242.633,-36974.055,305.7483,-1680.7766,14433.494,39946.61328125
271,4249.547,-4096.7207,-29626.408,-7465.9907,3521.671,11089.856,38831.5234375
272,24326.965,24400.422,25483.154,934.6344,-18.415205,204.17604,2000.98608398438
273,3740.7434,1844.3909,3113.9736,2682.4194,5488.5806,292.314,10724.5712890625
274,16632.66,16624.99,16498.889,-643.7021,-780.9661,-552.0335,2000.98278808594
275,6914.1704,5324.3447,5438.324,-93.76479,482.7865,131.88942,1771.19665527344
276,35016.926,33458.25,34999.848,-157.79704,-199.32022,-684.8166,2000.98706054688
277,-30454.893,-26832.457,-23586.24,-1138.1099,-1184.0231,2309.3303,7714.259765625
278,-5792.045,11544.88,3973.1084,-2324.1606,755.39325,1036.0574,15740.607421875
279,-6509.9443,-629.45703,1710.7609,-3804.1863,-1474.6918,4354.572,12674.5771484375
280,1137.1406,-1030.5677,-5300.132,14871.339,-1971.6783,-4155.989,27552.36328125
281,-127.35693,9298.162,-21004.805,7501.87,3187.045,-757.77185,30372.9765625
282,10522.098,6195.7275,3415.468,-8160.028,693.82776,4285.4824,17168.98828125
283,5180.8247,7415.52,8027.066,-14906.526,-16315.161,3258.929,38778.38671875
284,-16047.816,6953.3623,-3507.5547,3201.5388,4807.5356,-6463.0386,24965.39453125
285,-61332.348,-60863.754,-59727.65,605.4979,-194.65851,499.23236,2000.98608398438
286,8290.275,6575.73,8216.758,251.2768,258.53418,-514.7754,2000.9853515625
287,-1239107.2,-1239849.2,-1239355.6,-922.89386,422.3184,90.35663,1882.208984375
288,-83339.51,-84643.14,-83442.734,-761.79626,451.3758,158.07716,2000.6826171875
289,11748.111,13392.594,12588.189,-575.9301,-266.73306,-505.588,2000.98571777344
290,3068.107,3392.0996,2684.192,-910.54407,-351.34424,-506.4897,2000.9853515625
291,35808.156,34266.72,35702.844,-448.00177,-102.72496,221.47398,1733.69946289063
292,35909.535,35011.55,34182.92,301.77246,604.61694,-363.7511,2000.98156738281
293,8845.614,3593.2524,-8424.522,5105.126,-1344.436,9053.584,23762.3125
294,7263.062,-4251.8457,-19828.834,14532.726,-597.46814,-473.22354,34495.59765625
295,7173.5464,1350.9446,-14408.017,14200.404,-2586.0034,-10243.438,36246.46875
296,10138.883,-13307.243,-10852.28,4675.9316,170.46179,-3955.9387,24714.708984375
297,-397350.3,-398251.34,-398184.03,376.9176,757.2451,534.0701,1938.52819824219
298,208380.75,208213.92,207766.16,775.50757,-743.63116,281.48987,2000.98291015625
299,44818.984,44674.86,44105.367,151.90685,247.2316,1052.6437,2000.98608398438
300,-28721.145,-7025.9985,9062.825,-5038.1772,739.8077,9300.407,37627.9609375
301,-5996.752,25125.16,4822.564,-5784.3765,4145.2007,247.57838,30017.03125
302,-20272.258,13099.676,-20226.254,881.40314,-1154.3635,-414.98306,33451.421875
303,-6386.0386,16620.889,-12877.336,-14257.377,-1590.213,9158.338,39872.6796875
304,-476.18698,26665.393,-13002.392,-5224.9155,-8672.582,3389.4597,39693.296875
305,9014.332,26385.135,15120.776,2201.741,11571.999,-12796.061,33770.6015625
306,34286.086,34208.93,34825.83,933.47784,437.32687,398.77307,2000.97131347656
307,-6317.4385,-7458.3594,-11180.353,-6171.4595,-2057.3918,-2167.8704,12667.26953125
308,-3363.6428,24076.455,7132.3745,13703.259,-4574.697,-2685.4028,34969.546875
309,6618.357,17811.338,7466.915,-13742.155,7715.4614,-2201.315,29600.1328125
310,8112.6357,12469.18,2113.0337,-10717.654,1758.8065,-3842.0164,21892.46484375
311,-2897.67,13549.108,-20983.826,-6115.162,5434.515,825.941,33134.5546875
312,6464.7656,-19708.625,-4227.641,7700.738,-1491.3392,4263.8647,27543.337890625
313,39715.184,38704.5,39184.273,515.9514,-886.12756,-166.23097,2000.98645019531
314,-47246.78,-48098.83,-48536.207,510.53595,-396.37875,-696.9294,2000.09313964844
315,52948.57,51457.59,51481.766,-9.153562,-298.1,-718.6428,2000.93627929688
316,79784.555,79591.66,89361.89,-4958.8438,4676.6265,3829.6318,16643.052734375
317,15341.607,14762.451,15464.334,-213.77092,730.69226,783.91187,2000.9853515625
318,-25053.137,-23377.562,-23708.871,414.62714,-422.69,443.46426,2000.97766113281
319,21271.588,19790.592,20115.23,-2.2408555,578.4556,622.08496,1995.68725585938
320,-5293328.0,-5294517.0,-5293934.5,-379.85687,-445.55746,608.9033,1789.17932128906
321,880863.06,881606.25,881235.5,67.15178,-145.35878,-1076.2017,1991.42956542969
322,-3137765.0,-3138775.0,-3138198.0,-122.43238,80.12199,1027.8739,2001.01501464844
323,24823.385,24480.865,25571.63,104.0149,-83.630554,-987.3249,1977.71374511719
324,72012.086,73126.7,72508.664,-151.35162,-115.501175,-982.6169,1985.1494140625
325,66311.35,64369.453,65609.21,552.8144,-233.14778,-87.79564,2000.87341308594
326,1481.5359,-1864.7792,1510.0641,-415.5775,14284.952,16200.249,37567.75390625
327,5829.8633,6812.1177,709.37427,6090.242,516.08826,-578.7601,12053.6689453125
328,8674.241,-4755.0166,-16142.662,9448.717,5333.9473,-2693.483,28946.560546875
329,9407.252,7073.5127,-3514.0454,7084.299,-3628.9712,2424.7893,18707.224609375
330,6531.6006,-9577.546,4388.0713,6314.889,2771.5874,-6719.5664,22532.314453125
331,3787.44,-2249.57,-8528.59,-6363.137,3276.434,4905.7144,18429.58984375
332,15909.958,-5238.837,6163.1426,7616.967,-7116.9565,6347.6704,27982.583984375
333,15217.19,20157.469,-7313.7173,-12694.54,-1391.5941,-8703.6455,36876.56640625
334,-574.37134,14676.951,-2155.7307,-9507.107,-10472.143,5296.064,30716.75
335,6764.6133,18212.447,-9458.554,-12574.458,-1015.357,7120.921,34778.3046875
336,43966.22,42741.8,42262.895,617.1059,-247.8356,-347.50232,2000.98278808594
337,-11524.449,16850.953,9546.551,-10824.402,-6734.2935,3732.926,34360.03125
338,93.31877,23181.143,-8428.392,-7722.4775,8500.269,-3056.317,35015.87890625
339,2885.1472,16312.997,10825.491,-1096.64,2398.411,-9093.775,20141.740234375
340,-631287.56,-630988.1,-632930.6,-188.87257,364.61954,268.59143,2000.89892578125
341,5158.5522,9559.715,17059.035,9098.893,3292.8972,631.31244,19766.3984375
342,7260.3335,16612.227,19480.768,-11790.509,2470.119,-6113.156,25883.923828125
343,-4990.3594,19481.777,-10985.071,1610.1777,-1393.5546,-3465.4175,28829.791015625
344,-5729.988,7660.7676,15157.045,-7935.9272,9755.912,2979.1794,28930.677734375
345,15190.125,15902.53,16404.377,-881.60803,-363.63235,-229.6103,2000.85888671875
346,-3766081.0,-3766512.2,-3767281.8,475.5351,-255.21445,818.735,1998.68420410156
347,-58997.48,-59776.895,-60397.605,98.12961,100.83387,907.0068,2000.98315429688
348,-1059.0858,16750.004,282.7451,-7871.048,7832.0127,-10914.668,31974.033203125
349,-16135.745,11176.6875,16918.717,-5826.002,6280.7964,5072.6387,35116.03515625
350,-7932.9365,3428.229,-14394.833,-9633.399,-4191.149,3682.1672,24819.875
351,189.87202,253.60764,123.103424,391.79306,175.43375,244.9307,863.472839355469
352,11459.827,15929.721,30353.904,-732.0137,3542.083,-226.59456,18218.45703125
353,3080.8435,4600.544,9525.0,-2040.7068,-5375.927,4359.631,13793.3974609375
354,20113.621,28764.75,31468.145,3762.552,-12145.395,5390.1167,26032.673828125
355,-2575.4106,-4838.1626,-4076.105,-2784.6028,4489.1274,-815.9604,9470.6201171875
356,-18493.904,851.57574,-21960.648,5258.731,2131.218,-5793.7476,25507.318359375
357,-7024.379,-9312.584,-22287.541,5295.3677,-9219.065,13573.285,33091.890625
358,10786.601,-3151.3262,13815.975,-1311.5162,1629.805,-1445.5688,16280.7900390625
359,115705.77,113785.87,143361.78,445.8411,667.7008,385.51425,28705.703125
360,-53335.965,-81641.84,-78927.76,-4340.357,-4823.709,-10420.428,34406.98828125
361,60557.418,48647.027,86784.89,-6360.716,-926.66003,5716.91,36933.9765625
362,5456.756,-15861.389,9713.594,3733.9434,-8368.188,11983.498,35299.44921875
363,-25130.086,-57099.71,-21975.926,2036.6102,-10759.258,4779.077,39510.6328125
364,-4289.9873,854.927,-3644.331,7835.6494,-2539.5286,-2374.4258,15621.09765625
365,-337.90198,-600.33936,-531.2556,-139.16153,-200.29495,163.08394,560.140075683594
366,-6207.436,-1122.3003,2575.8042,2949.2183,-1369.8407,595.2838,9545.9990234375
367,-5001.1465,-52.51538,600.57117,2680.9402,399.16547,273.34937,7100.12939453125
368,-1130.002,2454.354,11499.792,-9394.973,6875.856,-5228.3867,24813.8359375
369,-7969.788,10185.117,22476.209,2915.7356,-8455.947,6694.649,32837.23046875
370,957.93677,12589.697,-3035.6912,8459.466,2525.969,4317.684,22078.412109375
371,7365.4453,9063.702,9598.017,-386.7533,4702.6987,-2812.8745,9726.6962890625
372,1874.1675,2885.24,-4472.283,-11182.905,-10717.524,-6397.0034,29837.048828125
373,17193.502,-7589.5254,22050.465,10598.613,-4900.634,-686.16925,34184.9609375
374,11669.416,4403.718,15131.701,5897.4077,-3733.2468,190.19572,15368.53515625
375,-4808.2183,-7236.098,-6653.238,6425.9307,-4804.7104,-1385.991,14272.8974609375
376,-20091.166,-21848.064,-16082.291,6961.2793,2051.7168,-4968.0737,16070.25390625
377,13698.992,7348.166,8457.119,-3571.7012,958.9565,2539.6858,9741.6611328125
378,-2008.9365,-2291.8552,-1501.5786,803.2974,1645.817,3389.9114,6709.5078125
379,11070.986,10163.441,-4158.663,-2797.046,-192.06839,-3882.2444,16962.923828125
380,45.518074,-5333.1406,-21272.484,-3378.9143,-3865.228,-6399.3384,23888.296875
381,37052.957,44633.402,42106.14,-8551.146,-2843.0522,987.77783,17065.599609375
382,-1286336.8,-1286552.2,-1287715.9,-141.35168,236.25096,841.45575,2000.68798828125
383,127306.17,129308.57,155155.56,-1128.6257,-486.72513,379.26205,26996.2265625
384,-4110.011,-5181.31,-4622.729,1667.373,-444.4972,70.72719,3132.00024414063
385,34961.023,43627.777,64392.285,-1720.4744,-190.03339,4851.9414,27674.0078125
386,14400.69,39979.46,34350.867,-11052.701,-3381.915,-1672.4048,30841.068359375
387,56659.145,49979.316,37018.855,-3164.2805,3436.109,1259.3246,19219.353515625
388,12946.02,3352.1875,24507.94,-9758.647,-6879.398,-14131.44,36924.34765625
389,-2827.671,-8335.441,-27050.24,-7204.832,8075.997,-1448.541,29005.9453125
390,-12799.512,-2336.226,-6808.8774,-11234.096,-3927.0928,-3450.4387,23308.44921875
391,6986.412,-151.95093,-15428.497,-98.92984,17347.727,4875.1313,36980.2578125
392,20147.562,-15844.972,174.51343,-1145.8397,1079.9408,1426.0344,31449.0546875
393,676.83936,-4999.787,-12183.273,7738.99,-628.9502,-1063.071,17574.34375
394,-2669.704,18318.174,6236.7134,5577.5957,704.312,-1967.1992,20959.841796875
395,-14209.458,-2795.8809,-15727.856,4466.647,6558.9683,4004.0293,19670.1640625
396,-8904.058,2086.899,-10008.027,4297.799,5054.0938,-2584.7815,16918.677734375
397,1519.1836,23528.156,41210.125,-5412.4805,5605.903,-972.0385,37029.80859375
398,8663.936,10198.426,10974.591,1949.4946,-5238.0303,1814.3363,10379.5966796875
399,-32848.1,-41167.797,-18240.8,-2921.732,1399.7777,10306.449,27464.072265625
400,-834522.0,-832980.75,-843713.25,1039.3699,-767.1577,4497.938,12912.0615234375
401,-30860.205,-575.6406,-17151.52,-4208.7573,-1548.405,7386.7827,30231.58203125
402,-2272016.2,-2271893.2,-2273488.0,106.686806,-61.895027,728.1047,1999.56262207031
403,-38350.9,-20931.598,-41603.656,-6621.032,145.19334,-6051.3354,24740.7890625
404,-144.22461,-2668.3652,-7420.7114,-196.17738,-10017.218,2751.016,19099.876953125
405,17111.186,-4753.852,9446.111,0.23556472,6772.734,-7776.4336,26234.798828125
406,12452.91,-5602.4775,7196.414,-2532.2449,7271.7407,2979.1453,21522.478515625
407,-20928.793,-25846.549,-41872.867,-10635.736,6727.428,5340.6045,30340.376953125
408,-20017.77,-24417.773,-27714.965,-5876.394,-3447.5784,-4767.9185,15880.544921875
409,-27314.771,-23631.518,-48048.27,10066.417,-7360.3926,-6395.1084,33302.06640625
410,2757.6353,4366.3496,598.2626,6225.0723,7137.8857,-769.7642,16781.09375
411,2861.5908,23640.416,11975.6,-3474.438,154.14598,2224.9531,19405.7734375
412,-4147.0444,-5224.2505,-34503.594,-1318.6493,9463.329,-9813.512,38115.29296875
413,-1177824.0,-1178022.0,-1179225.8,71.42904,-48.697388,866.6915,2000.61096191406
414,-11114.424,-6830.286,-11985.096,-7169.306,8389.526,-917.7329,19766.587890625
415,-107433.664,-115950.914,-105087.17,-135.13521,-1451.6506,974.625,10356.7158203125
416,19642.914,10788.425,51810.703,1322.7219,-6613.9644,-3102.7466,39539.36328125
417,-21241.395,-39232.523,-37814.605,149.25496,429.69345,-9782.708,24246.775390625
418,-1874.752,12643.579,14627.682,-7545.3354,-11518.886,-234.47195,28505.083984375
419,-12180.689,10433.201,6137.4683,-14415.281,2591.447,3724.1987,33434.3359375
420,5272.7153,-5440.0967,8127.661,-4171.6074,-5498.9116,4901.259,19196.029296875
421,-142405.12,-136185.67,-176040.61,5601.2173,-1945.7247,419.48276,38538.65625
422,-5276.6616,6571.4775,-3106.4048,-812.8574,-373.3,7188.6265,16637.435546875
423,9626.779,6399.0,40140.453,-7197.2266,950.4044,6268.5977,36276.58203125
424,2385.0715,4469.7085,4930.275,17616.535,-13255.285,1009.63116,38297.66015625
425,-16661.81,-12269.606,-20080.95,2839.2754,-4778.675,5554.7515,15207.1357421875
426,-30195.145,-57310.195,-29508.465,-13427.119,-8064.356,-994.51227,38642.5703125
427,9183.766,25337.637,32920.695,-15152.596,-2689.011,3100.7869,34355.296875
428,2673.3936,-13820.856,-7893.1494,1844.6816,-970.0596,-879.72266,14992.6064453125
429,1901.6072,1411.3822,2155.3582,1726.2786,-2753.5532,370.10123,5703.18408203125
430,89254.62,76369.54,111852.95,5484.3584,-768.48706,3270.5645,33045.234375
431,17002.426,-1562.5576,-1292.9995,-6444.1714,-502.59512,3201.508,22266.919921875
432,53985.52,46723.965,19908.43,10838.14,1099.13,-5943.2637,37795.671875
433,-4168.928,-11610.301,-4363.829,-4650.344,-1271.7999,-1847.2355,11572.728515625
434,-2106.5933,3136.2317,1694.5271,1594.671,1002.1861,1461.7001,6249.71044921875
435,2489.1294,-1901.219,-1322.1769,-1572.4076,6101.7896,1977.8977,12162.12890625
436,10621.195,12620.696,23213.498,1717.0553,299.41156,3711.1333,13704.63671875
437,29554.23,27306.297,57215.08,5521.6255,-3644.399,-5670.254,32559.494140625
438,183717.33,172245.16,201882.64,-2269.6147,1191.9958,144.85622,26263.35546875
439,-6544.7417,5196.528,6540.3887,5980.3857,-456.58224,1646.059,16476.982421875
440,44023.96,13036.086,27280.53,4125.3525,-8674.626,1671.609,31732.21484375
441,-6544.8193,-1019.0344,-3260.88,-727.595,606.39856,2328.6672,6490.88818359375
442,-2547.7432,7550.499,3352.8286,9606.465,8562.105,-3641.654,24774.427734375
443,38913.8,39941.34,11274.098,5219.9434,-512.4184,4713.1304,30701.49609375
444,-941.76025,11464.832,8746.172,-4803.5625,-1457.5187,454.08514,14275.841796875
445,6442.4917,-7495.3115,-3749.7827,-3269.5137,1108.7542,2506.9714,14515.466796875
446,-16813.102,-32709.291,-25927.062,-6993.3735,4332.7295,-1276.0874,19969.990234375
447,55151.18,47537.58,88222.414,-5595.0283,1689.5149,4968.928,39749.36328125
448,-11255.085,-8737.461,-13100.362,-8084.552,1410.439,-125.441284,14713.4072265625
449,14056.967,23262.424,23530.596,-2615.74,393.54922,-5859.729,14535.515625
450,-2546.5618,6111.753,-10593.262,-769.4223,-6970.0503,4621.997,20518.1875
451,2378.4438,6056.9087,14854.276,5026.5776,-177.9774,-4090.5386,15791.693359375
452,5906.29,9944.242,18062.027,-4400.5054,1347.5992,14377.215,28260.166015625
453,4780.9014,18057.07,19439.129,-600.95166,3693.7502,2031.4519,15840.150390625
454,4453.821,-335.78223,2956.0435,920.85986,-453.62857,-1638.8639,5406.365234375
455,29390.004,38333.023,70288.67,-3333.4282,869.2138,-4647.8496,38565.921875
456,33653.19,33604.633,71087.805,2889.5457,-4065.6958,-5230.379,39495.3046875
457,-8049.9736,-11961.578,-8405.989,1414.9325,-2889.2073,-647.8414,6807.53662109375
458,5358.204,798.0488,14957.041,-17751.264,-913.6867,8303.537,36212.94921875
459,-62575.293,-70694.62,-102117.58,2087.0442,4162.797,-2152.75,37248.03515625
460,3789.19,-427.52246,-18552.008,4346.3496,3608.5535,4951.786,24331.07421875
461,7416.144,18911.375,10069.271,-131.94766,1365.2551,-48.801373,10692.6259765625
462,14992.082,26327.082,18499.475,5459.014,-4485.345,6611.491,19542.791015625
463,-127374.8,-140371.67,-153631.38,8482.356,520.77734,5416.8984,28666.466796875
464,-2586.628,5394.0625,-545.2064,-1562.5359,719.3641,1866.7488,8420.1025390625
465,-4335.159,108.80713,11682.793,-4137.729,1975.166,-477.32117,16397.869140625
466,-27138.969,-27051.312,-6328.59,5216.974,-1693.8232,-7585.6743,26346.54296875
467,-8345.182,-14855.41,-19939.395,745.5639,1140.3121,-3794.9412,12251.5771484375
468,6250.24,-34218.703,-21970.7,602.855,5207.311,4806.559,37997.80078125
469,162206.98,138137.97,166054.88,5628.0835,1011.59485,4011.4927,28863.66015625
470,2334.4014,15296.78,18912.76,-3946.21,649.86224,-5184.0547,18883.279296875
471,157193.33,168695.83,190443.75,-180.04613,-7292.9795,-273.84525,31864.083984375
472,4238.3057,3668.7603,2989.9824,3787.8635,1563.8472,2611.675,8486.1552734375
473,5381.876,12943.842,22448.062,4536.4775,-165.1713,1636.4838,17007.03125
474,-988.86426,5936.632,7540.5913,-4299.8164,2044.4242,-759.21313,11461.9755859375
475,5924.2314,-2687.399,-3543.7905,3151.5562,900.9559,3698.4875,12471.4482421875
476,1591.7906,3672.4246,-2848.6655,1426.595,1861.6049,412.41635,7092.119140625
477,2146.031,-2895.491,1392.8024,-1034.4869,191.38126,-1765.0055,5903.64111328125
478,-529.59766,-7938.419,-13185.73,-2305.447,1043.8872,-2904.558,12877.306640625
479,2515.0723,4116.312,9125.135,3271.0432,210.43501,-872.32153,8377.7958984375
480,-3894.94,-14974.578,-9197.496,744.7518,-3126.362,-5932.2534,15122.37890625
481,36923.46,50616.7,69869.695,4338.0747,4131.0337,-7244.827,32968.68359375
482,-129857.82,-123499.414,-163703.98,-5681.923,3551.7744,1982.9945,39340.75
483,-8934.528,-2453.3262,-9122.456,-3131.84,-1445.1989,-897.03217,9020.2197265625
484,-8689.627,-9494.208,-9385.46,-4064.106,-2809.2236,710.2751,8678.2041015625
485,-414.0957,10134.044,-345.60254,-3418.0212,-2007.402,3022.1228,13604.51171875
486,1720.6364,-1369.777,-1067.4038,-1501.2303,-331.27783,-3762.4854,7633.27099609375
487,504.0808,1520.8466,2792.2395,1783.5706,-190.87468,1418.1415,4430.4638671875
488,3410.4792,-3838.532,188.33426,870.7459,-550.14557,456.26788,6586.359375
489,-26.776794,2065.052,-3978.6648,3770.895,-1040.7156,191.43858,8618.46875
490,-4225.7495,-2377.059,-3356.7747,-740.5793,2012.0756,2597.5603,6049.70947265625
491,4145.135,4405.1836,2176.6545,1867.2601,-1725.1584,-2594.3347,6635.861328125
492,-33765.562,-20800.084,-58066.516,8630.752,3156.4775,1298.6818,36498.39453125
493,732.895,11224.355,357.85425,-1789.6995,-2201.971,-1684.4893,12116.671875
494,-6777.206,-2135.6382,-12533.184,-7625.194,2508.3892,-3728.2903,17787.619140625
495,1891.1973,13177.512,31922.87,-2607.308,-1361.9371,-352.49832,26770.634765625
496,-2576.16,-5645.6577,-10314.196,-2797.0886,-3908.4822,-3888.5332,12657.3701171875
497,-2689.0256,-1034.4888,7813.2437,-1602.7168,-1323.6147,-2862.4375,11541.2900390625
498,-15365.49,-19902.469,-23760.977,4857.4214,-2314.548,2977.043,12900.4501953125
499,2682.7188,-2263.4365,-6674.437,2570.411,-744.1158,-595.86554,9396.07421875
500,10056.849,1264.7236,-2982.3428,-10453.394,10773.834,4024.0454,29279.77734375
501,-1117.7301,-1668.4495,-597.5997,185.36752,-1117.2389,-561.59314,2377.85302734375
502,-1579.763,3299.5288,-3288.6377,-3370.0552,-1476.7162,1451.2778,9055.2939453125
503,-9759.238,3002.7646,-7946.376,4122.577,1885.2131,-1956.8057,14702.2353515625
504,6876.1675,1311.2899,-7325.841,114.20174,3512.179,-1766.099,14143.376953125
505,-416.21484,-2643.342,-3282.311,1381.5382,4486.053,-10.522555,8537.666015625
506,5549.1963,7127.271,9097.817,843.3461,-214.98302,517.62024,3543.89404296875
507,-4811.8623,2369.6213,-978.1874,-2274.8796,-1770.8574,-1172.8977,8234.0390625
508,-16386.656,-28941.736,-37061.76,4764.7954,1255.9783,1420.6647,20109.9375
509,11163.42,3716.044,10368.143,4132.665,-3967.791,-3993.7234,14017.470703125
510,-68730.32,-69958.11,-101959.71,11533.975,5960.987,-3125.745,39998.875
511,3042.3894,9265.31,-1465.8757,-6876.309,-1348.1508,4486.477,17169.525390625
512,7293.75,5066.1626,15546.622,6111.0327,-5735.497,-3397.306,18352.1953125
513,7543.5215,20937.863,-6939.531,-8018.923,551.0156,-1758.0209,28040.154296875
514,53587.54,53430.008,89194.734,5660.2056,-23.485994,-789.73895,37033.671875
515,4165.005,38.73242,3556.2173,1033.5127,443.4384,737.1018,4506.55517578125
516,-5956.462,-2340.3254,3863.0168,1887.9415,339.6599,418.5815,9249.580078125
517,11385.925,6130.1445,1224.6826,-9056.493,2081.4614,2108.2039,18704.544921875
518,-3029.1338,-5168.8696,5782.3105,-12.684801,-1855.6876,-4221.3477,12839.9658203125
519,-35079.844,-26478.02,-60301.547,4531.6826,-335.98584,1364.8754,31537.501953125
520,-3937.7417,1706.9359,-419.3363,-2100.729,2151.2878,-625.0635,7257.873046875
521,-5774.937,-775.14966,-7234.122,-2244.441,-2148.1377,347.33682,7983.77490234375
522,-626.15576,6326.0815,9549.795,-3991.1895,5126.2183,4414.949,16316.7529296875
523,-3077.9646,4086.2754,-9763.446,1668.1956,-1172.7031,-234.31854,12512.2919921875
524,-12050.936,-5706.6084,-10605.171,-1248.1638,-183.61353,-2881.7642,7928.2333984375
525,-1104.1392,-7375.4863,-3687.995,3559.8948,1230.4008,-671.283,8585.681640625
526,-5230.0312,3443.913,1546.2539,1610.6268,1097.1371,2199.4421,9395.9755859375
527,631.7673,1874.7339,1045.2687,2116.5857,-791.1104,2974.4836,6562.1650390625
528,-2892.8662,-1911.3644,-3034.2034,-4206.6567,-2136.001,-1459.721,8619.15234375
529,-6372.476,11040.777,3732.8164,1409.8629,-199.92905,246.26459,15350.4833984375
530,-2796.8853,-4397.4663,-2017.1362,5912.2466,-2076.9165,-826.3705,11147.7041015625
531,2364.1667,1985.42,2515.0208,2546.5515,3034.8306,1519.0524,7364.1884765625
532,-2021.6018,-3379.6882,-8090.3867,3706.153,-1652.102,-560.97327,8987.30859375
533,-3022.5166,4018.078,-3365.285,-3099.596,983.632,-2918.1626,10458.1474609375
534,-4579.234,337.64404,-7632.6313,407.8118,-2824.632,-2764.8325,9791.8115234375
535,-1429.8907,1905.74,-3771.5457,4101.974,-3973.0178,3699.7742,12779.6259765625
536,7793.1177,1096.1096,-2559.6143,3552.0203,-750.1082,293.27676,11067.6650390625
537,5150.3584,-4980.9526,20039.875,1560.8058,-2892.2334,-863.1271,22579.41015625
538,1911.5764,4270.141,6520.004,4295.0366,2565.6663,645.44824,9605.775390625
539,-1336.4667,2232.7698,-3503.2944,-5796.7974,39.45479,-2481.9485,12019.2333984375
540,7590.722,-2296.232,2920.0024,-1845.077,-4609.4307,366.25143,12155.0068359375
541,-3473.2568,13380.846,5728.715,325.10526,7960.1045,-3055.951,20786.28125
542,446.27155,-2605.363,-765.3158,-1548.1134,3714.6333,-262.11987,7474.93701171875
543,-2053.3118,2228.3733,-3757.9126,2583.87,-739.633,-1718.9758,7685.83203125
544,-6495.5957,1511.7773,-9287.686,-260.5239,697.851,1739.5247,10247.6123046875
545,-4118.4917,1775.6709,-64.44391,6330.574,2629.2874,2113.9333,13477.95703125
546,-4617.2764,291.0371,-6739.7754,2568.7551,-1016.73785,2372.6787,8876.9375
547,2243.7832,-2114.8848,11493.456,1437.6254,-2838.794,2659.8247,14016.8203125
548,-5653.0435,-1157.3132,-6300.7676,-81.84702,949.2014,916.3047,5365.1669921875
549,-1168.0431,-4412.0063,-2952.6404,-1660.9757,2475.3726,-752.3443,6022.94873046875
550,-1364.7148,-686.25684,-704.74365,-1896.6746,1977.2943,332.8408,4827.1787109375
551,418.70227,3817.9148,1800.0059,1719.0604,-610.0311,1653.4878,5191.462890625
552,-2444.986,-4499.971,3503.1519,1089.9606,-553.0913,-241.84398,7515.57568359375
553,-1855.1521,-4071.54,834.31604,1449.0376,5595.1543,77.12286,10878.453125
554,3369.6328,-1193.8291,16798.1,6049.2964,332.16696,1040.5723,19385.318359375
555,884.9385,-3243.2463,3620.065,3336.7576,3131.7188,2224.9744,10653.18359375
556,-1871.5928,4095.1829,-274.3322,2747.0757,1265.9038,565.0417,7551.67431640625
557,-8497.888,-1636.1995,5770.246,3323.4548,-1896.9772,1298.0684,14203.7138671875
558,4403.387,8305.202,2550.4683,2060.845,2270.794,396.56165,7387.134765625
559,-5086.488,-5509.6406,-3672.2527,277.8072,-2811.5386,171.94173,5178.033203125
560,848.8705,4912.4297,-3768.9883,-2359.6758,1954.8152,1252.9059,9459.361328125
561,-121.381836,-7246.1353,-1254.556,-884.4683,-3512.7305,91.41631,9130.298828125
562,-2125.074,-1476.112,-5019.55,-22.027733,-883.2022,-317.6261,3649.90405273438
563,2684.5974,6657.202,1570.271,-2513.8762,-105.838524,-175.32164,6366.68115234375
564,-2750.4873,-6944.0366,-11725.749,-2471.2615,2700.212,-6584.3955,15190.8076171875
565,24473.8,564.10254,7345.0156,-2812.9338,-760.1209,3424.0537,22719.341796875
566,9375.093,6603.149,-4203.2295,1105.4722,1630.5359,4399.3066,14970.638671875
567,130.98279,5155.4077,-1682.5077,2085.2275,-209.53209,297.52347,7147.5263671875
568,-8881.532,12616.745,-7670.0435,-3218.3357,7717.205,-3561.9255,26180.134765625
569,-24607.582,-17574.879,-21783.76,-5490.9663,29.529041,-2398.6213,12053.5751953125
570,68277.23,89203.61,103680.836,-9419.703,4437.164,-1766.1073,35847.9375
571,-73295.78,-86163.66,-118072.67,-742.4426,-2137.6477,-603.74133,40135.078125
