Element Label,S11,S22,S33,S12,S13,S23,Mises
1,18433.906,18180.875,19337.566,-504.8238,-714.3194,446.97263,2000.98278808594
2,27987.55,28110.342,29768.492,515.81555,-69.26417,272.77225,2000.9873046875
3,40768.285,40543.336,55877.77,4574.073,-1634.2483,2154.5273,17789.060546875
4,-126427.78,-124366.99,-126025.92,291.73846,-204.37802,-119.83981,2000.98095703125
5,27960.578,29109.125,29748.547,-231.19197,446.38315,-511.00958,2000.98522949219
6,53080.137,53797.727,54426.203,-871.3795,38.18628,346.77307,2000.9853515625
7,28629.645,23398.422,35265.25,-1850.262,539.43304,-2114.9736,11431.185546875
8,8856.598,12031.382,11959.994,193.24734,-371.54987,-950.47107,3618.57397460938
9,21388.64,23434.51,22964.342,95.18229,-249.70981,-339.0928,2000.98291015625
10,27883.045,29202.0,29406.666,-556.4947,-411.508,-414.47842,2000.98193359375
11,45031.94,53266.68,52029.547,12780.567,4858.791,5685.9146,26776.763671875
12,-67405.516,-74466.805,-71656.38,668.4919,2410.1365,-4543.082,10890.3984375
13,3402.3706,4040.2158,2174.8616,597.75653,265.6591,88.87149,2000.98547363281
14,26545.555,26546.408,24780.268,339.24692,-424.43405,-12.951166,2000.98657226563
15,-65477.734,-65617.625,-67508.34,-35.81445,173.80994,-129.84914,2000.98486328125
16,28247.533,27162.852,28018.674,-425.09595,894.13104,-166.06856,2000.98425292969
17,22645.482,13102.95,15522.985,2845.9846,1980.5847,4108.507,12670.033203125
18,7047.3555,15290.819,7962.675,2193.4688,2782.9,-8518.197,17793.080078125
19,48413.863,47520.75,47283.676,886.0714,-358.84943,-256.03918,2000.98583984375
20,27583.293,28122.2,28204.184,1096.1877,101.415146,94.66027,2000.98547363281
21,723.0216,1040.4277,1650.9304,-82.32783,991.9095,348.66998,2000.98400878906
22,-161884.23,-162021.72,-162145.12,1121.7947,-195.89478,-125.43657,1997.17163085938
23,-21110940.0,-21111498.0,-21110970.0,845.07556,705.0785,158.23814,2001.12634277344
24,73093.484,72993.81,72323.3,-768.4629,468.76376,-414.46042,1863.46813964844
25,77429.72,77364.33,78931.695,-650.4286,299.03455,188.85881,2000.71606445313
26,-84106.92,-84679.6,-84272.36,-508.16687,-144.66324,-984.18,2000.97546386719
27,2927.5034,-3546.8303,2953.6536,1128.7513,198.50108,-814.06775,6929.326171875
28,-14501.344,-15008.826,-14010.643,-969.0476,142.42363,-355.23553,2000.984375
29,2087.6023,962.61145,3966.1465,-618.9158,601.22205,-426.80133,3112.5439453125
30,6380.0894,8017.6294,8129.946,-736.99255,481.36728,-1226.1764,3116.603515625
31,10653.8545,17725.72,21820.479,2654.3389,-3369.8374,-1814.4435,12681.34375
32,16335.748,16701.844,16526.51,281.36404,53.96645,-1104.102,2000.98413085938
33,61747.69,62354.56,62967.336,349.5406,349.01434,847.8053,2000.98693847656
34,29721.43,28336.424,29051.545,198.81886,729.20746,532.5664,2000.97241210938
35,6735.663,7854.6055,9654.345,-185.31386,903.51904,49.578377,3010.70361328125
36,80418.695,79918.805,80387.87,643.1115,890.0665,-224.37918,2000.97497558594
37,17012.768,12564.72,20263.256,-2304.629,1978.7517,280.14078,8527.888671875
38,6982.0947,-9896.017,11949.519,-3009.8198,-766.23267,582.2185,20575.27734375
39,74462.945,75445.766,74965.04,370.46106,-774.4412,596.76263,2000.98596191406
40,78334.29,76714.67,76769.11,-67.52662,617.89197,319.86462,2000.986328125
41,75232.75,75667.805,76318.695,158.58688,462.02246,892.93585,2000.98754882813
42,-117367.95,-116662.52,-117224.05,1059.8785,10.149646,171.75902,1968.67065429688
43,36865.152,37064.668,38441.984,-56.44568,138.23465,-757.78546,2000.30102539063
44,-191022.11,-190869.22,-190155.05,-320.04538,-984.46216,205.27121,1995.94592285156
45,65431.426,66424.22,66498.25,167.61565,951.9526,191.16339,1994.28503417969
46,-1008398.94,-1006667.8,-1007499.1,286.45618,696.37506,-134.44252,2000.99450683594
47,28228.885,28413.332,26731.654,351.48633,520.23145,-297.98233,2000.20263671875
48,-9777.263,-8258.488,-8590.735,-117.71555,822.3636,-31.720776,1996.46960449219
49,134370.3,133588.61,134464.2,-450.14493,852.3831,-417.57755,2000.9833984375
50,-168009.9,-169339.44,-169710.28,-381.70657,526.8033,327.26926,1997.29992675781
51,7322.2554,9012.735,7995.909,-76.81329,743.4648,227.51434,2000.9853515625
52,-128795.24,-129460.26,-128838.2,769.8356,773.0736,-63.41411,1999.61364746094
53,35453.227,35128.07,35572.47,636.0872,936.52374,6.9858623,2000.978515625
54,-49781.613,-48868.94,-49365.637,-676.8152,-801.23285,159.51369,2000.71215820313
55,51930.754,51811.723,52504.78,632.207,863.7793,-225.54546,2000.50402832031
56,430465.12,428590.72,429163.88,-497.12656,331.41846,-234.81856,2000.97912597656
57,-8260.027,-6070.6597,-19122.18,-1383.369,8676.236,-2879.1404,20074.900390625
58,-1713.357,-10476.215,17456.133,-6983.895,4935.5674,-2284.3074,29108.32421875
59,20970.287,-9631.147,7300.576,-3189.9553,-6288.709,-5427.3574,30700.744140625
60,40816.027,21396.951,7795.714,1832.0479,8846.787,4748.8833,33745.21484375
61,34409.81,5244.119,27087.328,-7706.876,1907.7074,-5115.9604,30956.6796875
62,46760.703,23175.521,42436.54,5709.9004,-2521.8945,574.55347,24307.44921875
63,-22220.045,-21184.129,-45904.953,-5227.6187,12461.557,-2503.9,33959.49609375
64,36390.09,19756.574,25159.047,-298.94174,-377.69656,-6208.0166,18229.451171875
65,4274.5015,-5994.6367,485.98914,-3111.67,19673.988,688.25824,35673.08984375
66,4412.165,15884.05,-22688.236,569.78595,414.00272,4804.053,35322.140625
67,-6534.0225,-15314.188,-12627.575,12711.307,10564.712,-8862.231,33405.2265625
68,52926.125,52923.7,54288.746,5.3541126,439.61984,722.0386,2000.98718261719
69,42989.367,44020.137,44882.816,-654.00824,-47.811024,77.40413,2000.984375
70,-137059.45,-140005.58,-128747.72,-375.2647,1766.7144,3708.4055,12381.240234375
71,-358856.4,-358427.56,-359288.53,805.1068,-577.2418,409.16095,2000.6015625
72,-586710.1,-586468.8,-587298.7,-210.53882,-662.2459,-818.2167,2000.94714355469
73,-250522.38,-249407.72,-248877.36,371.10556,641.4409,283.74557,2000.98474121094
74,60491.89,60536.645,60845.52,896.1935,700.9275,55.759308,2000.98571777344
75,66123.83,66619.99,67073.73,980.74,371.51773,74.528435,1998.36755371094
76,-1503093.2,-1500943.1,-1502071.6,26.444546,-398.04187,136.7704,2000.91528320313
77,53049.895,52446.605,52192.848,-857.0327,381.07373,-510.7149,2000.77392578125
78,77727.67,79509.81,79629.77,219.02937,388.4238,15.385396,2000.36352539063
79,62102.324,61848.56,62783.652,286.05768,-523.2483,-863.2465,2000.98474121094
80,-253885.92,-254591.4,-254208.81,-1035.7871,-54.30083,47.677586,1899.57946777344
81,50046.535,48080.85,48368.023,443.51562,-102.06743,-15.226536,2000.9892578125
82,30438.451,31136.71,30473.992,1016.21936,-168.74686,-344.67172,2000.98498535156
83,8390.62,8393.537,8978.398,398.2315,-1015.60406,173.24878,2000.9853515625
84,-54393.56,-53834.273,-54179.98,550.09625,1924.4993,498.03503,3605.82763671875
85,13951.053,14946.061,13583.431,-325.27322,277.3886,-807.9368,1999.37512207031
86,17507.469,17616.232,17735.63,152.05037,-1111.6968,250.26976,2000.98571777344
87,103110.35,102974.99,103071.06,432.48483,428.42,-979.3837,2000.97119140625
88,2846.9314,3390.1877,3621.7434,-369.31055,906.0184,468.19678,2000.98559570313
89,57933.05,56848.645,57803.453,-3024.8457,7218.1924,1233.8767,13761.3779296875
90,21014.102,-8491.343,3003.197,1488.2188,4095.4456,-6260.421,28949.701171875
91,34565.664,23901.34,26809.176,-3422.8232,399.8045,7589.3584,17308.8125
92,33362.16,32297.83,32320.627,-803.41205,-13.9412365,-565.0018,2000.93273925781
93,-401742.9,-401258.97,-401547.44,203.18753,21.802795,1110.5148,2000.70471191406
94,105793.69,93606.44,110700.57,-7590.489,81.855385,2446.772,20572.669921875
95,54058.246,55784.727,55190.48,-1031.8441,780.4894,1864.8871,4214.60791015625
96,19856.299,18229.7,18908.379,-641.53986,-174.34589,-474.5322,2000.98583984375
97,-38550.863,-36057.562,-17647.31,-75.50416,7056.324,-9027.2295,28016.443359375
98,332402.0,331079.1,330918.0,-796.21704,8.322756,-193.79095,2000.97509765625
99,27499.455,28535.496,28523.508,309.41315,-929.0774,-142.6501,1999.72875976563
100,9778.004,6101.6836,9946.514,3041.6191,-45.8706,876.5335,6650.47412109375
101,394.2643,3528.0886,9450.13,-432.1745,1781.6678,-1418.3514,8920.12109375
102,4724.338,8734.748,16198.913,6713.0854,-715.52844,-3436.6763,16549.810546875
103,-54405.645,-53987.22,-54717.92,149.47571,-853.9396,-669.81744,2000.97375488281
104,50074.676,50619.875,50192.05,-293.78662,984.43243,-443.72012,2000.98522949219
105,148166.11,144943.78,150728.4,-1651.3666,-1044.7998,5673.0117,11541.6796875
106,-137253.67,-124596.02,-129178.65,-5732.1016,1341.5634,1969.6742,15453.81640625
107,3488.5728,2780.6792,3894.2195,-956.41565,-50.429455,-315.8605,2000.98547363281
108,59117.418,70998.17,64771.043,3166.6091,-7759.199,656.94995,17830.84375
109,-229851.5,-230087.47,-229362.88,965.78937,110.702034,-444.93283,1959.24572753906
110,-63983.914,-73139.57,-83383.99,3749.729,5835.5664,-5070.371,22450.78125
111,26052.125,11865.838,-9479.55,2953.32,5417.708,-1184.8624,32834.75
112,46838.438,24301.309,61311.973,3923.0466,-3638.1152,-3777.3406,34238.5859375
113,68044.61,51999.2,64890.15,-6723.9185,-9278.59,-1105.509,24786.439453125
114,-23046.047,-7471.1616,-4470.0977,-16266.244,1863.8262,-5266.378,34434.32421875
115,46959.207,46579.527,48258.043,-715.38293,-194.95181,100.39614,2000.96179199219
116,18973.137,17391.816,18203.236,494.20633,675.3408,-95.049255,2000.98474121094
117,475970.06,477361.4,477049.4,537.1838,-633.9303,329.01138,1998.78198242188
118,1237.082,1789.2404,2917.0667,-547.7387,547.6673,-38.563606,2000.9853515625
119,23737.166,24094.041,23509.807,479.12686,-829.9468,572.1382,1999.33471679688
120,6112.0396,6148.028,7789.34,3.5769308,341.82614,-536.99927,1992.47241210938
121,13397.193,30053.783,45732.246,8564.291,-1224.7372,2473.4812,32051.544921875
122,71252.875,70779.21,71650.875,225.70003,-542.12085,894.08215,2000.98352050781
123,117274.13,115915.55,118047.8,-42.382317,-294.5552,284.52164,2000.98364257813
124,-5515.9375,5187.666,20021.16,9981.853,5188.7754,4606.248,30605.658203125
125,5300.37,4055.3152,4479.8096,-275.79422,-700.4343,-606.1058,2000.98559570313
126,20873.26,20841.533,22281.443,-9.686357,452.3193,-652.9223,1980.31481933594
127,47424.348,48752.58,48362.664,363.37585,845.91425,-42.66751,1986.61352539063
128,6156.7397,6237.4946,6268.937,-158.7457,1131.7756,157.37183,2000.673828125
129,105684.86,105985.375,106828.836,-447.37686,555.68054,688.22504,2000.73767089844
130,225895.55,226277.36,225021.73,-862.9728,-145.22543,-249.29291,1930.50244140625
131,8296.254,8670.688,8616.815,-37.25682,920.3838,667.0695,2000.83984375
132,123912.09,124526.59,125527.48,-478.36282,-625.1947,-223.61348,2000.88134765625
133,16651.576,15822.482,16626.734,-88.37632,923.852,-500.84753,2000.97497558594
134,150272.23,151948.38,151086.44,410.8937,-640.82117,-229.37299,2000.98657226563
135,6447.506,5745.761,6675.731,924.17755,-443.4715,219.42119,2000.35949707031
136,6446.986,6369.604,7612.7817,67.409256,-882.3375,-238.55467,1993.7890625
137,-158415.92,-158295.45,-158165.38,-1034.8613,238.55263,437.1508,2000.98522949219
138,59799.727,59442.69,61230.457,10.350235,-542.8437,-364.95422,1992.28991699219
139,196765.38,196359.2,196080.86,175.74377,427.78442,-999.07416,1997.90148925781
140,59733.855,59831.457,59571.156,-665.12335,-511.60925,-783.032,2000.92321777344
141,-44556.77,-50125.113,-33439.84,2636.2668,2549.6328,-2789.7517,16739.033203125
142,20480.035,974.4212,7506.795,453.9793,12198.971,-14312.5205,36841.96875
143,5764.1562,14951.673,-19674.252,-4470.172,1243.6893,10235.676,36662.4296875
144,-21552.85,2774.9897,3519.5757,-704.08685,-7373.1943,-4029.6616,28702.0234375
145,26527.953,588.8321,26768.824,-4131.538,3431.1807,-7767.3022,30767.91796875
146,28995.154,12140.751,6520.892,-2932.3994,12495.066,-5080.683,31336.72265625
147,107508.16,111756.82,116705.75,6504.556,4582.1787,7665.5386,20730.837890625
148,16092.225,-3327.5566,4311.3257,-8075.7637,11001.809,-923.08344,29128.4140625
149,64588.406,66102.25,65968.195,-160.79474,758.0735,178.51778,2000.98791503906
150,194506.88,192583.9,192530.81,-16.638184,-231.31541,115.32285,2000.99328613281
151,103871.98,104045.07,104111.484,-386.8196,1081.0413,-2.678706,2000.18212890625
152,95424.99,95297.15,95605.87,54.825146,-889.4653,-718.47406,2000.81506347656
153,23708.43,20158.56,20790.666,-1046.1587,852.7653,-2524.0784,5944.33544921875
154,-295411.56,-295197.84,-293645.1,123.710175,-110.63146,614.37213,2000.88732910156
155,77161.49,76697.87,77722.59,373.2753,258.79517,-929.3608,1999.99658203125
156,88490.945,90035.016,91810.82,-531.8559,138.01694,3175.4263,6279.75732421875
157,-39511.965,-41318.457,-32894.36,-9181.375,1094.9261,2162.166,18152.828125
158,50056.113,43085.17,41703.164,-2476.401,-6174.641,2166.443,14387.3056640625
159,56291.27,57591.387,56750.156,-877.81836,359.08887,-15.508551,2000.88134765625
160,50578.28,51371.61,52249.613,-536.46124,-220.0803,-547.168,2000.91528320313
161,85713.44,86437.15,86964.74,-257.34003,-885.66095,-298.78207,2000.90185546875
162,290041.03,290494.25,291403.66,755.8096,109.648346,-518.17896,1999.98193359375
163,132225.42,132910.7,132201.08,878.6289,255.65086,575.1901,1997.86254882813
164,234660.16,235904.69,236094.86,527.52686,-663.9852,90.89801,2000.99194335938
165,68996.086,69573.67,67754.21,600.4328,-4.9108152,-329.87012,2000.3056640625
166,62186.22,62752.6,63607.07,513.0106,-677.53253,317.43896,2000.9638671875
167,159478.31,159807.5,160033.4,877.2795,521.334,-463.11182,2000.35168457031
168,31366.635,31359.75,32164.562,-866.6974,314.07986,-519.9722,2000.69360351563
169,78197.42,77240.4,77458.22,-312.73788,564.9768,816.09937,2000.986328125
170,8687.07,8321.837,7726.8433,481.58084,-726.45917,583.16046,2000.98522949219
171,407974.75,407074.1,407568.3,538.2585,-878.2048,-251.63588,1995.78857421875
172,15351.049,20340.729,29146.74,-9252.364,-10222.458,-4230.9595,27756.076171875
173,46739.473,44936.734,46216.53,506.19022,-349.03827,-310.46927,2000.98693847656
174,-6108.205,-6022.629,138.73677,-558.6109,-564.5431,-11875.955,21529.146484375
175,37617.797,47674.254,19041.236,4688.23,4187.0283,1071.513,27477.478515625
176,53211.027,53012.945,53083.477,429.37717,1062.5903,97.88088,1999.8427734375
177,23026.01,22074.123,21784.11,-332.10062,-820.3163,359.65625,2000.98559570313
178,73587.51,72542.49,73626.49,-358.6224,686.19635,-597.5516,2000.98645019531
179,128983.516,128598.53,128912.01,1040.7585,-65.37741,-453.06076,2000.98645019531
180,77805.984,77868.75,77737.05,122.92183,-1136.4495,-153.88594,2000.98547363281
181,24849.418,-7945.11,-5004.146,-7526.1836,-395.35645,866.4003,34063.67578125
182,35470.54,36270.105,35748.508,524.5045,731.44635,599.79486,2000.98388671875
183,-830.6611,3653.8826,-19590.854,-2376.2246,-15417.478,2847.155,34792.828125
184,1311.8708,-908.75665,666.5578,109.09501,-124.31019,-49.2022,2000.98522949219
185,34437.746,32576.322,34409.977,-373.75244,-14.707181,204.42369,1989.74060058594
186,49718.617,14951.927,33478.105,-3362.119,7612.1807,-1931.9735,33567.73828125
187,34529.91,-3082.5037,3115.2664,-6526.5107,4075.1294,2470.4458,37628.55859375
188,-324803.22,-324789.47,-326147.47,122.249016,-810.7669,-231.9755,2000.99523925781
189,-50672.824,-51846.863,-51587.91,-47.037636,-743.65216,-631.6152,2000.97717285156
190,4536.583,-139.02435,20001.148,1475.3765,-5895.8687,-6817.42,24157.109375
191,4564.8296,-15731.979,-21553.814,8114.588,3775.42,-2074.0098,28587.13671875
192,-38007.785,-53194.07,-22807.514,373.4715,-3276.2014,2669.2842,27322.17578125
193,32264.836,27666.885,41434.277,-16224.772,-3732.7456,4422.9023,32211.74609375
194,-67181.73,-46132.27,-74236.14,-14816.119,314.0931,605.0926,36073.29296875
195,51772.094,50592.258,51000.645,81.40892,887.36523,426.16324,2000.98522949219
196,28240.33,27215.516,27359.078,667.55914,-612.0634,454.4027,2000.98620605469
197,77840.13,92186.016,94768.54,-1865.8694,-9160.59,4440.2017,23892.72265625
198,46725.824,44955.367,45316.152,-579.57074,-89.941925,339.61215,2000.97827148438
199,50319.242,38414.684,46293.22,623.1544,4638.418,1672.5969,13568.412109375
200,68292.805,67991.91,68852.77,-334.70337,496.65314,886.0173,2000.93737792969
201,48829.043,40789.695,51677.22,10108.6045,361.46075,-4872.6284,21767.21875
202,203501.6,191906.2,220192.53,-2854.4495,-444.31198,2278.8267,25439.998046875
203,71254.83,62340.645,81535.91,-15424.853,-5198.9453,1612.777,32855.42578125
204,-4708.526,16624.186,-1153.1096,-12752.339,-6840.148,4437.612,32850.95703125
205,27629.14,-4750.8223,23244.021,-1440.3563,-3446.5176,3099.5725,31565.529296875
206,192597.7,200425.48,193079.33,-6746.2925,10095.538,3247.8752,23058.169921875
207,8350.177,11516.562,2364.8933,5901.809,173.20868,4395.0684,15077.640625
208,77705.41,76612.02,76087.414,794.1593,123.39143,-85.408554,2000.98156738281
209,51198.71,51422.906,51890.977,-82.33959,-823.21564,-724.7869,2000.90783691406
210,148616.97,149754.33,148875.2,-271.46277,-806.32477,505.24066,2000.98107910156
211,83947.055,85768.18,85116.64,-76.62761,-292.81924,625.7375,2000.98779296875
212,204246.14,203298.55,204053.42,452.03864,-756.97797,-553.60284,2000.98645019531
213,55415.375,54438.27,55358.87,644.36383,-163.25012,769.34283,2000.98693847656
214,20037.535,18762.041,19450.42,-432.58685,410.18237,-756.10254,2000.98571777344
215,-312497.5,-311216.66,-312630.62,147.30374,-481.14743,-684.0822,1998.0751953125
216,163958.67,163178.39,163731.95,843.2545,-611.81335,-296.88974,2000.98669433594
217,17450.455,16210.295,16343.605,-84.67581,758.7039,536.4598,2000.55358886719
218,84079.18,83918.72,84385.555,660.20844,-894.813,-203.87027,2000.7900390625
219,-44380.69,-43497.66,-42847.867,-48.84309,-852.93225,-112.74951,2000.88403320313
220,11594.168,12143.206,11993.954,-415.3792,1029.1781,-149.36224,2000.98571777344
221,52414.34,53649.965,53953.555,-582.7222,72.3326,570.2204,2000.97595214844
222,6746.248,5420.04,5852.1255,-463.9109,-796.0432,167.35333,2000.80139160156
223,-256481.89,-256365.11,-256536.94,171.79892,1069.9595,-390.4313,2000.84753417969
224,36381.152,36065.105,36709.72,-81.39838,527.30115,946.4985,1962.97692871094
225,-29997.908,-30417.584,-29334.7,1318.3949,-678.3873,1529.5715,3808.96264648438
226,29067.014,30823.09,30366.18,-142.05766,670.78314,185.60919,2000.98596191406
227,11749.186,12114.326,12488.679,-1084.2734,-98.040565,112.510254,2000.97900390625
228,36627.953,18039.266,28257.812,7668.9,2365.0183,-2399.0317,21690.796875
229,26401.527,26455.266,27532.975,864.31964,407.37662,119.26823,2000.98620605469
230,15878.849,16133.229,9316.083,1670.3739,-354.42453,1662.0033,7863.720703125
231,12550.433,-23.974743,28879.008,2980.9338,2154.6145,-4037.7256,26824.51953125
232,6385.388,-29902.912,-23054.8,4311.0815,8703.536,-912.3625,37426.44921875
233,-16223.547,-34995.285,-38392.656,-11175.317,12717.122,-4247.023,36628.4765625
234,32549.273,14199.899,1782.498,4023.7026,15251.389,148.48558,38277.85546875
235,-4039.1682,-26053.816,-14675.52,-12374.911,13282.745,-4667.029,37652.01171875
236,8264.285,-9605.966,-10085.282,-10031.491,9799.107,-11253.299,36027.921875
237,-5106.521,-119.29795,14990.083,-5730.066,-10027.57,-5787.2314,28795.021484375
238,-10250.57,-28949.652,-7746.572,-11471.331,10855.512,-8222.668,36795.18359375
239,-215.86801,7432.8296,-7283.607,2283.631,-5492.086,-3771.461,17644.267578125
240,-4815.254,11435.979,-18750.656,2441.7576,-649.6599,1894.4467,26733.591796875
241,-5077.0596,25115.396,11622.706,-11966.456,2293.9775,-3546.1128,34195.8984375
242,-4497.6816,11154.549,9881.594,-6860.91,-3746.1443,2321.5742,20643.990234375
243,-47011.28,-45002.414,-45763.445,-5006.1167,-13227.878,-903.3711,24609.91796875
244,-3953.2942,23667.662,11069.058,-13575.695,2084.893,79.400444,33758.171875
245,-25336.803,-16093.684,-25431.469,3246.7717,6634.8706,991.81775,15904.69921875
246,85644.4,104824.5,87584.4,-5728.853,2578.998,6536.7285,24104.5625
247,3689.9153,4194.123,3976.8064,708.0254,487.17184,729.4186,2000.9853515625
248,-75903.74,-77081.29,-76751.195,49.136433,89.40322,-977.38605,2000.9873046875
249,39721.273,38377.164,38951.92,-476.10303,118.19929,-799.494,2000.98645019531
250,52074.43,52346.074,52559.953,1114.992,86.7077,157.19649,2000.98522949219
251,149826.86,150068.11,150915.62,-679.9315,-671.7855,305.00046,2000.20776367188
252,317436.75,317215.94,318480.5,201.0983,-770.12396,-494.8503,2000.96728515625
253,277.08325,405.81464,447.93332,-38.60951,-761.337,-859.22375,1995.4794921875
254,53602.645,54033.3,55452.184,138.29868,-593.69275,162.7059,2000.98889160156
255,2261.8818,1116.7616,1032.0227,-239.53987,332.6777,832.8664,2000.16955566406
256,251614.53,252619.14,251734.14,-197.28812,899.8375,430.00104,2000.99450683594
257,-243349.92,-243059.44,-244738.97,-109.58577,364.3341,619.7696,2000.97900390625
258,191689.0,192393.95,191914.67,129.56439,1019.0616,-349.98334,1980.42517089844
259,644390.6,644728.94,642974.9,-144.29018,663.92365,-65.93359,1998.91320800781
260,627425.2,626137.44,626864.0,667.0349,-423.01993,542.16095,2001.00524902344
261,196340.86,196147.53,194965.1,-426.07614,771.31,-58.898415,2000.97961425781
262,-117367.97,-116369.89,-117156.64,751.5696,-700.5177,36.455128,2000.15747070313
263,118659.1,119016.125,117570.234,59.837406,-485.01138,-727.0109,2000.98291015625
264,44656.664,45521.6,46063.72,-379.38785,-807.05115,-189.06828,2000.98620605469
265,-136403.48,-135070.7,-134809.2,-320.89377,-701.7322,-61.862488,1997.72216796875
266,59154.91,59545.535,59314.86,783.21027,-150.20454,812.4676,2000.98510742188
267,56290.184,55466.43,55387.035,94.91744,410.80713,952.25104,2000.98413085938
268,36314.688,36483.258,36516.6,-321.58545,-1092.1774,163.28668,2000.98522949219
269,-72231.01,-72375.47,-72267.414,23.731323,-1152.3458,-9.465398,2000.64880371094
270,22810.277,23011.936,23023.877,-369.86755,-1085.6703,-65.8423,2000.6669921875
271,4781.901,4594.0054,3348.3418,-577.4201,-611.9342,140.52443,2000.9775390625
272,147910.9,149636.84,147711.8,410.84604,-195.53438,82.96416,2000.97192382813
273,584166.8,585068.1,583787.1,-872.728,108.497025,-188.41068,1930.15979003906
274,277530.72,275617.28,276336.4,-534.66064,76.51509,120.8115,1929.07202148438
275,1915.4972,-1250.4805,3884.8733,-8424.65,1083.3987,1269.5792,15537.6259765625
276,22278.438,42089.484,3566.4512,596.71545,-6738.1733,358.3081,35369.23046875
277,128503.33,129432.07,128717.305,89.27002,-70.37476,1041.7223,2000.98486328125
278,58846.633,59160.0,58888.633,603.4343,480.0422,-843.28937,2000.98303222656
279,37354.57,18482.477,18291.238,971.5476,15303.604,3764.3206,33282.796875
280,4187.6055,-18480.564,17377.348,-5494.6196,10438.858,-1150.7452,37526.75
281,51085.098,49990.0,50267.754,638.6813,579.8959,-516.12195,2000.98559570313
282,-129950.02,-137784.8,-130756.25,-8627.67,1543.8643,1172.0406,17038.154296875
283,-95485.02,-83940.56,-94740.08,-197.11382,1609.3999,-7369.381,17205.810546875
284,372842.8,361622.22,381585.34,7283.6484,-653.58057,-1212.0479,21570.193359375
285,-128730.375,-127577.86,-113722.984,14142.512,3550.0952,-5716.9653,30743.234375
286,17083.373,17961.0,16961.418,835.5866,151.01079,-562.3709,2000.98571777344
287,22111.273,21714.305,21745.02,195.56647,142.16913,1107.8844,2000.98303222656
288,141841.84,141209.78,142509.27,169.73048,145.74727,-928.5963,2000.9580078125
289,-42724.562,-43301.797,-42322.3,-609.0805,-463.43805,-711.68085,2000.98571777344
290,12950.0,12695.098,12532.171,4.5871415,-903.27466,688.3075,2000.53259277344
291,83388.87,98050.664,104034.4,4804.9395,7984.8325,5620.2725,26340.140625
292,-6825.0796,19532.934,8500.963,4590.661,-7925.1343,-14937.827,38035.90625
293,-31943.906,-21447.955,-47243.785,-11409.119,-3283.3184,-6946.587,32748.25
294,9092.913,-8114.5938,5348.0605,6849.7925,-4937.224,-7105.1914,24718.845703125
295,5971.3633,29352.383,18528.314,1765.7692,3788.9226,-990.37494,21589.787109375
296,30768.156,29142.162,30871.031,-358.14975,19.400091,515.20013,2000.98742675781
297,50815.492,51258.812,52003.8,23.65391,12.869815,-986.55023,2000.95690917969
298,42385.848,42408.08,42112.773,1021.63763,510.01715,-61.170727,2000.98547363281
299,61716.26,61672.37,62268.17,-472.80835,253.09203,967.8687,2000.96838378906
300,29452.717,27393.63,28030.668,-2207.3232,2160.4497,1225.5696,6038.16650390625
301,-33466.438,-4736.5293,-12559.858,10125.049,1634.2482,937.86884,31305.7421875
302,15225.809,15816.606,16692.791,634.56445,-488.1694,384.491,2000.20837402344
303,22679.73,23624.604,23265.621,622.9974,805.6501,-262.1403,2000.05163574219
304,33160.684,33649.703,33920.668,-113.44407,1060.2932,221.39348,2000.84692382813
305,114044.64,113062.414,113632.414,-101.43065,-53.475353,1038.3461,2000.93249511719
306,62092.176,62795.977,62656.55,182.3628,-948.02423,513.5737,2000.98461914063
307,172722.89,172543.45,173536.06,788.0594,-363.27432,549.41626,2000.98779296875
308,315749.47,315055.97,314130.62,228.0024,486.6056,621.4944,2001.00109863281
309,-1158498.5,-1157704.8,-1157455.9,351.32343,847.9888,-442.3033,2000.9892578125
310,-555451.7,-555536.4,-555483.06,-1050.4441,-225.77586,417.48212,1997.89782714844
311,34430.094,34336.508,32663.828,-144.26834,316.73715,-475.17715,2000.98522949219
312,129952.52,130189.53,130606.19,-215.11263,756.15515,-779.1641,2000.98681640625
313,343216.6,345225.2,344653.88,435.4156,110.81373,-248.34187,2000.98291015625
314,163532.16,161544.19,163337.58,263.82068,-181.97202,175.78986,2000.97900390625
315,-156000.19,-133650.52,-122284.73,-1846.0776,2482.9531,-776.5981,30219.84765625
316,32262.535,23573.61,9030.282,-11176.033,-4414.6943,3985.8406,29903.380859375
317,42061.523,41209.793,34265.094,-1415.4657,-3861.4456,-451.97293,10306.5537109375
318,13522.136,23034.68,-12189.687,-150.96626,-500.05652,-8905.724,35141.50390625
319,63795.85,63719.477,63339.582,436.83618,-330.14224,987.47437,2000.98571777344
320,85508.42,85607.51,85377.51,77.71196,400.19244,-1074.655,2000.78930664063
321,309295.44,309649.66,309416.5,-446.33292,507.60297,919.3186,2000.82641601563
322,18949.176,20574.887,19843.549,-632.07947,453.6258,257.67578,2000.98486328125
323,32467.934,33960.547,32198.883,-653.5728,74.430786,-36.436195,2000.98645019531
324,160529.17,159219.12,158917.53,693.65094,-269.50873,216.26208,2000.98754882813
325,28752.195,28760.316,28751.838,-905.3968,-502.32776,-512.3945,2000.98547363281
326,-6414.753,-5394.237,25788.943,-3043.595,-8235.218,-4107.9,35876.54296875
327,-16992.484,-12001.005,7746.361,-6136.039,2469.898,-2439.334,25739.990234375
328,-17273.242,-16725.146,12812.152,-5132.155,-11361.69,-1101.9628,36862.796875
329,27231.773,9208.648,9408.555,-4199.182,-595.0588,-4160.27,20667.734375
330,35280.074,5900.344,21799.2,-2532.8499,-832.6501,-9170.544,30372.037109375
331,57337.895,58564.47,57142.375,215.79234,826.4791,104.08795,2000.98388671875
332,23500.79,24521.443,24777.861,15.185414,-738.4476,576.8125,2000.98571777344
333,126929.484,126937.46,128336.67,-513.1631,374.93924,-523.82684,2000.98645019531
334,47801.605,47300.234,48135.125,187.29546,-932.8826,-501.34085,1999.9755859375
335,106506.445,107689.02,107824.01,845.067,254.555,-173.96008,2000.98413085938
336,-165087.7,-165745.97,-166103.9,836.7687,566.4033,-204.90862,1996.49609375
337,167249.48,168336.34,166339.84,380.11978,-278.95242,-336.4855,2000.98596191406
338,9852.817,9738.048,10041.613,-87.71958,863.2378,744.2648,1997.72290039063
339,233981.48,234561.73,234648.52,-333.8618,-367.01593,-978.13165,2000.82312011719
340,26600.64,22614.008,15153.521,-48.902367,-855.8232,2968.7874,11399.1181640625
341,4328.5903,-16319.287,-13516.376,10747.023,2930.876,179.11594,27361.99609375
342,9852.613,8995.01,9464.805,-920.23517,-542.08105,97.630104,2000.98522949219
343,-18557.697,-4254.008,4667.969,-6163.2534,4308.3965,-1530.7063,24258.76171875
344,-97733.16,-98744.58,-99300.46,-119.11045,828.3478,-53.832726,2000.98669433594
345,-41781.836,-50512.293,-42553.375,334.81693,-487.36346,282.0021,8447.94140625
346,-28828.47,-3234.5012,-22317.475,2236.1035,335.84668,-11603.053,30822.61328125
347,20758.238,19480.105,21025.887,-750.4661,89.21985,-284.66998,2000.98449707031
348,199618.92,201410.19,200617.98,-213.7206,241.98865,-651.67816,2000.982421875
349,106066.08,106206.8,105502.24,58.64329,-282.0911,-1049.639,1992.81823730469
350,-9834.402,-8311.287,-21490.451,18575.922,-52.77594,6581.6772,36346.87109375
351,-29708.217,-11929.133,-55484.293,5026.895,2296.0144,3594.5105,39612.65625
352,-4792.0684,-5645.2046,-8731.455,-2064.0537,-119.13533,2769.7517,6980.24951171875
353,-36215.57,-39316.035,-42510.42,951.0385,2092.7205,172.71457,6757.39794921875
354,8852.5205,8261.031,3974.5327,6313.0454,-1711.3019,2485.097,12966.716796875
355,-40741.973,-40289.676,-39877.2,682.39294,465.68317,681.9354,2000.98522949219
356,58381.785,67326.734,76480.445,1949.9082,8653.369,-2309.767,22309.99609375
357,23960.857,35678.37,26889.742,-15116.418,-150.89908,-2875.783,28669.779296875
358,51147.48,49796.848,72504.25,14193.064,642.2028,-3216.2402,33516.86328125
359,136550.56,131955.33,165714.38,4005.1946,-7640.328,9145.802,38468.74609375
360,67288.78,69187.81,29386.156,-1211.0742,780.25696,-3277.189,39378.1640625
361,22308.135,35949.293,57242.203,3383.0254,-4027.673,-1555.4285,31940.38671875
362,-19488.143,12443.779,-16567.244,11887.273,-1001.5804,3534.1924,37407.3828125
363,-20924.96,-30991.133,-12654.509,-20584.428,-1681.0668,681.7825,39166.41796875
364,-4200.8145,-12279.956,-17228.623,9399.254,-723.6885,-1665.9485,20116.61328125
365,-1658.6106,-1140.4231,6304.294,7418.656,-336.27353,-1576.1727,15246.365234375
366,-2530.5544,6376.2134,7572.5415,-530.2288,1776.1002,-229.6397,10093.6796875
367,22009.4,21754.62,23660.088,504.82498,-96.86921,-18.269676,2000.98571777344
368,-45430.902,-47706.31,-41301.832,2257.5425,222.98387,1200.9526,7168.50927734375
369,134545.62,107743.88,129948.164,15111.558,7027.426,-7053.8066,39984.375
370,-1847.5919,-5896.767,-2318.7537,-6721.3447,2712.2307,425.5754,13147.294921875
371,34544.055,32907.445,23492.252,5104.4478,-711.22015,-2553.304,14351.8330078125
372,20524.715,18565.115,9014.18,3426.4739,-9218.323,-8509.227,24922.91796875
373,58896.14,32795.438,56141.69,-17686.914,558.04333,2082.0823,39615.16015625
374,-36983.348,-25218.688,-40223.254,-8676.911,-1840.4435,3467.33,21426.986328125
375,25659.26,-6745.5576,261.92502,13492.627,-4037.5042,-211.37743,38305.25
376,22172.965,-5735.925,-8975.858,1696.9342,4589.5225,-3366.3157,31395.1015625
377,-1214.7722,-5864.224,-4223.518,3148.5723,646.5494,446.90924,6948.0009765625
378,15649.264,26569.307,-4202.163,4397.0654,-3960.0012,-1090.289,28960.63671875
379,50093.258,25972.299,20060.928,12014.298,-3820.5151,-4777.2295,36119.76953125
380,3154.8125,2554.709,7118.9365,-821.32684,136.75525,-832.2725,4755.11962890625
381,-52412.28,-53093.887,-51172.02,527.38605,-232.0168,-230.80896,2000.98132324219
382,-22130.002,-44043.69,-55892.22,-1517.6804,-2042.1569,-1728.8157,30143.490234375
383,-7107.2666,-5925.717,-14428.532,-5120.1934,603.53735,772.4244,12049.0361328125
384,-58059.836,-38228.906,-70620.516,-11131.057,-4651.0205,489.80942,35177.31640625
385,-70085.73,-82352.73,-110176.52,-9896.352,-3533.7214,326.2856,39969.38671875
386,38774.97,55669.023,63768.004,1794.133,-9417.225,15830.722,38927.7734375
387,17774.412,2293.1409,-15718.382,7956.2114,532.755,-795.151,32180.400390625
388,-7839.304,24397.611,20571.965,14959.752,-1283.6814,112.95958,40086.05078125
389,-10266.905,20736.482,28808.977,131.93117,6547.7085,5594.836,38719.84375
390,6735.0957,6951.229,5616.7827,193.95328,17.574371,-885.2723,2000.98559570313
391,-18486.52,-13732.97,2811.6438,-17523.031,-570.71136,2820.9976,36345.38671875
392,-60013.383,-33649.133,-66018.71,8638.001,-6586.959,2484.9937,35524.6171875
393,26599.756,27855.682,26096.846,-569.39154,-377.103,218.18034,2000.98327636719
394,23026.033,17173.803,11042.072,2501.0464,-3758.7285,3877.382,14628.1611328125
395,-44963.18,-45156.01,-46129.324,-617.096,-505.68427,554.42633,2000.98608398438
396,19913.809,12160.339,50419.043,-3121.4482,3874.991,4585.424,36939.98046875
397,-5824.987,-24540.93,-7633.074,-7206.9927,-2506.8938,-1210.6334,22333.568359375
398,-19793.133,8247.429,-25333.305,13886.021,-3397.548,18.857292,39817.23046875
399,-39789.625,-41233.273,-18785.35,5530.566,54.934772,-385.2685,23786.599609375
400,47101.18,66950.57,87918.24,9738.698,2186.9214,-65.149185,39353.8359375
401,9526.825,10426.205,9614.774,-244.25255,-1009.93695,-95.79227,2000.98571777344
402,-31210.316,-49220.53,-70913.14,395.76343,-7972.3325,-107.2762,37105.3125
403,-24165.66,4471.285,-34963.42,-3982.7068,5188.9146,-2247.6401,37274.62109375
404,-113116.25,-112246.66,-113654.04,-185.00476,892.00287,19.938107,2000.98693847656
405,-9441.198,-1735.5403,-44929.887,803.7291,-2439.9521,-239.19658,40152.92578125
406,23516.025,24358.258,24031.45,-163.31746,737.73413,763.81885,2000.98498535156
407,114103.74,115950.234,133448.0,-1561.3837,2675.4294,-1922.3824,19538.806640625
408,-117880.734,-110615.12,-96155.11,-6412.449,-7226.5317,3776.191,26263.044921875
409,46628.57,42829.535,48041.0,-2388.7095,-4148.803,7021.5513,15442.005859375
410,-2779.1074,-8189.546,-22313.977,-3187.3037,2351.9114,-5765.286,21259.78515625
411,6564.541,5009.6763,5583.684,113.02603,354.28964,-760.366,2000.9853515625
412,4153.926,5262.0044,5536.057,158.1061,-3242.2737,2592.257,7306.02587890625
413,-35998.52,-39315.04,-25816.373,3261.5188,757.1734,-1167.1245,13644.181640625
414,10888.85,13072.288,12114.402,-174.27814,-31.103823,324.7859,2000.9853515625
415,5054.39,-1453.1178,17965.578,16900.107,-5041.2983,1985.7128,35184.94140625
416,6580.296,-2019.0763,13622.079,-760.0147,-3756.0146,1493.364,15324.3935546875
417,-90160.1,-90214.69,-90568.66,-300.6845,-878.6763,650.35834,2000.9853515625
418,68992.99,37716.363,30037.521,1179.5676,-4503.1494,-2035.8865,36807.6640625
419,67763.07,65936.81,98975.81,12568.523,5039.6577,1491.8239,39891.6953125
420,-23402.102,-51380.55,-41947.945,-7136.4644,11374.935,756.2416,33919.44140625
421,21260.562,-18344.809,12490.076,6647.2095,1297.2915,4939.562,38845.22265625
422,-33328.223,-39399.094,-73067.96,-4884.461,-4852.9023,-562.77203,38961.8203125
423,-101165.95,-112976.9,-84348.76,-78.80663,-6886.7666,2073.7927,27859.408203125
424,14436.877,12507.252,21133.297,-394.9989,-5417.996,8295.733,18880.591796875
425,-84429.016,-103814.04,-129142.18,1637.4861,-2905.7715,-2399.4797,39483.25390625
426,77289.11,85104.34,119020.93,-484.6969,-89.03224,-1695.6069,38546.5
427,53193.527,43084.23,48390.25,528.206,6086.0444,7740.6143,19194.263671875
428,-7480.8125,-9569.528,-12028.083,5883.6763,1839.5608,-5087.4805,14394.259765625
429,71397.71,69023.25,44860.375,6041.849,1292.0883,1003.3535,27647.7265625
430,36254.105,25715.893,13979.005,9813.187,1202.0342,-5080.767,27261.095703125
431,86089.9,58335.5,78246.27,-16059.656,6130.6597,-3204.8145,39133.60546875
432,8768.824,4579.003,-12205.432,14628.637,-1845.1962,-4389.4004,32857.2890625
433,4613.004,-2401.5073,3570.4644,-3118.944,-182.60481,-1756.8925,9028.888671875
434,20728.018,11832.058,11966.621,2377.1052,-157.21312,2395.4075,10592.408203125
435,-22168.158,-34812.9,-7179.907,-426.5841,-1405.0875,-6433.9453,26546.474609375
436,-17636.77,235.0039,-23916.2,-10221.096,5041.7134,4108.4043,30188.7734375
437,84654.51,93261.83,103374.32,10646.241,10587.3545,-368.5688,30661.06640625
438,12406.201,5769.2554,1363.5527,-4085.7239,-1571.5414,681.9052,12311.9169921875
439,7719.005,8065.5073,7506.0664,-256.88562,-156.6582,-1079.067,2000.98559570313
440,-531.3567,492.2024,-8243.822,-287.8638,4951.179,-4246.8145,14011.4736328125
441,-12240.411,6540.363,-4702.351,-291.21252,2520.1384,-2833.766,17645.611328125
442,55806.688,75392.234,63412.36,14855.41,1390.7097,-514.6408,31002.017578125
443,-15352.416,-35232.707,-54687.22,-11056.559,2588.266,4371.955,40058.046875
444,4812.899,-3911.8757,-14907.709,4414.907,3643.7075,-1552.7567,19962.55078125
445,-6753.8022,2541.64,23754.855,-3831.7402,-7582.2993,-7831.688,33676.67578125
446,37703.42,74854.82,44307.668,3639.6965,4078.562,-5688.702,36948.82421875
447,9791.289,-329.19824,32413.758,14253.842,587.9709,-2724.8398,38418.4609375
448,32592.066,34175.07,50428.637,-11103.298,-2890.699,22.164677,26217.04296875
449,77034.76,60181.027,81941.91,-391.50928,-79.223595,-682.66394,19816.8828125
450,9298.871,12137.445,3225.4517,1025.7922,4398.3115,-6216.5864,15469.771484375
451,-73136.94,-96306.06,-115514.41,5651.3057,-4478.4927,-1766.3629,38937.79296875
452,5985.593,-27585.752,-7932.999,-1948.8109,732.04663,-414.21548,29445.076171875
453,3446.5693,7103.6436,-3327.3364,3632.3062,-3956.3123,-6594.042,17349.783203125
454,44307.652,29159.21,65671.266,6185.4136,3957.216,-3659.3335,34805.65625
455,-108355.12,-123367.26,-149346.62,4706.202,7448.3057,-2434.766,39255.046875
456,27890.041,21391.37,45589.992,782.76166,6940.1465,3655.869,25631.58984375
457,-5969.184,31948.963,-7559.52,-1101.1345,-4854.717,1455.3834,39765.7421875
458,-29947.48,-62900.836,-65373.68,8248.835,-3810.4973,-7597.4766,39929.70703125
459,-52864.543,-46667.99,-75814.17,338.91965,9.285339,4621.3936,27779.6328125
460,-15578.901,15356.892,9774.083,-10062.086,1003.02563,198.68549,33501.578125
461,21161.168,37277.062,37891.87,4860.377,-80.0501,792.91254,18514.41015625
462,23392.375,25490.406,30898.395,-2786.5332,-12889.805,4928.402,25290.2578125
463,15021.74,15759.303,32170.71,11982.794,837.1176,-490.5756,26750.123046875
464,15249.956,34257.42,38090.54,19310.168,1345.2255,-910.36035,39691.27734375
465,-2175.9238,22195.48,28122.898,926.9468,-55.89717,921.0717,27905.041015625
466,28246.18,4766.71,24542.102,1184.5475,-4107.608,-95.8374,23084.416015625
467,2886.4214,1499.6926,1979.3395,-179.08229,-409.1588,-799.49176,2000.98559570313
468,-13111.683,749.2685,24258.615,-5040.201,2644.8997,781.0784,34200.94921875
469,634.25073,-540.5778,41.080235,130.16072,900.76807,401.56705,2000.98547363281
470,46086.258,14366.875,36691.445,3020.5935,6919.9385,-10119.403,35701.81640625
471,-3755.041,-13924.242,-10210.926,-8364.385,-176.10982,-475.2372,17032.302734375
472,-21876.902,-27478.172,-26114.83,-1148.9386,3483.0837,-5922.6855,13083.8408203125
473,18278.412,15038.797,24846.572,1195.0359,2276.493,-4455.8477,12422.1357421875
474,4625.422,-3656.4082,-12926.202,-4559.91,-1312.5295,3525.2966,18333.53125
475,-33602.754,-26632.611,-39841.61,-1769.7303,1209.4133,2439.656,12752.7080078125
476,14372.418,13540.51,19060.205,2686.198,3254.5425,1086.6348,9139.62109375
477,-15486.137,-29362.852,12387.637,-2732.874,1412.1486,-2761.674,37517.671875
478,-10323.169,-21092.494,-28388.527,8692.155,407.0573,-2787.109,22321.4140625
479,-35867.79,-45656.88,-21183.838,16502.725,-4687.581,-3350.5225,37037.890625
480,-31824.79,-31472.32,-42659.3,-2405.9158,1410.9854,1116.59,12182.2802734375
481,-17205.871,-5423.841,-37715.766,-1913.4492,-13115.694,6391.9053,38088.55078125
482,-25034.088,-16721.855,-28512.725,5368.814,-455.50055,2269.6882,14582.8232421875
483,17581.83,3738.9512,8932.471,-10420.477,-3479.3127,176.9456,22558.24609375
484,-6533.383,21288.69,-15813.765,-836.0775,-261.3672,-4539.304,34387.6484375
485,9606.98,7521.5815,20068.617,-3468.001,-400.30826,1719.1649,13455.1044921875
486,-5581.3037,-10537.546,-8457.911,-1736.094,-2072.371,908.21484,6556.1298828125
487,-28633.225,-32654.95,-23034.84,615.32,204.03653,2808.4692,9744.4638671875
488,-3734.1875,-26389.158,-1364.9697,-15886.439,-3928.2104,343.3095,37098.765625
489,-14643.585,1492.1481,14258.851,3199.1511,-6555.864,-2092.4724,28321.859375
490,3972.3486,-6290.0337,15424.291,-1349.3574,572.81165,943.4543,19055.3046875
491,46499.945,64033.06,25018.365,-5668.442,5792.3394,922.6358,36675.71875
492,-5360.8975,1739.4583,-1188.0593,-174.944,-1460.2377,1520.0068,7184.6337890625
493,9836.393,-18966.299,-31335.775,2799.498,-4631.0566,981.18304,37810.22265625
494,46638.58,46019.21,68843.88,5611.5747,2040.5057,198.45522,24784.892578125
495,-36702.348,-26431.09,-6557.845,-6137.6895,-1815.634,-1294.395,28853.03125
496,-6293.3105,23142.547,21577.291,-5530.846,4596.1274,-3503.0862,31855.986328125
497,13571.323,-2473.0356,8186.619,838.1409,-8157.259,1628.4219,20241.23828125
498,7742.2705,18491.658,5027.333,1607.2467,3286.787,645.75366,13910.921875
499,-15330.142,-25760.506,-33293.5,-15841.937,1607.9161,4110.359,32487.73046875
500,-10525.262,-7151.747,-19325.297,-4336.772,741.8488,-864.2882,13372.4736328125
501,7494.344,4064.3499,6918.046,-429.55664,1255.356,1859.173,5076.53076171875
502,-22376.648,-25503.594,-42396.117,415.98462,-275.88516,3686.8442,19735.326171875
503,-5935.8315,-19757.717,-16397.959,-834.61273,-1169.4652,5036.3066,15433.0859375
504,-602.0802,-2414.2402,3821.5945,-1019.9044,923.79987,-243.36227,6060.34130859375
505,-4538.1777,7282.539,25247.957,-3908.2065,-442.61545,-521.39905,26871.45703125
506,11730.887,5996.659,-2615.6777,653.93976,-2726.4878,-2500.3494,14098.87109375
507,-5890.398,-3467.8467,24105.945,-10113.115,-3115.9946,1924.9985,34351.88671875
508,2368.8452,9621.162,844.04297,-6753.8203,-3125.963,1165.4918,15369.18359375
509,-30732.436,-40944.89,-16944.463,-2231.274,-8060.3755,1824.033,25593.69921875
510,2572.8184,169.01764,-5127.718,18187.457,1738.2018,-2071.8186,32570.81640625
511,22311.418,-12803.797,-5522.033,8849.249,3090.1885,-147.76317,35972.8046875
512,-4880.2363,-29891.553,2409.3774,2929.7,499.09326,-152.91434,29792.517578125
513,16879.42,6399.0703,36449.867,2467.7395,-2980.377,1286.4761,27346.435546875
514,13547.581,19031.365,37037.28,-4052.5403,-1675.4078,-2862.23,23136.39453125
515,-24548.654,-7552.4824,-8482.1,6352.2407,-1281.8798,-293.28064,20004.3671875
516,1812.0096,13265.416,6754.751,10396.837,-2131.6646,9213.784,26298.21484375
517,13611.131,24661.854,34622.25,-574.9311,1928.6268,-1833.3556,18805.095703125
518,4848.958,19789.97,-5930.4785,-10042.969,-2544.029,-4154.485,29567.97265625
519,-1724.4004,-9755.775,-8278.458,-10584.492,1105.1396,-597.1625,19890.921875
520,17098.209,8937.627,11797.184,4040.121,2621.6895,162.4753,11004.6904296875
521,-23266.756,2857.3635,-180.41408,7727.9116,738.3646,2931.514,28616.728515625
522,-45672.47,-18845.68,-48197.504,7409.0195,2343.4666,6904.8906,33436.203125
523,-573.2578,-6115.6016,-38245.65,-5691.997,291.90536,-489.5261,36596.5078125
524,19533.705,10042.846,26535.514,-3194.5693,-7754.4634,-2283.1714,20789.52734375
525,-14697.085,-28784.049,-4209.201,-4065.1628,-761.0258,-1991.2146,22790.12109375
526,3932.9001,-4173.993,14077.213,-188.12024,1559.5957,-436.46497,16088.578125
527,-12839.919,-11917.005,-19330.826,-2576.7732,951.42664,-3079.7517,10003.185546875
528,-17354.36,-4794.6143,-14957.695,2082.0405,-8.466172,623.61914,12147.4814453125
529,-5878.248,6450.0938,3478.978,4142.251,2286.258,-1732.7819,14154.5
530,-16575.062,-22849.98,-22061.465,1292.5137,645.7005,-3103.6646,8379.095703125
531,13464.112,5316.9336,24594.928,-26.345572,2155.6084,-1413.0101,17346.126953125
532,204.40186,-1080.7583,-3876.3328,2807.272,2581.7727,-89.876625,7531.45703125
533,-1897.9985,-9204.731,11356.629,4677.1963,-3016.13,550.52246,20487.810546875
534,38916.91,4550.871,385.86523,-2206.8723,475.49683,-775.76764,36859.2109375
535,13229.265,-2820.6187,7722.274,4446.5684,-78.08111,-1430.75,16279.265625
536,4733.9834,-6016.1396,-28145.094,2337.5566,2319.3635,3388.3057,30168.15234375
537,-22927.639,-13979.361,-17436.16,-6538.7646,-269.41357,1301.6874,13951.9169921875
538,10462.547,7627.9404,19075.459,441.3453,1365.5271,295.96844,10633.560546875
539,7608.0483,-9524.455,10852.872,-1450.7823,829.6308,-1222.502,19300.419921875
540,35396.977,-3234.68,17648.307,-2702.964,1411.6266,-2290.1724,34137.8125
541,-1472.9644,-13545.729,-7307.6875,3597.7292,-552.42096,1856.4675,12626.966796875
542,4443.595,-5731.178,367.06522,-211.77927,-2438.1025,-82.05333,9831.283203125
543,-18209.01,-42238.85,-11850.166,1126.956,-737.551,1594.6066,27995.3671875
544,4076.9062,10627.281,29485.674,2092.9607,2198.0928,867.7175,23494.0625
545,13.847168,-14460.473,-6823.6694,2817.643,7615.865,1560.483,19037.2265625
546,-1714.9324,73.26514,13272.622,3635.1765,1272.4186,-2686.6167,16345.583984375
547,-13473.27,-8136.126,-19206.479,-5356.971,2577.693,515.0925,14098.7451171875
548,-6118.6855,-15706.754,-41178.89,5353.051,472.79355,105.96472,32736.205078125
549,9545.445,8239.02,14492.724,3970.5432,363.6161,229.5161,8971.9501953125
550,30893.824,26421.648,51547.258,4099.791,-2647.8464,-678.115,24733.947265625
551,-2035.2688,407.25488,-2459.5645,-61.853565,-425.52444,-1024.2522,3299.13159179688
552,-13348.119,-19118.168,-1916.0068,637.98175,2071.1365,1591.3802,15863.09765625
553,-15946.205,4924.8184,-22331.055,-5041.3984,1028.4619,4382.565,27325.17578125
554,-15737.844,-10653.016,-23775.762,3194.9219,696.20447,114.40103,12784.794921875
555,14558.551,10633.036,12160.209,6182.3906,-1388.9822,2364.4268,12205.416015625
556,34974.723,16849.973,44647.113,-6068.3247,-1323.7115,647.3664,26727.494140625
557,4104.364,-7384.453,2750.4688,3088.225,264.93262,401.14307,12148.0869140625
558,1433.6018,-7942.2705,3483.9673,2833.6538,497.07687,-616.7264,11717.765625
559,4100.4746,-6940.878,-10713.061,-4014.3381,-2545.5564,-1961.37,16034.837890625
560,32514.445,8256.055,13758.924,3902.9714,-258.55252,-3932.325,24032.26953125
561,-9798.09,-11043.803,-31031.703,-8227.994,-682.93555,110.22361,25109.80859375
562,10946.143,-2607.4595,4733.7344,4600.8433,-2339.034,2567.3735,15420.2587890625
563,20921.93,8625.863,2775.4258,-18568.45,712.54645,1052.2521,36007.84765625
564,-88633.664,-58238.125,-100228.125,-4707.072,-3159.5054,-1097.7454,38868.65625
565,-34014.61,-32644.875,-70093.625,7272.657,2460.4504,4754.757,39970.609375
566,69895.76,67294.44,76923.28,3709.5698,1710.217,2701.4995,12098.98046875
567,-19139.498,-46754.17,-63309.625,2057.162,-2955.7297,-2133.9119,39324.19140625
568,8858.986,-141.86815,14160.756,5758.064,7064.2534,-6920.675,23445.869140625
569,-64094.97,-61843.867,-46356.12,13635.501,6563.226,-4176.555,31923.99609375
570,76567.78,62602.465,106224.125,-187.73738,-3680.395,802.58185,39132.63671875
