Element Label,S11,S22,S33,S12,S13,S23,Mises
1,963.26685,7112.6665,153.78549,-1013.63074,-83.62766,-207.99069,6832.37158203125
2,680.5061,5983.3643,-18.19516,-331.76144,-67.88915,388.35483,5754.13623046875
3,3031.572,6154.883,-1188.8596,-93.65771,28.51745,-280.96283,6404.2490234375
4,2075.6226,5405.2188,-1150.06,260.78806,208.36467,329.29904,5735.072265625
5,3296.7026,9558.29,-356.42416,856.9018,-51.27547,-387.3274,8836.740234375
6,-283.1655,3844.9531,-185.67903,-1870.5269,387.39383,-70.99354,5254.55859375
7,2229.6543,4196.385,629.54346,-619.35754,96.64639,62.365788,3281.138671875
8,1142.4768,3599.3738,104.20385,132.14896,-85.57219,202.88525,3140.56176757813
9,6935.729,6122.8125,1832.1866,1594.4141,182.6703,-8.291681,5503.181640625
10,845.5473,2555.997,-239.63828,2578.1577,-143.77968,56.263596,5096.236328125
11,-829.19965,712.6468,-1034.0609,-741.14307,-1287.6487,281.44897,3097.541015625
12,2712.0588,2387.762,259.59225,-629.84064,698.754,-62.86476,2826.86376953125
13,4142.8906,1684.6367,-1170.7776,-108.75178,-311.76376,122.146736,4646.2421875
14,5219.8413,1235.9004,-642.67645,833.4321,16.836512,-96.10755,5384.919921875
15,3130.6382,917.7084,-488.49802,824.6086,374.35553,554.4127,3656.33642578125
16,-7714.529,8813.31,-10150.63,2445.9036,-2071.2283,-2005.5529,19032.90625
17,806.63666,-6385.983,5450.2954,3314.505,3683.6084,-7354.1733,18509.828125
18,4456.3574,-5309.653,-1748.5353,128.58017,197.99487,-466.88632,8608.12109375
19,-1092.9349,-13986.846,-2576.5247,10417.424,566.64954,1088.7598,21895.486328125
20,347.63098,6595.9995,-11351.418,-3171.1816,590.50665,-2436.6614,17263.75
21,6966.766,8872.219,5921.792,-1902.3057,-98.03606,410.47382,4254.9345703125
22,11947.754,13559.0,13839.975,2266.536,498.2061,917.6098,4670.1162109375
23,-6566.721,-5025.8877,7576.302,1986.0564,-310.8721,-1148.6263,14024.5654296875
24,-6217.882,-725.7621,-6976.7476,4145.5503,-172.31705,786.3739,9402.5546875
25,8714.188,-1701.8534,6226.3228,5564.382,-573.6205,-1657.6808,13816.20703125
26,5409.5557,13167.66,5177.068,-808.27374,2704.8994,953.8228,9417.25
27,4184.172,1868.306,-2074.6091,-3015.802,-500.06552,279.4829,7636.150390625
28,3789.0283,2034.2358,4418.401,-645.4877,-124.30387,-722.41595,2727.9658203125
29,3962.902,7277.26,-1310.6224,1661.1559,47.217472,89.11441,8036.3056640625
30,-487.12247,11563.898,2955.756,767.85095,317.27295,305.02188,10860.0283203125
31,-913.77655,-3851.4058,-10682.993,-4635.254,966.63525,2951.2078,12990.6767578125
32,-3190.5261,1971.3278,2058.4492,-121.27645,-1270.2582,52.47835,5656.419921875
33,7.232478,1340.7883,-767.364,-2009.9017,1550.665,177.41599,4778.9716796875
34,11542.1455,1101.5438,3881.6914,1193.8604,-2243.0889,88.84579,10349.0537109375
35,-464.4085,5611.468,584.28046,-479.04388,685.6467,38.181374,5809.2578125
36,3403.68,1647.5132,-9427.061,243.29623,-2998.2292,110.41149,13128.6474609375
37,-5202.935,9622.731,1457.4268,485.31815,-2269.4233,1240.0267,13645.033203125
38,-7657.7827,-8206.256,409.38016,-305.70734,2829.576,1173.5385,9911.408203125
39,4453.102,6182.1074,4041.0173,-612.50714,-796.6566,1088.0577,3233.08813476563
40,-3140.8657,-3524.8704,7557.72,-3649.6084,442.35446,1728.4508,12970.1220703125
41,-596.1046,4020.8625,-8440.142,-4549.5483,159.78943,-521.9451,13492.5908203125
42,1855.1903,5281.095,4354.4814,-938.28546,-769.7511,136.2775,3727.64672851563
43,4890.83,-10919.076,1012.0656,14464.021,-4808.519,-10595.667,35177.67578125
44,20570.26,-5750.666,22292.316,-952.26,9603.149,-10661.211,36897.81640625
45,-9615.642,10472.844,16168.056,-2116.2146,3746.4485,14873.944,35631.95703125
46,5647.709,1405.813,8207.076,-3921.8015,-350.04227,2619.4321,10123.935546875
47,-4168.3823,-5115.0605,2596.0178,6495.634,65.33947,-1917.4442,13808.669921875
48,-1909.3176,16002.912,-10057.646,-5828.9683,-94.56907,5376.579,26867.791015625
49,1583.7919,8617.662,9466.234,150.11429,296.71127,-326.50983,7537.61865234375
50,7350.7007,15204.598,12407.635,5238.8164,70.4601,-1300.1218,11617.2744140625
51,3254.9485,8905.675,1559.1733,-616.6868,238.95302,35.971085,6760.533203125
52,2095.485,7995.054,-12339.765,1571.6816,-2529.4875,-1066.9427,18930.49609375
53,1443.8457,11334.369,-888.87024,1422.6772,-281.7847,758.37256,11591.8681640625
54,-434.7135,5141.941,-1488.8466,2680.5928,-441.01483,676.27203,7848.6337890625
55,-129.57011,11022.371,8720.467,1844.5396,1718.888,-47.77416,11093.755859375
56,-7210.7935,4533.7026,-4145.4565,4875.7773,-2511.4924,2072.301,14644.2587890625
57,2866.9785,1849.0594,8980.588,6139.6655,-7314.2075,1653.79,18067.095703125
58,-2796.824,-17413.176,-13199.106,-13275.329,9161.785,-199.08101,30829.185546875
59,7171.445,14455.753,-11181.261,-5685.372,-1847.007,-8718.904,29305.841796875
60,-5106.683,-7123.687,-16161.0205,10390.84,13983.507,-2726.4495,32199.296875
61,-17212.078,6943.3516,6444.3643,8488.13,-517.0066,-1432.4076,28191.892578125
62,-8444.248,3562.8948,-5169.2896,1086.184,-986.4838,-769.72205,11127.0029296875
63,-1898.4354,-1457.6582,17949.254,684.2945,2566.4944,860.4319,20217.890625
64,2608.4065,2489.9885,-6021.571,-2069.1821,-459.43597,-133.77982,9327.3828125
65,-792.43207,2035.3864,-861.4538,2324.3098,-1481.6964,-315.30777,5593.5927734375
66,4995.0283,5192.0854,16649.207,-1022.9587,2261.4495,988.0006,12448.791015625
67,-4181.293,-8029.1167,-14003.035,-6751.761,-4818.03,-1834.8103,17028.76171875
68,5051.733,3519.736,-5198.111,-7354.019,5627.5767,-4310.647,20117.212890625
69,10374.709,3450.6099,8369.663,-3325.4941,-2867.5933,974.0074,9938.42578125
70,6376.417,-272.87918,5716.662,75.28097,249.06876,765.5265,6497.900390625
71,6416.686,-9262.111,23890.914,-141.5741,-1349.846,-328.14914,28827.03125
72,4526.054,-7262.284,-12638.458,677.0442,239.0134,776.2247,15316.6064453125
73,4121.501,185.33827,-1440.7227,-211.95392,417.23666,566.25055,5114.3759765625
74,5949.9985,-8086.6055,-2830.4949,387.23712,842.0868,511.93668,12419.2763671875
75,6339.2295,3164.6626,8528.97,381.34763,-675.7015,-718.7942,5017.998046875
76,4676.1484,1572.3285,1567.3497,215.53401,-607.89874,-1405.9725,4102.1259765625
77,-1983.5306,-5976.5435,-4465.737,-957.4843,-186.57097,1710.0736,4880.7607421875
78,10556.397,-5207.7456,-16368.6045,-3516.1277,827.2348,1257.4526,24349.544921875
79,4237.7124,8766.166,13798.859,-582.07837,454.27975,2421.4697,9372.9033203125
80,2646.539,4843.2275,1890.3624,-2123.5886,657.3437,-244.54619,4697.11865234375
81,-6195.0645,-4048.404,-23594.756,314.13797,736.77374,-5161.4688,20653.21875
82,8428.728,11327.406,15473.593,198.32346,5246.9585,4915.8374,13885.8828125
83,-27673.469,-13552.511,-55227.375,187.81612,-4376.9097,-3195.796,37893.5859375
84,23043.27,-2077.3674,33916.582,-4197.3813,3807.6519,4470.71,34332.640625
85,640.2967,912.8362,-241.24316,4334.0903,-1324.8615,2888.2983,9366.81640625
86,-5024.9336,4382.299,-14993.118,3633.3994,-87.7316,3367.6743,18849.013671875
87,822.2632,18411.248,1339.9362,10319.172,-1492.2517,-6988.282,27806.109375
88,-11167.689,-13303.5,581.0591,-12644.412,-9340.417,-6890.1953,32426.623046875
89,31863.918,10048.381,21546.975,-6950.424,5447.4146,10239.262,30095.89453125
90,-15865.315,-14986.054,12125.794,2704.5261,-1611.7002,-7203.231,30741.8203125
91,-5516.408,-3814.2192,6937.546,-6556.937,-8299.484,5675.447,23854.896484375
92,1900.9435,-408.43024,1688.4486,1008.6803,682.0768,449.44678,3153.03540039063
93,6370.4067,11215.842,35776.484,949.22565,-4593.392,-6087.5815,30379.05859375
94,5781.142,261.5908,6534.1694,579.4729,161.0679,1321.7653,6443.2333984375
95,-2844.2937,13385.269,28923.75,-2666.941,-7560.487,6020.7847,32536.072265625
96,-7342.9634,-616.96356,-19520.646,590.9587,4258.7036,-4240.3823,19617.390625
97,-13833.3125,-7179.189,7094.778,-1335.2085,6653.8286,561.29816,21957.1875
98,9991.257,-2358.361,-5129.859,193.52238,-821.3863,319.024,14030.7841796875
99,4822.069,-1729.4795,-3224.09,1648.0221,1507.2565,-1322.1006,8669.25
100,5125.343,5673.0845,9149.151,-6043.5225,3368.6758,-1206.2603,12738.4716796875
101,7215.568,-341.00647,4351.075,-446.56573,-3687.9917,-187.27771,9228.689453125
102,1213.8883,6926.9575,-249.096,-986.6657,277.11884,228.86885,6815.10546875
103,-4241.2754,-3520.118,10360.644,-1042.4149,-1671.2566,-2123.202,15111.8798828125
104,6502.93,-5703.0117,-3361.8225,-885.99854,-613.795,-2360.4941,12086.8017578125
105,2903.2747,12132.007,3017.1567,1612.2999,-89.155464,519.01636,9631.302734375
106,4342.842,-2449.5547,130.16202,-777.11694,2710.3047,-4849.873,11387.796875
107,-2183.2317,11163.327,17350.695,5083.2524,1538.4277,2491.404,20055.775390625
108,5747.0703,4988.9927,8369.796,-3297.6853,273.12225,-334.56137,6528.810546875
109,13859.227,-7527.1836,-8061.8022,5149.823,76.58652,4390.9907,24627.625
110,4856.9624,4489.2144,-2874.096,1657.6606,148.43361,-667.3029,8167.4296875
111,-200.98904,2306.5886,5605.5317,2985.7495,1026.4303,-368.75742,7466.99755859375
112,24413.6,15390.157,31376.357,10492.031,-8949.297,-10066.435,32668.7578125
113,518.91486,-1759.0327,12008.296,5082.655,2215.881,3938.4668,17381.951171875
114,-5049.807,-1060.8413,-6255.5127,1468.9178,-20.794285,548.3972,5436.15380859375
115,1288.7997,71.04445,-3319.5764,-1882.6353,-374.74426,-878.29175,5520.5634765625
116,8375.87,-6606.744,-10403.078,4044.051,-3051.392,-4853.2573,21057.736328125
117,2993.7776,-1708.193,-3983.856,1049.6008,-336.65378,-762.74927,6586.1689453125
118,11125.094,1557.2206,7857.9146,2787.9763,-1695.0626,-1666.6586,10546.5673828125
119,-3683.4932,-5465.9136,1004.2837,3186.0356,-470.22778,-13.85387,8038.9208984375
120,5121.0596,-2399.222,2669.979,1375.7148,-798.4163,596.66394,7265.5224609375
121,-12198.2,10136.224,-27693.16,-7027.429,-5378.382,3210.9746,36754.015625
122,2256.0425,968.1539,-2764.7002,-2521.3398,3745.078,-1633.842,9463.4541015625
123,-2903.406,-3032.17,-23045.22,-4048.8965,3059.0107,-1987.2833,22185.962890625
124,1358.5026,-219.58557,6109.039,-692.8488,4728.383,-239.303,10061.7822265625
125,6348.0654,875.6427,7290.0747,-1320.6476,1002.4902,1051.582,6895.986328125
126,7560.675,4827.8823,5572.161,-171.19177,-441.32956,459.53067,2700.7197265625
127,20832.525,14660.92,41327.484,2808.1404,10918.257,3903.616,31805.904296875
128,-14816.909,-7266.6655,4381.527,915.4237,8909.952,4674.992,24225.515625
129,4382.1455,7095.1064,470.28467,1401.5225,813.7661,1270.43,6782.10546875
130,3901.5315,7125.015,-2919.513,1223.0356,-2038.4333,1469.9941,10116.3603515625
131,-5726.1177,2003.7612,7426.559,759.5903,2325.4106,-1396.7327,12445.1376953125
132,-4921.4683,6477.1064,-24342.47,2996.4595,4306.033,-1480.3348,28593.896484375
133,-824.305,10541.2,4780.023,1917.112,-1154.6957,168.74202,10582.935546875
134,1568.4373,13009.711,21313.525,5316.5566,11983.438,-3613.238,29148.490234375
135,9581.422,13155.603,36021.652,10686.224,6704.6865,-335.0224,33092.89453125
136,-9590.1045,-1379.9172,-21198.742,7762.712,-4201.0503,10618.062,29486.130859375
137,4620.275,3377.8206,3138.1409,6135.811,-1867.0576,-6396.424,15749.4091796875
138,-4241.048,3091.2292,-12272.695,1583.3239,-32.76946,-518.52924,13619.4892578125
139,-11636.716,-20418.906,-1753.1228,12788.587,-105.256584,6415.376,29593.2421875
140,-13797.822,1068.398,-32484.918,-1646.7676,3877.588,-10806.597,35378.08203125
141,6635.887,-3172.8977,9181.846,523.8669,402.9517,1882.319,11815.529296875
142,-3997.256,-10359.137,-28068.47,1960.3097,-1290.3484,-1964.9302,22245.5625
143,9300.779,-11152.125,-3960.6682,231.73259,1066.9021,-1205.3309,18190.2890625
144,2572.741,2004.6279,-65.93027,-1415.3677,-154.03012,478.15875,3543.04321289063
145,1301.3396,2367.5515,26510.658,-4328.0034,-1917.7571,1184.2144,26099.873046875
146,966.9512,4784.108,-5652.0415,-3584.083,-1589.6681,746.31995,11464.578125
147,9799.514,5661.085,18530.9,4629.5,-218.54594,-1235.415,14089.59765625
148,-695.63477,13538.205,-18756.293,-4657.461,-6215.692,5691.623,32619.4140625
149,-19014.182,-15272.372,-28590.31,-9209.208,2797.9277,-753.11035,20521.95703125
150,13378.245,1147.3939,30937.18,5590.2676,-1288.4512,-7338.4146,30544.4140625
151,-8210.021,-16089.167,-19360.875,976.04486,-3976.4424,1138.0681,12358.9296875
152,-8324.349,8064.871,11659.518,-6141.6304,-1480.7926,-2257.3374,21805.166015625
153,-1405.3379,4455.1987,-8488.365,4835.0083,-46.39079,-462.878,14028.779296875
154,-2690.8428,8213.215,-1309.3151,2864.2087,-447.55463,-2.9684525,11443.55078125
155,-160.14478,8019.5073,-1615.3042,1028.204,77.827354,-717.51404,9255.3310546875
156,-6762.069,-7772.6504,-9435.207,4184.491,1790.1287,-915.04486,8373.830078125
157,15843.597,4321.788,19167.768,4359.519,-587.2263,-2034.363,15892.427734375
158,2199.0457,5105.0723,-12350.074,-4180.0186,-2753.3848,2544.1243,18893.93359375
159,-839.33704,-7439.7817,-17196.717,-4402.886,5029.233,1900.0741,18655.572265625
160,-10618.39,970.77814,-8852.937,-1595.382,-2754.316,-5131.2764,15044.9326171875
161,-7380.4907,-47.441555,-17504.541,2300.7092,2756.2644,-1422.2316,16590.634765625
162,-3411.2568,5636.7876,-520.5273,487.93866,-14871.022,-4250.896,27972.029296875
163,7839.098,4425.1914,16819.69,-1053.4219,-3595.4954,-971.8425,12958.0078125
164,-1428.5302,1858.0814,-6736.5645,-2716.1511,407.1149,-1674.2493,9352.083984375
165,7868.601,13395.007,12892.803,2217.8054,-404.88113,2956.0227,8335.4638671875
166,4502.877,940.6968,2896.4517,32.264618,-620.83905,-4777.3975,8898.1669921875
167,3168.9492,6661.2314,-4147.425,-1232.8619,-2849.8713,-1469.4708,11255.1943359375
168,3403.7468,2945.6536,1306.5486,-13.375534,1176.573,-816.3961,3130.55810546875
169,3928.7864,11642.25,1884.5138,2034.8856,-479.05914,113.59519,9622.6025390625
170,2839.4153,5791.8657,-10427.106,2079.769,-1498.4047,-154.01157,15609.9140625
171,4233.4775,10545.583,939.8577,-1.6778969,-35.017426,680.28937,8536.5302734375
172,1678.4899,7230.2583,-2864.165,-1016.5833,-526.2006,-1416.5522,9307.4404296875
173,-3647.0764,7714.9907,-19197.766,1369.5885,-3765.0173,1607.2843,24566.48046875
174,-524.0786,19184.768,2463.8247,384.80377,3041.888,-1732.212,19382.548828125
175,-2108.1926,2971.4238,2165.8184,-1401.473,-1071.9391,1301.9835,6065.01123046875
176,-8786.515,-5080.7124,-14487.474,8231.4,37.972824,1489.4938,16651.982421875
177,153.18423,-19154.225,-1997.71,-898.32904,-1024.234,479.4432,18496.80859375
178,4336.6675,8521.532,2767.054,-539.0207,1055.7075,581.2988,5636.87060546875
179,423.60724,5648.5327,4834.8755,1848.8252,-112.707855,31.587145,5831.4794921875
180,9947.996,5863.501,21314.607,-3163.3215,-342.60028,1038.2117,15030.482421875
181,-10698.226,-15982.019,-9745.229,-7462.4814,7715.9673,8119.0376,24026.91796875
182,8377.149,10270.646,6724.051,5635.798,-1321.4131,-1859.3297,10970.1669921875
183,2613.615,-2587.4177,-5536.235,-4515.7705,-355.64746,1711.8416,11019.544921875
184,-4176.4985,342.18872,-28612.637,-3534.605,1426.3264,687.8694,27802.26171875
185,4110.7827,2453.583,5969.315,-2986.95,-756.02716,-979.10144,6374.68994140625
186,13015.933,11700.365,-651.48157,5079.974,-3474.3762,2663.0095,17477.291015625
187,-6040.654,-11379.643,-942.9211,-5528.8237,-1239.0964,543.24097,13375.4814453125
188,-37855.312,-26202.05,-2336.7375,7507.478,-1541.1503,3175.615,34495.3046875
189,8432.811,-2853.2927,4213.3364,3724.9336,-1457.1887,-99.28016,12065.8125
190,17979.99,-132.32922,11939.931,1950.5046,-2930.4763,1043.1775,17192.443359375
191,-4094.5464,-6714.682,-142.42769,4635.2383,548.91534,70.76494,9910.33203125
192,-10384.824,-13842.272,-27170.824,2108.3577,1772.8845,3043.4072,16918.595703125
193,6220.693,353.0221,2155.5012,-1010.12286,-162.97792,-880.50903,5706.904296875
194,2485.6565,-5366.25,3054.3328,161.8001,-306.22806,741.83105,8273.5615234375
195,-119.37131,-7114.1255,-3.1179068,2740.6829,109.25054,1809.2474,9063.2900390625
196,-2341.509,-2507.5527,-7758.4253,-5456.959,182.36714,3407.0022,12358.3603515625
197,3669.423,411.84607,-3302.78,-1048.3965,180.42503,-646.3861,6415.56298828125
198,-4657.395,4252.473,-2519.6826,38.30339,413.1953,-2906.1213,9526.912109375
199,9242.457,-5805.5347,-6037.17,-4503.352,-290.44852,2555.3242,17625.6640625
200,9150.306,-327.61646,1346.9528,1812.6708,-566.6546,794.84906,9459.3720703125
201,-11537.883,-3858.3484,-21427.447,806.5746,-2345.8635,3289.5925,16841.9453125
202,5619.943,-5619.874,8312.075,-759.62946,2589.3252,-28.11883,13626.7177734375
203,91.65583,838.7931,5459.104,433.43365,-499.0085,424.56973,5216.21484375
204,-8204.549,-19107.393,-40993.996,1182.7668,5925.07,-576.0696,30773.908203125
205,1366.6152,-2115.9697,2612.7666,260.23187,-1771.7954,-140.26062,5263.18115234375
206,-5925.297,-2229.935,-6739.614,46.31773,-166.41817,-1193.0118,4656.96875
207,-1299.6616,-9792.284,-2146.82,3486.1672,2391.3896,1131.1276,11095.1513671875
208,15351.872,7940.6465,23471.79,463.99826,480.61078,1164.147,13654.3916015625
209,8327.144,-1952.8197,-6747.27,-2193.7192,-2244.2961,749.3459,14463.177734375
210,-6186.011,-5104.3037,-10922.682,-8602.823,-7180.426,180.15852,20137.73828125
211,4403.45,-8458.512,-9532.921,-2584.9194,-107.59015,-2790.5435,14961.44921875
212,4406.0,6673.258,8726.39,-2955.7073,-247.41249,2627.251,7817.31298828125
213,3911.246,399.45807,14952.949,-1178.8901,-315.8634,1797.2487,13681.62890625
214,4273.805,2381.2268,-15443.958,4305.6377,506.71393,-1314.9645,20411.462890625
215,2820.7188,6122.762,659.97107,414.96286,1797.4846,155.31757,5743.60595703125
216,4506.3604,3667.8413,-6787.6646,-1647.8783,1344.5004,-2974.156,12605.3251953125
217,511.46088,8551.323,223.41061,174.51416,-1137.6444,-730.32886,8521.2939453125
218,5864.841,6393.277,-6424.965,-2318.6604,-92.21345,2021.7805,13646.603515625
219,290.11923,5011.9243,479.71207,1169.8766,2204.2256,1876.4092,7119.02880859375
220,7248.641,-3851.8884,-5237.799,1372.9692,517.81964,267.50848,12132.6455078125
221,6095.032,1405.256,4257.2314,-1443.4933,-2066.313,430.23987,6030.58251953125
222,4493.0317,4578.0645,4051.4658,7486.982,-3340.8198,-357.2843,14222.1884765625
223,-7610.111,2231.1057,19125.3,7795.2603,4359.8955,-3227.937,28620.0234375
224,8290.368,15950.198,42842.86,1915.9739,-3597.1528,-3408.4673,32750.048828125
225,1299.523,13431.561,2533.686,9444.211,-12256.511,9505.474,33511.8515625
226,9851.8,10086.701,19984.945,4057.4905,20551.297,455.68265,37648.84765625
227,-37502.535,-16511.188,-17916.777,-1689.6398,-2767.5137,-4999.193,22795.283203125
228,18424.338,17800.928,17834.346,-37.743195,719.5147,-832.1766,2000.96362304688
229,-4089.0242,-6547.3247,-6950.2163,3591.431,2923.988,461.02853,8495.7568359375
230,8623.745,7978.42,8525.381,-623.9278,43.2953,871.745,1953.44372558594
231,-5012.175,-5788.186,3519.1228,-509.21317,4863.1016,2283.6836,12937.48046875
232,5595.1113,11529.538,-10102.108,3432.8987,-11143.091,12268.258,35130.67578125
233,259.58383,-16728.74,-8796.574,-6130.529,291.64255,-570.1397,18186.498046875
234,-3007.9583,-12978.111,13482.91,127.31083,5448.573,-2331.6875,25321.708984375
235,-11903.066,-20318.664,-8529.415,4901.412,-381.7452,1978.417,13958.732421875
236,-13656.246,-28557.82,-22729.79,-552.30054,413.21637,4239.7114,14984.2861328125
237,4094.1804,-8040.951,17506.223,3488.6938,-1962.4313,-5338.94,24969.58984375
238,5044.1606,-7953.3643,8160.6035,6583.614,-3577.0632,886.2496,19746.6015625
239,2744.8389,-9954.481,5309.4404,-5182.1387,-2565.0198,2415.3428,17838.775390625
240,-346.38098,-13871.685,-39826.855,-4324.866,2204.0266,923.03723,35789.6484375
241,6266.3047,-19336.928,-8298.187,4458.8896,-1134.3237,-283.5907,23632.5703125
242,3822.0955,7608.9775,31497.834,-2293.243,3699.6409,-2416.918,27383.310546875
243,5104.969,1358.2413,6819.809,-2911.3015,1365.8682,-500.67517,7428.29296875
244,6343.753,-4525.235,-5705.331,803.28906,1647.7446,-459.48468,11961.1181640625
245,8459.664,-313.37735,2011.5594,-1002.3045,2437.3936,848.9157,9218.0966796875
246,9666.751,1021.2092,14432.313,-225.86772,-1630.0365,-795.093,12193.337890625
247,2096.8564,-2101.2478,-6772.7744,1999.9374,-1788.9633,-1488.2723,9343.6650390625
248,4663.385,3130.618,22435.365,5845.643,4602.518,747.83167,22653.36328125
249,-3714.887,586.7283,-8601.43,3089.966,140.78151,-641.9115,9661.3408203125
250,3407.4058,-4359.764,889.02856,-107.49986,2030.1244,1672.7456,8240.3642578125
251,1372.4364,3184.8135,10774.09,-1662.4767,-2488.0955,1233.5457,10298.771484375
252,3105.7793,-7219.6157,7449.24,-503.1309,1463.8386,2870.4785,14220.908203125
253,19099.488,-9653.884,1926.8896,-3538.0652,4183.5854,-753.83,26826.294921875
254,4520.7666,1782.9889,-6941.149,-4021.2441,-444.95297,-569.13,12552.5947265625
255,4554.6943,-13567.097,-13.810538,-9972.276,-7646.485,-1133.3364,27277.8203125
256,-2234.425,-21934.035,2283.2605,-11711.695,2582.434,9186.563,34382.5234375
257,-1124.1147,-1527.7563,-1856.7682,10717.584,-8703.931,-7584.4756,27291.974609375
258,-4172.2314,13773.568,13232.41,-3037.2805,-2859.324,17511.84,35844.51171875
259,22870.416,7831.218,-11430.185,-4785.3125,2834.1846,-1928.5115,31477.103515625
260,14794.223,-2668.6592,-4258.2886,13956.677,-9289.025,-2702.4856,34646.40625
261,10557.504,16412.684,23259.416,6213.619,-104.64945,1374.7653,15581.390625
262,-19961.639,-14081.265,-27774.814,-2254.0447,944.6466,-5403.0903,15718.40625
263,-14542.649,-4153.749,-1251.9803,-3232.066,3169.5276,51.141197,14421.5126953125
264,565.6583,9996.303,-6830.636,-1096.8605,497.0703,-362.20633,14769.5009765625
265,12135.541,8872.766,736.2019,-8564.729,-2955.652,3172.3875,19490.013671875
266,1640.0851,-1827.3595,-11802.246,984.3447,-282.5153,-1034.74,12347.76171875
267,-7990.8096,5255.167,-6277.714,1532.3987,-1159.691,362.95566,12929.5615234375
268,-1746.9348,6630.4375,1075.2382,3218.085,194.21042,-385.66312,9280.6357421875
269,-3790.2158,8509.378,278.2059,1673.5533,692.0216,129.07881,11299.607421875
270,-2978.8389,8070.891,606.616,3068.2605,-544.6527,-1964.2466,11663.6669921875
271,-4401.9883,6236.1733,2298.7458,4356.7085,1273.8833,814.3198,12271.3994140625
272,-4454.2534,7165.423,2477.9639,4248.196,-41.162086,-1042.3429,12646.2802734375
273,-4185.714,-1695.5736,-9763.74,3185.4321,3145.4595,-132.35141,10553.6943359375
274,-4074.0137,-7429.229,2337.4282,4475.0713,-180.31973,-1383.8718,11823.5986328125
275,-1396.761,-4027.3003,-1637.9874,2766.2976,-581.41516,2666.7705,7186.77294921875
276,-971.6651,14121.33,18893.754,4678.9487,-217.11787,305.2648,19715.560546875
277,-1946.2563,9778.37,11537.964,491.2634,1873.5294,50.419758,13132.234375
278,-6647.5596,6393.9487,-1490.3446,3336.6384,-1006.76825,-38.51541,12878.8427734375
279,477.199,-18129.605,-2405.1777,1584.657,1300.496,-8813.503,23377.986328125
280,-3437.2737,-13456.478,16639.797,6075.782,844.07794,-2502.281,28918.791015625
281,3306.9573,-4680.24,-10572.584,2105.681,-1950.5103,-177.40457,13053.271484375
282,25982.074,4657.1763,12713.041,5344.472,3836.4307,1025.5865,21928.47265625
283,28775.805,-3583.1536,1626.805,-4919.9287,-9951.916,-3190.6262,36137.7421875
284,406.8875,-2764.8384,1160.601,2369.0142,-7.8555202,-1521.9507,6066.66064453125
285,3654.1194,1064.2894,-9971.915,-606.99384,1036.1648,-1651.3281,13022.818359375
286,492.57303,-7939.422,3596.682,7300.305,4460.3247,-1239.634,18195.736328125
287,-1355.691,985.6064,13803.072,-306.3331,-1590.4681,2406.245,15000.6318359375
288,-1374.4879,-1357.8202,-7625.548,-2106.9595,2448.3853,-517.25525,8443.013671875
289,-7307.156,-5641.417,-32931.55,3713.5498,-3136.0874,745.408,27831.83984375
290,17449.312,-1727.378,21647.352,-3429.64,601.15454,-627.3215,22437.14453125
291,5755.6313,4022.4805,9489.115,-3066.5278,-433.24136,-1863.5248,7912.36083984375
292,-2131.1829,-19602.666,1045.4949,-1762.3612,809.8995,439.79132,19563.001953125
293,12211.673,-1265.0424,-5359.1055,762.29065,-1680.4891,-866.2733,16310.2548828125
294,9763.097,6867.9346,5948.177,-1804.9103,-2265.0562,581.6105,6170.0986328125
295,7573.618,3209.4749,-7861.877,-1076.5233,-255.9138,15.789259,13914.43359375
296,3048.4153,857.07117,-6011.326,89.86064,-3392.6755,-5359.72,13702.6513671875
297,-1914.5582,7878.994,-395.89725,1200.6486,-384.42014,295.19574,9400.869140625
298,56.84489,-2313.7905,9043.348,-2085.694,-420.37354,75.30949,11012.646484375
299,-5498.863,2700.3442,-24309.785,7120.5967,369.02682,-1441.0839,27093.5390625
300,-5595.986,-9663.897,-6744.5454,-2561.5898,-1860.1489,30.43062,6577.48583984375
301,2363.7532,14054.274,-2481.2617,90.28654,-2226.5496,2538.7249,15843.470703125
302,2486.5964,9495.798,9434.7,410.61816,1871.9839,883.22125,7878.0341796875
303,-2992.4812,7443.3647,2153.6104,3186.7969,1402.8821,708.14124,10934.3935546875
304,-4411.428,6414.318,-5246.8794,3933.641,-1264.6631,1309.9812,13539.0546875
305,-1355.2776,333.1008,431.03372,3106.1394,1314.8517,-851.1362,6271.33740234375
306,-14903.112,2064.631,1083.9619,-1508.3384,9467.721,-11925.581,31218.95703125
307,16238.325,8146.7676,25743.102,6825.609,13716.585,9559.206,34800.26953125
308,-23687.281,-11253.254,-2129.4517,11468.167,-2933.8486,7162.1353,30423.048828125
309,1298.2556,-7145.071,-1417.5309,-1194.7484,176.1045,7316.905,14856.7021484375
310,4649.2246,1901.0519,2216.9714,-8653.506,393.36014,-1229.5857,15376.390625
311,-10665.321,-6073.7383,1745.7839,-15205.216,4450.1587,-3562.827,30153.279296875
312,-7389.0166,-3053.9458,362.0175,6067.5464,314.68295,772.8118,12562.015625
313,-7793.5146,-1866.3025,-4517.571,3551.6367,1141.2306,1512.1868,8663.4951171875
314,-2916.1846,-6136.3096,266.64383,2789.7014,854.9795,-524.10504,7557.31689453125
315,5947.285,-2082.1372,10080.448,-5497.0796,1267.7574,342.22348,14510.96875
316,-6574.471,-2900.3208,-3636.716,4826.492,-844.7831,-439.36026,9161.943359375
317,5154.7305,3176.0989,5154.2646,-4580.088,-960.37415,-158.81541,8347.9521484375
318,1753.8767,-4568.2446,15480.296,-3928.0347,-2257.6003,-2059.25,19734.845703125
319,-20916.762,-3437.6433,-7416.677,2070.088,589.0281,-2818.816,17015.76171875
320,8849.376,9499.8125,12262.043,170.94734,1681.6409,1752.0469,5256.43017578125
321,3050.5176,1237.6282,-4555.565,-1760.9489,785.95087,105.62443,7651.1123046875
322,-2785.6785,-13188.013,-6310.917,5808.0522,-69.43574,-1247.6356,13778.599609375
323,1803.1963,9096.364,19024.332,1766.7893,510.60687,1725.7493,15596.236328125
324,6955.5835,16506.365,16234.096,35.363632,981.74023,2765.8684,10702.169921875
325,4774.685,9914.221,-342.59753,-527.09534,-307.5006,793.0139,9050.173828125
326,-5951.1235,-24430.59,-43175.406,-4717.493,920.3154,1976.572,33470.56640625
327,-1062.0476,-10067.472,17878.81,-909.7934,528.102,-681.02814,24801.92578125
328,-10187.305,-8240.373,11622.189,-29.531132,445.66855,-331.364,20926.3203125
329,11437.539,-6986.3594,10975.628,-1329.0743,-3598.22,2425.3801,19822.5
330,7644.002,-196.05585,-2352.9988,1728.4067,2281.882,1031.296,10526.3154296875
331,3250.392,-553.7524,-1149.0721,1902.5293,-498.76846,1712.3152,6123.0576171875
332,2054.729,-2218.8562,-8357.871,908.93896,-257.64523,-2988.236,10566.5966796875
333,15560.01,525.94775,9081.373,-8945.486,-1191.4884,-1827.952,20614.16796875
334,10311.191,-1022.0777,-16128.817,-3248.3203,-545.52875,-16937.732,37697.125
335,12048.211,2141.9468,32086.764,4073.3752,6697.2607,1155.44,29774.603515625
336,2008.8418,9240.488,3689.315,-1021.4062,-542.94086,331.4993,6878.36865234375
337,-1384.6359,-2009.7899,-4918.7036,2713.4705,-1749.798,-2849.3206,8142.55126953125
338,1827.4359,-3434.2925,14186.765,1932.2225,-1800.2334,5087.7827,18548.580078125
339,7728.85,-1765.4796,-16815.611,-4665.6772,14611.589,-543.6455,34150.07421875
340,15625.157,2111.3313,-22341.195,-1101.9513,2930.1567,-2939.9756,34151.53515625
341,-11429.407,-12745.41,-11278.327,322.95486,-701.2801,182.48654,1960.0244140625
342,-4579.327,-4780.609,-5322.672,82.3896,563.41266,877.6787,1930.564453125
343,-14443.154,-14042.374,-14231.929,-272.39697,1054.3802,-329.4454,2000.9853515625
344,-325.7233,-6131.1616,2739.324,2241.0442,-565.01715,631.9304,8838.220703125
345,-5391.6104,-20056.037,-17252.701,2863.1116,776.4365,1089.5289,14551.8662109375
346,-2689.8137,1006.25244,-4912.105,-4287.9053,841.7771,-854.22363,9289.0517578125
347,6869.3916,-8901.651,-6977.5327,2879.2815,-1536.5377,5252.2666,18351.98046875
348,996.86017,185.78888,1693.089,661.1835,532.8635,210.10637,2000.75427246094
349,-5728.964,-170.12614,234.45647,3402.906,-222.8331,946.06177,8419.4267578125
350,-652.62,1463.9352,-12550.991,-640.89594,-557.2028,-901.00287,13260.2294921875
351,10928.736,10341.999,-11604.935,531.5899,-3452.906,-1857.7267,23277.845703125
352,-6067.0283,-21030.797,-5530.2817,1162.5938,1924.6224,-5603.843,18482.71484375
353,-2289.4194,-1294.205,-6581.373,1403.8885,-1935.678,-4435.628,9993.0166015625
354,-2256.6838,6245.0806,3565.8357,3333.6558,631.2292,2031.2544,10178.072265625
355,-6406.8623,763.908,1204.0991,5751.9683,647.87506,962.777,12572.4169921875
356,-12922.34,-5910.018,-9734.05,5438.4927,2234.3616,-1509.8265,12146.109375
357,-6089.2554,-3130.385,4452.9814,5587.051,-1467.9081,-46.93377,13741.0634765625
358,17579.49,1923.4847,-4224.0117,5436.6357,-608.0444,37.009907,21654.83203125
359,2200.249,-6100.706,-7162.9995,-2568.3252,-1074.6115,-1166.339,10304.69140625
360,3545.3594,-4159.309,-3856.5898,-152.19638,-2253.9539,-153.91112,8514.8505859375
361,59.07028,-2613.198,-24.38587,-2270.236,-94.28221,204.30412,4747.50146484375
362,-2711.92,-3939.579,149.85355,-6066.0405,-627.7994,-606.07874,11219.853515625
363,-5411.75,3557.0466,-8560.421,2262.824,1067.5596,1156.9447,11890.708984375
364,3221.8064,-1663.1466,2125.5708,-1184.0565,107.979706,-1088.259,5244.35986328125
365,-721.5572,6185.421,15813.557,-4752.022,-1397.2881,2066.7202,17126.734375
366,5740.956,2136.096,7402.9775,-3104.7966,-2275.2966,579.7605,8198.0029296875
367,3591.3477,-2074.0574,6655.9077,3270.1917,-1473.6263,-892.7963,9991.9345703125
368,-1806.257,-3758.2148,-6514.045,1645.3782,1367.4518,1237.1061,5925.10546875
369,8974.221,64.35012,15870.366,5105.9224,-516.2706,75.873184,16352.8154296875
370,5240.1714,3695.6714,7121.3955,562.9251,378.18958,464.3653,3294.947265625
371,-1365.4203,4455.1875,-1556.7109,5768.7554,115.50485,21.26511,11614.92578125
372,3641.0117,1758.2074,1428.8483,3425.3176,-181.88788,-35.743362,6290.869140625
373,214.94553,-787.8678,-1001.7175,-3219.2786,188.51057,-19.399603,5697.79052734375
374,-1758.6193,-7533.539,880.00995,-1634.9875,503.36517,498.0567,8066.8330078125
375,120.10792,4055.8347,-1906.9338,4011.1497,594.36444,652.9129,8842.13671875
376,-5001.9214,-323.29935,-5420.176,187.93898,-836.7551,-791.2236,5301.494140625
377,2109.5032,7268.3423,-123.33527,2757.5574,175.17955,125.191826,8128.314453125
378,-7791.1074,-10383.655,7210.9766,1691.0841,3665.9202,-622.2116,17909.078125
379,-3951.8872,-5884.7236,-12903.103,4383.8076,-55.560326,209.65622,11151.3818359375
380,-13343.223,-15751.001,-17827.686,5734.461,-335.63803,-189.49353,10686.8154296875
381,-123.88023,-7642.1846,17545.969,2752.9294,-785.0783,1428.838,23071.744140625
382,8938.662,12889.528,24112.764,2574.082,109.98027,878.64465,14427.123046875
383,18065.78,16198.015,14202.827,-2734.4148,210.64561,1680.0792,6498.31103515625
384,10382.864,5836.6465,1183.891,2188.4858,87.02733,442.6506,8857.06640625
385,-14390.443,-2447.7102,-12361.6045,-5764.4277,-176.9254,-2936.2607,15753.0908203125
386,4596.04,4248.5933,10191.069,7355.009,115.26753,48.190853,13989.4375
387,4374.091,7749.4087,7529.7466,1209.421,17.19351,-1166.8009,4378.68115234375
388,2081.0188,-2278.5825,-3710.6787,312.786,-152.98967,950.8715,5511.49560546875
389,608.09235,-2449.239,-12015.761,-3144.4097,-1972.3353,897.0918,13185.6064453125
390,538.1961,1465.2106,-1268.2754,-987.58374,126.723595,-177.77933,2977.62963867188
391,-3570.8228,-2503.039,-17796.367,-458.6415,1479.9126,65.641235,15030.3193359375
392,2844.16,8384.0205,11859.201,-6206.6304,2557.2686,-1607.8898,14316.4423828125
393,-2026.0265,2956.0994,-6903.2363,1716.8969,1801.5789,803.39343,9665.6201171875
394,-7108.1934,-11785.264,7238.8735,2979.836,-1598.1576,-1444.8193,18313.345703125
395,31005.555,7046.0303,16244.866,1875.6489,763.41095,-5.526273,21226.876953125
396,4210.817,22274.053,6358.3647,11502.945,7016.0044,614.2998,28945.796875
397,9376.35,4619.323,14753.35,-430.46237,-137.08278,-374.37292,8840.4013671875
398,15609.946,1443.0494,12583.456,2911.028,-1550.89,228.73541,14134.341796875
399,11201.437,-1194.2991,21868.18,4499.789,905.7014,59.544235,21514.451171875
400,-1014.81506,1721.7974,-2264.802,63.287273,-56.904022,470.645,3627.4638671875
401,2014.7819,2832.7415,-2767.7517,1474.3177,12.815511,-620.8659,5927.17138671875
402,152.89755,6637.8535,4099.011,2430.5798,-14.479431,-400.854,7088.154296875
403,10233.671,4092.6704,1475.807,3325.681,2534.8066,-357.3341,10652.1962890625
404,2701.0208,8833.868,-3748.6536,-81.31817,-599.749,631.40906,11002.724609375
405,3033.6235,4610.0454,1052.4371,766.1391,-350.20917,-466.6414,3509.3447265625
406,4264.322,2618.3337,12384.35,1046.1141,-623.65393,-653.36615,9366.9716796875
407,-17590.191,-1888.9056,2760.597,-5544.003,-980.3927,1494.1873,21046.154296875
408,-2423.2495,-473.37354,-11679.545,-2205.1665,1459.9587,-932.1778,11450.73046875
409,-5531.649,1159.7765,-1812.9529,-1711.2273,24.601376,-2586.3953,7910.46923828125
410,-3049.531,1424.7455,6969.0596,-1380.268,1833.0383,1741.2101,10022.7890625
411,406.27118,-2626.6035,-7308.1606,-3690.1172,854.80896,594.6654,9456.095703125
412,5647.284,6087.3804,6553.691,-732.6374,224.9426,-231.74437,1593.59289550781
413,-2948.9268,2268.334,5027.9404,-3439.8787,-2330.9138,-42.90497,10051.671875
414,-675.5257,-2402.4556,-14727.873,3365.6606,1159.0548,-318.62927,14645.857421875
415,-4944.911,-3418.7002,5070.159,412.16302,-1265.147,-945.4333,9764.1591796875
416,-10405.062,1516.4575,-21971.793,1348.0411,898.8664,-1254.9655,20649.58203125
417,1006.7824,-18618.979,-15099.082,217.09265,-1766.6451,218.3635,18388.23046875
418,-4981.886,-5188.709,-3987.204,605.13226,989.335,673.5148,2575.59008789063
419,9676.675,2573.2585,12223.324,998.075,-473.42526,-355.80005,8892.3837890625
420,1352.1257,-2000.3762,2135.945,-1612.5673,-96.268456,-1010.30896,5037.11181640625
421,2987.0144,-2959.148,-1.7288253,295.4227,334.4453,-575.8727,5301.9013671875
422,4225.5615,1010.4676,8340.807,4996.116,-35.690628,14.149136,10742.0166015625
423,-243.11131,1288.4468,59.59393,3806.867,-519.5808,-1103.3995,7064.896484375
424,2449.0269,3804.298,601.1239,-1233.9435,287.7289,216.91919,3565.56982421875
425,-29527.773,-21071.455,-11035.552,-240.51926,1337.5837,380.83093,16219.478515625
426,5976.0957,11263.925,5489.681,7450.0054,-707.6497,121.88614,14100.51171875
427,5884.135,-2471.9683,-392.908,2816.6272,-460.29724,-390.51224,9037.0009765625
428,4209.54,11898.866,2500.2966,2894.748,1659.639,3259.867,11852.099609375
429,583.6868,-5315.5596,-8528.154,5087.7354,-251.5377,625.9502,11962.197265625
430,-2557.9573,-2770.135,-5784.071,-2685.9849,512.21094,930.1575,5898.68798828125
431,2945.9807,4122.216,-2281.7195,-2600.3167,-107.84812,-2516.1003,8612.404296875
432,-10832.682,-3531.6096,-10715.585,8395.246,-1356.5768,-378.46176,16427.279296875
433,818.33234,1985.0,-755.482,-215.36868,-64.103195,909.6485,2882.35717773438
434,-5514.075,-4059.0042,-26331.13,6769.4897,-353.14685,-715.5281,24599.703125
435,-133.06487,3937.982,-976.35657,-1572.4442,232.11298,247.10867,5336.6845703125
436,3335.0183,5701.1265,-5333.384,8956.391,-1367.522,-169.46219,18643.962890625
437,-17101.996,-20443.482,-17487.732,-3110.1865,2130.3472,60.446125,7257.49755859375
438,4232.648,3766.3396,9438.567,-209.58032,159.06703,567.5541,5560.6328125
439,1083.8341,-210.23549,-1712.286,-3686.2456,1365.3516,243.41756,7239.4794921875
440,4817.7925,8987.032,621.58636,5516.3457,347.00845,84.63527,12006.6083984375
441,9414.642,25614.71,23475.197,-303.48508,-1087.059,-483.74146,15391.0009765625
442,-407.13647,59.687126,3730.6067,-4325.7476,202.18745,-151.9057,8469.6748046875
443,3712.3557,6714.9297,3799.7751,-2272.9692,-343.5593,-540.7616,5048.87548828125
444,5752.9194,4513.052,3255.5186,1004.1153,928.1073,-120.23344,3214.04663085938
445,-11315.157,-3037.6338,-3544.6096,-4355.505,675.0414,235.53354,11091.5576171875
446,-1552.1504,-4890.7183,-254.84575,-3133.4216,-106.968704,-447.84283,6873.94970703125
447,-5460.654,181.9792,4052.1025,-3192.5667,816.6588,876.3012,10175.302734375
448,2708.825,82.2001,-1700.8536,1435.384,-203.41992,-509.03827,4673.79248046875
449,10791.221,5237.3003,5237.386,3586.538,638.1484,169.86641,8410.919921875
450,-11509.749,-5520.74,-595.4474,-1699.6124,-4532.9634,-653.00555,12696.96484375
451,2137.7314,-2941.0906,-293.59787,-2554.152,545.35223,1495.7715,6821.49609375
452,1515.0518,-1235.3685,-8846.158,2260.8123,-609.7437,524.1896,10183.08984375
453,3741.7383,-4611.52,-6066.1284,3418.2112,386.70667,203.56001,10939.3310546875
454,-15343.714,-8100.9385,-19291.389,4327.5117,880.11285,-616.3322,12501.1806640625
455,1206.8665,115.836555,600.119,-1288.9003,-160.79308,1371.398,3405.88623046875
456,-1102.3118,-5778.468,-3886.253,-2767.4688,-160.26727,1537.5691,6837.0087890625
457,-1652.2395,5012.9453,-4713.0093,-1157.0742,1072.7578,575.35364,9091.5107421875
458,4648.8647,2834.6636,-1619.3906,3332.0435,-1200.5463,515.4557,8345.0009765625
459,-1469.0588,-1985.8579,-133.94104,1147.6405,644.092,125.30174,2825.33349609375
460,-3922.74,-2825.7417,-4949.852,-1228.7864,-479.5142,-61.538914,2935.30493164063
461,221.32742,7475.685,-4012.6216,1979.6034,1687.3214,-1321.4867,11260.6943359375
462,-5022.139,-21374.145,4595.778,9910.303,-3180.3818,2260.305,29282.73046875
463,1851.3145,4388.227,1627.1085,-3755.5122,-251.26224,-606.3347,7117.50830078125
464,-3773.054,-3144.9282,-8486.018,6224.985,1088.4855,-480.4462,12085.7392578125
465,-177.41899,-3057.2834,7079.7676,4867.9126,-444.02258,-104.21712,12392.4921875
466,-6966.949,-3428.128,-555.1297,-2512.9902,59.832726,-1523.0691,7540.53857421875
467,-1585.7499,-4266.649,-1234.6877,-2429.764,-152.40527,1189.3374,5502.37548828125
468,-1671.2848,-3895.9912,-3535.1323,1733.1119,-1554.6611,-1218.3698,4999.1953125
469,4889.4575,-2372.8618,-6606.6943,-1266.2273,-62.367443,-373.91724,10327.3994140625
470,-9995.537,7453.7217,-4748.4434,-5804.53,-4047.206,-1793.113,20007.845703125
471,174.53024,6318.7275,-2262.012,575.92017,42.96609,623.01776,7798.9443359375
472,4366.519,2886.826,-1328.7548,1358.865,-588.6884,259.25043,5742.75341796875
473,9082.538,5129.5156,1967.2859,-3015.2896,361.0958,-50.92154,8111.80078125
474,2838.924,4220.1133,3485.597,379.8635,-733.98914,1026.2432,2577.07690429688
475,-2444.9226,-4318.2935,-11982.515,1485.0782,-759.53406,125.80495,9219.6669921875
476,-240.97311,-606.45306,4692.188,1431.8802,2719.8865,-453.27246,7431.90283203125
477,9997.185,592.967,7187.018,-932.3106,818.84595,370.30664,8656.7568359375
478,-3535.145,4670.7734,1562.5719,-889.268,-78.53087,-56.77972,7341.18017578125
479,1060.9023,1315.2484,-2990.7263,-7622.025,255.1439,416.37744,13874.873046875
480,-2244.144,-9223.288,-759.53644,47.521217,285.56488,-1290.72,8156.1689453125
481,8913.601,-5259.2383,4009.0054,-1255.2891,409.99237,-233.49454,12680.98828125
482,4138.8394,5479.344,6538.395,3067.2778,825.9664,445.29333,5933.3212890625
483,-18743.879,-20225.16,-11477.624,562.7451,-407.52353,-795.0774,8312.685546875
484,2259.4255,5088.4814,2385.5283,1055.3645,150.44218,-763.43994,3580.57397460938
485,-3516.055,4988.9854,167.48402,1024.0449,327.33728,259.43958,7631.8349609375
486,3144.8064,-3308.4639,1212.5205,183.09818,480.06982,-804.9183,5970.30322265625
487,1841.7915,-6531.1235,10077.524,-4340.9062,236.93625,486.48688,16257.2724609375
488,19063.145,3260.0981,9213.125,3834.588,388.2784,144.8059,15353.3779296875
489,-26603.715,-9177.835,-8103.8765,-3708.9165,-1868.5553,927.07886,19438.376953125
490,-19080.697,-13293.179,-5153.752,-3070.955,99.998474,-71.311676,13235.9462890625
491,2624.088,2827.7908,-2057.2961,720.5663,277.18488,530.2177,5053.9091796875
492,11334.095,-3558.9546,3778.7427,-2826.3855,-45.066967,-276.7642,13804.5390625
493,1721.3596,-11437.703,6357.304,-2641.1914,350.88138,-187.77693,16645.1328125
494,1295.4479,977.3763,4154.929,-2491.1074,480.40173,355.601,5373.62890625
495,-5618.5835,6889.387,-2203.0596,-875.8793,57.42595,465.52197,11329.4033203125
496,-11069.31,1818.5427,-11487.677,-6211.378,-1161.1571,537.9869,17097.380859375
497,8739.774,-3049.0603,-2961.7842,-754.4171,-218.28331,24.903833,11824.0263671875
498,10169.849,8596.878,9306.107,-10768.698,2297.8118,-2774.398,19715.169921875
499,5124.8574,-2487.8389,1269.2786,736.3703,-320.27945,468.9893,6786.86962890625
500,6406.599,9580.422,16029.669,8544.257,293.4215,-464.6517,17089.578125
501,24621.81,18911.477,4257.697,-7055.2817,2252.0144,-288.61646,22266.8984375
502,-407.68106,282.83032,-6635.098,328.1943,69.7751,-14.765924,6625.40771484375
503,-16970.227,-9207.005,4258.765,-2408.8477,262.7674,-500.17084,19091.822265625
504,4880.791,19634.338,2881.9033,3603.4824,-421.60648,605.25494,17080.423828125
505,3850.2837,10622.262,-44.758636,-1183.2836,-1103.9995,8.939679,9760.396484375
506,-78.778534,7275.202,6213.4043,-4045.0356,-2952.1777,190.33153,11078.8837890625
507,8301.655,2908.687,3679.207,1684.5125,124.47511,230.87495,5851.62841796875
508,8024.1816,-867.27295,1272.6189,145.89195,243.66605,-245.41377,8064.30419921875
509,-3098.2878,3544.1504,2494.4736,2361.381,-599.5428,1201.975,7771.2509765625
510,390.91867,4501.429,812.3408,2895.5283,-416.45273,-137.77118,6408.67578125
511,-5554.245,1007.03546,1905.7063,-1739.5007,-105.94387,-91.56654,7674.0380859375
512,7250.095,8615.981,9579.811,-231.47978,888.99335,-156.49257,2591.57080078125
513,-10997.731,-10787.36,2072.9355,6207.507,-331.96725,587.87354,16885.015625
514,3121.6646,4270.4014,950.66815,-1156.9662,509.36945,-316.65002,3690.74658203125
515,-16798.254,-14872.436,-5821.7437,252.30774,607.6082,247.33989,10224.2783203125
516,3750.5005,-1812.4868,-4909.322,-2298.4702,-935.25183,1219.0065,8983.0830078125
517,4550.416,3452.62,5294.9126,-830.49854,-27.906895,25.96637,2156.45043945313
518,1505.1964,6603.5815,1564.0104,-565.2554,-463.62308,-440.1222,5280.306640625
519,254.1247,-1930.1671,-777.99927,239.07794,1144.0997,1796.5109,4166.85400390625
520,-3731.5566,-18023.14,-15624.068,1664.464,-1166.9868,-594.54126,13754.1162109375
521,-23.60572,493.56018,-4519.8223,835.17645,10.018597,-80.53676,4992.0966796875
522,3794.344,18862.676,12431.751,-7883.988,547.3506,-109.44004,18945.04296875
523,-4393.0156,-1024.4624,-2485.215,2738.3662,-325.54993,196.81856,5611.6337890625
524,-8484.411,-6914.297,-1134.6399,-56.927742,-498.5965,-322.7163,6783.24169921875
525,5824.0703,4067.4907,6035.8438,3405.014,-138.12503,45.95024,6192.60400390625
526,6185.967,10478.651,794.40894,-8622.01,502.64032,763.9326,17209.48046875
527,310.59363,3501.8718,-1183.3151,981.9466,-559.2148,-109.61029,4588.06689453125
528,4725.706,5117.7114,6906.3794,590.5714,-24.32901,-396.274,2360.7978515625
529,2346.5325,573.689,2805.398,3565.1611,36.367332,167.33919,6510.462890625
530,19256.352,17754.633,9192.925,-8460.923,5355.355,775.6361,19774.255859375
531,292.72784,-12080.16,-4650.482,-568.4273,-95.86028,-33.302494,10833.3798828125
532,6687.8965,-7301.6646,-1613.7747,-1089.0242,-410.14285,437.25388,12374.3671875
533,-2666.403,-6787.1606,-3690.5176,1528.0853,-92.70801,-320.4527,4598.72998046875
534,158.01892,-7473.008,-3272.2012,4602.8486,-105.55835,456.65262,10394.255859375
535,-17305.738,-10430.918,-1956.9617,-816.53656,-112.56384,-12.844077,13392.7861328125
536,-12000.352,-1271.188,3107.5432,4824.16,-91.26584,-145.99802,15848.4970703125
537,-479.52762,2479.6692,3498.6897,-832.7647,-38.351303,11.552192,3859.53833007813
538,-5953.5205,-11174.816,-12065.374,-4819.9272,-379.40897,-222.793,10147.943359375
539,-19023.205,-886.96277,2782.1958,-4890.154,114.521675,312.80478,21931.8125
540,-15846.387,-18449.035,-18017.79,4952.735,-2370.5823,-578.70233,9863.55859375
541,-4558.5557,-6575.9634,-8001.514,5612.887,-42.44552,-135.92856,10176.0693359375
542,8088.26,-7443.337,-2401.6575,2600.1208,391.46545,202.37225,14464.03125
543,-6093.789,368.1746,9117.476,-42.377663,786.08014,280.69324,13301.8955078125
544,-424.18887,-8935.039,-17.749132,-1099.5509,147.73613,149.17801,8934.1025390625
545,19473.38,8267.014,1824.1782,-1181.757,1098.4237,-512.921,15744.58984375
546,1851.1244,-14905.863,-3215.8123,-7733.78,-67.518585,217.51811,20028.818359375
547,1964.7417,1633.1482,301.62137,1649.4565,-177.6565,-60.000343,3254.54296875
548,3810.0645,3925.0461,875.45276,4340.4307,-59.504436,-117.9816,8095.24462890625
549,10.539798,91.70191,2134.6492,7962.0547,-176.74727,-524.6201,13980.28515625
550,-5436.3027,1993.1681,1784.6688,-2148.2239,640.22577,-9.9086485,8292.529296875
551,7429.4316,5750.6675,976.992,-1812.1235,-660.1818,-370.35614,6722.38720703125
552,-13895.04,-9787.535,-2953.212,-663.9748,438.62903,139.00142,9675.19140625
553,3305.5767,7544.2905,1540.5775,-2812.464,273.1083,-217.06229,7256.59814453125
554,-37576.195,-26383.955,-5108.7544,-3106.219,-529.99725,-131.39503,29083.634765625
555,3549.158,9830.329,3951.7693,-55.22951,85.18113,222.88704,6104.6123046875
556,27503.186,21361.082,10265.87,6712.131,625.3857,812.045,19164.728515625
557,10607.059,8833.677,3205.9136,2578.9846,-182.62823,-109.72054,8055.2119140625
558,-18440.691,-7976.487,-4569.2847,-5638.2866,-295.54303,391.48727,15901.4130859375
559,-16995.807,-10895.289,-2779.5994,-3712.8896,-25.110567,218.4936,13931.7041015625
560,-4049.242,-2109.6494,-3566.7522,-2968.5896,19.501001,-499.99176,5499.7880859375
561,66.800705,-5743.5005,-2297.2495,453.84036,83.42134,132.26666,5128.71923828125
562,3425.3215,-2929.8823,1138.967,1047.5867,191.59082,-94.87231,5874.9658203125
563,795.6374,9091.128,7676.9116,1451.6339,-110.05769,-378.52124,8116.123046875
564,663.99365,-7498.9556,-2788.7417,4534.0044,158.33963,-343.29953,10605.2333984375
565,1247.5316,-2538.165,-3127.3196,1494.1869,-46.90422,144.20024,4865.77099609375
566,5079.1294,-2365.0825,225.01117,-6174.757,-83.1831,276.7269,12548.984375
567,-2526.083,2287.1294,-3871.391,2130.0076,-161.33618,-549.58295,6785.8037109375
568,2630.6917,3018.0364,1694.049,-1414.8257,377.6324,157.85841,2810.322265625
569,-11225.427,237.4238,3810.166,-3034.7058,29.08386,-269.32047,14593.275390625
570,5481.616,6539.247,805.0144,-1824.9152,-254.62723,583.3882,6256.33935546875
571,758.20074,5662.986,-2201.7214,1482.4941,723.3636,575.72577,7516.20556640625
572,-3876.694,6790.628,-15445.41,1001.9615,-726.1122,1737.0693,19613.2578125
573,-1935.6635,8116.7275,2162.885,-2071.7932,-777.7304,-2128.82,10243.810546875
574,2718.744,3023.8716,-1354.0713,719.002,-1305.8237,370.56052,5000.2021484375
575,-1578.2927,-539.0846,-375.17,-386.6956,-310.32504,1354.365,2741.82080078125
576,-30634.72,-5218.049,-9951.216,6309.982,3642.3782,-1844.8773,26787.455078125
577,8065.559,1392.8273,-6266.795,-7778.6343,-2868.8523,3275.2983,19816.681640625
