Element Label,S11,S22,S33,S12,S13,S23,Mises
1,2499.5552,-431.2836,840.23193,1094.4662,112.11687,145.52919,3189.79248046875
2,-53.986973,742.6515,-1235.9791,996.74976,-294.57535,271.20215,2536.70361328125
3,2714.7605,1202.6327,1621.6613,371.50037,348.52002,-440.57996,1785.849609375
4,905.52826,1141.158,-1729.8483,35.80434,-1510.379,756.57043,4023.24243164063
5,2762.0698,4733.7153,1060.8549,1261.8007,1065.0859,-1206.361,4762.486328125
6,-1601.2831,1989.4055,-2451.9736,1217.4568,-813.7278,-548.3526,4899.63427734375
7,4416.053,547.6569,2495.9326,1619.4728,886.8076,370.0666,4675.6572265625
8,-3843.5437,906.2322,-2700.8604,480.72568,-1068.0082,24.373945,4749.27392578125
9,7167.49,1837.1641,2208.1226,1291.4445,3124.9854,-198.91093,7809.70166015625
10,-2941.4172,-1307.4597,450.4318,853.4224,-2479.6875,544.09735,5491.08251953125
11,-1604.1664,1060.9462,-2223.7434,951.91754,712.73816,436.49808,3735.232421875
12,4299.5596,1942.7732,2448.417,471.5559,-1003.8176,-662.9271,3102.72216796875
13,-3555.1572,1405.4208,-2281.7954,1590.3663,1320.892,573.0369,5806.83642578125
14,6427.451,1396.5542,1469.575,396.0606,-2356.0522,-725.3582,6606.8046875
15,-3137.123,3515.6934,-2493.093,-446.99966,2030.7863,439.97397,7344.56005859375
16,-2261.1287,6125.917,-420.96442,-1111.2848,-472.9495,1350.1715,8254.6943359375
17,-199.73984,2112.9324,-1448.6051,407.70694,-393.90018,328.39447,3329.265625
18,1963.672,3851.0972,3140.4165,24.377441,-571.5243,569.8927,2163.82080078125
19,-1797.7456,30.387373,9793.213,-3202.3035,-1419.9484,-3066.6333,13473.2431640625
20,-20468.145,4279.442,-38580.543,-4476.36,1219.1473,1786.953,38247.7734375
21,2653.8135,2159.8345,4008.9106,1255.9524,-1120.7104,959.81964,3743.48486328125
22,-10625.52,6541.512,-10687.778,1835.8817,2716.5574,1617.7654,18327.072265625
23,512.1286,1659.7306,6829.3887,893.0266,67.588905,677.6445,6144.82421875
24,656.83856,-3065.9695,-7758.624,499.6404,-111.65642,943.04755,7536.87548828125
25,-448.81296,1906.8488,-6297.9385,2027.245,-303.26547,110.419754,8135.208984375
26,1254.1003,7913.5283,16628.244,475.1427,261.71912,-1335.1534,13585.2841796875
27,2988.389,4552.5586,14450.144,3054.9158,-871.7377,-919.66223,12194.46484375
28,-695.6138,211.46236,-3445.6963,-2131.1284,-315.08658,-1016.60046,5282.392578125
29,3496.6663,-3599.862,-2242.038,-116.016365,498.86774,1607.495,7148.96337890625
30,518.18695,1679.9377,-766.82904,-140.94489,563.3381,-1001.4522,2917.904296875
31,1597.1619,2955.655,-748.92755,-103.76834,-57.141518,-193.32896,3269.71142578125
32,173.64217,56.67408,2435.6436,1302.3431,2281.9956,-631.8526,5225.2685546875
33,385.12,1940.7755,-3612.9028,115.48838,453.2355,-679.1068,5163.68408203125
34,-1835.0747,28.487228,6217.714,948.05914,218.29088,-145.55164,7497.75634765625
35,1342.9294,-571.6772,-2523.6655,295.40475,-1464.3145,652.8115,4380.205078125
36,130.4803,-157.53432,-8115.218,-717.1158,-436.26608,-770.34064,8342.279296875
37,3983.8486,578.17706,2632.5098,-1647.2416,-533.16943,606.2182,4349.4853515625
38,-1074.1416,-1835.7844,-4798.053,954.78986,-533.46295,-462.42667,3980.13330078125
39,4291.2607,-218.53618,-1868.4342,1371.0255,-37.454494,-227.8874,6024.97119140625
40,2700.2383,1728.0216,4290.3086,1577.7499,134.93977,-758.1748,3777.09130859375
41,608.44275,834.36273,-925.4278,-1137.7883,-640.9268,-769.10675,3104.98852539063
42,-7577.7563,-5950.4814,-16824.45,-8223.444,1227.4087,-2225.6807,18040.287109375
43,8528.864,-3190.8503,7040.343,-1325.4808,1740.9359,1229.546,11875.2255859375
44,18929.707,7173.18,41100.566,5148.634,3492.9028,8368.409,34880.2578125
45,-4500.035,-15060.215,1554.4843,8958.895,11188.363,-560.34937,28798.91015625
46,-3591.463,742.5615,-3163.8296,-5106.126,6515.3125,-146.38493,14924.5771484375
47,-2802.653,-5206.0195,-3387.703,2310.8704,-4199.0664,4279.318,11338.7333984375
48,-9893.4,4428.9087,815.7058,-3526.068,8962.6875,-10794.466,28183.0546875
49,1940.0305,4476.1685,1641.3861,-4406.36,-9811.568,2749.4421,19416.62890625
50,5678.877,-6760.193,-4080.123,-261.54498,1630.2655,-1112.7117,11851.943359375
51,5494.931,5956.454,-9026.102,3526.807,1144.2018,-217.10843,16098.4248046875
52,-1775.3804,-3271.2473,-8528.814,768.42584,1795.0128,1452.3698,7450.50537109375
53,-8134.383,-8252.064,-32065.268,7808.676,2428.7412,-12223.835,34910.94140625
54,6286.751,923.84467,19091.28,-4612.5493,4095.6165,-1220.4473,19493.68359375
55,-3062.176,-2501.8357,-17768.32,-5527.6978,-4304.25,-996.7638,19366.25390625
56,2033.0057,3310.9539,4360.3135,-605.57,492.01797,-975.7538,2959.39379882813
57,-3691.0486,3283.3528,2332.7031,239.00282,1196.3744,3486.9062,9157.3271484375
58,-661.0458,2012.516,-4914.7393,1389.5667,-1787.7214,-1007.20514,7418.7783203125
59,4603.5205,2055.9238,7302.906,-958.0431,5389.2773,-1022.2855,10661.873046875
60,-694.6578,1317.3794,-8234.863,2398.502,-168.01053,-1302.8558,9925.19921875
61,529.72797,-983.8102,-6094.511,2186.9863,652.795,167.13748,7201.12890625
62,1528.435,-43.51856,530.6268,245.67326,-804.30963,-330.04614,2084.88623046875
63,-171.17093,4156.7954,-2774.141,1753.0085,308.53625,-247.60011,6816.2255859375
64,2563.21,3090.0427,1632.774,1119.3256,-1270.8973,-115.35179,3205.86572265625
65,147.05226,4023.8704,3533.6675,1210.3691,-191.98152,-620.53046,4362.375
66,82.218185,707.71906,-764.6258,888.51215,92.06362,223.08682,2044.79565429688
67,1197.0781,1489.2379,624.72986,337.8849,-276.50433,-964.38464,1985.48046875
68,1260.82,1506.4113,-1638.6183,528.7406,86.63592,1430.1987,4022.03393554688
69,471.5197,1404.0618,-2132.0461,708.1381,-593.9512,703.06854,3757.89208984375
70,3225.2114,3140.0266,610.3466,4.1106825,3.59338,279.249,2618.4072265625
71,1381.1987,1144.586,-2808.1707,636.3432,197.46304,1172.4918,4698.03466796875
72,572.452,2095.5947,-2345.2063,1196.8546,-120.63319,860.0602,4672.9921875
73,1017.2418,1799.9102,5784.6523,329.4863,328.36407,157.31932,4509.19873046875
74,884.76074,-4840.0166,-2880.7297,-179.02269,1632.8441,-2468.058,7194.72119140625
75,-554.9855,4289.5254,2371.9548,1208.6127,-2198.151,893.6751,6255.43505859375
76,-672.46423,-4058.8096,-8517.749,2880.5256,-315.5953,-273.85095,8477.3251953125
77,2957.2026,3334.9614,1321.739,1857.8207,-2761.2415,251.32072,6070.6337890625
78,2793.0667,10048.482,7842.2285,1824.5981,3085.7522,-954.2929,9098.7041015625
79,1633.0525,4048.7576,16417.365,-570.0977,-688.172,-863.91705,13904.380859375
80,8255.644,1138.2937,19830.496,-1563.6973,-306.99597,-2798.0393,17266.193359375
81,-2078.6482,4762.51,4981.6826,2889.911,-2172.7197,-7036.294,15365.3525390625
82,-1254.9149,-10567.687,-28614.725,2213.6638,720.3927,1231.047,24521.328125
83,-10471.757,4791.8286,-8947.947,-8277.34,-13732.181,884.8795,31395.07421875
84,-871.6941,-1904.3014,-4825.9707,5757.311,3097.3691,-112.17601,11869.2080078125
85,-4243.2466,676.22833,7329.647,10391.537,3838.3337,723.66516,21700.740234375
86,1239.5824,-2722.262,12531.799,6473.209,6467.6035,-1521.1603,21120.775390625
87,1123.4124,5100.488,7883.546,328.27692,659.06885,738.19037,6155.66064453125
88,643.97723,-524.9122,61.474586,3079.6765,295.61948,2063.0637,6519.87890625
89,1023.21454,3267.592,-711.2011,693.38116,896.37177,536.29956,4080.8994140625
90,-970.73706,792.2259,-172.82127,586.83673,144.87793,607.2923,2130.85083007813
91,917.58466,748.69324,3718.5989,1082.2036,-291.38275,-974.0899,3868.07836914063
92,-4568.0405,-1235.9907,-12124.874,589.0854,519.9686,-226.00252,9766.9560546875
93,-1416.5728,3177.9062,-1822.6803,777.22375,-1124.2281,-243.24954,5377.8642578125
94,265.07233,2328.5984,1986.5448,-907.9755,586.9566,-41.190037,2679.77734375
95,2086.297,4689.22,2194.075,1310.3947,-755.0561,802.2465,3911.37036132813
96,1603.0967,5069.312,2484.1,348.3178,599.11993,-84.5487,3346.5390625
97,485.15198,854.1544,2922.3174,2045.9646,1537.2101,1479.5013,5602.708984375
98,-920.1811,2114.0654,4353.115,1801.9678,-845.2223,-142.40366,5741.00390625
99,2456.4512,2417.4832,1012.1118,-756.05615,1812.2622,903.61005,4006.07397460938
100,2871.9578,942.84607,-1070.183,-161.86092,367.98532,418.5699,3559.15087890625
101,-5859.427,-10377.393,-10873.91,-2599.327,1047.6447,5939.559,12340.951171875
102,-8980.555,-3064.4707,-38497.684,-2269.39,-5603.124,-4639.614,35427.39453125
103,2267.426,-3719.2974,-12666.635,2394.611,-801.4073,1112.9742,13867.4560546875
104,1596.0566,-347.73087,8300.93,-140.08368,471.00644,-600.82184,7973.32177734375
105,458.36755,439.7331,4154.1035,-1671.7346,-250.55855,998.06067,5028.765625
106,8116.21,-2541.9224,6393.467,3016.3403,561.8962,-1007.21124,11379.27734375
107,-4015.9033,-637.6131,2489.0398,1571.982,2197.8567,-707.1946,7426.77734375
108,-1936.5643,2306.8413,11086.783,-3123.345,931.7272,6768.8027,17368.677734375
109,1219.907,-3057.0908,-15406.738,-2130.2742,-4949.961,1531.1648,17826.380859375
110,145.74644,-2761.26,-11690.174,-422.6164,-2229.306,2271.2473,12043.8173828125
111,9561.703,-5558.2676,-850.90155,-8940.884,-1828.2101,3555.053,21618.46484375
112,490.60068,3112.313,-665.41785,1410.6384,-291.6313,-1097.6527,4591.28271484375
113,369.1636,1484.1173,38.937828,1671.9725,67.97925,-244.84694,3209.44677734375
114,772.5097,5211.3003,469.52658,1254.202,-133.47601,-1232.8412,5520.1220703125
115,973.87604,2193.4895,288.41174,137.01056,459.48007,1286.8889,2907.103515625
116,-50.22686,2645.4722,1125.2935,-121.779655,291.9545,138.33607,2416.07250976563
117,810.2331,1696.0692,2255.9785,332.23196,-207.9544,-273.3716,1509.72094726563
118,1302.5508,1119.1139,-3856.099,2447.9277,249.21458,1528.4803,7132.40234375
119,-3369.859,1596.2822,3661.7153,-1737.3179,1914.346,-3356.2722,9645.126953125
120,209.97244,-797.8816,11806.115,1178.9987,-1486.314,10.715152,12568.6650390625
121,1919.8041,-443.34317,8017.5664,-1731.3982,948.1993,18.042805,8298.7060546875
122,1840.5991,3450.2427,4615.4917,624.1156,643.70886,-1147.7102,3491.09643554688
123,3010.4016,2131.0396,-5775.641,774.62885,649.96686,-1449.0702,8922.3681640625
124,5804.1436,-950.97675,661.1978,2820.4333,-661.9271,1782.1517,8488.080078125
125,2525.0283,1209.8745,-1072.1611,-133.50713,634.31934,-184.4495,3361.72045898438
126,2684.8613,2319.2456,12127.01,-3413.0557,549.9937,230.4668,11346.9697265625
127,1734.8605,-839.5229,-4498.0073,597.9111,578.98364,-496.88525,5678.8330078125
128,1293.7751,1312.091,-290.81857,1322.5426,59.02815,-935.37354,3228.44799804688
129,-7824.5195,4379.2876,-22933.182,3435.9307,12339.48,1762.3196,32605.373046875
130,-5817.6577,-1234.2031,-12418.675,751.04407,3483.286,751.9217,11602.8076171875
131,-1383.6775,2032.5275,-6145.2,3404.9036,-2864.0308,2492.749,11341.8876953125
132,3408.809,5302.641,9018.86,1501.1313,-261.51212,-1743.5299,6365.51806640625
133,-968.7303,-5314.5615,-12590.747,7277.9,-5960.232,1193.0338,19318.30078125
134,-8889.06,2871.4468,-26972.703,275.4765,-1937.5198,-918.5585,26306.298828125
135,-1903.408,4248.622,1279.7045,-1212.0012,-1037.8015,500.38184,6065.15966796875
136,-3499.6345,-822.87775,-9840.674,1625.1687,-1428.0326,-780.3257,8956.2998046875
137,1743.4352,3843.451,-8345.952,-5629.757,170.44087,-2605.7598,15586.3173828125
138,109.17267,3018.8616,3041.5088,-823.4878,-55.72687,1041.5236,3718.96850585938
139,4210.851,1018.7287,21688.498,276.2659,-8636.349,929.95123,24454.68359375
140,5488.824,316.93958,8718.443,1259.7716,-1284.1981,177.6549,7980.30712890625
141,-14459.862,-10764.645,-13654.97,3159.8853,-1553.7754,-2009.5068,7787.16015625
142,559.98285,-1533.9045,-2069.1472,-3948.4546,9124.168,4562.5664,19098.81640625
143,16765.775,5264.124,31985.613,-10139.421,-4641.62,3358.293,30755.107421875
144,2192.9963,-3084.4543,4378.3154,-213.93056,837.15497,-1326.4304,7188.74560546875
145,747.2298,-1095.6963,-7232.255,1116.4062,-12.447177,583.4271,7558.01953125
146,697.4072,538.6646,-473.42734,347.02032,-184.228,475.4615,1533.45092773438
147,707.0598,4134.98,-1490.9855,1239.7883,-703.6765,-677.38715,5620.5009765625
148,1605.4088,1205.6357,-1524.102,274.6298,-425.75595,-542.38416,3217.94555664063
149,540.77203,661.1467,-1454.5774,774.76935,194.39615,589.002,2681.61157226563
150,-308.3408,868.85754,-2397.827,680.6182,314.64603,597.8501,3312.17333984375
151,1942.879,2454.3967,2007.6211,622.49274,-19.75143,85.01632,1190.82763671875
152,10931.4,6101.0933,23386.996,2588.8157,-1150.7551,2014.8146,16579.9609375
153,16602.691,4661.173,45988.703,-92.2067,-2986.083,5264.259,38300.96484375
154,-2895.9883,3845.1675,-7335.185,1241.5955,-4189.7896,2987.573,13384.2978515625
155,1685.457,1134.286,5441.1426,2129.6304,-428.11624,-1097.4508,5852.1796875
156,1315.8838,1467.5072,3961.6536,-763.31714,1042.6301,337.86755,3460.28662109375
157,2438.1824,4261.6616,8545.865,-331.72012,197.93808,-807.35425,5647.5439453125
158,2845.8962,5848.2803,7657.052,618.4976,413.85092,-1050.772,4763.443359375
159,2656.3508,-1409.6049,-9071.625,488.92307,-941.536,851.8177,10580.423828125
160,2322.3062,5184.0474,5854.4487,-1362.0468,-978.1803,1238.9944,4857.86572265625
161,696.3126,-2317.0466,-2913.4377,-1314.3374,1185.2163,-21.41587,4542.1572265625
162,592.9484,-4326.6733,-9187.549,-1757.6703,97.46077,-2997.1318,10391.802734375
163,6248.032,-2490.8882,-1411.1395,1182.5002,-367.31653,1727.9768,9036.37890625
164,-6629.7563,-264.48117,1209.533,-841.75635,-2045.6412,-8282.516,16509.140625
165,925.2239,-3540.0737,9157.247,489.66586,-355.83563,5493.4487,14700.2265625
166,3669.0562,2370.8228,5769.113,494.64883,230.16539,-1628.9325,4204.1923828125
167,1943.6417,936.7814,21409.146,1820.3768,3127.0332,-1222.1378,21054.1171875
168,-3577.5015,-1195.7173,-3059.0461,2717.9185,783.83984,445.08704,5413.46533203125
169,-4631.7856,11307.182,58.451008,4564.962,675.88165,-2001.5898,16649.25390625
170,-5084.292,1162.3838,-11990.877,7529.433,-1623.7684,-2642.2695,18132.755859375
171,4121.636,3253.755,10923.776,-3469.3784,1077.7048,3593.6602,11457.0087890625
172,2312.954,-941.13495,-6002.023,-2394.6233,-810.4887,-1121.88,8695.9443359375
173,-119.27087,-2453.9302,556.28754,-1715.0911,-1652.6786,-1258.8953,5409.0029296875
174,-2100.2078,-10181.2,5308.4043,5587.9233,-1780.154,-554.48175,16857.12890625
175,12502.357,3399.361,26676.271,-3793.6738,-2458.1694,12983.104,31301.373046875
176,10404.1,8710.364,-9922.65,4577.854,909.06866,2527.3833,21590.0390625
177,199.87195,3363.7625,4308.3374,-31.786509,-866.07275,876.3305,4295.125
178,431.27246,2207.5469,1755.5051,411.33615,244.78093,-1157.6157,2695.201171875
179,-2488.7017,1220.311,8762.9375,4771.7744,-1471.607,1170.877,13324.5234375
180,56.84949,773.6199,-3263.4753,551.7187,-154.143,562.0323,3981.2470703125
181,-1070.254,4113.4756,-8815.608,-598.05884,-2858.7244,-1724.2872,12709.083984375
182,4492.638,5335.653,-2667.2288,2441.523,-878.3466,-2653.753,9966.6962890625
183,4823.5366,4035.042,11794.033,1112.0851,1882.506,507.80362,8355.8974609375
184,468.75076,4528.252,2009.7505,-1996.2017,-1260.9349,-839.41876,5606.84814453125
185,-214.6486,3636.7712,-611.66473,1044.8623,1078.9064,-103.38733,4829.02978515625
186,1096.1805,1471.8799,-100.594315,445.1952,229.71281,710.29297,2071.10986328125
187,22017.4,5808.2637,24060.111,-1629.341,13345.823,-3216.0518,29552.421875
188,9520.857,9699.401,9614.902,-6435.366,-1583.5923,648.45416,11534.7529296875
189,-137.86469,386.82028,-195.99675,408.39627,-292.7225,-64.741806,1038.83154296875
190,1996.142,-778.0577,428.68854,542.5699,357.48358,-1.4222306,2659.17309570313
191,800.5107,1290.717,3837.586,-138.44423,-1151.3407,85.63859,3468.65869140625
192,1141.8103,-708.9604,-8577.717,1766.8381,810.5981,1258.5951,9797.677734375
193,1484.9347,-1730.4878,4787.7427,-2461.8645,1537.1761,2895.6536,9071.54296875
194,1475.8301,-3372.463,-4187.1333,1665.048,515.63226,419.2384,6145.03515625
195,443.81766,-1130.2703,-16111.273,-1772.79,969.17145,-1162.6825,16333.7490234375
196,4146.499,-3228.14,1057.0043,429.0958,-1408.8715,-453.27362,6947.6513671875
197,3155.2227,-1054.7242,882.1744,-255.70718,367.3733,381.4415,3789.26513671875
198,2920.148,-78.75378,-483.82205,-1773.2919,-548.4781,-51.87974,4551.53857421875
199,6937.1167,-2274.9214,4921.974,-288.51044,294.1591,-2338.4854,9342.0400390625
200,1292.4421,-1136.4132,2999.6682,-1163.9286,-77.094505,-354.93793,4173.79052734375
201,6697.5796,-2866.9614,1058.9554,-3747.379,900.8736,1744.2919,11092.0966796875
202,2627.0793,-10318.997,-17775.148,-499.58334,471.60324,-1259.1578,18052.572265625
203,-2887.6763,-3957.093,597.54474,-99.26622,-58.327824,-417.32138,4192.82861328125
204,9649.541,-3891.4917,5042.055,1533.0588,17.982895,-418.05215,12238.2373046875
205,10040.3545,-2209.398,-3318.4358,95.73464,1172.2377,-1109.5592,13142.1123046875
206,921.8209,-5563.435,-4921.459,2153.2432,-133.80896,877.8004,7387.9619140625
207,2378.2122,-8324.058,-6161.66,-285.71994,1702.9889,8.992056,10247.8115234375
208,-4806.892,-1050.4552,-2032.4381,1062.1659,-1287.3157,-208.47777,4457.89990234375
209,-6808.49,-9761.335,-4126.148,5563.142,-1200.95,-2235.1614,11661.6943359375
210,-5730.483,-430.46924,-5154.531,-4185.051,4964.977,-276.29834,12332.69140625
211,-10237.827,3139.5527,14325.985,3402.7927,-5769.178,-1069.09,24325.951171875
212,-8196.829,11629.938,28852.93,4919.3677,-7364.351,-2632.0823,35878.87109375
213,-2634.4094,-7685.4897,-30407.04,7786.8267,-5781.232,4309.557,31534.734375
214,-4239.1196,-3007.5044,-35040.668,-8473.18,6543.6445,-880.6872,36528.84765625
215,-10196.037,-2181.7666,-25835.121,-672.2479,6446.2344,11009.19,30393.580078125
216,-12361.519,12476.752,-16135.24,-925.3236,6720.554,7473.338,32101.900390625
217,-31195.19,-16395.146,-45683.133,-509.53027,10136.599,10037.894,35421.359375
218,-1852.8766,-17267.092,-22626.107,-4715.8696,8152.637,4289.8228,25889.08203125
219,-5458.372,-14980.758,3593.2837,4552.663,2954.439,2046.5736,18966.640625
220,-5538.0674,14158.397,-871.10254,-1897.1141,854.7679,-1955.1497,18500.416015625
221,-9448.999,2463.2957,1401.124,9317.514,-2148.8687,-5472.2593,22237.716796875
222,-1631.2499,5867.245,-1328.7883,-2590.1262,-650.54285,2549.5234,9744.0751953125
223,90.866776,3841.2256,358.66125,-3133.42,163.29668,279.58746,6549.96533203125
224,3741.8328,6997.4297,4237.7715,-3511.5012,-336.8501,151.46927,6828.72216796875
225,-1102.047,-1539.1002,2350.031,448.46915,408.398,599.7251,3974.83984375
226,-2678.7722,2451.2268,989.2535,1601.5586,661.2759,1317.8937,5930.57275390625
227,-8566.736,700.45465,-9097.732,40.600628,-1318.7454,-44.421577,9813.85546875
228,-550.8662,1461.0781,16839.223,2596.0447,2745.5742,-109.784,17729.755859375
229,-4080.392,408.94794,-2713.841,1711.5419,-1127.9442,-894.98444,5558.29248046875
230,559.14514,2900.2507,14043.971,2474.3872,-392.46884,1222.6583,13381.5712890625
231,-3203.9634,3988.9546,2871.1152,-2498.6467,253.1238,-1450.966,8377.64453125
232,240.86644,-367.71524,2154.6787,886.95123,-263.20782,-354.932,2853.69482421875
233,-2031.7975,1499.1584,-2523.0237,-275.2513,-170.67525,35.6037,3842.12646484375
234,-2253.0342,1209.1692,-1095.6821,972.0,-410.0476,-175.17508,3570.73608398438
235,235.35504,1539.2623,5109.3,1239.5244,322.4357,-323.172,4933.033203125
236,484.35956,-2295.6367,-5426.1953,373.41757,-1246.4302,179.93953,5604.27880859375
237,520.5062,937.06586,437.5113,869.8917,-370.56076,-873.86816,2277.71801757813
238,403.14688,-1138.181,1098.7178,1140.7997,342.77744,-152.08072,2873.6318359375
239,95.25179,-609.49445,3150.7402,1611.138,-120.23187,-158.73787,4460.07568359375
240,-136.61557,757.9256,3274.1401,937.32404,-284.4879,-302.6462,3540.58056640625
241,1079.992,-319.19,-2560.2693,808.873,-317.5751,1215.7645,4100.666015625
242,414.0239,634.5624,-206.2862,209.7227,417.9185,-453.862,1357.98181152344
243,802.8347,1627.8253,-3739.9697,1363.9963,-197.75398,-175.75307,5554.8984375
244,3510.8672,2326.9502,5403.5493,273.73718,136.28055,745.2,3028.39331054688
245,1080.4989,-792.885,416.18298,955.92615,-117.218605,278.95663,2392.15795898438
246,1913.3866,666.524,226.65067,82.465996,273.77017,-888.38403,2215.74975585938
247,955.88916,2060.0774,-36.032536,525.3157,635.67163,-772.63116,2670.091796875
248,2079.1858,932.0625,1779.4235,440.6459,374.12964,-160.56589,1463.43933105469
249,-2213.2224,-983.96747,-2112.4136,694.4457,395.54886,-394.73007,1944.45031738281
250,3898.8354,3168.971,8518.905,1632.4634,-194.46056,-676.9489,5893.45458984375
251,230.96118,-3385.0544,-2785.7231,-1166.1632,-732.3019,422.93613,4182.4404296875
252,4572.9316,-5683.5806,-2180.1946,-2920.2317,1806.9589,1271.604,11034.7958984375
253,-4545.233,-3966.3237,-13693.51,-91.28753,-1848.5765,719.2215,10057.369140625
254,-265.7299,-2220.799,-4250.328,-103.52678,-1482.2916,1004.3857,4643.193359375
255,-803.4116,-7996.846,903.3713,-2199.0767,5192.2793,1088.4081,12879.333984375
256,5523.056,-94.444046,15168.296,400.31207,2432.5442,-2869.8665,14889.9326171875
257,-979.1519,-7021.857,-3800.7566,-2706.3638,1146.2091,2518.626,8507.09375
258,-6500.4565,-8273.648,-9920.847,-311.86572,-1409.7637,-7.1611514,3877.17749023438
259,-981.31793,413.71136,-2250.5464,-732.94904,92.17246,-1451.323,3644.69555664063
260,-720.74536,-7105.593,-14616.455,-2717.6057,-901.8381,3740.0798,14549.7666015625
261,-975.17505,-5500.192,-6910.122,3247.772,-391.98972,1839.6844,8432.2001953125
262,870.8871,1310.6478,5082.1934,-8649.378,-5192.338,3347.4158,18841.66796875
263,-6471.975,3153.2031,-31154.992,-4899.94,2879.7747,1213.3182,32261.3984375
264,1497.3151,-2161.6023,16803.227,-1853.6344,-1781.1177,-6457.8735,21180.158203125
265,-10521.453,13003.559,-29212.766,5550.088,-4800.144,736.52167,38802.921875
266,-4328.447,2623.4937,11669.974,-1640.2686,1528.4613,-160.05795,14429.6826171875
267,10868.913,11506.114,36167.887,1090.237,1927.1235,-7504.3315,28424.9140625
268,8211.336,3718.7864,-18748.947,4826.1943,-1968.0563,1505.4329,26724.794921875
269,1048.879,2376.173,6467.8794,-390.99396,-983.9191,5328.323,10605.21875
270,930.4747,-591.6475,-5713.3457,2243.0967,3004.3677,1924.106,9467.00390625
271,3224.5889,1544.6001,19775.291,982.8183,1445.6268,5107.0957,19798.173828125
272,-2567.9236,1252.8931,-2624.2786,183.55193,-212.99767,-274.68292,3909.04956054688
273,-1444.3577,2592.922,-841.9412,1244.3683,801.5212,886.057,4812.31396484375
274,176.74377,2204.1443,8460.663,-1746.5753,-895.7972,-34.44414,8215.919921875
275,-1477.244,1163.1249,-4497.7046,2342.5942,-865.9179,950.7925,6744.9658203125
276,-253.33578,3800.4126,9374.271,2313.5337,1685.0807,445.54443,9760.48828125
277,-327.17053,2246.8706,4034.1858,1763.5668,1477.2307,-678.25134,5628.322265625
278,-1078.416,-3123.6501,-4628.9355,944.51556,975.66895,351.10892,3928.03759765625
279,1333.2919,-7684.648,-16065.933,1117.9375,-827.79065,962.5521,15353.6865234375
280,-826.5267,-3197.9648,8099.203,770.66254,-1305.3656,475.0642,10678.48046875
281,-2653.5464,-3521.9463,-15750.029,1339.1123,849.1101,-3575.1907,14380.1103515625
282,-2732.8516,-510.03607,-6191.1323,825.21356,-317.93268,-603.3886,5293.97265625
283,1074.7415,981.92535,2786.0767,529.5023,169.83286,-44.61756,2007.421875
284,-653.973,-1178.826,-2671.8687,1245.4563,42.56767,521.9318,2960.47875976563
285,2176.544,1167.2675,4165.6616,-725.63495,125.09659,-1193.3245,3589.07421875
286,-3718.8352,869.1255,1502.9934,2159.9575,323.23553,231.04443,6231.3056640625
287,-1080.8014,3206.0164,-661.53644,-1502.6721,-3.3174164,131.42801,4856.0478515625
288,2059.704,2373.2253,12725.353,655.826,47.09921,-745.61566,10652.4765625
289,-7143.6787,-3863.4692,-15750.143,-1531.8661,-703.8444,615.82495,11078.166015625
290,31081.018,11317.376,54996.87,-229.14433,-2574.9993,2464.122,38386.1796875
291,-1963.0,-7177.1143,-9030.041,1947.4341,163.80441,1145.2572,7461.537109375
292,-803.4208,-4708.4937,234.09781,-3321.4585,-632.3641,-316.19153,7414.4091796875
293,2458.9036,-4997.0005,7428.4326,-3765.0928,-952.27454,917.57733,12849.6357421875
294,6068.0435,-4486.1353,-4561.4585,-1.0149802,237.4029,1762.2401,11030.724609375
295,5375.8164,2298.046,10285.453,-293.30017,-56.90645,1152.4978,7276.02099609375
296,1508.9647,-21.52689,758.9186,966.5456,9.129485,36.229656,2136.31762695313
297,2578.2422,2658.9443,1596.9543,1029.258,-1300.5411,-600.582,3222.2763671875
298,-410.30414,881.22046,1478.9418,-1592.9861,-64.825455,82.844765,3231.60766601563
299,1606.5168,-467.03647,-3283.8137,-778.634,-22.015057,130.38132,4466.07861328125
300,6790.7354,-8520.29,17448.764,2839.2253,683.82904,6506.7236,25764.41796875
301,-7929.029,-12178.11,1177.5747,4857.4897,2649.0554,-3483.4358,16368.283203125
302,-5168.58,4918.5015,7115.4556,5157.9395,-2124.5476,-3707.2275,16227.1806640625
303,-7606.787,5034.168,-8935.321,144.50809,-35.15151,-247.41193,13364.2314453125
304,-2709.9133,1749.7587,-2695.5989,288.8818,-833.26514,-1008.2217,5020.74951171875
305,5493.627,-2304.1147,13278.98,-1091.7131,-2367.1453,-5048.211,16702.203125
306,1281.242,2985.2458,7389.7954,-1465.0447,300.25183,-1484.1172,6567.068359375
307,-928.877,833.6364,3391.7517,-1169.1841,647.6365,727.68024,4594.22998046875
308,-4519.0435,1391.4681,-6408.0215,-167.4519,-729.42737,-103.81385,7167.974609375
309,-2222.3928,314.8994,-417.48975,2039.9628,-466.7017,25.922235,4272.6748046875
310,2779.67,-4170.2812,1565.1559,-3801.8574,1120.7645,274.80362,9417.7119140625
311,-2606.588,-1868.7726,633.51,2294.5115,-145.83792,-878.3305,5179.2431640625
312,-1840.7253,-10576.273,-23883.959,-1158.2699,1516.4431,553.94,19531.982421875
313,-2389.3806,-2405.4495,-4250.6533,-621.3375,939.46497,82.727554,2694.65795898438
314,6328.8174,918.4625,24561.041,5745.321,1813.1765,1925.8788,24090.345703125
315,1259.9174,-1158.3481,13868.519,2715.551,959.8199,-3164.9578,15819.388671875
316,-1833.9736,-1934.7872,-155.38739,1535.9669,120.9508,219.27863,3203.55419921875
317,1283.8921,1256.5695,7665.982,641.13116,-1161.4757,-512.00653,6853.67529296875
318,1901.9875,-2736.568,-1911.4347,-395.99365,697.77563,-380.06137,4553.466796875
319,1411.4463,-3660.4724,13427.262,-920.5242,-1369.2803,-1221.0874,15610.4921875
320,895.8578,-3522.0964,-3153.4067,938.846,1054.1075,269.1543,4921.427734375
321,1225.036,-2978.6443,-3862.3948,603.6183,-586.6802,212.64726,4942.49462890625
322,14028.401,3572.0828,3255.7812,-10582.8125,2809.8625,-918.0066,21793.208984375
323,16266.146,-782.9195,-10829.594,5970.095,-353.69827,-5548.5063,27614.341796875
324,26517.178,5175.347,37950.68,712.60565,6041.026,-13273.221,38337.33203125
325,838.86646,15834.074,3586.694,-3447.2373,6754.755,-10071.381,25846.298828125
326,10048.246,-7631.92,22112.584,14807.47,-5340.3755,-5510.5415,38805.625
327,-20008.945,-14981.805,-7149.9014,5530.228,1666.4735,5443.5444,17747.14453125
328,-8401.476,10803.124,-6739.882,4294.4185,390.26038,4792.4346,21548.841796875
329,1226.4224,1470.5475,2946.7893,1133.336,397.8529,-643.68097,2858.40209960938
330,-356.29175,-125.11985,-1434.7101,506.78104,-80.10887,-255.84717,1565.83312988281
331,1601.7355,-901.6413,-162.24153,1019.7488,25.249157,561.9609,3005.259765625
332,-789.3289,1149.4536,-5947.843,286.00778,-776.83575,291.3004,6533.05224609375
333,-1371.1572,1760.0568,-416.89563,-1114.9427,941.4652,349.70984,3805.57104492188
334,2916.945,-9141.678,-10225.595,2429.3628,-4481.977,5270.052,17914.962890625
335,-990.3023,-1371.5328,9328.376,-1738.9254,1064.5587,-825.2572,11183.41796875
336,-1958.6538,2396.591,2904.7615,-766.6504,10362.291,1802.7882,18843.677734375
337,-12612.499,6448.379,-20459.469,850.2154,3048.2683,-5777.034,26544.84765625
338,2807.6938,151.99486,6070.26,-874.8758,346.0206,-1120.0826,5725.4375
339,-2035.19,-819.8425,1438.6216,1459.3152,-172.61697,-127.39964,3981.13452148438
340,-2311.3289,-677.4489,-1662.4335,1406.3002,-292.9627,-438.4779,2966.09545898438
341,-3680.7024,1104.2831,-10788.721,2671.3237,-661.50824,-27.840204,11408.5400390625
342,-3567.345,-319.34216,-8474.888,-189.2161,318.0626,852.26373,7291.3076171875
343,-850.89685,809.84424,1164.4083,1271.1206,-798.2891,-90.730194,3202.5537109375
344,120.42461,1030.3497,-290.1248,1251.1782,666.8924,464.23822,2836.7607421875
345,-1465.3488,2825.0752,-236.908,-820.37305,-50.76814,149.03871,4091.4150390625
346,9691.549,-22769.01,-14045.109,-2692.3438,1659.391,-62.362427,29607.94140625
347,248.62335,-305.0907,1260.6782,1027.3143,-241.48558,-205.37259,2314.91821289063
348,-3004.8228,2978.8167,-11258.304,746.2465,-2259.6484,308.332,13060.7666015625
349,383.04904,911.4542,572.13354,-1538.3901,123.77721,296.8844,2761.40673828125
350,-1924.8052,136.14612,153.30681,1495.4508,151.16917,-405.93127,3399.29370117188
351,12982.24,-1321.1362,18456.924,8820.945,7753.59,-3279.9941,27548.5390625
352,-1283.8077,-753.3803,-2470.59,1526.192,108.19011,135.03596,3065.4384765625
353,-1826.9073,2889.7732,3743.1003,1203.9722,624.30334,-107.47599,5705.49560546875
354,-3372.8726,60.45453,-2635.5723,1341.0853,-901.33154,240.07156,4219.666015625
355,-136.37065,-1794.0048,644.8428,237.92592,693.5469,-170.70464,2520.5712890625
356,2578.5132,1431.7454,814.68585,-572.2801,-33.574566,137.24164,1856.30383300781
357,1462.7682,-1096.3469,262.8779,16.868652,-960.16595,-136.3314,2782.17846679688
358,419.4442,-841.8242,-138.36163,-200.38968,55.894012,-94.648575,1164.09533691406
359,-1041.0216,562.81274,1302.8337,-774.418,-157.34523,-85.0927,2490.37158203125
360,-3820.6956,-6625.368,-7279.5957,-1377.5754,-108.57478,-2925.917,6445.19775390625
361,-653.012,-384.5905,306.02182,145.89503,-147.14525,72.519485,937.528259277344
362,5347.182,6134.7783,11117.126,10885.304,-7962.327,-4308.2837,25114.091796875
363,-1091.2277,-981.19336,-5330.048,-837.73645,3231.6118,52.308918,7203.44921875
364,474.8407,-1720.2744,-771.1485,414.04468,1322.6561,-188.05136,3082.94921875
365,785.8083,-2704.1746,-1654.0297,-240.61592,-900.9479,191.78381,3512.3994140625
366,-690.97504,449.48087,-264.01755,524.7133,828.57025,-75.01292,1974.44812011719
367,-145.54344,-174.87105,918.1568,66.4091,-51.341133,-44.655025,1091.16198730469
368,-1422.3313,7.3177595,253.19615,356.6605,-60.81362,-6.149858,1687.80944824219
369,-1400.8762,-634.0415,-96.309166,547.42737,-20.677483,34.087524,1480.99365234375
370,-1142.044,-372.82108,68.32859,-323.9779,3.9079905,65.01041,1205.51611328125
371,216.43663,-223.85985,-1065.5659,-344.8601,30.100878,99.78845,1289.30493164063
372,-547.0666,667.41144,-536.09766,867.3746,91.09402,213.37279,1969.8349609375
373,-1282.4059,-125.10318,-1907.3615,250.77913,142.4069,38.48977,1645.33764648438
374,1947.9923,1808.8508,294.81735,-105.690895,-146.36671,12.747197,1618.82397460938
375,-2039.408,-2905.815,798.99664,-419.94586,1470.9191,-446.62076,4345.65283203125
376,-175.75311,-740.7145,-368.7562,352.96906,-471.51245,155.06664,1166.30297851563
377,582.3555,-956.81726,-839.3681,717.85944,-448.0449,89.80028,2091.52197265625
378,321.71576,-618.68475,-193.59004,758.36084,396.06436,-10.317511,1691.61254882813
379,1333.0369,-250.23503,1438.882,595.16437,-302.10223,-20.733006,2005.81237792969
380,-1128.7743,-218.07443,-768.7463,586.8309,-222.72835,1.528007,1346.49890136719
381,-419.7368,-872.66907,38.719513,566.423,63.29014,-127.434975,1283.05126953125
382,-731.5911,1163.4626,2017.9591,961.0943,343.69104,625.9306,3200.24291992188
383,-641.9641,7159.342,5406.5156,-953.1904,352.17468,765.5669,7423.9150390625
384,-4158.9946,17510.684,8965.528,-3432.5132,212.25598,3936.9353,20961.962890625
385,-31316.15,-39917.594,-11408.91,-2847.6777,-4781.5786,-5028.05,28465.3515625
386,3477.5095,-13465.892,-7522.7007,-6149.154,5644.1597,3291.4958,21522.318359375
387,-970.94635,-1888.1267,308.8917,-810.7385,66.8396,45.97593,2375.85400390625
388,3048.0452,-681.0022,4022.316,-59.453022,-1103.2294,15.838118,4706.4638671875
389,9105.651,-2488.4043,1487.4713,-2157.753,-4262.349,-442.99683,13160.26171875
390,5754.4644,-376.11615,10188.041,-882.8016,-3312.2715,-357.3913,10956.9912109375
391,2644.84,-1103.8885,1295.7913,-418.1165,-1884.2347,16.134714,4689.5576171875
392,-1466.3168,6520.2524,5242.8057,-788.3157,313.2479,2389.548,8631.52734375
393,-1446.8754,1772.4639,3088.433,-114.15491,101.25556,261.05566,4075.14086914063
394,-352.04117,2120.465,4372.815,610.2064,484.39432,1463.9835,5000.60302734375
395,497.1524,828.5409,1027.494,-334.71002,224.81903,-78.95406,849.562133789063
396,991.84344,-1629.297,587.0568,475.05017,-274.51178,4.627084,2622.28515625
397,1470.0002,-1101.5698,616.3725,815.0444,458.45483,-108.55211,2793.79223632813
398,-683.13135,816.52747,482.94858,-92.869286,261.74887,63.780483,1450.38354492188
399,-724.85144,475.57355,-1982.2395,386.23795,-41.73419,148.24948,2247.25219726563
400,17.29713,1059.5212,1714.5234,254.8096,64.2161,-107.00833,1561.86596679688
401,879.75824,735.8548,1121.7063,152.59142,-404.65146,-308.68793,980.31103515625
402,422.32712,-599.5171,-199.0325,190.35748,72.94871,88.85121,971.430236816406
403,-138.1416,323.85852,-412.7996,-94.312546,96.306274,85.42458,701.551452636719
404,-8004.9194,156.7893,-971.324,-6936.5747,6978.739,3135.4993,19458.404296875
405,-376.313,2601.182,-4298.4526,-659.4134,567.92395,-47.367554,6181.06982421875
406,9904.422,1949.3414,-1441.8193,5918.2983,-4630.83,-4262.502,18046.59375
407,-108.29015,3.629016,110.42898,43.793285,-122.08005,-197.47774,450.934173583984
408,-55.04629,666.70856,-517.6988,-1398.7318,37.27189,549.2765,2801.3447265625
409,464.15326,-700.924,-286.09583,-277.11862,45.63096,49.151253,1135.8076171875
410,-711.4404,-340.7671,-935.5492,-952.09393,-523.8805,240.17363,1996.63354492188
411,-1025.9003,-962.77203,-1037.1077,510.17316,653.0755,50.29632,1439.70837402344
412,300.02936,-94.179054,-421.43747,382.8232,86.390366,-101.014046,940.302429199219
413,114.89706,-70.0399,186.7028,479.49066,-414.7466,-19.477983,1122.29833984375
414,198.60039,-308.15945,407.5165,395.5132,454.6766,82.16584,1231.28381347656
415,4683.006,17962.182,11392.923,-5079.3213,-7081.528,-65.551674,18976.638671875
416,246.79893,437.72485,1288.7449,237.27306,92.94481,66.99161,1063.69396972656
417,-997.06635,-1745.2155,-2031.3422,-413.03174,381.18536,-104.279465,1354.98193359375
418,7128.721,6454.548,3243.4116,7346.972,-911.6825,1006.7775,13431.271484375
419,615.5579,271.44348,1739.5789,894.73016,6.5363674,-80.95666,2046.96020507813
420,-202.79019,520.9797,-369.37476,-95.87727,-114.1826,-90.11939,873.622924804688
421,-912.16895,-2266.103,-4646.917,-355.19595,-238.03732,-1650.946,4410.24072265625
422,-539.69574,1757.7101,990.81104,170.25772,-173.94458,138.22864,2083.11889648438
423,-8591.161,-737.1623,-3417.8225,34.34952,-3053.5278,232.51497,8715.2255859375
424,-962.3986,-1686.4661,-2873.0437,670.27606,6.7954774,-827.6264,2488.82446289063
425,-1596.3899,-2717.3347,-3585.4282,-1937.9395,-310.9496,-518.543,3917.49243164063
426,-124.13091,-789.12396,311.56522,-50.966476,-417.77036,-91.16116,1215.77209472656
427,-276.12,-217.74487,-1624.9785,-133.23659,251.05399,-157.99591,1489.56201171875
428,-1134.1628,-1079.6361,-3707.3525,92.80488,1169.5717,123.103264,3307.50366210938
429,832.6868,-74.70988,452.07648,-513.1227,-2.7652907,-17.064627,1188.96997070313
430,349.93637,-1010.1116,-1079.8047,208.89346,259.8956,-16.512194,1511.20422363281
431,-89.672844,35.83863,-735.39825,-304.75955,-153.00621,-68.11502,936.240966796875
432,-4047.8684,731.2774,-6226.0176,-2067.7676,4484.809,945.46106,10669.74609375
433,-1141.9312,-2859.3872,-1399.1162,-48.641132,-306.80814,-221.81313,1735.27807617188
434,367.06284,-343.74734,3192.771,-503.88196,-470.37152,24.90353,3453.36352539063
435,819.55444,-1226.3676,347.75272,-565.29333,-98.03119,-55.14955,2107.07104492188
436,-1617.2112,-205.87743,-28.077848,-312.19357,-115.35735,136.14738,1631.66638183594
437,-3.4084034,-365.30783,539.26855,719.2821,-69.594696,191.77472,1516.18835449219
438,75.17473,-1541.2657,-702.1438,-811.5648,114.93528,-71.40081,1997.86181640625
439,-2089.809,-1975.9167,-4362.0137,1970.7264,1824.6683,409.29175,5251.35791015625
440,25088.56,12272.019,8371.859,6352.598,4966.4897,269.3811,20609.3125
441,490.79388,-1049.8013,1683.2684,-562.1983,-227.08241,-227.96313,2625.13818359375
442,1377.5392,304.4006,1641.2197,-145.21046,-375.69135,46.93773,1413.30078125
443,-3290.6262,-2236.8445,178.1733,-463.3368,155.63985,137.50221,3203.29565429688
444,-223.80571,88.649475,1225.155,958.57776,-52.86264,30.608423,2124.19116210938
445,92.98828,110.613655,-1273.0479,680.3217,251.29016,154.0872,1881.38891601563
446,-1415.3522,-2444.6438,-2658.9602,264.75284,-401.13345,-225.51547,1473.61633300781
447,184.86995,611.35614,672.14886,-50.69363,-220.40175,-128.95168,644.080261230469
448,-2192.752,-16217.301,-7005.848,-9151.243,-339.95178,-1286.679,20221.3125
449,388.00586,-776.6107,397.61826,-4484.2754,2685.0474,-978.0965,9283.978515625
450,-1231.0652,-2782.651,-1255.2886,-469.04672,175.03088,-51.96912,1769.30627441406
451,246.24615,-121.020744,-282.65088,-172.65427,39.507225,-42.395554,565.573852539063
452,-366.39243,415.63577,-997.589,226.05003,-101.667076,-54.013836,1302.55419921875
453,795.16833,-1074.2052,-4304.782,-677.2966,-74.7292,1.3244404,4622.0439453125
454,306.85056,112.39924,-261.75003,-870.63995,-506.49973,-72.17451,1819.29870605469
455,-38.416355,-481.53357,415.7502,-512.1443,-31.584888,-58.999443,1184.98107910156
456,-2363.069,-2717.6008,-6155.272,-319.50815,-186.76949,-210.82823,3702.20068359375
457,279.96533,-3186.1326,-1139.8491,198.04869,499.08185,323.8241,3207.49072265625
458,166.97787,52.500774,677.4567,-688.672,66.51211,-46.039364,1332.12976074219
459,2651.6736,572.49115,-460.5455,2770.6501,-1238.8424,433.4737,5977.91162109375
460,-799.062,288.32312,-157.05435,278.10663,288.5879,11.619339,1174.20373535156
461,-116.75334,-682.90686,227.89731,339.03705,-834.7016,98.0895,1760.20520019531
462,4627.875,2046.4725,4891.717,-2563.7751,-2748.8633,-584.9028,7129.39306640625
463,-933.4368,593.1123,1606.192,1215.0797,-38.871616,145.43083,3066.01342773438
464,-2170.1648,-931.6608,1166.079,586.7238,288.09906,-18.09777,3132.91943359375
465,293.8208,327.9981,628.8269,369.7137,-161.81242,-157.1631,815.268493652344
466,620.6068,4519.042,99.669266,192.06415,99.41947,-55.850357,4201.1533203125
467,429.33362,-648.98016,-63.143436,309.49948,-283.86615,-50.232857,1187.82543945313
468,-20431.178,-5978.162,-7526.1367,1283.4299,6492.4326,2120.1716,18270.056640625
469,352.20148,-421.87158,-429.92053,296.59537,860.6678,-128.1314,1772.255859375
470,-14071.783,-6103.963,-9839.942,6461.768,2456.5103,1083.9236,13948.7431640625
471,-33.840942,1025.3759,65.0835,36.124596,-141.28923,-240.34279,1124.29565429688
472,2055.311,4017.3616,275.61447,1347.2133,704.4277,321.8666,4213.45654296875
473,1689.5007,609.22546,-184.21967,-1103.8325,-106.90002,-43.627594,2519.72631835938
474,2085.6948,-582.2457,171.6011,-57.702366,75.00984,-157.36156,2403.35791015625
475,-1624.6221,-84.86316,-168.51936,166.96518,27.531425,109.772415,1539.83813476563
476,-2092.6907,-1249.8308,327.06628,827.53577,35.00168,46.97713,2567.26782226563
477,-158.66998,-340.35742,-444.0872,-159.04474,44.936584,10.325481,380.631072998047
478,-2730.012,-1668.7252,-577.1141,85.73014,-267.6197,-82.06867,1932.24548339844
479,364.74304,-815.07886,-200.63168,138.41557,498.01776,-112.65809,1372.6630859375
480,-1747.0107,-1889.7032,-1177.1234,3115.1848,174.38489,245.06938,5459.94384765625
481,8262.31,654.093,2273.7236,386.041,-3679.4268,-1824.3732,9961.541015625
482,-3162.5872,-2486.2083,-932.68774,-777.447,169.57242,12.794098,2412.82202148438
483,-4365.3604,-2628.2498,-1256.973,133.69884,-6.598465,73.72306,2711.10229492188
484,-124.43544,-403.05283,-1117.2637,688.7054,-5.1989827,3.9882152,1486.53637695313
485,-313.7575,-1297.3618,-542.02576,207.78967,11.167188,-134.9385,989.740905761719
486,-157.91753,-1253.9354,-274.83435,-583.97363,51.387043,-201.37265,1496.47326660156
487,-358.9839,169.0742,1455.8667,362.76917,199.47139,300.2163,1843.56774902344
488,-109.96604,-89.5872,-529.77374,-217.30812,52.707085,191.4033,667.171081542969
489,1190.9066,320.39362,5389.9375,-1410.0134,-310.48352,-155.44762,5326.44970703125
490,-51.310314,-227.83904,-1011.8318,119.023605,113.381775,77.33248,939.793273925781
491,-1633.0579,-555.9578,-581.0595,212.00066,-433.3413,-119.816414,1369.30358886719
492,-1762.8604,-1734.4028,-670.888,301.70178,211.10962,-107.65361,1266.36499023438
493,1617.3755,1608.6179,-246.28096,435.9637,135.79008,-25.415298,2020.99450683594
494,3199.0237,-14998.422,802.5485,-9361.683,434.51575,2188.6497,23898.548828125
495,-519.86804,1163.6987,974.2783,1161.9685,185.3605,-123.89667,2598.27124023438
496,-2334.4934,-1867.0565,-309.35754,1430.1382,-583.3442,69.9811,3247.22924804688
497,262.4094,1207.6848,773.4929,910.77826,-157.1571,-18.187288,1798.68725585938
498,-611.7981,-214.75237,-1393.804,572.0886,-167.40186,-2.0074613,1464.78979492188
499,-1644.007,924.8649,631.6982,388.53653,348.70163,47.12169,2599.28125
500,-461.27136,755.72406,1128.6387,-690.53076,-492.47717,227.94139,2094.74340820313
501,225.69135,-564.0942,948.4315,-692.6458,-61.399933,-1.1529174,1779.75073242188
502,-1679.712,-1701.5741,138.15839,-854.08105,-127.14871,378.34998,2451.77124023438
503,-1433.1002,2505.9856,314.90244,1050.8807,-188.58812,-58.187805,3887.96655273438
504,-505.9864,1314.3807,-877.83673,422.76898,-81.47944,-22.235754,2164.83569335938
505,25.373827,228.54716,-686.41064,-789.695,732.29364,55.79974,2044.869140625
506,-1864.0802,765.9534,948.67084,552.636,-36.942814,-14.385688,2889.97412109375
507,-156.59348,1930.76,-100.049545,-326.33884,82.33983,4.2658916,2140.583984375
508,-1618.8563,996.6118,921.9979,991.97205,4.2560883,117.263535,3105.54736328125
509,-445.83594,2430.3716,-279.8944,-266.64288,35.90911,-103.00906,2841.09497070313
510,888.59094,-173.19348,541.8567,170.163,61.655823,152.0124,1023.25347900391
511,-2022.2919,-1613.4836,-357.90265,631.6872,-124.40092,55.798103,1873.43347167969
512,-1891.7568,9104.443,11207.915,-2002.9407,-1118.298,-851.40247,12900.8896484375
513,-100.134995,-766.0923,1528.473,411.36057,75.48534,-130.87135,2180.95751953125
514,-1745.7396,-396.38095,-1425.2843,-226.8427,-235.2561,-8.048372,1345.97729492188
515,-158.17978,48.022427,-0.9934904,79.080826,379.15594,80.725464,710.213745117188
516,-148.67903,1674.7565,-227.12636,-1251.3608,1999.712,1016.28876,4823.57763671875
517,1944.4381,-1127.324,-516.7885,-561.6202,304.79614,142.34377,3036.24682617188
518,1705.5245,-391.61728,-894.1299,234.3539,166.94513,176.25153,2458.84814453125
519,-2550.8823,-1209.3644,1138.5554,229.25136,-398.08005,-91.47849,3334.71899414063
520,-4810.371,-2371.9226,-932.3374,1013.6878,-824.8493,-515.9857,4177.4794921875
521,-1373.2515,566.6897,-379.55914,-172.82988,-46.54455,-58.353115,1711.55383300781
522,-692.8877,525.46173,264.52533,337.85846,349.37338,108.13323,1406.50634765625
523,870.6159,446.6993,2627.4517,233.55241,115.28444,-17.300224,2053.12890625
524,-119.040985,-591.9798,31.259678,1742.9905,-25.456099,-69.43829,3073.7275390625
525,-1508.2775,-703.46075,-537.64685,762.3995,44.926914,-45.86902,1601.49926757813
526,-1314.6434,-1649.5284,-99.47244,286.77307,-127.95276,154.52875,1537.27038574219
527,-1164.2955,-707.9736,556.54144,343.3994,-21.14734,64.31947,1658.84790039063
528,-46.758766,1540.8771,-14.697064,301.02588,150.91792,213.39526,1716.82971191406
529,256.12927,1214.8635,606.2238,-284.5636,42.542408,102.61535,992.994750976563
530,-2456.1348,4892.404,-747.6363,465.7498,58.29666,247.24098,6723.791015625
531,-1652.3835,2283.5273,613.96765,1426.2773,-241.34315,109.86704,4245.15478515625
532,1597.439,1180.3712,1114.0732,439.5323,-341.5103,-84.03567,1075.46801757813
533,127.36719,-110.60976,773.41046,843.9489,-89.46795,-139.19879,1687.19885253906
534,1509.9835,4370.8853,262.50208,-2755.4185,-12.96498,-92.54063,6009.416015625
535,-1902.3026,134.00252,-227.69498,1764.6842,127.11566,-73.587814,3598.31762695313
536,-2311.6711,-882.438,-1919.5197,2132.0847,55.5824,170.48709,3920.43823242188
537,581.4049,294.40912,1809.9851,-229.07228,-446.261,-39.47025,1644.35876464844
538,3926.6382,-1113.1431,-991.739,1031.0455,360.69052,102.87369,5330.4306640625
539,1821.4387,294.04092,462.57373,450.46716,-411.9559,214.42198,1832.96105957031
540,5183.16,-429.03952,-287.38983,27.087835,147.86488,53.333748,5549.61328125
541,5061.6147,-1454.8958,64.65065,-1713.2128,14.762933,116.26164,6611.98046875
542,3777.0242,-1036.1757,73.77442,-2270.0203,-28.219496,45.790417,5875.7236328125
543,44.163643,-924.62177,-237.02658,848.31586,78.87278,124.48098,1723.15661621094
544,3379.181,492.378,-550.14496,-514.19006,22.012066,35.617916,3637.09741210938
545,4117.6455,1262.4565,227.04309,12.097017,255.82553,-89.723335,3521.564453125
546,-2010.1432,-447.55875,-472.0037,-775.3941,683.6597,75.87213,2372.17626953125
547,-2390.3748,-2446.443,-38.00757,173.20827,-67.08777,-222.56995,2433.2666015625
548,1742.096,2637.6409,801.855,-338.34213,-322.00818,254.51146,1837.63549804688
549,2000.9193,-124.596306,752.71265,-550.0468,-151.02367,-131.57182,2109.68383789063
550,2038.9137,224.5312,450.5012,-613.4649,-257.38715,-90.26981,2070.08666992188
551,1479.4246,1659.4279,-334.15598,-396.3943,-120.142456,8.879832,2040.30639648438
552,2469.481,2035.7572,829.11456,-590.98584,180.33952,23.816051,1820.58068847656
553,-2146.9622,-3923.6409,149.49397,-25.622301,-176.92381,124.19594,3557.03686523438
554,-1272.654,-3138.269,547.4914,-174.48354,-58.824516,87.11557,3211.48266601563
555,1673.5388,-1316.2795,-27.970938,-57.592323,-296.4596,-53.469604,2651.251953125
556,871.85095,-1736.2936,-854.49304,85.11437,262.78595,-154.19772,2362.27856445313
557,1310.9943,1917.7561,-303.84402,69.38399,-230.59877,-102.51966,2039.89855957031
558,3035.6611,343.8986,938.748,1125.6758,-29.396833,-40.911793,3131.6591796875
559,-1349.1626,3143.5332,31.410564,295.4942,-254.72028,-59.78099,4044.146484375
560,47.446205,-1306.7443,-595.3276,26.633047,-170.63628,173.98093,1247.73327636719
561,1963.9014,-1092.3224,-174.88278,439.1999,-54.306988,18.280153,2822.55883789063
562,780.19135,-1721.3735,-775.7333,-709.83093,-162.35767,-184.27698,2545.39111328125
563,-604.06177,1762.6194,-1499.8876,2472.2249,199.88524,-448.90884,5252.0400390625
564,133.11902,2075.3484,139.80865,712.28076,105.198586,315.97964,2369.40258789063
565,-109.57514,3712.661,-27.775272,-2236.4988,13.988529,-56.309322,5414.7392578125
566,1281.0216,1324.9059,882.37366,-1750.5419,17.47778,177.24483,3076.79931640625
567,-698.7787,238.20839,-15.745451,-304.3958,-33.941704,-3.9020534,992.954223632813
568,-945.41144,-471.1221,-2608.1108,74.09753,-237.45097,-486.38223,2161.81494140625
569,393.4864,-1128.3027,-53.598915,45.277164,181.47357,-29.437584,1393.88159179688
570,309.12424,-637.0465,-510.27066,-55.723866,-88.81503,155.1221,946.851623535156
571,-180.60014,-4861.7505,-1904.3531,-3478.5562,407.3344,-366.87253,7349.6904296875
572,720.0156,-94.2998,575.2969,-68.407196,-70.54759,-38.729206,774.387329101563
573,1676.0234,1381.0515,4573.7495,492.30368,21.803442,23.332153,3173.12475585938
574,-22.57498,-1443.5762,-5386.402,-1039.8915,146.23535,110.9525,5149.0859375
