Element Label,S11,S22,S33,S12,S13,S23,Mises
1,-900.43414,-104.47156,-2205.2122,1493.886,-1643.1659,3018.3848,6745.48486328125
2,629.8064,-1074.1902,-169.34796,2388.0745,1242.1467,2595.7742,6643.2001953125
3,3016.5647,8607.164,6579.74,1935.3464,-502.53058,2223.4033,7131.31201171875
4,1026.9238,-1569.1766,-6284.2603,3178.6138,1789.6682,-3899.6409,11258.4931640625
5,7966.4404,4475.5386,-2472.2686,3528.7256,3049.4844,-4152.4966,14201.9716796875
6,6138.47,1415.9099,67.34253,188.09119,1175.0417,6105.4727,12106.5517578125
7,4839.242,4119.544,3763.2073,2448.5796,-262.9627,-1657.7721,5228.77587890625
8,-3963.073,314.93896,-5255.6445,3297.1025,3151.1838,-723.6955,9459.1494140625
9,-5908.994,-5481.6807,759.7014,-1986.09,1223.4492,-2205.7556,8527.876953125
10,9826.277,9356.554,8404.864,4288.661,550.50586,-3014.9983,9215.8037109375
11,3389.4346,-162.84631,204.14758,-2111.2886,-5114.7236,2562.2356,11090.4765625
12,5208.116,1430.9215,2816.6365,366.77625,1347.2396,-743.74774,4296.68603515625
13,1494.5273,-1167.5393,-6994.5537,5708.1255,2541.617,-2541.194,13894.3564453125
14,4399.3496,-770.8262,9318.196,-1979.4279,-2596.756,-1669.9006,10803.0830078125
15,2460.2324,-3507.7476,-13147.219,-2409.1863,-4033.709,226.8509,15888.4775390625
16,2205.017,1977.7341,-2323.4302,364.0636,-4484.3267,-1531.6442,9343.03125
17,16492.375,-13153.321,2671.4028,-5885.1553,-7764.3237,8430.94,34031.69140625
18,3437.0754,-4320.7163,1736.0583,-701.5971,4050.8484,5357.143,13663.177734375
19,7770.1934,7926.0093,5992.761,-81.28542,360.16107,211.33801,2000.86389160156
20,8831.893,6501.3394,6362.337,-60.63105,-2808.0386,9360.616,17096.9140625
21,2647.642,8856.904,4158.2056,-3927.0693,3088.2185,2157.5186,10968.0810546875
22,-4417.9404,-7875.8135,-3188.7183,-3694.4248,-5027.821,-5592.4326,15110.5107421875
23,5501.8276,7719.548,-6901.7607,-6633.456,5112.776,-126.989586,19918.66015625
24,8650.534,900.11,-5998.066,5745.601,11009.688,-3033.1135,25522.392578125
25,2600.6108,5890.2026,1938.6918,-118.63015,8804.485,2978.8608,16512.326171875
26,6526.258,1719.582,4470.9077,-1501.1649,11083.957,-1505.708,19989.333984375
27,10543.7,2273.9702,12945.871,1592.5073,-10032.634,344.39346,20098.494140625
28,3224.4985,8695.188,-5163.788,3026.911,-4063.3965,7385.8594,19668.615234375
29,4741.82,128.83154,885.5499,3647.4023,5456.613,-6858.543,16991.611328125
30,-2847.4304,2732.5166,1459.4845,2023.7806,-5556.5684,2448.3723,12188.107421875
31,-11968.143,-1531.5156,-14610.576,2478.589,400.5183,-5871.1875,16303.611328125
32,6209.6997,3527.2966,738.34326,-1949.9427,327.1553,910.8135,6055.68408203125
33,-3732.7678,4037.7488,-2498.4502,919.63116,-3855.5283,3051.376,11286.201171875
34,4691.217,-436.25146,-1443.5116,-3115.494,-8731.661,7030.25,20942.494140625
35,1790.8448,-3418.9817,-3642.722,982.6694,9597.773,510.81918,17561.021484375
36,-5250.002,-7340.0146,-967.3728,-447.30667,6463.166,2821.7688,13470.8857421875
37,-305.16992,1413.7246,4866.5913,259.55045,-7976.2207,8431.63,20619.203125
38,-4507.0854,-372.80176,-2028.6584,-4069.6953,1463.8596,8013.4575,16178.7138671875
39,7949.0615,615.2855,-2367.9966,-1213.2843,-2667.452,4595.3496,13178.6474609375
40,-6057.424,1203.6489,-7119.783,-200.87491,-9002.6455,-3423.7908,18438.998046875
41,5161.1733,3389.8838,5823.32,-2918.3538,-12392.757,301.13086,22165.56640625
42,-7588.853,-2390.933,-12050.134,3664.95,-3697.6125,405.39578,12325.4375
43,148000.8,147939.42,148710.25,106.15325,266.86496,630.9593,1411.53051757813
44,6642.7246,6525.5234,7274.458,-306.84808,1033.0227,105.204285,2000.98522949219
45,2327.1467,2720.6082,2624.2773,1040.3136,-269.03763,365.99945,1997.98815917969
46,23040.947,-4069.6501,-13894.286,-9914.915,2361.497,183.64653,37544.73828125
47,784.70386,-13501.907,-7164.0522,5376.0913,7816.9478,-1592.089,20769.076171875
48,-9125.964,15117.934,16319.277,-11117.413,-5872.4624,8501.394,36185.69140625
49,15727.009,9342.1,-6081.617,-9704.055,7395.629,9136.212,32774.078125
50,-14135.564,-7729.141,-29735.775,7382.5376,-2360.1174,7854.961,27380.060546875
51,6331.1787,3057.768,3413.4941,-4485.6836,6685.206,672.36285,14334.3486328125
52,1304.808,7040.9453,3759.3835,-6959.931,1374.1809,5064.8994,15899.5302734375
53,1805.8572,-4191.5244,-4525.3623,-335.30685,9933.421,-6324.4507,21317.458984375
54,1631.519,13065.497,6061.3374,2268.8647,-5100.7153,1073.2285,14023.5263671875
55,3293.3975,5855.755,-7453.23,-5663.021,-7767.305,949.4733,20724.3671875
56,14875.63,-2643.836,5306.6587,-4101.157,-4310.9253,-3030.732,19095.033203125
57,224.67798,953.74866,-4811.886,396.27493,7287.689,-4527.907,15839.1513671875
58,7002.0435,-1740.7537,-1132.4377,3609.3987,1022.3933,5720.4224,14555.9951171875
59,10180.947,-3703.9482,2738.9163,-9057.887,-7008.8105,-510.09937,23219.154296875
60,4203.5625,-2154.5083,553.3207,-9080.109,-13981.424,-6060.43,31217.19140625
61,2975.222,5167.1655,-5116.5425,-2655.1145,-12523.099,1424.0896,24201.962890625
62,4474.304,4021.1125,1796.4092,-4268.2593,-925.6077,-2038.3625,8709.3076171875
63,-1150.8713,4020.359,-221.79071,-7478.7983,-2672.6316,3928.0127,16072.16015625
64,151.54053,-9870.045,-256.45874,479.70316,-3650.8723,-352.62186,11728.58984375
65,1327.7041,-321.4922,2891.2866,4691.9546,5435.7637,-6086.8506,16540.20703125
66,-5711.579,7893.828,13957.299,-3584.4639,458.33627,14783.494,31610.111328125
67,-4789.419,3689.8936,7816.0684,-2442.666,-9254.791,10215.251,26679.927734375
68,-3501.229,-6034.2065,-3384.252,-2092.2253,-2609.2424,-7930.899,15132.087890625
69,10130.541,4192.94,969.53375,-11212.746,-8312.504,-9385.451,30224.41015625
70,3428.2305,404.5863,-505.08667,-2784.9126,-7677.337,6934.5254,18896.431640625
71,-6025.4854,18075.139,1958.7756,-1464.51,-10165.137,-420.62695,27732.9765625
72,10709.266,17672.045,9301.124,-11774.24,10852.797,6193.116,30734.013671875
73,-1544.5967,6072.903,-8153.3633,7638.7666,4624.786,-2342.012,20192.01953125
74,4683.871,12939.001,6376.1294,9063.26,6120.1123,-1529.1096,20563.341796875
75,2450.2666,17032.828,-11216.218,14331.01,-3425.6226,-8763.409,38476.5703125
76,4967.776,-2773.9792,-1432.3427,1902.2988,155.8556,4710.758,11351.25390625
77,2338.8215,-2328.6711,3949.0232,-2980.1348,-7143.787,10075.551,22719.787109375
78,-3858.1719,-1289.003,-2217.0447,4639.214,-8419.114,-2980.847,17576.83984375
79,-3875.0103,-609.94037,112.25635,-1915.5005,-18705.299,9221.407,36459.77734375
80,3601.5479,2819.724,14169.952,3084.8982,-3962.5244,3512.0015,15271.611328125
81,4447.354,-6934.201,-5920.9497,4636.895,-8793.99,6801.7495,23544.2265625
82,9843.714,-3410.8618,3835.9365,-4878.926,-4082.1404,7806.6284,20889.71875
83,4681.962,754.0814,17.89441,-4202.3447,-8256.75,4951.857,18706.29296875
84,384.0869,1075.53,-8372.003,-3128.454,-5661.676,-1650.1224,14727.376953125
85,472.5152,-1124.3568,-764.4792,-4285.3384,-1610.6174,-6410.0034,13720.201171875
86,1335.3201,4499.667,6353.9766,1301.7798,-1335.7042,5502.934,10981.9072265625
87,882.61163,-2200.304,-1477.7493,-7679.276,-2964.9512,-7524.621,19517.8203125
88,3966.98,-1976.0448,-7802.464,-4267.15,6811.705,3362.4734,18210.865234375
89,5359.758,2063.6997,3746.6614,-8743.146,7858.2134,-9021.383,25824.16796875
90,10958.687,5288.0146,194.39258,-2555.3203,7024.218,-1993.5546,16325.3310546875
91,-4059.9912,6322.8506,-1316.5852,2637.0117,581.26105,535.9956,10468.15625
92,-8858.892,-4375.5024,186.31104,-5968.9854,2958.2063,174.14783,13949.681640625
93,36.878418,-5201.5757,-2201.4768,-7883.2085,-4831.382,878.1421,16718.2890625
94,568.5842,9014.732,-2055.3826,-682.80475,-576.10596,-4570.2803,12862.4169921875
95,-1893.0806,-5855.3037,-5298.6733,-2304.3672,335.4001,-7263.3076,13723.638671875
96,2921.9895,2394.2769,4595.6055,-968.8384,3986.3828,-6377.699,13284.4833984375
97,-2043.6069,13159.06,-19166.168,785.11487,-4081.3096,8391.507,32367.953125
98,11745.1,654.4901,23981.959,3815.5928,5359.126,16552.062,36880.96875
99,5490.051,-1770.8716,3003.861,-3508.492,-10892.453,-7036.989,24130.33203125
100,2400.745,337.01318,3907.7795,3001.6262,-1362.1375,7732.8335,14887.10546875
101,2018.2118,-4278.8135,-1045.8754,418.8109,-4566.893,-1607.7899,10029.8173828125
102,-2846.3286,9553.972,9254.438,-7138.443,-7581.407,8627.927,26434.287109375
103,3747.6855,4496.423,6147.984,1672.4153,9269.922,-610.6935,16487.236328125
104,-853.0523,-1823.7178,-1190.3568,-2471.5322,159.93991,4090.341,8326.06640625
105,-6911.708,10836.283,3868.9058,-4321.184,17086.246,-430.26468,34238.44921875
106,7376.9336,700.02386,-3364.271,-2700.7195,-9583.319,2084.5476,19966.828125
107,-6825.788,-4614.187,-2744.8774,-10613.545,4668.554,-89.12037,20392.931640625
108,-12532.505,-8623.574,3238.4155,4863.669,-4085.2178,9560.482,24445.767578125
109,1723.7412,2926.94,856.15546,3615.3481,3320.4668,458.5646,8727.189453125
110,-4643.459,-1724.4182,-854.6719,-1354.7135,-5578.5264,510.02408,10557.5595703125
111,10688.728,-12969.915,-10517.319,-9945.257,147.5266,-10598.89,33786.3984375
112,6945.9463,10469.591,-5074.7617,-2503.5215,437.19568,8728.06,21146.71484375
113,2082.2183,-2708.811,1055.319,2197.4993,2287.0752,5448.7783,11761.6025390625
114,15276.293,6707.838,9314.179,-9990.871,-5763.526,-11104.825,28756.525390625
115,2735.4585,9275.853,12026.936,-3576.122,-813.2786,-3955.4153,12474.9560546875
116,12680.249,6722.1294,7244.936,6112.998,4255.777,-14316.831,28530.923828125
117,-3710.8645,15677.984,-20826.76,-4183.474,5352.2964,-12061.471,39694.1015625
118,6963.689,7716.1743,6040.7007,-259.15823,414.69092,-625.53186,2000.98522949219
119,1816.2048,1814.8843,1767.7782,-207.57117,-1133.2775,80.51635,2000.9853515625
120,-6760.9785,-3031.497,-12060.959,312.5562,-7885.0205,2829.3413,16510.427734375
121,3850.319,2160.5479,-7072.4736,2754.368,4319.569,-5319.0537,16349.873046875
122,-11111.916,802.5469,8218.141,-9130.224,-7453.948,13841.947,35733.23046875
123,-3045.486,1332.8135,-3497.3955,-240.493,1016.02997,2630.5537,6736.6328125
124,2965.668,-3422.7268,-130.38321,4281.1094,8900.674,-3602.9836,19031.880859375
125,-11933935.0,-11934003.0,-11934601.0,55.55736,1079.5792,178.20349,2000.9736328125
126,24958.027,22994.742,23445.857,-729.6244,-3775.328,-1777.215,7550.1103515625
127,-58.562225,8173.1646,-7148.784,-3788.1497,15330.212,1456.9626,30510.03125
128,14110.266,9774.154,4681.6553,2860.2175,14996.49,7043.8413,30247.162109375
129,7884.0635,-4330.9756,-3516.0798,-4517.862,3273.8477,-5095.2915,17640.59765625
130,6474.208,-3186.8467,-3349.9412,-1448.9403,8343.316,-4394.2896,19183.291015625
131,-4931.098,3182.5557,2063.9277,-1215.32,-2693.5422,-730.1561,9262.9609375
132,7789.5967,-5319.4595,-7594.9453,-1253.372,2259.216,6573.203,18881.224609375
133,-5169.155,-5676.3066,-312.02063,2377.9497,-6407.5454,2997.3064,13906.748046875
134,-497.96188,-2125.7515,3167.1333,-4162.699,10804.74,-2652.812,21103.845703125
135,-47373.35,-47624.117,-47152.375,-676.72174,777.8651,-464.66364,2000.98571777344
136,4717.7905,-506.00195,10186.569,-3594.0002,3380.591,-5802.4565,16118.4521484375
137,2600.0352,2703.232,2592.233,64.96074,-517.1422,-1027.3027,1998.13317871094
138,5237.1616,5347.3154,4545.5356,172.73528,-1035.8129,207.39636,2000.9853515625
139,-5349.926,10756.183,-5947.4775,-8813.108,926.24567,-5891.0293,24679.69140625
140,-792.9617,8332.968,-18317.055,-3931.8787,1453.409,-8582.246,28705.072265625
141,4920.664,2374.6064,5267.4727,-10023.926,-750.7085,-2598.269,18189.740234375
142,7957.944,-2575.5688,1364.4624,-1954.3558,2065.0151,3603.7397,12173.2734375
143,-5217.8164,3124.1255,-3848.6409,2172.4539,-5549.532,4923.326,15469.6171875
144,4362.6465,-4000.113,-4181.8,-1815.4962,4954.729,-2583.8284,13230.7509765625
145,-345.62177,5358.174,-3884.8167,-5880.582,-4366.3193,11517.7705,24983.216796875
146,-6140.833,-16725.66,-4049.873,-5400.0986,-9391.906,-5620.0386,24195.134765625
147,-6299.166,-3625.8184,14554.935,-5810.089,2166.8135,8588.506,26887.431640625
148,6235.308,-7206.2534,2273.7256,3092.9954,10416.83,6966.4595,25356.369140625
149,6382.082,9580.405,7832.5093,-6325.466,8882.109,-6221.25,21920.67578125
150,-8723.316,-12806.23,-20865.23,-13346.252,9264.566,5078.3394,31364.857421875
151,-212.12671,6193.719,26186.057,-14405.558,2381.172,1366.1953,34842.015625
152,16697.52,-8439.128,5258.7,-463.0053,12085.316,-3853.3013,30959.904296875
153,14769.447,4683.561,2351.1401,-1428.9663,4763.845,-2742.2583,15081.71875
154,531.80566,4527.5967,-15918.38,-3768.3394,-4059.4714,-2356.3147,21470.9609375
155,-3063.8057,-6810.7354,-1211.99,-61.77151,3747.198,-5595.467,12667.71484375
156,-1048.0161,-968.2947,8998.564,-10598.929,7341.5083,18366.262,40134.80859375
157,-6035.7983,-1968.4658,-7767.3906,6234.0576,-7927.745,-490.37512,18233.04296875
158,4829.9126,-846.51294,3986.6245,-8501.624,-13490.041,5285.8755,29576.0703125
159,-4170.365,12522.851,-5304.452,-7972.1436,-7407.7734,3199.5315,26170.263671875
160,6517.8564,-6551.35,6074.2793,2983.9924,-9892.573,-1083.191,22113.916015625
161,-7928.3184,6056.2773,-5636.9326,-332.63278,250.54466,6674.071,17404.74609375
162,-148.4082,-84.03711,12297.779,3674.3176,-3544.7646,-4086.2659,16804.794921875
163,-1054.854,-5223.1855,-18101.805,1346.3837,3741.8289,291.93414,16870.505859375
164,7915.0176,-162.51294,854.67053,-2473.5435,-8171.2847,10124.795,24171.556640625
165,14690.033,10295.027,1221.8369,-6831.6367,-11776.752,-2035.6302,26646.509765625
166,3648.437,1583.2593,6901.7,-2138.1335,2902.9175,5982.4673,12958.8828125
167,7784.5664,4573.129,-3337.394,-677.14276,1943.8561,-699.9684,10605.4248046875
168,-4038.7495,5466.5645,14.811493,3335.1375,-1541.4233,-3844.8826,12373.3076171875
169,-1549.9973,-1761.2017,-976.656,-484.35312,-8375.842,-1860.0675,14901.072265625
170,9372.525,2012.1282,6003.628,-2592.2656,-9764.715,-7444.9673,22654.349609375
171,2639.2358,5819.233,-11690.356,1200.305,3852.8132,5230.7773,19797.865234375
172,-15939.36,7061.6426,13130.988,-1822.4268,-2567.0999,2006.3345,27336.677734375
173,923.80176,-3753.1113,546.1439,-1681.3235,-7203.1104,6374.2764,17500.830078125
174,-4432.939,1768.3936,-7346.6025,2470.552,-6324.641,-2608.9702,14958.23828125
175,1005.5521,4204.5996,-4289.3467,4879.3765,12559.352,2484.4382,24866.900390625
176,-34196.152,-1387.3257,-23601.865,3305.6543,-8301.348,-6082.1284,34519.09375
177,17899.145,8423.891,1323.5757,861.97565,9595.908,-10218.508,28270.11328125
178,6573.1006,-3955.4106,581.2371,2308.4116,-1698.7358,-1451.0635,10706.3876953125
179,4809.3735,-5484.3926,9553.639,-2451.7192,-1749.0085,1425.8445,14512.5810546875
180,5273.2715,-1602.2173,988.86127,2373.6526,-8368.142,6256.506,19508.529296875
181,-5861.2324,-1334.7323,7071.2856,6205.199,15361.709,8685.657,34336.3046875
182,2736.109,5526.684,7078.9136,2819.5408,-345.1059,3469.9795,8652.013671875
183,-7960.445,1191.8755,-3597.167,556.2321,4461.6895,-3330.5093,12521.7451171875
184,-10435.794,-17345.97,-18304.596,4533.561,-9099.503,-1604.5465,19315.275390625
185,-11035.833,-6365.3916,-2740.681,1602.7372,1563.4873,7563.63,15444.9287109375
186,-2792.6738,2124.925,-10259.495,3936.984,-768.28534,-2278.1416,13434.84765625
187,-10317.489,2304.6982,-6440.662,-3063.7964,-4258.1973,-11318.878,24337.69921875
188,-7067075.5,-7067035.0,-7069047.5,38.389084,79.61211,60.178402,2001.14721679688
189,-7584.241,-1586.6414,2382.013,-4553.053,1724.4341,-8950.688,19671.8125
190,-859.729,9279.944,5706.621,-7114.483,1929.7452,7653.3696,20447.26953125
191,-714.08936,3178.5034,1943.3671,-5955.522,8383.425,-50.394596,18141.876953125
192,6208.804,9230.438,4314.7812,-6671.8203,-8536.116,5995.652,21872.8046875
193,5945.4414,1034.794,3984.5674,-5693.5483,4870.671,-14280.541,28258.658203125
194,-173.52002,3121.2793,3188.0168,-2456.9954,1359.6719,-436.4091,5942.0537109375
195,-19927.617,737.9873,-9946.656,-2049.275,4679.0894,1720.76,20188.796875
196,-11755.798,-13572.05,4401.4956,-7404.468,-8037.3994,2274.5374,25836.0390625
197,1285.2668,865.1499,336.60995,-4953.821,-274.88193,376.82718,8657.458984375
198,-11629.667,10863.222,14707.809,-8355.578,5510.24,1642.8876,30262.505859375
199,-10664.575,-6074.7397,-9757.509,1665.861,1761.2906,8240.019,15461.2900390625
200,-301.67676,-2229.6885,5081.434,-4544.5015,-7432.947,-8812.771,22444.87109375
201,-8039.714,5126.038,-8077.9043,-11649.301,-3058.8572,11961.515,32222.09375
202,2391.5596,-2.4162598,8665.631,-7000.8145,-8951.111,116.83928,21155.552734375
203,1491.1841,-1170.7421,-4885.735,-2121.7583,-9189.359,7576.491,21675.4296875
204,-650.2092,-43.098633,7244.6104,-4946.29,-1395.125,2362.9983,12405.30078125
205,2629.7769,6587.3394,594.6653,-4999.293,-5424.31,11501.522,24247.9140625
206,298.4077,8311.866,5109.0483,-6184.0786,-11193.725,490.7196,23241.283203125
207,9122.02,217.18701,3465.3174,-698.0315,-1181.5867,-2078.3347,8918.0126953125
208,2900.7295,4024.3088,4529.857,-4322.713,20143.426,-10452.494,40039.734375
209,-4295.636,-2403.3203,6021.6797,-1003.7821,-2352.6064,5689.195,14395.556640625
210,-3285.3228,8843.592,-4059.4915,635.0684,5433.405,17823.83,34640.18359375
211,-3794.1465,526.7274,-930.1748,3553.2522,6839.9863,-11922.542,24883.15625
212,-9603.229,-3914.7373,-3721.0435,-5341.5176,-6517.773,7430.9146,20302.54296875
213,7978.131,10226.019,13715.147,-3497.08,4757.213,11232.186,22541.919921875
214,-3277.0479,7976.0684,4219.993,5124.908,377.64142,13043.796,26231.982421875
215,4649.467,11409.278,-202.0918,3565.3467,4729.6055,6502.6724,18279.08984375
216,-3963.7297,304.8813,1293.3047,3176.0896,-3845.7092,8292.56,17445.5703125
217,-5773.8613,2894.595,2421.3442,861.61926,3832.7527,-683.4741,10906.984375
218,-5304.9263,-3933.68,-4513.631,2029.1666,12310.151,6226.2065,24180.373046875
219,-6090.5635,-10295.288,-5706.452,-35.108585,-9602.937,-2412.0464,17707.318359375
220,-7160.1636,-2423.1445,4293.552,-474.08206,2629.0935,1358.353,11239.0615234375
221,357.0332,777.326,1163.8091,-1984.9147,-77.84196,2968.303,6225.65283203125
222,487.58414,2061.3767,8.987915,-84.708725,-1966.9535,-2558.4282,5892.70703125
223,-3790.5894,-3260.9297,4794.337,-5003.946,-8195.516,11309.894,27014.6875
224,8970.975,-2841.6138,9736.826,4533.0215,-2914.4968,-72.87238,15372.51171875
225,2745.1057,846.43616,4068.1926,-1685.1953,5586.9805,2582.4158,11403.373046875
226,-2336.0588,-10397.758,-2555.3489,-239.42049,-10149.188,2459.8882,19763.966796875
227,1160.2395,-2822.3455,470.38092,1123.579,-1870.553,-123.38085,5283.87451171875
228,4256.0757,-6916.8296,1397.1228,-3419.2288,2585.466,-5312.157,15519.30859375
229,5441.015,1222.7549,5302.8867,-5967.9517,5645.6216,6636.8945,18757.49609375
230,471.08667,1558.3529,6611.7485,-9734.384,1792.4034,-1399.341,18220.8828125
231,-16600.457,-4894.5205,1730.3438,3673.4016,1267.3337,-1134.5493,17539.375
232,-4938.091,77.49478,4951.312,-1165.0444,7301.7207,-8638.3955,21476.45703125
233,-9055.927,-746.568,9316.733,-3065.1204,-2322.044,-5265.7964,19531.55078125
234,-7865.6006,-5769.9883,2505.043,-3176.2,2894.7786,3338.6838,13381.0830078125
235,-4900.874,60.049072,-1312.6458,2715.4607,2696.271,1468.0463,8371.4697265625
236,-8349.622,-3600.3662,3644.3652,1680.6927,-3281.934,-8516.393,19178.7109375
237,-8886.496,-4044.8896,-5270.6035,-1871.6312,-17561.404,-3203.8928,31393.017578125
238,-6251.1064,1258.2256,1418.1035,-13479.34,-9489.12,-2949.9204,29982.166015625
239,-8264.049,1553.5392,2394.3496,-938.25665,4425.3125,10405.027,22170.51171875
240,-5528.2627,-251.43457,-2621.054,2190.8164,7724.3774,-5830.7417,17786.107421875
241,-4973.468,-2722.022,248.5188,3623.1516,19504.932,-2775.337,34991.390625
242,-2861.8643,8803.991,-6010.9766,-11645.218,1796.2845,-4975.219,25952.220703125
243,-1362.6605,-1561.5662,3914.3748,-3526.5771,-5314.0347,1473.3743,12548.94140625
244,5054.8774,-3474.6492,-2150.3904,-8901.143,-6419.066,142.4738,20605.25
245,5923.287,-4861.1455,2988.0593,-10929.134,-41.317345,3269.663,21992.72265625
246,10567.19,8835.29,6831.927,-2610.22,3420.621,-4545.354,11313.9296875
247,-3779.0835,9311.616,9435.098,-14597.837,11398.438,-3755.166,35275.5703125
248,2516.6838,12875.158,2847.12,373.19537,2776.2793,866.8125,11392.0791015625
249,-7156.2886,16861.092,16648.787,-5555.1924,-2033.2153,-10822.072,32064.228515625
250,1805.6124,11414.443,712.4465,-8423.0,-5130.6733,8394.358,24642.171875
251,976.23303,26294.943,-3015.7546,1853.4857,3643.2173,2126.2693,28665.89453125
252,9930.931,10689.416,8885.674,346.00574,627.9919,18.064754,2000.98327636719
253,4678.033,-5246.525,-8024.245,11631.105,14372.536,2470.036,34316.76953125
254,3535.4636,4263.7354,4227.9556,359.801,-74.952774,1015.4008,2000.98547363281
255,958.2904,-592.4179,1285.658,-70.48382,-203.11975,530.9031,2000.94189453125
256,12594.391,12172.968,12559.782,-22.088432,-381.53253,1064.8267,2000.98547363281
257,1245.8256,938.7557,1357.9485,38.1324,-324.81186,-1086.5509,2000.98522949219
258,-16205.174,-14554.934,-15564.343,134.32219,-648.1141,452.1156,2000.98486328125
259,3343.0334,3237.8828,2109.7966,-240.35834,-634.24744,-638.11255,2000.98547363281
260,7852.1875,2535.2297,3853.3127,147.50949,3579.0073,-498.84146,7889.162109375
261,3350.1318,6491.956,-8483.144,-6323.493,-523.5651,2795.7542,18201.822265625
262,14674.99,17728.15,-8632.652,4150.016,11255.974,-9145.624,36144.37890625
263,-9847.988,921.45825,1454.2747,1422.0262,-3783.357,-7425.5366,18341.935546875
264,-1567.0977,-4367.9277,-5818.6504,-10710.785,4622.948,5815.848,22885.857421875
265,-6177.912,-11208.094,-22107.555,1098.0879,2902.5952,7596.734,20023.7578125
266,-8700.599,349.7085,-4253.8374,-3080.7368,-493.49503,-7054.739,15490.275390625
267,6976.0005,473.52307,-5600.2246,-2914.2927,-5943.456,5655.277,18602.87109375
268,2320.7505,3669.5742,-3072.2544,-10018.992,4762.5117,8117.6895,24597.84375
269,7363.9727,4787.248,-2226.3777,5929.229,10627.581,2637.4365,23217.978515625
270,6417.2207,-2813.3142,-9253.823,-4910.384,-3955.476,8724.151,23102.763671875
271,-498.8493,1852.4819,-4708.704,-10564.797,4701.3984,3013.1216,21483.51171875
272,707.8009,-12900.745,-1453.526,-7841.7993,4975.844,-8434.277,25151.958984375
273,-7696.58,-4369.944,1885.1577,-10736.85,11418.727,3174.831,28952.404296875
274,-4832.0933,11259.929,-4247.318,-7208.465,3204.2014,-5695.7524,23106.197265625
275,5333.903,-4228.637,-1079.7091,-5617.0303,-5231.427,-5168.251,18114.501953125
276,-11895.889,-14243.325,-18219.164,-5774.9067,-14940.27,-14044.452,37310.51171875
277,14171.451,6391.533,4256.7,4242.863,7399.527,1475.0865,17506.734375
278,7684.564,-5857.738,-366.51575,1483.4753,4466.1357,-976.68195,14439.0654296875
279,-8624.957,-1362.5571,-3229.6846,-2727.9312,1568.4034,-1713.565,9010.1162109375
280,-11350.813,-4475.096,-5743.649,-7938.6523,10297.048,1134.8615,23477.232421875
281,70.80676,2019.5353,3811.2615,-9344.465,-3284.3813,1669.5974,17696.91015625
282,-2388.1685,3816.6108,-2044.9055,-2173.4233,5162.9316,6601.464,16166.759765625
283,2160.319,-7602.908,-58.746582,-2809.0144,1754.8519,2594.3562,11475.2724609375
284,-4862.9272,6492.5615,65.522705,-5913.726,-6551.63,2170.062,18576.52734375
285,-6790.528,-3503.2568,-5410.7993,-6567.511,12935.286,3051.8176,25835.56640625
286,-7038.058,-1138.0759,3374.0044,-897.09796,4616.2993,4243.9307,14218.568359375
287,-6740.5176,-6654.134,-11816.076,-4211.222,-5012.5522,-5156.238,15314.953125
288,-7284.466,25.827942,4381.5566,-6261.281,-5505.812,-5033.7983,19718.63671875
289,-2681.8228,-1901.1022,2415.273,-11208.377,-650.04156,-2489.1956,20478.02734375
290,-140.91968,-6642.8633,4791.928,332.24966,6935.5034,3880.1072,16984.75390625
291,6295.819,1536.273,950.181,-5622.55,-5643.2817,7412.1343,19518.828125
292,-3021.62,6293.037,-5776.759,-937.18463,-5765.6343,-1166.0658,15048.537109375
293,-5511.467,9960.484,-7979.6465,-326.90845,-7392.8833,-8830.023,26112.32421875
294,-2092.472,6910.199,1373.0427,-177.25858,10134.538,-348.1123,19246.90625
295,-5015.084,5959.491,-2217.8594,-6379.442,-3406.7954,-631.8126,15989.859375
296,-1769.4877,4929.947,-7405.522,-309.81897,1220.961,18350.53,33606.41796875
297,-6463.917,7326.9873,-5376.098,2456.0754,-2715.061,5598.1235,17623.81640625
298,103.01489,-4882.1387,-425.3059,-763.6783,392.79837,2467.709,6555.78857421875
299,-1569.3682,-5766.564,-1768.6592,-254.48383,2993.41,-12702.861,22977.892578125
300,3318.317,-646.4905,-2274.7795,4555.332,1816.6605,1337.1078,10116.5390625
301,-10955.903,8209.133,13536.575,-16169.494,798.2001,10037.351,39828.3203125
302,10217.278,6023.511,14183.968,-9388.938,7108.0063,3655.2654,22495.962890625
303,11383.861,17848.473,1544.9492,-4021.703,4180.2256,3219.0413,18282.01171875
304,6862.3096,2352.6074,5685.2837,3648.7532,2498.351,-5472.7256,12842.6015625
305,3447.6858,1863.6461,-4513.93,5194.4526,-1488.2559,6272.9893,16091.2373046875
306,113257.93,113019.28,113848.97,86.98876,715.9221,795.0425,2000.98547363281
307,-16.935059,6832.5146,14877.93,220.54015,-9438.532,8355.511,25369.224609375
308,23072.74,23357.79,24827.26,108.80015,608.18176,-257.72815,2000.97644042969
309,4802.853,4157.6167,4795.62,478.28384,658.9053,-731.0933,2000.9853515625
310,22994.877,3830.6824,12396.245,-14047.55,4494.881,-4948.7,31663.302734375
311,-15896.913,-14927.073,-16940.217,107.06201,-327.69662,-449.60114,2000.96850585938
312,7955.9893,-4765.7124,-6565.4785,-6838.347,-10814.249,6944.445,28701.66796875
313,-16679.547,9959.978,5978.1025,-152.67947,4845.1294,2494.4375,26619.66796875
314,-10048.927,-4680.342,249.27686,-5162.316,3688.3325,-658.8591,14200.3564453125
315,470.29004,-5945.236,-17155.135,-7565.321,1121.55,-3978.2893,21487.076171875
316,6738.2515,614.98804,540.4441,-5280.007,2487.5684,4187.133,13883.515625
317,-2934.516,-8086.3877,-3256.289,-1437.0958,-2066.1426,-12196.822,22142.212890625
318,3735.648,4024.79,1232.2545,-3134.5183,6721.25,1945.0779,13543.4716796875
319,-6874.0537,-147.32437,-12840.203,-4657.6953,4718.5347,-321.20892,15911.0693359375
320,4781.852,-5202.554,-5185.9473,-9136.471,-7259.8813,-6273.2344,25022.513671875
321,340.50854,1272.0262,6269.3086,-4178.7217,-7639.7144,-1919.25,16402.04296875
322,-7723.1724,-2273.8545,1894.6229,299.10605,-3507.932,-8088.618,17414.046875
323,-2022.471,9017.141,10343.955,-226.50829,-4151.688,7842.041,19355.548828125
324,-2368.5815,7648.2295,-2888.963,5949.256,2412.9092,411.2935,15164.916015625
325,-2176.4229,-5460.06,1232.7297,6179.7773,472.7991,-350.0643,12214.9990234375
326,-10091.968,340.24988,3719.8535,2674.3706,855.61707,-26.499409,13385.244140625
327,5955.5464,-4976.009,1709.581,-2123.3357,7328.1777,-10343.32,24221.83203125
328,-9125.195,2241.0732,1438.5217,-6946.058,1538.5142,13110.653,28075.365234375
329,-14848.891,2631.293,3728.395,-9735.703,2066.291,-2618.04,25370.470703125
330,-13092.914,3560.4824,8633.462,-3575.642,-893.06714,9054.598,25966.490234375
331,-157.41406,12216.903,10635.582,-3429.2925,-2998.1023,-20645.123,38431.31640625
332,-7693.8643,1821.2158,-8608.515,-9284.619,-3569.8418,-6631.3354,22996.60546875
333,6152.3003,5237.0474,12433.649,-2326.8218,-18038.318,2817.3362,32592.013671875
334,-12434.701,-15480.054,-16777.168,9271.807,13722.057,1911.0714,29131.55078125
335,12327.751,12254.021,11268.88,-596.0189,-210.94243,-765.07996,2000.95520019531
336,3623.834,18191.898,4316.4243,6371.988,-2654.103,-5157.0874,20623.884765625
337,-7619.467,11098.31,15708.5,1816.2382,-816.11896,-2818.0076,22217.544921875
338,15824.854,-8019.1846,2469.0232,-1530.9362,6313.3325,-7876.9644,27225.078125
339,509.52295,-11726.786,-3522.6855,-8258.199,14017.993,10429.881,35172.4296875
340,-4908.6953,-6780.2935,1662.999,-3296.2021,6674.3213,-6395.155,18652.564453125
341,2965.8867,-1278.7203,-4788.1772,-5511.8594,-3573.5483,5195.5947,15989.5078125
342,-2031.1572,4444.2837,7922.9766,-2146.2249,2237.5596,-19401.855,35138.20703125
343,10284.534,-1122.84,-10616.807,-3630.5288,-2190.3574,5557.445,21798.064453125
344,-4092.8179,5.890381,240.63611,-1266.1129,1071.32,4431.973,9219.3349609375
345,-12175.56,3382.4353,2447.5095,-7261.836,334.54208,3003.6343,20346.58984375
346,-5782.32,7391.5264,8239.118,3000.942,1856.5142,2501.5776,15542.3701171875
347,3103.3452,-6892.8345,-2913.3794,-5040.6934,5158.511,-3273.1472,16253.53125
348,-4359.662,6389.7827,2806.8606,-3699.498,4109.556,3150.6033,14538.7958984375
349,7940.67,-2996.8125,7842.663,-4600.9497,6821.8667,-2031.566,18277.521484375
350,-11166.112,-5983.6562,696.6953,-1101.641,-727.24,-8028.5557,17455.833984375
351,7155.6924,-6502.509,-13685.324,-4236.9346,-56.55673,-9102.605,25272.126953125
352,-21.746552,-3364.4514,2411.667,-763.3808,-6172.045,-8084.226,18366.38671875
353,1813.811,-10343.454,-9357.094,-986.19446,-717.1325,-9752.247,20653.330078125
354,-7987.213,3636.9702,12472.757,-9424.335,-5895.145,9633.793,31065.15625
355,11260.016,-3933.7498,10208.857,-5869.3955,-2517.874,-5278.399,20541.115234375
356,-7975.2505,-6798.2236,-3837.257,1082.4214,-316.86874,7292.288,13303.6220703125
357,11960.644,6654.1123,5822.295,1049.7805,92.084984,3434.7207,8484.6171875
358,-7403.7407,-258.60864,-2080.6938,-6832.269,3706.2368,5108.9097,17346.61328125
359,-3052.9045,4154.2627,-691.4424,1260.2689,-2559.4263,10565.62,19995.353515625
360,1163.3282,-5317.527,-841.80255,1634.5977,206.79582,148.00829,6421.58935546875
361,397.05774,-2279.4338,-806.62305,374.22525,712.9469,327.59656,2767.27026367188
362,-9385.998,359.94678,-8059.204,6108.76,244.47308,1289.037,14174.9052734375
363,102.898224,-2052.2798,3057.4739,-895.2095,669.7188,-1849.3645,5809.6611328125
364,-9112.924,-19894.453,-6208.761,-13596.432,-1070.4521,909.47876,26767.419921875
365,1002.426,3683.456,2466.1743,2848.499,-1531.5787,538.3281,6136.3310546875
366,9838.537,3684.3577,7703.9917,-2908.423,1298.4181,3205.6892,9516.17578125
367,-8172.812,8389.732,5217.273,-2829.069,2199.5342,-1262.9248,16587.587890625
368,3448.4722,945.0354,-487.57495,453.10538,1293.8508,-434.5413,4255.650390625
369,-1858.7269,-4529.248,-3054.7085,6479.6655,357.32166,-928.6416,11588.6376953125
370,3534.7708,2581.8733,5066.572,-2148.2803,3292.333,3942.883,9885.1787109375
371,1795.0073,-52.164307,8028.911,5110.336,-236.66493,-2308.0264,12177.2041015625
372,4704.7686,1430.3159,397.11353,-352.20938,-384.02832,3471.1323,7220.359375
373,-1612.0333,-1006.9651,-337.25848,1457.4011,-67.85828,-878.7705,3149.986328125
374,-3175.2979,-4857.9287,-546.40894,1084.5651,-297.25134,711.79596,4413.57373046875
375,54.037476,-2269.8857,-1190.5161,-2964.7415,-549.47345,1446.7261,6132.794921875
376,-13518.13,-2516.4556,7353.6055,2637.5525,3605.8704,-2027.2859,19981.2109375
377,5011.963,8601.896,4212.3433,2347.7812,1745.9904,-4490.387,10127.6845703125
378,4244.0874,4319.0103,-78.67334,-2367.3486,-4089.7666,-1966.6967,9879.8291015625
379,-1409.9978,1362.7356,-2163.4163,-2189.4294,-103.02032,1486.4438,5602.31298828125
380,-10811.017,-13395.553,873.6953,-2033.6318,794.7316,2787.2478,14526.5244140625
381,-5962.6953,-511.76514,-8273.642,1849.969,3070.707,3778.507,11359.408203125
382,-3796.6738,1213.167,-4051.829,-6553.0107,1236.587,2532.497,13382.66796875
383,52.41992,6660.7437,3282.1106,-3794.1155,2325.7683,3192.1875,11078.8857421875
384,-926.9193,5240.616,-3035.682,-3677.5256,1318.1354,6246.15,14775.63671875
385,-1028.5061,676.6779,-1063.0972,-557.7532,853.4667,-267.43994,2510.15698242188
386,1768.497,2046.6205,1564.7427,21.063787,549.4494,1136.6665,2226.7880859375
387,-2862.8784,-3028.253,-6297.9736,330.56387,1865.5942,-1392.5604,5276.927734375
388,-2077.7322,-3281.5286,-2718.3174,1628.278,-68.79956,331.32596,3063.61547851563
389,-8321.023,-2345.5215,-3195.228,-225.34596,-827.1655,-104.9072,5795.6162109375
390,4199.3213,2860.6045,2909.0896,-731.2362,-3556.8923,1328.8276,6825.35888671875
391,-5356.802,1784.0597,778.98303,991.77057,-3225.2769,269.10004,8899.4541015625
392,2156.2737,3899.836,-764.8633,-904.16235,-1186.9775,844.1886,5048.11572265625
393,4011.25,-1530.9801,2518.412,-784.58234,-2168.185,-911.47845,6566.0791015625
394,109.75293,5654.3604,2623.6206,-2536.5833,-571.06024,-508.27145,6646.796875
395,-1802.7078,-5798.586,-3664.8782,4793.0537,937.96216,-1349.6323,9434.916015625
396,-1075.5978,-150.34741,-1925.12,2297.749,56.335815,-1100.353,4673.82080078125
397,-1834.8635,-3153.9111,-1047.9613,-1716.4644,-685.4126,-3688.352,7379.4990234375
398,796.0283,-6858.8706,-3630.6345,3239.2144,265.37784,993.71204,8885.8515625
399,1129.9514,6872.082,1954.4675,-1113.9012,-3932.5107,-4402.874,11712.794921875
400,5446.9463,-2084.185,750.1442,-756.9819,-1212.0238,-2948.3606,8695.4130859375
401,9584.702,4821.6025,10458.009,-392.94122,2253.4954,-8018.2617,15368.3095703125
402,-8716.9,11142.706,5025.1597,4474.321,651.75684,-4772.424,20976.115234375
403,-1244.4991,-759.037,6460.1733,5653.6074,2212.4106,-4271.761,14871.9619140625
404,-8666.614,-7443.1006,-9927.227,-2658.1545,-662.16046,4305.0986,9096.3095703125
405,5070.393,-3875.006,-1379.1041,-1489.8853,4232.121,1917.4816,11633.7822265625
406,5842.1426,4001.7332,5043.142,2526.4126,-1310.9155,-1527.5792,5818.8740234375
407,1431.4104,1991.5372,-674.475,-3552.7988,3534.5732,10.791402,9015.2744140625
408,-546.6551,1887.8451,-4797.1265,667.68524,-3910.5903,-1402.5817,9351.916015625
409,-1201.4224,493.41757,1338.0951,-4123.1123,-468.6334,-468.2321,7571.94189453125
410,145.92725,3456.9575,566.34973,-1182.2534,-610.8727,-2441.9363,5740.1630859375
411,-419.0858,1160.7441,-2.0379639,-1603.43,-1907.1626,669.88574,4688.490234375
412,4954.5474,588.2523,-3298.3174,1642.9609,-3490.078,1837.7953,10291.3671875
413,-2584.3555,-1989.018,-7057.4746,695.7156,7491.145,5520.157,16859.611328125
414,-1723.0481,5277.024,2606.6514,2982.9275,1121.6272,1795.3456,8807.7578125
415,5168.6113,-3888.291,12653.007,-5239.429,-913.7203,-7081.2026,21002.830078125
416,-1419.9614,-8836.58,-5722.852,228.22044,-1388.8546,-2595.0752,8231.30859375
417,-4410.967,1916.5996,-1191.8152,-2525.9963,-814.13544,2157.5237,8070.11669921875
418,2061.0237,6853.388,-364.62354,-2101.8257,3508.274,1796.5369,10016.7216796875
419,-3628.0996,-513.09937,-2033.8602,-79.1619,-2437.676,1285.3564,5484.59521484375
420,1776.4497,12582.306,2847.1028,-8364.292,-7307.8047,862.3186,21878.5390625
421,-3501.8584,-3429.6921,-2826.3745,1122.9292,1446.4989,-461.344,3333.35278320313
422,2003.2246,-6492.884,-5706.8354,-2805.0596,-8343.047,-3135.083,18111.708984375
423,6178.28,-7680.4507,4535.583,11436.58,5867.8496,7404.51,28847.158203125
424,1056.7532,-3119.184,-4.1921997,-3524.1062,-767.2027,2600.3948,8569.9208984375
425,3830.7769,6140.3228,867.5403,2126.2163,-6109.6973,199.71057,12108.912109375
426,1585.5414,3922.0166,-1165.6959,-3413.1152,-7607.8354,5448.4043,17807.232421875
427,5195.974,640.73096,2898.7886,1162.3561,769.8084,837.4793,4847.4951171875
428,1444.7344,-1588.1462,3598.9263,-2388.89,267.11752,1173.5151,6468.2431640625
429,-1856.7903,-2989.9358,-2421.5095,-4481.445,3289.2756,2503.289,10605.20703125
430,2149.593,737.14417,4059.6968,-13.003282,707.77045,-2320.407,5098.7861328125
431,2014.0459,746.6134,1936.7556,-1125.6683,-1690.0968,1980.282,5064.54541015625
432,-4329.05,1532.4675,-1258.805,-1641.9734,-1337.3486,-901.1381,6455.80224609375
433,9996.821,5640.544,13288.667,-1231.469,-3506.3586,2860.1616,10494.2060546875
434,-670.6697,-2782.6335,953.48016,3226.6309,300.4409,-126.01752,6486.93115234375
435,-168.0716,1676.7328,-2478.1162,-642.958,-1086.1348,-927.04767,4512.06103515625
436,-4847.857,-4917.9727,-5601.773,-831.74347,158.52448,-1804.1708,3526.51708984375
437,-295.47382,-425.01917,-3753.2554,-724.0632,2266.6396,-915.8227,5570.193359375
438,-8645.265,-3385.8904,-1524.4363,389.8544,-1396.8801,2669.6296,8282.9140625
439,4933.5405,2104.3164,3832.4983,-7294.6533,2196.3357,-16.352215,13424.2353515625
440,3772.9255,-1394.8417,-2462.9006,-3815.2017,-914.91113,-379.10037,8942.912109375
441,-3537.914,1840.9369,-708.2639,4375.207,-188.55603,2339.7625,9781.4169921875
442,-2665.188,3997.6653,-1327.1694,2317.6792,-986.49854,-677.3837,7594.7275390625
443,4684.169,5491.5015,3950.4045,195.62263,-470.49802,581.4669,1890.98095703125
444,-2154.3357,-444.37857,244.84457,-1843.2448,1563.2137,2713.9473,6648.12890625
445,1116.4163,2341.235,902.42126,-1993.9569,859.563,-444.28842,4067.48022460938
446,892.2754,-3653.64,2792.9832,-2650.1152,-608.9026,1250.246,7732.3642578125
447,-4043.1892,-2500.6057,-509.54532,-948.00134,-415.19208,781.1159,3802.494140625
448,-13612.275,-8105.9087,-8494.225,-2122.2466,-3884.0593,-6121.2715,14124.875
449,-5136.197,-181.7414,1906.4923,124.5163,-130.42516,459.92618,6323.4130859375
450,-4578.283,-4685.5376,-4414.0347,1089.4576,3836.4604,2097.4546,7808.3349609375
451,-1427.6758,2243.9595,4913.737,597.0837,3224.085,8103.1387,16113.576171875
452,-1533.1107,-4238.959,-354.11365,1596.2714,114.02585,-201.07869,4439.18798828125
453,-10077.729,4301.4116,-3049.821,980.0553,2587.47,-957.80255,13446.7314453125
454,-670.00684,-4030.5486,2039.2861,345.88177,-1023.07513,-2169.9424,6735.21337890625
455,-93.42615,-923.27966,-907.94794,524.2772,-1516.1093,4910.286,8984.9462890625
456,-3537.7375,-5323.407,-2698.699,-3045.0256,-739.7655,-1026.8663,6165.4287109375
457,-17652.84,-8147.5464,-13978.502,9933.355,-8.816125,-962.4324,19176.01171875
458,-5224.168,-2104.7402,-8030.063,316.50784,-968.20996,-2929.9841,7431.279296875
459,-4248.059,1311.0239,-775.9887,155.12619,912.86005,-2255.9866,6441.87158203125
460,1918.8794,-2229.8105,1014.5362,-918.09595,-13.579673,-3009.3955,6631.4599609375
461,-597.3973,2592.9539,-291.9314,-986.6075,-1378.0269,-1417.3983,4892.97607421875
462,-1928.8262,1242.8579,1483.0388,-324.38638,414.28928,715.13464,3639.21484375
463,-1705.7018,-1788.749,-3241.809,245.19197,347.19016,-1647.7468,3305.47143554688
464,-5397.8936,-8429.534,6276.82,2004.759,1741.788,-2574.2676,14897.064453125
465,-197.68225,2028.2361,-863.17267,-1303.6823,1929.9072,-214.07362,4825.845703125
466,-2215.6174,-4516.505,-3062.876,-624.9641,-1782.1747,3255.632,6823.49462890625
467,-3678.1155,-3444.0452,1354.6431,2897.7961,-1795.3397,3479.593,9766.7568359375
468,17352.957,13167.225,20681.93,-4505.959,-2052.907,-1455.8348,11065.6787109375
469,-1024.7922,-6669.846,-15841.685,3095.1187,3330.7004,2607.8303,15817.3037109375
470,4742.738,2904.1995,4119.022,3257.5725,-3994.571,3511.7976,10923.634765625
471,-139.14229,-344.62042,113.06341,-1603.5104,770.01587,-1093.9581,3638.7353515625
472,1728.0273,174.22325,2138.4966,1373.712,2095.2551,351.12973,4735.18701171875
473,-2990.934,-4008.774,-845.8554,-877.81024,-2350.952,265.6894,5188.93603515625
474,-3230.456,-436.91415,-9902.755,2466.8696,-638.2343,-7258.839,15764.306640625
475,873.6576,1939.318,-505.42102,-429.61884,1481.0326,-47.75636,3412.92407226563
476,-2685.7812,-13.608223,-3594.1123,619.98694,8473.773,-265.45374,15072.2216796875
477,-6.741413,-1442.5474,-406.38364,-917.926,1454.3052,-1939.5934,4669.72021484375
478,-6986.352,-11274.506,-8301.052,4034.7751,9260.448,250.89862,17910.16015625
479,-4004.7456,-3524.0908,1098.1243,858.6241,-3372.8218,3434.9104,9775.1162109375
480,-29.12189,3070.755,469.61182,-125.37335,-782.6175,-546.99994,3330.79736328125
481,4965.6978,4697.1753,-179.5821,1093.1854,2018.253,295.5362,6421.1845703125
482,2520.0989,-747.3769,-1556.7484,877.62085,-1029.8441,882.85535,4669.7724609375
483,4928.405,-4352.8213,894.50433,2078.491,265.41873,2316.5906,9708.009765625
484,-2970.7942,3838.291,904.4671,889.8393,241.75922,2267.1978,7277.75
485,-3487.831,-1842.7441,574.06696,1955.8933,-118.44329,1494.1758,5544.3193359375
486,1029.0045,3681.5525,405.46808,1446.896,-139.4331,564.7388,4046.5302734375
487,-7966.8438,-5369.5767,-4841.4824,147.71999,308.82037,-736.17926,3220.828125
488,-4198.31,-6054.9663,-4349.8755,-112.905106,-987.3267,-1522.4186,3620.04125976563
489,-1384.5818,252.80931,-601.97046,-417.6463,-1182.1168,618.3854,2806.203125
490,-1575.6542,902.76416,1393.2261,-900.67584,-637.31946,2282.0156,5183.97998046875
491,-8576.537,-5867.7593,359.3762,131.37614,1101.202,1458.3707,8547.0966796875
492,-10739.351,-5955.0747,-3821.8262,-3673.0137,224.54639,234.18805,8856.3525390625
493,9114.747,6826.865,13263.31,1216.8179,2438.7703,2442.0784,8491.900390625
494,918.83746,-597.359,3259.7627,-1570.9398,1405.5121,698.98755,5111.14306640625
495,598.8127,275.2056,-92.014114,947.9501,-133.84659,-366.51376,1873.76000976563
496,2177.7446,588.4748,825.515,283.63745,1728.9432,-516.6146,3494.99682617188
497,-392.4159,-60.948692,-2657.6191,-2698.4556,1527.0377,3981.9417,9077.4423828125
498,-5829.457,-544.78595,-4.375531,881.60144,912.67377,-1822.9613,6773.169921875
499,1427.8413,-2222.8347,1468.6696,913.51715,362.51846,2012.691,5341.22900390625
500,-4823.905,220.9192,1139.0408,-2870.7795,2471.883,-345.32523,8621.9169921875
501,1641.1764,-49.78128,2208.3389,935.1013,280.8242,502.67477,2785.30688476563
502,-1432.0051,-3183.6772,2893.1855,664.0675,989.6533,2619.0464,7361.47802734375
503,-3044.8484,-664.9399,-1624.4276,2511.9573,271.06097,387.0508,4888.8369140625
504,1671.5057,6616.143,1216.6857,3687.16,1591.6407,-1161.6892,8907.2548828125
505,-280.59946,1918.4027,-1199.2148,-2009.9159,5031.781,2877.9155,10982.82421875
506,-1237.5067,2088.4624,2182.6401,-1342.09,152.73987,727.6904,4294.9248046875
507,-2105.8247,1007.9888,-487.29095,-2163.395,-1244.1603,-1497.5604,5717.37451171875
508,-12761.487,-4578.8394,-1356.4795,-823.73834,-2085.0742,4131.8945,13038.5068359375
509,1639.2009,3319.8364,-2095.1013,1328.7313,-1414.6768,2176.0808,6967.9296875
510,587.50714,785.9707,-129.0385,939.7785,-581.2097,-718.1951,2430.10522460938
511,-2984.859,4401.3657,1813.399,-592.761,772.3181,2656.1025,8133.06494140625
512,3026.2534,481.3424,143.38425,2594.4065,524.15875,2055.1926,6413.998046875
513,-1350.0892,1492.1383,748.49316,-2906.8718,1041.3706,-318.7503,5951.93505859375
514,-853.28625,2818.7458,4775.7812,-1510.7255,557.08563,145.80928,5686.984375
515,-805.31506,4248.078,1529.7875,1416.3403,686.07996,1962.4987,6178.48486328125
516,-318.08795,262.35284,3377.1692,1187.8871,-1633.6477,1156.0641,5300.57080078125
517,-4908.6387,-6537.077,-3032.8274,1272.2638,-337.8762,-375.5071,3853.12670898438
518,32.49825,-5425.8003,-2818.8477,584.0189,-2072.3333,3483.0464,8524.1689453125
519,11531.257,6199.0913,12917.932,2768.1094,2606.6023,-1306.5953,9286.59375
520,-6357.47,3194.0168,-3355.0774,-2213.6318,-1713.6798,756.8351,9838.5439453125
521,6890.9097,121.77335,-551.91455,-1368.8086,-1202.9144,716.3117,7895.3515625
522,-3922.3025,-291.36606,110.23227,-150.69844,-166.60834,-453.58627,3946.11010742188
523,9922.541,6592.4487,4289.1997,730.4335,-630.19794,1642.6967,5912.013671875
524,-1255.299,-1192.2562,-3469.3325,-1766.9796,2351.7454,-123.39997,5572.24853515625
525,4504.984,8850.195,7541.7095,-214.85506,939.06726,-593.0556,4329.7255859375
526,-5930.4194,-4086.4048,-2053.5562,-263.94803,-411.93796,1303.679,4135.00732421875
527,-9456.618,-7957.669,-1305.2413,-1.9225374,-254.32736,-201.02313,7535.81982421875
528,-962.40393,766.0163,-395.71466,-687.6847,-1598.5967,-2853.2737,5986.47412109375
529,405.30652,3656.3787,931.8517,1025.5281,-2873.8972,-1439.6007,6579.14990234375
530,-4625.6064,-3697.3652,-4494.7437,3505.439,-1225.238,-3866.9546,9326.5869140625
531,2451.7898,1127.471,865.25665,1344.6117,927.5987,212.51245,3211.0087890625
532,-2801.6047,-1314.212,847.6349,522.9863,662.89246,133.48491,3506.2392578125
533,-883.13025,-1363.5042,-1156.2593,2148.5579,-1892.3065,-198.11247,4988.31396484375
534,-28.8377,-2596.5586,-1730.8595,417.99457,1089.7444,-2727.6118,5614.81396484375
535,2829.1306,5385.617,1509.4832,602.3631,445.33017,1472.8301,4454.4267578125
536,-1693.824,2287.855,-1096.1904,-867.27405,-124.0868,718.6424,4205.16064453125
537,-6104.0244,8020.011,1062.6569,720.3006,692.30505,-631.10724,12402.27734375
538,-3487.3816,4412.024,2321.5186,3013.6887,819.7583,-3085.274,10395.9990234375
539,-4250.667,170.33798,-2870.1829,-25.39615,-299.40198,-96.922745,3955.62060546875
540,3677.819,711.0246,2839.0474,-234.57887,411.19162,-604.015,2963.74145507813
541,3368.9888,3738.3984,645.91815,-569.6895,-1318.9644,-424.6479,3910.38647460938
542,-6437.809,680.38354,-4888.283,-171.87285,-1862.2538,-4169.653,10231.8359375
543,871.55225,730.5409,129.70424,3778.065,199.92638,-71.15376,6589.54052734375
544,7836.466,197.29721,692.7367,714.9161,-103.45355,-515.47815,7561.7587890625
545,-945.0696,-318.3899,1024.7422,-129.98158,-64.76099,-683.4813,2122.06323242188
546,2570.718,-2396.0806,-1594.698,404.07874,-527.46655,374.25476,4803.716796875
547,5045.294,-4507.7266,-2423.1118,-1954.6761,-592.44196,898.49115,9519.90234375
548,9093.324,126.95864,2377.1172,-4105.9023,-884.091,585.41547,10919.31640625
549,-910.47644,-334.31744,-10396.705,-369.85184,3868.4905,1634.4346,12210.9052734375
550,755.5826,644.79913,1279.075,-751.25073,-817.3484,-1599.3527,3422.77758789063
551,1471.2637,1712.6635,1497.7014,1119.8362,941.0326,349.14185,2614.76904296875
552,-3985.1902,-128.79837,-560.63055,-2844.7983,1668.5286,204.83342,6793.33447265625
553,3045.6365,3052.3462,2595.4438,-1239.2771,-504.87122,-1681.3871,3749.53784179688
554,-7484.9385,-5234.767,-2735.1155,-635.1326,-1954.6858,-230.14285,5455.97265625
555,1120.9949,1351.6566,-1500.3632,-354.84665,-3.4880176,-2480.9285,5135.38427734375
556,2448.9102,2742.8643,3573.771,213.62111,-167.32968,-57.59492,1118.88989257813
557,-4051.0066,-1024.4989,-1091.0819,-707.0249,-1038.2863,2134.708,5231.38330078125
558,1195.5593,4805.0483,533.96814,-1574.1987,-1444.329,460.20325,5493.81884765625
559,-1861.061,-71.5465,3190.6729,-64.363304,-894.0638,-363.91116,4742.3623046875
560,-4679.6045,-7193.2085,-1387.0396,-1839.004,876.53906,-109.29232,6158.08349609375
561,-4466.3696,-1915.5167,454.9339,-994.9306,293.98697,-1814.9805,5593.20703125
562,559.57214,-4799.6543,-3556.4402,807.03906,650.47076,-1496.6376,5792.00048828125
563,-616.9944,-3319.7998,-1211.1526,656.36285,-975.7912,1302.8243,3910.66284179688
564,-2440.9082,-2918.5398,-2875.8892,3139.1868,156.74362,2423.754,6889.88525390625
565,-372.8881,4996.8364,680.86774,1433.118,-288.8667,878.24585,5745.5830078125
566,6416.9526,-298.25522,-2608.2227,237.7602,58.774143,-2244.595,9013.1259765625
567,-506.35568,-3595.5293,-587.94775,-1111.806,-1389.5562,2219.7297,5794.8369140625
568,394.71976,-129.9453,1845.612,-1060.9172,-1021.3666,994.7635,3551.96606445313
569,-1530.2372,-1100.591,-5897.3774,2017.5342,397.18094,-1912.9248,6692.9267578125
570,79.694885,2151.7039,459.72202,836.53876,21.822388,-1416.1166,3430.33520507813
571,-1239.3993,8752.721,-326.22852,-1649.8297,356.77893,869.5221,10117.693359375
572,5511.262,3411.5356,5045.849,1283.387,581.5205,-1699.3352,4274.0126953125
573,7012.668,6399.4785,3832.1914,-1211.2771,-327.06592,-1852.2943,4853.52197265625
574,695.14026,-1010.11676,-1517.157,-72.05207,2066.7283,2089.715,5473.57470703125
575,2565.7332,44.096737,3254.78,-1945.6295,-1194.5336,1344.8207,5443.6884765625
576,-1223.0624,270.85876,863.68036,-1752.7915,-366.8318,645.5637,3786.77368164063
577,-237.11844,3568.8887,3967.806,4799.6523,1157.5304,-1439.5208,9772.8896484375
578,-7912.7188,1905.4001,446.98056,-263.5554,1375.6957,-98.967255,9493.0966796875
579,-9846.135,-1278.5237,-7300.1016,-3021.8213,-28.470387,2995.8386,10601.6328125
