Element Label,S11,S22,S33,S12,S13,S23,Mises
1,200.96289,-5380.7715,-9516.312,-8533.027,-128.53247,-11819.968,26626.37890625
2,6427.9385,21160.186,12034.357,-5934.2246,4189.326,2727.819,18614.384765625
3,-19568.477,13045.557,-1143.261,3201.2075,233.75072,5.0400405,28864.34375
4,13690.541,27840.215,-7160.6914,-11894.015,1298.5651,2624.8281,37150.44921875
5,-11378.733,-16177.311,-448.04883,-8435.246,-11594.873,4219.086,29413.3203125
6,6461.2534,-19460.08,1241.895,-600.01654,-9348.6875,-11808.695,35291.27734375
7,1467.8405,7825.787,-3104.8281,-751.27734,-2091.9053,13825.959,26051.83984375
8,1082.4634,-838.6362,10085.794,-3863.8035,-9869.651,-6279.555,23608.521484375
9,-28596.293,6909.123,-29310.594,6405.057,1377.9733,954.6949,37656.4921875
10,53932.742,30587.557,42714.027,8627.62,-13033.08,8555.297,36897.48828125
11,1234.4346,-19907.166,-8143.436,969.40454,10658.286,-9766.133,31086.927734375
12,13254.34,26803.836,23053.545,4935.131,347.72736,12345.323,26028.625
13,-14165.392,-22821.928,-25924.1,-2667.1824,109.425385,-8306.143,18432.76171875
14,22598.605,28914.754,16081.436,-6260.089,-4508.508,-586.8622,17410.052734375
15,-22790.766,-24647.82,-3824.0183,-5601.189,967.41907,18158.812,38530.03515625
16,-4401.0103,-4939.09,-5452.6787,438.5923,-840.00916,400.14594,2000.98498535156
17,5844.4834,7624.3774,816.2634,3044.1594,-1971.5042,890.9799,8901.8798828125
18,6827.583,13387.486,13149.679,3156.2969,-8655.924,19130.676,37338.16796875
19,164090.44,163599.31,163435.42,1098.5481,-67.48136,-84.25933,2000.984375
20,14146.43,14350.361,15456.363,-411.50757,-279.91992,-768.2196,2000.98522949219
21,-2039.7437,7717.158,-8563.566,-4784.526,2994.0193,6324.6,20420.0625
22,8749.81,8936.048,9689.298,-28.942757,1039.1903,-80.26101,2000.98522949219
23,4659.9614,6446.3145,6734.145,-97.58535,149.88474,-199.92159,2000.98522949219
24,934.87634,1816.8925,9110.216,2498.2283,921.283,-1008.2716,9204.50390625
25,15017.21,29639.186,4650.0186,-1378.0176,-6220.3413,3865.0935,25287.5703125
26,14109.22,17498.514,12857.462,-1388.1737,-7904.9653,1208.3298,14660.2685546875
27,5954.682,-1734.5422,2193.585,-2220.8972,-4529.372,7002.9277,16365.0810546875
28,13364.635,11062.276,12863.0,-1182.2042,-1766.8741,3557.3455,7477.96923828125
29,1796.7706,-3486.065,-8161.708,-12284.298,-12945.332,6783.0625,34175.38671875
30,21344.658,16905.438,15120.975,-6059.088,4087.998,8115.9517,19715.259765625
31,11803.066,5667.5537,5943.74,-2099.8684,-3018.1587,3302.2441,10454.515625
32,24298.8,937.1964,-6469.522,-5702.061,-1085.4844,-1058.6165,29632.654296875
33,6400.3047,12410.4795,-5069.3486,-3674.3564,-561.6353,5783.28,19452.44921875
34,3815.7595,9854.0,-12755.762,2926.759,-1720.3018,-2104.09,21424.1953125
35,-2026.1908,-12162.409,-12771.646,-1154.942,-332.8473,-7715.605,17094.302734375
36,-2026.0743,16257.5625,18307.26,6268.09,-17573.256,-2759.8345,37988.7265625
37,-1105.5299,1905.582,-6480.4595,-632.5113,-1616.5397,-6669.6367,14022.5947265625
38,5278.531,28954.217,21552.584,-3542.7266,-17184.605,-84.92716,36928.171875
39,9726.605,8213.972,7363.116,1832.7985,-7050.786,-1723.7692,13131.3134765625
40,-10915.233,26874.969,5340.191,-5558.187,7661.319,-4661.584,37576.60546875
41,-1002.8032,12864.169,7563.4375,-4494.8657,-13834.196,-5695.196,29647.22265625
42,11792.566,13510.051,23312.361,-10191.811,-3034.4053,2715.5098,21845.69140625
43,2267.4985,1839.8232,-1732.2292,1035.5049,-150.70068,4560.838,8953.1455078125
44,3649.6716,1792.0688,2427.86,177.77261,390.56866,-509.127,2000.98547363281
45,-192594.89,-191506.7,-192911.05,889.18945,30.28002,16.125294,2000.91186523438
46,276245.62,277446.78,276016.12,860.5911,1.62702,55.601864,2000.56127929688
47,849840.1,851732.1,849776.7,-315.85294,14.60212,-7.7851286,2000.95544433594
48,272958.62,270893.97,272753.06,3.1611109,-18.962309,201.73578,2000.96130371094
49,5185.392,4602.3574,5032.807,1062.1671,41.21998,336.64948,2000.98522949219
50,7612.0107,5892.8467,7759.56,-450.2342,234.09908,-12.18163,2000.98522949219
51,4874.3984,4331.4214,5409.1855,-576.40424,202.90213,819.04645,2000.98559570313
52,1375.4191,2395.6296,843.959,-444.90225,-447.9371,560.5668,2000.98547363281
53,27267.898,26636.383,27969.887,-879.5677,-198.40924,-276.89136,2000.98449707031
54,-58571.113,-57621.61,-56726.5,567.55695,240.0589,-322.48282,2000.98010253906
55,42003.598,41302.332,42547.43,-919.41876,-280.03265,-142.63704,2000.29528808594
56,8418.767,7297.4243,9004.908,743.9725,167.00456,21.284716,2000.93774414063
57,17373.264,18932.889,13377.72,12291.082,-4962.0303,9170.202,28354.603515625
58,9072.59,8037.3936,9441.45,-851.69183,275.18628,-60.5113,2000.958984375
59,12649.055,10852.718,11437.957,-194.77159,-676.27185,-4.4471455,2000.9853515625
60,23993.6,19643.082,18076.213,2505.1738,-430.07486,-833.9803,7047.54736328125
61,11791.888,13472.725,14309.206,1283.1885,2297.3342,-389.8759,5114.67138671875
62,5526.5273,4850.169,5337.097,683.0241,381.39816,-775.1905,2000.98522949219
63,-23649.506,-27039.146,-9769.736,-1617.5481,-3051.1555,-2264.4604,17388.11328125
64,28165.613,31526.254,32654.145,-1560.894,-8088.308,985.4758,14927.8701171875
65,7069.07,-5084.84,-7109.9375,-2213.5625,-919.12256,-2397.0356,14522.48828125
66,40840.82,36384.51,37881.46,-623.6397,-528.96564,1619.5272,5030.255859375
67,17916.244,19803.87,3452.3462,9642.641,2300.5874,-4517.22,24415.26953125
68,12329.533,10906.16,-3177.535,11128.396,5885.4346,6631.6504,28771.4765625
69,9956.798,7421.131,5254.257,-4609.8345,1017.20123,-10467.374,20302.04296875
70,10493.052,-3144.9382,3214.7356,2098.315,8456.292,9370.532,25116.98828125
71,-1718.4102,11941.41,-7661.143,-3276.8535,2943.319,9599.874,25253.888671875
72,5320.741,14607.36,25126.793,-6787.0215,4077.216,-4308.66,23202.271484375
73,-3792.9111,14041.894,15135.33,-5599.6772,-668.70123,108.27508,20838.015625
74,-12851.01,-20465.79,-6200.146,-180.72969,14453.992,-7295.7046,30649.587890625
75,-20695.04,-16810.564,-6789.2446,-2612.0076,-708.70306,10656.081,22739.265625
76,-7162.783,-3493.109,3807.0942,-1794.8527,9919.068,5180.1875,21883.330078125
77,6784.003,3224.3997,36407.66,-7309.5273,-3695.26,9582.61,38372.0234375
78,-15700.901,-26434.477,2561.8672,480.76385,4748.5107,2480.9329,27047.490234375
79,-13867.335,-10768.039,-1930.479,209.0479,4900.0713,-8869.441,20573.34375
80,-89270.19,-80458.34,-56498.95,-1112.929,-10353.103,4096.0146,35191.4140625
81,-2190.3164,-2265.0112,9703.409,-3105.226,7703.2876,7846.402,23108.482421875
82,10359.47,-3001.3503,-2354.0217,11270.654,-11310.936,9223.639,34502.21875
83,4949.7393,5152.0576,5594.7515,641.74994,-566.8792,701.874,2000.98522949219
84,31093.285,29936.75,31405.035,359.3394,-150.88464,-764.40063,2000.97705078125
85,6256.9883,5915.5356,6355.2207,-539.121,-880.9046,-463.40353,2000.98547363281
86,3481.666,3762.479,3066.8423,592.74164,556.3548,742.4958,2000.98522949219
87,22909.504,14820.985,30001.088,5392.7095,5723.1533,1179.1674,19046.09765625
88,17634.162,260.01385,9443.275,-1315.6083,2405.0645,8927.923,22097.7578125
89,-3384.821,-5097.761,-3969.3218,-345.05853,-625.1641,-257.9817,2000.98498535156
90,19004.914,17813.781,18880.197,-874.29803,-312.51788,209.719,2000.98400878906
91,7106.024,7826.4414,7394.322,-828.2225,-167.09879,-699.49915,2000.9853515625
92,1471.622,1849.3099,3861.579,3.7952583,161.6199,-1107.9556,2951.77709960938
93,-474.09897,513.19257,391.327,321.08456,-872.77374,424.33325,2000.98559570313
94,-14635.339,-21164.078,-8474.973,-2158.3647,-4944.02,-9716.63,22166.15234375
95,40779.457,28482.754,31938.037,811.3774,-4238.3574,6888.8354,17857.587890625
96,-1732.6051,-1764.8954,-2259.496,1634.1046,-339.17038,1424.4598,3834.69750976563
97,6377.1675,7225.178,5198.934,2243.844,-897.0193,-1138.8107,4951.32470703125
98,-38232.44,-32201.398,-33941.13,-363.60663,-1782.7319,431.0819,6276.6455078125
99,-6101.098,18410.252,-2224.2317,75.42338,-1812.8868,4789.9126,24485.009765625
100,-1561.9495,-3288.5898,-2505.711,1912.9612,-1833.1962,3265.7505,7436.255859375
101,5138.777,-11390.966,-14294.065,8577.803,-8768.255,12445.143,35294.12890625
102,4873.139,11841.582,27616.234,4886.9917,1947.5736,-7839.2856,25975.2578125
103,-28265.848,-30022.09,-28818.527,154.89146,197.22968,682.17,2000.9853515625
104,-85821.2,-86187.11,-86033.5,-446.843,-250.06337,-1019.02673,2000.78088378906
105,18768.53,-3517.3406,8313.299,-309.34918,-6771.868,12376.387,31150.51171875
106,4506.459,10303.34,8462.328,3377.471,-4810.578,741.50977,11472.46484375
107,-914.5969,-10451.781,-10198.682,1969.4034,-5454.0522,3389.0315,14964.638671875
108,-10110.852,-29817.617,-34719.96,2741.7656,5295.276,10730.892,31002.04296875
109,6093.767,5637.8896,5561.7593,-218.31802,-4081.734,-6389.2686,13146.9091796875
110,1757.0232,12119.748,-14088.88,-220.00697,-2215.366,11497.603,30563.68359375
111,26465.236,18232.465,20821.312,-1564.2914,691.4549,-1519.4724,8298.7353515625
112,208.45068,696.81964,-605.0726,631.10504,-676.0707,-216.19751,2000.98559570313
113,-7082.531,-9069.431,-9654.469,525.7618,-1416.832,1133.1737,4019.4794921875
114,1470.3142,1359.8784,782.14197,99.56085,158.94695,1078.3683,2000.98522949219
115,9339.442,3458.8228,7740.922,10806.479,2236.5718,-9749.287,26042.833984375
116,9244.93,-4083.7422,-5593.9326,14703.509,12864.962,5398.444,37849.62109375
117,6292.383,8535.517,24336.332,-4299.8774,210.70364,-5168.792,20637.1015625
118,-27136.373,-5276.3193,10498.529,8123.8438,3061.587,-1834.7886,36162.91796875
119,16014.691,27148.246,-40.08789,144.32976,9294.898,3102.063,29130.310546875
120,-32885.46,-22786.836,-16302.74,4624.926,-4208.2046,691.17365,18117.287109375
121,30764.666,30748.197,30899.535,-34.71393,911.6302,703.9026,2000.9853515625
122,529.0591,4952.1484,4626.4424,338.02655,391.68185,986.71765,4685.4072265625
123,-1232.7006,13935.614,16573.3,-2785.9185,2403.118,7366.767,21919.42578125
124,-412.78595,16454.617,-970.55414,1142.9652,-4127.115,-3643.1377,19724.7109375
125,6308.2485,4985.2036,-14906.914,209.50414,-1765.3866,-1655.0106,21011.033203125
126,15545.766,10027.594,4428.698,2893.4392,-279.49133,-6407.3965,15530.873046875
127,4926.6436,22949.682,6545.896,2299.788,16047.105,7493.761,35427.859375
128,12210.571,14831.05,14840.616,2562.7095,9018.86,6384.8228,19822.005859375
129,9885.669,8860.148,9748.523,-290.7862,-129.87613,-960.8702,2000.98571777344
130,19589.793,23788.555,7735.269,-5756.318,-6648.3745,-7439.9727,24617.095703125
131,15908.699,15184.007,30748.123,-5155.68,-264.02734,5521.0254,20071.998046875
132,20189.258,13146.478,8990.949,38.832558,1325.6227,6194.0034,14714.24609375
133,3963.3184,-203.3396,5862.303,1266.4418,1742.9731,4127.373,9690.75390625
134,7084.6206,8132.6255,7314.951,510.4632,867.1496,137.11171,2000.98498535156
135,-12787.098,-11650.281,-11978.976,-633.1194,753.4838,-154.3618,2000.98559570313
136,-14688.659,-13845.242,-13388.236,-4.3178506,924.0571,213.37675,2000.9853515625
137,54297.34,35688.74,51196.25,4733.1665,-51.950027,-1624.8307,19321.666015625
138,26487.424,27094.23,26261.47,133.65393,889.41254,583.3267,2000.98559570313
139,-91454940.0,-91456600.0,-91455280.0,-737.9517,-156.08456,26.836996,2002.01647949219
140,4070.7854,3941.4385,3775.6995,-221.1386,-554.452,-977.98206,2000.9853515625
141,-6875733.5,-6876633.5,-6875996.0,-904.0561,186.77214,-61.74064,1791.84167480469
142,755228.56,754216.44,754436.44,-992.64026,99.571045,-221.91858,1995.90087890625
143,20447.24,38222.074,42099.84,-574.22723,-1441.6123,6233.3496,22884.412109375
144,-16082.4795,3430.8574,5727.0347,3736.6113,-4761.5835,-141.19212,23255.396484375
145,230.88753,11621.963,13676.263,5901.095,3947.3882,8122.764,22506.21484375
146,-8169.8945,-21677.748,12558.775,-3673.6726,8853.482,-685.1441,34193.390625
147,2117.2017,-7722.2856,5552.4507,3715.7004,2766.9932,9741.994,22170.361328125
148,-17017.412,12451.896,-1987.341,9682.287,-7303.049,-4637.5713,34017.37890625
149,11048.817,8145.3115,-10926.96,5094.738,5751.0767,17094.965,38488.51171875
150,-2550.8188,3593.581,8867.942,667.5091,-975.1198,-6522.3726,15158.9462890625
151,15135.514,14187.665,12566.629,6331.1753,-4648.7427,-4586.2466,15913.75
152,912.74115,-27344.229,191.7378,6064.125,-4344.671,8040.0425,33756.16796875
153,19868.736,19426.715,16852.512,5495.4927,1809.9973,-4204.326,12705.0546875
154,11430.065,11462.06,10892.418,224.85469,-137.5295,-1078.3058,2000.98522949219
155,8902.284,7744.2256,4077.1538,-13965.992,-8863.116,-9453.093,33285.57421875
156,-20839.863,-22838.459,-18366.008,2166.0566,-2028.082,2566.3706,7825.09521484375
157,3515.421,-445.78973,-5639.4185,5183.207,3175.3777,-8457.491,19714.75390625
158,24658.26,15563.25,16533.72,-6961.629,-4566.1587,4965.64,18887.81640625
159,-267.3701,-1753.736,2351.044,-5366.4536,3404.1963,7339.0615,17196.072265625
160,-771.9564,2625.4873,-2278.7478,2062.6404,1464.938,7387.431,14207.6142578125
161,5134.013,-7345.361,-13283.412,4647.798,3690.9585,-3380.6355,20126.10546875
162,-935.4049,-2971.0938,-7017.145,1079.5605,-6139.8345,-3573.6501,13551.865234375
163,-3956.5903,13456.6455,10471.694,-3219.3804,-8289.09,5044.7954,23952.51953125
164,16355.415,16663.5,11165.941,-2686.4324,-4657.8335,4016.5989,12796.8955078125
165,313.97775,5555.94,3031.135,-1150.7174,-2742.4373,10370.155,19229.498046875
166,21158.656,21732.232,21085.623,343.28174,-1044.6599,9.2587185,2000.98498535156
167,-2963.6655,-3741.4692,-3795.3206,-281.16165,7.624097,1019.28864,2000.98522949219
168,1420.8135,1475.2118,619.4506,-5320.626,-157.4381,6538.1587,14626.443359375
169,-3125.4055,-20735.717,-12.528585,-3958.4644,3478.7107,5651.5576,23532.205078125
170,25197.963,24989.004,38628.4,1316.2725,7227.244,561.78125,18602.966796875
171,3166.4844,9012.461,13445.238,4528.5586,-903.4754,9309.67,20092.8125
172,10263.927,9455.845,10074.86,491.45828,536.3186,791.7228,2000.98547363281
173,-36685.15,-36546.465,-35553.754,-897.9926,-200.77277,327.34073,2000.98425292969
174,-95369.71,-93582.55,-94773.26,-480.44366,-523.6161,-41.52862,2000.98120117188
175,1173.0741,906.9555,-523.42365,-357.34006,-9148.804,1296.225,16094.1904296875
176,7972.68,-5546.2007,2375.809,2081.619,-2905.9998,8281.924,19558.28125
177,-62253.914,-60712.195,-61098.21,-697.44775,-62.753574,446.68478,2000.11828613281
178,4282.5435,4261.6294,4757.7925,-284.57224,235.89171,1057.9242,2000.93176269531
179,13274.674,12786.201,12499.701,278.32315,-233.43365,-1024.279,2000.98559570313
180,11113.205,36393.695,22978.96,-2746.8904,369.5079,10135.645,28480.9921875
181,-6413.9688,9589.153,-23122.064,9101.271,-7642.3726,2615.189,35311.14453125
182,-3202.4944,-1545.6414,-1269.1986,-2204.618,-1301.5277,1811.1595,5725.68310546875
183,34244.555,34949.69,34574.816,-732.61957,-726.8352,-380.99518,2000.98608398438
184,5488.0,7370.1807,5649.845,-321.21747,20.880548,-378.117,2000.98559570313
185,11987.929,6746.1357,-7306.8735,7346.843,-10818.489,13344.883,36686.9375
186,9535.943,11077.219,9807.03,189.44514,-788.4728,-1.3234156,2000.98474121094
187,44850.07,52810.47,35423.773,3743.898,4360.522,1493.1685,18249.42578125
188,1136.9084,11531.971,7008.139,4589.6626,-3897.8218,-4729.0654,16042.5400390625
189,13184.241,3746.8647,4068.0024,-2114.4858,-11249.506,-11298.662,29362.955078125
190,-8389.978,-7923.9717,-9532.568,86.831665,-711.33563,-368.87195,2000.98559570313
191,-6101.5537,-5599.4507,-7108.181,31.430714,-127.726425,852.68207,2000.98547363281
192,9400.518,3703.0405,15845.041,-13832.682,-15423.803,-5533.2427,38604.03125
193,-15051.264,-12047.682,-15782.335,8716.085,-12217.751,-13618.338,35268.3984375
194,647890.4,649733.1,647816.6,-347.3348,-41.290916,182.00818,2000.87219238281
195,9633.706,-1409.2336,17327.986,-8040.2686,-12299.841,-11930.461,36618.5703125
196,9808.317,-7060.358,474.23062,-6916.437,-2536.6406,-7447.8394,23312.00390625
197,15126.175,-1423.5265,12467.157,1735.2272,-18661.508,-2070.771,36105.5390625
198,21481.621,19201.326,10292.857,-12243.457,6416.6294,-4072.1885,26978.671875
199,-4653.339,501.3363,2222.955,11385.079,997.6961,-8863.324,25805.63671875
200,-2828.3828,8483.213,-10238.711,-3369.9119,3512.0015,3129.8506,19161.08203125
201,-1984.738,-2294.0466,-10055.648,679.86096,-3360.2527,6163.216,14558.677734375
202,21618.781,22797.277,21913.041,-17974.025,-4952.8765,-9789.724,36488.828125
203,-5918.616,-5164.288,-24771.418,1007.80164,6821.894,-37.251995,22646.947265625
204,14152.594,32833.242,45763.1,-7638.0005,-14071.735,2298.1638,39275.80859375
205,19515.98,20063.535,13474.803,7176.759,-10814.587,-7668.4287,26868.22265625
206,-4530.867,4093.3457,2611.3723,5963.8594,-9846.747,8580.025,26119.361328125
207,16162.094,23517.836,15976.931,9583.308,-16703.951,8435.677,37169.484375
208,9344.621,13707.32,17333.889,3711.5469,1089.1857,11795.933,22590.365234375
209,874.97595,-6354.334,6602.224,-259.626,-18598.021,10328.4,38527.35546875
210,16735.75,19374.164,16587.047,5436.8154,-19506.857,-2151.6292,35376.453125
211,2405.3127,16370.195,15956.803,-5137.1206,-19449.13,5662.995,38724.67578125
212,256.96747,-11218.519,-14950.504,1094.1458,-16623.135,7188.577,34293.515625
213,14271.597,23020.072,22850.637,2101.0266,-1473.0948,-230.28723,9746.501953125
214,23407.164,13396.639,23430.234,-2787.0178,-5958.72,3864.288,16584.984375
215,1384.2982,-865.5041,1213.4165,1060.8909,-1422.7166,8388.943,15009.2734375
216,-9678.45,3001.2727,8099.792,-1277.7944,9002.099,10388.737,28691.58984375
217,-12850.432,-9746.25,-9235.908,-3742.0215,5320.9844,-101.53822,11766.83203125
218,1092.8417,163.61829,-836.1454,531.1858,131.99411,323.1168,2000.98559570313
219,988.02216,1523.4537,2535.4712,-803.64685,151.06891,219.99991,2000.9853515625
220,4522.1206,5723.1167,4511.682,338.67154,-596.70276,-615.5344,2000.98547363281
221,-9135.999,-5076.2603,19772.58,5856.6196,-10573.52,-8843.189,37519.73046875
222,-3849.847,-20262.537,-23274.393,4090.4954,-5114.948,-8298.276,25751.6796875
223,1924.4791,-6793.765,9219.7295,439.7413,6890.4585,9912.585,25112.220703125
224,8389.36,-14166.746,2061.3633,-9016.758,-10089.646,-1673.9894,31045.158203125
225,8343.857,9288.759,10836.448,4435.7227,-7613.417,-7049.76,19666.3984375
226,11709.236,-3289.6028,-8991.97,-736.0516,-11793.1,5671.0366,29297.609375
227,-6506.1353,-12911.189,-3974.0178,-2265.4312,3878.045,-5879.003,15094.931640625
228,-15086.197,-15532.2705,-15949.078,-524.8151,-254.7067,898.95996,2000.98547363281
229,-2960.4517,-3238.7854,-3950.1401,110.42053,-1013.8394,184.62962,2000.9853515625
230,8051.646,9238.986,8700.341,340.51797,17.177475,-930.0249,2000.98522949219
231,10611.958,11352.372,11741.679,474.08878,-346.11172,-812.8675,2000.98522949219
232,232.39778,2316.6914,472.47086,-35.361546,-23.10299,179.86823,2000.98522949219
233,20194.99,31534.152,22682.596,1638.2195,2413.4026,9897.005,20638.17578125
234,-20613.598,-20746.256,-26249.17,11182.012,5991.0713,4583.493,24017.615234375
235,22828.389,18062.781,-553.74445,-6576.084,-6424.5737,6594.8413,29017.94140625
236,48499.992,24243.648,26512.459,-1361.7518,-1348.3578,5232.201,25132.24609375
237,3515.4714,29808.508,23035.38,-7045.263,-8104.2104,1048.4739,30138.890625
238,15743.771,28411.732,29459.918,8784.865,-11634.66,14367.253,37838.15234375
239,27008.965,17882.531,29503.197,-6711.9316,-7782.2803,-8582.35,25496.830078125
240,11541.696,5833.507,11613.145,-5262.5093,-8980.474,-8844.582,24345.533203125
241,-18456.37,8410.327,5644.394,1331.8217,15198.801,-982.05365,36829.109375
242,-5451.7476,9606.961,24045.184,-2683.9478,4594.155,6131.381,29160.916015625
243,-13634.997,-5072.204,-23338.38,-5539.1475,2042.0011,1355.9719,18990.44140625
244,-14673.018,-11721.298,-34277.766,-2107.6853,2304.9915,-1871.9517,22151.86328125
245,20491.742,31177.031,36987.2,-8592.925,4789.9062,11408.365,29846.505859375
246,5309.805,6536.033,9436.129,1721.9365,-4318.828,-1064.6907,9040.0830078125
247,20285.832,14004.44,18366.678,-1247.882,-4798.5933,8386.739,17772.095703125
248,-11715.521,-1478.3997,12829.702,12401.253,6860.563,4321.2324,33385.453125
249,1202.7893,-2240.9214,-21312.596,-2619.48,17054.492,4263.0024,37268.4453125
250,3946.2097,-9180.532,-15723.0,7147.879,11565.436,5793.203,30923.041015625
251,21159.004,13705.068,357.98502,11743.621,2601.9893,11470.236,34087.26953125
252,7835.5405,11748.077,11820.9795,3792.361,911.2687,12430.616,22908.435546875
253,-12231.145,-8874.162,1179.9844,-2739.437,13671.288,-2025.1382,27232.998046875
254,23599.84,7481.101,10371.579,-3789.7144,-7616.0083,7650.531,24784.39453125
255,-7154.6694,9825.511,791.4875,14411.052,-5572.891,1062.1844,30596.275390625
256,23801.535,43825.715,41167.164,4367.113,-4207.737,-2626.022,22041.291015625
257,9192.217,10987.959,10582.633,-47.47427,650.7379,147.96944,2000.98571777344
258,23036.53,22526.098,23890.477,680.37445,-34.212254,-628.7706,2000.98608398438
259,14526.164,13772.289,14989.362,434.9857,678.7192,-554.45044,2000.98376464844
260,7767.3022,7394.6304,6939.47,-485.1659,-203.16017,766.50287,1763.02026367188
261,10548.124,9411.747,10411.537,-733.18427,-244.51198,593.60815,2000.9853515625
262,-550989.4,-552221.8,-550966.7,-557.33026,-35.28378,-712.0347,2000.98571777344
263,210307.66,212193.38,210431.78,261.52164,221.77335,323.15732,2000.82482910156
264,209091.52,207849.34,207203.34,565.2318,292.42874,88.28427,2000.28430175781
265,1356486.2,1357478.4,1356797.4,-1023.8448,-77.19774,-151.43619,2000.97155761719
266,433500.34,431777.34,431412.8,63.951824,241.11945,-16.527554,1979.19287109375
267,12538.8955,13126.279,12128.453,-861.1047,-584.0347,-22.95533,2000.98571777344
268,-120910.6,-113206.87,-114066.266,-4152.0215,-3199.4355,-4229.774,13768.2783203125
269,39383.195,45833.68,47742.75,3460.07,-3749.4214,2797.673,12615.0458984375
270,7060.5723,7795.0034,7383.4424,-721.01135,-269.46216,778.89404,2000.98425292969
271,16116.857,12562.963,17035.195,6511.392,-2328.8818,321.72226,12669.390625
272,33895.625,14928.648,23142.52,7140.561,-397.5682,-2414.6218,21032.11328125
273,50145.805,49149.41,49030.38,-595.8985,401.64008,-665.61676,2000.98449707031
274,3849.8289,24069.537,23887.041,5948.499,-5906.247,12738.996,33208.90234375
275,5469.7197,8412.917,6957.486,-3702.7488,-1898.9641,-1145.5948,7898.3212890625
276,54517.863,57954.887,45439.24,-4662.3975,-6456.9927,5527.334,20183.765625
277,-7178.6826,7666.976,2063.0955,3142.9224,-492.88412,-884.92444,14188.5771484375
278,10697.888,4416.46,8451.72,-11768.401,3350.2917,-11961.947,30146.576171875
279,21433.285,18788.91,27580.715,1090.7163,7706.722,-734.80725,15633.5927734375
280,-2756.2717,-1549.4592,-1649.7771,-935.2137,-85.94964,64.578766,2000.9853515625
281,4984.8057,6.917928,16907.586,-462.1916,11660.179,-3264.971,25822.1328125
282,-5145.4814,1942.9054,1128.6266,4459.4155,-8230.115,1124.0228,17657.58203125
283,1509.0156,-5431.6826,-22030.145,3027.1484,-6.626578,-4190.8247,22783.046875
284,6556.5864,786.33307,24865.607,704.28876,-2802.7578,7201.474,25589.09765625
285,-11415.927,-7185.992,20558.648,1482.8209,8403.924,2696.252,33842.265625
286,-4118.015,-6540.1416,10636.28,2037.042,19107.996,7573.4766,39232.13671875
287,-14726.781,2944.3616,-7478.602,780.8157,5096.265,-11639.959,26887.404296875
288,5494.832,-21595.182,-25484.707,8748.007,-775.51654,7434.66,35377.59375
289,220.56047,1221.803,-329.08133,-296.86523,100.17022,1055.2681,2343.11303710938
290,23703.914,-1543.4742,-10626.841,-2179.16,-2221.6562,9391.528,35255.1484375
291,7283.0254,-5099.1997,-15632.207,1428.9878,-3749.2832,1245.5736,21157.447265625
292,14021.041,-4471.323,17595.893,-4190.955,-6736.8755,13355.369,33834.90625
293,21974.982,24504.826,26675.76,273.04465,-3019.775,4304.317,9988.36328125
294,-1379.243,13127.611,-14.113407,2508.9949,-6194.457,-19250.568,37924.41015625
295,10661.5205,14132.1045,18257.783,16974.861,-1397.499,-2042.6045,30433.50390625
296,5434.519,15339.679,24117.832,5997.1206,-9698.382,-1954.6504,25761.431640625
297,2452.5488,23381.29,27580.084,11091.414,-13502.796,4495.22,38989.40234375
298,4419.8525,12413.966,-17127.205,885.62463,-200.88121,-3052.3374,27034.33984375
299,-11161.033,-12321.105,-7952.6445,16498.412,8167.5576,-6843.8027,34243.16015625
300,24011.14,-7526.331,5238.398,6098.374,-9586.614,-1405.8464,33884.98828125
301,17862.021,-7840.381,11764.078,2019.2362,8967.949,4231.4863,29125.37109375
302,-1063.2646,2071.07,12959.927,13616.541,-13289.887,-4315.3076,36117.5859375
303,3003.2385,2544.8066,2106.594,283.7764,-429.74072,-931.8875,2000.9853515625
304,3392.8816,-3306.8389,-10390.651,25.634657,738.99756,2063.6504,12527.669921875
305,758.23145,-4055.215,-2830.0234,-46.44889,-3274.294,-13210.146,23968.02734375
306,-6470.263,-5258.6973,-7188.852,-279.73328,550.2508,-44.658096,2000.9853515625
307,19283.686,18642.105,18989.348,1628.0741,-924.1166,156.76375,3301.05932617188
308,-58025.64,-63141.445,-55619.2,-2802.898,-795.2837,-1770.9426,8896.525390625
309,-25594.615,-12476.61,-26937.227,-3921.6106,-475.40012,-6383.554,18988.455078125
310,33145.832,25000.785,32277.172,6435.994,4474.855,-92.08936,15632.8359375
311,20603.877,30234.0,21268.062,3567.1804,-186.13408,-225.73271,11189.966796875
312,-12160.968,-925.73,-11488.879,-10074.558,-14268.59,212.75783,32164.19140625
313,-12064945.0,-12063463.0,-12065197.0,-669.0625,-28.718088,73.22744,1998.6962890625
314,-14047.615,-11401.884,-7784.135,3080.727,-2039.3523,2624.1697,9553.423828125
315,-54798.94,-53101.723,-53342.105,-168.88054,-584.0655,-348.6287,2000.984375
316,-1788861.2,-1790561.8,-1788848.2,470.0988,-18.387735,376.6087,2000.86755371094
317,15096.155,16255.779,15580.936,-323.36716,218.59612,918.20746,2000.98571777344
318,3788.963,-18852.168,-2779.557,7272.945,3235.0078,4311.19,25551.705078125
319,7769.096,6474.074,8549.894,-222.91231,-428.97647,-40.554005,2000.98522949219
320,-23894.498,-13208.686,-2158.2217,7221.095,-9819.253,-223.2773,28288.123046875
321,-858.7758,3760.9587,-8175.2915,5423.2617,2415.694,-9433.868,21941.04296875
322,4576.671,-4557.492,11993.119,5834.9766,-12088.224,2543.3271,27678.5390625
323,316.22604,11990.894,-23183.146,-3285.208,-5115.7744,-6078.4297,34418.00390625
324,-9702.385,4168.343,6010.1274,2529.5432,-4291.5767,2915.2283,17924.298828125
325,-443.59155,-1719.4629,8256.083,7243.618,-688.3885,-7389.868,20274.958984375
326,20188.885,24575.465,22528.445,5261.5576,-12000.086,8018.127,26877.16796875
327,7833.181,7696.716,-1801.7107,-8184.825,-5839.9414,5439.524,21990.658203125
328,4907.016,-2424.9495,-7.780897,-850.2875,101.92622,10667.691,19633.564453125
329,-8983.107,-16060.721,-14280.801,-2049.2944,-1339.8735,-2984.0093,9239.083984375
330,13066.452,-11130.959,21678.275,-1310.1874,-4569.1714,-3111.4536,31062.6328125
331,713.46014,1044.2133,1567.1393,-533.6598,-681.5153,632.55206,2000.9853515625
332,-918.869,1508.2036,4403.5903,3474.3464,-3360.6387,14011.112,26083.134765625
333,-8582.851,-16805.248,-27269.531,2904.797,1795.7401,3964.5798,18582.029296875
334,5204.328,11399.065,12135.234,3787.1953,9730.253,-799.9851,19299.197265625
335,7995.7046,29304.154,41846.83,6206.462,10834.533,2591.5054,36966.2421875
336,-24405.443,3915.3674,-17549.193,2081.515,11898.337,6100.972,34702.6953125
337,-2734.7463,-20055.844,7487.305,14489.937,2590.431,7220.051,37255.3515625
338,15429.286,1159.0208,11445.075,2712.3757,-7553.852,-581.0664,18892.447265625
339,22370.979,21140.32,22819.719,214.5136,174.71132,-708.565,2000.98645019531
340,22432.684,22945.195,23898.656,-286.34546,-668.1905,-502.69485,2000.98449707031
341,112097.336,113931.36,112836.836,-670.16205,-118.27166,-3.5270917,1985.84875488281
342,50010.605,50041.984,50231.64,-928.0945,-233.21463,636.0794,2000.98522949219
343,34078.03,42224.492,46158.31,-3016.556,3377.4448,-3227.2603,14375.4052734375
344,3012.8528,4955.407,6824.934,-1456.2684,16540.918,4545.076,30000.69140625
345,-5567.278,-4183.6616,-4538.3213,-850.9919,97.8636,-290.50833,2000.98559570313
346,8880.16,-15966.64,8313.545,921.10205,6358.831,4603.997,28125.53515625
347,4837.915,13847.878,6947.4917,-4576.3135,-6601.95,-2808.088,16848.2578125
348,-20864.947,-21342.875,-27639.504,-7786.7534,-15953.863,-412.12045,31446.34765625
349,8906.11,-6471.5244,-11971.38,-9326.42,12546.482,4031.9246,33663.82421875
350,-2527.1372,3385.7612,-5359.7676,16024.119,2832.8523,10800.016,34699.40234375
351,-4064.6558,163.30115,16337.497,-1145.9863,-187.65872,16207.346,33763.0546875
352,4957.1494,11779.805,26050.305,-7055.529,-14563.728,11295.339,38935.3359375
353,1438.7915,23702.602,-2928.5142,6120.763,-5612.144,2834.4402,29033.865234375
354,-12748.33,-5910.3755,-12137.352,4436.7183,-6969.9844,4338.7983,17442.01953125
355,13075.406,6042.1753,26069.816,1133.8531,3612.0647,2650.6729,19333.64453125
356,-909.05237,-13757.888,6997.7217,-10321.271,-10078.119,-6892.7305,33106.23828125
357,10076.854,16609.219,-1636.0176,-1437.5211,6358.5366,-814.70416,19643.306640625
358,7383.5176,12506.629,2057.4297,2573.575,3289.4119,-6141.213,15728.1171875
359,-24514.773,1500.279,-6138.4463,-1382.1552,1065.9417,23.9466,23357.0703125
360,-3926.3499,2305.2297,-7790.6533,-5760.7715,4204.3286,-672.078,15224.64453125
361,4776.1025,3287.5422,8856.225,10951.154,11303.598,-2890.6416,28162.056640625
362,-5108.966,4111.9536,-15317.989,-3373.2954,3569.7744,-9485.87,25013.966796875
363,-15643.168,-9594.523,-13762.392,10043.449,-892.60376,8110.851,23045.77734375
364,-2526.6301,-566.9177,1470.5525,2304.186,638.1472,707.3426,5534.90087890625
365,2284.1611,2421.8672,6333.452,-1181.702,6.7717633,-638.7287,4612.095703125
366,-551.6074,-18513.838,-12106.031,-5086.8486,8652.144,4776.8076,24885.009765625
367,-3566.3806,-5092.7075,-2691.7139,-1279.4469,-6105.2695,366.57428,11025.732421875
368,-18369.654,-17641.793,-19499.896,-153.27562,-1358.2368,7788.6177,13792.1162109375
369,-4801.5234,-2549.6338,2240.3264,159.13217,3265.1277,-2389.8064,9380.50390625
370,3869.5269,12366.065,15814.473,5306.577,1605.379,-2587.3367,15022.521484375
371,6860.9214,8417.555,-6989.872,279.75098,-1611.1211,9784.812,22607.02734375
372,-3512.5876,-5992.0693,-9933.141,-1079.9542,-2703.3782,-190.26001,7548.771484375
373,5419.6323,8491.333,9848.752,3525.3022,-8135.622,1322.5127,16016.958984375
374,-2068.438,-162.46753,-4581.24,5417.3545,1896.9979,-3949.8147,12664.056640625
375,7408.1704,8294.417,5732.536,3248.8162,3907.3245,-5008.502,12561.8251953125
376,-1114.4619,3372.5107,2145.9248,2551.6814,-242.52031,-3323.108,8304.974609375
377,-2890.3716,390.5703,-2555.8645,-2549.6277,1552.1166,320.4854,6067.6279296875
378,-1116.2501,-1468.0906,1475.9539,449.44104,-156.0864,-860.886,3264.63012695313
379,-7492.3867,3611.2468,2929.6685,1545.7312,-2193.9246,72.92349,11739.291015625
380,11379.989,26056.004,3162.2754,-9460.128,-10313.236,2768.1968,31844.603515625
381,-12375.011,8985.933,14479.122,2786.8892,-6987.6616,2122.0461,28055.240234375
382,-2701.2393,40.965576,-6956.7744,3667.4475,-958.164,-804.1779,9074.3408203125
383,43.914673,3024.9512,1288.1726,1078.0067,-3314.8533,2202.2375,7597.77490234375
384,17186.785,8337.286,3665.2837,-3642.1838,1140.0807,6016.954,17140.396484375
385,19448.61,340.6123,14491.237,8270.744,12839.322,-4145.118,32346.125
386,12839.008,4299.742,18838.67,9767.827,-7917.5596,-2840.6428,25664.177734375
387,-8976.643,-6815.0645,-17325.71,4955.6973,-3812.777,1670.928,14767.9091796875
388,1715.5847,-12528.578,-201.68994,2931.2976,4744.9497,46.3337,16510.29296875
389,-2937.2434,-7541.552,-2888.639,4241.6504,4501.137,-31.950539,11669.8056640625
390,-3880.5942,-3803.1443,-3308.522,115.90679,-1191.9847,209.6781,2173.39331054688
391,-5934.7666,-6555.9946,-10850.272,5872.743,1154.3003,-3565.5757,12926.6787109375
392,10380.846,13383.273,13922.882,-3855.0386,3782.0696,1484.096,10248.3955078125
393,-2478.118,-7871.247,4023.9155,-4343.1377,3281.4175,-20.52714,13975.74609375
394,-8447.906,7181.66,-9598.852,-2183.8806,-2116.0105,-1614.779,17296.23828125
395,-1045.6084,13149.398,1446.7749,-3776.3774,3499.4731,-4853.2935,17958.736328125
396,-736.8836,-893.9151,1291.0555,-1677.1459,-180.17471,-294.36972,3640.25415039063
397,-2633.9214,-2200.9905,-8700.695,-1475.0244,5468.5117,146.16241,11658.6748046875
398,7714.909,2930.8704,5120.1255,76.57757,7.4304185,1140.1736,4596.09912109375
399,9536.531,17445.703,10117.125,-797.7208,-2262.3376,2952.5125,10085.41796875
400,7178.945,4932.8438,9964.795,-1800.6606,322.80777,-5000.258,10203.4658203125
401,-141.14795,1668.728,-4072.6125,-2036.0232,-4857.9854,3868.1716,12408.546875
402,5000.511,1841.5769,5811.758,472.5176,-2696.9744,1329.3617,6402.50732421875
403,-7051.5327,807.5425,-7717.4336,3104.564,4102.9976,-190.23906,12123.0830078125
404,4495.652,-17448.273,-3079.8662,2036.6897,1305.3616,-1002.3249,19830.732421875
405,-14692.0625,-12342.9795,-12854.716,-7895.4404,-6037.534,-2858.7131,18040.623046875
406,-16431.973,-17262.809,-18222.33,-2681.4417,-5657.2407,9102.735,19198.205078125
407,19120.832,24729.908,-1508.5371,-9430.85,-2669.27,3643.0583,30012.626953125
408,3779.1646,5118.727,2875.048,4628.6562,986.2899,4924.747,11990.58203125
409,5465.411,7806.922,2175.9905,513.4639,-1253.4974,-5216.769,10542.9560546875
410,-872.1727,2618.164,-7773.164,2646.245,-1854.7639,2749.1733,11742.873046875
411,3314.4177,1158.0452,-5067.2183,6942.025,-3125.9763,311.72226,15199.001953125
412,154.29346,3215.3252,3032.1396,4972.2075,-2586.9666,-1265.068,10386.9951171875
413,-3101.7798,3544.8027,3850.456,-6577.384,-5917.8384,-4784.254,18703.4140625
414,1659.309,1779.4962,-4713.9277,2006.0725,1063.0342,2217.2605,8462.29296875
415,8572.0625,7492.7046,3469.8928,913.14996,711.2931,-2156.192,6297.37353515625
416,-1997.794,-7513.14,-10304.634,-1973.11,27.797987,1019.2447,8270.787109375
417,833.73285,1675.387,2237.781,3757.0127,-1572.6562,3097.153,8946.521484375
418,-12325.185,2967.8184,-12740.2,5120.2114,4024.664,2884.4275,19814.091796875
419,8712.104,16245.423,15837.982,263.21722,1567.0797,-1971.8347,8549.0927734375
420,31188.102,22906.22,32971.94,4978.8286,-3622.3826,-10915.512,23616.12890625
421,-9023.902,-250.96814,4522.1216,4734.496,929.52655,1505.1503,14773.4765625
422,2042.3533,2972.7542,-1365.1924,8103.7437,-4.5148497,4060.0022,16189.8203125
423,-2773.5654,-3628.8752,1211.839,2141.2275,4186.46,224.38028,9301.005859375
424,11284.089,-9078.281,3901.3992,-1640.2898,6330.6313,1418.0798,21287.0
425,-908.8203,5944.4624,11146.955,1982.4913,4199.815,-989.1236,13316.486328125
426,12919.705,2145.7588,5668.5664,-5610.547,3121.3613,92.59358,14636.3466796875
427,19876.287,22456.541,23352.02,4163.1646,-7728.2544,-1496.8862,15737.3994140625
428,-396934.03,-397106.9,-397133.06,-149.91783,-173.07068,1126.9722,2000.64404296875
429,-9748.464,-5643.6323,-4330.99,-1434.1519,372.63943,-1120.4877,5857.8388671875
430,-19033.396,1167.9473,-1493.6245,-829.95447,1016.3228,-7618.679,23253.150390625
431,-19682.793,2684.5361,-16015.857,8767.855,3872.076,-1880.0299,26794.263671875
432,-874.47266,9506.75,5335.4473,-2154.837,2786.1145,-859.40045,11013.595703125
433,-7137.208,-10991.903,-6772.5366,1299.5404,2536.093,-659.357,6485.625
434,3661.9766,-864.3716,1731.4519,-3782.1526,3308.811,263.14386,9562.58203125
435,5294.242,4730.2563,3562.587,6148.801,-4456.958,-3586.005,14626.5185546875
436,-7120.5786,-3527.0405,-11853.804,-3194.6216,-2674.0789,376.54904,10238.17578125
437,-27832.105,-4130.5986,-15781.387,1088.2092,2325.8213,3987.078,22109.552734375
438,-10960.976,-12504.147,-16492.186,-5695.685,11472.722,2261.07,23064.47265625
439,3022.5977,4268.1353,1483.7942,10.046343,7443.3936,-5481.105,16191.8515625
440,3164.67,-1218.4983,4099.5425,3110.9375,-806.1248,-622.26917,7505.2529296875
441,13798.365,8905.31,12199.865,1538.4735,5131.9443,4416.987,12779.5234375
442,3838.1147,4925.331,3748.6523,1301.439,-2273.7527,-2123.9502,5950.7890625
443,1665.7375,-8387.422,-2359.5579,2609.691,5844.893,-440.85977,14152.9130859375
444,8013.346,-348.68063,-10210.234,-337.2198,-3247.0464,-5596.9126,19379.98046875
445,1563.8665,-62.985962,-3072.8965,3251.4136,-7157.7354,-703.0934,14265.3603515625
446,-5243.2134,-689.5869,-2439.8157,-1313.7389,-2630.3945,-844.84393,6626.07470703125
447,1651.9136,8912.297,15621.298,3768.6157,3913.4724,-1878.4388,15670.7548828125
448,-3934.8762,1555.481,-18490.43,2325.6912,6963.8823,4156.6626,23140.232421875
449,728.4758,3299.0408,6621.929,-3595.0068,-436.56027,5906.2637,13045.5712890625
450,-452.21887,-2472.1729,3227.7913,-3334.2239,-206.83394,-159.47504,7655.84228515625
451,304.32196,6235.1333,4391.394,-11061.395,-3984.676,-2058.5112,21331.84765625
452,-4627.303,-20797.318,-5357.2827,-5228.7134,-3290.9194,10733.974,26652.615234375
453,1131.5967,8741.788,18648.078,-3193.0122,-2264.0327,362.02744,16667.185546875
454,-13430.982,-7891.2485,-1247.4697,-907.0098,6893.186,3065.9216,16877.466796875
455,2200.8557,-2013.6652,4004.809,322.05124,-243.57076,4187.466,9039.5234375
456,1723.21,10703.807,7843.824,11864.138,-7995.185,5415.9546,27661.998046875
457,583.68994,-881.2864,-10466.157,-1065.2537,-2108.7788,-752.71326,11247.328125
458,2057.8818,3222.966,2412.3027,-1979.2733,1055.8002,-824.5035,4266.87646484375
459,957.2539,-7157.5166,151.06885,-705.50244,-3734.5442,-2093.1855,10790.521484375
460,14669.9375,18589.68,-919.3037,13231.672,8993.34,-3385.694,33492.6171875
461,6873.509,4200.466,12912.958,5087.686,-4875.307,-3590.4475,15728.8671875
462,3650.6868,1199.5874,3684.1387,551.0262,-1555.0092,3721.8696,7470.80908203125
463,1428.2703,-2901.5098,726.0335,-214.09349,937.32495,1812.671,5369.37353515625
464,-6795.058,-4223.452,-6163.938,884.27716,619.325,-706.4205,3222.1259765625
465,1159.8928,-5529.039,135.3175,-29.16335,-548.1926,-21.6747,6312.19091796875
466,14959.107,10847.391,17924.572,-2564.6528,-538.8332,-2823.4084,9078.083984375
467,-2999.0146,-8859.728,-9454.025,5738.6147,559.9697,-579.30475,11786.71875
468,-1057.0062,4813.1904,-12316.78,2146.543,3503.6045,5959.6997,19609.73046875
469,1098.2913,963.6432,4290.2124,1851.0957,-83.920975,2.522982,4575.70654296875
470,-2799.9373,1161.5537,-1897.3274,581.0938,97.163666,-168.36906,3749.50805664063
471,-20579.756,-7414.6143,-11272.636,2829.4097,1953.592,-3620.1106,14566.939453125
472,2505.6401,-689.3583,4200.8076,-1073.4409,5879.381,-5941.857,15217.517578125
473,6611.664,1798.1375,-1301.7996,-5981.325,-511.68076,1518.6478,12756.7373046875
474,597.0481,-2206.677,5523.511,1412.9253,-927.82074,424.725,7419.98388671875
475,-6879.397,-9097.126,-282.59766,-580.9327,-978.116,-1473.5505,8571.0341796875
476,-9966.607,1863.4165,-8525.298,1548.1708,-625.6223,5423.083,14885.2373046875
477,2281.247,-2997.742,-7703.235,2479.7341,-3737.155,415.41534,11649.6162109375
478,22962.74,14460.908,710.1074,-2886.5913,120.65007,-8197.923,24595.353515625
479,-7846.4023,-1219.7095,-3052.1172,1897.7566,-3147.9104,2137.415,9453.3623046875
480,23886.602,18250.926,-4138.5947,-3775.4792,-3684.599,2156.6763,27507.759765625
481,-132.56409,571.7477,4544.5024,-1573.4554,-2500.2773,703.85443,6837.00048828125
482,-14374.64,-14021.418,-3087.709,3862.5107,-3150.8804,-2190.2488,14576.1943359375
483,-7074.64,-319.4292,-9907.244,974.72614,9333.546,822.0246,18412.333984375
484,3164.1187,776.7102,-1292.3843,-1480.8131,-533.8428,412.08978,4781.57763671875
485,5926.6514,-6512.2046,1627.6473,-2493.0251,-1679.7158,-863.1161,12209.6943359375
486,-8615.512,-10957.07,-4151.906,-646.6874,4579.8105,2426.28,10848.8515625
487,-1923.9808,1265.5251,295.9259,2686.0623,-980.1716,1810.1721,6509.8154296875
488,-2294.7495,972.83704,9490.871,1989.2174,-1483.0991,-2129.4043,11964.1220703125
489,4468.129,6040.669,4832.1494,2311.0938,-1143.346,320.26907,4720.7900390625
490,-4528.5215,-572.9197,2257.523,-1883.3906,-1287.453,500.8213,7156.8740234375
491,-4824.519,-9281.626,11000.318,-507.19528,-7868.719,5528.574,24880.546875
492,13141.2295,17106.604,4334.1523,-5692.149,7890.875,-4780.5293,21926.51171875
493,-5267.571,-4685.011,-4358.0186,-282.44415,1649.5779,-1184.7267,3640.07836914063
494,1184.1476,844.5681,1139.5728,264.17004,-1169.8918,2497.851,4809.9111328125
495,-13550.583,-8271.261,-9098.027,1165.1866,-863.5277,30.401943,5522.93505859375
496,-9204.777,-3476.4763,-752.2449,5405.678,4185.6753,-278.97418,14010.61328125
497,-1939.3562,-10020.816,-837.68726,1708.0953,5928.984,-4897.6914,16174.0595703125
498,-2732.826,-9065.886,-7122.991,1045.2692,-1522.071,1626.3434,7052.72021484375
499,3958.325,1661.3928,-642.25,543.9716,-4356.614,38.251774,8585.2392578125
500,4968.948,5408.661,1621.637,-386.4527,-1402.1355,1861.5342,5441.6552734375
501,-5524.3438,-7296.3887,-9285.132,2526.281,-1732.0547,-2339.5874,7428.7763671875
502,188.98242,3512.8062,4750.632,-1818.412,-2792.9426,4432.016,10437.6279296875
503,-6806.865,1779.6455,-7804.856,12312.577,7753.89,-361.8746,26811.44140625
504,-22132.785,-5882.2925,-10787.126,151.59982,8897.73,1670.2344,21316.115234375
505,257.83228,-833.46436,-1483.2373,68.31759,50.514324,-1018.7665,2336.13793945313
506,3146.0342,-5458.163,-4508.6343,1824.1989,5280.4824,4699.533,15055.04296875
507,1060.8408,-5576.7417,-8051.768,3791.2402,-1848.6946,824.29974,11046.4189453125
508,1783.5066,-9130.872,-2832.5657,-655.8134,284.79382,-487.16245,9607.0703125
509,-2248.8213,-1994.7196,6307.1655,823.7907,-1842.2192,4587.6274,12101.7177734375
510,-5563.4473,1733.3358,4207.4697,3251.5007,-342.87103,590.3769,10513.4521484375
511,-3689.6514,-2563.6475,-18461.648,11215.533,-289.3036,1483.8044,24906.5
512,-10163.531,586.5166,439.20044,4147.9595,-814.0965,753.5582,13011.9208984375
513,306.29346,-5031.831,-5640.058,-3265.5789,1590.9557,-672.1764,8547.1171875
514,6838.7856,6713.0737,7961.925,-303.5033,4682.5737,-2799.2646,9538.4443359375
515,-164.80542,-542.1803,2196.301,17055.006,-2293.291,-3956.5835,30691.515625
516,3636.814,-3302.9287,-3041.133,4972.6646,70.73529,-870.01044,11085.1123046875
517,-1967.0154,-8298.433,-2171.975,1023.0479,-1499.3375,-1159.648,7262.880859375
518,6682.5176,4016.2249,10252.975,-2089.7107,1655.1001,-799.0162,7253.35693359375
519,-5061.9697,1338.7202,-4874.5083,1588.3547,-1096.7178,-1154.6566,7414.90185546875
520,3105.3704,5593.3237,2487.756,-254.34937,-2969.7673,167.51353,5902.94580078125
521,-1488.5343,-2459.3308,4154.1836,3531.1113,3612.118,-620.7802,10768.712890625
522,-3589.226,-454.023,262.12048,-2517.7822,-534.8256,-997.3872,5953.8017578125
523,-10805.589,-17096.96,-9827.212,-2319.2224,-5514.0376,-1650.6913,12736.501953125
524,-4567.075,-7554.0522,5201.563,2162.5022,-2027.4254,-4018.5686,14433.7900390625
525,10315.775,3656.0415,2047.2957,-4580.6777,528.929,-1165.8234,11203.5029296875
526,-8019.556,-3796.0823,5730.694,6398.691,-2844.8425,386.6237,17216.005859375
527,699.2051,11769.381,14892.018,4294.647,5498.062,16048.477,32947.6328125
528,-2491.9119,3413.611,588.37177,-363.98782,2000.0092,-36.166893,6210.81005859375
529,-6034.5845,2238.9849,3755.2417,-766.1942,9205.758,319.54547,18428.2734375
530,-986.541,-2149.3398,-3375.275,-1225.9994,744.97894,835.91547,3542.7392578125
531,6175.1484,15829.264,-1136.8423,-4559.77,-7684.462,10619.01,28197.08203125
532,-3365.3682,-2548.3762,-716.66736,-759.949,-403.37125,47.401882,2783.26391601563
533,-2227.7285,1172.6438,5537.457,1497.5049,303.75586,185.66547,7250.0966796875
534,-3230.7852,-1459.4075,-973.5054,-397.8515,-922.18427,1173.7185,3375.43627929688
535,4251.13,4785.4727,8191.78,5542.6436,-1107.333,-5278.9453,13897.900390625
536,-5745.9077,456.9348,-3760.0522,2102.862,-346.64447,-447.07364,6657.8623046875
537,-6016.945,-8090.0117,-3451.1084,-319.5922,-1845.7083,-869.19415,5384.5244140625
538,-954.073,-3076.6821,-854.9334,2551.2036,730.89435,-4212.554,8893.318359375
539,-1974.6855,-8626.209,-595.41846,684.87225,1428.6117,-591.6955,7993.7236328125
540,9345.477,16565.986,11600.173,-1206.6112,-1709.173,1006.37573,7557.068359375
541,3773.2163,657.43896,5303.483,79.56201,-888.6559,487.85434,4463.1689453125
542,1166.0262,-936.29443,3127.1487,65.28988,-548.80145,-259.80667,3675.25463867188
543,7613.7715,-3003.7275,12434.842,1931.989,-4279.2065,-869.7995,15986.3681640625
544,-12331.14,311.67676,-6904.421,-5232.4453,-11438.208,-867.98926,24445.337890625
545,6716.861,1051.782,4011.3247,1224.0864,-702.82837,-95.68859,5485.48095703125
546,-9580.37,8199.459,-13269.986,945.3268,826.7269,-1027.2794,20080.677734375
547,-7485.2896,-8502.272,-2910.6118,-1315.7057,-814.9864,-852.61475,5998.4169921875
548,-10528.157,-2789.6807,-5625.5903,3193.6013,1226.939,-4529.579,11943.4267578125
549,466.3401,464.54272,4400.2427,-5695.7915,-6180.8247,550.34674,15110.4345703125
550,13591.609,4892.385,-1775.687,-735.1268,2304.7407,-1859.2635,14355.279296875
551,-3243.292,-910.27277,-129.52808,-1810.1342,34.49357,225.8227,4226.150390625
552,7860.9316,-1851.7317,-2463.9612,-444.4567,161.60216,-450.90677,10096.4326171875
553,-1474.5792,-3103.2786,4571.757,-4567.991,1248.2013,-760.162,10865.8037109375
554,6881.995,-1348.6243,-3651.7969,-464.84598,3671.8835,1983.5308,12037.6015625
555,2002.1128,10013.386,7145.6978,6047.0938,2242.9568,216.77142,13204.7666015625
556,2441.289,2059.4653,1569.7119,-3886.9512,-1400.7255,1053.617,7423.89599609375
557,3610.3691,4904.4556,5497.193,-2207.0737,2331.8064,990.7827,6055.0380859375
558,-7767.635,-1626.0309,10355.765,-4220.4487,-8423.018,-10439.622,29122.25
559,-1747.4922,-9926.035,-2695.3354,-3689.7354,-1444.0536,312.3465,10364.6513671875
560,-9226.367,-9230.1,-6754.884,-1674.6248,-5213.3477,290.50342,9814.3125
561,-4281.863,-1257.7258,-1631.2109,-2485.3464,-685.1938,1506.9286,5908.23486328125
562,-3694.711,-1383.443,-430.333,968.6155,-3001.5999,-59.945084,6189.3056640625
563,-4792.7217,-5517.9907,-10769.307,-2727.1638,1099.6151,623.0468,7682.13818359375
564,-1872.1848,-287.2268,-5482.88,-1277.9453,1944.2292,-705.10364,6245.2412109375
565,-3464.6094,-2518.0776,-3041.4656,-42.948994,838.2354,1560.8401,3177.509765625
566,2679.3083,-1576.4014,3794.9702,-3326.6865,-2910.0105,-1870.2997,9654.158203125
567,8004.338,2237.371,24218.945,-6465.624,-1748.8529,-3621.3137,23740.484375
568,-1908.9336,-10114.634,-9896.176,2129.4534,4693.7183,1304.5377,12263.392578125
569,3006.6445,-806.56866,-1552.6603,-2521.8496,919.5018,-164.73242,6295.974609375
570,2967.2004,-2923.5083,3606.795,1076.3881,2857.3015,248.12645,8187.2001953125
571,2644.5908,1207.6682,2122.058,1848.3779,154.75526,-490.8615,3554.03076171875
572,2672.5906,6788.1846,8924.291,-1460.3524,98.622025,233.13402,6073.09912109375
573,1604.1865,23.957764,1347.2384,-1382.1161,107.451416,1049.1376,3350.30590820313
574,1466.7527,-5300.849,-4076.053,-1249.1053,259.43713,-143.13647,6629.91748046875
575,-4750.6123,-11156.93,4237.026,-2172.934,11663.924,5589.0376,26370.712890625
576,2452.6304,9228.701,5940.7017,-5407.6597,11514.564,-947.9035,22861.01171875
577,-749.0075,3970.5378,-3340.565,-4199.8945,3746.8362,-4347.349,13890.76171875
578,2140.83,-582.4458,10009.449,-8418.322,-665.9191,-8209.617,22514.173828125
579,4879.273,7067.6724,5641.805,1423.8379,1310.9828,-3215.313,6778.9755859375
580,-16197.192,-1768.4232,-8932.04,-6421.44,7604.7017,2135.6963,21610.81640625
581,-9585.199,4702.557,-10010.64,-4744.284,6259.0146,-8345.292,24584.17578125
582,1857.6748,5784.8784,-2756.816,3907.886,3080.1597,-7150.4277,16807.7734375
583,4113.0947,-3049.1882,-36.81047,1892.6416,863.87024,166.25702,7201.75244140625
