Element Label,S11,S22,S33,S12,S13,S23,Mises
1,6222.298,11256.602,4327.869,7439.2075,995.22955,-4182.0176,16122.49609375
2,15386.764,10225.529,-3964.024,-4061.6458,4833.013,-712.5551,20550.07421875
3,-4156.6025,22609.893,5610.3877,4126.747,-2726.4575,8892.469,29343.314453125
4,12033.271,34001.316,47397.242,639.3562,5565.376,5239.5786,33657.6015625
5,14477.166,20962.137,24365.256,3120.1235,3300.8745,-18965.865,34881.37109375
6,-840.48157,1891.6879,1188.0256,-5002.883,-1216.3328,2592.7385,10282.46875
7,15059.876,12868.146,-4970.251,5793.6646,-1451.5641,579.4373,21682.64453125
8,9641.746,-3103.373,4801.315,4456.9644,4448.425,274.9272,15600.056640625
9,5865.958,-7324.043,-29672.205,8181.344,258.46295,4329.5903,35006.1171875
10,12263.626,468.32053,-6297.187,-12585.96,7994.6562,-3153.2092,31007.958984375
11,8216.11,-3186.0793,-958.7936,-1703.0715,-173.15709,-158.17804,10883.0673828125
12,-5181.8105,391.17807,767.00824,-1156.3499,1417.9662,-3806.7988,9317.318359375
13,16423.953,5872.086,11904.035,-4272.545,-2182.9792,4439.8574,14569.6640625
14,-1151.7067,2614.0527,-2567.4282,-6078.0527,2395.4968,-439.2385,12253.1083984375
15,14328.676,4005.7136,19453.416,9197.476,-4511.7354,-5105.1484,24057.525390625
16,7855.639,-1430.9746,18344.615,-1374.8169,5989.5913,6031.128,22717.533203125
17,23368.803,13790.396,46078.41,1803.276,685.92883,11051.956,34678.49609375
18,-8587.215,20485.428,22039.26,6849.063,9478.861,-3377.6692,36569.2265625
19,3228.8826,2277.4949,3663.6477,107.74332,-295.22955,-649.5093,1752.05126953125
20,-8730.459,-7251.49,-8539.657,-2407.4675,-5191.764,-10407.316,20618.66015625
21,2611.5122,3738.4165,25063.123,-4440.8193,-14625.243,-2285.9155,34591.5625
22,-574.0113,-81.75121,377.54425,-163.22044,-1503.2521,114.20097,2752.7646484375
23,-5564.345,11737.53,15066.597,-1676.1573,-72.143524,566.3829,19427.896484375
24,17294.967,12235.907,28913.404,-2067.3093,83.422066,-5117.7725,17628.8828125
25,12810.93,29872.248,32458.168,894.928,-4734.016,-4221.6016,21563.765625
26,-11338.744,9499.335,6122.1157,6255.6787,-10340.12,-5341.634,29983.501953125
27,16760.115,23485.377,32175.926,5153.5205,-6735.5776,-1657.7437,20080.48046875
28,4853.9575,5157.962,22035.164,5369.982,350.96246,-2183.6929,19779.998046875
29,6364.949,14643.693,28237.293,4586.97,-13146.199,-3358.2217,31325.4375
30,-7022.6934,-4779.565,52.125065,2215.0405,-15844.337,-74.711334,28409.15234375
31,28312.824,27002.662,29157.508,3559.3516,-12183.933,3024.882,22679.021484375
32,6086.6104,4750.6187,15640.417,-1461.3358,-9805.915,-5432.2803,22118.484375
33,9298.109,11873.308,11345.241,3269.84,-10026.897,2826.4893,19058.05078125
34,9758.523,9166.936,33224.805,-1930.3214,-11038.952,-6358.489,32602.81640625
35,6183.921,10029.397,-700.06354,3312.0718,-16436.27,13222.634,38164.453125
36,5348.4277,16815.152,20116.922,-2182.1045,-15220.922,2122.5427,30051.25
37,5935.019,14370.967,26569.857,-5882.9985,-4044.6814,14634.935,33441.5703125
38,11417.024,12680.955,17457.805,-1200.1277,-7817.13,2775.7534,15530.9794921875
39,-6858.186,15681.535,4325.2764,3330.0776,-14240.707,5980.9414,33615.66796875
40,-4654.2056,7840.332,19326.166,460.104,-6241.313,3916.7485,24394.013671875
41,5759.1465,16972.244,17025.58,1932.8168,-7403.7407,6382.3564,20595.90625
42,-1210.3757,-415.80365,5393.4175,-384.71176,-5983.4805,-4165.5576,14103.1904296875
43,-4769.922,-8310.422,-8628.303,1487.6948,-689.4458,-3998.557,8354.2041015625
44,1703.9639,-4180.6694,15421.063,127.674095,922.9223,-12923.772,28410.978515625
45,20814.172,11753.831,39739.473,-3832.119,-3609.0042,-11302.862,32834.75
46,-2845.925,-3229.7844,97.30357,1145.6611,1901.3319,-15054.947,26545.75
47,7408.3906,4743.925,10840.128,-3524.2087,6079.059,-6865.5176,17819.958984375
48,37794.617,29721.613,51736.703,815.9882,-6272.684,-2284.4807,22534.494140625
49,10832.352,-4669.331,6787.717,2464.6702,2387.5781,-13516.008,27880.736328125
50,1119.3649,-16574.672,-3117.0808,-2214.2168,11037.8955,5415.148,26911.92578125
51,10942.676,13824.171,13955.89,-2534.054,-1470.9354,-14096.345,25111.26953125
52,12053.801,5958.9834,16846.258,-2729.7278,3415.9275,-13203.498,25878.189453125
53,8210.801,-1209.5996,19722.115,-1555.0371,1121.6658,-10180.222,25527.142578125
54,7837.9062,-3117.8533,18077.375,2084.877,-1519.4409,-10169.909,25832.2265625
55,1846.4329,-4969.0425,16367.763,-3665.9895,-228.12413,-6560.635,22932.287109375
56,-2557.868,1520.3082,8084.131,215.40916,-8549.947,-4368.7383,19057.421875
57,2841.726,840.09467,-169.03479,-160.3797,10455.546,5116.23,20337.2734375
58,-511.0926,931.89166,5688.4087,-2118.4656,12485.292,-5406.7915,24502.6875
59,3461.8354,22261.88,22249.828,-8332.71,15461.454,-528.66736,35770.45703125
60,2619.1338,12597.598,19793.803,466.17313,11803.647,-2111.8762,25596.3359375
61,8932.692,16162.543,22848.182,906.1982,12015.503,1709.6138,24282.78125
62,-3106.2046,4735.2314,12134.677,-47.699677,8809.27,5090.3813,22018.5078125
63,6772.6797,16819.627,34815.13,1036.268,4092.9307,-1709.8804,25842.369140625
64,12447.488,30671.38,50570.418,-4239.131,9509.504,-3126.1511,38016.32421875
65,10009.918,18481.47,26108.295,619.4725,10396.04,2008.0978,23065.73828125
66,16689.19,28938.959,40466.207,-2708.098,2431.8289,1169.8457,21633.048828125
67,66.29642,6376.4805,14269.455,-2152.0703,10846.704,-7502.897,26223.10546875
68,5705.272,16579.875,29937.91,-1875.6008,17278.238,4210.7065,37434.125
69,8685.225,20361.512,30925.629,5994.2393,11428.637,1183.7139,29582.484375
70,11934.034,15635.5205,26244.605,127.134476,10483.025,5060.8906,23918.419921875
71,5487.5317,16571.594,42669.938,601.3233,3751.358,-1989.9694,33888.6171875
72,424.2344,181.0551,12232.513,4116.1597,9751.072,2907.8225,22445.732421875
73,1509.6733,-588.2774,-20332.23,3051.488,4741.7134,-1965.1725,23294.181640625
74,-32.509964,10131.07,11592.135,-7480.5425,-7302.3853,-3465.5022,22003.6796875
75,-3279.179,-2623.3022,6735.509,-5830.684,-5540.8374,1632.5122,17211.748046875
76,16383.046,21137.87,-845.8602,-2782.2017,9860.0,3715.641,27525.673828125
77,-2839.1792,-4609.096,-1584.1738,242.90181,-2938.502,123.64085,5749.447265625
78,-23670.615,893.9016,-9428.647,-1486.2019,-5350.7856,7987.378,27208.744140625
79,495.83,-1024.3171,779.2198,493.68393,-61.3039,171.59554,1911.21228027344
80,1468.6816,1126.8372,2730.9377,93.132095,-441.10452,12.754627,1658.87670898438
81,-7497.5137,-22832.87,5064.877,4504.8926,-7894.7007,3392.6724,29462.302734375
82,-1786.8119,-13864.547,16477.645,5622.75,-2647.4988,5936.014,30358.48828125
83,6283.959,-18938.56,-14088.006,-2705.8384,788.5511,-2321.34,24028.23828125
84,16032.285,20637.156,5011.9653,5995.675,3272.4265,5225.8193,20378.853515625
85,9066.398,13192.475,47014.55,-3983.898,-825.83167,5610.476,38007.92578125
86,10752.393,-289.6578,-2339.8281,1688.1401,-1834.1426,15587.769,29939.02734375
87,18675.12,18010.33,42025.434,6089.9116,1192.1475,12690.446,34056.8515625
88,31527.24,1975.0859,33978.465,4218.847,-9529.386,2074.222,35923.64453125
89,-7934.897,2051.6472,19512.064,-10379.182,8419.852,2056.165,33578.47265625
90,11187.724,5215.794,25138.867,1263.2032,7093.373,10045.672,27786.59765625
91,3714.7666,11904.829,16085.846,-1078.3273,-10179.767,2193.4897,21156.708984375
92,12239.156,19972.229,27743.135,-3569.8716,-8961.201,2627.566,21911.9609375
93,-4112.627,-388.08765,3270.6265,149.22267,-10028.502,-2231.2178,18910.30859375
94,20378.195,18929.855,31421.21,-10642.176,-11608.725,-498.1086,29746.25
95,13326.448,2773.9832,-14618.049,1192.5858,165.03165,-7094.256,27435.37890625
96,20973.645,23091.506,36817.402,4949.788,8476.488,-7737.6724,26279.71875
97,9259.275,21216.182,25551.55,-3824.093,203.29677,5978.5044,19100.345703125
98,768.5515,7354.172,20131.88,8059.838,-7263.213,4404.6533,26497.88671875
99,-893.59424,8400.217,14155.837,2635.0286,-5599.219,-1098.225,17073.251953125
100,14776.246,12107.549,26255.574,-3895.5483,3266.61,7858.8965,20793.1875
101,19841.66,28024.94,34755.152,-3016.7117,-9778.449,-2326.4556,22309.865234375
102,56737.723,58565.316,63501.68,1028.1876,-13056.155,3492.6357,24246.361328125
103,-15584.232,-17568.078,-14313.635,2421.1152,-15843.255,375.0909,27912.439453125
104,-2245.4336,2739.7788,7270.099,-1354.8052,-8970.977,-2965.8254,18474.060546875
105,12951.891,22730.45,31109.256,3513.5254,-8626.574,11003.49,29517.37890625
106,9417.245,11303.082,18204.457,2132.1196,-5928.315,-8874.387,20482.6015625
107,3274.6165,5034.2026,6933.1357,-1148.3857,-11327.522,3381.7927,20814.6015625
108,-729.76227,13649.019,14104.535,-2537.0415,-3125.8374,556.59436,16219.072265625
109,7917.2573,-226.26038,-4115.8906,1012.7938,-7046.756,1732.3225,16558.1328125
110,22660.516,26818.533,35747.33,3522.132,13502.35,-1361.9924,26904.650390625
111,23493.496,24737.959,50304.74,11231.505,11490.24,2282.667,38434.02734375
112,17835.611,30418.422,52271.668,336.98004,9046.516,-1164.4163,34070.41796875
113,6516.5684,15099.14,-17111.51,-2659.6257,-2282.4187,2418.273,29818.275390625
114,8362.873,14294.304,22492.518,421.46945,9276.231,-231.83139,20244.982421875
115,1880.1995,33499.355,-743.5971,7710.7603,-8605.283,69.7057,38602.48828125
116,13388.259,13227.445,31481.303,106.50408,2065.4211,4853.353,20341.845703125
117,1379.2062,-1797.6755,-4217.802,2856.8926,8526.989,7184.926,20521.25
118,2325.464,-1006.0971,-93.269936,5261.3853,-4592.6436,-3500.2754,13855.3544921875
119,9383.924,1684.296,12943.386,-2256.74,8654.489,-4269.3564,19849.986328125
120,23823.95,30790.885,43147.133,2139.7837,7926.996,1336.5822,22246.513671875
121,16843.6,18320.432,31959.176,227.8912,-10691.398,-3308.3164,24171.205078125
122,7876.0117,19266.555,20378.5,962.57684,-9612.792,2931.1526,21199.4921875
123,-3322.7715,-830.14984,2416.8772,686.03046,11210.664,185.47498,20084.87109375
124,9495.048,7040.938,-1242.6311,2338.7966,9284.285,9900.261,25768.55078125
125,19697.494,931.50714,27462.697,-3317.4053,4279.5884,-1437.0974,25540.912109375
126,8159.7593,-6247.6885,17877.473,-298.54022,-3987.1243,-12205.257,30608.4921875
127,28556.557,20284.357,41247.336,-618.5316,4332.4883,-11512.095,28098.21875
128,-4157.789,-4152.4004,-3398.4492,2713.8708,-11315.947,-9300.1,25812.69921875
129,23476.77,16426.393,37818.97,-3018.225,-3812.0076,1274.8234,20792.3828125
130,19936.523,22548.148,56821.043,6486.3335,-1206.013,1388.5199,37514.328125
131,1606.1423,-8612.407,-3994.4126,12689.392,-1392.814,13334.85,33179.69140625
132,22244.021,3202.29,13701.416,669.2504,-13181.375,4428.545,29228.80859375
133,32764.707,22031.863,47865.99,-2777.0432,-5353.634,-1722.1095,24966.765625
134,9975.365,9316.722,33629.336,-946.47473,1270.0386,13407.26,33500.953125
135,26181.348,14739.479,42470.516,-3043.9001,5133.167,-11605.475,33068.671875
136,-3269.2239,-1564.7605,-15111.004,-411.13858,3256.5017,-5415.8735,16841.41796875
137,3891.1062,-6758.2056,17051.963,-8155.2847,-98.134186,-10396.127,30831.208984375
138,4782.538,-2232.751,20469.182,-5679.881,10193.472,-6991.4976,30991.583984375
139,313.7383,6381.8027,9704.847,2804.397,11138.39,-2599.5527,22001.966796875
140,13891.548,16369.285,38234.645,-1034.7842,108.262985,4545.991,24569.400390625
141,10415.08,20691.025,27369.604,1635.6708,12615.463,1492.1481,26664.2578125
142,8477.869,-12871.704,-31990.387,1734.5491,-280.02628,-2740.525,35514.73828125
143,-5812.312,5903.5684,17651.137,953.4081,3512.7715,-3630.2942,22185.19921875
144,-3228.9426,5005.4517,10920.48,338.19434,9564.637,168.81776,20648.84765625
145,7382.3696,13929.4375,23539.182,-30.888756,10082.885,-7193.9355,25658.947265625
146,16084.051,20814.13,29507.836,396.28488,13327.479,-2474.5146,26282.73046875
147,-3782.4424,1321.365,-29990.36,-11448.416,189.58452,-4310.489,35995.9921875
148,-32892.86,-27262.895,-62673.414,-8300.57,2478.9985,3510.9504,36719.97265625
149,7800.373,7299.995,39099.375,3981.3735,10451.52,4403.5083,37801.703125
150,-4315.7876,-16258.873,9872.401,-3461.0662,5026.6826,-8918.418,29389.568359375
151,-4061.5818,-8970.9795,303.32928,1555.414,-5411.736,-6175.412,16556.251953125
152,14077.009,6442.6772,25934.393,-1517.3003,-2770.7864,-6723.7983,21330.0390625
153,14626.481,7523.07,24592.115,-2058.074,-6013.4146,625.73926,18518.298828125
154,19805.775,26249.605,29558.998,516.66016,-8249.0,-1811.9846,16987.904296875
155,5478.8174,4532.699,8467.368,637.1,-11147.386,-1847.7789,19922.53125
156,14064.239,7695.9756,20831.354,-1952.0935,-10596.79,-101.24013,21858.224609375
157,7847.1313,607.01666,30567.246,-3714.0466,-7692.4673,3448.6584,31427.748046875
158,17793.611,20319.068,22786.055,605.1636,-10705.246,-633.48114,19099.833984375
159,-7744.4185,3161.8496,8005.3677,-731.2709,-10809.196,1128.9541,23477.119140625
160,1312.7758,-9193.856,17546.316,-3843.6958,11125.432,3032.735,31427.966796875
161,29243.334,36312.207,61645.152,-9568.347,-412.0701,3335.1729,34341.546875
162,22103.867,17099.57,18927.996,4993.4873,-239.65407,6199.015,14473.99609375
163,1696.2545,2534.1606,25168.646,2393.4111,1666.6216,4850.0293,25061.40625
164,9202.131,-6966.935,13803.519,2653.6367,-3086.312,547.88385,20189.439453125
165,5441.6035,4596.6836,14750.9795,786.2248,-3869.8755,-14256.52,27418.44921875
166,10305.283,13235.456,33349.312,3437.9858,1718.8003,-7714.455,26361.91796875
167,11916.718,959.4018,13156.0,-1326.904,-4534.0967,-10715.279,23379.169921875
168,12270.353,18291.46,19010.75,-3805.277,10227.791,9847.27,26253.984375
169,8689.47,-12894.464,4697.482,11716.344,-2797.4956,-4400.466,29816.568359375
170,18623.27,839.9731,14774.604,-4171.993,1630.7627,-1373.737,18123.798828125
171,7707.567,6418.3496,19569.69,2303.628,-1001.9282,-4521.937,15425.314453125
172,9116.55,6040.167,5228.518,-2865.0527,-5616.3237,-1284.5526,11697.21875
173,576.9236,38042.574,28647.842,697.80994,5906.0283,5555.731,36587.6875
174,21068.408,-3023.7488,6061.1997,5977.018,4959.513,10372.956,30787.1953125
175,13534.161,19195.57,43936.07,-740.91364,11925.3545,-1732.0944,34949.95703125
176,15678.318,22492.39,16924.316,51.81178,12558.027,1954.9929,22892.79296875
177,10436.152,-4720.341,18021.828,1986.6548,2568.031,-596.29565,20854.8671875
178,-17386.312,3872.3262,-12113.969,3766.4854,5773.2554,-7780.4507,26302.1171875
179,33922.18,30530.166,59661.61,-3698.5952,6715.278,7665.1914,33375.46484375
180,20626.09,24946.342,33008.887,4462.7427,-9741.318,-4438.9785,22848.26171875
181,28936.791,40956.152,55160.305,-6436.747,-10892.871,-383.97803,31585.5859375
182,446.5568,19688.363,39477.105,6095.5376,2709.0486,-1885.779,35871.5
183,17839.812,20883.031,53178.746,-413.48587,588.0479,5079.855,35064.546875
184,1336.7745,1016.2022,1354.41,-222.261,-212.23871,913.8174,1702.13195800781
185,9490.314,17376.764,19832.56,-10140.738,4930.969,4833.9214,23219.431640625
186,-8500.811,12057.584,10255.051,-4743.446,6248.763,-4120.092,24988.13671875
187,6261.1597,9574.617,27595.111,2906.3672,10693.316,-7554.9556,30578.4453125
188,5040.3,2633.4836,-467.71542,-36.584656,6391.997,-1628.526,12385.7744140625
189,-18841.398,472.09076,-4621.503,-1669.7163,1909.9208,3020.5813,18634.900390625
190,64813.473,64853.51,90499.33,8764.35,-9819.266,-2210.0662,34541.0625
191,23618.945,31075.48,42434.027,-14484.713,-11949.536,6497.2095,38128.05078125
192,27002.732,21797.8,48852.496,-11715.318,-6918.2188,4026.9497,34960.125
193,-12045.005,8095.5903,9859.585,-15002.718,969.77515,-8820.414,36820.48828125
194,193.90498,20733.873,-12822.786,-5979.611,2629.5857,2272.8057,31657.466796875
195,-29321.887,-35159.773,-42551.29,4254.7915,8269.24,15117.706,32816.94921875
196,2075.1052,5581.5254,4635.566,-11652.82,-3223.4077,-13030.458,30948.134765625
197,6695.6475,9597.811,-12164.009,7601.372,12104.519,-4335.9966,32987.0625
198,26394.037,15815.951,-5896.0747,546.18353,-4196.2603,-9939.044,34103.58203125
199,12046.518,34083.29,56369.38,1021.146,-4577.949,-106.74265,39235.671875
200,14514.676,18913.91,45296.51,-1543.087,-12210.35,2123.1926,36047.23828125
201,19990.262,19879.227,53183.02,-8794.75,-2756.4707,6243.952,38435.078125
202,-7886.7446,4719.0073,-32878.73,7899.4194,-5144.1855,1770.8124,37074.85546875
203,2073.8616,12414.762,39986.664,-4138.44,336.1186,-1977.3346,34867.04296875
204,14211.33,32782.56,51954.96,6183.8296,-4571.685,-3125.7017,35710.73828125
205,11208.09,18147.791,27072.852,-7071.129,-13285.113,4857.7637,30659.947265625
206,6821.946,26009.65,43313.88,9283.991,720.06744,-734.2381,35515.95703125
207,179.62485,-6206.0234,-36590.777,-9270.819,-519.1754,-723.6272,37659.79296875
208,1834.8955,29580.936,27743.729,3367.8142,-3699.413,9852.773,32993.296875
209,2189.8577,944.9037,-3770.2874,-8947.292,8390.849,-2530.7227,22366.224609375
210,-5116.3296,8498.448,-32406.67,-4541.3584,-538.8168,2501.8074,37191.35546875
211,-11341.883,17623.836,10628.281,2922.894,-8145.8423,3363.3745,30723.775390625
212,6919.6123,-3066.4072,-31744.838,5031.4136,-821.65125,1538.4753,35967.0390625
213,10122.108,-4040.0645,9586.002,8480.632,-7804.7534,-1912.5829,24550.802734375
214,2171.2722,1964.8755,2485.6382,59.863834,57.56617,721.3174,1337.12329101563
215,18764.393,13919.573,27000.828,-1283.0293,-740.7044,9446.388,20137.087890625
216,-3327.2886,6325.8623,23544.2,-3638.8494,4997.387,6762.685,28420.287109375
217,-4555.222,-12402.634,-4819.1504,-1582.5659,-2811.9236,4309.669,12105.1396484375
218,1727.2421,3006.3926,6263.3623,-3357.656,-1071.6572,10881.634,20221.44921875
219,15019.272,9685.454,23425.566,-1339.0791,-2783.8594,10095.475,21870.935546875
220,18709.15,6363.045,24192.996,-196.05618,-2778.8992,2534.1108,17109.947265625
221,9340.334,-4480.817,25100.205,-3201.5103,-6371.124,2542.9214,28794.779296875
222,13869.48,9463.646,27617.71,-5858.726,3560.1528,2461.1018,20692.19140625
223,20469.72,13642.097,27164.164,-1491.2875,7298.05,9652.792,24147.9765625
224,6831.9624,6185.5146,11841.757,1753.584,-654.14557,10056.565,18511.263671875
225,-2121.5266,-2040.0156,25298.422,2455.399,3507.8892,12775.908,35976.375
226,16929.922,12815.287,24588.77,794.3778,-4531.1045,10139.419,21886.31640625
227,14013.571,8770.218,20976.107,-221.32173,2537.0894,9716.105,20375.0390625
228,21252.594,9773.382,32499.645,-730.76953,-2591.1685,15621.835,33782.32421875
229,7722.846,737.8009,13852.061,-631.58325,-926.14154,10053.525,20884.46875
230,15838.755,10929.95,26305.287,1020.5333,8283.204,3694.5088,20854.97265625
231,-986.394,18178.186,6780.654,7133.5195,8715.992,-11568.768,32570.416015625
232,-1943.5739,14158.772,28309.154,1119.3429,-4699.267,-10628.512,33110.078125
233,17675.172,6336.3716,38378.73,459.18832,9227.402,832.55365,32405.341796875
234,-2488.4414,4135.8784,14280.292,4781.6636,17361.975,1124.6182,34506.41015625
235,19338.852,32597.389,42833.406,-4136.0557,-387.4399,11270.444,29139.654296875
236,16693.607,27572.672,47121.63,901.166,1136.2653,-7664.4033,29928.73046875
237,-17707.154,-4840.0366,15865.08,-2236.9402,7379.2495,-949.46313,32276.244140625
238,-9845.637,15374.993,20368.484,4637.6406,5407.165,7040.0264,32982.95703125
239,41417.6,54300.977,57860.2,10197.501,1191.8275,-8538.7,27558.31640625
240,8823.139,22061.025,-10603.245,7308.3213,8465.249,3801.6418,35048.01953125
241,-12630.613,-25077.67,-35964.383,-1896.311,13635.558,-7482.5186,33845.16015625
242,-19329.992,-3113.3606,-11158.88,6250.704,14835.452,-4563.912,32205.77734375
243,11147.785,27804.078,49464.668,-1363.4958,7874.845,3110.1035,36442.1953125
244,8332.451,11701.611,25692.771,-4999.966,14209.221,1551.6763,30694.791015625
245,9262.329,12991.365,28895.824,4428.543,12007.667,9956.064,33390.47265625
246,3419.9487,18268.193,24201.09,-9559.342,8228.701,-8111.8374,31913.103515625
247,13121.931,14629.315,45833.84,-959.43256,4104.501,-4112.2407,33571.796875
248,6769.011,11540.93,2088.414,1548.2053,15057.692,5167.635,28888.078125
249,-208.3395,8495.494,10048.3125,689.60815,12447.664,683.91205,23650.50390625
250,-6815.901,3786.0786,19710.777,-512.3016,-9359.929,3716.1733,28980.56640625
251,5284.906,10816.726,14960.083,-3368.41,7761.1934,-955.97095,16975.78515625
252,171.19635,226.84573,1606.087,-3.6072183,516.2656,-369.28336,1786.30834960938
253,-186.07039,24064.318,35982.332,-2001.8796,-7505.4497,4497.928,35508.43359375
254,3626.819,2857.8398,4334.8677,-560.839,611.0844,-144.32068,1939.97814941406
255,-3456.5957,4449.6543,-1654.8607,-1942.8789,800.8424,-3936.6504,10547.5166015625
256,8116.2495,5885.5093,1705.092,1991.254,3123.8613,4165.699,11180.673828125
257,2540.341,-6038.974,-15812.098,-6081.2607,9965.513,4605.628,26934.740234375
258,-2969.0728,2105.336,582.76733,-2405.353,-16973.936,4508.67,31032.671875
259,-13287.483,-2046.3375,-5891.887,-2235.3633,-16609.258,3037.9595,31115.97265625
260,-4309.216,6840.662,-19785.604,-4375.633,-8546.145,2419.859,28818.6328125
261,34398.484,14031.194,265.25592,3972.127,8009.283,-5512.2236,34865.96484375
262,11216.95,15168.929,44926.25,2512.8757,-8219.994,6118.0015,36778.45703125
263,4580.887,4606.579,14567.565,-1696.4384,-7958.358,18057.805,35726.33203125
264,-14005.72,10688.586,-6335.63,5886.6855,-14422.236,11196.172,39790.15234375
265,-5620.91,5604.4106,11490.463,2966.16,-17354.271,3198.2114,34457.48828125
266,-4029.032,1299.195,-12177.671,4695.8823,-3720.4187,2996.341,16517.287109375
267,-5955.591,3965.8987,-279.50534,-1169.1509,-7155.6323,-20821.049,39148.39453125
268,13854.964,2990.3677,2951.6682,-3470.4268,9003.821,-15117.017,32914.6171875
269,10002.602,7381.1597,34560.117,-108.27237,1454.7262,-12484.5,33886.453125
270,-13654.186,-12478.598,-45248.008,-7256.1963,-2529.2954,4564.7227,35726.07421875
271,-1250.4232,8943.326,5985.6846,1379.842,8510.943,-20187.93,39092.0546875
272,24522.445,30024.25,50813.22,-6625.574,8242.947,2527.4158,30520.888671875
273,5175.2783,12770.938,23509.482,-3180.6943,500.99805,-14239.089,29898.748046875
274,18267.799,33130.812,31154.357,11804.78,-11361.373,8628.637,34987.1484375
275,-484.59518,-20865.24,-42386.47,-4715.734,-1663.7168,1234.6462,37373.01171875
276,20277.422,-799.69946,-1930.1927,-4789.175,6673.227,-7063.712,28660.830078125
277,-13663.793,6089.6377,-13382.814,7848.853,-7395.751,2707.732,27488.671875
278,336.95935,98.19831,57.319126,-1060.9471,6241.4316,3.8803618,10968.669921875
279,8332.929,-11596.692,-21621.188,-3384.3643,9031.956,9720.702,35496.91796875
280,-2361.9028,4864.3477,20967.885,7222.025,11699.677,-2096.7668,31752.484375
281,-6503.254,-5274.2324,-13587.459,4708.1343,-1451.3956,-1783.4529,11948.4072265625
282,-34.18706,-2016.1538,-8268.667,4201.045,8224.309,15621.903,32301.857421875
283,2426.7334,-3150.7063,-8589.699,-4360.9907,2884.7021,1316.7393,13350.9091796875
284,1448.2849,-11707.085,-34840.49,7742.647,2254.6045,-9116.864,38170.5859375
285,4499.9443,12486.573,5114.182,18460.248,-6780.5234,-748.9059,34945.8046875
286,3172.6174,-25196.959,-13595.241,-1579.7167,-12294.217,3748.6501,33367.40625
287,1959.992,1488.9016,30549.506,-9869.265,-6824.8813,718.25195,35560.40234375
288,9675.34,17965.795,20198.47,1844.8285,-20486.076,-505.6135,36908.5546875
289,-2666.9243,11720.894,30850.541,6975.015,2084.1555,5699.489,33235.8671875
290,-7227.571,16283.713,28079.879,-8414.295,-2502.4812,2945.169,35021.18359375
291,494.0499,-5114.231,-36384.965,-3158.7922,4263.62,1437.8799,35712.16015625
292,2797.917,15509.975,42407.44,4362.8477,1621.5536,-1896.6823,36093.9921875
293,17354.49,24177.521,53447.484,2448.9949,3536.5408,-1003.0841,34081.18359375
294,236.11778,12260.541,-1927.8522,-2870.1072,12312.142,10293.712,31187.345703125
295,4343.1606,15738.942,-18428.229,-3686.056,-4332.8325,-1189.6738,31768.302734375
296,-3688.9722,-932.2523,133.25847,2270.9526,-1466.6414,3195.4287,8014.31298828125
297,-8102.82,8064.03,26372.746,-869.9672,-2920.0999,-9632.016,34622.95703125
298,2387.5483,3055.5652,2762.4539,51.963364,568.63574,8202.85,14253.9375
299,19729.225,12140.466,28526.697,513.6984,123.53382,9744.73,22078.57421875
300,5424.491,11213.85,-2054.4873,-930.5819,-570.735,-1396.165,11923.64453125
301,-2668.358,8975.803,-4540.4116,-13626.955,7898.291,-4665.502,31151.580078125
302,11839.934,4184.531,18618.604,-9331.5205,17938.016,3211.8044,37602.4609375
303,19345.86,24059.389,30134.87,-5674.965,9461.159,-14891.361,33439.19921875
304,14823.411,-9470.207,30676.652,-2012.5945,2943.2964,-1300.1375,35634.9453125
305,6663.3774,25697.082,-5927.0527,-2317.606,-225.19792,-14960.758,38054.98828125
306,-16266.701,-147.40878,-9694.912,-2625.602,-13407.746,4467.8047,28582.435546875
307,11895.313,4268.5244,17236.785,1351.4182,983.1196,9226.495,19778.794921875
308,9344.899,6731.6943,14704.6045,4762.955,12955.788,-12729.109,33275.61328125
309,-1646.7097,7698.46,3584.8894,-12070.513,9058.801,-6066.834,29317.376953125
310,14573.44,7761.5396,6942.6543,5777.4575,10250.9795,8905.163,26569.5546875
311,-1097.1976,-4609.0723,-3336.8015,-6624.3027,-1135.4886,6797.5005,16840.845703125
312,4377.801,15050.921,148.03305,9480.488,613.8461,5689.1187,23341.35546875
313,5944.023,23121.35,17733.375,10509.535,-7828.1763,1166.5166,27400.98828125
314,-6524.1333,605.83954,-13112.83,10318.438,6346.1064,13080.372,33086.8984375
315,14975.273,-12061.328,-24984.01,1209.0946,-3195.7688,-3308.5933,36266.015625
316,-770.6145,11722.981,10191.657,-637.4995,-16908.213,3042.9343,32030.66796875
317,-16040.141,-7039.8467,1144.187,-16574.1,-8720.651,-2165.5454,35888.19921875
318,19176.047,22509.076,55205.492,5427.0425,-2599.8386,2962.2764,36388.23828125
319,344.12476,9480.062,30814.766,-2924.221,-10010.782,2996.836,32966.515625
320,13773.411,24525.354,52376.684,2193.608,2326.5208,3742.1997,35544.94140625
321,5560.138,10152.012,41541.047,-7288.3955,20.302013,-495.9931,36202.109375
322,2576.2607,9138.629,32053.137,5136.374,6499.3003,-6947.815,32698.60546875
323,-4804.995,-4207.919,-4177.7373,-528.8753,-570.5126,609.6008,1818.20031738281
324,-990.09174,-206.41412,7570.0273,1331.4827,-1176.4003,2128.0874,9499.3671875
325,2098.0051,1138.113,842.3046,2967.481,5093.037,4841.362,13260.6220703125
326,17000.871,17231.242,36269.73,7927.045,8266.741,9133.04,31791.060546875
327,-5075.824,17158.81,29707.855,1309.3682,882.49207,6690.9985,32751.625
328,11153.248,19957.42,38548.418,-3868.2683,11748.1045,2980.3528,32747.654296875
329,-3422.3735,19803.06,10264.112,-8415.157,775.3291,13263.81,33924.91796875
330,-20091.473,2801.0378,8039.32,-6644.553,5708.4146,10188.002,34828.4140625
331,20450.418,35018.883,21993.732,17811.277,3789.004,6867.535,36447.51953125
332,7132.0454,13154.75,26915.047,8055.959,13071.456,-201.37433,31873.16796875
333,1712.6724,11181.774,18320.615,2429.3408,7670.305,-1921.4307,20334.8671875
334,5108.034,8118.7754,12050.505,-526.8368,4383.762,3268.66,11264.88671875
335,2290.5286,1194.5543,24004.547,-1212.7957,4738.516,-5077.2114,25408.763671875
336,5691.3994,18582.994,-2739.1807,4702.5654,9934.62,-9412.287,31211.494140625
337,5601.6587,9398.108,-19231.135,7080.603,4690.872,-3679.7537,31343.20703125
338,1267.0508,20971.164,-6093.68,5789.56,-3266.3772,-5649.159,28561.736328125
339,6091.8706,4137.278,12631.721,-1206.4993,4602.972,10957.042,22078.771484375
340,10268.641,-6562.082,19384.219,4293.085,519.32886,11517.145,31206.14453125
341,8927.191,9556.819,9736.504,-700.5813,309.1311,664.58057,1904.20141601563
342,-3203.437,-10864.746,-9915.355,2412.8572,12315.982,11605.527,30477.9296875
343,9854.13,184.38177,21625.031,1014.6547,-2528.5356,8803.42,24508.150390625
344,2624.986,12771.031,22684.799,-5251.604,1168.165,495.15598,19732.662109375
345,-3083.428,1083.9529,-24990.662,940.10254,-9624.828,-184.45561,29483.134765625
346,10879.844,8009.761,13677.987,-2314.8176,1585.7795,-1348.0225,7291.6806640625
347,22224.65,10875.772,45231.363,7428.3794,-100.45972,2208.1333,33157.30078125
348,3043.5015,3383.0393,-10932.454,-3105.2322,-659.81024,-2027.2643,15580.4638671875
349,5888.4404,19367.205,3037.3423,8403.509,4262.607,12447.068,30974.021484375
350,-5200.869,4039.8467,-17204.586,2441.8564,4139.0317,3570.2441,21164.25390625
351,20714.484,14124.454,50591.22,5374.455,-1395.0997,-147.53015,35007.06640625
352,5943.281,13992.817,-6453.9985,7786.392,881.9437,2048.662,22695.552734375
353,11023.408,8024.9497,4305.502,-1206.6305,-5749.264,4641.9097,14217.93359375
354,-1780.0757,3894.771,29236.66,934.0596,3276.1191,6884.5547,31547.330078125
355,21124.924,7833.063,33580.617,-3261.6267,-10227.267,4935.2734,30268.02734375
356,-19457.006,8494.679,-22268.643,4202.794,1669.0336,7743.9414,33302.328125
357,21814.947,10393.52,18215.129,2731.5383,-3788.147,8636.6045,19786.34765625
358,-5625.75,10572.185,-969.39294,-1968.7358,-2053.2585,-4985.202,17534.63671875
359,10544.08,10373.47,-2769.3584,8095.374,-842.3316,2783.9614,19924.62109375
360,-790.4035,384.04254,-2748.1057,130.21648,468.0173,30.511816,2867.38916015625
361,1198.7021,3151.3203,-294.1515,2283.3716,-165.37772,-146.69218,4974.36083984375
362,-5607.9673,3701.108,7557.03,3849.8262,702.1657,9791.036,21701.5625
363,1019.994,-1509.158,-834.4471,0.14214565,96.46402,-378.1612,2366.92456054688
364,1041.0437,7044.159,-935.9028,677.2234,-684.46936,-857.87036,7536.76123046875
365,-5730.323,-1396.1157,-245.55125,-580.3855,-1458.792,-505.26556,5766.85205078125
366,-2998.6675,1181.0493,501.30783,373.11835,459.94894,-118.50045,4023.107421875
367,4020.328,-608.69446,3517.6882,-2648.9336,-1578.9318,821.5247,7064.56640625
368,5354.31,-2822.8318,493.18237,-2118.5845,-292.47476,720.32434,8125.54638671875
369,2324.1858,-7244.591,4431.544,-2543.1135,-190.78716,1807.1782,12061.361328125
370,6390.5264,-3649.1924,3598.6145,2174.887,-440.19995,-485.83365,9800.0283203125
371,3467.4053,-3725.1016,-2043.8287,928.66797,-401.83145,-397.4248,6783.1982421875
372,-642.36755,393.79248,308.87003,1427.7253,445.81668,496.61646,2905.88842773438
373,-1536.5957,1369.3959,469.835,1746.5143,71.53263,196.16696,3990.189453125
374,-981.25964,-1248.3632,53.942196,509.4524,-71.17551,-59.156902,1491.24609375
375,-708.9577,-941.9764,-54.19662,-350.63596,103.13206,241.52972,1100.607421875
376,-753.2877,2768.183,5340.4995,-1276.2554,-182.56926,932.2683,5972.416015625
377,3487.8167,6505.906,3715.5479,1373.5295,1264.5212,3439.092,7376.466796875
378,-1167.3701,-1755.7988,1383.1769,1572.3469,-1191.6427,-704.3675,4638.70849609375
379,1382.7933,1822.343,-1374.2559,1861.878,-63.048378,-175.92253,4417.1171875
380,-7454.0093,-7332.536,6964.693,-7779.306,348.7721,-1676.0994,19912.505859375
381,7730.34,-4059.0615,10017.464,-2917.8257,186.88792,534.4753,14060.1435546875
382,6887.2373,-332.76404,7004.998,1087.2834,-648.39246,-438.55188,7640.50390625
383,4259.2515,4331.809,-2041.505,497.679,-1327.9231,-812.26825,6940.78515625
384,7524.9214,1989.8156,3285.189,-732.52716,756.0061,1130.2379,5683.49365234375
385,717.9421,1723.0074,4175.2627,2453.6787,634.2867,-991.9734,5631.07421875
386,-3591.6436,-1375.1824,-229.26266,83.63814,48.774357,-157.36699,2977.94116210938
387,642.7319,151.5139,-460.71255,2261.251,-552.9452,1633.9882,5018.32861328125
388,2715.9238,858.6532,-2103.6,110.602844,1156.1646,123.786446,4671.07275390625
389,797.12354,3951.0767,1060.3654,-1129.7922,2060.5557,-360.87482,5113.1318359375
390,-399.00705,5015.408,-3017.604,-3196.8455,-1798.72,1634.1704,9936.2109375
391,2458.6777,-1192.9346,-3414.0027,-2313.8333,252.0807,167.34735,6535.59619140625
392,-1110.4374,697.44617,-537.11646,-949.6529,-32.373695,-24.029491,2295.87475585938
393,3524.5952,1300.2632,6426.1045,-1976.3508,-312.63898,-1593.3911,6280.77490234375
394,4892.7305,435.1882,1360.2814,-134.82805,315.7248,-1003.1185,4469.24609375
395,3534.259,-1016.84534,828.34424,-831.88605,227.42293,-782.97327,4448.5986328125
396,358.2213,3968.941,7403.349,-371.05084,-3161.7183,321.72336,8242.94140625
397,-796.1459,4316.07,2612.2017,186.41174,-163.28316,854.43933,4764.64111328125
398,-121.02181,5032.4893,551.2186,1379.8209,-1015.94617,1310.8339,6124.47509765625
399,-1592.3763,-2354.898,-8849.064,-1555.1003,-1431.2979,195.22432,7824.498046875
400,1636.475,-2469.103,-2687.9656,-304.52768,417.9889,-1841.9904,5365.013671875
401,2170.3865,-8132.029,-14028.306,1967.4584,70.03398,-254.29259,14610.7197265625
402,-2583.74,4191.342,-413.3699,-230.26265,-695.2648,869.72076,6307.63720703125
403,457.90704,6920.648,3133.849,1016.84564,-426.97147,860.7526,6124.15625
404,810.9847,5192.38,1356.1172,127.134285,1287.6888,-2754.5835,6700.10888671875
405,3839.208,-934.22595,-2344.2444,-119.15742,583.26074,-79.61926,5708.47119140625
406,4985.1245,3178.6956,4375.0356,308.26767,-842.0313,-353.7859,2306.716796875
407,2455.9014,-528.0323,767.9107,-340.70178,-92.404884,-381.00735,2743.29541015625
408,3814.2175,2274.783,-3893.2427,50.670498,1416.9015,579.48315,7546.36376953125
409,2721.6807,-3367.438,3023.1582,-2135.6787,-1109.5266,258.29654,7522.01123046875
410,2834.8538,589.4916,3495.3381,-3339.1536,-744.1391,404.01276,6523.93017578125
411,2432.011,485.77225,559.427,-1826.3881,-25.724138,-571.968,3826.28125
412,550.5896,-1386.49,-794.3069,898.97876,1497.5198,272.50513,3511.52587890625
413,4516.6367,-9401.367,-1375.8048,2647.0105,3401.1467,3023.2559,15151.37890625
414,-573.1964,-2204.0454,-7381.525,-1464.4633,577.679,-879.11,6903.857421875
415,9025.959,2612.5364,-1995.4415,844.18585,-94.01709,-8006.181,16922.75390625
416,2852.3484,-5323.6064,-8725.822,-2250.3594,1286.4633,-605.5571,11291.3720703125
417,2681.7317,-4216.132,6168.2754,4087.7366,-158.60446,1009.4595,11706.7275390625
418,1974.0076,-3385.7708,-4268.947,-250.42308,702.2512,521.51587,6060.0654296875
419,6061.306,1831.0894,4076.3682,2304.0515,582.58624,513.6041,5583.3271484375
420,-7552.537,-2428.3914,538.0314,-4399.156,-405.27893,2688.4727,11423.267578125
421,-1616.3259,-1028.3263,2101.9731,-1358.234,-747.3399,-1158.1326,4818.59912109375
422,-1686.8131,608.1392,-1706.1102,-1529.8542,-178.79755,-1063.9661,3978.0400390625
423,-2373.8247,149.86932,4449.472,-3673.3801,-981.54596,3297.6572,10568.8974609375
424,-979.28955,1319.3867,-207.88132,-1030.1592,259.04767,654.9763,2962.7265625
425,-6703.8213,-414.5263,2055.2856,4266.251,-723.3349,-2490.147,11660.3349609375
426,823.93427,2413.6877,-3900.8147,-500.4226,410.9677,-32.817295,5798.52880859375
427,-167.4907,3692.7493,-5310.3447,-497.30054,982.1955,-2745.519,9351.6162109375
428,-1467.0093,2944.9946,4328.956,610.6304,-1750.4094,-333.42566,6175.0380859375
429,-1586.4197,-282.00104,-1324.3892,-1849.8867,-671.9614,219.00761,3632.23120117188
430,-374.32434,1300.2329,-2585.7085,3353.9158,983.85876,-1323.3468,7300.779296875
431,-1678.071,1243.231,-3793.4644,-2445.118,1438.5669,-404.41486,6619.93017578125
432,-899.27216,-1910.3468,-4897.479,2945.1292,821.5242,531.49927,6469.8515625
433,884.85504,4152.0425,4981.0757,-2816.9172,-1758.6914,1200.8849,7175.01513671875
434,1485.3378,-3814.4092,-2232.736,1952.3079,473.3391,181.76866,5866.2021484375
435,1734.1694,280.6944,453.04578,-771.01154,258.63657,244.19868,2013.63854980469
436,3729.4126,4359.8022,4983.9106,-2094.7334,-1956.3142,837.6799,5284.9482421875
437,2562.8254,-307.10086,-3889.8523,372.35834,76.645546,-695.06024,5765.21630859375
438,4199.8203,-2857.5044,-8650.638,-60.922577,-79.71288,1120.4557,11315.7734375
439,18880.252,1980.6133,4056.3215,6328.9155,-1140.7036,497.88812,19484.36328125
440,2631.5144,-3552.5603,-2444.5813,1807.1263,-8.169896,-16.276728,6512.80908203125
441,9576.266,3145.0044,5819.8716,383.8696,-436.24857,1411.6974,6189.0986328125
442,-1813.7079,2261.8896,252.55786,1853.4795,-107.002686,163.43048,4783.23291015625
443,4634.6025,1464.6392,719.9811,-424.94067,-595.0818,-455.7856,3897.56762695313
444,-20.523321,2917.6462,4455.763,-2207.026,396.98892,3418.9739,8103.8095703125
445,-1188.0634,-1874.6843,-1615.3165,-1653.3662,345.56097,68.24901,2988.93017578125
446,-1017.1183,1887.0256,-122.875374,-2452.0496,1390.3441,-1179.9855,5886.47802734375
447,-1832.6754,-707.2213,2187.8523,-1747.4266,183.60576,44.88567,4708.9326171875
448,1765.2675,1242.9652,-8795.132,-1392.9039,2202.1887,-1730.4054,11646.0927734375
449,-4469.658,-2134.1394,2139.0981,-1769.1348,298.04315,-150.16122,6589.31591796875
450,-727.46967,148.76367,-511.1045,2747.9976,207.09476,-197.64679,4850.29296875
451,1706.6575,1717.0948,3296.8003,3797.4927,294.17453,781.9384,6918.7294921875
452,-1934.1781,953.32355,1902.6268,2756.0686,141.11348,151.15547,5907.2822265625
453,-3176.3318,2027.0613,399.02246,-344.91205,-247.67876,636.4554,4796.9404296875
454,-1224.4376,2994.9534,1753.4235,-372.21396,-1528.0879,-553.10925,4737.58740234375
455,-933.23364,347.61868,1146.9504,-1391.1914,1.1372327,-551.13995,3165.57275390625
456,-4859.0146,-644.9527,-5279.704,1091.333,838.2973,-498.6585,5112.2734375
457,-3524.3113,-79.731705,-3798.7637,-1056.4083,1736.165,-1261.4957,5481.85546875
458,-973.3817,4387.5503,607.76825,-854.05475,-605.8282,240.04529,5121.0712890625
459,6546.8535,2807.7275,-3199.078,1075.1311,-863.6054,-1098.4064,9046.9677734375
460,4473.452,-326.69922,9495.82,1335.2449,-714.9412,972.1527,9060.412109375
461,80.101,-1087.0808,-1989.5212,88.111595,2.6199112,-157.84358,1824.30249023438
462,842.90643,-1448.1609,1620.072,402.14914,-57.41883,306.6025,2900.10205078125
463,679.8996,-2049.3772,-2220.0046,-681.01965,977.2601,141.21992,3501.43676757813
464,-846.09326,-7743.5063,-2380.7473,778.60077,-773.9029,658.7088,6652.92822265625
465,3442.5188,478.13113,2641.5566,-1847.2264,181.38599,486.06076,4254.2890625
466,-1871.4001,1158.1682,189.05486,-524.4031,-379.8011,-9.889859,2905.08276367188
467,-2755.7397,710.79913,-630.631,-154.13272,596.0516,-164.27867,3222.4638671875
468,-4051.7373,1760.9705,2999.7434,-661.6404,-1205.0356,1101.9457,7199.669921875
469,-2386.7917,-1067.4038,-2905.7678,798.73126,405.84503,-410.68735,2368.30932617188
470,282.62833,-1048.9985,3131.8313,1548.928,1881.2942,2774.0332,7388.259765625
471,-1960.8722,-1926.6685,-295.64575,-1733.0243,-461.74835,-742.1075,3744.21118164063
472,-421.93756,2236.6387,-830.7987,2944.8975,-362.09897,-28.928274,5893.66650390625
473,-2794.5774,1289.5574,299.36752,2076.0469,-535.6971,161.14761,5242.64208984375
474,-3190.9705,1615.3906,-7600.7637,2789.7908,-1196.1309,-1860.5437,10088.02734375
475,172.71124,1897.593,-1948.3191,-2732.9753,-261.58548,-1797.3026,6590.6103515625
476,-2253.2646,-1046.4858,1268.6035,-1941.1333,-1525.8561,-2245.2537,6559.11181640625
477,-1035.6154,327.3207,113.23368,-2624.6824,302.0768,314.64624,4780.09130859375
478,6271.7344,-249.41533,-8175.3813,-2731.4487,-956.8465,-5171.546,16198.658203125
479,634.62805,-981.5305,-1672.4564,-2342.8958,616.81433,858.8298,4901.79736328125
480,-1244.6378,1518.0936,-320.26022,-842.76624,-54.750546,-45.502327,2842.41455078125
481,3152.5496,4610.8154,-191.68504,320.03528,-4.845271,407.68347,4358.11669921875
482,3055.3796,-3651.9192,103.303894,613.3693,-71.342804,-382.36978,5956.904296875
483,4325.6836,-3695.0874,2049.0498,-941.8764,324.37762,406.28867,7397.8193359375
484,-18.415281,288.33417,84.92669,2922.777,-33.357586,-85.26702,5072.09033203125
485,-3307.249,-4828.986,-1151.787,3550.1177,-115.77235,527.5605,6994.7783203125
486,1617.3916,-575.302,1325.6672,789.4407,-1183.0975,-600.0786,3376.74951171875
487,-4733.2344,-5868.623,-715.96185,1790.8104,-41.584927,-147.01903,5628.48046875
488,-2464.6777,-2723.8442,-4119.624,-1777.7783,-849.8869,-1765.7454,4835.1923828125
489,-630.4288,-2437.645,-1342.8414,-1759.5781,-134.82765,388.11896,3504.40698242188
490,-922.6683,701.1484,1630.1433,-2441.3384,-759.9743,-556.046,5054.59912109375
491,-8518.562,-6891.2085,-2272.3293,-1478.8257,-112.94835,-437.12866,6218.6142578125
492,-8644.896,-3229.7104,698.7745,515.22906,400.2329,359.16266,8227.67578125
493,1528.7258,1290.6652,3635.3293,3187.9678,-197.17018,577.7868,6050.08349609375
494,172.25002,-4656.188,143.94691,142.49414,-267.2903,-173.23576,4852.13720703125
495,1932.2157,-4386.548,784.1701,53.662945,80.546135,217.99747,5844.76025390625
496,2933.1301,-321.29,-1456.2668,-740.51,6.0857115,-721.7005,4333.6875
497,-3608.4746,431.7112,2305.2327,-948.38245,463.2646,427.8638,5594.09423828125
498,-3532.275,360.02982,147.77245,-1263.769,1.4606837,-242.85735,4397.40869140625
499,2552.173,-3252.4385,-290.49805,-1608.4781,-20.970133,-122.44914,5751.66064453125
500,1759.3315,-1991.938,-1034.7556,-4597.673,404.27692,-624.65466,8744.9560546875
501,958.2142,-3083.0457,-572.308,-723.16284,-86.89042,290.15292,3785.91455078125
502,-10.488291,1254.0444,3963.4114,1573.5962,675.2188,350.9838,4640.23046875
503,-4113.235,3867.3533,1953.6769,-319.3246,-753.13873,144.55217,7358.66357421875
504,-2839.5657,1582.165,-2078.507,2224.6018,-542.764,105.38639,5703.45263671875
505,-6155.928,482.25034,-1733.57,846.8674,-444.34668,-471.14288,6138.083984375
506,624.5305,404.71597,1154.994,-1826.6241,-393.79007,143.42093,3314.04614257813
507,-52.008827,1754.5383,3706.1804,-3049.8667,334.4639,1190.1904,6564.1884765625
508,-6136.5063,-5916.538,-9227.644,-6885.9185,422.5795,124.8549,12373.9072265625
509,378.41867,-1644.2291,440.67,102.35448,-135.0341,-294.94754,2137.28955078125
510,1398.3827,-1353.4318,665.9082,962.6556,43.586143,-378.6315,3051.10961914063
511,2389.844,3297.1443,1093.2334,-1074.8284,16.067968,-201.48235,2696.13354492188
512,-2813.574,-732.06586,-1334.4817,1637.1072,-226.98256,-147.1199,3420.74584960938
513,-1848.868,2254.6362,-839.9162,-193.2446,-187.6372,-111.07099,3737.80126953125
514,-1610.6532,-1440.9524,-2086.3406,2236.535,-175.05428,106.71855,3932.958984375
515,-2314.7217,4867.386,-391.72638,772.7176,236.18797,178.34001,6597.23193359375
516,-5492.145,-9721.444,-5728.3223,-3847.8818,121.260666,-5450.063,12268.501953125
517,-5189.3525,-6942.9746,-3994.8289,-971.87054,-295.7037,-396.64923,3188.21752929688
518,3358.0764,-2525.3982,4386.8604,-1773.3208,-842.84033,-241.60828,7312.0966796875
519,-2755.398,915.5548,4235.9185,2931.066,-341.53903,719.8372,8022.935546875
520,-1041.9407,1706.9265,-675.26135,-2621.891,-403.23163,-684.5305,5403.6328125
521,-503.55063,113.78291,1570.0734,-1951.5396,527.27826,1626.8666,4858.0419921875
522,-1402.1232,1528.0145,-301.29233,-127.44192,287.22934,189.18672,2641.12670898438
523,-1645.1548,-1582.7784,-782.13416,-51.016865,184.05086,149.4683,933.444152832031
524,-1194.3115,653.2064,-1710.0806,-728.1959,-240.84717,-109.91302,2536.39599609375
525,-3731.2913,921.89923,3672.8677,-1996.9786,824.9316,1593.7097,7977.83349609375
526,-6601.649,-3871.1597,-1597.2594,-999.84424,-437.40866,-473.4605,4804.2265625
527,-5970.207,-4357.3237,-640.0906,-369.49054,-192.66225,40.01636,4789.61474609375
528,27.614485,435.78827,1045.8289,2054.0012,342.91336,-289.99472,3748.27709960938
529,1251.9514,1301.0746,1034.8889,2259.1484,547.77264,44.323086,4034.5390625
530,-1110.491,944.2674,457.7862,2508.2666,450.09467,-516.8508,4872.62353515625
531,-873.8033,74.95689,176.46643,3411.8428,-476.96225,-95.13992,6052.966796875
532,-2378.8845,828.2711,-346.02472,3159.1235,469.1838,220.39612,6216.50830078125
533,-556.41254,-6623.6313,-1926.2507,430.45468,-372.04016,19.975069,5599.0
534,655.24347,-5054.8457,392.15482,688.5311,-115.08905,265.058,5731.03857421875
535,141.04062,-2952.196,32.677025,22.115078,172.78816,189.04968,3072.9326171875
536,-1450.7668,-1870.5608,-769.1434,1038.6534,199.62129,226.78865,2106.47265625
537,-5740.4375,5433.183,1387.1711,311.03442,136.05829,-38.725033,9816.3984375
538,-2946.8005,-801.0949,1079.4899,1344.0826,81.17398,351.17316,4240.9013671875
539,81.89111,373.5099,1016.6722,608.825,-168.2269,-216.09195,1422.40966796875
540,202.72375,-528.909,1408.546,656.94293,53.73983,118.14682,2053.478515625
541,659.1633,4970.731,209.80954,-738.98456,158.60292,-174.15729,4746.96826171875
542,-3288.278,-548.5801,-1880.1505,4598.926,-867.1635,144.1643,8449.8251953125
543,-3497.8103,-2085.743,543.3531,3737.5503,-337.6163,-38.87585,7407.62255859375
544,6038.995,-440.77692,-322.9629,523.9513,20.719625,94.595055,6487.6513671875
545,-4469.41,-1510.9586,-480.29208,-1784.4929,326.9493,378.1838,4813.19921875
546,4479.729,-3065.1462,-152.3532,-139.15935,124.83501,-156.56291,6603.8798828125
547,1500.7024,-9356.367,321.8042,-2943.7156,39.683197,270.76706,11519.0029296875
548,3305.959,-3975.6392,515.8332,-3151.2324,217.84468,197.78326,8398.833984375
549,-2638.4226,402.07996,-2518.6035,3271.8762,205.19019,-260.1278,6429.58251953125
550,3209.008,398.42078,-25.22359,903.053,-54.438972,37.213886,3424.78100585938
551,2447.1855,-536.3955,-246.60716,2189.6035,15.289908,-240.3823,4762.17041015625
552,-6532.7056,-1067.3787,-2575.0059,-1859.7582,-395.4868,-437.0099,5943.1748046875
553,1347.063,1417.6166,-454.0751,-2512.1716,-270.71918,-401.01917,4797.029296875
554,-6478.937,-8313.087,-1547.751,-965.2537,127.384224,-31.84447,6290.63623046875
555,742.98755,1586.0175,524.6379,-1670.6561,225.12875,275.0245,3113.63012695313
556,-1171.0004,2652.8662,964.1696,866.9067,262.62494,-159.67233,3681.6142578125
557,-593.75806,1283.2444,467.57602,-878.231,-90.93955,93.32835,2241.0380859375
558,3703.1936,3686.6475,1701.2449,593.6221,-56.404877,-146.3239,2259.62084960938
559,3226.0608,1227.9746,1243.5664,970.3215,258.69363,93.72947,2648.23193359375
560,-2337.429,-6407.547,-390.18015,-1193.4828,-50.488255,-77.70825,5708.076171875
561,-2837.577,-5386.925,-566.6971,-421.64874,-87.88173,-2.344452,4242.8623046875
562,-958.59326,-5671.423,-2743.9253,-1457.5931,-374.08945,-210.646,4889.8759765625
563,1116.097,-2736.375,352.73486,-22.972822,164.2844,342.73236,3594.21484375
564,2869.9763,-518.01,-1192.9423,1924.9714,241.1298,225.65015,5066.001953125
565,-1799.7872,2613.571,102.5665,-776.9513,41.304855,-358.34885,4111.232421875
566,3260.011,-3115.54,62.278023,1199.997,-98.322716,302.1681,5925.2626953125
567,1218.9552,-2553.9146,-597.773,324.3156,18.748226,-184.22202,3331.54296875
568,2203.8186,-1230.386,1110.6057,-1394.6504,-26.843779,1.4857392,3882.25146484375
569,-2052.5178,185.7104,-3186.2092,2452.4658,-41.750935,332.33878,5216.58154296875
570,704.70624,4703.687,2795.6777,1097.3452,53.660183,356.8136,4000.66723632813
571,478.63882,5940.5806,1125.6746,-1210.409,46.66427,-156.74602,5585.060546875
572,2104.547,2423.971,2416.9507,-3801.329,-85.503,-26.97393,6593.50146484375
573,1230.5809,-919.91766,-153.19347,971.70984,738.62915,735.89923,3107.68286132813
574,2452.2646,-1066.0785,-741.7859,1718.2336,-731.5398,-1063.5555,5019.84228515625
575,2245.0437,-830.76306,1398.7529,1460.6915,131.17851,940.509,4084.10595703125
576,3177.4053,-219.99669,-2325.8394,-320.2469,473.96674,46.212215,4911.142578125
577,2862.7305,-33.384586,4614.8604,-1262.185,-373.42987,988.25653,4965.82763671875
578,1094.9918,-1053.5266,4888.601,204.81192,1074.814,-1377.8379,6036.97509765625
579,5031.371,-4142.8594,39.117004,-663.2092,-1229.5637,520.26166,8363.9736328125
