Element Label,S11,S22,S33,S12,S13,S23,Mises
1,-312.0111,81.971535,219.46948,329.78006,107.05021,582.5115,1267.63659667969
2,-480.8499,-493.9958,-528.5573,103.18077,841.2467,219.15974,1516.88537597656
3,1781.0549,1829.0166,3314.3179,-109.171074,-419.99954,-915.56067,2315.0302734375
4,100.1281,-36.615257,142.41704,-27.932241,-89.38293,987.4042,1725.53747558594
5,-3875.743,-4051.322,-6977.712,-199.01709,418.24728,-12.597342,3122.89770507813
6,-872.9393,-412.79834,-1761.2388,280.34567,90.55986,720.26166,1796.18029785156
7,1387.3481,1447.8278,3345.207,13.060295,511.82217,-4.193463,2122.47705078125
8,-522.8715,-293.8927,-1257.2976,1.8370974,-46.108524,-238.77171,968.196716308594
9,-1794.926,-1876.9054,-3182.0571,254.01813,-131.40314,535.68823,1709.794921875
10,10311.937,10719.774,16480.703,-68.01703,-618.24255,-1196.54,6415.5927734375
11,-855.3579,-808.56934,-1716.9175,153.77791,24.19561,673.78174,1489.77514648438
12,3070.028,3155.1824,5732.042,-72.16141,149.82877,-206.68568,2660.45336914063
13,-5404.8022,-5269.075,-8741.892,-91.82793,418.53082,48.46327,3487.888671875
14,6612.2646,6187.786,9996.9375,14.4809,-1092.1736,-515.6403,4177.287109375
15,2299.6277,4884.461,6418.282,-1441.1976,-1370.9944,-2403.1384,6495.68310546875
16,-5440.572,-820.7197,-5214.894,2654.9053,-268.25085,-840.38824,6620.541015625
17,-1695.078,463.93494,-466.1369,-810.4249,263.45142,-956.1288,2905.07592773438
18,3655.7932,4467.4126,6124.5117,610.93634,-2593.625,1129.248,5465.861328125
19,2235850.2,2245592.0,2250256.0,1055.7323,-10479.932,-12839.371,31455.828125
20,2723.7454,4158.778,-3415.224,2280.423,-2204.2432,2691.51,10023.25390625
21,-958.40295,-278.02402,295.8629,-98.234985,-611.09436,-580.2164,1828.09594726563
22,-491.1053,-702.919,828.6341,-385.40884,-3191.975,-579.28265,5838.19775390625
23,-1662.473,-3781.0994,-5575.5176,-244.32584,-1705.3867,-637.5606,4651.212890625
24,650.5714,397.50134,-3773.2515,-936.21515,-419.30173,1302.6472,5173.2314453125
25,-1990.4683,-3145.5664,-3892.188,-534.9342,-1744.6686,-692.5411,3766.03564453125
26,4257.078,3579.5916,8727.752,-125.65663,678.8147,1680.8063,5777.525390625
27,-377.35815,-1857.7195,-2140.0864,154.29326,-38.161247,580.14844,1942.86145019531
28,1451.6606,896.0239,1016.4121,-503.86053,-263.78113,-1592.8724,2972.94946289063
29,4989.887,4695.5527,8489.851,-135.97215,-137.68889,-374.24985,3728.14501953125
30,3956.2776,2847.857,7538.423,746.4256,1377.2643,-1090.215,5381.32080078125
31,-199.04199,-1315.0752,-5212.898,454.02707,-311.96323,870.7409,4896.28515625
32,-643.1792,-1565.5139,-3306.0518,395.91953,-494.73538,548.28,2755.34228515625
33,1723.7545,1462.7904,1048.3326,-70.47744,-1529.883,210.32831,2741.76538085938
34,-352.64148,-409.45935,-838.74634,-1278.5117,905.0072,-901.6864,3164.16064453125
35,-226.2063,-348.4701,-705.526,431.20847,-1745.8115,945.6779,3545.47729492188
36,2729.871,2273.6882,2958.4475,204.45892,-436.8243,26.885551,1031.81774902344
37,3854.1638,3091.901,3427.958,-628.6525,-1183.1936,-64.29487,2415.71313476563
38,-1291.9084,-1088.369,-1497.4708,1012.6032,-546.5897,2336.4988,4524.9951171875
39,1054.2565,394.43594,-414.25452,575.1092,-915.02466,288.80655,2318.88427734375
40,-632.7412,1041.8529,-1813.7444,-158.8141,366.60992,-631.716,2802.28564453125
41,586.71045,370.81128,-1013.5804,-90.67231,481.94373,-1376.7909,2944.51586914063
42,-1616.4412,-2710.8657,-3530.2668,-193.0734,-2613.3555,684.63367,4977.232421875
43,804036.75,806310.06,825311.25,-6539.6,-5591.133,-2932.3684,25637.599609375
44,-228794.17,-193489.64,-232032.44,-8171.871,-2293.5122,-2266.3203,40034.3515625
45,-79581.46,-63807.38,-92397.164,6191.937,1414.8802,-3087.116,27655.6796875
46,-5521.211,-608.6633,-6877.949,825.4844,-138.12488,-2020.2451,6854.52978515625
47,-53027.402,-59605.566,-80686.12,-1557.1069,-846.2237,95.32236,25214.7265625
48,-1351.9033,1837.9717,-1440.7003,1020.5831,2744.4053,-3887.2917,9028.8203125
49,-1615.2451,-3088.4019,6246.4004,2084.3926,-678.3281,-1467.1326,9819.8271484375
50,4206.391,1468.293,6698.4287,557.5856,-499.75372,-3880.8262,8209.462890625
51,1572.643,2190.3203,498.15698,-287.87103,-242.5511,-463.50928,1808.13598632813
52,4233.63,3519.7795,6148.196,115.459305,-2089.5212,-1597.5011,5131.87841796875
53,-1165.3761,-2995.6206,-1054.739,287.68442,-1020.73816,632.88416,2853.09692382813
54,-2804.6433,-3685.1287,-5287.3003,-323.56186,1703.0248,-724.4262,3916.91650390625
55,-1436.1743,-3741.5723,-6935.945,-174.50096,1700.4834,-916.69214,5845.5478515625
56,1801.0815,2885.1355,7640.047,-11.707505,1830.1672,-24.99775,6244.177734375
57,77.156494,-748.58716,-5371.7944,480.53497,1975.3452,2506.614,7557.87890625
58,2938.056,1450.2784,5743.192,60.84063,-335.32614,-3206.5747,6741.69775390625
59,-4964.7886,-132.69067,-7092.1724,-143.91135,217.38353,1413.6232,6659.845703125
60,1592.1295,-1263.1495,-4634.8936,-59.95066,-2030.6115,-655.318,6543.53125
61,1049.001,-1582.4622,386.18237,125.11242,1376.3602,-157.10796,3379.91918945313
62,-1002.843,-1539.61,-1905.5128,184.77188,2433.8225,103.07979,4303.8564453125
63,118.43594,1386.2126,-175.2645,395.61038,-566.2836,808.1533,2335.96948242188
64,-1463.0779,-369.7964,-2423.98,-1260.2986,1195.5896,-671.92816,3684.6923828125
65,843.0419,733.22534,1652.3186,-656.65,-820.5206,-76.33498,2021.5517578125
66,-1920.091,-4293.7173,-5115.3896,1607.8457,269.38916,2086.9783,5412.87744140625
67,5165.0303,3711.3374,5748.486,-340.13312,2857.818,-1040.8345,5603.59375
68,-2727.5322,-2933.2642,-6752.588,-27.656061,1876.4214,327.2765,5128.529296875
69,1553.6198,757.6361,1631.2277,1096.2052,-674.7137,4731.463,8534.185546875
70,5699.8467,3234.9177,6925.9985,204.63023,-494.0086,-1939.8923,4769.59130859375
71,-25097.658,-23417.44,-39771.87,543.7703,-529.7018,-1066.9556,15746.6044921875
72,424.5478,893.40063,246.81558,-77.71352,5122.3384,1306.4698,9175.4296875
73,42354.184,37373.133,67546.72,5545.9683,-1910.8837,-2068.5938,30017.076171875
74,-39889.93,-38512.21,-71038.4,6238.8047,1577.5579,713.43884,33775.73046875
75,8961.717,11121.244,23380.357,-286.2513,105.9902,884.4062,13566.478515625
76,45480.676,39439.426,73172.76,-11298.877,113.21511,-1275.9338,36858.640625
77,-4204.964,-1948.5278,-6228.05,-1050.5995,-1299.2542,833.1882,4920.10302734375
78,60.288498,-714.4011,1152.3798,-107.69621,-260.3444,-1430.96,3003.31665039063
79,-5811.181,-6570.3574,-7950.1333,1132.1788,956.4812,1524.4055,4133.8984375
80,-5184.0474,-1203.3174,-3471.495,587.1669,58.58857,-567.73804,3738.10278320313
81,2613.1487,2966.2507,3113.7612,-26.21584,1438.418,1251.3633,3332.48510742188
82,-4503.2593,-1264.3884,-9636.352,528.7572,1594.123,2680.5867,9136.92578125
83,-910.0012,-3412.0957,278.32068,-137.15266,-2058.0554,-2404.157,6383.494140625
84,1763.0044,1838.2256,2205.396,-223.51355,-571.70953,-2513.8674,4500.7900390625
85,-4000.2917,-3952.9844,-2805.742,1682.2483,121.114426,-693.1261,3368.654296875
86,391.6472,607.98676,604.9762,-810.31885,-200.15474,1003.141,2270.47827148438
87,538.9386,-76.67075,-1073.879,-281.70343,2195.4363,-584.2622,4208.23828125
88,384.45264,2642.0405,1366.1305,571.7911,-474.94193,-2442.3865,4837.09326171875
89,81.282715,525.2107,4755.783,-222.35335,212.58644,-881.2171,4752.51708984375
90,-2411.7976,-2238.3142,-634.0681,-1136.8685,1945.1841,4569.031,8985.4755859375
91,1675.51,-322.9823,651.49884,-1236.3405,165.86435,-52.22349,2769.91333007813
92,-1055.5156,-2668.6018,-3701.4478,-23.868448,277.33966,-1229.3524,3178.24951171875
93,-842.093,-2323.2322,-543.5426,1572.4326,-88.29757,1602.9373,4227.80615234375
94,-1809.5952,-4423.26,-2413.6362,617.08997,634.1974,-2255.4365,4819.47607421875
95,1617.9796,2622.332,2558.1912,-218.5735,-176.60983,-1670.6487,3091.68481445313
96,-1585.1251,300.07874,-1439.6145,-178.11815,1418.7784,-899.53796,3444.17333984375
97,-11652.171,-16936.887,-31963.428,1300.5708,791.91534,823.26526,18496.630859375
98,3724.4128,-667.33887,9920.237,-341.4889,2481.5063,-2014.8152,10765.1357421875
99,-970.55743,-1094.176,-2352.274,45.02613,-1504.2264,-1132.453,3520.67309570313
100,558.2715,1437.6307,2668.302,283.22897,-1481.965,428.03845,3278.56591796875
101,-401.8775,-3053.2332,1882.5825,-402.50595,294.88953,-219.12892,4381.361328125
102,-783.82983,-2361.6843,-5651.291,722.1633,-483.7443,-158.4434,4565.47412109375
103,1541.4011,1595.1191,3899.6558,386.67862,-478.62875,487.3526,2699.2451171875
104,809.50275,1055.842,-670.8025,849.2776,-834.41956,302.57098,2672.80322265625
105,2286.2756,3725.3325,5684.556,26.796366,-473.26532,-2131.797,4799.65087890625
106,-1509.2142,-1932.8589,-4990.269,-436.22375,-1329.2637,-1001.72565,4438.98046875
107,1608.2375,3750.562,901.45325,862.83405,218.05794,-2443.7378,5186.03125
108,-1039.0852,-873.6146,-250.16315,-740.94666,77.5998,420.26532,1647.47534179688
109,-2316.0242,-2549.1301,-3870.0215,26.960625,-2412.6594,773.8089,4622.58544921875
110,-494.90344,2391.96,567.80505,-1676.6958,-6028.863,-426.89032,11154.265625
111,-3369.287,-790.16077,-2856.5872,-420.50534,954.4637,-541.2084,3120.03735351563
112,1879.9353,15.379028,-777.60724,448.46088,1510.1396,-711.8255,3814.31103515625
113,1048.5249,504.60013,515.7644,766.7407,452.46985,1053.6748,2449.17504882813
114,2691.314,992.7936,4271.2417,1443.2448,-314.96152,760.07135,4042.80541992188
115,720.7053,459.18488,2387.9958,-122.51961,-1620.0535,34.896744,3347.63916015625
116,4795.829,7881.2734,12449.836,-1519.434,2631.2302,-1166.462,8733.03125
117,-368.2152,-1735.0471,-2095.2925,-125.58402,2741.702,521.49426,5089.6337890625
118,276412.72,285109.1,319510.12,3775.0925,-435.62637,-1109.9036,40065.4609375
119,-3325606.8,-3317381.0,-3303943.5,-9132.286,-11475.169,-8545.275,34972.30859375
120,3835.1982,4433.7925,5668.231,-656.1115,2362.2473,-831.11945,4767.12109375
121,777.56165,-231.1269,-1658.5934,1096.48,1643.3243,-759.5422,4234.86083984375
122,-914.5304,149.39233,-1447.6086,-123.99236,-1251.1566,-922.60846,3046.17431640625
123,-133.29814,-1114.5836,292.29694,-803.2084,4880.8926,126.54674,8661.0908203125
124,-318.3885,-1135.4004,-2434.686,-45.314014,789.83215,629.1715,2546.0595703125
125,-21654748.0,-21646280.0,-21630970.0,-7556.9087,-1437.8563,3867.2874,25654.216796875
126,14157.802,9225.005,22723.648,2440.7993,-3315.7063,-1828.8246,14172.0791015625
127,-2268.2354,364.77252,1475.1815,1569.9198,-728.6619,-2176.11,5855.13525390625
128,2297.4272,1624.9836,2176.3267,-1541.6399,-276.57605,-1342.6829,3626.74072265625
129,549.79065,-982.6763,366.08246,1269.0002,1555.3607,-855.4767,4047.8046875
130,-106.21918,-1851.1884,1475.169,-483.79648,-306.4067,790.5291,3341.23046875
131,119.74804,-412.3158,664.94855,-298.87637,1213.6333,-384.41443,2449.57934570313
132,4678.74,5226.749,7305.054,-1352.0192,-755.5034,1227.2828,4180.13037109375
133,-699.7141,-5250.7627,-4979.7734,-1209.4902,-1214.6808,1150.3806,5686.58642578125
134,3735.884,1067.6514,3603.8396,1184.2007,-312.50778,2086.505,4934.0712890625
135,-43546.91,-48290.008,-69465.19,-1401.5931,-3564.298,-3485.1455,25529.70703125
136,4149.031,2183.8215,7839.0054,-852.42114,1056.8842,-1523.7533,6101.3017578125
137,-87500.555,-49629.574,-67565.555,-12280.683,157.27397,-4272.6333,39798.78515625
138,14836.094,16015.699,17817.537,-9279.901,-3865.8386,-318.54413,17613.966796875
139,-1174.7375,-3193.6917,-3451.3203,-118.486916,1368.1838,30.296896,3212.99560546875
140,2798.8538,3199.8682,2859.0964,313.3385,2574.5256,-2179.2085,5879.30419921875
141,2344.3008,1179.5374,6548.6797,-327.0921,1169.0753,1156.9221,5689.21484375
142,2698.4558,2008.5665,2397.3425,241.7504,-1125.6918,-782.0473,2484.0595703125
143,-2157.7087,-377.75635,-2339.6282,-829.30975,2562.0996,-1319.8209,5523.3359375
144,5158.962,5112.59,4601.418,-829.3068,-782.56024,-728.24255,2403.87475585938
145,1904.2516,2961.5166,3961.043,-322.56018,3536.915,-865.2826,6577.3251953125
146,369.2328,-3088.586,-1606.7424,-1302.5408,-1351.9384,-1644.7699,5264.72021484375
147,5246.702,4773.3696,6863.8037,576.2646,1072.4902,-1058.1727,3377.96166992188
148,2486.282,4814.3877,8713.182,-323.9572,543.14307,2094.052,6637.205078125
149,-3602.9473,-2011.1812,-2524.6094,-679.9846,-1194.5281,-2428.8228,5034.42529296875
150,5153.542,6471.2344,19798.582,-3075.6418,1101.8799,-893.26605,15209.5615234375
151,-475.4419,-4333.385,-4849.8433,-1700.6035,1320.3628,2118.8752,6672.1845703125
152,2185.9888,3292.9229,3867.02,-1355.8564,270.54245,556.9771,2975.84741210938
153,-3115.6194,-430.01807,-6994.0786,248.82294,-858.9019,530.1602,5992.74365234375
154,-1093.8795,-2693.2397,-1138.3987,892.4455,-1920.0536,1146.457,4458.8134765625
155,3581.4067,2828.5073,364.59546,-51.86682,751.8883,-411.7031,3271.90673828125
156,327.07275,-2411.634,-2340.348,-156.71204,285.80908,1457.5115,3741.94067382813
157,1017.65295,-892.2433,2345.779,-167.82693,-108.681694,819.8226,3175.60473632813
158,606.2005,-607.0576,427.8525,961.8597,-599.87866,1307.1616,3204.45336914063
159,-2447.3894,-2998.6396,-2018.8435,-1076.2815,-698.08905,1697.3003,3781.98095703125
160,1096.4314,6337.1426,-1274.2329,-1047.68,-1556.8901,-734.4399,7595.51806640625
161,-575.5802,-2661.725,-2505.851,444.71222,-1041.4589,-1237.3657,3534.34008789063
162,-788.54706,-1074.8186,-2886.0583,553.81134,-211.98224,170.10608,2241.1572265625
163,2601.3345,3121.6338,951.09607,1044.3549,458.20764,1903.9001,4316.134765625
164,327.83838,6201.231,3447.5916,-2054.6802,412.99518,2349.0945,7459.0634765625
165,7575.0215,3732.8672,7657.4106,845.3849,924.86975,-2717.0256,6476.29150390625
166,-3865.4568,-3449.8691,-4393.264,-296.05197,-991.5147,1617.4697,3425.12963867188
167,1590.7567,2395.3699,4317.319,-391.6828,-536.5287,-1545.3833,3791.59326171875
168,3078.4414,2860.8357,1580.9498,279.16904,-843.9936,701.6219,2410.72021484375
169,442.34467,-1054.6967,-1257.6952,-361.1143,366.03656,173.54608,1862.72705078125
170,-549.5614,199.55505,-1477.9568,232.58095,475.23746,933.0543,2360.12158203125
171,-3322.54,-4677.976,-8149.5527,2273.465,-1050.5256,665.48,6224.13720703125
172,3292.219,2750.8464,10712.643,341.38522,-1168.3198,281.2693,8003.4287109375
173,-1019.7357,-708.3947,-762.4581,-431.73932,793.4982,-527.4545,1834.60168457031
174,-1410.1627,-1405.9019,280.0987,-103.11545,-453.64713,191.89095,1899.88195800781
175,-1009.78564,-805.7398,-767.95605,332.99942,-1616.9834,505.38965,2998.93310546875
176,17747.094,17117.758,27774.172,357.52646,-1366.3177,-2069.4255,11228.5478515625
177,-6470.8228,-2432.0195,-11655.7,-577.8845,1225.7119,-160.0988,8349.9365234375
178,689.2709,1318.9882,877.8325,215.17993,446.31842,-611.935,1474.19799804688
179,1284.9448,1878.4442,1966.8289,-2304.464,1014.71344,2048.9924,5659.34716796875
180,-2244.8142,-733.83905,-1243.74,-450.9965,251.7909,214.41454,1646.4833984375
181,185.633,-906.91144,-543.99567,-567.3849,-510.24335,672.0573,2007.6513671875
182,3931.9805,2236.3726,3427.436,339.80054,977.74475,501.8048,2498.78247070313
183,-4916.43,-7066.485,-8682.195,434.86743,-1385.6587,891.5095,4406.69580078125
184,-5314.5513,-5836.702,-11666.95,-500.509,1326.5253,-1570.6494,7123.20556640625
185,-5068.9536,-5387.599,-10115.922,159.75455,473.3835,-316.73303,5001.5029296875
186,-7400.506,-3070.7686,-13194.385,563.90576,-267.11746,1015.7634,9036.8681640625
187,1397.6361,867.15106,2156.04,-946.14136,2258.5405,-1782.7582,5364.90087890625
188,-1921900.2,-1923656.8,-1900918.4,-9240.184,-8607.92,-5630.6016,32461.083984375
189,-5106.419,-7179.042,-12176.879,1565.8309,211.221,-41.701885,6864.93359375
190,-4657.6855,-3964.3901,-11465.761,306.3149,1494.1621,298.21194,7667.880859375
191,-7209.8384,-6528.984,-10162.053,-215.7577,731.18634,346.1266,3645.83666992188
192,-3710.5034,-6683.026,-11211.337,-125.21347,1272.0443,340.1583,6931.8427734375
193,-2863.7957,-5877.4976,-10304.898,-439.2829,1637.473,-541.1137,7178.330078125
194,-10140.716,-8840.675,-13627.414,-218.69164,32.450863,105.20644,4308.1162109375
195,-4768.341,-4233.875,-10672.129,471.03833,1273.6925,-219.55295,6631.203125
196,-3708.0764,-4585.037,-9592.753,-942.62463,3601.9373,352.76248,8496.978515625
197,-6529.9434,-6350.1367,-11364.032,72.4312,-1238.6062,-188.11487,5384.6337890625
198,-9359.412,-7289.7124,-13868.963,-1425.1392,-1439.1213,-510.32275,6858.62109375
199,-6787.5415,-7904.7207,-12518.579,-194.9857,1992.9899,270.658,6319.82080078125
200,-5206.3984,-6165.621,-10948.479,58.863266,-303.382,-609.3939,5457.49560546875
201,-7206.1255,-8167.406,-12775.498,-306.89502,45.84583,-75.76045,5185.9736328125
202,-7045.617,-6388.3125,-12591.925,141.01866,-912.84875,-1412.8119,6586.86865234375
203,-6199.7295,-6449.8,-11474.31,-74.69841,-413.31824,-695.8257,5342.8896484375
204,-7788.5244,-6859.6255,-12971.111,-799.76746,-593.7379,-145.52852,5964.57470703125
205,-5215.287,-5949.255,-10791.783,31.763546,-25.461721,282.53635,5271.38525390625
206,-2122.455,-2697.5596,-8283.418,648.9443,-169.629,-203.27759,6018.1962890625
207,-5858.516,-3979.67,-10386.314,62.589565,-143.75037,302.5742,5734.67138671875
208,-3964.771,-5108.76,-10589.962,397.05496,-157.96231,85.0344,6179.986328125
209,-6350.873,-7043.093,-12382.572,677.39056,-54.73015,439.34763,5886.42041015625
210,-2936.7188,-2353.4983,-9322.378,739.7315,-498.4059,-308.62195,6893.01171875
211,-3927.7703,-4794.0205,-10562.213,-46.78296,1660.3247,-217.68942,6887.517578125
212,-7046.968,-6657.414,-11044.873,254.07892,124.487404,69.60662,4236.40087890625
213,-4027.3604,-2321.2188,-9208.727,-224.2577,11.871108,-19.619934,6224.95556640625
214,-3933.545,-2190.2651,-8873.066,1229.6044,-2245.8677,-2753.748,8858.091796875
215,-4700.115,-4518.915,-9711.953,-57.37034,-343.8247,-899.7,5371.44287109375
216,-2699.6057,-3844.4194,-9403.233,1136.5559,-126.10756,-1013.5397,6751.26611328125
217,-4477.2026,-4660.2627,-9529.933,101.859505,824.764,-339.07837,5201.47998046875
218,79.79065,743.7987,-4149.205,71.079025,1760.5273,-48.697132,5518.51806640625
219,-1959.1399,-262.03955,-7730.5522,51.278267,-685.25934,-532.4587,6946.30712890625
220,-5800.7803,-3801.7432,-9981.005,-10.075215,-458.72726,642.2935,5629.92626953125
221,-6065.494,-6327.497,-11040.054,-173.95567,-130.10567,778.6589,5046.982421875
222,-5840.244,-4799.35,-10196.125,765.654,721.05615,312.2383,5310.56396484375
223,-5657.82,-3727.9668,-9504.859,-1411.8577,-230.83623,1104.3856,5978.89208984375
224,-6397.6177,-5134.882,-9474.653,735.8631,592.9191,1640.8326,5069.93798828125
225,-3337.15,-2541.7517,-8572.73,56.246616,808.96277,455.27982,5899.40087890625
226,-1277.4731,-4879.202,-7864.7354,-1001.8252,168.69963,579.73694,6061.6474609375
227,-6864.673,-6599.1904,-12319.713,-1037.8793,-77.13873,1436.0627,6380.62841796875
228,-7125.209,-5779.246,-10916.289,-228.49825,722.9772,-43.964405,4797.61181640625
229,-7650.1055,-9586.004,-13838.266,686.0374,-2331.7854,1216.507,7226.6630859375
230,-5872.896,-3086.6943,-9637.837,-1500.9292,-16.857302,-156.62935,6265.81201171875
231,-7867.85,-8783.368,-13348.467,688.48175,-414.73642,1410.8263,5810.943359375
232,-3096.7432,-4403.5537,-7189.166,144.38153,-3226.838,1525.5928,7168.677734375
233,-6310.1123,-6007.923,-9785.084,-3.559817,-1960.7583,-1053.8953,5299.31005859375
234,-4157.282,-6377.7896,-8305.109,506.9527,-2708.4668,173.16211,5982.740234375
235,-2570.3987,-1237.4563,-4658.6655,1190.8857,-1370.6976,95.92961,4340.484375
236,-1888.2996,-245.10413,-3850.09,-258.015,-3022.7822,56.297688,6114.99609375
237,-550.24097,1202.904,-2753.4377,500.5479,1553.1808,-65.96717,4448.81201171875
238,-308.26233,93.87134,-1443.6089,-459.307,-225.95512,1754.6189,3453.89672851563
239,2391.2678,761.30646,-516.936,-595.42523,-1610.1089,-289.04227,3932.6513671875
240,-2140.6934,-1608.7477,-3336.069,913.0268,1253.2505,-63.86802,3093.98876953125
241,-3387.5686,-2075.9885,-3677.875,-241.08696,-742.1231,-24.788153,2003.43017578125
242,1917.6782,758.042,-1008.4791,-312.7839,-1815.901,-902.44434,4375.28076171875
243,-1723.5065,-2197.1946,-2500.382,739.8199,-2556.3184,995.713,4967.95166015625
244,-1423.4978,-1768.9678,-748.40985,138.0179,-1604.0195,73.52266,2932.62963867188
245,-3306.8022,-3246.2766,-1823.0135,-350.355,122.031975,701.8016,2001.4951171875
246,2640.3809,1450.2074,4040.5469,445.66968,-1174.086,-144.61209,3136.4716796875
247,2262.3098,2664.6914,1853.1144,-620.70886,-1127.4164,690.01605,2625.15014648438
248,2233.292,2529.5896,3836.3992,-464.09427,-1299.736,1951.3962,4395.52978515625
249,3744.308,2608.7354,3035.2156,-66.8949,-1353.884,1437.0,3562.92700195313
250,480.4134,-23.841614,-414.89368,913.2453,1142.3485,-335.81516,2712.86401367188
251,-7630.3013,-9728.831,-23794.254,2931.463,2.3088574,826.9387,16111.75390625
252,255937.4,253584.56,293423.84,6045.1753,626.0088,284.9946,40125.05859375
253,-4403.0254,-3099.2334,-4700.27,-326.63818,187.41664,79.55634,1618.70727539063
254,517108.3,508638.28,511796.12,8880.103,-13892.165,-10929.785,35055.5625
255,2674372.2,2669567.5,2684177.5,575.62085,-14642.317,-8529.947,32075.017578125
256,-49230.555,-23843.273,-14181.496,3110.2197,3859.4338,-4627.6016,33482.8359375
257,10407.831,18817.998,28482.39,4610.6694,-2027.794,300.43335,17938.560546875
258,-19025.67,-13231.012,-20960.4,-3312.1707,368.7365,1152.0087,9264.6123046875
259,11036.447,12459.892,18549.484,1986.3975,-2209.389,2098.0796,9352.265625
260,-10410.358,-9303.587,-16038.67,218.5872,-90.13499,-198.98137,6278.421875
261,-3605.5798,-1419.8945,-7439.259,656.3771,1505.352,1311.4487,6411.23779296875
262,2554.1892,2883.0173,-2354.7178,1056.688,1275.4368,4473.5083,9699.8193359375
263,-4318.3384,-3622.6333,-8416.385,-140.66544,-433.80228,2669.9185,6491.404296875
264,-2063.6973,127.96265,-8327.665,-839.9273,1217.2794,-451.84198,8058.7451171875
265,3600.3726,5996.024,7376.769,-131.04834,-1269.189,1113.9634,4422.6884765625
266,-5572.899,-5385.537,-9913.598,225.52924,-388.6118,-1181.6833,4948.21435546875
267,-2468.5627,-2916.706,-6356.19,718.1165,60.62898,1600.5422,4776.56494140625
268,-3315.7012,-2620.4321,-6433.1113,-962.378,-610.13385,873.2581,4307.21826171875
269,-613.7986,-3806.9702,-8265.057,872.17303,368.91595,-90.69217,6857.21142578125
270,-3443.6997,-4295.301,-8503.21,-744.43317,103.48482,-262.41156,4890.44287109375
271,313.24402,-469.94196,-865.52527,-166.00732,1394.5168,0.32202372,2645.06884765625
272,-5971.842,-3974.0298,-11149.0205,1028.7562,-765.81,-1185.8757,7091.599609375
273,-6246.6694,-6532.07,-12616.365,314.65982,467.35114,-744.8698,6438.42724609375
274,-6529.855,-7386.704,-12094.983,-284.94846,435.58896,303.25183,5293.86962890625
275,-6430.3833,-6895.489,-12073.834,-79.74044,-72.48593,253.32182,5446.7802734375
276,-4806.655,-2449.0454,-8005.9053,259.474,-1148.7834,546.69446,5328.58544921875
277,-4934.1987,-3889.338,-8925.387,-0.7152997,-4.3085814,-156.54091,4611.412109375
278,-5619.5757,-7844.0728,-11837.903,-1126.1079,-278.81326,1558.1278,6411.2548828125
279,-7082.8936,-6708.214,-12771.824,455.86362,209.85919,655.48145,6056.431640625
280,-4595.8257,-3993.788,-7456.6646,156.88557,1279.2758,-460.9441,3986.23486328125
281,-1491.6204,-800.0475,-3067.1758,-88.24077,632.40204,-415.3557,2406.44482421875
282,-6533.0996,-6892.044,-11405.862,79.507095,139.53612,579.86707,4817.646484375
283,-5239.331,-4976.5693,-10132.326,126.51026,48.275826,-126.51332,5039.7578125
284,-6548.5864,-6712.0186,-11560.33,37.116432,-407.22214,-88.40244,4985.00439453125
285,-6709.0967,-6910.105,-11892.676,-195.73256,1569.0941,-125.22559,5780.66650390625
286,-4885.2905,-5129.8604,-11884.413,711.2751,-503.049,6.2939487,7043.634765625
287,-3503.1375,-4308.176,-10208.764,823.4199,933.2815,490.36316,6751.56982421875
288,-4933.2627,-5444.943,-10491.745,120.31995,824.0268,188.13896,5522.7763671875
289,-5778.091,-5977.884,-10662.192,125.2671,1616.0629,430.74307,5599.75244140625
290,-5378.6055,-6298.8477,-12012.073,364.2583,1661.4077,-263.94153,6901.68212890625
291,-5995.422,-6457.7354,-12102.308,178.94069,-791.3171,-357.63425,6086.2802734375
292,-2517.6404,-2044.8301,-2542.354,-638.87213,-264.40533,170.35954,1325.56237792969
293,-561.4581,-3172.4858,-1754.1595,-414.709,-2330.5825,490.065,4759.94873046875
294,-1078.173,-1476.4283,-1303.9475,237.40454,-60.425537,1105.0747,1990.796875
295,103.03226,-29.926971,-1278.658,-231.60855,491.3621,411.3072,1770.81787109375
296,-8495.89,-5226.3403,-12755.881,-285.50488,-101.78667,1745.6848,7223.8212890625
297,-5489.83,-5041.232,-9721.695,269.6516,202.7667,261.84775,4533.8173828125
298,-4211.222,-2920.3867,-7313.5254,604.76215,-1031.5397,-301.64594,4456.17626953125
299,-3434.7004,-2703.0288,-7560.3086,-482.0835,309.04486,236.23149,4661.0869140625
300,-5218.0186,-3921.9846,-9624.158,14.331689,534.961,376.1643,5299.8056640625
301,772.0474,1981.5076,2090.8438,-1388.4575,392.26566,723.2674,3069.4287109375
302,-3034.2803,-1911.4037,-4829.515,-476.17804,249.80235,1927.8104,4303.0625
303,-6800.9985,-5472.7095,-8782.018,739.5031,-1054.7793,611.81525,3797.54907226563
304,-5149.6694,-4196.634,-6644.4595,1502.1743,-90.280716,526.7535,3491.94848632813
305,-3839.135,-3611.7095,-5239.5815,-448.5758,-1658.9546,167.74646,3357.96655273438
306,-2211250.2,-2193449.8,-2188967.0,-8880.492,-11476.515,-10303.956,36972.734375
307,-6207.1055,-6834.1113,-10181.766,-840.13446,-835.46234,2522.9707,6083.2998046875
308,1424.4751,6249.6753,7265.0166,1785.2881,-2604.6423,-514.6591,7740.90234375
309,-101224.61,-101155.28,-125031.33,549.1494,-2757.4348,5932.1255,26414.021484375
310,708.195,274.55945,-1408.6144,22.196005,322.44183,2642.78,5001.72412109375
311,-61783.785,-72307.51,-32595.834,-1987.9462,8750.169,2761.223,39169.83984375
312,-6935.668,-5487.4375,-11297.156,45.686687,123.246,-606.9295,5347.271484375
313,-3795.6545,-5758.053,-11023.789,287.23276,-207.23459,-75.856476,6504.3115234375
314,-9832.222,-8286.359,-13324.948,-94.04939,-299.29742,-426.36035,4563.85009765625
315,-5169.7324,-6200.0244,-12054.857,-41.809593,-2069.7673,571.09314,7430.22607421875
316,-6733.704,-6407.407,-11553.763,-269.72662,196.95454,-1023.1276,5327.96435546875
317,-6236.9575,-4930.16,-11037.598,234.59653,-64.89538,-49.262928,5586.80126953125
318,-6491.0474,-6702.757,-11577.965,-94.566895,-653.8469,1442.0785,5691.462890625
319,-6097.8716,-4951.512,-11424.54,-633.58575,123.558655,1758.6261,6806.04150390625
320,-5296.607,-5129.4604,-11382.102,-220.11371,1431.1201,1749.3512,7317.6982421875
321,-7076.9395,-6562.126,-12087.153,133.95793,1316.4084,-294.78543,5784.45556640625
322,-6260.6045,-6670.6094,-11657.922,-284.32712,905.6803,-501.48322,5526.65966796875
323,-6314.564,-4110.588,-12607.631,1596.6686,-500.92365,-2570.0955,9303.0625
324,-1684.9089,-595.1511,-7959.0996,729.6556,-1004.54675,-76.622856,7213.35791015625
325,-5731.165,-4957.894,-10199.54,252.26596,628.05206,-437.9426,5096.00146484375
326,-2556.7268,-1472.5342,-3510.506,1633.2042,1784.7443,1521.9008,5256.02490234375
327,-923.0689,-512.75195,-2020.4906,-457.72144,-2557.1384,-325.2692,4731.36181640625
328,-1675.79,-2137.1045,-4165.237,-134.04689,198.06093,563.1283,2526.79028320313
329,445.26855,133.70728,-4391.2715,784.1583,1696.07,-402.26636,5739.55029296875
330,591.6216,1218.1632,-1068.9603,-75.62328,-3233.1516,-1455.1409,6474.548828125
331,-411.56927,-512.97925,-2047.5884,-699.0698,1401.5413,-1139.2719,3711.3076171875
332,-28.1026,-1053.0277,-1553.4713,-1060.0433,-1597.2789,-384.54938,3644.50854492188
333,674.3093,2583.1863,5684.0513,-737.0431,-2745.0398,-664.94275,6688.81298828125
334,-22729.695,-25412.635,-36086.93,-1088.0417,-172.71191,94.09025,12387.283203125
335,-5860.469,-673.66797,-4444.7188,-3349.3274,287.42007,228.25168,7458.02587890625
336,-5403.922,-633.2429,-4284.2637,666.4378,798.9515,2698.488,6615.46533203125
337,-3599.2976,-2304.389,-5530.0903,44.64834,534.2407,1997.9482,4554.400390625
338,-5810.747,-4634.0547,-10481.392,1358.593,1050.584,1455.4402,6625.62158203125
339,-4081.1292,-4093.3088,-9308.317,-1361.7391,-396.59293,444.8675,5821.38818359375
340,-6142.802,-7560.375,-9929.295,437.3355,-645.728,781.593,3825.80151367188
341,-2541.6523,-5752.292,-10275.063,1232.3779,-2828.964,420.33026,8624.3876953125
342,-5013.706,-4260.7153,-10685.496,42.612213,11.824672,343.63205,6112.865234375
343,-7711.829,-7451.5254,-9811.475,-1105.3787,-1443.4396,297.43555,3899.2763671875
344,-7362.8203,-6972.9473,-11842.421,351.1964,560.7127,-6.9519396,4824.7958984375
345,-2156.2727,-2419.5405,-5886.817,-8.367195,-107.21602,-914.8543,3943.31176757813
346,-8608.321,-8322.806,-14841.492,-10.890155,38.076416,-670.14636,6485.7998046875
347,-4021.9412,-3615.047,-9755.222,-88.66222,-2.1486948,-106.33205,5952.009765625
348,-6568.3164,-6485.0747,-11063.519,216.78157,444.16376,-228.60101,4634.38916015625
349,-2184.4934,-2624.5745,-9371.05,-332.14044,558.4487,-735.23773,7180.9375
350,-6316.9536,-6388.5073,-10476.303,-182.74126,-279.34186,216.27904,4181.18359375
351,-5991.661,-8598.808,-10966.737,1604.864,526.18665,1316.7113,5686.51123046875
352,-7880.573,-6741.9263,-11654.912,-327.20737,930.07043,-258.7656,4791.341796875
353,-3691.8804,-3529.669,-8961.312,-65.81306,865.06586,277.06717,5579.98974609375
354,-9221.523,-11609.489,-13084.237,637.3668,1957.0378,85.57731,4912.18701171875
355,-3728.0945,2340.524,-3553.1646,-787.96277,-2024.0299,-740.8543,7183.06982421875
356,-6556.172,-5434.9146,-11732.033,-2533.963,-892.1396,2171.5977,8345.560546875
357,-3136.0828,-3919.505,-9379.278,542.48175,694.3754,253.84021,6101.05078125
358,-4616.4355,-5260.4023,-10735.173,202.8421,-195.14546,258.58694,5861.02880859375
359,-5087.3193,-4258.9746,-10125.368,-220.32785,208.0284,335.38336,5554.6591796875
360,-6138.828,-6390.6787,-9875.888,-12.127662,60.992508,24.454813,3619.56591796875
361,-1851.75,-1782.225,-3675.0288,207.98892,168.85123,-80.74499,1921.14880371094
362,-8972.726,-9099.962,-13645.899,61.588707,-20.735508,-106.32486,4615.92138671875
363,818.36743,786.3406,1956.092,-21.540503,286.4254,-191.95966,1299.97570800781
364,-85766.65,-85456.97,-106243.805,-13.173978,-1880.4944,-734.5007,20927.947265625
365,-6070.7246,-6234.212,-9803.767,3.164963,157.65761,-79.114204,3666.796875
366,-5438.705,-5150.496,-9164.341,11.813688,62.271572,143.96396,3887.34057617188
367,-5711.867,-6774.3438,-10647.251,-170.09029,-640.07404,-515.3234,4728.1806640625
368,-7749.833,-7405.586,-11544.031,85.7058,21.870934,-227.12216,3999.8515625
369,-7833.257,-7429.5684,-11554.279,-38.2715,192.64339,-245.70227,3975.92065429688
370,-7644.8145,-7679.8857,-11539.737,60.62297,-111.50685,-48.947594,3884.658203125
371,-6642.132,-6816.4043,-10886.175,-126.67022,271.98425,-179.06415,4203.439453125
372,-7003.719,-7006.594,-11021.963,-57.17118,38.85393,-132.82439,4025.17065429688
373,2401.912,2645.2363,5037.1396,39.574753,649.573,-65.06481,2765.07690429688
374,-59.7791,-104.16737,-339.94476,42.566288,-461.86237,120.53657,870.057739257813
375,-95.19855,-34.67462,-39.138634,42.615627,-315.23428,7.094485,554.193237304688
376,-7877.0625,-7872.708,-11987.697,-45.37726,-31.560354,51.89593,4114.90966796875
377,-7003.049,-6820.3906,-10985.95,-24.35974,59.27818,213.47263,4095.53540039063
378,-6537.1055,-6557.722,-10512.181,1.3400589,79.36755,5.352881,3967.20092773438
379,-6164.652,-6236.16,-9943.067,29.270687,-271.36014,130.01285,3779.62158203125
380,-10140.575,-10038.6,-15938.703,66.69627,-4.7165313,103.07985,5853.65234375
381,-3538.5586,-3068.3813,-6195.5537,-251.6784,-318.5429,-279.695,3042.87231445313
382,-5607.981,-5150.7812,-8882.784,81.309235,161.4787,-127.19289,3546.43481445313
383,-6784.3125,-6810.074,-10370.0205,-59.95137,224.53085,-82.21158,3598.31787109375
384,-5860.113,-5506.1006,-9635.84,-146.49782,-50.62152,-95.34764,3977.1142578125
385,-6512.4253,-6261.529,-10261.103,1.1462091,65.55119,42.985287,3882.58911132813
386,1008.4606,991.0239,2217.7,-72.08213,344.80707,-488.4198,1603.61279296875
387,-6064.214,-5833.0684,-9512.511,29.582417,-217.11288,-239.21713,3613.4404296875
388,-5604.3394,-5702.7764,-9351.977,71.23613,35.61229,-21.897799,3702.16625976563
389,-6353.4688,-6417.2363,-10109.743,-61.339104,-344.08163,84.84541,3776.5322265625
390,-6484.382,-6458.842,-10303.258,-23.2927,-170.07603,126.31117,3849.45043945313
391,-5829.9414,-5633.392,-9906.458,85.29795,-137.79285,-41.531883,4188.29541015625
392,-760.8202,-869.81604,-1766.2874,41.297264,179.26913,171.49689,1050.2451171875
393,-8124.12,-8244.258,-12061.771,99.96836,314.7529,37.00178,3921.44970703125
394,-7056.301,-6988.119,-11375.781,-28.835491,-216.28647,55.545704,4371.40234375
395,-7990.162,-7759.8516,-11796.422,-72.63017,-5.9040008,97.026405,3932.10522460938
396,-5901.8857,-6004.606,-9537.721,-86.82986,-11.537011,107.245544,3593.59106445313
397,-5850.035,-5622.536,-9644.861,-51.05053,124.7819,275.6223,3949.45727539063
398,-6144.6475,-5898.45,-9542.136,-138.66888,-43.887196,25.114882,3536.29052734375
399,-4939.597,-4952.1406,-8035.282,118.38928,-53.826336,-294.8721,3139.45556640625
400,-6137.5522,-5914.6577,-10759.659,-74.95183,-181.24782,-240.27028,4767.849609375
401,-4402.614,-4044.1958,-7321.2993,5.1260104,-268.9321,187.33957,3164.74951171875
402,-9936.162,-9965.609,-14687.408,-146.20862,-16.152771,50.69312,4744.2509765625
403,-6662.91,-6711.958,-10544.683,37.916183,-57.64531,16.362408,3859.43725585938
404,-8642.3125,-8576.593,-13018.554,-97.26438,-69.1077,124.46249,4419.5693359375
405,-6968.0166,-7236.676,-11131.936,46.010685,-135.78078,53.893486,4045.00903320313
406,-6931.8247,-6896.152,-10773.139,-54.357796,32.892498,-116.62356,3866.12329101563
407,-6843.1772,-6749.211,-10739.831,-19.319431,-74.94146,-89.21409,3949.77709960938
408,-6768.3,-6626.366,-10795.16,129.8254,192.61536,-106.42099,4123.486328125
409,-6965.656,-7076.481,-11214.731,12.277907,-193.7173,-174.15913,4219.01025390625
410,-6216.109,-5881.1484,-10126.383,-73.049286,5.491979,327.85458,4129.2607421875
411,-6884.94,-7049.2446,-11128.961,-5.716734,-92.11616,-78.99632,4169.61328125
412,-6202.7847,-6218.8726,-10034.202,36.44251,-49.831924,0.72770625,3824.89404296875
413,-7426.6543,-7298.286,-11567.734,42.112244,131.47525,-14.001407,4213.59375
414,-7225.486,-6733.1763,-10856.922,-87.49189,55.239433,71.73213,3907.05029296875
415,-145376.69,-144337.16,-180404.56,-408.31537,4327.878,3478.79,36843.4921875
416,-6381.786,-6547.504,-10532.18,79.063614,216.92505,-70.776344,4091.50170898438
417,-6370.382,-6263.462,-10306.472,-105.270935,98.257614,336.29742,4040.6162109375
418,-7515.0273,-7566.046,-11095.177,-244.30278,-238.20287,-195.77682,3619.6240234375
419,-6252.001,-6022.908,-9664.606,-279.47824,20.56912,-38.21249,3566.53002929688
420,-149180.5,-148516.1,-184738.03,438.35562,4222.9204,2393.5476,36873.66015625
421,-6930.97,-6946.9365,-10783.132,9.130802,201.8779,266.09122,3887.52197265625
422,-6601.753,-6619.881,-10363.132,-28.821966,40.20576,-39.476303,3753.94848632813
423,-232398.28,-233757.42,-236284.88,134.94592,2798.5396,476.21725,5991.73583984375
424,-5425.59,-5307.448,-8947.724,143.22166,-173.25336,-361.77057,3657.82934570313
425,-6352.09,-6208.117,-10426.643,143.07321,279.52286,265.59378,4209.12841796875
426,-7559.958,-7527.0684,-11490.056,-92.06624,46.3974,85.493935,3953.45703125
427,-6045.968,-5890.5244,-9480.765,-24.302204,128.51756,134.40965,3530.07470703125
428,-5398.3657,-4912.806,-8571.98,189.27907,-57.095734,147.98383,3468.650390625
429,-5735.1616,-5578.232,-9365.832,10.87478,-141.6518,-208.04779,3737.18579101563
430,-5827.6733,-5873.155,-9343.971,-16.106174,-83.99028,-0.7363957,3496.91748046875
431,-5449.1187,-5462.972,-9362.5625,-1.8062919,411.3793,120.86842,3976.50048828125
432,-6197.7285,-6127.837,-10163.88,-21.349382,94.65355,-73.45276,4007.10302734375
433,-6639.7324,-6611.12,-10493.295,-1.1332941,-200.8343,72.44842,3885.58544921875
434,-7640.6494,-7721.9204,-11716.634,3.3695042,-64.66312,85.494896,4040.2353515625
435,-6679.611,-6877.516,-10818.145,-108.3986,50.976498,-52.446426,4049.55419921875
436,-5846.187,-5682.3423,-10472.305,-57.053925,88.33553,195.36147,4725.82763671875
437,-6543.3594,-6539.395,-10641.659,20.181393,-11.371512,-29.444977,4100.796875
438,-6404.5913,-6741.772,-11470.239,-286.39508,-431.00888,889.5302,5219.541015625
439,-8810.154,-8912.724,-13311.849,27.769777,7.219826,-17.88962,4451.681640625
440,-6715.724,-6760.35,-10669.945,4.9075136,99.5812,223.1511,3954.82080078125
441,-7439.8667,-7097.3745,-11225.915,-87.358215,158.43044,-116.470474,3985.85571289063
442,193.94127,240.75816,893.33875,-22.698257,-109.332924,-150.96205,751.252502441406
443,-6485.6797,-6169.301,-10290.311,-180.07762,-297.51013,-32.541218,4018.08569335938
444,-5949.2627,-5891.474,-9375.563,-10.781177,-452.15527,117.55739,3549.08715820313
445,-7277.1724,-7431.4146,-11345.621,89.58008,5.756556,-134.08052,4003.32934570313
446,-6982.5083,-7074.822,-10661.403,-39.625954,6.12665,-196.86372,3650.24243164063
447,-6253.5312,-6284.2085,-10035.967,6.747393,-305.12976,508.48538,3904.72094726563
448,-8037.742,-8002.198,-12246.619,-4.4897237,-199.44948,-23.543331,4241.05810546875
449,-5535.862,-5434.4307,-9023.563,-30.727278,12.981669,-47.865044,3540.94946289063
450,-6393.104,-6535.0483,-10424.753,-13.753445,-387.8763,74.738205,4021.28588867188
451,-6559.931,-6677.0127,-10580.642,-18.320604,-16.756575,-128.1576,3969.91088867188
452,-5395.844,-5342.5986,-8863.405,-215.98978,-22.253386,29.996462,3515.05151367188
453,-6011.1646,-5756.3228,-9611.219,-53.32579,91.259384,139.81876,3746.32373046875
454,-6155.5884,-6272.3506,-9781.286,109.3417,-517.3662,-79.41037,3686.97192382813
455,-5438.9287,-5551.415,-9072.816,-10.234223,43.1496,10.377717,3579.84008789063
456,-5158.569,-4868.2856,-8041.769,-144.30266,-316.1798,12.535722,3097.88671875
457,-6092.034,-6166.4717,-9822.646,1.2309278,21.834438,182.04082,3707.58178710938
458,-6686.6357,-6707.7476,-10366.2705,-46.11142,107.21839,-230.14082,3696.24609375
459,-7411.0967,-7501.7764,-11749.298,53.12097,11.542532,-147.3614,4302.18994140625
460,-6563.9272,-6479.54,-10593.748,61.063896,115.973595,-75.50217,4081.08813476563
461,-7336.3853,-7360.633,-11272.948,-18.504179,-146.42094,47.392708,3933.66821289063
462,-7169.7305,-7017.834,-11100.397,-50.53807,-29.19446,-94.79388,4013.40844726563
463,-7083.358,-7156.6978,-11925.17,-81.15901,50.752155,144.35796,4814.91748046875
464,-7092.577,-6916.6523,-12063.327,31.677078,-192.15036,179.40399,5081.74365234375
465,-6419.4316,-6508.9,-10543.965,10.31713,68.11586,83.37924,4084.83276367188
466,-5187.274,-5131.819,-8685.376,131.74908,30.51294,-0.61568546,3533.92822265625
467,-5570.452,-5820.9507,-9058.709,-64.57121,-55.182827,42.411186,3374.0068359375
468,-6721.8467,-6836.2974,-10390.816,-28.405405,222.94081,274.03372,3664.87841796875
469,-6457.5205,-6818.872,-10352.257,-58.581303,-165.78548,62.389664,3741.20336914063
470,-6834.566,-6906.9067,-10841.215,3.3302655,31.624289,185.2104,3984.28979492188
471,-6511.441,-6749.037,-10452.804,-0.73137987,-36.45771,-319.7549,3868.46997070313
472,-5822.0273,-5773.5938,-9228.352,-54.70801,31.936659,-114.5073,3438.27661132813
473,-5304.8813,-5345.6333,-8651.851,-154.38097,216.58354,-19.996597,3358.7041015625
474,-6202.4644,-6167.3677,-10045.919,-59.64581,36.74773,-218.47809,3881.51879882813
475,-4416.5337,-4485.299,-7558.888,-83.30303,229.76848,-469.76718,3241.03051757813
476,-7911.3354,-7898.9214,-12070.197,-64.74949,-58.645412,19.593735,4167.96826171875
477,-6691.692,-6846.1855,-10554.526,23.18294,38.041897,-211.86896,3806.46752929688
478,-6656.0967,-6660.6333,-10902.979,133.39183,-48.60529,24.46044,4251.943359375
479,-6441.8877,-6608.374,-10458.682,14.401838,-77.62835,363.47598,3988.5654296875
480,-290.6534,-345.42224,-673.044,64.19898,476.92386,-4.0496325,907.227661132813
481,-78.21081,-199.14645,-520.6427,-161.1192,-349.9857,-524.39716,1194.65087890625
482,-10139.691,-10311.296,-15961.443,-10.431053,-36.083893,-12.074366,5738.28173828125
483,-5237.887,-5230.913,-8815.762,-15.604834,-131.76749,-143.6249,3597.34497070313
484,-7543.4297,-7506.23,-11593.336,-50.223495,105.238014,-144.88582,4081.36596679688
485,-6615.621,-6570.407,-10604.238,-32.621166,287.1333,57.0216,4043.72778320313
486,-6790.86,-6835.827,-10801.409,-62.561337,4.587146,85.940605,3992.51123046875
487,-7521.5923,-7558.754,-11723.741,1.4558556,-56.356247,50.44896,4185.7431640625
488,-6287.497,-6223.8276,-10079.008,22.320602,216.60606,-197.97166,3857.56909179688
489,-6277.303,-6301.947,-10158.36,3.995023,-81.12514,130.84012,3877.978515625
490,-6291.3184,-6181.3047,-10071.636,38.14002,15.418612,40.246193,3837.80200195313
491,-3713.0132,-3581.3125,-6762.129,43.793724,27.259539,-41.028946,3119.14331054688
492,-10113.518,-10080.847,-15963.97,-41.49751,62.713463,-401.38013,5909.33837890625
493,-6215.1426,-6336.3735,-10185.668,-61.471016,73.67433,-150.16658,3923.47900390625
494,-8418.001,-8512.134,-13295.295,-26.462923,38.494884,-59.554497,4832.69384765625
495,-8511.493,-8568.563,-13021.645,-7.7023687,108.62284,181.12552,4496.81201171875
496,-6951.616,-6647.5537,-10557.229,-24.585798,-10.783658,169.18993,3778.52661132813
497,-6155.4277,-5987.0547,-9947.963,-8.655785,101.951706,217.6951,3901.7705078125
498,-4949.856,-4781.1143,-8236.545,-12.207402,127.64263,120.31112,3387.94165039063
499,-3757.8672,-3454.7786,-6290.635,46.46379,-443.43536,-364.4911,2875.65112304688
500,-8041.8325,-7905.5176,-11965.81,-69.51414,-83.58227,-36.554367,3998.81713867188
501,159.4236,-46.544777,205.9091,111.54183,22.627052,216.61244,483.510040283203
502,-4877.264,-5086.6387,-9294.567,-283.7103,117.10981,141.72015,4355.96240234375
503,-4439.661,-4086.2456,-7489.5396,113.4059,-63.983894,62.938766,3250.73583984375
504,-5805.1304,-5460.9688,-9549.329,204.22589,-133.53836,66.90639,3951.97827148438
505,-8077.8174,-8040.397,-12551.688,7.8518124,34.32698,26.076468,4493.33935546875
506,-7955.6367,-7707.1978,-12191.498,104.10274,175.57584,-3.0644047,4379.68212890625
507,-6279.5464,-5880.396,-9668.365,48.61587,-73.44537,-154.3677,3618.12426757813
508,-9634.024,-9493.74,-14083.338,-17.796562,47.55422,-237.6707,4540.642578125
509,-636.3004,-304.37558,-404.379,84.02313,413.84222,-17.754625,789.241882324219
510,2138.756,1882.8628,4594.533,-63.791218,-1.6057922,87.86897,2600.02270507813
511,-7571.567,-7521.477,-11524.452,60.45435,53.34797,-127.88244,3986.77490234375
512,-7295.3926,-7286.797,-12185.663,-91.604774,114.77162,-103.36657,4904.447265625
513,-1008.0573,-925.99677,-2269.6162,75.21624,-1028.0437,13.748709,2211.3232421875
514,-5882.6533,-6011.2373,-9862.178,-26.395699,-40.576393,179.32877,3930.00659179688
515,-805.89136,-780.9983,-1189.1573,-56.7612,382.8856,33.554592,780.961242675781
516,-7672.5464,-7716.629,-11823.973,0.6738677,-52.76284,-150.0196,4138.73779296875
517,-4759.604,-4759.906,-8263.656,42.756393,231.16818,248.39279,3553.62109375
518,-6766.7095,-6977.533,-11139.4375,-83.97785,-42.244812,248.80463,4295.99169921875
519,-6398.7505,-6611.394,-11881.82,-109.31773,-68.89589,-68.89765,5385.87646484375
520,-6547.58,-6612.7896,-10234.115,12.143911,-39.43973,90.45946,3658.42236328125
521,-6748.866,-6617.648,-10603.404,-21.083372,-83.320885,-50.912857,3925.60888671875
522,-6422.901,-6235.375,-10204.982,-10.5801115,-210.4115,-0.1360695,3896.3701171875
523,1612.1075,1839.5316,3121.1226,-119.99678,203.01537,-81.90283,1473.98425292969
524,441.53867,511.12363,1293.4547,69.51646,299.26205,-52.678013,981.233032226563
525,-7618.2793,-7681.177,-11831.126,-40.836956,173.27994,-134.7477,4199.59619140625
526,-4174.4194,-4169.335,-7088.701,-18.205679,-342.56284,394.57227,3054.17504882813
527,-5282.6987,-5340.304,-8863.815,-32.30335,261.86188,-331.93073,3627.78198242188
528,-6166.653,-6434.362,-10275.245,18.953033,10.042698,-87.76412,3984.56762695313
529,-7408.31,-7399.512,-11466.232,-12.759377,-82.14109,3.3250785,4064.88330078125
530,-6554.0073,-6816.559,-10548.563,115.50392,-195.8504,-153.04468,3898.97387695313
531,-6843.9565,-6989.7915,-10832.192,4.7756405,12.796409,316.9277,3955.69946289063
532,-5410.7773,-5499.6123,-8828.411,106.66255,-207.62766,-108.362274,3403.40893554688
533,-6154.526,-6148.676,-9942.521,-21.744673,-116.43559,128.76756,3803.01684570313
534,-7078.9185,-7284.0747,-11236.612,-91.938866,40.44397,63.56993,4064.22436523438
535,-3618.4014,-3614.4238,-6415.907,105.886055,53.798817,206.5068,2829.7412109375
536,-1622.1166,-1634.7937,-3087.0764,20.00339,7.4426885,-292.39832,1544.52368164063
537,-13183.39,-13040.201,-20300.283,13.739934,-29.732962,-18.828976,7189.85546875
538,-2831.534,-2473.6284,-4582.5503,206.32747,223.91328,776.12885,2430.248046875
539,-5203.819,-5156.124,-8643.529,10.997537,100.4669,-175.0135,3481.44677734375
540,-2523.5637,-2465.3503,-4911.1567,53.85205,-514.52,73.66836,2581.11474609375
541,-7444.107,-7302.6636,-11803.1,-51.08188,176.66441,-525.071,4534.96728515625
542,-5825.2554,-5937.1465,-9470.85,182.13863,-98.17366,-61.789875,3610.38208007813
543,-7301.9526,-7178.6777,-11287.533,-58.711525,459.97723,105.62764,4131.576171875
544,-4752.179,-4689.8667,-7836.8374,13.042521,-538.93445,-138.33885,3261.9755859375
545,-5953.948,-5939.041,-9641.765,-6.37444,140.11566,-114.616356,3708.5869140625
546,-1723.9912,-1935.8008,-3558.6821,221.68896,783.03937,144.2955,2252.04418945313
547,-3436.5645,-3800.3843,-6468.6772,-171.86118,-342.1891,23.626265,2943.55126953125
548,-7127.9873,-7237.5,-11996.593,-69.64448,405.96603,61.840115,4868.5302734375
549,-6143.864,-6233.144,-10482.768,-114.21749,303.00836,85.87253,4333.97998046875
550,-472.28525,-290.78073,-526.09875,-10.333777,594.3951,-123.81278,1073.23474121094
551,-1368.1611,-1094.1696,-1769.3937,217.15405,-647.1692,243.28763,1386.18591308594
552,-7263.537,-7159.065,-11396.047,-11.802673,-12.971036,93.72096,4188.98046875
553,-5261.2305,-5378.211,-8693.21,-39.399097,-237.00897,185.75615,3415.75537109375
554,-16165.437,-16153.477,-24637.684,-39.796734,-243.92964,-97.637054,8490.71875
555,856.2251,877.7274,2086.8997,38.31207,34.915207,1594.7084,3020.91137695313
556,-2122.5315,-2009.7964,-3513.6875,3.9626563,344.4306,-10.2143,1568.79370117188
557,-2028.8813,-1860.3052,-4545.093,-79.34309,-171.74643,384.99744,2708.4970703125
558,-2954.9932,-2881.586,-5619.0625,319.2122,143.94872,375.64236,2844.18530273438
559,-4331.1963,-4236.1597,-7417.7383,6.99835,-34.841198,-293.9186,3176.80053710938
560,-6494.8325,-6241.6885,-10250.448,-63.929092,-208.48247,-706.6762,4093.93115234375
561,-7912.778,-7893.628,-12224.916,-24.169123,68.98029,168.98778,4333.4951171875
562,-5477.8066,-5421.593,-8968.921,-6.0008307,-427.30554,239.62762,3620.41845703125
563,-981.431,-718.53735,-919.3777,27.844206,-869.89685,-1174.233,2542.755859375
564,-470.14154,-549.41583,-887.2491,33.00206,-201.47766,259.76254,688.965942382813
565,-345.65024,-489.4609,-981.233,34.754963,-514.14154,284.1541,1171.37622070313
566,-2596.7358,-2654.7961,-4801.569,199.80305,222.4013,893.57214,2720.33276367188
567,-83.90608,-168.3965,-537.20886,-83.71714,-97.236336,-248.1289,639.074768066406
568,1726.9357,1753.3271,3562.5203,-71.345406,103.23148,-115.932526,1846.39782714844
569,-1029.552,-1136.2445,-2372.461,91.510605,-235.30583,-797.18036,1941.44995117188
570,-770.2731,-923.5087,-1588.4252,48.20528,175.65285,-41.36882,819.848205566406
571,-5418.6987,-5475.467,-9006.07,-32.78591,-90.84164,223.96892,3584.30981445313
572,-1670.725,-1814.2689,-3576.9468,-24.17301,1022.23267,34.226627,2553.5869140625
573,-7177.34,-7178.5312,-11206.8,-42.364628,-58.689648,86.658394,4033.6083984375
574,-6005.4336,-5901.4834,-9696.845,51.903145,-341.04688,15.9859495,3791.94311523438
575,-6483.551,-6543.7773,-10459.285,-2.400203,79.70226,-59.8747,3949.74365234375
576,-7096.8154,-6999.5,-10953.934,-62.693905,-71.9186,-43.64981,3910.90942382813
577,-6183.566,-6151.9487,-9983.095,76.93641,182.11902,-87.94835,3833.798828125
578,-7404.722,-7445.341,-13307.02,-37.73856,447.8576,-122.94246,5937.20166015625
579,-7754.78,-6789.055,-12311.482,-25.671543,62.25717,-112.47624,5113.53515625
