Element Label,S11,S22,S33,S12,S13,S23,Mises
1,184.63165,2240.7104,1394.3267,1652.0763,681.66766,-410.0499,3645.55859375
2,-1196.8181,1691.4033,-848.39044,853.93787,391.1141,-221.69069,3201.69799804688
3,3313.1833,3807.726,1006.38336,768.63586,47.635265,-206.15576,2934.86303710938
4,1460.4454,2663.5098,-1324.5768,954.96643,152.93962,356.25443,3967.5029296875
5,2437.1528,8963.853,-44.363445,1336.0833,-15.742753,-868.7682,8518.9326171875
6,-3253.0364,3697.249,-2912.7244,-571.7683,-597.9297,-423.58945,6974.85595703125
7,5327.466,3388.7324,2307.9138,2305.617,677.4227,20.418356,4934.35302734375
8,-6347.9116,2517.1917,-2080.4202,924.2847,-740.5414,472.11206,7990.40478515625
9,13180.125,4516.9697,2435.9402,1303.9305,1643.7935,-1056.8619,10675.53125
10,-9226.23,-3757.946,-40.057922,549.82086,-1499.132,1670.3129,8948.419921875
11,-2875.594,1883.2909,-2146.5022,-338.16364,358.67114,-514.6153,4607.86083984375
12,7551.873,1759.5662,1843.2916,53.161045,-616.87885,316.42468,5875.65625
13,-6735.8325,317.65704,-727.3497,1694.233,603.3059,-620.00684,7370.837890625
14,10774.1,933.42865,58.19513,508.5525,-2079.394,1503.5942,11258.224609375
15,-9116.5205,5442.076,-3072.5066,-1922.4559,1082.0732,-1596.7126,13518.1025390625
16,3719.0518,4457.0073,7980.54,402.3136,725.43195,2295.1907,5781.70361328125
17,-790.7072,2587.1072,-2547.2036,-2555.7463,-266.01733,108.912636,6345.9775390625
18,584.8726,5214.66,1068.7842,437.4326,-100.47192,2017.797,5678.69140625
19,-17075.625,-12581.783,-7691.8276,13387.822,-1963.6324,-3449.365,25515.568359375
20,-8083.929,5922.143,-5665.3853,-9212.042,9751.551,-6953.8765,29207.494140625
21,3489.0173,-334.35153,806.2328,-2038.907,-972.2932,-442.63483,5239.60595703125
22,-20742.61,-3704.5571,-8607.055,-1069.5074,-17490.02,7405.294,36282.91015625
23,6272.768,15894.452,20333.201,3475.8574,2253.6467,1851.727,14722.626953125
24,4.2520638,5526.8545,1394.8148,1129.358,-2031.9989,-1340.2994,6808.51611328125
25,7860.694,3067.548,7967.7964,1966.3427,2396.363,2968.1965,8874.50390625
26,5204.681,293.29776,2657.0793,5977.927,3793.1125,-517.07733,13010.447265625
27,-3404.1653,3061.008,2974.8418,2605.7417,1820.861,-603.5708,8523.96484375
28,55.136967,-1320.9861,-1097.7971,-2605.441,-904.8697,688.9923,5087.42138671875
29,4089.26,-2503.2756,-418.41183,2028.46,-1312.9275,679.2936,7277.58544921875
30,394.86942,1626.18,-10126.413,-829.2834,-2371.6406,3831.7598,13716.8798828125
31,8101.1294,-23.844995,2493.8625,440.9119,2625.4429,-3986.3293,10992.3740234375
32,-2529.3352,-1485.8729,-1930.1321,-651.1592,-249.81612,734.2404,1974.63623046875
33,3791.6743,2200.387,-3895.0405,954.98145,-1116.4446,-937.20996,7648.29443359375
34,3609.1035,-2836.823,2775.9397,-640.57513,-2767.8398,2384.3738,8839.861328125
35,-133.83377,2232.8464,-1224.7174,1160.638,294.65744,628.838,3854.99633789063
36,4360.0146,-993.80023,3878.1465,1185.059,-1173.9011,-5257.1333,10843.212890625
37,-2939.976,-1292.5786,443.21725,575.72504,1312.1998,838.06946,4105.3037109375
38,-8540.763,-2543.8047,7707.572,-757.93445,129.59926,-1341.817,14481.2470703125
39,2196.8333,4634.586,3855.4958,4034.7275,-3146.9707,777.5188,9220.16015625
40,-4163.4365,-7349.1426,281.4255,-3422.4287,1673.7024,-514.08997,9402.197265625
41,2829.804,-4333.073,-4757.128,-1404.4049,-2940.49,1246.2593,9541.4921875
42,-6358.5664,-3661.2102,28418.422,-1068.456,-9694.668,4809.781,38440.80078125
43,7471.77,13118.686,25134.791,-15.642728,-4602.9077,3284.609,18440.58984375
44,-28278.01,-5648.4106,4478.4727,1881.77,1558.7067,-8019.883,32475.951171875
45,-10709.423,-4311.626,-14303.663,-12417.622,-3001.1343,928.99384,23854.708984375
46,1529.7161,1117.2485,-11408.023,-1164.2201,-1982.539,8413.914,19760.017578125
47,796.4885,-1046.829,-12671.013,3230.214,1261.9008,-414.84668,14019.3740234375
48,1741.4879,-6850.6777,-22329.596,-764.532,5731.585,5345.7637,25148.716796875
49,-11044.945,-4808.719,-18204.152,-5261.7363,-99.0033,-260.79944,14767.6083984375
50,7637.953,4956.626,-3889.0942,529.3931,-9616.834,-3559.3013,20626.48046875
51,5897.8457,6979.6777,1009.4784,-548.60364,4284.7666,-635.8335,9356.724609375
52,-3578.1494,-6279.7607,-17824.334,-3633.2615,-265.17242,2731.0957,15295.5615234375
53,-506.6099,12671.846,-5779.266,822.17566,-2698.6892,-2584.614,17744.73046875
54,-629.84357,592.3844,8554.142,-5447.439,-5909.9155,3051.7236,17215.0703125
55,1707.9764,-7190.063,-24301.502,1097.1002,2058.1846,-8657.122,27665.70703125
56,-9602.519,-9167.523,-28145.49,-1885.9392,-2177.3079,-3241.844,20211.830078125
57,3216.0222,2134.8623,-3906.7727,66.134384,-2008.8885,1548.2827,7969.55419921875
58,1668.5178,-589.95624,-222.42839,-2789.0354,1152.9417,-1964.9385,6581.2353515625
59,965.1225,2966.3882,-4704.0195,-319.50888,985.5568,-1100.3396,7371.7138671875
60,1201.3087,4134.3745,7486.154,262.56122,1595.4839,426.06104,6168.986328125
61,1165.3392,-151.80215,-4971.4043,730.4443,966.3432,-212.39961,5987.40087890625
62,745.98895,3786.688,-193.38081,432.20642,-417.82196,-277.52875,3781.50854492188
63,2342.047,6585.7783,4347.982,-1324.1252,-380.2939,-751.86237,4572.75244140625
64,2058.7007,1307.3136,-2752.4736,-561.87744,404.51395,-1276.2242,5140.15380859375
65,1598.8425,1936.5286,-1586.6537,-654.4767,317.58118,-807.0212,3857.27319335938
66,944.75696,536.50806,-2797.0862,24.024748,274.74445,456.4024,3673.3564453125
67,1276.5417,5928.108,3362.4905,-99.23755,-638.2923,-1512.7135,4939.84033203125
68,-1203.8792,2789.7598,-1217.0203,369.03006,1236.8201,-1400.9025,5185.2783203125
69,1289.9403,-2259.2322,173.15488,2322.5994,-1032.4916,-727.5121,5554.23388671875
70,6855.9004,1728.9442,6665.0913,-1236.1842,800.87683,2590.9363,7210.50146484375
71,3946.9102,5205.6934,4379.119,-2879.396,1548.4583,548.9055,5847.8291015625
72,-3734.7205,1330.819,-7065.9014,-3899.6196,-1228.7706,-5497.768,13944.8115234375
73,6123.6875,1455.1337,1577.829,-3473.9453,-1041.8207,1871.5111,8438.3857421875
74,-1019.71954,-16254.893,16622.95,-2275.3926,778.2063,4857.783,30005.109375
75,5402.797,2623.4084,-6783.5,462.38132,16.317543,-4074.957,13146.041015625
76,8210.184,8558.25,-15052.312,3812.9348,-4688.043,4844.3867,27005.82421875
77,4095.6648,-12205.2,-5210.9478,4771.4956,8963.239,13006.864,31897.984375
78,-15631.691,-11667.161,2561.3218,5424.8433,-15414.731,2241.1497,33026.859375
79,-10049.272,3174.193,-3616.5955,4272.711,-2056.336,2493.7593,14740.669921875
80,4261.161,15461.453,45640.56,-272.91187,-2326.0054,-3913.0635,37902.90625
81,-4236.439,-7168.483,-42049.453,2993.1223,-1979.238,5543.305,38188.5390625
82,1960.6215,3729.9336,10775.662,-1723.6089,1842.2518,-1125.2499,9387.8408203125
83,418.18048,2314.0232,-8340.435,-2615.7126,-1614.7457,1347.9756,11432.921875
84,1041.0067,3933.1306,2771.9568,-259.01947,622.9055,84.8779,2782.3310546875
85,-686.29865,5941.5293,314.9652,-1835.5103,-998.8247,1425.9039,7582.498046875
86,2753.4702,2471.6492,1677.737,-2072.572,-409.67398,281.89005,3816.02026367188
87,-11522.711,-10820.232,-13873.52,-1400.5076,910.2788,-479.77118,4090.4521484375
88,-1679.811,5780.799,-323.8249,-1268.715,-152.8211,726.7606,7339.37548828125
89,963.64185,2454.6838,-3154.8765,-1113.5535,199.06192,-205.33153,5412.17578125
90,3771.187,7439.489,4123.428,2102.5356,1336.9695,300.9273,5584.30712890625
91,1644.3318,5532.7505,-1573.0123,-1617.1378,689.4731,-710.3585,6983.3251953125
92,1853.978,2512.0962,1471.2649,-1055.8604,-1858.9297,-3692.4226,7446.12646484375
93,6749.6787,-2973.724,-513.5806,-681.1292,-241.82811,3025.342,10281.1103515625
94,-224.87962,-6607.9185,361.92035,153.32567,5431.7446,7178.812,16971.185546875
95,2317.721,694.78564,-8427.793,12.400349,414.21704,-3511.6677,11754.630859375
96,12427.198,143.46063,10611.545,-1716.122,-730.813,1157.657,12097.181640625
97,1677.7975,91.68716,1516.8295,-1342.2465,111.35078,-539.44965,2932.8203125
98,-226.71806,-9654.999,-5889.1206,-1311.6041,-6455.0493,-10133.445,22489.83203125
99,-7274.8945,137.55098,-8555.386,-416.02136,4755.2837,-9824.8955,20591.712890625
100,4866.6987,790.3898,-6788.697,402.44952,-5057.133,1708.7726,13817.486328125
101,-212.95618,1151.4642,5839.264,-2827.4844,1119.8511,1133.7085,7863.54443359375
102,1817.8488,599.8452,2771.3833,-2172.3162,-1142.6086,-2304.1345,6128.1982421875
103,5367.4385,738.383,-4395.7944,4815.7163,-3911.9822,-24.101852,13676.2666015625
104,3323.3308,1630.7904,4915.0664,1347.337,1783.1941,241.49887,4822.1005859375
105,-239.48756,-178.75966,-4535.026,1660.8046,-4351.2593,1859.0092,9703.5625
106,8925.08,-659.5133,12236.776,6190.851,-936.2794,-1202.1436,16016.1865234375
107,4297.224,-8947.223,1033.5828,2741.9255,-7572.226,-6637.367,21669.69921875
108,11614.49,3178.906,-3049.8643,3166.0173,-5612.2876,-1140.9579,17057.83203125
109,-14517.442,-11652.281,-36894.723,753.40753,13321.702,9674.136,37255.0546875
110,2710.029,4888.8223,1358.8584,503.0222,-494.83145,502.99002,3430.654296875
111,1685.278,3550.1614,-4505.997,726.1912,-379.89465,1746.7507,8032.69091796875
112,1706.2435,741.67755,-4282.72,-1484.9923,263.15945,909.87006,6350.45556640625
113,-127.28966,3676.2954,-7324.0967,2552.966,-1456.5366,-35.552418,10934.1728515625
114,1808.1855,-3317.4531,-312.50232,-951.5342,3117.902,-975.5757,7391.55224609375
115,738.4364,5743.707,12734.896,-5153.6494,6613.785,-540.3814,17908.240234375
116,-5696.013,-6110.97,-5375.41,-5055.638,1883.4464,2263.4348,10153.716796875
117,2695.5208,8876.036,6004.232,2247.8074,-9702.085,-11800.247,27276.0625
118,2953.484,21706.465,23703.209,-1438.1284,-1270.3771,6233.6147,22819.427734375
119,3368.8428,6376.275,7798.896,-783.3791,-951.3196,1835.4617,5478.1171875
120,-576.37305,-3929.6885,1426.1759,-4510.3965,2590.876,2184.0378,10837.39453125
121,2145.0833,-3807.7922,-3586.3994,631.4371,1859.3134,5024.082,11020.857421875
122,496.30243,-39.746574,-4498.0684,-575.0313,155.38362,-754.7592,5032.61962890625
123,1155.9153,4633.6045,680.4762,582.4383,1229.0106,223.29369,4435.36669921875
124,-7863.634,-38804.703,-33845.402,3493.597,8505.632,-1016.8519,32943.1796875
125,7366.0317,-4937.367,-1877.9912,4245.2583,1167.9163,5669.903,16664.177734375
126,9703.279,4467.064,-2094.961,-993.9591,4123.7847,6432.0996,16820.662109375
127,-594.5919,3640.757,-9691.853,1424.7722,-6114.3154,-3974.2422,17460.146484375
128,11820.02,995.8556,3525.443,2363.9536,4913.008,780.0295,13681.51171875
129,-9235.206,5998.776,-20909.621,-3601.481,-1745.4685,-1446.7594,24506.025390625
130,-1200.4146,5779.2866,-3771.1929,-250.1619,-1852.0168,3496.424,10973.6494140625
131,-1260.4806,3081.9136,-10090.473,-2527.1223,-647.30066,291.7171,12483.5810546875
132,61.838062,6310.232,-3541.6843,-2228.874,961.1271,633.3619,9665.5263671875
133,-103.532104,4186.255,1665.7229,-3952.6208,373.49194,1185.435,8089.91357421875
134,2749.8735,6339.544,15780.186,-586.0903,-5649.912,1180.24,15390.716796875
135,-4057.167,-10724.239,-15917.33,293.45123,7985.027,-16759.166,33766.69921875
136,-349.03455,2014.8862,-5345.176,-4687.7,-7627.7656,16141.103,32625.720703125
137,16356.719,9196.285,6235.715,5300.0576,4385.0527,-9749.203,22546.275390625
138,-3961.3325,2448.9602,-566.3235,-422.4682,-4614.27,2413.9543,10618.208984375
139,-1805.6959,944.6152,-8224.811,-206.48465,3698.6553,-3682.31,12176.6201171875
140,1267.5762,-462.66483,-3743.7612,-376.68903,-1077.8771,-487.89453,4905.2705078125
141,3952.077,1069.7401,-5602.782,361.1764,732.8173,-1713.4407,9103.4560546875
142,1370.2297,6600.5347,-1228.0244,1142.9363,1135.2589,73.51847,7449.7138671875
143,3865.2761,4980.1875,2723.1516,-743.1351,409.82153,553.79333,2627.07348632813
144,3947.606,370.1747,-1181.9869,-356.56418,-867.7588,-322.05835,4869.4521484375
145,2097.0083,2662.2227,-3704.3586,1251.1106,-463.4969,313.87112,6549.0615234375
146,-71.6923,3312.0032,-26.21228,1536.493,530.2281,-224.87392,4401.71923828125
147,1331.4255,5480.333,3887.6406,359.18558,-203.15393,717.8886,3898.60473632813
148,-572.57007,2824.3667,1469.6602,1188.9313,-201.2155,558.51917,3751.06958007813
149,5482.068,6927.296,-78.16621,-2563.0664,-3346.3958,-2869.5293,10910.8349609375
150,8964.372,2316.5947,14440.41,-7482.781,-5318.15,-722.7639,19104.3125
151,1906.1664,9123.038,30855.197,2000.3123,-2298.6072,2127.5803,26882.01171875
152,-1628.0427,3529.206,2131.5674,-1489.4027,-1272.6877,-1400.2534,6224.060546875
153,3760.0508,-2712.8,6565.292,2027.7697,3142.0757,4235.442,12794.3525390625
154,5086.3506,3824.4167,641.6413,1392.1013,-84.46636,1256.4377,5129.3408203125
155,5573.225,122.843735,-5710.939,1645.3414,-822.4389,-5229.9575,13701.97265625
156,4902.1553,838.5395,10268.717,-709.7481,-4573.6577,541.28644,11500.6875
157,1161.32,-690.4315,-6486.7915,246.21278,5429.4365,4542.3096,14081.0556640625
158,6872.251,7089.378,1847.5576,7175.612,-4965.265,3080.8816,16831.25
159,-9294.962,637.34595,3973.4707,2755.093,-1780.0363,-2769.8428,14078.677734375
160,4065.6997,4567.8853,10676.58,-1580.0267,-241.11778,-860.88416,7107.97265625
161,11694.267,9321.315,28569.418,-2413.3738,3943.2322,-2445.2212,20310.17578125
162,-1200.165,4764.737,3064.6704,-1813.9052,181.50847,1334.3071,6606.078125
163,985.91565,2170.148,-16712.213,768.5708,-2822.0745,3082.6926,19742.294921875
164,-7228.5703,10921.238,-11540.772,2970.4253,-879.3661,-861.6618,21384.4296875
165,-2498.108,-5029.1777,-23574.951,2057.4524,1109.6683,-13711.6,31268.35546875
166,-1553.8942,4196.433,20014.92,-4758.0913,-5667.15,8878.704,27839.08203125
167,6139.5737,-1624.9083,-7066.4097,-6490.3213,325.22797,-4182.252,17644.01953125
168,2722.708,11395.681,23801.844,-2603.5513,1042.8923,178.41382,18984.875
169,-7055.014,6970.9233,29288.639,614.0501,3177.9365,-5112.884,33431.83984375
170,-7544.8496,-955.63043,-18689.83,6267.0596,-566.4902,688.06885,19007.26953125
171,4369.56,2972.3948,1093.7533,-3476.648,-1353.3766,14583.895,26228.4609375
172,12246.132,2347.1104,7261.969,-3695.8555,2603.7402,-2904.8823,12654.0751953125
173,2410.842,3608.05,3154.484,-273.48654,-176.93152,-19.277962,1189.71850585938
174,41.94762,3485.272,6750.995,-456.5079,3247.461,-874.5692,8265.8447265625
175,2033.9877,4395.087,3434.2185,-709.06055,-347.02612,457.31662,2593.52075195313
176,3031.41,5786.2666,3275.4954,-217.58002,1086.2949,-519.72064,3386.56982421875
177,10883.444,40.341183,6905.235,-1804.6089,3370.078,110.24406,11581.9462890625
178,3374.9087,-2330.4512,17419.219,-7096.889,2278.3655,-1737.6726,22037.478515625
179,5695.7007,5019.6484,10107.919,-730.0059,1829.1011,1134.6382,6197.20703125
180,-3313.1868,3679.0522,-10286.058,-2428.8665,-3537.0894,2226.1113,14709.392578125
181,1299.6072,2334.899,343.6796,-933.60956,-1338.5442,-373.03958,3373.83276367188
182,-176.686,-2313.3481,-4969.5806,7660.9805,2727.8992,2405.7236,15266.140625
183,836.2931,3636.7734,-1894.0803,901.8085,-490.53537,606.08154,5216.0947265625
184,-1091.1422,-16101.542,23475.348,-615.77875,1221.5066,917.66125,34723.44140625
185,-12677.145,-14356.702,-11140.363,5070.831,4990.4775,2695.482,13469.044921875
186,7197.5737,-722.5299,4436.126,2128.534,-826.4056,1064.3672,8217.1845703125
187,673.16284,-411.27405,-2120.924,1586.2283,492.46365,-858.204,4054.42700195313
188,-16028.434,-14550.984,-27709.527,-15608.459,2777.7974,-4873.448,31323.490234375
189,-3897.6025,695.6802,-18927.408,268.26883,-4204.1387,-3674.2979,20242.8046875
190,-1779.9332,-5682.9004,-9744.134,-2010.1682,-4539.9204,-877.01843,11128.345703125
191,-2063.1677,-681.3208,-191.68835,-1373.8265,-1169.1761,-122.59928,3554.4404296875
192,2759.7314,-6846.892,-895.7596,2303.8628,3696.0657,-2021.0176,11819.158203125
193,87.14784,-921.9874,-13937.793,951.1748,-689.4248,2275.4197,14256.12109375
194,3594.7642,-2047.4891,810.2655,4028.1426,-1000.46106,-1325.0947,8990.3173828125
195,2682.212,-8853.7705,7056.526,-2208.5837,11346.612,-2041.731,24820.392578125
196,-3923.7542,-2472.5725,-1983.279,-4942.843,-4265.4224,2253.0095,12089.669921875
197,-180.55685,3511.3103,3383.0747,-797.0692,327.67206,230.27641,3944.62231445313
198,-2331.875,-8245.614,-16464.943,3405.3997,-14902.658,2709.283,29567.12890625
199,4610.097,-1197.4504,-455.75885,-1779.2375,-493.14346,2395.7734,7577.3427734375
200,8442.201,131.96634,-1822.6566,-1067.0615,-190.98453,2824.1743,10797.0869140625
201,3269.528,-3216.1,6380.8613,-1774.4364,-6133.549,-150.35645,13939.0703125
202,3683.579,64.59031,-2673.8933,-2755.0774,3077.5967,5189.032,12746.4208984375
203,2300.4763,-6143.7856,4886.6865,742.2027,6236.781,-4274.8794,16522.75390625
204,3617.4177,-4902.35,533.37726,4396.029,-11800.665,844.0577,23101.9921875
205,3744.293,-8837.763,-8399.521,-2368.6567,-1843.9585,5305.778,16262.6015625
206,-5693.3433,-18247.498,2513.232,-2314.5662,7618.9155,-4114.0425,23853.146484375
207,-5858.739,-1465.7972,7042.875,2292.148,-3784.3035,3022.9387,14670.1298828125
208,-16833.326,-13988.281,-9518.657,3045.2744,-9161.116,450.78345,17916.388671875
209,-812.87164,-9958.779,2294.4749,-497.3453,-3429.184,-1945.5161,13003.7607421875
210,4675.2295,-11070.597,-3255.7756,3367.0369,651.29425,428.54605,14892.48046875
211,2533.7446,1427.5416,19510.95,-8658.373,8367.011,-12308.763,34607.359375
212,-6073.1,-26553.299,-14112.901,-3432.6357,-15062.856,9602.836,36222.66796875
213,-11100.029,-8660.743,-6640.194,2050.2158,3179.0364,-5142.0825,11713.8134765625
214,-14403.24,-33093.6,-12990.866,-8279.301,3147.2766,16931.213,38380.6796875
215,267.04025,6127.1816,5963.974,-3320.8755,1295.1155,-5051.8525,12169.294921875
216,-1218.0184,8691.739,958.2513,-1203.1499,520.6627,3018.2886,10670.48828125
217,-149.87398,4206.233,195.66982,2418.7725,287.37207,4650.327,10013.2705078125
218,876.27686,7155.9497,3046.361,-2515.8655,78.50576,-4736.1455,10808.1728515625
219,-5005.3438,5632.408,-20489.895,-1975.0294,-104.313515,-427.9074,23020.3828125
220,-643.8029,8794.556,211.58476,-1392.8724,-1217.2412,143.50233,9595.203125
221,2592.2568,7079.592,9093.61,-1574.2377,-62.2097,357.8497,6407.8447265625
222,1289.4253,3195.2805,-1773.7843,-2294.0076,799.52747,-603.3113,6136.013671875
223,214.2476,5472.638,-4446.11,-1585.9575,220.13982,296.763,9046.0458984375
224,-6171.1216,5758.5317,-7067.1553,-2834.06,64.09037,-142.01927,13340.8173828125
225,510.24506,642.10504,-478.19574,-1248.997,-171.92633,69.86998,2430.64599609375
226,10475.386,-7112.3057,9174.277,1270.0382,-1392.5585,507.3804,17307.953125
227,1685.4104,6049.2974,7728.979,-4317.6406,-399.32938,-1370.7847,9551.7734375
228,-1564.0548,-1319.6003,27.226656,-734.5851,-130.1297,832.08765,2439.19970703125
229,1169.6997,1082.2952,-3164.6953,-2479.6953,807.4751,1859.9557,7014.04296875
230,1777.0591,-305.5101,-5059.4316,-1501.4652,-327.54376,2160.12,7610.56103515625
231,-3404.8455,-5480.596,516.8456,-521.30634,-485.43793,-493.6289,5484.71435546875
232,975.2773,1230.4869,-1620.3759,1225.2046,-1843.5378,-551.6021,4803.85791015625
233,2858.7908,5496.0933,828.78094,1019.41583,-154.04506,-336.59525,4467.52294921875
234,1444.3293,2283.3142,-267.77927,-33.992596,562.808,383.1327,2542.7822265625
235,3747.9048,2921.233,4417.827,-118.99878,-1238.8932,-226.81403,2547.03247070313
236,1574.9003,-1881.8888,2151.4458,1261.4377,-59.737694,-548.0206,4467.6787109375
237,-1952.978,-5379.368,-10719.496,-1688.6627,1363.3899,448.3485,8560.8857421875
238,-1620.5809,2929.8567,3329.0713,-443.09302,98.071945,2125.9856,6071.22314453125
239,-111.08216,3081.1873,-4539.0073,763.86066,916.3426,753.9499,7064.49267578125
240,3373.3555,2132.165,3190.147,-91.36547,-266.67783,-26.671175,1259.861328125
241,781.10516,1811.0718,1111.1455,-279.14902,715.18274,156.38414,1634.45007324219
242,2184.9297,2449.8684,3792.2236,-574.11676,-1191.9427,-298.0699,2783.0380859375
243,1785.0725,5892.6294,-631.67737,263.24374,-925.5106,-767.2799,6097.8193359375
244,833.4056,2377.859,557.8513,-741.01434,-436.193,758.6456,2613.72827148438
245,5271.3,2538.471,813.6471,-1991.0208,1634.5735,-101.67168,5924.18896484375
246,1680.452,1854.7728,-4114.334,992.57477,-1471.3751,-170.15363,6645.1025390625
247,-5157.1016,-207.44931,1349.9916,-174.8034,-115.05133,-1238.4572,6274.2470703125
248,-2763.941,4287.7466,4631.2485,-2211.9937,1024.2943,838.87646,8497.29296875
249,91.74853,10488.343,2986.066,1721.3909,-5422.5645,-3995.473,15210.8115234375
250,-99.99,4901.326,-11415.798,5628.898,-4520.7217,955.78894,19203.109375
251,-1825.3096,9120.283,9929.044,350.04715,6266.7476,858.2246,15802.0908203125
252,8859.619,3593.5847,7321.5337,-1834.2826,-1599.5121,-708.7802,6424.43896484375
253,-5577.4893,-17474.184,-37.33549,6074.2593,6187.436,5070.0103,23254.9375
254,3438.8838,4994.1953,-8722.817,-6969.844,-2127.3945,1010.7999,18210.435546875
255,-13411.381,-22568.18,-1355.069,-2651.3933,4273.9785,8412.997,25056.431640625
256,-5742.474,13889.343,519.6323,-1000.2971,-4483.836,4420.349,20582.037109375
257,-26.337954,-5398.5,-10496.504,2271.9597,2885.8835,11824.121,23283.833984375
258,-4020.486,-876.90015,10278.599,-2404.2305,-2004.3306,-11039.178,23756.66015625
259,17326.473,4181.452,-574.88165,-5115.303,-1740.7028,-2142.2627,18955.03515625
260,-10500.783,-10974.759,-25579.145,962.2847,-7177.9277,2121.203,19780.78125
261,8650.353,-2750.4924,8281.383,-4724.877,-2568.314,5861.692,17769.333984375
262,-325.0056,7938.462,26134.426,-7558.4126,-863.73846,-5952.417,28803.828125
263,5258.1196,-1182.8934,-17711.494,-1776.7949,2159.7185,-1456.6741,21236.1015625
264,-887.9855,10943.635,-2440.3613,-5826.2075,984.3433,5004.067,18456.087890625
265,3780.756,3378.1323,-12139.406,-583.71606,-1480.9435,2419.095,16503.3828125
266,2760.7043,-8553.994,5081.3057,8171.475,1313.2869,8258.005,23869.26171875
267,-3901.4304,526.1189,-4523.011,-182.84624,863.7661,793.9435,5193.38525390625
268,-8380.118,-11809.248,1891.7463,-3659.3276,-1579.0675,-1222.5884,14304.90234375
269,3318.8967,2286.2344,4659.0664,-4197.3335,-4820.5044,4744.698,13940.8564453125
270,-4899.0044,2561.7063,9924.29,3860.9165,-3297.1692,6477.672,19183.708984375
271,-734.30115,1755.9861,4780.432,549.696,5928.768,-1209.9121,11559.826171875
272,-5438.18,-853.69495,8274.222,-2424.8035,527.8552,2661.356,13634.75390625
273,-5219.53,6225.7896,-3670.3833,-5599.9927,-2109.014,-2693.0278,15647.5380859375
274,-3370.8662,-9107.587,-13248.629,1714.8925,-3118.0605,627.82324,10629.494140625
275,8783.884,577.3121,9247.497,-472.7075,1774.7339,-1427.9872,9359.7158203125
276,2282.6528,41.950455,949.325,-262.83295,2263.6804,1347.5242,4983.81103515625
277,-7883.1934,-15941.233,-11524.209,1057.3367,547.6564,-2418.096,8405.044921875
278,-9593.486,5193.0337,-9124.6045,4377.838,-3101.5654,-3714.813,18430.48828125
279,490.84656,-1438.7888,1629.5857,2121.0498,708.8302,250.07121,4733.8203125
280,1341.5353,-764.6498,-5958.981,-2137.3376,1521.384,386.64966,7965.81884765625
281,-3129.3772,-623.1927,-3584.9275,-2290.7522,-469.37827,-208.8811,4915.75634765625
282,-1466.2773,3094.5522,461.80573,-1092.5594,-240.21304,421.90335,4473.60986328125
283,-276.37973,875.1391,1183.3805,-1071.532,1244.6367,-137.77827,3150.36596679688
284,1205.6165,-1290.4567,-4883.212,-1297.2158,-274.63904,414.08752,5821.94482421875
285,-6662.974,-5705.6743,-2170.4534,-3398.2673,2739.5203,-608.6744,8664.265625
286,20587.084,-5342.6953,8201.39,988.0439,3988.9583,-813.8855,23606.181640625
287,-6569.2583,1041.7839,12903.358,-1493.7343,4389.5435,-10325.697,25947.291015625
288,1069.6088,-1437.6287,-1084.2642,771.4305,831.7347,278.06094,3101.25024414063
289,2351.4905,1486.986,610.49164,1518.1526,-5211.15,-3530.7144,11316.0849609375
290,8966.395,-1419.5521,-6097.277,1344.7605,5780.428,-9802.537,23922.08203125
291,3086.0447,1067.152,1738.0297,-2.9385633,529.50165,-1552.7025,3353.41186523438
292,3469.9595,2438.3508,-1055.1796,377.1902,-869.25903,-410.2087,4480.11083984375
293,729.41516,4147.0757,3648.786,-191.87718,43.47387,-270.07358,3249.71557617188
294,1031.103,4980.616,5005.5405,-1124.6079,2435.5623,1280.2374,6496.5263671875
295,1543.6715,3484.1008,2035.2946,-778.0255,169.77554,-130.91693,2237.60131835938
296,-14606.701,-11984.062,-23091.059,3090.145,17406.857,-4456.252,33141.0859375
297,-10217.019,-123.635796,-4680.6997,-4298.968,-2571.516,-1435.6323,12574.2431640625
298,30.156961,6667.7456,-3577.8164,-418.4396,1359.333,2825.8577,10537.947265625
299,2506.3992,3466.968,2226.918,-1758.4689,94.938255,-215.96198,3273.05053710938
300,-2432.345,-1945.3159,1557.2972,2228.1133,282.11353,244.9418,5433.56103515625
301,12162.308,-8140.7993,19053.191,-3872.2065,382.7547,-4257.8086,26446.45703125
302,1501.3485,11809.122,12242.165,-11874.982,1494.6492,-5747.4575,25293.255859375
303,8822.147,16972.75,8762.546,3382.4797,7590.1763,2436.968,17084.904296875
304,-10937.76,-5042.213,-19321.219,-5964.6665,-4812.037,-2401.3093,18653.7578125
305,-3.1592631,2581.9136,4523.3135,-2521.8347,-194.69092,3795.1526,8824.5400390625
306,21172.527,28344.438,15059.564,16808.654,-8085.383,8002.8076,36993.16015625
307,2240.5547,-581.03033,4639.407,4976.0317,4548.525,-1568.9912,12814.8154296875
308,-8869.395,32.953285,-15226.357,-5423.9424,10183.632,-5410.459,25757.53125
309,7521.5923,7012.9136,-1944.6051,6086.7603,2605.4321,-4205.6323,16420.267578125
310,2477.7986,8748.211,26476.162,-1656.4867,-1458.8806,2007.1204,22168.94921875
311,-14025.845,7617.7715,-3412.6045,7535.0977,-2497.5803,-4325.3354,24424.3828125
312,-5186.914,-3413.4324,3820.0273,-1696.8396,1441.0911,-931.9105,9261.2080078125
313,14626.547,-1424.296,1254.5902,2670.991,4766.331,-494.47974,17666.279296875
314,6026.628,3002.3687,12041.4795,2459.3867,-1333.4335,3203.3047,10852.576171875
315,5369.467,-4676.517,14038.736,79.264496,-1438.7666,2758.982,17094.861328125
316,9337.175,2559.8958,8891.489,-523.50433,-112.11987,48.874577,6631.490234375
317,645.8562,-768.9972,427.89133,-662.84735,-759.94366,481.6689,2342.56030273438
318,-9934.4375,-2847.073,-4908.542,-1733.929,1762.6624,-3847.868,10130.583984375
319,25350.457,-11155.499,13787.371,-1051.7399,7370.316,-999.56793,34836.02734375
320,14969.152,-8652.692,-22047.732,-1204.008,3626.4485,528.6626,33143.25
321,-28020.062,-19131.83,-11717.079,10291.359,9781.482,1707.9017,28520.2109375
322,-4750.416,-17342.668,-7837.5923,-2373.3428,437.4959,-7190.553,17372.552734375
323,7753.791,324.39197,26573.08,-4902.5117,-10219.819,10803.1045,35843.2265625
324,-5365.9014,14040.173,-16964.176,-518.29785,-9134.2705,8839.83,34953.26953125
325,-1399.302,9886.463,-48.240276,-318.80276,670.2429,-3392.7715,12252.810546875
326,5445.344,4617.1255,5130.739,968.6121,-1728.3452,438.6818,3588.57153320313
327,2960.6772,2577.4167,-2763.8367,-1246.3779,1197.2136,832.9923,6462.57958984375
328,1983.8424,1856.6915,-2098.164,1743.3223,-644.0313,-1930.7448,6140.44677734375
329,338.08618,1871.4108,-7412.78,-740.9466,302.81992,-1139.5286,8951.49609375
330,914.6772,2553.5479,-3778.038,-644.47095,865.5356,405.0737,6031.912109375
331,1695.6283,3328.9438,372.1454,168.22295,-701.55304,-175.95822,2869.7216796875
332,10493.902,9215.296,3007.3745,-3356.7368,3949.409,1230.8275,11543.4814453125
333,5574.6353,5637.6055,3286.6504,-6859.961,-2051.916,-3220.6177,13795.2275390625
334,7365.4956,4870.3975,1820.3015,4528.4365,-1582.3579,4353.666,12207.943359375
335,2391.7263,16754.656,7903.91,695.92676,7342.9165,338.2412,17918.099609375
336,-622.41364,146.74913,1023.5913,-2857.6147,-1357.209,-3792.666,8672.47265625
337,-4577.4375,-4524.772,4553.1978,3713.1199,-427.78436,3224.603,12489.8115234375
338,-7463.907,-2456.7146,-5707.658,1042.828,1641.926,-1347.6444,6013.4169921875
339,914.03674,723.46387,-6566.396,-1486.397,-325.64233,-239.89937,7854.07763671875
340,1181.5908,-3515.966,-11127.7705,-3971.5908,-2184.5935,1176.2971,13474.140625
341,2122.6777,1145.8174,5171.762,2874.2827,3078.7078,-442.54913,8187.6171875
342,-2320.8076,1902.3718,-3005.922,2179.842,735.4769,-284.921,6108.9638671875
343,4000.755,5668.9634,8671.972,-831.9803,-265.26675,-2300.5906,5914.0888671875
344,6424.544,-13626.071,-5457.123,-1371.9916,-658.505,546.253,17686.423828125
345,1776.6953,1605.9272,3398.726,867.7748,116.66596,336.25345,2361.412109375
346,2607.0261,3823.3857,-6400.6167,219.51688,1641.4495,141.95607,10092.6591796875
347,281.0866,2564.9155,-3112.8826,-1958.7611,-391.39615,-259.23825,6054.54931640625
348,-2955.861,-3760.225,889.7232,1684.4016,-1966.1322,-970.0761,6438.98828125
349,-518.0455,7168.166,141.63336,2848.1335,1003.6958,-813.1315,9153.357421875
350,5012.265,-3988.0264,10793.793,698.76904,-4195.3057,1571.1292,15104.2607421875
351,2450.3235,5454.4253,14579.915,2392.7832,18.146105,-831.49115,11788.318359375
352,-900.7793,-1305.5348,-2956.8113,1931.9298,769.20917,-139.41545,4072.9990234375
353,-3646.0232,9224.815,14713.5625,490.29514,2981.3608,588.37054,17171.337890625
354,425.2979,-4987.612,-11365.358,-616.24243,-338.5689,-214.0256,10301.3583984375
355,1262.1534,336.05063,4035.0068,1998.9241,-1008.5062,144.46631,5120.0869140625
356,-1746.8455,-278.49377,-8164.5605,1954.927,-1344.005,1607.3628,8797.8232421875
357,387.49457,-269.82266,1818.2065,2359.7976,925.00183,-357.35013,4803.68115234375
358,36.220173,-597.6673,391.59036,1042.1509,-464.4845,-192.19214,2183.95336914063
359,1282.8018,2073.0115,-288.9173,-950.637,-348.02255,-146.4306,2734.14282226563
360,1194.1257,-3012.512,-2835.7837,332.39917,-650.09985,-434.43774,4375.97607421875
361,1003.3886,-1428.2488,-353.3129,-522.42206,63.752293,8.690365,2299.06225585938
362,-982.8754,-629.9645,740.7423,-2802.994,-84.9689,0.0882087,5106.7705078125
363,-2412.5847,3183.7742,-2495.2048,-2844.7957,-65.75067,1517.1882,7936.3447265625
364,314.76642,-1579.7628,-269.55222,462.5863,701.0773,738.69354,2564.595703125
365,1577.7206,5712.037,2192.9734,-3089.0535,836.76,5164.131,11209.79296875
366,112.04385,-2488.5408,-1799.8578,-1583.7697,-2754.3435,-431.20233,6023.9814453125
367,517.4988,-2645.4116,-2039.4836,1088.5138,-1759.8732,-99.11712,4618.46044921875
368,4624.9556,-3043.614,2011.709,-343.18872,1978.6936,244.78023,7607.55712890625
369,3952.4453,-1805.4991,3552.382,684.46326,331.9467,392.6524,5762.72509765625
370,103.72843,-369.67764,1387.6432,-874.7914,-44.771793,498.97318,2351.3994140625
371,-2255.277,1567.1156,-577.52966,762.5949,-56.618004,-122.87847,3579.39672851563
372,-562.9668,-1075.6705,169.88048,1723.0339,151.54417,167.55946,3199.27001953125
373,-1943.6177,-2489.342,-34.78144,-1559.3628,123.26906,49.259434,3511.53393554688
374,2864.5942,2070.5708,-952.51465,458.7775,172.44142,448.60947,3673.46020507813
375,-822.4893,4075.2502,293.39847,1282.4248,1313.0472,645.2736,5578.7978515625
376,-2768.8413,1048.5887,637.0386,-263.77078,-84.189865,-148.761,3669.80395507813
377,3714.7212,2045.6042,-353.96664,1221.4489,-46.082077,-134.67119,4133.47900390625
378,-1577.0507,-1518.9237,2054.3865,666.9411,458.69717,777.6106,4093.81298828125
379,274.99817,-777.09406,-1527.271,296.3991,-1014.5406,-425.34692,2520.53833007813
380,958.08325,-2007.7233,-942.86163,766.2961,-678.2159,-120.61382,3155.46630859375
381,1142.4646,-1740.6704,-26.574902,1090.2933,436.0824,-95.61284,3236.166015625
382,2210.9368,-465.58002,1307.6526,1016.9347,-20.994595,290.3044,2986.40747070313
383,-1224.9469,58.033833,404.71436,1183.8218,-150.22572,-162.50397,2561.68676757813
384,-2024.9377,-594.3654,-13.353139,831.72705,25.736456,109.51762,2308.36987304688
385,-694.2879,24.435825,864.3184,1197.1437,-20.455263,-474.52515,2608.03515625
386,815.9179,4487.12,354.23697,-1175.9067,-14.226639,43.18454,4420.43798828125
387,-1547.9899,9962.821,1642.612,-2891.1658,420.3596,-2323.576,12155.490234375
388,-11314.929,-14586.983,-3419.0151,-2799.5566,515.21466,2569.3179,11958.291015625
389,-407.4443,-4761.0713,-6008.6455,-3221.6492,-3064.0696,-1191.8911,9460.783203125
390,180.1554,1599.7821,462.91034,-2085.8364,24.749199,-54.218807,3841.4423828125
391,4804.179,-3243.2969,1818.9149,-1341.9841,3441.3489,1408.4861,9825.107421875
392,1529.1868,1385.8097,1878.0364,-216.61557,1029.5775,174.11908,1898.44116210938
393,2213.783,-2464.0864,72.86725,485.63922,2066.3484,271.9794,5494.53369140625
394,-1489.6085,3718.5244,1163.054,-1124.9924,89.32496,-1258.4916,5377.546875
395,-1126.2476,-2070.6548,148.09299,-160.83174,193.7081,11.173478,1977.34387207031
396,-814.20123,-1769.8733,1259.0195,377.2804,-162.1091,-949.2871,3225.23950195313
397,-929.2047,1697.2743,2595.777,-1031.6652,610.4015,909.336,4105.73291015625
398,2080.8508,-1384.7474,1282.7688,40.697598,605.331,857.86395,3632.28759765625
399,2154.439,-1039.7025,613.25885,56.45417,467.4221,-85.0429,2888.20654296875
400,1067.8909,2499.9353,657.5839,753.45856,-116.2466,185.93303,2157.32080078125
401,1316.758,1441.2437,-2170.083,1176.4844,727.005,1334.709,4867.22900390625
402,630.92706,-543.7432,2108.1365,181.04416,-272.7815,-435.37106,2487.45581054688
403,3428.5593,-1009.2175,-2262.793,234.64523,574.284,-258.96417,5308.876953125
404,956.5027,1028.5767,-407.66156,446.9986,95.91549,-142.52548,1628.6259765625
405,2342.0955,100.20858,808.9981,102.18918,-43.017532,-541.86127,2203.890625
406,-6528.723,-5192.5283,-2413.8503,-5990.7876,-4520.2334,-4051.6455,15212.9208984375
407,-2118.457,-5509.3726,2995.5105,-2416.8066,137.93814,-355.77655,8541.17578125
408,1809.62,764.9261,6570.7285,644.2088,6036.451,1718.7699,12171.984375
409,-129.9534,1830.0553,2055.6255,-2360.611,338.45978,375.0141,4670.93798828125
410,112.42788,173.7088,885.59875,934.75354,-216.86697,383.27875,1938.36584472656
411,-1310.677,1453.786,-2716.5708,-872.70264,1216.6523,-828.5968,4721.29345703125
412,740.62506,-114.05111,-521.4755,39.857025,-186.64436,-233.78154,1232.03796386719
413,2477.072,4110.241,4496.356,-108.4608,-255.72823,1212.9514,2844.6708984375
414,2804.2751,-2118.7566,-4166.792,-82.90042,-592.9922,-535.66614,6359.9990234375
415,-2249.452,-1835.7174,-848.1518,884.1365,-1587.4572,-812.59076,3666.21264648438
416,664.61145,-181.8938,-175.01683,416.8856,104.35165,139.9344,1150.47399902344
417,385.19028,-533.5386,207.94994,1389.684,-514.9847,123.15176,2710.61474609375
418,1614.3536,1353.6843,-137.57704,185.34811,-342.025,-313.27618,1851.74670410156
419,-5561.791,-1932.5503,2705.1091,217.80159,3193.315,-233.3462,9077.8798828125
420,452.62646,-214.31369,578.07837,147.26701,327.3881,522.7797,1323.14916992188
421,8565.648,2916.5376,8570.747,1664.6525,392.08838,490.84695,6437.2724609375
422,3090.1255,1741.8905,-658.49493,-304.16962,92.66898,-724.68774,3562.96362304688
423,-3148.822,-2943.5134,1626.5455,329.12622,-1110.6415,295.85327,5114.09765625
424,811.64056,-695.21967,-163.78075,2.8905697,-54.984543,-865.14044,2001.68676757813
425,-1765.9657,-1084.8867,-1427.7548,-907.7751,-201.53755,1118.9614,2588.07836914063
426,-100.00605,830.3217,-617.9049,859.87286,-135.52556,-74.13065,1976.17712402344
427,1460.821,-3.2555747,-270.55075,-1153.6353,1409.0804,856.5252,3841.40087890625
428,-531.555,-260.86444,-998.45795,1300.2401,657.07153,660.7756,2845.10693359375
429,-524.5313,1658.7777,577.7448,-1123.973,-5.4199524,-100.26332,2719.45483398438
430,-4231.52,-6048.607,-1145.9675,-2416.5547,-1063.69,-1267.0156,6645.1982421875
431,1983.8346,2088.687,4523.931,-783.21423,-197.6525,31.714117,2856.08813476563
432,-1144.9487,-1571.8184,-434.64746,2036.3428,-562.91034,-270.6463,3821.04443359375
433,369.39264,-186.22003,-2446.9697,-1512.0558,-128.77512,-456.42053,3769.54150390625
434,45.465416,-1212.5529,-876.96594,186.03346,57.44667,-238.47852,1247.95654296875
435,-642.46387,-20.698536,-613.5055,173.12451,228.2456,180.4973,844.610961914063
436,-4023.4758,1283.076,-1257.839,-2545.2131,-714.01086,-1496.482,6986.72900390625
437,-1554.0394,-2741.2263,-2578.7534,244.92691,-1150.6378,-1323.9886,3263.990234375
438,-261.25323,-2192.974,1590.826,-334.7544,859.08215,1107.5166,4119.40185546875
439,226.12535,-347.821,80.40178,-564.6347,-233.14375,-191.15633,1223.16784667969
440,-1055.1129,1203.1361,-105.00184,351.91232,42.897324,-69.3256,2061.13500976563
441,543.63824,-58.885765,27.482294,781.83685,-55.0706,-226.61775,1521.65295410156
442,-332.65152,-3366.9102,-836.874,-1829.9967,243.16849,-273.7264,4287.173828125
443,-259.5498,-111.67798,-1476.6038,393.1244,-964.4787,-392.10373,2323.486328125
444,9476.382,-947.53503,566.8426,-408.38126,-855.27747,-1076.6626,10066.6806640625
445,-1205.9786,-1432.0676,1568.6097,-547.1196,-86.09927,108.0359,3054.837890625
446,-935.2868,1017.7561,-6190.49,125.677635,-472.93738,-659.75793,6612.06591796875
447,-6154.298,-3267.2222,1116.0271,-649.31323,-127.40017,-315.18503,6466.40478515625
448,1026.2827,-340.87695,-871.7571,1194.0679,-550.247,-73.67172,2842.31420898438
449,2065.2578,2427.4927,-35.17982,2243.513,3157.9402,1889.4817,7812.306640625
450,-1922.9181,-3351.721,49.613956,354.9041,129.77742,53.984196,3031.1484375
451,956.8545,747.9363,-247.58891,120.52365,-398.00974,-715.4426,1815.78857421875
452,1087.1034,159.60562,472.6977,-4850.8833,-542.80457,641.7934,8566.2529296875
453,2248.1082,687.02,551.58856,-547.59235,-1205.3931,-46.683884,2816.34252929688
454,-1697.9258,-2934.5615,-363.142,782.64777,-96.31987,128.11482,2622.25903320313
455,-254.98096,-654.1956,-3680.4663,-257.04846,181.41733,149.49913,3299.97387695313
456,1962.2042,257.03418,264.65332,370.05753,-592.9443,-489.07962,2253.4072265625
457,-88.864136,-466.19275,-2088.4648,-212.16557,88.45242,-255.65984,1934.1337890625
458,4030.7751,699.29156,984.7255,485.0611,-305.77307,121.88059,3355.62866210938
459,-105.17014,-223.88994,-536.9534,-720.29407,298.8934,15.82215,1405.17016601563
460,-955.9493,-1780.1454,-302.75983,-25.262608,-119.42344,-256.56882,1373.49743652344
461,-3461.6316,-2156.3052,-5232.385,1633.5195,-182.12898,-639.00415,4059.61865234375
462,-9411.577,-11664.606,-1189.3113,2569.788,-2353.5261,844.2833,11391.8359375
463,98.490456,-26.707645,942.2977,-673.7524,42.935352,146.81682,1505.10827636719
464,1391.9175,1790.4213,-98.729324,-689.1126,253.82281,-32.9817,2143.83569335938
465,-920.42975,912.46655,-68.60189,696.9842,605.2467,414.38272,2365.43408203125
466,-1090.3118,470.44107,2278.9805,49.34272,-16.790157,382.5684,2996.10961914063
467,-541.8257,-2019.6014,-1523.5365,130.46025,-292.0682,-361.07523,1547.55480957031
468,-686.58325,-829.9595,-31.558876,-175.70848,-1049.0793,263.1503,2036.07373046875
469,1544.235,1083.2162,947.468,1464.6342,1636.1353,660.20404,4008.42016601563
470,-1761.4062,-52.479046,-116.82148,1389.5016,-492.94656,187.66618,3072.68676757813
471,-1807.2529,-3786.822,-77.099846,522.21277,-354.065,-276.5644,3429.39477539063
472,1252.7872,-1001.4234,-874.1093,561.5883,-2253.2593,-2077.1194,5825.08642578125
473,2338.8928,3720.402,809.2015,-482.32614,-428.55164,216.73383,2784.17163085938
474,995.6812,1981.7655,-237.92546,-653.94653,496.7353,123.83576,2404.115234375
475,-10.750966,-1930.2765,534.5245,2231.14,-5156.1143,-1046.861,10149.2275390625
476,2365.2085,-395.68298,169.93579,169.50829,1082.7417,-188.07278,3176.49755859375
477,-4398.7915,1115.561,-4203.867,1119.9451,-1845.5826,-479.0606,6636.34326171875
478,-1372.9161,2808.7395,-329.8393,-373.67645,-374.04074,-35.296467,3880.0546875
479,3745.519,5782.7085,1101.1589,312.8015,-425.1184,-60.00406,4168.49560546875
480,2462.2148,-1470.305,1206.1538,370.78818,-301.4751,-137.60617,3583.96948242188
481,1708.4331,-1928.8927,670.93024,298.7172,191.89282,148.68202,3313.20068359375
482,-717.22784,232.07263,455.35092,682.323,-51.848244,489.79767,1813.1318359375
483,-2988.1145,-3399.5413,-514.8785,1347.4305,88.999664,-455.74066,3660.2314453125
484,1398.4703,135.44554,1511.0947,134.86363,154.8062,7.904439,1369.96716308594
485,-4669.8574,-4133.0405,-356.75497,751.1752,-47.24459,-114.721756,4279.56201171875
486,864.8761,-151.80568,-99.085976,-992.1984,691.4635,-347.8259,2394.47485351563
487,699.8181,-458.0079,-958.99036,129.63466,76.76935,-194.44736,1533.98840332031
488,2251.6973,-326.37564,-675.5841,-177.81363,2526.8552,587.75745,5287.24072265625
489,-6804.976,-5078.7104,207.0074,-603.10986,-54.155968,379.4785,6447.8984375
490,-6573.83,-4944.2954,-1428.6279,-1086.6282,-460.39545,35.287037,4992.60595703125
491,1664.3625,1215.1973,1555.009,1373.3724,248.32779,107.95012,2458.25244140625
492,2580.4192,-1952.7725,1012.78046,372.27628,-352.2603,-143.03119,4092.71484375
493,1559.8549,-3349.8887,356.62512,-572.0616,60.304474,-6.193436,4542.970703125
494,-194.1158,-191.66502,-30.219398,237.43896,-167.67528,-81.85638,547.76318359375
495,-4967.465,135.9237,-145.73077,444.22653,-638.6346,-106.72192,5151.3349609375
496,-3568.9473,1119.1276,1108.427,510.2265,194.89456,199.31439,4789.79345703125
497,2306.8867,674.6896,-329.57516,-61.71513,-406.3232,-61.509865,2414.50732421875
498,1157.2649,2754.653,4257.7363,-7788.9756,2648.8284,-426.89062,14519.36328125
499,1665.171,561.03534,56.142944,26.911371,-135.08994,-157.70107,1470.724609375
500,139.41693,-2585.5017,718.5881,1117.495,576.38074,68.40435,3754.4482421875
501,-3839.5586,345.31815,-922.0263,1828.0277,-68.6756,-352.92545,4922.25048828125
502,338.015,475.59418,-1965.5536,1442.5602,-796.0041,-460.9376,3797.82543945313
503,-5558.0894,635.6427,443.55542,140.25182,704.0141,136.32333,6229.85888671875
504,817.3,2814.8389,2215.4507,666.50696,292.67035,253.92734,2221.53686523438
505,950.3491,1538.0208,1529.4741,-810.6069,38.350933,332.02435,1626.89636230469
506,-303.5117,-326.31604,961.4524,-106.91477,224.30048,432.6825,1541.54711914063
507,-30.85328,3203.2854,194.59163,76.84972,207.70023,151.69614,3161.88720703125
508,962.2026,1971.3958,73.23008,509.94147,199.44725,203.17606,1931.11047363281
509,-624.8957,1710.7283,433.6628,-54.7647,-331.40344,-75.483925,2111.60278320313
510,-2910.2893,326.1349,332.14386,-66.81297,60.04224,-407.7665,3319.17944335938
511,-1745.1294,3140.4854,432.093,-597.92163,-9.97339,98.58528,4367.43017578125
512,-2031.3903,939.9981,474.32397,1739.9213,-59.00663,279.54407,4121.791015625
513,-532.55365,3495.759,255.09102,-115.42169,39.811855,67.916046,3705.85595703125
514,2204.724,356.01837,2062.447,189.50931,-172.24956,166.83405,1858.81115722656
515,-4565.856,-5177.096,-1604.0773,827.4159,-29.053946,-160.45506,3617.97265625
516,3992.9453,1961.1005,5012.8735,-770.6741,1237.204,657.0701,3861.35229492188
517,1099.248,328.79074,3363.1135,1143.0299,332.2136,113.562386,3428.154296875
518,1438.8816,1799.963,366.8472,-1463.061,175.98152,-318.06808,2912.86499023438
519,-286.51163,880.00757,304.2303,-937.2672,-66.87482,226.85684,1955.46655273438
520,780.6687,2983.5857,1522.0043,629.4083,-1299.3131,-249.80162,3195.25146484375
521,1700.0493,-433.43326,-1551.7982,-33.558243,391.96008,-46.179375,2942.6474609375
522,1706.5514,502.17532,-1515.0742,-113.49501,-547.0926,-19.12543,2981.10986328125
523,-1220.5527,2787.9067,-481.15475,298.3163,-728.44214,236.16183,3959.392578125
524,-6240.666,-3728.5088,-560.3744,-428.28564,19.184704,436.65936,5042.8427734375
525,-5041.593,-3023.9397,-1883.0902,-306.17252,719.76227,108.52095,3089.5029296875
526,-1123.5989,943.48126,9.907415,371.82083,86.50532,-8.143486,1911.02319335938
527,520.0745,1080.2427,921.4483,447.24478,-77.23898,276.4184,1047.49938964844
528,1891.1473,-149.77307,1733.8402,978.2428,434.74,125.681496,2711.88354492188
529,926.5651,-543.70465,999.2056,2449.4746,139.57965,-206.25195,4523.23046875
530,-1373.0048,-1396.1364,96.56997,1732.9929,549.01196,-126.654686,3486.59399414063
531,-859.0207,-3523.9526,-346.9725,788.42377,44.0931,28.340523,3256.0263671875
532,-599.0173,-2713.884,-1075.5192,-111.94204,251.71007,45.6595,1981.38818359375
533,879.0495,1969.1335,243.13564,263.69696,-254.2827,-425.29666,1797.52282714844
534,-1432.5168,150.6144,-28.997875,446.50134,-138.15117,-200.74782,1740.82214355469
535,-6303.554,5275.6963,595.7421,787.5394,16.173847,56.153667,10181.431640625
536,-4371.294,1549.2224,901.3753,3009.2166,88.83306,82.6376,7671.17626953125
537,-289.7627,254.97906,1336.7985,1052.5306,-311.81335,8.090293,2381.53955078125
538,-81.8029,470.74042,1393.1675,1128.5358,559.1837,95.5197,2540.09204101563
539,1029.7067,5371.324,-420.614,-2154.728,272.89578,441.15112,6479.6318359375
540,-3744.6646,-1134.1887,-567.595,3761.158,49.450985,-98.09067,7147.71435546875
541,-2963.8271,-2264.129,-1783.4814,3206.7097,231.184,-15.239442,5662.7646484375
542,8238.622,-172.83777,-517.3319,237.97984,364.2886,-160.45943,8626.3720703125
543,-1611.537,-995.71234,-983.07947,-798.7934,-48.74541,-372.26108,1650.53173828125
544,5134.999,-3870.785,387.13626,-97.25234,-416.65723,62.998516,7838.95458984375
545,5351.188,-6469.216,-1276.9258,-2702.2632,10.305036,-174.28319,11282.9501953125
546,2634.7444,-5629.687,-819.569,-2763.5977,266.0828,-71.59665,8650.166015625
547,521.82294,-851.3949,-1747.1333,1475.2286,310.17963,351.9768,3332.76391601563
548,2976.0842,934.6875,1082.7153,-289.1796,233.56784,-36.90326,2075.00634765625
549,2878.429,1573.9437,579.3239,55.781685,183.65375,2.8676338,2024.58959960938
550,-3053.6375,-18.647713,173.66573,-766.0359,459.52753,108.418396,3501.572265625
551,3097.2246,1626.5242,72.4301,-940.6449,88.66877,-44.48123,3089.94091796875
552,-5899.429,-5453.1694,-2549.2463,-586.8221,221.49031,-2.1453714,3332.88012695313
553,2605.7544,3688.3098,848.19214,-408.80295,-420.87692,89.390396,2687.07153320313
554,2641.941,1395.2407,1650.8816,-337.30426,311.7404,146.16663,1413.4599609375
555,2098.3145,1648.5925,1502.7103,-71.39874,-402.66922,22.007786,890.118957519531
556,3272.3508,3667.8813,432.82266,-25.53732,-88.8517,218.87709,3084.12817382813
557,3515.6274,2103.97,853.153,564.25494,-218.20927,293.53296,2584.47802734375
558,-2828.0552,-4583.905,-514.06213,-1043.5994,-144.82716,-18.820827,3978.9296875
559,-1734.8844,-5487.157,-1757.8125,-568.5574,368.30435,-107.35143,3924.962890625
560,1715.1083,-2496.5503,-806.1205,-1120.2461,-224.16656,462.00638,4246.41796875
561,2114.8132,-1803.7097,-1043.3291,189.25958,390.2711,-78.550835,3679.17578125
562,2072.0808,-115.47998,-375.6314,1518.0553,-40.1187,17.45127,3513.03515625
563,-2916.8203,2089.6902,-1565.7429,999.07416,100.52106,18.52496,4811.669921875
564,1048.9832,-1882.6454,-33.121803,505.90594,-240.03522,-256.61142,2780.51953125
565,2049.3982,-1114.1946,-541.6953,-518.88574,-314.50092,-164.04842,3116.10571289063
566,1765.8069,-4279.6577,136.05527,-195.39833,173.92404,86.81343,5438.66064453125
567,-227.37589,2084.1326,-1939.3451,3261.5059,17.735518,366.5394,6674.3837890625
568,1211.9902,2716.5703,1450.586,-154.1889,115.66932,-278.19275,1518.33361816406
569,-559.1154,6875.779,713.85754,-2412.4473,8.500989,312.64133,8073.8369140625
570,1696.2361,2311.1355,951.0774,-2243.3594,373.92563,-639.0869,4258.43896484375
571,-488.6126,643.2364,-2430.994,224.1862,-30.515127,97.61385,2726.64013671875
572,-854.3122,23.717155,-1991.211,643.7391,287.7774,281.49854,2188.85278320313
573,366.5842,283.59323,878.12146,1078.4518,-166.3418,-393.74533,2085.2578125
574,2721.7944,350.6736,629.9613,-488.5595,-263.0899,418.35544,2546.91455078125
575,489.042,-2150.406,-41.881775,-199.6934,201.5386,-153.00471,2481.720703125
576,-4625.1616,-787.47705,-284.20563,-477.6042,573.44415,-2915.0344,6638.9462890625
577,-1124.7946,-441.36932,-2266.7798,-1216.322,-1088.5641,1647.9851,4323.4775390625
