Element Label,S11,S22,S33,S12,S13,S23,Mises
1,17318.56,17503.541,7504.931,4651.941,1549.5614,-1339.6367,13253.8984375
2,20931.76,21470.775,-9295.711,63.86268,-2932.487,-581.0572,30937.150390625
3,26155.336,16448.096,12956.071,-2090.379,3183.0767,-1343.57,13756.5693359375
4,26581.63,15365.452,-5716.05,6846.1416,638.0523,1070.6224,30853.7734375
5,14139.65,22576.396,19097.014,2404.044,1148.1426,729.55896,8764.6943359375
6,16860.707,20828.996,-2936.7341,4505.152,-920.8641,-2929.746,23988.150390625
7,18602.72,19822.803,4210.777,4918.71,3555.9858,1724.2683,18590.630859375
8,16383.817,23329.588,-8745.019,6041.372,-3732.3574,550.7246,31724.392578125
9,25099.209,19557.527,-632.15137,-4665.7485,558.4843,1514.345,24966.802734375
10,17176.03,2727.6987,-9792.479,2200.8855,-137.81227,-4924.988,25174.58984375
11,18665.018,23318.145,12276.9375,858.53485,-3517.95,-2005.5819,11982.9013671875
12,12394.421,15670.159,-12954.514,4913.7,3433.2378,672.9643,29077.291015625
13,26763.977,12367.817,20790.197,5271.709,-2151.4226,3112.1611,16830.068359375
14,6305.584,17123.46,-4094.7422,550.1803,5275.2993,-4795.3228,22160.3828125
15,20941.197,27172.797,7105.891,-12054.53,-4251.426,5377.144,29889.20703125
16,44114.99,36104.453,39628.367,-3820.7754,-75.04592,15659.74,28772.42578125
17,13069.216,2726.275,3312.3223,1315.5658,3300.4336,11187.101,22684.416015625
18,13836.732,653.47437,-19583.63,-2186.0813,9227.821,-420.01694,33473.1796875
19,-144.05368,536.05804,96.90494,445.1786,595.8472,523.44946,1684.7509765625
20,27936.604,14117.569,30388.719,678.5967,-1183.6525,-15049.188,30263.5625
21,19957.055,1356.2286,-17030.824,2633.695,-6859.954,2812.8425,34811.07421875
22,9127.747,10405.098,10090.095,-438.27545,-784.6032,266.8877,1991.2890625
23,1621.0165,20790.213,20655.703,-7660.279,11401.982,-3381.2556,31068.498046875
24,-19895.727,-24231.855,-10808.438,-4424.6772,-2258.3943,-2500.3716,15283.140625
25,15200.393,34246.863,22830.502,-3667.7131,-10468.907,8259.917,29145.994140625
26,18788.623,22587.227,-7118.467,7157.2935,729.20306,2389.8088,30926.1484375
27,41522.875,31026.002,33261.133,4065.511,-18724.543,-262.7061,34544.6953125
28,12881.528,2312.265,2091.2703,3948.5862,-19300.621,5850.487,37163.078125
29,26255.213,6878.159,-12309.83,3638.714,-6002.7144,-4633.5312,36437.38671875
30,14463.954,7740.24,-14727.036,5907.2764,-7355.3457,-3734.1794,31778.509765625
31,28238.312,23576.797,22369.28,7042.827,-18362.213,9237.182,38014.6015625
32,19463.14,13353.4795,14167.396,-551.2987,-18684.574,-9709.366,36933.51953125
33,9553.669,10266.64,3656.7551,-1146.0487,-18996.207,11628.764,39136.6640625
34,30413.768,12604.906,-9343.443,-1649.29,-1359.3147,1231.4934,34756.5
35,16796.357,5218.276,16027.331,1438.9182,665.6414,-512.32355,11578.7587890625
36,23821.166,4759.4883,-14101.151,-1771.0477,-5742.372,-1344.2449,34530.3046875
37,5283.444,-159.04941,-22690.389,-3542.0066,-5856.2144,2942.4407,28747.271484375
38,25012.77,34057.816,19853.695,215.90215,-14499.479,909.91254,28078.83984375
39,19254.684,6831.457,1986.6857,2815.5308,-2055.056,-1314.6892,16722.220703125
40,8767.162,2244.6245,9705.063,2581.366,-14468.119,1544.5609,26545.572265625
41,12522.6045,-3848.3674,772.174,3964.389,-16563.24,7228.154,35222.51953125
42,14601.439,18698.152,15989.474,1847.1659,-3125.0986,-5192.561,11551.890625
43,-16404.904,-16803.723,-17932.691,435.1288,642.0187,189.71483,1948.44299316406
44,-17612.893,-31092.924,-17426.787,-4250.0796,-3826.6775,-1398.2347,16977.623046875
45,-4598.932,1845.1187,11039.605,3943.0444,2035.9852,-7501.983,20328.10546875
46,31407.283,31927.02,45043.523,3405.8462,4705.753,-16548.572,33195.29296875
47,3080.061,6028.2046,11798.559,1597.691,-5796.828,-15225.654,29375.662109375
48,21796.709,11728.224,29467.197,2749.202,1385.7544,-15644.584,31624.916015625
49,37455.605,24389.99,44096.586,106.684525,-786.35376,-15776.446,32406.162109375
50,26963.809,18465.143,28712.246,-147.40993,-1235.5168,-15917.924,29239.17578125
51,-594.0169,14652.221,-16182.783,-2918.476,1486.3732,-11016.696,33307.81640625
52,25028.46,21246.672,40526.723,-362.83475,-3634.0337,-16797.607,34635.265625
53,27188.0,23346.61,31190.57,3924.523,-1068.5874,-20260.02,36430.6015625
54,47102.973,42156.617,64578.332,-2534.9207,3785.4053,-15549.256,34697.2265625
55,20371.006,16698.023,24963.377,-9559.602,912.0657,-15326.788,32137.72265625
56,-1197.733,-3382.0981,12037.908,5289.352,-5102.469,-4374.992,20695.9921875
57,2288.0303,2533.9993,3169.1814,372.9735,218.72034,970.03204,2000.98034667969
58,3583.342,2975.3875,3116.4065,-607.4046,508.36917,778.4644,2000.98010253906
59,14303.742,11469.776,11781.427,-10990.329,16059.708,-1100.0999,33867.1015625
60,8362.6455,9126.785,20864.76,3008.8323,18922.582,-1475.5529,35429.0390625
61,41300.395,51601.18,65534.164,-1677.0087,16527.047,3059.8748,36051.49609375
62,17601.527,22005.781,33773.383,-438.38843,20173.416,-1398.0347,37908.33203125
63,18633.467,24509.969,32809.05,-1669.0022,20035.662,-4700.7134,37829.984375
64,15462.94,14863.229,15674.994,-107.306786,22322.334,-2448.5115,38902.59375
65,24250.082,31390.73,32717.357,-607.81,20595.762,1859.4224,36691.3984375
66,16902.887,21863.613,32776.434,-2056.875,16545.748,3211.7314,32599.95703125
67,23349.426,24036.773,24396.32,-4562.8833,16424.998,4194.165,30420.771484375
68,22897.264,21090.656,15195.469,46.52875,17270.525,-489.89087,30727.951171875
69,46090.812,48992.83,62670.953,-2925.6711,16652.27,-3518.8352,33614.37890625
70,8869.187,-570.07465,-9175.385,-988.2241,20599.36,70.96409,38991.3359375
71,22251.422,27089.83,25200.705,3198.0652,17904.545,-2891.652,32176.4609375
72,18116.64,27274.578,38434.383,-5526.5054,16501.848,6206.674,36534.06640625
73,32572.61,9033.707,5964.712,2395.55,11931.683,-8556.768,36051.42578125
74,21368.44,26956.273,27875.535,4509.3784,17565.924,1087.3481,32053.720703125
75,6284.219,10701.965,6939.0005,-5206.532,13915.258,2751.833,26495.236328125
76,1005.2052,3892.347,11281.248,3489.9412,17895.432,-1359.2333,32970.9765625
77,12157.273,31973.904,39636.223,-7775.233,12655.826,4230.0273,36315.33203125
78,13523.944,14088.788,14583.084,-385.16528,732.52,-139.52885,1719.24267578125
79,-8471.772,-10169.615,-8825.15,583.59064,113.31791,422.72205,2000.97583007813
80,-9658.312,14457.36,-18977.945,9072.947,2805.1748,-5648.9414,35488.9296875
81,34872.945,9762.85,27290.611,2924.7712,2878.6711,14814.326,34735.16015625
82,48203.902,47346.926,58235.45,-3205.2078,8366.278,11884.891,27830.1796875
83,32320.14,33052.42,18034.734,-3079.178,-2337.667,8739.395,22114.228515625
84,17251.914,9386.31,3989.179,465.21002,6275.3916,16692.701,32987.546875
85,21847.076,25212.672,-3824.517,-138.30397,8020.1846,5801.582,32415.439453125
86,6660.51,18057.05,7546.2397,-1174.0992,-5884.6587,18361.418,35213.91015625
87,12104.418,2457.8127,-4807.6416,2413.8088,14334.887,13303.622,37159.60546875
88,17673.629,22718.62,11170.921,3936.8286,7736.404,18827.213,37282.5234375
89,23747.188,22103.605,22380.887,-2667.5605,-5354.1465,19353.867,35119.61328125
90,17906.84,19216.541,23472.207,4600.129,-1350.2084,19133.791,34534.88671875
91,-149.08699,3694.8506,-7625.2524,-6312.354,3942.0293,6064.7812,19388.33984375
92,6603.172,4418.8965,5419.585,-131.20245,302.9771,173.49568,2000.99658203125
93,32064.36,32122.328,36834.785,-2731.943,-19136.016,4422.0713,34671.3125
94,9317.343,9146.274,19560.781,3066.26,-18807.182,5156.4487,35718.51953125
95,33847.957,20226.115,28046.047,1362.0188,-13620.081,-4983.5244,27870.6953125
96,26989.69,9663.884,5925.2925,15141.22,-697.856,-1861.2634,32841.41015625
97,5013.209,24085.014,-13814.679,3076.7468,1683.3556,5824.24,34870.76953125
98,22115.129,30895.61,37923.402,8730.155,12078.792,-9809.67,33811.55859375
99,3322.6274,15894.238,10272.036,-3832.2769,16405.826,759.2308,31180.380859375
100,13780.682,15017.553,22139.86,-4480.7417,-202.53595,-16492.662,30617.71484375
101,23229.281,20957.098,10022.522,6893.1196,-13785.93,1718.6841,29515.005859375
102,9359.052,4781.901,-14267.164,4810.4307,-13835.302,-8768.857,36679.0625
103,39134.688,30261.969,25556.475,5243.9575,-19132.855,-1295.0106,36446.45703125
104,28859.977,31656.398,17628.992,-932.6963,-17852.662,1715.8828,33659.421875
105,31954.465,12874.772,-10839.29,1097.3474,-8404.647,1156.2264,39979.81640625
106,23357.904,17103.531,16905.969,2915.558,-15730.344,-80.96052,28429.6328125
107,-12444.254,-16425.885,-32911.676,2096.1792,-8455.897,-5966.5566,26225.234375
108,4248.611,-1835.5482,-5735.9165,11965.559,-8200.64,-15964.76,38364.77734375
109,23967.814,26229.121,16038.688,1421.6156,-10849.451,2347.773,21485.939453125
110,-11460.087,20283.342,5084.7466,4504.7847,4614.6797,8057.8784,32798.48046875
111,27909.182,348.38315,-8757.003,-4473.838,5659.3804,4408.055,36164.64453125
112,19639.58,14664.7705,20337.754,5248.1523,17501.781,3747.906,32747.765625
113,21191.14,19888.744,2348.9336,-10337.534,14157.021,-8146.321,38119.9453125
114,16932.232,16352.483,13820.722,-1112.3756,22011.332,-3188.658,38677.1875
115,10901.579,8486.775,-17180.654,3496.504,8356.453,5485.426,32604.712890625
116,15955.952,22587.783,32719.107,-2338.4658,18917.654,2791.7378,36431.21875
117,-163.95059,-11784.526,-39641.082,-4533.3853,-3062.78,1440.3159,36479.51171875
118,3892.4705,14719.568,28148.135,-3494.6692,13021.548,2448.602,31721.4765625
119,8095.6465,13119.631,28155.145,-4707.3154,14809.664,1698.6027,32556.962890625
120,11286.654,16584.92,18726.436,-597.51025,14766.101,-1860.5704,26637.8203125
121,-190.81163,-3882.6113,-5126.8257,-3933.728,-6643.241,3933.9521,15653.0947265625
122,27951.494,30412.621,34457.207,-740.56683,17548.129,-2369.6921,31219.7421875
123,17645.533,14961.908,22469.441,-2293.227,-21691.195,-1698.8701,38462.6640625
124,16982.764,25785.57,33108.504,-3263.836,-19903.504,-389.9306,37635.6171875
125,25648.832,44369.047,56915.945,-1868.6313,10561.284,1519.0272,33087.33203125
126,19927.572,-6090.994,-18622.36,-688.64154,2669.4622,-3347.9363,34878.01171875
127,-13379.818,-12910.069,-12282.026,-213.19452,-678.0586,405.23236,1708.33557128906
128,29484.45,21557.398,38672.844,5414.85,7664.102,-14461.79,33342.30078125
129,46190.77,32575.744,59519.582,4852.6045,917.5031,-13492.725,34114.921875
130,20889.934,22019.764,-11020.279,1004.7528,1235.82,1873.1698,32767.7890625
131,5672.783,6966.6626,5093.7153,2640.5215,660.69354,-10923.958,19569.97265625
132,25838.596,33880.242,16045.289,-1696.6821,-800.48334,11912.956,25993.177734375
133,3652.7463,9202.631,-1774.2769,2054.4583,-14448.263,11009.332,33059.16796875
134,8373.506,12342.222,-13743.513,578.9673,-3251.5117,5165.5244,26560.494140625
135,31836.822,46708.75,31142.041,-2223.0051,-244.58809,11420.164,25263.70703125
136,32336.64,22525.65,31349.455,6237.1973,13152.022,14188.272,36429.3984375
137,4002.0808,14069.053,33391.78,4497.736,-5640.951,-9974.288,33523.7578125
138,14016.301,14864.793,14478.621,-7486.919,3866.8042,-9044.816,21423.955078125
139,2931.9207,2017.3607,3785.065,-67.00079,-186.31868,-291.4852,1648.34118652344
140,16927.775,-1496.8701,11136.9375,-6526.703,193.99312,-4090.6836,21081.146484375
141,51545.19,58847.613,72489.62,-2151.8472,17009.652,222.19666,34943.86328125
142,13627.146,27286.768,29383.188,1215.5636,16868.031,1145.2651,32887.31640625
143,28755.334,37351.984,46763.68,-891.8426,16656.543,-487.44974,32845.26953125
144,13785.501,20829.184,30893.22,-3728.1177,18654.996,-3758.805,36740.91796875
145,2235.4304,11402.093,14263.703,1307.2545,16984.838,415.7836,31457.072265625
146,15553.681,20871.613,20510.541,3322.6392,19196.834,-3352.608,34624.9296875
147,33692.812,40344.902,50302.715,7904.0396,17401.56,-5570.1714,37397.7734375
148,54684.547,49182.043,65391.92,-3012.3958,18712.312,135.82199,35799.0703125
149,18440.87,28179.666,-2413.774,1385.9436,-11447.333,-7137.109,35840.77734375
150,7694.574,4883.4624,-23939.592,-18.196617,-310.6554,-5173.079,31627.01953125
151,6840.188,-1707.3685,-28728.627,-5358.0854,10638.938,3500.7148,38686.27734375
152,34570.754,16172.802,36285.836,-7309.438,6922.479,-10491.665,31737.21875
153,21238.852,15097.177,30401.537,-854.62317,-858.0516,-15878.458,30638.626953125
154,13679.948,4053.1147,10788.556,2885.6558,-4713.4697,-7973.381,18856.216796875
155,37450.7,24714.465,25192.777,-3485.8477,-4295.806,-16478.662,32600.65625
156,-13615.924,-7043.5234,-33316.605,-7274.457,4583.8535,-10754.82,33609.23828125
157,17669.951,14377.194,20198.547,118.43829,-15719.205,-4569.8335,28801.642578125
158,17937.719,16242.484,19210.822,-3927.286,-17282.438,-7433.288,33387.61328125
159,42527.0,45708.55,50167.9,-248.36272,-19523.23,5094.7256,35576.9453125
160,1402.0386,362.92612,-32139.309,-1951.4186,-3445.8833,6111.662,35360.3203125
161,35686.812,35171.15,16607.582,4688.341,-10868.5205,-127.220436,27835.388671875
162,26290.86,18797.145,25783.6,-3990.2576,-13180.136,-3984.5542,25868.0546875
163,26954.998,30545.219,31470.379,558.9057,3392.61,16047.211,28724.078125
164,9289.389,11352.991,14553.576,-988.321,-426.56857,16643.426,29250.5390625
165,971.4963,4707.2646,-4180.4253,6566.568,10957.313,17407.85,38188.8984375
166,23188.244,26793.607,30493.506,12733.668,7211.6025,13622.234,35202.04296875
167,18136.443,18918.348,17350.92,-7871.655,3486.504,13999.087,28497.751953125
168,43984.203,43913.48,45732.594,-8743.793,-152.2471,-18229.178,35064.58984375
169,-4754.4443,16177.574,-8096.251,2746.737,-5764.62,-16433.273,38101.859375
170,11854.442,12121.578,-19223.283,-9202.592,9669.983,-649.80927,38859.4140625
171,9124.039,25551.283,30976.256,75.06867,-5616.324,14469.3955,33333.7421875
172,-5405.306,-6099.657,-8879.746,17875.258,8863.03,6678.2666,36581.0546875
173,2229.9006,11342.372,11587.47,12794.128,1319.8313,17987.81,39399.36328125
174,19233.77,7094.4604,11736.254,-1805.0055,-5877.3906,-18877.697,35987.0625
175,14187.604,19368.92,-10164.324,-12289.077,-1865.7908,-1148.8439,34835.39453125
176,7744.063,19914.887,-17509.6,408.4758,5361.1274,8523.043,37388.32421875
177,4245.2485,-11508.345,-26423.053,1293.1814,14960.768,-641.7284,37192.8828125
178,749.9368,3284.2415,-18601.371,-4350.753,13241.919,-6544.5967,33782.625
179,18723.268,9549.756,20827.898,2815.51,-2352.4934,-17863.639,33250.6015625
180,8109.2188,22351.691,-2266.1577,4783.5776,5097.116,9190.46,29295.916015625
181,7514.1704,10787.756,-14895.343,-2285.738,-249.98344,10070.539,30105.990234375
182,15178.101,-7445.585,-22536.635,-1171.6809,-2537.697,-4241.5264,34035.21875
183,18796.586,6347.553,2701.7378,2466.901,12445.994,-3045.3394,26915.509765625
184,-14150.578,-12437.504,-12950.612,17.717358,-556.933,501.21286,2001.00427246094
185,1599.9446,1477.7896,1092.7504,26.406284,-575.04016,-385.935,1284.97253417969
186,18465.934,2442.872,16700.352,6846.1313,-13199.634,6107.0713,31729.392578125
187,6582.5825,-1022.3333,-16139.396,-1058.4822,15893.096,-4513.0044,34979.40234375
188,-14088.487,-715.7266,3736.274,-4913.142,3136.914,-1726.234,19211.033203125
189,21178.338,6003.8394,13179.521,7376.4395,-12072.423,27.30331,27808.927734375
190,37414.91,60500.207,57819.867,-1739.7327,-12292.727,6950.32,32948.03515625
191,22372.664,12480.314,20226.873,361.7798,-18051.273,-5895.991,34109.5625
192,23086.086,34894.95,27301.06,-1220.1566,-18460.934,-5157.675,34844.375
193,14457.8545,9142.89,17425.805,6489.8257,-19019.926,-2793.1711,35886.81640625
194,28414.693,14018.68,-7331.1113,8308.603,-4432.947,-5577.345,36466.18359375
195,17629.992,30101.492,39335.49,3625.3293,-13582.29,13170.537,38330.4140625
196,33768.63,55979.195,59557.2,4247.8154,-14510.521,-5605.1143,36954.4375
197,13190.705,9310.2705,-19324.795,6944.898,-1649.8031,-5282.832,34390.79296875
198,-13586.493,-7522.299,-25614.902,-2321.0571,-13325.466,-450.7655,28352.6953125
199,23789.37,18688.658,20815.785,-2576.4124,-18125.822,2366.7507,32280.74609375
200,18351.326,14454.117,16000.035,3120.6338,-11622.356,-16290.308,35243.83984375
201,11563.047,13351.903,7908.499,634.9231,-15857.958,-12717.215,35551.5078125
202,13485.605,6324.9126,-9824.489,7233.3564,-10348.515,-2528.0889,30415.998046875
203,16072.653,4324.095,12440.569,-3326.9578,-17974.834,-12401.045,39653.45703125
204,36788.09,21203.732,15487.591,-5887.817,-13751.415,3262.7686,32678.26953125
205,8592.522,9115.677,-11169.333,4929.458,-12355.082,2738.8408,30894.81640625
206,24832.162,16283.518,24157.453,-2622.4192,-14130.785,973.05914,26273.099609375
207,-7066.233,-12338.928,-33594.727,1907.5468,-6571.474,-10098.731,32219.6796875
208,10431.285,12778.237,31835.383,-2763.863,-9393.652,-3503.6997,27163.87109375
209,-833.63153,-6419.829,4860.953,411.35403,-8971.296,-8413.359,23446.939453125
210,29726.264,22098.3,15528.683,-594.37445,-13513.245,-4969.4897,27828.568359375
211,-432.7094,258.84674,897.3673,-718.7909,107.83956,-97.16581,1714.85388183594
212,-3928.8474,-2000.5292,-17494.246,8724.794,4288.5854,11275.358,29645.234375
213,-10198.431,-11172.187,-9517.192,-653.6952,-260.73886,-209.39153,1921.74060058594
214,-9831.594,-9259.787,-9597.707,425.2767,86.69397,-296.78027,1037.9267578125
215,12863.958,27830.434,13601.551,-4660.2183,4955.789,11487.692,27353.865234375
216,-3058.258,-2787.5864,-23894.498,10170.569,18.479944,667.2411,27413.8671875
217,-2683.475,13191.903,-5170.654,2575.7126,-9623.253,15869.205,36754.828125
218,37587.305,28516.338,33203.523,2784.3257,-7255.604,15162.56,30539.04296875
219,32258.451,22106.215,29778.832,-4054.9675,665.84265,16905.102,31496.80078125
220,16414.771,28218.744,43249.098,4852.7915,-9080.816,12827.67,36801.3984375
221,7412.835,18830.643,-14146.155,-2847.8557,-3476.8787,9265.947,34051.18359375
222,13761.455,18194.178,24507.771,-5605.924,16689.61,12030.633,38100.046875
223,19810.963,18349.334,18274.773,1027.8107,8398.1875,19338.682,36591.8359375
224,45763.73,26831.404,50825.48,-1347.5702,3773.7734,14725.571,34330.515625
225,1591.8063,11177.668,-16129.52,1498.0197,11982.871,5083.1943,33027.63671875
226,3292.5173,-632.2836,-26402.05,7505.854,-543.8409,-9441.478,34899.16015625
227,27581.648,19443.764,21817.43,1393.0106,-1884.4839,18496.842,33097.09375
228,18236.994,19735.883,18399.928,-1552.578,11289.402,18934.385,38303.328125
229,6575.1436,9861.266,-3187.8682,7851.2627,446.4178,-4662.817,19721.76171875
230,9046.726,18013.53,14138.239,-1831.7775,1550.6803,17813.732,32092.673828125
231,10155.662,13966.402,-4342.1816,-3351.312,-303.53442,7670.175,22145.46875
232,-10586.3125,1635.8307,-4964.918,-7806.154,2793.2778,-3298.5764,18738.53125
233,33023.418,7161.0166,-404.33298,4003.7324,-2666.82,-1802.1144,31637.392578125
234,-15.803243,-9326.206,-26497.268,-7468.4736,13916.556,5102.871,36984.62109375
235,13380.93,-17696.414,-14748.026,-951.064,13976.289,-5887.55,39693.5703125
236,7394.4307,-6984.9146,-28669.328,-5132.928,7724.7944,5527.2637,36585.4765625
237,3962.3975,-7179.959,-21980.814,2947.3428,13873.8955,-4834.874,34376.98828125
238,21431.041,1573.0529,-4835.6167,-3163.4912,13159.91,-4187.242,34129.8359375
239,20939.135,-8094.6733,-16362.467,5243.944,-1325.9298,3206.775,35636.8515625
240,21953.684,8224.267,-10543.58,-668.0418,7545.9277,-6967.928,33409.85546875
241,26374.734,13135.033,4196.2563,3790.8005,11594.874,9260.702,32821.546875
242,17540.33,-5053.5166,16257.448,-4994.381,368.43622,1534.2656,23779.048828125
243,23043.977,7465.1553,-3900.2227,3618.9685,7280.0576,7534.7036,30290.83203125
244,27253.328,4254.334,-6975.215,836.54266,5642.7427,4741.7666,32838.984375
245,10369.923,-10190.522,-26713.479,-3622.0908,5906.934,-5854.8564,35809.65625
246,18927.996,1965.6346,-10232.773,-8366.555,-6556.6626,-4862.604,32455.1796875
247,3354.9028,-8196.83,-25233.07,-5331.0015,14491.68,-2710.3582,36848.30078125
248,2966.5044,-19277.451,-26541.473,3425.316,11298.177,-5386.1484,34847.046875
249,12401.6455,7091.857,-10948.994,8193.966,16646.617,3621.8538,39007.25
250,19737.395,14286.494,-13271.11,-10174.694,1776.6179,-1093.9446,35538.4296875
251,22638.375,4471.6187,-10559.277,-7395.5747,-529.1898,-2861.0046,31913.966796875
252,21841.72,16361.983,2650.061,-8261.344,-722.3045,-1208.6954,22447.259765625
253,15702.128,3700.6016,2462.4258,-6506.968,12819.952,388.0639,27945.60546875
254,10369.7295,-5983.2793,-8809.536,-4640.5176,6082.787,5011.621,23928.63671875
255,8459.172,-4913.348,-3097.2256,-18085.633,2826.02,816.4322,34133.05859375
256,-14439.058,-5396.289,-15992.364,-5399.819,-3968.0632,-1232.5914,15411.0078125
257,2482.3276,9560.878,-629.43915,3620.9773,8237.4795,3257.007,18882.337890625
258,17591.762,6750.997,-2047.3972,-11322.093,5316.615,5014.127,28898.23828125
259,30096.693,4441.703,13770.424,-1925.554,-10068.298,-2591.6091,29004.478515625
260,6255.446,9856.632,-18600.262,2917.765,12584.535,-3454.2852,35450.421875
261,-4369.5303,6963.9146,-6375.8984,-12272.39,3855.0022,-5130.326,27029.4296875
262,-12740.876,9044.244,-13423.789,1219.3849,1173.9423,-5468.1685,24253.513671875
263,10487.849,4780.29,4695.4756,-1573.491,5442.8306,8570.674,18701.275390625
264,-28544.324,-7090.6675,-30485.791,-2900.484,-4078.5422,-11375.359,31129.064453125
265,3355.844,11670.086,-2329.5234,-7402.21,851.66583,-6013.869,20585.76171875
266,17844.932,1138.3278,39696.613,-5443.791,-5260.766,3126.6978,36372.1640625
267,-577.0282,784.98676,-11699.979,1913.3223,224.11853,-18997.008,35135.69140625
268,-1700.0463,19429.023,1862.0415,-6628.3296,-5073.645,-6848.5166,27085.029296875
269,956.55524,16734.14,-17438.357,-11939.751,3194.3616,-1431.5077,36632.8359375
270,2701.2627,16251.053,-22191.303,-1385.5122,1024.5477,-5481.3457,35207.515625
271,-13829.467,-13401.157,-31922.037,1397.9338,-3890.664,-10196.704,26428.517578125
272,-6936.1646,15022.961,21592.877,-3147.0251,346.82587,163.0736,26453.517578125
273,-9903.351,17218.78,-12522.544,-2426.431,2963.429,-924.1432,29327.099609375
274,-16365.359,-10437.609,254.6825,10755.158,985.6982,6750.5615,26447.87109375
275,-27325.959,-17525.352,-8556.397,948.9381,6837.362,2346.1265,20587.814453125
276,19627.219,9445.848,9827.874,-2120.4766,-14763.993,-2010.1083,27918.703125
277,26994.588,9688.853,-9195.613,4192.8755,-7691.7173,-8426.312,37764.5
278,-8570.917,1256.3232,-8736.307,4045.413,-434.62842,-1073.4318,12302.3125
279,-9419.725,13384.872,6317.687,2881.1626,4030.7046,-1754.7212,22174.548828125
280,19454.324,-14378.694,121.790405,-7721.4194,419.27036,-2187.4207,32528.216796875
281,14656.823,4049.606,17174.9,-3135.0479,-10623.853,3322.1892,23382.87109375
282,14179.975,-6219.913,18730.252,-10284.902,3712.104,-1218.2848,29880.009765625
283,-2484.2134,7511.1636,-16554.002,12242.89,874.50775,-223.73,29843.0703125
284,9582.466,26178.799,2787.8704,2593.178,-4583.8984,11217.211,29917.515625
285,22385.727,9299.141,5177.755,4753.3984,-12427.501,-6699.496,30132.07421875
286,15140.835,15368.742,724.74927,2499.9363,-11794.44,10890.007,31670.384765625
287,233.27124,-13223.943,-13770.363,-3168.6494,-2341.937,-748.69476,15394.970703125
288,12899.45,22429.31,15589.541,4552.796,-19104.127,-2660.562,35365.8203125
289,17933.879,7207.8794,3909.2366,2820.794,-15717.792,9489.221,34589.92578125
290,10507.03,19209.057,23162.371,968.7713,-17012.408,4914.011,32699.84765625
291,27960.95,29669.959,40957.215,-232.24963,-15943.546,-2217.386,30448.564453125
292,14169.763,-737.96594,-14225.401,2806.744,-8095.2393,-6942.7617,31145.728515625
293,17781.023,2854.689,-21761.908,-9.387266,-1782.4493,1037.765,34770.25
294,20049.42,-5786.0615,-20270.875,-1197.0648,2653.3152,859.8114,35765.08203125
295,-18686.928,-22667.713,-40289.62,-2077.9182,15368.304,376.60696,33443.390625
296,5589.314,2351.1567,19591.44,-127.11031,-1669.3942,-4172.5303,17678.38671875
297,1899.5903,2175.1506,1103.5808,-929.2146,400.79504,31.697262,2001.03894042969
298,-8548.257,7666.5547,-11361.341,5639.7046,65.44173,-3205.4412,21040.51953125
299,3461.1719,17793.902,24214.598,7466.0566,7743.751,13818.218,35477.19140625
300,21839.994,21122.482,21095.5,-35.845913,7773.1533,18020.01,33999.51171875
301,-666.0646,2531.973,-7197.7544,10501.746,5923.4224,5828.426,24734.822265625
302,13278.979,23950.95,-3503.8289,-10246.352,9109.328,5717.704,35165.87109375
303,11367.065,23849.906,3033.2795,-11930.997,6681.574,-4582.87,30875.34765625
304,2130.8506,24183.787,-8393.268,-2440.0518,-4278.538,-6546.1494,32101.591796875
305,-6284.0884,5700.8203,-10192.839,3927.4036,600.1569,-18840.102,36303.78515625
306,-5873.75,-4259.8027,-12648.057,7685.9824,-4476.1406,12220.75,27291.025390625
307,6808.137,-86.87726,-3669.5613,3430.271,-7372.981,6668.5483,20417.41796875
308,38135.484,36493.582,52444.355,-3480.8901,1328.8414,13615.37,28787.419921875
309,19697.486,28729.027,1930.8008,-13183.207,-2646.7788,-2913.281,33549.265625
310,6954.8105,12513.201,6600.9805,-1402.4207,4657.5337,1614.3577,10572.8095703125
311,-2254.1838,12598.226,-22826.074,848.74994,-931.8769,-5269.012,32208.580078125
312,-1488.1309,-905.8647,17650.812,2359.1992,-2304.4185,-2173.035,20057.142578125
313,453.47128,-804.2119,-13190.303,-736.1798,-8751.341,-3875.888,21142.990234375
314,12369.537,30929.105,13933.313,-1583.9994,796.465,-957.4404,18167.560546875
315,-17393.828,507.0466,-35488.895,2224.1553,1584.5607,-2150.1035,31749.5234375
316,-18222.04,-12988.193,-45287.98,-6083.336,-2816.1711,-10596.237,37057.67578125
317,21480.305,20004.107,16507.914,2116.1145,-20220.316,-5318.133,36666.44921875
318,6818.5854,10686.545,11919.394,-928.2503,-19591.041,10745.285,39008.265625
319,15119.505,9337.901,3117.3325,-702.81354,-16599.166,10488.429,35583.52734375
320,23054.607,33633.44,38061.55,-1313.7351,-11950.862,-9516.024,29726.67578125
321,33999.727,27165.812,49012.03,-3720.2468,-12218.944,748.56604,29424.0390625
322,10898.21,-5596.2847,14547.707,-5181.634,-7278.8584,9018.731,28793.91796875
323,-15151.123,-16119.092,-16149.326,686.3658,-105.322586,728.06177,2000.98425292969
324,-5651.405,-5052.9253,-4994.4136,-87.32092,170.8694,-77.309364,724.578125
325,2828.674,14609.481,-5925.6685,2259.739,11520.14,2373.0686,27366.28515625
326,-1536.7708,11715.158,1808.6418,2091.7585,13849.27,15050.844,37557.8125
327,19192.102,425.48935,-16220.513,-3978.2559,10368.891,-793.1878,36243.24609375
328,36792.258,5968.781,-674.65283,-893.0486,-5169.0347,1338.0111,35873.609375
329,16232.645,1660.1608,-12174.605,2479.59,8028.6943,7032.846,31073.6640625
330,12033.4,7657.1816,-5555.0767,6336.1714,7645.99,-2037.0939,23660.27734375
331,7690.727,-9014.339,-3954.988,-13271.908,2869.1997,482.7411,27820.24609375
332,24964.344,7705.0435,-15764.72,-84.404236,-598.4241,-277.3681,35427.55078125
333,11940.962,-3399.491,-24971.193,-3686.4338,8863.484,-629.67114,36183.2890625
334,-5456.7896,-18578.521,-1361.1306,-3616.3528,-7387.9185,859.5614,21163.435546875
335,18254.7,11913.316,-3880.9055,-7935.403,2869.053,5181.2666,26152.83203125
336,-6653.5503,-5486.228,-21299.715,-495.12808,7508.992,-13868.488,31302.79296875
337,4249.2466,11701.465,-3645.6235,-8626.757,4229.2095,-1224.7513,21403.74609375
338,-493.49823,-22882.162,-10142.805,3837.1458,4507.2783,-2152.8481,22301.306640625
339,9959.076,-286.56973,13454.811,2493.2449,8774.891,14253.302,31813.900390625
340,2384.6624,14784.422,-12484.475,5981.0356,3984.9397,7789.0728,29936.357421875
341,-22.012848,358.26642,1070.9188,11.78744,-382.73962,746.2993,1741.91455078125
342,8199.192,11763.004,14360.072,4065.1616,11294.253,13618.578,31896.00390625
343,15450.582,-11558.978,8981.483,5175.548,8131.917,6745.133,31809.9296875
344,21955.92,4699.946,1987.9014,3470.0137,-6193.6045,-3826.081,23388.986328125
345,-17964.084,9819.644,-4211.1436,-9387.216,-5171.223,-2994.0554,30829.33984375
346,11930.922,17129.97,-7571.5195,7899.9946,-7102.064,11064.236,34850.66796875
347,-12807.827,-8968.759,-29755.162,-3405.7522,-14936.377,-7035.963,34922.921875
348,-6221.1206,201.45058,-3378.3193,-4015.9675,3872.9749,6267.997,15566.630859375
349,645.073,3368.4011,14944.068,8509.423,-5737.4556,-8008.2,26102.044921875
350,-18371.447,-14970.328,-1473.8323,543.21765,2198.7554,-2840.0667,16709.66796875
351,6128.041,1740.485,9115.066,7153.987,1718.2985,-986.48267,14373.3916015625
352,-1567.8203,-14150.102,585.35266,4250.0625,7673.8535,3136.676,21222.892578125
353,-13602.68,-21220.006,-6203.694,4362.0703,14140.536,8039.5024,31937.08203125
354,1334.7388,6836.2573,-2930.7268,96.663345,1693.3275,4684.2085,12098.8837890625
355,-7472.461,-4203.0664,-804.14197,11594.435,3734.2388,-3324.9602,22619.603515625
356,13891.633,11400.431,16729.867,-3509.534,1175.6989,4005.905,10515.29296875
357,-16229.185,1242.1077,-4758.7915,4869.6187,-5460.909,-5880.3545,22377.515625
358,-8247.641,1873.3043,1540.1842,1842.6089,1251.8458,-25.496872,10679.978515625
359,-520.8361,1559.047,1572.5332,3335.6772,861.51965,293.52533,6341.88427734375
360,621.65686,268.30115,818.1303,-6727.426,53.610004,-680.91583,11722.0830078125
361,605.4013,-854.31177,-221.81155,-567.73114,0.96255785,95.760895,1613.07751464844
362,-7788.0723,6042.9683,-4064.812,-5648.8667,-1153.7516,-1714.4373,16192.7197265625
363,-15384.681,-1421.565,-34830.832,96.646034,-5120.9736,3825.9812,31100.8984375
364,-7177.844,3311.7644,-370.07486,1978.3772,-2068.2903,-1454.968,10765.3603515625
365,-35460.19,-26638.406,-41411.047,-5236.406,2589.9536,-3722.896,17598.2109375
366,23944.387,-4125.133,5963.805,1306.7302,-2284.903,2567.3608,25437.216796875
367,19373.432,4008.2139,-111.73703,184.8078,-473.01044,5082.7134,19865.634765625
368,14003.977,-962.40106,-2732.8315,4548.1836,1962.1136,-2317.5967,18529.576171875
369,2227.2266,-10421.163,-9649.017,1693.8239,-2687.9512,-3147.529,14519.4609375
370,-8296.468,-707.91425,-2459.9873,3304.5542,318.1904,-802.86115,9075.126953125
371,-1335.427,1357.0977,-254.51717,400.71918,-438.01526,16.513103,2562.380859375
372,-655.2467,-1559.2101,177.84499,960.79736,181.99368,-753.64154,2614.75854492188
373,-1624.867,-1649.2748,-598.0728,-1134.7043,-274.4359,83.02693,2277.99291992188
374,-4961.695,9219.178,-181.94386,-5576.715,257.25903,-2167.085,16240.3408203125
375,-10834.536,11116.7,5329.1216,4507.2026,-1127.6791,2118.1843,21599.259765625
376,-5697.986,-2475.8125,-702.762,4064.2312,1560.7037,734.8249,8815.91796875
377,-2920.5361,0.61204195,-1613.7642,584.9408,-252.38126,-219.34712,2790.2294921875
378,2065.2422,-3692.5378,-281.32202,-7639.908,1979.2202,1366.4641,14751.4609375
379,14524.249,-585.2081,-2520.0986,-4951.5913,2999.7153,117.20494,19022.763671875
380,18795.93,3890.8186,558.56036,2458.0044,29.299942,425.16306,17366.755859375
381,13913.108,620.7921,2016.1664,4099.243,-1396.2825,-1008.35986,14812.0078125
382,9748.125,-8169.6963,2020.742,-390.77722,2052.9412,-1328.936,16146.2978515625
383,2462.4368,-1996.2191,-2837.3645,2698.9546,-3919.262,-1823.8873,10111.9794921875
384,-2071.0256,-1675.7097,-479.2246,917.04736,-532.2512,45.90324,2332.373046875
385,1438.9852,1804.4624,3749.434,4832.102,-1149.3655,281.2304,8881.1796875
386,14062.335,19971.174,33966.656,2235.5598,6125.7627,349.19766,21009.970703125
387,5728.4854,37629.61,30126.799,-3495.803,7893.956,-1866.611,32690.732421875
388,-10141.449,-8306.954,-29415.484,-15917.242,-207.74689,1830.0446,34357.88671875
389,28745.887,41448.34,37944.46,-2841.6897,5233.3745,-14519.179,29460.677734375
390,-1311.8688,-906.4885,-293.96582,-898.89136,-94.49687,62.55657,1802.87768554688
391,15303.204,-21694.549,-10498.488,532.91364,4787.123,-771.4379,33931.453125
392,12652.426,-123.94605,-9121.688,-236.49702,-1381.7384,179.06538,19108.771484375
393,11303.534,-1927.6665,-88.268715,-809.2785,1059.7126,-2066.2446,13124.5
394,3176.325,25586.383,21740.387,9110.077,-1637.7505,-481.99564,26239.998046875
395,2442.1973,11859.756,14721.077,7072.1367,2502.4211,306.94092,17115.447265625
396,-1538.8058,2239.694,14223.361,8726.496,-1719.8221,-1158.5492,21083.6640625
397,10022.46,1244.0741,-1506.962,-6641.8213,-1424.4362,291.79135,15730.91796875
398,16992.18,2884.7195,3415.6467,-4774.417,-2183.5798,-1190.402,16695.888671875
399,15571.309,2852.503,224.8375,-4787.123,-1497.8485,-271.99332,16667.203125
400,-3707.9253,15441.557,4858.212,-2544.4067,2175.22,790.4598,17650.369140625
401,-10742.694,5324.185,-3293.5115,3332.124,306.70972,1005.8529,15184.7421875
402,-14508.151,6417.6406,-3037.4006,-115.31944,-2096.977,-770.1277,18559.189453125
403,12255.92,1143.1896,6687.475,4438.0664,-27.731562,1573.0864,12614.8779296875
404,7969.799,-3865.111,36.748802,2248.0005,5198.555,-836.6986,14403.0234375
405,3343.5745,1683.566,2371.5315,7214.477,1170.4183,-1986.2083,13197.6376953125
406,14222.755,4532.9414,27004.824,-9389.555,-7089.0464,-2211.6455,28479.091796875
407,13941.205,3461.8027,-6506.6387,-335.43936,-3036.8345,2910.9954,19159.26171875
408,-9812.661,-32480.951,-36157.695,-8047.322,1830.9907,-2130.0461,28786.49609375
409,5159.9634,-2852.1047,-10993.921,-341.22293,-24.974764,2491.0864,14652.060546875
410,-4649.0303,-902.70294,-2111.5435,6504.813,-1971.6287,-1554.8053,12522.76171875
411,7722.6367,1955.3531,2952.3386,-6658.9233,813.1637,22.78022,12787.2861328125
412,1081.1122,-1414.0063,3159.575,-1589.2743,-5368.9966,1700.4578,10884.02734375
413,-5682.4243,-2550.0054,-3044.9495,-8171.983,-499.02957,-593.02295,14513.8798828125
414,17208.04,-5100.2124,18086.715,6805.758,1542.455,2644.241,26174.421875
415,-2218.6687,-4481.89,2470.1843,12598.154,-1643.9762,78.71838,22847.0234375
416,13033.749,-571.83954,-3516.892,825.88995,-3626.7935,2803.5596,17289.92578125
417,1013.65857,-7368.7773,-2347.1736,2300.928,-1272.5955,1724.7266,9113.38671875
418,-7003.512,-1634.2025,474.84995,-2996.209,-1877.3759,1423.1593,9390.59765625
419,20864.453,-5513.9683,1913.7174,-1579.5773,9739.311,3457.4944,29714.8359375
420,-8728.812,-834.9787,-2016.5942,-1912.7869,-69.51864,-516.8195,8134.70361328125
421,-12639.916,-5233.315,307.26535,-5567.1304,-2924.0776,-847.1441,15728.1630859375
422,-1882.9116,15173.413,17335.852,2370.076,3847.594,3349.0173,20673.388671875
423,-16425.178,-3581.2676,-5892.157,6935.2827,312.6143,-2117.885,17282.05078125
424,-10184.705,10897.899,1251.9722,-4.085308,696.24945,-358.39136,18330.26171875
425,1969.8053,9591.44,-18020.266,7965.7944,-2258.6091,-1036.562,28617.09765625
426,-5252.2905,9825.789,8369.843,4147.279,-600.258,-1203.6554,16264.7607421875
427,-21091.729,-11478.554,-10843.149,-3266.7004,-1826.5762,-54.8174,11872.54296875
428,-3126.2363,-9228.894,-4605.422,3419.9485,1057.8628,943.4868,8456.9091796875
429,-13025.312,2304.6033,-20330.125,-1244.3981,1922.312,423.5043,20411.228515625
430,-16276.133,-3990.7678,7406.041,5487.696,-1157.9786,-3506.5793,23496.529296875
431,-6419.555,887.1154,-561.226,-2456.269,-926.3951,160.63246,8102.73876953125
432,22518.158,2463.4436,5936.0625,-108.08447,2774.6135,-365.9054,19186.986328125
433,11929.947,1422.4264,10681.876,3775.0332,2636.2998,-2612.7188,13525.2841796875
434,6355.848,-2377.8315,-2907.554,-2404.1018,-246.2557,1069.5238,10106.279296875
435,5259.389,-2682.9712,-568.13586,759.7843,-574.74225,-66.98491,7313.8974609375
436,30631.201,-1850.7794,23558.963,-4588.806,6072.903,4946.814,33505.2265625
437,12417.142,-1299.4637,-539.2068,-5872.086,363.5367,801.20526,16854.125
438,2528.041,687.09937,-11120.307,10933.915,-1470.2057,476.13123,23029.4765625
439,10520.799,-5107.931,-3009.3408,-1849.3585,1822.6923,890.24316,15442.3955078125
440,-2459.5059,888.51514,1076.916,1388.7667,42.72376,132.38133,4209.462890625
441,6993.953,-2075.283,3222.85,7255.931,1171.3215,-1666.362,15253.298828125
442,-1108.4215,-2789.7097,-1614.8467,-5687.3516,201.07552,466.91196,10002.248046875
443,-5469.176,-5421.6763,4298.3403,-3349.654,989.2205,-2018.591,11990.1220703125
444,18080.283,20618.0,16599.61,5692.7554,8726.132,-390.25073,18398.513671875
445,-4632.8135,-2946.6943,-1219.9485,-6168.465,-761.9177,166.42029,11167.3935546875
446,-3349.7476,2222.3733,2046.1963,-4409.5283,3167.9563,1313.5116,11122.6572265625
447,-6203.566,-2020.0635,83.62094,-2411.2737,-792.7753,792.76917,7207.05224609375
448,-7180.8936,-1350.5061,824.7879,2990.8784,744.2994,-1991.8385,9581.669921875
449,-10604.851,-5613.453,-403.73926,1302.1859,-617.2971,1763.4166,9675.642578125
450,0.610039,-5292.067,-10887.797,8477.37,772.87787,49.15347,17502.505859375
451,-3804.6748,2853.666,178.23837,-1383.4762,1285.591,149.12039,6666.66845703125
452,-13562.373,-7668.7812,-23978.104,-9418.959,-11720.095,-1530.2572,29830.607421875
453,-9993.038,6238.4355,1335.7185,-8160.794,-2869.9001,-1805.0575,21028.513671875
454,-5010.0264,233.95169,-8894.357,2304.0842,-60.886242,880.7883,9012.3017578125
455,-4708.8306,1867.7944,618.58105,-985.4197,965.46924,-640.9191,6598.39404296875
456,-9217.21,2738.714,1977.5524,554.72833,1300.9731,-1.2364842,11850.0576171875
457,4306.399,-934.1915,-1649.5442,-4089.1152,131.41656,-205.06575,9058.9697265625
458,6064.537,-8820.524,-6768.2407,779.0937,-2700.7178,941.17865,14885.8525390625
459,1930.4696,-4890.5654,-4515.582,2323.0396,-299.20602,1935.7063,8473.98046875
460,4148.7793,-2846.0962,2105.7368,357.3004,1121.1279,-1268.9453,6913.45947265625
461,10409.703,-3463.5825,9514.395,-5192.7856,327.4697,-4722.172,18137.31640625
462,9813.08,5219.6455,22964.523,-3315.882,1890.4453,-8142.708,22295.470703125
463,6838.147,-3546.6477,867.9127,-2135.1868,-298.2352,-1021.72046,9927.921875
464,-16099.888,3392.2668,-17068.07,-3207.3757,-3067.6929,1080.7495,21502.359375
465,-4372.336,1285.5612,1045.3992,363.40826,1878.9567,140.6083,6462.0126953125
466,-5267.342,-43.176086,266.4734,614.59894,1068.7289,695.66815,5917.52099609375
467,-5694.554,-646.1631,578.488,816.83044,2016.3765,-1486.0332,7347.95068359375
468,-1994.9691,1563.626,1167.1584,-531.09204,-458.70953,-1093.5748,4058.94750976563
469,8856.6875,-1607.5516,-6446.73,-15673.934,-4353.62,478.1192,31274.919921875
470,-441.96893,-1182.698,4164.546,5587.8384,3128.573,-150.50743,12177.212890625
471,-9181.825,2471.886,7633.156,6841.4907,-1685.6342,-954.37854,19346.06640625
472,-8832.383,-1183.592,-332.7029,5769.4556,1493.6078,-539.94183,13159.154296875
473,-1114.185,850.3068,-1749.0142,-3903.087,-433.4761,162.19429,7200.9892578125
474,-5340.562,-1601.8586,-2136.7356,-2707.9907,580.8384,643.7555,6043.1181640625
475,-24533.52,-1205.4003,5087.818,722.9586,-7172.12,-4644.771,30841.892578125
476,-1661.6943,2567.6125,-18.60818,-3867.3228,497.93372,1025.9851,7899.87060546875
477,-10110.425,-11143.014,4431.3027,9977.457,-1977.9126,-310.19565,23199.521484375
478,-633.0326,-853.8516,1063.0062,595.39795,-837.35376,-145.40056,2555.431640625
479,428.53873,2325.619,1559.0802,-1105.3202,-259.72284,2233.3235,4643.6064453125
480,3903.2668,-9530.474,-1980.6632,-3163.7856,-187.67282,-26.79464,12891.0537109375
481,3370.554,-8165.852,-1402.2839,-1714.0493,928.0539,-336.55573,10608.7138671875
482,-464.60226,-3989.2432,-1839.7817,3446.9922,2279.252,19.09668,7790.92529296875
483,-1748.3403,-3378.2202,2382.3276,3876.6694,-604.69464,-353.2759,8544.5009765625
484,-1723.1567,-1027.0592,-7126.567,5080.8975,-1218.7299,2341.8477,11480.3271484375
485,-6848.3174,-3052.768,-1453.4026,5032.855,1420.7571,-1044.9425,10409.365234375
486,-2610.7268,-1436.0295,-1503.7811,-2594.7734,-1017.7353,1593.3688,5676.90869140625
487,-9787.635,-1915.9547,5791.128,-596.6269,5141.888,1116.6072,16314.2744140625
488,4132.294,-2770.5496,-3875.609,-3644.327,-21.718042,-1474.0272,10142.06640625
489,-9589.634,-3196.3245,-3298.1858,1838.0873,-649.0447,643.959,7271.662109375
490,-6394.3335,-2309.6758,2315.3198,2065.3235,127.582695,898.722,8499.126953125
491,-6047.866,-1694.8577,15.949313,4086.605,-1311.175,239.67966,9206.171875
492,-810.19257,-6362.213,-1772.0691,4501.683,-453.26816,-55.71183,9371.8134765625
493,-1920.7369,-8038.5283,-2598.872,1677.305,-881.5897,-194.71983,6680.11669921875
494,2552.89,-3288.324,-2345.9707,-2016.0874,-1473.9258,427.83832,6983.09765625
495,-4576.993,1111.9808,2308.3672,60.176586,1090.9348,549.9593,6714.955078125
496,-7144.148,-2492.1006,-5604.4766,-1789.7631,-1669.5659,297.09134,5923.3779296875
497,2123.9944,-6162.503,-93.25657,405.37735,-621.5426,-142.74759,7544.6708984375
498,-11667.569,-22486.594,-27405.28,5080.1353,454.9993,14784.852,30467.689453125
499,1725.6318,-8432.87,2126.23,181.65567,1257.5627,-530.6091,10635.4658203125
500,-2550.3367,1597.7213,585.3499,4858.679,3061.608,-1391.3289,10898.6201171875
501,-9370.758,3849.4934,4069.0945,2541.3718,791.3325,-1082.387,14230.08984375
502,-3403.9336,448.4583,-2326.7695,2920.8477,1378.5894,447.63382,6614.24658203125
503,-6619.8867,-700.9995,-3286.5713,1247.9353,-614.6635,-74.57332,5677.75
504,3289.8042,-1451.1097,-2002.0574,-6193.634,-840.4561,4328.7935,14099.984375
505,3363.4316,-1079.7141,3103.0022,-4148.8,431.02002,-819.337,8535.8740234375
506,2891.5923,133.63387,1648.7144,-7070.553,-1443.518,-359.21075,12741.2626953125
507,-1767.6782,-6489.02,-127.96415,1606.2611,210.34114,21.608276,6371.478515625
508,-1235.3478,-10212.349,-1727.923,1177.2693,-407.00928,305.115,9018.951171875
509,7312.0464,-1811.3926,4785.6733,-3078.8728,782.13477,-4201.748,12239.6123046875
510,-7764.215,1124.9564,-2414.512,5217.563,-403.2451,-505.98724,11958.5546875
511,-661.0578,2147.4316,196.81131,-396.84387,486.64792,600.6656,2911.96948242188
512,-422.4651,1057.9497,1136.0646,6262.3833,2515.82,-690.3008,11848.3466796875
513,-2658.673,2149.3396,-781.4659,755.7858,-127.886284,-375.04044,4449.71044921875
514,1804.4374,430.10178,778.0925,-5653.0693,-956.17065,520.0079,10047.7470703125
515,-505.4578,-4717.635,798.6662,-2289.8257,-261.47482,40.341335,6393.455078125
516,12538.639,8515.863,-7892.492,-10799.382,1406.548,940.2888,26643.7890625
517,-5331.676,-857.9398,742.397,1693.681,-450.62976,-296.62,6262.083984375
518,-4672.757,-595.6735,-2079.845,-1544.4158,354.66333,1270.0281,5014.60009765625
519,-2011.8531,1942.7936,2352.8176,-1880.9261,-342.30792,-325.94937,5358.42822265625
520,-8069.376,2382.295,1409.6469,-3916.6226,-1900.442,1057.1847,12658.0185546875
521,1429.6495,-271.49484,-1345.3956,-93.96796,318.9326,-112.6963,2498.751953125
522,-5573.3394,-549.71954,-593.66644,-1312.8839,1894.1306,-1093.4429,6673.75048828125
523,-1816.3077,1257.1605,2053.9167,-831.8909,1669.4443,-386.55063,4838.94189453125
524,-7910.5547,-2654.7478,-543.8502,-1679.408,-331.03186,181.88087,7215.47607421875
525,-7529.784,-5144.497,-2049.4924,-665.82074,-436.93906,-243.36545,4973.07763671875
526,-2100.9622,-3633.0122,-1159.7391,3514.3267,-1468.4104,-1736.0597,7565.5107421875
527,1386.6953,980.78986,3464.283,6094.2563,458.42886,-1922.6437,11334.216796875
528,-7341.039,2044.9492,1002.43915,4250.9917,-285.1296,-2175.2046,12167.5732421875
529,-5930.392,-3050.7275,-1505.572,2804.4043,-532.62836,-16.384432,6290.90087890625
530,-5248.035,-1817.3507,-3054.9644,6997.0596,-1327.9807,-314.03888,12708.9892578125
531,128.19514,-6781.1763,1587.7701,1345.7394,-156.5404,-528.04803,8142.33251953125
532,1923.8704,-5750.6646,1956.6284,2553.2988,1339.1787,-36.699898,9170.2353515625
533,1169.3491,-2600.5654,814.4389,234.44823,1207.7478,-766.5681,4393.62939453125
534,1840.1766,-4384.92,1170.7036,1649.6115,714.6253,626.6578,6775.41943359375
535,-2439.0913,-1332.9791,-1216.5016,-1705.0105,-1244.3523,1540.913,4674.99169921875
536,-1552.2765,-3173.3882,648.40686,565.46045,1052.2327,973.71454,4261.89404296875
537,-1322.0625,2386.281,1202.9556,382.70688,-198.73318,820.581,3652.64721679688
538,-2013.6626,-771.382,780.3297,76.17166,-671.9777,231.74333,2722.4833984375
539,-790.3289,1787.5736,-65.638695,-1652.9277,-91.901596,244.05766,3701.77221679688
540,-4657.0913,-695.7188,1129.2476,3873.1519,1113.5707,689.314,8740.814453125
541,-7648.111,-851.5433,3647.2935,3392.898,1122.6039,-18.107553,11632.9912109375
542,4017.5283,-277.21936,-1324.9392,1195.422,515.37836,110.60209,5400.26953125
543,-6442.0317,496.99384,3408.6575,-3902.1213,1811.0383,725.6506,11572.8515625
544,1984.2394,-2380.0222,-791.3495,-599.72,692.97406,-231.44992,4161.44384765625
545,-324.31317,-3403.5427,-584.2195,-999.9325,383.1623,-293.2502,3528.01879882813
546,3795.1816,-1904.5033,-640.72125,-2727.7605,-615.8034,79.83531,7096.4208984375
547,-6634.597,-2425.9553,1101.134,3160.9756,2766.852,-769.52496,9985.7646484375
548,911.36694,1352.2028,270.52805,487.21805,569.8356,-1891.3306,3647.62817382813
549,1678.8378,-2103.687,-67.46496,1126.8164,-39.876854,190.89946,3830.7802734375
550,-5926.8164,-268.48926,-1012.30554,-513.20624,-1758.4146,458.17606,6249.572265625
551,-820.3261,415.70697,-633.98334,-3876.599,901.7232,-521.4443,7047.78466796875
552,-3373.9565,-7039.772,-142.01312,-5789.822,302.26984,-962.1806,11804.6162109375
553,-471.24973,2012.1304,477.60898,-1832.7196,-410.92157,1215.7805,4441.69482421875
554,-2506.8591,1286.3223,1171.9939,-2080.0034,-488.70535,684.3597,5391.51318359375
555,774.938,-751.8923,1492.1283,-529.1224,365.16394,1159.4132,3035.3359375
556,-993.2297,-199.94443,-1030.5565,3314.3362,676.7261,-827.325,6086.21826171875
557,-1442.7206,1240.0656,1252.4027,941.1927,956.9271,141.03368,3562.99365234375
558,1444.567,-5807.5947,1034.0807,2270.492,474.4614,-542.3124,8173.64599609375
559,-3267.8198,-4276.731,123.41314,2938.77,-425.72662,1177.8367,6823.08935546875
560,115.73972,-181.64714,1209.4507,-3908.0227,-237.9479,-361.73807,6927.4990234375
561,1797.1437,-2949.793,-641.31177,-924.6405,-829.22906,-1128.7545,5035.30322265625
562,1561.276,-1136.2798,1302.7268,-106.49634,-199.1757,-1335.8016,3486.02075195313
563,-1038.6392,4698.182,208.2397,2143.1206,394.8884,-362.95718,6477.2392578125
564,2609.2126,-588.56116,-412.50592,184.88625,-55.815857,-659.35657,3333.15405273438
565,1305.103,-1008.8568,-601.4316,72.1507,-331.17133,760.87384,2580.51684570313
566,1356.0477,-590.3653,-839.40753,-1329.8046,25.685389,-208.43028,3126.13720703125
567,-1491.1669,490.82663,-1922.681,891.0305,-1522.1501,-957.1568,4129.26611328125
568,-1618.5951,3464.979,1300.9597,-653.77893,-599.95245,806.41327,4882.3935546875
569,-1417.3407,3041.7617,281.31543,-1283.0872,1001.517,-1397.2866,5385.14794921875
570,1521.4113,2046.4076,2027.5446,-3436.2397,603.00226,-555.32294,6140.46337890625
571,-1137.9475,1947.6674,5576.7524,6853.234,1124.5842,-390.7335,13380.6484375
572,342.6048,-8790.758,-3351.4207,2116.4895,1723.8658,869.6248,9378.044921875
573,5235.451,-475.3101,2604.3223,2833.4922,-460.01996,338.38315,7040.90087890625
574,10085.6045,-377.98306,-2119.2056,4161.6294,279.76428,-1304.4482,13712.5859375
575,-5298.9497,278.50882,-1195.027,-3769.4326,-594.07935,303.55026,8307.939453125
576,20094.389,25986.21,16523.418,-2784.3232,-7841.8774,-2494.3547,17173.02734375
577,16043.115,-2794.5696,-9581.877,-712.2241,6038.491,-4486.234,26458.908203125
