Element Label,S11,S22,S33,S12,S13,S23,Mises
1,-9851.381,-32705.156,-37366.223,847.91736,11340.168,-5174.661,33448.91796875
2,36140.496,23818.258,49262.062,5298.563,384.1516,2575.645,24295.453125
3,5834.484,-3851.1958,-22976.037,411.0202,-986.2528,-1213.4152,25547.037109375
4,17163.629,-565.0237,-4894.9033,-2920.567,1973.8688,637.78827,21173.421875
5,18231.652,17305.014,10807.453,-8450.787,395.73083,-160.75795,16244.7705078125
6,19481.645,26450.498,36421.836,4593.897,2933.8567,4561.257,19210.171875
7,15686.152,17237.824,7949.716,5904.33,2899.1917,1114.2892,14414.87890625
8,5607.962,-3384.8818,-16489.775,2348.0474,-2108.274,2988.7854,20667.189453125
9,16652.637,9047.487,3487.2139,4716.866,-2902.3281,-4904.2837,17181.810546875
10,11922.14,13640.194,-2720.8887,2488.9636,-407.73352,2511.6013,16749.193359375
11,-401.78406,6979.9004,-12617.752,1922.9789,1031.9934,112.62391,17556.201171875
12,-1566.4614,3158.8936,-19186.412,3489.2537,-1324.8387,-3959.3423,22469.34765625
13,14604.875,7102.017,3005.7778,1859.3282,1670.8574,-4203.4287,13249.8525390625
14,16022.57,9867.176,-613.49316,3920.7834,-1538.3296,184.13164,16296.154296875
15,15286.701,19812.969,10108.918,5799.4536,2338.9746,3206.9822,14795.275390625
16,21658.709,34284.617,50587.832,3813.252,15478.39,-5092.2407,38356.33203125
17,-21952.227,-3657.407,-33129.53,4328.5776,-12291.913,2623.326,34557.89453125
18,24960.756,11043.551,23240.746,108.940926,639.70123,-233.20091,13196.048828125
19,-43152.496,-36550.42,-69244.02,10608.242,3842.0151,-122.39949,35756.7578125
20,915.9279,6837.93,-31250.348,446.56906,1314.1543,-589.2947,35595.6328125
21,12925.377,-8119.415,-19759.707,-149.55396,-3250.969,-2177.1365,29484.580078125
22,11488.353,12881.97,12091.654,-754.8495,346.36066,-395.5088,2000.98522949219
23,-203398.86,-203221.52,-235247.72,-2773.8518,-5998.0474,111.01801,33927.5546875
24,-34387.07,-53455.91,-72379.836,-1922.2538,-6632.47,-5006.7925,36067.3125
25,21069.34,-11796.792,24588.098,-5183.731,-7888.0664,-2293.9321,38617.05078125
26,8235.218,-11740.224,-16425.824,-5602.7905,16778.848,3230.1467,38530.95703125
27,33660.566,15135.238,19411.27,-2294.2014,-15286.534,-3052.651,32047.4296875
28,16648.643,9177.886,1135.4155,-558.30676,-13953.55,10005.078,32648.451171875
29,25258.25,-2483.776,-6818.7646,-5442.763,-5988.732,-3978.861,33950.453125
30,16655.58,6158.545,-852.9131,-1460.0688,8428.747,-4728.98,22793.953125
31,14448.819,12499.11,21782.477,1426.3036,-12291.014,2462.165,23438.83984375
32,16806.459,6862.5405,-577.52783,-2898.1392,-13746.678,-11695.75,35081.3671875
33,18550.285,4374.8667,1310.5615,-4327.6284,-13100.187,13674.917,37226.46875
34,17446.36,-4263.4717,-22350.912,1930.2805,1432.6666,-3128.3625,35182.99609375
35,29463.492,8125.967,28573.959,-7999.961,3454.3818,1928.4961,26001.046875
36,-7750.998,-14781.562,-46806.27,-4813.392,-6357.6436,-2280.6157,38814.05859375
37,28188.812,7260.3564,15266.498,-5347.4756,12909.052,6446.1245,32325.1796875
38,-1095.1305,173.86826,-11088.34,-2580.6118,-17828.264,7139.074,35221.79296875
39,-24361.695,-28144.125,1378.1367,-9832.24,10228.894,-2676.522,37411.3046875
40,29633.846,22544.63,54773.477,-9833.413,-4663.015,10269.291,39142.9765625
41,-2044.6573,14490.098,33476.582,-13335.296,2992.2617,3025.9778,39187.2734375
42,34966.406,34224.08,35513.375,-496.7554,-659.93054,483.345,2000.986328125
43,812.2839,-8371.824,25819.172,-7987.0264,6367.1533,397.6052,35395.37109375
44,-20565.348,-8818.688,-10886.1455,4860.8267,-735.23663,-7022.3584,18396.13671875
45,-6362.46,7802.0405,-7695.093,-2790.0022,9545.993,25.877575,22759.994140625
46,25010.775,34793.03,33612.633,-1232.271,-3383.3127,-10863.255,21873.859375
47,-2522.337,20359.21,391.69336,6729.3926,7693.2856,-10505.389,33314.90625
48,5800.4287,8676.054,1358.8325,9461.835,10821.023,-16964.143,39038.1640625
49,19136.672,20391.139,17081.473,3040.2122,1520.3333,-13395.889,24111.9921875
50,8191.1504,10740.327,4693.1187,-2891.6216,-12340.588,-14748.158,34090.0390625
51,-8751.44,16337.233,-4729.268,-6124.4194,-4931.298,-4873.5366,28309.736328125
52,12173.827,12428.685,2024.6079,-1532.3213,-12829.729,-18062.2,39815.03515625
53,5247.336,21200.943,2710.3247,-1639.8594,4450.609,-10540.377,26499.40234375
54,6156.0815,12856.826,-1693.1665,3780.2798,13281.011,-13929.788,36238.80078125
55,-19426.982,-13402.007,-12289.392,2561.1191,-10999.066,-19313.951,39318.49609375
56,-44772.906,-13295.465,-49304.617,-76.606255,-5015.0483,-7443.8774,37359.28125
57,23089.318,12190.901,4052.5017,-10670.781,4566.4097,-14863.467,36614.5546875
58,-14055.264,-17347.03,-20816.643,-14240.375,10211.913,-5382.3936,32286.52734375
59,9789.79,6580.0264,5271.4194,-17017.674,-5514.486,4161.79,32065.701171875
60,19431.787,7028.314,-21907.883,-999.0268,-5876.0215,-2902.2769,38495.52734375
61,2336.5542,9729.756,13580.777,-10485.594,2056.1965,6618.939,23914.830078125
62,11289.789,1703.4327,-11002.842,6429.8296,-4039.9087,695.28436,23443.453125
63,3769.129,-2611.3755,-11420.788,-2510.5085,6674.067,1741.1936,18334.607421875
64,14257.283,6816.662,3261.75,377.4384,8486.188,-2513.279,18162.439453125
65,5019.904,-6448.7983,-19194.604,-981.41266,9236.849,1130.5405,26511.251953125
66,9343.358,10092.314,-13289.259,1665.6083,-3372.5024,10984.885,30564.591796875
67,19191.46,-6259.255,-21013.256,3400.3394,-2066.84,-8429.478,38750.35546875
68,27926.535,13630.777,8348.26,-3891.1057,-4080.0857,2044.1881,20388.49609375
69,23963.992,10342.729,3431.0957,3245.8425,10539.29,315.85178,26317.111328125
70,14853.232,683.8884,-7252.5693,9119.085,3059.7705,5848.4844,27502.474609375
71,5846.801,-8457.852,-25344.9,5851.6025,3387.8215,-4264.705,30382.193359375
72,34123.566,16759.916,-2499.4473,563.0659,2770.2961,-5303.5117,33394.4453125
73,11383.383,-16508.783,11238.614,12844.245,2257.7366,-2328.8826,36061.65625
74,-5681.0913,-20211.027,-37029.37,7641.395,-4375.1567,1985.7706,31349.22265625
75,29290.74,4373.6177,15956.627,-10552.469,-7386.5366,2157.6885,31275.02734375
76,31375.195,2766.3628,40899.895,-6779.357,-5712.682,6300.4375,39198.79296875
77,-121688.414,-120789.945,-121113.086,-343.456,-716.45654,676.7157,1972.05029296875
78,209100.33,212619.48,230535.34,15102.476,4170.002,11182.935,38833.05859375
79,-21257.387,-26268.674,-36034.953,10199.235,5966.6367,4318.489,25382.244140625
80,18725.215,22347.15,24747.37,2300.967,-461.67975,813.20984,6788.19775390625
81,15722.446,11995.817,11842.966,-2544.7485,-9330.244,6440.1665,20481.591796875
82,-3197.8862,13260.608,-19666.857,3941.245,2891.13,39.44211,29746.330078125
83,-1371.6018,11513.748,-19385.188,8146.781,3536.3186,7029.304,33279.01953125
84,-6815.2954,10072.185,-7624.655,-816.2318,-4454.697,1893.3331,19282.009765625
85,1394.562,10846.818,-16915.12,660.4558,5267.6978,-3635.9695,26867.689453125
86,-1767.6562,26189.82,-15452.141,1406.0626,2843.1836,-4327.2593,37918.6875
87,361.61133,31865.234,-3208.0107,-8048.697,-743.7163,-424.2142,36252.17578125
88,-4884.2188,19795.621,-10306.47,-2272.841,571.7415,5640.8013,29736.3359375
89,32796.355,14686.983,17865.309,11589.375,-6804.4526,104.53883,28676.9765625
90,-9901.035,5054.33,-18070.062,16987.215,-8117.3804,76.35962,38418.17578125
91,21110.387,25278.09,31884.959,4502.198,-11523.402,5623.5645,25349.658203125
92,12698.058,5000.3047,-2651.1792,-2225.4646,-19547.11,9173.359,39878.2890625
93,-14609.87,-12244.469,-31355.432,-3640.4807,-19324.6,-2176.9749,38728.75390625
94,58729.273,47164.094,78780.766,-6050.231,12381.776,7588.2397,38861.29296875
95,-590.0056,8551.697,-14464.156,-1955.0426,762.56,-711.63464,20435.912109375
96,-5352.284,8310.877,-19452.426,4134.388,2136.5667,1917.5743,25576.43359375
97,18178.3,-5637.585,2239.9556,3193.1877,-601.0391,1522.6356,21915.05859375
98,-1288.1796,20799.795,5093.2104,2742.6577,3915.593,-14811.073,33381.3515625
99,2940.151,-3831.9275,1807.0867,3965.4102,-10286.124,12729.626,29836.021484375
100,10522.32,3514.648,-1147.2637,-2205.6672,-5993.7637,-11326.902,24713.896484375
101,-3723.641,651.29956,1432.5688,-2002.3679,-13619.07,1129.2427,24402.04296875
102,34967.48,18097.008,26765.299,-417.23868,-10791.947,-3148.6294,24355.208984375
103,25014.102,1724.9961,-150.20996,-5281.646,-9741.043,3484.026,31533.111328125
104,3516.2546,-5357.4556,-14775.041,-6400.453,-18368.107,-39.205833,37229.9140625
105,-54408.535,-20913.998,-22683.455,-2147.364,-313.36456,4454.955,33755.234375
106,2175.7444,1588.1503,2961.6528,-8.596934,528.0307,762.10565,2000.94982910156
107,-3596.2588,-9369.24,-32359.896,-2645.952,-14980.972,-2272.8271,37475.47265625
108,100179.08,100167.375,101546.05,258.03943,560.17834,-550.32196,1983.54565429688
109,11257.027,12690.133,-12728.388,-4337.3726,3947.5,-5439.06,28348.974609375
110,4180.8833,-1007.6826,10314.128,-15382.657,7657.4385,2080.0193,31545.64453125
111,13675.919,3690.1582,-16829.049,-5260.8887,498.77335,-3120.5107,28959.3359375
112,5153.788,14994.569,27663.781,5578.7383,6282.4053,-3287.858,25024.541015625
113,9036.875,15060.544,-3509.2715,4885.349,2470.7188,-5061.8726,20881.693359375
114,15980.54,16246.66,-5738.4326,3974.1665,4486.2407,6024.5576,26347.892578125
115,20723.027,15165.245,3285.872,5168.703,1295.0374,4370.6587,19506.8515625
116,-961.2461,-14345.713,-33441.434,-5358.892,3828.0527,14544.737,39549.20703125
117,23117.658,2427.83,40347.3,-4680.2007,-4612.389,10727.555,39448.50390625
118,-12158.51,-19348.719,-44632.25,-1049.0599,-6912.2373,2298.9177,32175.203125
119,-719.1518,25010.232,29209.596,-7236.3594,-8566.589,8991.809,37516.59375
120,15093.174,2657.5461,-8500.961,-3848.4004,4866.865,-3838.2886,24033.4609375
121,24903.887,12512.931,4219.8623,-1883.9587,-17744.355,-7799.206,38246.3984375
122,2278.371,7261.3184,-10207.265,3540.1316,-14898.896,-8199.515,33884.52734375
123,18557.451,9928.693,-14934.758,5721.583,9140.547,5112.8467,36530.390625
124,12771.772,12110.571,10133.829,-1378.1615,882.0334,1159.9047,4209.48876953125
125,-6422.3086,-17553.873,9155.283,-4009.1172,-738.9053,-3652.377,25096.865234375
126,-3692.6384,12029.537,-5800.1226,8768.56,4435.9585,-11312.085,30957.203125
127,10520.563,8594.776,16098.978,2315.8113,4320.41,-22092.826,39773.55859375
128,1720.0286,-11247.766,8805.117,-13785.378,4308.377,5464.7393,32025.404296875
129,-41815.816,-24081.734,-49688.58,-18041.553,-3828.2585,-1969.4375,39347.04296875
130,-11000.69,-5543.6436,-27491.01,4138.4146,7271.091,-8281.878,28415.7109375
131,11339.562,23575.389,18634.234,-855.53925,-6795.7524,11072.762,24944.580078125
132,11569.872,25654.496,3859.596,-2742.948,7459.0635,6476.284,26110.00390625
133,18703.592,21415.225,30371.217,11355.671,-3257.0051,-1281.814,23139.90625
134,-2008.6084,26619.832,-15339.089,-2518.0618,3368.877,-7287.052,39891.01953125
135,4123.4473,24170.107,10895.349,4169.1494,-4603.1562,-7652.587,24563.6328125
136,1799.8394,860.2717,2936.4636,257.29733,413.6627,-128.25577,2000.98522949219
137,-9888.049,148.74551,13011.756,5687.8247,-9876.229,-8335.36,31518.345703125
138,-25721.668,2934.9502,-6495.987,2623.4072,2002.202,-645.34045,25957.814453125
139,20979.123,7086.0703,-13181.578,698.74445,3476.3176,-4364.468,31308.765625
140,24363.621,11510.695,-15845.193,-2755.9548,6485.2773,2591.6636,37871.59765625
141,11856.34,10493.081,-11802.943,-2991.841,-2458.4148,-3509.496,24724.498046875
142,23325.004,17827.762,5190.2334,853.0215,2314.8765,-5520.7095,19211.765625
143,1932.9414,-21753.148,-24361.541,-818.9009,6104.462,126.01904,27266.646484375
144,19978.723,14736.571,1970.8975,-2938.818,3991.1326,-986.7968,18275.142578125
145,6706.594,7616.9575,-10287.673,3245.0938,-1988.6143,8064.0293,23316.220703125
146,25388.447,-4401.4653,-3033.5874,7462.914,-3936.6326,2357.8186,32845.32421875
147,4443.552,4232.0107,27383.107,-212.29318,12796.763,-4512.8096,32918.4375
148,3268.82,8605.1875,12930.22,-15985.833,4692.741,-8660.684,33585.578125
149,7831.5913,-3050.8853,-2302.2322,-4801.224,-1186.6395,-953.198,13672.8544921875
150,7509.1504,7019.1226,5992.7163,2562.4119,-5938.9536,-20116.81,36624.66796875
151,16233.03,6061.354,15108.28,1611.7867,10679.351,-15303.432,33849.83984375
152,15154.919,32495.041,39151.133,2651.5264,6169.828,-17407.016,38790.53515625
153,-24779.922,14974.826,3589.6309,4106.3916,43.2504,-9408.8545,39668.875
154,5828.932,-4900.4204,12559.688,-3462.5715,-13957.522,-9546.333,33562.50390625
155,18186.572,15487.863,19261.625,1670.8739,-13120.308,1440.66,23288.82421875
156,270.2638,15195.69,17077.537,3764.6719,-15320.657,-10071.19,36129.8984375
157,6442.5103,3853.1223,-22715.207,-3989.7163,5474.2476,2051.074,30522.994140625
158,-20510.545,-25944.697,-41135.973,-6137.6323,-16296.986,-7300.287,37583.5859375
159,-15482.807,-12015.554,-27963.586,-1360.0375,-20428.078,333.2763,38325.80078125
160,10138.035,29527.756,-6014.7305,7930.3794,4918.044,-10144.21,38987.43359375
161,3467.5195,16900.633,1981.5465,10395.269,-7976.0957,-8186.6274,30310.388671875
162,-11578.683,-563.8891,29224.395,-7505.46,2993.2463,-3126.496,39521.875
163,2640.038,-14888.983,17468.23,-12184.623,-4933.3047,533.7784,36143.16015625
164,-10025.207,-36665.754,-42141.73,2113.4983,3318.984,2387.9265,30808.15234375
165,12766.302,22825.299,7196.938,-5036.675,-9795.532,-12846.785,32362.08984375
166,7541.9463,12959.859,-21609.117,-3880.314,1037.2224,8903.491,36377.0625
167,8383.384,20749.98,1154.2264,5304.768,-984.7415,-2818.8977,20143.556640625
168,152914.39,147691.19,152902.75,570.22485,-1653.4432,-3095.642,8071.38671875
169,33284.41,32678.52,31994.355,215.43962,779.73987,516.31055,2003.16455078125
170,10239.4,11704.773,10853.2295,-181.96146,-464.16736,737.8174,2000.85571289063
171,-2320.416,18457.094,-3116.7903,4742.3755,-5143.3,-15450.045,36219.171875
172,651.5585,21322.328,-19557.592,3391.5798,5622.8765,2661.099,37470.41796875
173,16245.768,19284.062,17274.877,2548.4001,3837.1912,79.21743,8416.50390625
174,-82774.91,-83097.1,-91575.734,-18040.67,7358.046,10348.638,39176.84765625
175,3587.1038,-1928.3762,5983.1743,-1608.6614,-6750.8037,-5155.7114,16541.0
176,333.09503,18324.666,-21564.12,3092.0288,-215.1978,3731.0786,35605.24609375
177,-1846.2488,12887.942,-18929.217,3501.961,3254.5469,-4798.4995,29971.1875
178,1984.9164,12389.776,3054.5796,4611.261,2209.5498,12515.216,25428.427734375
179,-12035.896,13431.095,-30905.457,2958.1438,707.91846,2746.3914,39186.25
180,-14936.031,6180.452,-5954.1387,-930.414,11211.741,9211.174,31163.40625
181,30389.459,40063.965,72739.305,-4393.8345,1100.712,-516.47876,39239.5703125
182,10350.247,3263.672,13524.642,286.94736,6485.4473,-3002.368,15370.90234375
183,14757.635,11365.277,3659.822,3470.4927,-5523.7896,9098.291,21749.2109375
184,3340.984,4257.1846,5568.459,238.4914,-94.05791,-122.068695,2000.53295898438
185,33655.85,33768.805,35615.688,220.29497,210.86917,175.96623,2001.05603027344
186,-74037.24,-64738.215,-54984.797,12317.261,1354.2012,-6042.8257,29025.712890625
187,8605.113,-4891.2314,10805.317,9151.466,10719.101,-5665.2456,30148.255859375
188,-21501.059,-28115.623,-4162.1406,-14757.256,-2673.0767,-1069.3035,33723.5234375
189,-17970.951,-35348.664,-10302.243,10680.007,2344.6094,-7707.6436,32108.58203125
190,27207.764,10766.3125,1512.9304,-4758.9546,4811.697,2756.788,25851.21484375
191,9214.64,1313.1165,-19280.342,10865.513,-255.18245,-4753.3364,32732.251953125
192,21720.373,2871.5793,-13360.347,-1898.585,7740.2593,9411.695,37161.71875
193,14411.908,8004.935,-22711.57,3968.1853,2622.9495,5383.687,36553.85546875
194,23226.58,1362.3356,11977.01,409.72678,-4128.6816,-1213.0857,20363.96484375
195,31365.729,5176.423,-3693.3564,1087.7289,5955.1387,-3017.7993,33676.515625
196,22546.396,6269.9995,-3742.3306,-5229.5737,14343.928,6558.0254,36829.95703125
197,15185.7705,8336.701,7475.68,-5052.4575,-8796.4,-7838.212,23378.8984375
198,15814.409,-1027.0437,2632.6853,-2245.448,3107.5417,7964.2207,21674.31640625
199,10464.757,-11564.158,-16522.082,-625.37225,4478.927,-2410.737,26417.0859375
200,19858.154,883.5951,-1478.2493,1510.8168,5075.0024,-1709.618,22434.576171875
201,13143.271,16181.525,-11335.291,2146.4897,847.7954,-15004.899,37070.5078125
202,8517.392,4864.251,7976.8076,10468.846,1277.7993,-1403.4855,18741.94921875
203,26068.46,18361.844,20295.66,-20101.709,7425.65,-4056.8198,38409.09765625
204,16707.844,-6074.6694,-20383.223,-7072.75,4835.654,2371.5474,35872.79296875
205,25460.676,1453.6901,-12028.547,672.6784,5005.373,3627.0398,34608.65234375
206,-17117.959,-12529.763,-51886.3,4909.6025,22.701168,-870.51373,38262.26171875
207,22211.404,3638.676,12285.134,1243.7804,-6659.754,-1976.8901,20212.40625
208,-25814.404,-46264.793,-32223.885,-3383.639,7820.3315,2864.9146,23888.625
209,-40727.867,-40906.074,-40837.4,2317.7783,7440.5796,8266.699,19678.46875
210,-36438.0,-53269.96,-46081.69,2803.8909,-2575.5122,14089.725,29206.84375
211,2373.2651,2839.8093,2416.8213,347.53754,596.5871,-889.75946,2001.08740234375
212,39621.605,39690.402,41419.53,-29.380419,516.0784,172.04668,2000.99450683594
213,-25448.38,-25689.873,-24250.246,-551.5846,314.42798,-571.82605,1993.35705566406
214,31606.264,32128.463,30592.375,281.87503,661.0907,-497.68008,2030.43200683594
215,57125.07,56402.242,57102.676,-113.81185,-1064.3704,141.20389,2001.0302734375
216,42516.688,78239.26,44997.918,3117.5532,3859.987,1068.4905,35649.734375
217,-201892.77,-200560.78,-194611.08,5977.97,-599.6103,453.91043,12409.80078125
218,-20712.91,-11823.306,-39967.316,-4541.4165,-5515.1655,13815.338,36696.546875
219,-58997.61,-52037.887,-88374.79,-3323.886,-4745.365,8204.575,37663.7578125
220,-5112.909,12007.966,-17722.664,-12491.661,-9988.768,3307.0781,38318.16796875
221,50512.57,88448.59,73008.41,-2357.616,1481.2156,-6393.5386,35180.83203125
222,-786.4316,17060.016,-18976.746,54.305923,4839.5225,-3254.321,32803.34375
223,6719.4214,14578.608,3287.5723,863.29626,-5687.955,19364.553,36397.36328125
224,12150.833,15904.554,-2915.1943,723.1326,-7047.259,17550.877,37044.42578125
225,36650.703,33280.055,27954.855,2615.9841,4917.73,-8945.464,19769.033203125
226,15777.143,28490.758,31720.557,4430.166,-6610.9927,11198.327,27916.525390625
227,21586.523,38862.996,16077.734,1131.7235,-5122.7295,9336.327,27714.0078125
228,21656.25,21285.098,31775.277,8245.331,1317.5953,1617.5566,17980.607421875
229,16264.348,11778.646,-10127.41,-6971.93,4239.731,6407.904,30351.17578125
230,-6574.404,-6457.6724,17874.973,3815.713,1654.299,7516.7305,28571.392578125
231,12739.294,474.9594,-2386.9495,4856.3877,6198.731,1329.8438,19622.32421875
232,14240.948,15127.277,15485.126,2700.8396,19927.367,6813.366,36792.39453125
233,3440.0283,-2964.9783,9306.014,7867.0,15362.928,6237.7363,33518.07421875
234,303.89304,4287.36,2393.6125,894.3334,15504.922,-13706.749,36043.625
235,10342.242,23841.043,19260.963,5418.35,16276.497,-6000.457,33648.6875
236,-4997.4897,1556.7288,-3274.8518,850.15594,20794.36,8345.572,39280.58984375
237,13084.756,-397.1725,-17539.37,-6984.538,-386.08212,-4644.0815,30302.28125
238,7380.842,5277.024,4904.767,3890.758,6957.95,-5932.1,17365.783203125
239,2235.428,9252.086,9888.817,4597.4746,18992.777,-413.94647,34644.015625
240,13077.031,13207.778,-13789.392,3406.9773,2084.9456,4292.1353,28783.072265625
241,10544.375,9695.206,-4686.9116,4015.345,-5772.39,5092.212,21116.380859375
242,6827.5234,11449.3,13481.078,-1117.5267,18116.365,2075.6328,32189.419921875
243,15750.249,15267.54,13711.838,-196.1088,14793.665,10876.782,31858.912109375
244,9190.706,8118.496,-8381.282,-564.40436,12447.608,8830.257,31476.791015625
245,24092.17,28774.01,26915.818,6776.771,15973.168,-1459.4767,30434.5703125
246,5149.958,7546.546,-619.5119,346.47382,17474.021,8798.188,34662.17578125
247,32574.615,10751.058,4235.308,-4499.703,5134.8247,6470.046,30435.919921875
248,13127.479,6868.996,-8741.933,-284.7548,11296.762,-7360.7056,30433.6015625
249,8854.558,4303.059,-3834.9246,-8845.156,12739.087,-1450.8287,29186.658203125
250,26062.725,14994.567,-4441.9624,-682.73883,-15460.266,-3230.8894,38277.7109375
251,20637.834,5157.8384,9885.73,-4641.762,16945.875,745.9164,33415.42578125
252,-49008.66,-33351.39,-60898.613,-9619.675,2293.0579,-13684.561,37787.2421875
253,12975.881,3191.7095,-510.38354,-8272.305,9974.028,-7682.241,28747.951171875
254,-174050.98,-179137.8,-206669.64,1326.8667,267.53976,-6043.1904,32233.28125
255,-53196.156,-82847.09,-64930.312,-4050.905,-3557.9612,-5375.1895,29031.439453125
256,-25229.826,12632.281,-1901.6558,313.21716,-9723.155,3285.6777,37560.48046875
257,-22126.066,1054.2306,-2960.7021,-2938.3044,1979.47,-3981.1943,23357.7421875
258,-6894.9424,11336.918,3144.144,-11237.803,-1763.6866,-11121.329,31771.072265625
259,4698.0557,26018.227,-10929.971,7805.3877,-2314.2896,-1031.5028,35128.46484375
260,-9738.797,24682.844,1530.1548,2648.6072,-785.40533,4333.7446,31673.060546875
261,-7415.17,22380.406,7484.368,11371.749,-785.22253,-1982.0961,32671.365234375
262,-10429.874,10143.683,-16404.672,-1816.4111,504.0972,-10666.535,30559.412109375
263,3098.7932,20377.47,-5391.7656,-2218.966,-6192.928,2209.484,25725.8984375
264,3377.6833,18691.87,5614.6533,-1268.4727,3185.719,8318.939,21169.7578125
265,-2564.2761,13030.296,-14433.976,7351.8115,7342.8213,4107.199,30719.521484375
266,4343.921,16983.447,3691.2512,5018.8433,-1447.1738,-7929.5205,20950.28125
267,916.2203,24993.203,-689.0799,1570.9192,9764.752,4244.4897,31119.615234375
268,-1686.4846,20485.297,-12686.183,4087.5938,-2083.5393,-1315.9227,30410.654296875
269,-24224.742,13923.902,-8332.382,-632.1479,-5923.2256,5303.3223,35950.55859375
270,-29167.943,2995.3142,-4853.546,13350.676,2415.3535,-6483.9707,39012.61328125
271,-33729.99,-19037.746,-1999.6278,16119.652,1575.3723,4035.7656,39903.9453125
272,6897.145,-25605.549,-19496.686,757.00385,-13138.395,1078.7291,37659.67578125
273,-66598.29,-32017.082,-64555.71,-6401.4995,-6974.307,-2144.2422,37577.265625
274,10013.136,-16510.594,4470.598,13842.342,-2405.8567,-690.065,34363.40234375
275,12546.484,37231.277,14466.964,-5423.8716,829.72015,0.9711436,25611.345703125
276,5892.442,15610.119,17775.03,3814.4275,-8971.539,-7355.0474,23823.5859375
277,-7216.3545,10067.526,10958.155,13887.488,2107.8345,-6417.439,32099.62109375
278,-188547.62,-189846.39,-202824.23,-1924.2482,-6150.994,-4803.2583,19513.908203125
279,11594.371,7244.786,596.2922,13097.042,12189.335,1989.8491,32622.923828125
280,10487.795,4051.9639,-18144.734,-4689.517,3956.9287,-4434.221,29135.90625
281,23839.395,8716.627,4445.295,-4356.4927,11269.614,-2537.7075,27727.357421875
282,3101.0452,973.9583,-23913.281,-8052.6426,-590.0275,-5980.6265,31300.474609375
283,20186.236,15229.998,-469.4952,8127.723,4556.1826,1160.6581,24765.830078125
284,4267.221,8641.0,5576.8384,17118.621,-738.1051,2387.4143,30215.76171875
285,16609.127,-4855.5303,-15708.611,620.6261,10277.709,372.7748,33614.65234375
286,25164.47,19074.14,47398.71,-5543.31,-1418.8102,591.50146,27679.251953125
287,21934.791,15900.797,3512.7915,5500.5664,-415.78406,-1834.8613,19131.345703125
288,15213.81,-5739.482,-17699.824,-2695.0078,7237.973,-1759.2545,31952.115234375
289,7188.032,2648.9832,-17064.354,5213.6733,-90.32834,-683.7645,24117.890625
290,18121.434,3871.0237,-8154.5254,12102.236,-494.133,4020.2244,31743.794921875
291,9278.976,-10761.369,20094.008,7223.673,5075.4077,2854.5042,31521.193359375
292,16880.582,7623.3467,5436.151,614.2023,5804.3965,-9521.588,22020.771484375
293,3784.2632,3504.0552,-2331.3337,9481.758,10645.553,-13959.06,35071.7265625
294,3039.9421,-5368.203,4718.475,-7681.2915,13907.93,4301.0186,30007.037109375
295,21627.645,-2896.6702,-12307.832,2727.2708,2712.6204,1673.5725,31202.65625
296,199350.53,199252.44,200708.19,26.305649,-3.1937664,819.7195,2000.98901367188
297,-605688.2,-602770.2,-602646.1,-814.7207,-2241.8167,-752.0959,5259.05029296875
298,-36758.83,-29894.543,-64203.637,-1004.0176,2998.8586,10338.002,36597.1484375
299,14741.946,27384.166,1417.6284,4451.8716,-295.78055,14208.304,34222.2109375
300,-31061.07,-37324.918,-37878.22,1019.3201,-1207.6737,14600.092,26267.626953125
301,-249.927,20262.738,-7756.4395,1622.6287,1318.6709,5886.7026,27352.71484375
302,2163.95,15344.704,-13632.487,190.59735,-699.3536,172.1012,25162.150390625
303,3628.313,29165.357,-4083.3613,8277.707,2216.379,-2838.7954,33956.125
304,-12824.687,9272.725,8927.78,3053.4858,-15419.146,9286.142,38480.0078125
305,-16126.584,-21770.83,-1306.9221,16031.854,-8018.353,4082.261,36729.59765625
306,-25480.203,-356.01416,-2422.6873,-8165.023,-2512.1636,6126.59,30250.84375
307,3527.385,11802.695,9013.673,-4128.033,-1448.9308,16551.932,30536.84375
308,-7538.408,23657.066,-3422.105,-2918.559,-8430.196,-6441.6562,34999.0703125
309,-14211.564,-733.3977,947.46387,-17794.338,8516.183,-21.813799,37076.05859375
310,12128.849,29270.344,-3254.245,3677.5598,-8797.749,6568.9053,34588.80859375
311,-79697.76,-75163.87,-76278.62,20399.197,7201.441,-524.44794,37703.234375
312,8336.339,-9866.216,29254.508,-10014.015,1689.9906,-470.57806,38206.55859375
313,-35168.9,-37473.535,-32206.016,21220.092,-5302.997,4797.564,39053.94140625
314,-21434.904,2348.446,9761.5,12921.296,6679.614,1556.9592,37932.99609375
315,31537.55,-11050.696,9259.772,2297.4805,5663.7163,5382.3213,39500.1640625
316,21376.266,-5985.085,-6571.535,8514.231,813.5883,-9111.284,35121.8203125
317,20487.256,7812.0947,-11906.836,-3269.6284,2470.0984,7119.9126,31652.669921875
318,6131.182,12768.898,-27841.89,-5150.096,-184.75424,692.51764,38792.3203125
319,25021.377,39996.28,50273.44,4974.802,8054.173,-4374.802,28461.18359375
320,25332.332,26610.521,30218.268,2613.6213,1318.734,8367.867,15969.8095703125
321,3274.085,3637.2837,2319.773,-160.96172,663.49066,-636.7438,2000.98559570313
322,106925.44,106896.48,105192.21,-236.39667,329.99744,-428.4872,1999.96655273438
323,-38119720.0,-38121490.0,-38119560.0,-123.62087,-264.01932,325.6114,2001.83349609375
324,35125.613,36609.99,35039.14,-742.2681,35.348682,44.378662,2000.43676757813
325,8356.213,42972.086,19155.914,8238.7295,3901.7798,6400.325,36238.7265625
326,12333.753,-17800.527,9866.993,-1857.2245,12329.911,8436.943,38984.609375
327,6540.251,16368.669,9980.434,567.62964,15657.505,2859.561,28906.59765625
328,5947.2266,1721.5183,-5337.622,-2188.2441,7590.0044,11463.845,26056.994140625
329,11249.541,4293.311,-16158.037,7339.1235,-3944.7246,-4403.8267,29586.53125
330,-6632.311,-9867.533,181.67989,-3867.9182,9159.24,10174.92,26193.25
331,19449.717,-424.07098,-18650.559,-3866.6416,-1994.8568,5702.134,35266.63671875
332,13377.096,9341.68,-5885.33,-3130.7778,12833.543,-11294.642,34868.3984375
333,17271.934,-3706.2183,11336.374,-5907.8496,8614.4795,-2440.1438,26381.724609375
334,2906.56,-5375.0786,17690.762,-11837.458,13648.45,4685.297,38140.1171875
335,-10480.563,8693.219,-753.2564,-11570.122,-211.5146,-6414.336,28300.41796875
336,-4905.464,25272.25,-12731.672,5476.8154,-4697.6626,-7042.4556,38898.58984375
337,3156.5984,12655.138,3700.5208,-84.605545,8393.398,-2239.2485,17656.818359375
338,3462.0896,-16548.627,12282.757,6421.571,-6545.005,5496.2695,31584.62890625
339,17617.623,27503.129,21458.586,-1892.4008,-182.16913,7259.3066,15602.6298828125
340,-567.8207,14279.818,-17370.094,-2653.663,692.54205,4564.3013,28936.240234375
341,-21030.328,-20780.43,-42287.836,-12244.242,6803.1416,6406.761,34190.76953125
342,-12665.553,-23692.447,-43839.074,2335.0227,4070.7864,-7858.762,31638.34765625
343,4479.1157,12876.601,30253.025,-1345.8378,8322.811,9891.424,32017.78125
344,-5263.5767,-11095.74,16318.134,-7651.1274,3486.9883,1340.9039,29036.92578125
345,13881.777,3211.879,18719.77,4221.7197,-4406.203,-4577.8105,19064.5078125
346,-11391.23,13359.549,-2136.6584,-3169.796,-5906.7827,-5345.613,26262.712890625
347,16149.1045,9389.256,1005.16003,-920.6373,783.37823,15190.528,29483.9609375
348,-30726.777,-4573.642,10982.516,-8388.633,1465.6635,916.35443,39406.7734375
349,-50764.75,-79022.42,-54215.832,-14289.95,4291.8853,-817.0189,37185.453125
350,19953.664,20415.768,19383.232,-151.527,-863.79755,-545.9229,2000.98620605469
351,-801.2585,14758.195,-14617.455,-518.0311,-127.3351,14126.007,35319.1484375
352,-7261.239,-6854.008,4472.9204,14457.464,2404.171,-1266.1265,27969.302734375
353,-26429.209,-21704.994,-37513.277,-3592.11,7242.3804,11309.907,27880.9296875
354,-5140.3037,497.49,-5928.8374,-10116.509,2857.4316,-10420.213,26346.16796875
355,-52214.637,-57011.23,-40688.91,16878.75,-3100.6865,-4132.24,33850.84375
356,-8732.674,-39524.5,-6657.7173,4992.8115,-2812.6594,2480.9424,33664.76953125
357,2075.9922,-11016.368,30894.912,-215.63991,1439.7566,523.49164,37234.76953125
358,-19117.13,-51018.145,-16708.336,-2005.5105,-3442.5498,1098.079,33934.59765625
359,9993.799,-26576.016,-4965.1577,-7017.6436,1038.4233,-3065.0872,34543.2578125
360,13495.169,27458.355,6912.9385,-2865.6216,-1939.7408,-1596.3292,19333.21484375
361,-1578.9695,2627.7983,2923.2324,559.89215,-803.20844,-581.3668,4787.15234375
362,-11024.062,-867.25586,-5262.252,-2113.2686,290.38345,-81.32208,9565.986328125
363,595.46216,-10.945843,-738.3457,386.70758,-673.75867,61.965836,1777.62255859375
364,-2977.1313,1037.5254,-10185.328,-11183.242,3277.146,-1019.3654,22528.76171875
365,-8608.744,-14196.908,19250.326,-9213.952,-1078.6643,5516.005,36228.3984375
366,3192.6494,4343.7295,1165.0223,-101.59379,477.52582,1489.0862,3890.68212890625
367,51010.836,21840.914,44330.277,-8462.335,-1381.0333,-6291.933,32248.4609375
368,33513.27,-4342.923,18157.822,-4657.302,-843.75085,3601.2969,34549.92578125
369,28889.754,8857.684,24096.377,2926.7437,2338.735,448.80658,19260.05859375
370,-18026.129,-544.72754,-7975.1636,13469.545,2760.0493,-227.92429,28252.640625
371,-13189.779,-9513.18,-14907.465,-853.47437,-1688.5033,-3115.7766,7914.900390625
372,-3321.2744,-3282.0833,-5454.9795,-1874.8676,-578.6976,-794.04553,4251.9921875
373,-880.6884,2027.845,3.7636414,1367.624,-1104.8191,-613.95917,4131.98046875
374,-1527.7633,-1448.3676,545.21313,999.05804,799.8326,890.1738,3380.78759765625
375,949.11096,111.31269,-513.6937,-991.9504,-102.25869,23.876997,2145.02807617188
376,-809.1725,5157.043,-3321.568,-3635.4377,-1292.8494,1724.233,10510.94140625
377,-5907.419,1574.0664,17090.09,13687.89,-3711.624,3667.1433,32504.611328125
378,-6901.731,-2382.3535,-10398.213,-2316.261,-9.988644,-832.5915,8162.548828125
379,1247.6371,1387.8016,-483.2752,579.82684,361.9585,-328.80075,2232.55126953125
380,-4989.3794,5057.35,-1436.7952,-8845.349,3535.946,-654.02576,18745.087890625
381,19338.244,6957.3193,4165.839,-342.96545,-731.91425,382.81375,14072.6826171875
382,14417.104,11506.271,574.61816,1049.6917,2958.3179,1611.8496,14040.970703125
383,3815.963,9798.565,-6764.4663,7661.186,-6644.2183,-1714.8138,22986.419921875
384,12007.243,1605.8796,-1908.6882,5664.7197,657.7424,-629.8805,15995.3779296875
385,3478.6821,9350.193,15378.453,-1245.5199,504.10126,-692.3174,10633.14453125
386,-1748.311,-1563.8802,355.2464,-574.4765,115.27778,87.918785,2263.65478515625
387,5703.229,14691.546,20365.611,5796.967,-859.2855,3565.2188,17468.458984375
388,-18257.275,-21903.191,-56637.734,6171.599,-5234.225,1477.5038,39362.7578125
389,180890.75,163496.56,203031.8,-827.3465,-1382.7572,-558.22876,34447.55078125
390,66357.375,59453.195,90019.2,5966.8286,-61.877888,-7351.1094,32246.7421875
391,-48598.875,-19362.664,-26951.076,-1095.477,-5675.254,-11199.951,34161.765625
392,4252.3433,6640.6934,134.63647,-882.2052,113.4637,469.35483,5960.58837890625
393,-1540.2565,-14262.556,-22742.203,1932.0511,-5300.959,3616.2595,21825.96875
394,-5523.7446,15917.351,-14117.705,12061.651,4081.7395,-634.06494,34720.0078125
395,461.4873,-5092.829,-25840.23,-4601.007,-651.61633,976.44525,25380.79296875
396,15680.236,29561.238,-3971.9429,5961.84,2939.6323,8615.074,34740.40625
397,-142.21739,11289.025,-11182.396,11539.696,1328.5634,3363.351,28591.734375
398,-1619.4062,11972.624,32736.14,-1182.7205,-2508.794,2045.5808,30556.783203125
399,15577.658,-554.68506,-1340.3428,-5794.394,-155.67554,1437.3013,19507.421875
400,13283.646,4780.208,-3755.3276,-3721.2039,1287.6763,-2658.9695,16895.916015625
401,11812.262,3870.63,-2521.1128,-1097.829,912.54944,1434.8927,12921.8974609375
402,-3518.58,15192.951,13260.127,-1819.1066,-218.284,1187.1787,18220.583984375
403,-5139.5405,1049.1328,-2574.458,5041.3823,-1439.848,3192.2327,11918.1376953125
404,-5842.7886,3324.4194,-16552.84,1210.0887,-520.90735,-2181.0732,17787.703125
405,-8593.922,-9752.893,-10940.16,-2864.717,-4697.502,2068.2886,10381.794921875
406,2477.591,-2373.097,-298.94748,3375.025,237.35596,1701.0157,7796.9208984375
407,636.7002,-4859.571,-10137.294,-738.8735,-2629.591,3985.9397,12534.6064453125
408,7202.894,8524.456,24998.396,-6319.3755,-2466.097,1870.0537,21058.2109375
409,39835.348,38466.676,13672.723,13509.86,4889.3135,-591.9686,35649.1875
410,-6404.127,-1864.9818,-22833.406,-8155.561,-4524.2383,-12024.186,32554.396484375
411,-25896.373,-18639.834,-27009.62,-2019.9414,-5089.606,-6048.633,16176.7001953125
412,16969.006,252.00293,-3896.7393,1719.3025,-1895.736,-2257.5776,20024.08984375
413,-15169.357,-4324.502,1670.7544,-16561.26,-4059.753,-4952.1685,34123.515625
414,11827.408,-965.9336,-3311.6484,-4437.5513,-1905.1649,-1398.6431,16583.56640625
415,-20463.404,8364.03,8766.804,5721.256,-5738.4463,3811.523,32914.5078125
416,19136.912,15093.357,9209.85,3627.232,387.4402,3088.4949,11970.5244140625
417,-14186.176,15978.801,1780.7643,-2732.9868,-909.92523,3118.4058,27153.11328125
418,16947.207,8095.0635,9068.859,-627.62067,1091.2124,-222.24913,8694.2900390625
419,15039.936,32585.977,2051.1084,-4347.6445,1127.9036,-899.6763,27702.462890625
420,-5559.597,-8485.886,227.14893,4940.0215,524.0411,-32.078297,11533.501953125
421,-81871.71,-77517.414,-109859.06,3605.7402,-5872.94,5475.9507,34008.13671875
422,-6493.4883,661.9114,-1728.4912,-2042.1868,-1195.9097,344.47986,7547.6923828125
423,11113.703,-8129.1562,8292.975,-4106.7397,-301.88718,4276.3423,20729.107421875
424,24014.889,32327.875,64821.914,4423.4136,-4077.308,-3882.768,39355.9609375
425,2434.209,-20943.322,-22845.508,-12.51,1041.6333,-2697.463,24893.373046875
426,-4114.1445,7510.0903,2475.6614,-114.72075,1240.8955,-1886.3605,10829.6328125
427,8036.8066,-4606.133,-17547.809,-6786.101,1168.0286,-10508.59,31056.232421875
428,-12717.2295,-4582.168,757.5293,-1872.8541,4480.383,-2296.0042,14989.646484375
429,32781.89,9899.452,54713.72,-272.56845,1294.3684,-177.53326,38881.98046875
430,-4042.87,-14004.599,-18360.492,-107.31879,1958.9619,-2596.4172,13905.8759765625
431,-22201.56,7579.311,9188.613,-3532.5396,-3343.524,-1169.0833,31819.658203125
432,99.66907,-10641.197,15796.198,-5994.663,258.39285,-2238.9875,25561.474609375
433,1765.1068,1262.2726,2289.703,-4004.2695,873.7976,-1576.4655,7657.71826171875
434,21415.043,5376.87,17093.447,3287.0854,1762.967,-1043.0289,15861.6318359375
435,32564.543,14206.625,18802.57,-2127.5254,1988.898,4926.276,19287.68359375
436,14314.584,6351.9624,4456.011,3099.2866,-2355.116,-1971.0552,11798.5732421875
437,5397.1094,-4929.118,-10522.174,-917.9946,658.94086,179.56662,14127.841796875
438,17418.072,26371.23,11914.0205,-16709.78,554.0808,4493.1426,32540.259765625
439,11469.918,-4525.218,2707.1343,-11158.027,-3140.0955,2298.5588,24726.58984375
440,-2315.8176,-740.9523,-1534.2466,12186.296,381.6448,-2771.4436,21699.24609375
441,8057.4043,-1391.8276,2749.5962,-2970.6436,1392.1492,692.14215,10051.4521484375
442,-399.4542,1489.3025,-1128.797,973.2537,-683.0773,-15.556771,3117.54248046875
443,-4476.672,-6553.1353,-3254.1492,2504.9927,-96.572334,3585.622,8109.734375
444,-3407.9082,-2187.4705,-2541.7012,-3352.6992,1305.2714,-1099.0698,6606.017578125
445,29788.246,11136.332,2859.75,3153.3987,-2092.0613,-638.76843,24798.302734375
446,-73146.56,-54132.375,-93344.984,1418.4814,478.68933,9177.399,37589.48828125
447,-24398.078,-11514.206,558.9971,-1918.095,3143.4446,-2735.4607,23031.1796875
448,-2743.5493,221.45908,2623.9512,-3187.2996,-66.45892,-2012.2854,8020.25048828125
449,-3645.3452,-1154.4602,607.4064,562.8428,213.10739,276.7065,3874.73974609375
450,1188.3558,172.23737,1575.7094,2138.6462,764.4111,395.0513,4185.5380859375
451,-7232.0967,1507.7666,-4555.215,727.8257,-2353.3557,4321.7275,11592.7275390625
452,-3751.253,5167.748,434.18402,1974.9353,-515.7372,-1173.7059,8738.900390625
453,-1951.974,999.7532,-1424.2113,-77.1379,-1170.598,2679.5142,5753.39501953125
454,-74090.055,-69918.13,-109217.46,-6224.6753,-2152.9097,-878.1543,39119.6484375
455,-5391.178,8606.145,-31575.664,-10926.181,-1285.829,34.504025,40139.41796875
456,-13328.896,1313.7417,2185.5796,2801.9023,-4924.615,3690.5002,19107.5859375
457,-2215.7417,-826.41693,1508.3828,214.05756,618.12933,-645.3598,3627.46313476563
458,425.0785,4353.517,1719.1453,211.2655,-78.1252,-1935.8795,4839.28466796875
459,-4350.12,468.78564,-6786.9175,-4553.037,-1403.6478,357.1979,10458.796875
460,8993.281,6827.115,-3284.2617,11573.134,3573.5076,-184.24214,23854.958984375
461,-3605.4094,-5616.6357,4257.284,1828.6763,-1243.3815,-190.71365,9821.4013671875
462,442.17725,-3567.477,-3078.6265,-421.21774,-302.78647,-413.56503,3959.36889648438
463,32268.117,23499.355,37434.062,11277.774,6809.6064,-1048.9565,25939.4453125
464,-21177.588,-21154.482,-30746.227,-17128.904,-3903.9788,2525.7285,32199.9921875
465,7915.2695,22.603027,6676.5244,-4004.0947,552.05383,165.97034,10156.126953125
466,23417.707,57064.812,47203.938,-3604.4412,5822.4253,923.80554,32261.630859375
467,-21967.686,-44276.742,-31594.963,-9506.235,558.05304,778.24115,25484.5
468,-2164.2612,312.8062,617.14716,-1757.6544,955.7608,-1198.5897,4827.0791015625
469,-3188.1897,-190.82178,-2132.4338,54.972183,-413.44287,-519.98914,2875.30590820313
470,-3491.8313,-4722.0977,2789.8662,1942.9653,-111.106026,293.0943,7766.693359375
471,-25118.271,-33572.527,4742.1245,-134.60915,6382.152,-8750.421,39591.9765625
472,-12537.27,-903.5742,-11437.648,-5830.0073,-2615.2175,-757.9577,15746.9970703125
473,21553.908,9882.645,13903.134,-1190.5854,2208.4548,829.7139,11243.1357421875
474,7727.34,-183.02197,5420.867,3878.037,5388.4995,-2189.0833,14008.9306640625
475,957.1912,2648.2,1694.028,-2300.82,132.49055,-266.99933,4278.35107421875
476,-1930.9026,-5307.2725,-4791.46,-916.84344,713.5225,591.38025,3875.9130859375
477,47539.24,18686.402,40908.59,-303.5979,-12946.296,-8857.926,37730.93359375
478,-4439.704,-1393.2975,-1269.7252,3329.1316,-1452.7101,-769.6705,7143.52490234375
479,48354.05,70469.73,74549.36,-3340.1472,-9917.62,11413.108,36266.9921875
480,695.6311,4481.0757,1350.5737,-433.0786,690.02466,-665.23846,3949.42919921875
481,6144.131,-535.2446,3142.8796,-1261.1884,-1116.8221,-252.22208,6502.27587890625
482,3423.479,-8158.101,2038.9364,208.52063,-570.77496,-245.33807,11013.76953125
483,3731.859,-4708.157,650.4293,-839.6536,268.29544,-1079.1163,7781.146484375
484,2610.2014,1005.60406,1717.51,1708.8821,1404.234,-772.8295,4290.392578125
485,-2171.4622,-4010.8887,-2004.4702,4094.6843,374.31467,2132.785,8251.333984375
486,-6628.2725,-13069.595,-28194.594,-2769.998,-6471.854,-941.87555,22781.921875
487,-2771.562,-2090.8994,4291.205,620.5545,1676.93,172.46494,7430.97607421875
488,928.3524,-1380.976,337.35043,-396.28207,184.53677,-1149.2704,2975.4345703125
489,888.0757,6708.925,-15272.579,12562.428,-7682.888,10235.431,36795.84375
490,16595.178,12306.987,10891.596,1239.8184,6185.445,-3919.3894,13854.126953125
491,-4165.933,-2005.8463,-4344.379,-1355.9865,1429.7745,57.176548,4091.6923828125
492,-4190.301,-1023.1671,303.67834,619.27545,-909.9995,76.728905,4432.3828125
493,1929.7466,2331.385,-2064.64,-1132.1451,-1165.8938,909.12445,5303.15380859375
494,832.3305,-4834.8633,3542.137,-77.26427,271.62286,1648.497,7950.4091796875
495,1476.1492,-2455.947,1070.3075,371.32388,-1060.8503,-763.9063,4423.88916015625
496,3649.8423,-50.688965,2707.8035,-1798.2893,1136.7045,614.22784,5079.85986328125
497,-2544.6409,900.2981,2253.1472,-2086.9614,565.80206,-851.04,5878.5810546875
498,5602.788,7743.757,8907.619,2731.3872,4741.146,-1057.0265,10079.6259765625
499,4373.674,-1781.756,1715.5602,-741.6373,-340.4539,-1548.0396,6146.5546875
500,11067.738,33659.246,45827.918,-4182.424,-663.16736,9507.385,35472.9453125
501,2264.7876,-3115.6511,-2853.065,-791.8045,707.3141,-1227.345,5958.70068359375
502,-19548.824,-11121.56,-15904.017,7742.9653,-1529.8928,17.12228,15507.1201171875
503,-4904.3916,3048.317,7873.995,3317.9023,-1287.2274,1061.1188,12895.1220703125
504,-3450.7205,297.88696,2248.0862,254.7121,508.3093,-905.5137,5347.47607421875
505,-2778.5007,226.7395,-932.6019,1052.447,-117.284706,541.6409,3337.02978515625
506,-18032.604,-11811.033,-7664.889,-10622.821,-3645.0298,3491.9504,22286.0234375
507,-981.47205,2525.4038,140.48132,-4210.362,-738.36456,-1254.3862,8316.240234375
508,493.9782,1133.5934,-341.64218,-5930.7134,41.62293,880.4018,10463.86328125
509,-448.91705,-1820.1775,-1272.4866,-100.430305,-513.01965,421.8103,1668.20007324219
510,2573.8445,-1136.9232,4609.1123,2055.8872,248.58842,-1346.7286,6615.9619140625
511,9294.145,5187.5083,2319.542,-3662.2515,1504.1244,1921.7366,9745.2568359375
512,-4335.8394,1149.7004,1396.4075,103.34171,-1338.8121,-413.0231,6117.71142578125
513,-3661.3994,2001.8435,-408.98184,-61.9717,893.3669,297.77014,5186.82421875
514,-764.0938,1535.3977,-5712.799,994.4842,-121.689995,-2267.5999,7719.734375
515,-234.3587,1521.1602,1062.624,1087.8237,698.1198,251.82375,2773.00805664063
516,1835.752,5484.843,8661.341,-2994.9766,-2064.6514,1449.3995,8999.8681640625
517,-5935.994,-6128.746,-1841.2368,-2253.249,-1117.4199,-288.0065,6067.9140625
518,-24893.418,-27732.018,-52916.645,14855.409,-1392.5892,870.4762,37201.515625
519,2993.199,778.7013,3349.1238,-852.7842,-1689.0098,-373.35312,4120.3203125
520,-766.4411,-2066.3064,-1769.2312,-2303.8713,-1533.1531,2230.41,6268.25927734375
521,783.7944,-2845.0188,875.8598,-1446.4832,927.5938,-1661.8708,5536.65283203125
522,-14948.064,-10012.381,-6273.626,-1432.1489,-1434.263,-4411.994,11292.2158203125
523,-594.4758,-1158.5364,-1127.629,-689.7564,-447.99417,-766.8941,2023.72277832031
524,-3746.1328,-2538.0415,-3640.6602,1029.1307,-589.3293,-202.46796,2384.4130859375
525,-2034.6289,1905.518,1709.9102,-2.3952863,-346.60782,-312.04935,3929.99340820313
526,-4536.465,-2693.1013,331.32568,-655.2212,-508.93423,476.64374,4568.021484375
527,2771.7346,4208.363,883.03625,-5250.5645,2239.014,-1275.4255,10534.2021484375
528,4788.2246,899.0493,1786.0847,1616.7722,-3194.778,-1833.9669,7811.1884765625
529,3396.3647,10815.81,874.688,2973.0852,1241.7391,-2988.956,11749.95703125
530,-1351.475,569.3262,-241.84496,181.92784,1327.5017,249.85277,2891.8388671875
531,4816.133,3098.341,4756.651,626.9859,1127.3121,2293.4512,4860.427734375
532,-820.01196,-8915.933,-1827.65,4248.1377,339.74768,746.9843,10703.353515625
533,-466.03687,-5321.2344,-715.06726,-319.5127,276.79507,1451.5581,5411.380859375
534,-2447.627,-4068.7817,-6576.052,362.5159,473.8215,-735.549,3958.54638671875
535,648.04486,-3170.7332,630.741,477.91006,-301.94128,-802.74603,4172.43212890625
536,-3314.4175,-4469.695,-1572.3583,1339.3492,729.26074,922.6324,3989.08276367188
537,-1070.2274,2995.8484,2074.5637,644.2035,-95.14397,918.3108,4175.8544921875
538,-2734.6523,-323.37183,-618.0073,1195.3582,-179.26154,192.19273,3111.99243164063
539,1171.2802,-104.760925,1784.1023,-901.6083,566.6565,800.32935,2847.69921875
540,4865.2744,4611.694,2228.0188,1016.7896,2461.0112,-1433.1654,5812.38916015625
541,941.83813,7125.3022,319.89233,-713.6281,559.7367,-3.8400114,6703.40087890625
542,-1951.0576,-4194.56,-3990.7688,5980.098,-907.1241,486.89062,10727.6357421875
543,-2398.8345,-4670.359,458.16724,1547.5957,382.45288,-2536.7642,6836.77685546875
544,6600.185,-4051.7124,-1755.0386,1324.3163,195.03304,209.07837,9989.013671875
545,-1606.6892,-78.10339,-2882.4927,-3917.2124,-392.77197,4203.6772,10267.599609375
546,3915.9858,-845.5115,759.815,2102.0159,-3539.377,1353.9581,8598.939453125
547,6314.3335,-526.37,-1043.1549,-3280.117,198.54337,-263.15073,9121.4560546875
548,2372.0474,-2547.0627,-61.09691,-1717.1101,-946.47455,467.76886,5508.01220703125
549,-4352.9775,-1412.2007,-6717.7744,-460.34515,-812.3595,-1762.2789,5755.62255859375
550,2772.076,2515.141,2446.3152,818.1684,404.87033,-964.0557,2318.75073242188
551,2565.3066,1205.2698,103.34314,1084.6726,-13.602634,-81.10651,2848.23388671875
552,-6187.2573,-3112.4795,-3816.0916,-2872.6694,492.7856,644.2416,5875.05029296875
553,-2182.079,-699.38837,807.8279,-1587.7899,381.4291,1805.9237,4948.59423828125
554,-5731.2188,-3732.3071,-40.24414,-1503.5569,3275.5635,-1184.8605,8257.6484375
555,3227.772,4621.3726,1259.2181,-509.82343,994.2907,203.82085,3525.75317382813
556,278.79346,472.74847,258.67258,150.68419,-707.5247,752.22614,1819.16174316406
557,-1562.9447,1477.1205,710.37177,254.79234,370.5728,-92.20796,2851.52075195313
558,-577.15454,3098.857,2281.874,1641.2317,797.46783,1580.2848,5353.314453125
559,219.84302,1323.047,-3780.7695,54.36037,-162.013,-359.06757,4702.111328125
560,-3897.1375,-7494.293,-2011.2656,579.9622,1097.3099,522.80853,5359.21044921875
561,-2105.106,-5533.3267,-4018.6985,-139.38016,-928.5565,-834.4553,3686.21704101563
562,380.81754,-57.22119,162.62814,-632.7777,448.83426,-331.39984,1509.62451171875
563,1527.1489,-1643.398,-223.19269,655.8479,217.36171,-187.18315,3017.24755859375
564,-3645.0771,-608.3544,-1918.0356,-1853.3977,-141.95161,-591.32355,4286.548828125
565,-2875.2532,-4257.1646,-1765.5638,-124.70836,1868.5126,756.6468,4112.517578125
566,1351.7987,-852.74316,-218.92279,842.1946,-87.245766,-288.15884,2502.85180664063
567,1349.5586,-1305.8638,-2194.729,-140.0871,-267.23508,-89.388535,3240.17749023438
568,-3118.742,-120.95923,-621.6916,1830.6577,633.22485,-1589.2871,5154.6767578125
569,-2785.1582,-1468.362,-5106.339,2446.9424,-2518.0493,-688.4024,6970.2470703125
570,1020.3616,3218.3677,1440.982,1219.1234,-44.655155,-681.35547,3152.95581054688
571,-736.30347,5137.9746,1730.2975,-1289.3595,532.5386,-676.94696,5771.88623046875
572,1375.4683,3953.1377,1744.7024,-1080.1743,369.55746,720.2378,3360.8369140625
573,6682.446,9133.127,20754.521,6990.804,2455.6843,-139.54094,18284.052734375
574,-1305.7285,-8871.957,-28990.178,-1824.079,3605.3584,-276.6838,25756.8828125
575,832.5381,6062.7104,25807.645,7368.679,-35.915092,1994.7268,26368.912109375
576,5164.17,7763.048,13938.461,205.119,4244.7505,-1218.5421,10934.966796875
577,-3499.7063,-1461.3977,-2811.639,2320.278,2535.3218,1651.7789,6844.37060546875
578,-65655.84,-74290.16,-46276.84,6931.5503,9176.643,-214.58762,31848.564453125
579,27661.193,13552.998,8944.056,-11753.594,-210.33508,-10260.346,31870.12890625
