Element Label,S11,S22,S33,S12,S13,S23,Mises
1,2269.474,1076.3848,225.23528,546.9128,-1224.6237,1160.4539,3549.623046875
2,-1285.6748,2286.3447,-1390.6895,1550.9366,2207.1963,-1381.3423,6379.74462890625
3,1747.6118,2390.0461,629.4568,824.9956,-805.7102,990.41705,3051.79809570313
4,1824.3765,1071.1855,-67.797806,406.75778,-623.58246,-49.37491,2095.87353515625
5,3515.6184,7644.1836,2647.6018,4359.867,-357.91873,2569.5923,9929.7646484375
6,-861.5079,3420.1807,-1966.8873,1010.266,662.32355,-1688.6047,6100.794921875
7,1858.889,757.4541,1837.7787,2088.008,-562.99347,1893.3999,5096.6123046875
8,474.43045,8805.631,1357.1902,1047.9817,-786.40857,-677.04626,8328.205078125
9,3375.5408,-3667.6863,-6286.7144,-1093.768,2047.4093,-1256.7754,9788.5576171875
10,2727.0454,1532.7024,6318.4365,5157.681,-1528.3446,-2101.9575,10894.0859375
11,-1218.4878,14.761799,-6678.8525,785.34216,28.476717,320.17938,6342.77099609375
12,7135.326,1596.498,10308.341,-99.70743,-400.58456,-488.62573,7716.79443359375
13,-11812.113,-5634.278,-16156.379,2235.1284,1749.6577,-304.60535,10407.982421875
14,11565.171,13215.944,26040.213,6968.286,-4089.9648,2941.71,20252.7109375
15,739.2862,-2153.508,-20503.758,-5826.597,3510.3677,-434.61057,23185.46484375
16,3494.6074,926.9647,686.13885,2746.2476,224.51991,805.19934,5656.0615234375
17,-197.24568,4778.6284,1558.9757,-1668.7645,1090.5552,-751.05646,5720.0888671875
18,2656.2373,6940.024,7355.4644,53.816982,-480.98773,-857.5479,4817.880859375
19,-951.7275,-1121.6908,-260.18912,8.749074,-283.1195,-1022.8382,2000.98547363281
20,-15322.459,13275.914,17550.283,-209.82831,12909.5625,3619.023,38701.0546875
21,3581.085,-4385.2246,555.03546,41.054096,903.4242,663.0213,7230.83642578125
22,1097.9407,-933.27344,434.60965,4543.627,850.1872,246.89009,8216.046875
23,4610.3276,1908.3362,-10083.856,1177.391,409.32477,547.44574,13750.5166015625
24,3291.2627,791.9029,6187.635,-610.0509,362.2623,-100.73217,4838.9541015625
25,1762.4254,-3246.41,-8073.622,1625.64,-116.53778,1610.7924,9397.974609375
26,5051.6523,2149.8564,6313.468,1173.1262,1451.6392,1431.4401,5501.96630859375
27,-2415.9185,5741.551,7954.7817,3289.1184,75.202255,2160.5112,11660.7177734375
28,1944.4718,-1414.2828,-2061.6943,-430.15967,1925.3911,53.26179,5055.6787109375
29,-775.9174,-8186.275,-11940.884,1552.7859,-770.8427,-3839.576,12250.5732421875
30,6610.7144,5259.163,2882.0276,1521.6056,605.01355,2862.5566,6581.5615234375
31,582.9513,-3066.848,-7586.2314,-714.5781,-563.60504,-992.4799,7461.94189453125
32,-2569.6401,-987.7401,-2487.406,2073.0283,-512.42004,124.30356,4013.166015625
33,-4091.5776,557.91486,1274.6455,362.30753,1015.29193,429.84106,5431.80078125
34,2251.0483,5437.1475,2057.7441,96.86101,-1170.2529,2299.2563,5549.8505859375
35,828.3584,4170.882,-1050.186,-1921.9885,-1945.1556,-1949.7648,7403.93359375
36,3134.4722,-2342.3118,78.75426,4037.227,1688.291,-889.6724,9078.5576171875
37,-564.5723,5905.8477,5281.558,-1900.6921,-730.2577,2956.669,8768.126953125
38,586.0814,272.00543,-7287.018,548.3577,-2138.7202,-3008.9648,10069.640625
39,3035.1433,2673.2708,433.19144,2965.7888,1414.8909,1121.847,6490.65576171875
40,-911.7982,-3602.9526,2307.3271,2843.0977,2133.9907,2192.7148,8865.8671875
41,-982.11633,251.33665,-2239.74,-357.51004,-2230.0022,-2550.897,6283.12353515625
42,1400.8638,-114.95889,-2233.8547,760.4756,455.40747,2182.6804,5162.24267578125
43,-5470.9307,-3790.8428,-9629.528,983.8989,1407.9874,1181.0859,6335.59716796875
44,-24039.375,-14246.161,-26099.6,-1889.7354,222.51372,10926.038,22120.681640625
45,-14910.05,-8704.639,-21081.87,-7331.1177,712.8277,8276.546,21980.923828125
46,-4229.0312,-8501.279,-38196.668,11726.782,761.2125,817.2679,37989.84765625
47,-9284.353,-6080.627,5788.391,1919.85,-2071.413,4857.243,16848.462890625
48,-8493.958,-14419.167,-44595.676,3096.4622,-1386.8264,-8367.67,37001.6171875
49,-13556.04,1409.7244,-19167.992,1339.4855,1505.918,-3307.8015,19607.802734375
50,-5099.3945,11269.893,21505.625,3102.1152,2514.5417,-4102.0884,25270.435546875
51,-2495.4224,5129.5684,-5113.4585,4581.6978,1667.1718,-3059.3777,13577.5810546875
52,6189.9365,2998.1985,11569.455,-1900.1012,-293.2405,4177.9585,10943.10546875
53,494.67435,10445.429,1922.197,-3209.2612,-1494.2661,1073.4528,11309.458984375
54,-2813.7776,3153.8267,-4891.718,-912.02045,-2495.2466,614.7177,8639.3408203125
55,1018.72845,5674.8374,463.03955,6686.1,6616.21,-3142.4548,17878.341796875
56,5589.1445,7004.9307,12731.324,-111.95914,-1310.8273,-248.51591,6948.45849609375
57,3396.6245,276.33984,-630.8282,1163.9175,807.50885,-2656.1394,6369.875
58,4927.658,124.916466,2723.4211,627.8924,-1556.901,652.49384,5202.92431640625
59,5789.1626,5525.8823,3222.6655,-896.0457,701.2798,-2095.46,4799.73388671875
60,9151.953,-1877.2136,9814.882,-760.91095,-613.7895,950.0485,11617.59375
61,-853.3216,-1317.6654,-6675.526,-312.65103,-1776.8877,1545.3529,6952.68017578125
62,-792.3937,-1451.1166,-3313.953,1025.3033,-1256.4414,778.93567,3852.41040039063
63,6786.2734,-1430.6857,9165.176,-1091.0073,1842.1542,322.965,10333.892578125
64,707.07196,-7055.0176,-5567.005,1048.3757,276.45743,2620.0293,8662.2373046875
65,1957.1185,-4636.784,-8150.3403,338.61203,-1443.0271,-1742.8528,9731.19921875
66,2452.8909,2303.1345,3480.8984,-608.60706,-3916.372,279.3523,6970.82568359375
67,4214.4604,3280.4434,-645.3632,332.44907,-676.5634,-1451.6088,5289.36669921875
68,2801.0942,-10771.812,-6387.37,3426.0894,5684.9165,-12207.912,26892.48828125
69,-3000.445,-6159.985,12949.535,-9860.115,-721.3012,13083.251,33489.1015625
70,3276.218,1001.0333,5450.5044,-509.70596,-6492.7856,6769.375,16720.41796875
71,-3105.1838,-15375.842,-24531.436,1781.2428,5320.639,-17954.998,37527.73828125
72,-674.24286,-3050.7073,-16129.694,-3265.4033,-3757.7063,6384.834,20110.623046875
73,-5879.485,-15844.908,3664.9558,-2798.7734,-2026.739,8103.451,22767.09375
74,3530.9854,2286.02,3833.8118,480.32318,-18389.582,2922.5295,32293.4140625
75,-20568.436,-6365.29,-9772.02,5806.963,-5397.045,-2169.679,19173.37109375
76,-3099.273,1184.9543,254.4772,-379.36533,10476.314,5731.9785,21059.25
77,-2573.0168,12851.52,4683.491,618.24304,-1917.9528,1165.5503,13960.7587890625
78,-1691.5834,3375.1116,263.6667,61.466946,-713.24615,-867.8507,4835.7763671875
79,2056.739,2702.551,4551.0684,1127.71,3380.9968,2589.0505,7952.73779296875
80,2095.0437,3185.3105,-5107.8555,2376.521,1832.1527,-2251.6719,10156.15625
81,2661.4224,2138.7705,8885.549,2433.199,588.5479,-797.4499,7935.6337890625
82,4232.0815,2099.6008,6275.996,-8.942802,-4677.295,-608.99304,8934.6396484375
83,5487.951,582.9095,2462.2039,2334.1953,-1797.3939,161.10909,6669.9560546875
84,1154.43,60.97853,-356.53818,-511.4214,-1099.2355,498.12546,2642.0615234375
85,5416.5835,-1603.307,-628.9327,-1192.793,-748.68304,47.535934,7024.591796875
86,-4304.8535,3792.7295,-26837.205,2143.0034,1054.1705,-1145.5823,27870.837890625
87,3630.5876,1299.7188,85.187706,2271.4446,-1373.6903,1442.9176,6092.98291015625
88,2753.8804,-761.29663,-3165.9136,-3090.7122,-848.76373,-84.24438,7578.34423828125
89,6227.4526,1773.6309,2321.6372,1114.5975,-1635.3923,1031.9812,5713.28076171875
90,-12.955349,-1199.0513,-4573.558,-396.3372,-701.9062,2421.7595,6028.3193359375
91,-4028.3486,1245.975,815.8376,1413.6509,655.70605,2078.0027,6780.4267578125
92,-3527.4429,-2702.9707,-6491.4517,-855.51013,-3946.6135,-1234.2606,8087.1513671875
93,71.53704,-729.0085,-1037.6588,-3405.844,-406.45505,-6084.3633,12138.228515625
94,-971.53485,5284.622,622.00037,1999.7997,974.5191,4123.413,9877.4345703125
95,10224.296,2286.576,19523.066,991.88025,645.4187,517.90283,15109.3154296875
96,1421.6346,-1261.1871,239.7965,-1523.212,3130.2542,-1095.7766,6736.6005859375
97,-16810.719,1681.84,10577.137,4559.5835,2781.3755,-3584.4744,26640.583984375
98,-9987.584,-18760.188,-35982.84,-209.39693,44.64159,2705.2983,23382.884765625
99,-6577.4824,-2242.158,-7416.8516,-3168.7515,-4124.0303,979.9939,10352.078125
100,-1913.3325,1467.6937,-8286.811,2787.3157,-2322.7686,356.63702,10652.51953125
101,3032.6892,-4924.6025,8128.021,1928.1625,-149.53983,-1078.1761,12022.22265625
102,-110.110695,-240.512,-3506.6667,3048.8865,-824.7575,3206.4133,8478.3095703125
103,-196.37941,2706.7568,1232.8107,2172.6948,751.3594,-3700.0747,7952.9072265625
104,3936.9817,-2212.7827,2569.2979,-1788.0201,5074.6094,-2270.6663,11558.2451171875
105,288.43002,-5212.3525,-955.9376,-1575.7516,-1951.0356,-4464.328,10179.45703125
106,3374.8838,2776.853,1252.2163,546.1846,788.50415,947.52783,3007.91186523438
107,3829.133,6901.373,8017.0596,959.0838,2087.6338,1711.8676,6223.88232421875
108,756.52203,-1078.4954,-5054.3003,1035.2568,943.7395,-1026.6863,5959.81884765625
109,-654.501,2903.99,651.05475,758.649,-777.80115,-245.45839,3666.5849609375
110,1944.0876,-2088.4233,-8824.068,266.6471,825.20984,917.8467,9673.42578125
111,468.76767,3681.2454,-6855.498,3312.928,-675.53,-1409.284,11302.55078125
112,2504.6006,-88.833244,-4356.2485,-1136.8127,1061.8646,-402.5106,6614.35791015625
113,1964.458,2539.0032,6869.893,-2859.4275,626.96423,-131.37605,6880.04443359375
114,-2725.6062,-10009.867,-406.90543,-6883.018,2976.2683,-1023.05475,15721.6123046875
115,904.15234,-25802.584,473.1305,-4777.7764,650.42004,1731.8636,27940.525390625
116,-3675.77,6148.533,-3411.252,2824.151,3796.1545,19349.766,35838.36328125
117,-2729.4155,-2105.478,29158.133,1776.614,684.9097,8858.593,35264.8515625
118,10886.748,-5053.8535,15186.671,3680.8281,-6001.644,-10459.083,28601.001953125
119,1581.4305,7407.123,17008.375,-2659.8123,3739.0286,-8041.4834,20957.525390625
120,4196.465,6099.088,18295.303,-847.75476,642.13416,-6809.8223,17834.98046875
121,2236.5479,-2232.6995,2876.4553,2972.3013,963.3746,-2337.0618,8301.6337890625
122,5548.5625,-1287.2217,1837.6013,3339.6123,560.0689,-43.143333,8338.9140625
123,2278.9463,-4097.9766,-10244.028,1074.2422,-1379.861,2675.76,12177.2373046875
124,224.94008,5077.008,1910.5839,3668.6904,689.9572,4121.8276,10534.6796875
125,-13225.739,-19842.115,-23442.432,1285.5323,-5108.3086,2944.434,13777.193359375
126,4866.034,-22714.264,-25995.535,5282.4746,-4294.603,12266.351,38110.0078125
127,-6936.238,4818.7104,2425.057,-1832.0603,-2491.3853,566.3267,12059.171875
128,8106.005,2500.8828,8973.646,-774.4821,-482.09512,-87.83715,6289.14111328125
129,99.31403,2836.34,-11995.764,6409.0522,880.9616,440.3314,17692.5
130,-12695.722,2049.511,-29603.773,-1579.7529,-702.6465,882.8745,27639.16796875
131,-2477.7969,3924.5269,-7133.5693,2171.9497,-114.99438,1639.8646,10711.34765625
132,-7402.6475,-420.03555,-19518.84,-661.6821,3517.7043,2099.848,18216.091796875
133,-442.7447,949.3427,-9900.001,-3205.7273,-1662.8322,-1522.0089,12272.6337890625
134,4689.657,2616.4211,13647.265,-2961.0298,1380.0587,-1723.699,12001.6025390625
135,-1629.6637,-8782.655,21671.008,-3033.0405,-4424.31,-6194.961,31019.515625
136,-4312.831,2340.888,1121.4369,3559.7246,2148.919,-1232.4912,9699.0068359375
137,-180.84647,7227.0103,4154.9424,-3072.5532,4828.546,-824.47327,11910.5869140625
138,11078.27,-10780.085,12641.483,654.40076,-2646.2493,5721.6094,25197.294921875
139,4869.5483,1879.2391,-1431.1163,-5463.0957,-5944.9565,181.85274,15015.404296875
140,-1789.7023,481.98398,4909.1416,-5331.1006,8091.3804,-1492.2223,17976.951171875
141,-631.29364,-7809.799,-2934.9236,-2481.7573,2148.844,-4290.8506,11307.748046875
142,5096.774,-1495.9913,-4328.145,470.56772,340.6228,-776.16583,8542.6611328125
143,-1194.9673,999.5592,-2176.1587,3871.7195,1975.3727,-1652.4564,8532.3330078125
144,4408.617,6069.1,7243.7,-38.989983,2454.793,-2583.1387,6647.38232421875
145,-1074.3011,-543.81604,300.98813,-407.74155,-177.03052,-1254.8721,2600.02978515625
146,-4467.094,-4351.3555,-11218.273,951.44,2282.7812,1324.8356,8365.8681640625
147,-733.4977,-3939.7383,489.4733,-1641.1558,1643.042,-948.9878,5880.25927734375
148,3026.175,4002.9287,431.53714,208.81166,540.2172,2384.048,5317.6953125
149,6637.953,6079.6514,7951.478,1828.52,-1862.0375,-122.70966,4821.57373046875
150,19693.947,24655.816,56861.133,-7295.882,-4272.0166,4466.978,38676.90234375
151,7972.427,1066.5869,5288.0513,-926.82275,-20080.453,2999.2473,35715.48828125
152,1444.7885,3008.0,1436.5496,5491.4805,5003.9907,725.9555,13024.072265625
153,-1012.1408,2379.0723,-3024.9067,5809.5073,-6742.21,844.43536,16190.732421875
154,10989.338,840.55005,-4955.759,-1263.6304,1690.9247,-4191.3794,16170.7001953125
155,-1685.34,-6549.9106,-3654.8804,-8.9472885,482.579,-2461.0122,6068.83837890625
156,8689.636,1749.4095,-1086.7612,1045.571,-433.63083,-492.60123,8970.2841796875
157,-4176.8267,-752.7824,889.7127,930.09406,-2213.884,-1394.3303,6570.9501953125
158,-248.03152,6181.933,1287.961,-2017.4604,677.09845,-2186.4832,7858.45361328125
159,8671.099,-1554.801,-5301.6143,1489.329,-386.75787,1213.0869,12978.4423828125
160,13824.516,3039.4624,10062.577,-2788.8894,-1293.2266,1415.0182,11146.958984375
161,14572.376,7579.4697,36237.953,-842.57806,-10.554481,-202.68988,25924.056640625
162,520.60077,-582.093,373.78906,2107.2795,-672.423,443.83035,4042.8818359375
163,-1636.079,1570.7617,-5361.6187,53.84622,-395.38876,-2166.302,7118.07373046875
164,-1825.271,1300.5164,-4453.9536,-580.681,-1685.885,2554.4844,7349.2578125
165,4277.9336,-257.29706,1373.2166,-1412.3251,-8495.894,-2322.669,15954.3447265625
166,-7607.958,2515.6812,207.67206,3596.3464,8817.302,1807.5695,19138.625
167,-13259.969,1072.8462,-6624.3223,-1841.2113,-4255.1665,-270.59244,14800.7783203125
168,-1001.97107,3666.9028,5993.242,-538.914,1555.508,-32.09264,6797.412109375
169,2277.7263,3129.9778,5579.1694,-1621.4513,2362.4226,-316.66702,5808.9130859375
170,-1453.0283,530.36566,-3653.9558,2251.2327,68.169914,1544.4917,5959.671875
171,-9797.013,66.380394,-8466.932,565.8748,-997.3695,1284.7736,9738.2412109375
172,1390.7317,1568.0281,17863.414,-6752.1704,4632.1006,1752.1605,21881.837890625
173,3212.9546,4271.787,6572.9653,994.104,-652.00305,1070.6123,4065.93090820313
174,-2397.4766,2214.1016,2896.0244,2664.329,-729.66437,-115.92059,6914.470703125
175,-19.330988,3059.0415,4512.4316,792.15234,1226.3005,-684.9031,4885.08203125
176,1324.2324,-6711.6846,-32749.084,6391.7295,8806.427,-5104.7197,37217.64453125
177,13915.244,-5176.775,16460.986,7158.7188,-1232.3745,-596.4946,24061.478515625
178,7788.669,2286.715,15640.908,2757.34,842.3512,-323.9746,12664.2861328125
179,-3586.1096,1131.9752,-2025.4066,-1202.8138,-296.51657,-934.0179,4955.1796875
180,13864.801,12235.033,10116.365,3154.6711,306.36282,7.876085,6382.4326171875
181,4644.3843,-38.556446,2089.696,4279.288,-2294.4148,1332.4528,9620.24609375
182,4837.8223,3263.475,-13365.677,-972.31824,98.24351,4797.4126,19419.01171875
183,-1566.8331,2940.359,-980.1912,3493.4524,-522.6073,-4213.7485,10426.5927734375
184,-136.14244,8667.266,1793.1921,-1524.8433,1477.9929,-1729.7676,9313.5771484375
185,-2720.459,-2708.0024,685.89966,-5609.445,-210.2363,-303.1323,10313.4326171875
186,2841.0317,1080.5046,-1269.7784,745.22656,171.24844,324.21707,3851.03100585938
187,5223.1396,679.5169,3381.5522,2122.6958,594.2204,186.27318,5509.0263671875
188,3493.0898,93.98106,-2696.31,-1990.2238,629.71674,4846.8354,10600.576171875
189,14087.05,7747.419,17700.828,687.89496,-922.9818,-1458.9375,9301.6728515625
190,93.81827,5609.0366,5997.2466,7943.821,-3144.6846,1241.5847,16009.8095703125
191,5148.1978,4406.0464,10418.233,-208.2496,217.85094,-570.98224,5786.68896484375
192,7254.38,3205.3616,28857.398,-2267.9612,3753.2666,-1159.1576,25145.15625
193,-1725.7714,3033.9895,-6519.1284,1131.9492,363.8098,534.8201,8575.8916015625
194,927.3592,-95.937355,2434.2983,-377.44238,277.69485,-607.7878,2574.29541015625
195,1055.6392,-1286.5597,-576.5177,-1684.6554,875.79224,-3474.8604,7167.0205078125
196,-3176.9448,-129.62791,1911.0314,319.36163,-2188.0376,-4355.457,9552.3544921875
197,324.73294,-906.7661,2768.3464,1581.7306,-56.083775,-766.9729,4447.126953125
198,-1726.33,-3467.029,-5085.92,1143.016,260.5634,4054.588,7868.3564453125
199,1421.9198,-250.27055,-2007.4645,-111.115456,840.0283,-640.6078,3493.91357421875
200,2161.7488,305.76312,-1560.1216,1324.7391,-296.09137,340.1301,4032.88256835938
201,2436.052,-495.66812,1602.8365,-554.3961,-2382.109,3320.5667,7607.2568359375
202,-4252.8496,671.36285,4216.603,836.4697,2922.3901,-1217.2153,9297.2626953125
203,479.99167,-3974.189,-492.83655,3214.8198,-1490.4479,1848.4429,8023.25927734375
204,2734.3752,-1145.3604,-1759.8265,-306.95453,4179.195,3868.526,10741.9755859375
205,6921.1943,1000.7528,-2821.04,-1216.7511,996.83563,-849.0358,9048.1767578125
206,6916.121,2847.4119,3766.0967,-44.71487,-1228.2577,-1191.7823,4738.501953125
207,1421.2529,-2051.2124,-1600.6384,-4484.838,-2101.8027,1021.3193,9349.8525390625
208,-1238.2056,255.55261,-1885.2927,3272.1804,-2833.8188,-5202.493,11875.5009765625
209,5182.343,-4349.0723,1973.1957,-1260.7229,35.554203,270.20044,8691.9423828125
210,-2157.8213,-5063.9263,189.23634,1729.9012,5340.2993,-2262.39,11430.8447265625
211,-4079.082,-6158.629,4942.3057,4066.3457,503.90015,-2051.8447,12940.9345703125
212,-9870.963,-14378.751,283.40253,-3553.7817,1022.91205,1387.1924,14697.1103515625
213,-8873.243,1489.9797,-1148.2911,849.41425,-1279.0963,1072.9723,9876.3583984375
214,-5483.3525,-2341.6707,-10397.998,3954.7659,-8670.561,62.729633,17942.474609375
215,-795.3852,2447.0645,-258.47266,-738.3918,-684.42487,-46.166817,3479.68627929688
216,-3007.6882,-2350.412,-5319.84,665.3384,1953.5918,-1696.32,5357.97265625
217,-2752.7512,3636.9094,-883.2232,356.84045,-295.92053,21.810751,5746.59814453125
218,-484.9612,2109.5232,82.57813,1006.51086,-5.5324817,1714.0968,4175.4814453125
219,-4329.673,1418.4015,-12736.2705,-154.90915,555.016,-1391.2981,12603.025390625
220,765.54926,8533.25,-3093.969,702.2476,-238.19319,206.28824,10343.595703125
221,2523.9146,3447.4927,8510.813,-882.4698,-460.8926,703.3962,5968.61865234375
222,2743.3916,-90.553314,3678.5173,-1308.558,937.6345,528.9275,4491.05078125
223,-1843.4337,3846.757,-3440.335,2588.4492,354.52087,-293.9806,8046.8359375
224,-10506.574,-745.9381,-2865.81,-1820.7853,799.2576,3081.3945,10927.935546875
225,4224.2017,-1395.9698,4277.313,2489.473,510.15918,1099.6716,7408.6904296875
226,9880.322,9558.19,19678.414,5361.564,-1961.9764,-1557.1713,14294.2001953125
227,2196.7068,8070.4355,13973.817,-690.3842,1543.7692,1910.7183,11115.64453125
228,2552.2703,4232.8037,3818.7144,2082.797,116.54658,1004.17773,4287.16357421875
229,2470.2126,-994.8851,-6092.6406,704.82306,1345.1738,-1685.0974,8431.826171875
230,-1152.5675,-333.4655,-2934.2034,-1498.5573,1094.5409,337.51062,3997.16357421875
231,2242.5107,1530.2428,-5511.86,-1929.4194,-779.929,2.8675916,8252.712890625
232,-2629.543,263.2841,492.05515,1255.9376,126.496445,357.70944,3774.46533203125
233,-1423.8915,528.2443,4462.905,923.2512,81.99768,-857.64716,5635.37060546875
234,-656.77325,274.48227,7000.0605,747.4008,-1318.7388,-884.8682,7848.94189453125
235,3523.8804,918.51196,2417.845,-1957.668,215.44019,1929.458,5285.328125
236,2105.7346,348.79498,-12876.21,1400.8444,906.6541,357.08392,14489.9560546875
237,3486.1077,2509.0286,11277.936,-1146.9996,-497.2417,971.0967,8763.4560546875
238,-2090.491,146.06389,-8542.216,1493.1244,2233.7192,-1038.2817,9270.783203125
239,6791.688,-3447.774,6400.9263,29.03022,865.0482,6756.5386,15498.3212890625
240,1556.3135,-221.97418,556.0334,853.1033,-90.76003,-394.7715,2249.3740234375
241,4722.0464,1341.59,10485.549,-1163.1495,1823.2299,-5023.1353,12403.85546875
242,1470.3474,-1124.9835,2651.205,-4346.179,-3808.2588,-134.31902,10555.8193359375
243,3722.4143,-622.44446,2842.2395,-1362.2533,207.56187,734.6869,4810.822265625
244,-2042.7168,-1511.0387,-639.04736,-3237.548,-1622.4518,-1089.475,6664.0634765625
245,968.62256,-4344.572,-5408.7446,-2696.9973,3398.7432,-3624.2363,11441.052734375
246,3352.2974,2108.6497,-1324.6372,-3521.036,2833.4,-1694.577,9353.9423828125
247,6584.7856,324.9945,5828.4004,133.41133,-5063.599,-1712.6212,10990.677734375
248,4580.0327,2322.2468,-12401.153,-1937.3187,4736.8306,-6483.4976,21442.900390625
249,-17556.021,-7372.251,-30372.037,541.8204,-15335.941,-10555.26,37936.38671875
250,433.28607,2974.9888,15984.644,8201.433,2610.4229,12101.453,29501.642578125
251,-12278.448,-6655.7007,-24991.42,1316.338,10201.011,14389.896,34688.67578125
252,-773.1866,5654.967,-19936.842,-3283.6414,11490.165,6219.701,32805.890625
253,-3891.8765,-1767.3925,-5218.557,3122.6057,-1802.8579,-3773.8137,9529.94921875
254,1530.41,3594.984,5122.631,-2006.6317,-2258.5342,-1166.0342,6419.630859375
255,-5661.9634,-419.5676,-9450.406,4020.23,6500.362,-6047.89,18619.2734375
256,15259.131,-90.9792,17956.098,5452.148,10283.504,7618.6284,29408.46484375
257,-9620.329,-27509.62,-26279.701,-2161.5781,-5457.4272,-10202.381,26742.673828125
258,20733.773,-4483.3223,7089.2354,-3857.8997,-12975.369,2030.9229,32250.650390625
259,-24274.78,-32074.295,-62508.312,-1401.0865,-3055.4695,6005.202,36966.42578125
260,-12975.918,-13700.098,17999.871,-324.89056,-4057.9685,2956.384,32532.9765625
261,-16589.025,-12408.531,-2475.8142,-6326.769,191.42992,-14819.715,30605.9609375
262,-4406.51,2794.7192,-27230.094,12290.16,-3988.488,-3008.1877,35568.91015625
263,-2927.662,893.0289,6722.357,1399.0641,-824.59955,3690.2844,10936.9755859375
264,-16971.652,4607.792,-3263.3503,-4041.0352,1208.6854,8073.55,24631.111328125
265,5610.9775,450.2657,17975.154,-1682.6475,-3232.2935,2225.3289,17262.8828125
266,1652.2291,1438.8998,4825.9106,-2982.545,-1587.211,765.757,6840.93505859375
267,1843.0225,3915.6108,-1920.3082,735.81415,434.17664,-3391.5452,7934.45947265625
268,-1812.2589,8356.371,1903.0011,-4039.7576,2568.628,1776.5187,12555.701171875
269,-1034.5514,-1390.6902,-5202.7095,1075.672,1689.5264,-1744.9443,6097.96142578125
270,2974.1912,3811.173,10770.761,1494.8235,2106.4792,2537.0461,9710.1240234375
271,1873.1166,7033.9785,-6425.0864,1299.0587,-1094.177,-1952.5759,12586.2041015625
272,-711.8859,2046.2693,-1629.8691,1790.5797,283.71158,-171.86842,4575.00537109375
273,5882.851,2568.2693,11928.897,3428.6987,-693.4077,-511.932,10250.748046875
274,-3775.5063,664.61163,-4961.9614,-1864.3042,850.03033,2217.938,7330.93505859375
275,3573.1409,-1555.9103,1492.5048,-52.641163,-614.41785,-2818.9116,6704.0400390625
276,-8017.929,-3030.8748,-15494.428,-76.83498,1722.7119,-1548.8422,11583.267578125
277,-4037.0342,1662.2458,-5198.1035,-782.89606,-3520.5107,302.53397,8929.8642578125
278,-2756.143,206.5413,6736.226,672.64465,-594.7913,-245.70677,8565.0146484375
279,1084.8987,197.42886,-184.00722,-89.61389,-300.44922,-25.563873,1252.38610839844
280,-1053.3431,635.6726,-9133.685,1475.8662,1763.8911,-1144.5397,10079.2314453125
281,2352.0798,-863.023,-5462.8027,-1685.6278,-1329.5853,2228.7114,8660.9755859375
282,-105.166756,-630.5216,1119.961,1138.4185,-725.86487,236.9264,2838.59033203125
283,1436.1989,2873.5269,3848.6047,-1039.2308,1077.0288,-257.9559,3367.1640625
284,2566.5764,3047.6816,-4227.459,396.37793,-216.41435,-795.0322,7222.6796875
285,735.08215,-54.357666,5548.681,2514.737,-467.82904,-1053.3403,7109.9140625
286,-3245.4348,-2425.5144,-4412.416,2941.9724,-125.67782,-4941.181,10111.8623046875
287,638.5189,-72.183876,-112.62498,-542.75073,-60.373356,2414.2295,4349.21337890625
288,877.10065,-1691.6626,1341.2892,2564.2983,38.09689,879.298,5482.4384765625
289,1504.0131,-2105.686,-2226.5857,1564.4912,-2588.2896,773.2568,6535.69921875
290,-2026.7418,-5433.6694,-97.6744,728.18726,1594.623,-1209.032,5958.62109375
291,-555.4372,-1981.346,1089.8386,981.80896,-111.37241,294.71127,3205.58642578125
292,5216.693,-1453.0261,-1598.4316,-466.18405,-519.35675,1333.8752,7230.14208984375
293,-4566.2417,-331.37936,-4025.9404,-2170.8728,2112.1948,-286.3429,6611.0537109375
294,2015.3851,5554.2754,-4334.2134,-141.47385,-1464.6925,3107.029,10524.6650390625
295,-1378.1112,1413.4828,2751.6096,-4039.1858,-513.5589,1602.2762,8411.732421875
296,-5215.7236,-7045.725,-4627.203,3763.0176,46.524525,375.0021,6905.181640625
297,-3734.864,2299.4905,242.10324,360.27493,711.71155,69.93423,5491.35107421875
298,431.88953,307.3258,2522.0234,392.07956,-768.6123,856.5881,3013.1767578125
299,2145.2935,1007.70966,-4262.359,-1002.2511,716.3278,-598.2214,6378.82177734375
300,2950.7642,-199.47444,1242.9398,156.45848,895.6347,-213.8565,3174.54565429688
301,2305.473,-9714.602,9149.755,183.84547,-766.4084,-1467.1584,16790.365234375
302,-6583.2935,5453.33,-7418.651,-31.251965,2548.5173,165.65999,13236.4306640625
303,872.98395,6321.249,6219.668,2108.0752,3530.2908,-2891.5925,10244.2763671875
304,-3046.542,4103.0137,-1720.7478,821.9815,-5162.6147,1299.2476,11421.2041015625
305,1158.3616,8951.775,3541.835,1976.7292,-36.644306,-170.98521,7723.7919921875
306,3292.8484,4857.2085,19327.453,-136.51166,-6676.103,3271.0156,20008.435546875
307,5446.0825,-8717.397,22106.12,1494.6503,2561.9768,-3109.5637,27740.337890625
308,-16337.635,-9946.082,8151.6167,-925.1727,13734.429,-452.20456,32452.056640625
309,-14050.059,-7435.74,-28610.133,9614.27,2910.7812,-5158.4478,27103.490234375
310,2292.4094,9409.352,35979.984,3662.636,-5166.51,1299.0995,32728.234375
311,-133.09937,-26940.188,-12447.734,-1858.1412,-6015.6406,-4383.351,26771.51171875
312,-2721.7993,2651.442,-790.4541,2224.6592,209.58875,66.30957,6100.53515625
313,-5119.607,4674.5654,-14815.73,-1705.2351,1359.5679,325.49133,17305.859375
314,3386.053,-1243.8812,1978.3217,1198.5153,-89.29746,803.4846,4813.55322265625
315,-5038.494,-155.61162,-22013.033,1634.5018,-347.0903,1145.3944,20178.556640625
316,3327.7998,412.27277,2675.3933,620.26526,1133.2952,-109.01937,3473.72119140625
317,-6805.405,-2940.3445,714.88257,607.68317,-1622.6946,195.4634,7179.75732421875
318,-1479.8777,-1375.5156,-26.316944,-2185.0122,-1561.8573,1756.8516,5733.46728515625
319,-6779.4565,-3393.6677,418.50342,2947.131,3458.3074,11698.996,22615.025390625
320,5093.439,-5385.48,2395.942,2034.4468,-1724.423,931.6639,10618.8134765625
321,5790.76,-4503.0874,-4764.4595,1694.2332,-1921.9569,-566.9127,11374.5029296875
322,-9492.858,-17390.205,-3877.5188,2038.691,-369.93103,707.1468,12354.185546875
323,784.5624,4031.5964,8515.186,-2931.3047,-1248.6053,217.23578,8706.34375
324,-3978.9595,3597.4114,1480.6342,2251.4548,375.05606,-690.4503,7931.2021484375
325,-1734.7673,2342.9595,744.609,-211.14124,-852.38416,488.5496,3961.61645507813
326,4618.577,-884.76917,-545.90497,219.25186,199.20836,67.767586,5367.849609375
327,4899.3335,3923.904,2156.2568,-801.51697,-2329.184,-1105.5768,5260.203125
328,2315.4612,2396.325,777.2595,-1013.2067,1893.8412,759.2779,4250.43115234375
329,3698.7812,6.012755,-595.49866,1674.94,-2659.7393,-985.4577,6983.6875
330,-2144.2253,-3637.2488,-21290.293,3040.5396,-3698.8513,3721.6035,21226.060546875
331,3742.3252,2276.831,5622.2173,2096.481,-816.1622,-569.7089,4959.2744140625
332,403.37527,-599.1398,-1990.1332,-2269.3071,2880.0906,-1438.7986,7132.9404296875
333,6725.636,347.5992,29616.725,4606.4897,-1020.0049,-9809.246,32651.583984375
334,2991.1377,2478.4666,20019.51,6258.934,-2825.4224,-6030.612,23442.16015625
335,12617.084,9755.034,32798.57,7754.09,5622.175,-685.5617,27383.54296875
336,-22199.926,4388.935,7610.365,-8902.7,7533.035,-280.13123,34803.0
337,-2606.9507,1924.9156,-6382.52,2149.3147,1232.4064,-1984.3129,9062.6015625
338,3885.2434,6474.42,11671.519,3289.5295,-1997.2626,-1038.9491,9738.49609375
339,-6409.2515,-2142.5728,-19429.477,228.31941,-1694.6512,1398.026,16059.865234375
340,-6773.741,-3005.5667,-28128.91,-5001.508,-2013.735,433.1944,25268.28125
341,319.09796,-1791.7867,3225.8057,-670.1438,313.53735,-1252.8673,5039.021484375
342,-887.95087,-2824.946,-5401.2896,-489.4449,-1332.4838,-655.6898,4766.01025390625
343,458.43124,3562.3877,6162.7954,-397.0069,-253.78442,1328.9285,5516.56005859375
344,1653.963,-4525.0293,1764.577,-74.71514,479.26944,2297.536,7444.294921875
345,1864.2015,2596.4553,680.06805,610.4004,456.8111,678.4367,2435.17529296875
346,-12752.256,505.39722,-5661.342,-5175.631,240.91855,-901.0491,14663.1787109375
347,3136.5703,942.6021,-4363.7686,1275.2063,-1164.9923,21.331816,7318.77880859375
348,45.78135,1676.0063,-2389.316,773.8723,89.93066,-59.48165,3793.23095703125
349,-1236.3086,-748.7212,-7002.9727,-2458.2517,824.6612,404.2706,7547.4111328125
350,-4520.5254,-2354.5393,806.54645,-2112.5366,-144.53973,-577.8387,5998.63525390625
351,-1372.7063,-167.05267,17419.842,2588.231,-362.00598,-1388.036,18926.861328125
352,1614.0175,215.22502,2131.329,437.5492,12.386524,-654.51685,2192.67602539063
353,466.79428,-1196.3544,-1269.5476,-1557.7998,-321.84958,95.39382,3242.13427734375
354,65.10236,-1532.5522,-4531.4565,1692.6721,140.33672,1623.4836,5735.7421875
355,842.5793,5009.2153,668.7854,2940.0564,-404.2745,14.22777,6673.6728515625
356,2450.8088,-1229.7487,-8531.968,512.72363,413.78888,1185.421,9963.0888671875
357,-1486.4803,3746.6362,600.8157,3444.7666,13.125922,329.8241,7532.9521484375
358,-1445.6426,1243.7224,-5379.496,3638.4111,166.03815,-218.93463,8557.33984375
359,-1737.1626,2929.2974,2882.9395,3274.9517,496.24078,-90.815,7382.48583984375
360,1334.9932,-398.70126,1225.8861,1023.61536,30.5355,-172.7575,2462.54736328125
361,3283.488,1690.2914,152.22998,196.57913,-256.9932,-361.30692,2839.0205078125
362,1810.9124,-7152.1343,-3573.7676,-2325.748,-2441.1003,-2236.4783,10496.5498046875
363,1458.1227,-986.7604,-128.99153,-710.794,23.741798,-20.454758,2476.833984375
364,260.29944,3170.561,3261.8188,1439.0662,483.5343,-1959.8187,5213.47802734375
365,-1430.5105,1646.9006,-1393.3207,-789.2592,118.714645,101.50115,3361.45361328125
366,811.0412,-611.24927,-274.1596,-173.96149,249.28032,91.366486,1399.76916503906
367,-1680.7097,185.82466,634.3715,-3933.0408,87.83903,688.63806,7237.03125
368,-287.2312,-2813.6028,-935.4741,502.88354,-245.10373,-67.80129,2473.41137695313
369,-244.10318,-1703.3667,-1371.724,365.27646,-24.236195,81.54087,1475.62609863281
370,3031.2983,-1235.2538,870.9538,-673.8841,-11.429219,109.030304,3879.658203125
371,3520.283,-1368.2893,3480.2263,-558.2138,-197.62434,-316.82953,5005.70068359375
372,278.27206,-328.74033,842.89905,-2.8558636,170.2907,-60.579987,1062.08959960938
373,-1190.5651,833.53735,-79.436646,1410.3605,108.15959,-4.0248218,3014.14208984375
374,-1019.1359,-1536.0033,-220.32526,628.66406,30.933205,86.990105,1590.39538574219
375,-657.75757,-1218.1144,-82.863686,-1031.9982,123.89523,110.434906,2060.18115234375
376,-4330.793,-1185.7854,-3562.7979,-3920.2397,-506.00558,1281.954,7737.48779296875
377,-2407.86,2413.1577,202.4613,632.52527,764.9469,643.75635,4655.1630859375
378,-1116.0076,-152.14503,-1295.5142,37.93228,-451.12183,-309.5902,1427.11633300781
379,2212.0881,1754.662,-58.14199,-181.58673,249.13966,-29.29042,2147.65625
380,-6045.101,-5491.3975,-210.78772,2682.2957,2929.6465,-283.70398,8870.705078125
381,-4415.806,387.58356,-1362.0692,596.23145,-724.915,-139.95494,4520.1015625
382,103.10403,-1287.4095,-371.6529,794.85254,-825.28705,-125.833565,2341.994140625
383,2694.0293,-298.50574,51.656143,-587.62836,691.53845,-18.367104,3240.61987304688
384,2790.4395,-857.43774,795.81055,-259.40106,-196.82695,339.37122,3266.95556640625
385,-270.59042,270.7041,876.5469,595.63654,-52.51651,33.316067,1436.64086914063
386,-820.56177,-1575.1508,144.4143,801.95984,68.854576,73.1903,2046.57165527344
387,-706.4885,-79.96923,-707.51886,607.4649,-52.897552,-265.7053,1311.642578125
388,-193.73637,1226.851,843.82056,-988.5308,-98.83086,241.87729,2181.06591796875
389,-1471.2698,1844.8152,302.3059,-1874.36,-284.73386,-257.14978,4386.5634765625
390,-2572.3457,-3454.7854,-593.85846,-1755.1262,165.10315,437.83777,4041.94189453125
391,-79.10161,-610.9724,-93.99623,-1822.3151,-1015.20685,1200.8674,4201.88818359375
392,537.255,-524.8989,-698.747,-1251.4564,-68.835045,75.26837,2464.28247070313
393,1439.0759,-1492.5433,-537.50555,-122.71392,390.44522,318.5078,2741.083984375
394,442.4802,848.57465,2497.6353,-557.39966,1029.0219,-209.97394,2791.95190429688
395,205.19554,-1179.8969,-204.12,555.3672,333.44806,148.66127,1686.48803710938
396,-650.1167,1602.3292,-358.3416,-408.84323,-6.2534437,-230.10854,2271.97338867188
397,-541.76697,-956.2135,1175.7983,36.252487,367.46146,154.76006,2077.14086914063
398,149.25237,261.27722,277.3931,1080.1,23.48256,-97.294495,1882.68835449219
399,4792.2676,6066.167,2300.21,896.6332,517.5804,134.2567,3778.54443359375
400,4122.7085,-1724.9862,1259.3068,1410.699,-811.2085,664.1196,5909.1337890625
401,3332.9922,-1111.9542,261.5073,-754.3737,769.223,-176.0965,4371.998046875
402,79.902916,-2145.8618,1763.8446,-2664.3538,-505.8489,978.6881,6039.47265625
403,-331.11676,666.8945,-2207.2705,-470.7443,-291.87415,297.4005,2752.11108398438
404,-2582.9062,2132.2832,495.15863,-1236.435,235.74632,-808.49347,4889.56689453125
405,3633.1045,-610.1037,-163.57973,511.3238,1761.9272,171.81995,5147.38671875
406,1222.0814,-76.44849,260.91022,-193.67172,1.3623092,182.65193,1254.80578613281
407,866.81995,718.33875,1432.7588,-192.17297,-24.568287,-142.55086,774.550903320313
408,425.50143,-3270.1177,596.9399,-2527.986,-37.101112,-323.6508,5814.72998046875
409,-3481.5784,-2796.8474,836.4702,-1833.4203,-1167.233,-31.434328,5507.47265625
410,-3675.3237,-2584.9746,-481.67493,-1330.6249,252.56793,-826.23346,3931.552734375
411,-517.5435,516.14764,-1060.4971,-1543.47,-31.972263,-502.43964,3135.58032226563
412,560.05646,-83.00316,-728.1679,348.59625,276.50217,50.59511,1358.76428222656
413,-4389.502,3036.7695,357.10358,-5895.124,-420.31656,255.15619,12141.3740234375
414,384.31668,326.89908,-129.98438,-662.36633,-313.79282,-311.5954,1463.26098632813
415,2812.0303,6939.7163,5320.3257,-1310.4371,-478.75153,1985.3579,5535.35595703125
416,1143.0471,-1606.863,-2640.2356,-68.83522,696.4078,384.26727,3658.37329101563
417,-1291.419,-916.7018,155.38931,1477.9866,7.885536,-104.58431,2877.12646484375
418,1087.7957,-68.85358,-700.669,-290.23398,257.96442,-104.22789,1718.35717773438
419,622.266,88.680176,-610.79456,444.72687,-429.09476,155.50366,1538.00695800781
420,-6031.49,-4172.0103,-394.1536,2080.9255,996.3022,848.9598,6548.70361328125
421,-2697.0698,-3309.704,-933.69354,224.26999,-209.2814,-166.90883,2220.58178710938
422,4479.263,-225.44936,2681.5234,-431.93115,575.5152,-557.391,4403.83251953125
423,-11687.764,-8655.352,-15.402167,-520.56824,1497.02,1404.2865,11112.8916015625
424,370.37714,-360.0745,225.3236,-821.17084,-150.8124,-66.6757,1597.86743164063
425,-1274.4736,2040.2444,-499.885,1572.3148,-240.57031,-657.8432,4231.81005859375
426,-733.3126,352.14584,-675.7014,-493.26877,411.36963,-483.63034,1748.80432128906
427,-75.9868,479.61133,-1060.5958,-152.22418,-152.91443,197.80626,1442.99621582031
428,-1683.1693,248.45052,-367.27982,298.6602,-44.861973,2.4543536,1787.33654785156
429,818.58954,-779.0884,-1304.2852,-562.4552,-7.662433,233.1111,2186.26806640625
430,674.4662,-742.7411,60.201546,663.479,374.22968,123.47235,1817.07189941406
431,-71.37405,927.2425,707.9273,-709.1494,17.60997,-162.99289,1554.23010253906
432,271.08878,55.06469,593.9411,757.5802,224.21295,451.60474,1644.71337890625
433,866.80634,-279.10144,121.97568,-414.96658,694.5531,-311.02774,1807.86853027344
434,-1650.0691,-1607.8767,-1129.5073,1907.9924,-634.63086,29.867327,3518.95581054688
435,619.4273,891.0047,710.02576,-769.467,176.70328,203.60054,1432.35046386719
436,-33.03221,-848.24744,-448.62134,-985.39655,405.4789,-12.536998,1976.16442871094
437,-150.49092,36.365376,-259.9091,-488.2321,-19.151392,44.515343,888.532470703125
438,-201.30325,-2253.3076,-1061.2576,1561.8547,-917.071,-114.05646,3614.67431640625
439,-5139.1094,-8302.3,-3153.498,-2662.88,424.19952,-897.88245,6667.8701171875
440,-133.4888,-1265.4514,924.7766,-139.52747,172.5609,167.44826,1957.302734375
441,2523.4302,-1422.5737,-675.99335,-2459.9104,580.2004,-320.98914,5714.4375
442,-486.1092,1193.8119,-149.74355,1349.7007,-99.228165,-78.898834,2807.7568359375
443,1305.3163,-563.1936,1227.6163,459.71048,-229.79247,-38.419437,2036.91589355469
444,-524.4133,-543.4157,-1051.032,-1694.0002,-209.60886,-891.37714,3375.21240234375
445,-745.825,-214.02867,-393.0082,167.20042,196.46956,-225.5237,756.248657226563
446,1736.7654,-1709.1887,685.63104,-1265.8619,-98.93971,-129.64178,3774.166015625
447,-1062.8275,-551.62726,1168.5168,-1610.8896,-64.3225,109.90882,3454.43334960938
448,6963.5957,-1702.4685,635.6106,-144.27155,-1667.7899,-848.7026,8418.625
449,-5394.029,-3143.0896,80.09895,-285.37537,382.89545,437.57977,4895.85986328125
450,-280.46692,804.4075,-43.52444,690.1028,109.000015,87.23411,1569.47106933594
451,-41.249386,1070.5798,-223.44246,381.1039,-130.15683,47.188217,1401.83776855469
452,-246.84164,-766.3874,-173.07916,829.87085,-54.65187,-219.3218,1591.544921875
453,-586.9679,-874.3332,-2476.5205,-737.43414,-755.1016,31.450603,2540.65454101563
454,278.15805,239.41295,183.04224,-1510.2103,149.72897,-88.19394,2634.32348632813
455,1828.8711,-447.88876,1166.5544,-109.44263,52.04923,-182.81502,2063.65869140625
456,-1528.6669,-1592.3225,-1937.4203,123.20563,-482.19553,65.54611,949.250915527344
457,1628.1235,65.5333,-49.46075,-19.710936,-211.73589,278.04123,1732.68078613281
458,252.95294,-1588.2959,660.60297,-2044.7612,-155.13759,168.23247,4123.98046875
459,-1131.8547,1701.3739,-1902.023,-647.5613,57.88121,-126.705376,3481.181640625
460,1364.0605,-920.25134,-1129.6366,-78.03345,-1061.5334,-253.52057,3054.81103515625
461,-1177.095,177.95067,-937.1794,-1145.2504,77.18939,88.927345,2354.78369140625
462,-668.1758,298.75574,-199.30685,-685.6742,-214.92917,-369.25125,1630.79760742188
463,-2392.4539,-155.53996,-1389.0321,1026.9535,596.91797,5.165229,2828.24755859375
464,-5137.3237,-8391.278,3382.9436,1879.7306,-1223.7327,1248.7781,11431.4833984375
465,-21.340384,1010.80835,504.9222,-1695.7295,-149.04834,6.3641872,3080.96826171875
466,184.7772,608.6291,-941.23193,-199.93219,17.793797,-17.614119,1430.59680175781
467,-554.4117,-480.5526,-365.75623,566.7882,-15.469372,187.18326,1047.22937011719
468,399.90857,-292.9106,1539.7936,706.42285,698.6731,-24.233118,2352.09790039063
469,-1024.7195,-947.4973,78.45585,-327.90927,-261.90106,71.98181,1296.78967285156
470,-2518.254,-670.14624,-453.35907,2581.9722,-1262.3003,840.70087,5546.478515625
471,-268.04,-549.9593,-535.9653,68.01994,33.641613,174.66086,429.562316894531
472,-831.9271,-103.92388,-109.80323,1477.1854,-123.3561,169.87907,2684.06420898438
473,-2295.7305,-1546.7834,593.7429,883.013,6.3046613,-52.636703,3015.5400390625
474,383.72025,1710.6743,734.9969,-32.084446,-388.79694,-124.6203,1386.0888671875
475,990.4693,4413.453,-217.38396,-393.96356,601.1896,795.0073,4555.89794921875
476,739.7398,-766.5137,7.4242096,1158.2175,-1133.2745,-637.0167,3285.83935546875
477,1535.3,-655.6485,725.98224,481.14017,-46.176994,-13.365828,2093.68041992188
478,-704.6057,4997.6133,705.37036,686.3126,1349.6442,-1838.753,6594.24560546875
479,-1008.645,1437.6271,1369.5831,-346.66602,325.58032,23.90413,2550.03466796875
480,457.50168,3876.2595,-72.1408,237.5801,-390.32,-203.53047,3811.79736328125
481,3640.7498,5069.772,-129.75475,1597.2101,-261.06757,176.40308,5440.40478515625
482,2064.1084,-53.860752,391.49487,-756.0192,72.09345,-344.7822,2414.08325195313
483,1928.3762,-2293.4524,-389.35303,-407.12744,5.4203343,133.39557,3736.49291992188
484,-658.23376,2119.1235,513.1736,1342.6619,293.7594,571.6426,3532.69360351563
485,-1852.4658,-2740.9631,-184.04471,987.4446,-288.90643,-297.00903,2914.72607421875
486,432.5168,-303.0816,-613.43896,257.14194,-226.14465,-153.56326,1135.01550292969
487,-4480.341,-3913.7166,-991.8858,788.3442,118.15394,-205.86652,3542.20581054688
488,1711.177,-651.21454,970.93835,-123.029175,771.9976,-729.57135,2794.68896484375
489,1227.1023,-1483.793,-623.69714,-47.008057,-282.47037,-95.66885,2455.71655273438
490,442.65073,-4.439733,300.32242,-573.8652,83.63875,-108.44386,1095.78454589844
491,-4932.8906,-3181.6636,-822.025,-1123.5461,-195.71071,182.21967,4094.94091796875
492,-6847.8315,-3714.4475,-2266.5017,-211.55598,-144.31462,46.998215,4081.05224609375
493,-230.03403,594.2866,-591.6125,528.64136,384.28445,-100.28071,1555.59558105469
494,36.88247,-2388.476,212.95096,-539.30347,-2.6413374,-28.692688,2686.15502929688
495,-124.23192,-2048.3982,-415.77408,-1273.259,137.08351,125.272354,2862.42163085938
496,-439.42163,1338.6696,211.13913,-185.60443,347.12695,249.89706,1755.06848144531
497,-1838.0227,-958.5634,-1374.9019,191.2707,-650.2662,2.8410451,1399.62475585938
498,-1486.8983,-301.6787,290.8024,-419.13144,198.23506,101.75186,1770.30078125
499,2687.408,1472.149,165.3023,-194.4454,48.89273,-464.8681,2354.09545898438
500,-501.4283,993.92975,-824.9101,-3898.9243,1601.2709,-1570.7272,7970.134765625
501,586.6063,130.57051,226.93472,948.9147,-121.84421,198.0768,1742.6611328125
502,-2821.9155,-2257.756,864.0257,1839.5376,565.33923,35.36639,4789.494140625
503,-1952.9478,935.0794,-728.3601,733.1869,-242.55156,-40.24647,2845.6484375
504,-865.9172,-898.41455,-3249.805,144.04474,-188.88336,-238.19933,2438.4423828125
505,-2328.641,769.2141,969.7499,1029.2993,472.96042,3.5733871,3756.013671875
506,-252.55377,642.1735,1554.09,456.21158,-189.43282,129.75082,1797.38488769531
507,746.7978,2654.8958,1342.9288,-615.0042,-242.11668,-148.29024,2057.97387695313
508,-3335.543,-1133.1224,2896.23,-2098.7905,-1072.1146,799.43713,6967.138671875
509,-915.15564,1753.963,214.60371,495.81857,-24.391455,382.19257,2561.75634765625
510,29.600632,936.29443,19.803371,321.3742,124.73936,-110.241714,1106.37084960938
511,218.06085,1644.0814,1066.8916,-674.7669,22.026333,167.40475,1730.62353515625
512,-1281.7976,568.468,897.1697,522.49524,-63.93566,124.320175,2239.943359375
513,-860.2275,2403.9446,20.884062,-483.43283,-197.0179,53.195183,3062.86401367188
514,-1632.4381,250.06795,-73.346375,824.22156,285.6661,174.39584,2326.73095703125
515,-1397.916,3517.912,141.57756,-418.759,70.56991,128.83406,4422.48046875
516,1247.7784,2558.727,2225.6309,1192.2655,479.3372,1553.9774,3686.62280273438
517,-3380.4922,-3173.551,-499.74448,723.2171,-145.20653,-95.96707,3066.822265625
518,1617.2153,-1625.4609,-271.5396,-18.297718,-632.53973,202.68752,3046.68579101563
519,918.8321,44.35658,3049.4666,-566.08527,250.76384,-5.0159297,2884.02124023438
520,1800.4149,162.59692,542.02155,-819.682,-1080.2582,-254.66026,2813.54711914063
521,1868.2411,77.889336,-703.84485,-110.82124,950.22107,585.4843,2998.33740234375
522,143.72357,1407.8708,588.52893,617.6797,176.23843,209.68828,1613.47229003906
523,1274.1473,-1735.0643,-734.96313,-581.9377,487.01715,-0.8679313,2962.01879882813
524,1022.5685,-1724.2687,-1897.4415,-94.941086,-258.51572,143.41301,2887.90844726563
525,-425.8597,1567.147,-793.94794,856.9285,-353.0522,194.99025,2744.47583007813
526,-4420.7905,-2392.3687,141.01024,-49.56618,-638.2267,43.059315,4111.71484375
527,-5175.873,-5028.9424,-933.7532,303.76935,153.90614,-64.464615,4213.57666015625
528,-693.3841,50.19982,-317.12927,222.05171,86.12679,-108.940384,787.709350585938
529,551.29004,2685.6956,1025.4359,1073.1582,58.68519,-11.107453,2689.64477539063
530,1191.4695,1272.1022,2636.6912,-220.85738,68.97817,-53.535145,1465.55151367188
531,-356.03345,-966.3504,704.81354,2149.9827,-152.62901,-108.23693,4014.67846679688
532,-526.59155,-254.15404,-176.08713,1047.9111,248.53279,56.7362,1894.96716308594
533,-673.4768,-2747.3328,175.51164,-34.918243,35.001247,-209.36885,2630.81323242188
534,-976.9469,-1652.0734,-431.10168,159.53944,-127.76646,140.99376,1143.33996582031
535,-274.70013,-226.63034,8.30047,-409.3401,36.189007,-402.90213,1030.72473144531
536,-351.15247,67.10824,53.881287,-305.68848,-156.2878,120.53859,752.852783203125
537,-3971.4343,4561.096,973.982,726.9922,95.53565,-39.993572,7528.7470703125
538,-3582.9062,1305.5521,418.0665,1949.0922,38.162712,320.0219,5661.68798828125
539,866.3015,2061.1255,1272.2887,475.46133,-636.71515,-60.863667,1735.76171875
540,1262.8818,-539.18536,1739.9403,1089.5662,263.6336,-126.82584,2855.33666992188
541,65.02304,6431.4766,257.3055,-1530.3159,-33.55355,379.18967,6841.40869140625
542,-2111.8892,-884.8474,-590.3214,2576.338,-266.92105,-138.45859,4705.05859375
543,-3116.3264,-1768.4373,-1734.7368,2389.874,-48.944466,100.76445,4362.97021484375
544,7062.349,-3846.4453,-1172.1136,933.3367,541.5588,-15.420868,10023.673828125
545,-2472.045,-1137.8175,-651.862,-682.2264,-296.4885,-70.13706,2083.13793945313
546,5688.7383,-812.0828,-612.5309,468.37704,-179.0547,81.3683,6463.54541015625
547,4893.786,-4004.5913,-801.46765,-2792.0652,213.47269,4.619815,9190.3310546875
548,3956.966,-1748.8198,59.700523,-2823.4573,59.477726,-21.484087,7031.03369140625
549,730.2154,738.75464,117.3663,834.4593,-197.37042,255.74315,1668.21337890625
550,2681.302,1443.4039,116.37545,-134.54742,-2.3029158,13.130435,2234.04663085938
551,3267.6155,943.144,84.630936,154.6843,51.152927,45.79476,2867.35498046875
552,-2199.6028,-27.859493,375.09268,-552.6044,1089.3369,58.583614,3200.05053710938
553,-591.496,1663.1694,152.14473,-91.025986,82.84723,-136.80646,2015.3046875
554,-4298.3516,-3929.7512,-2261.4712,-104.97676,-43.355267,16.914938,1890.37316894531
555,772.25195,3901.2805,-19.084728,-648.02893,-140.96649,250.93668,3794.93017578125
556,1145.4061,1637.1754,2175.5464,-1119.2528,222.45013,-142.3243,2182.62158203125
557,1994.8606,1475.1315,783.1004,-1355.738,-190.10806,59.25702,2596.48388671875
558,1743.7272,2224.3496,374.86536,-183.86655,233.66994,300.68295,1816.35412597656
559,3984.338,2197.6733,956.1704,58.142952,-33.463337,185.19121,2658.578125
560,-2595.8816,-6076.9907,114.758125,-1556.5986,-56.820118,-238.10303,6029.13623046875
561,-1167.5853,-4494.0815,-81.36375,-1631.4369,-45.443817,207.43582,4896.81591796875
562,481.81287,-1340.9722,-598.67944,-560.9627,-580.52234,-455.9628,2258.1552734375
563,504.71738,-2368.3213,-578.03815,767.2565,-245.35664,-500.6638,3002.42431640625
564,1884.0934,-228.07216,-661.71564,1861.8705,-221.3712,188.45511,4027.21533203125
565,-52.397533,2567.1318,483.1896,-128.94258,-51.716072,-141.56033,2421.53295898438
566,1703.4679,-1138.1141,-384.09805,-248.30608,82.64357,-149.03513,2602.42602539063
567,2131.188,-1149.1912,159.88918,217.16956,-130.0679,-132.86198,2902.67065429688
568,670.20593,-675.81323,733.21277,-1333.5941,197.32692,-211.2993,2736.18725585938
569,-1261.519,1577.3701,-1805.6279,2520.1423,59.831013,-407.0245,5427.80908203125
570,653.5956,1880.5085,1497.319,1095.3627,217.51476,48.05203,2220.43505859375
571,-812.49194,6670.973,-130.94888,-1579.0133,168.29994,-21.817358,7676.76318359375
572,770.7754,3940.959,2003.5404,-1765.316,127.47225,30.665668,4130.650390625
573,-714.2688,-168.04257,-366.7973,-112.448006,338.83133,229.06195,876.962524414063
574,274.457,-1.5540241,75.57804,204.2587,-53.298004,80.797295,462.724151611328
575,753.6709,192.529,516.80457,319.7908,-255.72939,-143.3081,895.920104980469
576,1643.3845,-133.54732,-120.36776,-833.8572,-347.19553,48.14414,2364.060546875
577,-120.32692,-1981.799,-82.359886,288.92056,314.62112,642.17847,2306.8935546875
578,-6954.4775,-823.59283,699.0111,875.02246,1099.37,-849.3174,7571.51416015625
579,1238.6869,-1818.1333,-3229.9102,-717.47125,-1159.6918,538.8476,4701.365234375
