Element Label,S11,S22,S33,S12,S13,S23,Mises
1,-514.15,6111.539,1990.7954,4969.69,5751.0986,-11329.893,24330.96484375
2,19015.977,8821.322,1872.1455,-9807.997,-5974.368,8247.986,28684.908203125
3,-1212.4082,-7038.4487,-36218.164,-1323.1857,12391.358,-198.66138,39005.2421875
4,41393.773,-802.8041,27601.912,-2713.141,-3972.6663,3688.6465,38717.5078125
5,38936.316,35909.72,27614.418,3652.7783,-12459.005,-5747.674,26606.294921875
6,18658.285,-20330.752,8442.7,1066.947,-6579.1436,7559.4336,39126.8828125
7,22479.547,10074.671,10336.133,10623.227,-3867.6697,-10211.376,29102.54296875
8,9196.368,-12290.078,-4999.6895,3442.897,-537.3365,7621.7964,23851.095703125
9,2703.2012,-24838.004,-30060.148,3875.7441,7263.5317,3624.387,34239.77734375
10,24843.559,31236.262,49449.3,12098.064,13030.109,-5137.215,38943.87890625
11,5300.9883,5122.415,2379.6763,-1186.1469,-8067.4204,-5902.9497,17664.919921875
12,-6148.472,-701.78955,-17148.047,1947.7856,3937.0327,-3129.8223,17257.978515625
13,35662.887,28347.002,21501.654,957.1037,6865.141,4245.6685,18672.880859375
14,17764.252,-14182.875,-17683.848,-4556.711,7884.1035,-3679.7378,37869.66015625
15,-3984.106,-26389.035,-12745.066,9039.75,698.7806,4159.853,26095.513671875
16,2788.3374,3231.1936,5923.765,2053.3284,2610.4336,5584.878,11631.9658203125
17,48818.977,48797.08,49687.125,-312.17853,-572.2604,-807.45764,2000.98681640625
18,-6476.481,21359.309,21591.875,-5909.926,11367.462,-5935.1294,37141.2890625
19,-2224.3787,-1557.902,-1031.0956,-479.04398,-394.69745,769.2669,2000.9853515625
20,-1494.9749,-5046.558,-860.79333,-2133.5105,1688.314,-3741.75,8914.9970703125
21,-2201.6458,6900.344,-5617.376,3335.1956,-9235.396,-7367.502,24035.220703125
22,4207.983,3085.5027,3479.9546,-459.19983,-761.9065,467.99396,2000.98547363281
23,-24921202.0,-24921776.0,-24922002.0,114.73184,-271.62793,-554.2569,1301.05017089844
24,103605.766,102895.414,101644.87,319.14374,317.73618,-118.42076,1899.28735351563
25,44524.434,44183.637,44845.02,-566.68304,882.34894,354.38342,2000.98559570313
26,10099.073,10467.657,9653.285,-377.34375,-758.61755,-670.9192,2000.73889160156
27,36312.402,37283.562,36787.227,796.0384,653.7551,-194.28932,2000.98571777344
28,132056.22,138387.42,132458.52,2060.749,-7938.4033,-2588.4307,16111.9111328125
29,7713.279,7747.6016,8235.429,912.70294,618.9529,182.23946,2000.9794921875
30,-21405.828,-17224.2,-4334.212,-6732.2837,-7992.464,-5749.884,25774.634765625
31,15716.981,12537.516,11986.066,-69.74969,-1099.8063,-2523.0928,5908.27587890625
32,11864.454,9727.026,8768.149,-1010.6034,-2503.5374,-734.4484,5569.818359375
33,-8353.02,-9114.261,-9152.303,247.66446,-952.34985,403.77322,2000.97888183594
34,14265.35,9481.376,16010.714,7179.2583,-6990.3296,-2570.1484,18849.90234375
35,7482.185,-14140.835,14398.685,3281.5762,-6533.6636,-5933.7397,30511.455078125
36,777.08484,9266.242,10594.0205,3109.1729,-6228.8247,-3910.1323,16624.185546875
37,19197.652,7686.9326,14854.355,13146.265,-6241.682,-4604.349,28289.841796875
38,32394.912,29623.54,30940.992,-523.5265,-5683.234,-2978.174,11405.8447265625
39,7915.86,11650.177,3466.6938,7010.7466,-8767.121,-4117.8516,21892.095703125
40,3521.2527,7613.702,12653.679,1530.7544,-1397.1877,589.92816,8758.1640625
41,4714.1963,3900.0068,4731.5225,416.51813,-640.1575,724.97455,2000.9853515625
42,1347.2584,219.75534,-230.67882,482.1094,-418.70355,-515.976,2000.98486328125
43,5249.0767,3470.5056,4586.161,-598.2861,397.80502,-102.678185,2000.98559570313
44,15387.358,9592.998,14047.901,-1360.7557,-595.353,1412.401,6341.16650390625
45,-23950.816,-7112.774,-8426.543,2754.4385,1252.5547,-2434.0469,17560.341796875
46,-14696.465,-11005.445,13027.861,2354.7075,773.39734,-1987.856,26649.83984375
47,5674.35,4776.6724,23095.527,1380.469,2321.6482,-2499.492,18988.71875
48,1295.763,1520.3434,2198.9014,-900.14417,-276.2545,-1823.8372,3647.21020507813
49,4859.084,-2210.4258,4963.6846,-7441.036,4748.777,-9150.205,23144.478515625
50,24177.234,29962.076,24177.148,1764.2493,1029.702,-6001.724,12411.5087890625
51,14923.816,9760.324,13509.815,-3715.4705,1929.9497,-4028.008,11073.513671875
52,15471.128,6416.9365,9160.276,-1436.1061,-795.4503,-5735.167,13093.029296875
53,-52221.66,-48754.742,-56382.586,104.378525,587.7255,4951.7256,10880.5390625
54,-20687.164,-8274.862,-12728.239,492.76602,-674.0527,1999.3268,11519.74609375
55,79147.625,79303.19,80391.22,-437.92242,-314.44635,764.76666,2000.95739746094
56,-252055.73,-251564.86,-251329.95,55.075924,-271.4472,1058.669,2000.98461914063
57,23651.027,22154.818,22966.371,-691.53766,-125.67172,-526.9211,1999.49926757813
58,-1848014.8,-1846284.1,-1846203.0,-284.45935,99.52028,410.899,1980.15637207031
59,-203766.84,-202594.7,-203323.67,460.936,-875.9049,68.478065,2000.98413085938
60,37229.71,37934.0,37911.547,-22.818485,936.68243,-543.6147,2000.23706054688
61,408.4535,2517.4294,1867.1215,170.84297,24.501432,372.1037,2000.98522949219
62,19077.457,18626.082,19308.402,456.7578,-960.7613,-287.25934,2000.98522949219
63,8243.288,9545.2705,9726.001,-256.1491,-715.74786,-319.94324,2000.98547363281
64,14070.043,16827.766,14659.592,2134.8738,703.0191,40.925095,4635.4697265625
65,6839.873,4998.228,7056.0996,2421.3916,4595.544,-3244.887,10787.5380859375
66,86021.75,85896.75,64479.227,1229.3734,-14793.1875,1315.3638,33580.39453125
67,-25714.87,-37623.008,-28748.387,-3884.6924,-2342.7134,365.1246,13304.87890625
68,-12542.46,-12618.964,-10796.09,-426.39877,6299.855,1074.9238,11236.796875
69,-28924.945,-15258.854,-18072.963,717.1762,10571.893,-1686.2083,22396.228515625
70,30113.209,28495.39,33430.47,-3549.873,8057.364,-855.4763,15929.5927734375
71,41901.082,8065.54,38701.12,3960.8953,-7377.707,2338.2026,35687.12109375
72,-14040.337,-3887.4148,631.96716,8998.8955,2246.8618,-1771.8568,20902.046875
73,65176.863,60630.832,58171.848,10469.349,-874.3813,1425.8055,19367.6484375
74,48652.44,46718.38,31883.459,14189.758,4603.1665,-5860.8506,31987.04296875
75,78408.59,69056.77,60694.97,3032.724,1807.7543,-328.96268,16531.64453125
76,15938.325,22787.086,24873.785,11647.346,-3470.7888,1563.3691,22715.734375
77,81190.89,89043.266,83270.266,1323.4475,4117.357,-8252.887,17609.611328125
78,-11102.769,4640.922,-14049.716,-3292.4773,762.49207,210.20657,18366.875
79,-3406.277,5622.7124,6230.09,-931.46326,4190.3506,150.2575,11946.6845703125
80,-2610.6099,-4798.127,-3426.6646,-176.2355,194.80003,208.87129,2000.98522949219
81,15414.949,5688.255,12513.365,2311.428,993.9288,3723.4404,11635.66796875
82,2779.1213,-2135.446,6146.9746,1413.9059,1943.2504,-6552.3535,14077.3935546875
83,-10142.496,-14325.467,-10844.398,-1060.7106,-37.017277,-166.81187,4303.11328125
84,12900.501,21758.438,13183.799,2656.4941,-5802.5654,8713.827,20639.921875
85,10675.668,1741.5505,7599.3687,-292.89694,391.6798,6977.813,14442.482421875
86,12750.671,-1124.4006,10850.866,5244.8467,-7715.705,10177.833,27233.3125
87,6190.9463,4077.9998,-374.88263,1085.8853,1993.7529,7931.6523,15423.919921875
88,-718.5428,-12767.368,2262.7544,-10373.8955,-2512.511,-836.1141,23105.669921875
89,-9341.752,6093.9478,7713.3926,-1635.9341,-2225.141,199.14615,16996.537109375
90,-31542.658,-27980.236,-28237.709,2321.1436,-1612.1234,-2235.5483,7126.9130859375
91,16362.377,14531.605,15717.915,637.6928,-198.30144,-161.83159,2000.921875
92,26964.168,28926.988,27297.127,292.92477,11.072942,380.4665,2000.50830078125
93,-73942.14,-74945.945,-73062.85,-510.53894,-176.89432,-393.57904,2000.98620605469
94,3041.154,7963.1665,9245.289,3562.322,-9465.821,-3270.3665,19265.052734375
95,7391.6597,13962.21,18270.867,2499.0835,-7580.7666,-3134.4082,17625.572265625
96,24214.885,26222.168,26153.174,-964.59143,-2725.4207,-1484.2992,5964.89306640625
97,-682.36456,7425.1196,6069.133,3149.0002,-12585.94,-7577.68,27088.861328125
98,8355.501,-8132.685,20698.271,-11100.971,-5697.014,-5084.9663,34239.55859375
99,8017.858,11156.738,19068.395,7251.822,8984.773,-3707.833,23204.955078125
100,128422.65,113213.21,114686.33,3357.7715,4464.4126,2824.7878,18128.62109375
101,-2460.263,6926.6226,6482.6987,-5300.1597,-901.506,-605.2361,13113.1904296875
102,-16750.389,-18406.018,-17657.295,-563.76483,573.87915,10.853955,2000.98559570313
103,-133237.61,-131780.45,-131549.83,445.67404,-505.89474,179.8945,1993.31372070313
104,-270.26266,-2164.2864,-1035.6642,218.73485,507.78455,-348.01294,2000.97119140625
105,2110.607,992.1958,1724.1746,-573.6778,548.893,617.72595,2000.97692871094
106,-3560.4749,-4252.0347,-3817.016,830.8139,-1955.4645,654.01654,3897.71044921875
107,-17720.004,-21506.094,-1593.4714,-2330.0833,3666.9487,1113.6804,19894.830078125
108,6567.961,7076.2017,19981.549,756.505,-12717.855,984.8376,25753.125
109,1266.3638,117.18511,-483.5038,269.11276,-586.9986,-356.48193,2000.9853515625
110,-4387.042,-4562.6846,-4717.6597,254.10239,-1100.2289,179.48102,2000.98547363281
111,-3975.257,-5667.62,-5546.348,-450.04175,42.517826,488.95145,2000.95483398438
112,7163.1655,2227.996,22135.014,-18751.277,446.9029,-1705.7094,37236.53125
113,1430.9158,-191.57686,-350.90894,452.68674,197.27109,344.49738,2000.98547363281
114,11844.89,12221.191,11710.395,-1363.6023,5222.4766,3608.4211,11254.9287109375
115,51034.6,46814.64,73423.74,-16793.635,743.58136,1097.6208,38274.203125
116,29432.855,8693.871,-3418.0596,-7166.6675,5031.8037,9831.829,36715.5078125
117,-65992.664,-60642.777,-62210.996,2357.5557,4534.0854,-1792.6624,10520.4423828125
118,-104186.85,-120754.42,-108395.734,1431.8325,3942.2166,2098.4138,16983.8671875
119,-22250.201,-21603.633,-20856.518,-533.7447,3438.32,-1164.605,6469.07958984375
120,25963.34,21256.865,26705.01,-3453.8333,9898.017,-516.5258,18886.267578125
121,3380.0056,13186.687,13196.549,-4161.492,-1942.236,-4580.5435,14915.8583984375
122,8342.523,16412.297,18572.049,5239.495,-6829.7217,-4337.763,19129.95703125
123,3895.2322,12299.413,10987.281,10016.264,13081.032,2678.3752,29952.669921875
124,12440.345,25688.898,22348.154,-2186.176,8831.075,1859.855,20027.57421875
125,5643.3926,21945.438,13452.162,2843.2578,10448.941,-5082.9863,25074.65625
126,116554.24,114970.47,115217.89,-699.63525,-228.59845,258.8513,2000.98669433594
127,124750.04,124942.266,125174.414,606.5133,715.97144,639.50543,2000.94763183594
128,76206.125,76169.516,75369.33,556.3132,878.0837,95.421646,1984.89196777344
129,14929.5205,13320.573,13763.481,446.24692,-29.992369,666.2148,2000.97399902344
130,-13986.495,-30998.88,-7440.0444,-4220.43,-3093.0464,1316.3135,23043.068359375
131,-3973.9072,-17581.172,-1900.2086,-1739.6129,-330.8504,2598.229,15726.880859375
132,-9913.988,-27412.176,-5109.7803,-4151.219,-5437.0503,-4358.1646,24712.248046875
133,-26471.377,-19065.717,-19817.424,3835.3923,-397.1683,2333.6445,10525.37890625
134,13435.907,7763.91,19309.928,-513.3788,-2243.98,-8814.005,18680.20703125
135,-7491.701,-6557.4536,-7205.558,827.7135,203.20132,-615.6996,2000.95654296875
136,8545.974,-7822.7207,8682.892,-1186.2698,-7781.1113,-5423.265,23329.986328125
137,-166.82893,-49.95105,1147.3174,20.017294,-594.61005,672.06384,2000.98498535156
138,2368.007,1665.8529,998.16956,517.2856,-302.55438,-711.55566,2000.98559570313
139,6135.082,6211.0796,7976.251,-461.17102,190.69319,18.327944,2000.97229003906
140,-1652.6875,-14498.041,-11628.82,4171.6924,-4530.8945,-855.22656,15886.1474609375
141,111600.16,115980.29,113799.62,-2861.389,3457.552,1407.1666,8986.4482421875
142,-196935.97,-210806.66,-200514.83,-5611.9507,606.72626,590.16254,15880.6220703125
143,6064.5244,5109.686,17769.41,-5367.1597,8192.869,-1418.0101,21045.5
144,-41735.867,-14767.266,-26084.756,10332.637,-15482.994,-468.47754,39878.46484375
145,-5700.6846,9002.157,1521.8619,-4058.7307,-5929.4736,-1717.7615,18052.5546875
146,-19807.658,5020.762,6549.6284,-194.42374,1418.2815,-5017.984,27174.173828125
147,8129.4424,9762.77,8901.028,806.88434,-126.026825,9.255502,2000.9853515625
148,17571.447,18252.264,16912.326,-871.66925,1.9372671,354.40695,2000.734375
149,29105.463,30501.764,34235.75,-4752.0454,-5525.8286,-2570.784,14152.138671875
150,-51480.14,-51045.87,-50461.125,743.9732,572.4209,-438.17838,2000.98522949219
151,-1032.0306,7415.1475,6581.06,-7767.291,7254.591,159.53194,20098.77734375
152,2170.0664,439.81522,6169.01,-4327.7344,1545.1118,13069.506,24529.37890625
153,143976.11,143660.1,142224.86,544.7418,69.27973,-402.49988,2000.99194335938
154,206024.06,204166.31,204231.94,382.47903,276.9877,-20.63614,2000.98522949219
155,6573.0625,5899.72,6746.621,-696.66284,-780.13434,-200.31137,2000.64916992188
156,-1371.9124,7112.345,10261.273,3303.1191,-6611.0386,657.7523,16545.751953125
157,5043.5635,7675.7583,15885.003,648.91626,-767.8428,-9382.491,19053.974609375
158,13091.694,12697.173,22366.855,2248.9858,-9640.835,-2297.5042,19992.248046875
159,-5319.455,-5112.8325,-5013.751,-235.57033,-1734.6915,410.05704,3125.91870117188
160,2048.4893,1781.3341,1700.4574,-60.09086,-1116.0996,-228.44061,2000.9853515625
161,11280.649,10331.133,10493.221,131.52838,-900.7501,498.01053,2000.98571777344
162,1558.7533,3595.598,12975.999,-43.125454,-1339.3835,839.462,10897.1826171875
163,-1635.8042,-9554.146,-1364.8789,-2429.6296,-2444.0637,-5355.746,13660.1796875
164,11300.446,15833.847,14468.091,-4979.11,-4102.125,6317.3306,16149.5625
165,3494.2126,6829.1924,10624.72,-7196.866,2479.099,1149.1694,14695.9296875
166,-4572.8516,8356.745,3614.1382,-1193.9869,-62.412476,251.64214,11524.984375
167,483.32605,-805.177,777.2088,-618.8847,482.57184,101.32402,2000.93908691406
168,16847.799,27436.615,25625.236,11693.349,1822.2626,8711.668,27277.6171875
169,23073.818,50922.082,60160.656,-5892.4077,-3015.6921,-2740.01,35666.83203125
170,18074.07,9704.806,16696.543,-1587.1744,-259.8238,6055.573,13348.5234375
171,16793.31,10021.711,7338.463,-6531.3887,-8721.284,-5286.4854,22610.275390625
172,22000.307,13020.032,2297.4106,7854.8,1513.0844,-2521.4507,22426.482421875
173,7520.3403,6074.8604,-9423.363,-6444.105,8907.397,-8361.891,28931.90234375
174,12391.861,5642.9507,24278.342,-4455.1064,3691.199,-5185.518,21169.42578125
175,46076.324,25559.58,53644.027,14762.553,-3175.3396,4858.4453,37260.33203125
176,36905.14,36328.215,36087.875,-15601.174,-1670.2057,6215.099,29239.875
177,9749.089,9140.549,10650.819,-587.016,-126.25046,629.8633,2000.98522949219
178,22161.74,22553.568,22055.338,-1040.5826,401.97104,146.31287,2000.98571777344
179,345.5679,-7573.2886,-1364.0123,-8297.707,-14342.334,-4530.143,30615.734375
180,20634.531,14986.961,37775.87,2255.6199,-6801.9326,6948.976,26859.90625
181,56088.586,54987.734,56071.07,56.91399,-783.8535,-565.10895,2000.98461914063
182,-44193.836,-71170.26,-48715.234,5200.9575,-1589.5173,4682.813,27941.27734375
183,46636.92,48526.168,47849.664,5501.7876,5382.099,-12211.636,25056.5546875
184,2803.2512,2175.5166,2791.381,-326.02478,642.15466,-828.89124,2000.97155761719
185,28548.58,31685.766,6213.658,-4872.6123,-4676.2363,8231.056,30312.35546875
186,-756936.25,-748608.06,-765701.25,3019.6465,-93.47728,-6478.3364,19299.431640625
187,5801.2056,5562.291,4526.6045,358.6134,-448.73486,738.6643,2000.98522949219
188,8945.74,2906.377,1728.3441,-660.29706,-3947.9607,-7793.2485,16590.587890625
189,120033.44,120488.13,120722.3,-519.7205,-760.6286,602.64923,2000.90185546875
190,7109.3047,11544.173,24009.832,1585.2584,1456.2561,-128.23062,15629.931640625
191,84044.95,70191.6,68073.08,2063.988,-9165.749,-8790.411,26877.11328125
192,10712.899,19609.51,12561.691,-1070.523,2599.812,-5088.2246,12942.3701171875
193,-9629.916,15119.851,22290.986,-1623.7074,-1608.5458,1168.6671,29346.701171875
194,-5372.52,-13746.373,470.60544,12030.465,-12641.275,-11458.94,38219.32421875
195,12463.752,2296.8323,-4087.047,3629.8296,2169.9292,-226.80275,16212.0830078125
196,-724.2171,-13706.837,-13072.363,-1662.4703,2984.956,-2406.9255,14598.458984375
197,2820.0156,5498.696,31941.264,11087.249,7306.637,-8334.726,38917.359375
198,-10889.595,19762.697,1466.1381,-5068.508,5309.747,-2829.701,29986.111328125
199,-6237.502,21349.771,19177.936,11423.97,-8763.17,-5501.2974,37663.68359375
200,32313.482,17790.826,1267.6202,-1868.0907,-14408.165,-5278.2183,37956.796875
201,-15239.269,-4.799348,6563.574,3916.2798,-11105.529,-4345.575,29119.759765625
202,-11508.819,1018.71295,-8040.059,5277.8926,-5812.0337,-9680.731,24322.287109375
203,20838.078,2240.3872,19743.908,-7450.369,-3183.3347,-391.37888,22893.376953125
204,-24735.543,-10439.731,-23028.299,15845.767,-7085.1797,-11475.812,38494.484375
205,14455.155,-8208.611,-4782.7397,2980.2793,-27.499779,-8084.3267,25893.1875
206,-12086.212,-9810.506,6855.2646,15052.781,-11691.097,2676.7083,37843.7734375
207,-9205.6455,-26402.219,3641.624,-1552.6284,-8821.673,-8573.745,33807.2265625
208,-6066.9136,-15597.791,-11491.677,-7058.8374,-2594.439,-5608.5244,18237.447265625
209,-4445.698,-11477.614,-8030.654,-12225.195,-5542.158,3469.1365,24773.134765625
210,-1211.349,-175.0962,3652.3833,6518.1357,-2322.7097,3004.7185,13799.1982421875
211,15045.2705,38157.312,11286.674,-8549.316,-2770.4856,-10289.227,34569.73046875
212,-6573.926,4396.1934,-11307.87,7843.562,-2884.9958,11036.381,27742.11328125
213,6258.3516,-683.1702,3592.0908,2141.0083,1476.9838,-9814.327,18602.28515625
214,4752.0654,2794.9631,3998.5737,414.82172,211.87468,-378.4619,2000.98547363281
215,22120.889,-19100.375,14905.268,-507.14505,5803.532,-2397.8733,39659.609375
216,-40224.152,-33178.457,-19880.07,-13957.647,-13186.664,1181.1198,37821.72265625
217,-12367.924,-30152.95,-6540.5923,-6402.882,-5657.692,-14510.929,36119.5859375
218,-2131.4453,10631.309,-10167.15,-1711.5789,-7263.3467,3916.5996,23304.388671875
219,-34451.61,-15992.806,-31274.426,-3746.2058,-13303.662,1755.3656,29571.6640625
220,6968.3857,2973.4854,7409.9917,-12759.859,-12739.636,6489.8115,33460.55078125
221,2896.5544,18038.986,14013.555,-19604.375,-5813.1772,2124.9216,38111.1796875
222,-12680.485,-2154.3557,-1367.9968,-18930.945,-2497.8223,6014.6025,36360.4296875
223,659.7916,18744.588,18370.664,-7047.043,-13896.666,-6002.7354,34012.796875
224,10689.77,12931.689,22743.074,5850.2397,-453.43845,39.638466,15052.68359375
225,-13597.037,-26197.082,5018.815,-4269.8735,7159.5713,9318.148,34768.21875
226,-2347.882,21795.578,31135.521,-10083.168,-477.41428,10838.796,39417.92578125
227,-6482.841,2928.5823,-4288.1426,-6644.226,1293.0845,4858.7705,16763.43359375
228,-30941.328,-29683.518,-23793.95,11128.386,-6190.5156,-5541.144,24945.544921875
229,3437.5217,24296.55,7214.155,-9687.981,8550.6045,-5527.8115,31034.89453125
230,-15913.732,-15454.795,-17980.486,-9552.837,6433.959,-2178.5742,20435.919921875
231,16409.627,13171.29,22037.562,1747.363,3606.773,-481.33307,10453.0830078125
232,-67704.31,-85474.9,-64490.984,6919.738,3095.5615,2160.6392,23866.771484375
233,61194.12,60287.176,59019.78,-192.0234,-83.25348,313.00717,2000.90710449219
234,13692.046,19792.662,17011.533,4169.024,-1988.2941,-399.15823,9615.9140625
235,12047.98,12744.1875,11309.771,-223.8887,-283.90057,830.2577,2000.94067382813
236,68100.05,66413.17,67680.875,-223.78255,-163.825,697.3845,2000.98706054688
237,-24468.107,-16640.504,-18150.014,6196.865,-3219.9575,-3802.6746,15537.791015625
238,1884.542,12914.662,2314.414,9166.873,4830.9614,4577.8716,22407.29296875
239,6962.079,12563.087,18602.047,-2531.1484,1000.52545,-15850.159,29623.818359375
240,9749.055,13110.123,37526.48,11148.332,-1761.204,-3995.81,33460.14453125
241,11690.308,36178.832,37251.28,-1960.6995,3127.547,-5106.4824,27316.7890625
242,3497.6353,6174.759,1978.36,1915.306,15419.204,242.51953,27165.78125
243,-7546.175,-14039.809,-24081.234,3346.3977,-1527.9764,-2635.6091,16420.76171875
244,4107.189,7663.815,20228.154,7909.4175,4098.443,-7687.156,25110.640625
245,20365.863,12564.598,22807.668,8242.406,12821.851,8499.354,31616.447265625
246,24165.996,21151.559,23465.3,-6977.2993,-3021.9824,9546.961,21315.3515625
247,-2958.2378,-35363.15,-24647.857,-1455.274,5092.6816,-2800.5605,30419.67578125
248,311042.9,315868.12,296509.44,6724.8755,-10694.736,934.0104,28036.6328125
249,58974.023,35808.805,50159.766,-12123.337,5185.533,-3411.7197,31090.978515625
250,28079.488,-3762.2583,16050.881,2376.3245,-5975.6133,268.38107,29997.552734375
251,65126.89,79491.95,57556.59,10104.193,3813.7642,-294.18347,26881.04296875
252,213229.7,243420.94,209639.4,-2821.0173,-1905.0392,-1657.0778,32799.33203125
253,-36716.44,-67732.14,-38293.703,-2983.2126,1654.5509,-1669.9191,30964.798828125
254,15778.699,16188.478,17697.902,-468.1259,-274.55984,-136.05782,2000.97998046875
255,340.80582,-696.17505,22756.943,7542.5776,-6279.821,10418.996,33785.3515625
256,2803.8306,3459.1335,3190.2898,774.7547,774.99945,158.94688,2000.98083496094
257,5097.032,5080.0947,5410.172,363.78375,1064.6863,184.93983,2000.98522949219
258,7811.7534,1383.0465,12677.521,-9128.722,910.9139,10701.091,26311.87109375
259,22615.28,-6489.5073,16135.763,-1995.5828,-7150.8037,-1118.5703,29488.818359375
260,-7739.1504,-11453.417,26296.924,-2462.2078,2063.0576,-1551.0731,36562.859375
261,34023.32,23162.322,53199.246,-13656.136,-5300.4087,102.88552,36575.01953125
262,-9397.885,3786.5742,-32624.244,-9227.157,-1373.4833,-10465.941,40114.94921875
263,-1071.9229,-5464.495,-9105.26,765.12946,-1695.6683,-10418.053,19609.482421875
264,20413.068,-5212.9165,35842.81,-5475.5273,-4127.5093,-1099.2174,37879.390625
265,-25682.945,-34451.664,42.21791,-11664.693,6453.5215,-4659.6074,39528.80078125
266,784.61035,-9877.748,-28309.36,-10576.93,6583.698,-2491.579,33678.0078125
267,12376.411,25372.066,43886.516,-10193.125,1809.3655,-10681.488,37630.875
268,64433.484,86187.88,102953.17,11459.801,-4462.0566,-1810.6943,39781.83203125
269,84161.516,98872.08,89563.555,-4908.19,14615.98,-6908.633,31975.849609375
270,113441.32,110409.09,109167.19,782.75226,81.435425,-914.6369,4343.97900390625
271,92325.19,91113.62,91379.484,316.27264,-101.55298,-904.8846,2000.98571777344
272,-203676.08,-206735.4,-203403.89,4279.224,4377.889,-2966.6194,12210.724609375
273,-303218.16,-302020.3,-302885.2,-9.359629,959.721,-176.66281,2000.98449707031
274,-14332109.0,-14332777.0,-14335338.0,-8.195964,-1325.768,-594.2824,3879.22534179688
275,-105177.164,-118021.54,-117011.21,1639.9426,-5725.46,468.60272,16127.3486328125
276,-6020.333,17395.898,-6176.6797,-3603.3425,2120.7192,6242.2812,26857.92578125
277,-19619.469,-27727.727,8390.448,-12490.768,2808.4375,-915.2365,39643.96484375
278,-487618.2,-483762.3,-481606.38,-15210.057,-806.16016,3748.2014,27676.037109375
279,-54959.4,-51131.41,-46422.94,4753.271,3837.5222,1002.93054,13031.701171875
280,22819.19,27170.004,27293.92,-1973.7058,6158.9243,-15201.081,28951.447265625
281,-152214.75,-118341.984,-147480.47,6929.0034,-5636.73,2743.76,35656.00390625
282,-25436.76,5514.615,11035.756,-2975.8098,-9274.077,5507.862,39178.55078125
283,4169.0547,-2154.6758,10599.648,-1494.454,10835.758,-3218.6558,22628.03125
284,21667.066,13944.528,-9567.203,7986.7534,-9080.157,7930.515,37701.47265625
285,9094.25,5330.9727,20490.86,-1048.2975,-9853.115,8300.129,26232.7734375
286,-7555.1123,-28438.947,-14938.698,-3477.5637,12709.305,-7325.543,31910.88671875
287,-24568.482,-10890.643,-11916.433,-8979.244,11806.979,6571.104,31044.126953125
288,-13001.611,7551.854,4577.193,12931.499,-1208.8265,-4499.403,30609.517578125
289,-2085.7253,22874.748,35600.82,4847.938,-5981.5317,-8144.595,38463.9296875
290,-1480.3138,19752.098,10037.546,5808.7837,-17482.342,-3203.72,37253.70703125
291,-10070.855,-5044.917,-17354.902,14869.681,-12327.785,-1467.3837,35222.59765625
292,29205.262,19233.736,28156.248,6105.611,16421.658,-7527.764,34364.53515625
293,8906.774,353.73114,27708.377,6321.1304,7279.1255,5743.817,31068.74609375
294,18506.23,21227.688,7824.9556,9052.024,11830.007,3717.2966,29286.244140625
295,1709.6687,11234.163,11493.1,-76.51245,4820.015,10684.835,22482.47265625
296,9550.714,7415.403,8770.351,214.13445,335.12033,-93.77117,2000.76452636719
297,458.0098,34.73088,363.33453,1035.5988,-85.55233,453.32086,2000.97619628906
298,-9291.925,-23213.951,-14246.516,5689.1523,246.91318,-2262.3547,16187.3359375
299,-590.8383,24846.75,28399.143,-925.5116,-8796.782,-5924.2065,33016.10546875
300,2515.2288,3979.6887,16151.814,-13242.887,-431.43237,14197.988,36049.41015625
301,-18745.072,21112.479,11271.919,-4569.8765,-2693.9456,-6300.3896,38687.83203125
302,-45887.76,-13086.708,-8427.768,-2262.0737,-3561.3267,-69.91284,36108.83203125
303,-462530.94,-461370.12,-461407.25,-628.70557,-708.1636,46.068893,2000.60864257813
304,36166.76,36471.652,37460.84,-331.65488,-673.1982,559.88043,2000.75354003906
305,-9999.459,-9359.356,-6915.9307,16294.907,-1674.2133,-82.44344,28512.19921875
306,7774.2305,-12831.473,9416.973,-6069.6685,7007.348,7221.1157,29587.302734375
307,7236.539,11665.027,21213.928,-1573.9944,-29.20688,-387.14432,12687.189453125
308,7443.7563,9071.103,37330.055,-3805.1296,9450.761,-8058.836,36788.9375
309,9400.039,6859.266,-18874.172,-11181.618,1952.7328,-10808.316,38354.04296875
310,14630.07,8766.922,-20994.215,-5640.199,-9022.871,-4914.2085,38816.44140625
311,10152.563,15779.652,2196.1096,3756.57,5360.696,-1066.2909,16483.279296875
312,99670.96,76230.734,103700.11,-10462.962,920.5296,454.59747,31491.3515625
313,235203.27,234252.14,235173.28,-242.17923,-923.07465,320.41135,1979.18225097656
314,-483331.62,-489870.03,-472300.97,10914.123,7969.903,-6735.2,30340.568359375
315,-6384.509,-5203.6255,8628.068,-7909.8696,6880.4966,-9460.667,28412.642578125
316,16196.829,5847.272,30340.193,3399.6724,-6006.5405,-4277.4863,25521.07421875
317,-12192.015,-8380.8955,-43032.445,2799.6301,516.98126,-773.59094,33306.21875
318,2972.9873,18521.947,18701.432,-1763.2542,2533.418,-3652.9485,17697.658203125
319,-12447.025,-20037.252,-7643.287,-8429.611,4069.2158,52.47593,19493.787109375
320,18069.662,40937.734,44826.957,-2417.657,2697.8896,5177.8623,27327.927734375
321,-666.5549,4143.2783,1761.0282,7292.7715,-15667.923,-4201.167,31085.458984375
322,-7554.685,22052.908,-598.8584,9807.714,3293.0935,-8353.609,35348.31640625
323,12260.89,-358.0398,12999.939,5111.148,7112.2163,1905.828,20251.62890625
324,-35849.316,-24848.465,-29383.256,-14373.564,-1697.2216,-8918.345,30963.638671875
325,146.54956,8851.046,13710.758,-4539.8223,14445.167,-3231.896,29340.080078125
326,22528.477,9054.199,2848.4836,7234.555,13588.511,5945.536,33476.73828125
327,6823.9673,-3224.811,-5600.979,15085.884,4905.4087,9958.34,34394.01171875
328,5793.443,-21208.443,-13749.65,3630.0522,1767.0502,12060.804,32689.78515625
329,-5568.1313,5390.627,20742.637,8515.713,3300.981,11327.892,34047.35546875
330,6280.915,32479.969,2694.4722,653.5143,9633.116,-4735.538,33766.2890625
331,156356.06,178674.56,155156.89,-9189.692,4285.9375,4436.1113,29896.71484375
332,-17900.994,-20512.564,-16596.75,-3540.6965,13268.895,2207.2817,24338.119140625
333,10968.32,-16848.002,12579.778,-8820.844,-6887.5747,4953.673,35644.41015625
334,9782.798,-20553.512,16894.531,-2244.045,7226.6655,258.96326,36859.12109375
335,-17382.518,-25037.006,4540.3105,-14794.198,6141.7153,-6156.4795,39880.86328125
336,9820.99,8989.399,10945.174,-69.82917,4.220023,605.09766,2000.82592773438
337,27732.908,37135.293,27692.816,1627.5116,-11967.644,9412.184,28145.53125
338,-22521.13,-907.0172,17052.262,1738.278,-1559.7445,-1810.9849,34699.87890625
339,-30492.203,-43474.652,-36967.742,-1924.2561,-3791.677,-2350.7498,14043.68359375
340,29137.227,30245.357,33207.38,394.37497,-1315.6979,1012.99896,4692.77197265625
341,-8719.568,-36411.43,-6830.667,-5085.6934,-1016.38684,5019.8823,31289.0390625
342,-3154.3315,2815.155,-10747.277,-1549.2147,1246.1638,-13080.104,25763.150390625
343,-33286.023,-17134.578,-22108.379,-19670.469,598.1454,-3775.4597,37548.51953125
344,29371.307,9581.26,13210.817,6669.097,10939.166,-12483.895,35957.75390625
345,-775.954,-39988.81,-16517.129,-2577.2354,1956.8933,-5337.4004,35847.65625
346,83243.22,108951.77,115533.18,-740.4445,11034.753,827.8013,35248.27734375
347,-733372.94,-741382.44,-727960.1,-841.3699,2146.2356,4595.5015,14700.447265625
348,13731.218,12138.099,-4407.0273,13070.319,-1699.5787,-9023.764,32681.615234375
349,-6814.021,-34620.133,-3530.6963,8352.878,-656.97046,-8237.972,35908.9921875
350,-36419.62,-49359.52,-16753.357,-14532.32,1427.8524,66.32361,38057.546875
351,-5825.7896,-5043.042,-360.8982,2114.0078,2638.7305,3410.24,9766.529296875
352,1098.4998,2275.6921,2540.6003,-1308.6342,-5.109988,-413.92447,2723.86767578125
353,20531.229,15015.309,27205.217,-8480.196,-2560.6387,14834.564,31739.3359375
354,1281.439,7954.6787,1245.3386,-702.34534,-816.2236,1821.024,7628.97509765625
355,-7292.3613,-20743.316,-49838.105,-1280.8486,1399.5063,3281.2852,38234.61328125
356,1911.1704,2609.7515,-15.68396,-11122.552,-900.92725,1224.2969,19586.017578125
357,-1215.2554,-19148.219,218.76416,1931.2672,403.90424,2399.9124,19450.484375
358,-19971.797,-5499.065,-5914.2915,-8065.1562,2809.3125,-94.24417,20553.990234375
359,1806.3994,14552.901,-835.8706,-2176.9597,-4561.49,-480.6275,16747.138671875
360,-10952.994,15740.834,-17186.113,6535.6577,7362.9946,-982.82434,34806.33984375
361,18313.959,1527.2788,4422.2915,-4748.922,3477.1301,-5354.65,20773.08203125
362,6582.435,-8528.496,2575.616,-5536.701,-5931.5005,400.05798,19540.765625
363,-3720.679,5124.502,-2523.5632,13648.621,-322.36777,2994.5461,25595.896484375
364,5189.962,-1290.5326,-5541.6987,-3384.8496,1856.1741,979.5062,11627.7666015625
365,-227.77051,-4420.0225,808.3269,-6968.1006,-740.28424,-1846.2761,13435.9814453125
366,-5047.7363,178.7229,-2725.8547,1017.3828,102.17462,-96.37801,4871.97900390625
367,-5569.903,-23666.625,-10931.666,5383.878,-1327.5159,644.1299,18780.296875
368,-75916.35,-98696.31,-52774.246,2084.1462,401.0745,-879.46094,39968.66015625
369,9339.857,-12983.027,-20980.402,1623.9067,2007.7672,-602.86383,27602.330078125
370,6847.332,-18292.758,-4992.0723,-3426.773,1012.85736,3035.345,23248.609375
371,-24443.625,-30932.242,-16773.271,1777.9824,-14110.525,-1212.4797,27602.919921875
372,17272.533,6150.13,4838.1035,8302.658,-682.27576,13782.352,30299.84765625
373,15032.322,10003.715,-13808.725,-13136.346,-837.7334,-7400.507,37365.2421875
374,39869.664,34337.76,66715.836,3239.1526,-108.71615,3228.248,31025.888671875
375,199.09521,-18566.443,-6041.3936,1718.287,-3138.3518,-9159.27,23750.05078125
376,5527.3633,2680.5562,3447.302,-407.54318,-540.41833,297.44504,2854.69506835938
377,-2183.523,-990.74023,2294.546,1705.3616,-3243.1414,229.64937,7521.3935546875
378,7476.677,-4725.1636,3430.608,-3048.568,-1572.1036,-3289.0688,13551.23046875
379,-7379.421,-2841.0605,8512.64,1687.1886,5218.3096,681.9286,17107.236328125
380,15412.643,-2362.5085,-4023.161,-5342.864,552.1766,-5942.4614,23253.470703125
381,20140.113,4240.1147,8166.1514,1433.938,-2123.2268,-2604.751,15679.5009765625
382,555.7483,-6221.812,-6301.662,-226.76854,-291.6149,4390.4585,10233.3115234375
383,2106.9211,-1084.7675,694.4962,-136.80841,1894.8345,299.04776,4332.3701171875
384,-2731.6462,4505.3335,-2462.2917,-6260.5186,1867.475,3071.7278,14382.22265625
385,-13641.375,-10944.717,-3769.086,2271.6948,-382.83762,3821.5967,11740.8330078125
386,10640.139,14304.521,-7273.1025,-1189.1405,-484.01688,3047.0684,20802.6875
387,-2536.6555,-1554.4661,8633.421,6080.7124,553.3496,-2812.6782,15822.1826171875
388,-14332.918,-1140.4712,-6609.9194,-3049.7727,-4167.7817,-194.5202,14557.7529296875
389,2000.3992,611.5845,-1164.1259,-4260.2446,-880.62946,-897.2701,8169.390625
390,1562.9194,-11319.407,-3497.1572,406.7479,-1811.814,2781.6494,12646.3525390625
391,20078.725,-12310.166,6570.504,13091.54,5925.63,3972.5554,38220.9921875
392,-13964.873,-32941.434,-13566.006,441.00027,-8337.611,4614.529,25315.0234375
393,18949.38,16043.709,-9959.639,1855.8113,7152.278,-7653.083,33161.43359375
394,5494.8438,28991.115,43609.797,8035.068,2674.4749,2456.4746,36640.32421875
395,41723.15,28802.082,27756.523,-13208.016,3758.1372,-673.1508,27361.326171875
396,17403.986,5786.2344,46763.074,6452.7197,-5461.3735,417.11475,39407.22265625
397,21276.467,26608.398,7142.841,-1465.804,-2026.8505,-4571.586,19621.841796875
398,-9075.014,-14484.216,-11581.038,1428.1251,-798.9431,1022.48285,5757.951171875
399,3063.7637,6323.9487,11416.935,6962.0356,-2371.6768,2467.6282,15288.0126953125
400,781.82935,-18225.63,5523.0,-5676.4375,-3594.9048,3357.2493,25359.990234375
401,11472.738,2934.0776,13139.906,1838.7502,44.516205,1106.6628,10185.6083984375
402,-3572.1597,16559.15,-15571.451,3236.4082,-2179.1003,-1607.6497,29055.740234375
403,-5962.867,-12559.603,-11171.601,-5044.076,-854.4429,1875.5781,11196.3779296875
404,6989.0347,-2597.9854,6999.727,4067.1575,9949.676,-701.5124,20978.640625
405,44079.957,53622.258,29869.232,3495.361,8705.107,-5352.4087,27902.283203125
406,11697.144,-803.5503,801.00415,-611.6505,1082.3984,2469.396,12716.7119140625
407,-22595.562,-21245.578,-19113.863,-5758.0884,-1855.736,-3777.6484,12722.19921875
408,35840.637,21004.371,25341.033,12218.399,4788.0166,-3405.7434,26944.794921875
409,20382.584,4217.567,6425.788,6026.156,-3437.562,-10866.03,27001.7421875
410,7983.6523,2294.6455,38906.684,5513.613,4556.7915,-246.28511,36306.953125
411,17818.887,7828.038,-871.6294,665.11304,-8055.8716,2515.7307,21850.01953125
412,20907.56,13046.245,-529.8096,3657.2336,-1452.8608,1478.3889,20145.732421875
413,-8248.481,-6490.7607,-3622.348,43.411823,2168.261,-5977.1313,11732.3173828125
414,20425.746,-567.792,16587.836,5143.9175,-419.26324,-972.0259,21392.25
415,12797.66,21839.693,31650.537,1928.7992,7054.154,-4532.3896,22108.65625
416,18855.22,10436.785,2033.3896,-4105.142,-3238.1326,805.9844,17210.244140625
417,-7084.9976,-35790.89,109.12598,-12801.01,2660.2554,1447.2754,40017.6171875
418,-5239.035,-42314.72,-25024.094,7737.4956,2049.518,951.9005,35034.79296875
419,755.5968,-740.78455,-1001.97406,-460.3467,1655.7628,-1700.7217,4498.44287109375
420,-6244.438,-5966.3955,-6868.7466,-843.1956,-2920.8804,-2284.7131,6635.3564453125
421,-4703.0366,-938.6305,1823.8715,-696.38196,3367.3914,-17.276356,8226.4853515625
422,-16233.926,-17277.617,-12819.727,-526.75024,-3026.1235,1515.7236,7176.7919921875
423,4118.369,4221.168,5012.5005,-3817.1604,-1225.7814,1575.3893,7508.890625
424,30325.059,40376.777,66504.945,3299.9111,-1165.2135,5549.9844,34285.55859375
425,11277.484,7289.87,28149.904,3762.4543,4446.5874,-2163.9797,21993.029296875
426,8630.633,20553.965,1500.1172,-4588.5356,-1600.4565,-5401.3154,20890.203125
427,4857.6846,2227.377,-12749.461,2559.0781,4103.002,1383.915,18614.888671875
428,12650.166,26746.045,9595.156,74.23063,-8526.732,-87.74133,21662.064453125
429,16529.123,3021.9092,11055.289,-606.20886,-150.58609,2679.904,12695.9677734375
430,6283.793,-8289.672,8347.873,-7019.2534,4481.3306,1736.4045,21536.693359375
431,29654.365,21982.875,20114.504,-4674.9507,-2280.1343,-5206.076,15464.4111328125
432,12150.81,18812.316,-18536.838,3043.6914,-3173.7898,4022.008,36014.9140625
433,-5498.073,-7579.9434,-6210.651,-1331.5138,2691.6968,-311.24866,5541.07958984375
434,9778.477,-7280.136,-5301.588,-5572.259,-4228.574,-5143.207,22075.1015625
435,-4678.456,-3700.467,-2511.8286,1603.442,1530.8395,765.04083,4475.6171875
436,-6674.1143,-12750.854,879.1876,-1701.3826,767.9666,4310.796,14355.517578125
437,6021.5566,-131.68413,11777.395,-957.22144,1359.0017,796.9731,10798.3359375
438,-11565.534,-25302.354,-17659.531,-4610.374,-4427.1104,1400.9054,16449.2265625
439,2056.4705,-13976.2705,-8460.467,-5666.721,3209.8154,2416.8542,18542.03125
440,2462.7002,-2436.878,-4799.817,-10181.675,198.9142,-1811.4379,19029.68359375
441,39195.805,20374.98,39747.336,-1698.1293,-658.35376,1398.9031,19512.30078125
442,6057.742,-4536.357,-3103.2642,2881.9512,112.19718,-1687.5192,11515.390625
443,8533.195,-5861.9062,-1247.8287,1557.8217,-2376.0686,-6657.6836,17868.41796875
444,11858.654,-9031.653,-5510.2563,532.7093,1051.9099,-1968.8077,19774.771484375
445,-1121.0311,-8215.498,-1316.2457,2059.3777,3311.2388,-1940.7625,10290.7880859375
446,-951.8689,6647.5933,2612.952,-4428.549,-1791.6589,-375.21375,10595.171875
447,3615.3142,-14065.779,-23571.72,9092.582,3105.2673,-2216.283,29372.578125
448,15671.803,7305.9653,13168.824,1383.4598,272.1906,-6315.282,13450.8408203125
449,13002.585,-10245.148,-8854.367,7730.349,1214.0442,1254.4811,26428.708984375
450,10138.541,10529.191,17210.893,-812.00854,-1152.6243,1155.2302,7574.64990234375
451,-2737.6328,-7941.5728,-10246.074,3380.0078,1823.9493,538.94464,9460.9365234375
452,24813.697,11148.048,6570.4707,-143.57558,-882.05804,-1523.2307,16721.734375
453,-10117.516,-2700.1013,-1800.5983,11376.215,5153.4814,-4269.3813,24189.0859375
454,15153.596,5526.017,6175.9307,10372.954,718.68286,-3164.6099,21005.806640625
455,4934.6797,-8409.74,-7677.9634,1729.8439,-1651.151,3277.807,14772.67578125
456,-8022.1333,-4729.244,455.1206,-2103.0027,1019.86176,155.73836,8441.166015625
457,-30.142761,1015.7418,3837.504,2052.1885,-15.861529,-2744.433,6873.01806640625
458,7344.445,6398.8457,11450.865,4111.2188,3557.4717,2758.6042,11538.7490234375
459,10919.941,4934.064,6030.606,-5854.5396,492.81384,7079.267,16863.361328125
460,-1658.2366,-7412.9946,-5915.279,-774.6878,-1440.7274,1522.3649,6459.2333984375
461,1272.1061,7025.293,2681.7053,-3729.3833,3832.985,-927.87964,10740.556640625
462,6064.6504,8022.3667,5292.7837,500.64194,2304.8945,228.5082,4773.43896484375
463,3157.6116,42814.926,36473.758,736.8808,-1932.179,-1834.8401,37207.09765625
464,5261.6855,-354.8601,-879.8394,-4510.446,3021.1187,-4381.9683,13445.7626953125
465,4217.897,5931.0435,11595.529,-14652.679,2674.357,-760.3819,26683.69140625
466,7945.4297,2420.482,6793.23,-2225.6636,-396.18805,5183.341,11019.0498046875
467,-21665.385,-27233.576,-29883.895,8487.384,4464.369,-9467.487,24445.5546875
468,572.5007,-5498.33,-4973.021,1227.6698,-786.6502,-1279.9833,6725.69091796875
469,25136.027,17378.447,12872.917,5531.277,-2154.7551,-1211.3073,15018.2431640625
470,-8799.86,4476.976,4901.8354,-1664.7748,4360.562,719.63763,15779.9638671875
471,8835.609,7626.187,11068.177,3532.7625,-1457.0238,614.1215,7354.4951171875
472,-5811.87,-16515.154,-9120.63,-1077.16,90.013,-1210.7372,9899.3115234375
473,-1774.1512,-11049.7705,-12914.196,-1162.4703,1330.506,-2307.7263,11495.583984375
474,11754.374,5930.9204,8966.629,-487.58026,418.46927,-3327.9622,7740.43798828125
475,-8727.539,-10935.668,-7542.1416,2176.9854,38.259846,2164.7332,6097.45068359375
476,21243.918,17787.156,6348.164,6807.2725,-2877.1274,-1970.6848,18916.736328125
477,-4728.91,-2658.166,1405.7347,-620.5258,1637.7064,-319.15985,6222.98681640625
478,-866.9693,-17467.754,-6233.3706,5096.7007,-4497.542,169.85402,18814.810546875
479,-3812.9543,-10059.918,-1688.5392,-543.2097,-9202.001,-869.6678,17719.861328125
480,866.7799,-5924.196,2109.0083,2422.8171,-147.97563,-375.285,8613.638671875
481,-8928.838,-15453.708,-8718.167,3023.7583,1661.1697,1107.7456,9131.375
482,-7227.654,-801.094,-1205.3735,-986.62,-954.6897,1946.8507,7476.04296875
483,-11912.664,-5899.1626,10028.462,-625.1483,-5491.7437,3383.935,22619.359375
484,-5496.5654,-27344.824,-5788.2256,839.70667,1649.2833,-3760.836,22885.94921875
485,9237.651,7957.0386,16068.95,-4652.514,-1256.9167,-531.145,11295.060546875
486,1338.3942,6522.1855,-36.993454,-2991.3113,-1223.9724,1920.092,8848.25
487,-7748.3467,-7622.8027,-7912.4517,3636.1582,3320.0095,2327.2751,9436.326171875
488,-11937.976,-10435.139,-12546.629,-3035.5244,-3696.071,-2822.682,9801.6494140625
489,2375.7363,-6365.195,8546.932,1281.3478,-1404.3888,3465.699,14673.2822265625
490,-7169.5356,-18620.02,6086.2554,16852.9,-1905.1046,-1506.4618,36446.83984375
491,8789.768,-2683.8657,17458.281,6002.8413,1057.608,-2335.5718,20834.330078125
492,-6321.096,-5748.5806,-8260.259,-692.34155,-1874.0883,4278.4395,8490.470703125
493,-6292.595,-3157.5093,-6615.82,-227.43866,358.29608,1583.799,4360.2919921875
494,-4953.4595,-5275.7603,4872.163,-6226.25,-4599.164,1067.5043,16822.23828125
495,3863.0115,-10808.841,5905.63,-1007.0478,357.80173,-686.21936,15945.021484375
496,3172.3564,-578.1133,-1022.57544,3606.5828,-2531.93,104.363144,8614.958984375
497,-2565.05,4120.8047,3192.4812,-920.1142,2861.022,-2129.9585,8947.7451171875
498,23376.047,-5898.5957,-14705.541,-678.8168,1371.8906,-3942.888,35299.50390625
499,-28062.31,-24346.934,-32520.57,-6560.855,453.2785,-522.10803,13446.6669921875
500,-4969.0283,-12580.888,-7528.495,862.6862,428.59897,-1115.7181,7178.24658203125
501,-354.75302,3212.3403,670.051,31.872177,-1139.0066,-771.4772,3974.84497070313
502,-13731.305,-17402.363,-19223.746,4470.2163,2947.2275,-1939.551,10989.6787109375
503,4780.4946,13603.929,9107.312,-752.7718,1627.5782,-167.98767,8254.0078125
504,7218.243,-6036.923,4995.203,-4085.8877,398.43625,545.4289,14234.701171875
505,19285.352,6511.849,10437.288,-1104.6572,1134.6729,1699.7578,12025.8310546875
506,-10555.934,11259.31,-852.9175,6673.5986,-988.1708,299.96603,22252.859375
507,44498.105,17544.85,5788.676,6988.268,1629.0529,-102.66595,36552.06640625
508,3033.8008,-10719.034,-5198.34,2492.5776,-996.7451,-5134.476,15633.3359375
509,2210.3364,4869.4497,5965.9883,-1192.2126,-1139.6799,512.1987,4487.412109375
510,-566.8847,-22565.785,-20543.066,-126.28655,-5436.767,2271.9155,23404.1328125
511,9570.827,4517.053,7546.446,-814.38104,1893.1163,-1080.7797,5971.06005859375
512,-11001.286,-17060.336,-7263.351,-6191.0947,1197.2438,-1311.0668,14063.37109375
513,17385.482,5319.608,34029.1,-886.37506,2296.1392,-5224.213,26897.328125
514,2330.9873,-6907.077,6867.3374,3193.4336,-2824.1995,-1384.784,14425.7626953125
515,-568.40405,-559.7485,-2242.0396,-1460.8265,-909.4445,-505.66617,3530.72534179688
516,-8222.513,-4003.5186,-10197.592,-7738.3345,-2257.876,-534.37805,15027.6357421875
517,-9786.441,-9140.202,-8519.619,310.09915,3508.7996,1144.7836,6508.3701171875
518,9806.323,10041.413,5673.192,-7433.7607,-155.76254,-659.3315,13611.3564453125
519,-9210.021,-6919.8228,-9310.67,2068.804,-1297.1992,-1131.7765,5216.9365234375
520,1910.5596,-400.37082,7752.927,984.89716,-57.02036,-2197.379,8389.291015625
521,-5674.962,219.80205,-6919.5635,4643.347,1994.5728,-556.07074,11008.111328125
522,17975.129,-1431.4225,-18711.857,6440.134,-7685.838,-4077.1394,36906.54296875
523,21750.537,1163.3234,-13164.51,916.94604,4719.646,-2662.1086,31854.330078125
524,-4482.8857,-5358.9346,-6987.6504,2026.0488,2208.3984,-1823.2456,6462.61376953125
525,5120.308,4812.5024,12568.689,1991.3652,148.53421,874.8512,8492.6240234375
526,-6849.2754,-10581.963,-15674.31,-7532.277,-2019.3223,-559.63007,15564.421875
527,-7103.213,-4052.3826,-7979.7075,1101.8068,974.66077,802.75714,4601.6220703125
528,-9173.379,-12448.711,-6161.1406,-8824.895,142.20511,2013.7979,16599.11328125
529,-5543.775,-5239.958,-7570.5654,234.01996,-152.39366,2660.699,5127.1708984375
530,3452.4775,6232.384,4782.0376,-313.59424,-2982.6028,674.7603,5843.6494140625
531,14553.469,2480.9636,3717.7993,11686.201,848.4462,523.157,23345.791015625
532,1577.1945,-726.52765,6283.4004,1208.3495,-3427.494,-910.0003,8966.88671875
533,3241.2717,6927.532,8659.176,-1449.1254,-171.8471,1970.6769,6403.87255859375
534,13240.436,5663.409,2866.2712,63.30107,192.30194,3624.5085,11223.34375
535,-14770.269,-19250.615,-15006.089,9253.268,-4540.32,-1726.3728,18620.580078125
536,17888.32,2929.0112,4498.4023,-3700.0146,3439.5254,853.8469,16778.419921875
537,9084.752,801.1382,-4146.219,-6621.1895,-497.56494,1480.0662,16520.03515625
538,1548.0765,3846.692,5881.88,-795.3672,-194.59825,-626.14404,4158.28515625
539,609.48224,-2875.0317,-2407.4,-1742.6162,1432.4579,660.1361,5225.35400390625
540,-10327.425,-10595.555,-12663.32,-1422.6198,-1993.7721,-440.8352,4845.8134765625
541,-3494.9944,18736.389,-554.7715,12374.005,2142.3284,244.42656,30179.62890625
542,-2276.4558,-13706.356,-19925.086,-9098.077,-1715.4474,-1587.4457,22474.607421875
543,640.5067,-22782.06,-2054.5308,-7453.1772,320.2736,104.75469,25685.509765625
544,3508.29,2924.2466,3988.79,-1109.315,1726.4098,-533.1571,3786.63452148438
545,4823.469,-25349.346,-12019.1455,7552.3164,-1727.523,-1894.5034,29609.39453125
546,6540.9507,-1178.7351,11908.528,-912.71466,-1552.7277,-1020.1568,11945.486328125
547,4301.437,7513.1387,2551.9036,-3075.85,316.14255,3308.3813,8972.927734375
548,4690.8413,1597.2261,13275.55,-747.0097,1548.2814,-414.3868,10918.16015625
549,15731.878,9443.82,13794.419,4146.265,-498.53375,-405.36618,9160.9873046875
550,4575.827,3877.319,4299.423,-1160.9858,-2165.0574,-1167.5225,4750.43701171875
551,26705.79,12112.598,19295.059,10869.558,-2471.4785,-941.50836,23133.51953125
552,-2631.2288,-3396.2808,-783.22504,1043.352,2139.3325,2183.356,6058.9892578125
553,-9340.357,-6300.369,-9067.933,-2887.5037,256.1091,-1207.075,6169.96533203125
554,8828.911,234.56093,7706.0005,2689.1326,2164.8496,229.50874,10069.0185546875
555,-2508.9443,-223.71608,-5532.368,-4308.377,-243.85788,843.206,8903.38671875
556,-4768.4043,-11315.979,-11786.978,1566.9813,-326.27304,977.6782,7531.9111328125
557,5086.9116,816.7038,7637.272,88.91033,107.3571,-1019.14996,6229.275390625
558,157.94562,-1241.7003,-1363.8209,57.46904,-1282.4928,611.1788,2865.26391601563
559,-3187.7878,-5164.642,-6413.023,-1544.1504,-23.380213,1063.645,4299.2021484375
560,3533.9614,-23516.723,774.3173,-5370.765,-1487.9863,1978.0719,27742.041015625
561,-2301.8416,-7063.0054,-5271.328,-827.01184,888.30804,-518.0786,4751.06884765625
562,9414.899,4588.5337,8440.495,-6542.721,-1925.4849,-2314.822,13234.7919921875
563,-3452.2207,5700.704,-3761.5776,-3473.2026,-266.7783,-1081.745,11252.4091796875
564,1003.90515,-623.2755,7572.336,-3904.5366,-980.2596,-1312.4294,10500.7802734375
565,7058.04,3555.175,-7272.4985,-5781.6797,308.39236,-3052.1118,17203.23828125
566,13310.577,-3918.3174,701.56647,-3242.0837,972.6542,4160.4487,18024.486328125
567,-26456.145,-29081.295,-28303.998,4862.671,1901.1278,2545.6567,10328.3955078125
568,19450.873,11920.478,7093.103,2725.2004,-6078.674,-3584.361,16971.6328125
569,11314.904,-1438.4994,2858.8594,187.05028,-477.18518,1354.1113,11515.189453125
570,18868.74,-3282.618,-7561.3384,-1725.2892,618.87164,-1425.122,24898.62109375
