Element Label,S11,S22,S33,S12,S13,S23,Mises
1,28634.486,20774.467,6109.9194,-5331.982,11575.338,-11539.7,35760.8984375
2,-5191.843,-3861.8398,-12832.096,2775.2986,-7553.029,7644.168,20972.73046875
3,20549.715,5902.0127,2751.3215,881.057,-2665.1216,163.09703,17156.62109375
4,21500.182,14150.963,355.07828,-3017.8416,-2723.346,4986.219,21676.84375
5,25758.123,21045.066,5100.3965,4108.64,3831.8254,-5827.399,23412.83203125
6,-2614.0781,-14643.467,2200.3423,9.204163,6280.666,8854.926,24070.0859375
7,19273.408,34392.29,7849.7676,-69.7582,-9573.876,-9844.135,33128.62109375
8,15973.235,8622.915,-6364.2144,456.10352,9679.264,-171.35902,25895.5234375
9,7212.375,6469.705,6296.393,5182.525,-3827.108,-187.88292,11195.1845703125
10,13274.096,12725.104,-15726.039,-4879.9023,-1889.5824,21.553488,30125.43359375
11,23127.885,30021.21,2.6756444,3395.1523,536.17114,-2014.4232,28094.841796875
12,-880.47577,11594.975,-11018.65,-1354.9578,76.18179,3957.9675,20914.57421875
13,24559.363,15865.472,12294.951,1172.501,4470.988,-607.41766,13585.8173828125
14,8883.44,18099.309,-12501.954,-5544.9487,-5755.1006,4101.166,31327.52734375
15,30451.877,31348.377,21392.818,-12691.261,-4122.415,4432.003,26155.435546875
16,16967.219,11173.725,32023.787,-1564.7036,9424.727,7969.4424,28493.021484375
17,5416.4688,-305.23557,12985.205,-696.5107,-15720.135,12922.475,37109.62109375
18,5629.178,-6001.384,-19467.527,1885.9452,2393.9348,-1603.4749,22556.646484375
19,-17200.441,-10834.435,-7519.432,4267.405,1570.929,-1590.4894,11926.578125
20,13790.151,6423.2256,8118.264,3882.7683,-328.5844,-14327.182,26570.9140625
21,19599.031,7451.8794,998.52924,8517.513,-6053.428,-3881.6406,25305.458984375
22,10198.952,1108.0245,15083.115,6458.5293,-4526.9937,-1597.9482,18579.0390625
23,-49477.574,-58503.895,-69192.836,-5772.8438,-8282.434,13886.101,34299.48046875
24,-17021.822,-32202.404,-3486.8557,-10693.362,-6471.2417,-4758.737,33995.96484375
25,16886.732,21916.197,3391.912,-80.87885,-7390.453,5791.274,23232.951171875
26,5797.7314,977.9833,8731.776,-2758.936,-19730.832,-5431.7153,36403.88671875
27,16684.148,9150.834,20660.691,4281.138,-17809.59,7843.2383,35966.62890625
28,1890.106,8538.22,10169.19,4557.863,-14413.18,10159.65,32448.380859375
29,16789.25,11888.749,-1746.9354,-2232.0574,-10380.018,6902.9297,27529.990234375
30,3426.0796,-1450.0522,-30651.13,7364.624,-462.94562,-9694.883,38264.81640625
31,16969.15,21156.441,40626.984,7342.751,-14241.787,1096.1478,35383.64453125
32,26961.488,33618.402,28152.738,699.7606,-11345.215,-8188.398,25031.2578125
33,28486.35,32003.135,45434.51,8787.241,-9013.069,-2334.488,27050.09375
34,39454.746,37668.016,50006.996,6501.749,-17495.965,-3783.663,34949.8125
35,23270.496,5385.7124,8461.174,1561.2225,-16846.32,-888.2798,33695.62109375
36,24018.12,18870.508,-12809.049,-1490.1958,-6793.201,-6394.22,38222.1015625
37,1913.92,18272.426,27079.426,683.4182,-16371.09,-6233.319,37566.41015625
38,11640.569,11738.821,7646.837,-6743.513,-6863.203,-764.9028,17200.080078125
39,17852.986,14579.268,34700.664,840.70233,-16166.157,2349.1196,33947.39453125
40,12830.724,-4426.8223,-2265.1865,-1587.088,-17252.719,7004.6685,36234.13671875
41,-2174.7546,19327.531,14583.219,-4783.455,-8267.115,-13921.817,35184.85546875
42,-7737.683,16146.103,-7311.455,2003.2268,-2825.5464,5752.2544,26375.974609375
43,21544.357,15334.713,11037.324,-4986.0967,759.85406,-3452.6582,13992.521484375
44,7970.1084,6927.3096,7671.7153,402.05167,319.14728,-884.72437,2001.00402832031
45,-20399.6,-22339.104,-18922.898,521.91626,3868.1318,583.23016,7451.93798828125
46,-1408.3944,-3303.3389,3135.6191,8691.752,-10608.633,-1680.0731,24608.6640625
47,-6243.7476,10679.473,11681.225,-8626.629,6414.7324,-2368.2588,25843.37890625
48,471.88492,-31510.559,-3121.369,-7820.918,3871.6038,-3741.9165,34515.8125
49,13308.379,20152.387,10899.687,-1106.4675,-3681.5613,-12313.01,23838.884765625
50,9432.431,21172.242,34931.855,-4491.64,9046.657,-10739.902,33775.32421875
51,-96.475746,-1019.6433,-3947.634,6956.2207,-4228.7188,-7215.787,19161.01171875
52,26315.918,26740.42,34794.18,1124.714,-3355.8574,-19082.977,34619.68359375
53,12579.29,7592.092,24447.783,3188.9575,1438.0958,-18668.936,36155.55078125
54,18162.68,14279.778,24101.996,2539.9998,2487.7493,-19655.686,35642.30078125
55,-7321.411,3169.5928,3046.2114,6132.2314,-4417.6484,-5540.157,19293.046875
56,20106.297,707.11365,30068.129,-1650.5502,5421.274,-12119.466,34724.71484375
57,26616.527,21139.543,23840.95,1920.3785,-10846.128,-5894.443,22152.015625
58,25900.508,17157.209,6343.8003,-6278.1426,1634.0671,-12611.087,29854.55078125
59,-16162.741,-7096.5723,-10260.961,-5915.2314,13770.509,828.5945,27192.466796875
60,-2327.8228,-3904.9739,-16250.502,6512.9155,8251.794,12731.188,31498.416015625
61,9774.394,23960.867,1960.5175,-6199.669,3767.026,-14924.797,34630.79296875
62,9279.263,14475.156,-14068.932,-9492.305,-13007.859,-498.73123,38368.23046875
63,13345.971,-203.06909,-14987.604,-926.09924,9345.542,2037.0973,29656.6171875
64,11289.035,27554.256,29703.846,-118.87753,17887.865,4897.0176,36552.06640625
65,25770.754,25343.014,32625.336,-3487.9927,20492.252,2909.5833,37037.71875
66,13131.978,21018.139,18663.783,-2046.607,17927.318,-9949.223,36371.15625
67,12639.928,11997.43,28088.979,2750.1306,326.09494,-1506.0435,16698.05859375
68,13418.178,26193.498,37167.145,-5137.864,16251.627,-1946.9429,36148.75390625
69,22799.533,29538.666,44487.555,-4975.7095,16107.315,4830.3467,35947.66015625
70,11369.265,9378.56,10288.394,2175.3582,20783.111,1997.7023,36400.0234375
71,13184.313,15729.787,22806.566,2515.2046,11230.41,-16005.015,35219.3203125
72,5586.328,11270.475,-6922.695,4039.5962,12501.007,-711.70636,27913.947265625
73,30362.623,19943.51,-5928.47,2777.7468,-865.94086,10865.43,37776.3203125
74,15169.433,22472.885,30954.62,1814.3737,17367.982,2995.069,33599.90625
75,3675.8225,12717.834,-6920.557,7459.369,7131.298,10881.898,31057.91015625
76,2347.6313,1418.6105,23679.895,-2327.7083,14702.949,-5295.524,34995.12890625
77,21864.44,27747.97,47576.336,2037.1326,11036.965,-3919.4346,31119.44921875
78,-1224.9867,1676.5242,3735.2163,5459.376,5934.586,14855.135,29592.697265625
79,-1543.0408,9852.221,21131.879,3953.6663,5249.0205,699.1004,22729.599609375
80,-678.94995,10885.336,20508.537,720.1763,12990.831,-8775.121,32809.65625
81,8018.568,13576.227,30254.129,6439.7666,1524.8854,-7127.341,26182.3359375
82,26429.03,25435.186,22138.293,7835.372,16389.693,3117.2703,32161.021484375
83,7207.318,-1447.4033,2605.6782,4133.0317,-2648.6077,14253.426,27166.6171875
84,-11529.318,-11587.516,2986.053,1267.1682,-4039.0212,8946.268,22481.314453125
85,12443.741,19556.72,5604.0283,3305.1401,10902.994,-2376.1868,23502.412109375
86,-7084.3525,-2678.038,14910.9375,10112.98,8470.303,4008.3184,31249.724609375
87,4128.2007,11037.008,-7982.249,12544.643,-5124.4785,12772.399,36309.10546875
88,4781.4697,12009.726,7614.766,5001.407,-3874.0054,20408.605,37541.91015625
89,7757.568,14085.37,11560.375,6166.815,12322.216,15649.865,36534.828125
90,20935.59,19301.982,17223.504,4399.9404,2791.5098,18010.592,32634.09765625
91,24280.355,16961.268,29676.664,7946.5376,-1833.9203,10739.164,25840.013671875
92,11810.52,1341.6488,18854.611,3188.5693,-5874.173,16665.932,34644.4609375
93,6519.8657,26565.945,2291.614,-5261.645,-12210.645,-708.94354,32192.318359375
94,7018.119,25824.91,14275.454,-2104.0647,-16247.29,8887.828,36222.3984375
95,21388.79,30771.252,34243.05,2239.714,-17972.785,-904.3639,33454.80078125
96,13289.687,27745.238,-2109.4138,6666.2544,-3885.09,15799.453,39952.02734375
97,16120.988,18934.117,20260.885,-9054.56,15814.66,-12434.532,38386.51953125
98,13360.744,20348.97,17502.674,-917.6986,2298.6736,-2259.7537,8410.9345703125
99,18004.709,10927.142,29039.287,-663.4236,3015.4297,-18385.0,35952.40625
100,1651.7222,11509.403,11960.047,-1310.0537,-9532.201,4285.488,20848.328125
101,-4702.4497,-12459.39,9444.54,4301.9434,-10994.826,4358.4263,29072.515625
102,1915.821,2698.4153,4661.164,5398.3374,-16058.377,-10051.47,34207.2734375
103,28723.705,23461.2,47310.07,-8647.438,-8812.79,1524.149,30581.9765625
104,7311.6978,6062.5195,19414.115,-4800.515,-4659.0767,-4771.371,19123.3046875
105,269.72955,21130.268,25947.191,4419.224,-9838.493,-1436.0471,30232.625
106,1349.9323,2495.087,2024.6156,-48.452087,163.07806,-396.8081,1246.2568359375
107,18112.988,26959.16,38939.57,-3097.9912,-6184.3623,-8878.718,26604.3671875
108,15390.034,3091.085,21453.16,-1123.2961,554.7439,-1516.1094,16558.98828125
109,18900.697,10362.5,-12459.4375,-1433.3092,7903.879,1510.0332,31448.6484375
110,22734.97,25188.701,30239.932,-876.7456,18021.168,-11373.865,37531.55859375
111,21834.44,8086.1553,14012.771,8605.811,15802.299,2965.3838,33769.18359375
112,4330.3833,19347.254,30520.104,-6754.121,14712.724,-939.084,36152.63671875
113,10981.571,-3247.1091,-18747.129,-4576.0737,-2704.3516,-531.4224,27365.3046875
114,16627.357,28482.055,28873.549,2423.7449,13111.119,7491.449,29103.634765625
115,18412.65,18128.736,-15418.476,5883.871,-1062.1644,2171.0715,35445.8125
116,3692.9802,24762.736,28350.055,-2250.875,5494.945,11686.505,32371.177734375
117,-7803.055,1826.9955,7808.189,781.6161,18640.615,-8014.441,37723.4140625
118,-14369.56,-7310.706,-6845.9,-3480.0137,4314.3955,11935.009,23933.892578125
119,17814.658,29176.482,48420.54,-1701.2747,12657.398,-3896.0168,35396.62890625
120,9211.907,15625.863,14682.521,2708.134,-20262.785,6750.784,37768.25
121,10756.741,18686.482,15379.485,3679.13,-13806.475,-709.37445,25720.94921875
122,16179.599,18118.182,30462.498,-2171.8013,-16010.871,-11550.787,36925.96484375
123,11234.798,13744.502,26743.025,-5212.0884,18403.965,-2300.138,36350.65234375
124,18800.744,-5988.186,-6060.6045,-9714.711,6538.4985,-8171.2827,35042.6015625
125,10914.4,21620.854,36472.164,5530.6978,-11627.572,-11337.928,37110.74609375
126,25501.146,12979.133,46212.2,4008.494,-6117.316,-1183.2758,31776.75
127,30261.016,19739.291,3317.396,1420.0554,13236.882,-6680.8667,34910.8671875
128,-18892.695,-15397.0625,-14318.592,-10575.188,-972.0225,-5340.118,21000.984375
129,17489.934,12280.652,19070.36,6625.81,2425.759,5851.9346,17028.203125
130,-5957.322,11125.385,-15962.183,-6237.692,-2956.0972,5855.628,28436.478515625
131,-11994.117,6102.727,-6841.873,-12251.105,-1598.4844,9533.66,31486.634765625
132,37694.9,15469.558,35411.066,11262.792,-4782.908,1515.6246,30074.80859375
133,6879.1235,-5401.9736,5981.331,2074.8796,13218.872,11710.806,33002.5078125
134,768.2953,-5086.396,4365.713,-345.6679,2885.2097,-7269.4565,15879.1484375
135,-2887.553,696.72046,4963.2617,5240.179,-6663.7896,-564.2249,16214.025390625
136,5983.772,16960.8,16421.102,-10796.877,2178.3254,-5709.3022,24012.5703125
137,12462.652,1689.3497,22989.104,-3596.2913,872.498,-6957.347,22947.169921875
138,3678.1255,16677.188,22395.404,4574.4307,14123.993,30.73026,30614.46875
139,15305.704,19442.518,21870.594,-4449.651,17682.404,-3752.091,32751.919921875
140,2188.5483,11371.439,30693.484,-406.90784,13804.237,-5403.1187,35983.9921875
141,-718.26245,-7047.6934,-11204.699,1579.1882,4715.1133,7867.6846,18534.66015625
142,9180.46,-6115.496,-19300.13,-1533.9083,13458.77,-10809.587,38864.99609375
143,22565.438,28035.752,37095.016,-352.74808,14187.821,-4066.6953,28555.591796875
144,11149.808,10049.604,-13404.99,-3545.8433,841.7767,5177.537,26408.306640625
145,7510.4565,9781.169,-11361.025,-4713.5874,-4750.742,-740.50366,23241.0859375
146,19675.832,28984.604,32090.21,2627.0015,19796.977,-5360.28,37521.58984375
147,16678.814,29504.262,36803.016,92.04143,18971.352,1255.1996,37361.2421875
148,14230.663,7963.758,13949.085,-8182.2134,-3007.0632,-13002.114,27797.96484375
149,10395.96,20904.371,5999.647,-1617.4917,-389.2844,-19551.096,36482.76171875
150,17939.309,585.1124,10948.635,115.26356,12699.898,2649.8904,27086.67578125
151,-3801.9048,-19585.566,9867.965,2066.71,-153.33308,-640.36206,25804.3515625
152,20598.848,3227.8816,36878.17,67.00912,2721.0354,-7683.872,32386.814453125
153,11252.61,468.3529,10688.365,-4185.6636,17343.758,-4606.429,33603.1015625
154,5508.6963,26.751427,12930.037,-1331.9526,-15468.088,-6499.7935,31235.5703125
155,423.38666,5457.6685,13810.401,-715.9506,-19722.451,419.99872,36140.7578125
156,32041.799,45266.45,28373.031,3173.528,-14457.523,4305.4707,30818.0859375
157,36568.44,37688.668,49434.473,6767.7036,-14569.52,9108.237,34285.19921875
158,3960.6753,13648.765,11431.397,-1288.0665,-16502.889,-7843.4346,32922.11328125
159,32293.28,37158.74,46212.785,5187.5127,-19232.725,-577.8114,36621.390625
160,20484.299,24247.924,26420.725,2498.0083,-13590.918,9786.741,29786.97265625
161,14708.795,25583.836,34187.492,6504.5107,-17650.586,2393.68,36940.48046875
162,10558.9,21190.35,25133.24,-208.00208,-11003.44,5686.342,25116.7890625
163,-6098.3457,5540.122,13520.931,1669.3026,5245.7935,3728.4758,20607.060546875
164,13547.109,15378.663,18849.975,1785.8105,11608.51,2237.3171,21227.791015625
165,7636.3604,13865.056,23155.113,8024.5625,7261.752,15195.827,35029.7890625
166,-12498.515,-3717.8027,-10921.932,6536.09,-1760.593,10232.357,22744.380859375
167,8841.865,13633.295,35830.94,-2749.4373,-2758.316,9131.3,30293.51171875
168,800.9486,2484.3286,-10453.32,-4369.3174,12574.885,8927.673,30318.369140625
169,12163.513,-1127.0421,-1656.3657,6241.3174,7690.2417,11197.738,29230.18359375
170,5030.6533,4261.766,4125.682,973.12396,-380.7411,67.83283,2000.98608398438
171,18207.309,28520.262,14598.354,1750.6035,-3834.8555,1959.2642,14880.4873046875
172,11245.718,11326.417,2798.6665,-4617.702,6924.45,331.21674,16738.68359375
173,7441.5195,5701.564,-15920.814,246.82991,3861.756,-2863.3074,24035.275390625
174,22004.447,10997.211,12344.505,-6688.0664,8661.564,-5213.932,23429.86328125
175,11700.546,8230.534,9752.899,7843.47,11900.137,12108.326,32531.68359375
176,33891.47,16021.169,36941.348,-2286.7188,-5649.3325,-12625.355,31189.462890625
177,17070.445,24623.643,26065.834,226.36707,5754.3555,-16865.752,31982.435546875
178,18017.102,13058.602,21057.803,-1044.9501,-1824.3862,-13829.217,25217.3046875
179,15144.522,-11102.166,-15221.898,-2942.7922,10824.435,6581.044,36351.14453125
180,18115.2,8332.527,-16162.458,3579.9958,746.72314,8994.152,34901.828125
181,24478.227,-1182.4386,33707.773,-1316.9584,4435.0244,-2839.1228,32693.791015625
182,1030.2778,-1296.2505,1721.8833,1691.7208,-2702.3699,-11091.983,20176.484375
183,-5214.7573,21885.893,-11746.56,-2362.596,11449.674,-3641.7668,37469.23828125
184,-2601.633,17540.357,-387.9092,-13935.152,672.45184,-351.72992,30827.01171875
185,18042.008,2207.955,-14847.171,-3857.2976,1096.5671,-8110.4453,32515.041015625
186,29116.39,20518.4,23633.002,-6668.977,-16022.334,-8665.299,34433.7109375
187,2390.821,-19231.045,-9121.285,3286.3015,5364.672,1061.8019,21754.107421875
188,8037.13,6419.0283,-11598.011,-725.08484,4118.06,7538.9517,24069.591796875
189,12077.199,6766.872,18103.215,2789.0344,9586.309,10109.948,26498.560546875
190,6227.875,16589.805,7482.432,3427.054,11809.439,-12294.818,31671.03125
191,-14714.823,-26545.86,-21061.148,-4644.9697,-5216.655,16703.715,32993.5703125
192,7571.2085,-19953.914,-8512.909,4132.64,15922.874,-6601.8594,38938.63671875
193,20892.19,16787.053,5465.454,-5920.822,10669.701,9792.094,30427.927734375
194,7781.271,-7360.25,-14103.059,8898.321,8690.762,1952.5549,29195.7734375
195,41976.266,36845.312,24714.123,-7998.8774,18158.268,-4534.1045,38451.6015625
196,-2334.7314,-7158.868,-22956.777,-7208.2466,-646.86426,-558.3243,22519.423828125
197,10715.868,16125.703,7399.977,-1724.3278,7576.9775,-1908.3546,15820.1455078125
198,9494.99,7542.37,-10731.571,2027.8231,-8209.665,3194.277,24871.1484375
199,18939.227,10950.446,-316.3425,875.231,-9951.212,-415.7048,24097.0
200,17654.08,-8702.678,12530.469,9943.414,742.6036,-4316.467,30660.279296875
201,29518.873,6404.642,8843.445,-2518.9814,-3979.1511,-1381.403,23581.896484375
202,24094.652,849.5383,-13633.842,2794.2915,-4086.5183,-2290.2148,34293.2890625
203,24404.078,1833.3896,-20521.719,2044.3666,-829.8537,-355.1062,39099.1015625
204,7786.1777,3243.1755,-22243.36,-853.9979,-2324.337,9639.892,32911.484375
205,12280.89,641.13666,25828.51,310.09946,5136.6577,-2813.7493,24081.291015625
206,3141.0237,-747.2257,-22889.318,-4128.058,7804.3135,-4315.4316,29684.98046875
207,23596.21,12346.14,7329.006,-9785.086,-1186.2917,-3902.708,23352.46875
208,9883.323,-5553.7773,-20959.094,-1183.5629,8119.697,62.976665,30256.306640625
209,17018.41,-3992.247,8842.273,5118.6846,9221.041,9106.597,30314.796875
210,-1036.4739,-5191.316,-18650.635,3875.1565,-11718.805,3975.9807,27546.400390625
211,-11338.696,-19600.863,-25348.303,10359.91,3824.7234,-1135.6443,22771.046875
212,-3706.5369,7805.7095,-16819.924,-5940.208,17969.463,-219.04108,39117.3125
213,-7491.674,6432.257,-1745.3391,-860.02216,1076.8182,1746.3375,12717.361328125
214,-1050.0214,5698.3994,-3359.9084,1400.6941,-711.6962,-15698.171,28516.099609375
215,2106.6519,-10005.8125,-20535.59,1178.2396,16442.14,-1885.0747,34799.234375
216,4983.145,2492.2998,185.35182,-5170.2344,3180.734,18562.184,34080.51953125
217,-5335.7188,-7487.169,-6296.707,206.91457,157.28687,324.83344,2000.9814453125
218,2794.037,-791.27637,-234.09387,-5329.322,-1285.0797,16655.719,30554.302734375
219,14782.743,25061.254,-6341.8276,-7972.6475,4178.0947,-2698.6792,32154.810546875
220,9688.293,17032.992,16374.436,-4317.1196,-2369.248,3741.6365,12817.703125
221,28499.863,33461.348,23200.266,106.72639,-15082.482,74.48937,27595.119140625
222,8546.902,9484.239,-2749.9097,-7972.646,-4680.335,14603.961,32176.365234375
223,-3296.9724,6887.1353,2957.4248,614.018,-9513.91,14281.584,31043.576171875
224,-1669.4104,7228.68,-26816.758,-5340.1826,-7044.775,-11282.3125,39390.85546875
225,-8493.663,-1303.9612,-18245.656,-1393.3398,15535.772,8443.75,34069.0859375
226,5096.2656,-4035.6284,3753.1335,-2658.956,8705.0205,19523.717,38275.3046875
227,42988.89,30146.922,47828.016,7184.097,10205.5,3097.6694,27323.146484375
228,-8118.6753,19116.0,-18225.049,-4480.3843,-10139.294,1964.3916,38721.10546875
229,1003.9908,16378.232,-3374.104,3056.269,-14426.573,-9806.218,35548.99609375
230,17213.377,14570.801,14313.805,12563.104,-3455.691,17067.58,37295.515625
231,9567.3125,17448.74,11369.359,-4659.856,-1430.2277,21024.611,38059.73828125
232,-12924.711,-6099.641,-24879.793,-835.8915,-1495.4065,-16233.689,32718.537109375
233,29074.139,13652.469,23893.916,6614.125,12447.149,12256.765,35092.65234375
234,4680.4766,-5300.3022,15155.812,1216.6427,2567.4932,15368.914,32353.173828125
235,12969.479,7214.4824,-3493.592,1411.702,11949.339,-3862.7825,26239.470703125
236,28154.291,21724.777,39989.92,-562.16406,19062.012,-5548.678,37959.328125
237,22089.502,7217.372,-1677.391,1147.3569,15688.829,6107.8535,35872.91796875
238,10270.572,10201.957,-3956.331,2562.1165,20715.908,-2285.903,39041.6328125
239,20509.16,26666.494,20327.375,-416.9169,14842.507,-6714.854,28909.41796875
240,22538.195,27118.229,18928.975,3239.3806,15471.515,11094.393,34196.11328125
241,14786.542,14926.134,-8047.212,-3337.3066,8062.3022,7772.8237,30565.546875
242,23981.7,16563.354,35244.19,-258.45264,15165.995,2312.4453,31171.935546875
243,26190.203,39917.562,56946.32,2954.0122,13116.228,-3539.0244,35944.92578125
244,3280.6108,-14880.168,-30063.986,-7201.907,-3842.1663,955.9645,32229.53515625
245,-3163.901,63.469967,-7017.3516,3081.4932,12009.497,-709.08386,22369.19140625
246,29523.744,32148.34,37653.562,-10582.966,16200.885,2429.1584,34536.2265625
247,-3606.714,-5130.758,-3949.3225,880.8949,17793.979,9236.699,34786.09765625
248,-2532.0486,-3791.415,-3820.287,-914.3477,17194.955,12857.001,37242.9609375
249,29334.951,13076.594,10340.347,-5308.6577,16325.892,3551.1992,35189.35546875
250,9440.197,-2737.8394,-7698.301,-9639.511,3629.129,13068.8545,32618.65234375
251,41969.605,22956.33,22884.283,-5303.029,18591.67,-64.02271,38525.4296875
252,-9991.1,-13810.058,-36051.484,711.9045,-7180.853,-15914.459,38861.6640625
253,44655.027,27864.959,43703.77,-10661.163,9386.625,-14378.672,38631.40625
254,-47333.273,-37747.027,-70403.13,-192.94402,-12346.959,3255.8872,36531.140625
255,12769.066,-11269.343,11512.7705,-8507.006,4907.6626,-15387.714,39356.4765625
256,3936.442,6832.531,4801.7344,-1885.4689,2983.0999,1442.007,7087.3046875
257,-6591.7026,-25228.314,-28705.777,717.80566,-19290.986,-2308.278,39473.80078125
258,-35960.086,-35215.43,-36300.516,75.766525,749.1507,-89.21548,1627.47912597656
259,5846.3823,-248.60185,-3881.4263,-9441.621,-3735.3333,7376.8945,23345.978515625
260,-6769.2593,18526.162,10001.17,5227.2803,-987.6816,7428.0073,27337.087890625
261,-10660.298,4803.1045,-23703.611,-3057.6626,-2386.634,15772.571,37448.58984375
262,-21380.47,520.5235,-16378.233,-3488.5857,5777.897,13409.077,32729.115234375
263,-14610.743,14519.41,-13956.281,11173.383,1414.6885,-1183.2301,34852.07421875
264,13770.726,1972.8159,-1482.688,6595.9395,-10210.689,9601.58,30195.423828125
265,-10549.352,10305.825,3195.656,3146.1934,-2914.3545,776.73334,19854.345703125
266,-1837.9752,10276.881,-6376.1377,488.1734,2024.9716,-9789.694,22866.453125
267,-4857.013,-4515.492,-21368.16,3238.1743,-5206.231,10921.144,27367.123046875
268,-10869.434,7382.4976,-12244.669,-10735.85,4995.7573,8575.702,31644.923828125
269,-8848.1455,14248.553,-22716.217,-3116.8435,3158.9712,10385.288,37798.56640625
270,1332.8162,9403.666,20734.928,2345.935,2144.3643,-1600.6093,17971.64453125
271,-9762.511,13158.178,-22383.87,1688.9666,-4582.2397,12085.167,38518.16796875
272,-8613.625,-7015.3066,-30009.514,57.887875,6377.8823,7377.3613,27925.87890625
273,-12691.351,6361.579,-16233.559,4709.067,1450.9155,1552.6462,22871.912109375
274,4982.4077,5483.799,32889.72,2877.7427,-1705.8768,8204.694,31632.296875
275,-11741.616,-7738.1978,-7924.6787,-4175.3413,2909.9385,19718.145,35488.515625
276,22143.033,24869.004,-8943.682,6752.6836,4059.6968,2272.455,35500.53515625
277,24922.121,25315.32,1196.4595,8577.895,10697.898,9102.736,37216.20703125
278,-11888.223,-17132.025,-43441.895,3590.3674,7599.0063,-4291.944,33538.62890625
279,11348.811,-21540.154,-5399.992,55.213936,6030.6567,3326.8372,30881.625
280,1133.1833,8854.943,13740.889,-548.4286,-6136.0903,-1315.3326,15500.759765625
281,-1417.2902,5942.7363,13068.739,1299.8401,-627.0862,-2183.5657,13339.783203125
282,9917.296,77.32388,-17388.197,69.17043,2834.174,2949.037,24978.6328125
283,18816.062,662.74725,-12125.519,-5.5411015,8718.929,-2105.5764,31090.0546875
284,-20150.441,-32495.125,-46889.45,-708.1345,-12329.232,6045.0864,33233.1875
285,-9988.48,-3567.0,-25322.621,2170.9834,123.46587,-19833.605,39612.375
286,1593.5072,1791.2095,-10867.118,5047.982,974.43774,-16514.635,32484.830078125
287,5195.7495,13520.556,26049.756,6922.272,8178.555,-6043.8823,28010.56640625
288,-3454.5764,-4044.1726,-12202.817,-520.93536,18921.51,-6668.752,35777.40625
289,22929.34,-13837.514,-10257.883,-3973.8525,7369.849,397.1432,37997.3046875
290,9839.848,798.06256,-11062.229,9651.337,-17045.822,414.6041,38487.65234375
291,-5066.645,-16814.594,-46449.28,429.71368,1205.6661,-4331.94,37756.95703125
292,15923.663,-447.70053,-17225.123,-4208.72,-10529.259,-2896.0884,35143.57421875
293,26548.172,6728.332,-10664.518,-2639.472,-9681.12,1080.0636,36682.87109375
294,16238.861,-11210.108,16113.19,2775.5134,-3641.5215,5591.9575,30111.703125
295,10369.985,13205.663,-10090.072,585.0904,12679.571,-8108.137,34135.6171875
296,20124.096,14912.105,15802.939,-4044.7275,12935.305,-16928.041,37868.6796875
297,47308.523,38602.52,42445.082,-8615.156,13240.168,6094.5645,30283.767578125
298,17057.0,-7163.052,-23694.326,-1829.8276,-61.562004,2026.4078,35814.20703125
299,17608.008,18010.176,18299.367,515.0859,60.675076,972.00653,2000.76220703125
300,-3563.109,20829.758,-18528.799,-6164.931,-4521.0527,5233.5425,37967.73046875
301,19718.35,16728.438,-6054.2754,-9738.884,113.96219,-1112.8842,29738.896484375
302,15173.631,13010.394,12299.99,1417.4133,7136.652,17892.242,33555.0390625
303,-10250.539,7444.239,-23698.469,1846.7786,7790.2983,-5336.3994,31774.828125
304,-18753.727,5231.992,-36598.53,-5454.4253,5305.8115,3138.0427,39051.51953125
305,-8316.549,-8918.313,-34860.79,7443.8364,-2712.949,235.35094,29622.01953125
306,-32425.193,-3808.652,-23134.324,-6143.725,276.448,5480.6724,29033.3046875
307,-28801.146,-29529.031,-42127.234,3322.7139,17794.006,8617.912,37070.48828125
308,-2866.749,4908.7646,-491.10828,1281.9419,-7015.5312,-4305.8228,15994.810546875
309,-20914.898,-11626.511,-22882.195,-7594.8345,-3196.0747,15090.236,31547.62109375
310,45313.508,33400.152,44010.895,-417.45065,7649.8213,11169.528,26047.33203125
311,-15973.699,-480.2652,-39241.734,-1338.6398,-2348.6973,10646.601,38780.47265625
312,-14052.257,6526.3096,-3832.29,-17153.594,6339.1035,-1458.0175,36431.859375
313,8135.2656,15442.631,-5892.8813,4421.3076,-4866.453,-16263.439,35719.52734375
314,4014.2769,-23.950668,8876.895,-7291.2354,98.62118,3512.7847,16003.8486328125
315,1989.3695,1856.7831,-21231.715,-7027.2427,7271.335,-74.58861,29033.38671875
316,-13198.074,15142.866,1671.7714,380.05566,-2973.6108,-2111.9229,25362.115234375
317,-6023.835,-11287.731,-16865.434,6077.7305,17821.297,-3911.1228,34607.5546875
318,-5454.2603,1260.6852,5029.9507,-8769.486,6999.5635,14183.366,32646.671875
319,14582.281,-4595.736,-9251.841,-783.4452,4512.5996,-9702.411,28707.3671875
320,15708.233,4447.4165,-9776.987,-1734.0454,14760.167,819.02655,33969.67578125
321,4511.491,-11688.804,-26659.719,3436.9146,-2817.5833,-4104.919,28964.0390625
322,9215.383,-1065.2456,-29974.79,-485.36133,-1184.3254,-3024.7727,35651.41796875
323,8984.148,-9870.339,4288.0254,2211.4636,11684.156,-5827.927,28550.42578125
324,32892.043,17044.135,16762.717,-4031.4172,1331.6163,3099.546,18400.908203125
325,-10681.441,14465.929,-4874.3647,-3525.061,8986.689,-8364.148,31772.888671875
326,885.08246,-614.21027,618.27673,766.0287,-302.1461,129.0734,2000.82495117188
327,4166.1846,3637.5237,3255.5688,-407.7967,-88.657394,975.33246,2000.89770507813
328,17256.527,8160.07,6291.3555,716.49805,3879.9905,14285.729,27607.70703125
329,18928.643,18931.174,21508.244,-4673.9087,17224.553,-710.6665,31044.400390625
330,26674.668,23248.133,24441.186,6802.087,16624.217,-5759.3003,32809.81640625
331,8261.756,4679.973,-6217.7544,-1333.0668,11074.764,14565.169,34356.04296875
332,32235.701,6877.366,-7332.451,-2046.7015,1566.198,-2193.0562,35208.74609375
333,19640.064,30859.31,36348.457,4895.0737,16901.8,1221.1473,33925.76953125
334,-2759.3855,-3668.0205,-22892.977,-4658.676,9536.452,-9866.238,31903.958984375
335,7586.8633,-2724.0645,1283.1113,-1046.852,16405.355,-13920.833,38381.2265625
336,-9043.178,16589.756,2908.177,-11232.79,9413.522,5825.601,35209.61328125
337,18653.578,-5205.7656,4694.9395,-11001.122,696.8637,13171.46,36277.5546875
338,-5619.9565,6221.0737,-25513.766,-4511.0835,1519.9071,14616.249,38476.23828125
339,-10658.087,4680.3354,-12193.667,1710.4407,2401.5728,-5168.9937,19168.03515625
340,-8443.727,15912.2295,-5351.1865,3401.5369,950.1492,9539.445,28946.11328125
341,10707.191,2847.8945,-21726.105,3933.2104,-2588.6611,-1353.6686,30508.94140625
342,8916.537,10627.489,21046.137,3821.3293,2331.3813,18519.799,34905.0703125
343,5691.2676,-57.05521,-32282.39,4344.123,8732.912,-1498.5411,39356.05859375
344,1963.3285,-4424.725,2887.289,-1391.5417,9376.645,11953.026,27308.630859375
345,-5886.4717,12427.97,-8889.981,5892.5024,6105.773,-1239.0674,24900.994140625
346,18030.646,9008.981,32714.045,-2042.6609,2247.939,15186.282,33897.01953125
347,6655.731,4604.1924,-4756.6426,1454.4917,-514.60034,-5393.9844,14334.0302734375
348,16106.375,1568.2168,-8856.354,1005.19794,1087.6556,-4448.294,23184.607421875
349,-8109.1074,12501.454,1616.0154,4464.089,3090.5972,3944.0874,21308.21875
350,-7128.7607,-2475.5051,-32095.867,380.3455,2375.4954,-11821.129,34608.78125
351,2913.285,2322.789,-20344.21,-2652.0476,-960.07245,-6006.3877,25683.1015625
352,-20434.309,-9735.293,14869.461,3431.5298,1060.7543,-4942.7793,33092.36328125
353,-7059.131,16670.617,-14845.778,5499.534,-8454.665,-2498.444,33651.34765625
354,-9114.181,-384.9821,9127.83,-2879.012,-234.37323,483.00082,16597.0625
355,-2790.0393,-4322.779,-2385.4473,-3903.8625,9956.3545,-11840.711,27692.017578125
356,-5321.6313,153.73079,-690.283,1576.9202,1943.6188,1298.4196,7065.50341796875
357,-56.416004,1571.3389,-24.317717,698.13116,-683.3409,859.5735,2770.91918945313
358,-955.0256,-262.30685,373.95804,-3009.8308,-626.42035,2189.925,6638.31396484375
359,723.7498,-1017.6395,460.44525,-645.6255,825.6779,-657.64685,2690.07006835938
360,-7934.2954,-1212.0975,1703.6273,-7563.0796,502.37946,-963.9249,15761.80859375
361,1923.3069,6080.3203,2597.3916,-612.27606,-2421.414,-2844.2207,7610.26513671875
362,-4221.3374,-330.2646,-1172.3735,-168.8474,-83.20758,1488.9084,4396.55908203125
363,1847.775,-6481.4463,-5194.7363,-4490.0264,-989.6397,-2342.1357,11840.1953125
364,15499.31,5147.646,-1422.6758,-38.452114,-768.469,-328.88016,14847.2353515625
365,10732.524,-743.7995,-4407.142,4248.711,-3365.5547,4128.369,18067.47265625
366,7433.891,1153.21,-3102.5974,3264.19,-2097.6702,188.10216,11382.435546875
367,8713.828,-19.28084,2594.3997,4703.237,-447.2926,-1793.1976,11699.62109375
368,889.4386,1745.3112,1307.4266,3459.0388,-105.08662,64.14565,6040.6796875
369,-1429.3948,55.115543,149.00893,550.63544,185.91705,192.89508,1864.64245605469
370,-1169.4973,-846.4613,-510.50998,404.0819,-84.42831,-323.24136,1072.5791015625
371,-1773.6647,-1220.478,-563.5135,-420.6093,45.39351,451.4126,1499.76000976563
372,-2437.7368,-2065.0625,-849.2174,-2756.9275,-486.53107,-639.10077,5177.61669921875
373,-10136.513,392.6676,-3011.246,3599.4775,62.685204,-1058.3622,11351.244140625
374,-1274.2603,2264.3667,-2133.6897,3876.4011,59.275105,-839.45166,7969.04833984375
375,-681.996,1673.9576,-615.8173,484.5525,443.11743,263.03394,2626.78051757813
376,3995.0378,2226.1736,-1599.0165,-1058.9006,2559.4521,-2424.8674,8073.62060546875
377,5166.038,430.69006,2819.2683,-4879.997,-9302.72,-5941.3438,21302.15234375
378,4594.216,4813.887,2714.998,-2597.1533,-5484.1597,-4748.0757,13494.029296875
379,12396.841,2002.4247,3737.7576,-3378.0088,-3445.17,3287.5237,13974.310546875
380,7196.8496,-2372.2253,-5643.1406,-2237.662,4153.9053,776.93634,14218.396484375
381,1886.3059,1835.2126,2049.8735,3103.9465,-691.08905,221.29295,5524.572265625
382,-159.39545,-1186.857,-64.49273,791.4182,297.11554,-4.6937823,1818.27392578125
383,-1474.5735,-615.9072,-901.3811,3598.2979,550.65186,204.0043,6360.14306640625
384,-3294.1106,5953.487,-2940.8455,-1720.6552,2463.7874,1774.4343,10904.7958984375
385,-7123.4253,1005.2803,1875.8759,-1540.7029,1466.8107,77.85793,9354.3935546875
386,-12416.23,-5332.008,230.6345,-4123.297,-1696.709,499.94357,13450.9189453125
387,-2682.373,-1016.81525,1882.1799,-3470.0522,990.90466,1827.057,8067.87353515625
388,-502.3083,-1366.4274,190.5597,-588.9917,-121.55869,5.415654,1706.05969238281
389,11330.178,4355.549,2352.0637,2808.8633,1256.5546,-1723.0613,10195.376953125
390,10156.201,-424.51807,445.70035,-2758.903,-88.8979,-2134.216,11833.1884765625
391,7938.9067,-1081.1772,3127.3413,-1794.31,-105.76414,656.2461,8490.9677734375
392,17884.994,5389.554,3387.4048,-1966.8217,2365.266,-985.66766,14712.76953125
393,-2141.8855,5560.2964,-956.3635,724.4775,-371.5535,-281.32138,7336.494140625
394,-6677.796,2233.3545,-3377.973,3571.3533,535.89166,-1677.1233,10414.205078125
395,594.5623,3354.0732,-90.081696,3976.2595,1474.5717,-763.7529,8104.189453125
396,-2724.9111,-360.0256,8382.625,-3005.7935,-3274.3674,3878.5657,14390.9921875
397,5072.017,3370.4434,-6978.0137,-3520.873,5058.953,-241.58649,15547.9365234375
398,10368.762,7896.0776,6644.201,869.97296,-3880.0415,2202.8674,8530.501953125
399,-4413.6855,9084.185,-2457.4102,-2832.4255,-441.78625,1094.0222,13706.130859375
400,-5226.2847,4858.1104,1296.1162,1604.4146,271.04697,-150.84174,9299.10546875
401,-5840.01,7900.012,-444.48874,560.70044,700.5597,-1596.654,12402.76953125
402,7646.5786,-1225.3173,1361.5602,398.0392,-124.21306,-55.54516,7936.1708984375
403,6604.508,2071.1528,-182.9046,2052.438,1162.1614,-316.78674,7269.17822265625
404,1691.6553,-1200.9006,950.59607,2743.1475,1713.7755,130.12343,6181.33837890625
405,4875.0435,-4020.581,4782.5835,-3780.5762,-1417.8479,2784.6538,12267.4462890625
406,9249.259,-452.82556,787.39374,-1171.7332,-494.2574,-431.729,9436.4599609375
407,6045.4917,2328.841,-1562.9087,-2491.9094,-406.0616,-1622.8252,8393.310546875
408,2018.8049,-3417.0178,-1935.7372,-2276.7478,-441.63412,921.2198,6509.39208984375
409,5360.2744,-2558.284,2069.7036,1745.202,1317.5582,1864.9612,8500.2451171875
410,3207.4692,9021.956,-2819.754,-1414.1658,-3959.6223,-1595.1835,12878.28125
411,4503.3994,768.706,122.42875,-1978.6484,-776.3372,-284.07837,5529.4306640625
412,2632.0857,5888.787,2098.132,-3815.6638,549.35626,-2170.1238,8446.4013671875
413,2172.8408,-1486.7357,2106.3398,5963.6743,327.76987,-364.9297,10980.5107421875
414,5535.3447,-4026.1672,-5678.3086,-563.7273,-1102.7847,-1617.789,11063.568359375
415,1571.5146,-11317.739,603.78394,3227.1335,437.6111,2183.0562,14167.2490234375
416,-628.4246,2824.571,3752.6367,-242.26178,506.75833,1136.4225,4561.7919921875
417,-2955.6064,26.98802,1067.8966,2616.3025,410.65195,-28.41737,5841.8671875
418,-2370.2258,-3300.4333,461.78992,-2056.4036,72.44244,230.23634,4937.72412109375
419,-3842.4966,1029.4797,457.60364,-2357.24,411.2377,1605.1628,6795.86376953125
420,-3157.3628,-7621.319,2764.2263,-1297.4666,1442.2874,-1302.8575,9889.8427734375
421,-1358.6694,4123.0483,2469.0645,-3242.619,-1152.0046,-394.0291,7727.16455078125
422,-5035.9404,3181.508,-124.1036,3045.7034,2012.3447,-2189.0557,10278.2900390625
423,-4648.9077,3897.3865,856.3743,-2634.203,7.393319,-1984.9697,9430.5390625
424,315.6804,8321.7,1748.9735,2069.3486,-235.55663,2294.0427,9136.5576171875
425,-7497.1436,3593.5735,-1069.226,186.0077,-1344.3992,-821.4858,10029.080078125
426,-3134.1343,1739.6022,1379.7028,-2323.0757,-1441.8007,-192.98488,6683.3310546875
427,-3857.9602,-1545.2832,131.76595,3836.3376,-1083.1335,-90.88268,7728.9208984375
428,-2725.5933,7118.814,1607.8665,92.63804,1177.4587,1373.0303,9103.3779296875
429,-3150.266,1618.4269,543.3835,3578.721,37.52958,1771.405,8161.44482421875
430,541.14136,1790.6382,3454.1377,-1861.5348,1047.2228,-232.06093,4500.50341796875
431,8537.111,-4274.345,-1901.7628,1501.5907,-638.2472,-125.92625,12140.8525390625
432,3565.432,-1935.8364,2416.7927,787.7862,17.407934,451.89447,5266.849609375
433,5991.7354,-1696.7714,-7019.8057,-3956.061,708.6312,-2760.0757,14131.0224609375
434,3319.0144,-2348.103,-1655.2452,763.9464,284.4626,-195.01126,5547.7431640625
435,6365.3184,1375.7728,-2204.911,-2506.749,1116.8778,-141.52957,8845.1435546875
436,5112.995,2766.1162,-9630.14,-2576.8176,3849.5647,1888.1082,16227.7470703125
437,2612.8928,1631.5125,-859.7008,2955.3208,-773.7495,109.69487,6135.796875
438,-2307.4912,-604.19104,340.43097,25.594917,-110.140335,166.54727,2350.33813476563
439,4957.941,-549.3382,2568.5322,4100.9087,-504.61298,-1905.7183,9219.099609375
440,-340.24933,-1393.0721,274.41467,-3426.2102,-467.13617,-194.7997,6174.02783203125
441,-4395.6963,-2461.2996,-770.0127,-3975.4365,1164.6989,1202.2365,8105.05615234375
442,-2407.7998,-2143.4592,-439.2809,-2419.5405,612.8335,-657.77094,4838.57373046875
443,-4929.2,-2571.1907,-2726.9104,-1609.7078,-1542.2847,52.30371,4487.1904296875
444,-5003.633,-1395.1467,1050.4417,-1924.3988,199.40208,93.05696,6251.57080078125
445,-2503.2656,1964.183,331.61316,3161.3318,-38.399925,-1221.1775,7056.2216796875
446,-2967.8486,3085.0127,345.90616,3792.4407,573.36237,1614.1381,8916.8818359375
447,37.552822,2004.3202,1279.4188,4836.624,1243.335,981.8205,8981.9990234375
448,-5407.542,-1597.7115,-1265.0037,-810.0569,-57.49565,-316.41797,4262.85302734375
449,-4109.3247,2079.7012,-1836.7579,-2987.7063,1654.8188,-1091.7289,8244.615234375
450,-5947.428,-3286.5325,-2632.791,-2199.3745,2989.619,369.1269,7140.11572265625
451,-1558.1044,4266.472,4166.302,2767.8604,-696.2418,-125.20902,7605.04541015625
452,-4858.0645,-1225.2324,-2817.3496,-882.0608,-993.2902,-275.55188,3933.21337890625
453,-3560.814,756.3774,-990.8805,-627.40674,-1376.5591,1224.919,5051.21240234375
454,1620.5818,-761.6312,-3790.4526,-3048.5828,861.7753,130.5909,7226.66552734375
455,3509.2104,976.9563,-1322.829,3992.5203,-1529.6935,3107.661,10066.6865234375
456,2758.26,-3149.491,-646.0109,271.0433,437.35,-385.6691,5255.419921875
457,1523.8298,-3096.8315,585.37354,807.6191,51.917423,-39.324467,4456.94873046875
458,3453.3562,-1177.833,677.73004,-3147.11,791.2405,212.8779,6929.97900390625
459,562.56665,5386.945,7732.7686,-8425.548,-401.9261,826.07764,15987.373046875
460,9625.636,-1086.3088,9723.037,-3254.0137,-1464.5477,2385.392,13079.3505859375
461,4390.4478,-1186.8741,-1020.36676,-2097.0918,112.49334,-91.89945,6592.591796875
462,-4820.514,2982.7866,2349.0354,-1670.5498,-2897.3203,-496.35596,9520.6357421875
463,-5115.01,875.66547,-1007.1645,-640.6628,912.2224,625.2236,5749.2890625
464,-2646.606,401.89282,2189.8184,-100.21872,86.38991,-27.261757,4242.08203125
465,-3236.2239,1532.5471,2354.6814,-904.8934,-87.06988,-127.78452,5464.96826171875
466,-3797.953,-2031.7955,260.8978,-1926.39,-993.9449,524.92474,5229.56640625
467,-5194.1357,-2900.3005,-1742.609,4258.051,-390.78467,741.9552,8109.26025390625
468,-7341.518,-2371.1262,-1750.8398,3615.2075,425.51642,398.10733,8270.4560546875
469,-910.3333,5365.241,1155.3579,2035.4758,-1761.969,-438.07852,7280.4775390625
470,370.2508,2552.4326,638.69965,-1819.7986,1091.5049,-812.4174,4442.6787109375
471,-2992.9033,-1729.3248,-2426.32,-322.16153,-367.75333,-473.5827,1609.86267089844
472,-2996.5205,-2566.5164,-394.3662,-2210.5474,-235.32538,-649.611,4682.82470703125
473,-5915.2285,-3359.3071,-4447.383,-1736.7225,-894.23694,-1326.6414,4654.3671875
474,-3789.2097,-972.5041,-430.7493,-3403.973,423.53925,90.34259,6713.943359375
475,481.6085,1531.8623,602.5374,1.5247401,-505.22525,-627.98444,1714.49951171875
476,1438.3086,3680.221,236.3613,985.22595,480.804,644.542,3743.97387695313
477,1898.058,-3899.3225,29.882454,-1673.3325,10.708782,1465.9504,6412.228515625
478,2760.9827,-3530.6616,149.14795,-610.2346,-961.8989,117.01919,5823.03369140625
479,-759.2136,-2429.1606,-3.539016,2562.0298,-262.9086,886.84204,5184.64306640625
480,-3174.4192,-2581.8274,-1122.9359,2466.3823,5.213198,-608.3334,4764.81591796875
481,854.7131,-2826.3596,-812.96027,2026.1677,-545.03424,-648.9234,4966.2021484375
482,-2888.9153,-2255.9531,-701.5588,2215.9111,-80.728546,-162.3376,4316.25439453125
483,-3596.2993,-488.74796,1107.7747,-860.9948,321.73047,432.68176,4501.4599609375
484,-2224.5698,-1534.9779,142.20645,-1475.9772,43.793438,-69.22429,3316.73217773438
485,-4742.702,-1230.1548,-301.2744,1082.3009,247.94194,-407.45758,4545.3447265625
486,-4623.0073,-1462.9473,-297.88846,454.97986,-60.282322,-588.8537,4086.21655273438
487,-1980.6321,695.7109,-980.8297,2249.273,-525.6359,-4.180324,4636.078125
488,-307.5756,-4093.3542,-50.172523,1861.1921,-160.84431,-237.4719,5100.17138671875
489,502.53125,-3533.6528,383.1742,1175.1034,-116.24168,244.44542,4492.84814453125
490,-401.07196,-1739.5089,1677.8213,2630.3367,-185.58098,-85.9638,5456.84765625
491,2453.9673,-1806.4817,847.63556,-939.00256,-52.48208,200.22298,4081.87963867188
492,-2342.7544,3188.493,821.35535,-1033.66,-57.92163,-1164.6078,5512.6376953125
493,-3063.6675,60.920677,145.92136,-638.8226,-72.191895,54.41746,3359.26611328125
494,-4226.992,-1539.6212,157.63907,-713.43024,-1182.0232,-564.2468,4619.24560546875
495,2629.6292,-1679.06,1557.2656,-352.92065,253.73819,-22.99454,3957.6103515625
496,-4546.5107,-9031.482,-1493.6808,-3728.009,-2087.5544,-183.21121,9899.2470703125
497,397.48062,-2834.392,1253.577,167.47812,-391.86313,-256.97446,3832.44311523438
498,-5966.6533,442.61398,-1418.1343,2425.543,-469.2924,346.60236,7161.42041015625
499,-3492.1714,789.31824,1261.5958,162.44257,-945.77673,121.66696,4835.62890625
500,-4558.3467,2425.7742,-335.46945,1102.7046,372.3809,-1016.8467,6654.57421875
501,-2697.7686,1410.276,-524.87616,3.122246,-429.18948,-642.53265,3802.93823242188
502,-663.1902,-2374.9265,383.12872,-3343.4756,-372.54083,1.1403141,6306.24267578125
503,1347.253,-1499.2461,1911.1456,-3241.0603,-383.3632,50.2693,6479.7802734375
504,2031.8982,1034.434,8309.328,-4686.206,-2654.3262,998.8454,11690.7470703125
505,-1432.8961,-2454.76,-1030.4854,1016.00696,24.893404,-248.43965,2213.86206054688
506,-630.061,-3250.266,-795.1087,413.92496,435.07547,553.04553,2908.55786132813
507,1613.3488,-3333.8174,420.7005,-1742.5948,-140.35712,-837.2482,5591.8330078125
508,-3860.7842,-981.91736,-757.0352,3987.928,-595.2954,-827.808,7734.0478515625
509,-1443.1332,1754.6318,-32.652443,142.12404,221.44485,-30.190945,2813.3994140625
510,-4295.243,-685.85925,1670.5126,4508.7275,265.21176,978.05646,9547.34765625
511,-785.9378,2713.6116,-474.38974,272.62723,155.67657,-505.93536,3509.59033203125
512,1879.2802,1553.4581,994.2509,-2796.154,1105.6451,-1611.7142,5959.59130859375
513,-1970.1981,-5070.2896,-1741.895,-1411.5763,-312.1494,-14.921658,4079.34692382813
514,-350.87082,-1249.0765,-888.21564,-5198.9683,865.33704,-1572.4912,9558.5185546875
515,-1346.0391,2177.3188,-362.48285,1397.521,328.18533,-294.8977,4044.65307617188
516,-2661.7659,1443.872,1444.4093,-742.04266,-219.36604,-359.96878,4363.8798828125
517,-3249.8093,228.0857,-54.00882,-869.5736,-572.667,503.19052,3899.50708007813
518,-2709.1655,-958.5351,237.35692,-2900.1758,-506.44537,-500.15863,5774.20361328125
519,1307.4082,-558.98755,-353.73892,-765.57654,-311.32755,709.0668,2588.41821289063
520,254.56384,-428.58295,85.69887,-695.5698,593.1699,-422.79208,1850.16455078125
521,-4993.12,-2874.4146,-260.4913,-42.814857,-1276.4795,136.28114,4670.01708984375
522,-4222.4326,-2665.9292,2.9223335,-897.6765,-384.09128,113.550385,4074.09838867188
523,-760.8512,-605.9984,486.4851,2685.9683,400.47623,-25.4544,4849.0244140625
524,1113.5001,-1533.4738,842.76776,2459.3562,155.49951,493.5059,5031.06640625
525,-5098.4385,-609.88354,-107.262146,54.187428,686.6557,397.47522,4955.103515625
526,-2962.0767,-388.7279,704.4738,3451.8816,-228.84523,18.735659,6821.65869140625
527,-2711.108,275.83817,2105.6624,3772.0723,66.96143,-840.92993,7909.24853515625
528,-418.4165,-5155.89,-1092.3679,905.72363,230.31458,-578.576,4830.05517578125
529,374.2251,-4950.318,-194.41708,440.06143,157.99211,-930.1981,5375.6865234375
530,1515.3218,-403.51184,962.6206,593.07043,-264.76602,-657.07263,2342.56127929688
531,656.3213,-2415.5396,373.51556,512.44916,649.05707,28.551151,3271.337890625
532,-2251.7646,1202.5928,-658.8152,432.59225,90.67186,51.514954,3092.166015625
533,-1922.1699,-1717.1193,-475.29752,1049.368,-5.4701233,294.94455,2324.51928710938
534,456.7519,-1060.9208,747.20734,21.918287,-225.49512,-58.013226,1729.91125488281
535,-226.75307,-1225.5734,-338.65854,213.37462,-51.80542,373.85388,1209.26806640625
536,-16.755154,2405.5464,-557.68,-1847.361,245.42175,739.51917,4419.27783203125
537,-4573.857,-2127.0408,-2401.1074,3033.7686,855.0441,-267.39313,5950.6708984375
538,-3045.7217,773.4658,-1185.7031,3920.2236,-185.0078,529.95483,7615.23486328125
539,-4114.4844,-723.4683,-1186.1805,-1461.5768,-1182.3815,-717.4651,4721.333984375
540,4284.943,-451.1349,-1064.6715,440.31454,961.29376,165.15111,5398.91943359375
541,-3747.692,-527.6969,467.31268,-1747.1913,-206.29062,-460.0681,4948.03271484375
542,3084.862,201.34055,352.1376,637.8246,659.4784,-229.48297,3253.58154296875
543,2288.9133,-1266.9203,327.15384,-1818.0897,-397.77606,-58.055073,4462.94775390625
544,556.49493,-1768.5203,11.399586,-1322.7557,-777.5459,-79.05494,3393.67065429688
545,2287.8323,309.28574,172.29926,345.62473,-670.9234,25.480963,2432.11376953125
546,4318.7256,993.42377,310.00165,543.47864,102.48273,-64.639046,3837.63354492188
547,-3665.2417,-423.58966,-68.79938,-885.3103,1959.6926,451.21188,5125.18994140625
548,499.83337,741.635,29.56817,-1569.6552,400.53467,-271.28284,2913.21923828125
549,-2139.457,-3833.0847,-561.22504,-2382.7954,-379.73306,174.20593,5058.54736328125
550,466.24796,1503.5701,-741.081,-1023.5207,-1466.9644,-181.57442,3672.01782226563
551,-495.68817,-21.297022,-328.37228,-1075.9354,323.0188,201.36363,2020.20910644531
552,-685.2047,-234.0495,631.8312,-336.21222,73.02654,205.66904,1351.27746582031
553,422.17352,781.2279,340.1865,1191.163,306.0611,-41.833588,2169.78295898438
554,1160.6643,2135.1714,1005.21655,1036.0798,55.668392,34.200012,2087.70288085938
555,-2788.3452,-5434.428,236.0829,1090.3239,-590.2016,-336.81262,5394.7724609375
556,-2712.1567,-5404.2617,-567.77496,1674.4657,226.27266,572.4727,5212.1953125
557,-2092.7734,-3117.6401,-1916.6462,-2249.6812,-132.06161,771.8248,4276.04248046875
558,1016.83093,-1666.7396,440.05554,-92.29544,91.77161,385.44006,2546.15747070313
559,2239.3496,-461.03543,1016.97284,127.72191,305.0093,169.83517,2428.98315429688
560,-933.93604,2560.724,-238.51038,417.74872,-311.73358,-87.84848,3332.29907226563
561,118.66949,-1780.5233,-410.1717,455.15967,10.673863,-383.43707,1986.24267578125
562,1285.5929,-1578.8531,25.311451,1060.3005,118.582306,-388.46204,3170.32446289063
563,-370.93204,-1409.6432,-1057.0823,-594.76166,185.8262,-402.91467,1577.60900878906
564,-1090.4824,2354.755,-761.45013,1733.5752,355.55582,82.53985,4501.09716796875
565,-22.78609,2468.171,385.85574,308.43973,-129.00607,836.687,2790.9521484375
566,282.2775,2469.4338,411.06064,-1680.656,56.58508,49.13902,3606.83154296875
567,504.56677,487.29077,1059.979,-2876.711,-276.79053,-439.81888,5094.59912109375
568,540.265,-2408.861,-4411.727,3056.7927,1295.6667,-823.90314,7329.40478515625
569,-3035.0928,-1300.2554,-1353.6805,-1162.7366,865.9475,220.02592,3061.13208007813
570,208.52339,-71.727745,1272.8888,-2542.4133,539.824,188.85663,4677.876953125
571,-1532.2712,-1817.6024,588.00775,-3060.027,-601.5884,759.6354,6007.5068359375
572,-3450.0813,-445.74347,1535.3766,-141.19904,21.715528,263.0275,4378.5400390625
573,7144.4634,-1573.7772,-1871.1183,1864.5504,-891.26154,-135.34225,9568.4921875
574,8258.478,148.62686,1939.7303,-2523.2502,-832.85547,785.74817,8802.59375
575,3783.783,-3436.522,-6783.8237,-3112.4106,2667.6355,-1997.1813,12242.634765625
