Element Label,S11,S22,S33,S12,S13,S23,Mises
1,-421.56738,3834.956,545.6756,1474.217,224.27406,-119.404335,4652.96435546875
2,468.57428,1333.1328,-745.1341,4067.7205,-107.65228,499.79498,7327.55615234375
3,2908.3984,4023.9556,346.85345,2495.8154,105.36459,-349.75558,5454.45751953125
4,-238.13153,4306.2617,111.45075,2674.4167,-435.6263,416.22034,6460.00146484375
5,1073.1808,6612.2983,660.232,2684.8572,-46.858536,-223.82712,7410.9365234375
6,819.75287,2231.1428,-2615.946,1918.6716,286.38907,-25.886795,5471.4833984375
7,4349.209,2221.3882,2426.636,3057.3845,-130.51219,-449.9623,5730.12353515625
8,-2227.466,688.1231,-1810.3274,3500.5056,120.06185,281.85315,6670.88037109375
9,5812.886,2915.7627,720.82153,4702.1606,254.31252,-149.74876,9282.3671875
10,-6952.7964,4590.623,-1594.9354,2819.9675,-123.436066,-801.1579,11222.169921875
11,1117.788,2578.3386,775.6989,1437.5879,160.31308,15.072279,3004.6015625
12,3467.6296,779.2332,-558.94666,596.5999,-415.616,171.01561,3780.14575195313
13,930.96265,-2055.3945,743.2806,2299.9824,846.1614,295.1684,5164.51025390625
14,3411.1604,-6522.14,-106.14232,1393.2395,-992.93317,213.61595,9220.70703125
15,-6972.5767,-12051.363,334.98297,-1054.8901,1508.9109,-460.10248,11274.392578125
16,6136.1445,4005.1233,10778.048,2734.9692,-886.05096,511.32162,7846.03662109375
17,4509.11,1718.2816,963.18726,883.8464,1069.2703,-2630.3894,6082.48681640625
18,3006.1755,-467.85812,5570.5977,-251.96877,91.98847,-277.95523,5291.662109375
19,7164.4644,-2295.7441,27475.44,3708.0312,1232.7175,1541.103,27333.3046875
20,1805.7365,6237.3345,-11967.772,-3498.3372,3442.9727,6044.105,21266.361328125
21,1498.9578,2834.551,726.3525,1154.2267,-363.19714,-394.14938,2875.95727539063
22,10286.079,20858.066,38871.816,-593.58655,2323.262,12904.279,33815.88671875
23,2937.9475,7595.819,-497.34845,2521.6316,896.1248,-862.84186,8556.673828125
24,-2157.8442,24.514177,2245.6702,2034.9418,-255.69328,-142.44073,5217.619140625
25,2261.6836,2755.5618,-5200.7925,1332.9978,-728.581,-3.6607547,8157.27880859375
26,1143.7522,1272.7069,-5763.624,3678.5608,62.753025,859.9103,9562.6767578125
27,1917.9109,6158.6523,10567.338,3685.1248,-303.14944,722.01935,9934.6142578125
28,662.86536,1288.6968,-3829.7515,1774.5356,447.1283,-827.34717,5957.10546875
29,-2095.629,4360.66,-1020.59424,1637.2411,61.517395,-244.88109,6643.1591796875
30,393.20145,3242.921,-5170.4546,2434.5737,-262.039,158.09842,8543.5625
31,1330.0132,4800.662,3695.8044,1968.146,863.76074,512.26654,4906.9169921875
32,796.9273,928.24786,-122.22683,1254.6871,331.31607,690.13934,2731.9775390625
33,1120.9767,2731.8064,-1462.9247,574.302,-86.871796,157.85475,3810.56518554688
34,3323.3838,3162.0938,1040.6366,2490.9814,-630.79504,783.98737,5149.8876953125
35,3550.051,4719.7656,629.3959,1332.8868,59.43319,-97.109055,4322.4345703125
36,1095.8186,1509.9886,-1042.7368,2246.6553,-420.65607,482.20166,4690.57275390625
37,3699.1677,3250.57,164.10233,616.2653,-468.0339,618.3802,3749.10717773438
38,6879.5615,2379.0579,661.6334,-344.48,-476.58728,-937.3097,5882.72119140625
39,-3826.767,-1945.0142,2605.0127,6979.4424,-437.6128,-1069.8514,13525.970703125
40,-807.9612,-1050.3826,1369.496,6962.148,-3211.8342,422.06366,13499.0556640625
41,-7445.9194,-3813.3325,-2095.024,7090.2495,1025.8168,1251.9811,13456.015625
42,-19200.139,17599.352,-7999.4097,-4624.291,3058.534,4242.255,34837.96875
43,-28115.816,-21405.229,-37474.582,-7179.0654,6838.53,2477.8638,22555.578125
44,-11646.789,13554.577,-21222.072,-5781.343,-3596.5715,1846.6619,33427.734375
45,-13487.337,-24807.338,-9565.7,3504.1052,10059.2295,13257.221,32489.642578125
46,1853.4043,1447.51,3502.312,-3116.4565,-1009.4772,-2193.9358,7084.2802734375
47,-15980.65,-15735.941,-17597.195,8420.607,29.738205,-655.8928,14733.697265625
48,6895.9614,-2892.2327,-5141.592,-1474.7115,9056.398,1322.1582,19511.771484375
49,-11207.648,2189.2002,11915.591,1934.8632,338.3696,136.02713,20396.353515625
50,1551.7332,11220.118,25964.52,-525.21265,-5118.018,-6778.821,25897.8125
51,808.14575,5126.1934,8620.122,3036.997,-1371.3743,965.5102,9058.07421875
52,-4836.6885,-6879.0557,-10305.946,930.08154,-5424.6113,-6540.3403,15560.087890625
53,-8844.051,1481.3833,-18158.842,2896.2563,3589.1687,3346.244,19671.36328125
54,-2241.1333,17291.393,19961.852,-4043.1233,-3565.5771,3821.2507,23912.30078125
55,-5848.8643,-8852.028,-14780.793,81.71999,1919.8887,-1400.8749,8884.7958984375
56,2168.7085,-969.4769,-8286.571,2952.2437,359.65985,1621.5063,10989.705078125
57,7936.838,1037.6748,3673.8442,1086.7759,-422.63422,-1566.782,6914.04345703125
58,5452.483,297.30215,-695.6969,1326.3662,-631.2506,856.89716,6430.94189453125
59,3602.15,2688.2246,6272.186,3362.7493,381.273,-400.1888,6726.46826171875
60,94.62132,946.17444,3628.449,1351.7969,461.81625,-1008.2693,4401.7666015625
61,1673.868,-5549.9766,1943.4218,-2557.417,-1867.3298,435.49307,9211.66015625
62,-3716.39,-3768.026,39.399563,-269.51038,2163.2085,161.04353,5351.3251953125
63,5375.241,-7989.05,-11284.648,-1955.1461,2013.2681,-278.9179,16042.740234375
64,3473.042,1225.4194,-3749.979,1629.7782,77.467514,1698.8156,7591.6845703125
65,7900.9497,-2422.8784,8977.165,534.45074,-1816.3627,-2503.362,12182.16796875
66,121.431,-7874.2324,-1398.5614,1027.1179,936.8877,-1239.364,8030.810546875
67,1627.6545,-3952.8965,-7200.1147,-2817.8206,998.1043,61.86948,9307.4541015625
68,3467.3782,2664.1897,5616.964,-2812.201,-718.5667,429.14008,5728.810546875
69,2628.597,-4449.9404,1359.9487,-4624.831,-1185.7024,2340.1362,11293.7392578125
70,9746.774,1091.4852,24739.82,-7014.841,-6573.657,5144.8433,28038.291015625
71,401.13483,-3523.2568,-33.20714,-4811.5576,2671.3013,-298.80655,10247.6162109375
72,-5987.2124,-7593.202,13896.029,-3527.7922,-7465.8237,-2370.4463,25519.861328125
73,-12856.382,3646.2253,-21766.947,374.6157,5361.7104,-4614.1562,25481.71875
74,8616.789,3034.272,12911.16,-6313.312,-6583.697,954.7924,18053.34765625
75,-11664.98,-10627.48,-7045.8228,-789.2025,2029.7737,2231.9138,6840.57275390625
76,-15105.017,6376.3506,-14017.517,4255.923,7781.9644,-11303.413,32535.9453125
77,-1005.8611,-10129.329,17848.111,5588.1494,-6303.1284,-9499.19,33080.17578125
78,6518.8633,-9171.763,10967.621,-4397.169,5008.536,601.5454,21682.66796875
79,-5704.7627,25690.738,28165.146,62.578125,-5739.899,-7107.23,36330.078125
80,10234.176,3236.094,7323.5195,-2253.036,1462.0475,-472.35114,7706.2744140625
81,-1900.828,-10500.766,-21519.178,9775.041,2793.3171,4505.3184,25711.43359375
82,11232.34,-3798.5942,12691.184,-2971.268,5173.9917,-1222.4309,19006.943359375
83,-219.96245,2611.0032,-1048.1768,424.12268,-0.16431668,832.66766,3696.56567382813
84,616.0229,3813.2,668.63666,-544.0542,267.10928,920.9041,3701.71801757813
85,4727.721,5187.062,6197.5527,2802.014,94.25537,-164.848,5035.69921875
86,1272.5696,3541.413,-2323.362,530.24,-67.35616,-601.5621,5308.4541015625
87,3303.805,2078.4282,-3077.9807,1816.8695,111.98925,694.34906,6767.25
88,13.455676,1356.9902,-4973.708,789.0362,781.24054,1462.7052,6595.0419921875
89,3424.7112,1605.4122,1065.3534,2221.2683,652.57983,-1713.376,5428.69189453125
90,3105.422,1457.8347,-1690.6359,656.1033,-905.48846,1864.716,5656.626953125
91,8340.191,2492.464,5620.9595,1816.7081,-48.194138,-130.28697,5970.59375
92,3296.2427,1687.7655,-8328.3125,1685.0277,-470.5857,3216.3318,12618.8876953125
93,1212.5807,8011.4067,6427.7393,3027.2407,267.60583,29.33014,8104.00732421875
94,108.25586,1656.2129,-1321.5134,1416.9565,52.31601,254.34793,3588.76293945313
95,8686.327,1627.0801,7311.824,-1286.2997,-1501.8862,-1611.2603,7844.6435546875
96,-1772.6638,229.77248,-4513.577,2113.6587,515.72595,1092.3723,5898.41259765625
97,5824.751,3030.146,4413.752,1009.89343,-910.97253,-6.279473,3377.41552734375
98,3338.008,-1236.2761,-2496.8772,-5482.0156,-403.5314,460.1112,10934.37890625
99,-6130.402,9127.617,8818.742,-5893.634,-4813.907,14159.368,31676.154296875
100,6767.6455,-1763.0093,-3185.526,-3902.8198,6626.412,1757.4263,16541.47265625
101,-2511.134,5575.4683,664.7092,3283.4746,-58.703487,-432.90027,9094.6962890625
102,350.28476,4146.807,4564.6035,2386.8477,418.62555,154.73895,5819.193359375
103,-617.946,4203.9346,2997.1443,1738.7094,-774.1052,308.67496,5480.9453125
104,-608.1939,1890.5812,3033.7432,1208.455,-379.94586,432.6451,3972.771484375
105,978.22174,5012.357,-709.3106,1957.2413,173.58958,-615.5351,6216.84619140625
106,1112.4252,-2662.1646,2166.6365,1519.9053,-698.5927,-1248.3896,5692.79931640625
107,-6357.0044,668.8389,10742.059,5783.862,-5842.8965,624.21234,20628.8984375
108,4929.471,-843.94464,657.63983,-1392.0618,-3228.3335,1952.7244,8685.455078125
109,-1494.2653,-19369.668,-34054.086,1958.0786,2135.6157,-2448.3032,28996.88671875
110,2133.2644,2827.0632,-5551.4272,-505.55737,464.40738,207.59418,8149.2666015625
111,2470.7664,-182.70158,4688.1133,2909.2317,-274.65735,-872.4997,6763.2939453125
112,3789.5693,290.26675,3549.481,1771.0436,-2244.9382,1489.2521,6530.333984375
113,2375.5217,5614.898,8368.935,-3116.8037,-860.2155,-187.41435,7646.4580078125
114,-1518.0209,-5612.5146,-9097.773,2067.771,2221.6702,-1974.0497,9083.357421875
115,3373.1672,-2234.2373,-16646.86,-6.850307,4722.6953,-7101.864,23199.25
116,-1037.7899,-8947.529,-2862.3792,-1164.1532,1500.829,-2115.208,8700.955078125
117,-14955.9,-6136.2666,-13475.179,4063.5852,10483.572,-1057.7472,21202.11328125
118,-9153.203,-8662.998,-26371.242,1432.803,-10857.977,-881.30597,25832.48828125
119,270.48215,-1403.0751,12395.476,12320.008,2640.9849,-10749.31,31512.2734375
120,-3393.4045,-4247.406,13842.325,2587.6401,-14915.593,1729.223,31764.79296875
121,1311.7108,2510.2852,-3501.409,3641.6165,-516.3788,-346.2088,8444.833984375
122,2217.3516,4062.8438,3176.974,2052.5974,-557.58246,-753.12787,4222.5
123,903.00214,-2205.7998,-3123.0645,-1411.1506,706.35236,-1265.7362,5063.07421875
124,3599.4478,897.4542,-2283.0354,-1837.4619,-342.76257,-169.54268,6047.92822265625
125,7167.466,-1032.4849,11928.199,-11747.747,7161.4697,5356.193,27980.2890625
126,10320.473,-4766.9263,17645.816,4926.681,944.97327,3668.869,22531.9296875
127,-5097.7383,3542.1438,4249.688,-1046.5864,-3343.4287,-6395.87,15517.87109375
128,1312.3073,4995.7764,3114.3208,1329.3031,900.6131,727.7368,4415.9697265625
129,545.76587,6471.055,1301.0852,2121.6191,-180.21912,1243.0443,7031.41455078125
130,-2250.6846,993.6888,-6191.401,1906.6014,784.1075,625.66766,7263.92431640625
131,-346.57776,6573.0625,-150.16936,1998.2075,-435.59436,-184.88461,7694.880859375
132,-2623.055,3985.2542,-3230.7983,497.556,-1111.9557,443.46634,7286.787109375
133,-1080.464,3811.7405,440.61923,1774.2562,-1021.803,-1622.0514,6266.99755859375
134,261.672,4215.7324,-1793.2579,1355.2012,-438.19138,-1052.4213,6114.83154296875
135,-7900.4106,-31813.89,-242.37823,6429.929,-327.48907,8171.4043,33738.6953125
136,1332.4526,-1814.4905,-12053.223,-1307.1033,5376.9746,-8859.635,21778.33984375
137,-37698.133,-18074.94,-26271.057,4519.8535,-13934.652,227.56587,30583.953125
138,45496.133,23135.057,42949.99,-12125.017,10555.682,2584.1272,35283.34765625
139,5326.53,-5213.881,2665.2854,-5615.753,-7329.968,1571.0582,18797.123046875
140,-48.35359,-4238.969,1874.7786,-5260.1353,-1448.6392,-1259.1832,11107.572265625
141,1393.177,2263.1292,8763.706,540.31836,1368.3224,-240.24034,7438.77734375
142,-149.11176,-6307.9653,-1401.8796,-748.48505,230.3464,3519.518,8413.4521484375
143,1271.0603,1561.1016,7314.49,27.524958,-458.09436,1818.2445,6738.2626953125
144,-92.219315,-4464.479,1162.1799,-2728.0588,2947.5405,895.9123,8773.4599609375
145,1151.2188,4337.5283,5256.349,774.19336,-453.90268,169.43616,4052.99658203125
146,973.6744,955.89746,-4092.0786,1770.2744,540.03546,170.70387,5994.66943359375
147,-99.84331,1747.8223,-4052.7397,5949.3477,-509.56833,-1336.1283,11775.474609375
148,-15604.574,-6332.614,-32676.7,5398.603,-1047.5266,-22.0823,25028.921875
149,8113.33,4055.6794,3108.6472,-244.47032,-4567.8257,6403.9443,14387.8427734375
150,-42.513664,13543.397,6218.887,2289.6772,2287.9856,-2616.6785,13809.01171875
151,3674.7598,4736.254,10158.413,4331.571,-4257.28,1520.1566,12404.66015625
152,6018.2197,7178.614,9103.15,688.1127,675.3696,-747.153,3427.41284179688
153,1208.5807,1970.042,2015.2039,2608.5815,625.43964,-901.95874,4964.318359375
154,3169.9373,6532.34,2833.7732,1699.276,-1062.6017,-150.9701,4966.63232421875
155,624.8894,-452.0501,-5732.6445,981.82086,715.001,366.39978,6289.64990234375
156,705.1284,-1581.9562,-2003.8972,-1094.3436,814.2963,-1439.1309,4262.5224609375
157,-3732.872,1071.4313,-1684.4867,-605.93335,2769.8928,2417.2615,7686.611328125
158,2900.035,-1553.7275,3714.4055,5228.158,3398.5195,-2628.0789,12708.16015625
159,-498.6414,-5822.568,-4339.894,5261.5396,703.78094,891.0307,10467.47265625
160,1820.7747,2307.8042,5506.4463,277.26547,1209.8904,-197.36125,4094.54858398438
161,673.67584,3994.3271,6823.0376,1946.3523,-560.1003,-64.55526,6382.78857421875
162,-1122.9105,-155.11156,-567.7659,354.82303,-310.76462,396.43115,1358.84033203125
163,-4138.674,1053.4984,1856.0502,5322.95,1822.7019,-4183.357,13388.02734375
164,6475.313,-4117.7075,7593.841,615.44586,-779.7165,1941.5825,11814.44921875
165,-8164.989,-2032.2062,-246.37897,466.31494,383.46146,-2001.1621,8053.55322265625
166,-2762.3662,5666.1704,-179.12613,-5183.7666,179.18301,1699.12,12054.5458984375
167,-1301.579,6893.628,-4943.467,213.33324,-3395.7957,1274.6398,12242.3740234375
168,503.6654,20651.594,15801.165,-6565.055,-5766.604,5369.6504,25442.091796875
169,-2304.7412,15051.697,-11271.49,-4165.5557,2875.7983,-1505.4401,24918.759765625
170,-7676.01,8141.6963,-11729.555,-1726.4772,-5431.5645,4916.9346,22376.89453125
171,-532.70264,3539.2317,8983.779,-1611.6056,6501.6978,1672.8296,14539.4873046875
172,733.72656,2409.6323,-113.47044,-5948.605,-657.09326,-2959.1443,11775.7734375
173,-4373.494,-6031.44,-1661.7133,4507.2485,-1823.4628,829.9522,9358.734375
174,1065.2772,2030.5602,-3571.8389,104.169914,-55.665546,-413.6391,5240.79052734375
175,-849.5847,-11036.833,-5762.0586,5237.6904,-2822.2651,1040.4088,13686.1591796875
176,-6293.1196,3622.952,6307.87,-1530.31,2282.2925,1902.3108,12871.26953125
177,20069.822,-3254.9714,20761.645,-8852.208,4270.389,858.70447,29200.458984375
178,3530.165,3665.1128,2630.2031,2629.003,-546.9986,19.339249,4752.189453125
179,-4210.57,2972.65,-10606.549,-1518.572,1011.47485,-644.0936,12234.4970703125
180,1007.6999,7327.0796,-13266.018,1670.059,1982.3928,-2066.6897,19153.203125
181,1716.7362,1524.9182,-10074.324,2682.188,1085.9512,-12.078833,12724.970703125
182,2340.7542,1293.2197,2559.5627,173.8068,-258.08255,-1380.9308,2717.67749023438
183,192.67587,-418.45685,997.602,-286.6741,-3854.2317,-819.73047,6952.771484375
184,9060.185,26444.656,9737.243,1065.5769,-1262.4741,-1562.9567,17504.98046875
185,-6705.0176,-777.5101,-15954.819,7772.055,-9772.6,4906.606,26748.31640625
186,2002.6715,253.84433,-999.00476,-897.0994,-428.13336,-407.56442,3206.49755859375
187,2570.3296,-2596.987,859.47174,-2446.8687,328.24084,585.56903,6332.5390625
188,-13387.166,-9735.272,4951.289,2095.3423,-4357.2617,1481.2109,18957.20703125
189,2393.6992,4090.2944,2903.5857,3642.151,-307.59833,64.54182,6508.87744140625
190,2670.3232,-1771.839,-969.9318,-363.42752,1044.346,322.8516,4560.1064453125
191,388.67615,295.6526,-1558.8708,960.6001,466.21835,652.3384,2883.98974609375
192,-4037.101,-2723.8354,-9602.751,2571.5242,-778.49066,479.77444,7896.658203125
193,1.9949762,-2481.2407,-3610.5837,1946.0963,426.87155,-111.60794,4710.85986328125
194,-281.86206,-979.1145,1913.0104,987.4806,232.03885,205.80966,3169.8515625
195,392.65634,-1508.4946,3861.4497,271.84888,-106.468895,432.9531,4802.0478515625
196,5941.729,5433.2627,5850.4106,-279.84598,-523.22595,-2694.4702,4801.79052734375
197,2883.9785,-184.99524,3596.538,1223.5885,260.46426,-539.0868,4204.7646484375
198,4867.8237,-4088.925,-10213.457,1177.8953,-483.58685,2183.7144,13847.7021484375
199,1980.7625,-3178.405,-6535.7964,1236.0642,-29.582293,-153.77151,7737.41259765625
200,1607.0332,-924.64087,-2279.4084,1861.9056,-615.2417,229.9021,4834.12939453125
201,-755.6434,-1738.631,1095.595,-228.15659,-51.279896,464.09406,2650.150390625
202,-1745.6545,-3548.2893,642.8331,1363.8383,184.27254,-744.9594,4539.478515625
203,2605.5947,-380.2429,897.4494,-3413.8594,509.925,1427.0613,6970.33935546875
204,4874.9707,-4801.1177,-4689.955,-607.9702,777.00433,857.82935,9883.8818359375
205,9635.817,-9569.443,-53.778946,2875.5764,-308.02908,-1819.2616,17653.88671875
206,8631.867,-4159.698,-402.05133,-4443.9756,-595.99066,-800.71454,13853.291015625
207,2859.458,-6382.73,-4499.1753,5427.423,617.9469,1851.6339,13090.4404296875
208,6492.1772,-11637.061,57.771763,8660.476,-706.81824,-1221.1976,22009.18359375
209,442.18304,-7528.9985,958.8009,9041.418,586.8908,-311.73578,17733.900390625
210,-4921.2925,-6542.6543,1631.0178,13691.298,-2439.1526,-501.81796,25241.712890625
211,-5743.705,-6664.347,3360.0798,11844.333,-2742.2476,2280.3604,23476.208984375
212,-3524.7896,9991.719,21743.19,-4422.4546,9774.544,-4965.281,29981.548828125
213,-6220.8467,-25117.512,-10012.367,-4663.6753,1398.2872,4523.976,20792.470703125
214,-10046.781,18073.756,-12561.537,-5605.3945,-10855.287,-2472.211,36522.78125
215,1312.9984,1975.2927,-2548.794,-6608.4946,2152.1326,-8218.85,19117.263671875
216,10962.951,13570.925,6907.383,-10477.552,1875.9733,722.4016,19372.31640625
217,-3612.5762,1978.1019,-2919.4136,7074.7183,52.261196,-1239.2526,13514.11328125
218,2772.1497,-11963.662,-1884.6165,6677.1797,-4206.9346,-4365.3877,20352.57421875
219,384.33276,7121.643,5869.411,606.9738,1194.2908,1872.7023,7377.53662109375
220,-1738.5074,596.98047,-6538.5527,1338.2413,972.27905,-664.1436,7016.92919921875
221,-4597.9316,6670.8394,-2029.3779,553.2801,381.5393,416.27545,10320.5205078125
222,-3539.128,6114.7085,3909.802,3066.5757,-832.2432,57.5809,10347.552734375
223,-694.7453,2404.4243,-2214.4036,-505.42578,496.93872,563.61554,4368.5341796875
224,-1612.813,2325.2754,-6521.977,-1503.9014,331.63913,728.971,8224.990234375
225,3007.811,2625.7227,6245.629,-1443.5729,193.05959,909.86127,4551.2255859375
226,1873.667,1751.1359,5595.2173,347.66498,-831.8438,-839.34467,4344.3017578125
227,5715.723,-1526.8285,3140.0818,1112.4043,-983.06396,-81.51174,6860.44970703125
228,1065.03,2651.4626,1220.0981,1694.8435,-370.2734,-438.34375,3449.64282226563
229,375.94522,2671.8784,1285.5714,-559.1067,-100.43841,607.61255,2466.96801757813
230,2210.4478,2989.3252,1354.401,1482.9243,394.25415,896.5008,3388.34252929688
231,2972.9092,2869.9617,4432.6104,939.8803,763.6495,1714.2974,3937.9755859375
232,6957.9116,824.8042,-1312.3625,3147.7378,1633.0215,-123.80653,9646.8115234375
233,-2050.856,-6774.0557,-11238.016,-1904.7767,467.1207,260.8964,8663.89453125
234,-7164.963,-12201.156,-12729.567,1075.5182,-1276.6093,1153.2892,6375.99267578125
235,-30.595333,-2680.9805,1414.6857,1304.9512,-910.7902,-818.4353,4748.7626953125
236,-4035.4812,-865.63354,2633.2534,-2566.8535,1633.1115,-420.95636,7853.66552734375
237,8150.7085,-3692.2637,11383.083,-2854.66,1253.9316,-1169.1223,14908.05078125
238,2989.9854,4160.6924,-7656.311,1729.321,-2488.6372,3310.0078,13696.638671875
239,8344.649,-5876.294,1705.0868,2764.3643,3374.146,-1280.3651,14625.1806640625
240,-2599.448,-4854.9,-457.51956,2255.354,1316.0677,-1987.2743,6841.76025390625
241,3419.963,-2519.7546,-9038.7295,1489.6304,-2537.0261,-1246.181,12129.4501953125
242,-649.1679,375.7609,5483.258,-266.9113,205.21419,-389.46072,5759.07373046875
243,831.5875,-6730.516,6921.0527,1094.5585,1096.2269,-460.23163,12171.7265625
244,-4258.304,-2639.2192,-1944.1395,-6167.883,2066.789,852.0655,11547.779296875
245,-300.86557,-3115.5437,-9126.796,-948.32043,-1230.06,627.532,8330.412109375
246,3276.1753,4008.4363,270.9749,-4996.094,-3.1655412,2452.4824,10232.0546875
247,5070.785,6585.721,-9546.5,-3114.4863,-2047.8553,-2542.701,17296.86328125
248,-2439.3442,-746.8302,7826.134,-6257.341,1839.9562,1116.0516,14907.2529296875
249,2375.8123,-6342.452,-2755.059,-3326.0605,433.22058,1359.3727,9843.599609375
250,-8586.568,-3387.4275,-14718.216,5033.166,-2926.4377,2285.7537,14624.3583984375
251,5801.54,4684.4966,15545.775,-6421.5127,3284.9614,365.5489,16234.6513671875
252,-7599.4355,-7693.583,15112.094,3935.186,-10029.672,-1866.9272,29608.39453125
253,-14589.869,-2364.79,-17604.578,589.79944,4975.378,-6821.2534,20255.6484375
254,-14999.578,-21833.342,-27713.63,2978.3286,-9434.35,7944.527,24585.388671875
255,-23681.62,-15341.73,-30953.85,-13432.192,-14786.591,6061.849,38607.35546875
256,-5989.0,10505.728,12233.202,30.466412,16.810122,-1189.3492,17544.279296875
257,-23451.904,-33397.305,-49678.375,-2158.0505,-11009.86,6191.048,31914.1953125
258,243.91275,-7370.973,-10957.364,1825.5035,8673.359,4761.0464,20045.953125
259,10572.551,20957.646,38898.375,8746.134,-6146.9395,5064.6826,32184.287109375
260,-25329.584,-46313.145,-53991.16,549.2489,5884.4067,5799.2705,29428.765625
261,14498.205,-1553.9182,1360.1997,12116.445,6020.69,-7060.456,30300.26171875
262,-15702.684,-19141.89,-9700.424,2830.457,-4507.7046,4838.755,14957.66015625
263,-4469.26,-12676.759,13109.015,320.86267,-1705.7927,-3291.548,23710.1953125
264,-18487.361,-2046.3094,-29929.633,-9291.675,729.47144,-1854.384,29330.4453125
265,1358.3286,2202.3777,-2906.1912,-3614.4756,-575.01117,3935.886,10447.814453125
266,-40.318867,1661.1641,-16537.29,-1070.6553,1090.9094,2822.2979,18276.205078125
267,-1994.7063,2906.4998,3772.7935,1144.5758,1567.3685,1553.8512,6896.49365234375
268,-215.22075,-5432.331,-22007.25,2633.552,-794.5524,-148.69795,20277.732421875
269,-3478.27,727.7039,1354.142,1264.226,150.21823,730.9721,5213.720703125
270,-1171.9817,6123.85,3558.104,1305.168,796.31366,-1793.266,7599.54638671875
271,257.44528,-1758.7677,-2515.384,-786.3796,-246.74605,3454.292,6633.046875
272,-2534.558,8611.629,9901.037,-1791.0952,452.71527,-6045.5464,16129.37890625
273,2916.099,-1247.3152,-2116.5862,-337.53827,-461.142,1761.5756,5656.67578125
274,-4061.1575,3575.8157,-2000.7715,-479.7339,-2026.5133,434.21582,7772.3720703125
275,1511.1996,860.52936,-1086.2168,2054.9004,-1194.4865,175.06058,4745.53076171875
276,1931.302,35.431072,-4776.393,1019.5459,-181.8683,-63.440792,6253.02294921875
277,5214.461,-880.9409,2476.8079,-4199.288,-1213.9188,-743.366,9324.2802734375
278,4456.9175,2443.3352,20272.85,-1736.8429,2483.753,-1364.6086,17865.841796875
279,-4789.4062,6081.966,-951.0887,-215.58704,-1690.1174,-72.98598,9995.826171875
280,1056.9113,3437.812,5778.878,-586.0686,-542.51086,0.34585637,4317.001953125
281,2565.1577,4225.629,5733.8545,2384.3872,-743.6149,-245.48401,5141.1923828125
282,2487.8152,7744.7104,-5565.462,-2902.7717,-1525.1493,-1306.4987,13122.6044921875
283,1453.1915,3036.0762,-484.0422,-725.009,619.67554,325.34906,3517.28295898438
284,367.05347,1449.8424,4832.61,1663.4386,149.57617,-152.79341,4971.580078125
285,2263.6846,1969.0978,4091.3062,1093.4039,424.2918,66.06432,2846.9521484375
286,-4133.984,-1530.3934,-10262.21,1580.6442,9.934121,-191.26083,8239.81640625
287,-8293.425,-5083.0234,5064.237,11212.7,2005.7877,-624.24335,23157.349609375
288,648.7495,1626.7347,4878.398,1291.959,399.34415,-347.64523,4534.12841796875
289,2331.1162,-2993.5334,715.4105,2422.6917,292.2008,-103.307434,6344.74560546875
290,229.96992,-1925.0165,330.7723,2116.9487,14.717444,-168.99255,4289.7666015625
291,701.0545,-360.95358,-1529.9589,852.56134,-138.23337,19.770752,2444.38305664063
292,-317.96948,-2793.56,3544.3147,1727.392,-114.5939,359.00266,6323.36279296875
293,-92.57031,-779.88586,-6112.277,793.43677,-1591.9535,1512.2776,6994.5947265625
294,-156.16077,-547.9277,8180.5405,-2737.1616,-296.32703,94.93874,9781.9599609375
295,-696.0581,29.324791,8438.955,-6496.8066,-1046.3595,2870.441,15230.7802734375
296,1363.2747,2884.2227,5697.853,-2897.1428,989.2365,897.32574,6711.24755859375
297,10502.863,6168.8047,30470.521,-206.26462,9729.027,-1229.4924,28154.1640625
298,-11803.737,-11515.452,-3785.9006,-2837.7463,1857.5809,6358.433,14759.9677734375
299,5058.534,-2729.7803,-4668.596,1576.7242,-401.05362,-1300.0243,9619.1396484375
300,-415.33502,3821.6458,2287.235,730.9018,-776.22845,-435.7537,4217.2314453125
301,192.03654,368.84076,-127.38327,189.33687,-583.8466,-1546.4569,2914.537109375
302,2837.3994,-122.55578,2060.7085,-527.414,660.6893,68.867744,3037.08227539063
303,-8255.407,8785.262,3041.6382,2709.4124,-2872.317,-2229.418,16946.46484375
304,4703.2007,1576.7268,-4024.4302,-4929.762,-1012.04224,4547.032,14023.7841796875
305,7440.1157,11499.804,1274.7472,935.7141,1888.1638,-2505.513,10567.74609375
306,-3124.5615,788.91516,-4822.1167,-36.899925,657.4948,2099.691,6274.3466796875
307,-7432.079,1792.9423,-19411.268,-9938.616,10565.496,7262.725,33594.18359375
308,8378.435,6837.608,18754.965,2987.6448,-205.24734,-1009.1709,12489.783203125
309,-9346.165,-33768.86,-10008.253,-3558.915,7965.1,1521.8657,28565.90234375
310,-260.96817,-15302.516,-3620.833,7293.5234,-2979.2659,-1966.7974,19616.796875
311,-3583.4834,3222.8003,410.90445,-2088.691,565.66,-4217.8066,10124.7802734375
312,5497.9287,21196.451,37738.484,8940.951,-10046.64,-2547.7078,36631.50390625
313,-741.1953,3793.6533,-4917.592,1716.4188,-20.108719,-166.03894,8115.951171875
314,-2464.5295,5989.642,-198.82666,1084.5374,1212.8826,-863.73517,8223.8564453125
315,775.9253,-585.1018,-3868.2346,1525.1615,400.9632,704.76025,5103.970703125
316,2516.9932,-539.2411,10338.6455,1300.3251,-32.156322,-1069.3885,10145.4443359375
317,-1368.2888,-2967.4214,-610.1978,670.0158,-417.39212,-48.689415,2494.14086914063
318,-739.85626,-1315.1022,-3241.4172,1188.6514,214.82863,-454.9002,3185.53515625
319,-9197.6045,-1909.5103,-6669.7603,8392.293,-1615.6299,-4765.241,18119.830078125
320,-9142.18,-3794.224,-6493.0576,11451.425,5425.2974,3468.6675,23221.8203125
321,-16223.943,-10054.869,-16505.85,20881.33,3049.7285,-1112.376,37142.70703125
322,4883.624,1083.221,5297.02,-4827.7793,-9273.292,5107.7993,20551.3515625
323,-816.0445,-22275.535,-267.13614,4972.87,5844.189,14526.648,35809.3984375
324,4465.765,3163.1736,1392.6803,-6619.5063,-2024.7705,1294.0078,12486.5400390625
325,806.6597,2987.1665,7648.222,7300.652,245.75214,1409.1173,14236.576171875
326,3395.893,1221.0912,1111.7137,1325.5322,-14.143208,842.4672,3518.60205078125
327,9786.171,885.3339,8596.439,1451.3376,199.16751,3671.4797,10813.333984375
328,7035.178,-2502.021,4254.096,-1467.4974,1757.9241,-879.5147,9498.474609375
329,4417.9937,-4324.687,-6078.18,2805.3384,-1092.861,-2496.3481,11862.8623046875
330,-751.23303,-5492.6616,2146.6602,746.00836,2231.1863,260.18085,7837.4951171875
331,-2700.853,4383.0654,-8166.2905,-1786.7445,1462.4866,-1262.2009,11812.8330078125
332,-1546.5536,-6347.1045,21390.152,-4088.2556,11333.819,4659.1196,34056.9609375
333,7244.8726,60.218945,706.1284,-6918.231,-2693.61,-2848.675,15397.8251953125
334,-6890.4517,-11646.22,-2921.6494,7829.0635,-15223.617,6941.3057,32877.7578125
335,20363.488,7685.453,47965.906,9345.692,93.48285,-3117.8386,39544.7265625
336,-2286.341,1441.1027,3564.0837,-2872.7114,-1822.7227,514.80164,7863.4345703125
337,239.54599,2929.6748,2559.9497,1105.6938,239.30084,-171.87509,3210.44775390625
338,3373.8699,2477.08,5978.1855,849.85205,-1158.0305,-704.2692,4195.2412109375
339,-3251.4072,1897.6622,-13980.66,509.9394,307.59213,174.54109,14072.341796875
340,-745.6871,-1956.9551,-2345.8752,-172.53297,203.21101,-2349.9888,4343.96630859375
341,-533.75696,-604.87067,-5008.6387,404.47995,-263.6406,-414.44373,4574.49658203125
342,-2156.1743,-13487.624,-2669.4875,12533.967,-37.651928,644.72455,24400.837890625
343,4557.009,928.00793,-859.9562,-452.63452,-35.32716,1105.9858,5209.89208984375
344,-6220.4404,3417.418,-3571.4553,-4294.1616,96.25982,1255.8834,11595.42578125
345,-527.2363,3785.1394,-1927.6194,897.0077,303.7332,190.5046,5421.82080078125
346,2654.5,-99.639,1027.876,241.39273,-924.61456,-29.742577,2914.35083007813
347,-1145.7156,3565.588,2796.289,1853.3639,1799.8489,1576.4774,6829.5595703125
348,-5865.094,15419.744,-14664.697,-657.536,-1896.2155,3560.564,27710.87109375
349,1907.9681,3309.1846,2883.1936,2145.9756,831.3952,-587.50146,4297.99169921875
350,-2612.1797,4316.5356,-7826.8564,177.01683,998.5239,247.5076,10705.1337890625
351,-647.51544,3790.8582,6861.53,2450.7449,-1666.6289,-1590.6226,8757.7744140625
352,2575.9766,1316.9531,-863.1359,-42.57801,822.1309,174.56113,3347.72509765625
353,1822.0139,1846.9318,-1554.3392,1392.3418,67.8948,-82.31861,4163.474609375
354,1032.1395,870.2616,3524.341,77.42027,-3245.891,469.57938,6239.20068359375
355,194.81905,-461.81747,-467.45563,-702.8466,-130.20732,130.4886,1420.85510253906
356,-1835.8657,-2783.536,1538.1782,-1148.4631,1129.5,-589.32886,4930.0986328125
357,-934.1028,10281.873,9881.285,-2105.7126,-1234.7628,-5206.0996,14854.3603515625
358,-102.542656,-340.27173,980.838,-723.63586,362.49738,-267.42117,1915.06713867188
359,-4464.9644,-10510.25,-1519.2683,-13026.024,-575.1356,-908.9379,23990.26953125
360,4234.127,-3405.0522,66.17674,283.7882,493.32706,-181.27386,6705.18115234375
361,1329.2542,-1879.3623,562.04095,1108.8982,42.749798,37.78009,3481.50439453125
362,-24.199697,-1636.4813,-1699.4229,-321.14926,-127.19197,-291.71814,1821.57495117188
363,1996.2893,-1327.0336,1718.5209,-365.39465,-195.55534,-19.62299,3273.36767578125
364,367.93893,724.9148,1217.0155,256.51028,-16.64684,-59.432777,868.3798828125
365,-483.5856,2086.8794,191.35378,1220.2126,82.33688,20.774384,3133.09985351563
366,-1395.6274,-1587.5712,-223.89935,720.49335,-8.840491,75.09591,1791.41833496094
367,-1338.112,-927.41943,-121.5669,-489.6223,87.94482,-14.556172,1375.51916503906
368,-989.52545,-2551.692,-1218.1102,-1972.2524,-1667.2651,279.52133,4730.6005859375
369,42.021397,2812.8918,-1046.4939,208.82736,429.6456,491.3327,3645.21044921875
370,-647.62787,163.8745,-694.4179,-102.834076,-93.602066,-242.24973,965.794494628906
371,2688.8948,1887.7091,232.39473,591.9222,24.167187,-66.8589,2403.009765625
372,-5857.761,-5414.132,729.8031,-81.563576,2360.1394,-765.32043,7691.43994140625
373,-3337.264,-748.44025,-622.12415,462.77643,-271.49866,-298.7443,2859.4296875
374,1165.6189,-455.783,-674.91016,81.422356,-425.3953,99.05956,1903.80261230469
375,2061.8916,-223.7811,-919.52893,-708.2006,581.8397,-22.353354,3133.74731445313
376,1535.5007,668.7748,2345.2434,-1095.134,-441.04288,16.193447,2508.19067382813
377,1616.8607,2154.7498,2425.2832,-70.23246,-113.36442,337.98358,950.831726074219
378,-1888.6962,-3013.3262,-835.50885,861.0973,106.665146,-77.112686,2415.54931640625
379,-636.6056,-811.2271,-6718.4233,-259.08716,533.0545,979.437,6315.74951171875
380,96.64231,-2317.558,-4146.0435,-2656.2178,920.2826,1272.1372,6492.17138671875
381,-5335.3384,-17475.46,-10661.096,-2672.784,2606.3362,6374.752,16577.501953125
382,9128.243,13550.387,9511.621,-2025.5244,-3900.4282,-6605.1675,14381.931640625
383,-8417.995,7181.123,-996.8112,-1081.6613,-90.05068,1710.5997,13962.6396484375
384,-728.9767,-528.8114,-649.90155,-1170.6968,34.83979,-5.9894505,2036.1318359375
385,-5614.0645,-1045.7057,-2997.2732,-337.56638,-724.56213,-362.4385,4251.3486328125
386,-2192.3967,-178.683,2102.3245,-1003.8149,302.9582,293.97598,4172.3955078125
387,-839.59515,-2466.7268,-1491.1659,924.1869,-191.40417,73.00357,2167.98754882813
388,-1056.0925,-1104.7954,-8493.857,-703.7179,670.59674,3962.5107,10242.0556640625
389,60.036076,-1504.4092,-940.0993,-810.09,607.086,433.06766,2349.49853515625
390,508.09348,-1778.2638,-7677.697,110.64787,811.653,2597.4277,8704.7060546875
391,116.86169,5403.136,-66.800674,-1270.1615,-940.0049,-125.9855,6040.50439453125
392,2524.7673,-641.3656,1060.3546,657.73724,-934.50226,163.03333,3395.56372070313
393,1642.8281,-1724.4781,-451.24582,-1107.0525,533.95667,115.94646,3639.349609375
394,-789.0572,-1495.7697,-1304.4791,-2978.7185,-445.81732,409.68042,5302.72705078125
395,-406.5426,1004.0594,-1400.2632,-1049.3933,-101.02009,232.0853,2806.2265625
396,-817.8815,2701.8804,1520.4656,-1164.83,-134.35535,-745.719,3926.7158203125
397,4080.0288,256.4125,240.36395,780.6709,624.42303,513.70935,4297.837890625
398,926.2875,890.22046,-857.91345,-1222.1154,114.636955,9.089006,2764.18041992188
399,950.07886,984.91504,130.51093,-368.899,-191.23012,-7.105454,1104.34301757813
400,25041.21,-6025.782,1922.4824,1421.9558,1243.4147,1920.3431,28340.28125
401,-4587.047,-4171.8555,600.39264,-2465.5193,-685.09705,-290.70557,6695.22900390625
402,-24437.44,-21865.86,1715.1863,-4723.3135,645.4543,-1461.4658,26417.90625
403,-1598.8405,1660.784,-2192.2947,-1131.8374,507.73267,-760.2992,4388.90478515625
404,614.8169,1714.949,948.1562,-299.82413,-30.560347,-605.13403,1525.0361328125
405,500.35132,4947.7954,-145.98259,-1339.2684,2259.95,493.84164,6671.33544921875
406,547.68866,1272.295,-603.5794,-1009.4603,50.537106,370.86526,2482.33837890625
407,-3535.3308,-427.43137,-5774.6206,-1999.9988,-508.26846,-623.5096,5964.4140625
408,1097.6,-558.7612,-127.50177,155.05498,441.7302,568.8598,1960.4853515625
409,197.67096,-177.62566,356.2704,658.48987,-142.13391,106.595726,1273.20227050781
410,1139.2426,1164.2765,-150.53613,-292.54935,132.09244,-248.5875,1480.1796875
411,868.8521,-101.0841,-185.10146,-7.0466385,-434.39163,-273.46603,1349.04235839844
412,-3556.3093,-1542.1271,-1118.6877,2127.9348,-710.987,521.5195,4583.21826171875
413,-15961.191,-18970.4,-4636.921,5582.9473,-473.76556,-3589.5854,17441.564453125
414,1830.3898,-1006.47437,941.7611,-792.9751,1717.8832,-464.1047,4207.43603515625
415,-2624.0474,-7316.111,-1899.6399,2642.228,2953.3308,-977.8358,8713.109375
416,-2334.457,-3407.8196,-3428.3298,-5212.732,219.24597,1683.8354,9557.3203125
417,-458.26297,2719.182,19.328547,798.86584,-278.25772,-584.9469,3461.22216796875
418,566.57135,50.378613,967.9911,-1179.9807,388.5388,-149.14787,2309.00170898438
419,1036.1691,4268.314,6520.6416,39.10244,-746.6948,-3029.2085,7211.458984375
420,-439.4956,-199.5507,-1709.8075,-497.77692,-148.67136,306.29285,1751.33435058594
421,8562.859,-1571.8239,3448.5974,-1128.0623,-1911.9928,-1187.3141,9800.5068359375
422,2223.9248,2759.744,5760.1553,577.7519,-215.3959,-1490.9801,4325.146484375
423,1702.564,3970.137,3177.3418,-1002.58936,-359.30463,-894.0658,3126.27685546875
424,681.3025,705.975,-450.16452,248.87762,-95.70857,459.4484,1468.10131835938
425,-202.59798,-1226.5999,-1364.1735,-271.16345,1490.3696,-117.7754,2852.0498046875
426,519.9125,-1281.2086,-412.68854,1839.8907,-67.96799,-218.30681,3570.22143554688
427,1144.724,983.3519,826.43146,-1512.3689,-192.26578,633.97595,2873.05444335938
428,196.23721,176.81654,-1104.1726,-1285.6927,499.09232,-172.28705,2731.58081054688
429,1072.3394,1778.493,2093.1082,-597.6887,-194.1728,-188.33891,1452.935546875
430,9671.819,-3161.2612,2227.474,2871.3257,87.633415,-432.63934,12242.9755859375
431,-3348.272,-4107.8813,-1159.2483,-139.01927,1477.5901,260.42188,3720.60327148438
432,35.75167,-634.20154,750.2785,-831.1444,213.20485,-26.497232,1910.22607421875
433,2278.822,762.3699,276.82635,-1905.6963,213.11708,-358.45303,3832.55029296875
434,-8.913598,3077.4194,1297.5293,1307.4688,-88.56556,54.004494,3515.79760742188
435,2081.9614,1045.2843,860.76526,-744.8185,-146.09138,754.66644,2176.43969726563
436,-138.43684,1365.903,1860.7972,-1867.9854,-118.65669,80.02464,3712.41235351563
437,1059.9055,1345.8088,152.58772,-433.27493,127.472694,786.8896,1906.27551269531
438,-15707.525,-9914.813,-6085.7686,-4608.5464,3139.2407,2371.88,13437.1005859375
439,-2888.6604,-1357.7423,537.4072,-953.47485,332.2961,-5.5240173,3448.958984375
440,4082.8499,-2282.5273,1692.236,-416.38055,-2113.1953,478.50668,6754.236328125
441,-6628.6826,-1786.7449,-359.71768,-161.08772,401.8625,214.47577,5752.44921875
442,-340.97922,954.985,-858.1941,777.1906,75.699005,-56.958836,2111.00122070313
443,1266.9397,1574.9736,1107.2631,616.4998,210.82072,-107.34327,1215.60168457031
444,1712.0713,887.55615,2445.271,433.03683,-423.93066,-466.32776,1891.04211425781
445,-346.02124,-944.22595,-1157.502,-842.2367,-1601.6774,455.47763,3313.23071289063
446,5898.533,7989.4575,6412.1665,3717.7937,-1452.2511,-2467.5374,8343.9267578125
447,4206.623,-1278.7552,-500.8503,1609.7762,753.3089,13.992863,5992.041015625
448,-18.225132,625.32416,-1087.3224,-141.5141,-341.18555,-207.416,1668.38464355469
449,966.3822,-970.7335,1387.506,-506.31223,-799.12616,-284.23563,2769.97509765625
450,317.4388,-899.9728,-788.70276,-1509.4137,-399.7018,284.2723,2985.91967773438
451,271.99734,3365.5742,115.58126,-274.40344,-62.69014,-113.31836,3217.88354492188
452,1226.4855,102.39345,-905.4082,-678.2427,-735.9271,-656.6243,2776.75732421875
453,-318.6761,460.5585,118.44366,-1056.3937,-201.13336,-242.68904,2025.73986816406
454,-1151.9419,81.68548,-1257.116,-971.14496,59.166832,-101.61606,2129.19946289063
455,-973.6658,-10.498083,-89.01446,-35.131744,-172.75438,1221.6619,2329.9873046875
456,-4231.416,-4033.4172,3476.1104,-162.73688,-913.4549,770.0215,7891.8017578125
457,-1023.02435,1307.1907,-1263.0092,-1932.018,52.9791,157.18399,4162.61083984375
458,3207.8533,3824.9153,1819.6365,766.3769,105.90406,-497.2659,2387.88500976563
459,-470.04483,420.80392,816.1127,-502.75266,-827.4383,159.38133,2047.06896972656
460,-598.757,-666.2151,-449.7473,30.619106,1749.619,-300.52924,3081.24536132813
461,-879.24304,-753.29675,-12.866875,-406.7082,-626.13605,-51.2672,1528.92504882813
462,-2231.2742,-940.7641,-1850.7863,1846.122,-2118.4995,40.39745,5001.267578125
463,-6372.7983,-2612.2458,-31.087582,4135.16,253.69504,-2079.0498,9745.2451171875
464,-44.853085,878.6305,-1454.5902,947.62427,-122.24695,-73.11238,2626.19384765625
465,-238.38821,-1516.2073,-1422.6373,-763.07355,408.49768,255.98308,1991.49401855469
466,118.83172,2264.9946,313.51813,-182.30785,-292.61618,-33.221058,2141.49047851563
467,504.50076,3001.2979,-576.83966,-1468.7715,258.64316,-17.367716,4095.93017578125
468,1717.1904,-1393.3628,1715.5714,1676.6807,-104.56702,-249.2923,4280.5986328125
469,14404.118,633.8562,-281.205,85.64433,2536.491,3111.1492,15856.2041015625
470,-175.90872,1258.3398,1723.8401,855.2662,3613.214,-345.4652,6682.80126953125
471,6561.858,9309.737,3552.0886,-1910.2216,-872.76117,3764.3213,8978.9951171875
472,1105.2069,3392.8938,507.6379,-226.9794,-172.22566,-107.310936,2689.93334960938
473,2886.4478,4079.623,-171.78197,952.91473,113.07755,538.14667,4249.32275390625
474,2458.7617,-1090.7958,-783.7856,-393.7595,-17.66137,148.24635,3483.65747070313
475,3127.2517,-2026.565,550.3895,-635.88873,239.92744,-190.98795,4627.802734375
476,564.52405,1512.7588,1970.7079,1202.2491,-298.98972,105.21351,2486.10400390625
477,-2185.1284,-4104.9375,-1858.8574,204.57469,42.764275,89.39404,2138.57666015625
478,586.2819,254.13966,-1022.91943,-134.69513,-8.061755,-261.57617,1557.32250976563
479,-4153.774,-3076.136,586.0312,158.90913,6.008629,-195.77464,4325.5185546875
480,739.078,-775.5456,1119.6366,362.25415,886.61035,-88.63603,2406.408203125
481,3460.508,-411.05396,-654.1236,-852.73914,-894.06256,986.13885,4846.24365234375
482,-1377.0502,-1390.5446,1001.2324,157.34048,-1712.9427,-1730.1051,4852.32763671875
483,-5370.935,-7655.4463,-136.03426,-2658.14,-186.58604,-360.6962,8140.89892578125
484,-6634.9614,-2983.4595,-2199.761,-509.63486,85.16118,369.5655,4244.99755859375
485,-413.58078,822.8452,-719.072,397.44946,186.65984,128.76074,1621.09631347656
486,281.18002,-2310.4985,-652.2019,-269.3852,-118.81406,401.9357,2431.80712890625
487,-69.90619,-2343.3333,244.84695,-1087.5176,221.59622,-303.2008,3155.04345703125
488,587.5385,1851.0951,609.8704,-611.9433,-70.690575,51.01208,1647.74938964844
489,-2503.773,-995.0333,-1145.1202,-365.17383,-691.5019,333.39694,2059.22802734375
490,-948.0904,115.649895,943.33954,-336.13177,155.84755,-538.93243,1995.0498046875
491,1284.3635,691.4424,387.9973,-514.63654,-39.433353,-41.006493,1194.91223144531
492,-632.4409,2185.5862,902.0196,-1034.2157,851.3757,-1239.6383,3995.63916015625
493,2428.3496,848.05176,1544.2144,183.31439,56.419506,-44.900517,1413.59460449219
494,1632.4718,-21.823168,3354.056,-437.90695,-71.001945,13.100736,3023.15698242188
495,-2037.8782,5946.1157,-705.6659,-92.520935,-258.16708,248.5257,7435.9599609375
496,-686.66187,-158.71219,-2470.011,10.063123,58.860107,164.08461,2119.4462890625
497,-1897.904,982.63293,1680.3999,108.02654,303.27646,-272.43774,3365.69775390625
498,-177.96962,2625.0146,1866.9482,909.8641,-129.10506,-458.2271,3077.33911132813
499,-511.23398,1879.9276,993.4412,-877.5886,-89.24481,-101.10843,2597.85034179688
500,-3984.6218,-1369.3656,509.64023,-3083.0173,-446.55255,325.31174,6686.92822265625
501,392.31567,1462.9769,-292.536,440.42517,-30.310404,-22.522993,1713.12072753906
502,-1024.8195,1117.6481,-1046.5651,502.4196,-123.627,164.93674,2349.88696289063
503,80.753296,2560.6882,915.5875,-65.79815,248.15375,446.22052,2360.45727539063
504,-1615.0411,627.01654,-421.39673,264.587,-176.51099,-198.86075,2048.78344726563
505,-788.3144,1608.9551,102.00234,-690.10223,-144.70651,-144.69923,2441.22778320313
506,-966.9128,1344.2881,431.75113,493.09576,-59.59611,-73.26523,2195.79272460938
507,-2101.4773,6417.098,-993.64453,-234.74837,-6.100089,31.320562,8032.72265625
508,-432.3112,-234.65303,-3651.939,542.3308,446.2417,14.489936,3538.62280273438
509,-4505.93,-4378.1714,-1500.2928,393.25458,-169.58472,104.91443,3041.287109375
510,-724.4665,-2339.1245,-2897.0508,1333.37,504.45935,-2170.0999,4903.50146484375
511,-644.06055,-318.47223,1686.6357,-113.11736,36.570057,-79.11185,2200.10913085938
512,1594.9467,-302.0107,1133.2784,-698.3888,-886.396,310.46265,2654.30126953125
513,-591.3184,-856.52136,-1346.5045,248.88708,541.48773,39.121704,1228.98889160156
514,2239.5195,831.905,193.67154,1315.9963,1538.3596,635.1689,4097.87939453125
515,3161.2307,-789.6102,-1424.6615,-430.93494,380.15527,119.43244,4422.09033203125
516,-55.210922,-969.7033,-1442.4359,-1439.7058,302.5475,474.00406,2942.61547851563
517,-856.8959,1541.0125,-997.27844,1810.0282,-457.98038,-196.8526,4084.16357421875
518,-3842.9392,-2223.1223,351.8408,-458.45377,-565.92566,47.269222,3875.98608398438
519,-5286.7593,-4916.28,91.0288,307.93854,-490.3182,-641.58594,5413.51220703125
520,-246.44597,1001.0204,-29.49843,-662.10175,249.06064,-158.28267,1705.57727050781
521,417.48727,1772.4839,473.42062,629.723,239.57785,88.80994,1774.50341796875
522,1123.3755,1442.0507,1893.003,-410.0382,-154.8334,-154.06323,1046.96691894531
523,-227.07553,-39.96538,673.73956,1744.4585,-31.682291,-174.37975,3146.67578125
524,2689.4426,95.581436,1081.1833,794.961,-16.928484,179.34325,2671.37670898438
525,-1118.45,-3510.8457,-395.75998,-291.35037,-92.41555,262.94083,2909.03588867188
526,-364.8478,-1401.7028,164.2692,44.124695,88.36382,-292.33728,1479.62817382813
527,-1501.9956,-827.1667,380.23032,-387.36108,3.4755287,54.813286,1785.26843261719
528,921.01636,591.65125,1325.9641,261.52628,9.863183,-259.56113,901.906555175781
529,-4423.8135,5705.3696,-148.87828,1118.5647,-47.246197,137.131,9021.66796875
530,-3011.3967,2544.3577,239.22191,2041.2308,89.78434,41.392807,5991.8681640625
531,1829.5703,895.572,1640.9553,103.745285,-314.09286,-113.50136,1048.1708984375
532,347.05637,-2057.1406,1503.6481,388.3385,-530.78766,-248.59653,3373.658203125
533,1822.4135,6430.6377,382.65268,-1687.2969,-26.917149,-13.818302,6203.79248046875
534,-1670.733,-797.9266,-2306.979,3448.3237,116.35566,-201.45924,6128.38525390625
535,-2237.0762,-770.58466,-780.8963,2121.7666,25.142727,90.03294,3958.21630859375
536,6747.841,-3019.1946,-1418.3596,1531.9019,346.82373,136.3533,9475.1806640625
537,-2105.762,-1922.615,-1293.4526,-938.8761,-246.28865,249.69116,1886.291015625
538,6694.019,-269.7778,-787.212,310.44357,473.28076,198.91306,7310.63037109375
539,1452.208,-10689.053,-139.5692,-2574.6025,215.74849,197.11034,12278.4248046875
540,4461.442,-2416.2703,-301.42975,-3039.6218,15.396851,66.97208,8059.91796875
541,392.5257,751.29095,703.3534,925.8566,-164.47984,-32.6521,1664.27258300781
542,2024.787,833.7409,-7.1452785,-271.04663,87.258286,138.25903,1851.43249511719
543,2300.9846,-31.82385,-91.36439,989.01166,44.631847,-127.70233,2928.09985351563
544,-2358.1,63.077988,133.7887,97.00531,884.51465,-112.18402,2907.12768554688
545,935.883,2437.6067,-514.5466,-319.2616,-50.553196,-68.7817,2620.05883789063
546,-6034.1567,-5675.0522,-1702.0691,-258.97052,-46.077168,-152.19894,4197.2998046875
547,2231.1443,3812.5823,469.45227,-904.4516,209.42833,-18.269497,3313.1845703125
548,-233.985,2557.9165,1822.0264,889.68994,-67.4469,-365.91217,3011.92333984375
549,2012.8071,1016.3123,1253.0945,-1112.7676,-130.38985,-119.728424,2149.85571289063
550,4093.8325,5704.239,2014.7438,539.83215,-214.9929,128.84103,3365.54858398438
551,2595.3284,2341.312,-28.364258,93.75944,61.089085,242.67015,2548.7373046875
552,-2500.5518,-7054.0596,-757.2186,-453.86716,-6.517941,59.1177,5686.873046875
553,-1613.1886,-4590.367,-490.9214,-744.3888,-71.13765,-192.78525,3905.54614257813
554,874.9374,-1382.3442,273.2785,-327.92603,-43.716785,-215.05112,2136.88598632813
555,1422.6995,-1460.3743,-40.058464,1018.06537,-148.88858,-80.35032,3070.79467773438
556,1353.1168,-110.20964,254.8743,2046.5027,-14.069085,-3.4486234,3782.26440429688
557,-27.059147,3264.7903,522.2912,426.75537,-152.3915,-220.33597,3176.68896484375
558,1783.3809,-2612.127,-17.816328,213.43588,12.009726,146.30214,3853.43139648438
559,1327.7966,-1343.9108,275.508,-325.037,-200.84305,-268.7491,2467.50146484375
560,1913.9569,218.12157,538.52216,-1183.4586,-74.37459,-168.33891,2595.86206054688
561,-1036.5342,1175.2281,-603.6401,3256.357,-204.79141,-297.45358,6026.9951171875
562,-223.2187,1197.8445,740.17584,949.24426,232.26453,-37.74772,2108.98413085938
563,259.1417,5788.2583,-567.67554,-1548.3104,72.54418,222.35399,6571.3193359375
564,1172.9171,3313.9827,-54.686417,-1303.4375,-124.14904,272.78183,3753.11450195313
565,-236.70886,393.28925,-94.72495,-480.26825,73.61098,583.02295,1433.73059082031
566,1506.6583,3144.789,5013.3438,427.41763,-405.55792,-1085.589,3716.57177734375
567,-112.07642,8.810271,-3790.2302,-789.2661,185.50217,944.1808,4316.77587890625
568,2315.8271,160.71953,675.45447,-971.7712,238.3378,-212.37405,2634.17407226563
569,195.02803,-156.14343,425.86807,14.82333,-178.48051,111.96466,625.70458984375
570,-7026.444,2204.0205,1050.7247,-6775.8774,575.2088,1422.872,14855.63671875
571,-36.436188,-3191.5178,-4798.6147,220.1507,-725.0799,-796.43634,4607.96875
