Element Label,S11,S22,S33,S12,S13,S23,Mises
1,26153.703,25305.512,-3101.7888,-8955.15,7457.7812,-2245.489,35416.87890625
2,14141.974,22492.611,7456.0513,4174.2227,-105.54628,-18.880878,14918.890625
3,11062.253,13311.569,-3156.0415,1102.4774,-3508.8918,2253.495,17176.111328125
4,16778.582,14792.42,-1165.1687,-819.00946,4768.2803,625.8736,19017.908203125
5,16651.21,14855.729,7792.9497,737.93884,-1917.9966,115.41442,8859.87890625
6,23125.387,17741.432,10797.153,2030.0206,-617.7392,-6484.1797,15944.87890625
7,14045.751,16561.668,-13459.41,-1034.1592,-379.03973,2830.2185,29321.2265625
8,19015.074,20316.604,6973.595,3643.6477,3463.0537,-4036.0276,16942.220703125
9,12093.993,12254.568,-1726.1404,3910.9949,-5788.9517,1725.7693,18670.818359375
10,11135.56,8761.954,-2085.8455,-1987.7018,8644.068,-2895.337,20253.857421875
11,23371.682,16741.977,-5202.7905,-1505.0182,-1374.1053,747.6826,26175.369140625
12,16182.521,12396.746,225.93425,4092.7825,-325.5577,-815.49054,16158.6611328125
13,25729.98,19751.365,12791.602,-2778.346,-752.7532,1758.7974,12646.3251953125
14,3042.4707,6296.696,-16205.086,-115.04258,4534.673,54.984543,22481.833984375
15,18617.828,20398.729,6903.031,5681.5493,-5047.464,3512.3591,19275.67578125
16,36108.793,23499.125,32365.375,-9401.391,-7989.511,12477.711,32396.73828125
17,1777.8364,14387.477,5473.9316,-4356.945,-9751.408,7655.61,25379.15625
18,20567.203,-1814.9858,-12920.42,2674.9248,619.4728,4064.7034,30741.4921875
19,4617.2363,-7077.087,-5346.6665,-4561.91,3843.749,-1598.6034,15295.04296875
20,15989.347,8410.762,15944.194,1981.9789,-3659.8047,-15868.308,29401.896484375
21,21596.936,1535.1149,-5521.871,3332.319,-3626.2397,981.5638,25874.8125
22,7293.179,1376.4622,2405.2705,10137.7,-7779.0693,-3983.9573,23821.318359375
23,-15378.154,-31066.748,-15843.807,-4088.4253,-10571.539,-9954.001,30359.640625
24,-41613.914,-40624.43,-37149.78,-5602.409,-11815.2705,-1799.9001,23220.080078125
25,16112.168,23561.45,24194.725,6592.5166,-18658.27,1380.1421,35229.26953125
26,4744.7334,11480.505,-19991.375,3544.0464,-2977.7424,8020.3184,32880.3984375
27,29032.242,35394.08,37797.945,2616.7966,-19428.81,301.85455,34853.93359375
28,8424.781,4622.2656,13681.476,4252.2095,-17512.037,9109.591,35850.98046875
29,11338.061,-7890.9517,-23140.152,3983.7312,-4304.0615,2493.9521,31896.154296875
30,17770.922,12377.885,-20134.02,4194.3145,-8725.621,-2792.7676,39573.11328125
31,14004.316,9169.802,24073.895,6391.551,-19283.352,4143.951,38250.046875
32,7608.8687,7029.1045,11026.69,-2713.3003,-11899.753,-13519.563,31768.43359375
33,6748.4717,7622.317,9785.317,-366.82373,-17099.508,9307.946,33835.3203125
34,17871.059,13087.522,7228.047,5828.611,-15727.827,10061.585,35113.5703125
35,18221.48,10578.995,-2607.361,5620.5884,-9533.082,4036.736,27374.474609375
36,9225.496,18253.668,7311.545,-3549.4922,-18771.129,-8902.38,37882.3203125
37,9915.441,-10380.232,-12180.838,-2258.279,-11404.728,-1633.2123,29414.384765625
38,27280.035,24522.115,29406.639,4096.5557,-20186.107,-8359.647,38735.34375
39,14765.207,8215.441,-19086.463,-3198.7234,-3885.9067,-2156.8838,32512.572265625
40,-10634.983,-529.89655,-756.7128,-4851.319,-13419.922,-3324.7373,27274.9453125
41,22917.74,9800.47,10529.105,8036.178,-14159.094,3007.5645,31390.328125
42,-6089.5156,-6195.1147,-6779.538,3938.6943,-12056.928,-5575.5166,24006.708984375
43,2145.824,2035.5864,2058.7393,-372.15787,-127.440544,245.53621,809.461486816406
44,9816.982,5035.796,4708.1704,-2606.387,-5392.625,6998.5317,16706.072265625
45,9586.513,18082.885,11602.8,142.96846,-7.844362,8335.609,16359.4404296875
46,5216.7114,14207.908,453.49884,429.01846,7753.081,-11821.75,27322.171875
47,-15755.151,-618.01276,-1048.5233,-6631.513,-2486.8643,-9650.03,25547.1171875
48,9825.429,18563.525,14697.768,-4656.1113,5640.113,-12790.298,26622.638671875
49,11192.834,3091.5422,-2409.2024,-1150.9557,585.0423,-18090.963,33575.31640625
50,10832.629,12937.659,15362.958,-1230.6659,2247.9563,-14062.867,25068.203125
51,10602.028,6359.491,10246.851,-2802.064,-840.8236,-17900.545,31679.373046875
52,16425.4,16813.49,2478.936,666.39233,1020.74054,-15252.589,30040.794921875
53,-6181.618,8861.827,-25751.021,-4769.796,3274.309,-1489.6292,31791.998046875
54,22455.145,7314.309,14228.489,-4385.6504,-3432.521,-20321.668,38785.60546875
55,22169.484,18968.393,32394.357,1412.5121,-803.52295,-16164.55,30648.431640625
56,7125.9785,6760.7407,18527.646,-764.7739,-5075.4497,-16854.203,32642.35546875
57,13074.079,1559.8148,11129.485,2997.8503,811.36224,-12951.888,25419.669921875
58,-27900.576,-23366.67,-16439.703,8526.877,1871.6813,-13065.606,28994.966796875
59,183.47014,-17300.928,1824.5022,-3131.0942,4059.6497,11136.245,28071.177734375
60,-6722.3867,4501.97,-14743.402,-1983.9604,15566.327,-1703.3544,32059.287109375
61,10755.698,17359.93,-21859.904,-7535.837,3556.1907,-3539.5337,39606.6328125
62,10503.1455,-2546.421,17833.572,-5387.7197,8743.326,-13499.931,34392.578125
63,8550.513,8817.314,2458.1404,-5186.18,19993.842,173.30319,36316.03515625
64,7570.8745,-785.8172,-6943.484,-6108.6885,14384.961,-5909.8506,31570.83203125
65,18352.238,13555.835,11951.268,-4118.975,10357.689,-3385.3784,20985.75
66,21086.482,6188.0156,-9315.862,2044.8676,286.50497,4099.754,27505.1484375
67,12904.883,22573.41,12526.219,-3363.5132,17919.465,-3906.7256,33768.828125
68,9643.8955,11024.46,1586.4891,-7163.7134,10047.25,2.9629776,23124.654296875
69,18821.123,18152.102,25179.613,6345.584,12505.236,-7875.5005,28655.619140625
70,8984.1,10396.324,14991.563,6867.216,13120.172,-10623.055,32031.87109375
71,24217.428,5708.3896,1267.6926,-9353.492,-5315.517,7382.8066,30906.99609375
72,7884.089,16001.565,12877.569,-739.0004,5908.806,-14118.893,27471.8671875
73,11949.384,7928.5103,-815.79956,-3349.671,16108.277,9686.783,34948.27734375
74,13628.01,5015.1655,425.72025,-92.27539,3627.7905,-336.13776,13214.3623046875
75,15552.77,17220.012,11785.783,-2494.255,17213.111,-4766.4746,31606.103515625
76,11266.194,7097.027,-1347.3752,-131.75829,15705.209,-7000.116,31794.87109375
77,1089.0421,2219.4014,6883.715,-6109.782,3500.826,-6114.118,17006.142578125
78,10111.668,8371.942,-2705.909,-745.97687,5013.2026,-11142.461,24383.337890625
79,-508.20212,-6143.1753,-8661.136,702.7125,8618.884,-7917.7715,21556.71484375
80,6384.907,13800.265,-8108.8154,-1555.9397,-3759.8677,-4299.4897,21855.4609375
81,26183.656,20488.252,41207.844,-5035.3047,-3568.542,-13001.289,31066.052734375
82,22005.424,18645.904,11401.694,-1963.5195,-1375.323,-366.06882,10283.2294921875
83,30076.055,18809.53,36719.016,9029.066,517.463,-4217.563,23337.642578125
84,23465.46,24703.533,28227.031,1336.0017,506.17166,8187.7915,15018.4326171875
85,22478.918,18453.326,-5269.1646,-3594.1355,5352.4624,15022.376,38421.015625
86,11158.739,8379.905,10175.592,2835.5344,6383.5503,19423.668,35835.22265625
87,4143.1807,18672.143,-21005.146,9273.562,1617.8291,1223.2993,38460.97265625
88,354.97824,691.79816,-13870.804,389.63452,-9673.511,16971.412,36777.03125
89,10061.571,13054.144,-11200.557,1385.8619,13128.582,10549.032,37166.5078125
90,8094.029,29289.969,13772.369,4254.306,2735.733,17380.07,36662.02734375
91,-828.15405,16660.621,-4730.9033,-161.11089,-4786.3657,14867.907,33486.0078125
92,8347.905,7270.7495,14587.319,1047.0452,-7575.613,18217.75,34898.83984375
93,3262.2593,17653.438,-1876.6111,-7411.1543,4359.5874,7977.6865,26836.40234375
94,5260.5054,7502.4097,-10058.061,400.18262,-1019.7538,10719.919,24947.494140625
95,7322.9165,21385.707,12420.537,-1249.0963,-19516.324,-5820.726,37430.5390625
96,19873.824,20893.691,14700.026,3847.8557,-14105.09,1266.5867,26061.01171875
97,28543.303,17685.785,31397.465,-973.0391,-17202.82,4405.117,33254.890625
98,12273.449,4710.5757,-7123.939,-341.4495,-12755.599,-3401.5662,28459.328125
99,10401.826,16842.494,-13728.908,-4438.0264,-2658.504,5601.7046,30880.75390625
100,965.7677,9840.893,-735.841,1132.7358,18281.928,-4566.261,34144.59765625
101,4011.751,11309.679,21318.537,-687.77325,5937.613,2178.214,18652.06640625
102,13731.825,7040.6064,14441.663,1053.344,3399.8486,-17126.281,31112.056640625
103,6350.14,16430.701,22403.709,5877.0615,-18214.426,-762.1814,36030.04296875
104,7601.048,4394.908,-3590.4175,-9208.024,-10346.067,-15586.586,37469.43359375
105,955.75397,14879.74,-3166.611,4652.58,-19304.83,-1344.4625,38166.25
106,24052.627,23926.848,24604.72,5150.662,-21350.053,-5022.441,39027.2578125
107,16087.631,7319.034,-12432.974,-1586.7988,-9936.19,701.15546,30748.001953125
108,30585.75,23581.639,27338.09,-7199.439,-20380.83,5136.349,38956.83203125
109,32786.883,21006.688,31758.342,5418.251,-13042.72,301.87305,26951.767578125
110,1524.8037,-1563.7114,-19040.344,217.641,-5066.7075,-7982.142,25243.7890625
111,15245.466,-1492.7476,6929.733,-7122.6646,-10466.127,5186.293,27778.375
112,15492.952,-165.27687,9702.487,10689.208,-11152.87,136.4203,30067.16015625
113,16126.642,14026.134,10783.774,-2849.155,4454.7515,2864.1384,11411.966796875
114,11781.342,22703.377,20629.594,-14400.36,14500.462,-2969.253,37152.28515625
115,22210.098,11996.055,-5550.838,-9808.109,-2121.3823,1091.8828,29951.951171875
116,14366.619,9304.602,-9427.063,-66.60408,5726.2725,-3702.462,24714.931640625
117,15466.242,11398.983,15693.329,-2777.412,17844.236,-595.6177,31574.90234375
118,18110.662,-528.2829,-22439.764,-2595.6982,-3664.5981,-4626.652,36886.97265625
119,2376.379,14861.526,12308.672,-9724.469,15601.676,-11411.375,39180.5390625
120,14072.141,2870.748,-14449.772,-35.474762,-1804.5712,913.36664,25134.8671875
121,9077.693,10124.68,-7175.9985,1721.5577,9277.594,8444.271,27628.3515625
122,17961.625,6401.9673,14565.225,1114.5945,-5497.4146,-6138.0234,17700.78125
123,-17488.79,265.57364,-9394.822,-5391.9014,4000.4143,-2970.337,19968.046875
124,2726.9536,5970.698,8033.081,-2969.928,894.6367,9011.694,17145.25
125,8063.194,11900.668,17755.062,-374.8156,-21950.83,-179.58955,38955.1171875
126,22805.148,25581.158,24502.125,655.6148,-13962.695,-3877.2817,25241.537109375
127,13726.934,21301.104,32937.83,5365.397,16389.557,3077.2803,34663.296875
128,21245.326,8812.0625,-6638.1157,1456.6003,5268.7476,-1881.2792,26184.95703125
129,1962.9279,4520.6997,10693.067,144.86491,1643.408,-3305.659,10068.5302734375
130,12606.371,17814.64,13396.025,829.09265,2122.9275,-15096.204,26886.904296875
131,15611.675,4468.633,10479.099,-7529.984,-1208.653,-15810.67,31901.953125
132,4293.131,25102.967,-16431.674,3195.2642,3953.4043,4851.492,37973.34375
133,16223.119,22897.457,8733.115,-5404.2153,9579.7,-12552.984,31405.392578125
134,4124.5493,15247.481,-16984.434,-1560.5504,-9480.148,7197.4653,35163.03125
135,11067.477,8856.259,11963.901,1958.7072,-9169.955,15552.805,31577.1796875
136,7189.262,16423.5,13068.505,6492.8843,6856.9004,19432.057,38286.875
137,19193.434,21217.328,3407.5964,6143.128,-7965.734,6011.555,26405.0546875
138,18713.818,21349.922,22000.748,7964.8364,5150.4863,17907.572,35228.2578125
139,18405.38,6156.3057,5912.603,3507.9268,7218.6045,-4084.3738,19909.095703125
140,2571.1921,4860.051,-5099.3057,5588.279,2842.895,-3198.883,15174.4326171875
141,-8201.163,-19290.709,-3637.2683,-2618.0093,6371.12,-7572.414,22556.119140625
142,-6298.4062,3437.2622,1164.9556,-3775.471,996.20935,2530.953,11949.109375
143,15945.86,26044.89,17938.697,-1107.4928,16027.113,-6451.6055,31384.556640625
144,12543.675,4506.138,398.49063,-4961.397,11526.319,-6065.278,26405.822265625
145,12560.0205,6865.9634,-2100.0232,-1660.954,21647.371,699.5274,39742.09765625
146,18203.262,6072.397,3394.6377,1601.9841,17694.627,-2320.1423,33911.0546875
147,23017.783,3901.495,-8293.622,-4654.0596,9980.904,-1804.7756,33479.64453125
148,2302.169,11511.089,15901.576,2394.8435,12589.918,-7971.4307,28772.68359375
149,19442.219,-7228.3086,-10920.445,7615.6226,-2033.3971,2827.6467,32152.826171875
150,13770.176,30898.057,-7249.07,-5169.6196,4440.237,3809.752,35749.86328125
151,13702.3955,679.0012,-17719.53,-2318.3167,-8667.992,-1984.906,31639.716796875
152,8561.101,18366.021,20643.504,-6248.6167,2979.744,-3720.8972,17577.298828125
153,4877.1694,8697.12,9968.547,-4271.066,-3622.6643,-15079.441,28237.05078125
154,20972.748,17278.865,27076.123,8612.81,-5433.5806,-15714.844,33547.32421875
155,5216.9175,7610.6377,1341.8662,95.1159,-8445.731,-12723.051,27012.3671875
156,4117.184,4896.5703,-2361.0771,40.00631,-12181.044,-14002.757,32878.4765625
157,7690.025,21289.832,19200.758,-892.5339,-19516.988,1601.6523,36245.44140625
158,19946.504,21029.828,18354.969,2597.8076,-16929.004,180.56795,29758.15625
159,19679.844,23374.816,19342.52,406.52643,-18719.074,1887.8395,32823.953125
160,14334.925,17680.787,5218.8896,-914.49164,-14394.1455,2516.2024,27710.5546875
161,4060.8357,1409.9136,-189.95193,918.8521,-15631.8125,-3094.8977,27895.462890625
162,9819.654,10308.16,9682.385,146.86435,468.85663,514.64545,1357.68359375
163,17376.59,16263.318,15311.107,2707.0151,13.524752,17625.193,30937.564453125
164,2714.4917,-1229.8665,-16642.523,5588.7134,983.786,16780.68,35429.921875
165,5315.658,3904.507,-8164.082,-1519.9446,-2183.028,15645.406,30335.400390625
166,8602.519,8367.745,-2440.0132,6816.8887,4529.9907,14262.109,30505.66796875
167,10056.124,20664.812,-762.48926,-650.6505,445.16318,9592.644,24945.51953125
168,14973.673,11213.514,11383.003,-5107.713,-2623.3435,-18153.42,33182.55859375
169,20533.316,18689.479,29113.258,-2762.8232,607.8294,-17231.336,31742.71484375
170,14249.648,23204.4,-5838.1875,-1261.789,2975.9434,426.32568,26371.966796875
171,23680.012,28818.99,23008.994,365.4246,-5994.842,10960.293,22336.220703125
172,12969.876,-8017.513,11559.831,6529.505,-8796.089,6888.1313,30252.626953125
173,12199.891,5035.368,5667.6377,461.15933,6499.6772,7008.05,17941.958984375
174,11511.235,8986.244,8694.899,-828.6319,1647.2139,-15807.858,27695.869140625
175,5575.308,4685.2354,-5571.603,2943.004,822.4975,3108.773,13119.8720703125
176,-2546.0483,9536.384,-21101.766,1646.9187,10026.333,5778.645,33532.00390625
177,20561.473,3611.3943,20125.943,-4831.515,6485.6924,5218.263,23622.5859375
178,6757.7754,12765.4795,-4766.8823,298.9344,10566.374,-16767.97,37641.125
179,893.8047,12632.602,5940.8574,-7372.4106,-5701.167,-12140.991,28404.294921875
180,6513.826,15720.441,-2148.047,1097.1215,-8323.636,-10210.481,27636.169921875
181,2926.7256,16212.232,29095.967,-3124.6982,-311.36557,1178.4058,23396.798828125
182,-4147.5103,15980.983,-19942.666,-2284.1162,984.83374,779.6814,31511.279296875
183,5707.889,-382.97415,-10543.528,-6916.9097,11528.982,3431.339,27925.390625
184,1830.3617,6638.071,6707.5415,-986.86707,-3217.695,-189.56294,7585.716796875
185,21545.57,7929.6914,-5226.6167,2278.4717,856.2457,-896.27325,23617.767578125
186,8093.4336,11243.999,-717.21515,1100.3782,16631.861,3486.3992,31388.947265625
187,1399.555,6595.4883,19728.791,4971.8594,1120.517,9912.24,25306.193359375
188,-6636.4272,2296.4731,-11151.388,-11729.073,-3380.3726,-1502.0769,24377.78125
189,53.21831,-6596.1724,-539.68243,3050.2673,6125.8174,9104.996,20731.99609375
190,-6744.4307,-8643.623,-5916.9927,6695.3936,10122.759,-16786.297,35959.671875
191,6393.408,-7766.124,5492.939,7405.047,4477.6934,-7128.43,23783.396484375
192,9835.458,-15146.785,-23716.307,2719.8162,-2192.8398,-5453.519,32209.865234375
193,18652.445,11424.163,-12444.94,-7167.398,10112.595,-5048.7866,36495.125
194,17162.086,1714.8616,-11564.862,3531.8594,3412.4133,-8206.077,29907.818359375
195,853.71246,-565.8827,-25249.826,-1823.4238,2329.3223,-5766.5947,27791.4765625
196,-1057.5338,-13216.381,-27775.309,5210.94,-601.10345,6570.1226,27365.396484375
197,5426.5923,2442.4766,9642.807,8464.721,6535.4707,-8556.6875,24535.798828125
198,20670.105,10343.078,-14963.375,-5844.9873,5342.5156,7714.1636,37081.6484375
199,18965.025,8577.008,-10780.648,4972.5854,-8503.437,-4378.253,32129.890625
200,13724.411,-3982.2854,16855.264,9011.019,-3638.8213,-6298.1665,27947.90625
201,19753.484,-2920.8196,-1650.6067,2307.5603,-8151.712,-213.34453,26502.802734375
202,25445.266,2467.958,-15056.976,3711.0122,-6346.4116,-1792.2877,37543.81640625
203,17160.732,-716.9286,-17754.898,4272.5376,2744.03,-4161.538,32308.05078125
204,16405.018,2456.4114,-19302.086,6605.562,9294.603,-8493.536,39723.875
205,19516.674,2365.9138,-15212.269,4074.9001,-2311.5676,-8955.502,34800.3984375
206,16000.9,1636.2681,-10401.34,-4425.811,-2918.2998,-8658.396,28868.302734375
207,13675.967,-2487.649,-7410.7695,-6095.593,2417.111,-2225.3535,22559.42578125
208,12133.279,1111.9537,9163.629,-3799.064,1306.4266,3328.7073,13387.2607421875
209,-4625.74,3827.2397,-25802.266,-6051.3687,-1439.5349,95.463875,28548.27734375
210,8196.705,2616.3606,-5274.7563,4332.629,2269.0298,5650.2783,17463.75
211,11637.493,11341.0625,-6994.617,2597.4758,1612.3251,401.02356,19241.677734375
212,12500.317,15604.465,4609.291,-4996.7417,-255.94205,4316.2666,15079.3974609375
213,17581.363,10230.983,1626.0028,-386.89325,215.44667,12571.23,25807.353515625
214,10122.557,-8176.744,5035.494,-5410.13,-4351.256,5699.7886,22577.080078125
215,1290.8494,-10458.658,9660.049,-5967.7466,1164.798,6141.321,23032.328125
216,-17094.033,4901.014,-7330.332,3183.4983,5322.1406,-2072.157,22195.04296875
217,1610.4744,1395.4906,1933.7001,968.2246,70.69303,564.49567,2000.87890625
218,-8656.557,12087.77,-5819.5605,-4289.984,-2144.248,11760.866,29385.0859375
219,-8372.477,-2785.134,-31300.46,2374.0044,-908.2652,2184.7026,26808.927734375
220,3619.2449,36811.11,5667.6475,4147.5747,-5461.091,5171.4556,35485.421875
221,21071.373,21158.47,26359.584,6260.9956,-5896.354,316.88596,15802.359375
222,18057.48,1045.5769,21051.701,3665.462,1560.82,17024.684,35587.109375
223,7731.024,11188.654,-1910.015,1008.4753,-4370.0347,5347.181,16862.96875
224,1935.2284,7330.237,-19319.678,-2218.0151,-4860.643,-1063.8704,26164.466796875
225,6394.7886,16288.881,-6856.326,-1930.4498,8192.98,4971.2896,26292.369140625
226,14006.875,16947.7,895.4711,673.3637,7546.886,14811.036,32395.103515625
227,6622.351,2164.8118,9648.291,2130.2656,-6648.1265,12645.945,25854.998046875
228,6477.3574,10229.003,-11927.143,-3517.3271,2278.7363,-10622.442,28514.017578125
229,4532.738,20887.756,9732.745,4365.422,-6924.2344,6255.2373,22975.42578125
230,11633.388,35538.004,18796.482,-9359.048,1321.819,13836.159,35970.05078125
231,-9955.551,5139.099,-18855.049,133.16429,623.08026,-15038.046,33481.796875
232,-811.72296,3661.0469,10400.302,919.19104,-8236.1,20807.615,40005.89453125
233,5098.234,2566.2034,-578.97754,-2829.5784,-425.4781,12688.331,23061.025390625
234,30801.943,12505.239,23498.645,-5625.39,14048.564,-11089.542,36199.953125
235,22626.125,17806.705,19306.445,-5474.665,13187.393,900.3535,25145.931640625
236,4693.9146,-11032.803,-13494.227,1532.6823,17202.18,11092.179,39446.1640625
237,2207.7668,-1480.8668,-16943.654,-351.67062,4028.9932,-5040.1475,20857.109375
238,5464.612,13153.38,20490.506,-1835.782,18296.72,-9154.548,37884.05078125
239,10185.161,5277.6445,17929.898,-8005.368,14110.242,9011.969,33989.3125
240,17671.783,7327.331,-9671.826,1550.5638,-706.556,5554.337,25943.947265625
241,23716.31,12111.492,3696.3853,-3709.3386,9617.168,-7764.7915,28333.107421875
242,11879.679,10052.876,2964.1748,944.3949,16133.259,-2279.3286,29421.8359375
243,16816.104,3450.4368,-11232.04,-2337.561,997.5545,2891.4722,25197.560546875
244,20787.9,13458.453,7304.6333,-1603.5442,-4357.4565,2275.852,14727.83984375
245,7269.9644,8607.914,2132.7024,-4937.06,16602.557,-7351.127,33124.47265625
246,18915.86,4306.76,2820.5452,-284.13657,8982.416,11120.978,29166.228515625
247,11727.042,15732.274,-5261.0537,545.6357,9370.484,10660.083,31271.419921875
248,13850.908,13908.555,4554.7046,-6189.3667,15238.893,-5335.9375,31368.322265625
249,22244.77,7568.695,-5072.2954,-273.46616,12598.084,-867.9537,32238.509765625
250,18037.506,6795.3535,-9532.449,-3717.9456,10786.86,-3014.8252,31533.296875
251,14982.905,6512.338,-14328.116,1119.9933,-2351.006,-6772.119,28991.984375
252,5384.3823,5456.0728,7459.4077,2517.4058,14196.835,-6093.824,27188.7578125
253,-2323.3218,1175.474,-23780.943,-2131.6409,-2685.2744,8326.478,28124.748046875
254,14115.167,-6266.861,-15800.781,-11649.097,5226.4746,1105.386,34545.0625
255,10375.495,7669.729,13881.315,1383.5289,-69.42153,-2215.4688,7041.28515625
256,11224.857,-7101.622,-1078.6311,-4094.0833,-8816.048,4756.1055,24760.255859375
257,16375.981,17092.143,15467.933,-371.97604,-4310.37,-1555.832,8087.1845703125
258,4711.4595,-2236.9065,-4413.9067,7592.106,-2158.1118,4476.6226,17752.7109375
259,959.8784,-5365.0884,-9689.012,1346.4073,4669.3926,-7264.744,17754.65625
260,-1891.872,-637.14764,-9210.99,-1754.4261,9809.156,-1014.1028,19112.958984375
261,-4438.0454,-3725.3118,-25616.107,-6412.501,-7143.3433,-166.74377,27214.67578125
262,16487.936,20994.395,-993.6794,-2202.038,-8850.007,-6546.048,27977.888671875
263,434.85733,8079.579,-8457.091,-5710.1636,9898.135,1888.3169,24656.01953125
264,3207.346,9485.459,-6245.4395,-882.41943,-412.90158,-9679.035,21725.88671875
265,1260.3098,18632.03,-6025.162,-5013.432,-5657.085,-3308.7546,26185.31640625
266,-1093.0499,10934.941,-19747.672,1467.2467,-1120.7177,4607.951,28124.2109375
267,-5225.765,17871.678,6674.9004,-665.60187,3867.475,-1543.0985,21297.591796875
268,2417.5134,13372.396,-11599.609,-1179.1748,-2169.922,-1755.3556,22306.63671875
269,-54.377644,14626.666,2278.2007,245.81972,960.4718,-2800.3684,14601.5146484375
270,-3090.9656,5538.319,-15078.498,-4385.5195,4104.3105,6228.3647,23371.37890625
271,-485.61832,18208.41,-17226.238,176.99748,3520.0132,-628.58636,31322.763671875
272,-6746.9785,11392.658,-18339.732,4213.594,-2969.978,5937.8545,29312.56640625
273,-7589.809,3558.2996,14158.094,17233.965,4950.5376,1204.8948,36382.83984375
274,-16237.422,4671.596,-13118.008,14792.36,4774.001,3389.8381,33778.42578125
275,-20593.506,-10770.007,-15273.253,7826.923,2639.357,9429.183,23322.77734375
276,-40617.64,-48406.215,-37332.58,-9553.088,2996.2673,-9142.268,25465.662109375
277,14337.001,-11860.48,-27387.633,-505.29282,-5237.976,3502.2642,38131.94921875
278,11359.011,-63.689953,530.7322,-1156.26,-5138.762,4657.713,16503.20703125
279,4001.4502,14659.278,2868.4146,-637.2638,-3682.7732,3390.6606,14259.9189453125
280,-1495.9858,4569.1245,7699.5107,11669.573,-2866.3916,2850.166,22871.96484375
281,-6625.759,832.69763,-777.0753,-1378.5017,8796.794,6255.168,20036.12890625
282,6908.0283,-16594.357,-27541.799,-6634.8926,5658.2056,-697.48627,34045.12109375
283,17780.748,-145.23547,-19782.525,3319.1477,-241.9172,-3214.5327,33514.28515625
284,21234.248,37009.98,12460.04,-5936.839,3409.6753,-7233.0425,27601.568359375
285,7419.143,16996.24,-11634.158,-209.07874,-5497.6123,6967.6113,29557.90234375
286,-2744.827,22249.688,1606.8622,664.8421,-7306.463,3716.5146,27162.681640625
287,11606.704,8064.6875,16366.964,10392.507,2336.6223,-6873.224,23112.388671875
288,2334.3584,-10654.809,-34931.74,-3109.135,9282.007,-5790.18,38229.18359375
289,6999.851,-563.75757,-4408.977,6879.3193,3427.4377,6496.1,20121.9453125
290,17227.254,501.0842,-9141.2,7222.0005,-6164.9727,4850.6353,29582.01171875
291,20240.69,2785.2112,-19495.438,-207.46498,10267.516,5582.0293,39998.90234375
292,31640.07,8796.183,-6281.13,9155.485,-2689.1682,2850.9297,37297.98828125
293,24207.93,10626.076,-10233.686,1421.7932,5188.988,-2177.2017,31685.525390625
294,24697.875,5784.8374,3457.8057,4868.012,-996.5462,750.87634,21974.8203125
295,21710.309,10957.016,-3618.361,-4435.8735,7907.862,-8615.617,30888.97265625
296,-1050.1079,-1047.5216,-19969.172,-3103.0583,6034.3984,-11652.406,30057.353515625
297,22178.223,22579.195,18690.898,-10305.527,5181.2837,3747.1619,21330.564453125
298,16332.347,3350.9495,-7206.6797,6089.2686,472.2278,2470.586,23393.396484375
299,-12380.941,-9937.303,-7171.1733,2185.3801,6178.3726,-1121.8097,12369.404296875
300,7246.369,15439.274,6486.4595,-9799.939,4070.7476,4357.9253,21650.1953125
301,27981.666,14743.52,14338.959,1040.4342,-1359.0854,5366.03,16611.42578125
302,14213.089,15409.322,14798.201,2095.6406,3515.4824,16518.574,29494.30859375
303,-3935.7307,19768.193,-10840.313,4858.694,2369.111,1952.0964,29534.826171875
304,137.21399,18006.646,-5773.1885,-553.34357,-5764.683,3877.3843,24608.548828125
305,-15257.443,18740.523,-14677.369,3574.5435,5288.628,-439.85898,35486.58984375
306,-10972.592,13657.845,-17316.422,7645.2207,-1196.3115,4569.6733,32333.283203125
307,-21020.662,-8328.474,-22673.836,9051.318,-5004.0815,3110.2327,23124.212890625
308,-3898.046,24231.309,17194.723,1483.187,-2673.2642,-1015.7007,25960.9921875
309,37040.285,32209.607,26893.977,-2170.3462,6991.1465,14256.884,29117.095703125
310,-1035.7162,3648.9329,2361.337,-3780.2815,-3508.9058,9523.725,19221.986328125
311,-932.0757,859.28235,-847.6132,-7454.834,-9146.175,-280.78653,20517.857421875
312,203.50362,13807.934,-15303.35,-795.509,-3124.2898,-4803.871,27146.2421875
313,12858.563,8479.508,22521.936,-3640.0542,-306.98392,-7497.2925,19066.57421875
314,6679.355,-13339.942,-5694.3955,1875.1688,7628.0137,6678.064,25001.328125
315,-17472.965,-24939.098,-27127.783,1002.9606,2105.1965,-16511.264,30183.66015625
316,-1327.6986,178.53102,14491.847,7260.1113,17425.629,-1991.5344,36189.5390625
317,8210.344,-20402.117,-21065.629,-7091.377,8560.902,3098.1646,35179.87890625
318,12900.451,-2359.5532,-18351.463,8282.484,8653.206,-7153.1855,36284.73828125
319,8960.738,-14828.61,-35187.332,580.7569,6971.6475,-472.74615,40152.5234375
320,15496.154,-3775.0146,-15182.739,-3348.7974,9655.605,5997.1445,33802.17578125
321,20080.12,-2759.975,7322.399,5156.291,7538.7515,9.832872,25363.408203125
322,21754.877,18625.652,-1025.2272,-3088.3972,10929.227,-2671.143,29424.560546875
323,6642.069,-5837.9395,-3718.5715,-6827.8086,349.719,-6066.469,19606.697265625
324,-7033.9873,-29068.729,-39683.97,3890.5442,4883.318,-4709.571,31868.587890625
325,9978.091,10705.517,11753.195,648.356,142.71785,127.45694,1939.02685546875
326,-8358.772,-3316.0896,-20868.299,6519.2793,604.2713,13674.77,30571.146484375
327,2777.2937,13626.877,-8982.036,-4812.8823,5344.547,6622.603,25890.919921875
328,15192.411,-2718.1064,-3443.8408,-6108.2036,9895.187,3920.111,28037.259765625
329,23482.074,3504.22,4650.885,-4304.0884,14296.319,-1244.2144,32417.517578125
330,9524.09,-3721.0906,-7000.1865,-1620.746,7895.475,12965.724,30476.966796875
331,26636.121,-2634.7585,-4154.3823,1940.4807,2923.8127,5192.0103,31959.15625
332,18885.729,7543.6123,946.43195,-6013.735,13020.59,7915.5283,32435.49609375
333,3771.8894,-4879.8765,-24059.33,-3475.5056,-6710.4146,-4464.0176,28978.4296875
334,11326.346,23268.924,4157.616,-3856.7256,10873.23,-2359.0833,26374.78515625
335,13317.618,8212.521,6537.705,-6015.5093,8857.552,-1432.0359,19684.9453125
336,-2696.245,-7817.0435,3130.6348,-8409.419,2971.9277,6155.429,21031.72265625
337,202.1544,-2674.108,-6725.2285,1044.7495,13379.224,6082.826,26222.58984375
338,11889.311,16372.465,-918.08795,-6152.05,-113.09114,-3394.7869,19740.84375
339,-2405.4841,13443.658,-9062.364,1546.5215,5086.019,6506.7183,24754.904296875
340,-5059.304,-6329.8477,6053.624,8187.6987,-6761.946,-4939.6294,23467.375
341,15164.182,10306.618,2845.2402,5470.813,17625.438,385.10654,33730.02734375
342,-2544.7654,15375.698,-11273.64,1463.803,6906.5557,-2756.3938,26945.95703125
343,7474.849,-6654.0786,510.8376,-1834.8473,8045.9575,8054.656,23423.806640625
344,9435.617,-4272.182,17127.605,14367.244,-7079.308,7259.26,35779.94140625
345,6537.527,18229.717,13930.63,-496.99362,961.48694,8013.8706,17352.36328125
346,7731.5317,4837.764,6563.2764,2039.2596,3456.4385,-7567.098,15048.5087890625
347,17312.395,1875.7717,-2012.3016,821.972,2852.3667,1202.3088,18552.5390625
348,-3416.4565,13058.668,2135.113,2627.1582,-383.8174,-3387.8608,16320.76953125
349,-14256.458,18225.617,-13437.594,2031.9009,-1069.999,2868.5938,32705.72265625
350,-18183.623,5884.4487,14667.206,-3424.6987,-668.1186,7351.052,32656.265625
351,-2093.4858,-10404.708,-2453.6926,7778.0967,9199.16,4638.262,23793.3359375
352,-6382.185,-2452.8318,9721.207,-5439.017,1205.2715,-2070.3572,17817.099609375
353,623.03394,-12250.232,-3703.2407,1667.0503,-3525.181,-10937.377,23092.009765625
354,-15915.756,-923.1797,-9736.967,7472.459,9400.952,-310.5898,24561.248046875
355,25925.35,23660.787,9821.125,-4059.7627,-4692.8237,-11258.003,26902.52734375
356,-7863.504,-2155.2285,8215.067,6375.4526,2383.9238,273.90393,18399.388671875
357,-11307.1875,-5335.542,-10481.902,7120.1997,-3406.3633,-9945.977,22695.42578125
358,5638.8115,-3976.3171,-21652.445,-6385.6465,4114.353,-7703.057,30429.90234375
359,12870.721,-4258.1616,19481.9,7725.9395,3304.4993,4099.9297,26694.685546875
360,469.14523,-11859.679,-5340.138,9642.584,-6762.9526,2639.0254,23477.015625
361,-1805.2495,-20268.48,-19262.14,6691.144,783.82446,-2162.5503,21760.298828125
362,1556.9011,-18839.428,16547.012,1073.5703,2938.2495,-2537.476,31545.693359375
363,-5160.4834,1372.5691,-635.1257,2666.8792,-594.98627,255.06963,7495.9443359375
364,384.4668,1116.1635,2811.5132,1451.7081,704.7302,-314.7486,3572.05493164063
365,-6814.473,22936.363,9847.04,6938.0454,-248.02019,1319.676,28580.46484375
366,187.41498,-829.1978,-2447.9731,-1065.0587,-1280.277,232.9812,3712.52221679688
367,-4201.1465,9157.15,9863.756,1005.8279,7194.0054,6945.151,22167.181640625
368,930.175,14784.075,5488.5317,-3872.0667,988.54584,-2176.7415,14549.3349609375
369,-997.46625,1747.875,4748.8765,-564.2601,1059.4738,-576.5289,5486.47998046875
370,2642.3618,-4813.7734,-285.40573,-5749.8813,-414.1777,-3516.724,13384.1708984375
371,14692.538,-6787.9756,625.9838,1723.3329,809.6796,-2011.4656,19497.126953125
372,2647.6838,-26.46107,-1443.3037,3557.6877,-30.077951,2508.1482,8354.2744140625
373,-1914.7959,139.50581,-7200.4946,5432.277,-2298.9343,1568.7299,12441.2265625
374,4431.546,1024.5089,3496.584,3277.2917,198.23056,-4268.621,9813.24609375
375,-4186.764,-3098.5068,1953.656,2598.9521,-141.82835,434.9363,7286.8525390625
376,-1133.2462,-410.51434,-554.23016,572.0757,480.6198,-21.407673,1454.40734863281
377,-863.18756,303.37128,164.93216,1007.3198,-346.0579,541.4774,2345.52099609375
378,188.51332,-523.0376,823.2081,296.18954,481.61743,518.8918,1768.48986816406
379,-11853.415,14108.479,992.38855,-2039.31,-3947.8508,-5228.6123,25431.89453125
380,-9717.242,-913.1093,-9895.328,3790.4333,1574.7012,-1673.0466,11749.5029296875
381,-4653.8857,2710.698,3724.9417,1216.9318,-488.36954,-398.54456,8268.619140625
382,-725.8285,-584.2734,-975.62115,-298.54138,-154.70506,60.41643,684.051147460938
383,-4535.9634,-6350.4893,606.8334,-13382.851,-2364.2307,45.563164,24354.6640625
384,28475.748,-3557.8362,16169.238,1521.7454,-599.7838,1275.5352,28218.548828125
385,20808.799,-3941.9543,11036.352,1941.7853,-271.62445,476.41107,21873.248046875
386,8005.3955,-2951.6597,-1338.6418,5241.9653,-3871.129,-217.92096,15248.5712890625
387,12561.815,-6402.7466,3065.8333,-1342.4767,-995.9509,927.6755,16754.263671875
388,-1648.9,-1345.3856,2754.0198,2721.0728,919.1581,-468.06992,6598.93994140625
389,-1707.3119,-1905.8436,-17.081646,69.43525,259.2006,-433.454,2002.87866210938
390,-5470.1934,-2453.8728,-6623.6133,2546.5188,-3461.5027,965.3382,8491.3818359375
391,-6823.056,6823.5156,-3338.183,-5135.4814,-90.828094,1451.1974,15371.365234375
392,-5977.6045,5178.66,-2429.216,-6653.724,-3134.7158,1374.1646,16291.9306640625
393,-4788.68,-3773.5872,833.6846,-6970.5303,-224.8342,-296.43173,13157.2919921875
394,206.26668,1242.6053,1668.8766,-3854.6306,1091.619,960.0702,7253.419921875
395,827.67145,-1488.9998,486.17773,-1138.3229,812.3841,-695.8244,3465.86352539063
396,11153.886,-4050.3909,715.4232,-817.8134,2143.8108,2009.5615,14468.2939453125
397,9059.272,-4096.784,-189.80746,533.3133,-36.5406,2574.195,12557.173828125
398,7986.662,-2556.2556,-2362.3064,5675.0776,1163.6329,-374.0851,14499.91015625
399,235.23389,17118.701,-548.53345,-853.33575,-719.3345,-2919.527,18116.46484375
400,-2149.9963,4681.22,-611.57916,3827.7505,2073.94,-36.16394,9766.5556640625
401,-4870.5903,-3000.8635,-2477.8281,4186.261,-623.1548,-369.6217,7674.4091796875
402,-8389.432,-5153.013,-15446.66,6098.614,-2466.7412,-4850.2993,16838.318359375
403,23926.146,-5359.0054,5321.5747,-6695.0957,4555.769,-1259.7458,29332.76953125
404,9105.85,-868.7439,-9118.926,-2839.244,-4940.0854,-634.39386,18666.9453125
405,-8815.245,10568.437,-14932.428,-3770.5764,-379.2828,-7973.0737,27667.916015625
406,-5722.1914,4261.472,-909.7775,4088.7654,-2125.7554,-1619.0465,12098.0078125
407,-5251.556,10278.482,11740.178,2565.7922,505.47473,4677.303,18766.10546875
408,3683.3909,-3259.9768,855.839,2826.0457,-286.32214,32.8924,7796.24658203125
409,12454.574,378.79364,758.29816,3544.4944,707.6308,301.97705,13448.115234375
410,1683.629,-1626.0161,-1565.5128,2763.7634,1103.6777,789.2642,6260.62744140625
411,3147.888,-13935.555,-843.5809,-4002.6567,1287.8789,855.442,17170.404296875
412,4250.333,-3114.1162,-1608.4108,-942.375,-11.250745,-1489.2875,7398.1142578125
413,859.0813,-3094.6953,-548.2004,-4997.504,1477.357,-968.77155,9815.1494140625
414,4588.006,-146.81987,2760.1907,-149.47256,381.72165,-186.5388,4208.75830078125
415,2034.6115,226.37274,354.85092,4229.742,-4507.6123,-2314.4258,11565.09765625
416,20241.584,-1002.82324,17679.18,-3247.621,-951.60834,6879.419,24078.849609375
417,17179.746,-3862.3833,6535.645,4715.5093,-60.606308,185.10762,19972.8671875
418,-50539.78,-59974.29,-44092.195,-1609.4955,2307.809,-1961.123,15056.5107421875
419,-2045.0177,6862.761,4655.9243,4205.6104,-1204.8777,169.41997,11048.2314453125
420,-5854.164,-4503.2446,484.10867,5359.873,-151.25987,-1541.476,11261.349609375
421,5916.5137,-3370.4287,-8972.523,6470.321,914.2384,-97.60623,17256.544921875
422,-3421.325,-11650.125,4202.3022,3822.1052,-1656.329,-737.50665,15564.4990234375
423,-18788.66,-19466.406,-15505.91,3001.7822,1900.0298,-8151.7754,15832.7958984375
424,-3539.6267,-8628.058,-899.1904,-2890.7056,386.5279,1098.6115,8685.46484375
425,-3038.292,-7695.0464,857.2908,-10970.481,647.71826,-1612.1475,20618.23828125
426,-33062.926,-21885.97,-38288.992,-5599.789,-11437.615,-5882.797,28301.935546875
427,-3656.6243,2282.1846,1733.8252,-3899.0227,-265.77637,329.5241,8857.671875
428,-5334.5264,1643.4808,8588.761,3129.3933,1280.9371,4159.6055,15218.4873046875
429,993.6566,-469.10394,4172.3574,-3649.1562,2344.8042,3106.5244,10113.7685546875
430,-861.8023,12086.648,4088.1628,5502.8867,-947.4458,51.993813,14886.7900390625
431,-4772.9443,4314.2046,1675.6542,2197.4458,1.1355866,-404.50607,8974.3251953125
432,-3251.1846,-448.09668,-1556.0072,-4395.4927,2.8441186,-255.36003,8008.490234375
433,-6714.8677,-3331.196,-750.50555,3284.3774,2868.5044,1959.5826,9767.6845703125
434,-7714.7964,9099.262,-4318.471,2408.6353,189.48985,40.688053,15958.0341796875
435,-6118.6436,-5343.5635,-8446.497,24.961212,778.9203,-3032.5112,6101.99267578125
436,2127.4878,7130.5444,-7063.515,13421.464,4440.6973,-246.81499,27481.583984375
437,10679.956,-1697.1365,1392.5773,4384.1895,43.877937,294.41812,13506.5263671875
438,122.54107,-4972.5835,-5346.6646,579.6926,-850.4487,516.88983,5655.5869140625
439,16540.09,-3329.6143,-11433.493,3541.089,-2726.561,169.32826,26105.669921875
440,9532.792,-770.02747,3942.799,1728.7717,3707.6912,1374.1865,11647.98046875
441,7979.2554,-7205.625,-1627.125,-3389.266,-1346.2169,-2139.9182,15186.4228515625
442,12084.4375,-12332.319,-12516.624,-10856.778,-2074.0984,-2205.5312,31334.00390625
443,1641.679,4012.795,3342.148,4162.1416,452.3636,455.29587,7595.25
444,11971.3125,-1246.1625,-1688.5721,-5599.3203,-1890.1459,-536.94916,16922.9140625
445,-1037.1055,-898.26636,397.50504,476.88718,-99.537735,863.61005,2197.19311523438
446,3305.323,2481.4915,4255.041,4723.253,718.2668,1317.93,8720.60546875
447,39.690674,13264.717,8520.367,-1029.8531,2577.1252,7533.6675,18111.90234375
448,-1936.5182,-2705.6233,791.77765,-1363.3473,-21.437452,665.847,4128.08056640625
449,-415.78888,-1347.5103,993.71387,-4531.995,1264.8949,-333.70172,8421.3388671875
450,-1221.9769,-1347.3693,-104.19403,-2345.8406,184.1465,720.4635,4424.15625
451,16342.981,-12504.835,8289.236,-10004.38,-913.419,5581.077,32572.037109375
452,552.1637,4141.3784,-3130.6123,-3648.141,-674.3653,2577.0525,10043.818359375
453,-3417.1514,-2742.5767,-1072.5703,366.59042,1190.2357,-2179.757,4824.6953125
454,-2599.1733,-877.58966,2593.632,1391.9071,-702.0807,970.78827,5577.40869140625
455,-1709.5659,-1085.0144,720.1116,4375.053,665.2025,-340.7705,7992.1875
456,4043.501,743.1889,-861.30975,5372.9873,-4050.7224,177.43701,12437.375
457,-3323.5256,2011.6085,-495.73096,-6205.3325,1877.4979,30.78553,12143.7109375
458,-4109.206,-154.2608,-187.7598,-2994.9436,97.14928,575.0696,6590.88134765625
459,-1491.2308,4070.2498,1367.9055,3113.2195,-101.71915,209.14761,7241.7109375
460,-4307.34,7004.155,7090.382,-4387.1562,-767.09753,1701.213,14040.0078125
461,-1847.2048,10641.799,-4766.903,2046.3773,895.9128,769.04333,14754.97265625
462,992.2147,1486.1648,5993.24,-3623.518,4981.567,1765.7766,12082.0341796875
463,3902.4019,-3291.639,-7210.097,2539.2756,238.78323,-919.93933,10832.90234375
464,446.86707,-3726.3232,741.88837,1511.6963,-518.9956,-413.57965,5187.544921875
465,5316.439,-2953.177,1168.2001,1954.0712,-1463.9673,-668.15155,8397.2705078125
466,4165.863,-1783.6692,-2309.4182,-2007.3264,844.34186,1048.7244,7505.1708984375
467,3863.2793,-3611.8113,2231.3748,-1820.6727,-1429.9038,56.273556,7901.2265625
468,4718.1714,-4363.836,-6096.281,-3293.017,-3420.7578,-1215.6206,13163.8955078125
469,-2791.1155,4282.552,2160.6045,-1734.9672,-287.58112,352.14713,7012.84130859375
470,-4391.2686,3246.23,-2099.0,-639.53033,-459.4523,287.1324,6941.6357421875
471,-2199.6162,-1200.346,-6257.8374,487.41888,3175.7703,-467.47052,7290.255859375
472,343.54938,3211.7397,2257.859,1509.1493,-1368.016,-647.49176,4483.88525390625
473,1780.9971,-2256.3352,15948.092,557.74414,-500.36057,-2231.5051,17053.65234375
474,-1988.4968,-2594.034,-437.30273,-1270.5929,525.3431,843.62427,3393.88623046875
475,-446.2999,-2021.1914,2954.3215,2418.4475,-320.19608,775.1324,6249.5478515625
476,-5385.0713,-1867.5077,-1017.94507,4015.5688,-1589.1265,199.46873,8494.298828125
477,-1487.52,-1089.5519,-44.660316,2637.06,-1223.0145,1228.7145,5616.4736328125
478,-1349.171,-3644.824,-7754.6655,-1568.2825,-1491.2965,-2687.133,8204.1494140625
479,15482.9375,318.93518,6270.7188,2405.5364,52.885303,3066.7551,14856.0087890625
480,82.056694,-2133.9895,1517.2137,-1205.9377,-339.80676,571.8898,3980.119140625
481,-11547.019,2484.0515,-19344.094,-8405.976,2555.823,5574.4355,26303.375
482,-1936.724,-7621.1396,12.972107,-2850.8904,1030.4423,136.03526,8649.8818359375
483,-1911.2408,1391.083,95.28128,-202.8187,154.40797,454.34332,3019.8515625
484,1010.7811,2554.9648,878.703,1205.1093,-1.5063967,238.0131,2670.7158203125
485,2204.6638,-2940.2544,715.72473,-910.2675,-27.581247,-977.5481,5136.2919921875
486,2490.8152,-4748.636,-1470.8077,-739.6567,-580.0441,-515.4691,6547.6630859375
487,-384.82034,-4689.6084,-2806.542,3470.2446,85.78653,1260.9421,7408.828125
488,-4773.421,-1357.1373,2952.0925,3092.815,-494.36566,-214.97986,8633.0966796875
489,4925.0,641.84503,2002.0933,1024.2838,-546.0009,711.91614,4464.50830078125
490,-2037.7957,1.4652265,22.113907,1101.7399,928.3602,5.5769744,3229.2822265625
491,-3105.6228,-9856.363,-3800.065,3275.1938,-207.25569,-161.17957,8588.0283203125
492,-1458.7686,-806.78424,-500.92383,-1647.4016,-153.17235,-1786.8542,4302.1826171875
493,-1324.3335,-881.23364,-1337.3201,-2085.068,-439.78223,-1900.5747,4966.04150390625
494,-6258.1187,-793.24347,-1747.7573,1182.1895,608.39606,881.1116,5761.23974609375
495,-4685.1157,-569.573,1457.3936,2019.2338,1090.9755,135.9458,6726.5439453125
496,1428.7245,1593.1929,-1963.2665,1387.0125,1344.9891,1258.4797,5295.30322265625
497,-1316.2676,-4621.862,-238.04202,2106.415,442.04208,37.722622,5436.46240234375
498,800.69836,-4403.749,-1113.0088,2215.096,621.81354,386.55334,6092.3671875
499,-284.5749,-3930.3667,-798.95026,-2651.733,1409.5553,1179.327,6550.5048828125
500,-2114.1929,1970.2023,4004.466,-936.14294,-1070.091,262.37247,5949.80224609375
501,-3735.4587,-538.0159,102.985115,-1839.1868,-976.9018,1089.2917,5408.75146484375
502,756.46893,-3325.0232,570.42957,146.62778,261.60168,1091.5537,4447.2626953125
503,-79.11779,2139.6084,-1307.6035,-1832.4318,-1938.206,912.14594,5744.29931640625
504,1028.5562,-739.69745,675.5549,-250.2299,-288.99164,476.54526,1935.66906738281
505,-6544.284,-825.38416,-754.11816,3074.2354,-397.86325,-392.7531,7899.92919921875
506,-3455.0203,3022.8457,2108.5908,44.63622,844.34564,259.43973,6262.81494140625
507,510.06763,1048.7272,-4156.947,1276.4178,-706.4376,-171.45769,5572.98779296875
508,-2054.8706,889.91943,-1634.0884,1547.8623,450.84888,-480.87088,4012.58862304688
509,-1257.6621,-2588.3848,553.09534,-1179.4911,-285.86752,726.4501,3668.95458984375
510,2588.4404,-1439.3287,1419.951,-3821.6367,-646.274,-2590.453,8836.3427734375
511,1590.0681,-41.079803,5071.81,-8987.941,1757.9484,1086.1477,16601.8671875
512,1661.3593,-2467.4517,-514.7742,1112.7216,103.50806,608.4013,4201.76611328125
513,1259.7017,-792.2729,-50.23943,483.05267,616.8015,941.52997,2781.97192382813
514,2404.8062,-2745.9075,64.16727,-590.19745,358.9103,645.18866,4757.38720703125
515,-3017.6567,-995.3799,-1606.0529,2531.429,910.9797,-1495.5548,5625.982421875
516,-420.11053,1922.236,563.7885,445.02924,1062.5654,-507.10114,2983.74853515625
517,-745.2493,-155.69193,-464.56995,3082.699,603.7643,-41.157112,5465.22265625
518,-1752.1802,2854.6123,-286.26425,169.55215,83.51744,298.53174,4122.2333984375
519,-10093.681,-15809.077,-14228.96,-6012.1064,-5102.1177,-9018.892,21370.162109375
520,2715.9675,-5047.9165,1848.0912,-2165.5044,1257.9537,-236.20726,8560.1376953125
521,2334.184,-3000.0303,-529.4957,-1594.2594,-311.91226,-187.6901,5422.32080078125
522,1856.1432,449.80667,-2028.0033,927.84375,669.8825,-541.4133,4050.95703125
523,12437.487,-388.20422,12120.982,-385.22614,1385.818,-1381.232,13132.75390625
524,-6729.5137,5619.376,-15539.523,-10252.531,-1005.6001,-667.2446,25663.548828125
525,-432.0968,2827.3782,1395.8754,-2277.4165,-388.28973,461.05356,4965.6142578125
526,-3579.1545,-505.84177,-1534.3375,283.44434,780.7255,589.5328,3233.33129882813
527,-3188.0771,-278.86423,-2066.7742,-880.5645,-202.37808,-496.0254,3105.7861328125
528,1005.74896,3244.1184,4730.174,-4875.66,-1363.1151,-203.1886,9357.3125
529,-4604.1406,-4683.6035,2146.3333,229.24025,-789.9895,-629.22687,7023.48291015625
530,-5337.244,-3504.1821,-740.5599,-449.6824,193.84521,1115.6598,4529.578125
531,-4202.3955,-2897.4014,566.5734,2812.0073,284.22174,164.59457,6501.4130859375
532,-312.69058,-2372.252,1340.0133,1541.6381,426.46466,1410.0618,4900.76025390625
533,-2299.776,2035.9349,2557.9817,-873.2969,1156.8408,-1363.7491,5763.38330078125
534,-1556.6599,1404.4869,-1100.559,2816.3345,812.5729,1619.9808,6424.55419921875
535,-4460.853,-621.35925,-1720.2129,4261.451,319.97046,-129.32594,8158.8828125
536,2163.0203,-5314.7456,1541.3602,847.9214,-60.391014,-1127.4877,7591.86083984375
537,-184.58208,-4979.884,-1273.1731,1392.1315,215.91335,-1094.1356,5339.0234375
538,2201.1133,48.81479,487.78323,270.99026,355.23584,-535.2973,2310.58544921875
539,1499.399,8.042561,467.51062,-28.919928,-402.84006,-12.4347105,1496.60876464844
540,-2723.1477,-1622.8423,-523.71185,24.259674,276.53036,-247.07486,2010.58447265625
541,-108.36413,-2512.9304,-1111.3401,-667.1155,101.635765,-609.5364,2618.568359375
542,-1425.6521,386.38654,3642.869,-561.1088,-85.50548,-1277.1711,5064.48388671875
543,-1560.3636,-2059.1797,1319.7977,313.20706,48.55994,-151.2581,3217.27001953125
544,980.716,1519.3799,-28.721222,-1045.5106,-665.70605,1021.96265,3097.5576171875
545,-3311.3967,-3964.387,-2183.259,3335.1062,-1122.6246,-113.28694,6294.7529296875
546,-2202.7312,-615.0,1095.7778,2940.854,1219.9424,299.81613,6232.51318359375
547,2653.5947,380.46503,-2082.6116,-18.20836,-449.72162,-128.75085,4182.13232421875
548,-2594.765,573.78064,539.8256,-3470.1138,226.52953,48.01264,6798.46875
549,2877.689,-190.3501,-753.05756,291.8498,-191.18457,63.130074,3439.92016601563
550,540.45795,-1388.4159,-821.58215,-1096.5957,-232.0398,-782.9933,2925.20654296875
551,469.8559,-2213.2314,-727.3538,-1242.4178,-143.55765,-442.9405,3271.28002929688
552,4023.1724,2886.7617,3994.4707,2748.145,84.200584,1991.555,5986.375
553,1643.4977,700.68524,1266.4698,61.186844,-99.435265,153.5066,887.223327636719
554,2420.448,68.06218,-762.806,296.8832,31.912926,485.25003,3025.30346679688
555,-6215.985,-195.66145,-11651.262,374.3244,-913.45886,-140.71968,10074.3056640625
556,-517.7597,-61.229057,-23.750093,-2022.7684,324.31598,44.989777,3580.96728515625
557,-3699.9333,-4607.0186,-648.19727,-1690.0989,-848.9224,-1241.0305,5315.6240234375
558,-132.09782,-11.189644,2134.313,775.3654,1245.5194,2154.7979,5026.3505859375
559,-1578.7123,60.48537,1487.9935,-223.17236,-61.746944,-83.576904,2691.9375
560,-1455.6572,567.91736,763.0935,284.59247,348.773,524.19446,2441.34130859375
561,-1847.7708,-803.7879,-1085.5272,1465.1742,134.46318,235.37067,2745.1396484375
562,3198.8909,2429.0125,440.16873,991.4798,-553.36566,-625.32117,3334.69580078125
563,-1487.1506,-4318.32,549.8164,1846.3607,-740.76,193.33008,5469.662109375
564,-5189.577,-3726.9106,-1098.5303,848.92175,-171.81613,40.33313,3892.00048828125
565,-4076.219,-11195.016,3488.966,10.012287,2043.0562,623.12787,13245.818359375
566,191.5798,596.1215,3057.834,159.73143,622.586,939.0687,3332.33862304688
567,2164.3694,-1272.8678,645.31757,947.0741,349.56876,-140.15222,3466.57592773438
568,-518.77496,3380.887,-281.28424,462.99304,655.18414,107.51684,4037.7216796875
569,-41.21617,-413.96207,-267.46735,511.11874,393.1405,-372.10196,1329.87963867188
570,421.15567,-1104.1525,-966.6839,122.757614,-47.028965,93.27268,1487.85864257813
571,-633.5515,-2936.734,-1136.7389,-816.648,-234.39194,26.472149,2562.533203125
572,-591.5574,-1881.1644,39.841267,349.099,1808.1729,-2559.2725,5718.36572265625
573,357.04437,710.27704,764.58374,-412.61755,-741.50494,760.21606,2010.20874023438
574,2953.3052,3955.9092,438.12424,-1141.4854,-397.94495,-1.3093452,3773.21264648438
575,-1269.8129,-3475.6025,-1831.0237,-3008.794,-1585.3668,-1978.6938,7098.375
576,-1402.3646,2229.3208,-3986.6997,1519.8585,-1204.1498,268.5699,6383.544921875
577,1209.1902,-648.06006,5267.528,5481.9316,4411.7026,1246.8286,13441.1552734375
578,93.82719,1028.0275,-4965.3965,2845.7815,-1950.7952,-294.10315,8195.517578125
579,4760.5127,-2933.11,3870.7402,1992.1996,811.72876,-847.7446,8317.287109375
580,1035.9512,14254.692,-1458.1075,5843.7515,944.57385,-3493.2588,18858.87890625
581,1509.573,-2227.3872,149.36404,-3919.3735,-32.275845,1598.6763,8030.37255859375
582,7665.447,-4732.9067,107.651215,-1100.0535,504.96472,795.15955,11109.787109375
