Element Label,S11,S22,S33,S12,S13,S23,Mises
1,1856.3938,2011.2694,482.08133,240.05765,-322.15442,128.38148,1630.71997070313
2,689.528,1394.9567,-456.93433,271.44263,-50.033585,455.52576,1863.28137207031
3,912.2222,1375.9574,416.95935,423.43805,442.54477,179.25893,1382.69470214844
4,-1164.7325,1863.7163,-889.731,705.95435,-259.62628,162.34741,3192.28784179688
5,-497.1687,5038.2495,3441.758,-403.17914,646.1218,-6.8452477,5108.0927734375
6,1439.3953,1688.5372,-1016.32684,275.31775,-304.03162,-110.772934,2691.83642578125
7,2468.6665,907.61896,1263.1146,-32.45853,624.5128,-15.170372,1783.87231445313
8,-159.46445,175.65916,-1421.1313,1936.5038,-568.73706,-644.3117,3948.78002929688
9,2255.7498,2203.8306,1798.4022,1883.1113,363.0476,83.52256,3353.02563476563
10,-3685.119,1922.0823,-4388.1133,1802.1729,-376.25107,58.951977,6786.40869140625
11,2207.7085,1776.1715,-1280.7101,-42.094128,38.552948,-312.0327,3339.42724609375
12,2185.7034,2406.2808,1217.1449,-222.28432,-173.87267,-260.6909,1281.87646484375
13,2331.2798,1530.538,-1363.8636,585.659,-294.9818,59.7614,3554.87890625
14,1807.41,-795.1551,636.5968,3103.187,817.905,-326.36743,6026.009765625
15,-4037.6023,234.51674,3623.601,1424.8823,-857.3662,358.85062,7273.09326171875
16,4365.949,180.73103,3112.3933,-113.736404,982.86005,-2174.5266,5564.494140625
17,2038.4021,2119.189,345.60205,903.66974,273.77026,-1212.6714,3177.306640625
18,1426.2772,3987.2454,-1580.9193,-1476.9988,42.574398,-845.1016,5656.4765625
19,-11264.923,-7820.5503,3859.422,-320.44675,732.37317,3907.2725,15369.8779296875
20,-7560.1914,2250.0122,-14036.45,-3551.0586,-1149.3362,-948.4051,15690.9794921875
21,160.10515,1072.8552,980.464,745.27966,-1000.4736,410.8967,2435.77392578125
22,1104.4802,303.6629,-123.14423,1437.7042,-3973.8953,-120.19279,7401.69677734375
23,-651.23376,1208.1771,3173.4075,1184.6146,-1695.7506,668.9309,5015.2529296875
24,-376.07907,680.6175,-5504.306,-482.53104,-867.14374,1249.2432,6361.638671875
25,1576.3312,2241.9731,6420.2295,279.15875,490.30914,-1682.1956,5488.7587890625
26,716.8529,394.4177,-6447.126,1252.3157,125.275505,-540.5267,7398.99365234375
27,1218.433,5399.6343,15519.242,1900.4542,-116.91916,1259.3796,13335.4912109375
28,-2149.9165,2772.6067,-613.9547,322.29758,-65.276436,321.66315,4434.4580078125
29,110.35263,-917.5176,-8056.9297,-447.3605,568.81805,504.25745,7854.93408203125
30,383.4187,1462.7067,-2991.5935,-268.42935,-1582.643,1317.1226,5397.50439453125
31,1606.0007,890.8729,4961.4688,-888.08295,-1504.1187,304.71964,4858.18017578125
32,-216.5871,796.34357,1012.90717,1099.6436,-549.8783,-474.17676,2549.8173828125
33,-653.44055,1522.1704,573.7815,-217.51741,-1169.3887,-335.624,2855.11499023438
34,201.82365,-435.27438,-2923.0913,416.6553,218.77565,513.8477,3104.291015625
35,128.58482,976.69794,518.9536,-178.88249,-298.32202,-884.873,1803.49450683594
36,-204.76059,542.595,-609.4865,671.05804,343.89508,-316.2271,1740.85168457031
37,-78.53513,1102.1643,-124.91088,-1053.3757,-1829.5531,-300.64594,3884.9345703125
38,-1140.5529,1722.0857,378.31967,-453.4979,-387.78397,257.68436,2724.15209960938
39,1548.8429,756.4137,-709.6202,-363.7942,-109.37113,-1453.5955,3272.71630859375
40,2315.6406,973.55273,51.642574,-1205.4528,832.1014,-938.78516,3601.23364257813
41,1702.7024,399.5091,17.172724,-183.09383,422.1791,688.14923,2097.30200195313
42,2447.924,-271.95737,1075.7292,487.6322,1887.3124,1617.1241,4979.2509765625
43,-2036.0178,-16213.224,469.81345,-7108.7676,7188.987,9493.894,28632.99609375
44,-13019.572,-10088.565,2710.7144,-2178.3625,1602.3376,-8733.173,21463.232421875
45,-10909.743,-2451.581,-12754.754,-6216.6113,-3950.0415,-1412.2268,16102.185546875
46,-3254.0203,-1474.3724,-3591.4268,-1109.1586,1819.3337,793.427,4403.482421875
47,-2319.0308,3589.4065,-611.79346,4022.0098,754.52924,-738.38043,8922.4677734375
48,-351.01712,1015.03436,1161.153,-2052.8853,-1052.6809,918.3475,4537.021484375
49,4137.03,3560.6528,8964.563,-4172.755,-723.14294,-1247.5394,9213.755859375
50,-511.9052,-1595.9141,-12092.648,2730.1738,-691.9766,370.3481,12122.0703125
51,6726.7266,4948.393,15186.598,-3648.988,-1080.3452,2326.0535,12225.16796875
52,-3685.2393,2261.05,-7397.7104,-5382.9834,-918.2314,1919.5167,13104.53515625
53,-155.8658,4493.1836,2505.799,-700.0364,409.5075,1149.0933,4717.88037109375
54,345.96844,2661.4604,3115.3032,-1097.471,-2974.9717,1176.0308,6397.82666015625
55,-2298.9963,1978.2715,-3914.2034,192.26686,-49.559986,1521.9802,5905.93994140625
56,568.11646,4152.029,4517.5454,-646.67633,-1249.636,175.99065,4507.80078125
57,498.21133,2743.8123,-1389.5205,0.6467327,1635.1296,-52.23319,4568.85986328125
58,-1487.2024,1512.1644,-3433.9436,1278.0096,-848.3415,809.9969,5258.54150390625
59,1704.5616,2080.0698,-746.1245,2531.2793,320.76965,-438.43216,5212.92578125
60,2783.614,2877.1538,1958.1237,1377.6986,1088.7599,-1280.5348,3864.849609375
61,3171.8708,2330.216,-3619.2585,1020.3485,91.40845,705.8557,6764.25439453125
62,1606.7046,3005.3015,-256.25644,-362.90152,-2075.5457,-1041.0165,4960.05419921875
63,2579.0303,2031.1201,-103.83591,-463.97363,356.62512,759.7624,2964.30126953125
64,1351.5205,1098.4692,-1518.9183,175.9528,43.011623,-2053.0835,4507.87890625
65,1841.1301,2670.5981,1130.2207,-675.4516,-271.19934,9.027299,1836.48645019531
66,3004.8293,1410.3572,-1554.0631,-1160.3163,30.155022,-81.228355,4485.34716796875
67,2906.2607,3083.5989,2464.7786,-1117.839,-81.79334,111.279785,2027.45141601563
68,3376.2756,1107.3982,-1977.3802,-471.77493,134.63858,-1471.3365,5373.94091796875
69,1683.0012,1240.8495,-996.2005,-1815.8984,-1594.5532,1642.2018,5639.12646484375
70,3434.1301,1956.9478,442.22153,-673.2007,-800.08325,774.9361,3434.46704101563
71,4319.6323,-5110.7217,-15894.114,4754.2124,3310.6743,-2247.2917,20560.75390625
72,10062.789,6162.242,-7158.0654,4205.462,71.940315,-4931.0435,19251.498046875
73,2023.9924,8550.429,18537.947,-2499.207,-2426.354,3524.1084,16768.587890625
74,-7334.865,6319.4824,-7200.6313,5949.7534,3252.3286,12057.01,27544.0078125
75,5623.649,-3331.5737,2750.263,-1101.9133,-4.682313,768.0197,8254.2607421875
76,2382.6548,-9366.738,136.7541,-3922.0112,305.1708,874.70447,12861.7861328125
77,-1513.2888,1712.8927,-17572.125,7138.4165,-1520.5632,-4913.656,23501.96875
78,-8825.379,3797.0432,23347.172,-2982.8232,-4603.6797,-4695.5913,30736.33203125
79,-12717.283,2516.005,23898.08,2497.792,2946.7678,-6483.093,34435.80078125
80,-15293.706,-12767.607,-15431.327,-2799.5813,3919.4124,-9475.832,18593.5546875
81,-911.82294,773.7084,23.813349,874.29364,1229.5123,1510.2789,3976.23999023438
82,380.95657,2885.16,-942.3975,-301.21063,508.5847,622.6499,3680.69091796875
83,1621.4224,3415.106,2549.1519,315.15753,9.366991,425.8844,1804.52160644531
84,2112.6785,2142.979,2368.9695,-137.22432,868.1021,703.0055,1964.37854003906
85,4110.796,463.66187,3086.4414,-97.936104,1961.8528,-613.742,4829.11376953125
86,2440.9543,606.0456,-607.6817,-176.8387,699.02124,-328.3318,2991.69091796875
87,2068.4817,767.9602,1039.4642,1108.2256,-1398.1763,215.44829,3331.72802734375
88,1612.0731,2258.5898,1026.7867,279.11505,-920.6171,-1176.5807,2840.47387695313
89,2078.0896,-76.81028,882.5496,58.94523,111.73143,-1899.456,3790.55615234375
90,482.0548,870.8369,-6412.6943,-216.11668,1817.1321,56.617764,7773.3466796875
91,1782.5071,2347.085,164.99731,362.8005,-177.62157,47.71818,2084.38208007813
92,2093.334,2411.28,206.37451,602.5935,-966.2842,1879.0245,4329.47216796875
93,1844.6707,3595.2798,-908.67584,2098.1245,70.79651,-212.11163,5368.60986328125
94,3307.4656,3838.3142,607.9368,1055.7456,-394.47302,-44.83504,3580.35620117188
95,277.67752,578.43,-228.10892,317.88068,62.35109,-299.4523,1040.29370117188
96,155.40388,618.77423,-663.71313,562.54156,570.93524,-879.6982,2348.20922851563
97,-145.5767,1250.4678,-163.0873,-210.57938,473.22485,998.8106,2402.37719726563
98,-925.5941,2146.6792,129.2625,-1787.4027,-937.4318,-645.5356,4558.693359375
99,5359.4355,1926.5099,3627.5647,707.62244,201.926,868.1025,3567.11181640625
100,-730.5142,2378.8672,-718.1391,1476.669,605.1101,-1626.4904,5020.6044921875
101,-10647.862,-3222.9182,-14158.371,6222.2944,3694.196,-11179.155,25010.625
102,-4709.385,3322.5366,-12232.566,-1133.5013,386.28278,538.50165,13664.1025390625
103,1894.4261,3069.9172,5186.053,383.56085,-1704.1941,523.6491,4280.66845703125
104,715.6912,1669.9312,2069.553,701.5927,-1427.1029,531.3036,3144.04565429688
105,-1600.4573,1345.3438,426.44275,403.19376,-992.09076,402.79016,3277.5556640625
106,1523.916,996.3606,761.6051,-296.4016,-806.0868,-814.2767,2158.54125976563
107,396.20895,1512.4476,-643.50635,-1180.8994,-273.74872,-161.00916,2823.7783203125
108,141.70627,274.48627,2081.9768,1116.4226,-207.78914,-2062.7295,4489.75927734375
109,489.52115,1937.3606,338.46265,-685.81573,-1586.0809,-1493.6705,4241.33349609375
110,660.1588,870.6594,-158.22348,256.63867,-818.83356,248.76704,1811.36437988281
111,99.12945,1735.816,81.08454,-1545.6313,-2001.5641,-921.372,4943.79296875
112,598.71545,2245.4373,-269.11765,742.079,744.9702,-2176.3408,4735.0048828125
113,2079.9067,1760.7556,38.432613,-104.18079,5.573451,-571.8439,2152.11645507813
114,2551.0063,2412.7324,-2207.1272,2021.1985,-1415.6498,-2758.3694,7943.220703125
115,2820.5117,3377.843,486.32202,2035.8259,-859.5032,-1296.1702,5172.0546875
116,2388.5632,1231.5474,-823.551,-729.7291,-1555.1969,1349.3408,4717.57177734375
117,1739.253,1385.2927,2118.8853,-2055.4817,294.75574,-1105.6967,4123.97119140625
118,4516.0747,2585.0767,1307.5836,-2269.09,-469.19543,-1523.0826,5558.20703125
119,12627.684,2411.9656,14513.363,2110.335,1364.6743,1186.1392,12261.6708984375
120,5162.395,1653.5774,7113.326,-1581.2418,-5000.499,-952.10223,10401.8671875
121,2036.6465,5553.239,31078.273,4276.0464,4708.1597,-5949.548,31324.119140625
122,-9460.189,4376.0215,29077.09,-2915.7358,1234.4938,3783.875,34876.671875
123,4664.507,-2402.0298,9949.043,-6177.3047,6616.1953,2503.0022,19488.4609375
124,-10661.161,-10835.519,6131.596,-78.27315,-3524.7937,-409.3672,17965.20703125
125,-37.092987,314.42334,-1301.244,872.7421,-874.1879,10.896466,2596.9248046875
126,-0.5472823,924.2933,1084.6759,246.7505,1957.5504,652.29395,3739.58715820313
127,2373.1719,2036.8287,915.7179,-1251.6604,-892.0799,706.6022,3214.39501953125
128,677.38727,1585.4061,1124.94,981.15375,-624.034,764.82294,2535.65014648438
129,-5171.9385,-8584.979,5054.973,5559.271,-7011.8677,19131.174,38592.28125
130,-9524.8,1189.113,-11768.517,1397.3024,2471.38,1219.7859,13134.1279296875
131,-1610.3108,1716.69,-8044.689,-463.54202,1913.8683,2698.4583,10361.2578125
132,-2243.1157,2141.577,-5133.9243,402.4874,-92.436,-811.3648,6537.90283203125
133,3081.1199,3347.7512,7159.6094,-76.06722,755.47577,-231.32048,4184.236328125
134,577.50305,-45.4527,-7388.131,581.0945,-2332.4177,-1204.7174,8975.78515625
135,1503.1896,1592.7887,135.34097,-307.44,-995.9327,238.84607,2330.65283203125
136,2072.7258,1139.8479,-2777.7214,-59.557747,889.44934,-791.2125,4912.6650390625
137,2951.6248,962.146,464.74628,-32.729755,1274.1775,-1028.1248,3638.669921875
138,1670.3484,1272.2181,-122.302086,479.01923,15.536175,-2635.0977,4917.185546875
139,-5366.7114,4363.269,3046.9248,3083.493,-1418.1284,-623.6847,10923.427734375
140,1427.878,1719.0497,-221.50836,445.74722,1023.71924,-435.37003,2755.76245117188
141,-6651.327,-7344.869,-2512.0325,-486.6646,9104.065,-9662.603,23450.921875
142,922.3633,-5955.894,-1079.6549,2312.1897,948.99786,-2362.6934,8546.08203125
143,1640.6855,-6209.5234,-3623.9387,2406.1133,-977.7475,5340.829,12402.544921875
144,4713.5547,2683.3289,365.75806,-380.65372,-146.9443,-587.7813,3966.61987304688
145,2458.341,2384.6008,-56.04369,-1117.889,-942.7705,126.4964,3550.44189453125
146,4093.8608,3921.4487,2487.225,-3191.387,362.46158,-1401.1205,6258.7861328125
147,3492.8174,2047.9839,-2164.6165,-1703.4911,-62.079494,-427.6902,5931.77978515625
148,1691.9541,2571.8809,601.1581,260.309,-2196.7107,-643.94507,4341.40771484375
149,1769.0946,1824.2183,1887.6694,509.9201,-310.60013,-325.89792,1182.65100097656
150,3744.503,2884.7832,302.1675,1701.3265,-68.51757,667.6647,4434.4443359375
151,1956.337,2276.0725,729.96783,743.47943,1460.7765,-964.41266,3584.47900390625
152,-954.395,-387.1519,6180.706,1572.1029,-2696.315,1803.1298,9282.3916015625
153,9440.1045,3004.9521,13799.909,534.8654,3304.449,-1825.8351,11493.150390625
154,-2211.5933,1563.9343,-5924.595,95.0571,15.053291,2189.7898,7514.84228515625
155,3706.0474,2081.5938,5271.641,-1391.9434,1348.7572,-798.87054,4562.642578125
156,1196.4817,5217.9585,5755.756,63.36534,-1008.8025,396.18677,4707.46484375
157,-161.46594,1429.5424,5176.376,618.4784,-535.0654,-1214.0266,5381.38720703125
158,611.7672,417.73712,-663.472,311.0969,-580.6104,1634.7346,3276.45971679688
159,96.44969,639.7696,-6.9653573,354.8233,1518.234,-490.74405,2894.36865234375
160,-508.54526,2421.2944,897.2138,-349.15115,-742.84534,-1146.934,3522.64379882813
161,1177.6445,1190.4717,-333.60532,-1372.077,124.682945,-511.52408,2963.58227539063
162,3057.321,806.5649,3339.8008,697.1008,-24.09369,-690.66144,2944.84643554688
163,2920.2764,426.45822,6671.1147,-76.05756,475.96674,203.3241,5519.314453125
164,1817.902,1289.7368,25.946476,155.43713,-196.61218,1110.1815,2535.66064453125
165,955.9746,3200.5337,1270.7509,-154.57059,-229.53394,737.89453,2508.74365234375
166,1537.012,3247.291,-3374.614,-633.1929,279.22458,-325.3158,6099.47265625
167,-3842.285,1311.9148,-16898.66,-1556.7683,-171.50233,-4294.61,18083.6875
168,-2425.8376,3920.4397,-2497.94,-2953.4731,116.421165,-2518.855,9272.6259765625
169,6247.5044,3654.2122,6036.529,856.0157,-2549.0776,-629.6811,5394.787109375
170,-34.227825,2412.0137,-353.564,-252.24095,662.7496,752.2155,3173.84912109375
171,531.1121,1901.0002,53.051098,-228.39023,695.9279,366.51422,2184.59545898438
172,769.28125,2485.284,1308.8809,-535.59033,570.8754,-1474.5785,3266.69409179688
173,-312.79135,7076.301,4988.398,4025.3286,-52.12278,-1453.3635,9923.9638671875
174,1721.7405,2613.0005,92.349266,34.61041,298.68814,57.578075,2276.54443359375
175,2143.2004,1178.6051,-1160.9478,-280.11804,137.67938,-835.141,3323.44995117188
176,-330.2972,6363.404,7639.9966,-1694.6532,2317.7927,-277.9805,8941.158203125
177,-3219.527,-1042.4512,-1294.2543,1406.1178,-1069.1241,-1368.6597,4385.7880859375
178,1947.137,2339.1475,7343.525,-6156.6543,-3959.3997,-126.86938,13709.53125
179,-2327.21,1233.0142,-3042.5925,-379.4909,1293.953,-262.96613,4625.6162109375
180,2872.535,1002.8465,3559.4316,920.9821,-1124.4655,163.68456,3416.15502929688
181,760.4777,690.2208,-3949.3325,509.09375,-3045.7158,757.9328,7224.01708984375
182,-2068.4626,3109.0496,-5825.683,1293.2596,-806.6337,1188.7297,8460.8017578125
183,3909.047,4192.7637,2585.463,1214.9967,-864.01514,2049.1145,4633.86669921875
184,1924.4185,1321.3245,622.8158,-1403.8818,1157.4293,-1900.0125,4694.10546875
185,3808.672,2500.418,583.76245,-1374.7139,-607.8153,1864.4158,5009.84423828125
186,5452.923,2051.4143,88.77465,-3030.0637,180.16835,-1639.5404,7602.87255859375
187,-7183.3247,824.3873,1315.9277,-725.1379,3027.208,1215.1713,10089.625
188,-2044.4117,-2918.73,367.58157,109.61108,1112.4408,534.24817,3646.35083007813
189,2551.8362,28.980873,932.8969,2013.1506,-303.78815,-131.00961,4169.9033203125
190,799.2222,-490.37253,-636.17596,609.1444,-1211.0477,-180.78494,2735.59326171875
191,-6505.0923,-7261.0854,-655.9498,-4063.214,-11302.302,7794.3804,25577.689453125
192,2616.3994,-1325.2863,-3909.2632,579.7812,-519.25055,708.1269,5976.677734375
193,376.83884,-3920.6663,-2355.4094,-2204.9,-1398.8853,-1775.9716,6641.49755859375
194,1691.9938,-916.0622,-1538.734,-1139.5087,953.3655,-494.86572,4021.25268554688
195,242.1878,-2693.6235,-5824.7417,1502.1902,-1024.2521,-2381.1423,7385.240234375
196,-746.2852,-3030.4165,-3311.244,580.9641,-901.969,-1412.0648,3920.78442382813
197,686.08514,-1753.2422,972.4762,892.9937,-1290.129,-672.8948,3933.81640625
198,1023.8826,-1009.28455,-338.08502,-372.91165,-1317.2358,806.3869,3285.25756835938
199,1491.2334,-369.1103,-1933.375,-69.45435,-1730.1981,173.80792,4231.27978515625
200,412.3328,-2053.8691,1280.8765,-164.78548,-856.30457,-244.50807,3382.17578125
201,1826.5624,-1304.0292,1356.0409,536.405,-1410.0306,-412.93506,3986.01049804688
202,334.36728,-1883.4635,-207.87268,223.7191,1812.0659,1888.5222,4970.98046875
203,-12.11653,-2675.8086,-1522.9674,131.86151,-758.1528,50.544075,2671.64697265625
204,175.44885,-1430.8845,-1153.8881,-426.47064,875.4583,-511.44705,2416.9677734375
205,284.98892,-2203.1604,1182.124,123.26572,-842.48566,409.2308,3450.40356445313
206,-352.49966,-1863.6633,-1075.1042,-711.80096,374.27438,-72.39609,1915.65881347656
207,487.12518,-1539.809,647.3256,-298.26776,-177.64508,-83.709984,2200.32446289063
208,1144.9039,-1221.744,-494.7195,-1395.2372,-346.75717,1822.424,4535.7958984375
209,1418.6514,-623.0195,855.32996,-1083.9476,-634.4255,2458.586,5118.77734375
210,687.9563,-1938.6167,-580.8863,-1532.8624,268.19287,1972.3237,4910.30615234375
211,2110.2092,-168.12755,-832.22003,-1286.8037,582.5344,1162.3851,4145.34814453125
212,1285.517,-1985.402,1008.7505,-1849.342,135.20575,555.5302,4594.68310546875
213,1769.3344,-1556.0729,1097.4462,-1449.1733,674.54663,-241.08612,4137.0498046875
214,2201.5073,-2684.858,994.6466,-2790.9033,-1088.9788,1996.6332,7636.79248046875
215,-1443.6307,-1537.6895,406.4895,-2367.1064,190.49284,-538.02734,4625.22119140625
216,1509.5299,3224.5378,-1416.3094,-621.10126,1129.9735,-1159.7596,5053.96630859375
217,-1989.3794,4758.957,1003.61237,1127.1296,1896.3464,-297.79288,7011.8486328125
218,-665.8352,2185.0273,-88.38134,-423.6849,300.0549,-1592.5579,3902.81640625
219,-893.3726,3912.0063,1050.6202,-1329.5133,166.3023,-399.5257,4836.7138671875
220,-1505.8617,2079.7322,3.012874,-841.09076,-22.554653,784.6642,3700.5263671875
221,1638.0039,1498.0865,-1083.3248,-738.5166,2085.68,-717.93396,4824.638671875
222,453.4679,2344.8582,-3051.25,-195.14218,810.5164,-1123.7635,5325.671875
223,303.59686,1454.0656,-268.49017,-1012.3906,867.5738,-245.99547,2797.03930664063
224,-36.03478,2524.184,1204.8113,-1320.6072,735.2573,-639.5432,3605.33618164063
225,888.3622,533.5882,-1040.9503,-1040.9602,-455.97888,32.138466,2653.5419921875
226,1163.0903,1445.5232,-739.20575,-44.369137,-367.71832,-1146.5975,2931.10620117188
227,1211.0964,2555.7908,-2449.046,-855.8497,-1224.892,326.876,5210.15185546875
228,526.71356,1185.4795,887.2851,-538.8619,1714.1289,703.58374,3390.77758789063
229,2987.1272,133.34851,5712.496,200.67618,28.4981,-840.01196,5058.59619140625
230,1155.3264,2525.6455,2271.173,-438.66626,174.4158,1738.6846,3366.22045898438
231,821.7057,2190.5784,940.302,243.79164,-730.8162,-703.589,2234.10546875
232,1550.8074,1064.0316,-1576.4277,-65.64283,1528.242,76.35492,3940.97387695313
233,1068.6049,1983.2157,-1232.8373,992.7123,-48.501545,214.00377,3367.33666992188
234,1163.9067,-174.69249,-2052.746,957.9685,-439.20648,237.16351,3366.51928710938
235,1919.2184,-1366.8513,-1961.877,1484.5055,-2523.872,335.8679,6258.36083984375
236,2368.591,1895.3726,2068.187,531.7678,446.89993,-1511.8369,2911.4365234375
237,2995.4136,-471.93787,170.38556,608.33997,-1304.6261,361.2523,4100.71142578125
238,832.75854,582.23047,-115.96726,1613.6486,-1346.3597,332.97318,3782.51416015625
239,1764.5671,1347.4829,1089.9456,-234.54266,953.0523,-1927.3821,3792.36889648438
240,3353.5168,68.378174,-1580.5164,-393.85178,-1423.4199,-479.05762,5114.6904296875
241,2745.2236,658.1154,3237.6616,-1157.1556,443.5458,-482.4458,3306.32348632813
242,1847.9254,2107.8813,-771.8334,-857.89435,-1612.9658,148.46297,4206.04150390625
243,4719.471,980.2648,-292.44797,-1991.3198,451.18863,76.71068,5734.52978515625
244,2314.9724,1148.9989,-405.2878,-1972.4143,280.68158,221.04654,4200.20751953125
245,3224.7725,2977.8345,1542.1239,-2196.5469,1093.0953,-1254.698,5025.79345703125
246,4164.1226,1290.941,5496.4727,2005.3198,-788.8782,-949.0538,5521.90478515625
247,3691.8767,777.14954,-110.76695,-1384.0524,640.5969,-732.438,4523.2021484375
248,6875.1045,-826.284,-1701.6891,-3236.1323,-566.92804,640.2791,10021.5419921875
249,1938.0892,-4214.7837,-17405.828,874.324,366.63174,-1783.7063,17471.85546875
250,5137.0894,-3418.9138,-5860.447,-2603.7883,3557.3386,-2728.1516,13442.0087890625
251,5441.4937,-2510.8623,10029.075,-2613.6055,73.097916,-107.798416,11887.45703125
252,3054.7354,-18273.527,-11978.322,327.65555,1197.897,1761.4985,19344.099609375
253,-9456.439,-7993.18,5880.191,7532.407,-1065.9126,466.7062,19727.78125
254,-28628.912,-33921.0,-45676.062,-1368.2885,-9309.306,-988.9647,22292.080078125
255,-18185.607,-16252.303,20328.873,-3704.1765,-385.0651,4203.5054,38823.4296875
256,-7172.9966,-6353.937,-32303.195,-5379.8315,1748.5863,8069.519,30726.7421875
257,-12027.377,-10645.652,-20493.932,7536.972,2094.7603,-2123.6045,16804.794921875
258,-12522.066,2648.0486,9978.424,-8388.566,4300.398,-12018.124,33090.17578125
259,-9832.343,8449.925,-10319.034,4032.491,8321.029,-17844.508,39435.4765625
260,-9352.363,-12472.06,-16693.65,-4756.3647,7136.9375,-1987.0726,16530.16796875
261,-7859.1113,-2901.2515,18632.611,-1237.3888,1672.4327,-505.66122,24673.89453125
262,-7997.9062,-4436.199,-4378.3975,-510.81802,-3173.1936,5756.317,11970.4130859375
263,-8251.214,6154.9326,-12784.231,2093.7368,-103.285904,3856.2651,18739.908203125
264,-1804.9957,4345.4785,1573.2129,-1547.0851,3294.8457,3986.473,10765.1005859375
265,168.81955,6070.5747,11204.287,-1851.4218,-3257.0562,-1536.2916,11860.5537109375
266,-709.31537,649.5432,-5519.8276,-1176.9761,-672.4648,739.2338,6219.01708984375
267,-1437.4305,1290.9539,1718.6165,-1230.6066,839.883,-2632.367,6020.0712890625
268,1702.6515,567.01117,-1093.1158,-814.4486,1020.17914,476.162,3423.9560546875
269,-779.303,3041.3296,4486.2637,-1324.2843,935.7649,474.98196,5547.1259765625
270,-2372.3306,988.4533,-1289.0461,-989.52936,906.1761,-850.91895,4049.79614257813
271,-2232.5037,2424.9167,2239.8923,-350.7171,-594.47003,-403.01624,4772.89453125
272,-2258.9531,1727.6353,2998.3904,-986.7226,-330.81564,78.36028,5083.4326171875
273,-3297.5576,1857.6705,-1102.1189,-1037.028,-342.94867,-650.97144,4992.87060546875
274,-1865.8608,279.29654,1286.2008,-532.99774,-934.56525,-216.5741,3374.7197265625
275,-1850.4508,1269.1993,2834.192,291.39453,433.91443,79.365204,4231.08984375
276,-1428.3066,1364.5006,679.15356,1034.913,-1486.556,290.36722,4055.98950195313
277,-2467.6433,-836.815,-2565.7905,619.06683,-1015.45605,-1158.959,3331.97192382813
278,1513.431,-3533.835,-6061.2007,681.6009,1247.3978,-15.513662,7119.07470703125
279,-80.84957,-2577.224,-180.61012,-724.7815,161.48187,756.0186,3059.68041992188
280,-2967.2598,1023.16455,-1428.4857,-1263.8589,-1326.4043,-976.087,5007.9189453125
281,-2113.0198,333.0286,-1803.8367,349.26877,-581.97815,194.49849,2611.13403320313
282,2116.722,478.12384,1198.1761,820.2247,-1309.6866,410.23108,3113.29638671875
283,828.4164,-254.56557,-3241.6929,585.725,-1239.1691,127.56851,4360.67041015625
284,5350.5796,226.93445,-689.26935,-4408.4707,689.74274,-683.3271,9639.365234375
285,874.8616,1253.4475,170.36221,-854.2401,153.96709,-204.0018,1814.2509765625
286,760.7721,1044.8246,-583.956,-424.25314,-229.65376,704.441,2111.3642578125
287,1069.7334,53.127644,3779.8325,195.4893,158.12415,-383.2028,3429.78393554688
288,-4741.6987,-3888.8972,-14371.116,-932.1742,628.36084,693.4281,10339.1884765625
289,695.0048,-1787.4734,1021.7653,-718.7352,-249.06978,718.78674,3219.6982421875
290,-501.14893,-715.94214,-740.885,1336.4747,913.635,-175.33275,2829.66821289063
291,843.32745,-2342.228,461.4626,312.66766,-598.6392,57.155067,3233.46923828125
292,-193.0883,-1479.9828,-1312.4974,410.0954,194.36143,3155.8616,5653.748046875
293,1186.1105,-1158.0825,-9.604874,-179.18988,-495.64218,1381.6947,3268.41552734375
294,361.6349,-2324.4016,28.685423,310.44528,388.60394,-116.65065,2685.94921875
295,3045.8262,1548.5138,215.24908,-938.60175,-325.7378,1446.084,3905.19702148438
296,1406.2106,839.06323,-1838.7001,587.5106,-1087.821,726.2785,3895.994140625
297,244.11191,993.52625,-8480.644,-751.3446,4060.679,1892.8887,12047.0498046875
298,1125.0303,3244.5508,8669.226,-542.98413,-374.9009,1636.6271,7399.93017578125
299,-4238.579,2903.2454,1284.2152,-2188.1726,1113.2697,-3326.026,9660.943359375
300,-1104.7449,2234.708,-7.7480187,-314.5,349.4777,-1901.5355,4494.73291015625
301,1145.5469,3383.023,-1355.9811,298.45944,390.30637,843.30884,4440.5869140625
302,896.11273,780.4553,158.68364,-247.13008,-846.1193,-372.7562,1794.35339355469
303,1246.3011,69.57467,199.84778,1564.0048,602.84467,-470.31772,3215.67333984375
304,329.94452,1861.9271,2916.776,-2352.1748,-2435.3887,-1956.9419,7138.35302734375
305,-2314.2947,1946.3289,2430.5125,-1220.9598,-128.61507,261.80597,5017.74365234375
306,-551.25287,1130.9658,2481.5425,-960.26465,-321.10748,-84.433075,3165.90014648438
307,-3096.7107,2555.224,-2689.4536,246.5123,-887.3783,-15.108419,5688.03515625
308,-1093.855,1881.0498,1676.037,457.76538,-1545.3511,2280.5715,5628.33837890625
309,-10251.459,294.65585,4564.989,6608.477,-9427.017,-1015.6798,23983.501953125
310,2902.0425,1886.1115,-17.775427,332.19458,2122.3516,-745.6847,4701.4296875
311,-8941.1455,2677.813,-4226.8896,-1642.6072,1210.9838,-5871.469,14777.212890625
312,-12201.839,1350.7391,-181.15475,-3399.4268,2400.4128,-6907.204,18982.638671875
313,-409.2482,2234.7363,5938.2153,-278.34396,1369.6561,1435.748,6522.48193359375
314,-3270.1807,3009.4375,10890.632,6238.788,341.07715,8547.8545,22076.041015625
315,-1551.2452,994.6743,1621.1798,1322.0759,1120.5262,-1391.3922,4825.71826171875
316,-514.9263,-694.3608,874.1982,1062.9592,-1414.4779,-752.4268,3647.11499023438
317,596.87946,-612.823,1983.5992,1085.4177,-1364.592,-406.6765,3831.55004882813
318,4264.879,-1985.3557,11010.909,923.302,-665.68036,1.666225,11429.150390625
319,1136.9038,-2439.5784,-88.867004,1206.3694,48.875797,-444.60907,3856.93798828125
320,-483.8803,-1176.9066,-2284.736,585.2292,-113.20039,278.28622,1942.57019042969
321,-276.83707,-2274.7317,-452.2118,-102.20899,-546.28064,-711.05176,2472.92358398438
322,934.95825,-1165.1033,-539.925,83.49416,2373.948,-304.67682,4549.11865234375
323,2339.7866,-2386.4573,-1099.865,-593.32544,1352.7438,-1561.0668,5636.36328125
324,132.70543,-2354.0835,-981.1709,-564.25964,1014.8458,329.81418,3004.34692382813
325,-4226.6313,-8078.649,-579.4036,1815.7238,1954.9967,-984.6162,8151.962890625
326,-5922.4116,2434.1,-2762.9463,-132.02608,44.83541,-4189.688,10301.9501953125
327,-1982.3303,1262.941,-2005.1018,139.15935,2036.5529,433.16672,4865.166015625
328,-616.45135,2863.6936,-625.6104,-698.3143,-58.1453,765.6172,3921.09033203125
329,1763.0552,-521.7704,-5140.2603,-846.9114,886.07434,857.2589,6619.3017578125
330,550.11945,-17.008434,-551.8543,-193.49126,253.79842,-417.90283,1319.28234863281
331,3609.0166,139.91107,3396.1057,-975.1826,58.684505,-1262.3231,4357.185546875
332,1895.2596,1211.0447,-654.428,-2009.1587,709.47687,-439.27466,4407.2255859375
333,1517.492,-1027.3523,1103.9244,-331.11502,863.5196,801.11334,3175.85620117188
334,7802.6255,1002.46844,-5705.6797,-2066.303,757.68286,-268.3667,12312.7978515625
335,-13867.125,-8681.771,25322.148,-3080.4287,407.58807,-4395.06,38031.45703125
336,-6324.0703,925.5991,15519.742,-4036.4778,-1208.7415,1957.5582,20883.203125
337,-6694.343,-317.2837,4232.6655,2589.4043,-1113.4596,125.32645,10689.515625
338,-2940.4749,4563.982,-8913.38,1526.6661,2746.2686,927.0933,13000.4794921875
339,-1603.7164,1507.5763,3076.9639,-2360.822,-63.37057,-1143.6816,6138.603515625
340,-713.5206,733.38464,1541.0548,508.3707,1751.9822,271.33307,3757.52587890625
341,2600.7205,-383.8096,-1950.6534,93.00046,-174.17497,-2032.0725,5342.62353515625
342,185.1875,292.16797,-3230.8013,-546.671,-88.97672,617.53876,3756.3583984375
343,2515.6685,1844.8467,2207.829,2118.968,295.26315,324.53094,3792.8671875
344,759.942,1033.6859,-833.3017,1264.032,-578.4385,62.30514,2976.28149414063
345,1270.847,2508.4648,1063.6561,53.68409,235.20662,-27.44541,1417.01135253906
346,512.17773,-2651.484,-877.2676,-1367.8903,583.9906,596.8685,3904.97631835938
347,2173.8655,-1191.6624,-1165.9705,-291.749,945.29443,-493.48135,3861.04125976563
348,-2423.5796,2558.9695,-3281.8315,-796.18445,69.97989,-159.30621,5641.9169921875
349,239.75992,1275.7162,-165.46046,-401.50388,486.63177,639.43195,2019.37280273438
350,1027.0892,82.527275,25.689756,1270.3085,1390.4125,203.48486,3422.59033203125
351,-2182.3235,123.3902,-219.66681,777.9929,305.2922,-354.83078,2667.6123046875
352,-2055.1707,389.2005,1723.6602,2102.6863,-1713.4623,-1312.727,6185.396484375
353,-596.31555,-6.1183734,678.4559,-965.61926,-2390.7615,417.32605,4657.03515625
354,1283.427,3087.6785,4228.1533,132.32034,-409.16467,1081.4937,3267.62426757813
355,1403.1414,1002.9505,-221.59853,1084.2832,-893.5017,560.8767,3002.58569335938
356,-2373.6455,1571.1718,-3469.9136,993.0347,221.4804,1955.4617,5972.015625
357,-1632.0151,597.20874,1085.8429,-30.545418,-430.7058,1258.6794,3407.28930664063
358,-2241.8584,551.6918,-660.91034,1607.7329,707.9617,205.40045,3907.87329101563
359,-1496.4185,924.63275,-2656.8928,1350.2218,3262.8574,-1475.6317,7345.62744140625
360,-1149.5591,923.1979,899.09576,1324.3253,1620.3842,-255.8709,4193.06591796875
361,-562.2665,-329.3811,116.02049,264.58023,-121.46709,168.91393,834.393371582031
362,1788.5648,799.864,535.10187,-74.85217,-41.456585,-482.57263,1424.77795410156
363,-2846.1926,1815.7246,1367.7856,333.5496,241.8225,1894.1093,5578.3525390625
364,-20.6561,-932.9765,-713.7175,-520.18915,-148.70314,339.2844,1379.79650878906
365,-1130.0009,332.76666,1698.7484,-2946.4468,470.3821,380.25275,5757.24853515625
366,-283.05338,2683.082,54.508785,-984.38416,210.90338,196.20184,3326.65209960938
367,430.32672,-64.70267,-594.09283,-783.20465,-226.1462,125.639145,1681.77941894531
368,-2226.5662,-1205.4933,-50.88333,-711.63885,-338.72403,-367.7073,2413.24926757813
369,23.826612,-2611.76,296.06924,481.57602,-313.01572,-258.33582,2987.95043945313
370,304.9005,-2376.623,176.86887,220.53448,-391.983,1.2667435,2733.22216796875
371,126.90415,-1967.0786,-342.9046,-35.045315,-908.5622,-64.45332,2472.71435546875
372,1170.9397,-1879.7008,230.58997,-621.484,387.64948,-81.35299,2991.88793945313
373,-419.84357,403.42578,165.01971,139.69695,44.801247,-126.016136,806.563598632813
374,-1545.9669,-533.9014,41.187107,1029.3326,198.72223,-83.16846,2292.34155273438
375,-1010.03516,-671.65063,240.67937,839.4096,5.0674295,55.19758,1838.09985351563
376,-1397.578,-974.85504,489.43365,-398.71622,175.32217,349.83908,1969.29528808594
377,1531.2466,107.12645,-675.3352,-1028.5466,-970.52094,758.3289,3388.11596679688
378,-1490.7241,1304.5386,-1446.8958,-42.978462,-277.48956,354.16302,2881.96801757813
379,-118.97711,587.86707,-117.26023,442.83707,73.45119,-570.8507,1442.40380859375
380,2244.285,379.91663,359.15158,-244.3364,-259.7907,462.6349,2130.41821289063
381,-4276.225,-2737.6519,-3429.65,-2345.3342,157.92375,-220.36719,4301.58837890625
382,4415.605,-1956.463,419.29883,13.835116,-250.85857,-344.18414,5626.1650390625
383,3347.236,-680.1626,2145.5422,-396.95224,-206.21254,48.178726,3664.90869140625
384,915.88153,136.324,-1325.9653,151.02826,743.14856,-107.39745,2376.08471679688
385,1960.7346,-1292.5955,-254.78116,-703.6067,50.1418,215.5832,3149.13012695313
386,322.73016,499.83774,520.9984,839.92,-163.91069,-55.829723,1497.30090332031
387,-1358.6602,-184.40355,46.176212,341.23538,178.14392,-41.333702,1467.12683105469
388,158.18529,255.1346,-1190.3147,1042.5529,-77.74962,-81.84357,2292.9384765625
389,-573.4516,542.8796,199.45941,-845.32306,483.29364,435.51175,2096.23583984375
390,-1348.6569,1315.6373,-106.31617,-1083.0533,594.38135,210.41594,3169.1669921875
391,-1115.2007,-249.62708,-116.81197,297.3771,-522.92413,-1238.8412,2563.52270507813
392,-193.1996,-498.7823,63.264988,-437.61133,259.96872,-6.8932943,1007.43774414063
393,480.57547,-295.95834,99.39873,-427.74277,-208.47739,-128.19247,1086.68481445313
394,-122.40594,-2091.9604,-390.9884,-1077.0656,232.2139,517.6008,2804.99658203125
395,980.03143,-1638.999,206.28903,324.5637,175.1845,-75.56233,2420.07568359375
396,256.36002,-2394.2769,-433.06125,822.8794,-428.26947,154.21771,2885.61206054688
397,27.574661,1976.7374,-336.61963,-248.79153,398.28027,-137.56906,2315.18798828125
398,-1124.4908,688.8047,384.57208,65.64205,242.59637,102.969406,1746.490234375
399,-503.3349,-606.6859,-41.375217,711.7999,325.36194,130.72981,1469.9189453125
400,-402.97137,-523.7772,-926.5808,-2954.2937,455.463,598.87866,5301.63818359375
401,2132.7324,-1877.0504,1474.0793,-1312.8004,123.363106,-168.36578,4378.60205078125
402,539.75146,-593.4674,-1992.4401,150.7272,-976.61597,-71.11087,2787.70776367188
403,-2497.0452,309.2528,-1174.4755,-2119.996,166.23445,1245.5575,4912.56201171875
404,-14.213259,337.39233,-26.55055,-199.1911,-152.82741,74.25596,577.718200683594
405,-999.5721,1938.0734,1222.6716,-292.68204,457.24677,-991.0825,3297.10620117188
406,1318.473,-810.25134,288.15604,-418.95493,31.932243,36.249496,1983.2626953125
407,1396.7692,-893.9186,171.96909,-557.0327,252.37091,100.9407,2257.0439453125
408,799.7469,511.9476,-641.29926,-712.08936,-56.267597,321.6755,1893.63342285156
409,-492.25702,-1762.8076,914.3452,-1163.0255,-300.4379,-112.97537,3122.01098632813
410,1182.4271,-1845.6752,-161.50458,-504.82724,-157.73604,431.94092,2881.82348632813
411,-1849.3932,-224.46715,-619.1203,-429.788,193.03758,-375.243,1800.89392089844
412,260.05634,-254.4506,-61.59087,-16.489471,445.05298,-253.33421,995.11376953125
413,1385.2518,-251.50667,-253.15315,329.47763,-171.36401,-463.67868,1934.02001953125
414,-5005.811,-336.00577,6231.858,-1946.7249,-335.73117,-26.719275,10359.732421875
415,2707.6428,-1304.601,858.1567,-401.1813,17.12868,142.04068,3555.60913085938
416,-7323.662,-7348.975,-2197.4565,393.62866,-632.61615,-2590.2686,6942.787109375
417,186.04558,-1018.30133,306.5366,-483.48566,-20.080002,-80.5187,1527.09436035156
418,-476.68542,246.19298,-532.02966,1194.9921,81.35564,393.9425,2309.77709960938
419,1577.9276,-754.1203,-631.0333,-213.52213,421.20044,358.5442,2494.2373046875
420,390.90567,423.25592,1094.1324,426.51154,-96.14663,101.91486,1038.00463867188
421,-3019.0303,-3604.3909,-1778.614,104.84152,4.7364526,1083.4752,2482.37133789063
422,147.41348,358.99252,132.36255,925.5142,-320.83624,-6.508434,1710.80126953125
423,930.5639,-189.03644,53.362503,-889.8272,528.94006,-536.1656,2262.30029296875
424,-3538.3484,-3852.885,-2284.3003,-154.76901,3763.683,-1054.504,6926.01904296875
425,-658.1852,827.325,172.7959,-671.65594,-206.6193,-284.39578,1840.35925292969
426,64.42378,2377.5164,1638.964,463.63638,-718.3207,312.88947,2583.41748046875
427,478.2355,-29.928305,251.27339,-1428.2504,458.89023,-17.281933,2635.66723632813
428,278.83014,-418.09424,148.75452,382.25616,-161.6377,169.19653,1007.26977539063
429,-1663.1082,1026.1565,261.9031,-96.49123,70.00023,-319.01358,2471.61669921875
430,-584.5437,-519.48883,-715.20013,-379.47604,158.6215,160.70581,784.073120117188
431,-21.648489,606.7468,-611.3735,821.86926,-156.55786,-291.9487,1862.4921875
432,-479.12286,701.1824,-12.796071,61.647728,403.95844,260.2179,1328.25512695313
433,198.87398,1244.8324,-595.4551,1117.4832,211.60748,-281.1333,2583.32543945313
434,699.30676,-553.72015,-1836.1606,95.25517,1290.8424,-195.59917,3156.34008789063
435,431.9882,-1937.5028,-61.8315,34.41785,-514.8819,480.88504,2486.13330078125
436,877.42126,-474.9694,-93.645485,-577.84845,223.70059,85.352325,1622.46020507813
437,3718.21,-889.4821,-298.58084,196.93663,-755.6636,-920.4071,4819.5625
438,459.88202,-9.314344,505.0972,-1372.8086,24.104513,-187.09993,2450.30126953125
439,-688.5183,-1998.1582,1.3458452,-569.77545,423.24646,-53.40316,2148.12548828125
440,-1358.3108,-3075.8914,-864.5391,-2563.961,170.9923,28.563246,4884.0390625
441,209.70459,1432.4988,781.2968,-545.1748,187.8634,265.18262,1526.92297363281
442,189.1787,-1799.8058,-1951.991,-988.22394,-228.87115,214.4711,2739.8564453125
443,171.51561,-55.525585,533.47314,92.26605,28.02909,-51.10977,548.153991699219
444,1778.4873,375.6617,680.47076,522.8559,-443.69278,-251.61589,1798.30212402344
445,-374.18747,-435.44214,212.4491,-1376.4027,354.52634,534.3465,2702.02294921875
446,-673.1075,-255.10748,115.20598,-385.31348,271.64398,127.76235,1087.37646484375
447,-934.127,1675.4166,38.850933,-37.963554,-379.2197,306.03348,2435.9990234375
448,601.8143,-964.5165,364.20987,-947.7286,466.83676,-132.45494,2353.4423828125
449,2302.1484,-693.42926,2523.5044,-1599.4121,-3256.9321,-472.54587,7060.64111328125
450,-1389.9698,-2209.6135,-473.02466,111.49387,64.50025,251.2691,1582.19921875
451,144.09976,349.26508,524.50806,913.4098,-503.6309,-311.19556,1913.94067382813
452,568.0974,1901.6632,-573.8893,1453.0286,-470.29306,-123.0166,3412.95288085938
453,-433.63998,-552.71014,-224.4789,352.13943,33.591293,-139.25644,718.609497070313
454,546.45703,606.174,591.51025,-429.0246,-423.6439,602.8844,1477.81030273438
455,-812.42816,1119.9309,216.66885,-472.793,-292.09784,-22.980495,1931.99755859375
456,-371.96213,-858.6669,564.89105,-693.80927,-136.40637,-27.54166,1752.927734375
457,-1536.3927,-176.35452,-846.7457,-217.40475,-363.6786,-245.01495,1451.22302246094
458,192.41507,606.93463,1127.7377,-859.12744,-640.713,-32.035156,2026.78637695313
459,746.57935,957.4633,176.68513,-931.5996,-121.792244,120.312454,1783.53356933594
460,-263.5438,875.46515,2.0052571,-1176.9486,-238.60294,-276.42535,2370.87451171875
461,611.4919,-64.47573,-472.5865,-1180.3901,549.23596,-204.64632,2471.8291015625
462,508.795,816.9009,366.366,-217.51373,-65.831696,192.84363,652.382263183594
463,454.16537,-81.972015,296.25894,-927.29266,43.104366,89.171585,1684.26892089844
464,269.1515,-1246.2769,48.4308,-262.7481,-129.20836,-159.92123,1531.232421875
465,-95.32866,-2629.6467,355.79047,422.40524,-110.42789,-234.28867,2916.5205078125
466,348.59662,619.5383,-245.21951,-1974.5881,-301.43985,-44.195396,3544.34326171875
467,-1744.683,677.23114,-511.07083,-924.85583,-341.0085,-338.5938,2767.42431640625
468,-1362.6543,-207.29799,-18.819502,-1103.4854,-71.56642,-92.49263,2298.30395507813
469,238.34868,-754.5254,-1261.4559,-395.55865,696.6995,-95.86807,1923.34045410156
470,352.67383,-609.07025,1080.5996,46.722286,36.849476,62.39488,1475.53649902344
471,-398.4844,-2009.114,-968.9344,1652.4028,-1218.4567,-319.8731,3866.90161132813
472,1149.0562,-714.28937,-70.25089,492.55075,-87.471725,-255.61336,1906.19079589844
473,543.2246,-161.30363,978.2641,1335.6968,-137.76852,491.18143,2669.28686523438
474,-1057.6608,-632.53687,451.48553,161.3303,-181.11609,-629.9679,1784.30627441406
475,689.67694,2133.1155,384.84787,-56.580315,-345.7234,-196.89633,1760.94287109375
476,-1044.4406,2123.277,-982.1716,85.500656,-193.02983,-23.774647,3158.55493164063
477,2932.1184,-2327.234,1937.85,1134.5577,726.7756,-773.1327,5537.11328125
478,-504.6373,24.65758,-87.158806,981.77026,-263.45267,553.1031,2061.81518554688
479,-1347.8027,612.9835,2503.4055,2566.6384,779.0988,-675.4418,5837.60595703125
480,414.21542,339.76334,187.12444,958.1694,262.00256,-209.95058,1769.92810058594
481,-148.57321,1705.5332,-494.18542,334.15375,-348.2354,113.53076,2221.57788085938
482,2451.3975,2477.4597,172.11479,838.58325,9.759256,-216.34932,2739.63208007813
483,1045.4366,830.6624,64.43775,-798.2336,267.58728,-34.287212,1711.04052734375
484,640.93677,116.956566,-276.76273,-304.5873,79.00946,406.2922,1195.04772949219
485,-708.5548,-1470.9448,11.9889765,-1101.3853,207.49904,46.318497,2329.0576171875
486,-1413.2534,877.0312,-71.378525,187.51837,-29.857655,-8.437593,2020.181640625
487,1248.608,545.91876,103.61496,-884.46606,-40.474777,257.72348,1884.46984863281
488,-2046.1434,-559.0524,-50.10561,-220.9919,-243.38676,-176.50795,1909.18994140625
489,400.77478,-1043.7697,847.53735,808.4809,-370.51562,-196.30426,2328.09985351563
490,285.40625,-155.0264,-663.1725,716.7658,72.16161,-143.958,1514.94250488281
491,-637.43066,1330.5762,831.599,192.60863,318.3016,195.80426,1915.80236816406
492,-1543.565,-978.8827,-168.30843,-621.5371,-438.85876,-217.31664,1819.892578125
493,-1097.8088,-1158.2263,118.35345,-175.91533,419.3678,167.7256,1503.66906738281
494,1567.4161,731.3703,-395.94287,166.57425,12.487532,303.29868,1808.85949707031
495,1287.705,602.36664,209.61615,-186.85672,-1.5213348,79.947014,1008.48223876953
496,359.57233,-993.5968,-533.9651,94.32205,-251.32037,404.9472,1458.93493652344
497,332.58627,723.8221,-388.51764,-960.2783,-336.5796,19.069984,2015.57189941406
498,-1467.4052,-1568.8159,-262.6442,134.19704,177.37437,-40.366177,1318.03210449219
499,-1807.6632,-1786.5629,-47.154247,-144.6696,-277.3388,121.73862,1844.09558105469
500,655.1399,2117.3386,575.75854,423.118,-409.49847,-444.90747,1973.41821289063
501,-730.99274,-921.17737,113.59946,-352.38455,91.59043,-356.01965,1299.25964355469
502,-1066.5654,-1454.8209,959.0412,139.82297,-51.62648,193.38313,2284.53833007813
503,-1687.9554,-867.64294,360.0495,382.51248,11.294448,-296.84827,1972.54150390625
504,216.57918,1194.6234,-96.82658,1077.2893,88.10355,297.65283,2265.40356445313
505,1853.8884,72.22787,357.203,-174.225,247.22673,54.37499,1741.00329589844
506,-108.18333,832.48035,100.16779,132.91205,-28.423733,215.7925,963.010803222656
507,368.29736,-711.9246,225.92554,-39.434288,25.826612,376.03354,1210.05212402344
508,-974.07495,100.81279,701.08124,-1039.7134,325.80582,326.8561,2458.22924804688
509,-2233.2117,-485.4491,2682.2632,-2488.7346,-11.268487,456.85867,6150.88818359375
510,-933.90845,2850.3086,-227.91306,226.37416,-8.856205,268.77576,3538.04760742188
511,-209.75745,1609.937,-570.40857,-39.305164,-83.79192,-154.68135,2048.1962890625
512,649.8968,-497.74182,-243.6152,-362.24307,98.88613,47.550934,1232.796875
513,-1371.4736,-366.67737,103.093094,1023.00446,431.07193,266.13437,2368.94262695313
514,-364.824,1583.5621,-288.34628,203.47974,107.352,246.9292,1998.68872070313
515,-502.53445,108.20365,34.854183,1221.5415,-285.2023,-425.93558,2366.08520507813
516,-1273.0045,3420.195,-969.65356,-37.53959,201.02513,133.30347,4568.72314453125
517,-957.68427,-135.40855,-991.3355,95.21343,208.9355,-147.42456,963.48388671875
518,-1907.001,-1290.044,218.74544,760.0951,-19.657745,-0.32530487,2307.01831054688
519,-385.26382,-1275.1565,-408.48392,-199.52928,-288.51984,-42.406044,1070.67578125
520,-288.09518,-626.23,-809.7959,411.87418,7.7988186,-451.16873,1153.19763183594
521,545.70776,214.54105,1896.0542,-479.47025,-456.84525,-329.3878,2005.388671875
522,-839.6206,-309.14005,-1951.3444,360.3204,-35.381264,401.9954,1727.75463867188
523,-1178.8198,2158.8308,-229.1719,116.0176,-485.9307,-190.10034,3119.18774414063
524,1349.8987,-48.03299,-1997.7799,3.5268245,-553.81165,-222.43326,3090.29565429688
525,687.1009,111.485535,-1444.0795,385.03674,-64.88998,167.57669,2046.49963378906
526,-1991.053,1263.6295,-1037.4506,-765.5314,-76.960846,-73.71558,3192.30786132813
527,-1047.9604,-1158.8695,806.5911,361.1771,202.40057,9.981619,2042.52099609375
528,-2755.4392,-1587.587,411.9023,739.98114,157.57388,-156.43724,3080.189453125
529,-888.93207,1254.2928,-126.06007,-290.83228,88.418304,144.2416,1969.77172851563
530,610.0415,-461.55173,-299.96558,156.89655,-68.32775,190.82849,1094.70068359375
531,75.71853,266.5016,-24.24943,-279.25522,84.17599,257.10135,720.398864746094
532,589.2748,291.86807,-396.96957,816.56537,-493.76358,-364.02286,1974.10620117188
533,-688.0284,-284.33295,-1001.7102,872.90906,69.00272,212.12386,1680.23291015625
534,-435.55298,-266.88174,176.8505,-241.37358,-15.228577,-201.02444,772.596252441406
535,-2050.31,-3025.7756,-260.19638,696.0596,-101.55262,181.38562,2735.94067382813
536,732.1147,1785.2595,165.89716,-1051.2695,112.787155,-133.6009,2330.93090820313
537,-583.1703,2160.1482,426.3245,-779.1573,-385.26685,69.768326,2838.42626953125
538,-1516.6371,3280.3335,-257.28598,1491.1492,-27.480759,-135.20752,5028.27099609375
539,-1833.6173,1276.2502,-433.44598,1659.3702,-152.26083,125.13772,3956.572265625
540,1867.4386,-8.891105,2001.5878,1898.5776,-25.728682,140.622,3829.54541015625
541,1742.5758,-822.4695,1422.5299,1055.5459,-505.4012,-0.9001902,3157.49560546875
542,464.90033,1718.2886,196.22708,-1413.6676,78.07324,366.9207,2897.83813476563
543,-909.0485,655.2837,-285.9211,1777.8773,-474.2004,-362.60593,3523.10034179688
544,-1839.5414,52.05187,-248.43588,1472.9257,198.89597,368.8865,3183.62329101563
545,4035.5217,391.4512,-1058.5942,-171.3274,-629.95,-307.39694,4714.65771484375
546,-889.0975,116.77712,-236.77417,-1469.271,157.09737,22.259977,2707.94213867188
547,3002.4924,624.71124,-1173.8275,44.599903,263.6457,142.88707,3666.17797851563
548,4348.302,-960.46014,-291.5618,-1530.8848,167.22586,-26.100363,5674.16259765625
549,3158.6724,-2013.6881,-905.6426,-1675.9862,285.25046,573.7236,5648.73779296875
550,1145.9132,-579.2919,290.267,35.007015,29.346937,-11.882972,1496.32263183594
551,1817.518,831.9909,-73.107506,-313.59106,151.9473,-249.49513,1798.19104003906
552,3299.7075,1665.2719,-87.149704,-370.3064,-151.6703,36.9704,3015.14086914063
553,-1453.8025,67.92465,-670.3729,-927.9407,-259.187,-117.464874,2136.21118164063
554,247.3345,291.70233,-581.22656,255.91351,-36.381195,13.806313,962.424682617188
555,-1637.2667,-3767.936,6.8428755,-770.1908,236.13745,-66.018166,3564.525390625
556,-934.8528,2542.9902,586.8584,-330.06567,23.919779,125.6716,3081.33911132813
557,3195.6433,-76.92819,1626.956,-966.922,-385.3217,285.8296,3395.908203125
558,2397.4834,-252.08623,2121.1453,-1130.9902,80.78561,79.73444,3200.07397460938
559,1315.0433,1917.204,241.29367,275.33792,80.375626,-93.29019,1560.45776367188
560,704.3827,901.33923,-20.653019,368.10782,50.209316,-433.4363,1298.05358886719
561,-1071.2307,-1964.0851,337.52386,-661.37427,-342.71292,27.529661,2388.82153320313
562,-1779.1879,-3551.5327,241.29826,-783.2087,5.8099027,259.6803,3584.3017578125
563,493.42535,-944.60004,868.2707,526.71625,-182.51074,-20.48696,1918.57836914063
564,161.24779,-646.11145,282.4834,738.4643,-70.83487,-10.1990385,1554.27185058594
565,2209.7876,232.9964,-25.423136,513.94684,-182.5222,116.17437,2327.69897460938
566,-157.02168,1997.7727,402.43088,-97.576126,-265.81226,82.76903,2002.92407226563
567,1729.2833,307.60446,-471.77975,335.66296,-176.05812,-227.13469,2079.04150390625
568,634.16675,-1098.0427,-295.89136,223.73466,13.525549,-268.98157,1619.34436035156
569,565.42737,84.74683,-278.76913,-470.70468,-42.369987,122.6031,1119.42016601563
570,-1256.854,945.0126,-1095.5902,1659.4229,223.23999,510.39212,3702.86401367188
571,1428.655,2246.8127,729.964,500.3734,241.22398,-463.45282,1816.38208007813
572,2063.5247,3658.9993,-171.26045,-1679.0603,275.65283,140.32333,4455.34521484375
573,450.02148,2225.5754,500.96817,-1095.7483,-190.6572,48.113277,2604.36499023438
574,815.68365,502.568,115.88006,-27.21913,56.73308,-423.10345,957.901489257813
575,981.7189,811.69867,1011.1158,229.58278,227.3388,552.0175,1123.43786621094
576,753.8444,-173.50223,-758.37897,-613.54486,125.80629,188.74632,1740.14514160156
577,1074.3782,1008.9978,184.29059,-430.83896,-114.78155,524.7857,1470.00927734375
578,-461.36276,-16.981243,-1206.0233,697.6713,-25.279716,378.0578,1724.48364257813
579,-865.90906,-640.7962,-180.56622,109.51339,397.12955,-130.42123,962.411254882813
580,445.59778,-2040.3087,-252.20987,37.37212,740.6248,500.47433,2707.98291015625
