Element Label,S11,S22,S33,S12,S13,S23,Mises
1,-4753.3896,-4472.4014,833.7632,1795.8547,2941.4644,-235.46027,8094.662109375
2,-401.2025,4157.1333,-288.05615,7973.1265,-893.7427,1739.3378,14915.08984375
3,9886.895,6491.013,1754.7432,819.26965,2038.5027,-1926.0836,8698.1357421875
4,2818.6968,11696.951,-9295.805,730.0889,2015.6489,-903.775,18691.662109375
5,17856.764,19869.537,11300.705,68.517685,-298.0472,-52.17458,7779.31640625
6,-2129.2256,7167.8525,-3103.6953,-3630.1257,1142.7136,-3313.582,13146.6826171875
7,4805.4126,1778.1199,-1934.7738,-6962.676,-572.59344,2464.004,14100.50390625
8,-771.18005,9556.224,-4160.2866,1929.5618,-58.620033,841.5941,12901.4248046875
9,18556.705,14671.557,7073.523,5349.879,-979.63696,-2305.7112,14388.73046875
10,10617.951,19684.305,-5555.427,2605.0356,-669.24677,352.48706,22638.142578125
11,4757.574,1333.2617,4455.9727,-6666.826,-1574.8055,-2140.403,12857.208984375
12,12041.051,1211.4753,-2952.1265,-851.08057,1960.3186,-36.231503,13907.2216796875
13,9115.469,7046.004,-2782.3608,2867.2468,-1847.1469,751.36053,12562.3125
14,18406.398,6530.2275,-723.83154,4165.6694,616.5373,766.98346,18296.9609375
15,7745.2427,12889.137,4795.389,7240.6636,695.5188,543.9206,14489.8388671875
16,10690.629,17691.39,26071.86,-5395.393,4007.9844,5.5679164,17704.103515625
17,38012.79,38819.895,39681.508,712.40045,-263.3509,232.25458,1995.40478515625
18,16827.781,-372.01392,-9664.601,6925.8516,-6032.01,3862.1628,28979.6875
19,-11069.272,-15169.505,18580.803,-4636.5513,532.06915,8979.47,36397.05859375
20,13816.295,15014.913,14476.755,3726.2202,-441.00946,-17487.207,30995.58203125
21,10468.679,-4229.2085,8041.9463,-1940.8207,1453.6068,2264.63,14807.9033203125
22,10584.351,-14706.085,8856.405,-5218.401,4402.2207,7671.351,30253.49609375
23,-79398.96,-76802.73,-96428.836,-15565.258,-2372.751,3334.1553,33437.13671875
24,4625.109,-5368.3496,-6660.448,-5911.562,-8890.665,7306.9727,24831.396484375
25,5722.662,-4296.1836,16162.141,-11320.529,-16272.714,440.2516,38644.53125
26,12574.512,7651.324,-9384.227,-716.90356,8451.431,8650.934,28959.5390625
27,16221.114,14153.664,16718.621,5996.969,-9365.245,1015.91986,19484.89453125
28,-3614.9907,-96.44092,-12281.261,1125.7148,-7388.784,7088.6216,20887.9609375
29,11152.129,5472.5176,-15644.655,3445.1648,-1562.4814,-2725.5078,25755.5234375
30,-817.06885,8661.991,-25134.432,8760.618,8341.575,-5419.549,37931.48828125
31,-6049.7,4363.8013,-18247.686,-920.13696,-11683.091,8447.397,31786.080078125
32,10289.231,1202.7219,2459.5977,-2646.006,-4601.4067,-6750.6123,17145.23046875
33,10751.705,4708.6978,-5190.536,6087.964,-3580.6882,5752.3003,21053.61328125
34,6107.6396,3761.5933,3920.8145,-838.4791,1784.3446,5743.8438,10760.658203125
35,10882.9795,9760.735,1219.0815,-3447.3132,1263.6388,-433.4348,11171.8828125
36,4608.9316,-12032.052,-15450.294,-2922.1409,7313.9263,-3300.7893,23754.419921875
37,8959.196,6046.2935,-3420.306,8739.802,-1136.7429,6744.495,22252.423828125
38,-5033.1694,8637.763,-5257.3384,-2748.3745,-274.86523,-6804.525,18756.365234375
39,6108.4346,-1335.0901,1163.8252,-12525.052,2903.6243,2480.4973,23610.005859375
40,-6499.1157,14969.85,953.9392,-6747.218,7861.005,2550.9968,26418.533203125
41,12270.982,8211.868,6295.8306,-19116.648,-3231.3394,3319.7278,34476.80859375
42,38937.258,24176.748,31390.326,-13379.223,11192.628,-8747.018,36135.83984375
43,-32923.61,-33013.188,-16941.828,-1165.7954,38.546844,-9517.138,23079.56640625
44,293.20013,-2225.9333,2085.386,5084.2344,-14367.313,-11645.223,33432.2265625
45,2100.424,14645.4,11475.501,2582.5186,-9428.04,8049.5635,24672.1875
46,643.9922,17940.607,-1251.1772,7214.042,3423.5725,-8745.477,27500.626953125
47,-2085.831,19488.008,-1206.7612,13159.897,2583.5674,-6878.808,33597.10546875
48,19755.662,22392.727,22931.549,4242.659,-9222.521,-15062.201,31598.10546875
49,8101.6255,11747.996,6727.729,1050.1486,-4740.94,-13172.663,24728.29296875
50,14044.987,23958.975,14412.968,8473.914,6713.2095,-17416.795,36816.1875
51,4969.391,8962.6,-14368.776,-4131.0957,-1905.1321,-7340.212,26284.107421875
52,15526.3,6621.254,8562.176,2559.1865,-6988.18,-12358.282,26270.072265625
53,24498.355,19942.307,26017.055,-4286.312,-2699.7554,-14462.757,27101.3046875
54,6098.4307,7286.4854,3503.0625,6332.705,7275.935,-14838.359,30836.484375
55,17852.064,6112.5776,16982.826,-6347.094,1103.3906,-12911.791,27441.19140625
56,-1525.2653,1674.1799,-6011.267,-23.955885,6169.6577,-3329.1177,13862.11328125
57,237676.98,238112.23,238763.45,-0.50941527,431.44836,-921.6834,2000.97888183594
58,-36494116.0,-36495456.0,-36493460.0,47.370846,-208.54988,501.70224,1999.34362792969
59,114816.86,116009.54,116092.04,250.43364,-55.512253,-431.06265,1510.80383300781
60,55416.715,53816.863,48891.664,2702.6172,-427.30594,2995.5808,9169.373046875
61,30778.092,30929.982,9476.479,13176.859,12215.299,5923.057,39125.3671875
62,-3440.4966,6645.662,-2035.9144,11946.773,10086.263,2030.548,28901.21484375
63,14959.862,13427.707,-414.82422,-779.6913,6630.4956,-1048.9624,18766.65234375
64,21120.125,-8048.286,-1220.7644,8137.231,12617.69,-232.66986,37076.78125
65,7795.801,7243.044,9025.798,11116.534,9974.775,-5332.057,27513.8359375
66,9739.177,204.02783,-19687.982,11227.658,-6784.598,7552.0474,36927.73828125
67,8394.9795,12720.917,-22347.812,10545.13,-3011.6729,659.15686,38196.04296875
68,12780.663,15257.901,-3469.541,-4376.081,10019.468,5307.146,27451.380859375
69,16557.148,3766.9001,-13092.864,1961.5828,7037.606,-11264.133,34702.33203125
70,5105.835,1016.38574,-16853.566,3937.762,-12253.011,-4771.0645,31214.626953125
71,5586.2153,3434.051,-2936.3484,4203.195,-12641.813,-13.313832,24318.126953125
72,20999.402,8135.536,5813.9673,4041.139,13836.687,12041.242,35483.2578125
73,152.72705,5209.857,-21274.453,5214.3013,-13195.238,3074.7144,35004.71484375
74,6060.75,8057.267,-6732.774,4394.1763,13850.543,907.7196,28794.33203125
75,-3260.3838,-11099.818,2485.587,5091.91,-2566.0889,2035.3165,15795.0205078125
76,-20217.648,-1859.9331,-30907.346,8564.117,223.87474,-8251.066,32740.4453125
77,-15923.451,12083.18,-2343.1926,-4455.534,17221.02,829.6817,39239.88671875
78,-4509.866,-7607.228,22696.994,1221.2539,9514.022,-10493.442,37953.09765625
79,-18439.07,-23918.55,-5399.711,-4310.2827,1900.9305,-2967.0298,19091.478515625
80,6273.232,187.3789,-9280.932,-616.9177,-11549.041,7577.4775,27529.013671875
81,-4580.462,-12388.301,-9960.713,13418.223,-2024.5077,11407.312,31475.76171875
82,21252.562,16575.447,724.74725,-7295.0854,-5811.9316,10207.846,30345.451171875
83,-6170.005,13036.966,2733.0994,-4559.1567,5930.7666,-262.94595,21101.1484375
84,8723.906,14996.688,29796.842,15693.426,-166.06804,-260.63593,33020.71875
85,-20790.889,3263.9668,-20783.45,-5022.9424,4033.2603,9599.553,31295.412109375
86,-15722.523,-8343.238,-2212.581,-5656.188,-5994.678,8996.997,24164.072265625
87,-10682.56,-814.8008,-8756.2705,-774.71954,-905.7297,7466.9873,15924.9619140625
88,43191.47,51425.285,73896.76,8616.404,4405.17,13201.256,39516.48046875
89,175560.05,190465.89,192414.53,-2709.4038,-6866.3926,-5871.253,22845.283203125
90,15991.237,17777.01,17979.25,230.0935,272.97592,-97.26079,2000.44860839844
91,26341.389,26410.223,26628.398,777.8058,-830.7898,130.3903,2000.98522949219
92,58453.266,58159.92,57326.773,-479.05936,-365.7474,793.6299,2000.98425292969
93,5728.331,-1105.3721,-2921.4736,2659.2231,-11593.529,4346.898,23313.92578125
94,9629.324,-2905.6372,8189.585,4895.623,-1917.0167,7557.33,19885.09375
95,15881.294,5824.2236,13167.944,1009.9331,937.1082,3885.0022,11497.509765625
96,3525.0642,-3311.3247,3279.5083,4610.6113,-544.54407,-10952.078,21670.82421875
97,33553.297,47526.992,48736.312,-3451.8127,12333.647,8469.658,30346.865234375
98,5222.7954,6417.901,-5782.6855,10944.83,13801.509,-6217.322,34387.203125
99,-12832.939,-6971.833,-29282.219,6371.9595,-9748.971,-2170.8079,28677.734375
100,3156.6843,17665.254,-944.32434,-276.92426,-5984.071,-16941.75,35433.63671875
101,13026.4,13563.181,9709.822,1255.8184,-2533.177,-3258.8225,8301.2080078125
102,12955.266,-2839.1997,-965.105,7161.179,-3567.5696,-9697.014,26410.2890625
103,733.25024,-3105.3994,1510.4473,-2136.3416,-7994.4775,-974.99774,15053.28515625
104,21738.16,11742.854,6505.5776,9127.139,-9563.856,-2959.3208,27023.548828125
105,17771.658,5839.654,14599.967,-1308.571,-2922.122,-2164.421,12625.1865234375
106,11812.844,21582.42,11531.5625,-5067.86,-7455.286,2239.3499,18897.3359375
107,-2182.3699,4239.288,-2103.7512,-281.46304,-9755.867,-213.87187,18073.31640625
108,1428.8971,-2761.4248,-9610.413,-20012.945,-6571.6177,-5245.415,38817.8125
109,3809.2327,898.92426,4854.454,3320.7153,-4623.2495,12639.285,24270.634765625
110,-14441.774,-17114.016,5466.4214,10222.595,7268.169,7507.5464,33132.30078125
111,33636.652,5353.05,19429.146,5670.246,3957.305,7309.5127,30061.58203125
112,-891526.6,-893314.56,-892497.5,-28.864689,354.57687,637.9361,2001.00378417969
113,34570.277,35633.57,35358.14,-540.88477,841.036,173.8357,2000.98510742188
114,-192.50017,9739.143,-9225.942,10697.561,6210.659,-4669.83,28185.275390625
115,22000.227,16293.396,-83.93848,6911.7686,-6045.6367,-5702.8564,27290.697265625
116,7634.3506,10207.596,15982.58,-2564.1028,9891.798,13633.542,30425.642578125
117,10370.255,-9639.985,-524.43225,4012.0261,8018.3945,-3575.649,24096.2109375
118,-12267.498,14651.801,12277.828,-2070.7239,7809.4053,-371.9846,29370.359375
119,1308.1044,-2680.3828,8945.69,662.8427,15709.644,15356.91,39419.58984375
120,-18833.105,-21187.285,-23842.625,5022.408,-3947.2944,-6481.648,16349.2060546875
121,-4260.9995,-8034.5703,-21423.674,11308.433,-13828.877,-1922.7001,34820.66015625
122,3073.2808,3627.3494,-4942.758,-2900.4888,19772.123,9533.286,39239.07421875
123,6018.935,5559.3965,-9676.659,-6348.74,-1159.032,5224.7344,21123.287109375
124,14316.795,-4881.392,-9429.896,4273.235,-12734.826,-746.95074,31930.62890625
125,19182.367,8039.514,-85.03512,2910.102,13926.9,1458.0852,29905.884765625
126,19580.52,885.1465,6980.417,1539.8988,8892.038,-2527.0535,23155.837890625
127,-24738.855,-31559.078,-20829.764,1768.3097,4393.4917,-10309.877,21785.9375
128,2660.9995,18069.996,-6226.0654,8554.397,4074.5103,-3034.7874,27392.07421875
129,11411.484,-2183.4783,9558.153,4453.1655,2505.1787,-12693.689,26921.5703125
130,19045.912,19561.143,22385.453,-1706.9736,10677.712,11278.132,27240.92578125
131,10805.885,20953.764,4204.46,-9565.055,11910.151,8039.127,33278.48046875
132,-6602.441,24740.354,-2824.6455,-257.80426,-5098.153,10925.264,36255.9375
133,-2767.733,19623.47,-4052.8809,-236.5366,-1374.6548,820.9577,23230.419921875
134,-3979.5186,13102.744,26174.643,2118.943,9203.862,4779.911,31970.634765625
135,29836.883,13628.7,37392.75,2194.8901,5120.8267,-834.9297,23183.5234375
136,-3287.6719,17873.582,3473.5361,3023.0037,-7456.417,2743.715,23816.61328125
137,-6411.4497,10320.334,9262.836,10024.632,-3828.4531,-7548.7007,27924.48046875
138,11401.381,-4543.309,-18812.842,-5123.462,-9128.162,-2380.6328,32110.7109375
139,-9485.286,-13989.959,1175.6001,9384.774,2785.2568,-17618.93,37426.53515625
140,-5909.73,5988.991,27458.25,7908.363,-4905.7314,-8479.803,36517.27734375
141,11351.932,5639.884,26849.28,-245.98521,17195.568,-3289.411,35791.36328125
142,4567.506,9809.459,-16234.364,4244.9116,3453.3574,-4643.3984,26902.7265625
143,17666.104,2955.0347,5335.571,4705.397,15694.874,3053.436,31944.359375
144,21296.986,20613.209,1493.0088,15707.843,-4168.6553,-490.62573,34237.2265625
145,7392.351,25510.205,6734.3633,4980.2603,17818.857,-6208.146,38512.0546875
146,17669.57,1881.6576,16953.566,6113.036,5996.3364,1411.3755,21550.369140625
147,860.38513,-7814.324,-709.1758,-22439.217,-1398.1185,-1800.7233,39877.88671875
148,40160.438,70330.61,47000.867,3167.9604,-3815.832,-10566.93,34050.30859375
149,59240.88,33699.55,60411.207,-1455.4135,-4066.9834,-10261.126,32487.9765625
150,50244.773,48834.117,48848.773,-44.532032,631.3179,-526.687,2000.83093261719
151,34553.906,50542.516,24836.525,14799.725,2447.4011,-3753.1057,34967.8828125
152,4093.9346,24788.525,19275.123,1745.4014,-4674.3784,-15495.412,33757.640625
153,-5177.083,12768.804,-17800.559,6250.2817,-2354.2336,15480.255,39505.52734375
154,20910.023,9070.067,32375.465,-4647.3223,-7288.8687,-3004.7947,25664.2421875
155,21290.29,12785.342,-11696.034,-7947.971,-534.77045,344.55005,32720.169921875
156,17315.928,2784.5415,8944.522,-9789.024,-12811.735,9913.331,35132.78515625
157,10728.322,-3039.3765,7157.4893,4720.6133,-6763.654,-1486.4637,19075.12890625
158,18129.994,-5464.7144,-832.27637,659.17957,-2080.7493,-13580.545,32194.01171875
159,9834.314,1103.8672,-10629.246,4193.208,8250.186,1322.9384,24052.404296875
160,-12466.653,485.16602,-23148.129,1833.3505,-6904.293,-414.35388,23954.0078125
161,-1908.9585,5050.119,-6534.7695,-3236.8892,-2718.9001,-9685.15,20905.36328125
162,4591.6787,20319.523,20439.592,7512.966,-2142.1719,-3994.894,21914.51953125
163,1293.606,23218.64,1608.9814,-6301.034,9374.975,1239.9958,29347.646484375
164,8534.911,12944.444,-4249.0938,2463.067,4738.2173,4735.336,19800.72265625
165,-21491.873,2928.2124,-2638.6802,7156.291,-6572.3315,791.0205,27865.537109375
166,-5245.4556,-1024.3167,5326.253,-8024.9287,-1629.085,9457.284,23546.44921875
167,17254.459,12909.712,16669.523,2367.3708,-7277.9844,-1862.8822,14241.10546875
168,5261.635,-2602.0684,-13742.067,961.43713,-503.15555,6592.2544,20185.26953125
169,15588.168,14283.054,1725.9971,2693.5994,-3253.584,-5899.332,18267.501953125
170,7141.4277,-1213.032,3945.0527,869.665,-4158.475,7907.3936,17176.673828125
171,4662.346,6387.942,14826.5625,-484.4656,6.203709,-12162.65,23092.078125
172,3080.563,14048.703,-4823.612,2565.139,11014.938,186.30011,25559.748046875
173,4690.6475,17618.947,-20214.01,-136.75432,-1648.3113,5334.8374,34683.515625
174,6244.932,17128.275,-13471.982,9167.045,7543.102,-4247.001,34622.25
175,9570.316,3355.8188,15708.37,126.83324,2675.4468,3826.3132,13412.1181640625
176,-41969.297,-6895.3877,-8666.674,-7689.132,-5207.182,5935.1304,39186.48046875
177,1960.5898,25050.312,-8326.701,1987.3953,-3074.4043,3079.598,30743.3125
178,-1511.1733,14801.334,-9144.615,6107.4917,-10894.321,203.52975,30281.599609375
179,-4685.778,11878.253,-2224.1738,-7510.0713,-868.6976,2330.1416,20673.86328125
180,-248.81299,21567.643,-11923.469,5251.546,-5497.061,-1746.0204,32395.830078125
181,18162.504,4163.9604,-21662.06,5959.872,2439.7527,276.37686,36730.3125
182,-5983.151,18337.766,5560.17,-12611.503,-6081.2437,4035.879,32878.1171875
183,9653.75,1783.1262,131.28296,4709.8184,5159.641,-786.09033,15031.400390625
184,4515.802,-8036.2905,-14337.18,-543.2775,4584.041,-8586.826,23695.400390625
185,16455.121,-2767.0488,8294.238,17163.084,-4043.0796,5306.792,36006.4140625
186,97603.78,97852.66,99249.27,222.72597,374.36847,-598.5038,2000.98913574219
187,104492.81,104339.26,103298.47,-388.25674,-313.40363,814.53656,2000.98571777344
188,-37161.555,-24426.904,-40503.062,-5267.442,803.4782,-6933.1987,21101.474609375
189,2166.7627,-19385.803,3274.3616,2842.3438,-5285.4956,-12173.251,32283.458984375
190,9703.147,2320.6475,19588.688,-2233.1838,-5311.6367,-7920.3657,22649.58203125
191,11505.0205,-9259.383,-2651.5383,5194.5474,-547.03345,1736.9441,20700.59765625
192,6540.1963,10307.099,10837.606,667.0528,-5900.12,-505.53058,11090.76953125
193,13674.67,5068.288,-2717.227,4063.8484,1000.9979,4123.9907,17471.73828125
194,14570.157,5851.21,3838.3418,8496.372,-9563.993,2667.9358,24697.173828125
195,4275.4146,7795.7783,-7590.6187,309.42624,-7912.092,9538.014,25612.11328125
196,16129.1,8647.135,5218.0615,2164.488,-552.21454,5020.176,13563.5869140625
197,10119.451,10212.502,-4457.1274,1129.8597,-798.6026,-817.6293,14885.9072265625
198,7085.3643,1861.3888,2764.2437,-1625.3456,3350.267,-611.83624,8130.78857421875
199,12487.34,-3261.7139,6615.9766,-1668.5002,-13315.497,4889.789,28320.0703125
200,23987.223,412.28516,6660.453,-5994.16,-13393.303,2347.7422,33316.42578125
201,5869.83,-5131.667,-13879.964,12939.579,7187.509,-1088.3545,30897.2890625
202,3571.4277,-12099.199,-19513.527,4917.12,11817.861,-6589.1035,32225.712890625
203,6941.364,16260.85,373.28857,2541.2913,-4520.7534,-1477.7689,16686.552734375
204,709.93066,-2809.167,-4363.704,7957.0854,-5124.095,-10702.795,25152.244140625
205,2668.063,13565.758,5698.7314,-1284.8967,-3684.54,-6528.874,16385.248046875
206,6712.94,14417.761,-6338.6562,-1389.0577,-9453.794,-1334.1558,24688.451171875
207,-2375.6577,-11140.284,-12020.35,-1256.594,-959.836,-880.9448,9753.7568359375
208,-9049.44,18337.285,3790.5195,-13148.333,10959.261,6573.404,39646.359375
209,11538.651,-1686.2357,799.43585,5676.9375,-18215.729,383.19788,35224.49609375
210,15719.256,10665.289,1823.9131,-5032.2627,-10567.469,3302.6824,24333.205078125
211,4701.5815,-10541.704,-17439.875,7948.616,-2700.262,12166.853,32258.42578125
212,4643.097,1409.1024,-307.7363,-5642.037,-5537.2617,-16398.574,31830.484375
213,7820.3345,2781.3,-16849.354,-1314.3876,-8792.382,9825.282,32192.90625
214,-20635.855,-3366.7732,-39885.79,-237.6224,-432.4915,-1471.2129,31755.845703125
215,-7717.3467,15068.79,-9412.517,-1703.8105,6254.746,-3381.139,26852.91015625
216,-6780.263,-11772.019,1799.8052,2297.2405,7268.566,-19136.775,37607.73046875
217,-13492.285,3786.6802,2050.2397,-2379.6716,3989.5242,-5275.9487,20489.466796875
218,-13932.579,5177.4824,-23899.947,-38.881058,-14993.985,8346.084,39223.13671875
219,5133.468,21067.63,24994.271,-5515.094,7571.153,1114.6111,24470.9375
220,13547.514,15727.824,-81.08789,5609.3765,-2056.7935,6856.131,21640.546875
221,5885.2627,13617.167,3994.189,-4941.663,9731.55,-3075.8447,21534.435546875
222,19607.094,24072.012,-781.4678,6845.813,6031.657,4819.133,29087.32421875
223,12869.355,27068.191,-2618.5479,10770.801,-2648.7214,8898.283,35609.1015625
224,-7229.605,9954.072,-14039.998,5214.9907,1141.9507,7828.103,26981.955078125
225,13388.002,58013.914,29274.686,-2979.4663,-3347.6658,-866.4198,39967.5546875
226,-26534.611,-30641.55,-16236.35,11110.726,-6545.6445,13622.881,34940.59765625
227,-71524.875,-91863.54,-83976.734,345.9298,-4858.828,19028.385,38378.08984375
228,27370.123,28888.516,44497.953,7251.425,-3088.12,6081.753,23811.412109375
229,484.04944,39.839428,673.1373,532.32764,-528.7439,816.0969,2000.9853515625
230,110899.14,109794.16,110780.8,393.8457,-523.50806,-733.0721,2000.98413085938
231,56433.312,55867.582,55728.613,-250.58144,896.8388,-572.89685,2000.98657226563
232,29666.95,31539.691,30045.994,-153.9966,-361.64505,-447.01065,2000.98645019531
233,271596.3,290369.84,273035.7,6180.234,361.565,2460.6072,21462.455078125
234,9886.224,-15748.477,-26193.764,-4856.011,4095.2056,6284.6177,35686.80078125
235,128279.06,102382.7,139246.72,-6043.848,-2218.7969,-7931.498,37256.04296875
236,-10609.416,-3825.4048,-5135.2207,-18906.174,11823.398,-3335.8428,39546.73828125
237,11469.791,-14687.769,-5402.944,9045.9795,1660.5956,12485.297,35340.734375
238,3300.9272,16805.578,-21102.502,-11120.243,893.03265,-3630.6392,38992.04296875
239,-281.51123,8196.189,-33116.207,597.94336,-1847.5752,165.40752,37943.9921875
240,6081.3315,16111.2705,-3315.1602,-6523.9927,7540.2856,3808.7395,24998.291015625
241,29276.281,18910.383,-5412.7812,6021.1743,-5026.7334,3540.9263,34254.6640625
242,-4859.357,9097.375,9979.027,6684.9473,7448.3506,-2234.2168,22876.783203125
243,20387.803,9066.627,-4172.1113,-5210.5483,2467.2637,8787.237,28011.953125
244,25774.297,-1870.3408,-10717.252,9628.272,-3252.5981,4213.997,38081.3046875
245,-1021.60547,1699.6387,6698.2754,10899.135,8787.586,5912.35,27182.716796875
246,7688.5874,3865.3245,-13550.396,7874.0146,-2754.119,-1006.36145,24419.330078125
247,19802.56,4472.0464,-17701.4,9906.748,-392.03555,-2759.3896,37206.875
248,7198.5854,1552.9867,-9825.45,-513.0764,-1345.0802,9510.814,22431.31640625
249,11171.22,3708.9001,-210.1128,3796.9333,1181.9329,8092.4805,18552.5078125
250,-353.8794,2178.5352,-15043.763,-6275.331,-664.6527,-333.0693,19473.1640625
251,-8786.453,-6568.0645,-16579.27,-9367.494,-1713.2269,-9596.81,25125.44921875
252,-9008.242,3782.503,12674.344,-2005.8936,7152.5034,-205.60338,22848.935546875
253,-8164.937,-17895.375,-14458.822,-1415.8359,7721.32,4690.9263,17998.240234375
254,-33778.613,-14867.01,-41267.086,9158.083,2347.6082,2857.824,29120.296875
255,-5380.317,-3629.1816,2350.4258,-10080.308,10074.223,472.1692,25676.25
256,-7897.416,-7754.775,16028.078,-8976.864,10028.566,-1934.442,33522.10546875
257,-29599.14,-25597.559,-16151.397,-9391.734,3187.7485,-9744.114,26888.375
258,-14379.453,16500.701,6228.351,14651.794,6855.9204,504.39392,39085.7109375
259,-32836.062,6337.274,3742.295,6020.923,4193.6763,-527.32965,40024.73828125
260,-7309.413,5925.076,1878.5371,4259.454,-2725.405,-6217.739,18184.208984375
261,7798.051,29297.52,419.7871,9529.551,2690.8262,-5877.3423,32757.94140625
262,-3123.1978,23284.922,22.860352,-2497.2373,-1621.3826,3382.5872,26174.908203125
263,1261.5176,26949.422,3637.3252,8735.323,-4926.9204,-3483.634,30702.306640625
264,-9069.301,17264.705,-15296.551,8625.203,-6053.6665,-4632.936,35968.90625
265,2926.676,13039.194,-9503.461,-401.09476,-1530.1392,-446.98804,19763.029296875
266,-7474.2773,22994.26,12162.558,8833.79,-7101.8047,-7055.6094,35360.86328125
267,3501.183,6957.2437,-12513.003,2781.8403,7977.8936,-5056.614,24791.3046875
268,8689.285,12857.701,10290.357,-2695.3174,-7364.4966,-5601.4263,17084.927734375
269,7627.394,18102.904,-5391.6934,405.0853,8640.106,-4703.1455,26578.560546875
270,1815.1201,14652.459,-12158.069,-3490.7144,-4704.275,-6321.4355,27608.935546875
271,-4953.952,11366.122,-3974.2188,972.61194,-7418.174,-8117.2217,24837.654296875
272,-11868.995,8617.22,2920.5657,6489.3496,4896.006,-3237.2397,23772.267578125
273,-13272.967,2761.8853,-8448.693,6472.5815,670.6112,-5130.446,20224.4921875
274,-23369.486,-35267.727,-56312.977,-11862.896,-2108.526,-8602.963,38631.94921875
275,-26388.275,-32705.264,-57612.016,-2862.0315,-4088.221,-1808.145,30035.126953125
276,5603.2485,-12373.879,8600.742,2989.9634,2373.0566,-7112.0127,24114.40234375
277,10353.445,26761.824,-4709.7773,8421.8125,-1766.9097,-2713.1162,31424.962890625
278,8712.524,11381.325,17007.475,-1590.7878,-11686.735,3402.3906,22491.1328125
279,-4403.851,9692.474,818.4133,8045.121,2255.4568,-2260.7341,19419.826171875
280,121014.11,143015.28,111161.76,-7291.6733,6578.23,5038.8066,34108.31640625
281,-33153.906,-29382.107,-19557.39,-16644.547,8025.66,-9564.01,38033.875
282,14798.722,8636.623,18811.95,-644.8434,3400.0923,2241.2595,11393.263671875
283,3927.832,-1085.6586,-6758.54,13818.814,-2389.4,6657.846,28438.44140625
284,32200.543,49427.547,19693.715,-13332.0,4863.0767,9512.281,39297.21875
285,5152.3213,-14216.758,2948.0627,7528.2466,-3124.4749,1893.3579,23396.376953125
286,-1965.1265,-12148.01,-11749.629,5699.0684,356.82007,7999.395,19737.888671875
287,9947.762,8424.159,-7118.9937,-3700.7441,7584.9795,-2841.5166,22483.271484375
288,5372.082,-9549.091,-21863.129,-1600.7876,-11670.485,-3178.187,31695.546875
289,15806.699,-6687.2334,-10148.647,6830.489,-7258.1426,1981.4191,30093.287109375
290,20694.83,5436.96,13623.527,6076.3735,-15182.5625,5972.882,32927.74609375
291,13669.875,10569.231,1354.3384,4043.961,-1934.3462,-7566.917,18845.71484375
292,8766.812,-7431.1587,909.709,8348.251,420.50354,-9250.628,25752.123046875
293,3205.1895,-18961.73,-36948.69,3257.1235,6077.574,-3822.0442,37417.64453125
294,4204.3823,880.152,-1121.3027,9644.866,1235.4574,-1511.7814,17669.619140625
295,20429.648,-4971.07,-21631.756,6032.43,223.72786,-1613.094,38250.4296875
296,-4932.088,-443.56177,17556.14,-3597.8047,-1094.119,-4574.4688,23024.5390625
297,9363.426,30896.656,39116.21,983.18207,3598.233,-5125.1567,28788.5078125
298,-456.32236,9879.531,18635.129,2294.3347,-4458.7627,1307.8124,18829.54296875
299,1182.147,17436.197,8367.041,6459.686,10180.855,-6798.529,27817.71484375
300,14397.698,30890.922,-1334.2236,10688.385,1797.7488,6730.7905,35599.453125
301,10940.516,11434.84,12080.804,230.39046,777.5474,-588.3466,1998.09313964844
302,-1431.7354,20232.648,-16748.37,2531.552,8354.564,-4943.0557,36574.5
303,-6163.2983,14469.426,-20543.934,-890.33954,3303.1538,2401.6106,31331.09375
304,-3402.5022,16178.211,-8571.389,5440.7554,-417.03455,1717.5345,24688.240234375
305,-8067.3306,8974.08,-12468.075,384.8328,-9926.1,-4765.3213,27366.451171875
306,-2293.411,-16832.014,3319.5264,11626.48,-4934.1304,-4234.1255,29271.587890625
307,-23342.027,-10100.835,-36816.24,11306.164,-7791.6787,7649.7095,35727.734375
308,25707.625,52833.402,56467.473,1092.5955,3550.9895,14813.803,39336.3359375
309,-3780.146,17082.268,-6874.725,-77.76805,1375.7454,-10326.194,28895.748046875
310,5907.5044,15986.395,11222.475,-10880.977,1939.4327,-630.24304,21069.568359375
311,-6530.904,11592.234,-22359.506,-203.1828,-4428.054,2856.0298,30810.294921875
312,-17165.822,-39546.355,-26108.057,-8926.837,584.3969,-10996.901,31362.48046875
313,8616.031,3808.8967,5895.0044,-6475.1074,10744.991,1579.9257,22294.982421875
314,-23074.846,-31747.783,-43456.83,11782.316,-10094.669,8052.331,35079.47265625
315,-17154.7,-12336.437,-11484.583,-5684.624,18882.613,-1052.5869,34611.75390625
316,685.81445,-10905.315,-19581.465,9279.105,-3940.7646,415.9842,24811.48046875
317,12097.496,8918.664,7184.5312,7482.1987,2635.2744,-4688.025,16533.037109375
318,11852.928,8303.238,-7904.613,1340.1782,-3808.2874,3.2802749,19537.78515625
319,18314.367,13860.627,5161.2573,9826.925,-2142.567,9198.521,26297.814453125
320,6356.1714,25240.58,3783.9285,-16654.564,2659.2854,5970.59,37041.8046875
321,29651.227,37525.24,12565.799,4666.8804,-6405.355,16796.838,39029.078125
322,21338.623,-12594.805,5567.906,156.68181,-6303.1147,10657.4795,36401.17578125
323,16299.053,6402.655,29081.172,-2636.69,7206.056,2668.5295,24203.708984375
324,-2854.1543,16.839508,5086.013,9439.276,-12471.914,-933.3585,28018.77734375
325,-9967.804,3649.977,-12601.208,-7816.3833,3250.6018,-1991.3799,21333.62109375
326,-7487.492,-6650.994,-10324.228,-2279.266,5535.8906,-5763.3755,14774.73046875
327,34180.797,13971.493,31467.559,-3303.811,-12247.658,-6127.8853,30925.05078125
328,14901.023,-13867.369,-3993.0745,-5487.6445,1911.8364,1746.8153,27413.8046875
329,19050.246,13393.266,-9960.882,734.7535,13901.329,3584.899,36461.578125
330,15423.865,-3858.205,-25197.045,7279.8965,4580.5034,273.80545,38219.890625
331,8782.653,-4190.8174,1046.157,769.705,-3745.0232,-12084.935,24693.82421875
332,3958.0166,13763.666,-7389.5605,3088.774,1556.4335,-20.191912,19289.345703125
333,-16320.931,-5134.115,-22604.814,-5552.9375,2320.1863,5326.866,20705.3203125
334,-5280.1523,-8243.411,17975.316,-11499.245,2888.2378,-718.6556,32276.66015625
335,-18623.06,5016.212,-8687.684,3723.8057,6203.329,-7813.4585,27619.853515625
336,-4422.1035,21464.477,-2078.3975,2875.6887,-1490.8198,-10178.16,30938.62890625
337,-2815.4517,14652.051,-10085.059,1624.8606,1750.1823,1885.2614,22643.216796875
338,9236.598,-13722.073,-696.85596,-19150.727,50.498783,-5362.569,39802.578125
339,-8390.145,2597.1084,-12197.778,19266.82,7499.892,6046.1167,39611.81640625
340,-29949.781,-68022.375,-64489.87,2507.6199,1518.8776,8779.309,39806.07421875
341,37137.22,37618.234,38615.965,264.96228,-155.24808,-788.82983,1963.783203125
342,48317.145,47138.84,46953.527,-687.9598,19.64215,-560.30475,2000.98596191406
343,12038.233,-5512.253,-9812.085,5564.36,-6030.648,-0.81218415,24575.693359375
344,-7083.0176,-3742.626,-10432.118,-14779.371,12316.782,4012.8774,34529.26953125
345,1475.7832,18634.867,4369.082,4884.4834,-1618.7385,-8053.178,22959.8671875
346,-4786.0176,4626.366,-10567.055,-449.41882,5960.3843,10969.24,25388.65625
347,232446.8,233229.05,233796.97,186.1231,861.21075,-304.31683,1996.37438964844
348,-7988.131,12494.282,22743.738,-7008.0806,6310.7646,556.63354,31658.498046875
349,2188.1768,21284.959,-12693.482,-9062.586,-3754.9495,32.91156,34044.62109375
350,13808.643,-7873.49,10550.014,4660.655,3613.9846,2881.3533,23223.5625
351,14576.294,14927.485,12950.181,-281.37894,342.89072,-158.11629,2000.9755859375
352,114911.96,116780.47,116790.91,116.066376,142.57967,-361.2136,2000.93969726563
353,-35869.74,-48463.445,-53939.89,5177.06,7658.7373,-1691.6782,22858.732421875
354,18844.713,-23120.4,-267.09995,5030.059,4364.6113,6024.152,39575.59765625
355,4637.8076,-7471.961,7755.5063,-5840.2236,-8985.45,-6857.2715,26071.578125
356,9051.194,-2270.3813,-785.0554,-17579.164,4895.5923,-344.53873,33360.2421875
357,6998.0034,-716.583,-7386.9805,-12538.877,8149.639,-7936.8794,31864.880859375
358,-4757.969,9099.351,16964.67,1571.4795,255.96953,-2274.3167,19646.97265625
359,-1057.8673,-1004.08765,-5374.6846,614.5976,-274.30136,2739.561,6537.9248046875
360,-9972.857,-9756.325,-12275.407,-3317.9175,6442.7305,-1581.3274,13072.9130859375
361,-657.8469,-4919.467,-2454.3862,-616.1714,2763.255,-1311.9906,6553.05126953125
362,4332.623,4310.9175,-1854.2588,-9790.169,2272.608,1290.2723,18605.765625
363,-16652.955,-9116.758,-23402.74,-65.59844,901.73865,8496.344,19293.45703125
364,8126.633,948.37134,5857.642,-1609.39,-3574.6782,738.7261,9387.8046875
365,-3698.8264,11287.302,-8492.852,3709.8953,-9370.079,-6390.6147,27324.267578125
366,452.71143,-11577.174,-2975.6455,4645.244,1532.954,-2873.9937,14553.119140625
367,14819.15,2540.6724,3602.4421,6349.5244,-3618.3855,2808.6365,17965.0859375
368,-14284.438,-20980.367,-8426.68,6593.5283,632.927,2007.1394,16188.990234375
369,-1352.2117,-8999.876,-4699.9375,1881.4885,-2816.6501,-10612.588,20405.71875
370,9024.478,6478.3794,13079.146,-1018.80615,-1167.0642,-3394.9219,8661.583984375
371,4672.4346,4691.0967,-3.7998047,-1079.7963,108.109436,-637.412,5167.84375
372,-3542.2244,1048.8535,-542.1604,520.33716,-755.0196,-6.7836585,4339.0556640625
373,-435.1221,237.30399,73.37507,-1519.395,-1102.3766,592.1665,3462.97119140625
374,-5422.928,5824.1016,-2442.0374,-875.53094,1741.8389,-669.6818,10705.2470703125
375,-2976.038,8338.529,1372.3577,3010.1077,-477.27792,5497.0713,14705.3310546875
376,36.203125,-2509.417,-3980.1892,-2281.9875,-643.158,5189.559,10490.2490234375
377,-1783.8545,-5319.9077,-975.9142,1672.9535,-100.17215,468.4516,5009.80322265625
378,20510.309,28891.506,41197.203,-4220.2036,-1546.6718,4545.5933,21151.95703125
379,20733.568,10042.491,25082.285,-880.3192,354.46246,52.88435,13506.041015625
380,8528.309,-2952.0312,4167.3564,-5385.2275,-5523.3286,-5768.836,19470.818359375
381,-23764.39,-28343.496,-9824.451,13645.353,8708.434,12928.9795,39581.50390625
382,-14722.496,-17106.957,-25676.746,8089.0015,-3333.5461,-8792.623,23688.083984375
383,-25900.209,-16556.662,-31219.988,6290.251,562.3533,-337.19687,16890.798828125
384,-1526.5521,-2034.5259,-802.2678,702.9929,-982.4579,671.3976,2623.19165039063
385,26427.473,5422.4116,6986.1187,8843.597,6034.455,-2396.6846,27783.373046875
386,-12627.673,-2185.9268,-10217.295,-5765.2676,1944.284,-255.35823,14174.720703125
387,6535.789,17215.932,26027.834,-8190.7446,-4974.3013,1752.1171,23885.833984375
388,-3755.8848,-5383.8174,-8017.468,1312.9479,1016.11304,-9941.054,17849.826171875
389,-2890.5752,14417.926,14563.447,10348.573,1736.0159,10510.707,31046.2421875
390,4072.789,1463.9521,1217.3591,-1730.7402,-2.7119484,592.2286,4189.125
391,-4684.665,2688.462,-6637.8667,3648.1924,-6634.1445,997.9559,15733.1015625
392,6371.0996,-88.89795,10818.466,-4977.6807,4596.6304,441.35846,15117.669921875
393,14821.277,14131.284,3519.1758,-941.0741,4116.9883,926.6684,13285.2177734375
394,9390.899,8567.183,-799.32275,5913.3647,405.13705,-6718.423,18355.734375
395,2611.1592,9574.513,8176.3105,-987.65106,-25.55086,692.73083,6713.79443359375
396,-22546.742,-5495.663,-25471.258,-876.1796,-61.3188,-1270.8696,18876.384765625
397,8920.947,153.69006,-4068.8804,-932.4304,3298.8438,-3236.6858,14085.419921875
398,-6889.889,-14309.777,-12742.611,-3411.9636,5164.0234,-4478.2114,14865.1123046875
399,-13715.715,-12295.732,-31027.38,3710.173,-957.5644,2092.9402,19582.658203125
400,-4320.532,7350.671,108.39276,1544.8687,-40.819466,-1523.47,10875.1650390625
401,-4750.2197,7898.884,-3648.588,2664.8237,-264.7986,-3512.4368,14345.8916015625
402,-785.43726,11280.777,-2230.8442,-2014.1909,2049.3257,350.8849,13793.5771484375
403,8225.7,-3100.7517,-2308.548,2841.262,-1866.1483,3975.6055,14213.5634765625
404,-13323.066,-21975.072,-28590.14,147.53949,1769.8058,-1232.2489,13779.23046875
405,-2885.1064,-7511.972,-3482.5786,1143.5237,-791.044,-5649.573,10979.693359375
406,11237.285,-536.2842,13156.3125,-14866.943,9760.571,7943.191,36097.9296875
407,18006.373,13461.86,-3320.0117,-4381.0996,3811.5056,-2555.4878,22345.1484375
408,-16440.354,-6070.3726,-19266.275,-4455.4497,-3879.917,-4678.1475,17753.779296875
409,5312.1377,7818.578,4861.8726,2461.9524,-2021.0486,-3182.5017,8272.607421875
410,-35345.594,-16967.586,-53953.516,-698.6688,-2238.4373,2511.7297,32579.212890625
411,-9981.028,748.3616,3132.2505,-9379.14,-10068.693,-482.692,26741.7265625
412,16387.11,21717.084,25982.537,1052.9664,-235.14305,5719.4175,13075.349609375
413,-5922.037,2803.3125,-788.721,261.05884,-4785.292,6413.906,15811.666015625
414,14692.826,2654.581,9710.196,1030.5481,5950.913,8836.876,21294.626953125
415,-3443.7666,6229.37,569.61206,4607.308,-260.14737,-8311.057,18492.1796875
416,3027.7222,18238.48,-2122.9922,-4891.7124,-2928.4863,6120.5586,23369.673828125
417,-27617.69,-17692.443,-20469.59,-655.83295,-1648.3281,-22214.385,39604.76171875
418,6473.0728,3468.6326,8897.048,8592.847,-1805.0742,921.2482,16000.5322265625
419,-17957.576,-20313.912,-24995.805,304.4233,-3466.4897,2240.1182,9480.85546875
420,-3590.269,977.64844,5916.0596,-3386.9504,2319.5977,-617.8356,10932.2041015625
421,7958.1484,-12092.781,13962.658,-1951.2375,-1257.7177,-1937.8467,24205.8515625
422,-2776.8809,5773.9883,13879.417,-1111.7272,-1587.9618,-4837.736,17017.859375
423,14268.669,7268.6514,10012.131,952.47687,-427.8781,1933.3287,7197.685546875
424,2331.7046,12918.764,9613.379,3326.6143,-3268.2407,2277.2368,12992.990234375
425,4751.8027,3960.063,7743.6133,780.8006,6994.2456,-5706.059,16068.9521484375
426,-13750.568,-2220.606,1509.731,1811.9296,-4397.9644,2999.8833,16874.2265625
427,8638.951,6662.6025,-7588.778,-3139.1301,472.17993,-3353.5432,17295.765625
428,11196.865,10691.64,12223.6455,12591.6875,2970.8435,5266.6216,24231.583984375
429,-5123.9775,-1083.7046,-15927.589,2008.7428,-2151.855,-507.6903,14263.982421875
430,-5296.0034,-6187.788,-2283.393,-1128.7284,-1265.8743,4922.0996,9688.564453125
431,5675.7656,2931.8967,12219.649,-7683.8804,-206.27869,794.05176,15730.6083984375
432,-5122.7993,-402.4226,-3674.2625,2277.949,-3734.5715,-1543.0044,9060.5400390625
433,-1601.4978,-15342.61,-10037.75,-485.94632,-3267.3425,2238.267,13850.2548828125
434,15771.531,8512.145,16598.676,-3662.272,-833.31287,5654.6484,14058.1826171875
435,13458.155,6660.801,13634.344,2320.9802,-1752.7128,838.6118,8655.5966796875
436,14424.301,-7282.9795,-4288.044,931.60297,6556.088,-2504.6218,23780.951171875
437,-17381.805,-23408.756,-21043.803,-6855.302,2200.876,-3100.3752,14560.828125
438,9704.004,4451.439,-514.07697,2747.3076,-2872.8613,-2006.9369,11739.4189453125
439,1405.6659,-7006.1875,-6278.7856,1679.4158,7553.181,-2116.5618,16069.2880859375
440,1761.7539,449.1325,121.02756,952.5357,-57.71423,-172.69403,2254.49340820313
441,32041.15,6601.129,47827.086,-4745.6157,2178.7512,-805.0545,37171.66796875
442,2269.3232,-4792.3257,-8495.658,-348.3046,-1908.4066,2072.791,10672.9833984375
443,6492.5254,3286.8015,7101.977,-3501.3257,2098.2378,-514.7386,7961.30322265625
444,-0.26516056,-7331.9385,-267.13992,1857.9884,-4482.981,4429.139,13467.27734375
445,-7551.901,-10561.214,-6666.34,-2765.2646,-1104.4674,-1040.3544,6507.8212890625
446,-8220.993,-7071.971,-20417.725,-3325.6238,-584.2445,-1022.4411,14192.755859375
447,-149.05826,-1663.5112,1662.8785,56.49649,-34.331295,2643.579,5412.8935546875
448,-2194.652,-6490.399,-3024.1587,4442.692,548.2766,860.325,8826.8349609375
449,544.5873,-4271.668,-1960.977,1838.3574,-192.86574,-6227.891,12000.703125
450,483.1075,9642.608,739.4645,-2107.6924,7670.714,-7287.1694,20754.98046875
451,-8405.6,-2092.4138,-5055.2764,3552.3171,3666.7625,-1758.3912,10835.03125
452,11628.316,1493.4757,8764.377,-361.78348,298.94257,-1139.047,9297.5595703125
453,-8515.045,-1716.6794,-15138.299,-4918.7515,3903.2222,1375.177,16095.765625
454,-3036.6155,-8390.847,-12250.334,-3733.8582,6403.523,10096.185,23127.197265625
455,1853.0039,4234.2666,-4929.8784,-1642.745,2136.3198,47.232124,9466.9873046875
456,187.938,2221.05,-4336.7773,2427.5354,-3269.1333,-890.65924,9269.6357421875
457,684.0509,-2643.5305,-4931.5537,-4169.434,1187.0068,1227.6411,9209.8994140625
458,5125.222,-2471.9236,8388.003,3535.765,2329.2935,1055.8776,12258.732421875
459,-952.51984,-7012.9204,-1539.089,2143.653,353.1763,1663.9574,7482.23828125
460,-16578.94,-16832.766,-22593.371,374.83347,2689.9407,-1678.2308,8080.1865234375
461,-12133.342,-8886.613,-804.2794,-3045.5168,-828.2024,2086.9097,12043.8935546875
462,429.8671,-6159.347,-517.069,-9730.851,-113.55473,1851.7734,18233.736328125
463,9289.222,2469.4395,2127.2705,177.358,-758.7577,-2780.3171,8600.69921875
464,4648.7524,369.59616,2910.2026,-6833.2837,9117.589,-4447.723,21510.77734375
465,14051.089,18486.068,11242.799,-63.793213,-1362.9938,1526.9198,7251.90771484375
466,-2098.6587,2800.3474,1397.884,-1185.3741,-1701.2963,882.1383,5859.14306640625
467,4448.3384,2761.4294,-2276.7993,857.8722,128.86623,-2018.4231,7155.98974609375
468,8544.531,5548.247,-2117.9155,194.31586,-2600.002,-1261.5272,10765.009765625
469,-5529.708,-6459.3325,-9462.48,-5691.871,-4848.702,2704.9016,14224.84765625
470,9451.591,16990.348,1339.2822,-1420.7169,3920.135,-6183.1514,18725.673828125
471,-11589.134,-14316.039,-7457.396,5081.516,-4081.876,-364.18018,12791.5029296875
472,-5327.195,-714.4296,-7827.81,3634.0955,-2249.8672,-2950.9717,10954.2587890625
473,2504.9612,2047.3485,-1759.6324,-846.81525,969.4664,-1507.8573,5313.79541015625
474,2028.2006,1904.6544,3319.6558,-2213.1455,3200.0913,-1415.0333,7298.31640625
475,28193.615,21493.438,27662.441,2692.2065,7477.338,5807.5923,18228.4296875
476,-3501.2651,-4157.9434,-15811.625,5323.0107,1529.7452,2627.4956,16019.5859375
477,4382.1655,2836.954,14065.824,-1113.1879,-5457.915,-1902.007,14664.96484375
478,-1238.9169,3628.2559,4189.444,50.466526,-1755.4536,319.21893,6024.44140625
479,2486.9758,3738.2397,2240.684,330.35226,2039.6445,109.19947,3844.23193359375
480,-442.50363,-2311.6106,-368.52197,-3009.9207,-3715.719,-1473.4183,8874.05078125
481,8508.736,401.0653,5605.115,-1283.4169,953.1194,-780.7015,7753.64453125
482,-4741.7983,-5407.951,-7480.4717,2566.88,-2690.4182,1403.33,7315.01123046875
483,-4107.1787,-4908.625,-2700.9978,2814.3555,-2604.3145,435.45078,6958.78173828125
484,5461.4194,6504.7837,10335.684,-107.38166,3212.1145,723.32806,7233.16455078125
485,-5853.1006,-3681.8516,-2050.2114,1720.5573,-341.9387,1672.3894,5342.43798828125
486,-4008.976,-6268.9795,-7230.5117,187.0431,-1881.0468,104.72172,4354.08935546875
487,1971.4935,1870.837,3109.6555,-2578.8296,922.07465,-1687.7251,5697.99169921875
488,-9566.344,-4746.544,-24362.81,-4376.8003,-6048.898,-1134.0999,22013.111328125
489,3484.5852,3754.2207,7184.7993,2642.6355,1249.3685,-157.72186,6202.78466796875
490,-6189.806,-2408.8967,2551.462,1900.7317,-976.49603,848.6856,8574.08203125
491,8208.624,7840.6504,10714.419,1344.4059,-1440.6974,2065.8745,5638.18212890625
492,63.16624,-4507.3696,334.09457,-351.11743,1056.2139,-2680.692,6890.31396484375
493,8745.876,6904.965,14928.723,2682.6758,3156.6067,-3329.926,11736.548828125
494,2295.4175,1418.5101,665.2073,386.26242,-1146.9321,-2077.788,4398.01953125
495,-5978.0923,-3366.3174,-6335.0405,432.22998,262.34415,-481.9025,3056.90698242188
496,-4946.6367,-4025.4807,-5346.3784,-94.30256,337.17828,599.38837,1679.90832519531
497,-194.57599,-5652.4233,-8028.1025,197.88898,845.0709,-3674.2844,9547.7255859375
498,2405.3816,-4677.5957,-8066.6685,-1746.5126,2234.0989,-12281.423,23712.521484375
499,5910.762,5142.484,4474.4346,1322.462,74.61007,-403.03497,2701.947265625
500,-3586.5693,-3662.9446,-14223.846,-1172.495,-603.6306,-1707.3192,11238.6484375
501,-10025.174,-2042.7395,-2616.036,621.67816,-20.335993,-373.07022,7813.44091796875
502,-13286.233,-12968.743,-9369.99,964.6027,2561.772,-129.54144,6060.04443359375
503,3764.6826,2180.5715,-1781.4537,1438.9933,3559.8613,-1345.9015,8610.90234375
504,-91.404884,-143.70213,-493.92734,-1595.0183,2060.5793,1195.8987,4980.40576171875
505,7510.3203,4146.321,6930.5806,-1666.74,-1689.9841,67.70343,5159.29296875
506,1656.0521,-8644.589,250.82492,-6412.2393,-2254.643,-64.13527,15238.6396484375
507,585.06903,2738.8137,2970.741,594.68964,-3851.5862,2317.529,8177.39892578125
508,-449.9823,-2310.868,-2433.1475,2128.3257,91.820595,-857.5314,4418.83251953125
509,6831.9214,3964.6868,3858.821,1250.9396,336.21866,-2476.4758,5654.04833984375
510,-13698.892,-6931.985,-8889.258,2653.7705,872.7312,2729.9426,9063.525390625
511,-4573.5894,2354.3315,688.5148,1618.3915,795.27435,-357.88498,7026.349609375
512,10128.684,-3517.719,5489.145,3752.7595,-2235.2456,-3197.1753,15242.7353515625
513,2074.3923,2781.8076,7574.1387,681.9886,599.34686,569.2039,5504.724609375
514,3484.4717,4308.1475,7074.5034,-2673.8386,-4621.1455,-1296.5111,10058.1201171875
515,4899.9404,3050.9038,5874.1934,-465.0821,-567.99414,156.17249,2803.47290039063
516,-3768.7349,-1784.8931,-6925.761,-457.22357,-1321.5784,1658.2262,5855.0400390625
517,-2773.5493,-2566.849,5149.3667,2682.196,-948.30176,-1003.50214,9406.3310546875
518,2328.9734,5382.721,1323.7844,-1875.2158,-3677.7827,-1218.5592,8305.876953125
519,1084.0939,-1788.4413,-13.371815,-4573.2583,2262.1208,-2115.7778,9890.8330078125
520,-2591.7947,3776.466,7113.428,1092.0195,3881.1904,694.6969,11097.6103515625
521,-3672.2732,-5276.4844,-5452.1753,-1034.7709,-110.53195,253.01515,2515.38452148438
522,-10327.541,-7842.5547,-5948.6055,2120.9998,-86.79329,1022.2468,5578.720703125
523,-7712.08,822.63153,-3120.6016,-700.6575,-263.26978,-2711.1824,8858.23046875
524,-1170.9506,1867.3782,3574.3784,-482.6638,2627.6145,-216.56529,6235.73486328125
525,-1252.9816,784.5863,270.47998,-1445.7646,-404.58453,-94.79965,3187.03540039063
526,-14119.382,-11968.215,-14681.736,-3261.1921,7859.8496,-1611.1357,15204.5576171875
527,4330.412,4293.6196,4638.845,619.18945,-1475.6216,-1788.0514,4169.14599609375
528,-6263.433,-3443.5793,-732.793,2434.3708,3375.9062,-352.37686,8676.703125
529,-3841.8674,-4899.1675,-1756.6097,1590.522,-1447.3204,-975.2527,4939.40966796875
530,143.52255,-3483.1714,1863.6133,681.23517,-5539.4985,-897.11017,10872.65625
531,8304.9795,2358.0503,12153.23,-42.326965,1885.8085,1009.63574,9316.2529296875
532,-7082.5396,-7563.039,-3134.541,763.711,222.86911,2580.4114,6291.97314453125
533,-8009.0957,-6591.1387,-15310.595,4405.036,-244.72676,-2009.2491,11669.603515625
534,319.8886,-1862.6924,2465.9534,424.23508,591.493,387.13556,4011.52758789063
535,-1565.791,3449.3096,-2262.1584,-2086.75,1232.2891,301.48776,6857.14111328125
536,578.0416,6132.5146,-2573.2253,314.20166,3014.8887,1845.5631,9801.5009765625
537,257.26297,-173.29288,1493.4497,-3062.4922,-1532.9508,-82.69912,6119.8603515625
538,-506.766,-2749.6443,62.593216,668.51965,-915.2092,654.4336,3430.75903320313
539,-4087.3542,1056.1174,-6730.147,-3694.9954,-2042.486,3107.8806,11379.09375
540,2798.892,1609.8027,6371.499,2589.7698,-3563.7095,1151.7888,8979.2119140625
541,-5962.7627,-1691.6058,-2946.7588,2074.0137,3130.2856,-625.1666,7611.2021484375
542,1512.9294,51.64939,-4910.646,-5.2684474,-18.424217,-713.5983,5961.52587890625
543,-2234.2078,3967.5503,7258.7666,-1700.9213,-252.2136,-2420.0537,9805.3779296875
544,2022.9749,536.7595,-448.61536,275.01385,-215.86388,1131.9458,2975.7138671875
545,-548.3857,-4996.1694,-5098.6963,-1727.296,275.18158,-1345.0587,5903.78564453125
546,5377.012,884.15784,-3354.7048,-2874.7754,-1482.7775,-1092.9384,9600.55859375
547,14.396328,-5352.0386,-1055.7333,-1457.9487,-1296.1948,-845.9053,6145.31494140625
548,3939.14,-2598.8044,-4081.9397,318.33563,321.7335,35.402096,7433.66455078125
549,6403.62,2617.4902,3322.4292,1155.8557,2180.038,-300.46725,5540.69287109375
550,1516.6168,4119.02,12393.444,-2254.3784,-794.4954,910.8171,10788.93359375
551,6953.283,3756.9673,3537.1602,-944.70874,-292.64545,1596.4149,4641.90625
552,-95.36921,-5422.226,-2596.9106,-1908.565,-2120.711,1838.5779,7474.55517578125
553,4932.8296,6481.1997,5490.954,161.36076,-1514.0431,1889.382,4416.91650390625
554,3213.2686,4236.761,5818.5107,766.4675,741.7727,-1261.3191,3654.34716796875
555,11167.3125,5133.784,7080.762,-2836.4475,265.46713,-134.38533,7269.7275390625
556,-3650.4243,-5324.745,-8788.431,222.64532,3633.5347,481.266,7813.5185546875
557,1991.7223,28.985453,4866.644,-172.68837,83.158585,-2549.4604,6113.07470703125
558,10727.833,8165.8228,27516.092,743.96045,1161.0414,-172.84274,18363.423828125
559,-569.07153,-3940.2952,-210.836,979.0963,-1104.7417,228.2807,4403.9482421875
560,5750.5483,-791.1254,3120.0347,-2007.8994,482.9935,728.24286,6847.69873046875
561,2873.0735,-2072.5017,186.0036,384.84454,-1252.4939,-883.77594,5087.60009765625
562,2914.0837,-2105.7437,1608.0564,-501.93088,-348.22516,-295.90836,4661.61083984375
563,-1012.8037,5160.859,-276.57077,-522.243,932.18494,273.35858,6144.931640625
564,-3737.5269,-3914.382,-4604.123,1317.0404,-471.1128,-1754.4974,3966.537109375
565,-1393.9359,-2884.5312,3226.5696,713.11005,172.7019,-250.04358,5679.86572265625
566,-355.4282,-1863.5729,-3819.1772,-1035.9938,-1151.4088,-865.24133,4300.142578125
567,-2353.385,912.92236,-153.98108,1242.5436,-3385.8132,-1228.9993,7202.5322265625
568,-4939.7983,-2472.464,-3405.6287,590.6312,-568.8081,1100.6847,3210.57470703125
569,542.9308,5380.8145,-1502.2677,-934.06396,-263.15,-373.5885,6381.71337890625
570,-2059.167,-2649.1821,-7121.4155,-1254.2944,3723.1897,-2497.5637,9381.22265625
571,-9933.271,-2517.6587,-3732.368,-260.16125,2755.6821,-1220.7181,8655.2802734375
572,-30508.025,-9522.798,-37981.715,886.3624,-7984.272,6775.239,31374.947265625
573,34932.94,31907.377,51853.418,5663.7393,4051.6113,-2811.5994,22712.25
574,6046.113,-4535.085,2793.2903,-1230.6238,1589.787,-954.08453,10147.91796875
575,723.5488,3421.1155,9678.1,-1944.7592,625.62146,-345.46918,8728.3369140625
576,-6938.427,-5882.829,-774.5539,-1596.3915,311.86578,7049.9688,13771.1435546875
577,-2527.7466,-5583.035,1105.0028,-8447.731,17.659262,-2783.7134,16461.20703125
