Element Label,S11,S22,S33,S12,S13,S23,Mises
1,-20277.61,-9602.647,-2383.1548,7516.6953,-18581.117,-2257.2112,38258.39453125
2,-23814.215,-24484.008,-18735.574,1751.9368,-2852.0935,10605.589,20017.23046875
3,5802.106,4916.761,6813.8345,633.86975,-92.137375,152.68839,2000.98474121094
4,42231.395,41641.062,43457.27,-328.2894,253.36603,551.6931,2000.98364257813
5,-10930.941,-10765.898,2916.2925,59.59305,173.53978,-2553.1611,14461.833984375
6,6063.818,-9203.525,9212.92,9575.283,12700.89,-7940.23,35202.62109375
7,8262.696,9975.503,9522.164,180.93932,-527.2214,486.17447,2000.98522949219
8,19861.135,18531.904,20431.559,477.82535,342.66397,-196.86847,2000.98486328125
9,29572.227,30387.107,30678.367,-759.5552,372.72675,538.526,2000.94580078125
10,27160.096,25942.713,27716.66,172.08124,316.3962,617.9121,2000.98449707031
11,-7265.3228,-9870.353,-787.9382,-13213.803,428.2184,6189.3237,26550.01953125
12,36258.93,35872.316,35803.46,703.99554,-309.09766,826.571,2000.98559570313
13,33839.33,33172.055,33899.73,-1052.3479,175.48051,-182.61371,2000.98449707031
14,81137.44,79840.58,80998.64,-896.4546,154.80937,-0.71356094,2000.97485351563
15,18659.438,18644.72,19268.822,762.2174,-120.69787,782.46967,2000.98498535156
16,4580.1914,-10588.584,21617.244,4915.6685,9535.655,7970.6445,36258.17578125
17,15890.477,-4733.4565,8410.482,-957.06335,1193.3566,4718.1772,20020.8359375
18,120137.31,118780.32,119851.96,-129.06964,838.2997,321.17142,2000.82556152344
19,23361.541,21531.783,22952.527,-426.62442,-297.69974,-376.4376,2000.98132324219
20,26207.7,25007.855,26340.621,567.9256,683.82806,-74.488556,2000.97607421875
21,-2612.158,-9360.409,-796.23627,2971.5784,-5079.4067,-4794.4473,15295.19140625
22,5632.775,5433.798,4194.6167,-237.95328,758.64514,308.6098,2000.98559570313
23,13247.053,13822.936,12437.049,561.5583,-682.1499,-263.11993,2000.98474121094
24,2180.067,1638.561,2950.4539,501.23483,545.7386,592.4098,2000.9853515625
25,1504.1904,887.9834,733.1875,427.6271,839.1764,530.2942,2000.98498535156
26,6006.629,6453.9727,5152.3975,592.927,-366.5232,641.4245,2000.98571777344
27,18153.062,12611.225,12354.514,2748.3071,1096.5996,-2186.9133,8533.197265625
28,1845.0424,9304.153,7745.501,2921.6523,-2769.539,-4417.7725,12393.986328125
29,28366.629,29739.225,33572.33,910.6187,-6286.623,-2573.5725,12757.7587890625
30,2775.9692,-17071.883,-2334.2961,3498.9167,-7357.779,-1346.7579,22873.642578125
31,13491.715,16763.51,13321.868,-1548.8959,-6902.442,-5650.2124,16037.2138671875
32,6323.282,653.93146,3587.15,-376.37628,-885.3987,-2202.4622,6437.791015625
33,-5689.3496,-4525.317,-5143.41,-2157.1519,-3413.2175,992.6044,7272.09716796875
34,5734.5444,18413.943,5663.5596,2476.1804,-7851.523,-2999.2458,19798.796875
35,24240.625,10158.384,19015.506,1673.8494,-10713.017,9025.708,27370.271484375
36,9541.802,6735.8154,16225.751,783.4303,-15372.939,-447.2499,27977.2578125
37,21465.688,30125.533,10894.814,2015.7654,-13590.4,10503.657,34286.23046875
38,14405.247,11555.259,19949.074,-7428.476,-10411.938,1629.6078,23524.35546875
39,21034.29,18670.97,-3549.3318,-10352.024,11183.644,2687.9556,35640.30078125
40,-11093.052,2909.0173,7731.947,9555.11,-7796.3506,2812.6313,27691.73046875
41,27327.322,3946.6445,29620.809,-2944.4094,1792.729,9691.681,30380.515625
42,1934.8171,1127.235,1568.7861,986.38556,75.19122,438.76373,2000.98449707031
43,8883.91,9798.829,8904.076,488.91544,229.49622,877.45667,2000.98571777344
44,66790.52,65943.34,68043.54,-302.77682,-134.62296,329.2699,2000.98425292969
45,931.9173,316.65585,172.59969,-478.36398,-909.03656,-341.79398,2000.98449707031
46,5481.047,2472.5225,5964.4976,298.78378,971.1467,-292.0072,3753.98657226563
47,10143.449,9242.909,10363.753,896.3833,355.58914,228.18506,2000.98571777344
48,20807.22,21387.365,20082.342,142.7856,-418.4288,-843.59607,2000.98120117188
49,-81539.43,-81758.836,-79987.16,523.0247,239.1396,-266.70816,2000.97424316406
50,1516.9315,908.1671,-432.12213,-271.1753,-515.96094,24.481007,2000.98547363281
51,8124.7354,16913.59,23464.848,4210.452,-5260.1865,-5418.6626,20050.4140625
52,4240.811,4206.9067,2719.358,700.37286,-214.45226,208.18372,2000.9853515625
53,5928.0938,5692.437,6506.116,4836.515,252.0291,-2359.5537,9359.1953125
54,17570.146,11355.447,1038.9352,3332.2961,1437.9344,-4033.9897,17248.23828125
55,24194.975,38076.48,32662.047,3432.4194,3329.5317,876.6055,14756.658203125
56,2281.8262,2202.024,890.462,363.91858,-459.60822,-616.89526,2000.98413085938
57,-2713.7644,-3671.8037,-2578.8127,-876.9853,-346.3746,300.757,2000.98486328125
58,176.99876,282.94714,207.46298,-1057.3931,14.515741,461.93228,2000.98522949219
59,8220.007,-13199.559,-8011.561,-16273.725,4965.926,618.6769,35273.5078125
60,7731.3003,14770.455,27012.479,1829.864,12755.44,-3499.7192,28644.08203125
61,12038.85,-1015.5655,7642.3315,-2761.1548,12677.947,4.6711583,25247.1015625
62,-5029.166,-9640.87,-1457.1073,8901.867,-2387.521,-8222.001,22541.8515625
63,-10990.637,-22796.885,-262.407,2703.8076,-3249.2014,4752.872,22416.859375
64,-14306.662,-15207.152,-13821.742,304.2226,851.8127,-148.83746,2000.89038085938
65,-39890.176,-36674.188,-32429.197,1934.1997,-893.6015,2694.6006,8798.6328125
66,7779.872,8281.187,8405.079,814.0991,-630.47296,-405.71307,2000.83605957031
67,77919.78,76195.484,78114.67,-64.48491,-459.42725,59.25364,2000.86474609375
68,128481.31,127448.73,127283.22,771.2129,264.27026,498.52658,2000.98425292969
69,244630.44,243785.94,244884.83,-339.93744,841.26526,-424.79092,2000.98071289063
70,-691253.7,-691205.75,-691182.56,-29.190407,-6.981094,1115.3429,1933.55090332031
71,235296.7,236661.83,235691.39,-53.240417,-877.56964,260.74158,2000.84838867188
72,69320.72,68053.086,69182.07,641.4343,-516.3041,-414.3072,1999.833984375
73,-14806.573,-14782.172,-14491.388,970.36304,394.50284,454.3858,2000.8388671875
74,122054.38,121929.89,122020.87,-878.28564,-335.79074,662.0136,1994.908203125
75,-129578.59,-130010.96,-129299.484,886.9843,36.76972,646.566,2000.98559570313
76,32191.277,30805.299,32292.023,785.12506,166.53148,9.293329,2000.85986328125
77,7061.002,8917.384,7794.4307,-479.2278,101.54287,469.568,2000.98486328125
78,6784.0527,-5111.6826,2782.2769,-614.7481,-467.4808,18677.967,34033.9140625
79,20630.926,-11107.666,19537.336,820.6029,-2086.1885,4387.1953,32351.8828125
80,27018.18,-4044.8506,16670.83,-1300.6969,8572.744,-112.69692,31243.3828125
81,13546.469,-15342.87,4255.766,7566.9106,1600.8765,-13476.558,37105.5859375
82,-6414.4707,-30041.227,-557.4985,11692.277,2874.9985,-2526.4133,34423.5703125
83,18455.74,-1478.6942,10211.008,11400.229,15078.8,-1858.5981,37193.71875
84,7638.9688,-24744.168,-5841.598,-5871.3184,-10325.997,3718.8162,35477.2421875
85,19861.865,-18167.86,1167.3508,4662.8486,491.4343,-6400.4355,35688.16796875
86,34569.76,26658.87,56221.434,-7623.58,4861.1343,-8288.814,33970.91796875
87,24118.611,-12465.555,15758.896,-5690.7847,4050.3677,2785.766,35666.59375
88,23127.715,-952.0147,13147.276,-7824.375,-1592.2393,11618.506,32176.908203125
89,-3290.5166,-11833.942,-4780.311,-5919.1963,-5625.064,2715.6008,16871.271484375
90,-10230.929,-9647.867,-9721.662,-892.54193,-586.5701,305.21924,2000.9853515625
91,7342.204,13045.69,21477.197,4345.9585,-3894.272,-3551.395,17079.35546875
92,10536.015,19496.094,17339.514,-7936.827,-6384.0376,-3400.7449,20286.779296875
93,32503.826,34777.89,29716.783,-61.207882,-15423.722,-493.54315,27086.7578125
94,31090.521,32196.492,182.97168,-3370.8904,9898.538,2091.2302,36494.3046875
95,-8637.985,-11973.836,-3953.1833,693.3689,-4825.5835,17145.291,31652.599609375
96,153667.36,152319.53,152585.08,623.083,259.3962,603.3114,1996.93640136719
97,26152.352,25449.951,25502.115,-117.011765,-108.614105,1074.4192,1999.76086425781
98,3528.5813,4485.0054,4200.4927,511.801,110.11016,905.2016,2000.98559570313
99,5924.505,4613.6187,5711.9834,648.31744,647.0048,26.797642,2000.98559570313
100,4565.657,-5922.7627,7340.411,-1060.2749,-4051.577,1256.0106,14288.4580078125
101,36103.285,29332.635,35648.96,1897.4585,-6990.5186,-6120.388,17684.8125
102,8433.8,8727.48,8243.779,-245.32314,-1100.1979,-68.12835,2000.9853515625
103,-20404.475,-27202.172,-21679.62,1631.0433,-4423.5815,-271.12238,10299.1396484375
104,36541.867,37451.996,46430.07,-8151.703,-8722.73,-236.69318,22746.0390625
105,1979.8213,10111.681,-4397.923,4205.9683,-3765.0337,11950.697,26128.9140625
106,8663.79,-12005.871,7218.995,4523.361,8058.9556,4326.5796,26680.318359375
107,-5666.8403,-5047.521,-5810.735,27.035503,-2376.4395,1374.4688,4806.81396484375
108,3575.1934,1953.4058,2314.26,597.8306,-468.4238,-181.01042,2000.98559570313
109,20030.088,23917.176,18760.219,12673.816,7104.0728,13563.72,34739.91796875
110,2775.3076,14473.072,25579.854,3573.5066,7412.9937,3317.5974,25026.173828125
111,486.76215,-5404.0522,-18035.531,-10647.66,15158.728,-6263.4526,37627.61328125
112,26611.604,15707.219,40434.574,9402.964,-1717.6599,6700.8716,29487.529296875
113,-97137.414,-97630.836,-96867.32,242.72621,-478.23685,-947.1113,2000.90612792969
114,138337.9,138049.84,138216.97,-1008.2699,540.04803,73.9247,2000.98547363281
115,54572.137,54756.0,54529.043,654.47015,707.4812,625.5063,2000.98559570313
116,18149.656,18592.889,18027.975,-901.19495,485.49942,-445.4073,2000.98571777344
117,226305.75,224250.31,225181.52,-53.661175,521.6178,-11.281452,2000.80187988281
118,51809.17,53152.676,51498.816,169.09206,386.262,-619.75793,2000.9892578125
119,54391.383,54113.633,55029.562,951.616,296.9704,346.87814,2000.98474121094
120,17038.328,16591.482,16484.342,-1068.3846,277.26358,-173.15993,2000.98510742188
121,-3819.1975,-8365.086,-8740.842,675.73425,-6846.8613,-3147.022,13936.7880859375
122,23589.477,32732.936,31995.729,1694.875,-9407.215,4010.0015,19993.771484375
123,162913.45,162212.7,161681.34,364.52945,289.3152,857.7791,2000.71325683594
124,36165.52,34904.61,36322.24,-484.3504,-314.07816,21.512495,1677.25158691406
125,28260.12,28854.71,28863.574,670.4316,511.50378,709.8621,2000.98596191406
126,506.1883,635.12805,930.5408,-346.01462,-138.07686,-1071.6863,2000.97314453125
127,9315.257,10238.336,9257.2,-743.99084,-681.8091,115.07706,2000.98046875
128,12673.469,12900.544,12225.332,389.10623,-675.36536,780.4327,2000.98522949219
129,6285.9756,5825.1772,7062.6846,-708.5157,-258.6807,612.0168,2000.9853515625
130,22788.9,19985.66,46296.81,6876.694,7.018418,-13685.79,36471.19140625
131,10576.311,345.50693,24388.416,9257.064,6131.4507,14076.249,37430.44921875
132,16408.973,-2789.4624,25713.402,10511.63,1418.2191,-11088.035,36607.83203125
133,1822.8564,-13228.454,20970.441,10370.71,3052.8784,-2836.7576,35441.8515625
134,16677.387,-6616.1187,22366.992,8481.892,6263.985,-9153.431,35949.76953125
135,2149.4692,1792.3492,2755.8445,-1046.3317,-50.210827,-7.6382947,2000.98547363281
136,-3674.8232,-3430.708,-2987.6084,950.57886,522.1468,192.46962,2000.98547363281
137,6042.915,7221.6025,6082.3525,338.48233,867.4707,139.34236,2000.96252441406
138,-67920.86,-68709.45,-68070.46,896.41724,253.59178,-539.7657,2000.98608398438
139,304945.94,305411.62,305483.7,-555.51764,943.0381,-226.1866,2000.71472167969
140,167768.39,168516.73,166878.36,432.6839,-455.26935,-504.9692,1991.64794921875
141,111154.78,109868.11,110677.195,-293.39664,-391.73593,-792.78143,1968.0546875
142,32234.85,28629.213,30092.654,1224.4097,-1676.1992,6188.6313,11734.1201171875
143,24294.822,23097.006,23024.43,904.09143,89.320465,15.904776,2000.9501953125
144,42556.37,44125.2,44054.29,-123.18172,634.64343,362.62494,2000.8330078125
145,-1709.717,1029.448,23047.912,-2086.5872,-929.9115,-3590.7383,24636.638671875
146,22796.158,40454.21,25948.768,-1886.4576,10039.101,-9216.315,28877.759765625
147,3727.2068,-13458.37,8954.826,-12469.723,12233.374,3256.028,36874.99609375
148,7927.5503,21748.63,-7561.5405,-14426.329,2086.58,-6062.92,37318.97265625
149,19804.195,-1242.4589,18547.969,-12420.535,12042.902,-3688.9216,36835.1484375
150,-11090.887,-12945.063,-11517.144,399.10593,470.55054,-103.97147,2000.96252441406
151,2237.6526,2766.441,1389.5288,-569.7991,-657.9814,-307.49878,2000.9765625
152,-27085.396,-26587.47,-24142.37,4439.44,705.77966,-558.4174,8306.603515625
153,913.2908,3087.0076,7142.035,1039.2592,1799.2147,8188.153,15622.8037109375
154,3503.971,4345.6196,3186.3147,391.46207,-642.7006,639.8933,2000.98559570313
155,1229.5748,-2762.9456,647.1763,6872.9175,-4938.178,-2644.9487,15805.3544921875
156,14912.184,6108.544,21647.195,-5400.457,-5251.285,1674.4828,18994.513671875
157,18740.414,4270.7974,22001.273,7845.873,-14525.581,-5777.2964,34423.37109375
158,21447.756,21294.72,20713.521,-3999.5195,-3326.1245,3886.686,11267.072265625
159,19706.81,25168.473,21478.775,498.91006,-11868.49,2419.7632,21545.009765625
160,-836.97546,-20119.291,14870.255,8181.0977,4523.849,2653.4905,34708.87890625
161,3720.7822,928.4428,-4232.6265,-6943.9043,15244.284,1321.7506,29931.662109375
162,11219.335,-3453.473,4954.012,-70.18737,1888.7206,20135.385,37277.78515625
163,7955.2754,22855.324,39646.62,12752.692,2438.5261,-2189.0928,35696.76953125
164,24172.336,2428.9832,15316.359,514.0326,1457.0464,-16679.824,34647.57421875
165,3396.7913,5383.9087,4406.4854,332.95828,473.79108,109.83241,2000.98583984375
166,19761.898,20879.385,20081.254,-773.16437,-627.4717,108.815,2000.98022460938
167,14101.125,15061.718,14897.09,-794.45825,-630.83777,203.98502,2000.97241210938
168,16725.4,14959.231,23109.56,-7100.202,-991.73083,-3169.861,15475.3232421875
169,18352.031,19647.58,18904.68,-6.769925,888.7412,-349.44403,2000.98413085938
170,21425.9,25109.16,16228.164,7381.1074,1741.1733,-4308.209,16968.994140625
171,7956.4736,8107.773,7390.57,482.5859,69.14426,-976.7587,2000.9853515625
172,5430.446,4235.8433,5562.815,-867.6299,-206.22359,-71.35896,2000.98254394531
173,7562.4526,3166.765,5929.6113,-748.92975,-2671.3267,4832.6226,10390.5791015625
174,9100.385,-5814.8857,1302.3894,972.74866,-4956.92,20058.463,38085.98828125
175,25854.166,38706.527,52976.188,-13792.903,3110.0762,-5723.247,35358.48046875
176,377.7458,-77.755424,1261.2802,-625.90814,-363.09482,589.51416,2000.9853515625
177,175.81686,1844.5704,1739.6909,520.84265,-108.27606,421.9873,2000.98522949219
178,-5883.4126,5845.7056,-15042.963,5372.301,4474.179,15685.463,34837.390625
179,-4018.278,-22642.057,10703.522,13279.058,559.17004,-711.45386,37002.8203125
180,21458.74,25025.316,14880.632,7918.6284,-1686.9395,-1291.7443,16766.34765625
181,7196.549,26728.768,3097.0361,-7251.6055,-9569.409,5656.672,31731.02734375
182,73897.66,73314.42,74328.53,-450.20905,-892.58954,-275.99258,2000.96105957031
183,50232.973,50068.78,51952.473,300.3856,-357.42145,-167.13084,2000.92712402344
184,-23478.098,-21986.408,-22849.402,730.6092,466.62512,-149.19368,2000.98461914063
185,10830.959,8644.882,9854.814,335.04578,-91.53553,-121.33025,2000.982421875
186,11681.966,5294.3877,8748.291,-1872.5895,1614.0931,2485.5537,8218.158203125
187,11914.901,-17650.4,15889.149,5740.701,-999.35944,1553.3652,33414.12109375
188,3494.0068,3509.3154,5100.7695,623.2819,-110.296486,-285.58536,2000.98413085938
189,14311.911,25594.97,22088.918,-6448.3047,539.59564,-3297.4885,16070.984375
190,13940.604,-6152.331,8708.946,-8653.12,387.07568,9870.325,29040.072265625
191,16416.732,1938.1112,-648.93744,-6270.813,3612.5908,4004.0852,21424.28515625
192,-4538.9253,16877.23,-2396.81,757.1098,7614.3877,6146.1255,26577.16015625
193,-2610.4287,12046.038,-4349.5063,14115.004,6397.92,-5397.903,32422.791015625
194,9521.392,4549.8643,-23797.879,4459.576,-9276.593,9144.978,39216.87109375
195,-4604.3965,-4919.1333,-3575.8843,-3516.4885,-14728.21,-6016.923,28247.978515625
196,-13904.447,-19536.537,-22735.754,-8910.274,-7788.7217,-5517.0864,23905.228515625
197,-16229.231,-4221.0996,-1107.0405,-693.54974,-739.98737,7967.719,19616.982421875
198,-15243.578,-174.3895,21014.373,4655.282,5016.389,2388.5273,33955.328125
199,8420.697,-5870.5425,6196.001,4720.8364,-2738.9995,-3491.7788,17416.599609375
200,-15430.476,-5693.131,10871.517,4588.8843,15093.373,-6418.5024,37425.84765625
201,6200.9727,-5928.587,-15259.223,-2282.31,-19384.822,3396.1812,39050.05078125
202,6802.962,-6603.2617,10587.73,1869.5503,7451.1733,360.37848,20548.138671875
203,7373.553,2947.0356,-1136.141,-2635.5508,-10000.607,-35.093773,19370.57421875
204,16168.078,317.89108,-184.33374,1709.7278,-13217.433,-8175.889,31509.484375
205,1647.7601,3348.2505,3285.9546,-223.05386,-8056.926,-2855.9417,14904.705078125
206,-1068.2745,-13786.494,-4553.317,-2977.9956,-1933.097,-3903.8843,14598.3564453125
207,-6103.9424,971.62744,-10030.332,5918.436,69.979065,-2880.188,14941.4345703125
208,-1408.3119,6529.278,24630.066,2529.458,-11742.899,10464.578,35996.16796875
209,4438.307,10602.471,4981.2197,-15944.784,1347.8223,-4076.4543,29205.40625
210,20226.88,-4015.3574,13744.331,2489.02,-8332.649,-3133.0845,26997.990234375
211,3513.2407,18196.447,17729.172,-1394.5631,-3694.8213,-3358.497,17017.103515625
212,-3113.1284,-1224.6392,16736.762,-6216.648,-4361.212,-446.85605,23101.90234375
213,1888.4368,965.3356,1012.9095,825.3049,-190.19302,-589.2197,2000.97668457031
214,5815.885,4227.206,3905.8696,252.31549,286.03983,-378.52335,2000.98547363281
215,15557.27,9282.264,8240.067,-2176.9563,-10024.444,9395.716,25050.46875
216,-14012.637,-11929.653,-29813.414,5172.9688,-1045.3838,1440.6359,19408.75390625
217,-3555.4912,8448.837,-9373.139,6468.7974,-5901.074,2250.5706,22203.26953125
218,26775.906,50007.953,22973.033,11714.821,6318.853,-6850.4404,36260.4296875
219,28326.87,24929.93,5323.569,1808.0994,13466.507,5855.7656,33455.46484375
220,9448.274,7669.7974,5966.668,16443.926,-656.9261,9095.969,32707.87890625
221,-2832.1714,-122.38147,-2473.652,4358.5425,-2790.776,11575.151,22109.009765625
222,1318.1542,-12412.763,-19027.68,8413.188,17643.723,6.8628726,38332.390625
223,-1570.3588,-5403.8794,-1728.0249,2613.7368,8253.341,-72.532074,15458.9736328125
224,11793.637,-1655.7637,22089.607,-513.29626,-5841.927,-13662.656,32993.140625
225,-696.85223,-4913.682,-24786.707,-7441.3467,2207.9468,-2538.9368,26393.265625
226,-11173.209,-27984.672,-11664.167,-4415.135,-16418.955,7713.886,36336.63671875
227,3314.5527,-7354.5737,-11146.793,28.619247,9951.504,16637.592,36002.765625
228,14796.355,1747.7452,-12777.406,3897.9458,7323.685,-4797.807,29091.703125
229,7800.0703,-1083.2122,1623.1819,4072.669,-7662.5815,10510.044,24889.4375
230,5362.845,-6516.8384,1847.7872,561.75397,-1389.1042,7431.6396,16856.693359375
231,-6762.951,-22670.9,-18912.057,-4300.6694,-2575.034,-1044.1644,16912.91796875
232,26778.025,599.89374,-14225.357,1199.5485,-3378.5461,-3740.393,37063.62109375
233,4000.6924,-31882.756,-3628.212,12573.982,134.23428,-4133.077,39971.07421875
234,8309.334,17530.393,-547.38086,1290.5482,-7636.4155,-6738.692,23691.953125
235,29035.494,14885.6875,2597.4314,-6836.228,3498.3228,13962.032,35872.36328125
236,13818.024,-23091.64,5612.844,-314.711,4634.343,-4151.864,35259.61328125
237,25201.076,-15443.3545,737.68005,-1901.5898,3835.0347,4370.3296,36991.84765625
238,14569.019,11611.942,16580.285,-528.88495,-1825.0592,-1587.6742,6093.50244140625
239,34187.195,34166.754,32543.418,641.0954,-182.91351,-22.116783,2000.91735839844
240,55142.83,52698.152,42696.867,1987.257,3022.9836,-3092.4072,14085.58984375
241,-150863.83,-148570.36,-149449.58,1078.565,-459.9876,-1637.977,4023.69775390625
242,21665.004,21997.951,21537.22,-594.7779,-937.18384,-207.82425,1998.88049316406
243,22910.578,21298.197,22745.05,-613.9762,-305.01227,279.04077,2000.96667480469
244,190972.95,190502.2,190936.03,1071.4326,-269.24847,-212.45975,2000.59814453125
245,271485.5,271456.12,270381.5,-226.89717,-51.57226,933.78937,1991.3720703125
246,96347.336,97109.44,96000.195,-992.18384,127.93144,107.79256,2000.77612304688
247,254159.5,253290.05,254069.98,-859.29974,-545.28406,264.39804,2000.7607421875
248,73721.49,73572.336,72739.4,-607.27246,-814.046,-151.99956,2000.98327636719
249,358641.44,358812.4,358750.88,-28.096054,-97.4209,1147.549,2000.98559570313
250,148624.9,148690.52,147528.2,-137.69774,-371.85205,866.64307,2000.982421875
251,42821.367,40954.72,42874.9,300.6587,-195.95274,100.67201,2000.9873046875
252,-263902.3,-265876.34,-265703.78,73.36393,216.53226,294.95917,2000.93518066406
253,56044.83,52424.707,49037.69,-1197.6891,-20.245775,-192.02222,6422.9111328125
254,15084.824,14857.116,13707.768,379.5309,-792.9724,-130.16112,2000.98522949219
255,11247.507,9394.348,10760.807,-211.99573,-8.810018,605.4526,2000.97998046875
256,-12765.094,-14737.23,-13695.275,-216.92851,-173.64154,-532.9785,2000.98522949219
257,-40107.625,-41685.668,-41448.418,-417.8086,-504.60852,-425.9279,2000.98522949219
258,21735.041,22623.113,22799.309,-718.29004,-699.8997,-58.740265,2000.98559570313
259,23135.566,17291.547,16632.459,4969.803,-4354.17,-3053.0942,14049.05859375
260,-3743.1008,9282.613,6328.2456,9722.121,-2406.5781,781.72156,21040.005859375
261,2931.3108,-262.86224,9238.831,-5344.279,9779.717,9245.209,26441.8046875
262,39960.4,38593.51,29875.697,17332.69,-637.6976,3277.2866,32007.703125
263,20988.951,-9848.412,-3901.865,13681.299,3180.8962,-524.99786,37358.3125
264,-10656.324,16241.774,-15558.643,7291.227,3623.9216,5780.0728,34329.515625
265,33678.805,-3974.6875,27672.398,-1858.941,-1788.7736,6518.5586,37082.89453125
266,37072.918,8306.037,-4908.6904,3162.8008,-2066.356,1051.973,37794.8203125
267,6046.723,6047.057,-4546.604,-18435.715,11972.1455,1205.7861,39575.33984375
268,-12574.006,-20000.639,-17126.238,-5824.26,-11199.585,-8120.3936,26794.59765625
269,-4867.307,28725.947,8307.733,-5191.643,-12865.841,535.315,37918.39453125
270,16858.373,-12545.474,1069.0684,10039.074,6009.2964,77.34557,32562.615234375
271,13584.0,-975.45264,-12050.711,8062.358,-475.45526,-5466.1323,27950.08984375
272,-29642.75,-28662.018,-25480.422,5098.4507,6968.6636,2836.9553,16187.001953125
273,-25233.855,-26000.096,-26980.502,5940.5083,-4760.903,3176.3184,14367.8125
274,8431.694,15231.457,11399.297,8843.347,-794.1712,2236.187,16922.544921875
275,10839.788,3323.2126,4022.4937,-260.12955,-9777.298,6066.7354,21192.857421875
276,31504.266,7158.2344,-11880.932,-639.6072,4634.289,6452.8716,40116.3671875
277,29649.053,-8315.203,17749.977,-1873.331,2011.1857,-9486.095,37732.66015625
278,21113.377,23310.223,-5169.0513,5846.3423,-690.18066,-3327.4795,29841.501953125
279,22431.547,-19148.828,16185.431,3788.53,772.595,1265.4922,39469.984375
280,8082.854,52094.43,25164.533,965.13403,-2222.7012,-3497.3657,39132.1015625
281,-178980.05,-180815.86,-179549.86,326.67697,-404.94604,-425.4343,2000.97607421875
282,-8961.923,-239.04883,-27844.605,4446.8237,6447.537,-5175.7026,29355.6484375
283,17585.559,2166.5088,-1918.6509,-4439.8564,-2916.541,-9159.3545,25568.765625
284,13969.087,16207.164,-4474.2246,2706.3909,-4157.3735,8134.7656,25666.9140625
285,7528.127,-5909.271,-20289.863,7741.1685,7314.6216,-3254.6394,30865.3359375
286,8790.128,-16812.844,-13046.327,4448.5146,-14602.2705,-5673.6567,36998.4140625
287,-10752.048,-11523.474,-8110.1714,-2506.148,11481.723,-14841.995,32936.2890625
288,2778.3953,-7533.397,-18929.295,-261.46484,-5437.3105,-4023.713,22162.595703125
289,-11360.085,-10102.248,-12217.762,-4213.277,-19781.393,9381.496,38660.05078125
290,17554.377,9758.354,-5686.3403,4762.603,-10881.739,14239.739,38096.171875
291,-8198.55,-11606.151,3723.9307,6875.5933,11410.176,4300.094,27968.8125
292,-249929.34,-236626.38,-256622.25,519.5746,6158.249,2973.577,21258.125
293,40235.82,39357.05,41373.37,-520.05835,-163.35547,124.62347,2000.98291015625
294,284950.8,284364.06,285994.03,-650.9941,-458.69202,64.147156,1989.87658691406
295,90680.625,90279.64,92227.375,-27.819525,443.54727,-281.64093,2000.98364257813
296,17212.883,15755.42,16183.922,659.24896,41.677795,-580.6922,2000.98352050781
297,17958.715,5518.529,12924.058,5751.938,-10945.061,5882.614,26075.40625
298,44437.137,27544.775,25411.586,-679.9941,12867.648,5094.6216,30031.962890625
299,10344.069,-15226.573,8646.756,5604.5513,2356.3416,3385.1167,27542.7734375
300,39801.945,22473.223,11984.672,2807.9753,-4948.535,-3885.2136,27100.74609375
301,18673.947,6857.1377,13333.3,9246.595,17863.584,-3492.4158,36816.60546875
302,10679.881,-23387.465,-14677.181,-8216.454,6472.628,-7589.105,37956.7578125
303,-9303.006,-10904.306,-26691.207,-13554.821,-14204.816,3085.7683,38238.27734375
304,-11678.826,16987.137,-11394.383,1638.5479,-7975.439,12074.0,38077.37109375
305,7539.289,-2142.4666,3649.8875,1350.7737,12690.722,-5423.7627,25457.734375
306,-17707.914,-17942.102,-17145.438,607.12427,891.8579,-54.6627,2000.98571777344
307,30485.902,12284.138,42058.363,-8736.185,-5617.879,-6990.8105,33854.453125
308,9877.48,10145.948,11955.583,-111.10406,30.371458,209.33267,2000.98522949219
309,2354.6133,2505.2102,2921.1907,-349.13898,-459.18018,-956.9648,2000.98547363281
310,7849.5166,-20945.762,-741.8339,7470.7534,-11411.059,-6960.229,36864.5703125
311,99780.33,85883.17,72505.63,3983.9807,-4031.8381,-5660.075,27395.109375
312,6017.513,1025.0815,1080.087,7369.4194,-8885.676,8803.855,25631.37109375
313,14638.053,8659.033,31438.986,-5462.788,-6434.6704,-3377.5034,25815.439453125
314,-10780.035,-3268.4182,-8279.556,-11696.171,-5284.1836,-1847.652,23415.90625
315,5309.536,-3678.3,4051.7402,3915.613,12887.253,-12888.159,33370.828125
316,19680.297,8789.874,18252.85,4104.09,-20142.008,-4447.9844,37842.82421875
317,-16048.469,2691.578,23013.678,-1825.2522,-4772.9346,2879.4294,35330.2265625
318,22897.47,7552.016,-3336.585,-3339.0908,-11200.921,1053.6749,30566.259765625
319,21560.7,-8323.081,2623.9082,8249.052,3272.1597,9578.702,34601.3828125
320,42421.02,35011.996,17501.84,-14347.574,7424.252,-3954.0142,36346.28125
321,-15887.368,8345.94,-20315.207,7401.659,7848.176,5722.492,34081.31640625
322,-15274.165,-13556.447,-13370.974,311.94244,-227.16458,-290.7814,2000.98547363281
323,11370.606,12287.3,10815.767,633.9352,555.77386,-267.62766,2000.98498535156
324,15416.287,16269.411,15638.382,-597.6052,963.3256,280.86365,2163.263671875
325,6297.046,15712.959,-12883.347,-2409.329,-3351.8323,-9220.329,30713.353515625
326,2988.2922,-30448.262,-10135.732,908.20026,-155.12518,-668.99896,29245.6875
327,-51972.91,-84522.21,-60465.844,-869.9197,7784.719,-4977.426,33369.8671875
328,-18390.336,-50137.66,-39004.594,-4560.861,7600.932,4422.0728,32753.376953125
329,4667.7715,-76.64676,-12618.192,-12431.151,15317.813,3213.8982,37918.28515625
330,-48710.21,-49339.3,-47567.0,-505.222,-491.10928,-175.83363,2000.98291015625
331,97836.11,97730.305,96548.72,657.5995,-560.2635,-278.44214,2000.98571777344
332,194358.78,194807.58,196404.88,325.7643,34.526787,266.02866,2000.9736328125
333,131301.39,130292.92,132444.28,72.11946,24.030964,412.63364,2000.97802734375
334,-177671.17,-176973.45,-177549.56,-687.6665,-597.742,-604.4762,2000.86669921875
335,-189606.14,-189488.88,-188209.06,240.44783,-591.30066,571.48773,2000.97448730469
336,23402.934,18909.332,18958.404,11957.412,-929.344,-2875.4185,21824.49609375
337,29251.812,-1050.5308,-8190.663,7931.8477,-983.16565,8850.143,40152.1328125
338,-20036.738,-12380.669,-438.28745,-1564.5065,1642.792,229.16904,17557.462890625
339,-4238.278,-29748.182,-5096.5415,5165.5874,10157.856,-8972.623,35506.58203125
340,-19512.568,-1961.638,-41995.0,-619.20245,-4753.5015,7315.903,37915.52734375
341,3630.5972,3243.1555,3949.6348,961.2937,-424.5621,-324.25436,2000.9853515625
342,11354.676,20638.62,-17836.873,-4367.31,-690.8805,-3032.7004,35994.37109375
343,20734.402,12807.946,30233.402,18004.348,694.9346,889.5806,34708.00390625
344,4129.996,-2661.0679,9327.099,-1131.4922,-8015.8784,770.0472,17515.849609375
345,17044.697,26100.822,620.35114,-16924.727,1244.0248,5549.1655,38169.03125
346,4267.234,2217.4368,-14778.9375,5638.22,4312.256,-5823.116,24099.767578125
347,7645.7847,14047.523,-21482.217,3092.6353,-6935.4473,82.97026,35339.88671875
348,-13846.034,1865.4291,-7574.829,302.7273,-1339.8275,6871.819,18302.3046875
349,-769.3672,0.8184035,10330.579,-600.14923,-3079.7202,1772.9712,12418.4462890625
350,1142.9817,2175.2866,2227.687,159.14874,-583.34875,771.27124,2000.9853515625
351,6016.942,-1209.885,-11620.791,-8569.37,-17820.453,-2529.054,37789.5234375
352,-7142.854,14441.872,5988.8013,-15711.306,1120.1967,-3396.7751,33672.12109375
353,8529.782,19075.992,-12201.6045,1680.0204,-8774.953,-2884.2246,32001.150390625
354,9814.397,25705.402,19965.666,10701.417,2884.5815,-5198.173,25374.09765625
355,-9232.852,20785.168,-7001.7954,-3820.3577,1239.0238,-4146.3994,30644.021484375
356,1804.2427,-13458.949,-3126.6648,16550.225,1465.3799,327.843,31788.546875
357,11135.376,-20288.287,6029.5435,-5675.7524,438.82532,343.19324,30832.54296875
358,8156.2847,14010.002,-4008.3958,-6253.745,-11788.061,4774.9795,29258.4765625
359,10397.448,-8344.803,-2062.805,-8806.215,-5532.665,9851.821,29810.25390625
360,-627.2471,8361.925,5876.5254,-251.08313,2702.919,-1310.5782,9586.4501953125
361,-1553.1268,-8199.314,2363.908,1769.8967,1163.9962,588.4498,10002.4697265625
362,-30762.56,-43933.02,-17988.871,9288.109,-6455.194,5830.6406,31474.880859375
363,7907.4653,-3340.2437,13265.714,4948.3735,-99.81321,-1427.7291,17178.302734375
364,-3266.7793,-17414.74,-20038.098,-1172.8262,3265.5408,-1480.3304,16936.76171875
365,4689.7124,2820.4036,4737.2295,4052.3264,-736.6228,-5813.578,12484.8056640625
366,16915.486,4653.887,8428.995,5103.716,-175.67255,-4313.2246,15885.76171875
367,14856.823,6936.4707,7057.3403,1940.5927,-880.38226,11823.548,22244.123046875
368,11279.403,4778.5264,12265.775,2459.1628,-4725.095,-5327.8945,14829.9697265625
369,14782.45,5210.538,-3887.9873,-9141.1455,-2320.3813,4933.2754,24522.248046875
370,75.43213,2847.3682,-819.73596,1163.1924,-3036.0178,-1023.79974,6769.19921875
371,1452.135,-6005.4805,5970.904,-532.9869,-2201.7747,-21.301294,11186.2216796875
372,-2967.4993,-8177.112,-2489.4348,716.3017,447.1569,4013.35,8962.09765625
373,6112.6104,1637.1523,4942.0806,-3622.7466,-643.165,551.0388,7595.13037109375
374,2060.9395,-6495.04,-1385.5137,1776.0562,769.9569,891.23126,8319.828125
375,1222.4253,-5759.1016,-4923.078,3648.9902,850.58514,-1989.1755,9878.7783203125
376,14560.004,-3149.7632,-11531.248,-3361.4026,7049.942,852.2262,26786.1953125
377,1890.1821,-9105.481,-13946.985,3491.9417,1898.636,1359.6035,15827.865234375
378,2331.0242,2189.7036,5346.8945,-2724.3042,-6673.727,-5373.365,15875.837890625
379,-232.50464,6831.9404,4279.6006,-259.24142,-2270.7993,4832.8555,11141.3935546875
380,-56709.188,-45585.344,-17686.678,3707.6633,9152.266,-3012.8667,39143.07421875
381,-89755.055,-98779.66,-97445.914,4742.0913,188.57443,-2794.6404,12735.1806640625
382,-68387.3,-30581.24,-67275.78,-3336.698,3554.3232,1241.8512,38267.98046875
383,47366.047,12734.545,46130.82,-9791.951,-731.27826,4468.185,38823.11328125
384,67144.13,44597.9,51297.69,18956.553,-5164.846,1477.4067,39582.73046875
385,-11196.163,-13430.601,-5324.693,1498.5947,-1271.6246,407.56805,8041.9580078125
386,31.451782,1967.3389,2082.9475,-1544.3499,898.87756,-884.56335,3988.8818359375
387,1961.8887,-14405.07,2203.63,-399.26294,2266.8132,1239.345,17099.52734375
388,1660.16,-3147.5703,-2395.1035,-3257.9324,-366.7547,-951.6573,7417.92919921875
389,16437.547,761.71826,4006.9995,-7646.0317,-1726.7678,3607.5076,20706.615234375
390,1223.4136,-13550.908,-622.3032,-6161.151,-1321.7059,1393.9034,17870.841796875
391,-10736.19,-22449.055,-14372.907,-2947.0298,3757.4236,-5992.3076,16850.91796875
392,-5776.565,2651.6294,-563.52435,-2578.5325,625.2388,116.89779,8685.2744140625
393,393.667,-9130.589,-10806.217,6142.5957,325.1382,3635.562,16206.2265625
394,4755.998,755.94824,-4119.36,1051.6819,969.3969,4190.739,10867.1376953125
395,1588.1804,-846.5923,-1662.8419,5762.4854,-2393.9705,319.04477,11211.5625
396,-552.3047,-7905.6533,-7344.1533,-245.7404,3912.265,-2195.1938,10526.7919921875
397,-13443.704,-6227.6587,-8032.2495,658.1291,-2246.2112,115.40937,7666.916015625
398,4398.929,-7833.5386,2999.2502,7990.3726,2067.1243,1832.3314,18678.875
399,-25634.447,-25753.627,-26230.473,507.86777,3252.7825,8997.977,16604.359375
400,-23680.094,-7620.275,12431.898,-8254.817,2083.5505,-2618.512,34929.375
401,48110.707,53739.984,37889.145,7117.752,839.75146,-6126.206,21457.00390625
402,9424.6045,-3710.0854,9510.304,-6955.4204,-2677.8804,-745.6647,18492.373046875
403,13919.647,12458.802,10921.404,-596.7181,-205.068,-2773.061,5568.44140625
404,9779.615,7337.3994,489.55518,2601.3574,-1040.7515,5945.1772,14112.6669921875
405,12126.882,2202.4956,6557.722,-2880.8447,848.01776,1107.1533,10245.5380859375
406,-145.46973,-7483.172,-25090.014,6755.017,2907.6296,-1282.6002,25694.8515625
407,-8292.101,-10102.947,-12627.386,256.4724,619.5295,2267.0334,5566.9052734375
408,9504.537,-3148.1252,5680.079,-2609.0427,-3015.265,3018.5476,14190.08203125
409,-9493.087,-12816.171,-7127.052,-769.07837,-6100.5356,-1883.276,12188.837890625
410,-503.21167,-12130.238,383.91016,-1644.4789,2403.3157,6087.457,16819.673828125
411,-4516.304,-3690.9211,-2696.3643,-1139.8998,3503.5662,-2320.1548,7704.78369140625
412,1408.7041,11366.866,20200.328,2157.5757,-2905.1807,5065.264,19529.884765625
413,-15968.258,8500.931,-5845.248,5789.744,2820.6475,12855.673,32768.140625
414,-23217.389,-15293.266,-19275.242,-21995.705,3806.9348,926.94965,39301.1875
415,-22431.984,-36655.027,5454.09,3957.508,1985.5547,-935.3612,37920.84375
416,18663.654,12091.583,5575.5547,2340.3413,998.9947,6689.1577,16796.86328125
417,-3432.249,6543.794,1010.5106,74.8135,-32.31058,55.666126,8658.3837890625
418,-40537.33,-21406.52,-13824.172,-16051.571,4789.2324,431.43137,37561.46875
419,-19174.613,-18289.727,-50211.027,5720.9067,-656.98706,-3167.2231,33482.546875
420,21130.348,28386.559,4762.2314,-3642.8315,-3000.0923,2761.1472,23000.48828125
421,-908.24854,-10612.598,-350.10547,-7001.5693,3584.909,-6539.0664,20342.1015625
422,33451.9,23589.379,39498.598,228.8899,122.440674,-149.61337,13918.9384765625
423,15816.621,22852.799,7446.8994,7135.991,4026.729,5259.8423,21514.169921875
424,-2534.4294,6954.106,-4711.067,-5629.493,-924.0122,1457.1589,14813.1044921875
425,3130.6968,6036.4727,22185.21,-6240.45,-6553.198,-1308.7131,23810.732421875
426,4623.194,6109.4263,-2996.6497,3830.323,-5149.8745,-1053.7688,14089.1728515625
427,14340.8545,13062.528,9545.651,5471.757,964.0741,5346.626,14030.900390625
428,1079.9241,7408.8555,1398.7323,-2961.0454,2646.5994,4831.0884,12468.9365234375
429,5016.56,12795.332,7258.329,-2921.9458,-2885.737,4519.1865,12647.587890625
430,9567.339,-8735.831,21425.451,3870.2764,3059.698,139.22989,27672.05078125
431,12363.429,7295.5337,3342.3452,123.784584,-382.38168,-1706.4911,8400.3896484375
432,-4318.4204,-15967.846,-7439.7866,120.64041,2848.5068,-1944.3207,12033.9814453125
433,-560.7046,-10462.469,-12201.692,2349.0847,-1124.3644,-1685.7177,12131.0888671875
434,3628.8936,-4502.6904,-3104.4607,-774.2585,-1376.7297,-112.59806,8014.3935546875
435,813.6191,2157.013,576.7956,-4712.2354,2903.6702,-2062.5195,10336.8408203125
436,21420.893,7327.043,21469.129,4507.4863,13169.138,5212.498,29360.859375
437,-8282.595,3782.3386,9155.054,-11214.82,-3027.8716,1270.4672,25473.76953125
438,807.24805,-23115.914,-6388.1475,3962.6816,1408.0605,-1352.8516,22594.2890625
439,-12897.168,12485.766,27504.305,6014.19,-425.36047,-4700.064,37767.58203125
440,10832.979,5400.054,217.10498,-1594.3468,1759.5903,3867.2961,12096.298828125
441,-41075.3,-26935.19,-157.28711,4503.87,1433.314,3201.4966,37328.37890625
442,-3786.9792,-1828.2986,1067.0269,-2006.6638,-2235.4714,-27.645218,6705.57568359375
443,36465.574,21218.906,37163.145,-5854.701,1528.1631,3174.3535,19587.013671875
444,-26948.158,-17872.254,-32167.7,11033.417,-1367.8685,3252.1445,23654.578125
445,-5367.773,-2301.5266,-1362.6003,-3527.7134,-1613.8993,999.92523,7830.087890625
446,-4319.7637,-2678.413,-10054.986,-3734.02,-15.626428,-84.24698,9319.3916015625
447,-1242.757,-705.72766,3411.1152,-1158.7656,-1500.258,-876.43225,5703.73583984375
448,-11912.838,-22140.254,-20785.125,4228.833,1999.9523,3702.4812,14119.1552734375
449,12218.148,5010.345,16670.236,5785.97,1266.4486,4476.0513,16407.693359375
450,2820.8652,-6551.752,-10704.865,900.5734,4468.1675,1861.7943,14722.2734375
451,5099.3184,5916.1,-1282.5339,-2333.2444,3307.072,2926.3025,11019.970703125
452,-648.51337,1117.4955,-966.20496,1007.6054,-4318.7695,-3123.097,9593.908203125
453,-17739.436,-18723.17,-25941.441,-250.21584,2039.2579,-1410.0918,8876.9736328125
454,3274.4644,2636.9922,27.733154,-3432.427,-2531.8816,-3554.1013,10067.212890625
455,-6983.9087,6469.3335,-7345.8535,-5309.409,2126.9575,-2427.8684,17372.82421875
456,-7317.1885,953.3843,-1234.4749,-17.562014,-2298.6616,2927.2295,9831.2119140625
457,16791.814,9689.494,18375.104,375.0936,2323.7656,-4388.5454,11772.6181640625
458,-5277.3706,-8590.85,-3140.0293,1985.1268,3705.5605,1757.4087,9214.6943359375
459,1668.5566,22485.754,21339.031,10852.711,-2760.1836,-3952.3357,28876.666015625
460,5031.5903,-3218.541,-4524.09,3123.3538,-2775.7212,-962.4557,11648.9892578125
461,-783.5638,-2122.2224,-1960.8931,717.68604,5.733477,-2622.8806,4877.07861328125
462,-11558.735,-495.04663,-1571.3042,-3685.2593,-773.825,775.5108,12490.005859375
463,-7113.898,-6089.8774,-2234.1802,-3894.7356,-1066.3948,259.6039,8305.6611328125
464,3470.458,7291.1963,9079.874,-2356.9692,-1905.921,4887.2886,11128.8701171875
465,-16938.992,13945.85,2275.129,-7102.1274,1768.7488,-1151.2828,29905.0703125
466,1926.615,12949.665,2117.6404,-1220.6892,-1588.8383,3109.5474,12668.455078125
467,-7103.7427,7514.5923,-1656.6171,-3671.8135,-1559.5944,4968.233,16897.7109375
468,-3101.4736,-2387.9182,-9822.596,-588.35394,-267.5438,4066.5732,10066.9169921875
469,14234.971,8947.074,15536.135,1916.6399,387.94327,2280.507,7975.55419921875
470,-20610.135,-32908.516,-37141.316,-161.54066,900.8621,2775.1746,15711.1767578125
471,-4879.778,-964.72864,480.77502,-7639.1675,2006.2969,-1488.6256,14726.5283203125
472,-3335.3066,-8697.521,-24943.525,2897.99,-1340.6459,-1896.4023,20522.587890625
473,2818.2751,-1413.3633,16041.363,3945.5928,3053.4438,-3125.764,18780.228515625
474,3134.057,-4026.1138,1283.573,3258.776,-1923.6664,-5014.994,12643.314453125
475,10840.093,10753.061,24342.055,6061.798,1043.822,2248.0813,17667.826171875
476,12863.244,6657.6416,21061.4,2817.752,-1555.7383,4229.732,15535.30859375
477,-9892.152,-4616.673,-3778.8325,-4424.096,2640.4172,1126.4075,10788.5283203125
478,16450.395,34724.117,19273.441,446.8562,3885.9836,-5253.258,20469.556640625
479,5500.3877,6069.799,13959.566,-7781.966,-4782.341,125.77411,17815.779296875
480,6918.233,1726.734,888.4082,2875.462,972.6007,941.7108,7893.65380859375
481,1844.4142,6036.693,2115.2346,-425.14938,-1222.3746,-4.1163716,4640.91552734375
482,-2611.3135,-6147.8335,-3327.269,-351.05298,-126.00867,496.76993,3412.51611328125
483,5347.8955,16390.598,12353.93,1881.792,546.34985,-1702.6345,10671.271484375
484,3343.3813,4540.1035,17712.818,-4957.7275,-2952.407,-1626.5687,17278.341796875
485,-12611.945,-13461.23,-13088.182,-2424.86,293.91763,1013.3422,4639.31201171875
486,3615.0955,-5946.7295,2125.9333,-650.68304,1440.5828,3537.5364,11155.513671875
487,-4949.2817,-1860.208,-631.3331,4306.377,479.26944,3929.3787,10839.390625
488,-2185.7593,-3338.3542,-25.411621,2039.7036,-413.98004,300.07773,4663.80029296875
489,-13326.015,-6238.6494,-11355.121,-2775.543,-2638.1746,1077.4677,9360.57421875
490,1309.2544,8219.252,9227.557,-3716.0386,2573.1433,-925.56,10935.8193359375
491,-11547.312,-13640.853,-10480.19,1407.8695,-2391.8752,1881.6799,6441.0693359375
492,-2252.6855,-3695.3945,-616.7472,-971.44824,1895.9022,-3212.1448,7189.29638671875
493,8521.429,-4613.401,3469.671,2741.9187,321.20294,-59.119965,12432.392578125
494,554.6279,-3226.3164,3070.0037,-1299.7998,546.31134,-1464.709,6521.73876953125
495,-3644.85,-7089.158,-5374.418,-3992.9204,872.6623,666.59644,7768.23046875
496,-16397.441,6555.4717,-6593.53,2943.7798,-30.595312,1467.8915,20745.8203125
497,6038.8506,7113.111,5408.601,-2917.4924,62.12669,-1797.5382,6121.16015625
498,-3414.5647,-2323.0103,7253.9824,-1728.377,-1665.9702,2227.9856,11642.33984375
499,4462.199,12809.597,-795.76953,1032.2194,-192.21704,-744.67926,12090.763671875
500,-3195.3416,-14220.67,-806.29004,-5136.2036,-2196.4465,4598.812,17625.765625
501,-673.29126,-3941.8245,605.84436,2531.9514,277.90106,-1024.6686,6254.138671875
502,-5114.991,-6712.647,-9796.414,1374.6927,-3157.3245,408.47467,7284.56689453125
503,-6673.8447,-7525.908,1241.477,693.4392,1650.7465,-1835.8818,9479.0048828125
504,7178.953,4843.7935,-519.4436,9763.729,1155.8112,-2100.97,18707.81640625
505,-4132.2837,-2323.4795,-3859.5098,680.2682,164.14018,-792.9176,2491.59765625
506,-214.41821,1418.7205,8600.679,-1290.0425,1313.4597,296.3381,8741.1904296875
507,-26805.934,-9101.863,-27184.96,11017.151,-3491.3328,763.9427,26883.82421875
508,-9740.252,-3403.864,-6796.237,20826.459,-2331.511,7970.8447,39221.140625
509,5583.452,9146.274,4429.501,-2036.2831,-257.05328,-312.09967,5573.72607421875
510,-279.29584,-2059.3162,-361.6247,1282.6632,-615.90265,-1316.3518,3781.63110351563
511,-2070.2268,-3039.087,1661.8204,1608.9465,-623.1229,1343.0002,5729.27734375
512,3319.9756,-4487.2373,4735.9033,3329.326,-1128.9719,1448.3755,10834.3076171875
513,-2878.1445,-2924.356,-6803.8145,-222.87267,814.7056,-693.61456,4337.64501953125
514,10516.864,-3639.6338,17716.764,-3730.9595,3844.7732,1335.2372,21109.853515625
515,-4579.1924,899.8573,3429.2927,-128.6455,3095.911,-594.0224,8952.0478515625
516,21052.615,14385.604,34356.62,2330.0977,836.688,2245.8936,18538.173828125
517,5328.64,8372.836,9297.188,5482.2236,-897.18396,-2095.4194,10894.3544921875
518,-8658.904,-7614.425,-9615.429,-6231.7134,5453.8467,-6152.8354,17953.08203125
519,-3304.2725,-14538.037,-17339.287,2749.4932,-5021.625,3022.9663,17066.263671875
520,27441.47,27359.064,38812.63,-2784.5823,791.27216,1091.2173,12607.9091796875
521,-6817.4062,-19404.71,-30350.41,1069.5148,-1878.1111,2961.8606,21362.5078125
522,-1234.8604,5141.2065,5143.323,-4241.623,3168.499,5118.57,14260.4091796875
523,6500.356,6024.7026,-917.8103,-354.85852,226.79544,702.3573,7330.68603515625
524,-2845.2332,2384.57,-4857.3765,-161.35037,-938.15375,744.66724,6804.7607421875
525,356.22583,5477.1143,6405.8306,-336.0872,-2127.3896,-1253.4779,7104.3447265625
526,-1862.353,-10068.472,-4708.8965,2087.1816,-339.13937,-3035.5496,9651.001953125
527,-5445.964,-5700.949,-1320.9966,-1878.3038,2463.3474,2074.1426,7734.7724609375
528,-1310.5375,-5995.581,-1607.7574,-5126.6123,-1078.6705,-3293.754,11641.69140625
529,-2944.81,-3360.58,-3706.5986,2451.7441,442.65884,-27.031271,4365.73486328125
530,4039.8809,-10300.114,-13594.57,2657.265,435.4021,2584.8696,17479.357421875
531,6132.726,-211.82642,4711.123,4353.353,-6364.2324,-671.07513,14593.5361328125
532,9526.767,-6003.167,8707.567,1747.3984,993.58167,344.51688,15543.6708984375
533,-8086.5605,-3599.8574,-12125.399,-2477.2192,1630.2009,2519.1758,9999.251953125
534,-1675.0183,-4346.7783,1098.5547,53.88639,-703.0997,-2185.1995,6169.1474609375
535,687.751,-3260.3174,-1790.5321,-1670.2766,272.87527,-2619.3425,6412.5205078125
536,-1019.1438,-3426.8984,744.9684,-2124.139,183.87183,-160.20932,5183.74853515625
537,701.12646,6644.832,1710.3438,1925.6051,1796.371,-1364.9795,7532.720703125
538,241.23126,2569.4604,-5458.0947,5164.588,-1203.5277,-1073.605,11789.5947265625
539,11447.246,3910.8247,7208.4546,-1018.69104,815.0015,935.2909,7109.84326171875
540,-2119.0579,364.08664,718.5676,-543.3039,-1819.402,461.6023,4315.93896484375
541,514.0737,4750.9116,3206.2625,-3735.631,-607.16077,2629.1748,8803.4501953125
542,9551.272,-3324.649,17084.973,-1124.4221,-427.99307,-553.95135,18022.5546875
543,791.15765,1504.6694,-809.68677,4280.721,1151.3484,-1162.1337,8198.5498046875
544,8431.101,-4706.8423,-232.91321,-514.13635,180.65437,1137.2458,11773.4560546875
545,-5943.79,-616.0591,-2857.187,-6325.9536,-4824.0757,-2403.9504,15121.916015625
546,-1154.1736,2894.114,1518.9858,217.13231,3328.0317,-12.971257,6788.3740234375
547,-5762.437,-3769.933,-751.56665,-743.61914,-3713.0667,386.23645,7909.5986328125
548,2075.1155,1170.4187,4648.3145,-460.47577,-2123.9438,2442.605,6468.09716796875
549,19990.549,12705.85,11587.012,2866.7837,-827.2936,-634.7715,9507.177734375
550,3239.061,-353.21582,2559.866,-2229.1177,-1630.778,-2089.399,6848.93212890625
551,-579.45276,-4325.603,-401.93274,-3682.6672,87.1363,-1065.4506,7671.02490234375
552,-11496.129,-17377.762,-29274.863,-4351.1406,2060.0754,-1304.2045,17909.240234375
553,-3496.7104,-1772.5193,-4085.6191,-1696.0175,-456.0299,82.34998,3688.9970703125
554,-5736.338,-5228.037,-2081.392,-901.5173,-1090.817,-447.0279,4285.61962890625
555,-9525.996,-16069.457,-14895.626,6734.266,-402.17734,-1293.0809,13344.1474609375
556,-3709.7825,3136.625,3552.3838,-899.89325,2817.4326,73.27694,8726.5068359375
557,-227.63406,74.629456,-1685.9203,607.86426,-925.3441,1449.4651,3555.1201171875
558,-5672.751,-12068.669,-11509.38,-2690.3374,1001.7611,570.68475,7958.94287109375
559,-5991.574,2689.376,-4415.326,2241.2317,3228.7815,-4036.4429,12624.705078125
560,3015.5044,-1728.9878,12148.688,-4033.104,-64.12646,1575.4543,14335.7548828125
561,-4025.4438,-4628.072,-727.70996,-2964.881,-694.54913,1455.8151,6884.94482421875
562,-10714.65,-8296.854,-7360.49,6112.317,430.0315,-2201.6497,11668.9443359375
563,-3349.5928,-13884.94,-5110.425,6347.7715,723.35394,2149.7036,15226.919921875
564,1821.2646,3125.6155,-1663.1184,-4532.3594,-88.072815,2338.961,9820.8681640625
565,-5523.607,3549.4778,-3317.838,889.1479,-3890.5962,-217.68115,10728.33984375
566,-5908.8228,-6889.608,-6773.712,-2324.6555,160.6769,-1350.087,4755.98876953125
567,-1216.3428,-2682.5183,-2192.3188,2127.5193,630.7084,-620.73755,4195.18603515625
568,3377.204,12291.578,3641.2432,-669.9473,2066.979,-33.01229,9557.6669921875
569,-4500.387,-5606.1416,-10879.979,9317.437,821.95844,5280.3203,19518.802734375
570,4008.4834,-5780.834,511.45865,5989.4873,-674.7722,-703.42975,13575.6650390625
571,323.74677,4126.0356,-459.4696,-2542.948,71.57552,2040.2562,7067.666015625
572,5056.5034,425.71875,13622.359,4290.25,-1668.6124,-1676.7551,14369.787109375
573,4580.327,1632.805,3284.392,805.85785,1730.4657,-5173.4556,9888.0341796875
574,-29536.416,-36041.715,-42556.703,-3782.2349,-560.18396,3030.5364,14090.9794921875
575,-4580.8706,-6583.0796,-3213.0571,-11337.32,-2545.1697,-5625.867,22552.33203125
576,3338.469,370.05542,5194.4233,2915.2463,-6901.9946,-152.75468,13647.1181640625
577,1027.6891,7481.0674,-2431.974,7141.1895,-2423.5981,-3886.5134,17084.146484375
578,-2537.7588,-9598.363,9509.088,-6838.6865,-3069.0012,-860.839,21232.498046875
579,8698.636,-3482.5955,1877.6414,4587.7,6277.3345,1502.4855,17319.017578125
