Element Label,S11,S22,S33,S12,S13,S23,Mises
1,844.86383,1767.9412,-21.704699,-166.47543,-52.60276,23.788605,1579.8935546875
2,1133.7687,1975.8486,-265.30096,-167.933,49.860977,108.841194,1993.04418945313
3,1506.4376,2370.548,108.21718,13.140245,89.29559,75.865,1987.87072753906
4,1633.4033,3527.0337,183.11497,200.99318,-69.013596,-240.62141,2957.13745117188
5,1314.2552,2151.334,-647.4868,399.42703,-14.105115,109.476204,2589.68017578125
6,953.46155,2190.8633,26.719433,247.75533,55.106316,-1.1823175,1931.328125
7,1434.7007,2623.6292,256.88266,431.0839,-28.395872,-60.8559,2184.53125
8,1630.4353,3264.8354,-88.80489,257.1113,-108.89676,-19.16128,2944.8212890625
9,1123.0564,2421.739,-52.362247,-143.54373,202.07143,170.8538,2206.02978515625
10,1941.1814,2890.0852,355.96085,3.4877193,-85.72789,-63.58809,2225.25927734375
11,1748.9722,3007.2793,151.9657,154.69206,-10.561383,46.33468,2494.36474609375
12,1544.7675,2684.481,-341.5915,452.241,-26.629349,89.412315,2765.29956054688
13,453.42288,1949.003,137.49171,144.03883,113.311905,-0.27573562,1705.82336425781
14,1625.7378,2430.1848,-160.1971,-93.48851,-135.61847,-37.424618,2314.94873046875
15,1846.4045,2427.7273,-42.34849,-89.72925,28.828526,-1.3966708,2242.75561523438
16,2015.7214,3657.2642,1469.548,1364.8173,-209.67682,711.07825,3335.64135742188
17,2588.002,2116.7244,1583.1184,542.711,237.18883,261.017,1419.53698730469
18,158.72878,2440.5642,-1286.2725,144.62473,43.89439,-210.87126,3285.42016601563
19,-312.80447,2507.8066,1155.2545,-741.6194,-632.79083,-194.20201,2989.0859375
20,842.4935,2457.9934,-1971.2523,-76.11876,-118.87636,-1021.89484,4273.7802734375
21,3248.5598,2622.5667,1130.1848,-1029.7963,-137.45395,-186.92654,2626.06884765625
22,1303.2288,3139.1003,371.44812,2290.8513,-4254.684,-642.83203,8788.6279296875
23,3523.4807,757.9601,-2749.366,1901.4076,-353.09293,2262.0034,7497.93798828125
24,-838.75885,-1512.7224,-396.35184,-1184.9679,-1007.5397,-2103.3972,4634.52392578125
25,1011.5778,-2683.9373,2142.1602,905.974,1416.0032,389.26498,5295.779296875
26,3702.3425,3322.8706,2616.0657,763.98083,-108.33866,-744.72876,2088.50659179688
27,-1286.9263,-381.17245,-4209.1157,1031.35,-1135.2147,-48.32229,4366.98486328125
28,-475.67007,1160.7379,3462.8806,-1077.7191,1056.3958,472.93893,4387.28857421875
29,992.9359,3400.3918,1773.2983,1170.9514,-138.32666,-150.58466,2960.56298828125
30,5461.8906,1670.6215,783.24133,2284.1863,1054.6268,-868.92847,6307.12353515625
31,-4139.3125,1850.2606,-3088.2554,-2560.9849,-189.7231,773.10486,7229.19873046875
32,-2834.252,-957.7483,-2834.6633,-359.15106,-185.00902,-151.8374,2020.11267089844
33,-1865.2756,-1708.0159,2342.6511,-2164.3325,471.86258,341.8225,5669.3154296875
34,6221.996,-70.84388,1826.9336,741.55133,-346.0592,464.0118,5823.56201171875
35,394.3346,3097.813,-450.27078,194.25435,-22.697275,-407.5913,3304.3408203125
36,1479.0824,3057.4355,106.30185,-264.1137,172.68661,429.5151,2719.30810546875
37,1451.7249,4234.668,3554.9607,1335.4285,-291.6795,373.93253,3512.83422851563
38,1911.5264,-716.6048,-4779.356,1137.4791,-878.6175,107.48854,6350.00830078125
39,2375.0115,3144.0146,491.8971,-647.51074,-108.794075,-63.69463,2625.08984375
40,2876.0881,1181.7313,967.1071,-1840.8813,-131.89682,-43.980217,3674.92651367188
41,-374.8809,1348.0271,-155.53142,-2431.2478,166.7541,282.05167,4549.02001953125
42,936.1918,1752.2595,429.9118,630.93274,1670.7776,226.02788,3325.27172851563
43,358.47824,2066.6401,-1023.0952,-2112.3074,1426.1718,1082.1604,5494.28369140625
44,542.87665,3342.0496,-379.4231,-323.36975,-224.04056,-149.27843,3434.94116210938
45,1654.7356,2618.6707,-2094.1624,-620.0992,225.18991,482.5972,4538.8876953125
46,2170.137,1138.5575,-750.3138,264.22604,-496.69897,10.520967,2744.1611328125
47,2330.1248,2786.8743,-925.6242,-192.36537,106.680176,56.342167,3528.49291992188
48,1728.5592,1061.4374,-1496.3572,188.26765,-223.70747,626.5422,3182.42993164063
49,2790.0217,3493.9622,3811.6636,2454.9182,958.385,995.2234,4962.54931640625
50,2147.0442,4015.5874,6426.9688,-45.752216,-145.04674,315.6042,3765.66040039063
51,943.66907,1034.4962,-663.4353,487.05832,65.63624,-52.571133,1862.765625
52,-418.7417,434.89978,-7822.91,743.2595,-682.21625,452.3826,8095.58056640625
53,1614.6985,1438.1198,-362.3741,739.2901,-82.64233,-510.24847,2456.03051757813
54,1553.5754,658.1094,1027.2407,-389.48694,-55.27381,501.15054,1351.03442382813
55,2546.0813,4374.49,7191.415,429.01642,959.5592,-96.781265,4446.4775390625
56,3851.2007,3203.8389,2605.5828,1953.7866,383.53305,-2467.4143,5596.58935546875
57,1309.9183,2235.3494,1007.0547,1472.9591,-104.02631,-57.73663,2789.21484375
58,1617.7981,1872.9442,582.56396,847.4349,518.14734,-540.7118,2288.650390625
59,1557.0804,1154.787,-1593.3727,1022.4513,350.74222,-516.5981,3622.939453125
60,1140.5093,1662.2358,394.8859,998.8082,206.5642,-183.31268,2106.85424804688
61,1999.9918,2520.172,896.9178,983.319,15.102821,-1.2570637,2227.68823242188
62,1612.9127,2967.6062,346.4221,544.3494,-56.90512,234.73872,2493.76611328125
63,1563.8507,2911.546,-1159.4866,291.71683,-21.928717,-329.542,3672.27587890625
64,1553.9109,2308.361,-1095.7902,320.3335,13.668232,186.73506,3162.62377929688
65,1639.7635,3272.4512,1672.2002,446.99442,7.615791,-57.676826,1795.36291503906
66,1120.4882,2459.8403,-756.2574,651.0882,-45.689278,139.27187,3027.51733398438
67,1621.2605,3394.6091,1995.7222,-189.1217,-325.60196,-239.47469,1793.97082519531
68,677.4806,1790.4423,-1225.1709,465.5318,-212.52402,-377.3964,2861.69311523438
69,1392.8965,2436.3481,1443.3132,-62.41707,-488.79556,51.250835,1332.3125
70,1668.1418,5424.352,264.9342,243.60657,-13.311823,-119.027756,4644.34228515625
71,2840.4429,2276.229,4941.3423,-1152.7424,146.02127,1292.8396,3870.68286132813
72,668.1126,2206.8862,-1129.6459,599.5492,255.34592,-143.0752,3114.72265625
73,1841.1914,2988.9773,459.67767,448.13812,-45.953674,-185.1484,2350.17724609375
74,1797.1744,1378.6016,-2870.6519,-171.89517,753.068,-1054.9965,5013.8818359375
75,2207.2932,2929.5164,346.49072,-270.58917,80.89461,153.00948,2374.36938476563
76,1799.3118,2505.0908,-634.56946,-591.79553,-34.60646,193.58107,3050.63330078125
77,1649.4113,2577.0637,1953.2711,-302.50592,441.64423,179.30408,1275.58679199219
78,1662.7335,2757.9104,-424.16083,-745.5968,-99.911125,-109.64215,3094.15795898438
79,2325.0667,10714.794,5208.5347,2086.8176,-1007.4278,2364.2578,9348.1923828125
80,651.8219,2848.7,114.85692,-362.5426,-314.5124,-190.022,2663.38916015625
81,-76.59903,4527.926,2247.8826,-365.91507,-171.30063,741.7097,4247.56884765625
82,682.3696,1216.7587,-3249.5862,87.97086,-58.31875,-1129.1595,4658.91259765625
83,1371.5955,655.5719,-672.1592,-332.2002,-1647.3204,-580.678,3565.0908203125
84,-1909.885,1683.8054,510.3874,-1207.1293,1939.4,-224.04861,5087.28955078125
85,3068.347,1944.1895,119.25863,8.255137,162.6855,44.710274,2594.45825195313
86,1767.163,3209.7468,-241.71928,-182.26523,-162.70586,67.04959,3034.33764648438
87,2126.1204,2143.1453,-22.112494,-617.1597,-0.5301007,72.487564,2410.43359375
88,1572.8904,2017.842,-654.91986,277.09607,2.0591023,-133.58551,2536.98291015625
89,2405.1375,2082.5752,768.50336,678.397,-51.120678,72.85491,1912.8857421875
90,2150.935,1254.8064,-865.2218,844.9727,-84.36325,-124.55545,3067.1181640625
91,2352.4587,2103.1326,660.71106,656.89777,-715.9303,306.25357,2369.80224609375
92,1599.9954,1383.2772,-2520.114,1510.7986,736.4836,-538.61365,5047.22119140625
93,-747.62854,2438.4197,440.34314,-669.9399,-1999.9353,-604.8394,4713.85400390625
94,-99.262596,127.43249,-4125.4307,-771.16223,-2572.2222,163.0292,6235.93798828125
95,-1972.1724,1015.5466,4191.2334,431.8289,140.76778,245.73769,5412.90576171875
96,-1505.0615,2953.1907,-3103.2544,-599.9392,520.25806,-150.47481,5613.83056640625
97,2876.9802,2970.2883,460.86313,175.28168,144.558,75.27615,2498.72631835938
98,1333.8523,3589.108,883.4045,718.5361,-217.21664,591.8136,3007.67651367188
99,1744.9844,1679.5676,-2410.6353,-1045.388,149.16809,-108.16467,4514.63916015625
100,1263.7404,166.24371,-7925.5957,-482.43665,-876.80273,-1589.195,9281.396484375
101,281.4685,454.56635,-1361.9818,1003.28064,2245.7126,557.6699,4700.82421875
102,-2871.299,3097.5078,-3347.661,1847.9069,-804.35846,-81.59851,7134.57177734375
103,6775.9487,4884.5317,6883.7217,1337.8025,-927.0827,691.98615,3630.01977539063
104,5035.0576,-253.75742,1988.7864,-500.65646,48.625233,-685.4843,4827.9287109375
105,3395.7393,1297.5419,-1067.4436,869.976,-259.66882,613.2172,4307.98779296875
106,1113.1855,865.5392,-26.637327,936.9666,2541.54,154.38124,4812.66552734375
107,1044.9327,3672.3284,1208.4769,884.7008,-74.435486,90.724594,2981.55322265625
108,-1920.4966,1539.6456,544.02545,-74.49979,-1019.8422,502.12506,3662.25756835938
109,-946.4818,-243.46135,-3869.631,-1438.3293,140.06836,239.36267,4187.0263671875
110,755.9776,-338.13544,-2643.3525,470.9354,-321.56406,-1738.635,4367.7666015625
111,1724.3348,2841.4333,139.6742,481.20435,-60.249928,-217.41182,2525.20239257813
112,1475.177,2454.9065,138.2256,314.3804,-295.50116,596.00244,2383.54443359375
113,1125.1086,1782.266,872.0147,529.0983,-142.74852,67.03972,1255.66088867188
114,1734.0676,2716.732,288.66144,464.71268,189.55534,111.1507,2295.1923828125
115,1599.8203,2870.483,679.21045,-411.85892,20.493826,36.166443,2036.16259765625
116,1049.7152,-319.6605,-948.19977,1591.6871,-797.4657,-958.01733,3923.34130859375
117,1201.0068,3400.0444,-469.07205,146.91211,64.5115,175.49646,3386.31469726563
118,1144.7941,1554.3481,910.46735,-40.95083,-343.8606,-45.876957,827.452941894531
119,1707.4233,3101.6545,383.57678,-9.390352,72.71462,-71.81834,2360.88940429688
120,1764.0574,2429.7803,139.71783,-563.7387,-90.73094,-223.23477,2300.13647460938
121,2038.4885,2246.914,1255.9636,-664.901,-149.89485,287.84833,1568.80212402344
122,356.86096,1977.1556,33.45348,115.030495,129.71938,108.35448,1838.30419921875
123,631.24646,2689.5886,4173.9155,1875.0059,818.2693,275.36914,4719.9970703125
124,3365.81,-1364.4832,6995.9453,-1123.2247,2810.1584,465.2904,8991.6923828125
125,865.02264,3603.1792,1174.6647,168.05911,476.32748,-36.778812,2741.34741210938
126,435.2743,3641.7117,698.1626,53.85962,-83.317345,87.85429,3091.94116210938
127,1069.9813,2487.5652,-3589.0369,-2343.9937,180.34975,-1229.3102,7171.79541015625
128,2189.779,3214.9194,-2320.6562,-95.94605,-125.532486,262.78012,5128.4326171875
129,587.14417,2405.1772,-2360.4275,634.1675,252.00362,-337.48383,4369.31494140625
130,-416.31247,3621.1968,151.84006,840.3361,-181.56004,-411.32254,4129.80615234375
131,1585.5701,3064.595,1974.8406,3264.4832,895.0982,1391.907,6476.8564453125
132,6039.249,3839.4453,3932.3132,-282.35678,727.8117,264.21863,2584.8037109375
133,3671.5864,218.97737,19.716404,-1127.4454,238.50346,56.60151,4079.44189453125
134,165.8538,2540.9067,1455.7507,-606.2824,164.67065,917.4773,2819.66577148438
135,-2054.5002,2279.806,494.01456,747.5341,1055.026,-356.2022,4430.73291015625
136,990.19635,2715.8582,-707.73834,-244.4812,88.72565,-608.1218,3178.57177734375
137,1718.0093,1909.0266,1995.3481,-447.07483,-84.029366,-230.82623,917.104553222656
138,199.73497,1531.9559,-70.40213,-14.972181,2440.5312,-429.41623,4542.03857421875
139,1913.7972,162.93773,1121.0543,-979.3977,323.21707,57.509678,2346.69091796875
140,2570.0056,3624.4775,3530.0864,-752.8171,-429.7461,-708.62695,2186.77612304688
141,2068.2332,4399.1455,-118.82294,-1044.6969,-54.21968,-89.09493,4315.20703125
142,-1883.258,2633.5505,-784.35376,-3.7743833,14.476032,-28.3769,4080.28149414063
143,647.0723,3084.6926,-86.42797,1198.9988,-74.45611,102.34237,3553.71044921875
144,508.3507,2893.3794,-1818.753,3.307481,149.33478,131.15746,4095.42749023438
145,1305.147,1623.9937,-592.6481,-757.4032,172.66371,240.76653,2508.52905273438
146,1356.1503,3631.4214,127.15006,173.38809,365.68488,60.915638,3160.08032226563
147,1456.5294,3107.025,-625.42035,624.5278,-83.38691,419.99918,3495.00512695313
148,1195.803,1792.9904,-1142.5566,1262.9697,-102.78257,188.80763,3484.95532226563
149,1500.1035,1083.64,-1231.5667,755.12,63.31724,59.699707,2869.0
150,1974.4937,2583.0142,1031.6283,607.1743,-120.98579,270.58618,1789.57824707031
151,685.3205,2101.5847,114.0654,689.4672,48.917286,-40.041656,2139.92260742188
152,2228.9856,2457.0652,1974.3875,-80.12595,-1.9124856,-138.1847,501.463531494141
153,3235.355,2089.5913,4032.6807,128.5222,504.77423,200.76056,1948.56579589844
154,1448.2048,-1388.9987,2742.2588,992.1953,-774.8212,1485.3936,4976.8837890625
155,1499.5056,1592.3524,-8200.515,19.44152,-268.0902,-1163.8484,9963.935546875
156,1094.8773,2466.555,1689.2463,747.27026,-52.08576,277.13245,1825.72619628906
157,3277.768,-1844.1298,-1903.504,3042.7214,-1121.8414,922.5281,7787.4697265625
158,4446.33,1375.4401,-1713.6779,1035.8202,-782.5379,-770.4813,5941.05615234375
159,7510.0845,2765.215,8883.976,2273.507,775.80566,1665.229,7520.0654296875
160,1959.891,2184.6987,-5923.9824,-310.49194,776.7668,-116.69641,8131.32958984375
161,-1088.5905,1688.0172,2745.071,1388.5261,-839.97125,4.5306196,4434.2607421875
162,691.6875,359.4848,-737.3215,-1384.6091,-92.37022,153.88045,2743.31323242188
163,1039.0125,2273.0117,-20.874502,-373.82892,-67.442154,509.0711,2272.52368164063
164,-36.148075,799.77856,-3454.222,-209.30241,-1178.6038,-203.61243,4434.22802734375
165,1641.3192,1356.556,1333.6819,-337.00723,84.16646,-5.7495875,670.969299316406
166,-791.8467,1430.2012,-2091.9724,43.796875,22.98305,-1201.3687,3722.09130859375
167,-44.096886,4215.757,-453.2758,-1014.2281,5.976597,431.399,4868.39013671875
168,2572.1436,1347.8595,-761.3416,2025.8807,179.17679,1152.4288,4992.296875
169,2397.0156,3220.0654,2657.3445,1897.9912,75.29191,-310.50372,3412.37084960938
170,2756.2405,2643.1528,585.02515,33.296997,1.6634593,81.62948,2122.44018554688
171,1358.4801,2419.9775,2891.1287,-789.4131,-292.2958,891.4421,2521.65063476563
172,782.6174,963.5033,1928.7933,-1381.2239,128.33263,1133.0488,3280.740234375
173,1801.2317,1934.8406,-1294.715,-1130.7465,605.76184,-694.11926,4049.49291992188
174,2706.149,3026.2388,-572.82904,-575.1868,-67.14553,121.89654,3599.21411132813
175,1815.5535,1682.1296,-2293.415,174.17102,110.99312,-75.906685,4061.8271484375
176,1987.1168,2617.9226,-115.24955,-386.7555,-84.79452,72.271225,2574.88330078125
177,1920.2697,2678.6182,-503.14453,308.89212,-152.4734,16.855772,2939.84033203125
178,2208.8018,2655.6748,537.10754,-82.10326,44.674637,132.0652,1954.4375
179,1198.8373,3091.1118,3060.147,68.4004,-348.90097,-444.95682,2120.4384765625
180,305.18597,2408.4836,-1899.1326,-822.4396,-282.05582,-37.285538,4023.83862304688
181,603.87854,1216.3037,-1207.4412,-671.4454,-11.543362,-210.28696,2500.1640625
182,2051.504,2397.4583,770.92096,-1142.5294,234.84505,-319.03226,2567.00659179688
183,1717.8726,3133.7463,448.88336,345.42627,-3.4131951,-191.94995,2424.93041992188
184,-9810.228,4611.0493,-2993.9019,-2866.2676,2070.9524,-3543.282,15208.9765625
185,-1624.5684,-2379.7744,-160.18565,-2904.7395,1703.1095,1774.1946,6875.91748046875
186,1209.014,-183.6858,403.8816,926.56586,476.24298,170.87952,2193.20263671875
187,1579.7943,63.88804,-699.66895,1092.1143,-434.55905,-97.285164,2865.57666015625
188,-436.85645,758.8734,1404.1152,-1879.5911,53.60234,-39.33134,3637.23657226563
189,2418.23,-2049.0564,-2347.844,660.03186,-52.49915,238.06525,4781.83154296875
190,3267.2058,-4571.347,-2419.405,1993.9203,577.4932,-1199.4731,8151.6572265625
191,-3902.2427,-5761.663,1845.2412,3112.0925,652.4649,-354.06088,8825.3369140625
192,5906.3228,-5801.0425,-3741.1628,1208.4993,-51.40863,-973.8913,11154.572265625
193,-4618.7085,-8061.334,-1410.3273,250.52045,489.39212,-328.97446,5867.03564453125
194,-708.57874,-2097.9272,568.7671,-558.4871,231.0999,306.85,2591.33081054688
195,740.71796,-1251.9873,-9122.569,266.72098,729.97217,-1138.8821,9343.65234375
196,3004.7253,-1249.357,6674.273,1010.6424,-1427.5886,346.76706,7530.75830078125
197,2323.3801,-840.8141,3117.9492,740.8482,74.35639,-25.335842,3850.02807617188
198,1183.2643,-4648.595,3120.204,-2289.276,674.67365,-166.23311,8138.12548828125
199,1168.8204,-5205.452,-8582.973,-1022.8712,22.63331,40.40234,8758.6220703125
200,3696.5327,-3494.01,-2461.0723,1801.5759,-661.3284,-271.4345,7524.20166015625
201,2596.5562,-3053.324,4553.1724,-157.12163,-692.0215,-87.92126,6952.55810546875
202,1824.8789,-3569.777,1073.3342,-368.13315,-542.4824,1261.1283,5627.927734375
203,-2477.4568,-5186.1377,-1062.6063,666.06665,-40.64666,-60.7853,3810.26342773438
204,-587.8183,-5482.7734,-4148.817,947.21796,1522.1864,-500.45508,5441.0068359375
205,-1274.9634,-4228.925,-720.37964,-110.12343,-297.15225,55.404205,3313.93408203125
206,2278.1318,-2675.5823,2416.737,-2060.0176,502.9006,-456.5688,6273.77197265625
207,1142.6757,-3268.964,-329.32562,-673.15894,727.22736,109.18706,4256.42919921875
208,-275.1057,-5111.853,-4378.4375,-2679.5874,-421.12344,398.83057,6552.4404296875
209,3066.7622,-1877.5974,1811.7684,-1401.8611,-1472.6993,228.54567,5689.94189453125
210,2479.509,118.08493,4535.5596,-75.536804,-1253.1763,359.32394,4446.87353515625
211,3482.7175,-2068.7493,2624.5923,-529.401,-3168.201,2858.7507,9069.837890625
212,-5052.4014,-6144.1055,-1171.4119,-4450.038,1249.3713,-1389.4436,9506.5107421875
213,2019.5883,3069.9995,-1172.5171,-1928.4441,-4492.5283,-1595.4409,9694.70703125
214,1488.7867,-1169.4933,-3674.4673,107.92132,-3050.2114,-3817.993,9574.8525390625
215,-1575.6726,1243.0441,-2641.766,-927.6916,-80.792595,-1199.3699,4359.3134765625
216,-1009.7452,3159.495,-462.5785,-212.50504,540.58276,-63.635654,4052.77661132813
217,-977.0536,1946.9135,900.7368,-887.7901,88.17851,755.06256,3268.52905273438
218,-768.6458,1293.03,163.55809,-1458.1047,-282.39536,854.09216,3464.60375976563
219,-1487.3417,341.95044,-433.722,-970.16064,985.44196,-700.9608,3120.89819335938
220,-1626.6017,554.27264,-317.82858,-1085.8777,-129.0758,-2.6173518,2683.69604492188
221,-318.4962,1293.0483,629.4196,-574.33575,-318.31357,95.04574,1813.46850585938
222,685.06903,3701.4775,-102.97852,456.3338,-79.8527,167.57278,3581.18774414063
223,-1607.8649,2874.182,-501.1015,-1075.5964,112.53945,-197.40994,4469.7578125
224,-1053.1229,2613.456,-1886.9976,-532.6283,-537.1568,186.05109,4360.86572265625
225,-1467.1759,2000.1483,713.95715,-325.0793,220.53764,491.70813,3225.71752929688
226,-689.0758,1264.1772,-219.5264,-1001.36444,-179.40231,39.4598,2495.5849609375
227,402.08655,1461.6516,-389.23743,310.272,162.06001,-231.1107,1764.98266601563
228,-720.45197,1307.4958,300.89386,860.69336,-62.545746,299.36038,2363.77856445313
229,-573.2381,941.23785,908.0754,958.808,54.223244,89.8402,2243.98876953125
230,-755.43243,1874.2208,-135.44357,969.21387,28.335651,-87.58773,2917.64575195313
231,-696.4599,1284.8972,1207.9525,1120.8569,-377.71594,153.5508,2836.71362304688
232,-110.78637,-550.0431,-564.33636,1655.2703,-380.41852,565.5151,3132.53344726563
233,1313.1572,1014.9607,1103.3147,901.4463,427.46362,15.58707,1748.45690917969
234,897.7773,-111.72186,-1383.9999,1174.3429,-341.27234,-412.76047,2986.62036132813
235,1677.6681,421.71112,-305.4794,930.11676,-229.71599,62.418037,2405.18212890625
236,1679.8624,-24.886593,849.47144,890.4126,227.3986,-164.69466,2189.77563476563
237,1895.7227,1057.8287,2547.0671,539.73364,-96.218506,-564.96906,1879.18994140625
238,999.3329,1147.4281,-1297.1266,15.431332,-125.86672,508.90326,2541.83837890625
239,896.10614,-750.285,-568.0579,134.53946,576.09045,52.152245,1871.33544921875
240,853.01843,1570.5278,1553.7908,-104.05498,165.16287,-18.269634,786.390991210938
241,1023.06055,1641.2415,-853.0639,50.45134,61.903614,-145.97707,2268.22290039063
242,928.3327,-169.80841,-4.8271394,529.98267,-38.149395,107.23536,1390.49243164063
243,845.8824,1973.6051,-843.51013,109.132935,-36.867043,-40.30362,2464.8837890625
244,2822.3818,555.2134,173.93181,603.093,899.99805,-586.15216,3271.3505859375
245,1886.0807,1657.7897,94.83039,-74.055916,444.45016,-16.14347,1860.54040527344
246,1298.0731,660.092,926.45935,-199.52397,226.7249,328.8435,951.887817382813
247,495.9999,-148.88116,580.70233,259.89673,-228.0515,388.1434,1135.03149414063
248,2214.6985,-395.591,-118.592636,-272.53052,-58.475964,100.02042,2535.81982421875
249,1315.672,-1053.604,1096.115,709.4535,202.11697,15.207867,2602.826171875
250,2007.9441,757.89624,-220.4813,-495.05096,-36.301388,102.67397,2124.5390625
251,733.24567,1400.424,-1697.1,-13.779207,194.32993,129.36469,2852.58642578125
252,1408.0426,303.6804,2027.8394,-152.69469,-91.444214,-56.563072,1546.89221191406
253,936.9801,1210.5394,239.87665,-752.04663,215.75089,-167.5246,1634.64013671875
254,-950.8568,239.40518,-2029.168,-2086.8035,314.52176,210.22025,4166.11865234375
255,539.149,-553.82025,-856.60443,-940.33905,119.60595,148.94197,2092.6953125
256,-1074.7616,-1381.1935,-543.1873,-1271.585,377.08398,-178.25853,2431.47143554688
257,259.0598,617.8301,-3009.931,-2186.5789,-365.20505,-157.54944,5177.43212890625
258,-2489.5212,-1093.264,-4235.17,-2551.322,1061.2238,1612.5273,6175.8603515625
259,-434.55847,4994.9937,3028.4543,184.36906,-252.96313,-1647.8153,5577.6083984375
260,-1152.313,2993.5623,1154.2795,-1176.3964,-325.2031,-47.177563,4173.904296875
261,396.94186,1784.1742,-1308.8033,-1322.8298,138.79483,1019.9302,3953.28295898438
262,-1776.7323,1547.448,133.3922,-457.94843,120.99302,212.57211,3026.1826171875
263,-1322.4485,1692.2229,390.67514,225.80196,67.18104,127.58967,2659.67431640625
264,-595.5184,1474.9943,-2382.1418,604.3901,554.3506,-63.419357,3634.296875
265,-916.87476,2964.8423,-690.81055,757.4316,-86.72779,-740.99036,4199.06982421875
266,363.47098,2288.8118,1866.2473,159.46237,-380.40167,-323.66516,1973.97961425781
267,-1500.9922,1452.7578,1758.7263,1521.785,130.4447,-1568.7732,4909.55126953125
268,-1676.5997,1594.1495,-3107.963,433.00302,96.91793,54.119907,4245.900390625
269,-66.41181,1476.3673,627.73645,1367.0875,-135.62856,206.74463,2753.41455078125
270,-343.60675,1652.7054,1012.68726,794.47546,37.468018,-511.7628,2408.4638671875
271,-1099.9696,3037.4124,-4752.3545,346.44754,37.87091,-28.929321,6777.61328125
272,-494.72748,10.269938,5445.018,1396.3992,-287.24945,-328.82623,6241.61474609375
273,-1639.9001,1723.0249,-1282.0782,1299.7656,433.99045,45.567333,3984.14575195313
274,-2840.431,919.53986,2641.6636,3392.743,1054.45,125.857735,7841.7763671875
275,-3098.0935,-5790.5947,-2131.832,483.90118,-634.09863,-363.4773,3618.00439453125
276,5161.2065,-4619.7676,-2115.9873,1237.6788,-1028.9868,-1513.2039,9596.265625
277,-1259.4523,-1453.8969,3284.673,-238.51846,104.50894,439.59595,4727.96337890625
278,-381.72784,1295.2986,2073.374,466.37833,42.396694,52.617046,2321.39965820313
279,-725.68097,1786.5803,-470.0802,1398.6898,151.84947,63.354225,3418.31372070313
280,1446.8774,-755.299,-309.06122,1064.9211,-29.126423,83.22586,2737.0625
281,726.61523,-324.52832,-3.5319493,748.297,81.592415,388.8794,1738.97290039063
282,1553.2754,-269.13168,-479.51126,84.10322,44.682064,-54.334892,1945.47961425781
283,975.77936,2959.1719,335.32007,77.14115,495.89575,-38.96625,2524.76953125
284,-457.5491,1080.3782,861.5824,551.781,209.72469,12.593961,1767.03588867188
285,1565.6057,-987.6854,1005.27856,673.59015,127.70752,1028.9337,3160.505859375
286,-3678.639,-3326.2559,-3074.051,838.5034,-1112.4242,87.27976,2474.11279296875
287,3651.7637,-3001.9846,-1034.6602,-299.5616,999.3789,361.00943,6221.66552734375
288,-5118.251,-6409.36,-5423.773,1208.6708,1533.1211,1149.3702,4094.2685546875
289,2424.8098,-4136.8647,1540.3921,138.51237,301.45096,-271.90506,6211.8017578125
290,2936.409,-1868.0239,5212.174,-335.34885,-1068.4153,60.22384,6555.01611328125
291,651.3089,-1590.6202,-7710.8755,11.864281,2004.5885,-2639.56,9442.5810546875
292,1595.6713,-901.13354,3757.764,95.76367,176.48265,-250.25226,4076.25219726563
293,999.16174,213.15979,-530.33606,231.87892,54.996357,37.913105,1389.12341308594
294,440.20047,938.9035,-2044.1372,497.87164,-779.66656,-51.73499,3199.2001953125
295,-759.4431,-240.63774,-2439.3206,-8.208624,-883.5909,-364.18198,2589.00805664063
296,493.60504,1096.5027,-746.7891,92.384995,-49.642193,-214.70432,1679.63842773438
297,-3299.516,3390.3037,1542.2876,1240.507,5323.4067,1426.1044,11469.08203125
298,-115.238655,1918.7892,1114.398,-853.80023,30.403439,-175.33891,2330.25512695313
299,571.5396,3015.8967,-156.3649,-981.80457,-419.89877,154.80516,3431.71166992188
300,-102.53913,2001.3099,-309.51108,-480.69876,-582.8347,27.896582,2572.76000976563
301,-1552.2878,904.0118,-2056.0083,1583.9265,378.59488,-27.691393,3934.8701171875
302,-2032.872,1056.3312,-2752.824,466.31616,-193.03032,2150.0771,5188.2763671875
303,1334.7937,2962.688,4116.5234,322.8646,-143.06284,145.93848,2509.525390625
304,284.8498,2724.4724,-342.65945,1499.0522,-110.64792,565.3718,3951.3984375
305,-3011.8333,-453.27713,-4499.159,-295.55353,-152.30783,178.83575,3604.3515625
306,-1623.0483,-364.46997,-1433.6084,1169.7358,-148.89798,-62.838104,2358.95849609375
307,-852.688,2204.4824,942.5117,-922.442,-444.45215,-20.249628,3198.02172851563
308,985.7084,2577.7498,3779.6055,409.2427,427.6364,81.92948,2638.87329101563
309,23.857397,2162.7285,269.08197,-678.4577,-211.4715,-774.8538,2725.19213867188
310,-1974.2966,1674.3989,-16.031599,-947.63904,64.655914,-297.70306,3602.103515625
311,39.31768,1919.4534,414.1398,233.65266,61.119854,674.06024,2123.38061523438
312,-116.67378,1114.3424,2162.4814,-1427.377,-275.39505,13.961398,3200.71875
313,-1039.0587,-3082.2195,288.1579,1389.0386,181.72467,177.27904,3824.83544921875
314,1361.0193,-4648.7534,-709.37585,-262.36813,1076.4689,1588.807,6262.35498046875
315,3603.212,-3479.5789,2725.993,2749.4211,66.49215,-681.63666,8295.021484375
316,4842.0933,-2918.1255,5975.923,872.63257,201.09879,495.7934,8570.212890625
317,2043.7274,-5215.884,-553.1982,-1196.1255,305.26343,-421.4852,6760.02685546875
318,2422.3684,-4055.9302,-1606.8429,-2266.342,-865.5239,417.99152,7090.90478515625
319,2091.4607,-2792.0154,383.83878,529.794,-1227.7869,-154.15408,4884.76171875
320,1843.1945,-3419.8696,-918.0647,-1136.3147,1207.5253,-1649.0385,6098.990234375
321,5474.5117,1028.0919,-1830.2305,425.78397,127.36197,-850.11566,6588.67138671875
322,453.15182,-2649.2637,-2247.3486,2900.7222,1122.1534,-1172.9033,6456.54443359375
323,-7877.5015,-14926.006,-1761.1843,2529.8271,2395.5393,55.71555,12908.40234375
324,1646.2521,6849.0503,4263.5034,1907.1536,2803.4683,2819.7832,8868.236328125
325,-1787.6682,2073.8525,699.5753,-1812.1539,-454.81015,2246.2231,6091.140625
326,-397.73807,3137.6665,465.75412,-353.3144,-15.900428,-229.68025,3274.96875
327,2269.4421,859.3239,-19.146694,727.3713,-127.2547,-95.20103,2379.46826171875
328,1123.5851,207.3687,-525.1978,183.73122,229.85338,1.7712924,1518.90551757813
329,2004.337,-125.830025,957.3442,771.61847,-285.10474,175.53802,2350.748046875
330,610.64703,1808.1904,772.1455,-208.64433,-89.669464,-75.535446,1199.42761230469
331,1354.7234,767.74744,2599.6558,17.94131,361.9203,457.61157,1909.78857421875
332,-672.73114,-410.59607,-567.96,-438.39792,-227.73695,164.34218,930.28125
333,2061.1228,1244.2426,-748.99896,-186.85628,-161.70474,121.799805,2548.77270507813
334,949.6231,750.7377,1201.8018,-1557.8552,27.90509,122.62143,2735.23095703125
335,-342.434,1230.8231,-2691.8018,-1057.9915,35.507656,972.49133,4229.64111328125
336,781.57776,3390.5266,45.067863,923.23627,-305.35864,-568.63446,3616.2744140625
337,-538.34143,2070.76,43.53605,366.38776,55.843433,36.059906,2458.41235351563
338,-2284.693,-2090.0874,-4644.3774,1913.6858,-620.7482,-809.50464,4491.50830078125
339,-675.50555,1784.4691,1324.9886,-1282.2717,60.598194,-65.87829,3176.31640625
340,-2440.4028,1944.4401,-2108.9358,-120.48028,-389.84012,-35.22836,4287.94580078125
341,75.895584,1047.0243,-218.89714,2225.5825,-342.55035,121.91335,4070.93823242188
342,-1268.1909,1196.282,-531.3097,954.0011,17.329468,-42.868946,2745.42626953125
343,2744.5874,-2809.593,-1069.5853,-398.64752,-240.30093,-67.693855,4987.58203125
344,1183.7505,-165.49995,-149.86548,668.843,-61.976078,-78.46441,1780.9189453125
345,-2186.8865,1730.2441,-843.4664,78.36431,22.508348,-21.55087,3450.74975585938
346,-841.7769,1619.2001,-140.44798,1005.0308,-23.668375,-26.339685,2802.916015625
347,-977.9164,219.12755,442.5681,1538.1945,297.33124,56.5783,3020.47265625
348,-1946.6987,-4439.349,91.166885,939.6532,-56.878506,-134.92761,4261.3447265625
349,-540.69684,-3084.36,3782.6204,4441.1123,871.6693,666.0982,9946.822265625
350,-3011.2822,61.631023,1025.5676,-2073.4653,56.024532,999.50775,5407.2451171875
351,-216.56332,395.61246,872.57776,1581.473,-313.37366,6.089068,2948.2421875
352,-446.58936,-83.61104,-84.76241,1444.4592,-32.558212,-404.1279,2623.71142578125
353,-3016.3696,1776.0626,141.36008,1142.0626,-1158.9718,164.13075,5082.20849609375
354,-1677.7137,1466.4421,1763.7053,3105.233,358.72522,51.935516,6342.734375
355,-637.14465,-545.6988,1372.2924,1271.0411,-159.88454,11.660881,2964.14892578125
356,-744.75433,-1781.76,-282.62097,3215.9045,-382.86954,-144.09732,5770.30029296875
357,-750.50775,-1899.5925,-11.1854725,2173.3308,533.5734,-71.99682,4213.8212890625
358,-809.5358,-1371.9779,-191.44215,739.65405,179.3073,-82.005196,1674.48950195313
359,3619.8245,1794.4608,241.32156,-368.8217,-134.15884,-43.586113,3007.82666015625
360,-141.21011,-1034.0009,-487.37668,-814.5508,-49.950165,-44.873104,1616.12414550781
361,672.3359,-515.6785,40.520622,70.631775,111.213585,90.27886,1066.06091308594
362,-931.2933,1122.8319,113.59719,-602.5578,-7.913074,399.00278,2175.296875
363,-1189.1766,1824.3844,121.52591,-846.2078,1.4903506,-324.1453,3051.7255859375
364,-833.3006,-1406.7301,106.20564,1083.1676,96.49413,-329.99582,2371.62719726563
365,610.6162,-2819.6719,89.05306,4.843688,-225.4255,-252.03566,3254.67016601563
366,851.6566,-3793.6343,-2228.7278,-214.0817,60.08606,72.92484,4113.69580078125
367,97.10394,-3723.4485,-1182.5605,551.9614,-184.5315,-75.412315,3518.2861328125
368,-560.4873,-2772.0798,303.8693,-30.660477,127.26923,-180.58456,2774.72583007813
369,1160.5936,-914.80707,3046.885,66.26839,-191.92323,132.13739,3457.78125
370,330.24786,-28.289488,1268.9167,-28.859169,-101.796036,114.43939,1191.24768066406
371,-1463.6521,2064.0654,136.0895,348.45834,10.970189,39.17072,3119.25659179688
372,-296.3215,-2172.8774,-470.2073,1580.4521,-39.54601,15.569407,3274.79760742188
373,-479.48206,-2906.6072,-389.89938,-919.15643,-1.7173146,-109.9369,2947.40600585938
374,-487.8775,936.0791,-549.23047,-698.99176,195.8653,45.723812,1925.07409667969
375,-814.9812,124.76292,-291.39496,1682.9608,-183.99275,-425.01782,3131.41748046875
376,-2627.9373,-1339.2673,-1227.1306,514.7481,-51.39628,-101.812164,1628.39514160156
377,4107.7793,2349.1287,-333.0708,93.56862,-7.184408,72.645355,3878.96240234375
378,519.9578,-1077.0299,583.7776,-931.7477,37.598103,161.86778,2311.63745117188
379,157.20088,-540.36395,-293.3102,-228.54945,248.21857,-50.011326,851.082580566406
380,851.0378,-692.1144,-192.12991,717.04504,113.0863,26.75502,1855.45812988281
381,1258.7946,-774.2859,187.97346,1033.3712,-43.364105,42.42459,2513.48706054688
382,828.31006,-952.4734,966.63416,940.5143,-156.53532,-28.153559,2483.19091796875
383,-589.17224,-321.49503,580.23694,1170.75,-181.72363,-129.86963,2321.1591796875
384,116.41898,-782.1374,62.179348,962.0902,86.500305,92.7279,1893.859375
385,-666.0333,-448.9828,-878.74036,1190.406,169.6327,101.147514,2122.90869140625
386,-782.8642,610.41705,-76.392204,-850.9371,33.853477,191.25713,1934.29028320313
387,-1894.8617,1158.8702,-685.11835,-1428.9844,78.257286,449.10117,3720.74780273438
388,-1442.5802,-626.76886,195.9664,-2014.4658,-172.87384,-698.22064,3967.373046875
389,-2273.34,-3726.7266,-351.68713,-266.07675,380.05475,-50.50715,3041.60400390625
390,-877.54785,59.637398,50.269978,-992.39954,-0.87461114,-51.219513,1957.56689453125
391,1133.4689,-3729.711,-170.83565,-116.04186,-95.09152,-83.9571,4370.04931640625
392,1611.3429,-1289.5967,2974.7336,-294.33536,-201.36671,-56.15041,3823.66357421875
393,2349.0679,-2984.4116,596.6701,15.390251,42.94368,32.55866,4709.55908203125
394,-1391.9009,1243.6587,-51.80485,-308.5531,-15.007437,263.45395,2388.43969726563
395,-549.57385,-92.83239,634.03235,28.045153,321.77014,192.13643,1221.74108886719
396,-144.06923,-17.034231,-139.9192,916.90704,149.82347,171.84161,1641.25354003906
397,1312.3866,-300.22964,760.22656,-301.87177,-39.01176,72.10157,1519.38513183594
398,198.36856,-719.0256,643.1314,585.7617,-211.5942,174.95508,1644.06311035156
399,1052.3734,-296.81268,489.14966,572.06006,-219.81192,4.8843784,1582.53344726563
400,-998.26086,1336.7164,-46.93018,-153.28612,-102.18016,-378.1794,2160.2509765625
401,-286.7515,-620.2705,-1983.419,1153.9645,145.27821,258.866,2585.20776367188
402,-554.857,1211.3147,1002.99457,663.8436,85.13411,385.01718,2140.876953125
403,981.02155,-658.74976,305.5949,-452.67667,-0.38050744,130.24107,1644.12377929688
404,815.55273,-872.82367,-49.583473,274.60013,85.32552,5.371547,1544.84411621094
405,-116.39302,-1160.4111,402.60577,37.66806,60.75802,216.68587,1434.3525390625
406,-938.2523,-3628.1426,-61.71949,-476.90082,133.03152,142.80646,3340.38500976563
407,668.7905,-112.301476,903.51984,-563.17773,-21.448303,11.013003,1342.31115722656
408,-1479.9733,-1269.464,588.3609,-1045.5137,-242.82838,122.573364,2718.12133789063
409,576.94025,296.7395,-550.1371,-693.03613,-18.088005,-67.038025,1577.45642089844
410,357.63052,-610.3745,67.79909,466.61707,90.11447,28.687906,1191.84851074219
411,-84.23475,-1006.5054,-522.51666,-1143.5055,108.15478,-166.68872,2163.2666015625
412,-118.85235,-1384.3176,179.29774,295.2575,-111.998535,117.86336,1551.91223144531
413,-224.86917,-721.0157,484.01752,-1135.3065,-115.80335,93.33257,2243.55078125
414,-599.6138,-1219.8698,-1923.6311,41.400303,307.24115,222.15804,1323.97338867188
415,349.3531,-606.2863,-664.42096,1077.1469,-200.7853,-39.522976,2139.75439453125
416,925.20996,-871.1753,-964.11865,731.1959,105.49254,-45.84505,2246.38232421875
417,242.96234,-671.2164,-90.5262,1067.8217,61.2386,32.45477,2019.20983886719
418,28.472721,-223.66965,-303.9828,-800.4227,62.867977,191.78716,1460.99633789063
419,-2556.7214,-2663.5615,-633.8355,-720.5739,-346.65817,286.63382,2465.56665039063
420,-329.16653,1358.0697,365.6904,410.82776,7.019476,494.49036,1843.16369628906
421,-697.4308,837.26825,-612.70325,-947.68286,10.539008,-265.4035,2266.8056640625
422,-478.2711,-227.79135,-1429.028,-1200.8528,65.91393,-41.30233,2355.65649414063
423,-703.8352,-369.24396,-109.39678,1518.0239,108.64076,696.459,2944.5166015625
424,175.54027,402.37402,647.11426,-242.38661,-117.33125,-93.50441,640.819458007813
425,-886.9111,766.2702,-223.59341,393.87958,-150.6987,-196.7537,1651.091796875
426,-1080.5881,98.92613,-210.32481,105.96157,-106.987366,-17.818338,1091.37487792969
427,822.3159,-32.859497,544.56036,-976.8889,-30.7609,-17.552677,1854.08801269531
428,-179.26534,-553.45514,31.427786,1160.8885,-102.05818,-104.12117,2090.4560546875
429,-446.66278,814.29126,-206.12558,-355.38022,-5.8092594,-154.19992,1339.72998046875
430,-1385.8922,-1430.5303,577.05945,352.5303,-256.1101,-545.38763,2324.81127929688
431,531.9014,617.03973,-578.00134,-399.3054,-79.708336,-398.8837,1519.32458496094
432,938.2661,-1726.8585,-1386.9452,58.937653,137.71458,-77.695946,2529.416015625
433,202.12103,196.39265,-287.6612,208.67809,137.40457,209.6227,745.800598144531
434,528.9933,-1301.3501,-1143.8127,200.11792,385.47406,1.5200168,1911.16369628906
435,741.0746,-376.69455,-167.96927,-135.01926,-258.65738,-55.77953,1150.82702636719
436,-355.0444,-2603.6028,-313.88763,-562.8571,218.32838,-15.43521,2498.87841796875
437,-671.3943,-1005.77673,-1232.6229,-1190.1389,-260.29507,-113.800575,2174.97778320313
438,-199.39629,-1178.9263,1824.3569,-620.2423,-94.207985,-52.397076,2868.16088867188
439,-1155.973,-1608.2117,40.131958,238.57458,-6.5327215,-263.13528,1598.34729003906
440,-520.0148,1657.8181,-366.1115,806.60144,-95.15318,-113.9176,2539.56274414063
441,761.1904,-493.30283,1035.299,823.0492,-139.37643,-1.9719073,2020.71154785156
442,169.76692,-2900.5369,-387.65384,-1127.6997,319.39294,-23.10281,3485.51147460938
443,-1382.6782,-47.98618,-62.04705,277.8106,-21.725708,-20.281385,1413.15954589844
444,-222.94215,-1119.1487,-193.63411,-1381.8264,17.520252,404.53613,2655.2802734375
445,-1015.8125,-2141.4067,186.5943,-1943.7756,80.5641,-27.191744,3927.16796875
446,-77.99011,801.2356,893.2981,-205.47107,-129.6554,-124.937614,1042.29162597656
447,-3978.7783,-2584.271,120.97315,-236.38557,133.70534,257.44708,3668.18505859375
448,-711.84357,-74.244995,-177.5079,1294.3704,-40.944607,124.47609,2330.03247070313
449,-203.0901,-705.7384,-371.638,1025.1387,471.42612,268.2487,2057.1025390625
450,-599.9325,-1342.4989,-49.953102,939.25165,-261.80612,-79.831,2033.12707519531
451,-6.0804644,1372.3823,299.563,1359.6677,-52.36148,374.4323,2747.2119140625
452,-21.544804,937.5156,802.8668,-1471.0354,-55.63295,-272.96246,2744.71069335938
453,1161.5374,42.061195,751.92786,-34.121475,-53.69995,3.5031803,987.23828125
454,-1624.1508,-1269.0355,-432.6156,737.2387,-277.18292,37.756443,1728.60095214844
455,-223.69026,-822.52655,-290.44122,135.03868,92.95141,-405.61505,947.251098632813
456,-2274.3267,-1329.3949,-494.04062,266.98605,-94.9436,-345.0236,1725.71044921875
457,-152.19595,-1547.7355,-614.1383,93.61899,330.36008,-77.70192,1374.07495117188
458,344.212,-680.98,-1272.3754,112.02249,-94.24857,-215.74501,1486.94116210938
459,-406.40588,356.71112,-418.5433,-640.6546,19.666311,-61.62109,1354.85192871094
460,-605.2184,-392.83105,-21.81014,-743.5377,-20.618143,-53.22655,1389.20288085938
461,-408.7011,-372.06604,-2358.2305,-654.40344,38.004105,20.873041,2272.39965820313
462,427.51755,651.36786,3508.9934,-492.6736,-90.43099,-21.292068,3099.98193359375
463,-1822.136,-1625.9508,113.770775,-688.3365,244.75081,204.13153,2265.51684570313
464,-106.05153,185.60754,547.86505,-550.37305,27.601686,81.322495,1119.28918457031
465,-1241.014,-319.03836,-269.77585,133.20425,-50.86019,1.646902,979.225830078125
466,-1076.9766,-324.93506,31.093475,1196.3143,-41.15577,93.42977,2298.87866210938
467,995.818,-196.69418,-406.7261,387.0644,-67.22286,22.91181,1476.90637207031
468,-442.52847,-502.32358,58.269398,-403.2769,-389.81006,-81.94366,1117.23583984375
469,-69.076454,-1162.5209,-354.8569,590.07166,267.59305,-55.28101,1494.43835449219
470,-703.1201,-368.6283,203.24724,1622.4934,172.12437,78.84829,2938.57104492188
471,-2510.5774,-2396.5195,-303.2715,1374.376,82.69148,-165.43875,3225.33715820313
472,179.92252,324.32532,1012.0192,1507.3789,-147.1608,-343.58942,2797.99633789063
473,961.89545,4129.474,119.19851,77.14589,171.54057,90.7587,3680.19677734375
474,355.57526,160.10066,210.14682,-405.36462,17.745346,237.35785,832.979309082031
475,883.9087,-642.204,664.3336,-624.7127,449.07465,-143.07126,1969.60583496094
476,936.5651,-449.17487,166.39487,-77.97985,275.52234,-329.68448,1420.64685058594
477,-2784.4927,-2435.3328,267.61752,336.2483,-341.32938,-107.25877,3015.76440429688
478,216.69437,3028.6565,665.8872,-613.5964,-88.639854,75.80537,2831.2724609375
479,3923.0461,4542.3066,381.72006,852.9327,-96.37221,-219.31499,4179.966796875
480,2911.1455,-641.6893,426.38254,-1721.2032,85.85598,66.51828,4346.462890625
481,1886.7278,-1245.2258,65.54103,-281.37485,174.8859,298.34735,2831.65795898438
482,-729.0265,955.8109,522.0279,689.2136,125.40857,166.14201,1962.40380859375
483,-2755.1494,-1341.691,112.1421,656.3319,-218.12224,-0.52417797,2757.07739257813
484,-131.19649,-663.67896,145.05287,-51.311604,-218.09973,15.556596,811.34228515625
485,-3235.8645,-3909.3372,-687.2681,16.489098,103.966736,38.87917,2950.10107421875
486,550.7854,-125.43747,111.57898,-828.1084,57.649612,-73.0914,1560.91845703125
487,1111.2659,-977.4977,437.72064,464.61624,-385.94208,193.57599,2148.6259765625
488,28.360655,-167.10547,-845.58655,-767.61145,-272.4576,-93.4462,1627.18823242188
489,-4212.03,-2507.5203,-420.61255,-649.4493,122.97967,77.56139,3485.177734375
490,-6014.209,-3567.7224,-1191.2859,-280.35696,14.43899,85.50392,4207.73388671875
491,-351.47177,-329.24054,-619.9259,1697.8801,-192.03639,5.765939,2972.8193359375
492,492.87436,-1222.7604,558.0699,47.012207,36.485397,151.22548,1771.64770507813
493,-311.96387,-3350.3406,-326.6077,-280.68433,36.370083,3.9586883,3070.4755859375
494,-632.30725,595.65906,56.828564,-414.9972,-8.106703,-70.35167,1291.62194824219
495,-882.585,-920.0978,-305.37195,669.08405,-141.42404,9.926431,1326.48156738281
496,190.63217,-1178.2173,327.8136,596.838,348.90402,-12.117138,1874.73669433594
497,2059.0593,1215.1696,76.95329,559.09827,-96.201675,-318.525,2058.67114257813
498,-1015.9861,-1773.9536,-124.01623,-1072.0251,-5.4909225,-174.5226,2363.34252929688
499,-50.28218,1311.5797,1155.5773,1414.3641,-19.787607,-48.721134,2770.58178710938
500,-1767.9606,-2235.7793,709.50104,1844.3489,171.37744,48.080643,4220.8515625
501,-2528.2031,-221.813,319.8527,1401.6266,-499.58386,38.05871,3675.4453125
502,-1999.4609,-1340.3145,-1999.8473,417.1764,87.898994,19.973413,990.561889648438
503,-1739.9954,1909.3683,774.91846,1126.4515,215.44481,-204.97343,3812.71337890625
504,56.783913,1178.2485,1539.8668,-192.57802,-17.683153,2.124822,1380.65319824219
505,41.08849,-488.0406,489.42145,-852.7262,-252.99188,-50.005207,1760.43969726563
506,388.2645,-2039.8845,521.40283,-1046.5924,24.711235,44.0633,3087.17309570313
507,-1774.6816,1846.5774,26.47717,463.92355,94.12534,190.79182,3258.32568359375
508,-529.3288,1127.635,-476.3961,468.19528,13.91894,5.6403217,1821.79040527344
509,396.20593,-217.10764,1003.8282,-284.32663,-50.41229,7.5489993,1169.76123046875
510,-2414.599,474.78125,570.80963,102.9368,-80.4352,-120.82088,2954.69018554688
511,-1423.1451,1405.1019,-378.8952,-250.18353,-30.255844,-92.24475,2520.33569335938
512,-1098.629,609.70764,681.5582,1180.3911,85.95486,131.08292,2701.85180664063
513,-1265.6385,2048.5342,289.86758,-674.2446,68.35465,40.40013,3103.36181640625
514,1639.7275,-466.18027,650.92145,-773.1615,-500.7457,145.43985,2437.06469726563
515,-2492.3582,-1736.0149,-409.85428,634.34424,-114.69967,-157.50221,2157.51147460938
516,-401.25024,574.3343,302.65363,-433.90396,90.41066,118.40662,1179.80029296875
517,819.6465,-672.9183,1948.9354,14.7094755,-141.62215,123.67966,2301.1494140625
518,661.0017,-25.332937,1170.1868,-318.47037,16.829407,179.41118,1217.16101074219
519,-193.11359,-11.240999,-463.67868,-416.58856,138.6892,88.45122,870.232482910156
520,1037.266,2621.7192,552.2269,1490.3037,340.7831,-62.906384,3246.16137695313
521,628.72614,-1311.6726,-755.02966,-1361.5793,133.0488,-222.4401,2959.41381835938
522,-23.704138,-2089.9404,-1063.4736,130.32268,-248.97829,75.2137,1859.01513671875
523,-1330.7795,132.56638,-695.0093,-544.2323,-82.40046,-169.61252,1615.6962890625
524,-3737.263,-1271.8972,503.40915,-1050.6965,-226.76222,-17.710527,4132.02294921875
525,-4754.7603,-4077.79,-660.9928,73.992966,-17.32927,-9.546737,3803.0859375
526,-1106.3441,198.84601,-626.49713,217.78473,14.852805,-104.92597,1217.97509765625
527,-237.97371,1589.4773,556.85504,1027.9596,31.403786,-109.71967,2393.3232421875
528,-1037.3522,-679.73926,2023.5568,736.7485,112.444046,69.739784,3175.42846679688
529,448.06174,-706.49927,785.8874,1815.7356,104.21883,-179.89975,3443.47802734375
530,-2257.4514,-611.57587,151.40097,2124.1692,-41.23182,70.79849,4254.78857421875
531,-1513.8153,-1972.3179,-147.87894,559.50104,-122.6745,-143.05376,1935.96398925781
532,-2098.2498,-1524.1222,-883.2903,146.22066,-97.75073,-12.81946,1096.13293457031
533,946.91583,2056.282,46.537273,-590.0238,-29.694199,-110.39099,2030.71716308594
534,-214.93292,351.36673,560.9432,-628.35126,44.17097,-79.02765,1300.90966796875
535,-2543.0125,6124.2964,-517.69696,1163.3336,9.358748,131.74579,8110.64013671875
536,-2460.865,1566.3546,460.40543,2264.044,-87.15373,273.2784,5349.04052734375
537,709.69354,2216.1882,1348.8583,1018.49036,-125.96333,178.4687,2229.41259765625
538,1151.6086,3412.1248,1258.3843,802.8773,104.65271,-111.277214,2623.70092773438
539,-790.21875,4858.492,373.1856,-2199.4958,51.761925,131.85707,6423.64794921875
540,-2688.673,37.891537,-1024.2595,2200.4082,54.29003,-8.540542,4494.52392578125
541,-2972.258,-1514.4596,-2030.9274,2760.7942,250.55153,88.36175,4971.5908203125
542,5214.3867,-1284.834,-1205.2627,1825.9423,161.64528,-107.18268,7200.28466796875
543,-2133.723,439.70914,-642.3347,-837.09,-154.76573,60.148952,2682.1025390625
544,4898.152,-2523.8809,-249.51355,933.10626,-60.9637,82.5121,6783.990234375
545,4031.0522,-2866.966,-957.627,-2888.514,-88.34614,-68.04761,7945.150390625
546,4773.955,-1962.3135,223.51724,-2619.774,45.183144,-90.557755,7486.73486328125
547,-482.24567,-222.1379,-4.3079715,637.4271,43.06773,-0.9131282,1181.6396484375
548,2707.1516,159.6168,-84.97027,-342.44913,170.5055,80.57584,2762.4912109375
549,2553.3542,598.9547,67.45365,-635.4987,5.4053454,165.43872,2536.6728515625
550,-2284.5627,-1564.1736,-324.3181,-754.8564,131.7229,40.472725,2171.58276367188
551,974.95465,2309.761,346.2651,291.00266,-7.735659,147.08258,1826.27062988281
552,-4486.6016,-5824.4927,-2024.2446,-743.0206,-45.755356,-119.5088,3585.09228515625
553,636.872,2881.4832,532.1556,-1052.497,-349.0203,118.213326,3002.48388671875
554,2552.1555,878.289,852.9496,-1712.3763,355.02136,-32.33691,3467.39697265625
555,1580.815,1238.5292,309.58557,-1315.1411,-196.51306,351.95462,2640.89306640625
556,1372.5941,1935.2601,496.72293,308.5068,114.405495,-16.57136,1379.19738769531
557,2432.5317,2859.356,1391.1376,-1081.5332,-190.36957,-30.85597,2309.08935546875
558,-945.1881,-4946.393,-349.26666,-667.6067,21.588459,-190.36382,4494.0380859375
559,-486.86197,-3835.352,-344.7021,348.43085,-142.85089,-119.257225,3489.51489257813
560,1585.3829,-1511.3589,-61.100117,-453.66672,-236.7422,-313.26315,2877.84057617188
561,980.6718,-1631.4531,-639.20996,467.70728,175.35742,-258.27133,2482.83984375
562,3387.5918,239.63489,1167.8372,1590.2714,32.013317,-189.33249,3942.93725585938
563,-1891.9116,214.2969,-162.02576,705.78375,41.20985,61.766468,2301.31494140625
564,778.81555,-517.2192,-44.2462,-223.68321,-76.302,-105.04078,1221.10168457031
565,1292.0881,-1398.099,631.36865,-497.5666,-87.631516,-118.66212,2589.24633789063
566,127.48534,-1837.5088,-1025.956,-1142.0817,29.801983,197.98381,2637.88403320313
567,271.38422,1958.6239,-1248.012,2129.904,371.9223,-300.2772,4691.89501953125
568,-346.7777,2251.213,219.79137,1264.4435,-30.596722,44.529556,3225.49609375
569,-152.79082,6130.4204,-542.05457,-2631.2407,65.95295,104.155075,7930.4462890625
570,1474.0142,1667.3466,601.1622,-1133.9275,-93.56191,252.68274,2245.70263671875
571,-770.27716,355.37256,-500.32907,-12.265881,221.92824,180.95345,1132.48950195313
572,-439.4636,-107.44245,-326.4445,859.2767,-205.99478,-152.9661,1580.52307128906
573,-279.40604,-266.043,292.17792,254.34871,113.95681,83.356514,757.054748535156
574,67.335625,-101.7281,67.22074,-27.965502,11.748243,-276.09796,509.915374755859
575,-8.522015,-1764.3755,-187.99352,-230.62799,343.0446,250.63123,1871.13879394531
576,612.3921,-1630.5652,660.9021,-534.66675,-72.22761,250.04549,2490.55029296875
577,339.44183,-2469.7327,-4030.6902,-960.80707,90.338776,-12.187942,4184.1884765625
