Element Label,S11,S22,S33,S12,S13,S23,Mises
1,3902.7214,4389.008,6835.6387,-223.75105,-332.45697,304.77795,2858.791015625
2,-4273.364,-4247.337,-5868.72,-129.33444,-481.6226,-127.94123,1839.166015625
3,-2446.0945,-2220.5466,-5969.267,51.166245,-671.6077,219.29074,3842.33666992188
4,1802.45,1951.3906,4517.539,165.55388,-446.19156,58.861362,2771.17016601563
5,748.14105,1370.8488,2928.3115,-84.29145,-833.23773,1086.6561,3070.81982421875
6,1144.3877,1857.6519,1975.1798,-42.773598,969.2369,349.6116,1948.54333496094
7,-2136.9338,-2726.7134,-3848.4163,70.4623,972.69653,-400.10345,2366.6796875
8,2877.1064,3770.6526,5970.4146,-29.200647,317.36218,1112.2032,3408.61669921875
9,-6741.1626,-7780.4043,-13702.433,560.8263,1234.5292,-1327.1295,7287.279296875
10,-9021.564,-7303.856,-16529.191,630.6394,1391.9712,274.844,8913.1015625
11,-466.80206,5.6449504,-1420.1981,-54.76519,-482.90448,167.1082,1541.09143066406
12,-2097.0076,-3080.5256,-6028.665,-31.194405,-182.70927,-821.4006,3832.17260742188
13,-2012.6239,-461.50238,-958.1205,-69.84274,-872.4005,2377.8723,4598.15234375
14,-7396.462,-9905.033,-15484.791,137.88124,976.8674,-4012.4053,10131.232421875
15,-5715.679,-3128.0571,-6805.433,683.01624,599.60486,2931.8862,6242.53173828125
16,3210.5696,1882.4471,10315.583,1014.7951,1120.4706,-1952.1934,8942.6181640625
17,-1409.3676,4237.9917,7988.92,206.39983,2549.6963,677.33655,9388.9287109375
18,-3439.3486,-3577.4216,-6140.5356,555.77734,2298.3064,706.2202,5021.1611328125
19,315207.94,324551.0,323473.44,7340.524,-20566.492,-9138.58,41946.62109375
20,-14251.328,-15873.896,-17969.096,2017.6339,-402.20016,5366.2417,10464.6865234375
21,-3861.4895,-3239.604,-6628.946,137.5509,909.1906,-1186.0826,4064.92504882813
22,5707.064,10097.145,4626.003,3318.37,999.6036,-3651.2239,10060.5224609375
23,1025.1904,443.62247,1471.3787,1326.2625,-2042.9393,2337.184,5914.54150390625
24,-4626.662,-2848.5823,-2549.1396,-118.20198,-3944.1692,-3066.858,8871.9697265625
25,1271.3698,1327.3951,4850.746,1798.878,-3119.498,-3036.5632,8898.2236328125
26,-7708.338,-6580.5693,-15721.943,-984.85956,2974.9702,538.72375,10240.072265625
27,-9779.687,-7043.695,-8959.877,2082.1511,-271.31802,1735.7672,5308.51318359375
28,-2506.7158,17.691912,1093.7872,-951.45483,-2055.826,-1043.6509,5376.783203125
29,-2349.587,-3830.9531,-5474.0884,-1184.5803,-473.75192,251.12524,3521.45288085938
30,-5216.515,-4568.863,-9921.723,1666.4628,874.7127,3186.7673,8166.9384765625
31,11838.306,6459.823,19048.639,492.30365,-360.577,2873.121,12065.6220703125
32,-742.2312,355.44092,-218.23357,539.36444,228.01817,-52.14607,1393.25390625
33,-217.67397,1895.0854,-2584.7444,-1402.51,-999.36615,760.4458,5069.5126953125
34,4164.816,3940.1824,5129.3696,-2220.3115,-951.50256,-2561.0293,6195.12158203125
35,3966.4707,2758.5537,6370.0757,426.21875,-1218.2201,-69.7387,3892.49194335938
36,1971.4833,135.27849,5171.194,-1223.6041,-2206.4944,-2494.691,7566.57421875
37,968.5098,463.51035,-614.3737,352.48975,975.3402,-936.4414,2796.17041015625
38,-4342.539,-4592.9995,-6262.4214,162.45746,-1558.8282,1481.3359,4149.6875
39,397.69537,2398.659,2750.8994,-133.003,2033.4785,1370.9005,4788.42626953125
40,-4175.0684,-1878.2186,-3639.5864,2679.9412,-3807.7417,-1805.6687,8897.0
41,-1974.2644,-817.5774,-3167.2485,-125.00333,-1104.9272,728.7669,3073.07983398438
42,2176.818,-3524.8054,6983.371,877.20953,-283.8965,2298.9993,10070.9033203125
43,-4862232.0,-4838858.0,-4817001.5,-11034.863,-15166.233,-10737.131,54186.07421875
44,-39907.625,-24063.01,-65667.83,9067.088,-2572.7466,79.74208,39866.18359375
45,58.91194,684.81195,2255.0042,7926.602,10020.962,-10426.569,28630.96484375
46,-13279.992,-26545.568,-17819.242,-2205.133,-1982.5137,-1698.9388,13092.08203125
47,-18928.877,-22935.736,-36142.836,-3304.7285,-341.2957,-5381.372,19062.84375
48,-6168.5254,-9525.686,-14610.45,212.77011,521.95447,2296.4731,8424.3818359375
49,-1499.9194,266.26318,-6848.4814,-1677.6144,-1907.249,-420.00397,7813.9765625
50,8173.2407,11438.75,8027.361,-6027.0767,-3466.936,345.08963,12512.16796875
51,-1491.825,2177.748,-2096.3452,-84.48323,-997.1766,-1733.8177,5298.34033203125
52,-4314.3506,-10164.348,-2102.8372,2683.9502,847.9004,-871.6854,8837.2890625
53,-8199.979,-10526.978,-9665.286,-1499.7483,-171.36798,125.71193,3321.9765625
54,1995.1083,174.51929,6090.8213,-1875.1388,-520.11786,-866.34766,6415.42626953125
55,9651.218,9255.74,15000.488,2657.733,-2251.178,-3019.189,9727.6494140625
56,1636.7996,-919.57495,4536.5957,-2724.2178,2212.9734,-1514.3447,8135.87109375
57,7207.053,1102.6783,619.5323,2365.4272,1270.0743,-2163.6719,8724.4228515625
58,3025.2778,5845.6064,8030.4175,2960.1785,-777.673,-717.72107,6966.86474609375
59,-593.6807,-234.22566,-1113.0616,-1178.0753,224.05869,1549.5917,3479.01611328125
60,-4808.031,-0.33525512,1105.9552,1792.014,-1988.8068,1368.5809,7534.9560546875
61,-3538.089,-1816.5543,-960.69226,6.3259206,1816.7318,-442.01852,3956.94116210938
62,-2339.1553,172.06555,1307.8176,566.9581,1055.824,-583.18243,3972.0537109375
63,-4979.0312,-3871.1047,-3626.484,339.25027,1300.4094,1698.6035,3953.80712890625
64,2761.7188,1278.4458,583.4373,624.0619,861.1908,-217.02637,2692.32861328125
65,610.74194,1426.2565,6239.601,-1199.3271,-132.02025,-1244.821,6064.22998046875
66,1897.0773,2295.0183,95.62833,1694.7933,168.16858,1833.2986,4785.93896484375
67,2022.3242,4029.2532,1444.0719,936.0411,264.02243,-711.1939,3142.87817382813
68,-1395.9121,2504.2883,3682.825,-649.06494,986.3185,-670.22754,5169.814453125
69,-1918.6469,-2089.0042,4066.598,528.5528,-1129.5873,-1827.1208,7180.03662109375
70,511.2952,-1873.0399,-1185.8007,1052.0708,-343.8734,1993.682,4485.3486328125
71,-10327.976,-6926.2183,-410.1384,-635.2233,-2913.669,-672.05493,10209.3720703125
72,-2635.5571,-2393.355,-4186.8154,92.220276,1333.0311,-853.5353,3222.23217773438
73,6800.7104,4722.3906,26034.143,-7220.6553,1847.1716,-1912.6731,24327.806640625
74,4954.064,-4753.993,-6997.0776,-1728.8495,1512.5625,951.0986,11815.154296875
75,24989.857,23187.498,38819.926,7256.517,-13413.414,8857.97,33949.4765625
76,-3681.3447,-2702.5552,23636.76,-13124.662,3160.6277,-4796.955,36555.01953125
77,-9288.301,-18121.59,-26960.773,-1466.8962,662.29755,959.0147,15645.05078125
78,11595.33,14448.402,32749.281,676.2301,17738.521,4075.6318,37288.6796875
79,344.16327,-3404.02,158.72603,-1412.7527,1014.24194,1846.913,5717.966796875
80,1643.9762,1090.3278,4058.7944,-346.33475,-1235.8699,787.9211,3778.79077148438
81,1159.8032,-3322.6946,10084.752,-1491.2053,-5865.313,-5406.177,18366.017578125
82,2443.933,-384.8895,6792.275,-3174.5986,3072.6343,965.3412,10028.166015625
83,618.0099,-821.7722,-2350.0212,-2521.8052,-2012.4476,1104.5509,6441.83984375
84,1285.2946,613.72235,6994.0044,-2671.5227,-3287.184,-2173.6675,10240.923828125
85,126.88466,-4260.6206,3578.4634,-433.42688,552.9284,-903.04694,7087.6416015625
86,441.65076,-1244.3546,3167.6536,-347.2425,835.08813,-176.62924,4173.39208984375
87,-3894.8215,-3916.148,1939.9895,1132.2603,-2187.3223,2436.9019,8377.6220703125
88,-2467.7466,-3159.3325,-5470.378,319.92047,-26.858156,-1618.3654,3947.66259765625
89,3220.7551,641.53033,2098.6453,-238.01501,1137.3456,-1097.338,3560.958984375
90,1098.3302,341.76443,3456.1711,735.0777,5.750314,329.45117,3140.44580078125
91,-3318.079,-5052.911,-5615.4956,-2176.3938,-963.2108,378.21133,4660.9716796875
92,-7471.151,-4563.6074,-1365.4557,-2319.68,-1720.428,-2363.3872,8352.2392578125
93,4512.7275,7336.9224,8190.3794,749.8991,-219.05139,4692.4287,8888.3330078125
94,1606.6561,-1160.8881,2665.583,-1094.3799,-1356.3177,-2143.6865,5882.96044921875
95,-3209.7163,-4265.4336,5012.524,1141.1355,1660.4749,909.1598,9594.68359375
96,-2208.282,-1436.7168,-205.1045,2057.9702,-769.6929,-2840.1406,6461.01025390625
97,3176.2664,2585.394,6482.8887,-776.5173,-586.7138,782.4462,4232.6083984375
98,-1922.1077,-2654.751,-9426.237,189.01555,693.00555,-915.5356,7444.0205078125
99,-12198.651,-9509.24,8173.5454,-15075.979,5841.2754,-2507.0557,34213.19921875
100,-1722.5884,7730.5117,-2288.9043,-208.7096,1047.4094,-2699.0642,10968.681640625
101,5210.2197,7263.258,15258.903,2073.5442,52.602932,-4371.2427,12441.50390625
102,-483.03464,-466.6275,4660.977,-784.02423,-1304.0088,2469.0806,7184.09375
103,3298.9749,8600.0625,6752.688,292.5989,836.1938,-3264.9485,7487.01513671875
104,2980.048,704.1837,3900.1528,1056.451,-93.78347,465.2631,3484.85961914063
105,-8688.509,-8381.99,-12698.528,242.60587,-1218.9498,604.70074,4809.82666015625
106,-799.1909,-448.22736,2654.747,-1944.7535,-2270.4634,-556.9831,6211.48583984375
107,-5255.7305,-220.19997,-10664.278,-2931.3655,-2213.46,4316.9175,13350.2099609375
108,1807.3503,827.135,4555.434,998.408,-1348.7441,252.76067,4454.87939453125
109,4234.231,-2274.2834,361.54984,-854.0393,1705.6915,359.88562,6592.25830078125
110,1845.9353,-1442.1791,1288.7518,577.4291,-244.95757,-2835.339,5881.13916015625
111,2146.1072,1723.3472,2471.8677,944.372,-477.51358,646.9623,2244.50854492188
112,-6109.343,-982.79425,1486.891,2132.3623,-1557.5177,699.86743,8211.5615234375
113,-297.49142,-2510.2905,-4670.035,-96.51086,-223.35742,-951.40857,4151.2890625
114,1904.7079,70.20206,1473.7766,-235.24983,-283.23477,-58.821095,1782.59375
115,-3140.7712,-3121.4055,-4126.9316,-1452.8326,1709.7294,-820.8045,4256.15283203125
116,3074.105,1851.7736,-3022.4534,3786.4683,422.3837,-647.0566,8718.56640625
117,-10555.681,-9985.5,-14178.9795,-717.448,2208.075,-1731.536,6378.47705078125
118,-1011.2883,-9013.603,-24277.11,2008.4415,1324.1749,3028.5007,21541.41015625
119,-11964.062,-16357.865,-31295.025,951.60724,-1383.5635,3158.0469,18612.748046875
120,-14111.616,7815.328,-21886.32,3590.1045,5262.4717,-13671.557,37338.91015625
121,-157360.66,-133153.31,-127640.32,-2479.6587,-15423.703,-4616.357,39317.85546875
122,-2143.2056,1967.4818,5848.8135,842.44147,342.77884,1450.1488,7530.46044921875
123,4885.9204,4463.6147,5556.606,41.95367,-612.5735,1599.8322,3117.8203125
124,-1021.7551,-456.70688,-3239.648,866.9948,393.3778,-215.36714,3057.7724609375
125,1444.1708,-2764.7686,-4234.5254,152.50223,1155.1605,1120.1835,5822.2734375
126,-3144.6006,-575.2835,-4963.0215,604.75256,191.41522,1030.058,4355.49072265625
127,-203573.17,-180298.45,-175098.31,-7424.9194,-16698.068,1392.7957,41200.36328125
128,22441.184,16749.998,31354.424,431.73264,-3429.5776,-591.8976,14122.98046875
129,-1633.0946,-8889.476,3587.1238,1065.5907,-106.292984,-1201.6461,11205.259765625
130,-2881.3857,-5281.637,-9560.379,-1264.027,433.93073,1002.0722,6535.251953125
131,1971.2085,4796.95,-4354.4424,2120.2517,-536.9663,-358.17758,8978.28515625
132,-1229.0527,2947.065,-11111.983,1656.5968,1680.1179,-271.72067,13164.6259765625
133,-1569.9423,-2664.686,1861.7863,-654.13464,-49.61858,-170.20271,4255.59130859375
134,-1628.9877,-262.9783,-10875.088,-798.68976,763.07635,1234.6866,10402.91015625
135,4738.082,-3159.9033,8303.788,-4148.031,4328.012,1548.815,14773.7724609375
136,-1992.926,1601.2123,-6531.6816,-2376.4956,2745.1257,-323.2935,9470.7412109375
137,-11760.57,-17412.76,-32136.846,3274.6228,415.5957,5398.748,21262.556640625
138,-4666.3936,-4076.0107,-7639.148,453.40363,-732.04193,-1090.9015,4090.89990234375
139,-40507.52,-38614.434,-38418.99,20078.871,-6622.756,-4563.522,37517.12890625
140,10396.182,4733.1265,41269.43,7372.996,-5459.23,-177.73589,37585.265625
141,-6269.6123,-9039.262,-16352.064,-364.3378,-859.64777,1764.623,9662.2373046875
142,4118.088,1270.3037,-2087.695,-861.5498,516.2459,-927.48175,5878.42529296875
143,-6857.865,-6547.3047,-11890.452,-220.41301,1320.363,-702.32355,5817.37890625
144,-23.724316,-227.13213,-3143.9312,-1220.5361,301.23935,306.53662,3763.72778320313
145,2354.804,3405.3955,9090.0205,632.9252,988.7746,-869.1808,6766.990234375
146,-518.6321,439.20355,6603.8257,-1211.3734,-379.10043,-120.34549,7049.93505859375
147,-1166.2605,133.0427,817.90155,822.063,2158.7004,382.17618,4415.0380859375
148,-3852.5974,-1839.9375,-899.8423,388.34235,309.3706,-916.251,3175.65405273438
149,607.37115,135.82452,-540.2012,526.1955,960.4708,2519.6785,4862.3701171875
150,724.64246,-1597.3015,-545.25854,-1859.3303,1173.8663,280.93274,4335.5986328125
151,2326.4517,1493.0975,3732.356,-507.29092,2013.7549,672.10626,4258.580078125
152,-18100.678,-18161.303,-20006.072,-3582.8977,357.78827,-1866.5024,7270.87939453125
153,-11149.936,-21395.225,-7193.519,229.19524,-826.0218,-3155.9255,13901.0048828125
154,8785.55,6270.662,15459.266,-3231.4812,1769.9158,-2918.3079,11572.4482421875
155,11607.579,13376.237,4928.7085,2408.3372,-417.45535,774.0334,8903.2890625
156,-7467.884,-7540.5444,-4982.463,-1774.3785,1034.8356,1907.5054,5471.4560546875
157,7112.646,3475.589,16475.945,2798.7034,72.61465,-1351.665,12804.2744140625
158,4969.103,2039.7089,5994.2095,1128.3348,-2026.4877,-120.95116,5368.27685546875
159,-2220.9868,-2417.3545,-1273.4014,1627.7764,-1739.5823,-4775.859,9304.646484375
160,482.3256,936.6725,1326.341,1177.2533,4124.3506,-280.45364,7480.6328125
161,-2162.6897,-44.26662,-8088.931,-298.6024,-3252.6816,3128.2786,10654.953125
162,-1122.4385,-1948.7098,-483.3686,-2178.4,1086.3519,-312.54077,4437.22705078125
163,3312.1501,5240.353,4495.5493,-617.11066,911.59937,-4256.7695,7799.5087890625
164,-1983.0602,3487.8452,2259.8052,484.68317,2639.4617,-1769.8425,7464.74755859375
165,-2721.982,-1908.4343,1606.2417,-1826.2645,-2172.4546,1428.9559,6794.4326171875
166,-3886.3552,-3467.9177,-6458.769,-1201.6346,-2290.7534,-289.13052,5309.8037109375
167,-5543.4263,-6431.8022,-18724.104,-2825.6628,-245.01724,-3046.3638,14655.5205078125
168,-5535.115,-7784.308,-4703.973,-2582.6858,-1117.7863,-3865.6729,8729.7470703125
169,4772.7363,7515.76,4139.339,-867.0596,425.2507,2198.9507,5192.96044921875
170,-4098.3257,-845.24554,-3883.561,-795.7167,348.59824,-1415.3861,4266.61669921875
171,966.3624,-574.86884,1766.0004,-1583.2374,-1271.4629,-1025.0425,4446.25146484375
172,-2849.8347,-3820.2354,-4558.3623,-897.4059,528.89795,-1098.9894,3013.52465820313
173,-3089.2136,-6110.1772,-7085.6484,-182.70724,-452.07803,2918.7131,6268.53662109375
174,-12087.406,-23108.174,-12821.352,-2831.8599,-2173.0093,-606.9615,12378.8837890625
175,-170.87982,-618.17426,425.8126,-1334.5908,3074.1174,-2752.6326,7566.23828125
176,654.93884,-5735.5396,-4142.624,1171.8787,-2489.555,-2127.147,8335.701171875
177,572.39465,411.6882,642.2639,-222.27461,-643.0326,-478.12347,1454.79675292969
178,11360.884,12655.896,26356.459,2350.52,439.4042,691.00836,15023.6953125
179,-11516.214,-22353.654,-15389.465,-1249.0743,-957.1578,-881.3133,10011.75390625
180,3596.0657,-815.2954,9569.455,400.07468,1.4731958,306.31644,9069.3955078125
181,2875.997,1777.2379,-180.09813,-3487.9016,3354.8132,-1061.8534,8990.681640625
182,1357.5353,-920.522,-6111.888,-706.4174,-2186.1309,584.17267,7799.00048828125
183,-5237.549,-4551.0356,-6030.614,-101.233215,1458.154,-989.85425,3315.64794921875
184,1893.5175,-134.61734,-4851.018,1237.112,1559.8903,-5625.5874,11948.056640625
185,-7338.907,-5758.8965,-13832.887,1443.7213,-7137.598,1014.89825,14734.576171875
186,-662.9466,-2025.7926,-4072.168,-692.3969,-376.4411,-1610.7701,4298.95361328125
187,2144.4946,1401.0813,-1594.4303,-488.00037,-1300.7734,1361.9032,4807.0224609375
188,-2453453.2,-2446102.2,-2436009.8,-12827.491,-17304.54,-3783.3867,40804.4453125
189,1680.4685,2886.328,4424.978,-1553.2334,761.374,929.8109,4152.9814453125
190,3257.869,2642.5598,-0.73771185,-2336.6768,3581.0396,-2472.4988,9065.513671875
191,11323.549,6447.4736,15310.866,149.67683,-963.17847,627.7868,7946.6953125
192,-2788.3862,-7500.4595,-5666.145,-2292.3333,3333.76,-2837.859,9496.919921875
193,5101.1724,5208.9106,2996.1792,-2349.6902,220.37578,-3252.4055,7287.84228515625
194,-13139.435,-13822.252,-22721.91,379.20996,-1467.1287,-497.10413,9663.1845703125
195,462.93265,-947.0206,-2765.294,-1842.0349,3651.3584,-172.01251,7623.84814453125
196,272.87912,-1987.6881,-3878.442,496.6856,1560.1284,-1394.8828,5180.58642578125
197,-14862.466,-14978.933,-23919.326,-30.913727,-903.00903,157.95248,9138.3505859375
198,-9169.557,-11400.197,-19636.797,-232.57784,-3549.4175,1294.47,11583.3740234375
199,-5022.863,-3283.1316,-10960.661,-285.0722,829.1639,2676.8772,8509.85546875
200,-341.2617,-3706.3894,-3750.4663,-174.26845,636.2775,-665.3427,3756.06860351563
201,-3664.3428,-8889.2295,-8690.196,103.65411,2513.9922,1291.3933,7091.89111328125
202,-8920.11,-8146.724,-18924.607,263.1835,-2064.3816,-1011.752,11157.4716796875
203,-3200.7908,-7918.1416,-9330.631,-621.69574,-874.3953,209.6652,5873.39990234375
204,127.39162,-2542.171,448.16412,1526.8009,1240.102,-2166.1912,5811.18359375
205,-6087.5513,-9204.54,-6209.9424,-941.55664,-606.3484,-1163.1294,4143.70361328125
206,-8152.6587,-1585.0963,-3855.8704,3300.239,-4013.1914,267.86594,10704.3427734375
207,-1243.8138,-2140.391,-14763.897,-1769.7645,-3740.572,1227.7932,15078.759765625
208,-2514.7126,-610.47095,-1678.1576,-1010.68274,-1191.3097,1812.4677,4462.08154296875
209,-1907.0869,-6922.831,-3798.9993,-1611.3325,-774.40796,254.34395,5387.95361328125
210,-7935.342,-7750.4287,-18409.812,-611.3041,-3838.5215,250.25058,12537.833984375
211,-9847.519,-5671.192,-9574.742,-3759.7349,511.07825,-1434.5089,8108.068359375
212,-16998.654,-14919.836,-23089.197,-1715.7166,-2042.6552,828.0257,8802.4189453125
213,-7171.1963,-4984.223,-17885.777,2582.2188,693.74207,2292.2104,13424.890625
214,1864.7832,-2044.2213,2011.8232,1319.2618,-281.29025,-27.988659,4619.28515625
215,-1029.0857,-340.4158,-2500.0735,270.41824,-1273.5378,-3388.7456,6571.6787109375
216,-10133.158,-11887.483,-24763.309,2788.2476,-73.31618,31.569548,14655.88671875
217,-3173.0583,-696.5654,-1287.5385,-260.7898,228.92018,1931.9254,4071.48364257813
218,35.27482,-768.86035,-10439.078,-3062.0056,-5598.704,-3985.6396,16485.0234375
219,-736.97784,2241.3047,-5383.447,257.80695,-1237.0469,-2219.5137,7991.7021484375
220,-2198.3833,-1984.9539,183.21135,615.39276,2894.4165,350.9662,5643.388671875
221,-14212.749,-15351.855,-25427.18,15.167842,-447.23853,3130.718,12012.140625
222,36.17079,-440.42987,1270.9253,-885.79645,-518.29895,8.8368,2345.2705078125
223,-3318.6675,-2767.9492,-3337.7585,1035.0618,935.62854,-54.71695,2482.6220703125
224,457.16684,2123.1438,-6968.736,286.98328,1141.2917,-1919.7555,9246.728515625
225,-11175.718,-10045.841,-22271.025,3837.9802,2326.5627,1839.3834,14404.7822265625
226,-12832.112,-12868.878,-23817.84,353.7192,-95.40498,-962.20935,11111.4296875
227,-1836.721,-1313.2767,-3372.9038,1595.5284,-114.70996,1033.2208,3783.80786132813
228,4591.094,3310.802,3195.0654,-1812.3219,-1714.7936,801.3524,4733.10693359375
229,-14363.147,-13762.255,-23791.715,-173.11014,225.81627,-694.6894,9829.3017578125
230,-2042.4991,-2379.551,-7359.9634,-698.56573,-1103.037,385.8686,5670.7587890625
231,-7021.8623,-404.4247,-2809.0945,2634.4292,-1585.1658,1611.6062,8355.291015625
232,-343.72504,-3995.8755,-9125.234,-2975.1917,-378.25748,590.4274,9295.80859375
233,2709.6526,2151.2488,652.85004,-1322.45,-2688.6433,-1574.1925,6144.998046875
234,-970.9452,662.75543,-3250.7314,309.68237,-2089.8977,284.189,5022.34130859375
235,388.04596,753.8875,-2251.5796,-133.31848,-1695.1528,-107.18716,4095.79833984375
236,-900.3071,-2779.6423,-1942.5234,-510.25458,-806.5263,1735.5201,3798.42944335938
237,-2300.6194,-6691.6313,-7521.138,1217.2273,-3115.743,165.29897,7567.1591796875
238,-2940.9026,-1120.1041,-8492.895,666.89606,-2192.877,1535.6049,8190.4580078125
239,-6625.191,-9512.063,-17525.36,362.38046,1340.8574,625.2458,10131.177734375
240,3914.9868,-1178.306,84.881454,2104.3057,-806.67084,804.7102,6187.29541015625
241,143.91959,3189.3313,2127.1206,208.26137,-770.4763,891.5252,3385.76831054688
242,-11323.798,-11668.655,-19351.832,-49.11617,553.964,-26.853807,7920.21240234375
243,406.79514,-2590.701,-11194.505,50.56488,1239.0692,-48.121716,10649.919921875
244,-7724.6045,-9036.146,-17130.76,11.471692,-365.98627,-1098.6188,9048.892578125
245,2639.412,921.6666,1144.7313,-1134.5292,-1138.3193,-879.2845,3561.66333007813
246,-10048.352,-11386.648,-18493.148,-50.859528,-432.66846,351.3519,7921.091796875
247,-10275.847,-12724.12,-19746.998,-504.23218,-994.69745,484.29214,8771.7392578125
248,-11807.034,-13160.992,-19299.715,-737.40594,121.84278,-143.24527,7040.31884765625
249,-6446.6143,-7957.959,-15482.897,-62.52874,-258.14847,109.33359,8398.1630859375
250,-11945.184,-12163.249,-19891.05,-1142.561,-773.7929,-362.39227,8219.3818359375
251,-4292.584,-7658.6777,-14761.647,-418.65195,1620.0159,-1471.8735,10029.4775390625
252,-11413.039,-10308.141,-18559.533,558.5473,-826.9762,256.16577,7960.765625
253,-15594.064,-15305.726,-24808.826,-3300.251,-3492.7046,-1952.9166,12975.57421875
254,31731.438,40849.438,15202.029,17180.643,730.47595,3274.2957,37767.203125
255,-12173.08,-11234.404,-20674.06,493.84183,1656.7227,-171.04443,9496.3701171875
256,1656831.2,1640590.9,1633680.9,11827.734,-14508.08,-5367.9893,39513.33984375
257,3032385.2,3023518.2,3030499.2,5439.3545,-9683.016,-2141.532,21195.708984375
258,13506.573,31937.4,52394.73,22285.549,-11913.534,1940.4131,55337.80859375
259,-887.60864,1429.6814,293.05243,5832.805,-4252.2964,17362.088,32629.205078125
260,-4198.2334,63.498497,-10251.557,-5117.116,4812.76,-5884.697,18235.5234375
261,-9089.929,-9214.607,-16739.232,262.51718,-513.05194,-1648.0997,8168.1572265625
262,-14406.455,-10759.236,-19690.793,910.81104,1063.4088,-3686.594,10351.5087890625
263,-7224.0903,-5092.935,-15552.816,-411.72305,285.69327,-1884.8895,10152.3955078125
264,-85.35771,6615.659,-8017.3896,-1239.189,1356.981,122.308716,13082.4033203125
265,-7714.067,-6655.7627,-10993.174,-334.78983,-1437.911,844.59204,4901.2109375
266,-7644.4023,-7299.1934,-15216.979,-1094.8467,878.80493,-1231.1492,8398.6513671875
267,-3895.2441,-2043.918,-6187.9385,-223.96562,-464.99118,1431.7513,4458.390625
268,-11427.827,-10699.012,-19559.443,48.834457,392.97052,-1104.8546,8758.615234375
269,-4453.01,-4195.758,-10005.835,482.4639,-549.9885,688.6081,5946.162109375
270,-7645.6,-5364.912,-12309.677,-428.5565,1326.2562,788.9447,6729.6064453125
271,6459.1772,4690.5923,6659.524,170.04411,-1437.8263,-618.3628,3310.32592773438
272,-3531.6812,-4818.2607,-14260.135,-1608.9805,469.49985,234.41249,10561.466796875
273,-4556.3228,-1269.3303,-495.59518,1249.3887,-1109.7712,2158.16,6024.69091796875
274,-4957.737,-9683.549,-14185.625,-4952.271,1818.11,-5.89213,12139.587890625
275,-6969.3574,-5716.969,-10649.846,228.59846,457.0337,1801.7302,5499.63427734375
276,4776.8315,2697.4927,9526.149,-921.67084,980.37256,823.095,6649.76611328125
277,-11789.247,-13588.592,-24127.96,461.9522,-2619.156,17.247543,12429.83984375
278,-8322.951,-7346.501,-16927.008,187.73618,190.64232,-959.85767,9293.1923828125
279,-12468.046,-11775.942,-20320.773,226.45493,443.82037,-309.18933,8283.1640625
280,-11218.31,-12136.062,-20889.709,8.184762,-71.11307,-464.22128,9282.4658203125
281,-11220.8,-12102.797,-21234.375,-189.13655,634.2889,-283.6225,9683.66015625
282,-11241.536,-11018.355,-17840.414,79.93932,965.76514,214.71326,6929.88623046875
283,-12566.502,-11794.557,-22513.318,-397.2346,-49.370483,689.1013,10445.9912109375
284,-16054.668,-15463.951,-24359.217,-78.36093,-34.322186,1033.7715,8800.4609375
285,-10800.381,-12314.532,-23091.352,501.7261,-1394.1549,-65.54585,11889.041015625
286,12930.296,8336.384,13744.576,-317.44617,-954.5191,2277.2935,6640.90673828125
287,-6801.773,-9325.003,-18750.527,224.30228,-2424.5708,-308.57114,11707.35546875
288,-1712.1975,-3129.5708,-8727.603,83.18944,188.52016,-1883.282,7214.501953125
289,-1290.1509,-1789.429,-5409.757,48.160297,1152.7814,-1217.0481,4858.0751953125
290,-4946.9946,-3761.2173,-8452.718,259.6979,460.62183,3188.2153,7013.28466796875
291,-8190.8325,-3721.1033,-9066.792,-1395.509,-372.12042,385.43958,5600.40478515625
292,-9501.727,-10855.571,-19796.816,-186.0846,28.206089,101.09174,9696.4296875
293,1241.9536,-205.20758,73.378815,-675.8873,-884.40204,856.72156,2772.65478515625
294,-635.05365,-1405.6738,-3085.86,-340.1256,-736.69934,2536.134,5097.33544921875
295,-6986.8984,-9370.496,-17597.867,-441.96872,-124.248886,632.48285,9737.265625
296,-11502.148,-12611.51,-19537.059,-2.5316708,597.85394,211.20584,7621.21875
297,-5073.96,-496.30975,-16555.424,2973.837,2546.4243,-178.42719,15856.1181640625
298,-11845.016,-11019.55,-21067.84,292.17017,-1169.9641,367.33496,9905.6728515625
299,-4669.8804,-2214.1262,-7532.1255,3185.6997,-274.93912,2186.8215,8140.73291015625
300,-834.9604,-1055.2223,-5592.558,699.75244,-710.4508,-1245.0348,5410.0693359375
301,-13452.197,-14223.08,-24446.818,829.9406,-721.2803,611.6191,10851.255859375
302,-1428.503,-2144.1619,-2054.545,-1483.6261,3100.9927,1188.7255,6336.1796875
303,-3671.636,-2319.2075,-7607.427,-459.35806,641.56244,2208.202,6256.09228515625
304,-8958.848,-5337.3857,-11702.396,360.27792,1123.6733,1287.789,6303.19189453125
305,5157.228,3500.369,8055.2964,904.7661,-1222.7396,457.91156,4849.3095703125
306,-4477.0522,-1616.8547,-6479.3296,-244.33759,2465.2236,1045.3584,6293.3427734375
307,-386555.66,-368864.78,-365950.94,5478.622,-12703.361,14336.269,39544.453125
308,-2224.4817,3524.7332,-7388.5303,325.7646,-686.5829,1287.6791,9803.927734375
309,-16303.457,-10539.261,-11069.064,786.1491,3225.5044,-623.6378,8042.71435546875
310,-281168.53,-298425.9,-284121.47,2586.3962,3329.7585,20280.742,39278.90625
311,-8991.742,-5078.023,-18094.77,1703.7205,2478.5422,-622.9366,12732.2685546875
312,-150030.9,-163346.94,-191994.83,7280.2285,-953.6546,-3181.5408,39643.34375
313,-13900.319,-13279.12,-23227.166,333.72903,-464.66974,1437.4144,10017.4921875
314,152.70152,-4231.289,236.97063,-97.13555,2383.2249,-4239.5063,9517.548828125
315,-6779.848,-10265.0625,-19241.37,261.40552,235.44785,-987.1519,11282.724609375
316,-3430.703,-6012.7686,-16555.143,-365.34415,-3924.3206,308.1523,13853.375
317,5337.325,1460.5325,12238.69,-283.26282,-1388.0931,-657.2304,9835.166015625
318,10111.357,11057.222,14644.124,-552.7069,1184.3179,1591.7445,5466.12109375
319,-855.4136,-332.81067,-4420.29,-1607.7609,3876.3706,60.40411,8227.3232421875
320,-1252.5635,-1985.3027,-5498.941,-3783.9688,2902.0505,-1636.5922,9576.7109375
321,-7857.083,-10021.6875,-7338.788,-1649.5693,2561.1958,-554.58154,5902.63818359375
322,-2515.2568,-2775.3574,-1833.4248,-1169.0988,482.3448,91.07114,2352.25830078125
323,-19893.117,-16366.201,-19272.33,-1337.7369,-8783.621,-1503.2384,15944.869140625
324,2007.1486,1438.56,994.8075,1480.613,-1360.1659,-3804.939,7505.46533203125
325,-1464.0826,-91.455284,-8333.172,-90.76177,164.32425,-2991.9714,9244.3818359375
326,-5578.0977,-1614.78,-4997.703,465.18835,-996.8356,1862.1025,5270.38671875
327,-1771.311,5.6133795,-1165.0511,1008.51276,-1270.9305,433.05106,3302.63842773438
328,-108.03556,-2002.4425,-3976.2244,55.57036,-119.7109,-825.5867,3649.763671875
329,-6725.767,-7502.5293,-17106.842,1022.118,1516.6566,1405.9054,10782.90625
330,-134.94415,-2602.6394,-3803.616,-335.41174,406.92636,1023.4021,3804.1865234375
331,-9460.176,-8773.684,-16936.39,-808.36847,1009.26697,52.358974,8156.0947265625
332,-9161.116,-10391.894,-16996.473,-145.44666,-609.00775,564.887,7442.94775390625
333,-6665.4355,-10215.667,-18928.148,-62.28035,-425.97314,2365.5264,11695.552734375
334,-7643.3384,-840.86255,-13041.318,1141.1797,-6209.3203,-389.90952,15236.8447265625
335,-12491.427,-13031.854,-387.80807,2783.6672,2583.7778,2264.2732,14559.7294921875
336,-7144.621,-5300.1157,-16267.338,-855.99896,2334.1587,927.7997,11161.4775390625
337,-15563.794,-15822.309,-25329.17,-548.3428,-287.16058,-126.62802,9700.640625
338,-9585.45,-2684.3635,-18089.582,1642.2635,790.33417,1388.9207,13942.212890625
339,-8367.5205,-3101.8386,-7552.805,-1021.9711,-1445.2972,-2028.9813,6771.36328125
340,-14850.3,-12247.289,-24064.533,429.5572,146.14125,1644.2498,11153.0625
341,-12399.987,-22238.275,-23741.816,3447.251,1393.7637,1317.4597,12670.0537109375
342,-3767.917,-2408.515,-2016.245,-72.58496,1562.4991,-580.59216,3299.45166015625
343,-14380.691,-14482.799,-22930.947,-112.303314,-523.55884,-36.576767,8550.34765625
344,-12784.698,-12871.617,-21424.176,308.4068,747.0919,402.12677,8737.396484375
345,-11030.427,-9920.576,-19168.16,301.38977,-207.25172,-1448.4279,9120.3798828125
346,-12809.52,-12425.043,-21847.61,-217.84392,182.29704,855.818,9367.4521484375
347,-14671.891,-14876.662,-24636.596,-108.23509,147.37321,122.27018,9871.2685546875
348,-13010.454,-13421.102,-22484.812,-40.374596,713.4614,-987.9789,9513.2412109375
349,-8290.144,-9137.676,-20848.947,-1649.8378,-441.74915,19.85445,12512.009765625
350,-11896.202,-10298.493,-21046.764,909.1463,-745.17236,921.72424,10373.0224609375
351,-13765.537,-14017.178,-22990.863,-77.833,76.594894,262.58905,9115.43359375
352,-16434.15,-16005.33,-25436.396,111.385124,345.54742,547.74066,9294.0927734375
353,543.6845,1930.8263,2420.4233,-302.1884,298.0483,2416.6704,4572.12744140625
354,-3961.1606,-3779.908,-14295.106,1570.9321,26.048162,-302.85104,10787.8173828125
355,-7094.9355,-7306.6035,-17345.15,798.50287,121.391525,623.8338,10298.8642578125
356,-13166.925,-12676.184,-24043.377,-208.4736,-75.22466,454.09448,11164.296875
357,-13073.697,-13359.729,-21922.178,-603.00366,84.02127,473.48874,8810.849609375
358,-16270.866,-16309.533,-24114.629,-19.955048,5.164972,-22.253633,7824.67724609375
359,-5238.533,-5205.6147,-8242.692,84.534164,240.57416,-332.77304,3106.80346679688
360,-16139.351,-16085.465,-24221.885,14.176918,-130.59984,-84.03658,8114.1083984375
361,-191.18622,-139.63835,-593.6087,-84.022,-145.6753,245.91971,672.024963378906
362,32086.004,35389.996,28818.877,3673.395,3381.1707,21507.152,38663.11328125
363,-14547.591,-14544.132,-22339.896,-34.890892,86.22361,-46.346203,7796.1142578125
364,-15535.259,-15473.576,-23420.861,59.43012,41.09606,-12.277165,7917.6416015625
365,-16069.192,-16752.943,-24417.781,-132.55515,-31.35148,-177.56293,8037.931640625
366,-14655.272,-14703.79,-22383.11,105.89142,167.70207,177.90918,7717.50244140625
367,-13838.675,-13959.694,-21575.459,159.8337,51.957302,-109.008095,7684.8271484375
368,-14640.166,-14644.535,-22168.924,-68.95881,-38.308086,-21.050879,7527.90234375
369,-15274.512,-15270.795,-22975.043,-66.18056,116.41547,-304.06372,7723.857421875
370,-15878.516,-15810.231,-23549.578,-60.481487,-131.06029,-89.07837,7711.02978515625
371,964.4367,1072.0554,2640.2007,35.012653,336.596,-69.53756,1731.32836914063
372,-207.09421,-521.5171,-743.7859,-59.642708,-123.98007,220.58784,648.778442382813
373,-747.1121,-914.1858,-1503.1328,61.216423,-278.54034,-15.948735,847.30712890625
374,-15480.39,-15608.992,-23228.78,49.845,-184.85564,-375.09802,7719.43505859375
375,-14622.865,-14597.904,-22106.604,-7.2703505,123.973755,-83.657555,7500.73486328125
376,-15445.157,-15385.432,-22906.387,-43.773586,134.87895,-92.64552,7497.013671875
377,-4623.0264,-4642.475,-7862.6797,61.508595,-422.1698,223.71918,3336.00170898438
378,-17768.652,-17748.424,-26133.482,-36.312366,-127.88095,-8.781526,8378.1416015625
379,-15472.523,-15546.531,-22764.35,-76.885216,257.39178,14.33224,7270.05224609375
380,-15198.43,-15140.781,-22843.514,-12.510856,104.91082,-25.525194,7676.37939453125
381,-15058.612,-14927.025,-22785.504,-28.195929,-1.8920475,-15.330191,7793.71728515625
382,-15545.929,-15471.385,-23370.078,73.30436,212.44276,20.691475,7871.3984375
383,-15732.098,-15770.113,-23789.982,20.129751,-117.50506,-20.173012,8041.671875
384,343.29324,148.62175,368.28787,10.761286,-65.20906,82.29638,277.1455078125
385,-14956.227,-14877.191,-22773.572,56.140694,-28.596375,18.679337,7857.98583984375
386,-15480.424,-15351.867,-23218.934,3.055935,84.83123,-69.65019,7805.8994140625
387,-15449.74,-15340.073,-23016.59,-67.01671,-188.86896,-59.2848,7630.86572265625
388,-16341.886,-16367.344,-24118.574,29.153847,-774.6088,-325.7591,7899.39990234375
389,-15082.308,-14962.654,-22731.64,-128.8831,137.7144,-32.07649,7716.974609375
390,310.41626,152.45085,449.83228,87.97604,60.5129,-48.49086,328.133636474609
391,-14132.807,-14153.502,-22428.03,-168.73447,204.01395,100.709984,8299.408203125
392,-14487.194,-14466.764,-22350.625,-141.1965,-32.748196,-25.760761,7877.79345703125
393,-14612.354,-14945.285,-22370.068,-98.891556,73.45065,-102.26323,7601.7822265625
394,-14181.843,-14214.57,-22087.082,-6.604069,57.341618,74.75264,7890.6220703125
395,-15483.093,-15381.94,-23258.172,-1.0413903,-110.69361,-54.898228,7829.0712890625
396,-14868.443,-14807.734,-22667.186,-26.195063,31.563961,84.82173,7830.97412109375
397,-15112.009,-14596.193,-22386.234,25.653599,213.4843,35.42925,7554.802734375
398,-16439.242,-16375.348,-24128.26,8.447722,4.71824,21.00019,7721.26708984375
399,-14569.633,-14461.888,-22089.338,-58.49308,250.87936,89.6836,7588.8740234375
400,-14682.518,-14916.584,-22211.729,-198.51343,-441.65353,-1332.6461,7811.06298828125
401,-14588.045,-14548.89,-22303.057,-17.096746,-60.859844,-136.58284,7739.05517578125
402,-14950.02,-15077.014,-22431.906,43.816895,-58.801098,-228.97768,7430.88330078125
403,-15797.577,-15662.945,-23286.143,-4.1664176,-85.07389,-38.656948,7558.51708984375
404,-15441.445,-15389.65,-23341.086,63.91613,-78.851585,-21.783154,7927.70458984375
405,-15349.52,-15120.104,-22750.0,-78.554756,134.00409,24.425608,7522.74560546875
406,-15687.594,-16047.5625,-23529.67,-86.52074,209.46733,-290.8372,7694.9775390625
407,-15912.676,-15891.986,-23720.252,-26.625628,-47.425385,-161.894,7823.5361328125
408,-14320.434,-13895.841,-22071.406,56.215385,719.552,817.76794,8192.5478515625
409,-14949.046,-15075.868,-22789.793,-46.066063,-17.850454,-37.363804,7778.8515625
410,-15019.018,-14935.137,-22927.422,41.00261,-6.4131274,77.05103,7952.12158203125
411,-14719.748,-14619.875,-22552.469,161.27722,-95.01304,-21.257177,7889.8818359375
412,-15674.108,-15674.198,-23595.9,40.50136,251.63007,101.744194,7935.99462890625
413,-115898.52,-113799.14,-152844.14,-84.5833,-310.39,2367.7097,38263.26953125
414,-14523.787,-14207.68,-21943.469,-7.881198,-23.997484,-58.78329,7583.48828125
415,-13724.877,-13644.642,-21189.121,-30.715424,63.729366,-205.72997,7514.1376953125
416,-15569.051,-15403.555,-23296.984,-5.1963115,11.848117,-160.42624,7816.96875
417,-15642.949,-15579.684,-23282.145,-107.48395,93.16019,4.5575213,7674.98291015625
418,-125529.98,-125498.25,-161975.98,790.15375,110.26759,6070.159,37972.60546875
419,-15345.728,-15375.941,-23274.543,169.76923,491.47247,199.50932,7972.32568359375
420,-15540.094,-15717.606,-23408.596,30.646223,-6.736406,64.76263,7782.2626953125
421,-81955.64,-76376.21,-90259.555,-2528.8228,4527.2275,20837.107,39110.65625
422,-15338.339,-15364.465,-23269.018,-10.516968,17.845675,10.064722,7917.74853515625
423,-13673.134,-13764.053,-21411.738,-58.829952,-156.91025,12.195663,7699.0498046875
424,-14893.636,-14832.968,-22584.506,-31.469332,-51.810444,-179.33357,7728.341796875
425,-15368.64,-15038.856,-23007.438,-65.03376,-146.31923,224.30037,7823.48974609375
426,-14918.322,-14823.699,-22927.465,73.38281,54.461945,-334.9937,8079.287109375
427,-15877.51,-15863.368,-23702.441,2.0876753,62.707943,101.210335,7834.7275390625
428,-15251.055,-15109.444,-22963.604,-25.313766,66.87077,82.596855,7786.61962890625
429,-14706.79,-14791.714,-22679.262,-1.9621222,35.139717,-82.64763,7931.876953125
430,-14633.758,-14709.838,-22182.562,94.57682,36.975758,-41.84804,7513.46240234375
431,-15355.171,-15549.742,-23283.938,-31.865002,19.148968,91.00661,7835.14404296875
432,-15477.434,-15583.484,-23135.719,-47.923145,-78.31958,-36.833965,7607.74462890625
433,-16234.538,-16327.165,-24654.303,-11.502072,-18.396881,-41.993027,8374.2353515625
434,-17961.412,-17900.043,-26400.11,-62.276802,246.59836,220.11223,8489.5625
435,-17414.904,-17323.479,-26030.201,-10.803592,34.610817,86.69336,8662.900390625
436,-15308.438,-15254.136,-24197.97,-190.27034,-124.1379,146.77794,8929.10546875
437,-17931.342,-17650.662,-26855.918,101.019035,-252.00145,29.059402,9080.498046875
438,-16365.7295,-16269.507,-24488.59,-71.59306,76.431404,115.233765,8175.84619140625
439,-17990.453,-17892.064,-26406.012,-9.788062,4.8269677,30.059235,8465.36328125
440,-608.87634,-276.26126,-1025.2325,14.278181,-8.109149,-20.131746,651.533813476563
441,-17191.072,-17114.354,-25596.582,-17.968777,-19.973944,41.21911,8444.560546875
442,-17465.133,-17509.682,-26033.23,-13.157534,-84.425255,-16.527304,8547.240234375
443,-16531.916,-16559.426,-25127.777,-23.322952,99.70864,-112.5132,8586.18359375
444,-17208.703,-17118.082,-25545.754,-25.88566,-66.03408,40.188732,8383.91796875
445,-17287.658,-17391.584,-25965.482,16.205166,100.61039,-125.259346,8630.86328125
446,-19834.436,-19989.145,-29890.559,-5.6870813,-108.40722,-392.18985,10004.52734375
447,-17567.072,-17559.604,-26211.514,48.50761,-129.78275,-44.245205,8651.8466796875
448,-19340.654,-19416.744,-28732.426,-97.184265,30.55158,8.358395,9355.6337890625
449,-18106.973,-18082.26,-27766.06,-117.291794,78.266914,37.398438,9674.7685546875
450,-17084.154,-16918.89,-25569.45,34.654587,31.86438,-56.49436,8570.068359375
451,-20039.82,-20083.633,-29844.404,30.978905,15.045927,-16.68776,9782.9755859375
452,-17277.15,-17165.395,-25643.264,11.148109,53.748955,-7.5479,8423.09375
453,-17513.014,-17580.238,-26194.27,27.578484,4.5838957,86.14971,8649.2626953125
454,-16610.174,-16505.664,-25321.959,-19.543184,-125.055435,-287.92697,8781.4208984375
455,-18671.238,-18847.838,-28120.545,39.188923,-38.193764,-184.6348,9368.1953125
456,-22987.408,-23106.219,-33333.453,48.085953,-5.1505494,17.056765,10287.537109375
457,-17456.756,-17457.084,-26361.734,20.912361,46.08148,-75.25116,8906.2001953125
458,-16311.955,-16236.931,-24609.346,-2.2543173,74.51459,-144.7324,8339.9248046875
459,-17352.62,-17270.256,-25616.268,52.538498,26.207241,2.670325,8305.7607421875
460,-17666.715,-17615.672,-26339.346,32.148224,21.840927,-34.466766,8698.7294921875
461,-16844.945,-16875.566,-25402.361,21.819155,3.7669914,7.1687,8542.2421875
462,-17969.172,-17747.432,-26526.498,-77.31531,111.727165,-34.524235,8673.72265625
463,-17234.56,-17285.273,-25897.256,2.5449328,58.32051,44.834976,8638.3916015625
464,-17703.066,-17546.512,-26181.611,60.43166,28.660568,-136.64507,8561.9521484375
465,-17749.223,-17698.367,-26358.78,13.052944,9.628323,141.59598,8638.6240234375
466,-19685.414,-19880.736,-29078.938,1.7681587,-34.401703,37.58242,9297.8203125
467,-21087.873,-21307.217,-30762.04,32.062458,12.671651,-96.78819,9568.03515625
468,-17899.55,-17900.527,-26555.672,27.42908,100.16576,-46.773884,8657.880859375
469,-16409.922,-16324.082,-24714.783,-11.681344,-16.137707,-159.12854,8352.732421875
470,-16955.904,-16877.98,-25504.906,-4.6616535,-16.959793,-100.030014,8590.0302734375
471,-18031.559,-17908.09,-26462.914,-21.232601,51.583374,98.3376,8496.0205078125
472,-20311.592,-20281.879,-30182.338,-24.594418,131.17511,-90.0293,9889.568359375
473,-5875.525,-5631.5874,-9338.9795,-119.83833,20.369616,-44.063522,3598.61669921875
474,-18616.322,-18619.809,-27755.264,87.1944,-10.234359,-121.80688,9140.8994140625
475,-15919.454,-16001.799,-24506.834,-27.165993,-147.9047,-71.5478,8551.37109375
476,-17397.373,-17362.904,-26102.354,14.50741,-46.657104,-61.119385,8723.318359375
477,-16893.988,-16695.092,-25077.248,-2.5761552,-9.56748,117.03772,8286.99609375
478,-1074.5524,-783.78754,-1318.2773,-97.35341,510.61203,-298.2353,1136.77282714844
479,765.01385,706.45465,2345.3765,-112.23691,-369.4982,-88.65032,1750.56408691406
480,-20319.824,-20420.223,-30022.545,19.257275,85.37319,-66.11634,9654.7822265625
481,-21281.023,-21317.432,-31636.357,-3.9734602,-81.99019,-15.364223,10338.189453125
482,-17896.816,-17821.543,-26546.87,14.685712,-123.16778,-9.327322,8690.6044921875
483,-17860.36,-17796.318,-26484.426,-10.904861,7.7830057,-31.949877,8656.47265625
484,-16333.996,-16463.691,-24885.906,-55.92757,85.84146,45.75338,8490.0302734375
485,-18667.34,-18558.11,-27444.148,51.231102,-97.034256,-3.9577641,8833.9775390625
486,-17768.572,-17778.41,-26474.28,26.237047,211.86018,-108.71867,8710.6806640625
487,-17424.578,-17469.457,-25756.615,46.351574,-57.566902,-56.64563,8311.25390625
488,-17130.166,-17313.037,-25784.701,12.794842,50.174465,5.3215976,8565.0390625
489,-29264.26,-29304.572,-43111.676,-13.881839,177.2814,-58.873756,13831.1103515625
490,-31871.451,-32091.434,-46656.145,1.2975718,75.75545,-137.41687,14678.455078125
491,-20499.82,-20614.135,-30279.678,-25.30538,65.06358,19.576532,9724.0146484375
492,-18841.283,-18896.584,-28232.736,-0.9695833,-21.74811,-48.945885,9364.384765625
493,-19168.463,-19167.027,-28475.027,-45.884422,-91.74572,-61.984146,9309.5966796875
494,-17805.441,-17752.564,-26391.914,-13.019557,63.498028,58.784714,8614.3662109375
495,-18221.035,-18329.445,-27333.285,-11.423838,-0.6107093,44.490276,9058.880859375
496,-17842.357,-17720.654,-26478.695,-2.36649,25.029795,-60.758427,8698.5732421875
497,-3631.3162,-3967.8972,-6854.0596,107.726265,20.552431,-65.2139,3076.2783203125
498,-17452.025,-17325.854,-25966.814,-11.824368,23.831657,-34.707684,8578.9052734375
499,-1634.2355,-2139.8755,-3095.2812,169.67403,1.9841434,-6.396824,1318.35717773438
500,-17837.986,-17877.605,-26986.488,-117.4659,36.237957,4.7290406,9131.2431640625
501,-21541.0,-21423.922,-32011.596,-11.363309,-51.95785,-47.6691,10530.349609375
502,-20533.59,-20533.033,-30688.2,59.069782,-45.845943,-2.048561,10155.7138671875
503,-23673.938,-23702.975,-34820.305,-3.865825,-14.491243,49.534946,11132.23828125
504,-17187.514,-17062.635,-25596.053,-0.24632646,152.93259,-49.087074,8476.2353515625
505,-17261.383,-17204.404,-25838.746,4.840647,6.687209,-0.35420448,8606.005859375
506,-18454.428,-18248.676,-27442.46,37.38311,-92.977196,29.933344,9094.4599609375
507,935.9762,732.23346,1823.8441,-25.65954,-164.30217,13.400315,1046.04809570313
508,63.5863,-553.8295,-492.24588,47.26026,258.06927,33.1035,746.163208007813
509,-17402.865,-17350.898,-25488.773,17.905344,56.413532,-52.360836,8113.1708984375
510,-17137.146,-17213.871,-26253.885,43.12623,74.31887,-50.227596,9080.255859375
511,-3122.2288,-2838.2947,-5450.8057,-34.03614,-253.95258,135.64969,2533.02294921875
512,-17280.684,-17239.158,-25885.049,-33.97252,91.7895,8.743164,8626.8818359375
513,-2990.0066,-2776.449,-5336.2817,73.56366,585.6783,-52.44938,2665.5625
514,-18500.402,-18527.57,-27197.629,-2.847264,45.445072,-133.59656,8687.115234375
515,-26687.49,-26517.11,-39121.383,17.688354,-59.284218,-95.63844,12521.5068359375
516,-16852.88,-16936.111,-25246.318,17.364918,-70.377785,-31.157024,8353.251953125
517,-20812.408,-21112.6,-30675.21,3.0318549,-94.49382,-152.28554,9721.14453125
518,-18264.447,-18362.125,-27388.473,13.40586,49.083744,-219.33374,9083.9560546875
519,-18880.324,-18999.596,-27848.25,17.914242,-16.525854,-2.6439755,8908.990234375
520,-20394.26,-20376.031,-30299.682,7.7605944,-120.108734,90.59946,9917.9814453125
521,1384.7535,1377.7085,1074.4645,-58.273846,-258.9811,-271.047,725.219604492188
522,949.8174,1413.2288,356.48672,-25.229248,443.77707,-153.09265,1226.69616699219
523,-19584.209,-19581.44,-29153.172,-13.676856,201.90674,-136.35431,9579.6767578125
524,-18735.715,-18967.123,-28028.422,3.8184617,-314.88367,155.16914,9199.30859375
525,-22308.83,-22486.81,-33412.727,-71.63653,332.8322,-279.6583,11042.384765625
526,-16651.03,-16769.941,-25551.328,38.625828,63.29219,79.212326,8843.439453125
527,-17736.566,-17644.646,-26213.434,-18.888592,-7.440585,77.79166,8524.3359375
528,-21679.033,-21834.33,-31882.55,15.994582,-103.035095,18.752287,10128.4248046875
529,-19146.494,-19162.598,-28600.994,44.719704,-106.3061,-21.65964,9448.64453125
530,-17400.553,-17428.602,-26060.943,-17.472118,39.060448,114.25591,8648.982421875
531,-17705.088,-17697.984,-26515.883,-7.002406,-129.5458,-28.897457,8817.3544921875
532,-17403.08,-17400.428,-25903.379,6.4139466,89.59616,4.8880258,8503.052734375
533,-285.2629,-793.916,-1290.1628,-42.05462,134.05196,-149.4371,940.008666992188
534,-830.1634,-1384.5114,-2564.355,-63.324192,-205.61221,-205.58562,1618.34228515625
535,-23922.518,-23461.12,-35864.465,-73.57216,26.96447,23.076866,12180.0244140625
536,-21922.766,-21712.934,-33119.25,171.38278,-162.41002,-167.57669,11313.9814453125
537,-732.0399,-685.408,-370.66013,-32.953014,305.60898,-320.3276,840.94921875
538,-3838.5442,-3677.729,-6306.8413,189.3197,-635.4022,-3.919799,2798.94116210938
539,-11192.126,-11380.405,-18355.994,-128.6863,105.16832,-82.29395,7078.89990234375
540,-17306.195,-17302.195,-26033.535,20.546103,-50.32129,-61.24451,8730.4931640625
541,-18107.92,-18205.643,-27485.758,55.12097,55.289913,-25.46577,9330.4443359375
542,-15107.235,-15070.63,-23343.66,179.4927,-599.5438,-246.7059,8336.6142578125
543,-20199.31,-20167.4,-30124.77,18.229862,36.768116,-29.479992,9941.837890625
544,-15395.2705,-15585.659,-24080.604,77.55508,634.37616,-52.339703,8663.2119140625
545,-25718.096,-25941.186,-38310.71,-107.052765,246.52698,-118.12822,12492.9189453125
546,-26971.943,-27292.9,-40276.23,-75.88122,127.708145,-26.555246,13149.3447265625
547,-19439.09,-19459.67,-29625.084,-12.166742,36.69793,-17.953274,10175.9873046875
548,-543.5601,-369.2977,-395.89307,216.7292,219.45502,-206.63373,663.271240234375
549,1701.1333,1993.6,4419.0786,141.07047,-66.72898,32.789692,2598.873046875
550,-19581.531,-19630.84,-29146.385,0.7403443,72.638664,-179.28697,9546.1767578125
551,-3927.1309,-4110.4297,-7051.6704,-75.10587,-153.4011,41.522587,3052.26342773438
552,-26159.764,-26031.877,-38788.406,-53.28847,-88.72393,-33.942616,12694.470703125
553,6456.9707,6474.803,10803.92,-165.75851,30.446121,177.98296,4358.78564453125
554,-3795.0415,-3761.023,-5616.5625,-147.98164,-204.56827,51.454075,1892.1533203125
555,-4593.9473,-4637.7827,-7830.0776,-212.60812,165.37408,-163.38277,3260.419921875
556,2386.2332,2567.106,5462.355,78.96862,-199.18793,9.84028,3012.7861328125
557,2628.4983,2563.0,5199.0645,21.309278,-93.20753,-419.64978,2708.54418945313
558,-21653.299,-21495.855,-31996.557,-18.543457,-0.1436494,-169.76529,10427.0673828125
559,-23249.957,-23147.713,-34347.492,63.50224,-62.373577,55.5458,11150.4892578125
560,-17382.693,-17296.617,-25972.674,10.646563,-129.9095,-32.250793,8636.47265625
561,-5092.39,-5283.089,-8544.041,-63.869617,-352.6081,-512.7148,3530.7080078125
562,-3107.9067,-3396.619,-5702.0654,29.401005,144.00446,279.82986,2522.65087890625
563,-2104.7922,-1587.0747,-2942.9443,184.27579,-381.2171,-168.19905,1423.79113769531
564,-1091.2207,-1706.7487,-3171.1409,-44.26772,-52.7597,153.03618,1873.28137207031
565,-927.8193,-1388.4319,-2802.305,36.926296,-104.217545,-362.01434,1814.46594238281
566,1554.1995,1175.7692,2358.2666,82.64808,16.358242,-15.279372,1056.41467285156
567,-9326.519,-9491.465,-15090.924,125.296326,25.547953,-337.00302,5717.9130859375
568,-12.357242,-200.54561,71.794464,-293.58228,415.2247,153.91501,951.424499511719
569,-10077.98,-10359.595,-16593.96,-148.8244,-216.09799,299.375,6416.98779296875
570,-252.78008,-660.8155,-533.0778,-391.4072,499.64078,227.21176,1222.32788085938
571,-17040.24,-17067.908,-25395.244,-24.303371,-18.950275,-71.88176,8342.3037109375
572,-17541.12,-17411.215,-26309.174,-106.561386,108.2144,10.394913,8837.6572265625
573,-17886.354,-17949.107,-26510.639,-119.07246,-59.758087,91.92249,8597.65234375
574,-16593.854,-16578.133,-24912.875,-4.8256164,7.056871,47.913666,8327.3193359375
575,-17259.31,-17117.352,-25755.781,96.73267,97.6017,-115.10397,8573.955078125
576,-17133.775,-17208.758,-25964.744,29.953142,-42.8092,115.59647,8796.4619140625
577,-18286.965,-18126.408,-26857.025,-40.29307,67.47145,-50.30434,8652.9658203125
