Element Label,S11,S22,S33,S12,S13,S23,Mises
1,4270.052,2179.5347,1322.8646,-212.94957,-465.74277,-64.02935,2773.82763671875
2,1955.1852,3545.1606,-838.0565,-1032.1924,603.3097,-410.68393,4423.30224609375
3,2089.9614,2943.791,739.55786,26.433573,-247.52177,-244.9937,2017.81860351563
4,2303.437,2831.2058,-450.84076,-311.57297,466.2426,-160.29054,3215.37963867188
5,2605.14,3007.5034,361.24982,-187.37804,17.894518,-59.06011,2493.30200195313
6,2317.2725,2649.6553,-230.92047,747.298,-66.66569,-225.2666,3048.22436523438
7,1964.5297,2688.2793,-62.953,-151.66405,276.89157,107.414894,2536.83203125
8,2331.2354,4060.8557,134.05301,-489.4687,45.33057,-50.988876,3514.568359375
9,1920.274,3215.5989,-259.58435,-496.00534,221.06215,-176.84004,3198.71215820313
10,3464.0981,3476.2122,213.78731,-175.8717,-228.66827,-137.25778,3303.06225585938
11,1502.9956,3435.2534,-8.519229,401.33066,102.53285,107.326126,3080.296875
12,1880.5905,4329.1616,268.447,303.00302,43.7368,-230.6637,3603.15747070313
13,2012.3737,3632.5073,-532.9504,-247.95982,-13.3429365,-121.47489,3668.31420898438
14,2356.1345,4661.6484,358.90607,-348.27142,-96.172935,-12.070829,3781.66870117188
15,2520.508,3923.6108,-266.13434,-624.5987,31.572285,-199.77974,3864.8564453125
16,-1179.391,6294.147,6564.65,3789.6814,2704.0505,643.50684,11145.0244140625
17,509.3943,-661.1072,-158.14066,-331.46518,316.19763,176.08064,1325.47705078125
18,1335.8137,1177.0364,-972.2593,-47.378254,-49.43441,151.10619,2251.33422851563
19,-1310.6472,971.814,1015.26074,-22.557194,791.7966,-322.01163,2739.36279296875
20,-8996.227,4943.442,1372.3059,2029.7709,-704.25104,1389.4796,13301.37890625
21,1507.8029,2793.8254,510.76944,-479.2517,334.14105,417.1844,2340.1416015625
22,-2928.9236,5142.5264,4073.3164,17482.15,1835.6614,-1793.9769,31532.55859375
23,-27011.578,-19578.81,-4979.4688,259.67255,-1779.9492,447.75323,19677.62109375
24,-902.7339,-12238.155,-645.4745,-88.99514,240.82106,2002.9274,11987.78515625
25,1105.1776,-9635.055,-4597.0967,2418.6382,932.86523,-2142.8813,10980.015625
26,2739.9944,-2082.7947,3642.9673,218.43114,829.93195,-791.94147,5702.67578125
27,3179.5562,-1064.1039,905.0609,1565.7587,246.89307,-318.517,4622.96728515625
28,2773.084,364.4789,982.78046,438.10458,166.94939,-22.982834,2314.18212890625
29,2283.75,-204.05484,-1650.0271,10.322368,-79.72934,168.51917,3461.48706054688
30,3632.1375,3643.8364,3282.1719,-238.36752,35.895527,-599.5664,1174.50817871094
31,3863.2268,-3436.1533,977.5654,-722.47534,348.9348,-284.6699,6535.95751953125
32,3465.7405,-628.86096,-2600.2786,106.43938,-8.004228,-449.7107,5418.9775390625
33,3109.0657,-290.01233,2425.5454,-936.4973,292.5683,-62.403484,3549.24584960938
34,296.86386,1524.2455,1122.3877,1588.7823,-153.20926,-1380.9127,3812.94995117188
35,1245.7932,842.28424,-956.086,-595.4274,278.54144,572.27527,2530.1123046875
36,1699.8989,740.8289,-513.16284,-2429.5652,415.83234,-1124.1141,5070.79736328125
37,-324.1232,-3864.8843,-92.23108,-53.54667,-145.45433,-1319.2816,4324.97607421875
38,679.7305,2559.4385,-2542.7896,-1684.2554,27.921345,1993.8142,6357.177734375
39,6797.399,2732.3123,-211.51556,-3304.3816,538.2406,-314.21542,8430.900390625
40,-1490.412,-13.133616,1586.1989,-1569.2666,850.4132,93.976425,4084.9443359375
41,9477.335,-3139.5632,1838.729,-7660.444,-290.9468,-548.893,17273.21484375
42,17623.098,-4256.018,-10134.868,-5265.084,-2504.8735,-628.87,27295.66796875
43,-5065.275,2982.687,1565.3718,-3371.9658,394.88086,734.3041,9569.1083984375
44,-898.6588,3761.2634,489.26962,138.26125,562.2728,-57.319912,4264.884765625
45,-3895.9875,1137.001,1546.2754,1193.2031,-745.64575,-1138.493,6114.41015625
46,-6247.107,1240.5331,2804.9707,461.94208,601.93195,-570.8353,8539.95703125
47,2405.1685,3338.5168,387.2963,-1064.557,-103.29704,-4.7641087,3202.85009765625
48,-11110.776,1974.3329,861.3515,845.251,867.0395,-2502.6306,13456.724609375
49,-12560.904,831.498,493.85815,1797.144,1691.908,1352.5056,14096.5703125
50,-9092.5205,5495.8696,8941.738,2937.17,1177.713,1750.2369,17725.595703125
51,107.67574,3495.4585,-604.37006,939.14215,712.32355,-192.14493,4321.48974609375
52,-7889.6562,-894.1667,-8132.145,579.6965,-661.60065,-1722.0826,7868.291015625
53,-2918.4888,5018.74,640.33307,1084.3799,-621.84515,-151.8014,7223.18994140625
54,-1486.317,3768.2712,2501.754,1155.5256,704.095,-158.50018,5303.59033203125
55,-5349.5083,1949.3365,5183.621,2538.5386,-435.3159,-203.59416,10361.740234375
56,-14203.372,5417.8657,3783.8042,1930.4789,-632.4474,364.72598,19193.23046875
57,-2752.0583,-4653.353,2678.5935,199.36494,-537.4433,1005.48083,6888.46240234375
58,345.31226,-8427.281,-3780.1094,1150.7203,1151.754,1449.921,8487.9765625
59,-854.3465,-370.99677,2226.1733,290.43094,661.0101,92.25004,3134.26953125
60,710.66815,-497.89993,-515.59467,2344.7563,206.84396,513.80145,4346.98876953125
61,946.2664,-1588.0194,-23.954355,1120.5652,46.009216,286.8862,2987.53686523438
62,987.3824,-2163.6238,-626.3919,1232.5355,288.73666,-101.07853,3505.1796875
63,-643.92725,-2149.1814,725.7045,339.78488,282.1392,-193.8872,2627.02685546875
64,-1406.8015,-1518.7646,-380.64786,1575.7642,345.8561,-203.0787,3018.62377929688
65,2977.528,-3330.8074,-928.41125,-25.281235,152.8143,-430.14224,5571.22314453125
66,-1554.5724,-3674.555,-1679.2037,3546.6326,1014.2517,-294.05838,6732.53173828125
67,3657.6826,-2515.8982,1577.9825,-1273.6432,175.70479,-400.4741,5919.4013671875
68,1453.8942,2771.2092,2383.1873,-572.0086,157.53381,-195.18892,1595.32482910156
69,6180.018,-743.17993,10311.122,15.592975,-144.49258,322.2954,9693.9228515625
70,1258.5195,-3189.9885,-4317.6914,-148.75879,-327.6752,332.92398,5176.7314453125
71,1912.3035,2667.792,730.7882,-176.11621,-336.19302,411.8405,1949.44311523438
72,3635.8245,-3265.7803,-995.6682,-1960.543,-68.1338,-199.64795,6984.470703125
73,2533.5671,4254.8394,229.33441,-1838.7979,-217.6883,-188.28183,4757.1552734375
74,686.2429,-280.33783,-2171.7712,-1470.558,-907.6784,443.22104,3986.05297851563
75,1323.1437,-3946.1418,-1513.9177,-710.90894,582.41583,-71.0105,4838.7939453125
76,1962.5421,1199.9851,-1091.0491,-2156.7888,493.04852,-548.6682,4813.00244140625
77,-1771.2413,11826.8545,-6259.0503,-9649.557,-1591.5537,5713.4097,25513.61328125
78,95.766365,1465.7844,-6897.2417,601.11975,2262.5137,1216.6737,9013.40625
79,-497.55038,3917.7922,17594.492,6178.643,-10023.396,2891.1443,26607.201171875
80,706.41547,-17788.174,-30546.006,-2872.256,-7405.451,-4735.7134,31580.3046875
81,-2548.6162,3502.2932,-1756.5127,-2542.6626,2225.7708,1240.3862,8445.189453125
82,-661.8963,3872.9575,-3695.7825,106.18354,-63.060093,1729.255,7248.74560546875
83,3297.6978,5842.3394,2782.4097,-908.92096,415.4139,237.7804,3349.28100585938
84,-2365.362,3191.8733,-1266.2759,1370.1716,535.07825,191.837,5708.27587890625
85,-1969.7659,533.2551,-2906.8206,2062.7698,-734.1461,-485.5868,4957.62109375
86,-3444.6245,3530.9272,-1299.1774,432.09055,96.75176,420.17746,6278.01123046875
87,-830.44714,2022.6887,1873.3601,2218.234,-82.37757,-99.52238,4748.513671875
88,1169.428,3138.2256,-2038.5637,285.18985,-756.67285,134.68822,4743.34765625
89,704.4498,521.632,2079.15,557.601,-1089.0479,-569.65735,2763.8564453125
90,-1844.8397,-2965.4624,-215.48425,3283.937,-350.3312,36.62406,6201.72802734375
91,-248.52156,347.25262,-2536.6812,33.39098,-1476.0101,-61.999165,3674.8525390625
92,2530.1235,-1626.8555,-523.523,-4169.855,-735.71704,-687.94244,8313.72265625
93,1251.3787,2809.8567,-1636.2657,2426.2283,1053.3947,-266.15247,6038.9453125
94,2888.1448,-2265.6455,1464.1443,1258.1852,-125.431076,287.62097,5127.84521484375
95,1556.9592,3080.5283,791.74774,1706.9496,44.538086,-286.1619,3614.59716796875
96,2020.2886,-609.42926,1778.0667,1652.4714,-218.11589,-199.77466,3845.978515625
97,824.5189,251.43935,1953.2811,-2111.095,-48.821136,421.99536,4020.06860351563
98,-14358.554,-3010.0315,-7817.2603,-2491.8813,-467.505,-1288.574,11027.6396484375
99,-988.49316,-1707.7584,-421.98676,2642.1873,84.31553,166.9747,4721.67041015625
100,-2387.5886,480.5091,549.3994,538.1336,383.56696,-781.4457,3401.5322265625
101,514.15466,-4261.8315,-3523.661,1655.3743,-328.30484,170.83421,5334.89892578125
102,2523.388,-1987.7205,-2143.6372,-1541.0895,675.0976,438.18457,5490.5302734375
103,3506.3044,2934.4443,-293.93585,136.7649,-161.922,-387.39392,3630.5146484375
104,3342.8918,3806.9905,4088.1135,-2023.5543,1179.7778,-157.09656,4118.11474609375
105,-62.97887,-2727.7263,2695.7947,611.2106,-366.36337,-128.6448,4861.70703125
106,-4396.8564,1826.1221,-1888.0898,-6925.236,2131.3606,-555.4477,13705.390625
107,-6921.4233,1784.3583,971.93884,-2560.2974,1293.7157,-526.14014,9741.3984375
108,1622.8866,-2330.8074,-1780.9554,260.0091,589.46216,-1205.7692,4400.7880859375
109,1589.7561,2780.1494,362.0415,1032.935,133.17451,-97.494545,2769.18212890625
110,1040.0151,-3547.1392,-82.59852,2869.8008,-1009.29504,-67.869896,6702.966796875
111,2110.1282,-518.9733,-1351.9279,576.9423,-445.9567,-88.855286,3378.58178710938
112,1097.2653,-222.03523,-502.0629,468.58054,200.5569,-126.09494,1736.51440429688
113,2392.1765,2182.4211,969.37164,-428.51642,247.03731,5.209259,1582.39465332031
114,862.8024,-2937.6316,-6692.943,2981.8586,75.70297,279.3525,8351.2412109375
115,1932.0194,2846.0002,-817.6571,-197.76811,-66.0726,-15.9756,3322.71459960938
116,-2178.9392,-4803.907,-3806.248,580.71454,-637.07227,404.88055,2826.30737304688
117,3154.2612,-1597.6373,772.54816,876.4577,385.1959,186.59117,4448.544921875
118,2618.0574,2850.6057,435.90854,-2514.961,-843.9824,741.62994,5299.56201171875
119,3460.5605,4216.37,-54.29185,-3143.928,-810.94336,-384.5575,6902.998046875
120,-1131.7827,-6202.6333,-952.3092,1314.2473,580.0257,205.43193,5742.25146484375
121,3961.8042,1175.7256,1870.2705,2706.0122,786.8648,-521.5153,5563.3154296875
122,1139.7812,-964.42236,-1430.7542,-2473.0444,1123.2953,1815.1086,6135.427734375
123,2425.1304,-1381.6946,-340.0204,321.41428,8.366114,-246.71333,3479.11840820313
124,2115.5923,3477.4456,846.1011,265.1103,-42.268024,-138.41545,2338.54638671875
125,-2493.4038,2730.9692,-1929.8987,-4514.41,764.70215,-45.75927,9357.7744140625
126,-4313.6865,3151.0796,-1020.40216,-1894.3746,-830.935,-406.87476,7437.66259765625
127,-5536.161,4864.325,1082.5956,2294.6777,-366.99033,556.022,10013.3876953125
128,-383.2746,-1409.5911,2468.9492,-792.32526,-128.0806,1169.8092,4260.71630859375
129,-7306.3105,-4607.41,2327.4888,-1230.3472,516.9036,-2629.6575,10009.076171875
130,708.0648,3519.5776,-696.1113,2019.5743,399.93585,-1143.509,5519.32080078125
131,2550.7788,4477.8145,-2387.1516,441.32498,-415.96213,1287.9707,6610.005859375
132,-7945.765,6795.724,7689.3506,292.95825,-1195.8989,-1022.5044,15458.58984375
133,2968.0752,8304.252,8953.889,-1573.2333,620.35345,-2223.1643,7467.962890625
134,-5725.504,-1478.6636,-2593.152,3412.6348,664.1302,1973.0892,7904.76806640625
135,-3058.4377,3382.7542,-975.74994,-1334.0559,89.001625,-305.05704,6168.7607421875
136,-5478.527,384.5937,6218.9355,-570.34644,650.1277,-248.002,10249.4677734375
137,-9580.004,756.43317,2787.2632,-2744.7217,-1640.151,-891.44135,12845.720703125
138,-11407.8,2181.8506,-5304.048,-782.39496,-846.43506,43.21215,11957.3369140625
139,2121.5486,-754.8701,283.43784,-751.56067,-251.23802,104.661385,2877.84887695313
140,-1194.2926,-2390.1218,-11455.285,-475.7383,-158.80795,391.31705,9780.67578125
141,1574.7041,-1248.3734,-827.7249,-330.37415,-4.4932632,40.611336,2700.30322265625
142,1079.602,2255.6677,-798.1851,682.8789,-6.046643,-47.304626,2919.48803710938
143,2425.1238,-3467.4092,2177.401,-1412.2794,1271.1869,-600.6308,6725.86181640625
144,906.9296,-4417.8164,1013.36206,-273.1423,146.04037,-187.39624,5415.17578125
145,1455.8167,-1572.0171,1147.4779,1845.5569,547.8839,167.87106,4419.56591796875
146,765.4938,-1029.6179,578.2157,1124.9539,327.3288,573.98425,2833.31665039063
147,-863.9114,1799.5245,831.21277,808.3482,59.280766,-18.086432,2724.75439453125
148,-2259.6982,527.027,-1716.5289,1104.9927,47.42292,402.78552,3271.64916992188
149,488.98145,108.02042,97.82909,1946.1709,157.16437,-192.85294,3420.16674804688
150,-5244.072,3631.267,-415.5162,-1265.8171,128.8823,512.16895,8054.51318359375
151,-7887.464,4094.4119,-2536.5894,-363.0845,37.432343,101.460754,10417.017578125
152,-10792.493,-7212.676,1662.3853,6159.1777,388.10245,-1640.2732,15674.267578125
153,-4578.2383,-495.07993,-7426.087,1478.6919,902.46375,917.1564,6923.6611328125
154,4421.3623,-3863.046,-5926.0044,2373.3582,-816.0483,1994.43,10991.23046875
155,-63.189682,-1136.4642,-18.476643,-1013.4016,516.17444,972.10205,2813.73608398438
156,-3151.354,-1953.7123,-5011.876,2101.551,-743.757,881.01917,4935.76611328125
157,2630.0999,-1253.5397,5907.41,-2098.625,-32.091045,-1465.5369,7629.5791015625
158,5903.1777,2249.2712,-2768.833,-145.87422,-488.53802,-1983.3267,8333.587890625
159,2735.9182,3976.111,3222.086,-3135.903,-1109.1774,-257.88358,5879.07275390625
160,-1637.5815,2224.4255,-3526.926,1988.9408,-112.02967,6.922467,6138.96044921875
161,-5793.6685,946.88525,6507.447,4875.775,973.8931,-144.78601,13713.642578125
162,-461.07837,7042.073,7085.8486,1467.4335,735.86884,-376.54037,8070.78662109375
163,-9101.639,-19658.754,-29175.643,6142.0264,-3405.71,-1560.0917,21395.4765625
164,1778.8723,1941.1606,19261.293,6540.2124,5038.803,474.86514,22538.6875
165,-4978.08,4465.8325,-1349.6437,1320.8145,-496.39337,-440.619,8639.54296875
166,1249.6226,4183.3467,1099.2844,2526.3577,-145.41559,159.84671,5325.21630859375
167,1860.4847,1958.3274,-1079.9744,-299.28873,584.58527,-225.61447,3223.38647460938
168,2878.097,11431.557,8013.167,-6686.213,2138.713,2189.0415,14758.8046875
169,-3310.066,-7939.4297,-1740.4799,-1108.7048,-2375.018,428.58395,7233.37158203125
170,-1386.2501,-2648.438,10970.742,-3102.6492,-3984.3357,-3312.1438,16712.27734375
171,-6768.0815,584.22217,-5048.112,-460.29837,-406.75748,-947.2759,6942.11083984375
172,2959.6123,4470.6865,-206.85,-390.1743,-61.447693,267.00494,4216.21875
173,1540.3159,604.00116,753.39124,542.47784,77.27487,-105.202446,1301.18798828125
174,2599.2153,-6589.9033,-3193.7341,1212.8815,837.14874,-531.2765,8492.8515625
175,689.91455,148.85896,-672.5407,1641.9155,1.4418933,-193.33081,3100.26733398438
176,3319.7017,3557.6653,903.63525,-1261.7391,22.9229,-304.14767,3394.7001953125
177,-260.3586,821.9571,7930.37,601.02814,-799.2532,313.84564,7917.708984375
178,2134.6636,3901.7598,2184.8499,359.1942,305.19977,112.35635,1934.12451171875
179,-3820.918,5167.851,-12270.808,-1050.5776,-3611.3518,-689.0613,16492.841796875
180,-2102.1475,2809.1143,-985.90485,-1219.6377,-502.44095,-459.28088,5073.16845703125
181,785.86096,-7003.894,-5093.208,-4299.864,-112.25206,351.55798,10262.6650390625
182,348.46442,-2012.7021,-1757.9138,42.61014,448.96664,-58.622993,2378.84375
183,3677.7478,-3982.6616,-205.96475,1077.3044,271.451,-133.51837,6911.625
184,3342.8064,3002.8591,2893.9111,269.30414,-1011.0424,272.62152,1916.150390625
185,-393.94733,-197.80371,-328.87766,183.93437,-1087.6016,233.75256,1960.60986328125
186,-7527.7085,-5865.096,-2287.1482,-587.4189,-397.92245,1143.2195,5190.93359375
187,1408.0889,-2851.7063,1588.3369,2754.9746,-188.88539,288.3973,6486.32177734375
188,-114.488976,887.41406,-293.84653,-2055.4165,-1693.9132,-1248.1527,5212.6357421875
189,-3960.5515,991.17413,-9.614759,6667.042,1722.0079,2442.5757,13442.7802734375
190,37.39665,-4187.652,-6495.07,2277.0903,-438.78006,856.2143,7159.36328125
191,-1577.0398,-1864.3485,-1925.0449,2955.0374,399.35733,-331.93442,5206.6689453125
192,2649.1934,-4940.8667,3556.8232,-3130.5073,-673.48004,1600.5111,10186.6396484375
193,2046.973,-2774.8315,-2169.3872,58.934093,1197.4586,263.1025,5021.63720703125
194,2204.695,-529.1997,484.5751,-165.41147,-183.21353,-299.84302,2486.53735351563
195,2519.297,-1807.8917,-4292.2036,2093.935,-128.2958,-50.46709,6989.7900390625
196,5973.569,6930.361,6957.6885,-153.86992,-717.7898,-1456.0414,2986.50439453125
197,2896.0044,-2765.6245,2873.2783,-263.19205,258.96127,-696.5338,5812.94775390625
198,4743.8726,-5044.9355,-6734.116,1509.4856,587.6388,1409.7743,11359.7158203125
199,-846.83704,-4061.881,-3813.2659,-875.7164,-912.79443,780.0907,4028.00854492188
200,-760.3273,-2105.3403,-3681.8982,-78.267624,-1536.6345,-214.39468,3695.2802734375
201,7455.9917,-1802.4243,-5735.032,-1175.4661,-985.0178,360.43536,12043.216796875
202,5327.467,-1101.4431,709.08936,-1098.6622,445.47513,938.6203,6310.9990234375
203,-4641.321,1555.2816,1696.3035,933.3247,412.8393,772.52295,6648.8037109375
204,1700.5962,2986.0327,1047.0503,169.42398,-1533.0823,-625.8045,3351.35668945313
205,-6855.4033,4306.7217,-2991.9478,-1699.9965,-97.257835,289.28064,10263.7392578125
206,2918.784,4168.7754,3574.1853,-4872.9023,171.41861,-209.81526,8522.2373046875
207,-1033.5325,3664.8735,-1769.8524,-9576.212,147.22041,214.75627,17360.6328125
208,-2300.605,-1006.67957,-15527.2,-10244.333,-1733.0333,-1813.3003,22966.166015625
209,21857.43,1232.1007,4768.1646,-3787.7544,4098.855,116.0837,21411.65625
210,9764.737,5688.99,18287.445,227.85251,1672.6932,940.3871,11626.9990234375
211,9384.227,3551.4978,7603.878,-9261.201,2983.4465,-5599.5044,20121.67578125
212,-14806.927,-4944.251,2691.3313,-5828.1333,3372.3113,642.81305,19186.98046875
213,-2779.858,-4908.94,-5604.4756,-332.75803,-4020.0994,57.550205,7437.96533203125
214,-6665.626,6365.5376,1429.1602,1965.4299,7743.9844,4388.743,19471.31640625
215,12727.55,903.557,3022.241,-10711.736,-418.6591,-2220.0215,21881.03125
216,-7328.508,886.6713,-7292.1567,8008.079,1342.6073,1797.6428,16573.5390625
217,-2028.4722,-9097.004,980.40936,11568.616,2304.464,888.12616,22362.525390625
218,-8986.065,-493.52203,-25392.604,1679.3936,-1940.0686,1415.7662,22503.263671875
219,-9265.598,6957.567,5452.87,1478.5248,-1588.8822,-3417.6199,17035.73828125
220,-4270.009,2201.1782,-8712.4,-3270.3518,-1219.9363,1739.4437,11661.302734375
221,3053.3372,8029.4453,5216.587,-421.50934,1172.8538,1226.5679,5277.3017578125
222,-2198.4402,4679.0605,3085.484,1622.5939,-199.08179,-637.1595,6936.4921875
223,-4133.449,1260.5255,2400.8896,1724.6012,-1734.4227,-689.1164,7477.87060546875
224,1434.2758,2348.1938,6307.148,-263.76874,134.9358,1173.8727,4952.17138671875
225,-740.85455,2201.4585,1456.1527,-48.950993,639.3124,-937.8644,3300.28515625
226,-115.931015,2630.6094,269.56805,1473.7227,-124.730576,73.0587,3634.77172851563
227,-3302.6885,2700.6345,-3122.348,-247.03499,-197.99031,-580.5487,6025.0771484375
228,1608.9598,-2616.096,784.04443,743.9591,4.302344,20.492271,4087.54296875
229,-4801.5522,4221.9575,3205.7878,1534.6393,592.9334,647.3693,9091.9873046875
230,-6800.4956,-2228.9016,594.0068,2103.8008,-248.73305,392.21558,7463.1435546875
231,-2479.0845,-4224.6973,-2598.6194,2232.6272,121.22409,4.9495473,4225.0234375
232,1672.9915,-4722.4507,1312.9731,888.12024,-57.86122,-317.28598,6434.83837890625
233,1757.4587,-3503.376,1628.4917,257.58746,-168.61266,-84.88354,5226.90185546875
234,1822.3735,-4035.9795,-2137.6128,1182.4961,331.34918,-30.984438,5597.3154296875
235,-2182.9294,-4359.0615,-3068.1833,847.4265,889.91345,-389.73227,2928.94213867188
236,1484.5201,-3899.8633,3252.7793,1026.7827,143.03851,-590.446,6775.64892578125
237,-805.7612,-5272.5957,-784.0377,918.5802,-66.172165,-175.1102,4763.046875
238,332.0277,-5626.9526,-14.438615,1000.5194,-714.5705,-456.8338,6223.01708984375
239,-1124.4259,-6796.26,-3550.0369,331.45935,3.600897,-431.2023,5018.2734375
240,2344.9954,-1120.3701,-132.4438,1016.71106,-45.325455,-152.96043,3569.1298828125
241,-231.27217,-2828.7993,1749.2771,1610.6545,-286.7488,68.44474,4884.4248046875
242,162.48416,-5718.274,-2206.8608,-716.1373,-9.37179,180.28633,5282.03564453125
243,2065.3574,-2527.1968,-931.74097,1874.418,137.75935,136.39299,5192.580078125
244,1319.1257,-549.2927,869.1333,-283.95175,88.53162,-125.27417,1779.09704589844
245,2727.2632,667.87756,7487.8276,710.88135,-269.5525,-576.2765,6279.98388671875
246,2317.2896,-1188.928,681.9549,-464.30087,-163.52036,152.96584,3167.20385742188
247,2768.4727,-576.5318,8067.2993,-87.15191,-16.278332,-439.18256,7589.0341796875
248,2320.8389,-910.8779,-1943.1986,-1729.5802,264.65506,-87.35339,4904.4072265625
249,-135.99094,-2398.5352,4776.7236,-306.72992,-552.9522,1040.1821,6694.36767578125
250,-366.1097,-808.34875,-2222.8582,-1225.1017,-160.86728,181.194,2738.7431640625
251,969.1249,-3587.5862,3557.3005,-283.73932,-183.03714,158.34102,6298.6572265625
252,1161.3132,-2205.422,1323.9287,-2223.4126,-831.9717,-237.13982,5383.74951171875
253,495.36426,-496.0008,-1134.1409,-821.6917,-39.576153,-116.55337,2023.27502441406
254,-420.06754,-1062.1499,-5791.2163,-4514.0596,570.00024,-1509.0063,9733.9091796875
255,-7113.75,-10061.571,-643.0215,3666.0974,-1429.7747,277.2136,10785.1123046875
256,-5915.9604,2609.0217,3413.378,-204.5101,-3172.7886,-4851.023,13457.412109375
257,-8517.393,-691.93604,-2610.3862,-2134.077,2703.1387,3183.7517,10765.59375
258,-4383.6396,2074.0815,-1117.3083,-1779.8514,-1336.7358,-424.84274,6832.54736328125
259,-6752.5215,2592.548,2050.5498,-740.87,525.5647,-309.72205,9237.0009765625
260,-4648.5957,2289.098,27.16716,300.66562,555.21027,-908.6755,6420.93359375
261,-7733.3516,2326.1006,-1602.3113,1411.9005,331.70792,570.9983,9186.7255859375
262,-11872.575,818.0986,-5795.4727,1113.5193,327.62173,1108.2014,11339.6630859375
263,-5784.3813,-440.66248,-3709.1123,1111.3456,828.94836,-549.59894,5333.41650390625
264,-5765.5977,2228.116,4425.205,-440.0443,66.142235,-507.51535,9362.4951171875
265,-6028.694,-4404.637,-5822.545,9.371845,-569.7279,-285.39722,1887.76257324219
266,-6389.937,1501.193,-1364.1112,146.48357,-274.1822,244.11156,6952.5595703125
267,-6162.573,2618.7878,-2584.0571,745.4663,501.1753,-83.34249,7806.11083984375
268,-5602.184,4473.883,1153.1349,1851.5135,92.144745,-208.53345,9462.275390625
269,-13117.264,4034.2852,-2426.6846,3983.356,-522.9262,-1297.381,16690.580078125
270,-4903.9175,976.2891,3487.0598,2055.2883,242.62312,-285.9442,8290.9091796875
271,-7213.6816,-2925.9897,-521.33295,1115.5059,241.64305,-411.58365,6236.46875
272,2467.6501,-5698.7876,3037.1545,2970.499,2915.208,-2531.4583,11952.3056640625
273,-20835.88,-14948.366,1259.7113,1018.911,2887.1018,1300.7432,20639.435546875
274,3049.272,-1482.8702,8773.096,4430.959,-302.8025,-65.52208,11765.705078125
275,-1532.4038,-826.72455,-3262.689,1295.8658,1239.4779,537.08606,3901.92309570313
276,-6205.4775,2562.814,-1803.187,1053.3699,1701.416,634.48193,8419.2314453125
277,-3354.9165,2595.2727,448.23187,3465.7683,-357.69882,-165.58997,7983.73291015625
278,-1230.0983,-3288.2163,1660.24,-525.82715,463.36557,-873.808,4722.5830078125
279,-1042.3475,-4309.5215,394.2788,1439.3228,-271.12643,137.85406,4891.26953125
280,-434.52686,-4132.4536,1387.2598,313.1467,276.06177,143.66135,4931.03759765625
281,2015.8098,-2796.2156,-5441.116,-328.4991,-10.761895,113.52554,6575.8017578125
282,585.8932,3023.9036,781.0066,1114.792,-386.9464,263.0155,3145.03930664063
283,2205.9216,3008.054,4997.9004,610.0362,-1.7166536,486.0959,2832.7255859375
284,-1565.0317,-8914.442,-2814.2188,6244.34,180.06706,282.29233,12794.732421875
285,3299.5874,-1291.6315,2097.038,360.69174,179.67178,285.81973,4211.46875
286,9903.006,-2103.261,-5746.8657,-21.457766,-2586.9685,410.21783,14891.4677734375
287,4781.1167,2015.5594,4306.3994,-886.213,1946.9281,861.3916,4744.9443359375
288,-638.5153,-1334.5085,2911.2825,-1001.9003,1234.9425,-948.7426,5083.611328125
289,-2858.557,-3639.0918,1234.3367,-1009.3871,-536.4811,-2088.7988,6129.0234375
290,3739.5908,422.6609,2342.4915,-779.07526,852.1235,-996.24097,3911.07885742188
291,391.02667,2902.6157,1444.4822,-683.76434,280.68845,-664.0383,2780.97119140625
292,2525.3904,-2115.7817,145.06485,-1146.8188,196.70908,-205.11644,4510.74365234375
293,2959.5964,-2184.0845,306.54324,1006.4014,-77.48026,-13.110981,4786.0986328125
294,-53.783527,-3693.2856,315.1192,-9.547404,-63.53218,72.264305,3840.92895507813
295,1090.9945,-2377.8748,-4777.7456,686.06805,-89.80152,175.30486,5257.92041015625
296,8961.717,10960.685,20012.162,8953.605,-73.75974,-3048.7861,19298.224609375
297,-1574.9897,-18825.152,-217.63138,4399.5996,-6042.065,831.5166,22192.08203125
298,-898.00586,2909.8853,35069.926,-2326.2366,1044.5438,-292.4654,34510.78125
299,-3746.0754,2867.9827,-3743.6936,2569.683,1.5752679,536.9165,8025.25244140625
300,571.2991,-1724.5647,795.5548,1223.308,-19.942966,165.87717,3226.34912109375
301,-5282.603,4436.493,9558.133,1905.7985,-1009.08813,-146.80269,13582.5380859375
302,-6019.0547,2666.4626,6848.2993,-1249.88,148.25389,-99.81067,11577.125
303,-9408.983,3476.9172,-2398.8562,2643.8699,808.4651,399.6796,12176.4833984375
304,-13380.975,-377.47128,-4172.4287,4132.614,772.12946,426.8826,13700.94140625
305,-5114.024,-4410.01,-1726.3636,6617.855,-39.6558,89.92606,11874.5068359375
306,-4670.007,1993.8677,-1314.0326,-307.14536,1625.0416,1594.6992,7010.02734375
307,3217.148,6143.211,10111.408,3526.2363,-1344.7054,-102.56631,8870.11328125
308,-6914.6865,4457.552,-476.38205,-601.622,-1081.6613,1271.4835,10344.44140625
309,-4154.666,2319.7695,299.23245,-1007.63,99.87113,470.7802,6054.73583984375
310,-7768.363,3287.191,111.71191,125.73899,1118.0282,554.673,10095.673828125
311,-3155.0906,367.16745,3357.3293,-2417.4248,30.372898,819.4238,7171.36328125
312,-6261.7124,-4023.7646,699.2533,46.5563,-440.66174,808.4106,6358.8369140625
313,5867.6255,-1620.8518,4273.48,6684.776,-2947.7322,1156.0704,14519.5185546875
314,3461.6443,-10665.633,-3931.4045,7068.54,-603.1839,-1874.943,17644.375
315,-3190.015,-1446.1134,-305.32098,-916.1465,-319.40726,-327.0088,3078.45239257813
316,642.43567,-2533.2659,709.7624,1324.7073,-610.2066,-51.118614,4085.6904296875
317,5056.4927,-800.5409,254.09384,507.08743,-113.6543,-486.8929,5546.29833984375
318,4921.268,65.58886,3275.9194,2150.8132,-332.17157,-1723.9055,6435.84228515625
319,6511.715,8111.613,-1183.8673,-562.63873,1194.2157,974.6833,9064.8759765625
320,15576.999,9798.362,-1995.5992,554.83405,-3543.0002,-2141.5906,17116.791015625
321,3648.7625,5191.5586,-1319.2834,15145.896,-3358.3223,2243.0732,27782.189453125
322,-1506.6322,10959.353,-2294.613,-8959.278,-3056.2078,5154.7017,22680.05078125
323,-5203.732,-12816.836,2743.649,758.07855,-4122.153,-2814.4277,16065.115234375
324,5248.2905,-265.61017,-20287.783,-6213.679,6227.3657,5248.8833,29266.240234375
325,-5106.0576,-1521.5809,-10486.58,5653.5347,2135.381,809.1314,13138.3349609375
326,3624.5703,-912.6392,700.0106,2825.3599,-146.41147,-353.2965,6344.818359375
327,-264.57318,-3745.4077,-3160.7974,-1242.812,209.57635,267.20242,3924.63354492188
328,783.6132,-2321.2832,1388.8917,746.38745,159.08629,-128.24521,3699.00244140625
329,79.769424,-4692.921,480.11823,1322.6436,77.56407,-426.10623,5537.1923828125
330,2840.187,-3700.4216,1777.8274,654.3562,-396.2913,104.91899,6224.82177734375
331,100.72497,-25.913462,952.5642,628.65607,-161.25426,-240.72072,1512.28845214844
332,56.322296,-1209.7501,106.991745,-358.95374,-232.6971,-29.321398,1490.37731933594
333,-789.98553,-3475.2595,-1266.6537,132.33684,519.8161,305.59634,2702.083984375
334,1023.85846,-1925.3168,-393.19376,-1349.2672,-146.65031,-284.91797,3506.58764648438
335,-7335.7266,2894.7935,2038.4065,-2387.9585,377.34686,-2636.2026,11619.748046875
336,-9910.668,3021.6973,1060.6117,-275.5315,-697.12897,-84.89291,12142.396484375
337,-5840.5737,3496.4165,-703.1149,603.4081,-110.63053,127.02835,8172.01904296875
338,-9885.477,-8037.051,-3532.51,2437.1787,-311.20862,2588.7502,8381.45703125
339,-727.9531,338.08496,4707.849,-1763.0508,1110.4635,-945.3678,6371.4365234375
340,-7071.736,4731.9165,-7321.5093,1825.422,1095.4061,-837.1711,12571.22265625
341,-5308.9863,-3394.7812,-3515.0107,2670.1296,-2087.523,1083.9448,6437.0283203125
342,1447.3325,-1459.5825,-953.178,953.9724,-386.55362,257.25198,3257.533203125
343,-5906.05,-2581.2239,-1117.784,2276.912,-608.99506,38.691868,5893.37841796875
344,13873.815,5555.328,-3191.0227,-3732.9434,599.27094,-843.1485,16231.6650390625
345,91.361305,-2003.0856,-1062.9218,1394.7494,-127.03011,38.066364,3031.53881835938
346,-4276.934,2638.6453,-925.55475,345.12424,-64.82004,321.79208,6046.55615234375
347,128.50797,1480.3951,-1263.3215,1493.5791,-779.8757,-251.64714,3788.5771484375
348,-7636.5396,4099.848,-410.55377,240.66414,-94.230865,-202.9631,10270.0859375
349,-2097.178,-11624.143,-193.11787,2085.9043,-1456.0576,-3630.1033,13094.833984375
350,-3453.3306,13354.431,3984.6462,-7073.418,9979.407,-1940.9688,25941.783203125
351,-7363.876,788.41547,-9926.279,-374.8024,-1705.306,1547.886,10499.9384765625
352,-978.40216,703.00684,343.31415,627.985,-505.84366,-27.19936,2074.7705078125
353,-1643.7181,-2752.6924,-2358.284,-915.0485,-625.47296,851.7414,2609.59252929688
354,-2326.63,-2694.7327,1533.4425,-1231.0463,591.3126,-79.113434,4697.9482421875
355,-8715.024,-14152.17,-2019.3086,4148.267,387.29623,2296.8457,13367.931640625
356,-3637.942,-8864.893,4295.056,905.347,581.7011,-2419.476,12359.3916015625
357,-7180.0137,-3613.6287,-1172.4451,5535.9233,-941.7301,892.8182,11152.3974609375
358,-4592.3687,-10238.583,435.66074,1131.0758,1299.3918,-1143.6328,9918.5224609375
359,-2929.1865,-4886.7793,256.98096,1566.727,-134.87654,-43.149616,5257.8623046875
360,557.82104,-2416.7588,412.60953,-283.54364,-363.18106,-3.9050221,3012.34228515625
361,2083.6013,3306.2366,-3011.2278,1495.252,-582.7023,143.67387,6439.65283203125
362,-1152.9176,-2049.0723,-67.5499,-726.46075,593.73553,318.96063,2428.94677734375
363,303.24335,-1951.2083,-73.84255,-1429.6862,44.423954,-410.90796,3319.5009765625
364,-2025.1215,1991.2712,1536.4229,-186.52026,-184.78308,-118.42238,3841.91650390625
365,-447.9954,747.6375,-3242.7654,9.742125,511.72537,-697.35724,3850.53125
366,301.38162,-445.41962,-1122.9338,259.57852,-116.78295,-117.23432,1344.24536132813
367,420.77997,494.8156,-3094.4172,1076.4629,-404.91592,1862.3846,5195.763671875
368,-5232.8926,-226.51631,-1168.8286,888.22906,-52.16806,47.969086,4859.640625
369,-1810.9313,-1424.137,-2521.3599,2074.4158,136.51643,-9.062402,3727.58203125
370,-405.21243,175.14656,3321.5942,1975.8927,-162.40102,98.180214,4887.07666015625
371,1631.142,2386.557,667.60754,2111.6064,-308.4869,123.16449,3991.81225585938
372,145.12929,710.0586,647.7804,1108.6094,-204.6896,-244.38025,2068.75415039063
373,-780.5,1605.0751,-317.87784,1751.7794,-55.559666,-24.083258,3744.13696289063
374,-1266.6252,-566.82776,3.9489355,1293.6211,-139.04974,116.747604,2516.78198242188
375,53.97179,-1733.5122,-407.2792,-1134.0781,-37.970207,-29.506725,2539.43115234375
376,-293.99326,155.73897,-1579.1677,-772.4009,16.960777,-9.348262,2054.95776367188
377,-1935.6335,-1925.6909,-2153.7358,1652.9518,160.47412,-115.25109,2892.00439453125
378,-1125.1378,2954.4907,1479.9816,1956.7631,-187.2827,294.2595,4965.2646484375
379,2586.978,2171.6265,-222.00003,883.7094,198.14906,28.723125,3059.28955078125
380,-2243.3303,-3669.3687,1557.0397,-1025.3226,-102.00959,5.4701366,5008.09716796875
381,655.16486,-1851.8601,-1391.855,599.5645,-283.7447,-142.69012,2593.17993164063
382,-234.09982,-1343.9058,-2994.7954,1072.9064,-353.00058,142.94691,3110.9140625
383,1067.8818,352.54977,2931.9583,372.438,227.11124,-26.341509,2427.5224609375
384,2995.8115,606.8611,3645.0781,79.68191,-22.5719,111.72448,2781.67578125
385,347.19263,2179.9517,5397.289,330.13162,-246.17584,178.05363,4495.63671875
386,-977.7912,-698.17175,22.546703,1607.3774,156.15262,-209.97604,2958.97900390625
387,-931.9548,569.3911,-1478.878,560.0625,24.401691,-113.626465,2087.05908203125
388,-1188.8817,-941.66833,-1615.261,-1168.5593,-784.0194,-130.19322,2517.900390625
389,-3090.7625,-1023.20795,1601.0621,-676.80054,-1474.5203,-446.39508,5008.1943359375
390,-6139.885,-4511.074,-3760.646,-732.2841,1156.7955,-525.7984,3300.16821289063
391,5617.613,143.27467,3840.529,-2326.0679,1705.988,-4349.9546,10253.1611328125
392,-693.9892,2742.6177,179.49031,-1810.4093,-150.7878,-155.324,4420.94580078125
393,12467.147,1441.2576,720.72864,312.9295,-645.0132,134.67946,11473.0205078125
394,5765.89,229.76413,507.86902,276.4729,-115.13886,-254.91411,5445.22119140625
395,5534.4795,384.5796,677.1386,10.178191,-129.4516,415.22784,5066.3828125
396,-193.88333,5327.4414,3151.4749,888.4059,-615.34357,-180.11043,5177.5185546875
397,1676.2155,-281.25842,660.9569,-103.76109,-197.04773,-291.76468,1810.87658691406
398,1422.6703,-404.97104,3256.3674,-280.78323,-264.59174,-113.65422,3246.43725585938
399,1047.5559,-545.2975,3893.8835,53.500137,226.0517,-82.23383,3918.509765625
400,1988.9353,-1160.386,1677.8251,-178.08821,211.90364,-22.498323,3044.109375
401,2353.7725,-968.6148,3014.059,633.4855,169.53078,-6.8573093,3867.58813476563
402,-2247.6785,1329.9932,-1408.3744,271.66864,126.88519,-257.33322,3312.06640625
403,89.50158,-679.5557,-2798.1033,709.5339,80.40876,18.892794,2870.498046875
404,-1430.3853,2292.169,2653.709,1097.9152,-16.915674,100.57973,4356.76904296875
405,-2172.5137,-159.08882,-1424.6044,-79.89965,1378.7278,171.89713,2986.27807617188
406,848.1722,941.0173,-381.84045,-263.7124,13.885349,125.70653,1375.63415527344
407,-524.7959,2948.346,705.3624,-250.55403,-17.769726,-264.6226,3114.93896484375
408,-19280.055,2312.0974,1730.5254,-4561.1216,-165.63954,-1380.2156,22851.927734375
409,4882.032,-2256.7,1030.9891,2786.0352,-1901.5381,943.2338,8666.201171875
410,2558.9805,2321.8071,2152.0483,1591.0312,-1250.2177,1884.7267,4802.623046875
411,-18.661324,-4624.8833,646.9654,-3073.5974,-1615.0155,-359.853,7828.197265625
412,622.67236,46.3591,56.51926,-69.53127,-98.266754,-220.00414,717.678955078125
413,-1340.6235,-851.6561,-1687.1959,-1581.0736,-257.59735,-201.42638,2889.4345703125
414,1208.4773,600.9073,392.25458,-832.7705,59.37095,-8.02382,1621.95446777344
415,-1204.3019,-1205.1824,829.4436,-1563.2827,338.23557,-81.92143,3439.88549804688
416,-2084.647,2059.74,-1086.348,666.8807,835.8667,-549.5416,4286.1875
417,-2595.066,1598.0215,-1846.6609,858.393,34.743374,-34.751198,4149.90673828125
418,-425.4799,356.45016,-3029.2627,92.74369,-4.2258887,-112.64509,3080.74658203125
419,-46.189793,601.7849,-3330.8374,67.18736,-380.43628,293.50775,3747.44262695313
420,-2320.9717,-618.8613,63.37693,-554.72186,-251.46796,-350.93463,2450.75439453125
421,10677.544,6348.028,-3991.2876,-2953.8435,-2152.1062,259.5175,14514.912109375
422,1093.9796,273.03964,222.04665,-453.32855,115.89738,-80.1194,1180.88073730469
423,-3437.403,-876.70355,-1138.19,-1206.309,578.8849,235.36418,3390.13647460938
424,2541.5327,-2259.8342,-2287.9353,1605.3422,-319.086,-1176.36,5947.8671875
425,725.85364,-136.01234,2422.1519,-153.58061,108.589485,419.5763,2390.91845703125
426,661.9597,1883.0272,1272.1783,292.32114,-97.1394,45.89247,1187.11242675781
427,-290.04425,-74.53574,-4795.4116,-24.540148,129.9608,-144.4216,4629.33837890625
428,2491.9324,1052.5824,419.23618,-631.9202,22.59917,-301.1843,2203.65600585938
429,2698.555,650.58514,-4326.215,246.37758,-77.15411,164.14702,6279.796875
430,1589.833,1307.8602,903.5733,119.4128,172.2919,-317.81284,889.832153320313
431,1390.4312,5850.303,1797.4911,-503.41714,547.88184,386.77975,4511.1337890625
432,-66.16402,291.0014,-387.46848,-321.95187,272.16693,-338.6635,1105.81420898438
433,1004.94934,1037.1257,28.881353,-978.95386,247.36871,-291.53244,2073.34252929688
434,-1310.0939,1199.2477,691.47424,-783.42816,-146.91434,-734.45667,2967.28173828125
435,5182.941,-3778.1953,-1102.5719,687.41473,2966.4038,152.15866,9558.7666015625
436,-677.0355,-1319.5115,-3791.8154,586.97363,-5.2087665,-58.5697,3026.126953125
437,-45.360954,1224.0184,-921.79175,-240.67952,-24.085081,-184.83891,1941.64733886719
438,-5252.5645,-2168.8953,-2432.3152,-410.9686,1042.5029,-470.13687,3632.67309570313
439,-431.65808,-3474.2761,-5435.4214,-27.76461,-69.66769,110.82332,4373.1396484375
440,-646.49457,3504.0154,-114.58941,704.1535,-17.587704,285.71365,4127.38427734375
441,279.5649,-223.42996,273.81857,-1081.1736,-36.36345,11.459423,1939.41137695313
442,-2591.46,2126.6956,-136.45682,1522.2635,-191.86775,179.47491,4885.06689453125
443,1821.8574,1708.9813,3748.0532,-547.4812,-288.66055,98.84545,2262.49536132813
444,-91.131355,-926.079,1602.8463,-1571.2515,-17.362003,-366.03552,3576.37036132813
445,-2228.067,-5552.1934,-4724.385,-890.3977,497.02603,-389.20462,3543.6298828125
446,5337.8945,5350.7197,3940.6726,1267.5142,-1575.6714,350.22372,3821.81640625
447,4396.105,2956.007,3563.9883,-1745.9298,-32.367085,-106.97332,3278.75854492188
448,860.72906,467.6464,1334.4178,-605.04724,-350.58487,-111.35683,1438.49597167969
449,-7444.416,-1786.9023,1566.8381,-902.1667,-26.59917,-44.824623,8042.30908203125
450,-438.91342,-11.474972,-646.5607,1141.3357,186.10529,272.72675,2132.970703125
451,-417.3304,466.52478,-1119.9622,-184.89146,-165.3293,-38.38966,1443.916015625
452,166.75764,-799.0421,1304.3478,819.0752,342.39978,241.93811,2421.88623046875
453,575.3245,-67.262856,928.5716,30.104372,-116.09659,104.72234,916.923400878906
454,-860.498,-5809.5483,3852.775,-1235.113,1697.1265,1311.7505,9402.8486328125
455,5199.9014,151.31415,5019.71,1578.5698,-118.196884,527.23016,5741.29443359375
456,279.75754,-538.1,-3684.238,1906.0443,-407.9011,454.01926,5015.64892578125
457,756.5719,-819.5898,-1294.686,-330.51562,-176.91043,4.169617,1969.89758300781
458,898.8776,-165.55771,268.6076,311.55893,-112.9264,-199.59966,1143.837890625
459,-2026.5894,252.62213,-4004.0708,-788.51764,129.18889,-37.782944,3941.06176757813
460,267.7874,3210.4312,45.693455,1887.3381,-1141.2516,515.31915,4975.15673828125
461,1641.4257,-1513.2587,342.31924,556.5766,-175.0518,240.79953,2955.783203125
462,-1378.8022,-133.43095,-2714.5845,-834.55383,-100.91165,250.13359,2703.0537109375
463,-5744.183,-13418.887,-2491.3118,915.6597,-70.85402,-762.8312,9935.953125
464,-1130.2769,7951.2715,1753.2213,3258.7349,2371.0845,-2098.0496,11248.6474609375
465,808.19354,1299.0007,1061.5715,-1154.7435,-116.96332,66.62709,2058.00610351563
466,3813.846,2567.461,-534.2886,-1642.8087,-515.38434,332.2003,4925.9208984375
467,2458.686,3737.4968,-1316.5753,187.52121,509.67303,-128.59868,4652.97802734375
468,-397.41568,-412.31537,391.4591,100.12509,-7.6749644,-271.4274,941.047119140625
469,1348.7682,-632.8724,130.63565,-205.04993,7.000043,-51.72714,1769.50732421875
470,-634.8859,-384.04474,1226.2506,411.57736,509.10126,446.1887,2223.26196289063
471,8640.89,6558.008,4404.214,-1233.8923,-957.3379,99.81144,4561.81591796875
472,-1785.5372,404.86124,-4458.465,1119.8643,-522.8905,74.199585,4732.4638671875
473,1425.8071,-2098.514,274.84897,-49.63399,-234.17569,-256.36142,3171.47705078125
474,1492.8921,600.1973,1758.2795,180.38062,-103.63017,-13.206554,1111.12414550781
475,2082.326,4950.0635,1027.6089,-2065.3572,218.96982,78.97326,5031.96337890625
476,623.4594,-183.11026,-387.14038,-199.0553,427.06165,-139.16214,1257.32250976563
477,-5579.8833,-529.8312,-655.1662,-913.81854,2156.25,-997.639,6657.70751953125
478,-20.756794,-866.0701,-731.9741,567.0655,-808.86926,-35.467834,1884.26525878906
479,-6080.9062,-2246.8928,-469.78812,780.4928,776.9712,841.2042,5516.578125
480,-853.2874,3100.6436,590.1916,-428.69308,-17.592949,-156.2747,3554.61865234375
481,1396.4048,5028.6167,1842.6573,-2168.506,-9.216888,-186.58795,5097.36962890625
482,3535.6345,253.32263,849.84436,1033.3893,1.4455366,-179.82205,3531.5908203125
483,5067.892,-959.1119,1391.327,-245.44237,244.644,-235.15807,5311.25341796875
484,1552.8094,4139.7705,3706.6125,1563.9956,222.74208,-317.3976,3680.86157226563
485,-3843.3147,-6434.262,-4055.0464,804.39984,-591.8319,540.7261,3174.646484375
486,-7432.4746,-8632.123,2221.9019,761.15515,-1697.9541,-41.745014,10799.0947265625
487,-2512.958,-3704.953,-46.172432,548.63586,597.9315,18.909542,3524.61645507813
488,1440.7953,-271.42728,77.798935,-906.89667,-192.35495,-628.72186,2493.98706054688
489,-52.116016,-5437.613,-5034.1914,-898.82086,-599.1071,296.6597,5546.00244140625
490,8166.8906,5627.8213,1683.9078,2605.9639,-209.20453,270.00024,7262.11669921875
491,-7272.0874,-10916.52,-61.559757,-2747.6045,319.45602,47.4982,10701.0654296875
492,-9959.587,-7057.8643,-1578.9376,-898.49445,-4.493104,219.44768,7543.43212890625
493,473.84427,97.24562,76.42648,624.3878,-50.839405,-127.28303,1173.04638671875
494,1933.9962,-637.0332,1493.3418,-873.38257,-15.032846,-28.943275,2821.88159179688
495,110.03137,-3635.6963,1213.2211,-2241.2478,405.39084,-421.77512,5956.17578125
496,75.50811,771.80853,2263.074,-735.7538,239.36734,-218.13705,2384.47436523438
497,-3858.685,-12.744006,-673.00726,535.1488,99.46432,283.04907,3717.13037109375
498,-3825.999,2624.1907,2448.8389,-84.49889,83.10641,-75.908295,6368.9931640625
499,2873.262,-2273.6458,-18.905485,-1662.9113,-75.644,182.02211,5327.4716796875
500,-2306.5845,4220.176,-4370.749,-2682.1885,-1781.5648,2795.7275,10718.408203125
501,2285.7527,252.76915,622.83374,795.00183,48.49144,35.673492,2329.07495117188
502,6152.382,1723.4193,3159.659,-656.69464,655.4703,-183.69221,4242.79833984375
503,-4266.84,5565.784,-1664.8593,149.46443,-470.0368,192.72324,8871.73828125
504,1041.4229,428.3544,-1103.7085,585.79785,-35.25451,88.77359,2172.36694335938
505,-5913.489,2513.2034,623.3695,250.4578,-130.75294,-351.89798,7698.4765625
506,1708.9915,1840.547,3799.96,1030.6184,219.21758,257.26236,2764.7099609375
507,-222.18108,3380.0903,1336.3411,-968.4891,39.179363,167.20593,3562.796875
508,-777.2965,-265.8144,3421.8157,-1628.2412,-76.20771,-348.56403,4907.32177734375
509,-181.47812,901.72003,92.09106,522.8355,97.65401,-490.08066,1587.78015136719
510,651.3788,2591.7588,-178.72746,1100.7806,-129.43529,31.901371,3123.03393554688
511,-3445.6716,-902.1422,-479.1436,205.10384,-256.26868,136.58453,2846.6767578125
512,-601.1866,645.1723,416.97748,1955.4426,-3.1009512,217.41776,3596.41186523438
513,-1660.6692,2162.717,277.14023,-857.1552,-268.03488,78.92015,3660.97680664063
514,-1876.5521,150.88776,-1092.5875,874.7533,-73.38092,-55.25232,2335.92895507813
515,-3481.597,5389.4507,109.13812,160.66582,381.42657,-116.386246,7764.65185546875
516,1084.779,1683.9022,1194.4775,-776.7264,58.002586,-11.396219,1457.96215820313
517,-8552.096,-6562.9214,-4080.8572,433.4046,-263.81937,-20.236238,3978.47509765625
518,3946.7144,5743.261,1955.6375,-3532.3157,-922.5167,644.951,7211.2265625
519,981.4899,-620.02936,1987.396,1106.2164,-192.46387,-15.295924,2995.10620117188
520,3180.585,1725.9603,1950.2941,-787.67804,400.15744,-56.434685,2047.23718261719
521,218.67668,-61.431965,-844.25037,-347.19263,-352.70474,45.216454,1285.10827636719
522,2163.1218,2606.3596,2822.7112,1771.578,288.67285,-417.54803,3244.63598632813
523,87.06915,-672.70197,-910.1733,-453.20258,-55.97611,-231.43156,1265.04064941406
524,-2044.9941,1612.7196,-2229.0413,-1282.0139,-309.53632,26.647444,4393.88037109375
525,-174.57213,1637.5939,-1200.1349,1021.13153,38.088024,365.3311,3118.82934570313
526,-4643.395,-2834.2021,3.0076141,-431.63702,111.197296,-192.90529,4142.90478515625
527,-2104.9333,-7122.9985,-1926.5385,-2082.9006,-31.614368,98.38005,6257.4326171875
528,-453.42328,2026.1748,321.4496,-897.4456,41.56559,-227.50798,2721.05688476563
529,-2304.1846,1352.6093,-673.6515,-1015.4843,-369.9134,76.91091,3686.47998046875
530,1361.0094,443.10498,1481.6134,505.35834,-47.75513,90.37462,1328.64685058594
531,1447.1257,-1095.1423,999.4347,2211.4436,-266.21753,-91.14348,4520.44140625
532,4019.493,182.91309,2595.3462,1796.6451,241.41582,41.3261,4598.63623046875
533,-1050.1871,-5054.9487,-1097.0769,-370.10086,-307.723,272.70963,4095.19799804688
534,-2063.255,-2937.7317,-719.0783,-341.63968,134.29732,-109.22852,2046.22192382813
535,1492.6128,-3209.2595,118.281425,794.26404,-109.11356,730.14777,4589.34521484375
536,-1442.6768,-558.7319,-685.142,288.19864,93.693245,-103.37222,996.577392578125
537,-6538.6753,3217.7878,156.68094,929.1118,-52.426632,2.41672,8791.5517578125
538,-5203.6123,982.1693,1490.193,3760.3667,125.77084,-105.85522,9174.23828125
539,-1368.0968,2180.1777,1493.9697,317.18997,110.06395,-42.251137,3312.06958007813
540,-1248.486,3817.1758,2744.8196,-1801.8234,89.48378,51.61142,5581.25439453125
541,-2287.1313,3424.1768,-491.12946,-2182.969,5.7224417,-799.2565,6465.271484375
542,-3960.3245,-3386.1812,-3364.9163,4768.098,245.22432,-69.8615,8291.056640625
543,-3360.5762,-2743.9092,-1070.9102,4077.4524,45.447075,60.90084,7355.6142578125
544,6698.8623,-2639.407,-1119.7908,852.0663,-91.067085,-94.76157,8806.349609375
545,-4166.8047,438.78833,-3682.0222,-410.7892,-313.22488,-197.00163,4486.7353515625
546,-1191.4889,-11807.417,-197.74701,-370.136,-192.18297,-26.26228,11169.548828125
547,-981.1292,-12574.092,-880.83514,-2740.5837,-395.30768,113.26532,12594.015625
548,4705.5723,-5735.7007,-711.3526,-4139.442,-56.43561,-132.77747,11544.3076171875
549,791.8467,-917.6592,-773.44116,1247.8196,-79.462006,-140.16446,2728.68286132813
550,2716.5063,479.74744,878.8598,-162.6252,-25.165207,117.41889,2095.77319335938
551,3336.6147,1270.6024,1098.7926,1595.8109,190.57507,-286.14825,3556.30737304688
552,-3860.0088,-174.33737,-306.22284,-73.79566,-259.60406,-538.3313,3768.73999023438
553,3164.2239,-944.6304,-842.90137,-503.29102,-286.6705,-139.639,4188.07666015625
554,-4307.3115,-5279.936,-2568.8794,-273.53458,-103.28504,106.46683,2439.15112304688
555,1554.7328,4847.765,605.38,-1687.6782,-27.27337,318.66547,4870.64990234375
556,-1402.9377,3074.4187,2399.639,2014.607,476.993,-142.26997,5513.62255859375
557,1284.99,2799.8123,1072.3204,513.09796,-50.125435,49.583447,1861.9326171875
558,6450.45,6525.396,3425.493,1199.4407,252.71329,-89.72666,3730.20239257813
559,5489.8794,2737.7356,135.7943,1260.7551,-504.35544,-12.608697,5199.751953125
560,-1165.3911,-3814.4548,-1222.204,-367.91638,40.90165,277.041,2740.73461914063
561,-2425.8303,-3907.6348,-993.8337,-1778.7239,-275.77927,-33.571926,4011.41088867188
562,145.94936,-930.1789,-1929.7643,-799.526,-4.6680164,531.19116,2448.91577148438
563,866.18225,-4381.0547,-865.66724,1250.4778,-191.00494,-99.97448,5126.00146484375
564,3089.0525,-1762.872,-243.99283,1045.0874,-7.551614,-179.65234,4674.64404296875
565,-1668.9379,5605.1426,-1867.2974,2546.2598,-40.736244,-6.759551,8593.5966796875
566,2389.0027,-3495.5862,109.75128,306.363,-298.719,734.944,5346.08447265625
567,2916.5884,82.61563,27.803055,-131.194,-95.37851,-133.49232,2884.81030273438
568,1948.464,-1875.2637,692.3367,-1049.706,-193.87987,38.29991,3849.4775390625
569,-1437.7439,2181.2795,-1710.9454,3178.421,-153.16658,-316.74332,6696.20263671875
570,1089.0997,2804.0818,670.08203,-111.45463,-74.496284,-3.6351705,1972.13134765625
571,-781.69275,4217.0186,319.56464,-2127.343,-39.16103,342.7749,5884.62939453125
572,1203.525,1640.8887,391.5326,-2290.0596,15.161812,-637.3859,4261.26123046875
573,-743.8723,-974.2563,-2132.3025,2961.4949,677.58234,-346.139,5450.6044921875
574,60.958008,192.79996,-2424.4585,-138.97787,58.63816,-16.779722,2567.38452148438
575,625.8537,630.1361,1751.2593,356.8138,-114.74097,212.9261,1348.77502441406
576,25.576925,-437.14096,445.65842,-1340.5072,-401.3666,-419.5405,2643.32397460938
577,-698.51636,-765.93427,-585.10333,493.31686,34.794956,-532.45337,1268.57800292969
578,-675.2333,-864.6793,3932.431,2545.077,-556.74884,-277.14563,6536.96826171875
579,767.62396,5018.9565,-916.4881,-2100.764,350.73633,449.58807,6502.6796875
