Element Label,S11,S22,S33,S12,S13,S23,Mises
1,-143787.02,-169486.22,-159018.58,3361.4998,5618.826,-15455.476,36691.12109375
2,583253.75,593999.2,610528.8,5449.119,-2614.007,-11274.071,32514.65625
3,-771596.94,-771944.3,-759728.6,10566.609,5306.8823,-6593.1587,26362.05859375
4,32130.975,34237.94,33124.676,355.39386,-219.15483,221.9918,2000.97424316406
5,82812.91,88567.39,85477.08,70.64111,-1347.1581,1015.1615,5782.0498046875
6,-776711.75,-791835.6,-773485.75,-7478.586,-15785.101,-2962.3484,35064.953125
7,504749.0,504876.8,508414.97,-1030.2166,-1987.667,-8935.2705,16356.673828125
8,5386.983,5062.104,5593.315,633.23517,710.5985,-1086.417,2544.3798828125
9,250262.19,250015.86,251839.73,-328.1161,319.90387,381.12857,2000.92443847656
10,558915.2,559012.5,557163.94,-234.7976,219.8065,385.9632,2001.00024414063
11,354792.03,332140.75,369478.5,2436.084,-1837.4075,-483.88745,33016.2734375
12,-165833.72,-166773.92,-165158.36,263.6401,63.934685,-3988.5688,7065.54248046875
13,141141.39,139962.39,141462.5,-543.66473,-440.55014,470.18298,2000.98059082031
14,360018.94,360594.4,359840.84,-407.94846,-130.5625,-997.9544,2000.87817382813
15,466061.5,465646.28,466126.0,-796.1788,795.3668,19.287506,2000.99768066406
16,291.26166,-9447.283,18713.365,17957.13,2735.0945,700.05505,40061.2734375
17,-5116.571,-16605.9,-15743.177,20926.357,3768.8892,396.87726,38466.3515625
18,216047.61,220030.55,208896.08,5459.5684,5199.1924,-9955.14,23734.41015625
19,494789.72,495531.84,495332.8,-694.38153,-191.18938,812.92535,1995.33386230469
20,388178.0,387423.22,388344.62,757.22595,683.515,230.19376,2000.98559570313
21,628405.5,613833.25,616337.56,-8717.888,-7095.701,-7811.587,27280.814453125
22,-10760.605,16957.707,21016.885,6674.8335,1943.3677,23.984825,32284.474609375
23,22383.316,4501.744,-9706.224,1312.3113,749.80084,-8480.142,31595.3984375
24,-17756.54,13000.765,-22189.191,98.069176,-1648.4458,1665.2407,33443.93359375
25,27838.512,44719.34,65919.086,-4687.4116,3350.5784,3275.7607,34986.38671875
26,-47249.31,-13723.591,-24899.334,-2723.2114,-2255.876,-7188.97,32661.208984375
27,-122383.93,-136166.19,-116408.984,9503.6,-2402.7078,4105.9785,25433.251953125
28,158845.42,155207.03,147146.36,816.81287,-2470.7517,-1203.479,11497.8544921875
29,43599.168,30805.863,47713.27,6186.1143,1654.3354,2912.972,19537.09765625
30,216618.73,201613.23,216604.55,1784.1877,1397.8295,2824.3723,16257.1630859375
31,-494688.34,-516681.5,-506585.06,3542.9053,4272.3403,-2015.6526,21637.65625
32,-47951.09,-58799.285,-69868.984,2021.0963,9678.001,-2954.2202,26071.740234375
33,173924.2,166046.17,164851.23,-9208.713,4070.1548,-648.6125,19449.080078125
34,-280359.88,-258876.08,-281592.06,-12481.669,-444.9801,-1127.0883,31005.2421875
35,-426312.16,-408368.72,-434600.34,-10153.3545,-5035.087,-3750.7805,31095.220703125
36,111958.19,95200.13,88252.86,8744.374,-7463.9766,-9472.529,33335.13671875
37,41474.812,35788.86,8981.912,-4876.609,-7717.6865,7382.8896,36289.375
38,-136843.69,-152429.31,-154220.66,-4678.1904,-14808.9,1243.0398,31658.2109375
39,116559.69,91895.984,107255.13,11047.433,-4071.8848,-12732.343,36981.12890625
40,3036.005,-15138.169,21438.904,-8316.394,1601.1129,5039.393,35983.1796875
41,98349.83,82710.03,61811.88,-3686.833,-7980.6626,-6175.102,36802.5234375
42,35202.613,45951.344,72861.43,788.136,7056.309,2188.2258,35979.71875
43,798506.1,799575.0,798291.4,2.942897,927.7176,33.379616,2000.875
44,182487.72,182426.05,183197.67,-898.8751,-470.19562,291.3171,1973.16979980469
45,-1510356.5,-1511029.1,-1511132.9,964.5349,-108.89997,-459.2303,1998.0517578125
46,-1065118.0,-1064000.2,-1064131.2,46.506958,-978.3599,43.775352,2000.97546386719
47,59659.223,60321.344,60241.242,-1056.7329,-102.88701,-26.812534,1943.12915039063
48,157571.28,157225.9,156279.06,842.4613,-393.60388,105.24974,1992.49621582031
49,278588.78,277379.06,276977.03,-488.31705,-593.11273,-201.54271,2000.98986816406
50,149345.2,149116.02,150190.0,401.24933,95.55375,916.0232,1996.87646484375
51,42330.457,41577.836,41490.332,-31.130213,-672.7634,810.0723,1992.32116699219
52,245716.39,245703.64,245047.88,-891.57806,425.61362,-460.87204,2000.98376464844
53,61016.49,59418.15,60582.477,353.06656,626.2497,366.9891,2000.98352050781
54,164118.62,164205.4,160024.23,2446.754,-1327.4955,-4189.7534,9645.4931640625
55,112125.945,112641.45,111956.695,533.1982,-776.9139,565.2746,2000.98376464844
56,148604.16,128313.61,159877.61,-1655.6208,3274.7957,1162.1213,28495.423828125
57,15735.596,21830.629,28180.422,13476.464,-3763.496,-12027.287,33726.48046875
58,-21450.27,-2860.0198,-29603.156,11476.494,981.9561,-3719.8088,31672.7734375
59,-34740.89,-37895.95,-43236.895,-4128.9766,6469.386,4503.214,17113.5078125
60,7076.8936,19527.516,10579.724,11432.735,8167.673,513.6292,26771.66015625
61,46911.477,18570.291,10791.199,11666.935,1725.1465,622.9515,38764.03515625
62,-15282.351,-14394.051,1414.7201,20002.738,-904.02234,-3400.2842,38758.421875
63,-25902.91,6002.731,12056.724,-3010.5974,-7020.663,-2500.1719,37968.27734375
64,41232.07,21411.041,14101.124,3685.8362,17056.848,-4140.808,39448.71875
65,3183.9958,-5281.738,-29374.627,6535.554,11628.549,-3274.8213,37710.515625
66,-17954.834,-35489.746,-55551.363,2359.0364,12540.167,-1322.8351,39438.97265625
67,18002.953,1729.5295,-17299.646,-11854.926,3544.4453,-4786.524,38270.65625
68,53707.44,33485.78,22489.795,-14993.473,3573.5317,1846.9624,38407.56640625
69,-13848.871,8205.778,-18947.785,12527.896,6486.0186,8679.323,38051.3203125
70,-15863.854,-18688.8,-41645.676,8033.9834,11391.073,3156.7388,34823.12109375
71,130651.34,131330.73,130111.98,806.35144,310.10965,464.0099,2000.98901367188
72,23196.135,23708.69,23713.064,623.06287,552.11554,743.79395,2000.94445800781
73,-792618.4,-789474.7,-795116.94,-4591.3716,-15957.803,2027.6256,29385.55078125
74,501060.22,501585.88,502480.38,19.995018,-18.541496,904.6381,2000.99609375
75,141723.38,140916.08,141346.36,1444.1636,924.31824,1563.6614,4079.77124023438
76,283942.2,285916.3,286941.6,-5020.7397,-5910.417,-1252.0961,13859.9501953125
77,219648.94,219382.75,220678.23,-309.01227,-768.25854,425.26166,2000.9912109375
78,-20956454.0,-20955908.0,-20958008.0,26.262796,-168.5045,343.25534,2000.55969238281
79,622463.44,621917.6,623406.0,384.533,572.6864,-82.493,1774.46301269531
80,350222.5,348937.0,349909.12,-311.94418,-357.19556,-811.9034,2000.03149414063
81,2516.687,11857.96,33468.668,4618.7905,2005.6536,-1028.7283,28903.220703125
82,-41780.22,-49405.54,-11667.77,-165.68805,493.50873,-8094.842,37308.37109375
83,20547.895,10335.833,-5038.655,3042.8442,5600.9136,4435.061,26049.2421875
84,18815.691,17950.09,35415.875,-18941.486,-4840.2856,-3278.106,38334.67578125
85,-957.9297,-7295.6963,6086.8145,-20535.768,-5385.9805,-4485.0713,39331.55078125
86,-2581.156,-8998.122,25413.822,-13174.344,-2198.975,-2950.5571,39570.859375
87,92752.516,124671.07,105737.86,-10558.557,5469.287,7128.1055,36736.33203125
88,94037.96,99263.96,86627.01,13657.12,-14987.357,-1134.3959,36854.265625
89,83028.41,109261.82,69920.03,-4542.644,-378.06476,6364.045,37252.3515625
90,-66499.46,-42808.332,-64648.598,-14875.519,-6235.143,3366.4087,36542.01171875
91,69719.03,82509.5,60745.258,-2484.735,11209.414,15358.24,38236.171875
92,-32839.844,-922.558,-10288.569,-8495.726,393.83737,13364.738,39501.1875
93,24296.361,-8960.211,2770.9187,2764.627,-193.38666,11324.283,35513.96484375
94,21735.643,40928.918,25689.408,-12328.889,5270.084,8982.092,33007.39453125
95,23343.03,46037.883,47683.89,-9703.257,8996.763,4385.2876,33735.71875
96,31416.559,31976.18,16984.77,9546.594,-12487.283,-6019.2676,32658.380859375
97,30229.701,20829.926,10287.682,-2037.0715,-18033.549,1124.1287,35922.921875
98,20198.12,15943.09,53737.613,2346.8987,4986.539,-1711.0679,37223.89453125
99,46790.76,63853.098,33487.66,1462.8168,273.49704,-3453.1772,27156.859375
100,62926.242,59667.273,45411.89,12684.598,7696.6055,-3282.3052,30871.111328125
101,430455.4,430911.4,431901.53,97.462555,82.61188,788.9954,1885.81359863281
102,4576.117,6793.4736,6761.205,-43.313587,-761.7226,-378.8552,2650.10302734375
103,92821.82,84381.875,74821.195,-774.63544,-7643.862,-10389.854,27281.203125
104,268974.28,251975.67,272680.4,-1997.6111,377.0684,-4426.845,20901.57421875
105,-53666.105,-76123.99,-58483.426,-9156.665,3287.1792,-5630.195,28256.396484375
106,381926.88,368546.66,369077.3,-2650.2144,4617.6924,3214.37,16977.875
107,23314.08,21467.498,27567.443,-470.7046,2626.6072,449.8678,7164.08984375
108,13356.354,-1550.1936,-8911.184,-17221.791,-5053.0815,7217.01,38842.54296875
109,74979.5,57332.293,44629.39,-11737.4795,-7861.416,-391.27338,36001.78515625
110,22030.182,48040.605,36819.492,14871.945,-2816.4346,1814.0461,34753.17578125
111,38193.816,34753.355,10059.083,-5573.755,6906.261,8955.808,34402.21484375
112,-14084.119,-40192.305,-3264.9006,-6831.36,3786.1313,-1481.9362,35647.6953125
113,16206.105,-24643.693,5691.225,7080.5903,2861.5242,-888.0117,39077.78125
114,33912.625,31230.852,-3926.3882,533.05756,2931.1436,4355.9673,37696.921875
115,28044.146,31355.646,41718.266,15134.706,4639.5054,-12971.801,37539.6015625
116,39918.793,16690.996,4280.104,-9411.308,9455.733,-433.95065,38940.39453125
117,222474.39,218618.56,208988.23,422.11823,2134.227,-13857.465,27111.451171875
118,-166268.92,-156595.98,-167908.4,-1793.6523,-3711.5977,-11628.083,23848.033203125
119,282266.28,283752.78,282545.4,-305.6412,-50.44745,780.93024,1997.52697753906
120,264373.5,263722.1,265734.75,-1.4995359,-467.3177,4.740137,1954.30041503906
121,564296.3,566068.56,565564.25,-395.03528,-556.19104,159.44754,1993.46630859375
122,18221.07,12709.858,43003.527,-14923.506,4360.8706,-588.61,38824.59375
123,49600.703,62852.664,39471.676,-11518.853,-7256.161,-1324.2823,31204.32421875
124,-92.60685,15212.862,30891.156,-5960.935,10719.141,1997.7013,34399.13671875
125,173896.4,173607.1,175491.66,-487.8001,152.60912,208.32104,2000.98937988281
126,63139.348,61794.016,63312.62,284.76938,671.2463,285.25815,1977.91918945313
127,91979.02,65173.84,90491.32,5216.6646,3896.6064,-655.00476,28448.75390625
128,-28264.076,-31295.215,-50322.594,1254.4849,-6595.2437,-8980.361,28391.14453125
129,32622.29,-3426.528,19374.74,-4080.361,-6260.899,-1008.03815,34176.734375
130,19117.824,-12615.022,26849.805,-3777.0369,-25.67201,-6207.495,38347.28125
131,14467.004,-6129.7847,26623.652,-4974.7095,864.0475,-13362.968,37875.97265625
132,30163.895,49645.293,74068.72,-1814.2333,4657.1743,2280.894,39273.15234375
133,21896.182,46089.4,41644.867,-13112.206,4312.0156,12326.995,39050.90234375
134,-20615.713,-47327.688,-9875.421,-7375.656,-6084.9634,-7654.7686,39570.765625
135,22046.709,64970.656,38408.1,-4665.9106,-4137.3955,-2960.4333,39380.5
136,41417.188,37275.297,7698.246,10775.173,5761.851,-3746.8555,38787.73828125
137,240867.75,240278.0,240135.62,916.1476,20.711454,-586.6978,2000.9873046875
138,65271.867,52190.895,34920.723,-4921.0083,-9357.678,-6573.557,34062.64453125
139,106736.516,107716.2,105970.02,153.5509,-630.84595,369.14276,1992.90075683594
140,502008.9,501234.25,502088.66,-312.8827,913.811,423.01675,2000.97448730469
141,346046.44,346266.1,345264.34,63.604126,-412.0479,927.469,1983.37963867188
142,364161.25,363955.75,364427.75,216.5219,-180.31715,1095.1012,2000.986328125
143,-281913.4,-307856.88,-287115.72,-2504.297,-981.86346,-11827.336,31725.791015625
144,179586.69,187096.05,198703.19,5261.2275,654.99084,-11947.406,28121.673828125
145,12540.747,37248.87,20237.537,11177.334,1044.0212,11039.169,34974.515625
146,-82408.23,-105424.04,-123483.71,1150.5632,5118.3438,3546.3345,37307.24609375
147,14378.403,178.50154,-7867.5474,-553.706,12769.6875,1454.947,29615.77734375
148,-28884.982,251.38657,2055.091,-12019.9375,6343.9336,-3816.2314,38763.3671875
149,-112118.305,-89778.24,-126299.2,6362.1704,6852.683,-4364.5273,36557.28515625
150,16705.857,1696.4465,-2077.0723,-19593.076,7157.737,-1299.0005,40082.26171875
151,228399.9,229742.28,228027.73,-111.16569,-212.18877,-659.5763,1979.22839355469
152,70926.836,70408.164,71718.266,-825.7827,222.45705,409.82318,2000.98767089844
153,333368.94,332949.4,333327.28,641.80457,-233.13704,868.0835,1954.42321777344
154,168149.94,191089.31,158865.2,-3124.4106,3366.1187,8353.597,33136.58203125
155,10449.624,10802.492,-1279.1064,-14537.774,-3270.1475,-10593.201,33831.8828125
156,-90691.29,-106576.21,-86595.03,10755.781,-11788.733,-9036.86,36649.1015625
157,-185965.42,-186087.6,-160362.0,-8565.85,-5552.665,-4013.8313,31931.619140625
158,-273606.94,-248670.52,-244040.2,3651.2039,132.03867,889.0098,28304.513671875
159,64935.93,27529.418,41613.473,-15.787482,-5886.6567,2661.5845,34582.9921875
160,-200874.28,-217454.03,-211724.72,-18256.064,-41.673695,27.10825,34822.14453125
161,66525.82,66992.92,72341.78,17041.336,10622.653,-7695.1987,37665.88671875
162,30088.984,31584.186,20725.406,-6602.376,-17127.19,4305.094,34209.796875
163,33766.727,18322.254,21683.314,-16150.553,-9667.4,-553.24927,35520.89453125
164,10365.713,-3412.4624,-22920.6,2671.2844,-11718.824,-737.5328,35696.26953125
165,-12986.6875,14111.551,20660.393,-11760.308,1764.3694,3896.0583,37741.95703125
166,16111.805,27212.191,45318.656,-16751.035,-4846.159,1736.9934,39665.4765625
167,81457.47,111905.305,82307.266,-13289.84,2776.7617,3927.1301,38745.015625
168,114499.52,114414.35,89742.445,16643.531,434.02585,-1407.0688,38057.03125
169,3801.6091,21493.156,43300.06,1020.93823,-7725.019,-6809.402,38672.8359375
170,35069.977,27098.775,67249.5,-4922.4526,156.05934,2089.9788,37966.30078125
171,126729.18,127889.914,129002.47,-78.66983,156.88947,-108.10331,2000.98266601563
172,362512.12,386775.56,383029.78,1659.0424,4575.676,-3023.9019,24705.451171875
173,90967.3,90404.94,90669.66,460.1039,-998.05835,-218.35124,2000.98413085938
174,175551.88,174703.2,173878.61,401.05637,-276.06845,630.55255,2000.994140625
175,36680.973,62437.984,31692.422,10112.796,5486.842,8105.5146,37563.54296875
176,366732.7,365833.72,366729.97,-984.01624,-225.47278,216.67876,2000.98352050781
177,103003.18,104046.48,104313.91,449.19507,-802.1867,-58.283154,1996.25280761719
178,125600.95,114142.02,148753.77,-12471.352,3419.0193,-4777.2974,38766.0546875
179,-11649.091,-17436.914,3775.8142,6159.4253,-12592.017,12417.287,37586.734375
180,93206.47,96490.945,98378.06,6325.9575,-4157.5244,-200.06192,13877.158203125
181,177908.45,178049.17,177427.5,-614.75806,919.08636,-75.71274,2000.98364257813
182,172141.34,198654.81,163589.38,2626.2522,3657.658,1661.7158,32740.701171875
183,3567.3726,-30189.215,-1073.9818,-12239.946,-2588.7205,-3176.2163,38783.90625
184,183480.67,190721.7,178908.53,6173.262,-11021.799,-7529.623,27482.673828125
185,-2479.6426,29805.32,-2326.0737,12832.789,138.78302,3849.7974,39698.1953125
186,7733.0586,27422.303,-8839.951,-1424.0371,4497.766,10563.379,37284.97265625
187,-17229.627,14196.326,882.0268,9904.081,3533.7322,-2368.175,33090.8671875
188,-12855.297,-13546.009,-16608.959,5139.944,4863.1553,-4210.662,14675.5341796875
189,-5625.377,17642.51,-15538.691,6990.3477,1524.2329,-108.74177,31998.912109375
190,19374.857,-4523.5977,7217.963,387.4354,18973.662,-4208.967,39522.03515625
191,62530.0,63640.574,63033.293,-726.4072,655.76996,260.18604,2000.98229980469
192,-70973.22,-46240.91,-85048.29,9579.872,-3381.5652,-1898.0211,38449.16015625
193,-2347.649,-10725.845,6283.4653,13958.542,6599.683,5563.484,32016.412109375
194,-46463.8,-9338.781,-26190.277,-9876.773,306.76614,9213.128,39802.1015625
195,15177.875,1476.5862,33705.355,-5365.591,2996.9143,-10022.706,34634.08984375
196,-163924.25,-133479.44,-147200.69,-2938.3765,8145.437,-11746.298,36555.3203125
197,80008.555,53392.76,37970.56,5599.324,-4537.938,-601.51935,38905.53125
198,-350527.84,-372892.88,-352779.28,-11400.383,4474.4585,4050.129,30888.3359375
199,127582.586,121484.68,98767.195,-6750.7905,-9003.728,227.55457,32739.484375
200,6312.32,31200.39,-5299.173,-12858.666,-2555.1292,2480.5264,39715.3828125
201,142670.36,163374.88,124584.1,-3992.7214,2011.5016,4113.5737,35227.62109375
202,-3487.7979,3466.9712,-12833.109,-16129.257,-1327.6699,10232.399,36063.15234375
203,-17691.688,-25065.588,13115.415,-1861.6075,9855.449,-2646.5054,39413.4375
204,-1619.2483,9933.375,-1664.484,21462.521,-2175.1362,-4213.0806,39791.34375
205,-347.05273,-38608.86,-12537.809,10359.904,-2936.2283,-404.56964,38658.484375
206,11556.923,-21891.223,-14935.882,-13717.364,-887.40076,3802.535,39303.3125
207,2431.7246,18352.604,-14804.385,-2468.413,14064.099,-5482.996,39074.765625
208,12308.971,22799.98,7112.7925,-7401.2725,4768.9414,-243.22101,20598.958984375
209,29566.5,14223.331,-4324.795,-1300.9716,-7606.425,-2674.7202,32621.251953125
210,3550.8486,16211.805,-7684.3936,12417.975,-516.0356,-1558.8561,29991.44140625
211,-19485.58,-2236.8564,-2499.8428,-17551.768,5006.861,5685.294,37274.90625
212,-3664.9397,23351.717,1844.4573,-11940.745,12120.658,5579.0464,39664.34375
213,-3977.4658,-3242.5764,-9028.246,20744.352,4222.364,-4369.4937,37835.2890625
214,-5288.5264,-10517.243,-20678.13,21167.059,-3249.7905,-3706.8323,40009.375
215,6653.1284,319.80844,-21955.809,-9550.529,-13985.451,1918.5494,39355.44921875
216,-10348.743,-2375.1167,96.76677,-2511.804,9547.149,2538.072,20027.37890625
217,36889.527,19059.93,18297.562,-13589.349,13363.694,7267.319,39752.81640625
218,29712.63,8339.456,24098.197,-11623.086,-4433.7344,-11590.1,35150.95703125
219,-44958.91,-21429.342,-50841.22,13469.772,6828.7534,6887.479,39410.1796875
220,4349.9795,267.8789,-11134.012,-21085.057,-90.786896,5140.7236,40078.11328125
221,13648.237,-24081.271,4663.4766,-2877.6465,-9165.951,-3914.5383,38576.0078125
222,8350.46,-502.9238,26116.53,8201.002,10603.059,-11617.501,38668.44140625
223,11169.675,-9873.988,13512.409,-15327.664,-2379.3706,-11385.176,40103.44921875
224,-18277.877,-30313.719,-882.71484,-12939.484,-9519.824,1731.1302,37947.08203125
225,-7072.172,-19417.328,-23186.318,3817.8977,-107.05245,1195.7635,16161.37109375
226,-2087.1719,-34924.668,-9013.897,-4985.965,6997.032,-5392.1196,34749.16015625
227,4961.494,39908.03,45075.06,-3102.1348,3133.1572,-1956.0967,38708.23046875
228,19786.297,6296.3696,10798.707,-12101.96,5187.4707,15488.342,37165.58984375
229,-21364.395,-25725.057,-5023.2866,6017.7603,6696.8936,-17837.78,39434.12109375
230,9101.748,-24951.98,-7053.1196,-1598.5603,-1485.0925,-10917.683,35247.30859375
231,29864.086,42671.47,68495.445,4816.276,-2608.8425,-9748.96,39201.76953125
232,-49441.926,-44148.83,-22246.217,-7092.5947,-6344.9087,-15046.298,39680.41796875
233,21931.734,47520.992,27048.637,11083.3,7903.603,3610.1501,33838.94140625
234,29320.531,40577.695,23936.092,-17859.795,-9252.759,6321.562,39369.703125
235,9243.902,19052.082,8545.531,2982.7153,6484.423,12656.888,27147.03125
236,5718.077,11479.504,1558.5187,-13808.315,412.32297,-3234.1738,26045.33203125
237,10366.999,-19200.508,-6671.246,-9748.302,1371.7798,-4040.6064,31630.267578125
238,-14156.576,3862.963,5380.62,12402.417,-16235.471,639.54474,40097.54296875
239,-4241.883,-20547.215,20401.68,-4056.488,2828.2573,1851.406,36859.6796875
240,9364.305,10891.715,24561.865,-2647.6611,-13561.699,-11349.085,34194.7421875
241,56816.504,36944.39,31591.535,16861.22,7718.4517,-1071.1962,39560.015625
242,-16744.197,-44485.22,-43710.42,-7536.7437,14745.446,-582.09326,39653.2421875
243,6997.108,24743.908,-460.34976,-13045.404,-8619.749,517.7804,35173.296875
244,25161.398,15064.738,-8289.064,-7455.442,13331.879,-43.52933,39788.33203125
245,26665.469,13874.804,8908.585,-5253.4575,-2871.0786,-8129.9106,23613.5078125
246,12106.014,-8401.617,-26863.037,355.34097,8707.764,-663.66077,37002.1953125
247,-4106.234,-23475.19,7355.331,1131.0758,-5593.666,-10045.481,33600.04296875
248,-114759.37,-148343.97,-139188.38,9420.982,6261.203,146.76709,35891.515625
249,44082.72,35505.293,13648.205,14063.432,6483.2427,5072.518,39184.3203125
250,-806206.1,-803020.7,-823590.0,3941.6858,14016.08,-9364.331,35591.51171875
251,-1007521.1,-1014552.25,-1028761.4,-1354.0828,10403.61,13510.079,35057.30859375
252,-521419.53,-510145.84,-488274.22,2507.5173,-5762.4536,8167.166,34214.4140625
253,-148313.48,-150575.92,-136040.05,13472.392,7076.8125,-616.19354,29655.0625
254,157423.58,148825.36,164856.72,-3091.741,12014.015,4182.1797,26594.1875
255,691468.7,688937.44,691075.94,-12019.426,13282.973,4502.4424,32079.513671875
256,-779906.9,-767951.06,-767533.0,742.7225,3022.1702,-1515.0074,13566.712890625
257,317782.38,329524.94,314913.25,12178.443,2665.409,-419.04327,25428.212890625
258,-93265.266,-92846.54,-93712.7,902.8761,508.28815,-266.9496,1999.32458496094
259,269346.2,268940.38,268344.47,182.37013,-17.05848,1023.34125,2000.98608398438
260,30296.648,29098.098,28082.857,-513.3746,432.3985,-724.8122,2571.318359375
261,-3637462.0,-3638801.5,-3637861.0,-342.52597,336.15384,794.52997,2000.95104980469
262,150732.1,150472.11,151662.83,19.135838,122.00192,-963.0401,2000.98107910156
263,358919.22,359769.47,358538.8,67.62934,-864.2841,431.3492,2000.98559570313
264,259638.28,260086.1,258722.42,-224.19112,-816.2002,367.49774,2000.99096679688
265,30613.762,28503.848,29013.746,-238.60983,233.58167,104.41599,2000.77111816406
266,-112201.51,-112268.84,-111498.43,-488.43286,1096.1969,300.96396,2266.8427734375
267,164421.83,157429.73,173861.56,-12926.68,4164.621,4466.2866,28586.25390625
268,-534663.9,-518980.53,-513802.9,-7343.4243,-2700.8162,-4546.1597,24487.5703125
269,17429.807,19717.945,17039.434,4613.497,-3281.7195,-4431.93,12703.123046875
270,436978.2,440929.53,441472.6,7789.995,13161.849,-2701.2527,27234.150390625
271,-241665.89,-252216.19,-241497.9,-11606.128,1246.0846,12799.577,31833.341796875
272,465187.0,478967.4,484333.72,10316.677,-4334.8984,3151.0137,26421.751953125
273,-111417.766,-136549.72,-96646.336,9009.718,-182.95204,6953.5703,40121.40234375
274,-318958.75,-330081.5,-325943.47,-13318.606,10566.763,12441.326,37766.35546875
275,-7201.838,26806.83,27273.7,-10053.429,5012.8115,2600.824,39643.12109375
276,96047.56,68180.96,76845.64,16836.71,-4534.8975,-165.10469,39017.57421875
277,-26582.076,-10428.575,-14390.803,10042.467,9178.205,-6853.9097,30146.82421875
278,6855.4365,16195.301,6576.616,7139.032,5740.507,-2095.1494,18837.236328125
279,5427.9404,3561.467,9298.045,-15413.101,15119.815,-3218.4834,38148.109375
280,-3947.8809,-18105.594,-5916.0327,19391.832,-8196.914,-1196.6821,38864.4296875
281,22279.568,26326.33,-6204.213,-10403.477,-4631.6143,1718.6869,36618.07421875
282,355849.22,332207.0,322912.56,2529.9465,9603.367,3316.9912,34553.8046875
283,-10348.3125,26744.355,4128.966,-10414.627,710.99066,-1409.8134,37166.23828125
284,8079.833,81.860596,-5001.1396,12068.581,11018.399,-1694.3824,30663.3046875
285,30832.725,-3784.4004,8264.186,3930.5735,13752.944,297.90912,39248.8359375
286,481034.28,469424.12,446247.16,-551.44336,10317.109,1346.5857,35591.23828125
287,-1418.419,-12712.146,-16002.389,1402.0667,-3506.8345,346.2109,14787.9580078125
288,-22088.861,-14890.212,-34490.473,-14138.301,-592.7416,5240.0024,31272.943359375
289,34260.883,-8393.558,11951.645,-8302.299,631.6318,3255.8027,40066.1640625
290,-134813.61,-93624.74,-102520.12,789.7852,3887.3162,-1817.7946,38293.31640625
291,9681.832,16734.438,-10229.416,-16962.162,-3428.157,-41.992134,38536.08984375
292,-24945.955,-24385.768,-42688.28,-16728.586,-8014.473,897.68036,36874.0078125
293,49503.348,12748.85,21067.387,7048.0947,-6815.367,3589.159,37965.359375
294,-15684.451,18864.436,-6107.938,11774.024,8894.803,-1056.2041,40138.0078125
295,-17332.389,11710.89,10695.5,13897.841,7333.5903,-2404.8525,39663.55078125
296,-8655.127,-41282.547,-9780.292,4539.1274,132.26797,1504.8223,33132.46484375
297,31213.195,-63.411133,-3109.2969,937.40674,10322.765,3438.814,37954.703125
298,35980.523,49035.32,7368.081,-4408.889,5174.6753,-2734.588,39034.7265625
299,-111363.516,-131152.11,-146494.06,5758.964,10259.941,-330.05707,36690.36328125
300,-26032.258,-1262.0261,15482.551,2319.2722,-9618.923,-1420.6177,40105.796875
301,16988.957,8974.776,23096.305,-309.91455,2906.6287,-17947.92,33800.73046875
302,57403.316,73987.15,60827.586,-20473.379,-3544.5657,-859.2758,39081.27734375
303,4391.578,-22227.428,-5754.806,16241.091,707.1108,-7863.862,38984.27734375
304,13918.629,-10701.624,22035.89,-9976.842,-8046.7285,-1496.3167,37033.421875
305,312510.3,295626.38,295994.0,-3926.8452,-10390.496,-4120.9995,26459.232421875
306,-192018.61,-209296.64,-204694.05,5484.3394,-6900.6514,15001.544,33888.3515625
307,-34929.562,6922.5825,-10735.485,-1024.8662,3572.1577,-7499.757,39173.36328125
308,-60482.266,-26945.896,-41013.438,-7805.8413,12494.767,-4893.44,39671.12109375
309,4559.8325,19763.277,7124.541,-8258.079,10493.506,3354.0015,27702.10546875
310,299275.94,298694.88,297322.0,182.66942,-382.73114,384.8213,2000.99011230469
311,-38507.668,-8966.137,-4198.608,4874.1743,-3313.2632,7997.7466,36501.6328125
312,57361.0,57389.324,57713.414,-1026.4009,380.8344,311.17746,2000.27783203125
313,-47664.586,-53939.785,-52167.82,5536.8833,-595.11774,7001.2104,16476.744140625
314,149073.84,147667.02,144969.77,4830.573,946.362,-6771.786,14943.5703125
315,-1592342.4,-1594241.2,-1592471.4,-190.38513,329.67126,-252.04005,2000.693359375
316,-862.4365,7589.5146,-26614.031,-2010.7136,-404.2268,-279.211,31065.8046875
317,26951.674,4401.166,12524.633,17718.355,-419.14746,-7436.504,38724.4140625
318,-6208.361,34547.99,9034.261,-9304.529,3218.1748,-2221.703,39721.3359375
319,-64036.51,-39469.527,-51613.86,15810.086,7980.4253,821.6435,37358.203125
320,328076.94,307408.9,309210.78,10203.833,10354.017,-9480.923,36011.2265625
321,82081.09,49098.02,53290.945,-2359.8296,8694.526,-1445.5015,34884.48828125
322,12643.783,31636.074,39463.797,-9176.704,14993.465,1964.8363,38849.40234375
323,-23803.488,-10089.747,5691.146,12000.305,11494.707,-4837.783,39397.1796875
324,26903.512,-9418.773,6137.136,-1595.3143,-3926.0981,-13377.447,39837.35546875
325,-9946.669,-27128.2,-34194.934,-26.916117,-3090.5625,-5858.4214,24457.744140625
326,25435.14,68098.72,50225.324,-3048.2053,-75.44655,5790.636,38801.83203125
327,-3939.8691,30776.48,7541.924,-4062.694,-4251.263,-2031.7976,32474.1640625
328,-1320.5479,18580.16,16555.54,-173.97157,1321.706,17833.318,36321.60546875
329,13049.002,19384.959,13526.408,-15803.51,12852.68,-2300.2446,36028.4296875
330,8009.8164,31584.746,16121.923,-3705.9758,-5076.7515,-1538.8544,23578.982421875
331,-7376.2134,14548.896,10898.447,-17385.031,843.67596,5151.177,37449.390625
332,102.23586,16849.932,6396.478,-6614.272,-5293.4243,14362.659,32386.0078125
333,43864.547,15751.102,30662.166,-16298.13,3276.8113,-5231.5747,38790.6171875
334,222695.55,223673.5,224179.69,802.19617,19.711826,348.58752,2000.9765625
335,239323.92,239615.66,239400.33,352.2252,921.9183,574.37085,1995.08142089844
336,90390.55,90258.56,89070.81,825.675,-320.9752,145.9689,2000.78686523438
337,-499318.3,-500378.38,-506930.6,-1629.6776,154.12262,-2696.0413,8991.4287109375
338,-205979.95,-196902.56,-200104.28,-2587.5122,-15545.243,-4134.4214,29324.333984375
339,1885.0244,14008.688,8452.768,14453.931,-5646.645,-494.05215,28872.611328125
340,36278.453,22811.998,47609.047,-537.4124,785.3148,9528.762,27155.462890625
341,16760.734,24676.709,25809.402,-8181.985,912.8887,-8919.7295,22692.099609375
342,-6093.0757,-5935.449,-11634.396,4679.529,2741.0718,11331.708,22473.580078125
343,7661.2104,7561.746,-13597.51,14580.452,6987.434,7871.4814,37682.234375
344,7018.746,14978.48,14428.303,21229.178,4814.6187,4509.46,39266.55078125
345,-1090.0793,-9556.259,3238.9993,-1730.1942,-9060.386,-619.76636,19582.458984375
346,3727.958,34852.855,15974.092,5134.225,-1617.1383,3348.0298,29293.708984375
347,1600.2407,11387.52,28451.98,-16669.967,-557.5081,3277.419,37693.7890625
348,25847.883,36014.45,15293.375,19049.387,-707.6844,3780.5125,38145.46484375
349,8506.153,10542.238,-19880.088,-4195.7466,-105.56693,-423.42572,30349.716796875
350,-39483.094,-3213.3708,-11225.772,-8631.929,2824.154,2376.3018,36789.703125
351,10395.184,-5041.3833,3713.8972,-452.7566,-10601.452,-6529.763,25406.53125
352,11928.411,36467.008,18005.36,2277.9287,-9034.788,-3719.6267,28140.861328125
353,9753.136,-21001.941,-3594.0293,-12414.519,-6947.0273,5973.0815,37784.99609375
354,-8632.469,-14608.022,-18797.992,7144.5493,2093.3274,1062.4459,15746.95703125
355,-3052.5984,-2441.0698,204.40393,-2560.315,-672.7369,1297.2537,5921.33837890625
356,20.796112,41.98967,-656.8107,191.03528,-592.5655,18.162325,1279.77954101563
357,479096.4,515660.34,502938.62,-634.6085,-7186.7085,10913.766,39333.1015625
358,-8532.288,-11101.832,-15619.231,-1584.0553,147.35324,-37.071342,6798.0927734375
359,-73851.11,-114427.805,-83655.484,-5386.563,-347.08377,-7643.7314,40093.03125
360,-6471.6055,-4890.913,-3095.0176,-1893.4752,359.80212,708.13947,4605.5498046875
361,1316.7687,-346.20605,4661.405,-3335.727,-401.61584,1930.4377,8034.86181640625
362,449.41943,3902.0083,6202.515,1109.7833,1173.1442,-1098.0853,6049.4990234375
363,-3757.9763,6707.5312,4824.5283,72.91292,1697.3821,-2057.8298,10711.1728515625
364,35221.977,29848.768,11780.904,12724.249,-2136.1108,582.63184,30867.916015625
365,23931.912,23172.799,32133.59,431.7274,3512.3887,-1091.5851,10733.7890625
366,7477.078,7838.01,-8063.543,-534.84064,414.50177,5593.7466,18506.58984375
367,7765.945,5172.6064,9558.73,1094.1528,651.43256,-2556.3794,6249.68896484375
368,3583.9336,-1291.0192,-2189.6902,1051.374,218.1561,-169.56165,5700.7841796875
369,-1069.2596,-3703.296,1248.2817,1623.7346,1044.6962,178.30069,5449.1025390625
370,201.4513,1002.73145,1488.8672,-1132.7778,534.28033,479.42984,2581.3544921875
371,12975.181,6574.2637,11432.014,7073.5903,-84.5858,2429.44,14188.3916015625
372,-6487.6343,-4886.8306,4047.9968,-4809.073,262.84,-1443.5908,13135.345703125
373,-7955.454,301.32104,-3578.7593,3048.7766,-354.5166,236.60489,8923.14453125
374,2325.2917,554.6013,-5146.301,-656.6308,-658.1564,-849.63165,7105.54638671875
375,-269853.72,-304643.97,-275206.66,-9873.189,-2997.4036,5524.4497,38258.81640625
376,192154.86,177365.78,219785.92,783.53394,-3009.932,-575.17975,37694.08203125
377,20732.898,19116.646,4983.954,4804.232,2227.5305,-1046.8789,17680.57421875
378,16840.389,11601.078,595.1924,-515.10754,-2137.428,-516.4506,14884.392578125
379,3857.4856,-2355.01,6467.0586,2025.8185,-623.666,-2514.2617,9698.4619140625
380,3501.5552,2405.673,5108.8965,562.35925,1369.0896,-35.636562,3481.6279296875
381,-1413.521,471.15793,55.833527,931.0217,-716.6862,-475.78577,2786.07153320313
382,1163.9521,8410.009,8481.113,-1963.9955,-1672.32,65.4947,8544.0205078125
383,-7090.8174,-4772.5874,-2370.532,-1818.9677,1652.0966,186.48051,5910.25390625
384,3410.2007,-3804.1504,4547.6855,3761.622,756.30566,131.62523,10284.177734375
385,-1632.5515,-4240.733,-3660.4358,1753.8092,-751.4656,803.49097,4299.33349609375
386,-1617.5731,-2695.6672,-426.78552,-2657.386,436.75006,744.72504,5223.52783203125
387,-2311.1567,-8740.024,-20335.646,-1841.9797,1857.505,-1905.327,16785.587890625
388,-3717.758,5000.8184,-9621.223,1129.1725,65.92256,1902.0712,13305.11328125
389,450.8805,1159.5072,-4904.648,640.2093,1637.1943,1503.5919,7002.2919921875
390,12963.49,-2429.0557,-12693.949,-2600.1208,-1933.7999,1242.1962,23160.984375
391,1897.5615,448.65146,-733.891,-342.49847,3028.0735,-1061.303,6037.3701171875
392,-2533.378,424.2579,1620.3103,2516.3213,-511.98004,-1229.7196,6167.1923828125
393,-2540.1045,1089.1025,1189.7225,-2026.3146,230.16347,2657.903,6871.4306640625
394,46754.746,43683.402,67190.27,-3182.169,-3469.5552,576.9657,23607.18359375
395,-576217.6,-547393.44,-589696.94,-4379.103,5726.458,4023.3662,40069.00390625
396,70255.81,58974.492,99329.48,-4325.0786,-1679.7354,-1231.144,37009.0
397,-40367.95,-43698.21,-75803.4,-3491.677,5288.6577,2828.4624,35961.62109375
398,-4261.883,-9008.235,24671.705,-11672.107,-2530.0288,-675.9546,37766.35546875
399,-5460.051,-12663.736,-10448.055,-9705.78,-1643.928,-1907.5376,18505.98046875
400,-20616.545,-21285.738,-8127.13,-7408.8403,2493.9966,1771.2014,18908.607421875
401,256.16138,4828.989,-6616.372,2742.1487,-2769.6194,69.375145,12048.0009765625
402,-5200.7876,-5324.457,-8839.456,407.10834,756.5189,769.9166,4098.49951171875
403,7339.049,11335.512,11781.662,441.0568,896.18396,-872.19977,4819.64892578125
404,-981.34045,-1633.2386,8066.0327,3092.404,429.67444,1479.2539,11134.865234375
405,7593.7256,2076.9395,4965.046,556.68256,-1234.3442,-463.61856,5384.0830078125
406,-6832.2437,-4150.373,562.9568,2149.199,-313.8617,-2298.3103,8488.099609375
407,6658.8506,6741.4756,5278.0625,-3270.3706,-235.398,-140.47491,5859.93994140625
408,-4182.4404,2302.6016,-5132.5303,1726.8715,-34.691936,4554.002,10967.51953125
409,375602.78,378913.25,360446.5,6142.0107,438.55438,-11604.526,28435.7421875
410,8949.601,4304.294,32995.562,-4002.5752,-619.3948,-337.85974,27587.013671875
411,-927603.9,-936625.44,-927313.8,4729.4883,-3459.893,-13392.511,26929.248046875
412,773.7495,2895.7358,-10766.891,3026.3123,525.9029,911.1188,13891.5126953125
413,-4106.232,-7730.4336,-12926.502,-1197.828,-240.34679,2681.696,9220.505859375
414,629182.94,600018.56,643727.25,3954.8093,2677.4731,1444.8635,39509.04296875
415,-4024.5193,4347.0195,-1643.9214,-369.87372,-3358.8486,-848.9358,9604.099609375
416,631.9794,-2576.1372,731.19336,4203.094,-119.67115,2246.5728,8877.0703125
417,6830.6895,-9288.487,22149.043,-3267.6707,-734.8926,771.3463,27871.80078125
418,141205.66,120539.85,163687.52,-4014.5051,530.95844,-1894.3854,38171.66015625
419,-493.93176,4141.8545,-488.0298,-1396.1864,0.49876815,-587.3869,5324.12109375
420,-6064.2173,-852.7278,-1438.2885,1594.0845,-911.95166,-776.16986,6031.29052734375
421,-10564.539,47.895508,4079.4673,-2077.867,-1083.6854,870.05817,13798.87109375
422,-5600.546,-19082.848,5497.928,-8446.542,456.83414,-788.4798,25905.693359375
423,7581.9634,8714.013,2025.8245,-4848.713,-1786.3284,-921.7445,11004.263671875
424,4874.74,7386.126,6128.857,1624.1375,-1667.902,-2241.1733,6004.833984375
425,-447.74365,5625.43,1728.2019,668.78503,995.60486,719.81024,5854.3291015625
426,3133.9546,5360.1865,3860.726,192.27745,-573.0432,-636.4268,2485.45922851563
427,2742.5466,4076.4932,10736.576,-263.51337,-708.1501,1333.2351,7878.1728515625
428,-3702.4563,-3755.4153,-2837.7412,-5.490353,-1125.7661,-1742.4852,3702.328125
429,147.33435,645.91125,-5931.51,3000.9297,540.0548,-1142.8518,8487.740234375
430,61343.164,52647.438,92923.75,-360.52402,-288.6665,-533.9932,36729.5625
431,4017.1575,7493.759,-9570.549,117.08634,3501.4324,1570.6665,16975.681640625
432,773.9263,-2785.604,-9017.055,-2795.8145,-30.51653,2209.3494,10572.533203125
433,-34244.316,-37100.68,-69477.83,-3899.0173,2420.2708,1969.0596,34981.87109375
434,-5994.494,-5300.8477,-14396.642,1.1124752,686.3206,434.97833,8881.783203125
435,-303.56485,4847.7163,-315.16943,-755.57904,-115.25085,2849.1138,7259.51171875
436,-19411.014,10033.432,-19564.43,11540.656,4850.3506,5192.451,37716.55859375
437,-2145.4314,-2491.8875,-11902.6455,5566.54,-1816.573,729.2569,14014.177734375
438,-2898.6858,-1594.3289,-491.01648,906.6931,279.4042,1089.3098,3258.53076171875
439,-12186.219,652.21704,-18427.1,-1690.9414,631.85266,-953.1841,17216.224609375
440,54895.01,58796.594,88470.48,-592.9312,-131.45564,-397.84067,31829.517578125
441,2386.5864,-1190.39,-3081.1711,-1130.7428,1551.7155,-193.41043,5857.00537109375
442,-1063.1816,1694.0165,741.9376,-1285.0648,58.500927,-445.19904,3382.6875
443,-163340.16,-159293.28,-197582.28,5367.645,894.4993,-637.21094,37650.06640625
444,-14391.449,-11063.519,-11351.152,-588.2551,233.96156,2221.735,5119.69677734375
445,1366.5165,6189.5664,4238.966,407.8586,-1249.9866,-125.30948,4784.59619140625
446,-873.10724,11608.114,3990.4775,-1726.0073,1246.0951,-1312.5796,11725.8701171875
447,-3462.7568,-314.7064,-2070.286,4538.881,-424.5057,972.1169,8523.2392578125
448,-13180.766,-10685.243,-26950.967,1361.9525,-1238.2825,1243.4889,15652.90625
449,-3088.1064,-2091.5676,-1110.7506,-286.20557,384.50546,549.97797,2128.1953125
450,-3052.8755,-1965.8766,86.677216,3301.3281,-1379.0433,-1129.6234,7060.83544921875
451,-1398.8959,-10868.838,-3581.1978,-5694.9355,9.606148,1386.0151,13297.978515625
452,-13489.733,-16921.635,-40932.508,2952.323,-226.96564,-635.59454,26423.814453125
453,-11082.222,-3178.7844,-21317.408,3592.1301,-769.9895,-1135.4944,17101.853515625
454,4318.2314,2305.7395,-1986.5226,-2495.1946,-1478.7786,346.16177,7530.57861328125
455,648.37177,21.60346,-631.7437,2543.862,-1145.273,-284.8508,4982.09521484375
456,-323.75266,-9.519387,-2237.5103,-1430.0928,1064.4962,643.69775,3891.08837890625
457,-15371.214,-11403.168,-27754.637,-4997.9526,186.17023,116.42328,17126.462890625
458,9232.664,8676.844,23436.084,-3164.8933,724.379,-1245.2668,15691.2880859375
459,1285.159,6814.5103,1975.5067,-563.75073,158.23546,-900.6512,5540.32568359375
460,-1757.0173,-2092.1106,45.989243,-1392.4957,848.48206,-238.44601,3480.626953125
461,1774.2659,-12216.205,3802.7139,-3698.271,-423.28976,2353.917,16923.91015625
462,-47003.156,-34256.81,-73255.75,-6941.8027,639.933,-1378.0963,36575.73828125
463,501.9247,2588.3823,2821.7593,1877.3688,-16.760925,-1523.4424,4736.212890625
464,924.0605,-2536.3457,-2810.1338,5318.225,-2445.5386,2280.2366,11462.4501953125
465,-3956.696,-2989.0857,2841.2527,2964.6047,-68.78924,-849.42554,8313.6044921875
466,-13583.189,-6753.804,-4470.251,-3904.9556,-1449.4586,-2914.2512,12040.671875
467,-24860.713,-22160.861,-40055.516,436.6624,755.1047,966.2938,16860.56640625
468,-352527.6,-340361.47,-383280.5,182.4963,748.5997,-801.53766,38361.54296875
469,1694.5314,-935.7262,-1056.4683,550.7944,1696.7953,-805.3352,4329.38525390625
470,-170958.73,-187310.05,-180833.53,19596.846,-2841.8765,3111.2314,37533.828125
471,-6098.016,454.03745,-2302.3145,-1000.64355,-380.76624,-463.9188,6045.791015625
472,-1203.4395,-338.34216,-2232.3357,1276.3168,-607.69586,2868.4075,5777.13037109375
473,2071.3667,-1894.2788,-5955.886,484.13898,-791.0372,568.5273,7202.77392578125
474,359.31595,2514.9973,-638.031,2160.0913,-241.39685,-119.47846,4691.1884765625
475,-174.35138,-947.55884,473.58524,-3803.4563,832.0431,-668.1949,6952.25439453125
476,1545.1007,-2399.3582,-2926.2288,2475.1301,677.70105,-770.894,6281.24560546875
477,306.54355,287.4722,5299.923,1793.0723,263.039,-780.3014,6058.7900390625
478,-4820.0967,1753.9869,480.25375,3430.728,-324.86472,-267.7157,8503.44921875
479,6872.7524,3237.5193,5252.961,-617.66565,-203.42236,111.65104,3355.05541992188
480,-2930.6094,3007.069,-179.5144,1119.278,-1004.4378,1261.3505,6168.26416015625
481,49955.74,45575.805,78463.24,1506.9635,-829.6614,449.52173,31083.86328125
482,88911.63,83125.945,122374.836,-170.67845,-670.26917,-49.07125,36719.34375
483,-759.1342,1306.5778,-1741.4099,1157.2046,-743.07007,-470.84448,3687.8232421875
484,-551.6523,2708.1797,1051.1364,255.2896,1145.2473,-1101.9108,3967.8115234375
485,-6522.8003,-3491.534,-587.96387,660.94867,424.60696,-902.5392,5542.197265625
486,-4660.578,-5402.2397,-2475.4175,1021.34595,568.432,-1888.3969,4662.89111328125
487,-6639.708,-2419.7683,-1671.6558,-2718.1084,1515.7906,-78.74362,7113.39306640625
488,3651.98,3743.0903,39.986206,624.7244,715.8084,-864.56067,4281.85400390625
489,-322.80066,-761.37476,-1262.604,611.7805,-190.10419,-1064.7415,2301.23291015625
490,3914.941,3755.1453,8513.791,2182.0972,-1502.3416,-1728.4998,7206.1572265625
491,-8402.657,-6421.883,-8535.603,1171.0433,873.71173,976.10693,3669.73754882813
492,5099.8716,-3972.0002,2662.1953,-5074.9917,1464.5122,-1426.6559,12487.349609375
493,10475.829,10394.2295,13314.761,1539.5093,970.3411,-1121.7947,4691.27587890625
494,-2822.4998,-5070.4136,686.3705,-1028.5479,684.19336,-527.5083,5537.671875
495,2719.731,-476.0138,2579.229,62.582233,-138.4673,-831.2294,3453.34814453125
496,-440.67795,-238.57747,-2283.1023,-1095.1542,467.513,-1109.1919,3428.18310546875
497,3340.9607,-179.95456,978.0721,-358.65134,1373.9648,1386.4313,4634.25927734375
498,-7864.9717,-3031.343,-1974.7787,993.03925,1095.9144,-253.91997,6028.451171875
499,-2903.2227,-1571.59,440.16614,-148.80124,-1193.3312,358.52704,3636.41259765625
500,-7896.513,-6241.546,-3775.0098,-1645.9326,25.608349,-496.2548,4666.134765625
501,5997.721,7482.276,9393.9795,2965.0195,-1169.199,-519.83026,6323.15673828125
502,-3028.3118,1202.8716,662.3554,-1281.9089,484.83786,-154.6071,4649.17578125
503,27184.068,30781.164,50538.88,-1419.1823,254.7159,-606.1706,21948.029296875
504,-8031.7783,24667.926,8639.084,10078.024,-3010.84,-3082.9863,34094.953125
505,2387.1396,149.25735,377.9979,1154.8337,-1170.5778,1339.9285,4248.111328125
506,6199.0654,6729.977,-1189.47,777.643,-1175.0679,-545.89667,8102.19287109375
507,394.13342,-902.12396,292.19662,-3926.355,-82.8958,-1372.6809,7313.0498046875
508,2772.6,7238.0225,5180.023,726.5929,782.48785,2074.1646,5595.7724609375
509,3536.7341,2931.3328,2730.5833,616.674,-479.85123,-1009.58496,2327.60888671875
510,-2026.1237,2054.8362,-551.88855,1855.844,-367.85016,616.0416,4968.7265625
511,-463.47882,1267.4287,767.1274,1282.9794,415.05057,886.6971,3192.80004882813
512,-180300.67,-191895.66,-221959.47,-1045.9167,1361.9142,-764.1705,37382.671875
513,-16555.914,-14462.863,-26255.496,334.9854,81.78829,811.50867,11004.400390625
514,-1069.1775,697.6871,2711.654,-787.7142,-1921.209,-1277.3267,5344.67822265625
515,-56.38462,4464.0776,2560.4143,-1211.4232,-967.728,1223.4313,5211.09912109375
516,-15092.226,-17780.943,-31397.666,353.11316,-369.7612,1129.699,15292.7685546875
517,-1704.1315,1720.6774,-251.51627,665.6935,269.47424,-549.045,3363.94409179688
518,4357.7437,-1196.9558,-7449.9917,1875.8806,38.47243,302.13657,10748.20703125
519,80.6551,-2968.4924,-2025.3076,250.50258,-39.84404,330.49463,2798.51489257813
520,-27518.113,-23702.098,-44627.633,-329.92526,-726.3386,-4.3878713,19351.927734375
521,-3509.6265,-1863.9218,-1219.5367,1808.1504,809.24023,-428.1122,4062.845703125
522,-2443.5935,-1107.6064,1195.8611,651.0925,26.384773,-38.833427,3383.28295898438
523,-5886.007,-1372.3611,-3320.177,3809.795,-2040.1896,1265.3634,8729.798828125
524,-880.1836,-121.98903,-5429.0186,1543.9318,24.54565,-390.787,5685.6650390625
525,-5090.5244,-7264.596,-4744.2715,-5017.8335,-57.71146,847.28876,9126.8232421875
526,2510.4966,2604.007,1677.6185,851.2138,-1533.4797,2218.8499,4977.80810546875
527,-3237.5579,-2143.2175,-2557.7551,2876.8533,-788.85175,1542.0621,5894.51953125
528,-798.2894,-5683.16,239.89421,1252.9141,625.39795,-568.7645,6071.60693359375
529,381.354,1719.7234,1548.0035,-496.73434,-513.1767,-1044.1458,2528.22143554688
530,2640.0757,1573.8752,1156.5474,-1160.6998,-556.2963,-625.2956,2810.5078125
531,5063.0415,5666.9556,1979.3489,626.3586,-349.48248,240.00078,3667.74438476563
532,-182.71442,3709.652,-314.263,1232.491,232.77965,559.22314,4619.27587890625
533,-46.378197,1433.4305,8952.364,-145.20035,-1402.61,488.03668,8748.171875
534,8072.9917,3803.323,5632.7646,1899.5034,-1239.4048,162.8239,5410.9208984375
535,1858.7935,-2514.5422,1839.3949,493.15463,-80.41397,-46.178764,4449.38232421875
536,-932.57697,4164.732,-394.48648,-252.98979,1911.0797,1387.0759,6360.0244140625
537,-4423.422,2409.733,-1104.3035,3285.3865,1386.8951,-888.9406,8692.0
538,-1733.2964,-567.43555,-3891.8955,768.9733,1354.4148,-432.8057,4046.56005859375
539,7541.0244,616.96606,4014.783,1685.9255,396.32275,-74.2356,6706.4033203125
540,-3575.8442,-3413.4895,-1008.7382,-1323.2494,1053.0474,601.5732,3983.08618164063
541,4768.312,871.71515,-1571.887,-1568.2191,-1336.4962,244.10268,6602.40478515625
542,3058.91,-2177.0564,-498.1995,-662.6355,99.68199,-172.48772,4783.2822265625
543,1277.6394,-352.1996,-1012.00946,205.83844,-72.66414,324.55414,2150.82836914063
544,3351.8667,1616.2134,-183.05885,396.26868,-793.919,-289.20657,3462.03930664063
545,3047.2092,1089.1726,-527.64325,1243.2921,293.47543,-1145.3981,4294.7998046875
546,8037.63,11112.985,11999.024,1823.4856,-1.3017704,-1309.586,5299.82177734375
547,-124.07328,2256.5312,-328.97864,-198.71515,-83.03032,-395.00223,2608.50317382813
548,-2768.4155,-3408.9385,-733.5132,-3564.1423,582.5571,226.38626,6718.31103515625
549,10670.037,13261.451,26596.912,579.04156,-393.87247,-464.50195,14873.6748046875
550,265.64145,-714.6265,1624.1132,-1490.8788,-781.8785,-326.51926,3600.005859375
551,-1148.1028,-4647.6304,-8572.3545,-232.12895,-56.75434,184.38737,6454.31201171875
552,-1282.3253,2816.6265,1742.1299,2001.7585,1408.5475,-1057.6598,5905.98828125
553,2243.764,7215.216,4718.7246,1735.7933,635.5366,-1012.58875,5644.7568359375
554,-2792.9014,-978.7126,-527.61884,2043.6572,688.44574,-145.5296,4281.13916015625
555,-574.58356,-2851.1382,-4979.9644,-1543.1233,-102.39925,1445.712,5292.10595703125
556,24607.676,28443.771,47835.41,998.448,-10.992552,-743.4277,21674.607421875
557,3937.7805,4012.5037,8641.094,1936.5125,14.262496,459.37308,5801.65625
558,1404.4734,1723.2722,408.5108,214.31084,-1198.8677,-430.8554,2533.30493164063
559,572.0049,1673.0764,862.8609,-265.88782,388.0638,737.4524,1808.88916015625
560,1230.1635,2458.7988,294.23315,2244.6367,-223.48305,141.36479,4342.85546875
561,-556.5977,-2489.7092,-109.058014,709.74927,261.05276,106.46581,2559.69506835938
562,602.20374,637.7913,139.94003,-1616.5751,-313.72263,-387.6422,2969.41333007813
563,-265.81265,2213.6133,2034.3788,-30.826195,-504.26712,1335.5405,3442.67211914063
564,8338.125,7353.694,14432.892,1255.5809,247.59587,-731.54956,7115.75830078125
565,4762.366,5984.666,1600.0432,-2181.0264,601.52527,399.77774,5585.26611328125
566,-21865.92,-23306.963,-36910.453,-440.50275,529.4586,-1459.5294,14647.4755859375
567,2424.7651,921.91833,1757.7124,1179.1931,830.4286,-1384.0931,3699.79663085938
568,5782.8916,8116.216,14517.064,-2918.7195,-1278.034,-48.256203,9581.982421875
569,-12942.758,-16369.075,-32087.29,5388.624,1285.3054,2409.3604,20546.056640625
570,9471.577,7957.3745,11162.204,997.54956,1268.9624,-226.5475,3959.93237304688
571,-19069.078,-21157.494,-48984.234,-10451.003,818.3961,-762.42535,34179.328125
572,1755.5194,584.681,-2396.877,-1779.5472,1600.2708,1178.2557,5924.4658203125
573,2330.4426,-572.6653,1151.1979,814.2896,-38.337017,-1913.3146,4401.26220703125
574,7387.64,5268.41,5607.0103,-2172.5527,36.869244,2191.3887,5697.26318359375
