Element Label,S11,S22,S33,S12,S13,S23,Mises
1,74724.695,38802.695,72990.09,5611.3535,-429.0796,-7704.474,38783.75390625
2,-69187.36,-76953.94,-111786.9,2708.8152,757.0139,1556.4012,39688.625
3,49568.945,47188.742,64101.344,4360.5464,-9177.231,-1830.0088,23899.8046875
4,-32216.328,-170.67773,6403.3643,-4930.292,-7580.7583,-2252.3333,39260.12109375
5,-55174.53,-57091.543,-67005.09,-1666.5215,-1529.7477,-21034.826,38258.35546875
6,-55964.82,-68089.6,-27861.193,-5253.7144,-4124.474,302.83334,37572.4375
7,45215.22,24509.266,30577.66,16366.162,-7453.986,-6667.278,37993.51953125
8,-46063.406,-67744.01,-83116.055,9834.988,-1739.7269,-2202.0886,36789.01953125
9,96727.03,99655.03,77270.01,-5280.795,-12823.658,10547.316,36808.3671875
10,39172.94,33531.35,19703.033,-1801.84,-12931.801,-6265.066,30500.01953125
11,20963.21,27750.01,28046.932,-618.68024,6675.5054,8791.575,20368.474609375
12,-55265.383,-61035.8,-30506.521,-3542.5547,8976.138,-7009.0693,34869.91796875
13,117131.47,110774.67,149655.61,1519.8307,-1054.5654,-8835.279,39362.8046875
14,-60440.64,-54050.54,-61767.184,-5704.066,11848.628,-1127.853,23951.3046875
15,22530.629,22463.555,21524.248,246.54604,917.2597,-340.4129,2000.97302246094
16,15801.619,6326.7305,17099.293,-4699.2705,1707.5193,777.086,13437.287109375
17,-113266.266,-115177.54,-113342.8,364.35062,-160.14912,66.939445,2000.29772949219
18,50437.29,50738.176,50804.566,14784.874,10608.408,-9311.322,35406.34765625
19,20272.508,21581.885,20454.912,-638.0098,630.8507,-162.14255,2000.71520996094
20,-163650.17,-150281.84,-149244.27,5885.194,-3407.2405,54.181995,18231.912109375
21,42873.55,15683.089,34754.832,17345.578,2893.7185,-2036.4674,39046.80078125
22,3285.1934,3374.5867,3869.7844,29.060654,939.01074,594.0556,2000.9853515625
23,16207.396,23827.2,18012.64,-3575.3633,-2559.7744,996.67566,10418.818359375
24,16009.652,17656.105,16903.203,409.9608,561.6153,414.4437,2000.94506835938
25,9168.508,8665.99,8737.923,80.07763,865.5286,-710.8059,2000.9853515625
26,8415.634,9817.004,8673.276,-665.937,442.9025,-372.32355,2000.98571777344
27,867.7384,-449.67462,825.776,-105.43715,770.67236,410.9583,2000.96850585938
28,1009.9408,515.18134,1949.6835,-861.0368,-31.022676,-247.68147,2000.98193359375
29,-11056.601,-10795.153,-10711.811,236.814,316.8438,-1070.4264,2000.98498535156
30,49292.72,74685.62,88724.49,4934.2305,7460.4194,-1863.9952,38063.2890625
31,-18512.906,-28135.938,-25343.516,-4202.0234,-4755.812,-569.2948,13975.8837890625
32,-24247.434,-31323.264,-48224.85,-1528.8456,-12306.62,-1685.4569,30417.37890625
33,7169.8394,-482.33942,3012.155,1598.7363,-6789.185,5204.134,16468.845703125
34,6035.194,18949.002,22862.975,808.69006,-4627.059,3701.679,18437.140625
35,7217.795,7707.2847,9829.438,5426.2495,-568.414,-3717.361,11685.0361328125
36,2166.4849,12140.848,-17004.797,-6955.659,-7158.241,4813.3906,32040.884765625
37,7871.1323,23191.059,14710.63,-6232.6323,-6694.462,-385.60443,20691.275390625
38,-18436.1,-28164.674,-19746.94,16225.007,-7495.432,-953.56805,32320.82421875
39,13953.982,7410.0103,10941.678,1118.9806,-7433.8325,2717.401,14962.615234375
40,30362.512,52269.418,53396.684,-6514.852,-3235.021,7798.363,29104.08203125
41,-3450.8843,-1541.7842,11145.083,19147.465,-2803.7449,-7917.0938,38733.9921875
42,21396.537,16367.98,23463.85,10745.685,-8459.162,-3992.7314,25472.7890625
43,3123.4216,-6934.671,-9547.033,1555.0175,-17070.928,1297.0641,31950.212890625
44,-4949.732,4355.8784,5981.5425,2262.7432,1607.7794,84.963905,11291.65625
45,338899.0,338849.28,340512.53,-117.32317,650.94147,-42.09262,2000.99011230469
46,-558499.0,-557802.7,-558938.0,108.99001,734.4267,-668.8705,1994.79345703125
47,14045.548,15547.672,15659.336,435.53162,-568.171,84.46719,1998.875
48,97290.22,98165.6,97087.05,-961.4733,281.96585,-47.312984,2000.98718261719
49,-192573.38,-191867.89,-196690.6,584.3906,-7013.4214,-3610.7068,14424.0849609375
50,110607.01,109943.18,108803.664,669.1512,208.4219,-107.61603,2000.98950195313
51,61236.57,63569.242,70323.79,5726.167,634.36163,-5282.27,15814.63671875
52,131834.78,141672.38,129997.35,9233.73,-7555.5796,-9332.6045,28400.1484375
53,92500.74,91747.65,89038.65,3643.777,6255.038,-2844.8425,13835.9375
54,39904.793,40345.758,39963.1,-124.9145,-760.5351,-826.58966,2000.98498535156
55,7631.5376,8229.645,7536.731,691.5721,-672.21814,-513.1331,2000.94702148438
56,29545.115,64277.277,49105.42,-1743.3468,174.2183,-8500.963,33698.14453125
57,-64890.94,-73317.17,-62229.105,-1273.0242,-193.92923,-10071.609,20243.580078125
58,91804.04,107403.59,100685.02,-4050.4475,-11812.487,10250.936,31092.548828125
59,16294.21,8043.189,20487.016,-4689.9746,-893.852,8827.553,20552.748046875
60,1194.907,-15582.677,-2198.603,131.75267,-999.58167,7276.863,19949.337890625
61,6375.835,-2717.712,5114.887,2093.7847,583.23303,-288.02692,9340.0888671875
62,-2137.3762,7135.5195,3633.3416,-271.7856,1756.1444,3774.8455,10862.716796875
63,31640.137,31722.777,32083.865,481.45328,-824.7456,604.17914,1999.53979492188
64,88675.19,90279.01,89288.22,-337.7711,575.28424,483.84845,2000.57666015625
65,67640.18,67582.01,69452.97,-353.79117,146.03014,-237.64903,2000.98767089844
66,-80792.016,-81774.4,-80106.54,422.47403,87.32602,-667.3775,2000.71569824219
67,-82551.57,-82766.266,-82734.12,607.71375,-580.99384,-783.3668,2000.45642089844
68,7263.4834,6473.664,6906.624,148.13556,630.57556,870.4399,2000.25366210938
69,188400.1,186650.56,187211.67,-362.64038,464.97424,-432.01773,1999.26745605469
70,71114.97,68939.164,70110.27,358.63354,54.77788,131.1072,2000.98510742188
71,123178.49,122507.0,122871.66,-410.10913,72.886314,-1023.47546,2000.505859375
72,2914.1636,2871.4,2934.6763,-360.13684,-1000.2032,450.94156,2000.87145996094
73,12571.9375,12545.716,13639.053,644.2232,289.76306,668.226,2000.98486328125
74,11355.882,17791.797,22660.613,-17590.562,-3996.2502,2038.417,32941.171875
75,33244.305,47404.867,44784.46,-15625.112,-1521.6001,2552.6162,30482.904296875
76,846.95105,-385.97766,13305.48,-12261.997,-1775.1761,-3989.8772,26084.025390625
77,35914.824,36853.266,38792.15,789.82825,79.23555,254.92937,2923.14111328125
78,21007.914,38171.156,34703.17,4504.088,-10491.329,-1805.7402,25454.4375
79,17807.955,30651.451,26332.223,-257.6358,-11823.64,955.56915,23462.119140625
80,191509.81,193215.92,193509.94,-135.69582,381.64792,-65.16557,2000.95544433594
81,178882.44,178935.95,178479.36,-989.83734,355.2939,-407.83847,2000.98449707031
82,18060.715,20222.318,19383.312,217.99625,309.78705,-53.008698,2000.44079589844
83,-8920419.0,-8922074.0,-8920057.0,101.99731,225.7533,342.0362,2001.06311035156
84,13581.181,15358.808,15659.445,-134.1007,-101.936935,-211.38847,2000.98474121094
85,-2302.2944,-16527.355,-8349.482,1665.8612,-4628.894,9568.452,22364.48828125
86,27636.64,28217.34,28218.645,-979.4469,-417.02264,297.9373,2000.98559570313
87,26155.428,28266.541,29840.223,4408.436,-3895.5754,-1575.7214,11024.228515625
88,11587.372,9806.313,10856.796,103.04643,435.20645,804.8471,2224.43676757813
89,-1156.7546,-1505.9993,-2023.9331,200.20804,579.52045,876.5425,2000.96850585938
90,-5527.5684,17571.828,12615.845,1759.5396,-5115.804,2877.1072,23585.99609375
91,12252.641,11775.436,12343.367,111.20428,836.79443,-727.2944,2000.97399902344
92,1824.4178,1468.821,1583.269,7454.5654,2379.211,111.1311,13558.373046875
93,4636.9414,3320.4417,4101.854,-788.76355,-316.34088,-417.2277,2000.98547363281
94,63750.266,65915.69,65415.555,-45.57601,76.970276,203.11433,2000.98901367188
95,8230.985,9678.835,8614.989,-552.7852,440.98898,521.545,2000.9755859375
96,114011.53,113839.08,114530.37,-80.23339,191.52068,1077.9883,2000.98352050781
97,176256.45,177858.78,175977.31,-476.43045,274.72595,36.197712,2000.99011230469
98,5736.2744,7286.884,75.40836,3593.7551,-8682.919,-3350.3398,18488.546875
99,5829.265,6081.294,7730.139,-355.96982,125.95799,-355.16403,2000.98217773438
100,37688.21,36473.805,40598.547,4506.951,6111.4717,-2030.7047,14101.01171875
101,108900.25,107593.73,107355.72,-771.0012,-198.80002,-95.606766,2000.98205566406
102,8188.6875,4394.05,3778.0542,-5027.1167,-321.99207,-3650.2554,11541.9248046875
103,-184.58847,763.4322,879.26495,160.26494,910.9973,372.0069,2000.9853515625
104,-2901.7324,-1153.1843,-1376.444,103.78152,470.35486,-443.72842,2000.8955078125
105,8081.856,5928.462,14454.857,-2377.8694,8155.1157,1789.907,16883.947265625
106,3106.738,13843.656,8992.881,3104.4275,5534.7993,1580.8121,14664.2548828125
107,29904.13,12454.375,213.05127,130.4543,-10063.093,744.2883,31200.361328125
108,-2812.795,-8569.574,-13084.118,7096.1885,-699.5212,-5681.65,18135.32421875
109,13121.449,-3316.9897,-2505.4822,11227.357,-8143.5215,-6166.677,30801.560546875
110,18692.244,27287.94,20298.213,3700.9785,-7044.902,3178.2317,16821.052734375
111,-21482.879,-23258.61,-35963.0,4798.348,-577.6055,11744.411,25903.306640625
112,45253.754,45425.23,45986.715,426.1727,-887.4297,467.44107,2000.97924804688
113,92153.63,93408.14,92061.05,628.293,66.44514,-607.7087,2000.9853515625
114,21417.098,21935.648,22392.541,675.22955,-135.2236,-788.8204,2000.98522949219
115,-772.7167,13268.415,30197.035,5073.7876,11418.417,708.75116,34515.3046875
116,6332.275,22262.01,24271.285,108.353264,7454.933,437.97018,21380.82421875
117,-230632.9,-229162.16,-223040.95,-1229.9469,-7027.75,-3731.0244,15591.751953125
118,5481.342,4854.841,5358.165,501.47333,-331.78073,928.93774,2000.98559570313
119,669824.06,670324.75,669794.25,233.5907,-24.41379,-56.60437,664.528137207031
120,12334.246,12283.21,12983.865,862.9455,93.4507,-654.715,2000.98547363281
121,-20298.305,-9187.911,-750.2756,-13354.546,6417.832,2352.8308,31041.662109375
122,15197.061,18498.621,11832.417,-4800.8486,-9965.156,2481.5776,20466.11328125
123,9687.996,-19531.695,23308.656,2415.7168,4601.935,3054.9153,39323.55859375
124,5195.494,-957.9207,14576.573,5078.9453,5264.7603,2332.383,18985.654296875
125,12282.814,13572.76,14059.351,298.69333,634.4967,6.213535,2000.98278808594
126,-26219.273,-3849.9736,11446.866,-3371.5237,4658.5366,-7619.2095,36741.296875
127,5031.1123,3320.5823,3848.722,-685.3785,310.80676,-33.977924,2000.9853515625
128,50610.77,45168.363,57038.516,-209.23747,8038.0464,-2092.0872,17692.103515625
129,1020.46436,2279.3953,2227.7446,610.3533,74.71089,670.088,2000.9853515625
130,62188.645,59802.348,55155.63,6206.525,1926.181,13958.359,27378.37890625
131,-14317.121,686.9614,-28810.45,1054.5543,-7243.7505,6431.699,30618.466796875
132,5870.0483,2611.3906,26873.953,3700.8276,-6624.2656,438.7134,26335.068359375
133,11355.643,11991.353,13750.943,1315.2498,-1.3533679,-2086.2786,4781.86181640625
134,16207.125,16678.137,15867.853,325.15317,932.4388,440.3121,2000.97058105469
135,8320.451,10193.095,9651.151,324.32288,-433.47385,336.18356,2000.9853515625
136,57413.035,58908.465,59248.766,-543.00226,-293.2097,9.594637,2000.93896484375
137,-420900.56,-421222.47,-422094.8,-95.77522,-153.93935,959.15326,2000.98864746094
138,-4562.923,-20709.0,-19218.281,7867.3525,-954.58704,6684.3584,23691.984375
139,306361.34,304732.8,305137.56,382.84787,630.56287,267.47684,2000.99133300781
140,73991.15,75585.0,75891.27,350.52017,-112.25757,370.38483,1985.01220703125
141,21713.309,27338.89,31298.09,-1533.0007,-11181.495,281.71136,21259.376953125
142,5317.5347,-6624.9995,6037.951,-1326.2587,14253.512,1416.9442,27794.505859375
143,829.02496,-1980.8224,603.6267,1508.527,15981.557,-4763.6196,29128.103515625
144,26163.852,27965.777,28182.65,-291.7118,-69.01426,-128.58441,2000.98413085938
145,315678.84,310571.06,312191.9,-1255.7605,-4087.715,-5214.3237,12524.5439453125
146,118516.27,103426.64,126949.48,3108.8452,-3438.3342,4836.5093,23679.2421875
147,32193.281,30213.21,30453.309,125.72525,-364.79822,134.47232,2000.9541015625
148,34527.11,35832.215,34840.16,-502.65692,341.7844,707.7586,2000.98608398438
149,-65868.13,-66491.63,-65854.63,4.3092313,601.98615,916.2175,2000.73315429688
150,4432.3403,3693.1753,4252.184,-186.59879,-576.27203,-905.0896,2000.98559570313
151,109944.6,108441.5,110230.31,88.55129,-137.61763,-619.84314,2000.83837890625
152,-90756.74,-92662.48,-91198.78,479.38443,105.91699,314.14322,2000.98840332031
153,6203.1753,5750.662,6691.9253,-3.1601315,-704.47705,-785.30066,2000.94860839844
154,20971.57,21407.943,21177.863,453.45157,-54.838394,-1376.6576,2540.5498046875
155,14160.984,2738.009,8655.975,3063.4248,-2004.7916,19513.734,35783.72265625
156,5571.824,-2415.7065,4957.9355,-7590.971,3890.6028,4914.57,18708.60546875
157,6937.4185,-11177.867,-3361.4656,-4116.663,-2067.7188,678.8215,17683.689453125
158,-41883.6,-40080.973,-39996.09,-213.47673,346.1723,180.27905,2000.85302734375
159,15436.881,12877.116,12958.418,193.10834,2261.901,3344.59,7441.11572265625
160,-17711.83,-39015.484,-36478.676,1025.4398,-8207.096,-292.37012,24732.93359375
161,8138.596,-1675.3031,4495.6484,2858.2246,5792.631,-1218.3794,14263.85546875
162,12141.681,7238.6123,8871.678,2666.9443,-6436.9277,2152.3484,13350.5673828125
163,13998.56,47629.777,11371.394,435.53995,3491.89,1948.7662,35705.1484375
164,8597.197,11095.966,16420.926,-7274.794,370.23453,3330.4297,15503.5244140625
165,5.7245903,14564.046,-6737.7495,2207.1357,-13340.889,-10575.062,35208.53515625
166,11314.007,5220.6167,14454.106,4665.5913,2560.0305,-140.87671,12294.2060546875
167,13967.29,-3498.2942,4232.172,-910.0077,-13669.444,-6446.7573,30290.544921875
168,13982.937,13568.114,14657.844,-272.89087,-429.10947,-879.5039,2000.984375
169,15225.682,15218.798,29877.326,-2611.862,-138.49718,8052.7427,20732.453125
170,3238.112,-4962.32,18180.287,934.438,4031.594,9416.845,27027.017578125
171,-23498.54,-41033.062,-35326.344,6251.4976,794.3769,15913.09,33448.1328125
172,10158.989,17796.088,16379.256,-483.72058,-1779.3041,5923.127,12843.76171875
173,-24978.672,-24542.701,-15189.494,1382.5076,-1023.05414,12128.262,23278.92578125
174,25428.604,30238.879,24723.236,8083.578,-12019.427,-9970.993,30898.607421875
175,8590.9795,13929.909,24337.252,-929.9728,-11.315156,11023.89,23654.90234375
176,-255181.27,-262948.88,-256863.92,-3496.8179,-9774.515,-12815.878,29430.318359375
177,6887.431,-4399.822,-22593.324,-4499.034,-11846.998,5888.619,35349.19921875
178,-6458.683,7989.239,-17980.742,-2991.535,-4107.778,13938.31,34179.94921875
179,258006.42,257300.34,258140.02,945.006,37.61616,486.44022,2000.98657226563
180,-23938.643,-2564.448,13696.229,-2331.1992,2761.2676,588.81866,33302.28125
181,18521.242,16491.223,17855.434,7.357267,124.6572,498.16006,2000.98645019531
182,-43080.875,-59899.55,-51551.05,-9263.724,4282.865,1900.134,23140.109375
183,111399.266,109897.586,112718.85,-2913.0898,-1937.4856,-2019.5458,7411.71142578125
184,29179.424,30695.756,29059.766,-399.94598,82.61122,-579.80145,2000.96875
185,16000.592,1894.5315,37156.44,-6868.2466,-1918.8567,-2527.9885,33417.26171875
186,437.335,8195.055,14151.565,-5680.4346,4143.383,3936.0017,18348.08984375
187,108713.516,109139.914,108159.42,262.0594,252.39987,979.99927,2000.85949707031
188,-101350.586,-84876.89,-85038.695,6348.6123,2443.1626,-1210.112,20296.751953125
189,-29321.838,-29554.758,-30080.541,-126.68502,-1313.9987,445.67404,2505.38745117188
190,11621.308,13171.551,10998.33,41.020638,150.09485,240.96333,2000.98608398438
191,1488.6593,791.23975,675.9424,-579.5544,34.913494,-896.7605,2000.98559570313
192,-144102.73,-143378.64,-145069.78,63.45197,-629.6052,-461.38815,1999.91198730469
193,7994.3335,7152.7837,9307.725,387.3495,-71.50511,-0.6286135,2000.98608398438
194,125976.305,125620.68,124803.55,-305.61627,-389.41922,-853.23254,2000.98254394531
195,6301.6826,6091.4365,6888.654,1063.2025,-23.79606,181.56519,2000.98522949219
196,26965.959,32604.582,28655.281,567.52106,-2006.27,2158.8835,7221.24365234375
197,754.5689,442.60992,407.87585,-585.77094,1.2360419,-977.2483,2000.94738769531
198,2627.9731,-6750.5195,5362.039,-6137.724,-3892.7805,-1867.4565,17029.7109375
199,-2141.9158,-12087.68,2021.8263,825.3761,-8015.602,10213.869,25795.916015625
200,14300.434,-14676.567,9787.976,12694.974,-1575.3507,-3568.908,35474.14453125
201,7197.809,-10412.635,2319.7644,11219.695,-13916.436,6558.573,36547.359375
202,6522.886,-13680.575,3906.3496,8124.934,-872.2062,15952.599,36413.52734375
203,34765.914,18812.379,9962.268,14615.707,-2150.272,-7768.1123,36191.00390625
204,11680.755,3247.776,-17694.973,5738.0693,-10023.63,-11624.187,38624.921875
205,10440.325,-7393.858,-24280.26,674.33514,-10194.774,717.37036,34915.21484375
206,18480.701,27055.684,871.64276,4443.6196,-16428.639,-135.70538,37464.64453125
207,-5233.836,-9163.537,-7295.521,3787.446,-4604.929,16223.577,30130.6328125
208,-9292.982,3938.89,22748.85,-2611.436,13601.561,2875.4287,37122.2109375
209,3549.8718,17887.14,-8675.877,5205.0947,-9448.311,-7802.798,32589.134765625
210,20040.912,41402.562,47686.543,5665.8315,10495.868,5712.438,33981.39453125
211,25532.596,-1055.9811,1754.5717,-4429.2817,1712.9044,-6566.123,28933.072265625
212,32813.81,10602.846,7201.8003,-10382.889,-2914.428,-2578.7617,30810.376953125
213,-8090.5874,-4660.845,-3104.7534,2332.7036,-11330.189,762.58453,20559.91796875
214,19037.984,14232.791,19842.441,4172.2354,7265.591,-4950.4946,17655.419921875
215,19059.938,12144.21,5978.6836,277.78052,-8658.479,-11099.454,26892.619140625
216,3.9234636,6069.4766,5100.6406,4697.544,-3700.7898,4713.349,14345.3232421875
217,-16603.77,1881.8475,-9542.681,8791.958,-8931.412,5776.596,28850.67578125
218,973.0573,1204.5015,107.22072,-237.29787,-811.2999,-534.4021,2000.9853515625
219,-13213.542,-12338.322,-14167.884,367.60876,-555.26154,232.0535,2000.98413085938
220,3454.2498,2689.8733,2224.561,487.25113,-796.81213,-277.17685,2000.97766113281
221,2197.6733,3919.5603,1985.7604,-292.91687,349.11954,-45.44728,2000.98547363281
222,32481.037,24851.082,33748.15,737.6375,-4124.306,1527.7534,11364.58984375
223,-4819.2676,3167.4526,20915.93,-1902.2042,-2180.4832,-2320.9255,23702.890625
224,20715.953,11003.402,29681.598,-3031.1565,9290.138,-584.89087,23437.271484375
225,21248.668,17433.54,37280.668,6272.651,-1674.0043,-3827.489,22430.75390625
226,4493.7437,19270.871,28710.71,-1591.0004,-12.545011,4464.233,22679.2890625
227,-4820.0967,-17433.857,833.16125,4981.3896,-1608.6249,1176.6436,18674.4296875
228,3568.1118,4215.598,15020.79,3761.1858,1530.9169,3939.8606,14839.3330078125
229,2100.835,8548.265,18825.86,1251.84,4448.9707,-2505.708,17215.673828125
230,15508.706,13578.781,14838.038,-61.17435,327.5676,513.4035,2000.98596191406
231,-223.99664,302.79645,1346.7565,2160.71,1443.6398,-1110.3801,5086.69189453125
232,34668.098,42318.31,40593.234,317.7614,3140.1562,937.2008,8990.2236328125
233,21345.154,21764.488,20398.416,658.1691,-638.3733,-64.98103,2000.98547363281
234,39107.19,39130.008,40045.8,-281.01453,557.73395,811.1181,2000.98449707031
235,-108186.65,-107901.62,-107641.41,1012.9569,-421.81845,-237.06468,2000.93908691406
236,34253.684,34774.418,35982.605,661.02496,329.8104,47.365227,2000.98559570313
237,11265.106,9648.489,10200.837,367.3113,699.89825,-186.1799,2000.97937011719
238,38864.094,40753.94,39021.21,-79.397354,-413.49863,239.99506,2000.98229980469
239,-107038.16,-107914.29,-106295.805,-682.30255,-382.15616,257.78928,2000.79968261719
240,14366.997,14975.794,14594.581,-425.92496,-923.98535,-452.4955,2000.90368652344
241,-16934.05,-17993.54,-16434.871,670.984,242.36201,438.3654,2000.98486328125
242,24939.535,27107.85,25667.518,89.4856,-327.60434,-32.001328,2000.53002929688
243,148646.78,148803.39,149519.81,-494.88733,-685.1275,-635.3489,2000.98205566406
244,8503.593,6994.3154,7592.2314,615.192,-255.49161,559.682,2000.98571777344
245,37494.0,38265.97,38034.133,-905.73157,407.97586,-436.76373,2000.84558105469
246,145661.78,121422.305,137987.33,4308.6367,-8032.414,-1816.9868,26825.009765625
247,-4052.0212,7133.108,-4954.8174,438.82687,11972.249,-8357.125,27859.048828125
248,59833.848,83483.21,83702.375,-7483.0073,2412.6309,-975.1318,27437.65234375
249,-9632.779,16511.283,6556.9834,688.1014,-6444.541,-7338.63,28459.400390625
250,27840.049,28132.158,27499.594,-10911.719,2427.946,-4281.2417,20740.5234375
251,-469.02234,8480.434,-876.4314,-3197.565,5071.968,4281.7656,15708.380859375
252,-18331.385,-16071.322,-46016.066,-3778.2988,5111.927,5999.8057,32608.796875
253,55065.445,32575.715,23960.688,2175.1646,-6633.315,-5320.5234,31699.79296875
254,-45165.434,-52582.41,-70836.58,-9937.108,4836.74,-7273.123,32384.138671875
255,-22570.254,-42949.277,-51803.742,-37.904545,10341.602,-318.25458,31548.46875
256,-49341.96,-63098.14,-45561.535,1778.972,5233.4976,11799.072,27655.837890625
257,-28232.654,-51946.805,-27600.53,-3783.184,8803.74,1028.0138,29263.90625
258,157636.2,159549.12,157652.12,1042.9777,-579.82245,7389.705,13104.3603515625
259,-607590.56,-612800.2,-602724.25,8855.083,-3261.1978,1519.1941,18714.7109375
260,-709885.0,-700675.3,-702137.75,1782.5309,-2893.3838,1054.2357,10557.93359375
261,87761.96,88494.664,88456.67,-736.5101,134.9294,353.21335,1602.09191894531
262,-783979.7,-780518.2,-790554.44,1932.5808,6235.654,-1588.4094,14607.931640625
263,265524.44,263995.34,263490.1,-109.01925,417.83563,-161.86551,2000.99890136719
264,155946.8,158004.34,156472.33,71.08203,-247.26395,-353.90222,2000.67333984375
265,151926.55,152635.81,151984.72,952.331,121.325615,-505.10272,1998.88244628906
266,160682.42,160510.3,160472.17,-265.6823,-779.9146,-802.0255,2000.98449707031
267,13568.188,13524.156,11704.42,378.79935,-172.2515,-173.28735,2000.76745605469
268,-182451.72,-181665.7,-186571.58,2709.7354,291.45862,701.37646,6677.421875
269,-25506.594,-33387.668,-48669.082,176.84233,-3886.4438,-7467.209,25074.921875
270,87261.65,105047.09,88459.34,7828.48,1607.9045,3175.6746,22766.666015625
271,138690.92,126029.19,116148.164,-4684.1943,7203.619,5449.555,26337.4140625
272,10950.682,38502.37,31164.766,1280.2443,-89.97197,-9559.36,29830.48828125
273,93470.89,68951.94,68337.84,2441.3406,-10820.919,-204.31102,31398.974609375
274,-17556.316,5263.6606,-27734.41,-187.52185,-1043.1825,-7315.276,31945.560546875
275,23363.633,56144.07,25948.13,-11245.3,3720.9885,2607.7288,37918.65234375
276,18148.62,35876.79,12844.773,734.97595,-3586.5076,-18888.137,39331.171875
277,8130.2163,21808.041,-9562.308,-649.2101,6802.147,-14315.739,38691.04296875
278,-25204.3,-36956.598,-66283.91,-934.3972,-868.21893,-3143.995,37113.41796875
279,14886.328,25704.44,57409.863,3365.9292,3532.5315,4131.43,39848.328125
280,-12852.778,8218.525,14961.427,-5914.049,4219.633,9667.216,32714.787109375
281,1699.6523,9812.631,-5151.0356,-2528.097,-5820.274,-9442.778,23593.01953125
282,4865.4595,4230.1006,4040.1016,234.3483,-970.25323,389.2355,2000.9853515625
283,14869.68,-2502.4824,-14211.351,3388.7722,-8288.279,-7004.277,32093.857421875
284,12184.681,42563.992,44253.652,-6736.5737,4390.3613,3609.1714,34787.01953125
285,3837.874,30936.627,2197.8447,-6464.722,1602.1212,4606.6094,31276.439453125
286,-99200.8,-99859.45,-98903.38,-840.03674,-537.3955,317.4893,2000.98522949219
287,12700.944,11248.968,11257.695,597.6841,253.85959,-463.06653,2000.98596191406
288,98484.64,91280.625,118299.45,-2434.6562,13211.187,3792.6514,34231.74609375
289,14965.575,15549.461,14567.147,140.37825,-179.19382,1019.1808,2000.98510742188
290,9189.813,8489.999,8064.1895,739.0442,-90.26708,-676.2393,2000.98571777344
291,-47415.793,-48155.04,-48741.297,-825.1703,-204.13298,413.3698,2000.98083496094
292,4630.6343,5232.098,5106.7437,502.44147,-430.96506,892.0633,2000.98522949219
293,7860.8716,-2085.001,13733.765,11078.777,-4202.597,5249.009,26375.783203125
294,36443.105,16934.025,11096.298,2599.3337,1095.6201,-7116.2124,26539.861328125
295,-2294.3071,-2495.7146,-11821.89,628.01373,-10256.772,2245.634,20513.712890625
296,-2204.3,-20240.615,2715.8862,-16320.863,-2161.9016,3133.3186,35788.8984375
297,935.30084,-20155.906,2160.4998,2547.0552,1385.4122,3887.5588,23296.80078125
298,-23648.389,5690.3457,-602.8834,2593.732,-1281.8398,-8389.846,30854.673828125
299,2252.4548,1283.5923,2785.582,-270.49963,430.11716,703.8202,2000.01171875
300,614.1585,2273.9631,4570.8174,1417.9191,10.933837,4543.202,8932.9013671875
301,63640.184,41068.19,60086.625,3108.0986,-4585.833,-9903.666,28778.984375
302,-36443.625,-35561.613,-67167.79,-8138.43,4524.1724,2369.6504,35338.4140625
303,24288.959,23913.639,22290.793,427.5952,-150.43303,-36.015644,2000.96850585938
304,35835.676,19334.152,19267.785,-5282.023,-3589.0684,2021.269,20199.0078125
305,-23833.133,-22615.822,-16037.985,-5735.079,6413.4893,6367.552,19911.45703125
306,-9323.953,-15975.197,5503.1953,998.1162,-9187.171,1494.7167,25012.115234375
307,20378.42,11461.486,16777.803,5618.498,2821.1873,3704.4116,14836.357421875
308,-23656.217,-7549.237,-27746.373,-832.60706,-5252.5806,-7933.423,24813.51171875
309,-18757.389,160.8753,6118.915,3084.951,-5449.9907,-16286.608,37676.69921875
310,-19250.9,-38602.53,-47150.902,9472.078,-6291.0195,-12338.885,38178.8046875
311,6858.047,-7071.321,-31243.35,8024.7554,4604.0293,4964.223,38022.71875
312,20094.576,20792.709,21630.484,-375.75354,-541.09924,-556.1396,2000.98645019531
313,102565.82,101921.12,102454.19,-419.88876,-268.66748,-983.5896,2000.98620605469
314,-95535.67,-96102.72,-94752.86,-918.06055,175.63336,38.739586,2000.94421386719
315,103209.27,103765.87,103134.9,548.86664,885.7505,354.40262,1997.73718261719
316,231297.27,226280.81,234510.28,454.0342,-189.56366,-4652.297,10828.853515625
317,-117056.46,-87809.15,-83123.94,1791.6816,-4054.6455,-3817.761,33422.4921875
318,2166.3137,1083.863,3160.1533,-230.42818,439.19644,101.277596,2000.9853515625
319,138440.55,137437.28,136360.48,391.01224,235.10982,-210.62825,2000.98498535156
320,19159.72,16201.963,-15929.936,-2306.2334,-6805.6377,-7428.5815,38166.78125
321,30280.67,30919.736,32086.73,600.9937,-216.7152,296.31393,2000.9873046875
322,3923.4746,1477.98,9529.264,-4856.9014,-74.486206,4197.4746,13219.521484375
323,18434.215,13359.125,-3416.4556,6259.003,-5442.726,1224.1033,24560.224609375
324,30865.62,8930.718,46047.26,2859.1814,-2992.5022,-3584.8262,33683.421875
325,7632.0728,-21813.047,16227.7,8315.858,1376.4562,1631.0625,37618.14453125
326,32353.328,23496.797,32007.283,-7123.6704,-8617.622,-3455.872,22053.40234375
327,46602.96,36576.234,39823.746,3464.3525,-9836.237,-7504.8027,23952.990234375
328,-811.60535,1088.9575,511.09055,-37.696053,-605.65216,-130.9445,2000.98547363281
329,4592.463,6205.0757,5411.7275,0.04823183,-567.52496,-601.97784,2000.98571777344
330,-2808.1428,-5637.7656,16009.487,3444.8296,2032.6066,1725.9608,21732.201171875
331,26822.795,28379.262,26243.518,-103.899826,321.7545,20.061987,2000.98681640625
332,45020.91,44941.297,45791.637,718.3302,-30.204792,-757.7152,1983.64489746094
333,81544.32,82310.41,82437.28,-301.15866,-1003.1259,23.218271,1998.16760253906
334,39312.855,32775.95,28290.666,-709.85144,-4157.215,-1372.4357,12295.466796875
335,29738.984,37141.75,25528.227,3131.869,4280.5386,618.67255,13756.6630859375
336,-11803.632,-9602.5205,12305.859,10750.707,3813.908,2187.7012,30623.091796875
337,-337580.2,-334895.12,-333654.1,4616.607,-2172.6782,992.81616,9650.8955078125
338,-78585850.0,-78584940.0,-78585910.0,357.59906,817.62006,496.62775,2002.05505371094
339,156308.31,154877.94,155876.14,-358.89722,-696.3931,-427.41745,2000.986328125
340,145218.64,161725.25,149203.17,2913.0942,-518.86633,3636.5862,16985.6953125
341,-17675.955,14728.43,16675.543,-7638.956,546.948,-2065.8262,36134.35546875
342,-9311.846,-4029.1287,18067.285,-955.0568,4400.2563,11738.134,33272.54296875
343,-17190.342,-9478.607,-8028.931,1837.3318,-3459.656,-1091.8334,11061.79296875
344,30697.89,29501.53,29987.635,-514.0387,-812.8905,-218.17918,2000.97680664063
345,28031.572,28047.15,26220.99,-320.63116,286.865,216.78836,2000.73352050781
346,28715.4,29634.33,28308.455,924.05676,-112.346634,-82.55821,2000.98620605469
347,31828.596,33172.65,32527.033,788.50836,507.79608,-56.496284,2000.98425292969
348,-1645.1067,929.01904,8976.561,3017.4346,-6364.791,3966.6226,16975.07421875
349,25687.29,9184.343,24749.342,-1952.2367,3048.8457,981.2748,17319.26171875
350,7052.1226,-3931.8682,13754.909,-13342.823,-11656.026,-2532.5623,34642.77734375
351,33154.46,31788.643,31866.32,-316.5807,203.02629,-777.6487,2000.98522949219
352,50015.652,50710.977,49159.203,-363.34857,77.92684,-769.66876,2000.98608398438
353,-5368.6533,23859.256,-2208.799,5773.3555,-4632.7974,-2077.5981,30809.609375
354,-4419.867,-2644.3142,-3372.8638,172.55391,-3513.5771,1369.4963,6718.7314453125
355,36224.234,9035.321,6255.914,-13927.853,3991.1938,6659.834,39816.26953125
356,22217.266,21954.773,22737.516,-327.7718,-740.5764,-721.1466,2000.98583984375
357,18096.684,17281.33,17847.473,-188.71562,519.7412,-924.2973,2000.98034667969
358,26883.533,26958.398,25722.6,-286.94064,-876.97003,55.95645,2000.97790527344
359,4477.266,2734.5417,-8016.2812,-13285.928,5299.6865,6126.1094,29389.595703125
360,-4477.33,5968.5107,14138.323,-16348.77,-6868.5073,-10408.827,39110.21484375
361,-62968.93,-49459.26,-49471.93,-4082.4578,-2023.5963,1381.697,15822.50390625
362,197345.28,226902.17,224941.08,5411.5146,9041.62,7402.9517,36290.62109375
363,-9159.016,-13287.866,-14478.987,563.22864,5893.964,3955.8625,13247.595703125
364,-75574.03,-75606.734,-111996.84,95.244064,-3667.9084,-1641.5157,37066.1953125
365,764.0286,996.1738,1505.1926,-308.58566,-859.72375,597.1417,2000.9853515625
366,1563.3875,-11735.671,9509.478,-1769.4429,2894.5454,1897.6051,19774.009765625
367,26331.588,25578.357,41586.31,2210.741,4648.1006,6289.009,21045.087890625
368,59447.113,55716.875,64370.29,7745.529,-2431.4514,6753.35,19775.12890625
369,-27164.662,-40633.906,-46213.71,3127.954,-15892.218,12553.358,39338.41796875
370,31705.703,54381.312,55931.617,-1760.2545,-1513.4175,-6391.535,26276.658203125
371,-5442.7217,-13877.48,-41806.285,-2624.773,7888.585,-5115.818,37048.73046875
372,-6828.7783,-3313.4614,-1258.8186,4016.6926,-556.3771,6548.8896,14205.482421875
373,3754.9978,3201.5303,4956.755,712.40424,-659.9926,4688.4697,8437.431640625
374,2361.0767,1481.7175,-2645.3542,-1292.4052,2789.4143,-1264.6401,7388.27099609375
375,-1018.69824,-6188.447,-3115.1091,-3328.02,-84.60424,-4802.723,11078.375
376,4619.016,-22173.736,19865.23,-7644.4775,1384.1686,-3942.1848,39830.52734375
377,-16926.516,-14201.771,20507.379,1450.1753,-4071.062,-372.9335,36921.12890625
378,-6855.248,8545.412,-4866.0605,9385.037,-107.00152,-6207.945,24297.927734375
379,5321.025,-4105.8906,5545.1543,3496.5771,-2226.6392,-5014.4785,14765.3896484375
380,276419.28,290026.28,289107.2,-15286.1045,5514.4927,-14363.349,39807.4140625
381,-120139.39,-107610.33,-150006.78,1195.6246,4147.3926,2404.3794,38684.40625
382,-44247.055,-40601.016,-42678.574,4294.277,-2516.592,9234.999,18444.857421875
383,8999.189,8437.868,9002.439,26.550856,-329.48492,1058.1796,2000.98583984375
384,54656.42,43154.47,69467.34,1758.528,-414.06186,9666.629,28497.994140625
385,24195.314,36814.73,14187.965,2655.0945,-6703.567,-6469.6045,25830.46484375
386,6067.668,15010.891,12892.259,-977.99896,-1715.7185,539.7812,8837.2529296875
387,44407.125,45185.008,43967.055,-265.54425,5254.5825,-1152.1929,9389.73828125
388,4824.172,7702.753,9325.998,1818.5338,-7001.103,2419.297,13788.412109375
389,-14129.868,-13605.579,-13143.442,-283.25128,-991.19836,168.40556,2000.98486328125
390,14996.685,15610.34,14557.498,-322.39847,-1187.3463,538.87225,2500.26245117188
391,3945.952,-2285.8674,-3519.0725,-354.38995,6980.973,-6834.837,18296.58984375
392,-8007.1626,-7423.6323,-13237.082,-545.816,-1036.6128,2391.3582,7212.3232421875
393,24747.03,31080.275,55421.164,8721.764,4575.594,2192.0537,33048.09765625
394,-11410.631,-38137.688,-33429.516,168.62576,3241.7073,-4865.5513,26707.65625
395,24186.582,16273.794,174.76057,11269.686,-8884.208,-1520.4618,32770.71484375
396,-4815.874,-21831.748,-25777.398,-942.81836,8680.518,-4459.063,25702.478515625
397,1323.7328,135.80167,-199.84091,-340.69235,-108.95957,752.2313,2000.9853515625
398,-4787.6187,-4873.458,-5432.1895,-31.257957,1039.7684,-360.61902,2000.98352050781
399,2332.9094,2576.9502,3072.0547,-237.16788,-777.0105,-729.93317,2000.97448730469
400,-11147.311,-19297.816,-37117.258,9350.13,3415.2295,-8664.359,32429.619140625
401,324288.94,306017.06,346594.06,-7650.485,-4816.4927,4876.0566,39439.19140625
402,-50130.3,-52257.637,-89046.02,5801.324,-658.6538,-2001.226,39375.80859375
403,23772.615,13085.263,35754.156,-4316.4385,-5065.8022,12798.795,31782.654296875
404,-41146.008,-3612.0127,-1305.0654,4227.4414,55.56406,2501.1099,39662.33984375
405,25962.477,50901.973,61009.055,6887.732,2146.1672,8710.249,36877.40625
406,-40222.336,-62871.438,-72654.516,-11991.401,6506.3677,-2341.5747,37484.62109375
407,15057.898,37166.996,20873.328,-1279.3805,-5335.399,514.0826,22026.353515625
408,-25012.729,-23345.564,-52102.145,-6066.808,-2598.5688,-4894.4375,31373.892578125
409,-26986.367,-34695.0,-254.98438,-4629.5913,-6180.581,-4528.724,34935.34765625
410,-67757.125,-68149.88,-69035.23,307.27377,-590.1618,680.68396,2000.98327636719
411,-4125.282,-20400.977,-23075.861,2662.4824,5190.776,-7289.691,24023.041015625
412,6634.551,6222.041,5091.791,51.28178,-530.6563,642.2338,2000.98461914063
413,22051.803,10980.393,42766.95,7014.723,-707.6042,-5726.015,32070.58203125
414,110210.55,104314.625,96122.43,4399.112,8540.681,-1192.7811,20768.458984375
415,10499.677,33643.004,28290.133,7754.8125,-1898.6191,-5779.168,27051.904296875
416,-158678.08,-163512.22,-171900.12,-2638.9414,8013.657,1498.0281,18829.62109375
417,-39091.402,-30108.182,-14805.428,14002.953,1532.6989,10927.763,37495.12109375
418,14063.968,13859.832,13970.728,262.66528,-232.44383,1095.9817,2000.98193359375
419,298597.7,276320.3,303562.6,763.15265,15623.673,-2163.9958,37143.37109375
420,12436.733,-7466.5376,14427.1455,-979.4902,424.8586,7757.058,24973.048828125
421,-21382.182,-21852.646,-21028.586,371.9879,8559.896,-4722.692,16960.388671875
422,-13927.813,-7468.174,-15425.619,15556.561,2442.27,8682.592,31995.650390625
423,43232.773,48202.883,31470.355,-6239.9004,15648.43,-1617.7527,32875.484375
424,44531.5,10065.106,7382.7725,4351.8174,2017.9508,2866.3367,37165.26171875
425,17794.797,14554.039,-8448.469,351.20047,8342.18,455.6427,28704.21875
426,-15887.143,-32318.14,-10331.86,-12326.059,-1942.5022,1215.5646,29388.189453125
427,28425.232,27854.508,27556.842,173.76353,-272.1016,-1017.6808,2000.98449707031
428,-32803.664,-25107.695,-15257.976,14638.493,8663.401,5706.7065,34608.77734375
429,-14589.25,1428.7343,21260.402,-9140.269,-3688.2568,3039.2312,35870.4375
430,-69923.9,-70278.61,-70460.375,258.75348,1036.3262,345.34656,2000.97509765625
431,23137.535,23467.346,20573.385,-372.42404,584.51855,1301.0544,3748.15161132813
432,-9464.322,25968.896,11399.619,61.368484,-4302.211,-1818.4175,31890.41796875
433,33156.074,40329.234,45985.543,-706.34753,-2573.6392,4155.6826,14042.734375
434,-6022.1953,-33494.3,-16266.393,3700.2173,-388.50992,-1005.05505,24955.73046875
435,44794.715,25672.645,40189.4,-463.25705,13364.127,8607.685,32519.525390625
436,65829.73,49719.324,60121.24,-7687.4033,-11505.117,-9112.0625,31994.4765625
437,-13681.778,-7529.689,-4954.53,4372.502,11622.454,-20.4263,22867.53515625
438,31667.41,28718.807,46632.254,-6086.24,-14624.255,7475.318,34599.72265625
439,-105861.4,-102452.42,-131064.51,-16394.334,3849.915,2509.5515,40030.19140625
440,11061.004,-4727.708,-19284.635,9018.881,7138.48,3291.7458,33472.73046875
441,11914.064,13001.826,-206.11426,-5466.436,7781.8677,-1878.1564,21051.517578125
442,-57910.03,-48081.51,-43595.285,-4978.909,-5071.8184,8872.65,23420.705078125
443,62336.85,67211.76,98758.23,-1832.3562,-5762.0796,-2759.2876,36128.2265625
444,-16978.025,-28891.262,-35326.027,10820.953,-5849.186,-1892.6227,26919.404296875
445,-7487.3296,2148.6519,-1480.741,-5177.4927,1116.9952,4302.9194,14517.560546875
446,-93567.38,-114506.76,-134996.03,9121.949,84.8006,-3799.6523,39752.53125
447,-9875.598,-7468.838,-22160.174,3608.0762,4545.166,-861.49036,17015.46484375
448,-5138.7544,-3339.469,-13278.179,2750.1558,-713.9099,4433.5005,12935.2099609375
449,-26958.498,-28232.256,-8990.624,7813.9146,-4100.8936,2489.491,24486.12109375
450,-115154.42,-114306.69,-114776.87,128.44844,379.6663,-996.80676,2000.98547363281
451,8380.363,-12226.453,7493.902,-1952.9155,1422.3689,-5257.4316,22529.810546875
452,-17271.844,-3599.6167,-89.33664,5871.006,-1494.6144,2055.9963,19236.275390625
453,-22208.004,-13772.826,-28445.89,8841.352,5663.734,-9489.127,27632.478515625
454,82446.99,62979.01,68441.52,-7630.5967,2560.6294,-6747.5107,25168.08203125
455,16352.516,-15306.479,7301.0703,-2471.3533,-231.1396,-5607.5933,30174.1484375
456,17892.816,1893.987,-10923.658,-15381.55,-66.66653,-3157.452,36946.17578125
457,-40078.258,-57137.992,-82249.87,1093.2333,554.72833,-3398.6707,37272.03125
458,33339.797,21122.768,59100.363,7672.0933,-4135.881,3877.562,37424.41015625
459,18590.559,14257.919,15358.364,5091.699,-4387.4365,-1011.99774,12402.109375
460,-11472.115,-16098.344,-18984.332,5259.9565,-4035.0625,2951.095,14179.4091796875
461,-7140.02,-11312.366,-20018.32,-8952.134,-5615.132,5018.991,23240.232421875
462,-6329.2417,-15403.836,-4648.71,-12969.278,-1164.6462,2658.7786,25105.888671875
463,2101.9023,-19718.277,-6964.495,5327.434,3022.6755,4605.75,23166.41015625
464,37034.85,40811.242,67289.086,-7341.546,7407.4033,379.317,33794.4296875
465,30606.809,-1021.03125,-3872.954,4240.673,519.16534,-4593.79,34881.53125
466,18589.752,21358.91,22095.453,235.34636,6349.2363,9031.24,19391.875
467,5942.746,13524.53,9897.405,5945.581,967.3359,-3181.6206,13504.2421875
468,-26662.213,-35172.766,-54808.05,-598.51855,-9334.335,4246.759,30686.31640625
469,-26614.074,-1674.6914,-34097.895,-11524.634,-7923.571,-7091.434,40028.58984375
470,3441.525,3209.754,2880.8103,222.45215,983.41486,-488.53546,2000.98254394531
471,-1721.2129,-7379.859,18196.486,-7088.23,4722.6323,3968.813,28396.046875
472,34719.85,62163.555,32799.633,-7814.5713,-617.947,146.8024,31527.048828125
473,-9575.582,-12988.467,-31522.773,7362.031,3663.4902,5412.254,26630.119140625
474,-116938.31,-119968.7,-155361.52,4853.1714,-3866.9768,3927.6123,39126.5546875
475,7691.3726,36726.094,21520.72,2952.9792,6568.075,-11298.306,34223.8046875
476,-107191.805,-106549.42,-135589.72,12975.146,-5326.5054,-7497.997,39798.67578125
477,-46903.473,-41704.016,-35058.59,-5424.563,1075.7661,-1114.8647,14185.4453125
478,-2284.6333,-2021.6313,-7512.3403,-732.92993,943.36066,2996.3877,7745.27978515625
479,3447.2124,7909.955,3805.046,-5580.632,1005.3934,-748.10406,10797.6376953125
480,17518.15,15334.112,17241.043,593.5459,1089.2561,-5269.9204,9600.7353515625
481,15567.825,24812.44,26737.904,-2114.6792,4583.8965,341.49783,13556.263671875
482,12000.689,1062.8887,-26455.05,-1719.4124,-2738.879,-9583.664,38532.734375
483,-16954.178,-14838.943,-15492.522,10881.486,3107.454,-1683.6537,19905.07421875
484,628.62146,-560.7649,-6123.126,7171.6567,4753.1084,4323.5215,17807.9453125
485,-21357.902,-22533.549,-29147.174,5877.119,685.0498,-1009.2219,12687.888671875
486,44483.66,34548.934,71643.48,521.1196,-3393.866,-5340.374,35030.10546875
487,10992.827,14644.2,24621.398,3555.23,8351.552,-8027.894,24286.064453125
488,7916.9854,517.6162,39932.645,-4855.0605,1701.8792,1621.9431,37469.25390625
489,10628.88,-2254.6733,-3600.4795,-717.4528,-3102.0195,8339.646,20596.0390625
490,28894.041,16027.02,55466.016,9151.668,-1003.0608,-882.8703,38342.5078125
491,4860.5664,2351.944,9531.66,1814.9026,-3077.4556,-4112.6924,11351.953125
492,-26119.957,-41593.996,-20553.812,-5478.7505,1220.6814,5249.003,23102.705078125
493,4174.921,2100.7878,7018.004,2598.6184,-1259.4962,-3594.655,9058.9267578125
494,-48430.266,-48995.504,-49922.91,4483.156,-3398.8774,9639.542,19375.73828125
495,25661.2,12820.869,-2992.6562,7086.464,5865.379,-3172.621,30034.1640625
496,3003.736,5807.4307,-12277.145,269.1118,-6231.4463,6462.584,22939.353515625
497,-6179.64,-4172.0044,9979.775,-7941.842,-2140.486,1023.6008,20948.078125
498,27873.314,30855.088,535.875,4439.8228,5399.618,5213.3433,32647.8359375
499,1297.6006,-5527.1816,-23229.482,1709.699,2516.5017,-1067.611,22626.3203125
500,17448.871,14123.58,15764.471,-11713.83,-107.70421,3675.1792,21459.046875
501,-18439.148,6588.5547,-19461.355,-3593.783,843.6353,1544.6046,26477.400390625
502,-24117.365,-33102.906,-41637.285,-4727.776,8663.942,12171.676,31095.947265625
503,1008.4679,876.9475,6181.8003,-1097.6757,83.28461,1683.3994,6292.6982421875
504,-40321.54,-26210.61,-48129.47,10952.521,-11048.083,1349.878,33193.0625
505,-2588.7246,-19804.148,-38689.934,-3155.331,5481.1978,-2059.485,33330.07421875
506,60089.688,73690.87,40593.1,10999.18,-6368.2397,1273.5682,36328.51171875
507,-14153.568,-19859.14,-18997.076,910.4769,-373.0273,-3965.3635,8857.47265625
508,-3345.2883,-11539.41,-4704.034,-1877.3982,2704.8608,-523.9028,9549.984375
509,-4382.8125,-14613.527,9882.935,-1833.0238,-4946.629,-3043.7659,23778.32421875
510,-127603.84,-125822.266,-164886.56,4307.2905,-646.0393,-832.8064,38969.06640625
511,-6418.9526,3656.901,-6838.4976,6884.998,-3624.6157,-3551.8176,18038.720703125
512,-5692.0557,-3856.5693,-5540.926,-1268.6617,610.9878,2951.332,5932.4501953125
513,8812.498,14950.598,1737.6187,8245.408,-2715.195,-3196.977,19695.06640625
514,2714.8308,-6455.535,9866.104,3378.72,4802.9844,5578.0176,19940.21484375
515,2251.7632,-1561.5051,-2565.3838,563.3572,3539.6553,1180.8706,7880.3427734375
516,-17608.87,-34320.45,-33775.797,-14097.967,-6823.1274,-2780.5276,32087.205078125
517,-8811.854,14506.473,6444.133,-14302.438,-3843.8394,2954.4238,33240.57421875
518,-148351.53,-150984.1,-186786.64,-2019.6218,1954.9482,-361.86124,37511.33203125
519,-1934.271,1828.0034,-10994.324,-4111.9336,4421.303,-5258.998,17962.8671875
520,-5278.438,20492.193,38057.63,-7853.119,232.90642,350.3994,40135.8671875
521,-7769.284,-35717.68,-6155.884,-5808.4346,-3067.023,10632.839,36019.625
522,-207.831,4194.4473,-6459.727,-2716.0068,3394.1677,4101.9727,13898.150390625
523,-23485.105,1765.1113,-34657.855,-3205.327,7617.85,-499.02625,35357.921875
524,1879.0773,115.34497,8341.271,134.736,828.0596,862.979,7785.4990234375
525,-14622.771,6417.615,5835.9937,-14746.383,4088.676,710.9087,33687.296875
526,-19228.707,-22284.043,-31770.518,536.3785,572.83594,226.53456,11415.521484375
527,-11323.916,-265.79053,-8665.949,673.28613,-4146.263,1407.6505,12602.9228515625
528,59991.68,24977.477,40807.383,8062.1357,1379.7971,10525.615,38149.4453125
529,-4433.0117,950.08606,-520.2794,2440.6482,-6276.3804,-4616.5093,14940.220703125
530,-58647.19,-61560.168,-27824.996,-8042.9453,1697.3695,-1829.2274,35510.92578125
531,8245.444,-173.02197,8696.833,3645.784,1323.635,-209.63324,10960.7216796875
532,45649.35,30915.518,29576.025,15680.974,3528.161,6641.8247,33852.328125
533,22457.773,11003.381,20157.328,4283.8325,-1020.1904,1607.8922,13269.3984375
534,-2222.4778,-8700.561,-1625.8298,1525.3727,-66.17956,-701.8636,7393.1005859375
535,-4289.313,-11138.695,-11294.628,6207.9087,-3693.6985,-3554.2844,15570.80078125
536,-4342.147,-9223.289,-4387.4146,1451.1682,474.49054,1717.4738,6280.833984375
537,3627.2324,8208.035,2124.746,-367.7892,-1131.3162,3522.804,8461.66015625
538,-287.48926,16248.635,9608.124,-1248.7937,1002.1404,-4961.5605,17008.05859375
539,4534.024,8763.2705,1835.8896,1880.2239,-2800.847,3334.0022,10201.185546875
540,-12224.26,2170.124,-15994.354,5264.025,-9152.906,4131.2964,25716.529296875
541,23513.475,28372.89,29746.467,3839.4595,-1914.5675,2527.5552,10322.890625
542,15534.197,-3705.9893,26037.963,-1013.37726,-12217.734,-5354.9272,34921.82421875
543,13095.178,17877.309,31677.957,676.72003,771.10956,1074.922,16909.974609375
544,4277.1064,-4543.5044,-5020.353,3052.2886,-2322.0552,-1928.1271,11726.673828125
545,18450.135,16697.736,18835.637,723.98773,1066.6409,-2056.7385,4644.48388671875
546,8128.705,13917.77,27759.54,-5589.078,-759.1486,-5287.3022,22012.4453125
547,10315.516,5958.8486,7906.384,5949.3794,5821.8965,-1387.3933,15097.419921875
548,24744.797,19869.229,2977.5732,6725.4995,4979.8823,1286.5205,24627.5390625
549,262.7295,-8432.9795,-15886.95,-554.05365,1895.2609,2442.1152,15019.4326171875
550,-21874.174,14866.633,-10137.229,4154.296,-892.8983,-5919.87,34867.16015625
551,5825.556,3953.959,6442.859,5131.2227,-1201.0995,-1016.4602,9563.216796875
552,-3336.7131,-454.04294,2754.4556,8867.572,1471.5508,3584.6252,17572.701171875
553,2105.127,1442.1633,2307.964,1967.8079,3817.3877,-2703.528,8824.7646484375
554,8208.322,12480.35,12376.449,-5737.69,-2081.9185,188.53494,11388.16015625
555,-4336.8105,-10832.973,-19098.953,-4310.02,260.31256,727.12024,14891.0009765625
556,7207.4478,5915.557,15336.189,4451.863,-2854.0945,-2057.411,13222.7265625
557,11817.796,6766.2725,-10316.089,-17256.88,-3095.4834,-3154.3716,36818.6484375
558,14188.273,6053.573,11831.358,3498.2065,-1042.2522,-1855.6439,10141.84765625
559,-8801.279,-3114.0176,6106.984,-10713.146,1871.0026,4391.547,24134.779296875
560,-8100.294,-11851.232,-19317.617,963.9976,-2767.837,-1776.1874,11535.0576171875
561,7779.8896,5959.6475,12576.961,1922.7039,3864.2874,-2213.0688,10278.0615234375
562,12261.031,5412.3457,21839.129,5444.604,-4816.8477,2078.2122,19383.91015625
563,1448.259,-12692.998,4163.414,3089.401,151.6355,-2628.0098,17180.349609375
564,8086.935,16404.078,15812.096,6502.9395,-1864.3551,2448.051,14828.1044921875
565,-5996.4785,-3603.0762,-13930.343,-1844.645,841.1458,-5418.445,13713.9658203125
566,2350.14,5267.9253,6048.4316,-1172.4373,-3616.7397,-1391.4474,7782.970703125
567,-6195.9443,261.80566,-32463.541,5362.809,-923.7197,2080.4514,31672.423828125
568,-2236.719,1266.7219,-3534.074,1547.5195,-766.9181,-3052.4834,7443.4091796875
569,9893.659,12850.371,13900.296,1017.4128,-3419.107,2891.6077,8729.7919921875
570,22443.209,23828.621,16901.777,5582.4507,-4889.1733,3287.2341,15424.818359375
571,7700.176,3073.0693,14977.793,1189.0966,-7607.298,-2772.9453,17577.55859375
572,-1197.9298,4033.5059,-458.1178,-1210.7084,3500.3447,2095.7014,8852.99609375
573,-11396.8955,-36259.887,-16319.091,-817.45294,9023.363,-134.26811,27682.80859375
574,15252.207,28616.92,21923.93,3075.8647,-6024.209,-3770.1147,17716.072265625
575,-16672.75,3682.8066,-9653.279,9756.881,4508.297,377.03613,25840.419921875
576,7887.8545,-3492.0703,9626.165,5130.9595,-4460.209,-4973.4053,19109.451171875
577,-13079.549,10342.4795,-23175.709,-8087.934,-5226.8765,4317.629,34944.625
578,-5143.813,5282.8154,4006.9646,-13881.806,-5961.8604,9147.0205,32137.025390625
579,-8169.4775,-8957.205,-8420.892,-224.87112,2573.6147,-7210.4297,13284.5302734375
