Element Label,S11,S22,S33,S12,S13,S23,Mises
1,1688.9277,1408.3485,758.03436,131.14914,-83.20649,111.3919,890.894226074219
2,-505.4452,739.24927,-1936.3817,193.12497,-545.203,-48.519657,2527.57104492188
3,1815.583,1836.1523,2608.277,37.18898,1113.6158,-594.73505,2323.39868164063
4,610.7541,1571.5664,-3759.395,18.498098,-2111.0073,1568.027,6705.7041015625
5,1398.6084,3806.7637,4323.8535,2017.1427,1573.3613,-2306.109,6549.75048828125
6,-285.52866,1486.0022,-5275.5073,-416.63513,-758.694,-803.16046,6407.87890625
7,6441.7314,2372.587,6959.6265,742.5831,1838.0706,-214.32959,5555.28173828125
8,-5034.7466,276.73367,-6981.957,253.64476,-2538.2917,904.82806,8020.220703125
9,7866.055,2116.4553,8180.8745,812.9331,5750.038,-1076.4006,11815.8544921875
10,-3627.6353,-1063.5917,-6226.458,360.4104,-4421.409,1375.2333,9203.35546875
11,-138.0611,1263.0951,-2743.035,669.1302,931.9619,288.3357,4073.98828125
12,5682.3306,1476.1448,2365.0627,-315.79837,-1693.3657,5.336396,4862.607421875
13,-1910.7394,1633.7972,-3051.7888,1152.4945,2347.7559,578.342,6279.6708984375
14,5200.292,-1133.6835,1745.1327,-1213.8439,-4093.1182,-818.1666,9319.9658203125
15,-1665.2347,2630.6755,-2201.924,307.41458,3516.7073,1024.2288,7847.34228515625
16,6269.1816,-2826.986,9356.71,2057.0388,1140.8082,1301.9928,11918.1328125
17,1360.0032,2814.9478,350.26117,-195.49979,491.6033,-1701.8048,3759.47631835938
18,1768.8413,-1970.6355,8121.5537,-767.05835,-3832.5256,-2174.2708,11751.966796875
19,-6129.1055,-5944.7573,-17609.324,-1207.945,-10076.466,-1953.5842,21316.146484375
20,1282.1931,2518.1765,-2161.753,-626.54004,-271.27274,1165.0142,4807.8349609375
21,127.689896,510.8827,1999.1694,-1470.3699,1695.9205,776.40015,4455.88671875
22,-403.92548,1646.9221,6797.575,1721.4204,-258.30786,504.31036,7152.02294921875
23,-982.82324,-1282.825,-13279.432,667.91315,-792.02185,-632.0585,12329.8935546875
24,-2275.2126,1768.5103,-14687.756,1016.8648,-1869.4285,1643.0787,15566.029296875
25,-776.2462,-2096.9844,-14264.53,1297.0723,251.56628,2078.8525,13567.0791015625
26,11393.628,11413.798,19290.203,3325.6157,-1044.4635,-2619.945,10919.763671875
27,4677.008,-7228.238,-6167.34,-562.2377,823.8454,1367.8535,11782.5166015625
28,-7571.4497,1519.8854,-935.3702,-2932.0107,-265.68698,-1586.8857,9995.77734375
29,-413.21036,-1005.73773,-5856.4536,701.9443,-1200.573,1391.226,6193.83154296875
30,-203.28285,244.48546,2791.495,202.5153,53.25545,-1299.0416,3608.64208984375
31,-502.57764,1087.0089,2509.4727,482.86804,-428.11795,-607.6682,3027.94311523438
32,17.965425,308.38806,975.5046,119.146736,93.21567,314.5849,1043.39916992188
33,1843.997,154.98734,2904.6982,-1056.7839,-784.92676,-1308.5966,4013.14819335938
34,562.1431,1031.7902,-289.71878,-61.30567,125.68924,-863.0253,1907.72595214844
35,1622.692,1556.1062,1122.2484,164.3977,32.56853,547.6564,1097.99792480469
36,397.06296,1341.5775,795.41394,-108.53518,798.31915,-824.2515,2158.7021484375
37,-396.84036,-877.11163,-924.09045,478.6799,956.5443,324.4625,2000.89782714844
38,587.3629,1643.4253,1099.7736,119.491394,-934.14355,770.82623,2297.80786132813
39,-293.66257,897.59283,1993.66,-359.37766,1575.4165,1532.813,4336.81494140625
40,1108.3223,762.0686,-1260.5795,-650.37634,-337.4719,-760.1033,2873.19458007813
41,1815.6272,876.4713,2079.646,-1634.9906,574.3271,723.6658,3432.18432617188
42,-10794.887,-5836.047,-16118.221,1414.4586,5337.7515,-2053.8682,13544.6494140625
43,3535.3494,5152.1567,7031.131,3957.7646,-3368.6108,2338.945,10326.125
44,-5347.2607,9558.126,-2749.6672,-1697.1115,6299.3354,-4897.0366,19744.068359375
45,-6782.599,437.26855,-4457.617,1540.289,-3433.5417,-2128.254,9839.6884765625
46,3427.9358,-6451.7324,4361.6035,-138.18265,1155.094,1512.0802,10891.4228515625
47,378.06177,-52.914585,-3719.4282,381.262,-274.79086,-1243.6583,4529.00830078125
48,6633.754,9867.968,18260.14,-272.78754,-3909.6653,3221.9866,13610.806640625
49,1788.2856,1280.2921,-2491.504,4747.503,8427.584,-4481.05,18903.142578125
50,-10272.815,4674.443,-20918.74,4631.6147,-1587.6562,-3346.8357,24523.560546875
51,-4471.071,-1843.8883,-5321.2866,-9458.837,-6202.556,2145.5066,20186.43359375
52,-1392.4739,2858.5552,6771.817,-2134.21,846.27783,-1068.4667,8322.1533203125
53,-5557.628,-734.12897,-13809.521,6789.298,-2783.4678,-1634.1447,17340.73046875
54,-5261.326,2020.7892,-8102.618,-1844.4926,-4244.227,-3393.004,13437.8955078125
55,249.72566,1739.007,-10040.751,2030.8622,-2896.7786,-1681.5602,13017.96484375
56,7587.642,3013.9329,21578.652,-5767.021,4798.859,-5137.724,22993.6796875
57,-2913.326,-1668.1007,-16576.133,803.18494,-1969.8811,-700.93585,14842.0576171875
58,551.6026,1274.5397,-368.43228,694.8664,978.22327,1314.6711,3396.85009765625
59,1432.7899,1104.4379,-873.9194,312.32535,-840.0066,1081.0151,3253.70043945313
60,158.6011,2090.7004,-2714.4646,892.25854,-1350.8552,-828.987,5240.517578125
61,836.5967,1184.0215,2398.1292,149.2896,-881.15643,-1123.9756,2864.037109375
62,1204.353,1265.514,-1852.4633,1.0665452,-594.01654,827.0049,3556.01000976563
63,1889.6274,491.03888,-161.04636,-7.3506007,-345.74747,134.62056,1925.2060546875
64,2111.7915,232.26071,-4793.295,1829.306,-43.839115,2194.4875,7920.01953125
65,2536.532,2007.1167,757.50275,393.43207,-2154.9023,104.28092,4114.751953125
66,2935.8164,1710.9386,623.8617,700.45483,-118.25963,453.06406,2478.56127929688
67,71.778915,1877.8344,112.86852,60.66736,-556.4932,2843.9668,5328.587890625
68,2680.6475,3183.1562,4499.2812,-600.561,332.95712,-1024.6852,2685.25708007813
69,2184.5469,3529.6003,4936.979,926.61664,-1559.6324,-1275.1046,4520.373046875
70,530.16583,796.07227,392.9477,-597.9664,-1120.8354,1755.3325,3769.76220703125
71,2915.0984,3216.9905,-1905.118,3024.361,1008.2825,-3379.2625,9461.9892578125
72,1103.4188,503.08624,2950.359,-451.06894,421.13635,-889.75085,2897.89428710938
73,3132.4175,-2302.7544,-4544.3623,2953.3127,1070.0134,-3551.247,10685.7119140625
74,3927.8403,183.64008,-3226.1667,1609.5936,1060.31,1864.6234,7745.2197265625
75,3042.877,4095.11,9653.687,884.45184,-615.0195,-512.0279,6490.1396484375
76,4728.8096,-1581.9248,14963.859,-8450.911,240.84145,4361.366,21924.064453125
77,-2302.1238,3213.8394,-13810.279,-3828.037,-3913.3777,-6949.482,21474.009765625
78,-8800.714,-18905.2,-23965.492,2109.2327,1628.8563,-530.0789,14177.0205078125
79,1196.1183,-254.69392,1252.9346,-1828.9502,409.1368,1005.2962,3969.85278320313
80,-1260.5315,1456.0663,-2460.4727,-794.4088,-548.0956,378.40018,3911.97705078125
81,-173.87898,792.1723,-817.9086,-291.99048,612.30597,-244.35359,1878.7900390625
82,2956.7163,437.94998,5366.373,-797.5129,-3701.7554,-110.36596,7827.7451171875
83,-237.80681,-623.3653,-760.4815,-590.7093,1446.9956,-2053.187,4493.9130859375
84,4776.406,2044.3651,6619.9263,-640.73706,571.9077,233.38466,4274.98046875
85,559.79205,-487.11664,-5729.76,844.35846,442.56256,1145.3569,6382.14892578125
86,2539.697,1497.9628,4976.4097,-843.62524,575.42694,1736.8202,4662.5400390625
87,-122.173706,3711.429,2061.2412,553.95233,-57.111385,293.1933,3504.52954101563
88,1598.7616,1592.2319,6453.1743,-56.473248,-544.9274,-150.91669,4956.3896484375
89,-6521.5605,-3857.6624,-16986.771,723.302,474.9359,-750.40173,12183.2158203125
90,-298.1969,5020.1914,709.7519,222.19487,909.4734,-659.4779,5279.6611328125
91,1474.787,476.5771,-16.078049,-139.77069,-59.078316,1571.4312,3034.49682617188
92,1731.7574,3009.193,119.605385,220.06345,-239.77089,783.4039,2906.75341796875
93,927.09766,2139.7847,153.7174,830.20245,2022.656,1038.4236,4536.814453125
94,2194.6057,658.3582,-236.95067,-47.267937,-276.8443,430.38962,2308.54663085938
95,1497.239,-474.41785,-1462.9795,-619.4669,-640.4208,-453.151,3132.32495117188
96,1646.7142,527.9905,-602.0647,606.5611,180.61975,519.51465,2409.16870117188
97,673.78253,1766.8689,1608.758,870.67896,-274.64676,219.80586,1921.58532714844
98,621.3857,1038.1102,-2654.4211,888.10925,559.8732,-413.0568,4010.9990234375
99,4683.014,-5595.3564,-5863.287,-1817.3619,3297.409,5602.4873,15657.6279296875
100,-14078.674,2913.4275,-18037.857,2075.2551,2379.852,-1969.8499,20328.146484375
101,762.83466,3629.281,15803.898,915.3769,-283.5892,-423.9266,13950.9814453125
102,-56.0914,836.4889,18929.871,-1187.2885,1629.5803,-2545.2769,19389.373046875
103,400.08694,456.19278,4355.9746,-680.0225,770.6291,710.18164,4484.6650390625
104,1952.9685,1945.0886,4580.0435,-1064.8594,1180.8956,534.86536,3919.9296875
105,617.7065,-962.9532,-1047.1412,1017.2461,-20.656004,3158.4275,5972.5439453125
106,358.86493,720.1526,848.2384,-42.584812,-142.0651,-2537.0566,4423.705078125
107,-809.8803,-970.1058,-4118.576,260.2319,-1000.1124,-89.2939,3697.39916992188
108,47.661915,818.50287,-806.40796,-1524.0784,-45.188076,-99.79898,2997.73803710938
109,-554.40625,2083.177,3271.3547,393.5153,-1332.9331,608.2767,4290.3642578125
110,1294.6958,558.12946,-974.77057,-1414.6282,-295.82864,608.61127,3376.19311523438
111,1861.3373,2978.375,-283.93567,204.67975,-142.94385,-1782.3862,4238.396484375
112,823.34546,1995.6477,-1176.6309,-172.84163,-2366.1191,-1225.0598,5395.02294921875
113,1892.9564,2392.3396,2585.6055,786.70605,-774.455,442.77713,2151.154296875
114,1556.9658,2700.125,3170.706,215.371,-772.96594,1469.5201,3236.705078125
115,2710.2024,2251.8884,1501.5975,1150.5398,-1092.2987,1670.5701,4127.9345703125
116,2138.1785,1637.1418,-1001.76526,2129.9026,913.1888,3283.486,7549.31103515625
117,-390.73572,1413.39,1593.4923,2022.9281,-1695.0884,4117.917,8682.2021484375
118,4534.9165,1633.9297,18778.773,-759.82947,1022.74426,2153.2175,16474.330078125
119,-888.1293,-2745.944,938.889,-6622.7173,-979.417,-938.4384,12136.0888671875
120,2251.908,1576.0741,-805.549,-411.9288,1020.8966,-771.4693,3627.63037109375
121,-2142.3965,-402.87704,-1562.4547,-167.43321,1523.0513,-427.857,3153.693359375
122,1480.9447,582.4779,-1923.9684,-595.3117,665.6238,-858.4267,3734.23559570313
123,1713.6356,4574.0996,3787.6892,1614.1423,-870.3188,-658.4779,4235.6474609375
124,1712.4172,-1349.0125,-2635.8022,-297.5212,2974.004,2065.9226,7387.24267578125
125,10345.322,-2162.6597,13575.513,1660.7201,1405.5483,-2557.876,15527.9033203125
126,2602.4507,4170.559,22871.037,-905.65625,3671.5686,-533.02325,20621.48046875
127,-10819.738,-2890.3062,-26476.73,12.200284,-449.06848,-2642.7915,21300.865234375
128,-826.021,3670.4365,-68.480644,1828.6582,-701.2364,776.82904,5541.056640625
129,-4015.7388,-193.7024,-12376.067,-1289.9452,2032.258,-2044.4628,12098.6826171875
130,2740.5867,1845.7878,774.0134,-1717.8256,394.13556,631.20856,3663.66796875
131,-1606.4286,51.183544,-6195.5576,-2691.3745,-1819.8928,2087.1677,8726.40234375
132,642.97485,3068.5706,-307.77994,524.02673,1219.9908,526.652,3900.59326171875
133,5200.2183,1671.1195,4672.3457,110.75224,-1485.6793,2762.6675,6358.1279296875
134,7521.1123,1336.6174,10293.766,357.05875,-2239.237,-307.4554,8876.4658203125
135,-15783.708,-9715.766,-15136.041,-1912.7386,696.23157,-154.31259,6768.36376953125
136,488.84473,683.1898,-806.87714,-980.6841,752.61633,25.958324,2560.27758789063
137,-599.8757,7009.8774,6783.734,-4646.9136,-4047.845,6104.956,16792.45703125
138,-584.4707,6822.4014,10009.336,1448.4675,1268.8401,2877.2349,11161.6748046875
139,5321.8013,77.8734,6155.3696,-225.19922,-602.31,-3756.637,8725.951171875
140,3204.4348,1051.6023,2207.3948,2773.8726,-669.15295,-2715.045,7072.703125
141,298.69473,2475.606,1254.4644,-433.55972,-445.43515,-327.38516,2247.78002929688
142,1704.4094,-857.6107,-2454.3264,-368.41803,711.8326,-445.31644,3965.66479492188
143,1405.1595,862.0316,-2764.68,1160.067,367.06955,1148.8276,4880.43994140625
144,3045.3772,3529.5479,4009.417,533.5245,-513.78973,3809.1672,6772.90087890625
145,1320.1293,1255.486,-631.9316,-561.4549,519.5443,1115.3185,3029.16040039063
146,-423.32242,303.18713,-5780.628,1102.7079,331.70126,-1640.7229,6721.2021484375
147,1476.0162,3500.778,3510.1978,-3.0367453,602.33875,175.91992,2302.20092773438
148,130.8417,2818.786,5800.742,681.60126,203.79198,732.2335,5221.041015625
149,4939.9756,1652.8677,11815.1,2879.5999,-1707.7332,4127.585,12861.1005859375
150,12681.645,-276.85602,34381.188,2095.7712,-697.18915,2818.8342,30958.98828125
151,761.1511,1358.8341,469.66406,-467.3217,-559.87494,-1147.3749,2482.20922851563
152,-9575.827,1693.1752,-19130.746,151.47931,-4602.001,2606.4714,20247.134765625
153,-743.046,3683.5586,-2601.6367,-1367.9635,3304.4429,-387.7008,8372.5361328125
154,463.02124,873.6265,16063.766,-374.11322,-24.65681,1452.4609,15617.1923828125
155,-1002.28015,5871.7163,11910.134,105.074814,-919.9599,-2374.2432,12029.3623046875
156,1110.3062,530.10583,-500.01434,860.78265,-1324.9004,414.6154,3162.29296875
157,482.21725,-365.8901,-2172.3223,-931.0846,219.49548,-47.436844,2875.16479492188
158,859.02606,1150.0289,999.9242,-1148.9291,-598.67786,-533.04645,2439.5302734375
159,166.46909,-258.8533,-1705.0233,506.4759,750.2428,-629.35675,2556.13208007813
160,323.92157,1542.2603,1096.5426,-243.66742,166.55226,-351.53314,1331.18188476563
161,-704.3293,1052.2654,482.03528,501.00674,-500.77847,1207.109,2878.51025390625
162,5038.3804,2343.2998,14808.76,458.48633,1942.42,-1137.5918,12036.9296875
163,10862.104,3118.911,25360.418,395.02368,1834.4929,804.2061,19872.7421875
164,404.41876,38.422546,2170.7444,679.1073,1341.066,350.71387,3323.89282226563
165,-2504.105,612.62646,-5377.6436,-919.40686,1262.5798,1904.2775,6717.46630859375
166,1476.9078,2144.8516,4059.7725,-433.14145,-1542.5962,-286.40723,3652.37719726563
167,-4682.531,1148.5792,-10526.219,-992.7807,-3549.254,3613.6633,13496.291015625
168,7422.803,-10684.062,-8345.698,-7025.6816,-5232.811,5052.4595,24449.859375
169,-4485.279,-7991.107,-18675.406,324.7645,5328.156,-1141.7322,15915.3134765625
170,5586.363,1689.8657,4639.405,3704.6196,4861.124,-2354.0732,11877.6591796875
171,684.02875,508.84537,-832.4128,-792.11456,537.9744,1327.5924,3178.4775390625
172,16059.039,4491.6797,19818.209,-7266.563,-3325.658,4077.6646,20806.001953125
173,12727.958,9262.098,21322.31,1146.2694,183.0069,-704.52924,11008.78125
174,-7178.794,-6350.953,-10907.009,480.38794,2133.6394,-893.8177,5866.64892578125
175,2213.1995,2130.986,-1134.448,918.153,261.92902,-751.4147,3920.07495117188
176,858.6469,1254.6211,2451.7766,-175.83153,-1223.6354,1298.5594,3421.6064453125
177,2073.9106,1077.0496,431.42535,230.45178,1261.818,765.42017,2957.64111328125
178,1267.5188,153.74243,-5356.7983,141.54898,-859.95526,-1013.45984,6565.3671875
179,4883.973,2984.9792,13756.723,-921.0841,5692.75,920.6918,14194.7724609375
180,-2968.4333,3343.1484,614.7502,-1746.2253,-1123.1298,1790.0641,7252.92138671875
181,7533.8965,-709.4967,12745.474,1252.058,1290.816,-1212.5355,12336.4267578125
182,-1740.5295,-26.512196,-10406.119,-1483.409,-1367.1635,226.4741,10258.94921875
183,-5848.928,-1041.0862,-17814.072,2701.6423,-4865.3804,3385.5325,18737.78125
184,1345.9875,2158.1797,1285.8031,354.7786,-1666.5187,-40.384876,3070.26196289063
185,-73.0928,314.64655,-1371.4788,-75.520805,1189.0498,-932.4224,3034.21264648438
186,2168.8557,851.20715,3243.1692,471.38663,588.01447,-2263.2644,4623.51708984375
187,784.67865,-1775.9329,-6269.9365,-581.9512,757.2047,679.6965,6510.1640625
188,-105.23904,-17.567657,988.0708,-236.76775,1846.7245,1453.2145,4223.97998046875
189,-1914.086,-560.33234,-329.39258,-402.55115,-281.6538,227.59874,1754.4658203125
190,1045.8282,426.57822,976.2016,263.19638,-490.73645,1102.5098,2218.57373046875
191,925.77484,307.18634,943.2348,405.88248,-101.96406,-564.63794,1369.53161621094
192,164.46304,-462.97662,4183.331,-58.29869,-1422.7721,311.28183,5043.83837890625
193,756.7757,-4564.413,-14723.168,1974.5009,-1305.2587,-1218.5089,14381.7021484375
194,66.6815,-6463.802,-4419.716,-8032.65,123.432236,1768.6702,15377.8193359375
195,2272.636,-4648.534,-6129.9033,1682.5295,728.74585,326.52682,8411.6376953125
196,-1749.9219,-2591.1934,-10901.592,732.5002,89.822296,-1565.6411,9260.0927734375
197,702.4498,-3422.9983,-5088.7524,9.496513,563.4303,-953.0533,5508.50341796875
198,262.1113,-2244.6323,108.950584,1963.5557,962.3938,283.79727,4528.8154296875
199,-434.05692,-294.0808,-428.46774,1361.1987,264.3592,476.89993,2543.49877929688
200,2623.7192,-1438.1637,-7013.5674,-216.43231,397.02414,1407.4609,8762.814453125
201,-328.8418,-1704.774,-885.26355,653.0418,-401.69217,602.9742,2071.56713867188
202,922.6789,582.4929,4723.6167,362.68945,1196.7354,-1024.1217,4867.59814453125
203,1596.6759,-70.051285,61.661827,-179.77068,-884.4907,436.34637,2364.51196289063
204,-112.95129,-460.3174,773.3245,673.8039,-145.95264,-1120.93,2531.68017578125
205,1864.8545,-460.94232,1690.4855,-929.63055,1074.3948,-1004.6139,3757.33251953125
206,656.79956,-661.0561,-1226.5916,-543.08594,-1327.2642,-723.9542,3247.13940429688
207,-216.45885,-1580.3536,263.4837,250.90039,-445.37833,-481.59286,2055.45092773438
208,593.6271,-1388.0453,-115.329544,611.29126,529.14417,-1308.5062,3181.55639648438
209,-354.5149,-1339.7545,-1194.0591,8.830634,-387.4718,-159.46165,1172.73205566406
210,-309.70425,-1121.058,-567.8383,138.64064,59.712025,-1668.309,2988.91528320313
211,59.566536,-1816.8435,1831.3331,-415.5974,-396.28177,-568.6643,3456.0166015625
212,-389.4085,-610.15735,-250.42186,525.3664,1111.9525,149.88933,2168.74926757813
213,432.9898,-2133.879,-603.614,-846.46295,2057.998,769.6453,4651.36181640625
214,-357.01456,-2850.687,-4148.7812,47.719563,814.58606,510.19757,3730.798828125
215,1254.2924,-428.5453,-3546.358,-2205.1643,1062.7151,306.41818,6004.78857421875
216,-246.83278,-216.22139,-531.9302,-905.80286,8.938117,-278.72345,1669.03601074219
217,-3281.0105,-630.1059,-623.27057,-3.4075227,471.88504,997.4547,3270.82104492188
218,-4488.507,-1628.0372,6404.9893,-201.70494,-4030.9475,-4762.357,14580.7353515625
219,272.53302,1018.63617,1941.9966,-1067.5881,1200.4624,497.3302,3253.11572265625
220,-1662.453,425.89658,489.85086,137.19714,-167.31377,-199.49724,2181.44482421875
221,-1310.7457,653.29156,-37.682343,-278.63852,614.28784,-50.13753,2085.73657226563
222,-1645.0656,-1731.1467,-6958.1006,-94.5574,972.2716,1801.0112,6353.90283203125
223,-1588.0693,865.1076,-3523.9272,610.7627,366.54187,68.55875,4006.35473632813
224,1771.5416,383.46024,6769.705,-155.26125,-252.25801,877.02014,6034.6484375
225,-138.56622,-2.2992485,-216.96042,-342.44547,820.9281,-307.84146,1641.11889648438
226,-1680.3373,1766.2205,-3164.1387,71.06019,272.24536,-1274.6072,4930.091796875
227,-7338.667,3051.986,-13424.642,-1487.5931,2342.3315,2346.5142,15743.529296875
228,1997.2289,3759.2341,12610.434,2463.0146,2756.3928,1679.4565,12103.65234375
229,1538.6157,-88.3981,-92.01774,-390.39645,758.6198,-248.80313,2241.09912109375
230,8064.1763,1443.2677,20926.973,2554.472,-2428.8975,1017.19476,18298.361328125
231,238.4503,4538.9062,7049.036,-2964.8188,116.78891,302.06686,7891.41796875
232,130.74469,2300.3506,3581.2422,635.38776,401.0673,-797.2623,3567.5625
233,428.9404,-4.528428,-2069.4043,313.96796,263.60062,-347.94122,2492.79736328125
234,-321.77167,1509.4257,-1507.2667,438.1285,1839.0388,-1105.6536,4617.25341796875
235,-60.27517,1188.056,-260.54117,631.4444,-335.2212,-317.2412,1919.28308105469
236,144.21341,1314.3547,-957.0496,-81.86314,-543.2337,1791.5757,3795.42993164063
237,590.2237,1525.7589,1272.3593,971.88654,340.04886,446.73337,2116.99682617188
238,971.4638,917.6388,1998.4019,11.462579,-1040.385,-272.586,2140.85961914063
239,1998.1979,661.9741,3312.0132,726.26514,-276.57202,-830.17883,3024.33544921875
240,1407.0958,993.69214,3486.691,177.83154,-1622.9348,401.3247,3719.56176757813
241,1814.5751,-1137.4536,-4769.608,639.8875,-961.8562,1991.643,6966.5654296875
242,1903.4408,1042.2843,1853.8875,-552.50256,-1034.09,2959.4404,5576.7412109375
243,2526.4226,-259.95718,-183.98485,722.4482,99.961205,2918.9998,5891.9814453125
244,-538.8587,348.89758,3707.006,1029.6489,-1130.4382,765.8784,4880.58349609375
245,1530.7297,700.90173,1210.3615,730.11383,75.780464,-135.11691,1482.091796875
246,-57.155857,-795.52216,-2501.9045,743.22833,1030.1168,-1282.5223,3806.84106445313
247,824.96643,-2952.9614,-6538.588,-434.08182,1850.1995,3234.6235,9104.892578125
248,2410.8152,19.597263,-1167.9852,817.5067,-61.9792,922.78766,3813.02124023438
249,1428.1235,49.232933,-2710.0488,-98.71626,642.9109,-1431.7628,4553.98681640625
250,601.5564,532.7016,-1099.1027,499.52365,-1327.0792,3258.2046,6376.4853515625
251,3572.733,-1800.4662,-1757.3011,-1826.2871,177.30055,-502.5397,6284.83203125
252,2259.3306,-4064.1008,-8072.5864,172.86272,-344.6916,1495.3569,9410.392578125
253,-191.88728,-4652.399,-6151.598,-1087.8583,3115.1387,-1514.2778,8268.775390625
254,-1477.1517,-8039.84,-8529.378,-718.11505,-1385.5092,2140.918,8220.5703125
255,330.7061,-3201.2202,12150.174,-606.56396,1183.326,1273.3745,14285.96484375
256,-4882.9775,1583.6886,727.09344,-6154.994,1521.3259,-1249.3751,12739.31640625
257,12161.935,-2991.8977,3146.6055,23.47314,-2920.5999,2260.7021,14670.4365234375
258,-2594.889,-677.95557,-9225.815,1292.6392,-177.16785,131.57405,8094.05419921875
259,-2275.5605,-3921.5544,-11572.472,-163.21689,1667.5427,3419.7788,10832.6298828125
260,-3818.1577,1909.3075,3207.8342,1082.7426,1599.5034,1445.2687,7706.2265625
261,-9339.986,2442.7114,-2268.9333,-4445.0547,366.8103,776.1979,12922.9375
262,-9583.009,5407.1157,-8296.923,1407.4728,1627.3591,-924.24176,14950.912109375
263,358.5172,3206.5408,5707.8433,-4647.6294,-733.46606,-1822.3297,9892.8994140625
264,-14113.955,-4682.8696,-24377.24,2638.5767,-5015.8857,208.90433,19686.767578125
265,-2673.6467,-2149.9905,4733.891,-812.9732,3343.433,322.1572,9332.5556640625
266,-3439.4182,2916.7378,200.34187,-788.2027,-915.5523,-1406.432,6389.54931640625
267,-4313.699,-1548.106,-9112.387,3288.2886,2366.577,1386.2898,9947.517578125
268,-1300.1105,195.42516,3889.518,1280.4929,1312.7166,321.89062,5639.7783203125
269,-1149.8198,-825.94574,11564.361,1319.5813,-404.1425,-1828.985,13167.6484375
270,-1646.0461,6916.8296,8538.4795,2108.678,546.0544,1743.8417,10639.34375
271,-3182.0613,1994.1929,-3616.3333,740.25006,199.96326,-184.8008,5576.41650390625
272,-618.73676,3085.1812,5605.016,598.1735,1184.1238,1144.6974,6213.9130859375
273,-1955.5256,-777.1083,4165.2954,-39.998714,1104.6449,-1528.7329,6505.138671875
274,-3257.2087,912.68774,-2835.925,1270.6655,-3146.1816,-1471.0316,7539.21484375
275,-653.3632,3728.3455,1997.1616,1266.8767,498.8456,-751.8076,4676.31689453125
276,-2216.423,685.5014,6795.5303,446.6636,1663.9104,-1123.1499,8727.724609375
277,-4969.7876,2421.0347,-2737.0554,1440.5585,95.14875,492.74997,7077.34521484375
278,-3624.7312,-1156.4011,-1112.8931,-567.9269,-455.60022,102.87804,2797.14624023438
279,-1081.1147,-7226.605,-11817.675,1341.9047,1211.7871,775.94696,9933.4306640625
280,-251.47734,-2066.1096,-235.47885,522.4776,-1025.5431,499.1798,2836.17407226563
281,1176.8629,-908.1718,-1129.6672,-162.2146,-720.33344,214.52592,2575.24780273438
282,-160.8251,874.467,-1169.1744,139.13916,-1850.9298,136.89078,3677.58813476563
283,320.40363,-433.67157,-1351.313,397.3811,-167.52556,-346.9293,1738.29663085938
284,-636.86084,-269.66156,-4690.5366,249.40968,-712.7911,777.523,4645.43701171875
285,2616.0366,656.2995,2137.4834,-1220.4067,77.41125,-1621.4962,3937.72143554688
286,-316.4048,1148.783,486.22897,-407.1573,-248.30792,742.3663,1987.61450195313
287,588.2249,1243.7834,529.60065,156.1458,375.53143,-8.93701,983.911193847656
288,1161.0253,2439.1655,8587.546,236.38057,-475.6243,-202.3672,6947.21923828125
289,-8865.675,-10180.793,-21997.436,-3125.547,2625.887,1780.0356,14710.5888671875
290,252.71204,-3633.4077,-4247.243,-656.26874,-424.14825,1966.5825,5594.48583984375
291,-2640.6807,-238.28484,-1394.4958,540.0591,106.06679,-1152.6925,3037.35009765625
292,213.17815,-105.07936,-148.25801,557.68726,-242.16307,-558.28674,1470.00695800781
293,786.0667,-287.89606,1193.239,-445.6018,36.758408,1829.0095,3520.232421875
294,1424.8552,34.51061,1281.2058,-901.1621,10.65651,310.54984,2116.58081054688
295,336.27182,-641.4193,398.56757,-223.17567,-10.330702,513.3209,1400.32287597656
296,1870.4647,-173.92216,-1181.9437,-44.630943,624.3861,1573.0542,3981.89135742188
297,1002.0906,-483.48386,-2709.0676,271.64786,898.8809,1626.7786,4588.1357421875
298,597.22986,-2750.756,-5318.0215,200.57944,2570.3225,1132.3638,7083.935546875
299,368.23737,381.2567,-24.419617,156.64273,14.420823,-61.087204,494.864410400391
300,-557.07355,-958.3114,-3483.0923,189.68779,-105.45671,-3127.7693,6085.94140625
301,-1874.981,741.7019,-198.60936,-909.5995,-2674.4656,2849.331,7318.9609375
302,-1546.8654,1109.9474,2980.7847,172.37114,-1259.4806,349.68903,4554.55859375
303,-5183.3545,1967.6481,-10495.432,-887.4352,-589.12506,1402.2404,11253.63671875
304,233.02718,1386.863,238.99358,288.3008,-499.97498,-176.81003,1554.84753417969
305,-4025.7292,-3043.759,-2533.4338,1894.1188,-78.08968,-3087.5396,6411.38623046875
306,3544.5583,583.88715,3987.8872,783.2406,811.33563,-1218.2434,4306.06640625
307,-4435.4126,1916.2397,-326.19485,-628.85034,5822.1816,2963.0576,12662.84765625
308,-4715.8354,4726.039,-3909.795,1118.1082,-749.1254,2727.367,10485.1240234375
309,-340.67017,1049.8519,163.713,680.80554,476.54605,-1857.1704,3729.02416992188
310,2165.8245,-4611.5947,5986.957,-833.2443,-656.4735,1974.733,10075.0361328125
311,154.0796,-2364.7673,-1242.7476,2988.6033,133.18275,2789.6367,7414.31103515625
312,-9758.496,-935.2197,-8082.9272,-1531.3353,-3415.842,-784.6253,10476.6181640625
313,-2877.5916,2846.2922,-2871.434,481.87335,307.74924,-223.7854,5818.8154296875
314,-2080.173,-6339.0737,-4327.494,690.318,6306.336,1432.5496,11853.8349609375
315,77.617775,523.7119,2344.3774,-939.75684,782.4118,1318.2196,3745.00390625
316,-3807.3884,1384.1172,3251.5872,3232.2405,369.38858,-2439.2405,9472.873046875
317,-3183.6772,435.98843,1962.0157,1369.0281,-471.07288,221.10501,5233.50244140625
318,-98.39197,-2753.0742,2134.0112,-1123.8307,2308.7993,-332.10364,6169.99267578125
319,2382.4648,592.9571,7149.4756,-1075.734,365.80176,171.74358,6198.29541015625
320,6837.251,-4984.156,19046.76,2281.1978,-76.99644,-350.51276,21193.142578125
321,2000.5874,-813.9618,1510.0781,227.30124,309.3895,156.72093,2701.40209960938
322,80.42217,-448.6889,-826.0108,1392.3574,1981.9033,-1146.921,4708.296875
323,175.5103,-1388.5972,1210.452,650.3723,-99.42812,-742.52246,2844.103515625
324,909.8623,608.18445,5217.7314,-1092.2743,1507.4318,1886.4304,6404.7197265625
325,116.09154,-10.640491,4713.114,-504.79678,-501.38232,-823.35895,5028.283203125
326,-178.87482,-1192.1293,-142.95789,-949.49615,247.52602,-511.9551,2176.94677734375
327,-3816.9482,-230.5784,762.7629,-647.6026,-1923.4043,3345.367,7958.7890625
328,-2028.9176,401.85333,-1666.1455,-465.69202,78.578804,726.0044,2721.91357421875
329,-1623.7434,-129.44412,-2722.2642,292.66107,-467.86856,1370.6346,3410.3916015625
330,1889.0188,-272.86456,-1381.297,880.1803,-471.05417,-214.46016,3380.30615234375
331,801.5978,82.147835,-1421.5706,831.85614,733.9164,-969.8911,3220.95434570313
332,2371.4941,1292.9869,3614.6667,540.52924,1678.6333,-38.878162,3658.40209960938
333,1910.5597,-529.82227,1857.5283,647.60333,986.7269,1225.91,3810.05078125
334,291.42627,1111.228,5628.9214,-115.89647,-2290.9963,-1233.0814,6718.10986328125
335,4594.0,-679.4045,3848.2974,-400.73624,485.55225,-288.35562,5086.3515625
336,2603.159,-6557.712,-966.84204,-1709.1864,565.81256,-1381.6426,8911.416015625
337,-699.6918,7714.236,18661.79,-2955.199,-1036.4062,-244.00572,17673.5859375
338,555.21686,4734.53,-418.98224,-779.1295,3616.2434,1527.932,8399.0302734375
339,-8316.519,5444.36,-12049.0,2285.217,899.1127,-5407.92,18986.41796875
340,-1519.3691,-290.99808,-57.698685,-2278.71,-2633.2024,-733.3549,6312.06396484375
341,-4391.5195,-1101.4447,-2634.2244,369.03735,-61.62844,-319.11887,2975.98999023438
342,-873.27325,-237.06839,-1852.4589,868.20996,494.86212,-1492.4551,3415.38012695313
343,-1272.754,-1656.9958,-10771.91,-3187.251,219.40755,168.90749,10836.8515625
344,657.90857,1478.7612,1457.7968,1295.5463,-317.55594,-1278.9572,3301.828125
345,-153.3913,916.77814,-2873.0737,573.1656,1039.395,-586.557,4087.931640625
346,21.44682,2163.4707,1738.1858,534.97473,-487.62744,1025.471,2929.99487304688
347,181.97441,-1363.3093,2218.1213,-633.38257,163.2562,41.65914,3311.93383789063
348,1296.4686,-535.6265,107.034225,538.61316,-587.9988,-464.58896,2268.75268554688
349,-2744.7603,410.6676,-2535.6294,-221.33455,-199.16983,1708.2927,4285.01171875
350,-587.4318,-950.2134,-4494.2773,-533.264,-187.47629,-1173.4832,4366.63037109375
351,-448.24933,1154.7483,1163.2538,668.93933,-752.5915,786.2563,2734.87231445313
352,886.24347,-606.8499,1256.2942,-831.17883,960.66284,627.9927,2990.50244140625
353,-3812.1646,-2130.5803,744.7868,553.3326,365.35345,-91.69411,4156.30126953125
354,-113.11402,-562.5399,-1095.6613,501.13675,111.974785,-16.779335,1231.93920898438
355,-1477.6125,-1573.1885,333.98334,745.4164,-34.89581,-50.08011,2267.65795898438
356,1025.3119,632.64087,382.492,-1084.3054,-102.08423,-27.274382,1968.66491699219
357,-180.9943,127.27481,718.72955,-814.0059,-460.97195,-156.01663,1823.595703125
358,829.76276,-433.83038,-473.3731,-372.74066,-183.17603,-90.60443,1479.96337890625
359,-1967.6726,1144.7651,769.11707,-623.33905,-515.21936,75.84931,3261.666015625
360,-1049.8143,663.6609,-328.18436,-1252.0784,355.635,-97.15046,2707.599609375
361,-568.02625,323.33276,777.10474,1064.8652,6.3016944,103.45446,2199.76025390625
362,-285.5751,-901.46747,716.36395,139.25493,456.31924,346.08804,1744.27075195313
363,-336.6691,-1436.4648,282.8466,23.026642,-155.12776,132.2893,1549.50854492188
364,-1088.0479,-1046.7098,626.7168,935.6043,298.97086,-169.80807,2419.0830078125
365,-1452.4552,-1491.9641,-901.5102,-460.169,272.32477,-54.44417,1092.47875976563
366,-394.25906,-576.09143,160.2816,-24.170835,72.31721,-18.55263,678.149230957031
367,-996.72644,-432.8814,-89.866585,342.19604,-6.3329644,-315.69644,1131.10339355469
368,-190.3222,211.42453,-15.772714,580.9613,-109.41275,78.445335,1090.25952148438
369,-1071.1604,61.1595,191.38263,35.46513,100.687126,-63.63633,1221.84130859375
370,-237.93558,-540.32855,365.1394,-464.16266,39.54472,34.03426,1136.66784667969
371,-479.20206,267.6362,-252.60045,-736.821,3.4042938,231.83226,1493.27478027344
372,-1192.5972,-128.70303,-1747.6327,97.315994,0.42593634,-32.60378,1435.97863769531
373,-894.7477,49.244358,-231.8227,210.66795,-351.96573,-158.93143,1133.73486328125
374,2153.411,1013.72,46.656048,32.535614,-63.905594,46.928925,1832.56567382813
375,-1076.1833,-2695.9888,-484.1,-1153.1816,268.4397,-125.34284,2861.15161132813
376,1164.6125,-1395.2087,130.23062,-606.77496,-48.216293,164.40385,2483.42211914063
377,800.87006,-682.59357,602.38135,172.53093,-264.01224,-127.09853,1514.09436035156
378,-83.08068,-418.73523,-362.2889,386.48502,516.52014,-258.12164,1243.09106445313
379,257.49426,-737.748,397.94424,212.45885,-10.565752,-128.00218,1155.38745117188
380,-244.83513,-455.2201,265.61697,405.20328,-120.1686,-82.20306,984.061645507813
381,-2186.803,273.16592,-34.684772,891.57733,-86.32185,101.673195,2797.6796875
382,-643.6422,-550.3727,-889.86664,204.00775,-7.6575966,220.45444,602.598388671875
383,-220.24702,1063.9202,91.146904,-955.86523,4.6773086,61.234932,2024.47998046875
384,-450.41696,347.50012,-106.649,-1015.4315,135.98329,166.6795,1926.82995605469
385,-657.5349,-1123.5045,179.04254,-443.44092,4.998181,-67.61974,1382.21594238281
386,565.26025,-460.9578,96.33403,-306.14767,-66.72914,-200.52263,1098.61743164063
387,208.80228,-40.27232,24.792,-540.1395,50.957634,-20.251461,966.611755371094
388,-307.62286,-1341.184,-590.1839,922.08435,-8.013569,-120.70506,1857.5966796875
389,-279.00793,-1158.0182,98.90685,327.4884,-121.11109,-112.8697,1285.16064453125
390,452.17856,-1983.1044,-311.65787,761.8986,76.659134,-188.58073,2553.36596679688
391,-732.1973,831.89075,-399.95087,-630.2416,-97.77673,13.613161,1804.97827148438
392,-1821.2479,-798.3641,-64.81207,-654.4385,83.54448,281.78262,1969.45190429688
393,-661.04126,-364.1736,129.96246,-76.345276,51.133545,-67.381325,719.683471679688
394,416.20404,-1319.475,-57.6324,-142.38324,23.384949,-104.22561,1584.21044921875
395,675.0622,-1439.0232,464.1862,-560.0074,-158.8895,-150.66849,2269.95190429688
396,803.42694,-977.71344,-305.85962,212.03317,-33.777023,-122.956856,1615.80773925781
397,-1610.7773,682.1691,-575.84143,13.959141,272.0964,10.229768,2044.17492675781
398,-1525.8027,-144.32553,-752.44275,63.155308,20.544617,206.74901,1256.84252929688
399,-304.02112,1274.2892,1437.0314,233.73138,-115.00464,124.394325,1739.07946777344
400,-38.899708,-497.5722,470.613,-88.84929,278.92572,65.301476,986.690002441406
401,-352.65506,-685.86145,-15.38047,-138.20822,-5.0544686,108.58828,655.681396484375
402,-849.7252,-322.47446,-242.38834,-137.82933,-437.58398,-145.62404,1010.78271484375
403,296.33133,-2009.8761,-27.184196,-464.1279,-17.49268,474.80173,2449.61889648438
404,-1223.0754,-992.0091,168.28632,445.90137,310.75354,-115.32223,1610.548828125
405,-945.9751,-1411.2201,-586.933,-201.46385,237.88388,163.14464,940.098083496094
406,-436.26566,327.13834,-278.7425,188.12405,55.323273,70.33813,785.838256835938
407,-521.4415,-452.76157,17.957098,371.60776,-88.78167,123.79812,861.697998046875
408,1171.572,-499.39044,1363.2571,-1518.9247,-31.942883,137.57175,3182.82763671875
409,478.78296,-1278.3739,471.2248,-12.745882,-147.92307,-226.06062,1814.88781738281
410,-2284.3506,-3257.3557,-1871.707,-1818.0309,-289.86588,-73.2972,3420.87866210938
411,-1191.3168,30.450964,319.6959,-36.951607,91.13111,-171.17511,1430.62329101563
412,-853.12616,-539.78723,-302.0294,474.06665,32.853775,-74.754715,960.952331542969
413,-158.06766,-1066.5162,-731.3253,-74.14632,-2.338862,-182.96185,866.061584472656
414,69.58968,-590.58026,587.1088,179.25922,-117.987495,-36.57226,1089.71484375
415,-2514.377,-2457.0488,-135.25568,-177.16089,-499.66208,404.39468,2619.32495117188
416,-241.80971,-511.65778,-87.613686,115.03791,75.96148,452.18356,899.236022949219
417,-269.3577,-1358.5388,723.9564,571.9812,-38.357906,254.2664,2105.88305664063
418,-66.39452,613.28766,88.80355,-601.56067,-185.75864,-0.6845019,1252.88269042969
419,-2839.8772,-1952.318,-1914.287,-544.9048,43.12146,168.85442,1343.443359375
420,-1165.8198,-364.38577,650.3432,-832.70935,-142.25562,89.234665,2156.39111328125
421,-338.70398,421.43768,1175.5192,743.2061,326.23892,-282.15054,1983.64587402344
422,-97.37383,393.09317,182.72481,-599.1109,-23.154417,-64.2432,1128.01843261719
423,-497.25418,-102.273895,77.93613,-341.4702,-158.21973,-42.552265,830.6640625
424,-1496.7094,-1354.904,-64.72796,-466.48053,256.94742,-259.1257,1708.78125
425,-620.13306,-972.37256,-445.00708,-914.767,86.02699,-194.29855,1691.82800292969
426,151.30066,-457.7465,-503.50296,85.738625,28.223461,-6.819454,652.290222167969
427,-281.54074,949.47064,396.64758,-490.28223,142.3007,-383.11325,1537.10009765625
428,-1005.25226,189.43286,-347.86386,408.06592,-373.25104,-102.546104,1422.36047363281
429,-992.1623,-208.62209,-1102.9047,-226.48373,146.77441,241.02219,1051.55029296875
430,-696.49677,-1254.8466,-289.71042,471.7321,-111.20095,45.380585,1189.63330078125
431,-109.1555,-668.108,-237.0462,-705.15625,-27.218403,288.30798,1414.43347167969
432,184.31589,-665.6477,-711.2893,470.29468,392.17725,-177.3117,1408.03881835938
433,-13.684741,-711.3772,179.07742,-235.53156,44.183517,-105.556755,929.585571289063
434,-140.91878,-1159.6758,297.34888,-183.55646,165.00034,-131.21635,1382.33142089844
435,-621.0237,-2341.4402,-762.9431,-816.81934,-150.5192,-250.8224,2234.748046875
436,-1726.2367,-321.94644,788.2079,-855.61993,51.567196,-72.880165,2642.654296875
437,17.172047,-827.37286,-327.1619,-512.8118,-169.73137,-31.68147,1191.37817382813
438,-1909.1324,-1343.4086,95.64572,534.72864,-83.890015,-85.4223,2026.28625488281
439,-394.16516,-625.5318,754.9951,194.60233,150.34889,63.9303,1354.12817382813
440,274.64725,221.18144,190.92955,-1076.5422,-97.96362,-126.45273,1886.52648925781
441,-767.4442,-689.0382,-390.53485,-198.2341,-65.970406,-241.96172,652.103698730469
442,-840.59955,-171.01556,45.521896,-669.8653,84.39053,277.62918,1496.32177734375
443,-101.69143,-974.6596,561.43317,-894.5315,-85.93853,-167.63625,2070.68017578125
444,-400.78635,63.093555,1607.0455,-630.9192,-403.85364,54.042324,2237.72485351563
445,-1566.5892,-2571.5383,-215.6282,-431.2775,-257.18805,-209.98897,2254.19384765625
446,341.17694,244.7902,685.3303,1065.3094,-291.3262,74.19897,1958.74609375
447,-625.74066,239.32399,-233.33087,366.6281,-352.0416,45.895546,1159.40930175781
448,-1302.9056,-1359.8143,-20.3566,-51.84835,-151.55403,158.30869,1368.69067382813
449,-853.2681,-198.87965,753.142,155.86308,250.72784,28.941372,1490.48571777344
450,-937.5941,-9.014009,-45.116188,-879.37787,-227.49731,322.12094,1901.71166992188
451,-835.27893,-550.19037,-90.43337,-436.785,181.69179,-130.39792,1070.56689453125
452,-1431.0208,-1579.0782,-304.82495,-419.4055,-195.6289,358.38043,1576.326171875
453,-2.0053122,-101.14096,388.12598,150.98793,-145.37584,233.97842,704.796691894531
454,290.35602,248.57,-389.79816,-387.1919,-171.9572,317.83975,1130.24853515625
455,237.00838,630.2939,40.531277,-87.25094,133.4891,-26.633589,590.739013671875
456,-629.3953,128.64954,-620.97076,-421.0027,-55.61522,-36.370228,1055.12756347656
457,-140.18306,875.4598,238.39735,-154.33997,109.00599,-51.742638,951.573608398438
458,-533.2348,-1096.509,17.384174,-619.9059,-93.984055,-148.58487,1475.19152832031
459,-528.3416,-517.8784,-526.5542,59.878036,4.754956,-8.534698,105.529434204102
460,21.589798,100.90802,-327.02725,-514.56476,130.66135,-163.45932,1039.79870605469
461,-617.47833,-86.52986,-374.79462,-620.82227,-143.30112,121.734085,1214.19653320313
462,-70.0174,-389.4722,-150.31096,429.91602,210.15038,17.166393,877.898193359375
463,-979.8444,-789.47894,-1049.8193,419.89493,-123.059296,249.16487,902.813232421875
464,-1073.8134,-1311.5671,-425.96017,82.415436,-330.6977,210.09665,1054.11181640625
465,-635.8858,-348.8891,158.40083,-628.3209,-180.61804,187.03864,1368.38635253906
466,-715.9879,-1338.2421,436.88504,397.2865,-335.67114,281.9439,1866.46948242188
467,-2497.7544,-2018.7004,138.45569,-244.84811,193.57028,128.61996,2501.619140625
468,-110.84701,738.8824,983.62994,476.15494,-56.347107,-36.76168,1297.55944824219
469,292.13345,3665.5322,-929.613,-429.13736,-75.524315,295.1428,4221.947265625
470,108.02336,-224.88309,203.91762,547.10474,472.87045,-171.29839,1344.90368652344
471,-581.3649,-177.9183,-311.4964,315.35043,-11.8606205,166.77827,713.390014648438
472,-898.53503,45.808228,851.4748,201.54773,162.25111,-606.4423,1898.91186523438
473,-508.80478,-37.911713,310.56302,-142.45155,119.39435,-43.718975,785.267883300781
474,-662.1414,539.3231,-460.0139,-144.70616,37.425697,115.8234,1161.37438964844
475,1180.0209,2927.0544,-123.62171,480.3339,-14.426246,-156.92714,2792.09301757813
476,1428.2252,1282.0143,117.44219,-382.09042,-253.07188,53.786064,1478.74035644531
477,948.85236,-245.84138,-547.6936,-100.75457,-32.417015,4.0982337,1382.9990234375
478,-1107.8593,-2329.982,-25.044506,-774.6077,-79.75192,37.72581,2410.97607421875
479,-2820.9263,-557.9839,151.19688,-510.83307,218.90523,-14.550266,2855.85815429688
480,159.66058,-560.01166,381.01846,-1195.675,-13.101257,-35.20899,2240.39794921875
481,-2730.7708,-793.5814,-477.77155,268.72913,-238.65025,-22.985266,2203.02392578125
482,-1164.8785,-1653.789,483.49237,71.11375,31.585018,224.35423,1982.73413085938
483,-1058.1669,-1318.6265,-455.0403,400.4719,22.792488,174.25629,1078.18298339844
484,-3612.574,-1120.1744,-305.3411,-767.6134,-215.98438,93.036514,3292.49243164063
485,-2498.8062,-131.22403,114.38308,-175.94626,-248.98631,64.11788,2557.03930664063
486,-794.5744,-717.8006,-1297.5704,1149.8596,252.41255,-321.34256,2182.88037109375
487,802.77594,-404.5385,457.46378,593.0883,313.38834,-33.408226,1585.30590820313
488,-69.923676,-273.60446,-100.67194,-555.68945,25.250595,-207.4286,1045.72155761719
489,-305.19406,-1424.5646,-532.32074,632.8435,12.13184,193.59467,1537.75451660156
490,-31.735426,131.10954,59.744827,-284.47385,25.523172,-51.35387,522.141845703125
491,-591.47687,38.96561,-314.66922,-43.91549,105.484726,-279.86914,757.440368652344
492,-1062.6151,-1798.9915,72.656586,-88.08814,87.52144,247.23775,1701.97448730469
493,-245.1604,-1803.0671,191.19104,-175.5941,-231.73047,-91.47366,1891.02355957031
494,747.0718,2692.8733,623.32684,581.92694,-15.785429,-118.320045,2258.51782226563
495,173.5415,-64.82005,-382.53003,181.8694,482.58008,-28.672709,1016.77532958984
496,-576.99,-316.81152,1351.8676,-299.35217,-161.48271,-121.07067,1917.64868164063
497,-2812.7341,-2403.4272,210.41551,295.58682,365.9729,-6.8739634,2955.27221679688
498,-807.7473,74.98826,-210.01117,966.1647,153.78938,-203.08333,1898.41296386719
499,-232.67125,328.54715,-285.0,342.90247,-239.07373,32.04576,935.076538085938
500,-1970.0278,653.03375,-25.653475,486.04333,109.16974,249.13812,2547.84375
501,-38.457912,150.2054,650.1552,399.6125,-71.41866,24.627104,935.9794921875
502,-803.41974,301.13596,218.85027,-492.9233,133.79688,179.9684,1419.75915527344
503,-1580.106,-1277.281,823.01373,-625.85095,-65.09446,67.603264,2518.02563476563
504,-683.6836,2883.6306,-535.47253,583.4384,-17.047138,94.98309,3642.54296875
505,174.96881,1979.764,-955.6798,-58.100864,-107.121765,-215.79178,2600.0947265625
506,228.49263,-146.68338,141.41678,-269.7306,37.298805,-47.15344,587.178161621094
507,-1475.0459,-451.97955,490.14124,910.71277,235.58867,9.333282,2356.4951171875
508,-656.1886,2426.9468,-336.43716,-397.06995,-59.135822,65.50438,3019.68286132813
509,-2109.7197,-911.63556,143.0398,570.90753,10.171086,75.03641,2192.33740234375
510,-1230.3823,2538.1086,251.98735,-58.11581,33.10214,211.39069,3310.60791015625
511,191.51558,291.85883,-644.9211,91.091934,107.845985,-157.5944,963.285705566406
512,-1284.8633,78.85974,472.24023,673.1931,-199.86887,-371.98795,2108.43188476563
513,434.3848,-281.25644,24.637264,220.92352,-274.8608,44.575935,875.117858886719
514,-1728.9133,222.83058,-604.3746,920.1047,95.34455,-10.522686,2333.765625
515,-2467.6648,212.62135,-689.5466,-847.1406,273.2204,28.857502,2821.19848632813
516,-1169.1268,75.92459,-448.5568,-307.13254,-380.79166,153.33986,1400.27307128906
517,-1824.5127,1117.9576,-130.4679,-407.24524,-138.19504,-122.24291,2672.62280273438
518,-794.76843,516.8885,590.25745,-720.2541,-5.845149,23.536066,1838.51135253906
519,1254.6599,-1127.7994,-1607.0377,-32.13982,-343.36108,54.982674,2722.75708007813
520,2389.8594,-132.4843,-1553.206,362.66345,107.91676,-266.60294,3550.62817382813
521,-2911.7527,-2202.117,254.67554,-43.24852,-25.679583,199.74841,2900.02197265625
522,-3514.326,-1932.2119,-89.67846,0.2011081,-21.833828,4.23081,2968.9384765625
523,-1605.3442,-205.25262,-72.88057,19.70083,-100.636894,51.795853,1484.15234375
524,-587.21216,-1934.8834,-191.24617,78.39047,-271.3108,57.250404,1660.04077148438
525,-93.136604,58.932476,1019.49585,234.08806,262.33017,-327.0822,1335.54125976563
526,245.69873,-507.7891,-337.8571,1169.1978,-151.07797,45.417213,2155.06640625
527,-2411.785,-1376.8453,-309.5153,316.69394,241.15813,34.70956,1947.79016113281
528,-965.4787,-1208.3069,481.83173,50.051056,-28.377115,-91.03034,1593.71008300781
529,-1615.8857,-2050.2244,-508.525,453.15356,-145.29398,83.44453,1611.25158691406
530,-83.95462,798.26587,498.24323,-287.1582,-161.31284,-193.09053,1020.26336669922
531,-992.138,403.89038,739.7143,-1037.3163,-148.24841,175.41357,2432.44946289063
532,-1869.9877,4071.318,-410.80142,1136.6255,126.02007,-1.6907209,5716.84130859375
533,-1092.9315,1914.9509,-423.4222,1764.1324,20.578459,320.76282,4138.62548828125
534,1394.0496,-424.21057,1315.2809,1085.4952,355.43445,11.27039,2661.45336914063
535,2155.8254,-339.4839,1152.9319,1130.1337,-106.72817,-168.33266,2946.28955078125
536,803.9823,2271.506,-53.605633,-1036.869,-50.05833,76.86856,2719.9541015625
537,-1813.9202,-883.62915,-694.8996,1061.3037,-147.38873,-6.284846,2126.26879882813
538,-1188.86,-805.7936,-306.417,1499.8342,-71.44594,282.3012,2755.052734375
539,162.47131,-285.14368,716.2278,-384.30197,240.6688,32.216656,1172.52600097656
540,2704.7703,41.905537,-623.19977,-484.2117,-184.32054,-21.278078,3179.77392578125
541,-358.03995,40.903667,29.40636,-1373.4037,197.02649,-186.99693,2456.578125
542,3029.781,1014.45685,-453.6629,-80.41045,77.1817,-78.299416,3038.30639648438
543,2662.5103,-1389.6534,-1014.2873,-1386.2173,138.15733,-149.37979,4574.81005859375
544,1266.429,-759.7299,-542.74054,-1941.684,63.632137,157.83481,3887.16357421875
545,-94.1434,-673.0866,769.9568,1044.5933,-41.566933,-192.40092,2229.76953125
546,2280.4458,690.3281,164.1998,94.44282,-102.38522,-27.180449,1924.13977050781
547,2137.974,815.64813,-161.99236,-835.8146,28.011522,275.49554,2514.5361328125
548,-1073.6323,-992.1831,-96.078575,-1394.2247,-322.58105,-13.048617,2650.82983398438
549,261.73904,934.04,172.6897,-381.64578,134.60423,-63.933014,1011.61450195313
550,-2338.2407,-2385.4355,-945.48944,-1537.9111,-7.134018,-8.22379,3017.21435546875
551,41.682262,2458.7722,184.0032,-210.25731,64.25282,-220.5877,2410.30346679688
552,2085.3699,-153.53157,1667.1091,-338.00616,9.049004,-39.977962,2144.51904296875
553,1442.3135,365.8037,1707.6234,-785.789,-8.960772,-112.12532,1845.32421875
554,469.84662,1098.0294,136.69637,31.716545,-56.209408,-11.358491,853.091674804688
555,1529.3225,882.796,193.80658,693.431,-0.396948,24.448767,1668.07873535156
556,-1012.6693,-2669.052,289.35498,-1179.0021,-306.60397,-344.96237,3377.08081054688
557,-2255.682,-3766.2444,216.88387,-361.6558,72.61895,80.639565,3543.73510742188
558,707.53864,-1445.675,250.009,-219.3724,212.59175,-24.101847,2035.24072265625
559,562.0875,-436.80545,349.7279,747.0121,337.48602,-383.94717,1813.49853515625
560,2787.1855,1321.3989,446.02905,1008.0621,-109.72859,-50.035114,2700.01977539063
561,-409.63766,611.89764,-116.62997,-0.3889344,-3.1397207,-98.0905,926.803955078125
562,1549.4609,-1233.633,-319.71326,-169.90102,-14.657196,146.65178,2487.79028320313
563,587.8835,-1262.9093,-229.85115,677.6105,2.2986107,-21.94552,1989.87316894531
564,-452.0558,-404.52005,-308.45374,-1143.0422,35.93058,-9.089327,1984.89599609375
565,-1263.263,982.06934,-959.2408,995.4564,-9.295027,189.65208,2744.49975585938
566,1186.1208,1058.6827,740.1195,764.8855,-156.63501,-61.01555,1413.591796875
567,955.13635,2785.5652,-500.14188,-1175.791,-57.589706,-43.41236,3506.443359375
568,940.60956,2480.995,919.76385,-1021.19916,-266.48712,57.416763,2399.33569335938
569,-1072.0513,-326.37268,-120.38336,-479.0199,-149.02519,-149.66788,1254.70190429688
570,-365.50446,-689.0072,-258.31186,59.097313,113.95429,-71.09605,464.133117675781
571,-350.22504,-693.4491,-369.90314,-3.303038,161.02438,76.560005,454.796173095703
572,-699.4863,37.462894,1158.293,841.5566,-127.00568,172.05122,2210.70068359375
573,-343.84808,-1191.1902,-868.1166,202.68,262.4118,213.30992,1007.43835449219
574,-558.12305,-1434.2781,-507.17007,229.81075,235.33047,-99.49112,1081.27807617188
