Element Label,S11,S22,S33,S12,S13,S23,Mises
1,31531.953,36072.848,11781.119,-11566.622,10816.864,3103.4695,35800.421875
2,-11916.979,3307.5474,-8708.179,11436.928,-23.648878,-17889.604,39316.09765625
3,40375.93,47978.19,27794.902,-9964.658,-6621.991,14200.587,36689.59375
4,-31985.383,-30835.75,-60835.562,7922.273,11796.657,-5041.6104,39355.37890625
5,41884.92,43867.04,43981.81,258.30557,14475.428,13766.89,34663.6015625
6,13046.856,-4505.49,-18400.057,-5082.083,-1798.302,-14097.311,37794.3515625
7,28960.344,54096.938,27405.152,15785.21,-7787.0967,1765.6487,40151.546875
8,-3744.3672,18352.434,22715.771,11386.986,-8224.31,-10040.625,38704.95703125
9,-9535.016,12095.748,27036.957,12560.9,-2238.2402,-4203.9883,39442.3359375
10,6706.708,-400.74374,-21861.863,-3649.7686,12861.029,9533.084,38372.5078125
11,48286.62,44113.438,55929.215,-6325.7954,2121.8992,19172.682,36661.26171875
12,-52540.33,-41077.703,-19873.111,14076.607,6513.838,-1483.9337,39400.9609375
13,-9527.304,15418.853,34575.22,580.7647,3961.912,3449.4524,39382.140625
14,8019.4575,16198.831,23483.803,-13536.477,-1861.721,15300.049,37972.890625
15,7775.9253,7740.9604,13846.775,1689.6675,-3850.6033,3734.5469,11487.1923828125
16,22397.37,8219.083,23960.225,3558.3638,3614.8296,-11069.632,25892.509765625
17,305.23462,1577.4019,-712.8635,-57.388077,-76.37691,93.87589,2000.98547363281
18,137752.42,137959.1,138158.86,-884.53937,-125.36894,703.71783,2000.98571777344
19,15942.478,34818.723,22555.502,-745.8527,3020.5742,3204.8489,18304.8984375
20,42850.35,41175.79,8750.871,840.8244,11205.732,4461.477,39332.14453125
21,236018.22,236522.89,236213.14,-82.35786,1105.6545,-195.67378,1999.236328125
22,25210.426,24213.027,24279.299,462.56387,812.1619,-386.70898,2000.61120605469
23,113214.95,111957.414,112742.56,388.3651,395.51636,-789.86664,2000.98913574219
24,130751.86,131267.1,131817.84,-415.9186,-862.3927,365.7206,2000.98486328125
25,36102.656,34794.227,36377.46,522.6539,-54.242176,585.5329,2000.9853515625
26,10905.616,11742.262,11356.778,-523.9098,-690.14716,639.1315,2000.96997070313
27,-93597.07,-96203.25,-101063.5,3283.3882,-6896.657,6745.1733,18831.0
28,2465.0066,3219.0757,3036.5183,255.72372,-834.73914,646.2983,2000.98547363281
29,35836.414,54166.76,37013.508,-10232.103,-9487.941,-2902.3804,30417.642578125
30,-10069.183,-8219.494,-7461.929,-679.0581,2264.1301,-2722.743,6663.23583984375
31,5456.27,5874.2812,1591.9048,2651.6858,1987.0927,-6512.9614,13301.1025390625
32,3609.2417,3243.017,4211.3477,958.8007,-391.8705,-150.76875,2000.98364257813
33,12093.41,29670.271,29384.773,8890.513,-1884.3951,-14236.137,34055.671875
34,50922.63,23771.424,15152.514,3061.8838,-11511.8545,-5698.7183,39605.6484375
35,14960.295,29067.896,27766.865,19471.506,-4126.6934,105.57688,37025.71484375
36,25315.81,15039.681,37610.02,5808.3345,-13670.78,-9762.0,36480.875
37,37944.39,27187.363,27210.436,1389.5894,-8466.134,-9534.421,24677.939453125
38,505.35342,-389.93442,2938.6726,9766.511,-2379.7695,-15627.641,32322.046875
39,7537.5825,-5488.899,7186.1553,2188.2356,5594.8716,-5945.295,19481.9765625
40,49010.2,46565.75,44663.22,-3771.6797,2259.151,-3554.2017,10494.314453125
41,-309188.44,-309713.66,-308477.78,431.4592,-533.7487,-688.33356,1997.16821289063
42,64074.6,64305.695,63856.1,1039.3735,363.1915,-267.23788,2000.62622070313
43,-2047909.4,-2049336.2,-2048156.4,479.91635,155.72653,-608.7894,1902.66345214844
44,-62033924.0,-62035036.0,-62033652.0,647.6471,33.10064,-613.2134,2000.67761230469
45,-4049663.0,-4050349.8,-4049891.2,624.74457,424.15826,-801.3262,2000.99780273438
46,-63872.32,-53676.848,-61059.145,5323.299,5642.922,833.22705,16303.466796875
47,-274285.2,-274219.47,-274756.72,631.81903,693.7113,-606.90295,2000.98327636719
48,12809.389,13202.526,14050.1875,751.64185,79.088104,597.68,1997.91369628906
49,-15199.492,6488.172,472.51865,-1741.9279,1911.6782,-296.761,19909.998046875
50,6675.19,7655.7583,13190.388,-42.311504,831.6045,2688.319,7796.279296875
51,1180.2595,7795.6133,6270.405,-7548.647,3210.7625,-7157.476,19787.900390625
52,45302.387,46410.312,45978.14,-377.14648,876.8161,334.3232,2000.97766113281
53,19742.68,15934.666,20881.834,1466.9861,-753.1055,4093.646,8863.8603515625
54,5644.4653,4592.279,5962.0444,-721.20337,-251.69203,-486.8311,2000.89184570313
55,-1506.2073,-2254.2954,-1571.5972,432.92868,-675.205,-720.87,2000.98522949219
56,2519.473,3391.5544,2095.728,-619.5262,450.49176,557.74774,2000.78479003906
57,115562.12,114651.34,113551.28,-402.87457,350.74127,-188.33145,2000.98522949219
58,-12999.564,-13836.467,-13854.44,-995.9558,-308.08765,95.41587,2000.90515136719
59,3052.7175,1985.2042,2962.4927,900.57056,257.296,326.9927,2000.96667480469
60,4045.8923,5026.6255,4561.5415,157.38867,-963.33014,-375.76468,2000.98559570313
61,73825.42,73794.2,74442.78,-284.7112,-909.9344,539.8621,2000.71423339844
62,-204341.22,-204642.69,-203910.44,-662.236,329.1081,807.6517,2000.9580078125
63,115253.73,114741.45,115315.54,600.10754,668.4367,-654.52673,2000.98364257813
64,236772.45,237739.61,236638.11,716.1295,-339.14536,-583.4732,1997.06701660156
65,163324.3,162665.56,162073.05,781.5684,-339.35736,463.29114,1999.3173828125
66,316799.84,318430.38,317544.84,337.72107,309.4024,676.4367,2000.24182128906
67,126809.25,130369.125,130186.81,-3102.4417,-3102.4954,-7329.413,15197.6865234375
68,117592.08,116680.1,118293.42,634.1015,-116.73417,-514.3373,2000.98889160156
69,-305667.84,-310642.9,-317184.62,513.19916,-6235.557,1369.842,14938.4345703125
70,43934.957,43928.09,43717.8,68.86589,61.105827,1143.5645,1998.58972167969
71,182488.95,183406.19,182789.6,144.71616,-565.5052,878.00165,1997.70446777344
72,-694284.9,-701434.4,-707842.3,5405.0244,-7942.936,1372.0234,20507.3515625
73,94104.336,95691.18,95718.805,154.86449,-346.5998,579.9224,2000.986328125
74,128283.875,129858.195,129292.95,-386.0516,-729.81085,90.283905,1994.37805175781
75,38011.082,29897.082,16627.62,-8700.19,-1154.2706,-4338.431,25241.373046875
76,5117.694,5323.364,5856.593,328.70297,-649.2838,809.13586,1997.31079101563
77,14743.549,16309.306,16229.027,-208.0842,685.5464,-209.56229,2000.97729492188
78,18751.03,14768.376,16645.54,1268.0507,2477.5513,-494.54208,5990.11962890625
79,85525.59,83192.1,82579.98,-920.9341,1956.483,-952.088,4898.5224609375
80,35775.926,37829.223,36753.984,364.52036,-336.3457,-183.97807,2000.98388671875
81,148319.3,149613.12,149086.64,294.06024,422.71393,-803.8418,2000.98901367188
82,108222.36,111002.71,112378.23,-4794.353,-4750.081,-416.7047,12272.53125
83,-8691.453,1411.0347,876.35284,592.9849,-2090.3247,7647.6074,16928.24609375
84,27128.053,32369.395,30046.1,3759.01,884.2112,565.71454,8147.8974609375
85,-25483.773,-28821.316,-8456.421,-13263.444,-8530.37,-5001.623,34336.6640625
86,-13018.129,-10772.877,539.51337,12310.871,9493.208,-1507.4667,29837.283203125
87,2332.133,12885.728,16990.625,10154.998,11544.962,11950.217,36182.9140625
88,4882.325,18017.105,13223.599,-10346.121,-7374.897,1915.5845,25056.751953125
89,19612.797,19665.219,20337.877,5312.3706,3726.8154,15248.072,28711.197265625
90,11584.137,5213.1357,13197.811,-469.38696,5852.733,17098.76,32155.89453125
91,45030.29,61574.84,57847.72,2659.155,4130.928,12322.894,27457.572265625
92,-64618.355,-72089.11,-46389.35,4263.9917,689.8546,-1088.5453,24162.37890625
93,111498.28,113582.875,102853.29,-6685.456,-2207.1582,-2672.418,16347.1337890625
94,9338.862,10664.03,8385.549,13.084108,157.11412,20.011866,2000.98645019531
95,15236.652,16281.078,14427.624,-475.75934,493.5778,35.22872,2000.98559570313
96,1870.5411,2850.4114,3908.3455,5304.202,5035.388,-1940.2843,13224.1904296875
97,-1189.9618,-2424.7856,5333.5986,8491.164,-6312.9004,2735.706,20259.494140625
98,40292.812,22677.748,33745.258,-7938.5195,319.3957,-4994.2993,22405.8203125
99,2886.1667,-17806.588,-8912.643,1226.7585,-15429.284,-8279.943,35321.7734375
100,-4218.6743,-3843.9927,3048.388,-4065.0488,3892.672,19941.832,36582.6484375
101,-98324.85,-99611.31,-99363.086,-1188.8004,3458.2537,221.35968,6454.65380859375
102,18327.771,34000.723,27105.145,-4102.5796,-3278.1772,-3179.2095,17267.63671875
103,22354.861,22670.508,23216.426,942.8851,-243.27542,442.28098,2000.36474609375
104,59788.47,59488.285,58587.316,554.0387,148.41327,-784.1504,2000.9853515625
105,23202.078,28656.492,20134.36,1622.2236,-3823.935,-271.9026,10386.443359375
106,-41.61835,7807.355,4342.2676,-1492.5171,-1985.9858,3010.0024,9597.4697265625
107,1511.227,3661.8152,2691.984,70.50331,-409.7978,42.14883,2000.98449707031
108,47453.156,45434.715,38363.004,2762.5742,3347.4878,17665.01,32573.412109375
109,36707.664,21020.648,32364.54,13451.054,-1311.0092,-9124.047,31535.8203125
110,92331.93,92044.2,90393.12,-132.02286,-439.24493,-171.16008,2000.7294921875
111,-344.33432,-6140.0186,-10074.4375,-5815.2466,6147.8774,-4716.2856,18800.07421875
112,92384.195,92181.945,92489.016,325.73297,1040.023,350.04886,2000.98583984375
113,20043.988,31013.797,29980.41,7467.068,791.59186,5275.0537,19044.638671875
114,64823.08,65467.93,65344.324,288.05887,-393.83945,989.58575,2000.87646484375
115,123144.95,134097.83,155813.94,-11492.069,-278.3683,2528.8674,35284.9765625
116,50206.945,40846.484,45760.656,418.07104,-721.3368,455.47647,8275.029296875
117,14468.463,14727.183,10005.318,-2006.1217,4584.736,-532.01154,9855.1201171875
118,22518.793,23498.904,23174.928,747.5121,-720.7102,84.06606,2000.95971679688
119,-8445.056,6727.3,-10833.292,-822.7949,2913.824,-6100.6855,20280.443359375
120,3558.1553,819.56024,1789.7308,3966.219,-5395.919,-7776.7803,17937.662109375
121,108252.05,108422.586,108175.17,-133.69061,-30.443453,-1139.4108,1999.81848144531
122,56376.082,55375.285,56437.93,149.73515,-576.0778,787.0389,1997.11437988281
123,10077.498,10628.728,9258.099,-389.29092,796.30334,270.83694,2000.98571777344
124,39875.613,41811.355,40566.465,-139.31505,593.28394,28.122883,2000.90466308594
125,19538.52,20843.799,20546.518,72.10926,239.17296,896.7791,2000.98571777344
126,150650.53,151759.34,150560.72,184.94165,-564.201,732.40393,2000.98522949219
127,154250.67,149323.83,146151.28,6739.796,2510.4688,769.76666,14385.02734375
128,15671.521,906.49854,27200.152,5821.1743,-2269.0764,11675.789,32360.658203125
129,13041.938,14275.188,31748.361,-6358.2124,-2102.4521,-8158.1865,25740.84375
130,19047.793,8415.739,15729.585,-11563.674,-6294.317,-10905.861,31074.041015625
131,-2717.3657,4237.102,11996.001,9865.875,-241.33617,11424.675,29090.8046875
132,-106775.68,-106410.9,-105372.78,-469.6883,-478.23682,3146.283,5712.67724609375
133,259434.25,260759.7,259418.16,-596.55096,-132.28477,607.0173,2000.98559570313
134,21456.379,22336.324,23637.42,82.08882,269.43365,-224.317,2000.25
135,316738.78,318137.78,316475.3,-583.45184,-27.772781,441.66275,2000.9921875
136,-1322348.1,-1323474.4,-1323008.8,530.9066,202.47774,-831.5485,2000.95764160156
137,-169567.58,-169842.73,-168690.88,-842.3713,-1314.9028,-207.46956,2920.67749023438
138,123928.42,124693.484,124316.97,186.15091,898.46124,-588.27014,2000.71643066406
139,26029.283,24858.805,25763.89,969.76263,112.25492,-63.30154,2000.24011230469
140,-249741.7,-249682.77,-252358.17,-252.57166,-1892.7013,-273.3853,4262.17529296875
141,80525.19,78640.5,80579.914,-326.6866,74.06088,54.975574,2000.96960449219
142,71251.98,70040.88,72081.54,100.14096,105.60418,510.1048,2000.94030761719
143,59947.37,59756.36,60340.562,-224.8585,541.6673,949.71106,2000.98413085938
144,52357.383,53167.02,51456.9,721.3102,100.66437,269.08627,2000.98376464844
145,25521.291,25183.55,26861.514,-31.982374,168.00008,-719.47504,2000.89636230469
146,146400.83,142938.39,151739.6,-10808.097,3247.726,4381.0337,22330.34765625
147,42044.61,42635.344,41452.44,430.34448,-884.935,127.89046,2000.857421875
148,36681.414,36595.977,36114.402,314.35745,608.51184,878.6425,2000.92919921875
149,13253.813,13783.436,13965.399,-114.20458,-911.1611,-595.46765,2000.87463378906
150,12225.395,11378.778,10116.3125,-227.69746,355.8391,172.37311,2000.98571777344
151,28885.025,33958.812,31909.416,6459.6787,1625.2588,49.975933,12355.5400390625
152,-22298.963,-17673.268,-25562.295,-11162.885,8829.003,-12147.056,33128.2109375
153,123165.875,124022.15,123773.71,-141.5136,946.5535,-473.91434,2000.98693847656
154,66578.84,65363.75,66049.19,-843.6502,-9.168632,501.67834,2000.98449707031
155,13263.267,13299.571,13766.863,-357.71124,92.11025,-1057.946,2000.9296875
156,-441.65463,3868.5903,1286.0667,2926.2817,5681.8457,-873.4479,11787.474609375
157,6403.7446,11421.975,10977.641,2429.7366,-763.2846,6104.7925,12426.3603515625
158,7848.5127,10736.772,8073.888,10807.193,-17432.945,2540.1067,35905.53515625
159,-127.77296,-9771.641,-9472.278,5313.645,-6077.6216,-7686.3027,21516.5390625
160,-18104.04,-30229.455,-18218.64,-4148.548,6791.6396,-5468.0005,20624.1796875
161,76741.734,66443.21,72669.26,-6398.382,4610.616,-2341.1755,16844.544921875
162,-26251.525,-50154.54,-36250.68,-1951.183,-5660.346,-11463.223,30562.78125
163,2397.2566,4902.6724,381.57034,2767.11,3637.7488,13652.635,25243.689453125
164,-33852.832,-28427.941,-26199.86,11291.722,-316.3303,-5457.1294,22773.466796875
165,28693.154,26440.168,27940.662,-9423.245,11028.314,-1938.8566,25426.1328125
166,18050.367,-8542.045,6091.6606,1523.4586,927.63684,6956.096,26208.05859375
167,26915.578,21495.625,30016.01,1051.0109,-7478.3564,9837.633,22742.49609375
168,22699.979,5558.3545,16024.825,-5169.8193,-3125.37,2628.3389,18819.654296875
169,4296.1665,5677.3477,5063.736,-26.22819,920.8221,-84.59025,2000.98522949219
170,3563.2307,-21339.424,-10700.673,4196.939,13103.809,-2899.9924,32582.1171875
171,7680.8438,6847.723,7710.6895,-944.20306,-333.91193,302.39163,2000.80432128906
172,-17110.568,3104.185,-2583.2036,-4799.3535,210.0604,1145.7015,19979.619140625
173,11873.696,26267.125,14547.97,254.93825,4607.644,-7820.197,20571.416015625
174,1696.6793,1965.4235,5189.1,10545.353,8132.059,-4269.958,24454.708984375
175,3873.833,3333.4114,5014.879,175.5376,363.3849,659.4299,2000.95385742188
176,72596.3,44726.47,64731.418,-8905.189,5990.6616,-4896.0537,32200.560546875
177,23017.477,21899.934,23469.395,-560.13116,-551.04443,-251.8245,2000.15185546875
178,94746.11,92589.56,93655.305,-357.54034,-31.38847,207.60953,2000.98571777344
179,19309.11,18522.158,19092.094,624.8119,731.1616,-494.42657,2000.98522949219
180,1002.30145,2622.4678,1373.0165,405.52777,670.4722,8.886717,2000.9853515625
181,3331.206,239.64857,20132.346,4847.485,-1244.9926,18336.867,37784.1796875
182,-55710.508,-60020.68,-55815.77,4286.6978,-4928.1064,5215.2544,15090.3154296875
183,124739.34,123746.33,125735.39,-365.2815,27.582808,-459.73926,2000.98327636719
184,92919.8,94536.34,94903.75,-1.4415265,-52.038754,461.8694,1997.55871582031
185,3130.2021,3067.6443,3199.505,324.92905,284.2473,1069.5426,2000.98522949219
186,-92469.64,-104027.17,-92640.164,-6035.9956,-3500.4714,-3214.3936,17569.615234375
187,-30336.727,-47575.203,-31703.424,-2971.1985,2872.801,4935.214,19994.62890625
188,51580.445,53819.06,61840.094,-7085.055,1222.3711,2421.3066,16123.5595703125
189,21844.193,21165.234,20061.135,673.31244,98.552376,-248.385,2000.98254394531
190,4965.641,4863.843,4797.6807,-7.870074,1597.3009,-4399.8364,8108.7265625
191,10547.699,9445.273,10840.563,-117.21587,829.9841,301.16846,2000.97973632813
192,-13306.331,-12762.908,-18887.068,5309.626,-1310.5123,9627.6875,20056.880859375
193,20776.682,15353.068,6961.7544,-2774.0154,2470.232,9364.362,21208.640625
194,7231.61,-17287.818,17376.53,11368.916,-2349.8867,4471.865,37645.515625
195,19602.846,18296.598,18669.95,496.96268,-766.0476,219.5092,2000.98498535156
196,20552.178,16878.018,20555.975,-577.5626,-968.95306,-80.35689,4165.349609375
197,12727.71,-22755.959,-21573.277,3383.115,-925.6783,-2709.7961,35741.5703125
198,22599.135,18407.559,30021.537,2499.7668,-3483.9893,-1991.9454,13070.482421875
199,15700.019,-6046.4844,2305.1294,1206.2506,-9456.646,1493.8688,25305.84765625
200,-16789.637,1562.387,-27930.242,-3576.0303,-7234.6694,-9345.192,33507.3984375
201,-14122.482,-25640.086,-4263.948,6519.6646,-1446.8326,-7891.592,25768.630859375
202,-34876.484,-27214.244,-1388.2218,-3274.6558,5970.2515,-7365.1904,35005.9765625
203,30556.836,28319.256,14660.713,-9752.8125,-8923.128,104.28232,27319.8828125
204,-52031.094,-60780.62,-55278.914,-2588.168,-8272.855,-15322.745,31439.806640625
205,18277.148,814.80316,6754.6953,-8115.9795,-2853.577,-12316.252,30225.77734375
206,72117.48,57473.055,68378.734,-10054.525,-481.114,-4348.7896,23117.013671875
207,61275.875,51343.656,55850.902,-1765.8575,10019.81,-10826.0,27135.744140625
208,114825.85,102366.35,108495.85,-2018.4326,2046.2827,-3301.7893,13188.2099609375
209,21649.88,20552.996,20067.12,-97.780525,-182.19473,-796.5526,2000.98461914063
210,12855.359,202.32072,9549.777,-3799.6484,1234.7819,-7851.1274,19026.48828125
211,125384.04,124023.5,124648.25,-791.5319,479.73428,116.51464,2000.52819824219
212,-335483.38,-335151.06,-334102.6,-71.55698,-108.499405,-893.4791,2000.93225097656
213,77722.516,77856.04,78758.01,-407.19135,-490.43152,781.6953,2000.98388671875
214,158715.8,158435.3,159996.0,267.21533,648.7777,386.35147,2000.3623046875
215,-584707.5,-594815.2,-577915.3,-6718.28,3103.9536,3289.3762,20340.154296875
216,16326.925,22346.043,20596.197,-2323.251,-3324.8347,-14438.271,26523.693359375
217,-84015.14,-61429.05,-70600.01,-6400.7583,-6595.693,-4625.632,26546.373046875
218,-19863.227,-21143.25,-15168.168,-13584.326,-10535.558,-371.06192,30277.064453125
219,4962.6553,7212.4106,16434.812,-1824.3232,6232.584,-15418.352,30831.130859375
220,-14044.052,-5307.705,-17507.752,-12026.485,-6273.26,3526.596,26605.6796875
221,-3768.759,12293.618,-6003.5513,-4278.69,-13355.939,367.33377,29822.140625
222,20224.967,2411.6748,-5974.724,-8518.829,-204.71243,350.87936,27481.64453125
223,19098.123,8420.669,28739.145,1216.9745,-12259.561,307.6662,27667.966796875
224,35234.867,40792.562,34411.645,8889.104,-4180.288,-3187.0852,18870.25
225,-18415.885,-10901.893,-1136.9985,-11908.406,-11606.913,-3679.3228,33096.68359375
226,-102396.31,-98595.69,-89048.44,-8491.456,-6995.044,2500.6445,22885.505859375
227,-52782.824,-49573.043,-46349.84,-4434.8784,-2224.332,-11078.419,21750.37890625
228,55003.29,50290.27,52532.848,-6198.025,-5403.145,-7413.235,19605.330078125
229,122623.17,133300.47,131124.23,-782.492,87.943634,3449.339,11535.0888671875
230,-80721.45,-90707.3,-88464.81,28.282417,2555.3938,-7964.8384,17095.6484375
231,18897.55,19755.168,19066.273,1029.0999,7.2826886,-262.85522,2000.96276855469
232,-42640.125,-44330.64,-42815.68,-620.5313,-82.51802,-280.7379,2000.982421875
233,-153635.45,-153846.12,-153187.88,425.91266,278.90897,-957.9553,1967.1328125
234,18268.871,17300.05,16493.518,-255.12015,-172.84453,-670.37756,2000.89904785156
235,118127.51,117229.09,118376.38,586.98785,455.72522,-643.3786,1997.80090332031
236,-433282.8,-433709.72,-433352.78,123.27017,-782.7092,696.5574,1869.84997558594
237,144832.08,143578.03,143801.44,655.1845,-284.03436,608.65247,1995.89135742188
238,-349370.94,-348712.16,-347686.2,-525.8138,388.3204,359.0313,1957.2998046875
239,54927.008,54735.426,54500.977,-72.915146,450.31802,-1034.7476,1993.2392578125
240,55223.707,54335.113,55960.438,535.29126,-563.9107,-232.18004,1990.56359863281
241,172570.78,168791.48,171579.14,694.53845,2106.2588,-2449.1763,6653.58935546875
242,66300.28,66471.94,66578.516,23.620663,-820.2949,798.6379,1998.22717285156
243,85727.88,87578.39,86395.89,-261.25183,-373.58795,-498.67374,2000.98669433594
244,67221.97,67871.164,67903.11,-292.24698,1037.7407,153.83084,2000.28674316406
245,-143878.98,-144848.72,-143867.62,738.7321,264.55518,-633.8442,2000.98693847656
246,150200.4,151441.83,150207.83,-211.68895,672.3141,-572.0013,2000.9951171875
247,142134.88,109555.5,141063.84,-4722.8237,880.8338,-464.80368,33129.4453125
248,53601.95,53354.727,41658.344,-167.09085,1272.4846,-7249.376,17388.498046875
249,39077.246,4562.418,29310.133,-8744.493,-3721.748,-5493.601,36208.44140625
250,-15986.967,-34346.23,-35255.336,-16412.172,6675.782,-681.3165,36024.27734375
251,-37031.33,-55866.707,-46346.113,13102.833,-3593.7727,9452.417,32983.81640625
252,74123.73,64763.227,73919.92,-13.616454,7548.503,-6777.173,19861.6015625
253,-19044.238,-20698.947,-18593.162,-108.26747,288.23746,-101.953354,2000.88049316406
254,110508.06,107885.414,105990.93,-4014.7092,636.8496,-12025.862,22335.408203125
255,45012.4,45912.945,44976.43,-140.42207,-900.05695,471.37366,2000.17797851563
256,91849.42,91634.66,90554.19,472.70963,761.6329,219.62126,2000.22546386719
257,40483.15,41023.55,40498.71,-462.1743,988.0353,-224.06766,2000.98522949219
258,-183056.61,-185113.0,-179387.58,2063.9453,-1156.9841,-869.6023,6655.7919921875
259,85738.76,74003.09,75988.91,-2380.7913,1988.3777,5629.1396,15565.7158203125
260,60892.203,55106.3,51189.21,-487.7725,237.09903,7224.167,15130.509765625
261,10656.541,31514.465,21803.363,-4560.7754,3287.2434,16412.168,35067.1171875
262,82275.914,88763.05,79217.914,-12919.744,6564.3726,8846.848,30595.82421875
263,-21788.22,8934.691,-3382.146,-4990.405,7295.6587,-356.0998,30853.9375
264,3282.8945,15636.621,30875.984,-13226.739,10650.475,-7547.308,40114.07421875
265,-25741.732,-15248.329,2442.7273,-14906.651,6735.6597,3399.222,38027.89453125
266,-45629.26,-28967.256,-17392.992,-15124.166,4032.46,-1186.4563,36656.0078125
267,-19074.584,-7072.275,19201.572,4109.342,-8166.363,-4010.33,38061.71484375
268,83188.42,75459.07,86670.76,4135.048,-1330.7427,1920.2494,12901.7939453125
269,16400.277,16206.287,16715.496,975.9755,560.30634,46.135536,2000.98583984375
270,79585.46,80011.49,80435.42,-227.79321,-267.39233,-1015.2105,2000.98693847656
271,-424323.06,-423807.6,-423459.84,245.61192,-937.7882,454.1482,2000.98974609375
272,140979.05,140822.81,141015.84,8.806687,1126.8275,-199.08487,1989.94213867188
273,48799.17,50141.14,48757.133,-399.29785,702.0088,-250.40768,2000.98474121094
274,44301.758,45252.383,44586.83,-593.1687,749.06934,-428.34103,2000.81188964844
275,53475.28,52478.848,52340.457,-193.21492,672.8266,679.19696,2000.98413085938
276,46587.996,35707.7,35619.297,-11560.257,2338.1746,10691.204,29657.642578125
277,-13416.571,4278.754,25033.219,-8546.194,6631.701,-800.7848,38263.609375
278,40679.83,41036.594,42710.477,314.63916,-203.78221,-118.691925,1997.54541015625
279,-21254.814,-28262.455,-28150.654,-5562.85,155.46463,-3669.5535,13477.4384765625
280,29344.81,28781.027,28925.777,163.09021,-1010.6607,-435.54355,1992.58410644531
281,-199442.34,-171944.25,-176908.39,7300.965,-7892.1533,-1588.0751,31600.94921875
282,-1401493.6,-1415046.0,-1402054.2,-1742.9791,-3156.9944,1173.3309,14816.4521484375
283,1836.3604,6252.732,18916.191,-6926.5967,1566.5981,2715.3926,20228.94140625
284,56466.18,55261.152,56331.348,-113.92693,158.10936,927.74493,2000.96484375
285,9048.881,12853.73,11045.37,6747.711,-10216.237,3326.385,22220.943359375
286,4925.6157,4893.6943,5188.379,1049.9534,179.09438,417.15738,2000.9853515625
287,194536.6,186587.47,200528.94,-3095.3535,6370.942,-3798.7764,18453.5390625
288,11259.536,8437.027,3308.1284,10129.925,5447.316,-10445.707,27802.02734375
289,-32080.023,-2293.3772,-8197.025,-3253.8613,-6119.844,-10489.539,34935.0703125
290,8022.5376,-19606.299,-4788.8022,-7107.5923,-863.1571,-9592.066,31675.42578125
291,12651.132,-4043.3115,9592.91,3888.2942,-1198.1934,-13716.562,29173.576171875
292,-60895.023,-34188.484,-23658.5,-2720.5044,875.4623,8051.9463,36391.53125
293,66307.195,67511.56,66075.45,67.03778,205.60794,-832.5448,2000.75134277344
294,65822.64,65369.902,65539.734,248.37547,-179.39941,-1090.1667,2000.98461914063
295,12107.023,12120.263,11973.318,-916.0297,690.57806,109.687584,2000.98522949219
296,-86019.68,-101874.62,-100387.586,-1506.6191,-724.12024,-6735.8213,19352.265625
297,280881.38,281191.1,282055.84,-817.8495,426.817,-336.28058,2000.98803710938
298,17646.982,17709.662,15955.605,559.27,153.18745,85.71147,2000.37182617188
299,-719156.1,-723998.56,-716340.1,-3668.2202,6046.437,5324.604,16736.646484375
300,-7716.6274,-13196.396,-11183.854,-14480.657,6838.971,165.84216,28151.6484375
301,23146.043,11407.548,38553.19,8307.921,-4186.2163,-4312.0117,29520.2890625
302,-23693.572,-17764.342,2414.7095,-13750.017,10184.633,-3988.0735,38575.6328125
303,16146.029,14492.445,46692.164,3617.7258,-1655.9698,5565.369,33566.6796875
304,70312.65,70985.11,69601.88,-104.38197,545.8709,739.4843,2000.619140625
305,208825.64,208910.28,208302.84,298.47223,-1032.3492,267.53622,2000.98706054688
306,-129563.445,-124379.18,-127759.47,-2449.6304,2385.976,2089.122,8303.7734375
307,9827.606,13633.082,15147.453,2894.53,2130.603,-11154.872,20846.6953125
308,172740.03,170119.08,180468.61,415.45303,3405.4697,4942.2017,13980.060546875
309,56121.082,88012.74,75749.44,-9568.392,3485.7808,2813.8748,33335.23046875
310,-23445.021,-16017.1455,-16956.934,-18013.662,9956.472,4483.1445,37151.60546875
311,69802.41,68783.18,69699.2,-330.47778,298.59387,-906.2656,2000.83984375
312,-106079.84,-98026.51,-112614.68,7323.4795,3979.5652,6288.9316,22073.748046875
313,25677.09,25413.752,25957.535,-329.25873,405.2383,994.0162,2000.98486328125
314,52467.305,51205.11,50719.754,233.13736,628.2247,-268.05896,2000.98608398438
315,-14.468052,7752.5913,-3569.8726,-1095.3713,-675.1781,13555.596,25628.357421875
316,13080.567,-1556.0308,17488.732,6709.847,7186.7285,1686.805,24428.09375
317,-1178.5801,-1058.8159,-330.3055,5891.298,-4783.0615,-317.6534,13179.1591796875
318,24968.684,11029.448,30137.986,-2536.9578,-7400.7153,-10605.291,28532.734375
319,63183.05,59274.016,57113.49,119.59699,516.527,-3117.0557,7641.0361328125
320,1103.3124,-599.71826,-69.26494,-516.005,-13.48322,-555.6671,2000.9853515625
321,149836.83,150261.6,151573.98,-515.91144,475.43,145.1736,2000.01867675781
322,26871.006,25983.168,26182.74,45.918716,-1019.73004,-274.70377,2000.78918457031
323,-737313.6,-737028.25,-737923.2,500.49677,651.8556,670.28094,2000.25671386719
324,4669.386,13199.743,14061.018,1594.0642,-3855.1943,-16066.559,30124.232421875
325,-42525.645,-68301.09,-47396.58,740.50165,-5454.3345,-5366.3267,27199.92578125
326,-161195.5,-178002.12,-164862.19,-4348.244,-1352.3953,-11315.3125,26088.3125
327,23767.654,22059.83,21885.074,267.4862,127.52645,406.14316,2000.98681640625
328,35002.062,35403.305,36372.297,-220.62918,-886.4663,62.46871,2000.98669433594
329,250254.7,252007.77,249255.27,132.29396,-363.25406,2350.8452,4780.37255859375
330,141504.34,140759.1,142180.97,620.20306,-534.9029,394.84164,1999.373046875
331,-409802.44,-410083.28,-410708.1,615.7334,-678.95984,528.04755,2000.39587402344
332,12177.906,11958.705,11153.616,25.618906,211.83846,999.036,2000.87683105469
333,-104257.31,-102557.45,-120523.48,12414.483,-4084.4407,-885.3965,28458.4921875
334,8220.315,7472.1313,7707.3096,392.08133,2189.4607,-1393.4907,4594.2333984375
335,-633240.94,-631523.75,-630276.25,-88.88019,895.2613,-623.00977,3199.9658203125
336,-358323.5,-355792.44,-365152.72,5414.066,10231.133,-556.5614,21753.701171875
337,-17986.166,-2038.2731,3181.529,-12345.703,14071.425,-7254.0166,39673.07421875
338,-36693.07,-33899.01,-48509.613,3611.6704,6100.3687,1488.4733,18381.408203125
339,6351.4834,7257.3384,7076.3286,327.03806,-907.3224,417.87347,2000.94653320313
340,21167.422,28836.65,19509.033,4732.632,-10899.205,2922.4424,22879.671875
341,-28795.055,-29026.469,-19541.975,-10683.135,-5241.7993,-7200.42,25848.982421875
342,-22615.715,-22282.834,-22065.922,879.50977,-178.00174,-672.843,2000.97119140625
343,-32576.553,-30630.562,-24178.723,5431.028,-4908.1597,-5951.281,18027.197265625
344,24966.543,26193.998,25554.57,-787.8555,249.58864,-524.1344,2000.95678710938
345,-189155.53,-203967.27,-200322.17,-934.6866,2011.3461,-11114.386,23749.3203125
346,-369688.9,-366292.3,-375812.38,4575.4995,852.48694,-5738.3237,15284.09375
347,-7133.573,136.0087,8365.708,-20045.656,4274.699,7109.29,39904.02734375
348,130585.75,128966.85,131214.34,-3283.728,428.48996,2538.3184,7500.81298828125
349,88315.59,89763.69,91593.13,2204.3064,-958.02264,2400.937,6535.814453125
350,-73114.43,-79013.83,-69246.8,1468.8566,-767.7975,-14762.343,27103.5
351,-72143.234,-80052.586,-74960.516,-831.46716,-1761.676,-16849.803,30188.4765625
352,-91408.76,-102843.76,-83151.266,8627.23,1244.0406,-9677.496,28324.2265625
353,-107546.95,-93928.3,-123069.01,11291.47,6901.196,-8967.691,37475.609375
354,86024.13,67122.74,95632.92,-11379.829,4886.7534,381.69055,33042.25390625
355,-13027.879,21547.05,-995.03,-4437.432,6648.745,12192.925,39520.53125
356,-11557.553,-17513.59,-20710.012,5303.428,-684.3203,2405.869,12956.7763671875
357,-48715.715,-36050.445,-27051.443,-3733.3818,-18661.7,6111.862,39421.0859375
358,-15031.899,-16729.281,-13170.026,1649.2819,-2514.6394,-11511.587,20837.19140625
359,23628.488,22689.06,42848.2,-831.2902,-2528.2786,908.82306,20299.33203125
360,-171600.2,-169278.23,-162897.69,-3990.9739,-3015.3997,-13346.721,25891.7890625
361,116562.52,114291.07,149612.2,-292.72128,5373.661,4964.297,36514.79296875
362,6549.7456,10276.47,331.1006,1402.8467,-4766.388,-4159.0073,14201.6376953125
363,-11796.117,-45419.4,-4358.463,1386.9359,-776.90094,7412.0576,40103.859375
364,-2959.0674,7022.7983,38557.312,3479.1833,1646.4327,4037.9448,38758.1953125
365,-5202.7515,-15179.133,4862.826,-6747.0127,2693.0444,-1674.3846,21633.232421875
366,1041.6505,-828.89246,3779.255,-4108.263,-2102.7986,-479.43842,8983.4609375
367,-3809.7559,-4724.4014,-3026.9792,232.99962,474.9222,1105.7217,2583.14916992188
368,433.21478,14.763367,629.5355,-1463.1652,-1582.9487,-461.839,3856.86596679688
369,-34644.684,-10582.332,-283.08984,-10130.232,-456.74496,-6392.999,36932.328125
370,18856.357,34470.043,27045.715,706.7393,-20383.938,396.2977,37834.78515625
371,-27435.748,-48397.848,-39225.95,-16980.705,1434.8601,2554.8645,34958.01171875
372,-3871.1655,1215.677,-1918.0181,-702.7947,-1253.1022,3213.9832,7545.662109375
373,-121251.35,-102349.03,-92271.27,-11854.166,10964.578,6000.9575,39237.94140625
374,-16202.62,-23834.861,-22841.053,4564.7646,-2541.8613,-18539.275,34127.15234375
375,30855.793,32116.166,19638.965,5084.5537,434.85117,-9844.27,22591.9765625
376,181818.94,170829.1,174098.52,4059.814,6560.3325,-11308.97,25647.103515625
377,-13647.304,7761.3154,-29296.281,4208.969,-5682.1934,-8189.258,37275.2265625
378,-212789.67,-221325.44,-219615.97,7856.102,-13382.455,6305.772,30048.353515625
379,16096.055,19985.996,17078.697,14451.313,3693.6704,-28.641518,26071.59765625
380,170319.28,199867.17,186025.69,3692.302,-7347.0254,-10773.246,34737.6171875
381,58774.36,61817.227,59757.395,-420.48447,-407.58972,-7957.5645,14079.4697265625
382,-1474447.2,-1474106.1,-1471210.9,-309.07202,42.633926,-3551.9092,6901.208984375
383,-124407.58,-124180.81,-117200.17,-1045.0455,901.5535,-4371.8574,10649.7841796875
384,85679.54,99978.44,104710.0,-5972.3457,-1580.0748,-10468.621,27162.013671875
385,12037.625,12664.912,25716.578,3705.6643,1901.4204,-4275.7583,16906.064453125
386,6475.2173,-11410.604,4233.6567,-19125.605,-2023.5052,3616.628,37864.5625
387,-148831.06,-160823.55,-137357.69,5436.8887,-7010.453,-1220.3424,25566.357421875
388,-110458.21,-146635.75,-131340.48,-11230.964,-1912.1835,-2691.1487,37423.4453125
389,-31780.67,-61426.266,-51162.66,-3884.058,918.40466,-16668.98,39513.1015625
390,29146.303,28489.309,40606.645,-934.31976,-1573.358,-7833.887,18260.751953125
391,24102.725,24366.12,24438.494,-60.21031,-5.283326,-1140.0736,2000.98510742188
392,88731.266,88057.55,90223.664,319.37787,-19.73199,58.26894,2000.99169921875
393,-68114.2,-39679.406,-69830.98,11066.535,1212.2286,-8688.001,38191.078125
394,-94880.54,-99590.37,-131926.19,2844.8286,-10708.745,-885.6957,39884.18359375
395,10628.279,-2746.361,4670.6465,1484.0763,-1964.2406,-12904.134,25542.619140625
396,14538.849,-4259.289,27372.25,-13009.62,6544.7427,-3477.116,37839.56640625
397,25131.207,6468.6904,32697.824,-1489.3611,10918.396,-5452.578,31626.505859375
398,-5802.0933,-433.79004,-20129.59,-9409.355,-17774.168,-5251.6978,40088.9296875
399,7961.071,-3007.3691,35171.504,-2643.895,6570.2637,-4797.9487,37130.94140625
400,-21621.568,-38083.914,-29515.184,19161.572,9022.296,4377.956,40082.078125
401,-19335.623,-8163.49,-10733.539,-11513.108,-3884.8782,-1407.7534,23485.865234375
402,221848.64,217711.16,218670.33,1192.8328,1154.606,-9019.293,16321.185546875
403,30847.004,30705.738,20821.191,-16793.496,713.11304,12745.903,37869.3125
404,-296196.1,-294502.1,-286071.6,-138.21548,2252.7415,-7931.5327,17094.84375
405,-32657.146,-4100.713,-44445.97,3482.777,-3464.087,-1302.7256,36994.23046875
406,-35609.855,-60991.066,-65608.414,-13253.601,1556.1764,1015.79407,36332.546875
407,34207.008,27867.09,22550.035,12680.961,-2795.2427,-13172.251,33594.05078125
408,-48167.688,-23266.15,-55490.2,3.842015,10079.772,8924.354,37413.703125
409,10718.496,-1339.9891,-12349.889,4101.6187,-8998.955,-11167.741,32664.298828125
410,15663.414,26043.02,18370.88,-16297.794,-7707.7,-5389.033,33899.3984375
411,-45332.57,-68574.46,-41668.13,431.1932,-8881.811,-13793.236,38036.296875
412,-97391.62,-108438.625,-92188.41,4634.044,907.2129,-12772.685,27620.759765625
413,-15086.431,-40212.934,-35943.92,16976.354,-2375.5845,-5284.0566,38827.6171875
414,13573.0625,-4450.183,6924.3013,-3844.702,-211.2641,-2163.5708,17542.330078125
415,127976.78,133330.69,142749.16,-2625.006,3805.984,-5800.1387,18244.19921875
416,1721.8694,-9063.106,24463.525,-3450.8638,6476.53,1912.3131,32423.74609375
417,10707.432,-23404.168,-3861.182,-14433.478,3320.4067,-2392.5298,39422.2109375
418,-172330.52,-179369.56,-176154.34,590.0505,249.98204,-18718.068,33008.84765625
419,18572.506,16800.227,48979.75,-9245.558,-7220.5757,1992.0432,37501.83203125
420,-17385.074,14036.811,13245.875,1626.0112,-3780.7031,2915.9177,32240.1640625
421,150618.33,150299.05,151828.6,-725.26556,-386.82217,89.22534,2000.97644042969
422,113965.0,119076.46,110190.02,-1694.4811,845.5839,-14051.137,25743.64453125
423,-269075.75,-293148.56,-298071.03,-12192.475,527.7276,-1810.0244,34334.5625
424,-217726.2,-216127.34,-216061.34,2477.2039,3659.3357,-5849.559,12802.3466796875
425,13683.186,14169.651,13995.078,-192.72688,-267.5472,-1994.1182,3526.74047851563
426,-8933.185,-43245.53,-3595.3564,2483.7563,-954.0911,-3611.3162,38070.2734375
427,35698.91,6339.592,43528.36,-2019.9543,5906.128,5298.199,36799.96484375
428,-18276.555,-47934.99,-18109.09,-11060.724,-6604.3438,-6993.527,39105.19921875
429,-36776.17,-52655.74,-21744.95,-1866.2915,-529.65906,6773.303,29422.97265625
430,66888.58,38238.41,46576.883,6477.6294,-8427.277,-12870.498,38566.1640625
431,-63826.484,-46400.125,-83416.73,-11376.878,-3909.5647,-688.2543,38267.70703125
432,130432.4,115455.26,136461.14,1758.4617,-3770.6528,-14242.911,31803.544921875
433,174623.81,193194.17,188278.42,19584.963,1548.1218,4953.653,38849.1171875
434,-22581.61,-23530.682,-11446.342,-10358.042,1012.2547,745.22565,21495.8203125
435,3736.1172,15581.217,-23473.87,1469.1654,-6543.4517,318.49225,36581.75390625
436,-54934.395,-46816.027,-41582.066,19103.389,-824.9598,-6887.213,37080.37890625
437,-13945.98,23060.088,562.95996,8532.38,1612.657,4330.045,36407.33203125
438,263730.2,258810.53,270314.8,-2555.0015,1766.6289,-11514.45,22948.8359375
439,-4772.766,13040.802,1943.9182,-15167.947,5739.2285,-5665.2637,33587.05859375
440,50040.46,9295.117,22979.252,-6624.277,-1859.511,-3087.5168,38216.33984375
441,15236.927,24606.438,47037.527,1458.0696,1343.6876,2225.109,28770.77734375
442,53386.67,33678.547,70039.84,6782.4985,-846.3212,7310.72,35978.28125
443,-19395.84,5746.4863,-33122.43,-8645.54,-2334.4812,-2711.0078,37792.96875
444,142313.42,141936.8,142691.06,321.1121,460.8443,-936.44507,2000.98645019531
445,-50878.863,-35783.895,-53778.234,-1132.2168,-2587.5298,2342.8115,17900.51171875
446,202575.08,205069.28,204689.6,-378.72675,564.1001,-11311.052,19764.1796875
447,431638.38,468426.88,462791.84,-8293.918,-484.81955,-1260.603,37278.44921875
448,35233.05,35677.44,34978.684,-161.14906,197.85963,-1069.7922,2000.98547363281
449,-7657.746,-23786.639,-30553.203,-4808.0005,-2051.8928,-1183.5381,22388.578125
450,-41385.28,-52643.855,-80268.766,-4086.9993,-4198.2134,-1188.0762,36168.0625
451,8053.417,-7038.212,-21831.428,-16067.711,1571.0226,418.4587,38108.9765625
452,-19666.555,-36008.137,-44260.375,-2282.6968,2332.4612,8632.904,26935.771484375
453,-35161.344,-65019.37,-67699.62,10712.882,-1747.636,-4279.5464,37244.0078125
454,39132.22,38201.76,68399.66,-13007.034,1318.5005,-5004.3247,38374.140625
455,115581.97,108701.234,103374.32,-16842.35,-5187.698,9967.494,36635.46484375
456,-9147.777,24559.498,5217.672,-14970.032,1536.5597,2950.4902,39545.3046875
457,81554.76,85093.805,119064.45,3501.8281,-5084.2837,-752.7317,37453.859375
458,-65160.74,-22179.66,-43648.73,-5590.0547,-2754.501,1562.4299,38850.5078125
459,-806.03467,-15439.564,-5401.1323,-4087.9683,235.7526,-0.6652974,14775.4453125
460,45114.043,59322.12,45984.1,18755.238,174.42076,-1044.6947,35339.87890625
461,-148116.16,-182276.89,-174321.81,-8976.442,5882.013,-3854.161,36722.953125
462,172931.56,173685.69,174106.31,-48.23856,986.5211,-69.37893,2000.9814453125
463,59307.105,59312.832,58567.27,-209.57626,619.287,-850.4909,2000.98645019531
464,-70303.555,-80228.5,-95055.42,8258.511,10713.87,-12765.164,38772.62890625
465,25849.791,30066.756,33561.65,1389.4276,499.0386,-1844.7697,7841.11474609375
466,-16302.589,-1838.2311,7538.747,16261.053,6259.832,-3593.4438,37179.8046875
467,74822.47,69806.34,49650.203,3476.9504,4474.9326,-7769.9067,28460.3984375
468,-116708.73,-120326.68,-99757.484,18236.814,5791.672,-1525.1655,38302.94921875
469,-42585.5,-15717.892,-42886.67,-8339.404,1817.8384,2108.7166,31015.18359375
470,16354.086,22206.854,36010.527,-2365.2615,588.9767,-2599.3481,18538.60546875
471,46159.727,39521.47,74409.586,-4696.4834,-3616.8748,6799.457,35689.84375
472,-13488.926,8489.859,-10417.048,1420.2925,3239.5144,-7983.0645,25567.759765625
473,34827.266,25781.385,51697.68,-3909.0603,-483.0617,-1677.7787,23959.0
474,69377.44,80529.52,62348.95,-20256.74,3138.5378,2515.0059,39136.7421875
475,-151515.31,-165869.58,-145183.98,-19126.416,3040.3015,6042.4966,39645.140625
476,34052.63,45258.88,38348.633,-14123.353,1683.2247,-4259.0522,27517.615234375
477,7536.7935,2595.2578,30104.61,-2300.7378,-83.18218,1577.8137,25857.576171875
478,-51290.445,-75530.17,-87960.13,-361.85773,-5364.663,4077.0703,34350.63671875
479,67356.914,66815.04,101219.234,6232.0063,-8771.031,4297.3013,39598.0625
480,-94742.164,-62648.965,-64509.19,-4854.1924,-2992.3953,10494.6455,37439.26953125
481,8377.383,-11099.907,24879.732,-2346.347,6883.0156,-4287.7656,34451.58984375
482,17179.787,14302.834,24825.14,-5316.7427,-716.5149,2895.5503,14149.900390625
483,-61.22058,-564.67334,-2758.0466,1022.7843,-7611.6196,3661.8684,14944.73046875
484,20168.982,24060.15,30012.844,-3723.7498,430.44623,-11940.4375,23315.56640625
485,-4338.3047,-8178.913,-14214.434,1380.2959,-2314.5974,-1864.0358,10323.2490234375
486,-845.98047,33105.938,31904.79,-5198.4614,735.7117,2139.4275,34782.48828125
487,32824.42,6857.718,13447.684,-7934.2676,-2959.8086,-800.4275,27634.017578125
488,-11639.635,-20665.396,-29017.748,2136.0796,-321.5809,-2214.8245,15978.97265625
489,53349.65,41265.277,70624.586,-13874.666,969.1081,10743.778,39747.140625
490,-27679.994,-22587.48,-37619.48,2911.3196,1451.1598,-1823.2178,14733.001953125
491,10864.37,-10493.696,-16195.474,14911.815,-1666.9614,1402.5642,35941.3515625
492,8172.0483,17470.969,16952.008,-4028.1885,3071.328,-5556.0034,15858.7216796875
493,151460.53,150276.45,148147.3,3671.1365,3978.9146,-5767.7485,14006.578125
494,42866.996,13051.214,51732.895,-8758.53,-2339.7717,-3735.9448,38991.7890625
495,-36271.438,-21625.94,-13006.749,-975.4668,6081.238,-6572.8687,25659.69921875
496,-18006.19,-17857.81,-28529.703,-1627.4895,-227.84402,-4108.0874,13078.947265625
497,-59118.293,-41873.28,-37287.45,-15198.113,-613.07245,9662.257,37035.875
498,-28716.969,-25151.395,-48932.234,-3126.6135,426.88568,1636.1426,23051.1171875
499,24023.615,-8932.763,22663.242,-9894.259,115.42661,-4403.284,37350.18359375
500,31426.66,37547.438,55164.98,-8146.8364,622.9103,-1320.6672,25713.501953125
501,-14178.307,-8728.74,-18088.49,2202.5803,1671.1946,8367.378,17299.361328125
502,62283.234,69040.336,87919.984,786.2563,-2754.8528,505.07147,23559.685546875
503,-2626.4087,-10624.884,-4014.4253,1618.1976,8333.127,290.9615,16469.1484375
504,-4068.8035,-7002.4336,-11164.915,-2491.9307,-847.943,-1866.1875,8329.33203125
505,-685741.75,-674911.2,-704815.5,-1974.0829,7064.74,5831.013,30840.125
506,29959.168,25207.166,30608.797,20812.225,3734.654,-4869.206,37927.65625
507,59747.54,57146.844,84049.65,11233.201,-7958.422,-5002.323,36113.59765625
508,-6516.491,-7419.721,-10921.76,-3515.7869,536.4569,-1215.5806,7656.486328125
509,60996.914,59591.586,27796.506,9526.752,-4301.8853,5318.397,38343.66015625
510,3830.0098,-10499.46,-28815.1,-1328.1895,-3923.9092,11273.699,35157.10546875
511,-698.3513,2883.9973,939.3192,1359.9067,3216.8528,-2504.0015,8065.4208984375
512,62437.484,60543.613,68414.945,-14649.151,-2970.4382,-16151.284,38774.8984375
513,2970.7842,3549.3862,11657.86,1627.5464,1277.9619,526.2988,9189.720703125
514,-49679.645,-30983.592,-31440.191,14799.785,727.46014,-4576.1494,32599.482421875
515,-10097.36,-9824.435,-10972.782,-44.23145,-748.3266,-709.71124,2068.01708984375
516,-71628.86,-68149.375,-105599.1,-2657.4949,365.4716,4263.727,36883.71875
517,168312.1,182348.19,210570.05,-4185.4517,-3898.2515,4698.9614,39420.73046875
518,-8724.156,4369.543,-21510.738,-7175.511,78.98003,-10426.995,31353.0625
519,12063.533,16794.436,26010.52,-8276.194,-6594.6743,919.21747,22122.57421875
520,-21876.977,-24308.342,-19245.29,-4053.1013,3766.5464,-5062.263,13709.8115234375
521,-407716.0,-407033.5,-405732.16,-341.6093,312.1729,323.55978,2000.99682617188
522,-41827.957,-26986.492,-61765.26,-692.24445,560.24115,642.3317,30286.6484375
523,-12839.904,-5079.3984,-1998.2598,-898.3496,-1820.1608,7054.8066,15978.1416015625
524,-3608.516,-5997.7773,-22125.068,175.18793,-1354.0203,1061.8258,17700.423828125
525,4954.2627,10377.209,11098.432,-4466.8325,3556.0933,-10854.795,22025.31640625
526,-3502.8853,12580.685,9274.354,8811.907,2370.6497,4138.1807,22751.22265625
527,-10980.843,-3973.8857,-19002.412,-2923.537,1609.3237,1518.6207,14490.666015625
528,-16711.734,-13737.617,-25178.434,2585.1062,800.6258,2449.9453,12070.1845703125
529,31728.271,28109.855,10065.543,-2531.5068,4094.9858,-1150.5886,21851.44921875
530,-22338.777,-36104.293,-24356.338,7463.002,-1313.217,-477.2309,18404.70703125
531,775926.56,769215.5,746835.8,6890.7817,-10827.253,-1611.8961,34612.3046875
532,-11355.399,-14478.903,-25125.445,-6937.672,-1357.4963,-1165.6475,17616.984375
533,-25322.516,-16742.621,-33036.176,3308.83,-795.63354,-5278.4033,17822.07421875
534,3860.5938,2487.0994,-592.9132,-1360.6306,-1309.8063,-120.97655,5133.02783203125
535,-95208.44,-99309.555,-124847.266,14780.318,2387.892,2876.8152,38354.0703125
536,30730.025,24962.16,57941.23,-4436.2363,-3788.7288,-849.9445,32170.478515625
537,-48384.496,-21818.973,-13461.865,-2560.3767,-3612.159,-921.9596,32541.33984375
538,2146.0413,-5623.4478,-6932.883,-1983.6421,448.51132,-1312.5923,9477.8642578125
539,28344.234,2448.5098,-850.57715,-3601.2288,3723.8462,-9332.451,33297.08984375
540,10616.211,11777.429,17881.277,-7201.759,-382.21985,649.5928,14247.5771484375
541,29279.53,55183.996,55938.926,11815.901,-511.04462,-1853.1594,33482.83203125
542,32595.492,32037.855,64320.703,1283.7941,-882.877,-917.41724,32160.515625
543,-22464.785,-15902.194,-41789.14,5530.599,-5253.153,2051.1187,27027.51953125
544,17360.738,19452.512,25338.988,-3483.128,982.23047,-294.58252,9533.6513671875
545,48385.71,50926.113,16202.279,-10395.352,-328.4119,860.98926,38088.359375
546,10394.531,12506.961,24747.424,717.1104,-438.5049,346.5221,13514.001953125
547,-172153.2,-162700.0,-197898.05,-13689.096,4227.0215,-151.77174,40141.96875
548,3631.0083,1108.8113,-3689.852,-8530.665,-1894.5796,3892.4004,17777.2109375
549,74246.87,62341.617,103955.97,4830.4277,1118.778,-183.68634,38104.0078125
550,-20621.35,-26936.543,-33737.48,-5923.251,1081.6564,5478.546,18107.779296875
551,-14762.981,-27522.137,-16179.626,-1178.6876,1806.3794,-229.37263,12682.3701171875
552,17287.7,14744.429,24936.926,221.90627,2437.0383,-1272.4147,10356.4111328125
553,19983.383,14785.084,40872.656,-1037.2317,-228.32924,-7818.7983,27545.552734375
554,-24288.152,-22695.477,-31477.082,-1702.3398,1962.5347,-10883.094,21005.73046875
555,-36503.582,-36103.945,-70927.7,-5352.1396,-2973.8572,-1454.8126,36300.8828125
556,5902.716,-4393.718,-19508.16,-10797.783,124.36188,2963.1304,29432.142578125
557,-2342.7952,1566.3491,-2872.3652,-754.3845,418.4792,-2155.5947,5814.15966796875
558,-7267.2563,-8081.03,-14104.351,1728.6584,2410.5728,12213.675,22710.419921875
559,46032.992,68853.89,79195.12,10127.326,-253.14761,614.2475,34245.33203125
560,-32274.828,-36604.04,-68399.3,2786.603,-142.90298,839.1459,34536.91015625
561,3286.871,3236.5107,456.1986,-6689.522,-1617.0907,2348.6213,12904.0625
562,-67803.2,-90258.7,-105109.55,-777.77203,-2006.3568,-967.3776,32786.87109375
563,155660.84,172684.45,173642.53,-16205.246,196.5867,4576.017,34026.4140625
564,17230.912,1400.1924,14121.741,6631.8516,-1676.8176,2485.093,19234.46875
565,89340.36,53499.547,62453.797,339.6407,-7673.3906,-8970.89,38239.171875
566,116242.74,109836.56,134304.47,18041.676,-4148.0464,2063.268,39036.75390625
567,33935.74,10140.482,21283.207,-1538.6395,-532.9537,-1480.3729,20970.44140625
568,-251615.89,-249316.5,-258538.03,1423.5118,869.64026,-16234.036,29463.53125
569,-12184.937,-5768.792,13992.516,-12654.355,9819.588,-3020.9758,36817.3515625
570,-18945.334,-9342.817,980.64844,-16784.912,-7307.956,1797.2699,36235.65234375
571,-115557.55,-121914.12,-92691.41,-323.39142,497.64853,-16886.645,39561.97265625
572,-11856.994,16313.109,24029.322,-11295.208,511.98737,-32.18672,38131.296875
