Element Label,S11,S22,S33,S12,S13,S23,Mises
1,1628.896,-49.87447,-65.763054,-299.56943,-69.4944,257.42795,1824.20324707031
2,1623.1646,1342.3431,103.88302,-1072.7404,137.74304,402.78027,2440.56567382813
3,1740.0527,2171.4243,-89.88125,-1122.7722,-209.69617,93.19876,2874.70849609375
4,1435.8115,1842.7982,3.7560217,508.11884,-91.98081,-227.81079,1937.75073242188
5,1317.3027,1752.3822,-359.13293,1074.841,-201.48434,525.1623,2853.79345703125
6,2554.0479,783.31537,61.89702,930.64124,50.17708,5.0549107,2745.77612304688
7,2299.6777,894.6942,-110.550835,564.303,224.60538,-98.88657,2352.19921875
8,836.5601,1966.6926,138.71895,-245.39183,88.05681,151.16864,1680.86413574219
9,453.7896,2036.8119,-15.248651,363.15176,386.40964,-433.92844,2208.373046875
10,647.0843,1741.9834,324.32413,-354.6237,230.91188,48.943558,1483.50573730469
11,2673.349,1706.1241,-658.7576,740.57007,660.4614,-176.09012,3444.20458984375
12,2945.5422,2417.4763,567.704,438.96555,-149.8749,166.53552,2325.07543945313
13,823.42126,2033.2994,-384.47443,-72.08992,42.617672,-2.3527884,2098.8759765625
14,299.343,2593.2437,45.37341,-127.297775,363.12503,-266.37714,2562.4453125
15,-398.054,2256.1636,-295.34558,-548.17426,-5.864935,-431.52716,2871.0703125
16,-1479.9458,-1301.0092,47.35124,-91.86582,413.9949,690.53955,2015.28991699219
17,1243.2189,567.4261,-3566.8936,-678.3142,422.01086,-360.46738,4758.95556640625
18,978.3298,3036.9944,-423.26233,-634.2876,770.1237,777.3055,3726.50146484375
19,-772.46265,655.8566,-1955.8552,-281.92877,1014.6896,218.19398,2932.71875
20,1264.268,1323.2507,1235.753,-1130.3329,-89.15969,1514.8726,3278.30688476563
21,1454.4789,2957.7083,-513.547,-1185.7341,170.56737,787.29694,3905.88061523438
22,2046.0675,-5433.148,-2207.9585,-1081.2108,3744.436,-2059.6096,10025.669921875
23,-5427.7075,-209.41344,-2046.0564,1362.878,-2437.1028,-1325.8352,7048.68408203125
24,-931.2026,-942.5046,545.5324,-1232.8435,-1575.8417,-63.9515,3770.8583984375
25,231.8119,1137.1245,2603.4263,54.757572,212.58621,1044.8212,2777.88061523438
26,1934.7582,2335.4915,-947.97375,945.07837,-1437.0717,747.1404,4491.7294921875
27,1105.1176,2305.6006,-407.07196,427.5901,109.616234,1102.3981,3126.28002929688
28,841.6491,2968.7322,-80.32377,491.54437,885.8227,279.46637,3263.25415039063
29,1352.4911,3037.5867,767.51495,889.40466,448.47714,399.4041,2760.90063476563
30,5856.0015,3633.2024,4988.105,436.6805,1165.1533,534.8217,3044.31274414063
31,-424.4686,7312.994,-4479.222,-3792.9543,-46.228622,-241.99834,12289.201171875
32,1887.0565,3290.228,1214.5782,-822.64703,-42.16409,356.8884,2404.66333007813
33,891.95764,3485.981,-488.40558,-528.98816,853.6163,592.85724,4036.70190429688
34,1490.934,2319.2927,49.99451,-1022.3201,-458.71216,377.8138,2854.99462890625
35,1369.6906,2586.698,-78.60712,-1209.4894,-373.6266,399.32593,3259.91259765625
36,1159.0403,4271.505,356.01416,-1087.8372,-1373.8606,665.14685,4834.41650390625
37,883.4001,2819.894,547.61237,-1524.1122,296.5221,-183.1319,3441.82421875
38,1309.2472,2257.7747,-451.37207,-1290.3083,-284.52396,107.464775,3307.8203125
39,2473.0718,-444.11743,-208.11116,-707.9147,299.42664,202.57874,3126.13647460938
40,1564.4468,-294.34668,-979.4471,-1814.2168,290.6743,-478.83118,4001.67431640625
41,2099.926,-1036.0577,50.1768,-744.2649,648.0533,-1115.7812,3776.83715820313
42,4105.599,-4680.1157,-2350.8562,-421.51685,-482.93378,-1020.5805,8155.21240234375
43,11.73181,-481.8898,2775.8594,-699.2475,-1300.3746,842.3732,4232.85205078125
44,62.54146,1718.967,-238.91039,-724.58435,-344.97775,833.2695,2710.9150390625
45,-598.0877,1526.3109,531.97345,-840.139,225.79185,198.37744,2403.7294921875
46,246.58972,886.9067,-247.47116,-1258.0636,-245.1045,559.6221,2615.03125
47,1024.9124,1559.9501,-165.3385,-726.4941,361.6981,143.67314,2092.26538085938
48,-115.58261,1615.8788,-859.55475,-952.4463,2.485639,455.2824,2860.58374023438
49,-321.46866,1655.1904,453.63885,-847.1842,149.7811,-109.193275,2287.37524414063
50,956.24713,664.299,-1296.9521,-710.8964,-572.423,1478.2294,3682.24584960938
51,2422.73,1184.2915,-167.28519,-288.68716,-421.75934,-874.5985,2848.29150390625
52,1196.3984,898.16565,277.80002,-1001.83844,847.5975,-345.62823,2486.66284179688
53,1654.7944,1129.7057,286.28992,343.82916,-448.93143,-469.74338,1746.7646484375
54,1696.1576,2129.6812,612.4099,-582.21844,609.80426,-29.222963,1991.82397460938
55,2844.9365,1847.8403,400.87033,1171.7167,-500.53055,128.44214,3074.17236328125
56,1370.8547,1015.93884,-1899.9325,172.51225,-215.68501,-1200.5143,3770.37182617188
57,1897.4669,1579.1863,680.2941,628.9969,-279.69043,104.003494,1627.71350097656
58,2048.9087,1983.4094,-506.14273,1638.6649,-827.8732,-389.7246,4114.9326171875
59,2667.7188,1763.157,2489.095,1480.7715,964.91125,642.3482,3361.19165039063
60,-122.22963,5090.796,1102.035,3526.928,-224.29562,1001.68036,7922.81640625
61,-76.86778,-332.7176,-1553.2847,3698.4497,69.69388,444.23703,6596.1904296875
62,-737.3141,-2486.3623,1214.6226,770.4804,512.776,138.35124,3593.10717773438
63,3035.9932,110.310585,1713.8252,437.80496,-32.195942,-880.9842,3057.12817382813
64,5492.3633,7938.965,4214.2144,1516.193,420.35602,-1134.3748,4694.00537109375
65,2982.5261,2144.8142,494.07144,-1061.7192,564.8713,-585.0751,3189.90283203125
66,291.134,2286.0215,-533.9794,-476.62595,-589.7096,-765.9708,3129.1083984375
67,2270.7546,1766.2103,1220.0607,-558.35156,-389.4937,-748.54663,1974.77905273438
68,2706.6228,2916.969,179.89372,-168.12355,-258.0032,361.21164,2763.3330078125
69,1104.2069,2397.9766,-2047.7927,307.42557,-178.42635,-490.06516,4097.125
70,82.247604,2137.207,1407.3105,-2366.1282,-745.9672,1692.6229,5505.9697265625
71,422.10382,1025.2585,-2661.0906,-999.65247,1182.2797,202.84903,4363.970703125
72,80.06371,2786.3755,-1254.9949,-1025.6083,2668.269,-1121.456,6403.6845703125
73,1422.6971,2327.3672,3280.1511,128.54018,-676.21094,160.40067,2021.56286621094
74,155.19568,3503.0903,912.8323,-176.37976,-247.19536,777.4062,3366.84594726563
75,-660.89734,2688.822,1259.5461,210.85817,199.06049,690.347,3187.1259765625
76,26.375607,1931.3705,-1635.8798,527.40906,655.2837,441.30215,3502.22802734375
77,-269.10513,3602.26,68.37161,-1114.2632,-595.21436,1047.1694,4676.76611328125
78,-1135.0245,2422.8726,-926.47144,286.9419,-401.5379,699.0292,3762.544921875
79,-439.12888,3464.7615,-354.162,-497.15686,424.99036,-333.9111,4066.1669921875
80,-192.33049,3690.6782,680.20306,-855.9293,-47.436752,-552.4036,3946.0185546875
81,-2489.1714,1437.8618,-1941.2987,323.24585,-1012.5327,-1601.5365,4965.29248046875
82,1235.6898,564.61725,3567.8806,-1496.7068,-1046.5975,-2305.9353,5780.400390625
83,-175.60832,2094.427,-749.32416,-1498.0574,-304.31924,-560.0954,3838.75561523438
84,-4796.531,-13396.444,-10572.584,3761.3757,-2107.244,-21.86674,10649.6220703125
85,-1446.8175,1336.1914,1840.4451,461.39777,44.096294,-325.4165,3219.46240234375
86,-1253.7571,1521.58,-999.94495,554.42535,-981.8205,2057.6997,4855.8173828125
87,725.53827,1772.6211,1090.1251,786.3023,2094.651,521.06976,4084.06616210938
88,4868.815,4124.1787,6681.3657,3006.809,364.08704,-3539.2947,8383.896484375
89,1403.1345,2075.7415,-976.8356,4798.8643,-1130.3379,-681.743,9057.154296875
90,2240.3066,1069.7223,-1481.8752,1408.6512,-158.5423,-524.74817,4209.76953125
91,3019.2485,2350.8384,817.64636,430.39642,511.7532,153.56618,2287.88037109375
92,2024.8478,2562.4954,1052.4135,1248.8916,-542.5675,197.2198,2727.00146484375
93,2468.221,-904.41565,-2393.397,-208.81123,365.2021,1363.5005,4972.1083984375
94,1316.5491,67.63568,1835.6333,2447.7107,1364.1449,-563.7109,5194.93701171875
95,1565.6348,734.8326,1260.1273,1754.2476,-91.89299,-707.55585,3359.93188476563
96,1740.9158,10754.155,4096.7344,3504.8625,-891.7903,-1332.2444,10493.6884765625
97,1640.39,8470.911,805.6313,4066.18,572.2865,265.88727,10190.71875
98,970.04425,2040.5564,777.1597,-647.3802,-13.398563,42.2798,1628.76965332031
99,1147.3214,2778.1711,-519.54,-941.3937,-519.48425,603.9221,3566.35961914063
100,778.8086,2219.5889,-477.74655,-2009.1359,322.04465,-847.0344,4476.45166015625
101,531.7849,1270.0105,-44.64151,-930.6085,897.1037,88.22559,2517.65966796875
102,5475.5547,1334.5648,2128.9807,609.14294,600.88965,-240.67703,4106.0166015625
103,1612.6643,2883.484,-2043.981,454.19592,665.76624,-266.51596,4668.4775390625
104,778.15283,3105.7542,3524.1677,-1234.2491,65.80469,955.52057,3726.77612304688
105,2491.2295,263.85687,794.69086,-195.10332,306.34848,-507.51865,2286.7177734375
106,1322.2174,2351.7131,-47.393635,799.7068,-547.9494,-130.92966,2686.34887695313
107,-2199.7,4474.908,-1311.4619,2014.8997,-783.4862,-181.73705,7316.4755859375
108,1369.0354,7506.8784,2916.191,2241.2854,-181.32361,168.44403,6769.37548828125
109,166.56894,5395.8784,239.59306,-0.011775291,-668.9974,557.48895,5407.7900390625
110,1214.1764,2582.8464,-245.31497,321.66953,580.54407,-110.308556,2712.73779296875
111,1661.0513,572.95856,494.8577,-960.38983,160.62099,1047.6173,2722.49438476563
112,1459.0789,-2572.4575,-1390.457,-344.1636,725.02686,436.83664,3923.00244140625
113,816.9398,1323.5166,-727.36365,-2123.1936,616.70886,-572.8666,4367.2841796875
114,-3773.0588,-2077.9868,1994.6207,3807.9673,-98.442154,1475.5411,8742.1591796875
115,2389.7927,3122.336,-228.8817,222.27155,-1879.8612,-545.97644,4577.82568359375
116,607.8878,5098.3613,-1968.8344,1963.2634,-352.7127,-883.50525,7256.2197265625
117,2218.5083,3782.755,203.26859,-624.5546,410.07718,-71.95506,3369.06787109375
118,2393.8772,1673.15,1564.2197,587.35583,-13.94546,1062.2153,2242.82641601563
119,1225.8157,2564.6047,-1627.4889,-366.10184,257.61465,-677.51227,3966.34985351563
120,342.64136,3810.7441,1085.1741,-416.53775,-1345.8507,214.12923,4011.97192382813
121,-610.5648,2867.1873,-131.49506,-101.79606,69.01055,-114.78902,3277.66479492188
122,-990.2449,1231.5825,-2537.1047,-563.5496,-695.79596,-1739.8384,4717.2470703125
123,-55.622677,2191.3826,787.43494,-2293.746,-585.4034,371.5927,4592.55615234375
124,1915.178,-51.99382,306.1185,74.54319,967.2894,1439.4097,3511.81689453125
125,1392.625,3056.5588,-818.2234,-719.0735,-122.070076,66.07648,3597.8095703125
126,989.82074,1318.9946,-769.7961,-774.9557,159.8062,76.28634,2383.1845703125
127,1341.1035,2755.2898,294.51498,-441.43802,223.62363,72.64375,2307.76904296875
128,1814.5785,2086.2344,35.364388,1373.9595,693.15735,254.68176,3319.9423828125
129,-843.0691,3083.453,-1372.3909,138.31158,756.6829,-131.90855,4427.578125
130,539.3758,5748.8125,5110.923,813.8272,-50.62879,1687.2866,5895.5517578125
131,562.79175,-1499.1199,-893.3914,1883.6951,-2327.542,2032.0995,6531.07861328125
132,5630.213,1379.0847,3244.0957,-8.101639,-39.61968,556.50854,3815.22827148438
133,2038.7587,326.49667,-42.87019,-791.09204,-27.83038,24.756542,2362.70336914063
134,1918.7285,-32.62288,-1476.5557,2536.8147,-550.14294,295.903,5402.5244140625
135,-65.21811,-442.51624,-1693.3329,-594.3173,2070.8906,2101.5396,5417.89990234375
136,2116.8672,3383.341,1106.051,971.8341,-537.75006,-888.72375,3158.52465820313
137,1488.8959,2552.8416,-4854.6025,876.8808,-260.25403,-369.60797,7144.2900390625
138,-323.83194,1467.1992,211.55386,-1082.362,-794.14215,923.48535,3240.45068359375
139,3394.3,-2181.369,4827.383,556.1976,450.39612,1772.1295,7217.35205078125
140,-56.898937,716.2638,-344.96396,-404.5613,1107.2861,448.66794,2382.57202148438
141,529.5299,2176.036,1452.7384,-1255.8108,844.19025,-152.2657,2996.98779296875
142,-757.1783,3255.636,-172.84616,-829.3955,-99.137695,394.4345,4081.57055664063
143,-274.0425,4057.304,69.48962,-546.5441,131.01825,-670.36444,4436.93798828125
144,1975.1974,2925.6667,576.4047,-117.498276,-295.40128,449.5884,2258.1220703125
145,2824.6428,4149.2383,5034.3003,-117.88027,-631.92145,1821.0978,3859.93383789063
146,3440.5393,2018.3531,2601.4617,-229.64769,298.00876,142.4704,1420.87133789063
147,2886.8696,4146.3877,1278.9935,-889.4595,-703.4685,563.83673,3317.9140625
148,734.6109,555.1047,2941.502,-1486.1791,47.158024,-1030.056,3887.75561523438
149,2129.5046,1306.1166,566.2583,316.80048,-824.11523,-1885.4917,3852.060546875
150,4412.4663,-167.82571,327.35855,658.9221,-907.75745,441.31943,4828.5703125
151,-84.45286,199.53804,-2013.3324,-1733.4177,2035.133,-1873.311,6026.30908203125
152,1480.576,7642.027,244.49281,2477.1372,647.6276,-879.7393,8312.41015625
153,87.29632,1923.1536,575.9721,-1035.5198,-272.822,828.7014,2865.74145507813
154,1185.1826,1053.2109,-1286.3032,-1195.8375,778.29254,1180.8065,4011.19750976563
155,1975.9506,965.69745,-390.7646,-302.42184,-15.069339,791.71564,2527.146484375
156,2115.5754,2562.88,-1595.9775,823.6748,-510.97705,65.275925,4297.359375
157,1984.9908,1863.2963,-3706.0278,1064.5923,-669.8817,-317.9988,6062.9697265625
158,2170.5771,2587.7007,-290.03357,969.6759,-220.05528,-17.035912,3197.17578125
159,679.4157,2257.869,278.2407,1275.9944,93.56478,1341.8799,3687.59594726563
160,1374.8514,3004.6152,-135.73608,-1016.4991,-778.71484,406.82297,3579.86328125
161,1341.9034,2874.8452,993.6332,-1735.991,187.33446,1284.895,4135.72509765625
162,1034.8315,2328.3835,450.12646,-433.75272,107.4819,487.30316,2020.63793945313
163,1187.0309,1852.2666,-881.09204,-919.0541,607.1808,-1309.4917,3857.42822265625
164,406.99545,2376.0906,2751.9363,-877.90265,-336.04074,-1613.881,3901.7197265625
165,1526.1497,119.85059,22.722797,-1488.0251,-1063.3544,408.22726,3557.875
166,2214.1902,265.12842,-340.0189,-1230.3618,275.29254,1159.9625,3761.61962890625
167,2677.2136,2060.0737,-1009.3786,2382.1655,-63.785862,-981.3182,5623.34228515625
168,-585.9633,1350.8391,-1323.9828,-1357.6547,-126.44258,510.15958,3476.16235351563
169,-2.0408964,3.9472415,-1018.515,2042.035,459.81018,73.03029,3768.201171875
170,-385.40436,-1996.4088,417.49927,1374.6104,204.53668,-1690.7518,4347.82275390625
171,757.7959,1644.6792,3300.6472,90.12643,564.32697,-1422.7018,3471.23120117188
172,2514.1057,1535.845,184.15929,318.37347,-353.60822,1207.4774,3026.47583007813
173,2296.8213,2014.2019,148.10439,386.82452,394.3514,-1074.3552,2909.93896484375
174,2621.0168,1046.0203,-625.6723,821.6219,-1151.4752,406.66022,3795.66479492188
175,2602.6016,882.1605,-293.36258,-112.76042,-394.35992,-1051.5391,3191.56665039063
176,443.15555,1190.2815,935.37933,145.99521,-313.2638,218.06927,966.30078125
177,1583.9314,1721.7128,127.94158,-326.55695,-189.41684,213.35614,1703.99975585938
178,-926.0299,1268.0869,-751.02234,-773.94977,-549.1191,-337.95053,2739.52758789063
179,2271.0474,3562.7092,248.05385,15.63503,-553.8871,-160.4628,3061.416015625
180,692.993,1752.7302,1054.951,-243.34105,334.2868,-912.4551,1970.04736328125
181,2359.8586,3582.74,1017.5888,315.2171,-707.075,-463.0059,2716.548828125
182,3187.7498,1001.6256,-643.016,981.58954,-927.6519,-491.53384,4156.484375
183,185.77736,1990.2831,716.68396,-818.9427,-577.10315,1037.7805,2970.21704101563
184,1839.9944,1436.7423,139.59746,-495.18015,-146.27359,-554.8317,2022.76696777344
185,3109.72,1556.5474,-92.543976,722.8331,442.29828,785.72314,3420.4677734375
186,3456.8044,1594.5304,5.9832478,3483.8796,-1269.4685,391.39648,7117.326171875
187,-1721.0363,-9480.969,1045.6681,6017.4546,-3665.9314,-397.83875,15451.9228515625
188,-11004.548,-12850.826,-1122.0682,6502.572,-1521.677,-1494.0681,16118.66796875
189,-3411.747,-1998.3307,-2900.371,981.97723,213.06572,176.87871,2158.55297851563
190,-2015.7034,-3965.2231,-2084.3945,-2040.4906,705.9972,-30.0149,4202.408203125
191,-2060.4011,-1136.084,-898.51794,-1512.9237,-276.17242,-10.468585,2868.16040039063
192,4783.9644,-157.40659,745.35645,1799.7372,-1606.3043,-195.18091,6192.19921875
193,4242.717,1205.53,4001.8877,1679.0177,-1481.7405,114.61044,4861.525390625
194,893.5945,706.891,2084.2073,403.18317,-408.52878,615.935,1949.66491699219
195,943.10876,-1519.8839,-2133.595,1059.2333,-1172.8163,-638.435,4082.861328125
196,-2912.8157,-5883.6772,-4128.343,307.39294,673.0165,230.70316,2914.50830078125
197,-242.44937,389.67075,3246.3965,-1003.6794,-733.1522,-743.43024,4081.5400390625
198,-1283.6372,121.24889,-1493.6554,-399.49423,-1827.584,113.22279,3584.7314453125
199,3465.2832,-823.0873,-120.57143,-788.413,-1009.50586,-78.70379,4561.9814453125
200,1291.8225,42.577274,379.99652,-1148.412,-1347.2125,-478.177,3367.55126953125
201,2207.175,985.132,864.27673,-1059.5321,-400.02875,-343.80743,2420.36962890625
202,1092.7653,-843.8667,108.598656,-1206.5448,-222.14923,1100.8992,3311.25317382813
203,1172.9304,-607.5074,-13.493906,-979.67303,-1060.0088,-21.24983,2952.40502929688
204,49.681858,-794.94073,-184.10513,-1413.9978,756.2962,-504.99716,3008.28344726563
205,85.89793,-1516.0591,-251.65042,-1081.1509,-18.348577,308.20612,2435.5927734375
206,473.34436,-1887.8004,-162.20424,-2198.6233,120.73683,-147.14961,4369.07666015625
207,1227.2468,-2194.6309,-923.5305,-1439.5217,-1030.7512,-48.795483,4287.9541015625
208,1292.649,-2377.8835,-531.51886,-2084.0747,-626.7311,40.835217,4931.35009765625
209,1521.682,-2422.0115,993.0932,-1905.4609,-18.035095,579.3528,5064.36572265625
210,1356.4198,-2687.071,-97.71762,-1518.8384,5.570523,92.51569,4419.38037109375
211,950.7727,-2559.408,-282.82635,-673.69415,-1222.8506,-832.1656,4175.90234375
212,310.32773,-2732.3801,-1348.68,-1993.3604,-85.39814,-339.0241,4387.44189453125
213,752.71265,-3862.7332,-687.1082,-1437.3339,636.60376,1084.1382,5260.1953125
214,-1639.6893,-4371.0693,-5163.2197,-1515.5023,129.56204,-2456.5977,5941.11279296875
215,-1135.2927,-700.6569,-672.09454,-418.05203,115.529434,552.89124,1297.51611328125
216,-8374.594,1815.5466,2575.7668,-2046.8015,1400.348,1903.5142,11894.7412109375
217,-12711.9375,1318.4987,-6471.5854,-2235.8562,604.66797,-494.62018,12847.8896484375
218,-1891.7921,2947.3062,3120.352,-806.3098,-1125.2434,411.73367,5526.45458984375
219,-1465.295,920.8558,-489.46704,-1066.5111,783.73517,315.74756,3141.91552734375
220,-4588.098,791.52423,962.098,-1178.6787,-419.85992,473.07715,5937.60546875
221,-1337.8715,2873.9238,44.258217,-249.30888,525.0045,-1758.4651,4911.02880859375
222,-3314.2246,5457.258,2769.9229,-411.9856,658.0464,-260.4217,7912.04736328125
223,-3506.6907,-2227.205,-2005.6573,-309.22107,-106.82739,-955.34717,2242.49584960938
224,-321.26123,2105.0222,101.37054,898.3901,195.02243,-328.6542,2810.60498046875
225,-3190.053,-2804.469,-4140.282,734.6906,-1091.593,-322.0235,2631.18579101563
226,-996.90283,3244.7952,-835.82544,688.2061,695.37854,877.3002,4745.01953125
227,991.9109,1827.0071,-2022.5974,762.77783,1067.2438,1108.7344,4599.1787109375
228,1946.3866,1823.3809,2422.37,113.8421,1830.2302,-900.12756,3580.36840820313
229,774.4635,1102.2725,-4308.6274,-846.36487,-169.33327,-498.26862,5530.94873046875
230,-3247.244,-3976.2087,-4389.0215,-285.8767,297.34116,-1066.2222,2218.92578125
231,-2189.4702,-3047.1328,-2456.9697,1227.8553,661.9034,694.2736,2803.74731445313
232,2656.4185,3241.9011,1117.6339,-176.62274,938.3443,-333.8963,2584.78149414063
233,-1284.7673,4007.8633,2001.607,1852.047,1156.5557,-165.50967,5983.63671875
234,-499.1442,4403.7256,-338.74136,1377.6725,203.51686,377.25156,5433.46875
235,2361.6375,-1376.9052,1281.5574,1877.2466,-1211.3446,-423.9195,5159.33154296875
236,3242.9333,-3988.4478,-2596.7644,-194.64394,30.46104,2174.7927,7646.66455078125
237,1899.9167,-1031.417,-2374.1067,-584.1412,878.8286,-939.55457,4507.8125
238,784.8344,-371.93503,-1882.4851,1783.3898,200.68521,1148.1057,4357.0556640625
239,-650.8097,1072.8193,106.22832,-124.777275,929.6214,841.0103,2645.81591796875
240,1649.6229,-555.0141,-1332.2316,-1013.00635,168.24318,405.86703,3291.75048828125
241,3613.6448,1837.3967,2838.5046,-816.99896,1224.5995,752.42737,3252.52099609375
242,2809.982,1562.9734,597.16907,825.12067,-256.77286,-256.81937,2475.94677734375
243,1059.2291,16.166065,-524.39514,-1601.3064,-168.87968,116.11532,3124.51318359375
244,3855.1235,-977.41376,34.994095,-1340.3544,1111.7711,1469.6099,5921.3935546875
245,2571.723,1016.1136,2519.5283,-176.72777,-151.67119,28.601654,1583.22924804688
246,4432.8477,829.90015,2301.4104,-1175.5986,-237.74234,-272.2776,3792.47485351563
247,1086.0422,-167.30142,-2210.5972,-608.5622,-1003.0238,-485.67163,3625.42749023438
248,-477.44778,36.997505,-3392.5508,838.1721,74.332825,1156.4512,4049.50024414063
249,905.7687,1579.4033,-47.37505,-105.21478,958.005,222.32265,2222.419921875
250,462.53464,2924.3186,-1046.8595,-277.03928,-1011.3789,16.250692,3918.4384765625
251,-794.85345,917.7312,-682.512,-1239.5591,-106.65928,14.205972,2719.82104492188
252,308.802,2007.815,1990.9784,-811.7549,5.015345,-448.8883,2332.32470703125
253,325.10077,1090.5985,1299.4617,-2219.64,-609.21246,-749.2955,4285.74951171875
254,-789.22864,785.21655,-973.2307,-1271.8733,-1361.6523,-274.75522,3666.63110351563
255,-111.02035,384.91873,-1220.8658,-2005.4327,790.1285,-1365.2052,4643.0244140625
256,-657.344,-2473.6667,-4229.332,-594.8209,-1605.3085,170.67056,4295.359375
257,2402.935,-942.0831,2194.3315,-2126.5981,39.837242,-5.6529894,4909.88720703125
258,-187.72939,544.182,2175.2988,-1958.3763,502.40814,-348.82587,4125.29541015625
259,-704.03296,38.863865,-1861.3871,-2177.1682,-844.26215,993.7835,4698.13720703125
260,-2296.9133,-1199.1594,1643.9685,-1205.983,113.15143,451.8686,4174.1640625
261,-1100.7637,740.36383,-1062.2302,-1212.6699,829.5846,1121.9697,3684.16552734375
262,-482.23267,2281.9612,307.72556,-707.91656,479.41824,-1482.1187,3855.4111328125
263,-1914.3933,1562.8516,858.38336,-701.56287,-452.24106,-319.99142,3540.51123046875
264,-322.2108,1969.3687,1723.5829,-1043.3253,-358.20404,1352.8414,3726.87036132813
265,-1935.1395,1137.4197,-479.92755,-187.1752,581.41876,176.55493,2880.93725585938
266,-919.12964,797.566,-218.9754,-184.00269,-629.43646,979.44037,2530.486328125
267,-132.09845,733.6117,413.34232,-593.48236,-312.37244,1091.6998,2345.11938476563
268,-625.1904,453.32742,-940.85034,-424.45496,-1.2267387,-72.34807,1469.51696777344
269,-1398.3363,917.7069,-885.54016,-727.209,-14.127595,312.7522,2513.94067382813
270,-8.930951,156.52753,-1103.3134,712.70197,-14.527536,-578.502,1983.57836914063
271,-783.29,866.9129,26.215338,691.1131,559.4895,323.53818,2174.54565429688
272,-852.16614,661.4218,50.699284,522.51074,-210.06683,998.67847,2383.91723632813
273,-1271.1237,1296.3585,-582.9304,1607.778,-302.74158,684.5061,3838.5029296875
274,-562.28143,2012.6523,664.67017,1614.3248,-182.33064,-978.1445,3970.458984375
275,-925.98737,2611.3857,605.46216,2521.2751,207.92961,-1392.1882,5869.90576171875
276,-1710.9751,2869.6262,1140.8588,1795.3887,306.21396,-781.9366,5276.1337890625
277,2206.4517,-1026.1097,6376.9155,2823.8538,1284.9944,-2506.9878,9436.87109375
278,-4401.601,-6023.938,-6864.802,-67.42571,428.8785,599.8529,2519.54614257813
279,21.51234,265.21136,-1863.8341,1606.4493,469.40442,-1233.2343,4127.8369140625
280,486.47675,-1654.8883,531.3668,-2010.8497,-973.54364,-374.2764,4480.81982421875
281,-1105.5054,596.803,950.17896,133.42769,339.93637,-203.95674,2036.94787597656
282,-1255.0769,1863.9824,-343.9047,1910.5316,19.546724,-808.9961,4542.21630859375
283,2667.918,3078.4312,3281.8367,1437.6364,169.23157,295.8683,2615.78344726563
284,1887.3169,2737.7307,1365.2703,-154.26843,834.74835,1236.8536,2861.97900390625
285,-397.4889,518.0466,-862.4495,-901.80304,59.624165,32.212708,1983.33203125
286,791.0657,3436.0625,2704.3396,-691.10345,-24.076029,-410.68954,2745.29223632813
287,1287.206,-517.43085,222.13683,492.76013,441.68695,-243.16173,1990.00158691406
288,-40.254723,314.62494,-1274.6273,1459.1786,-728.3651,324.78638,3222.31005859375
289,434.3936,374.9106,-2110.6865,680.0804,-347.03726,126.35493,2850.66870117188
290,1236.0011,-3735.8174,-235.82684,-1470.8453,83.53854,1619.6929,5826.56884765625
291,698.18774,-82.634865,-2199.6262,-885.7598,-1323.8948,993.14526,4161.1474609375
292,877.71533,-1142.5911,-400.18484,-1205.4816,-170.03174,-366.10117,2825.11889648438
293,1903.7192,-834.75446,82.20511,-215.5068,-201.6965,506.74973,2619.30200195313
294,847.42737,-276.1624,356.1181,-1162.1637,910.8282,318.4898,2792.27734375
295,1098.2064,-1180.1617,461.29434,-671.61145,-906.5835,72.95513,2824.94799804688
296,-628.4801,314.8672,-2993.8384,-373.7074,-216.3128,-299.70618,3089.49755859375
297,1558.7234,514.3988,2407.0376,-656.92316,476.6344,480.86603,2316.47314453125
298,1544.0746,817.5489,758.9429,-513.4535,574.6981,-489.83368,1753.68225097656
299,836.79913,104.609634,869.2681,128.89255,396.03122,271.32043,1141.11157226563
300,-5801.719,2086.004,-1905.8324,196.182,-521.5482,2167.2896,7854.130859375
301,-5530.6157,-349.69247,1571.331,586.5258,-1549.5912,-563.88855,7048.0224609375
302,-7896.0205,1362.9238,-5345.745,501.63165,661.0586,-605.1139,8472.513671875
303,-2723.693,-1385.975,2907.5796,916.97174,204.27814,399.04214,5393.79931640625
304,-2359.4333,4053.4097,1597.6339,2136.7952,79.95353,-111.07859,6720.17529296875
305,-256.82355,1613.9946,673.8621,-86.11101,698.05035,-750.0061,2407.6103515625
306,-431.58884,1518.1843,375.69238,308.32098,186.30528,148.77745,1826.2041015625
307,-843.4291,2382.5999,880.363,1726.2528,639.99066,606.78827,4369.31396484375
308,-1422.0579,2139.9456,-3059.5625,1524.0802,-716.9709,198.40036,5461.755859375
309,-804.3471,2876.6091,-1757.5094,1412.3491,1046.9951,1335.061,5708.45458984375
310,1363.032,846.7445,-480.0793,1365.6107,765.3493,158.2779,3184.203125
311,-1024.6815,994.1895,36.264053,-778.45624,306.90488,-494.45645,2427.66333007813
312,-3143.0085,4418.525,-3361.6155,1042.268,206.11804,-1012.4295,8083.2568359375
313,-1158.1257,1576.4391,973.22296,-1040.5906,-50.62621,-298.3687,3116.95825195313
314,-2083.692,1209.0131,26.127026,-532.22314,-60.10455,141.9613,3044.22607421875
315,-337.98834,1385.5258,672.38324,-759.0537,-198.16583,412.54614,2146.35546875
316,-1867.5941,-1351.2732,-52.29826,-1762.4149,702.3465,-211.14394,3681.92163085938
317,-1988.5233,-1122.0444,-1914.0684,1869.8923,-124.345375,574.113,3495.21240234375
318,-3502.0176,-3729.1465,-7306.159,1272.7294,639.9998,-189.09315,4455.8544921875
319,-212.23897,885.6092,6096.4243,3905.301,297.3062,-193.1475,8955.990234375
320,1425.7953,-1449.4437,-662.5703,-1434.9922,-1422.2732,-390.58112,4396.3134765625
321,-1276.0271,-4037.2498,-413.36365,1545.5203,907.17596,-1609.3624,5306.1748046875
322,865.3065,-75.1262,80.72185,-1871.5005,-125.87203,460.25146,3457.2685546875
323,348.49747,-1137.4823,852.9237,-1875.5581,-1408.5693,340.78107,4479.498046875
324,2744.2058,-3611.0889,1451.609,-1773.454,269.47388,933.7203,6790.7666015625
325,1656.0815,-3151.2869,1109.9777,-2417.156,1251.9651,439.0052,6602.427734375
326,2836.9954,-2753.5505,5614.6113,-3183.599,-147.33287,1621.4755,9636.1982421875
327,-917.3347,-68.562904,11107.917,-1858.5396,-1495.3572,-1248.8752,12524.78515625
328,3291.4282,2905.7737,4604.9487,2997.8135,-1228.1709,1203.8861,6181.7900390625
329,-2902.2908,-1463.1647,-2912.2612,-228.13382,957.9062,-111.45961,2243.14282226563
330,1073.4451,575.7433,-860.9525,-218.857,170.15367,-258.85474,1859.68200683594
331,416.1435,1016.8088,748.27277,-227.91595,364.603,-201.34233,973.585876464844
332,1808.7788,2185.0461,654.47156,-1157.0748,1357.1562,114.355644,3389.63818359375
333,2971.9119,-926.7473,-2624.6636,-105.956276,-271.27917,500.08652,5070.18505859375
334,1160.7812,1147.0244,112.656876,75.64174,5.3859115,1225.6311,2368.14306640625
335,-1048.0779,1895.6921,-1173.4653,-272.59335,528.29614,-18.46091,3179.91357421875
336,583.38684,-64.69576,2021.0933,-1598.6346,1435.1865,424.56674,4219.681640625
337,-549.0811,-1563.8136,135.99445,-1537.4923,757.3197,-491.19766,3424.94555664063
338,-1279.2128,662.0793,-766.33057,-944.9324,-242.21373,-804.53156,2798.66333007813
339,-941.9629,896.779,-387.17493,-1334.6327,-253.85289,802.1627,3183.72436523438
340,-368.67773,686.71173,-148.41147,-507.9311,-349.40204,170.63042,1468.83251953125
341,-2338.3162,1457.7078,2927.5603,602.08344,24.22168,163.58517,4829.01806640625
342,378.7501,1561.4574,1412.6415,1141.7567,-1308.4194,619.36945,3382.6767578125
343,4418.589,618.54,3667.7375,2186.4492,185.57335,-103.78575,5160.25048828125
344,4383.0767,316.73517,1612.4656,2033.078,185.55232,597.2105,5149.626953125
345,2850.8884,1429.0476,1035.9666,1145.1204,-886.0249,-13.938388,3004.10522460938
346,-945.3362,10.17215,-1516.6869,678.0057,233.12537,-888.80664,2386.92626953125
347,156.71141,-1678.7797,904.31616,-1747.5945,-253.13434,-81.3338,3830.73071289063
348,1475.6216,1449.4882,-1163.548,-620.61676,565.2521,251.34276,3033.22827148438
349,-519.83154,992.9778,323.2117,-665.9467,-431.45053,254.32597,1951.12768554688
350,2130.9885,1437.7783,1311.7073,68.31499,810.2645,-428.61914,1765.94384765625
351,563.21594,822.33527,-1593.9219,727.9473,-28.903193,106.488106,2627.8486328125
352,-1033.749,-4171.689,-673.7204,-723.1297,499.89816,-1602.2615,4596.3251953125
353,1809.2158,-490.833,304.14993,-109.4269,-197.63983,-336.40848,2141.57470703125
354,-1997.3313,-123.18733,98.56358,-204.81491,-90.36414,-8.570217,2031.68566894531
355,1440.8245,-1006.07635,627.45886,-866.4179,-52.820827,151.222,2643.42138671875
356,-1256.9452,-2321.6638,-177.51782,-1247.9424,-438.011,490.4912,3068.78833007813
357,1372.7296,399.50632,-481.8471,-1012.5464,-125.95904,56.962494,2390.56127929688
358,-1746.6174,450.34378,54.39997,-202.10858,-214.83017,-357.9161,2181.478515625
359,-1145.3193,1952.3344,-589.02124,713.9507,80.352844,-268.3599,3153.77612304688
360,-190.49251,-802.102,-242.17293,427.2718,183.63506,346.37894,1163.57763671875
361,-1033.5764,-409.87054,372.13928,-761.47644,-135.82495,514.4469,2019.19384765625
362,1056.4191,-742.3562,175.13437,-1673.9069,-106.49428,-266.3991,3328.63989257813
363,227.48312,-481.23944,-57.03661,-946.1124,467.24838,-156.41945,1948.16418457031
364,-179.08992,201.46176,-611.4095,-705.9532,45.453693,-444.46722,1609.41015625
365,-80.878914,611.70886,427.18716,-1233.2684,95.52916,63.560246,2233.44555664063
366,377.03082,1480.9224,148.12514,-259.27338,25.881767,-320.03812,1426.39831542969
367,-167.08334,-267.78543,-71.24767,909.3994,-110.68908,180.54912,1626.20678710938
368,208.3336,372.6754,190.03334,623.2127,39.208057,-6.624437,1095.5712890625
369,-278.3204,-372.64038,305.04556,-449.36093,6.1000295,-60.189262,1010.44085693359
370,-773.9022,1384.5883,-68.29074,-976.246,-391.70447,-47.613564,2638.21533203125
371,182.40158,1208.9829,372.73813,1976.8954,-512.78796,283.40497,3694.43603515625
372,-1210.6903,1168.5465,-396.88736,1.9915615,29.749678,134.4854,2108.01782226563
373,1230.6279,1396.5677,-164.2284,131.58693,-143.66635,-203.90923,1563.08178710938
374,-219.22285,-1846.0448,762.12604,-1803.3469,-328.11685,-716.10876,4101.6669921875
375,285.46466,-545.60144,115.810036,-52.475327,-926.3091,-146.25922,1795.83996582031
376,1602.769,907.4806,260.14624,-1014.6349,9.076986,669.768,2405.62231445313
377,448.99088,1159.9021,-416.45398,-1.742196,346.63004,195.8345,1531.39270019531
378,634.10266,414.9082,829.2353,-38.36683,-196.24258,-234.11217,642.860778808594
379,-566.62537,73.051094,1058.0105,-181.4442,82.70098,86.13749,1466.60485839844
380,-994.1808,-573.6072,-0.21852487,-142.91704,-94.98145,51.530254,918.213073730469
381,-1558.6718,1682.072,-649.81976,532.2647,285.85413,-196.24957,3097.36547851563
382,-1175.0045,812.09955,-410.922,-1103.3116,99.70498,-7.3413005,2587.65698242188
383,-1682.2592,2432.468,357.7867,-461.59082,267.69684,15.01242,3681.49340820313
384,-1626.1547,-2260.3196,-866.12415,31.032713,134.66669,-109.33526,1246.97766113281
385,-1396.583,345.47055,390.0481,-751.6312,-393.89978,-230.0538,2330.984375
386,-231.24678,-506.6987,-103.5645,-861.9698,-178.1357,38.620285,1567.1611328125
387,155.31218,577.6767,288.20053,-321.57074,-584.13354,440.66147,1433.99108886719
388,342.06793,-1441.6434,-585.8935,-2260.8218,205.70624,-420.75168,4287.1328125
389,966.5592,-52.64069,129.79875,-990.6662,370.19165,-578.4831,2290.28881835938
390,222.6584,-411.03726,-463.85608,-1607.2032,-204.47601,-184.43866,2900.796875
391,-700.55493,1619.6871,734.5635,-132.77138,165.93307,97.09057,2068.0986328125
392,-519.52747,-1119.4604,276.81482,-96.78869,-114.41332,22.442644,1241.25708007813
393,1288.429,-795.0261,569.1622,722.7967,591.8909,-156.94962,2460.03637695313
394,360.2454,-441.8602,39.618824,-764.4045,48.841896,258.49808,1565.107421875
395,551.20575,-1429.49,690.54346,587.48126,-175.25937,-474.15915,2453.6884765625
396,439.83456,-53.77464,-378.44696,-186.91682,-311.71753,-437.07352,1216.03466796875
397,-772.4849,1064.8983,187.59375,-246.12117,-208.29085,-177.37424,1714.63195800781
398,-348.30814,1077.8418,184.0675,1629.3918,276.13358,106.78967,3128.22534179688
399,-428.45926,1369.9945,-187.05551,1006.6929,484.78244,85.21414,2574.0390625
400,712.2826,505.7057,307.83932,-301.3672,-207.32175,-148.38623,768.224304199219
401,235.23897,-572.43115,155.03194,814.01434,320.5791,-268.14154,1762.34326171875
402,1182.3677,672.2451,-379.7966,-327.9237,866.4486,-35.36686,2117.13037109375
403,-159.04903,-1649.1571,240.09517,-1702.2927,-553.14056,-267.77002,3577.83520507813
404,700.79706,708.2756,-398.17526,-1007.773,82.5602,130.63002,2081.94018554688
405,-2305.0186,-2185.6072,-308.4334,-1153.5482,464.3003,-144.55908,2909.232421875
406,-1310.0521,1209.3003,-253.93217,-542.3627,186.12685,48.991833,2407.36157226563
407,-12.205885,-559.0243,212.67802,253.74843,402.37955,481.12662,1358.63720703125
408,-588.02216,-919.1368,-202.51836,-1656.06,62.612225,-202.24387,2957.69653320313
409,-177.07816,-289.2723,50.819515,932.8614,-161.66241,-290.31525,1741.27478027344
410,-1474.4338,-373.5222,-275.2828,-1318.7576,21.782503,42.748253,2560.09375
411,-1036.9138,649.68256,-261.95175,-436.06894,-56.586864,79.04491,1654.37121582031
412,259.24304,949.38354,-781.2576,-586.1921,-411.25552,-530.79596,2158.82299804688
413,129.32144,815.69025,561.1874,162.29906,-100.7654,70.99795,696.991455078125
414,-1324.2094,140.58653,224.30275,-638.0528,-276.59784,-27.145893,1930.88745117188
415,-1162.5769,232.01845,53.62766,-897.8589,124.93135,-145.76329,2063.23828125
416,-1153.4224,-3165.2046,-944.12823,688.5701,343.953,-17.67154,2508.05908203125
417,201.42935,1401.4741,149.90869,-1554.7932,-2.6940749,-55.195507,2960.7255859375
418,-2113.4302,-86.93861,123.60247,-77.95182,54.572323,304.33664,2209.67919921875
419,-742.0586,603.48566,234.24344,-279.6823,180.45676,136.1967,1355.73095703125
420,-578.6683,513.68835,207.24292,-72.045135,38.049007,-419.32693,1224.67309570313
421,-612.51324,885.13025,-340.6033,383.6155,-63.22854,168.6448,1564.75122070313
422,743.1695,-261.61935,-871.42896,159.59703,-70.683136,228.67816,1497.49169921875
423,-1389.6426,-1469.3356,818.61475,-70.82029,416.48532,103.786156,2372.01928710938
424,-951.6699,-464.77982,-1094.1906,-1100.4214,6.421473,431.8524,2125.83178710938
425,273.95718,-189.4322,-725.09296,1054.3358,-78.92494,-102.510155,2033.46154785156
426,-1735.9952,752.17285,71.54591,-410.47522,283.55463,-35.075874,2389.78857421875
427,-276.65738,654.65704,44.164772,-1061.3479,-416.66675,-42.73247,2139.43383789063
428,-249.95204,-562.3495,149.48296,-873.5189,-284.0442,-525.0436,1933.92980957031
429,770.84436,143.49298,202.68861,-818.6871,405.7724,464.91315,1874.318359375
430,1541.456,-343.81497,58.77289,-330.97736,-81.40457,209.98648,1854.22155761719
431,-147.2201,122.28123,-585.66644,618.4955,340.7055,-57.79146,1374.37194824219
432,-607.8955,-472.46375,-157.15085,501.01926,299.5654,445.702,1333.67810058594
433,735.03534,-530.48645,283.51862,-1180.8793,-223.2717,18.034048,2359.65307617188
434,318.86115,-2338.1345,-695.40875,-691.49365,226.04724,206.86922,2666.38818359375
435,-204.72968,1159.4313,640.8601,-598.9918,793.56287,533.3776,2289.43481445313
436,-1590.6445,-1116.6903,22.512516,396.83328,89.71047,-8.702881,1599.7333984375
437,209.44795,963.9258,629.98206,554.5206,-100.41589,158.18427,1206.89611816406
438,1354.4783,-1250.9789,-208.49178,-1071.634,-109.89399,21.43729,2939.7001953125
439,-1152.0348,-921.1862,588.5553,-1355.5553,30.872736,210.02277,2885.98510742188
440,423.53217,-882.367,291.9703,-721.4568,-277.63144,159.52032,1849.31127929688
441,61.013218,274.27454,-72.505745,-42.667778,-148.6697,161.52675,491.756500244141
442,-2819.3525,-3244.0872,-129.37315,-1505.6893,-347.57364,129.8435,3971.55102539063
443,-966.7295,-6.2035513,182.01215,-96.38695,-117.81142,254.62529,1184.41271972656
444,390.87244,209.50375,-32.717117,-1075.966,201.67737,224.85153,1970.35559082031
445,-1294.8569,-1890.349,-16.398218,311.85202,223.31769,-41.62949,1788.00048828125
446,957.84064,913.5261,-310.1569,-1080.4724,187.10521,-28.37095,2272.28784179688
447,-1003.4791,1005.1267,449.53864,-1636.4758,-53.432022,18.024393,3357.21875
448,342.94943,387.05246,779.3689,-533.4184,184.73613,2.7118146,1062.62390136719
449,-2296.2983,-2629.4646,-1477.536,915.27637,36.36111,235.8867,1933.45336914063
450,57.15193,668.4556,231.15292,474.8227,-149.43999,-226.61378,1093.17395019531
451,20.17125,1323.3956,-136.34319,-500.96066,265.60968,27.514267,1701.07775878906
452,1187.9851,1887.6284,-665.0201,-282.22745,397.45297,-181.07098,2455.76782226563
453,-829.6212,496.55865,46.03908,-1188.277,-70.12524,-49.94985,2371.18017578125
454,-148.82782,-783.485,53.86524,-447.547,563.4793,209.22523,1502.41870117188
455,-504.1251,-1418.1334,-282.0492,68.50031,-473.14893,17.365633,1332.0283203125
456,331.36725,665.3736,-875.9585,-312.9379,222.85136,-15.623956,1554.33618164063
457,117.27717,-597.36804,-191.30583,1172.048,42.195736,109.76327,2132.60131835938
458,-269.077,128.63141,196.29982,566.89105,-72.28138,-356.27502,1245.08190917969
459,921.13257,151.82458,-544.95746,175.35767,290.21783,-212.77667,1447.11157226563
460,716.2862,-224.52225,335.62808,-316.63544,-128.65823,-161.41388,1049.04284667969
461,896.0842,-2243.693,-424.68033,-1083.431,-100.69134,127.90395,3325.158203125
462,-907.80536,-1516.784,-284.61633,879.72766,-216.56482,75.704544,1902.20532226563
463,-1103.6334,-861.44403,425.01447,225.28525,560.6895,69.05819,1770.56018066406
464,-2543.995,-2621.4192,801.0618,1049.6056,243.8954,43.28469,3865.6796875
465,-376.0461,84.99305,-447.13733,326.89316,-40.907528,333.1206,953.358581542969
466,-689.5659,3584.3838,116.501305,-208.57314,-370.12643,447.09274,4075.83911132813
467,-567.89935,-883.3878,-187.74408,-849.08673,41.311867,81.915695,1597.52331542969
468,718.04395,-1947.51,782.1655,-257.88828,-304.8175,85.78537,2789.36303710938
469,-1011.913,-2148.0063,157.45149,-452.77664,-193.69566,6.5869913,2171.25146484375
470,-438.40723,139.69958,759.38007,251.97656,-274.95584,95.42687,1233.30871582031
471,-1782.7478,935.7531,-292.679,492.865,-14.793523,347.79086,2579.16235351563
472,134.56361,2034.0648,235.20125,1116.8837,16.529146,-143.70898,2689.26318359375
473,1281.6134,1787.8431,-2.4129577,-597.1854,-159.66881,394.83136,2041.826171875
474,2729.644,-198.23077,685.35077,-1091.0994,-184.36125,-216.10724,3252.64794921875
475,139.60643,-1750.1864,92.200836,-577.7209,166.5975,-153.50842,2153.88500976563
476,-1696.1909,-1163.603,-693.81036,356.3948,243.9255,79.14275,1154.51391601563
477,-188.60521,-722.9943,-119.45169,-718.6163,-324.29263,-120.75203,1495.25158691406
478,-775.3932,577.3897,-484.74948,913.74347,41.018375,59.027847,2010.37292480469
479,-49.39098,-799.9537,62.44958,-906.06964,-649.98474,16.51591,2095.45727539063
480,-659.1329,-882.2765,-271.05298,337.99686,16.8666,-77.1314,805.247436523438
481,-1610.4749,157.80019,-166.37396,-1653.321,-397.45312,-399.1225,3436.69482421875
482,-2540.6777,-3084.3125,-979.55615,-234.62132,-176.38142,304.07935,2029.08471679688
483,-3427.3523,-1190.9789,97.04258,-632.6931,-10.1929455,-26.2509,3277.82592773438
484,-530.4906,-229.4695,217.28807,-49.156567,-475.0198,-281.4794,1160.41455078125
485,727.7433,827.0201,-75.73915,1088.6007,412.86356,-454.7953,2328.57177734375
486,354.1312,-34.45355,368.81766,545.63074,56.131443,-26.005583,1030.31091308594
487,1113.2478,-145.22583,-305.485,95.389595,45.728775,-285.0099,1445.12414550781
488,-353.95062,239.2955,-125.78589,9.844861,-76.938446,-139.24739,587.248779296875
489,-2219.7092,-1738.4701,-143.1814,133.33623,388.93637,-193.78838,2040.60400390625
490,-666.97284,-893.47754,-261.23575,490.2941,-203.16858,123.42436,1094.77233886719
491,1751.0974,2403.0374,326.843,646.8399,206.70795,-90.75461,2188.64208984375
492,-934.68243,671.13837,-428.46136,278.70834,-97.10984,-241.47136,1567.88745117188
493,-1697.8344,733.50415,845.6118,379.5564,-142.68631,-176.7415,2604.5205078125
494,-1889.1381,-2560.518,481.61142,425.9884,158.64954,-127.73103,2886.47387695313
495,-277.68643,547.94836,535.62085,1013.70746,166.29344,-295.0263,2024.48449707031
496,-222.15536,-584.5023,-57.30155,578.64435,-108.32924,214.9476,1181.73913574219
497,-847.57605,731.79584,115.02661,452.54315,-748.7312,306.4867,2116.29296875
498,693.9139,-1104.5754,447.23978,740.1577,-392.07214,353.64352,2309.03100585938
499,770.91815,1169.3737,368.81528,-816.43677,-44.94931,161.35277,1601.42004394531
500,-118.76647,-715.64557,-185.31653,-644.4979,11.040783,368.03223,1404.92456054688
501,-112.13742,2091.2734,-178.04079,758.18835,216.89003,47.724155,2622.4189453125
502,609.7504,2861.8425,-483.01105,-454.22397,432.12216,389.82358,3219.01831054688
503,78.23873,193.16855,156.79182,-729.74243,364.59885,14.088233,1416.79772949219
504,-396.2597,907.73035,326.43268,300.01584,31.543604,313.38855,1359.39001464844
505,-2255.4155,1297.676,374.9159,228.93327,-72.94745,25.124294,3220.61865234375
506,-1586.773,388.18594,-158.61397,1091.2584,-156.12581,231.55351,2631.740234375
507,-562.8077,3189.1113,103.99663,-351.0838,-73.73624,-26.547123,3522.48950195313
508,823.1854,-1327.271,-21.14594,-63.035614,146.91342,203.49393,1929.39392089844
509,-1384.1129,43.75616,-524.263,-184.77164,-212.60263,-104.18097,1349.43737792969
510,47.72287,-907.13574,-565.9767,222.99936,-187.05714,77.70403,987.247131347656
511,-1774.0461,-982.0358,394.80673,627.68915,-26.370428,305.47992,2253.32446289063
512,-2159.6265,1128.496,-604.78796,-812.224,-180.94641,-238.66396,3219.47241210938
513,-2775.453,376.49158,192.72879,-0.9328532,-468.4605,-142.18443,3179.35986328125
514,-554.2377,-1846.9059,-1913.184,264.27197,-57.839535,365.01514,1542.82946777344
515,2216.6272,-6.513641,-1721.8481,332.6109,49.702026,40.077305,3470.19848632813
516,-2316.8374,-1391.167,411.86807,1010.91907,-232.0723,348.6718,3060.87866210938
517,-3124.0955,-2741.2048,-113.65403,332.66702,-413.54492,146.2086,2994.30859375
518,-69.334465,-302.57254,377.93478,431.67645,116.39411,-69.26249,986.32568359375
519,-148.2478,-549.1177,89.17017,877.69946,13.522401,31.694708,1620.76196289063
520,-1149.8127,-1199.5635,106.07659,877.19476,-200.79741,-221.42087,2053.93920898438
521,216.53886,-1411.758,-38.185154,781.4523,-29.715017,-43.659138,2035.15100097656
522,-1037.8502,-2683.9468,-737.08014,1552.7957,-96.75908,-33.965454,3249.65600585938
523,-575.4027,-1928.0864,-558.75305,-667.2928,160.51788,124.06768,1819.85363769531
524,-1969.5151,-1796.735,-180.78407,1109.8817,42.68118,164.81549,2588.98120117188
525,-678.46326,1023.1606,220.99712,-1014.3389,156.9633,-189.30235,2332.826171875
526,-405.24628,2637.0881,465.2588,488.0124,89.882195,-169.77547,2861.88525390625
527,-887.8069,5041.3984,-228.89366,63.20135,39.834576,164.07716,5637.4033203125
528,-1221.0873,3241.6956,-323.08435,1734.2598,-209.2254,294.61993,5111.74609375
529,-691.5428,238.60237,1782.0598,769.1502,357.8802,21.591816,2616.00463867188
530,1314.7346,-1272.7296,1416.8873,1139.2844,-123.06381,100.97442,3307.51440429688
531,2068.564,3226.087,-298.54245,-1727.9148,227.41562,325.6214,4371.880859375
532,-10.633463,-1494.8958,-609.59143,1508.0848,303.42834,150.72978,2973.23046875
533,-397.60413,-905.4782,-293.17664,1253.3956,249.67345,389.77246,2382.78344726563
534,-349.3342,-219.60355,159.4387,-315.60278,-165.62892,-105.00966,789.85546875
535,2440.0735,-229.8872,-1021.86475,854.2107,-269.7768,-23.498505,3504.21044921875
536,-1047.4664,232.17917,14.420732,-621.9585,338.6373,316.87253,1792.20690917969
537,4934.4067,1251.2129,-604.7627,51.73272,-188.23482,76.32405,4896.7626953125
538,3696.5342,-1607.0879,-946.2403,-1941.0814,205.65373,-390.62735,6078.509765625
539,2516.223,-2138.855,-1230.4241,-2064.1929,-55.571323,71.77277,5574.36767578125
540,-1179.0496,-1482.8862,-261.69846,-96.078384,-192.58876,376.75717,1333.18310546875
541,3457.7783,901.63983,-47.289795,-175.64516,-20.72083,24.227869,3155.2353515625
542,1749.2214,-45.292377,160.72803,425.65155,36.719906,12.808592,1855.01818847656
543,-1561.9344,375.3896,39.344177,-577.009,-597.8961,261.56094,2343.4208984375
544,-2252.8083,-3811.5952,-458.2358,-899.64215,84.92051,-209.97557,3321.08935546875
545,-1059.6874,1312.327,177.01234,-1238.9282,-490.04492,-29.532822,3090.35375976563
546,822.4005,-1606.6505,1783.665,-1454.0062,93.60576,68.90504,3942.36108398438
547,2148.3318,584.15137,1865.5756,-873.8787,119.27718,-289.14404,2160.74438476563
548,1745.1179,854.5493,299.44193,788.42706,43.84715,41.35794,1863.16101074219
549,2747.2388,2880.8706,337.02884,1013.0751,20.383226,-131.09688,3046.44384765625
550,-1845.7169,-3334.5835,166.68388,-783.61273,97.069664,7.8345566,3336.65625
551,-666.37494,-2219.687,392.96817,-773.61224,37.29885,163.33592,2657.08740234375
552,164.02473,-1712.9445,-208.57857,-340.73383,93.77234,321.16162,1909.60583496094
553,1800.85,-1157.2056,273.16113,334.05582,105.54161,-37.713295,2633.89453125
554,1635.1124,1662.8147,-227.19511,159.22867,-311.16425,64.68039,1974.74768066406
555,3564.9941,557.6339,-1.0064359,1128.7992,56.92442,5.7376986,3855.99658203125
556,-1854.0143,960.9526,-247.25977,-99.18796,-321.9774,-50.210182,2516.11303710938
557,1890.1932,-1311.0232,-235.34058,-56.112762,-85.13011,-70.16316,2829.72509765625
558,841.674,-1583.7661,-574.66125,-596.8983,308.94122,0.82051253,2410.13037109375
559,-178.93259,-1328.2688,129.22212,1411.4154,-56.193466,-103.42,2790.689453125
560,-1160.9138,1287.9469,-746.32605,1503.4985,30.24621,246.96657,3481.49096679688
561,565.05304,1379.3584,658.0303,1649.9504,-11.257275,-123.89153,2968.07397460938
562,2429.431,4249.521,-24.918102,-1263.3121,84.10282,9.913242,4314.2880859375
563,35.408005,-337.18723,475.41626,-973.44916,-50.92925,-181.98839,1856.42932128906
564,-1712.8352,1061.0056,-217.88826,-37.867107,217.50497,193.66847,2457.85766601563
565,-995.6432,-1579.6458,406.36765,34.632214,-125.61486,266.8571,1841.20751953125
566,-572.9936,-699.5337,168.67749,237.65436,0.012324311,-355.4776,1099.30493164063
567,-577.9261,-722.39624,-99.07411,290.92917,201.53816,174.43146,886.793029785156
568,299.03107,-6.702606,-233.43658,-429.86768,-25.2949,263.2494,989.131164550781
569,-564.00433,-25.015379,-418.499,-268.55542,-273.85233,102.35219,840.258483886719
570,1601.8276,675.11554,221.2572,-25.613506,-380.54834,232.70969,1443.69641113281
571,304.2844,-3026.8513,368.4306,-442.3223,104.27119,133.86055,3462.30834960938
572,598.4883,274.1296,1485.694,780.05444,123.218094,222.039,1788.5810546875
573,685.6555,561.9263,-177.11232,-1167.3776,-33.071064,-180.0633,2200.40649414063
