Element Label,S11,S22,S33,S12,S13,S23,Mises
1,859.3203,-23061.768,16348.65,411.18027,-1783.9714,-11343.003,39732.92578125
2,80803.414,95509.37,86700.25,8640.88,-12768.348,-15621.706,40118.80859375
3,-44674.45,-73784.61,-33596.664,9304.636,2136.4866,3662.4395,40078.14453125
4,76356.97,65416.02,92332.97,-16745.926,-2594.4531,4187.0464,38259.578125
5,-67274.15,-68668.07,-97562.195,1091.1125,-1871.9938,-14181.353,38658.84765625
6,-35489.188,-28667.387,-56824.562,3474.3792,-14544.211,2884.6812,36647.796875
7,18221.848,1117.909,40491.36,1915.1068,4473.3877,-7447.711,37507.51953125
8,32070.283,26419.68,-1161.2172,-4630.2417,-1939.2732,10093.233,36465.1015625
9,-47601.7,-61773.023,-65029.223,11053.656,-9715.926,-2171.7727,30355.74609375
10,94324.98,103947.04,124487.84,4726.8755,2793.9292,4256.5747,29273.828125
11,-33232.324,-1617.662,-36216.51,2566.009,4725.4824,-585.4636,34503.74609375
12,7605.6963,-8247.668,16528.383,89.86901,7615.481,-16012.631,37624.75
13,-64253.65,-35452.668,-46489.06,773.68805,-9874.301,7796.618,33318.19921875
14,91406.305,92311.53,96576.28,-415.14972,-1940.8013,51.609375,5890.0986328125
15,-108979.93,-108847.78,-109528.35,-146.86383,-811.6465,723.9304,2000.98608398438
16,2042.513,4214.2847,2873.1282,301.24344,-197.53233,-63.33993,2000.98571777344
17,53594.445,53994.207,55480.86,-528.344,43.525227,-255.98587,2000.99047851563
18,-76395.9,-68761.09,-94355.31,-14956.703,5990.569,1634.0311,36121.0078125
19,186436.1,186581.69,184918.97,580.59796,-311.57877,202.499,1992.30847167969
20,64212.176,62578.027,62846.777,81.19601,661.1437,-350.43332,2000.75280761719
21,-200491.97,-186468.28,-157994.2,-1549.0042,-694.21783,3260.7964,38043.27734375
22,13052.203,12485.23,12586.115,806.29407,324.2386,-698.51025,2000.97692871094
23,-4378.382,-7388.6025,25555.209,-5802.1025,9284.889,-4299.417,37553.4765625
24,3765.0916,-3385.6836,14300.789,-13242.788,11642.065,-4828.0454,35215.484375
25,-19794.71,-632.6332,-36116.465,9227.454,-917.6556,-1247.2859,34770.3125
26,-3921.417,-5213.206,25132.064,6955.0176,8496.559,-887.0166,35317.9296875
27,-50161.668,-46050.91,-75636.14,3846.5999,-451.05237,-4567.2534,29633.515625
28,-4368.7544,-2854.8352,-16323.653,-17061.59,2549.8604,8400.406,35606.31640625
29,55647.793,75284.08,89087.62,2651.474,5363.503,-7644.5093,33613.6796875
30,-42660.492,-31809.467,-14489.549,13904.917,-3097.9802,-2575.8408,35134.0390625
31,18679.4,20333.69,17649.793,-18614.062,2241.5469,-4099.4683,33323.2734375
32,203817.2,226674.03,187428.95,8216.884,-2237.2815,4472.596,37989.1171875
33,-57533.543,-65383.258,-27582.17,6388.9883,-211.64763,10.976044,36282.29296875
34,262029.45,226649.25,249967.02,8033.4814,2533.611,2767.0608,34732.2265625
35,-467008.38,-437677.72,-444930.62,-7011.165,4287.5884,419.80405,30055.078125
36,245.51628,735.0367,-594.3685,-825.67,1226.4789,-479.0098,2932.99731445313
37,214889.3,205827.39,207022.19,2509.731,-955.1895,-1906.4421,10259.412109375
38,-510710.94,-510351.66,-510096.34,351.24524,-257.27893,1024.3589,2000.65649414063
39,31644.58,47387.31,65887.5,-4968.8257,-5817.147,-4816.9214,33563.78515625
40,-250336.06,-250135.64,-249005.45,771.2875,-390.48972,-269.47128,2000.98754882813
41,-26550.256,-33777.793,-9838.066,4397.5225,-265.33777,-866.2396,22645.076171875
42,-114635.625,-115580.42,-113873.64,-453.49518,577.382,253.54161,2000.77880859375
43,46657.04,47926.38,48092.785,-521.12524,593.1708,-268.4387,1984.08361816406
44,148021.45,149582.36,149224.66,340.90353,88.94511,721.26,1984.7080078125
45,240663.62,240313.92,241724.25,-251.62877,-808.539,-269.8812,1996.94421386719
46,286070.62,285040.38,286083.22,372.29727,-344.75095,847.93353,2000.97412109375
47,147489.03,147930.22,148511.34,-507.85672,690.67267,580.1513,2000.82641601563
48,65980.92,75410.18,70590.2,4233.35,7013.1226,542.123,16397.908203125
49,131791.45,160259.19,158753.0,2563.0676,-3576.6633,-1826.0834,28946.365234375
50,339340.9,357873.44,352529.0,3978.8987,-5775.9355,-2996.1726,21153.7734375
51,9749.402,-9096.465,31260.002,-2900.421,3456.2383,6004.3013,37316.046875
52,58918.54,55411.426,65976.87,10481.614,-15610.796,-868.3015,33908.9921875
53,53235.027,82341.3,47961.477,-7610.4043,-4268.132,2632.3982,35744.55078125
54,-49221.83,-36969.906,-70592.75,-11142.175,-341.06384,-1934.4661,35393.2265625
55,12014.965,34420.41,39775.4,-2874.7346,2123.0142,10531.91,31964.63671875
56,37113.31,14719.74,12457.65,-15592.371,-359.16922,2379.309,36110.6875
57,21182.537,20948.88,21310.6,-875.3258,-239.21024,690.3974,2000.27844238281
58,8550.854,9523.349,10385.434,259.72412,543.04987,-360.34814,2000.9853515625
59,30113.445,29887.508,31503.959,-458.35675,-193.63818,566.33374,2000.92651367188
60,24863.146,25192.717,25294.734,-1654.8718,-1128.0925,227.02443,3512.9541015625
61,-38170.215,-61242.54,-54155.39,9491.554,5342.129,-11369.933,34099.16015625
62,-8007.561,-43947.816,-32720.592,-11230.634,996.73517,-3939.2776,37975.765625
63,86348.79,69207.24,81490.46,14860.256,6063.6807,-11132.861,37131.72265625
64,-19214.521,-11534.495,-129.35513,-18404.645,5699.8716,1094.072,37334.984375
65,55759.156,34949.21,16153.702,3942.9958,3497.976,-6565.691,37284.48046875
66,267949.3,247883.8,278245.3,8448.343,-2036.6213,-1886.2139,30862.072265625
67,53331.95,36183.082,64043.977,-12574.773,-5242.6567,2238.8074,34123.28125
68,19803.006,17478.705,24011.164,3859.473,-4722.121,4625.468,14445.0244140625
69,164984.02,163753.08,164646.56,-435.5882,394.95697,-764.4277,2000.98254394531
70,131978.77,123759.38,114842.766,5126.9487,4421.0557,6800.7373,22284.466796875
71,-397765.4,-397549.12,-398749.12,325.76218,726.89484,536.17004,1998.29089355469
72,82894.95,80767.42,82515.984,-97.002464,-186.5959,50.055042,2000.98413085938
73,87017.71,85760.24,86519.586,408.83624,596.1598,641.1693,2000.98327636719
74,228321.02,228080.64,229624.62,325.7278,-539.27686,-497.5568,2000.99365234375
75,139854.27,140552.12,138655.69,206.10368,604.5224,-81.90216,2000.984375
76,105820.87,105155.5,104637.195,374.6586,-888.2466,230.7065,2000.98620605469
77,-8080.53,-10207.629,15888.533,-2311.1514,-4960.898,-11252.083,33161.859375
78,25350.773,45346.758,10825.869,-3550.4487,7616.7446,8737.803,36635.515625
79,8430.569,-13573.179,33.826862,7859.777,-1136.961,3995.1233,24637.365234375
80,18124.75,16000.638,35210.777,1708.4462,-3728.2686,6127.678,22267.4296875
81,-19317.127,-4659.0303,-32066.326,2150.4895,2505.216,-625.7936,24457.267578125
82,47677.477,27884.357,33886.875,3219.674,4559.291,6227.909,22777.404296875
83,23280.863,17899.936,6348.901,3743.7073,5460.4253,14006.971,30734.61328125
84,-83946.984,-82400.05,-83150.78,37.09762,842.1969,157.50446,2000.42932128906
85,35561.285,34359.87,46108.6,-299.9431,-1309.048,3127.7732,12653.8759765625
86,4697.552,6051.031,4809.211,514.0963,680.2955,207.69121,2000.9853515625
87,64359.656,63590.973,63088.836,467.65372,749.2388,-380.6875,2000.98608398438
88,69414.76,69773.02,71179.44,12.967033,-656.88934,181.15315,2000.92211914063
89,20991.049,21754.053,23006.684,40.324585,59.606544,-542.02814,2000.98522949219
90,39680.816,39030.375,39704.38,-707.01843,-157.38866,801.08484,1984.46594238281
91,-49732.75,-65732.91,-50023.035,-10154.191,-9380.763,-1893.6262,28905.380859375
92,42516.72,42061.04,40973.95,262.9363,766.2202,206.38675,1995.30603027344
93,9442.464,8129.1816,8575.004,565.0252,-711.3521,251.25287,2000.79663085938
94,-28675.299,-22686.5,-22083.941,5038.7134,-3765.876,816.57104,12670.7978515625
95,66134.75,65307.0,66387.22,-538.4755,846.9741,89.55853,2000.97900390625
96,153729.22,162918.7,134925.44,3630.1309,-1156.6243,11058.65,31957.06640625
97,452453.56,452732.72,453783.62,-875.02844,276.92285,20.327797,2001.00524902344
98,-71821.695,-58549.465,-55311.21,8891.13,1916.4211,3110.6685,22512.67578125
99,33810.105,15753.712,24273.201,-12325.368,-5974.3657,8496.217,32002.564453125
100,-58722.41,-63280.965,-37132.414,15364.69,-4424.9136,1005.1056,36814.65625
101,43254.73,13042.316,48195.34,-872.06964,5365.667,-2815.1975,34625.078125
102,-75242.68,-51193.293,-80212.98,2993.3784,4740.64,-6975.0894,31030.09765625
103,-37058.492,-15390.174,-2476.3162,-4357.665,-380.7818,9438.895,35224.796875
104,8811.243,8610.304,9362.88,-910.91156,-12.062072,-594.05444,2000.98559570313
105,68120.48,66569.84,66762.47,313.6911,401.84735,600.12634,2000.7451171875
106,117277.45,118639.77,118000.17,101.8286,-182.81134,909.01605,2000.99035644531
107,-85280.945,-86743.52,-86550.17,768.6472,321.98285,-94.41275,2000.98559570313
108,-10589.334,-18189.592,-4265.6235,-12826.6,-13554.129,-7025.4443,36586.80078125
109,70639.914,99382.19,72171.2,-11117.176,2406.6338,-6184.9985,35879.84765625
110,32700.312,32641.713,33062.89,418.4629,309.55872,-1005.77875,2000.93212890625
111,-109444.51,-109920.24,-108752.516,-843.3792,-507.19916,143.49463,2000.44274902344
112,-62493.21,-53288.66,-79198.805,13682.096,-7009.9424,7025.127,37076.171875
113,32242.773,33397.33,39092.08,1330.8352,21559.049,-291.43292,37951.07421875
114,77498.07,81079.31,70143.734,-1.6651242,2613.5872,-2593.0237,11572.0810546875
115,75422.516,75109.46,76897.74,38.55137,-240.05806,602.84894,2000.93627929688
116,19087.545,17090.469,17995.062,199.93813,468.61157,-127.83744,1956.47741699219
117,-386793.22,-387426.9,-385819.88,423.06143,-630.41565,301.9029,1992.08544921875
118,189243.02,190478.77,188213.12,-111.08732,100.544846,-132.08548,1995.02600097656
119,187439.67,187499.34,185939.22,600.26526,-87.704216,430.30157,2000.99096679688
120,-420739.4,-423057.7,-425619.16,1029.8798,-13534.598,-7222.55,26964.927734375
121,-217064.19,-242247.02,-254573.02,-4197.1826,6550.6587,-1732.8899,35876.171875
122,84036.625,84188.55,84564.914,-532.0828,-421.13974,-893.8252,2000.02331542969
123,-6437.0317,-31746.879,-40169.402,6711.5903,-104.46918,-5272.485,33812.22265625
124,138035.58,128266.91,115375.734,2430.3535,13239.402,7043.1216,32862.1484375
125,104112.914,103787.49,102679.875,665.4998,-374.3521,432.70514,2000.98669433594
126,135604.84,134138.53,135692.2,68.815544,305.82135,688.807,2000.98779296875
127,15633.182,11185.238,37845.14,5555.501,-4574.6772,7923.1675,30913.693359375
128,32131.943,52275.887,58320.746,-3217.1155,12666.396,9180.666,36459.59765625
129,-17234.068,1275.7457,-27371.508,-1232.345,2004.8483,2022.2582,25727.53125
130,6297.941,-3350.8135,13139.132,-56.163704,444.53384,289.2762,14379.2451171875
131,448.26382,24067.254,6810.6714,-1894.2345,6294.52,-823.9397,24077.525390625
132,-45069.83,-65418.3,-70994.93,-704.0874,1061.6908,995.51025,23800.775390625
133,-29763.621,-38762.54,-41298.27,7043.999,866.72375,626.3754,16202.275390625
134,42619.86,41631.06,37868.547,-9425.753,1105.1681,4780.403,18910.578125
135,59554.527,61090.566,61009.918,-329.74545,-667.8825,-109.06829,1985.47875976563
136,21060.723,22332.42,21249.951,231.41302,-461.71497,-772.73615,2000.98510742188
137,244815.88,244609.61,245768.81,-851.5045,-467.59927,-92.41447,2000.98522949219
138,94705.336,93549.42,94195.32,282.05185,-925.3671,-251.4272,2000.98449707031
139,9615.457,8367.495,9233.212,-658.2465,-264.10266,650.21356,2000.98522949219
140,18283.107,19628.38,18798.1,897.5066,-247.40065,-44.7273,1997.08520507813
141,-179243.14,-214169.89,-202373.27,1870.6184,3928.3455,957.8713,31726.4296875
142,54497.184,20177.21,17235.16,-4060.5198,243.41318,3241.8096,36995.35546875
143,-154608.3,-159558.16,-159883.2,375.17752,-13756.091,6850.452,27112.98828125
144,82001.21,74813.62,46737.965,-9577.422,522.23584,889.5143,36332.80859375
145,41568.914,46610.066,33656.266,-7916.5728,-16506.227,6382.9546,35433.3359375
146,77756.805,81510.625,81593.266,-1575.2644,-8472.035,-12927.63,27176.267578125
147,6563.4155,7935.3813,6738.1006,673.0453,554.6977,-127.48796,2000.98498535156
148,49147.145,47384.652,48572.227,-152.02914,-331.75397,-627.3778,2000.98742675781
149,-87728.67,-87717.18,-94636.625,-213.30946,-510.28308,-4410.3022,10347.4296875
150,317623.38,318476.6,317873.03,-252.229,115.45762,-560.08734,1322.58923339844
151,324677.25,325452.22,328724.53,-1768.855,631.88745,-1796.7252,5840.68505859375
152,-36233.242,-6706.7197,-35741.598,218.09703,-1232.0818,6054.214,31180.08984375
153,-54407.566,-53295.77,-50416.523,-8521.364,-3637.181,2843.9136,17161.556640625
154,-65985.6,-88400.6,-96935.484,-8398.384,1794.1654,-5714.3306,32951.51171875
155,-92602.57,-53971.742,-70030.57,-4839.617,460.53717,-3695.8604,35238.34765625
156,435573.25,414060.1,426258.6,-15034.434,1382.7804,-3463.7163,32695.8984375
157,193743.33,180034.73,213319.98,9145.414,471.4756,-290.5022,33035.96875
158,18424.201,18560.055,18504.426,963.4029,101.00657,-624.8795,2000.11474609375
159,89900.27,89593.84,90775.75,950.1843,-163.19615,170.15831,2000.98522949219
160,2357.7832,5788.7773,26285.74,78.99344,-1021.2277,-3145.1814,23131.064453125
161,16791.502,15024.413,16030.884,337.63815,-229.00548,618.47986,2000.98583984375
162,-11293.905,11738.235,-15496.768,-5872.7476,1164.7968,-2235.194,27703.259765625
163,-32475.025,-34945.086,-23901.549,-2426.3933,-7489.8306,8306.709,22220.30078125
164,-16408.463,-9540.065,-33240.594,-3806.9062,-436.52243,9854.177,27954.765625
165,36517.953,31242.223,63939.645,-396.7988,-339.20905,6779.697,32606.169921875
166,-115457.6,-106828.32,-135024.73,-8603.951,-768.0961,-8710.381,32827.6328125
167,40897.273,37953.67,21939.46,-11102.05,483.00262,-10949.913,32286.64453125
168,-16016.386,-21037.027,-8171.65,-4191.2764,2099.2559,5517.7764,16834.21875
169,6260.1787,3665.6553,-2281.3306,-8173.1035,10708.964,12916.879,33204.0625
170,-20193.705,-32542.766,-24419.273,-8010.099,-9361.9375,9798.918,29353.908203125
171,-307648.2,-314888.06,-321633.28,4021.6326,-11021.864,-5180.245,25302.53515625
172,721921.3,732256.9,727763.75,-5212.3677,-272.49057,9170.754,20361.982421875
173,-60367.125,-55934.996,-22344.355,855.105,-1817.9172,-2545.0537,36447.125
174,37302.61,52856.12,22851.508,-11994.815,-1248.6345,-4562.3477,34267.484375
175,28229.41,22948.209,25888.768,-9984.852,14612.394,-8766.721,34514.234375
176,-100092.516,-101162.016,-101212.85,-471.2542,-9.862093,841.6997,1998.17224121094
177,-216742.95,-242839.83,-228503.89,-199.3112,-4412.6655,-9874.887,29385.66015625
178,27032.934,63954.4,48072.906,2128.231,-295.71985,-3847.1255,32974.23046875
179,-24031.12,-26866.13,-14983.118,10127.908,947.13513,397.03955,20650.482421875
180,1371.2325,12999.912,40755.004,663.8281,6363.6377,863.9269,36788.24609375
181,136416.95,131967.64,133972.3,919.8171,-1212.3518,-887.45013,4919.95654296875
182,25185.05,47721.582,62131.75,-1336.0839,-121.92129,-909.5326,32375.6875
183,-155236.48,-137147.17,-124098.55,10646.061,795.0421,-791.3237,32822.5703125
184,28537.695,60715.34,45860.887,-9131.462,9047.863,-2583.8545,35970.0625
185,-11975.566,-2381.466,-26158.48,16162.582,-4536.5264,-7003.0815,37707.17578125
186,12585.061,13252.532,12983.175,-275.06342,1001.95856,377.21182,2000.97277832031
187,23729.54,19574.568,23189.705,-1836.8549,4481.9927,-5284.055,13017.7880859375
188,139406.27,138823.31,140966.12,-176.40105,-275.71097,8.5541115,2000.98510742188
189,-13589.711,-30315.61,-1659.5563,-9398.5625,9346.68,2780.9014,34233.12890625
190,24652.348,31931.656,53397.75,7179.2524,4086.0332,-2103.2712,29799.716796875
191,-12318.217,1135.6028,16960.762,-13154.739,1950.7758,1553.9873,34382.4453125
192,95876.39,129650.234,120281.62,8705.89,1328.6567,-2505.0056,34110.52734375
193,-6274.1084,5194.8853,-27671.785,-12705.133,4059.931,-3584.701,37510.9140625
194,-46775.125,-39722.145,-12183.627,10890.9,-955.40497,-7008.896,38836.71484375
195,-30697.03,-63587.08,-37251.06,-6186.5107,-1183.5695,-7216.509,34415.1640625
196,-50983.887,-37078.26,-14886.123,-3178.8289,-3048.9036,-1352.1455,32529.06640625
197,52254.656,89708.15,78207.516,-12481.295,-1136.7444,1149.9167,39742.69140625
198,38320.418,6515.3154,3215.487,-2536.7825,1228.473,326.00012,33934.59765625
199,146447.86,142648.31,168527.05,357.2651,-4237.9297,10289.5625,30946.83203125
200,-23266.63,-22434.684,-60144.48,4993.1875,3264.1816,-2298.4585,38909.60546875
201,190675.81,190866.17,189780.2,-393.9886,842.759,-364.55392,2000.98681640625
202,254638.42,259825.98,263851.16,-1530.5605,9429.99,11626.814,27264.337890625
203,112927.99,114307.43,114480.39,-382.901,-671.2666,-116.843506,2000.98608398438
204,44906.63,44004.48,45520.484,740.48914,-449.496,52.768177,2000.98608398438
205,62014.52,62411.61,61312.727,1011.8176,18.97903,29.837164,2000.98596191406
206,-481927.28,-481636.8,-482334.66,-1074.6376,-171.6059,162.23364,2000.12475585938
207,-200633.34,-194741.02,-207735.28,-3581.3403,363.20593,-4522.217,15074.119140625
208,15635.266,14542.688,14658.441,-169.69731,876.1912,-420.83902,2000.3740234375
209,185670.36,186157.02,184682.31,756.975,356.08337,-264.64282,2000.85900878906
210,299075.75,299680.56,295639.1,-45.43637,138.09004,-1387.9186,4483.0
211,-27771.89,-14372.143,-25995.248,3142.0935,-5983.1504,1896.9756,17513.171875
212,-51080.145,-42663.684,-50066.64,-18185.795,-3897.8374,2270.787,33414.8515625
213,-15059.921,-3701.1387,-9949.848,14753.096,340.22913,-3753.2,28154.19921875
214,17035.955,29264.02,40298.082,-4274.0522,6342.6714,3191.1506,24743.537109375
215,746.4016,10967.81,-16853.443,466.44885,3979.4038,1598.4958,25494.16015625
216,2612.3345,1999.5073,-25590.217,-6769.117,3599.7036,4654.042,31934.197265625
217,1825.6309,12030.809,-10779.974,-4205.7017,-13280.192,5583.0312,32670.388671875
218,39269.01,28940.148,44541.867,2755.356,201.99188,7296.931,19276.541015625
219,14762.645,13124.851,17542.66,-878.0038,-22.771095,2775.856,6355.6513671875
220,17907.404,17068.27,19934.2,-1245.4609,-2612.0415,6569.704,12693.2119140625
221,-18878.453,-19501.016,-35071.496,-3413.5908,7173.8403,10024.6045,27264.42578125
222,7824.807,32273.117,18695.234,3420.738,16.929724,4032.0193,23108.423828125
223,-18907.979,-28229.344,548.953,-2418.6406,5694.4766,-5315.42,29093.24609375
224,-143563.64,-143745.56,-142446.8,583.23254,-906.65314,617.29565,2472.51196289063
225,18266.516,19491.736,-5342.3276,-968.6011,8911.892,-9215.411,32918.93359375
226,-14904.126,-15349.121,-16361.11,-687.0667,338.30762,-436.46954,2000.88195800781
227,1367.3456,2543.3936,2450.0723,19.525402,847.6411,-433.91415,2000.88024902344
228,38802.883,38097.664,36876.812,54.66221,-609.5475,-102.550255,2000.98413085938
229,6583.6997,7278.279,8654.521,204.09259,233.19229,357.5147,2000.98498535156
230,40750.98,40299.87,40575.01,677.3889,-628.7695,-654.78754,2000.98571777344
231,-71929.92,-71432.29,-93722.516,267.53897,4992.5625,-1856.4698,23902.734375
232,8790.038,-24529.973,7485.6323,8517.909,1548.7477,1640.6769,36074.88671875
233,-1094.1058,-19200.668,-38596.855,-5223.0005,-1234.4038,410.5832,33796.06640625
234,51319.91,19148.27,37824.293,10322.696,7818.8066,-6373.9463,37522.3515625
235,-21152.137,18785.24,-370.4353,-3334.3992,4984.6997,-3662.1318,36674.73828125
236,-48081.242,-40563.184,-11549.468,-653.478,-5145.6777,-5666.5464,35965.09375
237,23386.092,35147.59,4841.8774,14402.35,2330.6309,-3350.4353,37048.390625
238,204919.22,189446.66,218648.66,-12071.476,-972.83466,1167.417,32930.48046875
239,-47709.902,-59483.137,-43670.14,333.217,11684.922,8104.6216,28451.533203125
240,10253.108,44766.652,21155.914,-8009.3765,-10832.425,1035.3901,38489.63671875
241,500757.78,510365.56,531837.0,-6042.8516,-6052.8516,-4369.709,32192.658203125
242,66604.06,56399.605,88511.4,2526.0552,-4883.3286,186.02927,29973.357421875
243,153238.33,141410.45,179123.97,7039.393,-4967.2896,4513.296,37415.609375
244,-222862.86,-207297.16,-219633.12,7942.039,2569.6343,2938.6292,20913.939453125
245,-81089.31,-65949.66,-59847.96,-4501.4155,-7049.851,-4223.7026,24944.455078125
246,191165.22,189819.2,191122.11,538.95105,517.3198,437.46176,2000.99304199219
247,120808.68,120638.234,120333.14,-1125.7799,21.468058,-93.60741,2000.98645019531
248,41868.71,41069.652,43165.3,-84.787994,-436.9737,-88.656586,1993.408203125
249,339399.12,340173.2,339889.84,52.165977,1084.1757,-20.87051,1998.97766113281
250,12597.181,13208.204,14540.529,-130.3841,-51.54093,572.261,2000.98449707031
251,70430.055,70160.1,69897.57,206.32776,238.44923,1079.041,2000.98596191406
252,21293.832,19948.945,20980.307,-242.64378,608.8043,544.03595,1913.59448242188
253,3922.761,4295.5723,4532.7188,154.51509,216.66812,1081.2192,2000.80053710938
254,40745.83,41254.92,40339.758,718.8489,-750.0632,-165.23894,1987.64294433594
255,43648.383,44082.47,43005.65,680.13184,-533.7271,-541.93134,2000.98486328125
256,49570.367,50443.496,49475.86,993.8357,-219.23926,-101.09069,1997.94580078125
257,99250.67,98376.516,98330.445,-391.33337,935.3743,-194.24817,2000.98522949219
258,282782.88,281722.8,282331.16,-334.95734,772.5445,585.35236,2000.97692871094
259,243843.53,244733.36,243918.73,-116.435425,32.70905,-279.38684,1004.28283691406
260,-504896.84,-505460.97,-504400.7,-366.4713,942.2166,106.934074,1986.15881347656
261,129655.63,129968.875,129650.72,367.7015,-12.2287655,555.1295,1195.931640625
262,316804.3,316321.88,317955.38,159.68492,614.6803,476.4348,2000.99230957031
263,-275507.94,-253828.53,-243865.81,-1702.492,1427.0254,3693.0134,28999.2734375
264,700015.4,700030.4,701761.3,-57.98639,566.5882,-53.111454,2000.9873046875
265,973.21234,11964.433,27536.518,-9865.161,600.7333,8573.013,32372.666015625
266,-11586.053,20852.258,-10299.233,-11577.721,3204.11,1895.248,38155.77734375
267,41024.824,50634.668,25751.965,-16370.885,-5268.6484,5920.3535,38273.02734375
268,36089.05,60733.582,39657.438,-17154.715,846.35425,3748.5835,38200.8203125
269,50683.582,58195.703,58009.21,4642.105,17017.553,8410.719,34651.48046875
270,3279.9263,-26329.45,6236.8335,10421.679,-6251.414,-371.26907,37636.3984375
271,3280.8079,-32364.113,-9611.982,9509.949,-4590.39,-4528.7437,37057.8359375
272,-43338.03,-58202.613,-81005.83,10131.417,175.33067,-2091.8945,37430.734375
273,-20723.502,-44707.055,-1854.7794,-3432.872,2579.8704,-3602.8616,38445.3046875
274,43135.01,64095.53,75077.26,-5806.695,9923.714,-4201.51,35209.03125
275,-105265.57,-106264.35,-109438.64,-6181.9746,-4719.296,-8235.319,19979.271484375
276,-93067.67,-89318.28,-80135.95,-18608.234,-1593.8523,2388.5264,34588.1015625
277,-13744.904,-17747.312,-52690.82,-4589.0967,-60.61824,-3631.273,38466.546875
278,10381.415,11169.448,9513.092,-557.1646,347.6963,-465.73175,2000.9853515625
279,60114.387,65649.21,83829.02,2020.4012,10197.718,-3114.976,28549.9140625
280,-20089.113,-59587.523,-43251.625,-5810.9575,4207.8643,4330.03,37315.03125
281,2747.2537,1584.3976,1160.236,384.53964,-117.75553,705.53656,2000.98559570313
282,10834.201,16822.617,-18672.584,4822.0693,-11065.761,-1401.8344,39066.81640625
283,-40222.938,-38240.03,-31960.424,951.14966,4481.971,-11530.276,22751.646484375
284,-60732.195,-28797.854,-71150.46,4480.306,59.00868,676.0404,39021.0703125
285,57895.035,77456.8,81949.71,11148.587,8690.841,2476.2524,33295.625
286,-1837133.0,-1837097.4,-1838582.8,-220.56311,631.2706,411.3986,2000.97229003906
287,-57346.926,-45817.047,-36214.05,16010.108,8088.4478,-1519.5338,36166.88671875
288,157147.77,133079.86,170292.34,-9267.138,1324.4569,-4077.6033,37164.3515625
289,39159.85,38755.977,39611.652,-218.08409,-341.11887,-992.4983,1999.15905761719
290,63966.367,65627.57,64155.523,-233.94022,147.9216,652.37396,1996.93530273438
291,-197404.4,-192353.48,-162474.77,-8929.757,-1482.2948,3033.1465,36641.203125
292,-79423.83,-61565.48,-101528.14,8986.872,-4393.5015,-661.90295,38778.62890625
293,16402.094,-4018.0444,2797.593,-11622.225,-12981.036,-1824.6914,35284.5234375
294,238974.47,245623.31,260868.27,-10657.982,-1357.313,-4413.5806,27977.146484375
295,127299.26,107373.38,111619.664,11262.786,-9879.985,-1200.9358,31751.861328125
296,5924.7197,31131.188,35366.395,556.87573,3481.5918,7322.185,30954.734375
297,810.91504,-23899.713,1863.9391,14609.979,2254.5803,-6703.691,37791.09765625
298,13978.158,12466.915,34344.754,-716.78436,-2948.2173,4690.3438,23269.640625
299,32836.76,21846.764,3014.941,-8914.651,-3494.3308,-4045.9756,31725.90625
300,-14426.983,-17791.842,-41611.586,3481.5881,175.98442,-4420.8467,27457.994140625
301,95388.86,110016.01,121240.24,2154.6138,2811.2795,10305.965,29332.42578125
302,-18771.744,-19149.717,-9577.99,-15942.167,-1810.7639,12780.041,36748.14453125
303,-37436.4,-47750.363,-25951.123,-6762.9326,-6165.7744,14902.768,35697.16796875
304,10042.7705,39450.594,11701.126,-8217.72,6915.683,543.76807,34143.25
305,4824.126,3527.1243,35162.465,11085.253,4325.7305,687.4509,37251.1484375
306,104752.16,104909.984,106012.55,4.993675,-446.62067,-810.2278,1995.61047363281
307,-79333.38,-78766.16,-79718.055,660.44934,-614.1413,-540.12146,2000.79895019531
308,66128.34,65265.945,65541.266,122.91169,882.1416,-40.16057,1722.43395996094
309,13532.837,13727.338,12285.129,245.47267,449.27087,-678.263,2000.927734375
310,138817.66,138704.36,137012.0,312.69458,411.3452,-211.22713,2000.86340332031
311,37973.1,39169.426,37820.414,-548.6423,-189.05443,-661.4301,1989.94677734375
312,-69205.0,-28890.307,-42707.094,10155.628,1368.3335,-1416.4895,39751.796875
313,-32242.842,1724.7291,-4008.8403,-3561.4956,6400.488,-6545.92,35796.828125
314,-10572.504,517.68207,-23354.393,-9471.771,-10974.54,9757.493,36663.515625
315,-2032.4276,-17155.113,-29288.738,-12184.268,-4067.3523,-1707.2687,32606.087890625
316,-16178.299,-39052.766,-213.02853,-1133.2484,3005.6545,1088.5199,34319.63671875
317,30715.803,60911.336,22947.037,6730.7456,2653.589,-341.17093,36933.5703125
318,30974.72,30450.195,29709.34,-288.19254,-260.1387,882.7381,2000.61291503906
319,-578624.1,-580132.75,-578717.1,-287.48965,141.34756,-719.0264,2000.79516601563
320,129774.31,128798.14,129156.31,-234.60078,-221.043,993.0761,2000.46362304688
321,58608.715,57802.86,59826.195,-356.0331,357.22565,206.6108,2000.98681640625
322,21820.688,6349.0303,3043.0383,4347.4424,-1297.3274,7106.9917,22687.63671875
323,-26475.66,-34274.934,-44847.234,10395.23,1978.7462,11179.103,31079.0
324,43409.383,33648.105,32498.666,6204.2344,-687.14545,-12276.264,26016.10546875
325,-3133.3037,1292.5343,-14921.124,-3255.5317,10176.673,10667.018,29909.146484375
326,10797.46,10110.81,11385.964,274.6014,684.4499,-619.2412,2000.98327636719
327,13304.874,34012.38,53353.89,2303.9587,1810.1617,810.0114,35087.4921875
328,-1946.88,2674.1868,12313.603,4801.868,-15325.339,5110.7124,31795.392578125
329,-9610.676,-41572.55,-49271.055,2126.4475,-1441.8693,115.941574,36697.81640625
330,-882734.44,-873854.94,-880705.2,1639.0424,14924.062,-7781.457,30378.283203125
331,-42996.69,-26753.73,-26371.396,-16079.772,-2949.0503,-3019.8762,33155.953125
332,37388.133,37198.094,37551.79,771.0683,831.5218,-131.67973,2000.98522949219
333,80901.766,79738.89,79503.125,-719.129,501.8432,70.542854,2000.98425292969
334,88166.42,88210.19,89704.164,410.9859,567.4431,-275.84888,2000.06176757813
335,233473.61,232344.2,231531.75,-131.49088,-447.06738,389.91287,1990.17626953125
336,-10281556.0,-10281777.0,-10281629.0,-499.39844,-85.48562,-1032.0927,2000.95153808594
337,-91696.02,-79658.26,-77878.96,-794.6778,12739.12,3915.3054,26537.359375
338,-5596.0327,-31459.762,6682.8936,-10090.778,1456.5973,5426.8228,39210.59765625
339,20573.17,14611.314,7429.629,-2152.6816,-3854.876,2059.4797,14182.49609375
340,25903.662,26174.049,24579.652,93.93735,-600.5879,486.90652,2000.98217773438
341,37285.86,37767.863,37089.707,-1094.0824,-22.693928,123.825264,2000.98522949219
342,14154.775,12892.422,13465.275,194.10289,-937.8217,133.37933,2000.86999511719
343,37493.59,36896.56,37463.42,909.01166,-34.61914,625.8876,1999.26318359375
344,1101714.8,1125312.6,1125360.4,-3959.507,2531.0105,1830.6798,25185.197265625
345,-9701.309,-3421.237,24655.547,11687.408,-1919.1002,4364.102,38497.28515625
346,-7656.9663,-19151.402,-10744.084,-1023.18866,5051.819,2782.0525,14459.9619140625
347,-322.77344,-237.81409,1042.3268,202.68706,-839.8073,57.927345,2000.96984863281
348,-34160.11,-22487.963,-3124.7012,6757.5444,-3554.323,-3001.3162,30644.77734375
349,10037.801,-7597.176,34272.613,7095.4663,-578.4158,-3802.6567,39001.5390625
350,10450.778,-9065.294,33964.426,3604.7256,-3219.39,6458.357,39848.078125
351,-3405.3398,8381.237,2491.4993,-2127.4106,-426.60974,1505.6549,11185.5791015625
352,-30793.33,-20676.703,640.7868,5338.4316,-2663.3015,3457.3271,30250.2578125
353,29210.188,18026.14,35527.594,-9727.611,-3874.1528,5290.7188,25466.21875
354,-3737.9387,-2212.6604,932.4954,-217.80952,429.94568,-389.96216,4262.48876953125
355,23921.646,4734.5645,-7200.3164,-8860.727,-3738.0625,9540.712,35918.1484375
356,5276.1953,-10237.933,32226.814,4572.631,1436.447,4896.5522,39063.859375
357,-32500.602,-20246.31,-31744.514,21582.934,429.99564,-659.09143,39253.03515625
358,-17937.389,18620.17,-8406.062,12076.613,2587.8816,2181.2646,39379.66796875
359,-65024.637,-53969.973,-25177.076,10492.631,-1249.5457,-991.32117,40093.0234375
360,8070.975,7099.8643,14101.314,709.6159,-37.986725,4285.7173,9989.05859375
361,14604.677,13572.822,25453.723,-2770.6536,1000.00977,-1752.4896,12853.1875
362,-5497.9243,-9132.541,15431.795,5558.123,-3141.663,5434.937,27170.5546875
363,-2262.7085,-8401.649,-17917.484,-1481.7295,-3155.3164,6624.872,18835.505859375
364,62401.625,62216.414,61538.98,25.491598,24.275522,-1061.6749,2000.96618652344
365,2583.504,-10108.874,-30860.223,3644.463,-3638.9465,-4787.9077,31677.169921875
366,59327.723,55113.81,93418.81,-5355.5312,2103.0527,1247.5272,37783.58203125
367,-99710.79,-110204.28,-141877.66,3360.9746,-416.2664,-3441.2715,38930.91015625
368,-20229.436,-12837.772,12793.41,13129.928,-582.1159,6125.956,39138.6640625
369,-48500.312,-88377.836,-82668.69,1299.0284,-1316.4493,1788.1265,37616.46484375
370,14903.91,58077.477,40275.453,1558.8059,-238.23056,-895.8041,37711.52734375
371,-29844.771,-29650.418,-37173.453,6211.103,3795.961,3546.2236,15870.103515625
372,-35130.28,-37256.555,-55418.723,-5292.232,-8636.5625,250.18773,26095.681640625
373,-6887.5635,-1993.9768,-9284.299,7405.864,-1897.0636,-1302.6908,14894.5693359375
374,5745.155,166.04688,5840.5923,5095.616,469.44598,-756.24396,10580.20703125
375,3114.386,-5302.2065,8831.021,1820.5813,1857.5143,-1598.2789,13401.181640625
376,-29191.54,3008.0667,3035.0684,4933.167,9104.525,-2129.809,37053.7265625
377,-53234.89,-75723.0,-96108.35,-7433.562,714.5951,-4206.259,40001.11328125
378,6136.0635,8005.7295,10585.326,222.15475,-4791.565,2035.4635,9819.7568359375
379,-7255.642,1922.1025,-12122.171,-2457.9146,1945.0576,-1136.4891,13635.4853515625
380,-80606.734,-75967.61,-109522.54,8375.156,710.6288,-165.98152,34696.05859375
381,33184.168,-908.6559,934.1605,-3012.7437,-12.111997,-2708.266,33942.95703125
382,39327.824,8983.244,47470.74,-9165.924,5523.4067,-2770.7683,40009.8984375
383,-15521.508,5104.6465,-30923.27,-5984.8516,5575.956,7768.826,36906.9765625
384,-57712.918,-81785.13,-36849.473,514.02576,-5024.8115,-1198.853,39972.92578125
385,-9611.698,-363.47998,13875.538,-486.80298,4886.8706,3111.2275,22833.294921875
386,14037.863,-4345.7764,7412.2524,4919.6694,1653.5725,-781.7615,18512.154296875
387,-639.92053,6546.463,-12426.356,7556.823,5248.4785,-758.90283,23042.35546875
388,8794.548,7943.865,-2976.9316,2543.4678,863.07227,4661.238,14700.38671875
389,53700.125,39603.6,66434.734,2446.3135,-2219.4106,1493.7825,24079.46875
390,-26431.139,-36286.504,-58727.875,417.3278,2175.6582,-205.34604,28926.818359375
391,-89538.03,-66391.88,-106366.48,-6035.4253,-2269.2756,-6318.6714,38117.703125
392,6199.876,3217.0176,5645.47,-4000.1177,349.0846,-1073.1711,7705.49072265625
393,-109045.23,-117423.98,-132282.3,-9229.964,-11662.842,10791.079,37794.86328125
394,51733.04,14365.461,44143.008,-9902.517,-3367.3308,405.65854,38717.09375
395,39255.156,76099.93,73454.58,9018.802,-2354.4956,-1996.4413,39238.66015625
396,7350.8735,-1157.9056,-93.92273,10955.28,-1438.9132,-1966.0715,21031.890625
397,-15165.35,-19011.045,-21716.084,-1005.0308,1274.2233,117.589066,6360.19189453125
398,-5374.682,-19822.047,-8869.09,3044.9583,2471.8647,2360.221,15274.4833984375
399,7745.6494,6617.656,-1432.2075,-993.52075,3268.5771,13170.876,25111.369140625
400,-52808.68,-19249.209,-35810.664,-12414.437,-8951.027,1443.6976,39416.95703125
401,-70329.71,-28354.672,-58141.01,4823.2344,-1695.6544,296.2216,38438.61328125
402,-48772.883,-54219.17,-40770.37,-3163.6016,1639.9569,-15886.761,30537.63671875
403,33523.188,61283.4,36763.56,-120.67276,6812.073,-2221.5105,29072.9765625
404,-5495.342,-7585.442,10859.487,9608.746,-3322.8125,8070.607,28487.6015625
405,-47082.867,-46812.555,-80321.94,4481.5845,-83.84985,4749.626,35239.828125
406,-716.7439,6179.879,693.2123,7604.826,-658.37726,1497.1074,14877.9013671875
407,24942.21,21101.518,28063.309,-6382.3057,-1360.2583,-4665.3716,15150.208984375
408,74397.03,93758.62,55019.566,175.52765,6190.4062,8499.225,38174.625
409,31068.264,9052.318,-8857.781,6852.119,2314.2947,-2146.7126,37020.65625
410,77147.43,55762.383,51376.484,1232.5471,15109.024,10821.96,40138.49609375
411,-11517.318,-9565.196,1018.84814,-5516.591,-2173.523,-235.72104,15560.58203125
412,20318.748,13250.861,49721.344,-533.92706,-3873.2678,-4818.5054,35182.34765625
413,14148.36,14284.282,15370.204,77.75371,538.44556,768.26135,2000.97119140625
414,43726.594,5561.506,35899.703,7947.279,4022.212,5427.9404,39313.1015625
415,59853.18,59918.086,61768.062,165.63026,-352.58804,25.809528,2000.98852539063
416,275.4485,-978.41064,-11164.243,13025.998,-3121.3347,8624.111,29656.009765625
417,-14981.087,-43979.184,-19820.03,-12347.891,-2735.3074,-2824.8867,35039.71484375
418,484.77393,10649.625,-31409.19,4485.949,-65.76593,2573.3538,39051.2109375
419,-7499.3965,-23442.676,18324.842,-934.32825,38.402473,-3638.4497,37082.890625
420,13996.644,12857.025,18306.541,-34.234097,-4255.0415,-1639.694,9336.5419921875
421,-27893.953,-26097.004,-21444.137,4733.9,-2667.921,-5181.3726,14225.39453125
422,59884.754,59028.53,22899.469,-6745.0864,-6565.98,-1477.0211,40116.66015625
423,23950.395,23772.768,24373.377,-163.02625,-841.79846,-710.1026,2000.98522949219
424,14811.534,15449.735,28602.213,-700.63477,-2338.1338,-986.174,14233.0517578125
425,94608.8,104401.516,137941.05,1754.4545,-2956.7617,-2375.1343,40020.3203125
426,60910.65,56039.543,73116.96,12188.778,-15616.226,7424.2617,39684.22265625
427,8201.215,4299.015,17920.844,-8075.389,-76.48157,8505.738,23671.12890625
428,5656.563,-802.5891,3628.6858,-305.93808,-1620.7487,-3022.6938,8264.736328125
429,2128.6182,7691.6685,10040.659,1241.0187,-727.42944,772.0888,7584.79052734375
430,-9764.806,12477.079,-1127.354,-3569.974,-2837.588,1540.145,21135.2734375
431,12162.168,10684.528,22404.01,3678.7827,-778.5737,-1369.9639,13048.4384765625
432,21995.604,9512.153,-12560.842,-10657.56,6118.268,-5719.099,38337.6484375
433,-2209.7854,-26966.148,13629.888,6732.772,2505.6428,4896.548,38505.31640625
434,62964.586,65625.6,35461.242,467.38086,-2802.747,-7240.7705,31909.39453125
435,32961.543,26030.059,23811.707,-4790.237,680.81775,777.98804,11848.5634765625
436,45852.367,58101.027,86718.33,-8553.689,-3698.6794,-3042.2378,40097.4609375
437,-20001.0,-14762.16,-14881.682,-8683.622,-3341.8916,893.6055,16998.5234375
438,114018.46,89449.09,80010.66,-13658.32,67.511345,1610.9098,38627.48046875
439,20947.14,34328.375,60141.9,4118.6626,-5222.102,-2534.9739,36644.12109375
440,-22125.357,-21405.693,-7684.749,-11593.2,-3802.965,2205.8276,25687.51171875
441,-10196.46,-15684.57,-51382.504,2163.5208,4326.586,2940.7573,39956.484375
442,-10442.057,-15611.545,-8995.789,3538.36,-3617.8977,-344.40094,10652.4697265625
443,-16583.578,-32021.762,-3864.288,-7938.3486,1167.0769,-958.535,28149.162109375
444,-7458.875,26708.1,29046.594,1707.5964,-135.5612,-2628.8225,35809.00390625
445,1607.0664,8885.021,11422.944,-4403.138,-688.22205,-1291.8115,11936.1103515625
446,-17633.176,-24127.982,-36928.46,1206.8462,1346.5603,-1582.1185,17506.849609375
447,-11759.882,-13977.417,-15482.753,-187.70932,346.6817,3806.2546,7379.06640625
448,-41328.59,-37447.305,-72057.61,-845.0248,866.5163,-1754.4122,33048.9609375
449,32795.82,34715.516,26575.42,7370.06,22.024214,224.47418,14745.3671875
450,2703.53,-1052.3611,-12409.344,-1623.5042,2069.6326,1346.1241,14558.0546875
451,-22108.28,-17435.729,-10812.982,14383.103,3891.5593,6361.0654,29733.51171875
452,-7797.3135,-4539.0015,-13024.193,3423.967,-538.1182,-1566.2593,9917.9912109375
453,-16746.447,-18023.74,5090.2812,14279.646,-5552.797,3548.2422,35332.1640625
454,18789.158,7189.658,-10736.116,3703.6226,-207.31107,-1372.8,26659.80078125
455,-15968.732,-7846.5474,-16906.34,-868.21063,238.04845,1887.4766,9358.60546875
456,-28796.953,-23913.934,-35292.195,3583.1377,-155.57224,-1571.3679,11989.3818359375
457,36600.066,28988.293,12215.76,10265.857,15565.9375,-5402.648,39969.3671875
458,-116130.22,-99559.39,-143326.55,3222.5535,1721.2886,-1863.8759,38927.66796875
459,-22803.594,-723.50977,-30107.762,234.05345,-3048.1196,3329.4124,27630.599609375
460,51665.402,56066.137,71711.85,-14144.198,-251.13988,-1197.0988,30621.41015625
461,942.82275,4797.5176,14699.735,-1417.8569,-80.92296,1263.392,12724.845703125
462,-3994.5977,-4302.05,-6966.7725,-5165.574,873.7491,-582.6729,9558.9150390625
463,-2990.04,16088.935,19494.139,13286.385,981.9506,-289.42474,31197.732421875
464,-23558.297,-46039.008,-30286.932,-18962.16,2045.8846,942.78186,38643.3203125
465,21855.062,18727.238,17439.678,-9145.196,-1706.3234,-3341.8108,17567.296875
466,14259.628,9912.86,8649.198,-71.290955,-2971.0422,-1324.6304,7598.982421875
467,-10434.497,-5854.762,-17717.662,2510.6929,-509.13736,811.0137,11359.3603515625
468,-660.3594,-11484.6,-14113.052,-2654.2634,-4757.0264,1611.2285,15790.35546875
469,-37549.17,-36381.906,-73528.81,63.046528,4692.3022,-180.37057,37470.75390625
470,-82706.84,-73334.08,-116671.8,2594.8503,-485.48508,1972.8915,39904.8359375
471,-4828.1567,1977.6199,15892.332,-2242.12,824.2232,-1020.05505,18838.234375
472,10682.0205,11950.448,11745.366,2271.5144,1455.5282,1738.2417,5682.4560546875
473,38360.105,35082.223,68497.41,885.38165,1879.5557,-3126.1455,32558.50390625
474,42015.566,43088.203,48906.438,563.7981,-1040.1145,5614.492,11832.580078125
475,-4908.1235,9437.772,2080.666,7167.4077,-2394.9324,-2848.8887,18709.84375
476,61097.87,99066.84,67222.9,-1696.3433,2701.1816,3953.53,36386.9609375
477,21350.283,24415.172,48719.047,5020.229,815.21436,2139.5476,27674.814453125
478,69327.1,47647.58,51118.867,-1919.8992,1224.6993,-13735.015,31437.322265625
479,-6899.5103,-6978.715,15406.826,2853.6528,2644.9866,4623.7495,24675.9140625
480,2245.9722,-3035.0088,-11406.973,418.2737,1472.8317,-819.34534,12297.85546875
481,16436.27,16174.58,29910.508,1007.5279,-962.2429,-3229.7341,14908.59765625
482,2343.2397,-2420.5386,8769.175,-2443.6643,-893.5578,-1729.492,11130.193359375
483,15941.162,7997.5225,15477.02,112.49706,3351.959,150.02907,9666.552734375
484,12134.43,12622.772,11098.621,-3454.1807,963.1392,2033.915,7266.68017578125
485,2975.453,261.58057,5947.208,776.308,1357.3378,1238.4237,6016.43896484375
486,1131.02,-5459.003,-3121.0735,1309.6232,1460.349,482.4616,6762.30810546875
487,-10425.1875,-8374.291,-7990.51,-1630.7715,-2062.1907,-336.5108,5120.197265625
488,11952.611,22705.426,7502.0464,3375.7097,4938.5103,-4248.113,18568.22265625
489,-3031.2104,-4774.583,-7125.991,-911.1789,291.32755,-1124.2542,4382.3564453125
490,-10511.316,-7700.205,-31149.113,-1032.409,-1050.0023,126.95754,22324.640625
491,-21243.701,-23834.521,-22952.957,-1094.4023,-917.7364,-120.54007,3371.79321289063
492,-16346.537,-6766.913,-2038.23,-4312.0127,-1921.1349,-1277.3191,15204.470703125
493,-8075.0225,-20083.877,-4224.553,-1513.9258,-4414.425,-2144.8994,16864.68359375
494,3958.669,1605.6511,-2276.9956,1166.0858,212.47667,38.12685,5828.0908203125
495,5149.587,-3879.663,-4909.9824,-7064.8413,1102.7888,-1261.2985,15812.935546875
496,-2102.9814,868.05945,7522.0664,-2599.8875,-1296.8013,-2772.1147,11011.3310546875
497,1602.5027,3398.5967,-11397.156,245.37514,-7678.5703,1611.1536,19504.232421875
498,-16284.762,-5020.2544,-15501.924,-1305.9474,2.6426713,-2425.0684,11892.9833984375
499,8198.019,1224.926,613.42114,2187.09,-400.2951,-4023.9563,10801.3662109375
500,72618.41,67888.52,55359.54,-20419.207,2922.119,481.34045,38932.65234375
501,-1308.4645,-1745.2007,-6531.2227,-2070.2246,1387.5521,1335.1096,7011.98388671875
502,-19399.129,-20785.701,-22466.857,4060.6702,1148.3561,5336.4927,12080.466796875
503,3674.3506,9945.759,22223.816,-352.71292,395.61356,276.68018,16375.4208984375
504,16674.664,35921.402,57458.953,-2031.5531,-1027.7462,1417.2124,35642.76171875
505,49177.36,52938.492,85488.21,2288.6035,5664.2407,522.9327,36177.87109375
506,1380.6438,-879.52075,5444.328,-1771.8376,527.8929,2202.4292,7457.3984375
507,865.6367,22872.697,18663.254,-8263.571,-374.11664,2025.1239,25039.484375
508,61459.633,61386.383,97238.09,-7270.9956,4789.3315,-1175.0972,38913.77734375
509,1064.3885,-921.08704,2759.2314,-4026.3362,1812.7012,-2566.0608,9403.482421875
510,-8148.623,-1967.9419,-15568.035,3673.9,107.27466,503.48203,13431.0517578125
511,-2029.5266,-1844.53,-13844.4795,-5056.939,-717.3371,688.8977,14882.822265625
512,-4922.6484,-6627.2246,-14233.398,-631.512,3367.9636,-4072.304,12597.6865234375
513,-94.94922,7704.0776,12642.948,-2874.0037,-2380.8826,2458.267,13551.7666015625
514,16842.084,12427.993,40338.184,-956.8409,-4562.3315,1847.1936,27398.767578125
515,8440.916,4777.206,18853.459,-912.4315,1864.152,419.95737,13169.8232421875
516,-21022.72,-1039.3965,-40200.227,-558.6445,3596.3745,2415.8674,34750.359375
517,-29598.94,-10779.57,-31362.031,-9176.06,2188.7952,775.461,25675.5546875
518,551.022,-569.13306,-13009.462,8016.0703,-2176.2747,3683.1992,20436.001953125
519,-21033.404,-29744.455,-37327.93,1995.0305,311.68683,-320.65732,14559.94140625
520,2729.0913,27445.193,-11687.098,3649.4524,-1277.0365,-2594.1477,35214.5
521,-22837.316,-19036.777,604.64404,4310.462,-4627.4604,2678.5857,24827.048828125
522,5680.1025,4995.8457,-956.42993,822.66095,1014.1543,489.7443,6768.017578125
523,4208.306,4904.201,-1235.3105,12.604098,-5180.892,-1869.3547,11176.505859375
524,-11093.632,-6187.8364,-21057.064,436.02704,-1421.4744,2100.0352,13859.21875
525,13380.452,13299.041,-3924.9858,19.82973,-2493.715,2805.5215,18448.46484375
526,-15531.779,-23288.521,-27979.502,1621.6086,1183.6007,3452.801,12900.23828125
527,-5086.787,664.058,6920.576,-3002.964,-643.4083,-1278.7107,11891.0517578125
528,-24095.268,-16275.989,-29034.463,-1162.287,485.8191,3727.0598,13061.0654296875
529,-4427.2334,-905.28125,-12340.238,-2668.72,-3891.5837,-1629.9775,13328.876953125
530,19302.355,-14084.035,-10034.509,9045.382,1858.5302,1257.4802,35445.92578125
531,13618.507,14033.19,24795.258,-3282.3987,1480.0764,-707.96313,12682.8564453125
532,-19118.088,-24625.15,-24471.068,-4543.0684,-2256.881,-2536.5786,11225.17578125
533,8851.487,-3330.5254,-839.4171,-4429.3574,-932.9014,20.384651,13628.2841796875
534,4928.869,3034.396,4383.861,3325.7773,2652.055,-624.89166,7635.94140625
535,8637.638,-661.1523,-5021.9595,838.76166,265.5461,2152.1086,12737.7861328125
536,10886.418,11137.469,15388.371,1473.8091,335.89877,-1776.4717,5960.09814453125
537,7765.13,19949.139,31738.195,4170.2227,-766.9492,72.0629,22023.224609375
538,-6214.4097,5366.8633,-2377.4226,1281.3784,-1595.827,2054.6897,11386.052734375
539,15354.471,4994.0938,3727.6162,3763.7695,4688.922,-1712.7936,15469.951171875
540,-4927.251,-2968.8364,-5275.7056,1095.1567,862.6086,-585.54706,3390.90087890625
541,1098.6309,8553.314,13488.044,-1157.655,796.9414,-1505.7843,11377.1142578125
542,-16532.256,-11297.997,-33232.406,-1402.2097,-4701.504,1068.2358,21664.251953125
543,40689.234,36896.547,71668.71,-583.8981,-790.2264,3118.1558,33521.23046875
544,7102.037,-7433.9946,9465.597,6578.871,-498.6017,-1537.6067,19721.119140625
545,6709.4395,13191.09,25209.209,-3879.8574,1855.8783,-175.60167,17886.572265625
546,5092.6846,-2178.5493,6834.1626,-781.79517,-1207.7872,1217.5421,8900.7509765625
547,-17549.904,-31939.506,-37373.965,-1283.4397,-527.4434,-2046.7473,18252.052734375
548,-736.53125,-7957.8193,-66.33618,-10267.857,-264.2078,-1410.4766,19491.03125
549,-5068.3354,4406.683,-22585.498,-4321.695,4273.4453,3975.5044,26848.359375
550,7175.2935,6138.4883,7225.459,3758.239,45.49846,1705.2769,7227.21875
551,-13875.81,-19435.137,-34091.586,-264.145,-775.9755,-680.55566,18182.486328125
552,9005.745,5943.163,11381.725,-2439.8608,3630.129,573.7441,8982.267578125
553,-5598.7407,-11867.254,-9699.261,-894.29016,778.35297,540.97723,5958.111328125
554,-21551.664,-20731.854,-25341.654,3358.1526,315.94217,-2097.3782,8091.42724609375
555,13483.703,20180.309,25005.424,7177.8306,1539.7009,-6506.3003,19725.865234375
556,22782.457,22500.322,38512.59,-461.60284,365.30667,-476.56775,15927.197265625
557,-22584.285,-15301.603,-36396.445,-1000.76306,7251.931,-1195.8611,22571.423828125
558,10404.733,5473.5977,19351.393,1458.26,1559.3141,2156.4358,13270.2900390625
559,1448.9209,-1421.4094,-15616.185,87.432625,2360.009,-853.3381,16413.12109375
560,-11278.223,-12174.822,-466.61133,1598.7236,4312.799,-102.956924,13816.25
561,2049.3296,3329.3318,5598.2383,252.98027,-1869.5975,-1224.2833,4986.515625
562,24219.72,30363.422,23724.773,14458.738,-596.0908,-715.0608,25899.732421875
563,6808.0303,3117.2456,6169.4307,10996.537,2047.5409,960.08093,19743.01953125
564,-779.647,-9555.282,-7355.6123,-869.99475,-1217.7123,336.4217,8342.9912109375
565,-14702.651,-12890.605,-21955.203,1953.2123,696.956,-106.41281,9053.248046875
566,12399.531,-3611.4414,4094.541,-1505.9064,-1214.3914,423.03342,14286.9697265625
567,2669.5889,648.069,-6061.905,2541.5627,-37.12176,804.02045,9164.9736328125
568,-295.1206,-13753.502,-5481.674,-1182.5685,1044.5765,367.42578,12087.166015625
569,-4844.528,-2745.5603,-10257.858,7251.8936,1695.2582,-4756.2915,16713.189453125
570,17327.428,8901.566,20517.295,3626.57,-1070.7471,-2477.9106,13013.9697265625
571,330.14856,6285.4062,-1225.6803,-2331.8484,1157.8011,-625.76154,8286.1240234375
572,-12934.962,-1464.2988,-34685.434,12464.879,-749.6067,4303.428,37114.890625
573,16198.986,17037.707,13225.451,-3847.3674,4559.946,-708.4323,10969.5478515625
574,-19492.531,-5270.91,-46358.438,-971.32935,-1260.0822,3507.1187,36750.53125
575,2924.458,3900.4766,25418.021,-865.7819,527.1505,2244.4111,22431.08203125
576,-18157.473,-16675.34,-8772.266,4134.892,-5255.0684,-4178.3677,16213.7041015625
577,-5711.5835,-7690.9165,-3680.4043,6606.129,-4880.525,3489.9873,15842.513671875
578,-1961.0541,25209.52,23869.188,15726.151,-2440.3755,2212.5906,38446.1640625
579,-7711.7285,19151.463,20511.49,16106.8545,-2206.5676,-435.95322,39414.26953125
