Element Label,S11,S22,S33,S12,S13,S23,Mises
1,22813.59,58927.06,54433.99,-6037.853,9575.404,-816.65137,39351.52734375
2,-59581.266,-36801.914,-68387.21,-10931.881,10248.588,4411.654,39102.9921875
3,90885.34,96236.57,101580.414,-1561.3118,2876.3604,-21004.338,37966.67578125
4,-40509.895,-33296.402,-31195.748,1435.564,-17715.895,10206.3545,36494.52734375
5,133127.06,125687.64,143013.98,2442.7234,-1226.7822,-1303.9208,15942.5693359375
6,-107505.78,-102996.49,-109068.38,626.26135,-22340.213,191.629,39094.29296875
7,139616.42,155123.19,153854.73,5636.57,-19143.969,4055.0361,38295.125
8,-154622.64,-144398.94,-117755.29,3926.2688,-7201.073,3089.1377,36293.88671875
9,173707.36,181840.55,166616.6,2470.755,-2369.2644,11750.646,24969.689453125
10,128737.81,127759.96,129110.0,-250.67819,742.36316,-484.23663,2000.98596191406
11,6731.153,-31551.406,-17054.002,7566.5405,8406.626,-3226.7588,39188.50390625
12,-4834.408,6901.4316,-2630.906,-199.59355,19605.916,4231.805,36383.3125
13,45657.86,13606.503,31999.043,8701.756,7764.0454,1556.576,34515.8046875
14,10172.86,11241.144,13478.606,-898.209,3402.3247,4052.4097,9744.3095703125
15,63699.066,62182.91,63891.875,-635.1766,233.1483,-24.317196,2000.85705566406
16,106088.78,97209.83,137627.05,-2163.3918,-918.64624,-1027.2938,37057.56640625
17,45266.977,18086.97,45491.16,-1334.7229,-4820.4585,833.7891,28671.18359375
18,-27773.059,-27023.441,5099.9463,2989.0908,4997.5674,10077.6455,38248.6875
19,256796.89,257359.14,255942.4,-217.53813,295.08002,-831.4806,2000.99169921875
20,133864.19,132418.28,133216.1,-751.10016,-358.07944,-343.15366,2000.99169921875
21,-64340.23,-64710.78,-77075.89,-5034.8623,16389.123,-10840.31,37309.671875
22,111961.99,88992.36,119983.34,11939.834,4541.5107,6236.5835,37181.08984375
23,53124.758,38812.496,72369.805,10664.218,8774.147,2794.9224,38029.21484375
24,-86027.445,-55119.13,-75470.3,815.4945,-8488.408,-11418.159,36738.9609375
25,-74946.55,-90733.8,-56602.27,264.13974,-2421.9468,-10043.259,34579.8125
26,268953.0,277871.28,288914.94,12444.819,-3045.7915,4524.6226,29220.818359375
27,92776.93,93701.09,94751.39,286.32303,-489.55252,-190.48196,2000.40673828125
28,113013.52,112960.06,116783.96,380.93018,-1275.9728,-1075.6119,4817.7890625
29,-156050.78,-164779.7,-146549.02,-195.911,4560.4873,-1471.2987,17844.361328125
30,-102480.62,-94341.84,-72281.44,-8457.989,-869.63306,11000.802,36226.7890625
31,238473.5,231408.67,214471.98,1184.8483,8200.48,-14548.621,36018.88671875
32,94847.23,83344.0,75715.29,-7130.6,14137.233,-11542.011,37816.01171875
33,29333.537,12815.944,13193.186,-10389.762,14806.17,-7410.5127,37589.875
34,148688.98,141307.2,124697.3,-7375.7188,-6613.637,13881.287,36407.2109375
35,67559.31,62937.04,65663.77,-4896.7095,21239.148,-560.87494,37978.65234375
36,-34108.258,-33763.453,-57496.926,-10495.981,-13635.431,-1813.5771,38122.85546875
37,-21356.703,-21298.098,-16258.787,-10638.235,13748.737,-7807.215,33393.87109375
38,41093.164,46807.81,57343.637,1984.1105,-11045.233,9245.148,28949.771484375
39,14563.837,32668.898,16432.223,-10457.636,-6553.6274,-13174.19,35708.140625
40,-19878.164,-17041.14,-51915.562,-1101.0621,1028.7922,-2940.7217,34030.7265625
41,-14542.609,-17238.105,-9966.075,-19616.088,-2588.4448,9206.021,38331.08203125
42,12274.433,50306.906,15151.171,-1610.9591,-2734.8677,4133.7373,37773.3046875
43,205940.42,205062.42,207031.28,-269.8136,11.769424,-537.43005,2000.98461914063
44,239194.27,238261.64,238142.31,907.4638,136.3373,373.85693,1985.15979003906
45,169341.47,170018.36,171384.47,329.7792,217.2096,192.36806,1956.51770019531
46,80557.73,80733.22,82000.984,148.89842,357.51953,751.3233,2000.98559570313
47,163374.72,162626.34,163857.97,136.85353,-582.5511,769.0645,2000.97790527344
48,70189.125,68654.125,69498.62,-726.6072,139.65926,439.4636,1998.71691894531
49,6978.938,6097.692,6606.3276,-504.34137,728.03046,592.76654,1998.58801269531
50,238736.61,242625.78,234099.75,-5045.4995,-2596.9778,-5736.9126,15811.396484375
51,25640.547,25996.393,20781.42,-686.58325,7420.6885,1379.3105,14063.7255859375
52,-221763.06,-223545.28,-212182.8,5043.7676,4639.2666,-8445.877,21608.275390625
53,98634.88,88652.305,107908.34,-2734.3853,531.9884,8882.537,23199.138671875
54,97223.14,110668.49,88954.68,2401.5747,-1407.9028,9962.608,26102.24609375
55,-71159.85,-64948.0,-82723.16,-1523.8123,1726.6115,-15130.837,30771.13671875
56,-34935.527,-28367.303,-38815.14,-2075.0435,-5237.261,-15919.176,30645.38671875
57,84729.47,96079.4,97863.266,14018.808,4257.74,6740.3013,30537.0390625
58,8710.983,12608.854,-4029.666,14218.132,-10981.774,-57.331768,34575.3203125
59,72263.59,61923.965,77696.7,-2055.7778,-797.5868,-7830.236,19776.951171875
60,38745.17,42342.164,35990.66,-4554.193,455.56955,10125.6,20021.52734375
61,12631.005,20733.12,24589.06,8456.593,-2559.9973,-17312.826,35286.80078125
62,46425.547,72947.195,52697.48,-9173.551,10716.068,-7764.0903,36799.46875
63,38674.848,20666.246,1357.8132,7534.686,6200.0234,4502.038,37299.9140625
64,-47518.48,-46339.96,-79042.76,-3028.7136,9584.201,-2254.6934,36751.35546875
65,-6056.779,-11384.627,21309.95,448.364,3391.6362,-3134.9226,31428.099609375
66,-2207.0342,-5478.268,-36706.91,-3772.564,-6988.7646,-6316.558,37376.55859375
67,30927.414,49794.94,26886.863,-9958.351,-8682.059,11707.928,37194.25
68,23074.13,-16319.071,4874.6333,-8373.003,-3192.025,514.2432,37520.55078125
69,-10689.613,-42125.707,-50441.95,-1582.4454,-5033.762,-1395.2501,37525.81640625
70,47935.32,40448.79,20631.008,15015.579,5368.4663,6701.621,38662.10546875
71,-2609.2842,-22823.703,-2045.551,-12093.839,6097.497,10388.492,35978.04296875
72,-76212.836,-65305.395,-59350.23,7721.007,3947.0151,16330.318,35284.67578125
73,6315.122,11375.848,40560.066,-10568.658,-1789.781,1245.0114,37072.53125
74,98118.04,106301.15,101393.79,509.23965,2434.3667,2165.6165,9138.603515625
75,-153638.11,-137954.92,-169229.48,-443.46426,11644.073,8259.699,36682.24609375
76,89132.66,95448.95,63377.234,-7398.7295,8565.323,1148.9194,35414.60546875
77,-246326.14,-247977.16,-247071.89,90.04521,512.20465,616.5694,2000.65222167969
78,447916.7,445740.53,450552.2,-1574.5496,1263.1147,1407.6805,5965.35546875
79,171522.9,162693.17,157964.03,4163.683,-7813.4326,4112.4233,20687.677734375
80,234898.42,232694.75,233466.78,227.23444,78.012215,90.59356,1987.12963867188
81,252222.69,283995.53,271918.2,9456.487,4908.3145,-10026.123,37600.05078125
82,55370.082,49538.113,79860.51,-3752.4583,10657.118,-6273.5386,35744.3359375
83,40324.445,53284.734,66914.08,-14613.229,8988.228,4404.971,38361.2265625
84,-69138.54,-64649.055,-92052.38,-2288.5967,-14769.146,5870.5034,37703.51953125
85,17968.744,-2945.263,28830.932,-12724.697,-7460.5464,-1124.0977,37935.1875
86,56814.742,55872.625,24934.586,11571.797,3618.9883,5265.068,38876.3515625
87,-13473.451,11194.542,-29921.695,8888.865,-2977.2302,-224.02313,39351.9765625
88,35629.594,74793.47,58363.098,6163.2383,5343.65,-3014.4106,37244.72265625
89,10568.012,45807.63,40044.395,8721.076,-1400.8661,7782.976,38571.15625
90,-185154.25,-172285.48,-209101.03,557.1632,2507.8665,1894.9473,32829.7265625
91,-9980.711,13086.27,19558.322,-11364.831,2858.2588,1867.3807,33848.37109375
92,31002.242,7912.6914,17938.1,-7752.6074,3867.204,11477.956,31977.4765625
93,17584.506,11207.134,838.75366,-2301.745,11218.446,386.39313,24661.70703125
94,67914.27,41236.785,58539.09,880.1004,414.27597,-5941.575,25655.830078125
95,23998.738,14444.785,-16842.465,2090.4438,-3192.5283,1998.925,37746.0
96,-11683.452,-17946.184,-45567.91,-5417.1597,-9461.43,-4193.9404,37209.26171875
97,16619.588,27298.688,37129.84,1527.8931,7673.1206,-12457.688,31062.8125
98,32992.902,46019.516,34332.62,2568.889,266.4942,19145.781,35689.33984375
99,111935.95,98103.12,135776.42,-234.97005,4743.468,-4973.289,35090.8046875
100,-29989.125,-48020.05,-24402.61,-4177.0083,-15704.388,-8377.6455,38207.7734375
101,465545.2,477380.25,461748.94,298.12012,787.15155,2387.0898,14786.1123046875
102,-109322.88,-110760.18,-128406.46,2965.822,4749.5923,-1496.495,20966.703125
103,1936.7341,5920.2837,6025.153,2629.6494,4174.6445,-7779.716,16458.962890625
104,34896.008,28123.697,49577.61,-7638.6426,-2290.2676,8883.75,28078.240234375
105,47372.406,34939.023,36612.62,-1479.4396,18766.078,-4848.4053,35639.38671875
106,-57883.742,-64146.16,-74727.04,535.27313,11829.429,-14771.994,35954.63671875
107,69071.086,91958.98,100811.18,-2711.6904,2087.3179,11621.6455,35286.59375
108,6793.921,3278.1833,31922.527,-3398.0828,-5519.208,-7790.1714,32252.736328125
109,-11751.529,-5636.0293,-33414.64,1517.0916,3160.4512,14397.453,36026.38671875
110,-9444.366,-39355.39,178.49196,-6998.984,2270.0215,-961.63257,37951.13671875
111,-7431.981,3179.5103,-32309.93,-5654.6655,-4251.794,2276.1638,34076.53125
112,-114237.92,-97218.54,-135729.83,-7557.347,-6526.522,-727.75397,37657.0859375
113,-17467.102,-3145.9214,-1228.1531,-4056.7842,-20108.738,-1998.6453,38867.453125
114,35848.68,39712.918,61100.016,-9163.803,-8610.487,-5379.0337,33408.59765625
115,-36567.934,-27681.703,-52084.6,15672.143,1609.5364,-6268.665,36333.52734375
116,38723.1,8962.171,6351.7563,5202.261,4618.7266,-9289.848,37071.66015625
117,-17788.602,-17734.166,-33444.18,-431.47913,15072.955,-5262.575,31799.005859375
118,39367.805,30024.197,5660.0405,14186.159,2510.565,-434.3651,39137.96484375
119,-108369.31,-78873.52,-80700.24,-3336.8193,-10842.743,8542.607,37742.34765625
120,-12757.991,-21297.182,-8275.361,-1753.101,9691.831,4715.325,22113.513671875
121,-81954.95,-77567.64,-67379.68,-8055.7173,-6643.09,-7769.7236,25998.505859375
122,302420.4,314905.0,325485.62,-2139.6199,-5187.2544,206.78856,22237.232421875
123,304901.1,306449.66,305818.34,306.344,-165.02116,-779.25604,2000.982421875
124,173770.58,174730.8,175869.47,105.05603,261.67654,-138.04698,1899.38745117188
125,-69175.52,-88670.26,-90053.48,4330.325,-11042.5205,12561.609,36116.09765625
126,54366.574,28678.873,37836.28,-14141.677,-5757.173,-8413.1045,37685.8125
127,85207.47,57782.984,43978.684,3603.0535,721.72815,-1285.6166,36968.9609375
128,-28649.016,-56257.008,-32650.729,-15099.337,5443.407,1321.6593,38024.17578125
129,197729.38,197089.02,197070.77,-518.3779,28.878464,-957.69,1995.55480957031
130,356810.25,352563.28,359573.22,4295.975,9971.154,-1531.1895,19951.857421875
131,27022.67,44578.973,23137.096,-2953.882,-4376.087,-12525.915,30754.837890625
132,-56348.09,-46540.793,-38330.965,-3170.5742,-16097.264,1225.5088,32498.14453125
133,9202.584,-7939.6377,9582.262,4126.0786,-12296.262,-9855.08,33114.10546875
134,-158156.44,-144400.77,-184522.2,474.2623,2045.1367,-884.3575,35533.359375
135,12681.429,9645.046,1913.7076,-15263.732,-6880.987,-14122.158,39137.74609375
136,14647.366,31160.678,-512.98145,-13777.152,-3118.3267,-6650.513,38524.83203125
137,26916.55,18073.861,43056.434,2389.6707,17755.955,819.4095,38031.2578125
138,17656.799,43250.305,512.247,-2978.3142,-669.84357,4794.7065,38531.5078125
139,66822.55,65122.16,66595.89,-470.3639,156.20995,467.57715,1987.48608398438
140,-215852.3,-216614.72,-252737.81,-4205.3784,-4097.152,894.3414,37931.71875
141,-284169.0,-285390.0,-283662.94,-108.00607,-418.21735,-583.045,1986.04638671875
142,103545.914,102336.43,104373.95,-42.28894,-342.80075,-286.14185,1937.40417480469
143,-183906.12,-187529.8,-169680.56,-15321.604,-5669.36,-3141.163,33125.921875
144,27015.727,50830.555,64429.92,-6037.476,-9350.91,-5.495593,38047.703125
145,-6608.378,1525.1825,32222.096,-5423.7856,-4730.458,-1135.6973,37648.16015625
146,51731.438,80362.67,53498.754,10592.796,-9966.569,-568.3103,37521.44921875
147,48698.164,28574.174,20288.707,-9320.907,-10105.144,-9078.151,38138.94140625
148,-32044.312,-10950.78,-45795.945,11279.401,-3248.1829,-2585.9797,36844.31640625
149,-6122.111,-6617.3823,25938.79,-1291.3574,-6920.531,-6272.746,36204.3046875
150,-11232.452,-3275.836,-39925.305,-2470.3005,-4775.9014,-8557.993,37700.640625
151,28931.996,29453.352,43225.023,2392.9783,-17677.805,-9776.795,37928.3671875
152,69001.06,68912.41,69847.375,1014.3744,67.73503,182.46515,1999.91162109375
153,6106.413,5415.7344,5267.683,-84.64814,-642.7493,-844.3361,2000.19958496094
154,168839.78,173318.25,146759.22,-5576.4634,105.06722,8182.1265,30011.0078125
155,8911.187,2121.8142,7062.3857,1956.6234,11795.077,-12746.648,30874.734375
156,56850.434,47648.73,58248.316,3174.167,4902.022,-14735.905,29210.349609375
157,173438.6,182784.53,161850.92,10321.372,5304.932,-10250.415,32390.591796875
158,-44066.22,-57058.395,-76152.73,-8237.443,-6566.877,-6757.1733,35374.89453125
159,46711.33,33288.188,9053.115,1667.3724,-9306.844,3383.3293,37354.5625
160,39694.207,20541.78,23956.238,256.9281,10542.146,16701.174,38515.90625
161,-35166.504,-12335.815,-14218.906,4831.624,5286.4805,13002.78,33806.5859375
162,58239.96,25068.576,51602.477,-6138.697,-5907.9004,2133.1428,33994.6171875
163,319.80466,23350.07,9359.872,-5297.806,-11739.188,12484.214,37001.53125
164,106545.97,110648.88,142399.02,4983.462,3873.3298,4124.7246,36410.515625
165,-3801.1904,15331.86,19270.701,-1935.3523,6283.95,-18283.021,39868.00390625
166,21943.672,11816.931,6248.5225,-3263.9702,-16328.961,-13340.697,39442.81640625
167,48763.992,57407.62,42533.42,-5214.88,6290.348,8957.191,24665.18359375
168,57666.746,52682.824,56208.68,-4611.7334,4226.421,9677.536,20446.388671875
169,-5637.8164,19671.318,12322.914,-2672.9243,-9024.599,-2694.7449,28215.568359375
170,-2441.1643,-3655.8547,-2531.6885,294.24158,438.2148,773.3914,2000.9853515625
171,-87886.74,-84009.56,-119209.38,-5380.7065,-5409.8,2821.5208,36278.375
172,25233.56,28913.973,5324.0493,11416.67,-6683.215,-2678.0774,32089.603515625
173,-50859.934,-45142.516,-55345.95,-18283.227,60.45409,-85.538574,32883.48828125
174,110052.97,113632.88,112502.89,915.64246,-67.99748,183.27397,3560.51049804688
175,274822.75,275384.75,275243.88,812.16016,-368.47318,-673.6247,2000.98937988281
176,27141.322,43282.562,14435.479,8528.4,7232.51,-11712.219,37599.5078125
177,19706.035,-3486.07,-10878.154,-4373.269,11228.113,-3925.2617,35295.40625
178,124493.54,123645.57,147017.89,3145.436,254.81009,4926.5967,25096.921875
179,203240.3,201953.94,202553.92,562.0655,-774.3818,47.535122,1999.10961914063
180,-73716.125,-68553.69,-72338.35,1197.8251,-6209.8545,4105.061,13855.76171875
181,113027.87,110557.88,146848.45,4560.875,-4989.6694,-2194.023,37215.6640625
182,-55712.508,-41594.57,-83875.9,1931.0289,1110.7983,3241.15,37901.25390625
183,-16233.598,-15015.171,-112.8773,-4236.69,14629.281,-8567.566,34026.84375
184,-2496.8982,-12634.663,1848.1946,-772.1638,15000.247,-11720.973,35421.15625
185,36587.113,64079.754,54085.68,13837.09,-249.17213,10367.345,38444.63671875
186,-17457.004,13722.117,-21700.66,5318.7173,-6318.289,6796.0674,38283.78125
187,193632.44,177380.97,204551.19,-7090.097,-14990.414,931.1464,37260.1953125
188,1445.5751,9701.31,40314.97,-3635.0808,-6432.6567,-3683.1118,38243.51171875
189,-20327.168,-31484.281,-26716.855,856.6249,-4999.2607,9109.048,20496.884765625
190,34710.965,17639.098,11626.605,-7280.4146,2040.6323,-12950.015,33239.3984375
191,218432.17,217377.34,218441.14,-409.19104,-762.8387,-459.58585,2000.98510742188
192,57874.04,36131.78,77237.52,847.7564,2087.199,1455.1448,35920.1015625
193,23692.494,24498.418,24918.31,620.4708,19.71957,-736.5994,1986.9775390625
194,60358.484,59616.25,66944.74,270.2151,-5456.6987,-5049.5723,14658.0537109375
195,-136262.22,-152481.22,-126735.836,-9169.862,-1358.1555,938.80396,27726.400390625
196,95923.81,93234.96,108135.555,-14577.416,11503.773,7479.04,37303.0
197,-22262.307,-24174.867,-15696.422,17385.115,8990.63,-10345.154,39110.28125
198,7949.235,24467.604,-2007.2996,12132.827,-8293.877,6719.564,36330.34765625
199,-89760.67,-97136.41,-66825.29,-2435.5078,-824.7998,12673.414,35373.44921875
200,16515.066,20634.137,-8681.503,-2332.4495,-3975.061,-7810.609,31660.08984375
201,95563.03,79043.9,69510.06,6538.973,-14774.367,-329.26462,36120.796875
202,2730.7778,4998.5103,-22290.676,13737.706,-3291.5273,8340.581,38669.49609375
203,122469.12,118471.95,147999.98,-11426.954,-7795.67,-4326.806,37417.3828125
204,46591.6,26103.031,56332.277,-1410.556,-2705.437,-6709.085,29617.51953125
205,-43723.25,-58969.83,-84980.12,-6109.142,-3293.7563,-304.9104,38083.48046875
206,-2855.7817,-20690.898,-35678.418,-281.58218,-11055.985,1201.9039,34370.0078125
207,951.11633,-12223.319,-10960.652,-2206.2239,-2339.2915,-15729.749,30525.71484375
208,-5928.0303,-9828.736,-41459.14,2457.97,-3536.4268,4901.216,35591.97265625
209,-14280.496,-15033.077,10692.406,-13774.72,1077.0743,1283.474,34937.90625
210,1895.747,35163.953,19508.662,-10818.823,-8699.962,393.35986,37546.12109375
211,-18519.217,-20715.764,-48003.953,3951.6685,-5170.2285,5456.082,32027.4453125
212,58163.9,63495.348,62161.734,373.28677,-6584.317,8820.01,19671.0
213,-38410.516,-34078.07,-22478.045,13190.345,10337.7295,7786.602,35043.43359375
214,128191.95,93427.44,132233.92,-4768.647,423.3065,2647.5696,38147.25
215,-84927.42,-56644.04,-62934.863,9236.951,-13698.55,-3632.8486,38988.53515625
216,194880.98,215833.12,227078.56,2524.1472,-12865.724,7072.23,38298.98046875
217,-197466.0,-202999.89,-209746.44,13556.056,-5310.254,-7266.132,30129.0703125
218,31301.824,12661.619,31191.986,-9500.086,9077.34,11648.646,35643.2890625
219,25124.096,22192.865,37184.05,-6677.892,-13256.421,1017.3467,29214.224609375
220,-64897.68,-50388.05,-83801.3,850.555,-776.8914,15026.76,39032.703125
221,-18258.936,-15884.618,-53506.297,2035.2675,4948.5835,6854.8545,39478.625
222,-26917.684,-27176.64,-53407.234,-10530.925,8867.612,9144.124,38914.6953125
223,-21374.686,-8001.321,-31439.219,2228.0132,7150.0054,110.16911,24146.109375
224,14671.381,10000.856,-8257.092,-14832.054,-7726.4136,2830.1604,36104.4609375
225,7990.994,4313.2056,-11258.018,-3758.868,-2389.0957,-4335.556,20716.140625
226,-23095.096,-24512.914,-62455.87,-5.461956,-267.64255,4327.0093,39393.6328125
227,14093.481,36187.88,-158.93199,-10635.129,-34.21198,3190.4119,37095.14453125
228,28439.016,52919.55,68182.555,3267.387,2315.7034,10603.439,39891.3046875
229,56819.86,28029.477,54032.85,9244.236,1435.6201,1768.061,32067.794921875
230,51460.656,67182.56,87707.88,-1138.9263,-3982.513,-762.74,32316.904296875
231,-229.25505,23260.805,-5959.065,-10944.836,10261.287,150.59178,37343.34765625
232,-5137.974,-20537.178,-37630.094,5242.249,3046.0479,4095.96,30872.802734375
233,22335.89,31168.367,25037.656,-3580.511,11120.0,12338.646,30456.509765625
234,2336.154,-10721.607,-13967.786,-7525.999,4044.5903,-2902.7368,21626.51953125
235,-46305.793,-42632.06,-47386.68,-9538.953,18347.246,-4107.6333,36770.8125
236,51839.27,79583.03,92986.2,2284.2034,-854.2489,-1230.8312,36655.18359375
237,8133.829,7656.4766,1700.2167,-16800.637,-12431.177,-2630.9497,37009.46484375
238,28776.639,41898.555,20886.629,10218.58,15212.889,1619.2339,36788.43359375
239,-23080.057,4984.1733,6831.026,11644.232,2487.292,-5533.663,36878.59765625
240,9794.916,-4427.5225,-29586.496,-1593.4939,47.576366,6435.3325,36399.70703125
241,28261.186,40518.785,55840.844,-6188.85,5524.01,8995.188,31968.98046875
242,-12368.796,2259.432,-5338.6787,-2530.074,-2943.4712,-7228.278,19039.677734375
243,27468.83,17724.133,39626.023,-1591.2705,8625.308,757.5003,24366.580078125
244,23464.56,4720.248,18865.186,7971.845,2985.8835,5991.0513,24725.833984375
245,7568.205,-19634.697,-29191.225,-9281.965,-6558.4404,4610.6465,39275.546875
246,6761.8994,-23378.139,-4515.9336,14383.954,-2073.1316,2919.109,36808.26953125
247,25980.373,-8157.892,-13433.595,-7460.669,-605.98083,-86.43176,39261.51171875
248,41347.78,42462.043,67876.11,-7781.9736,188.0664,14892.535,39020.2578125
249,-159278.28,-150857.22,-182215.61,2507.4534,11474.215,8102.823,37429.85546875
250,83292.15,47026.38,60559.406,6222.286,4698.641,-1339.0995,34573.47265625
251,83014.8,79655.43,78331.85,-15022.189,14380.633,4131.092,36960.625
252,-103630.805,-109652.51,-88381.016,-6131.323,-13554.616,-6293.6167,33814.7578125
253,582173.94,589421.6,598191.8,6992.802,-14613.463,-2298.7004,31562.9296875
254,-643536.0,-632477.0,-662355.7,-5927.732,-792.97473,3784.9412,28894.408203125
255,187197.56,188849.06,187792.89,705.3865,222.75447,276.77512,1992.50244140625
256,206949.89,207135.48,206473.16,390.2969,731.56464,-722.6211,1994.81799316406
257,232224.94,230771.27,225630.75,1281.3667,7102.636,6348.0103,17696.62109375
258,-6623365.5,-6624446.5,-6622961.0,584.7842,-109.71725,625.1524,2000.98083496094
259,673176.3,674625.44,673061.9,443.08908,-175.89491,589.6786,2000.96398925781
260,280900.28,281779.9,279950.4,-72.94034,544.916,-441.79956,2000.96435546875
261,156502.27,155912.05,156682.14,-760.9898,-724.5326,125.43124,1961.18249511719
262,232203.03,231771.86,232561.66,880.6071,-296.69968,-561.03326,2000.98071289063
263,90789.09,86962.08,88156.234,238.9669,-207.91612,16.281773,3435.666015625
264,115814.81,114662.65,127733.0,2574.0083,-505.3771,-13741.305,27280.314453125
265,209959.31,210593.39,215636.97,806.12177,8811.148,-8063.366,21423.115234375
266,136367.4,123178.95,135193.81,-1808.8881,-3597.3218,-3428.951,15612.375
267,11160.859,15678.576,720.25336,-6461.1206,6424.712,-17641.953,36869.61328125
268,-47140.348,-38911.4,-49870.707,5766.2065,11211.311,-2809.7104,24457.1015625
269,-101315.1,-106458.08,-125238.9,-3504.6035,1685.2039,-14875.515,34423.36328125
270,-31068.73,-4450.715,-46746.31,1703.195,5804.6265,-3314.1045,38914.5859375
271,31440.312,48175.21,20328.822,-1854.9302,10506.42,-9326.95,34524.26171875
272,30331.506,37687.996,4340.5825,2398.0405,-5525.962,-7759.448,34789.87890625
273,67656.984,79337.01,59292.676,4033.777,-10387.766,9067.999,30385.798828125
274,40257.207,77173.55,68018.016,-5774.043,3819.883,-4587.384,36270.87890625
275,-1805.779,-3118.4077,-27084.018,11352.439,6051.3535,-4882.3257,34286.046875
276,121098.87,116775.74,95999.85,10036.238,12180.661,5809.0156,37264.75
277,29645.387,16465.758,57197.965,7028.978,-378.3445,-5801.4556,39314.11328125
278,13263.971,11848.267,-119.264,-7914.593,-10406.288,-12037.407,33311.5703125
279,24047.467,25987.69,-9306.837,-3749.1687,-5244.663,4945.809,37135.69921875
280,46556.992,35938.797,71376.26,-7540.523,-2706.9592,9312.122,38012.97265625
281,-2822.0518,-2353.972,-8535.813,5690.415,14059.764,-15449.098,37970.22265625
282,42041.617,14351.971,12765.315,-10073.024,4057.5657,9144.149,37653.7265625
283,-38121.35,-54821.992,-74314.42,3459.0793,6805.2783,-9096.665,37516.4140625
284,-163221.05,-146782.67,-121013.664,-197.61018,5754.273,1617.8143,38277.49609375
285,19256.58,40318.426,9243.791,-11440.228,-2891.048,4066.1453,34957.92578125
286,-25295.297,-14708.418,-9859.363,14183.131,2949.901,-16242.9375,40100.125
287,26448.16,39913.81,15886.482,-14094.064,5957.5537,-9798.572,37756.2421875
288,32381.285,33606.12,34629.99,190.74919,131.56798,109.87566,1999.97509765625
289,-87749.27,-100441.945,-124751.78,-6548.1104,-6926.1733,-5544.0044,37754.28125
290,-200221.72,-173244.06,-190840.17,-8891.598,-12001.214,-2064.1282,35281.2421875
291,-773.9878,-24457.045,-3506.072,-3911.0593,-17353.703,-2454.8616,38354.51171875
292,116645.9,92377.664,132137.73,-679.6485,-7815.931,-4802.459,38193.54296875
293,11954.151,33815.01,1518.3413,7309.2017,-9799.777,615.3528,35559.1796875
294,-1255.8125,7590.4653,-24201.63,2443.433,-3049.0596,9641.545,33651.625
295,7870.983,11098.533,-10957.079,-15281.898,6609.7637,-9621.693,39180.20703125
296,-15005.947,-3632.1904,-34965.16,13579.874,574.5267,-2500.93,36438.125
297,63270.984,85744.64,82500.64,894.77124,6688.7603,-16193.337,36959.12890625
298,60337.656,46789.996,72312.06,581.2008,-18606.184,-329.34784,39103.1953125
299,-42747.3,-52369.44,-31030.264,11623.812,10054.386,2338.1592,32674.599609375
300,50855.984,39842.1,80901.34,-6128.505,-2404.3496,-1371.1659,38608.33984375
301,-34390.047,-5259.8237,-22226.52,-9791.692,-11129.301,9534.661,39675.43359375
302,5113.5186,32973.66,13831.258,-2293.3193,-7119.244,2849.7822,28310.8046875
303,50480.758,47580.89,24074.11,641.25543,-17449.447,-764.44196,39313.875
304,-111173.26,-106907.82,-126744.23,13985.708,1054.5804,-10699.722,35505.69921875
305,79190.92,88175.48,67055.51,-2091.0757,-6669.498,-15744.626,35032.35546875
306,18413.717,39656.047,13082.435,-1924.2274,-10206.312,5771.188,31881.689453125
307,-144593.48,-119325.83,-141929.62,9991.294,-2276.3608,7556.1743,32627.46875
308,69809.36,110162.695,80599.03,2321.5254,1728.3212,-1264.4081,36596.9296875
309,201880.69,203558.17,203962.9,-178.16063,4.4354463,289.81873,2000.99133300781
310,-73327.36,-71851.34,-46412.203,12020.476,1469.133,-6349.1353,35323.67578125
311,133631.97,132150.42,133629.12,-685.2824,48.66324,-359.3686,1998.53784179688
312,-47375.36,-37800.2,-49200.566,4435.568,3071.6794,-5038.4214,16612.5625
313,-2622.7231,-5267.8486,1783.3016,-8406.505,-8676.42,-1737.9697,22022.140625
314,255395.5,255361.45,256280.12,-422.31732,543.36804,-767.9655,2000.98840332031
315,-93709.695,-91450.38,-100302.88,22320.828,711.8025,-2904.6094,39811.54296875
316,-57674.49,-57311.82,-49461.93,18924.742,9218.851,-642.6935,37352.87890625
317,-3082.962,-30394.285,-25333.275,-10264.027,567.79034,13212.768,38393.34375
318,87346.36,91767.0,86016.67,6152.2026,-11181.506,-6849.9287,25623.8125
319,-107829.9,-126765.89,-137857.28,-4678.9956,-11717.206,8477.178,37212.3984375
320,-28452.684,-43510.766,-49691.887,-4041.867,-16612.275,7892.108,37706.7265625
321,4104.59,8868.156,-4513.951,-4318.6406,2943.8499,13393.4375,27534.14453125
322,23139.287,-9326.732,3359.611,-3882.2979,-7873.47,6579.331,34119.859375
323,-52364.168,-79061.37,-84655.234,11859.674,-858.4521,-5104.925,37359.328125
324,77109.77,71811.055,90431.77,-18052.34,1306.1843,8304.293,38285.83203125
325,133532.27,116287.266,153274.78,8949.676,1100.7434,-7449.072,37921.0703125
326,-54041.54,-51547.15,-40366.266,10814.278,-456.02237,-15155.155,34635.671875
327,46821.37,46037.074,73781.03,5137.305,-5386.8496,5124.9766,31521.564453125
328,-23729.195,-16775.473,-39016.188,-2886.974,18269.068,6748.2104,39385.82421875
329,15729.29,-21174.014,-16902.604,3578.3567,2509.9336,4389.66,36573.078125
330,63140.28,37324.99,43306.574,10411.946,10330.566,10178.654,38781.375
331,-31173.424,-18807.912,-28520.916,-9473.593,-757.2508,-18773.324,38149.99609375
332,13046.435,-9208.267,-28608.129,2745.497,8177.8354,-2248.5405,39265.46484375
333,3168.7004,13666.503,-12830.891,-10303.072,-12840.185,-4364.6772,37474.96875
334,19492.592,52354.227,53326.434,-10785.996,572.74,-2263.1912,38446.63671875
335,-123106.2,-140212.7,-138749.58,-2746.0198,-4353.213,11328.444,27096.46484375
336,473022.7,471827.84,472986.16,-650.058,-522.4863,-421.0988,2001.00256347656
337,-527031.8,-525230.1,-525528.9,-33.11653,-410.6241,-411.7978,1953.185546875
338,12333.304,13280.03,12862.57,573.61475,441.8915,-750.97314,1984.9765625
339,-91569.32,-90690.73,-122652.984,3467.4841,8912.826,-784.15106,35644.1640625
340,77502.09,111354.79,111191.34,10430.338,-3893.9807,-3388.363,39329.46484375
341,16122.331,34509.88,40390.996,8833.405,7673.8135,-13294.271,37706.64453125
342,-5558.4614,20056.15,-16979.553,5904.537,-872.06464,4698.951,35386.56640625
343,2826.5037,5297.522,276.84958,-5939.396,14877.424,5460.3647,29634.375
344,-4927.9883,24947.354,-7731.2646,613.5769,11761.069,2025.1963,37583.83984375
345,13779.705,22669.596,8348.168,-8770.535,4889.7964,11289.46,29011.556640625
346,2443.7815,10102.383,17212.379,-1392.1499,9942.697,1364.2878,21717.01171875
347,30571.957,36829.645,27209.076,5473.4775,-2017.7472,-942.76624,13276.6220703125
348,43220.758,56779.87,35146.07,14628.264,-8577.6455,4285.4,35725.56640625
349,-13978.261,-7795.99,-2788.3289,16380.062,-6847.55,1158.6254,32308.96484375
350,2511.0798,16007.266,-12378.673,7640.7383,9869.03,6950.418,34886.4921875
351,53087.9,20048.842,47773.344,-6121.292,-6663.2905,187.88907,34495.6640625
352,-166175.48,-131753.62,-151171.25,11614.917,6871.5835,-6205.6494,39438.8515625
353,33500.266,24403.295,66836.26,-2321.5479,-3666.6904,346.4166,39422.8671875
354,17861.096,48251.785,44341.63,4944.074,-8397.632,1392.8368,33328.1171875
355,-39625.73,-30476.258,-4038.9497,6202.183,-3925.9092,9492.538,38164.06640625
356,67210.555,59972.33,48138.324,13747.281,-7522.431,-6060.0527,33540.86328125
357,-133559.2,-116117.34,-92356.05,2467.7876,3711.1477,-6661.6616,38418.484375
358,7553.6655,-13598.242,-31193.44,-1524.9707,-6117.433,-3116.2258,35742.75390625
359,62777.61,42232.535,33878.074,13430.606,11444.087,-1111.1914,40016.11328125
360,44848.137,3972.8948,28734.383,-9000.72,-1182.6449,-2869.866,39290.3046875
361,-8083.1865,-3445.6614,516.6753,-458.0092,2722.6785,823.66,8971.3818359375
362,-2832.0054,-1261.7444,-2037.4062,1618.4133,-1140.2325,-1531.0568,4543.12255859375
363,-11130.733,-3041.4846,-1969.4712,212.4204,14766.128,-9218.893,31376.29296875
364,-174.25568,2063.9878,-977.4489,1428.2467,2137.4312,3389.3625,7857.5712890625
365,-51776.89,-50255.637,-46715.17,-197.45532,-15332.6,2847.1882,27384.982421875
366,2603.27,943.3071,-10627.344,-2389.1838,1264.7487,633.6676,13377.9765625
367,5257.331,17963.127,22615.773,-1270.1349,4021.9712,3426.4673,18187.646484375
368,20133.986,18437.246,22703.715,-4409.6816,-277.45883,2541.7976,9580.794921875
369,-17068.945,-25091.66,-53163.594,-4735.917,-2616.196,-27.980902,34138.44140625
370,19200.037,-78.1416,7568.16,5163.273,-6018.836,3543.957,22561.994140625
371,23073.49,9446.607,5981.71,201.91614,-7149.5493,4994.355,21753.4921875
372,-18267.672,-17765.576,-19435.67,9460.197,2784.6917,-5902.655,19961.87109375
373,8837.293,-1511.6979,-9824.043,5816.3223,-2632.7693,-1349.8129,19747.666015625
374,8644.081,5993.0264,7454.866,-426.07162,-20.456932,-434.5732,2530.23266601563
375,-3716.9087,-1491.909,-4923.822,2127.9617,-455.66635,186.3914,4837.8125
376,3538.8772,1968.4697,-632.4419,-2460.42,-3278.7307,-2884.171,9417.109375
377,38008.477,54709.34,27213.756,-10400.915,1425.8907,-5089.9253,31370.123046875
378,-18951.045,16015.131,11780.297,-3890.679,2557.4763,530.8557,34034.84765625
379,19167.592,-3936.872,5641.51,1164.6646,-893.9461,-1022.3351,20343.5625
380,-5352.568,-4517.2886,-8896.026,2325.634,-765.98584,281.45453,5868.31640625
381,15645.634,18127.41,44941.63,-6825.8247,7873.6772,-8894.508,36807.6796875
382,-17245.818,-7614.076,-42061.08,-5762.0645,2891.5894,8997.914,36265.09765625
383,6341.9346,5286.8315,-14658.576,600.76605,-1620.1788,-1481.8665,20869.17578125
384,7748.814,-4729.8174,6427.392,-2682.6772,7399.873,3904.1758,19301.94921875
385,7479.0767,-695.9248,3877.648,272.66287,-10074.871,-2792.8804,19454.869140625
386,1621.0936,1709.2662,6734.789,3034.3018,-3351.9116,-2651.8198,10398.5625
387,377.16925,1797.5447,650.7203,2872.1033,528.45593,1379.6628,5744.4658203125
388,-1291.3945,-1189.543,-11489.997,2945.8787,-1466.8827,-2460.272,12478.3515625
389,-7765.637,-9506.76,-22938.086,829.879,-2304.8455,2128.2651,15440.5048828125
390,24794.441,35898.36,58951.344,-4570.7803,-4519.082,-2661.6387,32494.783203125
391,-13029.457,-10972.611,-6465.047,963.2892,-794.4433,-5219.3115,10964.53125
392,32688.027,36932.69,70515.73,-1003.77985,422.8584,-310.28442,35947.65625
393,923.37524,85.01665,-146.77939,-3060.4814,11.155357,222.56502,5403.658203125
394,15946.928,1164.5342,-365.6001,-882.7383,2691.1475,-8074.7856,21520.931640625
395,6280.329,-6143.444,-9358.823,-4512.826,-1253.5931,-2457.7043,16987.294921875
396,21213.938,27826.684,44051.63,3748.2756,4809.006,-1845.0199,23151.875
397,-18668.035,-6837.003,-29195.66,-961.17084,-1784.0614,1108.634,19782.927734375
398,6950.0596,17970.516,20021.404,1520.9742,781.385,-371.43262,12547.6689453125
399,-7840.0225,5620.204,7194.849,7561.463,4231.094,1066.6091,20820.63671875
400,47520.65,37858.02,72938.91,-2723.6123,-1528.326,-11620.653,37675.4765625
401,-4798.202,5602.877,-10472.021,-5461.152,6282.862,-3560.9583,21102.734375
402,9650.001,-6321.2783,7780.719,-7386.881,-9518.564,-7672.1997,28996.833984375
403,19034.691,41380.86,28671.541,-17179.79,-7606.4995,-4603.187,38722.77734375
404,4251.407,18027.328,23595.477,14322.853,-197.99605,-6590.8486,32300.99609375
405,-24570.623,-9588.339,-34293.605,-17628.795,877.9898,5577.135,38634.53125
406,13986.214,-5862.4214,-2663.462,258.6498,-117.78452,-5032.938,20419.1171875
407,4169.059,-12962.814,-15660.901,-176.52904,-2963.1296,-1519.0558,19502.833984375
408,2275.5327,-1516.4448,8243.84,3517.6252,-2.0354688,-3216.073,11865.15625
409,39691.34,36605.6,74264.74,-700.0667,-2092.1396,4066.299,37090.86328125
410,38378.58,26627.129,50946.094,-482.61514,-984.36237,-636.54895,21178.923828125
411,-18249.623,-24341.605,-6848.767,-1416.5997,881.7366,-7041.8486,19840.89453125
412,14843.081,8066.639,22154.072,895.92346,117.86264,-452.65515,12327.921875
413,18274.928,1458.0127,5261.2964,7600.7827,1167.2515,4128.8296,21490.904296875
414,-175874.75,-162447.48,-162499.08,-6211.856,-2259.4563,19035.06,37385.54296875
415,16352.583,37.04834,877.5449,-6496.902,2980.5657,-99.43914,20161.84765625
416,54259.652,59023.07,59017.746,7849.161,-11105.339,14735.57,35055.5234375
417,-21079.58,-12023.725,-12191.398,-4164.2017,-1480.7467,-4205.987,13863.21484375
418,1141.7314,-9418.081,-18411.28,-5315.698,1429.2975,251.48947,19453.587890625
419,-3665.974,-14525.344,-8680.525,-920.03577,-6486.634,-3480.4443,15928.775390625
420,9643.301,-7727.21,-8999.757,8357.662,5750.8975,1321.3059,25287.671875
421,-58785.8,-53267.098,-61227.184,-1457.762,-11283.065,-16850.127,35916.125
422,-5200.74,-3498.5925,6084.897,-1631.8823,-2926.6858,-6687.4805,16700.474609375
423,-13725.266,-6945.983,-3073.415,-11284.994,-4447.465,295.1443,22997.025390625
424,79608.39,76941.96,72733.97,-1523.6885,-12351.115,-6241.8003,24850.203125
425,-16030.162,-3490.0098,-21548.713,-2058.4106,-386.08597,-1842.1536,16740.736328125
426,-23582.984,-1886.3418,-13995.881,3423.5393,-6865.936,1282.5009,23155.310546875
427,-31483.547,-13979.009,-8023.049,-6020.0396,9921.347,-3064.7139,29636.767578125
428,-2009.6411,13370.418,4656.3677,-2949.2427,-440.51025,2494.5066,14960.0205078125
429,-13876.668,-5853.5127,-10665.03,2148.4504,653.64014,1015.4728,8193.9599609375
430,-10132.924,3485.8696,-11492.467,669.499,506.86826,3636.3171,15735.916015625
431,172.8963,3205.8188,-1618.6628,4444.89,-1861.2877,-3639.734,11280.4814453125
432,-10854.293,2297.7407,-4408.879,1126.0565,-399.5705,1540.2374,11880.6162109375
433,13343.117,4418.6997,13823.467,2705.1218,4040.1208,-3909.408,14175.119140625
434,4578.754,-2393.0496,21105.451,13068.235,-9045.937,-6536.4287,36372.46875
435,18987.115,1206.8562,12303.537,874.2627,-1942.825,641.8763,16025.75390625
436,3134.9836,-8057.447,-4058.3015,-1047.646,-3054.4043,285.73508,11315.0029296875
437,-4550.068,-18924.84,-3817.5217,-9660.012,655.5494,3254.3047,23037.123046875
438,-1326.2412,-7220.813,-4443.781,-479.86935,-2146.4463,-127.83556,6375.736328125
439,-15229.75,-22067.064,-49874.734,-3337.666,1519.0146,2217.1482,32637.93359375
440,-16531.504,-8899.384,-4028.9983,-5305.9106,6660.878,4113.633,19684.185546875
441,8826.506,-476.43347,3870.9932,-2563.0728,-3653.1375,4846.51,13971.7998046875
442,16725.217,13464.305,26119.312,-3815.3523,3250.6309,-1737.5165,14626.802734375
443,2922.693,1146.2805,-2666.6565,926.4495,-614.3674,981.05457,5573.3427734375
444,18573.338,5760.9443,24763.52,7630.772,4293.761,5548.424,24579.19921875
445,-6129.598,-9151.628,-1185.1383,-2501.826,1936.9927,-2500.9265,9865.0791015625
446,-6711.023,-12025.436,-20193.008,-2027.414,1772.5862,873.42914,12743.787109375
447,21499.418,15944.543,47478.85,126.04229,-3213.7036,-1436.8007,29787.994140625
448,-5676.848,-12646.423,-15465.319,-4752.5796,932.41833,-635.2556,12155.1455078125
449,-32939.824,-20734.83,-47335.496,13731.693,4745.4844,4490.772,35009.0625
450,1984.8545,-1373.878,178.61192,-1995.7739,3939.2463,-2679.1257,9408.1015625
451,19978.201,5670.336,3240.0667,7513.217,-955.844,1113.217,20523.087890625
452,-2187.1892,-15139.753,465.08734,-3833.9668,4006.4905,-4645.9746,19135.47265625
453,-3768.194,1976.1246,3275.023,6987.1826,956.02515,731.3163,13890.7958984375
454,594.5046,6645.2056,14613.749,-10380.7,5071.599,-2884.365,23952.51171875
455,-9865.118,-7443.014,2996.7026,-3090.9546,1614.4479,-38.329857,13290.0751953125
456,-21818.805,-16873.129,-40454.47,-2337.2778,-1705.4448,-1801.5486,22333.0390625
457,1425.2346,1962.4912,3553.7253,197.64374,-1841.9857,-1582.5125,4635.14111328125
458,-12867.7,-20717.037,-18844.857,12427.99,6877.22,3735.418,26410.890625
459,-10754.489,-11547.849,-6571.9683,-1157.6682,516.34644,2679.2302,6913.49365234375
460,-8570.522,-4188.7417,-4311.051,-2467.9546,-788.4656,-667.3852,6336.61376953125
461,-6655.179,-3272.8442,1138.0812,4367.762,-8700.478,11559.61,27037.31640625
462,-6844.804,-12456.872,-3877.5076,1070.1316,-124.95829,-2063.9458,8556.56640625
463,-8842.943,-11909.168,-8315.686,606.62885,-234.21297,870.0884,3851.77221679688
464,-31801.566,-33951.098,-57396.586,-1644.8906,1732.0262,926.9336,24988.048828125
465,-26986.293,-32863.61,-58522.69,-2609.2244,-859.533,773.0764,29464.748046875
466,4234.041,-523.0289,7883.5225,-2272.1133,779.1429,1871.4316,9006.9267578125
467,-3504.215,3759.5256,-4837.929,2089.465,-628.7521,419.1499,8890.39453125
468,3944.0122,11677.963,21284.936,465.6126,2175.5913,-740.1691,15585.2900390625
469,-16754.168,-24999.209,-11849.015,-4462.1055,697.2594,3704.5063,15324.6259765625
470,-18279.768,-12495.088,-19914.36,-162.68132,-1384.0822,-604.05273,7246.453125
471,9271.065,1837.3745,15610.09,-348.45706,-6712.3833,1053.0569,16775.716796875
472,-643.20056,-1176.1399,13549.661,-2087.906,847.9817,1163.6844,15118.962890625
473,-6563.999,-6704.719,-7304.6177,4619.9526,-503.45065,276.3668,8092.3115234375
474,-9020.524,-9926.389,-6344.1104,3587.252,-861.0288,610.55914,7235.7333984375
475,-3552.7397,1567.4095,6323.9805,14028.469,-1487.6329,1671.3075,26050.10546875
476,-1208.0543,-3705.713,-4734.072,-506.68994,3873.8704,-1514.0435,7907.72509765625
477,5413.7515,8507.46,22110.39,-3852.472,7278.4976,3881.5376,22030.603515625
478,21728.918,12848.3545,47143.652,-1463.7804,-158.76167,-1225.4318,31007.72265625
479,8855.006,-3834.6692,-6978.4683,1898.8828,3166.1685,5581.6333,18578.486328125
480,22417.988,25516.049,57486.777,-2715.8447,-275.49268,-3011.433,34355.98828125
481,-552.75134,2878.0098,4255.168,-2163.541,473.0285,-511.57358,5821.55517578125
482,5641.698,8489.989,5566.346,3050.7837,-1320.4718,447.70496,6487.4619140625
483,805.4131,-4571.0625,3837.8755,802.0363,1369.1787,687.8209,7961.11181640625
484,-2956.9414,-9676.934,-3298.3706,998.0549,751.18884,-349.50998,6930.2333984375
485,-7371.297,-6528.0547,-3326.3647,-922.13184,1870.4032,-746.7316,5327.3544921875
486,-5559.0503,-2141.805,2756.0522,-194.38664,34.294662,2544.201,8481.7158203125
487,1811.6938,-10247.275,-11940.372,77.82884,-5103.784,1567.0935,15944.7060546875
488,-1785.752,1837.2257,5327.678,707.4673,2546.9797,-474.76617,7719.72216796875
489,-6043.303,-1531.3334,-7864.927,-5601.8066,1102.5043,-341.9997,11403.220703125
490,-22224.47,-18698.889,-34241.402,-5423.293,1378.3689,1077.7056,17222.759765625
491,15945.25,21499.33,24679.719,-3379.754,1919.5575,3660.666,12006.271484375
492,-6763.455,-9614.23,501.87195,-1527.0603,-1496.0013,-1707.503,10201.970703125
493,-3687.6204,-3913.2158,6299.2627,-873.71075,-2047.316,2112.8032,11414.822265625
494,-4191.714,6462.866,3822.0637,8610.72,1210.7388,2728.2195,18480.205078125
495,-2677.2935,-7719.9707,-1039.8496,-3161.2114,1233.1267,-620.0718,8488.931640625
496,853.15015,-3177.9263,3934.5398,-831.6334,3935.8635,-723.73145,9396.0166015625
497,-9466.134,-12181.655,-5104.07,-674.8759,422.4578,-1586.7931,6906.69677734375
498,-2049.7458,5214.7354,9603.503,-2722.4495,2004.5616,-1495.3406,12038.03125
499,-1848.8109,2948.1028,14314.229,326.2197,240.92657,1219.942,14549.216796875
500,7666.5405,5758.3853,12343.556,466.602,2456.7166,1473.0936,7727.1943359375
501,6.5468054,-888.25946,-14165.5625,-1337.8552,634.1272,1352.9779,14178.705078125
502,4274.158,1608.3215,-524.1374,1291.5746,699.1498,-1271.5962,5353.56396484375
503,3992.5593,1143.7527,8770.772,-932.5202,-3540.2236,-75.68682,9207.86328125
504,-14742.9375,-10430.395,-7883.5137,-1941.2368,900.45734,880.873,7220.36279296875
505,-9884.575,-1022.2213,-14056.674,5382.469,577.2051,6502.959,18646.720703125
506,-1715.6066,4796.395,7586.976,-1891.475,862.93146,-1839.1879,9564.548828125
507,-1894.7333,968.4648,2349.2056,-2133.0044,2839.75,212.3424,7213.50244140625
508,-779.7092,1331.8271,5216.7783,-597.73486,357.8201,-4759.075,9856.8251953125
509,-11622.233,-9296.629,-24883.484,-4494.4277,-6522.3936,431.98062,20022.3359375
510,-1288.2101,-2641.483,-8853.498,-391.12057,-1565.5375,-1202.6932,7808.8466796875
511,3237.3184,-269.9882,-408.46008,849.6717,679.1664,-140.2441,4051.50219726563
512,2811.8564,443.31705,9848.823,1614.1884,648.9887,-790.9,9096.8759765625
513,-4098.6973,6001.2676,12596.578,4018.5337,-2808.6152,568.6371,16887.884765625
514,-1723.642,-2190.7,-1104.2324,1631.325,1623.0803,922.6119,4396.76953125
515,-3832.6167,-653.4009,4021.9043,4313.017,-1359.4224,906.9329,10518.9228515625
516,-539.5317,-1187.6432,-1537.4459,2297.7546,810.5603,1133.7739,4736.61328125
517,-8424.136,-3641.384,8697.159,-3302.728,-6215.7573,2940.3682,20216.203125
518,-7065.1436,-6475.0664,-1610.9976,0.72096246,2716.0393,1414.7838,7417.07373046875
519,10468.241,6679.417,-1105.6788,-814.0949,1847.2739,2639.716,11729.8369140625
520,7039.1143,2619.748,7656.771,3882.2026,-856.215,-962.72546,8534.4169921875
521,-8063.458,4621.5835,-10507.913,-1367.7499,4454.4077,3874.8586,17552.056640625
522,228.88228,7282.8696,6981.8833,-5691.3394,-11483.01,-4776.24,24676.224609375
523,-23497.244,-21271.355,-40880.03,786.156,-600.38116,-1276.3955,18805.08203125
524,-311.38013,540.58,1156.8029,-1830.6542,-1685.8939,2623.396,6392.00927734375
525,1889.2389,2672.579,-1594.3536,-1082.8887,-650.57983,-1610.71,5296.10595703125
526,280.14423,746.57635,4833.2065,-1959.9202,2183.002,-4112.6895,9766.638671875
527,-338.30054,-5061.2725,1057.0212,-1181.0117,-1913.5337,-4233.292,9988.7412109375
528,8591.694,6470.4365,19019.803,-1523.6047,-548.672,660.3459,12022.5322265625
529,-128.65343,430.93582,7827.7964,1692.3599,3942.722,2401.7546,11476.0
530,-2503.1216,-5056.549,2185.5283,629.1119,2446.7769,-1987.6154,8454.283203125
531,-6763.513,-5910.254,-7854.8765,7022.5713,1490.6133,-1467.7731,12803.46484375
532,8048.1646,4988.6855,7646.6196,4552.0527,205.57387,-2481.8586,9437.2841796875
533,-10731.84,-10799.16,-5939.7837,2985.7869,489.00797,793.6542,7255.53271484375
534,644.3661,-8316.414,107.36812,1886.887,1480.0337,-1018.46875,9804.9169921875
535,228.34814,-8152.973,2318.7332,-1624.8177,1845.2355,1168.5667,10694.2919921875
536,-725.1547,1668.4298,-833.42084,-1296.3411,-440.78317,-1328.9204,4113.705078125
537,1741.508,3084.998,2986.9895,146.4376,-566.3472,1777.8407,3491.6513671875
538,-8036.6875,-4774.5303,-4678.557,-767.7093,820.9714,916.77747,4156.3828125
539,-9167.902,-6928.5034,-4472.4346,506.29437,-1357.292,-486.79843,4853.24072265625
540,90.69143,-1025.0013,-4504.652,-1427.154,-321.27414,3802.4333,8187.21044921875
541,5880.322,6880.5923,7291.78,-3382.1812,915.8437,-132.93011,6202.23193359375
542,-6022.247,-1379.0961,-1205.2775,-359.97272,-1458.0077,243.7511,5416.6845703125
543,-2942.4458,410.8967,12266.732,4837.827,577.1434,396.75473,16224.908203125
544,-19275.52,-13716.081,-17929.676,4701.1553,-3953.3809,2352.7585,12451.2314453125
545,-1607.7323,-5537.025,-3088.3047,-1725.7867,851.8246,2414.3325,6357.09619140625
546,-11805.179,-9541.377,-6140.6997,-1006.66956,-1221.272,526.92535,5721.49267578125
547,1738.3162,-1507.5001,2315.469,-2384.4397,-305.4742,515.44904,5556.56591796875
548,-4213.2935,-8645.511,2655.9912,-890.9715,1594.3499,1003.6287,10502.7109375
549,-6684.689,-11453.26,-3318.8108,-2276.1902,-4439.206,-542.91833,11210.0791015625
550,3334.8997,3548.1777,-5472.163,1345.9027,-61.432808,-4384.963,11942.259765625
551,6756.816,633.92883,4493.098,-31.050982,753.25037,-229.37032,5533.22314453125
552,9358.058,5131.6997,13968.684,881.26306,216.84818,-2249.4521,8732.53515625
553,-4521.188,-653.42523,6888.8174,-1965.9094,1383.6381,-3778.8533,12696.203125
554,-156.55318,-1115.5254,1668.424,-475.5368,-543.90875,-917.24786,3176.51025390625
555,-6928.5747,-4236.714,2780.9382,-1156.2826,860.7976,-155.63258,9038.2880859375
556,8817.881,8239.253,11817.796,-948.212,-376.54047,1233.0037,4330.5537109375
557,-1256.5792,201.76836,-2888.1157,-2013.3217,-1421.3755,-1021.57153,5340.4287109375
558,-935.00476,-1603.3436,-5001.3755,-1385.6676,-3645.845,-1295.4568,8058.27197265625
559,-6277.597,-3064.173,-10624.871,2777.1096,140.74702,-1266.0281,8437.9765625
560,-1073.8446,911.0946,-132.10205,3548.374,1492.9274,976.55817,7090.693359375
561,-10007.491,-8362.758,-11163.06,-194.2605,1321.1233,1076.1976,3842.52563476563
562,-5220.5635,-4853.48,-2401.4155,-2188.7888,968.8957,-480.25787,4992.80419921875
563,-1114.8103,-7162.249,-459.24667,-485.2338,5377.291,1889.2498,11795.154296875
564,-3564.1904,-4064.4001,-4991.5454,-724.5485,-910.6266,1265.4475,3231.14233398438
565,3198.4563,1316.7185,1597.3553,-1553.2311,373.32568,116.14111,3284.47436523438
566,-3579.4546,-2861.1738,-6343.574,563.1334,910.9148,444.8218,3765.09692382813
567,-1058.7373,-2561.7366,-1008.564,2980.8643,167.90001,-214.28902,5405.17529296875
568,-88.26725,-477.5566,812.77844,2071.145,53.66467,43.650616,3767.9541015625
569,2513.993,4347.938,12.773879,-573.2,-438.61996,-295.49863,4003.91625976563
570,-9250.441,-8302.539,-14042.09,-1442.4193,1319.9908,-3007.658,8185.79833984375
571,-3902.277,386.79962,-3912.547,1078.4625,207.14137,1925.5773,5760.3681640625
572,-6800.4565,-2755.803,-2212.0547,723.92084,-1239.0161,1011.56647,5301.0966796875
573,5277.8447,3443.8953,5151.13,336.90454,771.7183,-6104.4106,10819.689453125
574,-5794.374,-12343.548,-6400.8105,6283.604,521.3092,2213.1978,13162.40234375
575,-8056.537,-13160.774,-15970.475,4438.4336,-1112.7461,-390.83148,10562.2431640625
576,5189.84,-184.18777,13526.117,2072.3965,-2533.2341,-3783.689,14773.5673828125
577,11487.658,-5784.545,-3950.4646,-412.50287,-2800.9827,517.85944,17171.65625
578,-5098.7456,-3583.1191,1026.6589,3468.4602,-10601.612,691.251,20130.587890625
579,-29442.33,-27868.105,-62215.98,-2570.8784,-3183.28,152.24171,34329.01171875
580,8988.652,3165.7532,12470.846,-4768.2275,-4374.2393,-1033.8247,13968.69921875
