Element Label,S11,S22,S33,S12,S13,S23,Mises
1,20458.1,-2614.194,-10052.515,7266.0464,7654.7573,-2088.227,33264.5859375
2,23472.943,12223.103,7787.718,5309.241,-643.235,3723.4255,17986.828125
3,27845.908,12700.775,-14.0237055,13789.057,3843.8545,-2260.2324,34837.828125
4,32198.174,18461.225,221.92685,12764.762,5355.33,36.231922,36698.609375
5,39794.33,30797.568,4031.8357,9355.035,7049.4243,5150.522,39107.1328125
6,23333.795,22894.115,5832.14,6445.3633,-1902.5444,-1595.4703,21022.126953125
7,21611.69,14362.507,-3714.7705,7519.09,2295.774,5256.05,27904.912109375
8,22819.818,10376.525,-1025.5337,8950.664,231.3257,-4955.454,27219.384765625
9,33726.637,18308.332,739.8371,12432.835,-3023.6736,301.66782,36175.67578125
10,29823.393,11309.519,-6366.566,7738.8003,8249.278,1101.5537,37012.421875
11,20345.336,26101.3,-3194.7258,4516.9062,-25.528633,-633.0552,28020.939453125
12,17229.902,26001.203,883.25446,219.3633,-3970.9563,1931.0211,23370.201171875
13,37983.07,28810.572,3209.7031,733.45154,-3455.4675,-229.83752,31811.259765625
14,31567.518,21448.79,-6337.33,6238.999,1278.2472,-3286.3403,36189.69921875
15,17171.03,-1400.7847,12216.951,18738.45,-1952.8354,3232.114,37062.34765625
16,10.130545,24092.127,-17383.29,-1090.2994,5207.1577,-2558.261,37495.140625
17,-9415.134,-8807.735,-41965.74,3652.7944,1425.8398,9582.937,37434.046875
18,36451.73,16592.861,-7705.154,-1678.7842,-535.1019,201.54507,38428.3125
19,-7209.635,-134.60594,7597.018,-145.37238,11330.925,-397.11078,23457.228515625
20,29427.549,5872.6787,17603.553,3020.272,1519.7761,-2057.604,21520.283203125
21,-555.5664,-10304.572,-25138.021,13462.106,-9407.584,-6863.146,37552.45703125
22,1930.0803,-15065.049,-15420.06,2140.2053,-11291.182,-6869.115,28857.61328125
23,39168.906,4960.853,4728.9634,2431.2227,-593.01697,-1693.3567,34721.27734375
24,10506.99,9796.052,13351.685,-6974.2993,-18239.682,-4103.231,34714.6953125
25,38259.15,33994.176,52209.02,-8122.059,-5023.5806,-7377.8228,26630.69921875
26,10.962394,10977.993,-1197.864,-7555.1865,-12838.504,-11542.027,34646.40625
27,21544.553,37353.43,52401.875,4098.214,-11148.254,9278.582,37360.25
28,4677.6655,22583.729,25219.295,5290.556,-17494.688,4675.173,37980.2578125
29,20853.879,22549.092,4943.906,2397.9949,-18688.488,6764.028,38539.04296875
30,8550.825,16261.476,-127.585846,1469.8292,-20475.248,3840.3936,38860.25390625
31,20897.238,30610.45,25824.93,3083.6401,-19839.541,1947.1974,35937.28125
32,37724.195,36986.195,43000.25,-1323.2473,-19021.762,-10558.798,38176.890625
33,12645.862,17581.754,23999.344,4399.0938,-21239.727,3657.3967,39354.65234375
34,40940.12,49176.348,58333.3,-738.19354,-18116.635,1154.4421,34890.890625
35,23674.105,6007.347,-1807.8416,-1345.7067,-14398.189,-991.7376,33787.08984375
36,13732.181,15880.138,17480.082,-2324.9932,-20658.443,-4185.851,36874.17578125
37,24430.648,24099.396,25312.195,954.9601,-20081.213,8519.472,37834.16796875
38,7958.172,6509.0513,3996.112,-1498.1208,-19913.1,6111.2866,36337.6875
39,21301.225,19432.242,22459.035,2294.058,-21726.938,-704.6987,37953.32421875
40,17514.799,7725.42,5677.5684,888.9164,-14857.617,-12495.939,35399.6484375
41,14834.066,17699.885,16325.521,-2047.5309,-22038.662,-2947.3967,38754.4765625
42,10978.194,-164.56932,-3159.3674,5690.3955,-5507.79,11004.671,26794.734375
43,-11646.185,-10168.664,-12652.808,-369.57977,220.0288,-841.69745,2713.67504882813
44,1542.752,1052.4264,1095.7959,140.3112,209.1699,482.19534,1053.03833007813
45,4277.0234,-617.7641,-8770.982,3681.5032,-3695.3826,-636.33484,14600.8525390625
46,438.84644,11499.857,7337.078,-1619.1586,-5980.0967,1006.66077,14554.03515625
47,15394.44,11362.757,21533.045,-3076.7178,-760.7043,-15291.601,28466.11328125
48,6559.3936,25649.92,25999.576,-6116.904,982.9318,-1128.8881,22140.83984375
49,14342.748,16797.88,-4231.565,468.25153,-14962.738,-4951.5454,33800.84375
50,19277.39,-5474.935,2624.82,5822.611,5792.993,744.6726,26112.146484375
51,16885.12,8511.568,17687.625,-3936.6287,2501.1526,-14668.525,28075.533203125
52,-10034.105,1388.9619,-8911.05,4573.245,-513.42413,-20033.135,37234.8359375
53,27759.336,-6458.3496,8285.746,4633.9893,5473.174,-6519.8735,34140.06640625
54,13987.624,20923.527,34793.54,3787.3506,-10547.28,-2051.593,26945.86328125
55,35879.07,26497.94,40382.355,7589.9424,15965.677,7760.2075,35619.1484375
56,39731.58,40642.805,31373.375,3131.394,16947.146,-7102.262,33476.359375
57,13279.638,20250.049,14966.508,6796.317,16119.132,-9285.158,34876.43359375
58,38328.89,45723.816,51321.125,2249.593,20301.1,999.1981,37175.09375
59,36377.625,26683.281,1534.4371,4738.89,2909.843,-5688.338,34060.1015625
60,24473.03,22788.662,28546.164,3418.8572,21553.057,-3623.9722,38656.90234375
61,50860.035,55194.363,59946.777,-739.60333,20612.287,5843.4927,37955.890625
62,11127.48,18704.055,19571.826,343.2216,17114.943,10992.377,36143.4140625
63,16752.256,28626.443,23973.719,-912.90936,21063.012,-3216.8582,38365.2578125
64,17377.12,4940.9497,-813.9751,17314.322,6006.339,209.05415,35595.83203125
65,26227.414,23905.455,21269.969,809.30963,21367.059,3375.0845,37739.22265625
66,14865.885,12597.461,-5505.9116,5210.6016,15428.962,6383.6504,35941.7109375
67,9813.786,6032.286,8319.294,-7665.4688,16782.357,6710.56,34164.2734375
68,1025.1923,4006.2217,1967.1317,2266.9143,21417.643,1590.4755,37498.234375
69,13270.918,14095.802,5479.9326,7381.745,1630.4386,4635.249,17427.23828125
70,-68879.64,-52895.758,-76836.01,451.03955,15565.432,-1685.1339,34379.34375
71,11491.573,12931.262,11824.401,3388.5789,20044.19,7512.551,37560.29296875
72,15233.8955,13570.752,8287.461,-3388.3015,-4076.3213,19546.31,35636.1015625
73,57251.504,61808.527,76286.914,831.2706,10199.28,-7820.3555,28177.8515625
74,37733.42,31469.791,19240.904,-7464.4277,-16484.11,3508.3547,35841.765625
75,-682.3755,-1992.9069,-1054.5325,544.6807,-180.96956,-341.71982,1645.25634765625
76,491.69748,-258.53946,241.04433,-473.43958,509.21024,529.4309,1651.92150878906
77,-13603.402,-7866.963,-37708.684,977.35156,7043.0986,1031.2039,30118.455078125
78,-26879.572,-37120.72,-35084.69,-2735.6255,-15217.109,7177.5586,30981.599609375
79,10076.796,11670.29,19786.986,2192.77,-1989.9918,-7136.4995,16138.3916015625
80,-6051.8794,7953.9316,-9100.728,-2566.1082,-3208.6714,-2314.724,17744.720703125
81,-13714.298,-8044.174,-18436.777,-734.1158,1861.6445,8098.5874,17029.515625
82,1029.178,30039.525,-2121.0745,-1033.8894,-3610.4954,-416.62955,31396.63671875
83,21612.12,38287.906,14750.4375,-1066.7732,-1629.8341,-3825.4597,22245.765625
84,-1177.5485,27163.879,-4867.8926,6761.639,5612.4126,4264.9463,34751.55859375
85,694.23553,24511.287,-13831.841,264.9324,-2439.313,-932.3269,33836.3125
86,16962.232,23079.365,-2482.66,8805.988,2284.2124,-1917.3678,28174.24609375
87,3001.6406,37369.797,1754.3586,1732.6484,-2511.678,960.2698,35444.19140625
88,4073.8425,13869.376,-27146.197,4862.381,-40.036533,1005.05145,38084.4296875
89,23160.64,44763.477,8798.579,1110.2775,-4822.7173,9949.632,36792.28125
90,33079.707,27557.629,4134.962,13829.578,6732.1836,530.4756,37670.140625
91,30789.059,36927.426,3510.3562,9250.942,-4782.9727,506.6513,35712.6640625
92,-11682.154,-12603.481,-17510.05,604.16833,-18206.66,-8037.656,34911.28515625
93,34369.297,31462.465,34256.367,-3216.1267,-21163.086,-2801.4524,37501.16796875
94,44556.418,46297.08,45831.586,-1217.85,-19334.793,3592.887,34163.0625
95,3551.7803,6070.14,3903.9724,403.02496,-21431.178,5906.11,38582.3671875
96,9811.374,31742.855,6714.1245,5307.498,1830.237,6751.262,28103.498046875
97,23718.305,18060.668,18701.684,7826.6113,13890.823,-13557.43,36644.7421875
98,359.3471,312.62018,-211.58809,-266.2558,237.07349,431.22708,1113.83605957031
99,13053.621,12556.585,27292.172,-11842.893,5024.2036,-3694.2327,27340.3125
100,-19633.23,1744.6918,5803.6807,-1134.9376,-10074.746,3588.1382,30120.65234375
101,19911.781,18404.203,28325.93,-4920.0425,-20295.564,1777.318,37464.41796875
102,21541.518,15778.83,8015.7495,-10057.355,-17744.29,3044.9006,37603.921875
103,19191.334,24295.766,29205.762,600.4399,-21290.584,-2654.0134,38174.67578125
104,11035.606,14116.1,12237.399,1236.9291,-21591.18,372.02457,37560.26953125
105,36725.49,30434.324,36502.387,-583.16534,-21200.467,3828.3052,37836.390625
106,42063.887,47558.105,44042.574,415.8965,-19100.725,4650.3857,34396.80859375
107,20028.049,23537.604,20632.148,5298.992,-14917.511,15682.373,38732.5
108,5093.702,-3057.504,-25297.305,-1407.1848,-15701.004,-158.16414,38573.46484375
109,36597.215,17465.07,31302.008,-6290.1943,-13385.653,-10142.317,35462.6015625
110,15896.768,21114.693,21072.31,-600.65045,-4479.931,-5796.915,13751.791015625
111,25331.104,25617.658,25778.465,-1658.2119,20505.373,-6975.862,37627.14453125
112,37668.832,6120.336,-1310.1714,1791.4127,-1854.6422,1351.5914,36199.01171875
113,23139.82,1342.736,-14600.794,-2024.83,-4747.822,-447.07806,34019.94140625
114,18155.535,21456.43,17407.857,7435.2856,3804.6313,-1886.5029,15292.994140625
115,41465.21,56307.625,60367.82,-4428.87,14030.998,9808.579,35144.296875
116,18100.758,4462.5996,-1511.5798,-109.42421,-252.11153,-3200.842,18279.21484375
117,-5797.392,-4644.995,-4415.5566,197.32591,-222.40706,-363.02838,1518.43371582031
118,17612.125,34792.28,45531.19,-4017.463,8911.1875,8428.328,33086.796875
119,28734.693,12548.867,29943.768,10577.887,-5263.115,-11057.831,32689.689453125
120,-10488.563,-4143.6846,-9112.236,2813.6335,1766.2944,-5772.716,12903.521484375
121,28768.266,34163.723,42165.062,-1259.0536,19995.11,-3646.5593,37153.25390625
122,3536.7092,13079.061,18490.096,698.7439,-19621.807,-2589.1726,36723.1796875
123,41749.902,44862.426,42784.594,1460.5901,-20114.393,2205.1172,35246.16015625
124,41701.895,32526.66,34384.285,3969.1658,19663.266,4541.9487,36601.5625
125,31267.463,12878.365,-3828.0312,10154.778,6884.3364,-1440.209,37178.51171875
126,-1103.8213,-1517.7627,-1427.7242,-127.37961,903.3064,30.937084,1625.30578613281
127,-8346.404,20509.229,20497.73,-2777.099,-8124.0146,-5621.7275,33886.03125
128,29131.707,24598.408,55905.8,7557.8525,-12176.949,718.2558,38425.5546875
129,18555.092,4874.6304,26641.795,-5714.7324,794.9892,-10883.503,28607.728515625
130,5364.8076,-2553.8044,-13423.3545,-1594.2928,-4110.886,-14507.8125,30930.189453125
131,-1679.2644,19657.754,5105.5327,10552.264,821.554,-6828.008,28852.646484375
132,3955.2244,18176.188,4571.463,-8510.123,-7619.3755,5568.995,26044.662109375
133,23787.553,20303.906,17061.246,-317.88293,2294.9329,-7119.7627,14217.0068359375
134,3848.3352,17127.154,-26417.516,-326.3375,765.8468,2293.715,38885.80859375
135,-1108.0483,23704.13,-2260.841,-843.1271,-8109.7334,12936.595,36702.57421875
136,-9410.691,13714.979,9322.395,-11853.098,11343.894,-4078.5369,36193.26953125
137,12294.407,3657.5974,10248.149,6616.584,-16892.209,5170.51,33595.9609375
138,-1629.3906,-1694.2385,-962.4229,-440.4802,-844.824,-512.6339,2000.98327636719
139,-277.59082,-662.36206,-1934.4047,426.4485,-218.66374,184.34396,1745.43725585938
140,16396.527,17762.676,19474.775,-69.17452,21187.73,-1226.0009,36856.75
141,35291.656,24246.605,35783.21,-2600.7102,3905.6177,-18733.916,35307.16015625
142,20450.414,18470.865,14427.245,1841.644,20279.4,4247.4175,36418.8515625
143,27990.473,18749.652,-7461.2944,4343.155,4587.988,5036.213,34791.453125
144,15236.885,18661.28,28808.633,1417.9093,19004.586,-3748.458,35793.16796875
145,52635.77,45950.152,51558.008,-7128.943,19490.848,5309.5864,37621.453125
146,13089.097,10174.978,10411.341,6188.5645,19517.078,-5532.6836,36842.02734375
147,13941.037,19260.53,21062.996,-1413.2993,20929.945,-2577.529,37165.10546875
148,28836.305,43247.38,17504.049,13419.65,8699.971,-5321.654,36765.453125
149,20281.104,7716.159,745.25446,6161.824,-4741.7246,2920.5085,22383.130859375
150,22585.043,11618.618,-17439.988,-6440.6865,-3231.6567,-1046.4144,37978.90625
151,-19297.854,5284.7124,-12023.191,12962.276,3830.5154,-6478.132,33946.609375
152,-5857.5347,-1724.7932,-3336.4355,1543.1569,-12524.246,-2751.3577,22659.2265625
153,-25348.248,-25755.215,-23863.555,5249.361,18296.4,615.83624,33031.109375
154,32615.867,27133.05,30157.174,1774.0607,15813.494,-9825.348,32739.578125
155,12747.649,5730.6465,23937.791,-5569.312,1648.1317,-13149.218,29544.6328125
156,17407.498,31004.715,42625.543,-6639.028,-10552.657,-4132.4775,31551.177734375
157,6157.2217,9788.871,11977.635,825.51953,-19994.016,1949.0507,35194.4765625
158,17506.824,13725.937,8799.934,224.51222,-18848.19,8395.395,36531.453125
159,44368.703,44060.49,45335.344,480.1375,-19731.242,-7263.585,36445.3515625
160,6298.9316,5767.167,1094.3585,-51.31314,-21683.707,253.91159,37886.05859375
161,25318.352,13336.381,-7083.9673,-4972.36,-14450.292,-1504.2041,38892.51953125
162,-10072.532,-947.0139,-33186.28,-2309.0505,-6942.6855,6422.808,33358.66796875
163,-3133.3271,5715.7744,-18308.291,3778.7065,6206.929,-10990.12,31042.439453125
164,4464.5605,22215.299,-6536.39,4365.5747,5446.019,-3192.3796,28427.28515625
165,-16016.543,2712.417,-14117.581,10832.67,-10260.306,843.1705,31445.333984375
166,4203.007,10148.025,13457.265,8557.71,-3418.5144,-4437.826,19488.78125
167,17996.25,2853.9294,19982.273,2592.8596,15682.5,-7670.4907,34609.359375
168,15802.968,18399.629,26741.564,-3134.215,-4177.144,-15939.056,30691.4921875
169,12706.434,8175.738,12627.384,-2717.1301,1516.8187,-15691.225,28069.013671875
170,-16031.486,-22893.242,-38897.207,1999.75,-9757.318,-2366.4746,26971.08203125
171,-686.3222,-17245.846,-26871.8,11114.875,11840.475,-8126.7803,38931.0078125
172,-24445.367,-23058.24,-8535.3955,4497.9624,19578.576,-4835.4736,38907.3828125
173,2556.33,-5205.797,-9364.761,2659.2036,5269.6816,-8516.117,20782.81640625
174,23503.715,15339.847,31912.143,1435.0243,-3285.6135,-16387.05,32406.259765625
175,19333.15,9904.092,-10655.239,6432.9414,13190.39,5399.1235,37934.25
176,-4731.4,12815.233,22944.229,9589.131,2550.7302,6724.9688,31925.83984375
177,5244.0356,-6619.667,-30292.658,9084.968,5464.7935,4665.3716,37208.953125
178,15726.315,4819.95,29358.178,2356.6133,571.71344,-13511.448,31918.171875
179,21189.229,7914.8374,7094.678,6706.8765,5152.526,-16681.535,35173.6015625
180,8422.446,23450.34,-4535.1353,6067.0576,406.9076,980.7771,26500.41015625
181,11389.101,31544.54,11916.472,12471.082,-8130.3003,-3912.853,33267.26171875
182,19078.455,17789.295,25811.47,-474.48187,-18459.379,-1935.122,33012.5859375
183,8278.138,-9229.032,-21493.979,8434.09,9189.311,3707.5195,34345.64453125
184,587.92053,1556.6119,1748.4178,142.6598,-77.30059,959.86414,2000.98779296875
185,91.03165,785.4986,-811.6817,9.051011,744.574,372.579,2000.9853515625
186,29860.19,45616.49,52955.035,5020.52,11628.063,-5765.463,31602.494140625
187,22038.15,19473.66,13941.789,-1062.2201,17279.242,-12854.669,38028.85546875
188,-14585.875,-5197.6533,5909.8,-4121.1504,-374.00455,5416.811,21335.1875
189,16767.158,13244.897,25040.764,-461.33875,1372.0496,-17615.963,32361.291015625
190,15328.706,3871.0051,-14169.385,-338.5116,-4281.947,-11551.415,33452.80859375
191,-6702.6577,-7151.1855,-29831.066,10485.652,10114.282,-2063.7407,34267.6328125
192,18295.125,-5711.663,-18932.84,-1368.2972,-7767.7725,2223.9822,35636.96484375
193,41792.645,14882.902,-300.00714,-5410.15,2160.0679,-57.768406,38275.83984375
194,25263.281,3028.631,-1930.7137,1589.626,-5082.352,7021.2173,29363.3828125
195,27678.059,12071.033,-4770.5337,8362.283,2791.2334,7064.8257,34248.4453125
196,-49392.09,-67485.234,-73257.06,-4584.2773,-11867.146,-7913.6626,33741.9453125
197,14368.041,1609.8207,-22.711926,8949.591,-4603.514,-1433.3844,22277.609375
198,5607.3604,27288.188,33591.996,-9895.516,12226.244,-92.77183,37265.2734375
199,16865.785,39326.316,32844.758,2820.3079,-3331.6667,-8837.976,26313.46875
200,27766.902,14739.233,-3281.878,6016.0063,4622.114,-7028.6455,32405.6796875
201,17847.229,4319.605,-18036.775,796.642,-12920.961,4083.716,39217.609375
202,18306.87,9992.784,31624.566,-2297.5698,7746.811,-2518.6147,23918.935546875
203,26665.39,15657.801,8911.736,-142.72339,4648.7573,305.42923,17495.9453125
204,7028.2344,-11880.529,-26969.701,-7790.3916,-6530.1445,10671.851,39015.4609375
205,37223.29,20367.879,10170.508,-6317.087,6059.7627,-4388.278,29113.94921875
206,13229.575,14748.416,1570.0725,8488.077,-4122.287,9878.994,26755.6640625
207,9224.753,14529.692,-15390.64,221.22505,-386.2702,-6556.238,29903.013671875
208,31972.422,16506.557,15039.018,14098.328,4698.6807,-7185.4565,32885.515625
209,14475.576,1019.2694,-11308.409,-5966.9985,-4442.625,-11738.48,32837.9453125
210,13424.89,-702.98267,-12555.907,4101.22,10971.874,-724.21124,30343.4453125
211,15825.006,18437.809,22586.145,-4255.979,-3295.828,-18579.299,34020.1796875
212,1218.3009,-5988.8223,-24307.469,-10036.419,-5897.2334,-7387.288,33011.77734375
213,395.91702,441.2324,-645.9869,517.44916,-188.76065,-702.0439,1877.12036132813
214,2623.96,1817.5054,903.62445,-102.02197,685.9117,-336.04022,2000.9921875
215,12136.368,2025.8551,11921.922,-1246.1185,-5800.203,13623.13,27612.583984375
216,9234.8545,1902.5277,-2398.5034,-4196.096,-3366.5906,18664.027,35151.953125
217,16190.72,7195.0635,26930.703,3429.0564,2330.9595,12339.534,28306.359375
218,16757.82,15145.688,27589.8,-5576.935,1344.6296,15835.193,31438.576171875
219,10204.099,11282.315,22338.209,529.39746,2574.657,20301.607,37316.33984375
220,12887.694,13893.687,22834.562,135.00743,1311.4955,21841.193,39067.55078125
221,12132.392,9579.197,18271.203,-1639.49,-1281.0244,20822.486,37062.00390625
222,19565.592,15650.739,22982.762,-2502.5283,-676.8303,22218.623,39262.5078125
223,31046.97,33162.902,33504.863,-2837.3228,1119.9883,21813.445,38219.25
224,4388.8193,9269.286,1311.9829,-324.3489,774.18713,20770.646,36669.8125
225,25365.627,25923.25,22111.564,1192.7544,2932.5894,19572.574,34525.92578125
226,11354.374,11099.279,7547.209,-819.13043,91.98196,22381.1,38966.23828125
227,25583.197,27299.83,26666.387,4137.469,3354.4316,19764.553,35486.41796875
228,17524.924,17907.338,23371.545,-2047.6871,793.72675,20292.883,35804.55078125
229,-4000.3499,2513.8506,-6046.9336,1345.6808,14394.78,15195.107,37144.1875
230,11665.651,1444.2463,20417.535,1363.589,-2979.4233,20005.467,38773.62890625
231,25098.025,21477.748,24455.256,2182.6267,-6463.6416,19069.635,35238.80078125
232,25273.232,19610.434,20838.068,1462.2057,21296.79,-2457.7485,37574.1640625
233,43286.406,37558.9,39929.027,38.68077,21366.066,-2849.8606,37666.203125
234,27371.21,20221.297,20824.293,-1688.1632,20443.254,8549.792,39099.87109375
235,-9264.363,-4324.8364,-15641.886,-4961.7344,15843.965,-12351.552,37164.58203125
236,24778.578,22871.977,15693.097,1595.558,19368.645,8515.356,37675.76171875
237,28662.508,33912.406,18166.242,3380.918,18313.729,670.1273,35137.6484375
238,19684.918,20605.732,15411.343,821.36444,20858.23,5488.0996,37691.1875
239,31385.152,30989.37,35892.54,-7012.543,19782.87,3686.272,37210.6953125
240,34935.266,34426.957,47464.047,1659.5709,19202.877,390.93423,35757.09375
241,7901.6255,-3433.4563,-22138.643,10442.291,4391.739,-669.12067,32813.44921875
242,466.07147,-2798.445,-5991.4106,-3971.1807,19526.63,908.9694,34999.04296875
243,11851.583,3770.9644,-1876.7458,-4060.6963,18383.188,-8693.866,37853.30078125
244,36141.24,35887.707,38318.402,40.403236,17567.455,12933.527,37855.4609375
245,-2528.8696,5574.309,3550.3965,-3887.9023,15905.459,13924.726,37938.765625
246,59520.242,55185.934,57786.266,-1603.6954,21478.914,958.46875,37533.71875
247,21504.45,6699.5425,-7001.367,-8080.797,14514.103,3266.924,38335.8125
248,29556.018,12601.874,23131.164,-5342.61,16663.186,-7281.4346,36020.375
249,6130.288,-2144.7678,5010.2417,-5654.6763,1915.3505,-17516.193,32982.50390625
250,1427.5846,2307.3572,3077.079,14.162579,284.5675,470.88535,1718.25158691406
251,-6266.865,-8336.526,-16417.234,-3321.7698,2735.227,7608.635,17763.064453125
252,17747.07,6320.9287,27692.66,-427.88162,-9472.828,-175.2336,24757.947265625
253,-25677.031,-32778.695,-27017.84,1096.5524,-10784.101,-11801.8125,28514.126953125
254,-17899.982,-35480.805,-6592.207,6398.1895,9139.429,5822.477,33329.45703125
255,-9621.249,-10747.979,-24442.244,-3600.721,3478.3713,-2814.0256,17412.09765625
256,-4811.3096,4965.1226,-5059.9014,-4423.416,1554.0497,9664.842,21077.080078125
257,2306.7341,3550.5164,2360.7356,273.3669,-110.15086,657.99457,1744.19116210938
258,-2576.5715,-2396.3354,-3528.4792,204.26033,50.39322,332.75937,1255.05102539063
259,-4479.8604,-5912.97,-2654.8047,-2247.0405,-700.30725,5121.9575,10164.759765625
260,4857.4966,34065.418,7075.648,1448.7043,-4919.554,-8998.633,33392.5703125
261,-11335.474,6014.841,-16739.545,-10873.158,166.82922,4764.5273,29100.89453125
262,-422.91122,21970.959,16703.027,4916.458,5908.788,1224.6255,24352.048828125
263,-13401.182,6961.5747,-4759.541,-2568.208,-8536.6455,6537.966,26076.755859375
264,-6552.16,2408.1067,-15802.932,-4540.1826,2858.95,2892.1106,18979.09375
265,4604.5947,13944.745,-2776.3,4826.7295,-3686.319,-5202.85,20062.9609375
266,53.091522,-6675.6367,-7984.593,7726.157,3109.481,1143.6296,16364.8271484375
267,-11546.435,7172.014,3596.8086,5905.1167,1925.6909,-10139.882,26840.78515625
268,-7682.305,7079.942,-20016.281,-1280.0524,554.4495,3016.8984,24192.375
269,-6792.997,17817.05,-1424.205,-5958.9634,-7209.3076,1741.6792,27819.10546875
270,8534.473,31.546204,10874.953,5866.9824,-13462.576,12266.15,34583.828125
271,24116.559,13903.835,13677.67,7006.9365,-159.09618,9770.556,23246.919921875
272,21701.87,41594.22,13531.185,5575.187,7981.0684,12631.218,37255.6484375
273,-9722.672,-13796.597,-34646.37,14720.21,-959.2636,3944.563,35153.140625
274,15912.211,22090.918,-6814.246,11025.159,-1929.1847,7315.813,35092.44140625
275,30429.262,19010.732,18036.207,-8187.4663,-12193.824,6721.1753,30416.353515625
276,21796.15,15259.666,11087.202,1825.3893,-4365.9995,-4135.0874,14348.7685546875
277,-19471.256,10903.362,6860.8,1797.4254,-3376.2615,123.792046,29327.53125
278,-28239.928,-544.0588,420.47345,-10537.265,-2268.3557,-2783.5603,34153.8828125
279,20070.42,1580.8171,-14345.005,-3151.9592,5962.5947,-1868.8722,32200.923828125
280,16384.49,3816.5005,-16687.365,-2926.437,10903.216,3048.4895,35302.515625
281,12066.3545,-4745.3345,11409.935,-900.3103,14930.541,7975.7646,33675.83203125
282,20531.387,21191.984,15988.402,-101.43257,-1502.9408,22328.008,39070.4921875
283,22844.545,24029.904,20511.95,-3323.495,-361.27353,21648.02,38066.3828125
284,17119.596,-6946.0933,5400.2944,-7798.578,-6046.465,-684.0185,26981.5234375
285,16731.33,3387.7844,-21708.0,6564.042,-3280.886,-2446.2827,36362.35546875
286,18668.213,-12928.234,9203.908,-3657.1138,-6553.9575,6698.458,33052.453125
287,10064.399,2507.5945,-11377.822,1714.7294,-16842.184,8535.767,37857.8359375
288,12093.614,12806.432,9481.097,-4840.9224,-517.12823,15676.007,28592.185546875
289,16817.926,-4747.981,-21821.887,1969.7246,-11604.764,673.883,39266.19921875
290,14406.055,-1377.7842,-20622.309,6418.2695,-10989.461,-2921.4548,37877.7734375
291,17002.502,-8640.794,-22895.05,-429.19662,-1656.0413,164.45747,35144.69921875
292,24381.816,12861.671,3353.9531,-5114.465,13066.308,-13692.462,38545.42578125
293,22757.86,20128.934,9330.746,-1604.1818,20070.98,-4068.8198,37653.93359375
294,26822.074,19076.646,22249.168,-8098.1865,19010.521,-3483.217,36916.4453125
295,10276.848,-11001.125,-28253.262,4921.6504,8619.419,778.80176,37614.484375
296,1243.5071,-359.9396,-581.0928,193.5219,-35.528145,-551.75085,2000.99560546875
297,-15799.185,-19226.209,-12962.839,-4585.5947,-4558.404,16192.263,30683.8359375
298,14312.469,17326.355,24029.602,-5833.828,3578.3945,15934.941,31249.03515625
299,12902.567,10074.012,9604.643,-2147.4436,-3308.1338,22232.592,39231.09375
300,-11895.755,-7744.9565,-13710.671,4880.261,-16336.591,12495.37,36994.08984375
301,21785.623,18210.008,16135.363,245.25636,1671.2189,10574.147,19196.46875
302,12359.985,20635.816,-1416.6406,-3051.2612,-2169.8523,9344.058,26005.52734375
303,9683.616,16531.787,-9758.38,6696.136,4819.3096,-12820.354,35430.3125
304,-9786.888,-404.79773,-22636.727,8819.251,-7771.4287,-8630.001,31806.5078125
305,10123.544,34361.883,11840.589,4468.3145,-9871.353,-6753.7896,32216.3984375
306,-3530.167,-3748.281,-4928.552,-234.45985,672.462,-320.27704,1878.11291503906
307,44810.492,40002.21,41740.145,-2454.802,-2516.4666,19569.404,34695.01953125
308,-8778.44,10511.078,-7521.1953,-12133.956,1882.5946,-6008.9253,30167.322265625
309,26170.453,8489.252,7019.35,924.07336,1041.2294,-6660.7935,21901.775390625
310,-13597.699,-22133.283,-4080.9878,9847.411,3081.7168,-9697.745,29089.498046875
311,2764.984,4228.3804,-1436.6193,-2944.8484,-19804.67,-1200.9233,35113.55078125
312,-9379.467,-5082.0176,-10039.448,4394.178,-957.2438,9583.189,18918.98046875
313,9526.675,20010.553,-2041.3845,4549.1396,2181.3857,11526.774,28982.21484375
314,19027.29,-3059.9087,5041.033,-4873.076,7769.96,-5082.2197,26540.28515625
315,31501.92,4076.2434,24963.148,2799.2302,-1763.2,-8661.891,29555.232421875
316,24406.277,2014.057,11.0822525,5493.877,-1301.9696,-3928.893,26310.0078125
317,21878.994,5732.2017,-14771.314,-3615.7996,-2601.5747,4224.474,33544.66015625
318,41022.91,7050.7793,2611.734,-4948.5483,1179.8992,-259.32974,37449.39453125
319,16536.287,-9390.887,-18261.346,951.8579,-4816.7583,-3257.5137,32940.01953125
320,23622.654,3058.9287,-4273.484,-7701.4805,-14821.216,2478.0503,38506.8671875
321,17683.592,14604.541,8425.085,-3224.5723,11197.494,10035.539,27859.908203125
322,11198.03,10850.588,28300.422,-3465.139,7146.3296,11784.768,30073.716796875
323,3005.341,3486.9058,4632.9243,-383.24023,-544.2763,438.70724,2000.96643066406
324,8794.772,28211.555,31815.068,-4045.7373,7249.335,-4996.5728,27232.794921875
325,11703.034,17642.426,25395.27,-109.70157,-124.41093,19449.436,35726.1015625
326,10459.805,6070.6313,-2626.0295,913.5165,13852.344,15898.233,38333.99609375
327,1862.5763,3124.1846,3016.639,5806.741,13829.502,-15917.921,37901.55859375
328,26434.781,25046.9,17655.963,184.21957,18811.924,7944.042,36302.90234375
329,26930.148,22854.996,17461.795,3643.6152,17253.273,9790.212,35889.69921875
330,18832.996,27205.111,18858.389,-3418.1438,20586.746,3461.5054,37580.84375
331,15474.517,14770.749,16980.256,515.48486,20765.404,-1667.9116,36146.5234375
332,27734.373,26308.426,28707.879,1723.4508,19172.701,-9368.736,37139.96875
333,2592.7456,2408.9712,13011.565,1071.023,17836.367,-10307.375,37243.46484375
334,2696.5205,-471.74402,-10732.034,-3769.4253,-1306.2222,4159.2705,15730.9150390625
335,10106.512,30828.033,4165.8975,-11072.222,-10174.538,-3080.417,35980.32421875
336,9160.7,10631.136,4160.7246,6250.5864,1591.4424,2125.6248,13148.25
337,6376.704,21695.084,2583.1619,5446.533,-96.700005,5613.88,22152.28515625
338,-4932.0723,13594.465,-2294.991,-9553.285,-913.5682,761.5355,24070.109375
339,-1745.5769,14093.375,30531.127,8564.362,-2991.776,-1378.4678,32156.28125
340,-18220.62,-1300.8268,-33546.35,6667.751,-2089.0852,-11147.283,36051.64453125
341,22784.797,22801.66,21790.95,-4112.8745,3164.7278,20004.994,35810.58203125
342,9570.784,6817.6167,4955.1284,1343.7927,198.35072,20649.275,36067.84765625
343,26104.184,19735.895,39538.582,-5970.9673,10776.049,10840.748,33383.90234375
344,20666.965,16899.201,27834.385,3186.6875,-3145.8115,18800.348,34829.37890625
345,58863.105,59203.18,59167.895,3493.6763,5368.61,21430.71,38742.92578125
346,13404.218,5269.537,7622.4185,-5232.433,-3239.487,9642.04,21097.24609375
347,22259.465,14897.233,3985.1985,10969.922,13535.194,-743.7818,34145.18359375
348,-16104.51,10972.229,7856.591,-573.7178,-1280.3406,-1602.4253,25924.97265625
349,24154.686,27186.574,26300.127,-585.94116,-2899.0195,22300.857,39057.8828125
350,-20651.154,-26451.707,-2960.3691,-9844.573,12056.399,2830.465,34642.1484375
351,1217.4427,1832.4514,-242.65546,16535.312,6824.4307,-4857.974,32158.607421875
352,3934.168,2659.7593,4368.9077,95.58241,169.40488,712.57434,2000.98498535156
353,5479.435,-4301.332,18526.518,1183.6294,-13483.723,-12552.129,37627.16015625
354,-14379.767,8051.879,20114.484,-2323.6826,-3523.8828,-9864.038,35561.4765625
355,-1886.2491,10214.979,11822.13,8785.861,-6873.696,-186.06085,23278.578125
356,7638.628,-1598.9385,-12665.792,-6158.943,4463.8066,8178.9463,26159.1015625
357,13332.151,-8092.884,-4709.2437,13947.234,2403.274,-6633.6763,33628.95703125
358,14213.481,7822.2104,38811.36,9930.85,305.25598,-3730.4639,33778.83203125
359,-14619.166,2934.4832,-8496.807,14767.465,1127.2694,6190.017,31798.416015625
360,676.34656,3494.525,6745.4307,2446.362,1256.3575,925.28705,7275.2998046875
361,-4608.3633,-684.04736,-1726.5708,4327.8276,-799.9334,143.68231,8400.46484375
362,15655.553,4990.918,9098.7295,-11598.127,-8066.532,2764.5325,26617.375
363,-424.0173,-3508.5273,-1245.9663,-2168.8777,-43.702858,-135.85489,4672.0107421875
364,-28187.088,-6634.3203,-5768.0854,-6773.723,-2163.88,-863.1261,25256.166015625
365,-6769.2827,23470.82,-50.870274,-7106.7983,3090.9277,-3616.6782,31238.720703125
366,-3440.553,-2255.4214,433.39093,903.6462,1546.7698,-908.92584,4891.47265625
367,1222.9473,-6956.607,4139.735,-14521.664,-1057.2638,5918.699,28988.849609375
368,21911.145,3796.4968,11729.887,455.61908,-4057.1511,-1417.4343,17418.384765625
369,20470.078,2690.8652,8861.216,4613.657,-331.77014,-4225.9434,19032.423828125
370,11761.936,-3112.083,-5104.1943,6792.883,1949.4084,1411.1189,20264.248046875
371,19020.494,-4717.482,2712.2188,7020.2236,-2658.804,1896.9364,24943.521484375
372,-5160.4863,-71.05161,3044.5806,2683.1838,283.42844,971.57623,8725.6875
373,-1656.6873,2953.5212,-1343.8453,3462.1482,27.469055,121.90262,7477.6923828125
374,1227.1428,997.3978,316.47906,2308.1316,-68.007454,-210.66727,4099.06103515625
375,40.36841,-197.87584,-12.460905,-3160.66,226.23132,63.68098,5493.8134765625
376,-6066.1245,670.2774,5518.5586,-3396.571,-198.15627,-908.36945,11779.142578125
377,-19117.39,2221.375,6034.189,5235.566,456.52982,2195.0583,25466.73828125
378,-12613.922,-2625.9343,-7240.6235,4064.9155,-2215.442,-1802.4802,12206.7919921875
379,1931.17,6166.932,-1797.161,2877.6118,423.25912,-742.80695,8641.130859375
380,18191.412,-6711.5674,4283.148,-3825.453,8205.77,-1667.6119,26860.56640625
381,60.13947,-11552.443,-8934.929,-7309.1987,-2409.1843,647.60144,17036.759765625
382,9057.01,-7768.591,-9763.31,-2738.7217,-2075.603,1619.728,19077.1796875
383,17570.666,-5760.4814,13605.9375,5644.09,-3957.6785,-339.49445,24707.5390625
384,15303.065,-4997.3716,4489.4185,-776.0025,3367.8916,-3851.6416,19744.8984375
385,-6388.936,-2166.3916,4292.711,5058.96,-1292.1672,-231.40814,12991.2548828125
386,1325.1914,1356.3008,590.75037,2239.4512,47.009167,-234.92784,3972.51147460938
387,-8790.922,-2280.0474,-6034.82,6095.108,-2428.7466,-624.6114,12742.0888671875
388,-9425.179,5714.512,-716.3579,-5576.498,446.63113,3222.9697,17270.146484375
389,-12316.734,-3267.1736,3336.2217,-14629.293,-5069.4624,-8520.376,33499.17578125
390,-7956.1772,-6706.166,-7580.017,-5368.1055,382.08444,-1469.5051,9726.2421875
391,3620.8003,6045.445,-5110.526,-14847.14,-2058.2075,-606.9031,27900.029296875
392,697.7979,3306.0496,-204.60677,-1863.8467,99.58866,-156.07286,4527.2080078125
393,11603.138,-4311.7637,-11120.273,-4599.186,4912.5903,3454.6047,24076.08203125
394,12436.613,-1682.3667,-1579.9634,-9874.963,4525.863,-689.28937,23522.978515625
395,11427.106,4217.245,-6644.2764,-246.00703,2431.9995,1113.7516,16428.986328125
396,-7799.714,19824.1,-7353.8657,-413.47433,-3695.5925,-3546.0203,28812.595703125
397,-10012.992,2262.0447,-272.08453,5407.1157,-379.67902,1670.9224,14916.80078125
398,-10762.001,-5357.176,-903.0049,13033.836,-1206.4432,-3457.2373,24959.81640625
399,16430.111,-7759.3384,16658.057,-14524.35,-6333.5854,-1724.2206,36780.80078125
400,10513.74,-450.30072,988.46075,-4683.983,406.40417,-3491.0222,14470.0341796875
401,21753.426,72.94434,16827.445,-3087.944,-780.5468,186.11292,20446.2421875
402,-17665.092,8578.195,4076.6897,1308.7472,338.40375,1819.8837,24622.29296875
403,-10726.349,2886.5742,868.84735,3558.1187,-449.98526,-1921.8182,14545.9267578125
404,-19727.125,5542.307,-3412.4714,914.44073,-1475.34,282.6715,22399.29296875
405,19633.79,748.4266,-212.55312,6162.979,3543.1704,-1420.4084,23095.25
406,7938.6543,-2938.9346,97.971886,5110.466,-413.53427,-2141.6904,13679.716796875
407,4827.733,-212.74231,-947.7278,8290.757,-1367.505,1642.403,15797.591796875
408,25030.164,-1095.1149,7158.2676,-7555.321,-3318.148,-3825.738,27985.966796875
409,-6425.4844,-3045.5671,3182.9194,-4982.2134,-3586.3245,1890.274,13965.7294921875
410,-9282.055,-15309.255,-599.1121,-14223.26,1405.4097,852.16345,27911.6796875
411,928.2968,-4744.107,-5419.6953,-384.93433,-332.06412,-1932.4701,6960.13232421875
412,2082.9294,-3114.8682,4571.844,8641.237,2078.9463,3375.2712,17813.05859375
413,26149.066,-3981.3271,-9020.354,-9841.482,-1170.6422,-1661.2611,37256.078125
414,3506.7188,-4094.84,3104.2952,-2061.1438,-2738.6125,3624.6248,11381.7939453125
415,10840.355,18262.506,-10563.685,-13897.468,5537.4717,-28.987186,36653.75
416,11083.459,-4849.8076,-5565.378,9635.451,1079.0142,-232.29123,23408.607421875
417,-6414.3354,-11283.1875,3281.5654,10931.307,-2237.55,-604.36255,23227.57421875
418,7276.5312,-10323.895,-6996.0093,4815.1035,1255.761,961.79834,18421.1640625
419,-9364.919,-21246.898,-8550.824,15693.147,-95.94028,1081.3042,29897.77734375
420,37.964012,13147.751,4297.5957,-6015.799,-1537.1222,-1463.3397,16007.80859375
421,-19214.088,-6731.701,-5290.2563,-4406.3896,791.42664,6218.2056,18761.8359375
422,-6687.821,222.95184,-2528.6948,1003.8028,-118.509514,-594.3727,6359.1796875
423,-21092.986,1427.92,-1367.0238,-4700.6777,1485.9299,96.410866,22912.861328125
424,-4312.968,4529.308,-181.34067,-3587.0076,-1059.878,-5731.59,14115.46875
425,-28972.92,-8624.253,-5539.3384,10008.711,-3219.374,-4311.038,29558.923828125
426,-10642.877,667.98334,-2588.6309,-883.3671,-545.51135,-140.40363,10246.896484375
427,-12443.587,9092.559,2891.809,7246.218,3625.9148,-1423.5883,23911.486328125
428,-5848.9917,4857.958,-4289.9106,4342.333,-734.70667,-1202.5846,12763.310546875
429,-2657.8152,-218.26721,-9003.833,-1746.3619,-2886.383,109.6984,9792.0283203125
430,-10060.186,-3698.3699,9829.879,7049.2725,2432.174,3442.0156,22625.560546875
431,-9660.75,11839.565,5500.0894,1504.0763,-336.0841,963.0459,19392.259765625
432,-16917.182,-3855.92,1676.4572,3878.0088,1922.4263,2155.5085,18536.619140625
433,-5555.0024,3205.108,-2901.8894,-602.3754,1422.4825,275.82983,8241.611328125
434,7857.25,-3771.157,-2252.036,7751.371,-1004.4683,-377.71643,17423.224609375
435,7813.7026,-171.0009,4381.0005,2747.0515,-982.2843,288.91205,8597.310546875
436,13287.168,-5545.573,-10221.473,-3598.5312,776.5995,1974.4595,22736.517578125
437,1555.4738,-2304.2266,-1061.27,3108.979,1083.0419,803.1723,6789.4208984375
438,22458.033,1262.1307,-102.2633,3331.2847,-4641.631,-1316.1812,24148.93359375
439,-3785.5781,-8522.036,-10520.523,-4280.9595,4900.576,5185.5073,15607.3369140625
440,2644.4836,572.85425,4927.638,9487.116,1780.7329,795.04956,17194.759765625
441,10503.712,-1807.036,2356.2012,1827.6669,2057.9478,-667.149,11903.6259765625
442,510.50052,5839.8374,-180.79974,2060.8853,-312.862,-411.4108,6790.21875
443,6553.1436,-2443.059,2535.727,8745.451,335.21466,-1611.7662,17277.4140625
444,1292.3005,282.30386,4958.1255,-7249.1816,-1461.084,1294.1779,13683.6298828125
445,1819.0168,2966.2805,-2069.4172,-4699.275,362.40076,-2927.4915,10641.962890625
446,-4178.335,-1068.4352,10347.672,-10094.804,2600.9424,1307.9353,22508.751953125
447,1690.7174,2860.6108,4084.4724,-5033.695,-228.065,478.95786,9008.705078125
448,1408.7257,3928.9211,1266.4574,785.3973,-983.6297,333.61533,3437.61474609375
449,-6002.3955,2779.02,3643.966,-4704.0107,212.0177,255.72534,12335.7626953125
450,-5818.335,-1134.6147,475.55615,2533.0178,368.879,-1126.5234,7452.20751953125
451,-5621.0166,-1820.7358,3084.5186,4388.0396,-68.64154,908.37646,10835.09375
452,-7574.1265,-4811.504,-2038.665,6473.9463,-1776.8224,976.64844,12690.5390625
453,-1245.3566,638.2413,3781.6724,802.0493,-2525.3157,930.4108,6558.09130859375
454,1582.7498,7996.8525,-605.22095,594.08234,1837.8132,6201.763,13657.923828125
455,1994.7877,2384.5574,7651.7563,-1367.5419,2388.0063,2793.1692,8721.9208984375
456,-5626.7056,1593.3983,-623.4487,4983.5884,202.90479,-1053.1726,10908.6171875
457,-3683.2012,797.2046,899.3764,657.64435,1262.6415,-1832.9567,6058.19384765625
458,-6138.383,-1564.4462,-1369.389,1443.0822,-284.84488,1276.1042,5764.314453125
459,7696.1045,1976.3391,-5301.5063,-1023.076,135.39478,-1359.4961,11664.05078125
460,14580.539,-608.49835,1192.4807,8029.2383,-1409.9518,-2222.905,20513.14453125
461,693.7817,-4999.2397,-1577.5253,3110.6023,1946.3712,325.07562,8083.83447265625
462,-1237.5867,-5570.2236,-1098.7694,1942.481,-970.7196,-233.06229,5805.34228515625
463,5087.319,8410.605,2235.1584,-3115.6143,3743.5696,-1137.762,10183.5751953125
464,-5338.994,-29549.781,-914.7323,2831.1455,-5472.144,-877.5131,28793.064453125
465,7868.5894,-3178.6062,-596.8608,-2606.3547,-128.59477,-86.49311,10983.451171875
466,-2855.0513,6388.367,165.534,142.48087,-334.447,-1465.5486,8572.2890625
467,-7722.295,-107.870766,-4389.543,184.67555,-1293.8059,1518.2833,7466.55029296875
468,-5650.9263,-491.27106,-3329.597,1033.7903,734.3283,266.18564,5006.974609375
469,-64.43897,-4134.539,295.53268,-149.8219,-334.20053,-256.22812,4331.2568359375
470,-1312.1482,2748.0735,802.0885,-361.85992,-3283.4783,732.25525,6834.927734375
471,-1785.2234,-1710.6061,-1636.6674,-1158.6879,2447.931,1205.3112,5136.11181640625
472,-5354.3857,-3660.5037,-5849.4995,4135.4307,445.87485,-676.948,7565.02392578125
473,-4977.728,-4545.351,3332.5837,3819.4658,680.7682,-777.4776,10612.43359375
474,-14266.009,-3631.9717,-4103.0347,4804.2227,-10.431075,1399.8162,13543.109375
475,5441.837,991.88904,-2992.047,-5018.841,1753.8914,481.23172,11785.2255859375
476,-11808.08,2329.9763,-1430.479,-72.27629,84.98618,291.4352,12694.576171875
477,12322.914,5946.696,4911.414,-628.667,-1034.086,-5709.09,12268.0048828125
478,-4258.841,2577.683,-4855.936,-5257.913,4895.9126,-227.38248,14358.919921875
479,6985.53,13849.163,9415.592,-7016.8154,-2270.0747,-2825.9722,14948.6044921875
480,-4888.8813,3101.9104,-419.09787,-1061.0336,-717.2682,-154.49284,7287.45556640625
481,4924.1064,12085.983,-91.944244,-4290.047,312.91425,-323.7032,12969.1630859375
482,5997.9414,-10368.913,2644.946,-64.57733,-167.10968,-1361.7123,15162.375
483,10124.083,-8724.616,410.80484,-511.64532,780.48987,66.26607,16406.236328125
484,-2422.325,2353.5264,3169.8088,4147.0376,2158.203,876.1103,9759.2783203125
485,-4936.333,486.63477,-3311.9119,7350.698,-721.31305,-161.01764,13673.8837890625
486,3314.2917,-60.692444,-3131.2302,6342.9175,-2775.0557,-1150.6343,13377.376953125
487,-8694.1455,-4370.6626,-1706.11,6141.607,850.1328,-988.31793,12472.7294921875
488,-5054.224,364.47058,-3041.145,-1882.0363,1697.1555,-105.32989,6465.82958984375
489,-1572.4501,-2940.395,-931.9065,-3106.9236,-3402.2295,633.5163,8249.0146484375
490,-481.6123,2786.736,-2760.7988,-2192.624,1478.906,2731.2007,8166.31103515625
491,-10665.867,-11643.533,-710.37384,765.18243,1120.8093,-434.35025,10765.3125
492,-17904.533,-15178.9795,-687.31354,-2455.2366,19.531574,285.14536,16591.095703125
493,-5124.858,-1033.4017,-774.5427,2417.0667,-470.3716,-378.75232,6040.4365234375
494,9204.304,-5773.5,3205.8833,1188.8651,-304.29947,-411.27484,13247.5625
495,2749.633,-10944.337,512.79846,1262.6992,43.89114,-615.25824,12954.6025390625
496,2922.449,-4006.902,1817.0538,538.57434,346.85992,182.84889,6550.53857421875
497,-11184.225,669.2191,1801.7917,871.8572,-659.152,1067.0013,12736.2109375
498,-12561.508,6178.3794,1097.5164,-110.3055,1746.9159,-46.81585,17058.193359375
499,4486.3247,-6444.361,-986.0186,479.68787,180.61592,131.16833,9510.5068359375
500,14248.728,11783.169,2468.0005,-14807.667,4939.391,-1583.3204,29228.97265625
501,8440.455,-7675.811,1739.4753,202.79039,31.531952,-201.81308,14031.783203125
502,1908.5051,1317.5424,-2083.7908,2340.512,-414.01224,1081.2559,5863.77978515625
503,-16494.656,193.46544,-2885.5156,966.1298,-1060.6373,-706.1449,15628.8876953125
504,-3518.3389,170.53607,-3932.805,3324.0781,-1247.4802,-527.2442,7345.71728515625
505,-15081.033,-2696.526,-288.95343,-255.66615,-479.23624,-601.2557,13818.779296875
506,5119.9717,13909.638,3249.5063,-722.47266,-858.44885,1356.2366,10319.51953125
507,8589.986,8503.619,5579.292,437.07245,-742.3213,-1090.2662,3821.51489257813
508,5465.3105,-9483.374,5346.3315,-5813.715,-3516.4204,-81.31429,18979.25390625
509,5196.3467,-1952.755,1359.9072,3453.0518,-359.02612,329.38272,8653.537109375
510,2666.1343,-4398.426,-915.05493,587.1394,-87.642265,137.78708,6208.6708984375
511,1239.1056,-1542.1965,1694.4913,1456.7727,-1204.7463,1004.7433,4791.5458984375
512,-8108.639,-133.54077,441.17044,6165.9233,-782.5802,1348.0017,13778.9814453125
513,-3869.5332,996.30475,2104.0417,-1036.8057,-275.70016,59.00352,5810.0693359375
514,-3379.0828,-954.58386,1191.3499,6314.304,2672.7126,389.53766,12537.25390625
515,-312.9848,3254.2559,-271.624,-806.33923,182.70415,123.54433,3830.90771484375
516,6684.361,-3057.4197,-6477.622,-5702.6504,3060.8318,507.38812,16320.4775390625
517,-16151.469,-19471.236,-6013.863,1897.2834,-454.66287,297.79303,12614.7392578125
518,1090.4529,-5600.989,-4941.179,-5497.201,-2658.1484,4837.181,14928.01171875
519,4929.6367,1728.2052,3385.7378,-495.8511,-909.4367,837.9227,3607.6689453125
520,-1759.492,3693.7935,-146.36513,-190.17422,-2208.7744,1090.2216,6469.4638671875
521,-3629.4097,4849.075,2990.1685,-1049.0627,-107.26314,-905.8793,8085.63525390625
522,4116.4897,9942.764,3243.213,4796.9834,1844.9836,-762.10547,10990.1533203125
523,1502.4121,709.8073,-3419.2456,1294.7074,803.8571,-145.9988,5289.73681640625
524,-1952.5428,5261.5757,-147.46619,85.023186,411.2772,25.313396,6542.99853515625
525,-3685.66,5294.2485,939.59106,1650.4431,507.36877,-72.99524,8334.1181640625
526,-10018.891,-6944.6646,-1312.2006,-2143.7664,-869.3261,-436.1833,8666.95703125
527,-13740.897,-22504.5,-4718.5566,-4138.0537,97.7536,197.10768,16993.7421875
528,-1132.1112,1907.0797,380.0412,4984.049,-963.4918,-32.27028,9178.119140625
529,-403.72687,208.2466,893.67316,5320.8765,370.04132,1173.1522,9525.681640625
530,-4825.781,1431.2773,4239.8677,3791.492,-56.899426,969.011,10515.0068359375
531,-2762.0955,-1695.3289,1087.7935,3374.3428,-810.6106,837.9581,7077.36279296875
532,-3514.8455,-1951.5868,3040.476,2929.554,557.1612,-189.90805,7871.13037109375
533,5145.0786,-11005.012,-904.2038,1695.2411,-505.56738,776.8548,14523.140625
534,2054.915,-11191.463,-2331.198,1392.5763,-292.11316,-9.968985,11944.810546875
535,6955.0146,-4523.38,-674.0248,3779.6245,310.2287,-722.0168,12128.314453125
536,514.2934,-6017.076,-26.480352,4951.3994,175.46346,33.411934,10633.15625
537,-15791.798,-3317.1494,-17.466385,-240.58514,-34.637764,382.2191,14432.0009765625
538,-12591.514,-7250.888,3087.7844,2589.176,-481.08914,-557.6569,14572.7216796875
539,-2444.9426,3956.7583,2566.245,-21.850315,-758.84155,127.488716,5982.58837890625
540,-4072.014,3246.2192,109.512596,-845.1443,-860.1793,602.7713,6774.42626953125
541,-13468.191,3935.3167,594.43384,-5135.1665,-168.50476,677.2504,18343.16015625
542,-6882.243,-4083.5718,-3651.021,5877.919,-1244.1719,291.07257,10852.5615234375
543,-7812.935,-6541.6714,-4391.6777,6765.2144,-53.775818,-1891.8027,12530.8251953125
544,4411.3374,-6850.0513,-1280.1313,1185.0795,409.9896,354.6421,10010.6279296875
545,-11923.935,1023.8596,-1857.6311,-585.6211,-1411.8119,-1409.7683,12313.01171875
546,2069.2073,-16195.737,1519.0907,-2693.734,494.93173,-162.96686,18613.064453125
547,-2227.2354,-18743.508,-784.0268,-2560.2207,523.36755,105.61955,17866.89453125
548,2396.8276,-15549.581,-3694.5027,-6672.3125,438.51218,34.5313,19595.921875
549,-2100.2227,-1052.8447,-252.80057,3116.983,1503.8047,-320.26752,6230.0693359375
550,1380.2427,3439.83,-12.08338,2483.9514,24.015663,-209.76324,5262.30615234375
551,-455.25473,2586.575,679.53986,2310.1477,-140.81346,566.8318,4911.4521484375
552,-10222.847,2710.506,-694.3783,136.51099,563.7267,-1233.4376,11849.1201171875
553,7434.6733,1843.4741,1315.0963,-4754.1665,47.814365,-273.33807,10125.8212890625
554,-18156.291,-18787.729,-5353.2676,-3126.1138,906.5249,109.93713,14290.5498046875
555,3468.7976,3778.5461,2382.077,-4202.678,126.96562,-255.75519,7405.78271484375
556,-1475.398,3298.8784,2282.9492,2661.1768,-436.36353,620.99634,6476.82275390625
557,3577.3042,11831.105,3626.6968,2397.461,-298.90002,-165.77945,9236.5537109375
558,1977.8212,3613.1392,2864.4756,3956.355,906.0257,-11.027421,7171.5908203125
559,8231.093,6622.874,4129.637,2235.159,-358.9689,1225.9797,5718.01806640625
560,-10963.398,-11057.744,-1147.917,890.8689,-198.54556,-736.33997,10069.9755859375
561,-10052.964,-8642.849,-2472.7927,-1227.917,233.10242,-170.01562,7316.52734375
562,-747.6126,-1646.1818,-2806.545,-7134.8486,-68.9193,-18.316772,12487.1923828125
563,3493.4902,-9086.823,-748.70435,-934.7163,-137.18631,968.693,11330.7109375
564,340.50726,-7547.121,-872.3649,-105.66993,-250.29297,-350.30377,7396.5283203125
565,-3167.5583,8942.054,201.7772,927.86316,-267.28195,-160.49466,10957.5625
566,2912.8428,-2649.1694,-656.7678,678.1674,179.63089,-89.74113,5032.35302734375
567,702.42804,-1489.718,409.93677,1170.8851,17.809832,261.31647,2927.216796875
568,5175.643,774.2891,625.53906,-4327.38,-272.21634,573.1217,8799.7216796875
569,-4562.2085,-1020.47565,-6121.4355,-273.37473,23.338623,-66.1624,4553.72314453125
570,2450.6775,5195.1533,3633.194,-2501.1448,349.86905,55.07161,4982.8310546875
571,-3920.0608,8505.275,150.9448,-3279.1797,110.11664,-93.5639,12357.1904296875
572,8986.149,6625.092,3236.4507,-5884.841,-519.21814,153.96458,11394.392578125
573,-1892.7024,5286.8257,3864.396,8272.468,2609.7014,-266.3669,16410.4296875
574,-3117.7434,760.30066,-162.49869,6871.561,1679.7845,343.53165,12758.771484375
575,-2494.7559,-2222.0498,-2156.5178,5257.2754,-2178.2485,-1288.725,10110.890625
576,9553.386,-1313.8334,-500.97595,4864.1797,854.0004,1434.5973,13757.419921875
577,502.6883,5902.1406,3477.303,-6998.0166,-328.5597,-1144.7235,13157.236328125
578,-13824.053,-3417.144,-3046.8772,-2093.6475,4636.094,-3790.1296,15264.9794921875
579,28376.11,4581.4033,1475.6499,-5927.6885,-4936.0166,5155.504,30132.66015625
