Element Label,S11,S22,S33,S12,S13,S23,Mises
1,692.73175,-4562.7275,4839.0205,4762.159,-2646.2832,-792.16644,12551.0048828125
2,3670.4038,1338.3845,-592.1793,-727.31903,-1144.4415,-142.25598,4386.84716796875
3,421.9624,11307.29,-1925.4001,-245.60869,-531.27936,-606.882,12316.0439453125
4,-2550.0964,5235.5615,-2025.26,160.28873,658.18005,2200.2078,8526.7314453125
5,6146.244,14272.042,1984.3657,-3101.3303,-195.92773,-419.31458,12110.5654296875
6,-962.66943,-4910.7153,-4965.055,-615.699,780.6545,48.82036,4333.26953125
7,1976.7032,3943.789,1061.1064,-2904.851,1449.3376,-2538.4092,7579.94580078125
8,543.52026,10353.034,1343.1667,261.31976,1068.3345,1909.5436,10177.9072265625
9,6238.429,11792.2,1551.3452,1078.409,-59.648285,324.31055,9091.7119140625
10,1639.7053,10624.103,-224.0039,237.47983,1036.794,2054.132,10816.16796875
11,6386.002,710.3872,1730.8512,-1328.2471,-1379.408,-1402.0725,6660.3779296875
12,6958.3696,5414.7812,293.3462,-1722.4578,-577.9525,-419.5742,6851.85693359375
13,429.56738,212.46295,-2162.7373,2466.993,-1841.7036,1306.0006,6305.162109375
14,-355.6797,6654.5195,994.32935,245.23022,203.64842,-1235.3768,6810.64453125
15,-708.9763,13621.345,-1663.8806,4521.138,-2983.7388,2717.2087,18169.5859375
16,25482.55,-11705.416,23755.037,-27.363111,223.74496,3740.4016,36929.80859375
17,19847.715,25583.852,11086.125,14896.92,-14.994869,6.0970035,28734.6796875
18,7572.9473,7941.69,-7742.088,-8131.366,6515.7764,12179.14,31797.033203125
19,24600.797,25105.117,35907.055,-1213.9696,1296.1005,-1717.0732,11861.2666015625
20,-11823.077,-11401.495,-9809.304,-1313.637,-1277.478,3864.475,7632.779296875
21,12583.985,16086.4375,6703.545,41.95495,-512.1519,-520.5139,8309.494140625
22,-33369.76,-39094.75,-19830.178,8399.3,4101.182,1573.7666,23730.65234375
23,-958.0596,10305.794,12920.384,15931.327,-4180.2026,-3009.2495,31688.6640625
24,-3015.8223,17683.861,2241.454,9326.259,-1938.4484,-1852.1079,25095.673828125
25,11802.434,18364.133,15381.456,-6846.594,-11619.274,8627.278,28307.609375
26,3881.9014,25006.1,6670.435,-6660.526,-2004.7393,2030.0298,23507.65625
27,2533.9724,-7140.566,-6323.85,8758.061,2730.141,-2271.1438,18823.0859375
28,7282.442,6788.404,2311.4866,2793.7559,995.8965,-3529.4727,9287.669921875
29,14635.669,10163.054,-3358.4658,-4549.084,-675.3414,266.182,18082.46875
30,2538.768,4166.478,20265.545,-12751.778,130.44254,-1835.1207,28035.8984375
31,-6440.054,-12046.311,5394.356,-8433.926,-2082.9033,4514.2764,22921.060546875
32,-728.68933,5308.307,-614.1776,782.7203,-1382.0614,-227.39693,6594.732421875
33,657.3728,-896.13513,2994.337,-392.1417,282.44742,-1714.7407,4585.5146484375
34,5299.151,15899.59,1459.5933,-10582.738,-1469.7949,2888.8652,23136.833984375
35,5116.594,7348.0312,-2732.2017,-6824.8716,3431.2703,-1331.3477,16262.5927734375
36,19413.771,15084.251,-873.13477,-9298.318,6924.217,4544.434,28418.953125
37,8942.9375,-2665.0234,2239.5613,-8864.236,-2070.6455,-2588.6394,19249.869140625
38,10707.654,-15313.903,3135.93,-11111.536,3063.872,-2262.609,30843.853515625
39,3321.6206,-10952.712,-6536.865,-103.470116,2581.774,-3002.7007,14397.931640625
40,7861.912,-16268.176,-1256.4575,810.5024,-2366.9219,5051.394,23253.08984375
41,11439.254,-7908.074,3978.9688,-3169.4436,535.86975,-3649.4011,18883.599609375
42,6156.5273,5218.1475,37944.926,-452.60336,6596.58,-5476.1436,35529.3671875
43,9272.076,9244.363,9051.841,243.16335,-424.54938,-1039.6575,2000.98547363281
44,-15837.374,-23371.121,-19847.547,-4538.2744,3088.1301,3962.6292,13421.32421875
45,12562.13,-8926.283,20049.684,4947.301,1924.7666,8274.905,31123.5390625
46,2261.6748,-17927.05,-222.0435,2535.9702,6649.828,6787.5815,25569.087890625
47,3913.246,12382.86,5150.848,-636.42737,1718.0985,-8099.0483,16420.671875
48,-3919.51,9121.332,6042.8794,-3299.313,-3641.1323,10613.132,23446.544921875
49,-10475.113,4363.085,-24635.416,6638.343,-2089.628,-1676.18,28009.4765625
50,-19281.238,2269.5688,-1494.0571,6884.6274,6394.6533,10080.219,31099.75
51,2432.5898,794.43787,-525.3528,-11120.959,-1977.7534,-5958.562,22267.970703125
52,-6949.539,972.4678,-28378.809,291.6551,959.10504,-104.76602,26358.72265625
53,-9575.507,-18446.799,-1845.167,-10469.966,-4471.792,-3524.6792,25162.619140625
54,6151.6685,3096.8171,7201.0254,-7363.572,876.39166,-3827.201,14918.1787109375
55,21239.045,23860.508,17690.938,4267.061,-770.21844,-4763.9575,12379.4736328125
56,19716.295,15087.428,6388.092,4168.824,-1692.6996,-7888.0273,19615.525390625
57,-17043.896,-2680.6807,3624.2974,-6204.166,-3464.5957,2247.3232,22433.26171875
58,14245.462,33494.76,20983.115,12429.315,-4547.3774,2880.0852,28924.396484375
59,-9029.351,-12247.025,-9165.008,-1553.2216,574.563,4297.3833,8577.044921875
60,-6061.343,-1794.803,18100.65,3041.0642,-2396.1533,11178.078,30310.630859375
61,13924.052,10080.339,-5970.077,-2207.9055,1119.7167,-1504.9493,18954.251953125
62,9495.529,-5765.2666,-2380.0369,-9518.139,-6143.098,47.31614,24035.28515625
63,5378.701,-5022.5137,2456.9673,4576.644,-4849.7354,-6565.9272,18683.234375
64,-9440.314,6291.0083,4148.2305,-4901.048,-7617.002,-2450.885,21965.763671875
65,3861.109,-9019.877,8077.9824,-3668.453,-1635.3253,2077.2288,17302.005859375
66,-6318.89,3891.2139,27576.537,8769.406,-1753.6919,212.80168,33869.453125
67,15911.685,4359.8286,-18720.299,-6113.5864,-4572.3716,748.4449,33305.9140625
68,15536.496,14438.065,11013.734,-12421.076,2972.7803,9290.3,27658.357421875
69,13293.873,-2470.7432,-43.930664,-5216.595,0.5166461,-2675.1277,17867.912109375
70,11281.524,6667.4014,-5569.216,-5259.3286,11985.7705,-1044.0485,27289.447265625
71,12089.552,-6041.569,-3664.8835,-2013.0637,-9791.175,5861.671,26346.35546875
72,-8402.969,2234.67,-1963.8839,6736.614,7206.8003,-4448.2,20915.15625
73,-22468.166,294.8507,-22795.451,-2429.6536,-17281.08,-7576.382,40143.91015625
74,-15835.2705,34.51047,25846.84,-5222.177,-6161.913,-1468.2231,39114.578125
75,-11704.601,-18662.89,-12977.509,-3360.7212,3289.8555,-4398.155,12867.203125
76,-19495.037,-21838.184,-23928.346,-1460.0962,13938.633,-355.43402,24584.30078125
77,12552.233,5489.5996,14512.625,-12040.539,-140.2607,6730.4116,25267.51953125
78,24208.215,12562.829,26453.805,474.1625,-2090.9888,-2350.993,14042.1201171875
79,-3416.743,6698.879,25760.656,-10152.817,-8311.524,-10994.814,39212.7578125
80,-69.03735,-5048.691,-5068.419,-2174.819,69.55939,-122.07183,6256.54150390625
81,1901.303,-15443.114,-25883.28,12839.116,3476.9424,-1557.5234,33600.26953125
82,-12677.354,-16420.252,12938.721,3171.4795,3018.1333,6074.7715,30566.021484375
83,3364.8281,5088.3086,-5423.669,-3965.2544,-1102.0889,-1403.8224,12332.0947265625
84,5740.526,7935.068,-11716.531,-6404.611,2984.6104,-4604.716,23691.0546875
85,15645.791,13322.254,4614.748,10300.625,-5541.3354,-3933.5286,23628.318359375
86,1602.3558,-4160.907,5045.3364,1156.0583,-2375.2556,1441.5387,9595.892578125
87,6758.293,9184.831,-3424.0337,-4535.608,4838.6187,-2005.7885,16682.240234375
88,14751.891,-10707.887,-7914.484,184.41504,-2546.1873,-488.40884,24599.8125
89,27755.959,5905.544,9455.781,5066.35,-5298.9756,2354.4727,24296.962890625
90,11938.021,-3666.1306,-9623.205,5578.9478,4664.228,2504.1978,23438.9296875
91,8804.316,19632.662,-21401.082,4010.321,3182.5151,-1955.7698,38036.8515625
92,3721.6577,12160.484,2720.169,14083.363,7291.0825,4503.0396,29933.3125
93,2219.4045,14099.245,21832.854,17792.86,2968.0535,-413.81424,35630.22265625
94,9404.167,13737.502,3845.4346,1954.3387,1481.5641,2090.4648,10242.9833984375
95,-15556.441,-11546.176,-22320.277,9328.124,3294.0986,-7200.412,23196.75
96,8095.1357,6552.624,8545.065,-209.0313,-1308.0342,3973.0532,7476.3095703125
97,13185.759,-3915.5908,5590.192,2213.8337,-375.39938,6141.5063,18669.08203125
98,24126.691,-19569.004,-5368.5938,2013.9916,-33.981094,3932.2795,39357.70703125
99,-9281.057,4387.582,-453.39392,5650.9517,624.80493,-4308.4033,17226.58203125
100,-490.85733,68.537575,1358.6775,5851.2324,-2386.8914,-873.1756,11170.8955078125
101,1471.7256,22951.459,-3358.9263,-14887.28,1827.8268,-1757.3604,35674.3125
102,-2026.5239,-5357.37,-8192.891,-1246.4933,3962.9844,-2924.501,10296.3330078125
103,930.41406,-11429.963,-17816.412,-6484.2974,1484.489,861.49567,20186.146484375
104,-27606.854,-18454.781,-17078.158,1617.3713,-5195.596,1358.0261,13878.6708984375
105,11999.711,12312.15,2011.7266,4523.56,2081.0608,-357.983,13332.0205078125
106,-2977.283,19647.275,-6409.759,7030.8857,4778.1133,1643.2294,28743.73828125
107,11927.029,8015.1255,-2678.7202,-5026.19,3000.3176,200.9908,16565.302734375
108,4739.6284,-10158.74,-18536.127,-4798.308,1590.0564,3644.8384,23096.796875
109,-1021.36914,-1163.5435,-14980.734,-3018.9521,13124.326,5954.357,29040.46484375
110,-7619.162,-11384.311,-6044.09,5968.7124,-555.9384,5234.9644,14581.0126953125
111,622.54614,-3656.8784,-5909.159,-4850.422,3002.8215,-2237.1497,12069.375
112,-9332.101,593.74805,-8255.9375,12682.573,-8717.118,-856.1925,28314.40234375
113,7738.122,8639.44,-1781.1055,-9951.034,461.46365,-3184.1907,20691.380859375
114,1955.1533,8775.563,-12607.343,-8552.7,3865.5571,227.7603,24946.658203125
115,-5542.2246,1363.6018,-3413.3281,-4563.3506,5485.6016,-8467.555,20133.734375
116,-613.5426,7967.124,7634.109,-3145.3857,-16222.639,6287.882,31759.974609375
117,11336.43,8355.227,6021.8296,1633.4869,1433.427,3578.1545,8594.6025390625
118,12700.989,-3751.1575,-2780.8608,-2840.1096,-4627.2275,-264.4277,18555.140625
119,-1862.814,-9406.409,12247.691,2271.2014,2912.5225,2255.5051,20460.73046875
120,12969.824,11322.471,28649.1,3429.0232,11438.691,2684.1562,26903.576171875
121,-33492.645,-33334.504,-36306.137,-517.4226,1550.5953,4027.8254,8066.72314453125
122,7526.498,3383.442,-1531.8594,-4640.2734,-4219.5864,2445.3997,14058.46875
123,1444.2963,15369.705,-6939.503,-411.2399,5797.5034,-5429.6694,23890.111328125
124,-5499.264,1598.3679,-3480.3193,6428.2017,-2786.7021,22.148294,13688.9267578125
125,-7244.908,16258.777,10428.909,-11363.031,-10591.276,-5517.713,35561.265625
126,7166.1855,-1191.8506,6728.8228,-5944.603,6437.969,-1667.0535,17466.740234375
127,-11471389.0,-11469816.0,-11470724.0,140.36403,591.22614,-584.9017,2001.14721679688
128,-8292.1875,-6827.551,-19703.129,2075.264,4324.6934,-683.8795,14815.5244140625
129,4102.3066,2954.397,16715.232,2246.364,4028.4766,-8331.5205,21141.171875
130,-16187.908,-7239.076,-7957.3555,-12123.132,6483.593,-1129.1581,25397.177734375
131,-5079.987,3457.296,-5343.1143,-3962.041,2654.1736,-3314.8342,13281.2802734375
132,11186.819,5529.295,4642.277,8300.455,-269.867,7551.626,20391.298828125
133,-4379.515,-9673.595,4175.201,-5520.011,187.81636,-2866.8992,16207.2373046875
134,12131.974,17291.44,3176.8296,11344.452,-966.2367,1917.819,23514.744140625
135,-5841.081,23449.252,19369.436,2463.7974,-804.2687,5259.7227,29295.3046875
136,6287.717,11077.598,-1912.398,-1693.7795,-2926.239,3278.0396,13999.7978515625
137,1692.515,15092.102,-12060.381,1231.4655,-3912.5972,-4844.393,25958.6875
138,18166.576,-25338.393,-1475.3541,765.3998,-1229.226,2040.9358,37983.58984375
139,8905.747,9399.178,7955.7,-683.11084,-471.92468,327.1281,2000.98571777344
140,-38859.48,-48269.875,-49521.34,-2596.6274,3001.1035,2826.0647,13156.9638671875
141,-7074.1025,5075.5146,-4760.312,-5311.015,-4721.694,1811.3424,16917.501953125
142,19735.873,7409.6855,-7855.752,-8534.982,-2566.3594,64.63604,28485.822265625
143,6726.0776,-6790.3105,-9793.419,-9489.624,6154.2075,1977.2501,25056.1953125
144,6217.4116,21490.785,8292.713,15919.438,1450.6909,-3369.2808,31726.033203125
145,-4744.693,3530.5376,-1533.5189,1108.3683,-2637.0994,-1264.8518,9031.375
146,7929.703,-4249.536,10332.425,-10276.536,608.2583,-2663.0217,22859.939453125
147,5622.5215,-26558.68,-8841.442,-5353.3228,-2458.7405,-3877.8567,30472.806640625
148,24090.908,19815.217,15085.363,9667.283,-391.05283,325.296,18493.830078125
149,15029.048,-3273.5186,1356.1431,7528.2163,654.86945,-3760.5222,22032.1640625
150,-13613.484,-2719.0342,1967.0726,-1002.3322,-4981.009,3655.2493,17584.91015625
151,-5249.028,-15034.773,6526.7593,7004.4395,-4418.035,761.8149,23604.015625
152,13522.74,-1952.3816,-15597.69,1176.5815,-1673.2463,-14813.252,36161.9453125
153,20358.018,-4407.228,-2547.2686,-11148.937,-8887.336,-356.70786,34364.90625
154,-3350.4404,-19001.295,-1818.999,-13560.091,3613.7292,626.45624,29381.041015625
155,-3568.1333,5960.834,-5704.584,24.952291,-11097.008,-3716.9155,22947.828125
156,-4109.293,8554.278,7544.6963,10140.487,-4492.9487,2154.7122,23055.951171875
157,4282.4717,20603.31,-4901.835,6116.0674,-1119.3411,6158.9697,27025.787109375
158,-6246.7754,8911.605,-12252.795,-10571.87,4095.6245,-2357.6816,27553.2578125
159,12210.168,10506.803,17414.705,5016.067,3250.7634,439.0925,12108.5703125
160,23937.967,13966.866,8677.584,-7792.5884,10163.124,894.2006,25972.65234375
161,3822.0515,-3535.5598,4555.22,-13128.783,4337.7354,-618.7775,25194.3984375
162,4447.419,-878.68506,-12994.115,-815.46027,2314.9778,-2657.0693,16701.240234375
163,-1814.4648,-8030.55,-1813.5781,2255.1619,130.88087,3103.6797,9102.3271484375
164,8260.948,-7072.673,12876.442,-2814.6733,-3062.9788,506.55203,19490.4453125
165,13450.993,-10263.684,3977.1704,6381.457,5420.066,13313.075,34197.73046875
166,24008.639,8406.948,13330.285,-8468.238,487.08496,-7290.269,23793.45703125
167,-6870.783,11130.779,-13135.217,-4227.324,-2676.8591,8364.253,27587.29296875
168,-7345.61,3950.38,-2146.6162,-2600.8145,-1294.4491,-2896.4038,12099.0947265625
169,-15321.432,-21392.766,-16446.668,1772.1696,5445.421,13045.156,25302.240234375
170,5167.959,-2538.5437,-1111.8314,253.73921,568.2019,2160.799,8099.35791015625
171,-8801.926,7200.5703,3011.0835,-2898.57,2623.9343,5141.3203,18213.982421875
172,1091.7922,10954.235,-2432.426,7072.077,-6058.7183,-584.81824,20140.466796875
173,-14505.592,10416.8955,8729.892,2450.8438,237.43561,-8284.424,28390.421875
174,-15521.388,-8995.078,6959.3027,-9138.728,-4018.213,3356.5522,27093.2578125
175,5663.385,10606.245,7082.016,-630.7601,-4858.947,-5432.0728,13415.5205078125
176,11543.841,-12639.797,-5476.391,-2283.358,-2360.4749,387.63882,22265.060546875
177,1132.7484,1320.1774,-2273.392,6702.612,-549.89716,3475.8125,13572.0791015625
178,9588.896,24096.75,37412.6,2080.7358,-1222.9507,2747.7795,24921.8828125
179,-2334.1743,-13264.741,63.01758,-5347.3687,1974.3364,-4769.152,17808.369140625
180,1078.657,5798.336,-18691.785,8992.036,-2515.5457,-806.3242,27748.16015625
181,22105.99,7853.093,3893.7808,4328.521,313.4462,-6640.8105,21541.982421875
182,20190.707,-8821.008,3131.2773,3816.0845,-4469.2295,-1222.1035,27310.630859375
183,2732.1216,931.282,10826.033,-9359.357,3695.382,-4279.4033,21024.517578125
184,-11519.902,5908.896,7891.207,2289.6707,1611.1322,-9286.544,24989.529296875
185,-16364.853,-13568.075,-304.62073,7695.1177,-4866.576,-2706.7378,22170.0390625
186,-8212.434,5869.1523,-3309.8826,3147.32,-207.02534,-4540.8555,15652.28125
187,8364.219,7203.573,-1364.1035,-5127.6143,-87.686516,6654.9106,17218.015625
188,12222.949,12283.766,12228.9,-17.249187,-429.03677,-786.32245,1552.86547851563
189,-13640.904,9919.777,-2643.9783,537.00635,9291.046,-9466.543,30751.017578125
190,20109.787,31051.191,5207.1826,-6809.705,-10114.281,-7249.6953,33294.80078125
191,-8939.452,5263.5234,9190.556,-2794.7861,-3882.0437,-2532.6238,18994.931640625
192,17195.553,17615.934,4465.958,2255.372,-12295.948,3080.2039,25784.970703125
193,-5476.1987,-1830.3167,14080.432,1471.1198,-2938.987,-1278.4664,19020.04296875
194,6603.055,17002.242,-2242.9194,3778.1724,-3396.9844,456.7863,18879.9765625
195,4461.276,-2980.0713,17002.434,-13680.9,4962.891,4985.839,31873.89453125
196,882.43506,-6605.054,-26707.5,-17715.486,1258.7687,-4299.235,40154.78515625
197,16602.816,-1894.8232,199.11768,1044.2289,-2732.3342,-1298.2448,18399.423828125
198,-11077.377,-1129.8043,10120.9,2165.5469,2936.2563,1671.1782,19640.8203125
199,-12885.512,-9853.762,-1926.0752,-9183.426,3063.977,-334.51727,19431.41796875
200,7034.498,1548.5327,-610.0083,-1389.6382,514.24817,2555.61,8530.935546875
201,22077.805,14582.765,-3546.497,8038.9023,-5243.998,5121.9414,29593.89453125
202,14648.125,12110.589,3088.478,-3730.8142,56.253723,-1425.8145,12593.521484375
203,12638.113,195.3169,-3195.832,197.23431,-7432.597,3500.8926,20276.44921875
204,4873.639,-12660.067,11380.719,2582.9478,1536.6946,-1175.4564,22251.076171875
205,6472.3193,16000.117,3330.8994,-4075.9102,-6991.9727,1433.4178,18254.984375
206,-2251.4285,16427.576,-3748.2102,1771.683,-2600.079,-3372.9797,21045.96875
207,-2665.796,3075.9849,6123.547,7954.4414,-3756.298,7924.12,21915.244140625
208,8408.74,-1437.8599,-1518.1206,10386.111,-111.03878,-4112.945,21729.0625
209,3009.5317,-13025.36,-1892.7993,-5451.284,145.70981,-7470.2007,21428.1875
210,-2494.0151,-7856.7227,-13379.333,11514.998,4262.782,-1541.614,23415.875
211,13683.286,-6709.521,9504.182,1739.4899,-3492.4326,-634.50336,19874.212890625
212,-8930.8545,-9460.871,3752.1455,-7870.233,-2132.8708,6613.59,22328.220703125
213,-5901.997,19071.766,-7338.3765,15951.005,109.36813,6323.6216,39305.5703125
214,691.2097,-8635.67,-17479.396,-4434.7114,-1717.252,-3913.911,19012.87890625
215,-5184.0073,2187.8162,-2824.1096,7289.4375,-1322.4314,-4210.387,16135.4384765625
216,8380.966,16442.41,6629.7197,7192.7153,1116.1842,1089.5833,15642.1220703125
217,2927.6792,12594.08,3958.4639,5439.064,2318.888,-3789.6812,15248.1103515625
218,-8063.9146,7330.0557,-11432.696,14648.145,4370.034,4836.7993,32731.6640625
219,1028.0278,17196.395,3828.7607,3888.6921,2467.416,-331.69104,16968.7109375
220,12320.06,7946.475,-8748.126,4600.424,2486.6829,3521.5894,22138.212890625
221,1532.418,2592.7603,4140.4644,6961.567,693.8523,-3325.4548,13607.7666015625
222,13148.211,5940.073,-1759.4033,8973.87,-3611.6804,-2080.6694,21458.083984375
223,10584.942,-2721.749,7774.111,12562.185,1436.5042,2958.872,25562.60546875
224,-4127.4155,-2403.415,-272.5724,-1805.4031,1870.9712,-6115.5522,11986.083984375
225,-392.90186,-14182.904,-8060.2866,-5580.1543,1696.1272,4475.271,17474.23046875
226,29795.922,531.6572,-8731.763,5649.5747,-2271.3447,-2479.0847,36646.4609375
227,14377.444,10784.224,6545.4756,6912.804,-3238.9814,-8331.975,20717.3359375
228,10732.356,5049.8643,8187.1807,-3487.289,-5913.252,855.9533,12957.1162109375
229,-1539.0796,5530.793,-25320.586,-12061.601,5416.0396,-6134.2524,37696.28125
230,-5039.9077,-17698.387,-13067.063,-8256.905,4167.946,-1290.3812,19613.7890625
231,-7440.9546,581.01465,-5093.3003,-4156.0146,-96.384766,-2786.4756,11232.5087890625
232,27621.32,24076.72,-6947.2344,9417.039,2230.2905,-1744.7915,37082.5390625
233,1249.3091,7305.997,10583.853,-10816.813,1713.8988,-3899.278,21742.046875
234,8600.467,-17538.975,-6915.7495,4798.3237,1915.5823,208.1386,24467.287109375
235,-1170.7688,-6500.833,530.21606,-5765.6,3998.6956,-1183.8865,13866.1171875
236,-1362.8672,-10845.764,-671.87354,4662.6973,-4025.7766,-1521.7003,14756.1845703125
237,-5471.0347,-4615.704,9759.59,-398.22305,-5582.325,-6381.411,20875.974609375
238,9780.527,-7008.0156,1007.4647,-3699.8696,4381.342,-678.0484,17651.337890625
239,14662.545,3639.1514,8775.964,-4805.176,2364.6008,-663.5259,13365.6611328125
240,-10346.103,-0.6596681,-6655.293,-1056.5144,-1676.2621,-6548.116,14929.12890625
241,10863.699,11992.774,16990.135,-9621.184,-7859.996,3095.1172,22883.841796875
242,12604.773,-24469.744,-23308.213,-7769.096,1750.2762,1594.6951,39124.1875
243,-9983.796,-13941.272,7484.427,7860.123,-3336.118,-5626.1553,26525.9296875
244,9061.889,5618.2773,-13952.6045,-1510.6849,-1462.9951,-5203.877,23596.20703125
245,5319.9404,-443.58337,-11803.647,-7340.524,8169.83,4532.3745,25519.7734375
246,-4300.6807,8329.554,14498.625,2062.6348,1854.4393,530.0336,17303.76171875
247,-10909.422,11493.231,10032.015,-3271.8613,11025.209,787.1383,29494.3828125
248,7710.4224,14382.545,16972.256,-7695.2617,3404.582,6213.6016,19918.681640625
249,5923.2085,6738.186,205.70595,4584.282,8562.17,-81.56576,17916.830078125
250,27789.232,-5760.6177,13092.994,7983.529,-764.9404,3427.6006,32813.5078125
251,1002.69745,-13185.473,-6628.466,-1699.6274,10306.429,828.9041,21923.9921875
252,7549.8457,-18315.799,3579.482,2015.9327,2493.6394,3820.2573,25626.7265625
253,-38153.953,-41377.246,-47433.617,-2342.029,-10032.487,9745.731,25883.126953125
254,9799.661,4476.73,8525.336,-5262.5205,5066.4966,-5346.117,16401.45703125
255,-21706.29,-39964.613,-31127.785,-2051.0457,-1932.5815,1829.3187,16851.54296875
256,-19357.947,-21060.8,-19823.865,-682.1049,235.40692,198.41214,2000.88793945313
257,3915.7034,4073.4138,3969.1846,-41.057724,-173.4656,1138.6128,2000.98571777344
258,22180.871,20044.99,21726.545,2640.1252,-1204.3431,3371.747,7947.7138671875
259,-35333.156,-33230.754,-21290.982,3135.1562,-6575.171,2476.3503,18699.294921875
260,2928.1772,-8362.364,16425.594,-10104.935,1945.382,-10079.58,32932.14453125
261,-17650.918,-20732.814,2865.2495,-14471.922,-5844.195,3305.8784,35457.01171875
262,-6044.6826,-3408.5737,19350.48,-4352.509,6579.3315,6264.679,29822.029296875
263,-13958.468,1425.3564,-30116.24,1121.9235,4412.047,-1585.0684,28565.9921875
264,-4610.425,-990.4248,4710.508,1754.0734,-493.05804,-8259.939,16759.529296875
265,-7637.582,-17099.998,-11473.062,4356.6357,-3895.782,1052.1895,13181.380859375
266,-5180.712,-9587.517,19033.023,-3105.1926,1187.7738,841.9193,27344.390625
267,-14497.158,-1963.8418,-5382.9976,2145.462,514.9847,-2423.41,12575.55859375
268,-5855.32,5947.1963,-17257.56,-5982.926,3740.9192,4876.7554,24992.068359375
269,-17513.934,20199.04,-5516.856,3035.9587,-4673.401,1626.7559,34854.91015625
270,11756.568,10251.288,-14185.3,2921.7444,-325.41946,10936.897,31952.640625
271,28950.213,7169.297,4316.867,-1017.62506,4850.7456,-12259.339,32699.28515625
272,7554.349,23425.484,6188.8633,-13072.899,-2594.1184,7563.5527,31304.01953125
273,18060.252,8172.101,-7828.5596,-2070.392,302.3314,3165.7544,23562.966796875
274,-11649.263,821.5874,-9660.71,14316.413,731.3793,-5392.804,28955.28125
275,-16147.867,-8655.903,-9272.5,2013.9792,8339.395,2425.9487,17039.6796875
276,7387.1865,-3041.891,-2054.6538,7120.989,4508.448,-3309.6348,18585.185546875
277,-7499.355,-14705.808,-2320.185,-690.20935,-1897.8336,6633.4097,16134.4677734375
278,-4576.4023,2399.8037,7213.3574,-422.48566,7098.059,8410.469,21663.537109375
279,-16706.41,-1432.6299,1952.5298,4299.693,1051.9537,-1277.5737,18977.099609375
280,-11421.601,-10211.528,-1384.1206,-317.67902,-4321.072,-2160.9983,12664.78125
281,10957.953,5616.019,-8094.0166,5402.46,-1032.9484,1451.9341,19667.853515625
282,-2667.588,-5125.846,-2164.2534,-504.17758,-1700.6255,-551.66724,4229.146484375
283,3779.522,-3380.0444,3666.1785,-5752.6616,548.49506,-3432.848,13638.0341796875
284,4425.5854,2062.5889,4849.575,-1692.4497,-6177.497,3738.702,13106.359375
285,12431.683,12176.25,10251.914,13287.003,-4170.301,-4277.318,25317.064453125
286,2262.1677,-16247.7295,15924.414,-4776.0205,-6962.086,-7334.8193,34020.609375
287,919.48804,-9198.397,3984.8545,-6357.3184,2678.0757,3911.0862,18205.373046875
288,241.19312,12732.893,-5289.378,-8565.035,1292.0819,-2684.0918,22414.66015625
289,-28080.06,169.65723,-2111.3984,-11841.494,-1170.8776,-5146.8037,35256.98828125
290,-3893.8572,13552.734,2369.991,-652.08466,4003.7463,3506.742,17905.134765625
291,21578.822,-2770.0088,1396.769,-3993.2498,-5422.904,3376.2163,26058.19921875
292,10091.972,5186.7817,-15229.2705,-7509.355,271.8114,-1728.8613,26821.267578125
293,-2130.8857,-49.65979,-2503.3933,-10297.639,-1094.3184,10041.462,25088.943359375
294,-9480.155,1630.3885,-9428.497,-4359.7734,4362.2324,3989.6758,16874.107421875
295,15892.504,10655.963,8067.509,-2259.6353,2820.9668,-2761.1953,10475.6865234375
296,3811.8274,16192.076,-18934.99,13732.152,-3854.5203,4096.557,40161.3359375
297,-3631.8333,5756.512,-916.3085,1579.8525,-46.0468,-613.08057,8868.0654296875
298,5018.5264,673.0476,-4438.213,5219.0,1826.4408,-1416.253,12843.59375
299,1182.4629,7294.995,1671.6283,4889.486,3471.6604,1337.5804,12159.693359375
300,-5761.094,-1140.1064,-10822.984,-668.81396,-1743.863,1442.5144,9331.390625
301,-6766.5664,-8927.621,-16534.98,15994.742,139.23534,-465.97397,29106.4765625
302,-13246.381,1543.0718,29301.344,-2436.7427,1776.4384,-2397.2207,38003.94140625
303,-14370.089,18492.166,-19068.049,-10274.036,1304.4926,2085.98,39889.98046875
304,20435.172,12802.294,-16410.361,221.59285,-2174.4788,-695.80383,33917.5703125
305,13748.082,2114.778,-4341.95,2817.0066,-7502.41,1398.12,21228.8828125
306,5265.918,5919.588,4199.187,342.6166,-253.89627,-631.3755,2000.9853515625
307,4639.8843,4417.1675,6223.2734,-4952.7734,-1225.0922,-9600.683,18908.228515625
308,-12913.687,-14229.288,6876.907,-7327.424,5216.892,8597.112,29730.2421875
309,-17524.17,-6739.482,-741.0678,-8377.79,9074.799,-1575.0013,26115.921875
310,-3110.3455,2777.983,8577.861,4283.008,-4415.4785,-4150.091,16360.1396484375
311,6417.3,11780.866,20617.973,-7034.855,-1849.2935,-10281.126,25101.64453125
312,5562.1016,8923.024,3973.726,-2354.1365,193.4343,6494.024,12744.109375
313,-5459.6885,10352.009,-18819.266,3395.444,4625.3276,4299.168,28176.982421875
314,5076.781,14629.488,6638.693,-2254.0505,-3530.0588,6882.1953,16537.6328125
315,-10489.512,9667.063,-6449.4224,2567.1477,3305.9946,4108.1016,21079.955078125
316,9113.204,-1585.262,-823.8638,-3090.849,5333.094,-3886.8462,16315.623046875
317,16576.383,813.4883,3389.3362,-6951.2085,-6168.916,-984.012,21829.57421875
318,15639.6455,7342.631,1739.0664,-6558.4834,-3002.719,-4555.338,19106.978515625
319,13895.53,-16647.438,4547.033,-12664.96,-1885.3192,1260.635,35090.89453125
320,2016.5391,-26132.201,11434.2,-288.71985,-6325.7065,4304.677,36359.64453125
321,-7851.4287,-8257.228,-16933.084,-4569.227,2528.5837,5474.4175,15832.822265625
322,92.169495,-25688.904,-21413.555,-6792.008,8053.47,-2018.6945,30297.095703125
323,30049.771,21819.229,32187.41,-872.11566,3666.8054,-9098.995,19516.62109375
324,4697.1865,3265.6045,19545.555,4502.4487,-4329.7505,-8834.97,24392.755859375
325,20699.402,7124.452,-254.30176,6097.484,-4376.881,-1498.6427,22685.64453125
326,14400.745,1991.8873,-10068.335,-7589.1006,3053.5818,1063.1815,25558.361328125
327,19544.434,2364.4653,4838.6494,2321.0962,-4000.9744,-434.71097,17986.640625
328,-12218.492,-11584.31,-3725.2183,2711.2114,4769.7637,3209.632,13724.4580078125
329,25792.9,21308.822,12179.393,-2368.3044,-6098.25,3578.014,17640.568359375
330,-10280.356,-5901.9946,2705.4785,3930.2114,-8804.148,1925.74,20517.052734375
331,5841.6084,3261.3818,-3970.015,9045.584,13545.586,-5806.2466,31219.59765625
332,-7419.0176,-18157.795,-16512.176,-7532.144,-7686.9805,2280.5637,21527.400390625
333,10745.129,-18511.836,3123.0889,-5071.4805,-12793.491,-1283.2164,35555.41796875
334,587.837,25350.088,17789.602,4264.7954,-9041.333,-5697.4556,29669.8671875
335,1945.1649,19651.674,17821.168,-8831.702,-7507.902,9705.558,31147.3203125
336,-13325.316,-11758.307,-3164.587,6815.3745,4457.84,-975.86646,17076.1796875
337,28702.018,22498.684,17926.182,7313.4556,-838.75385,6236.593,19157.494140625
338,15139.181,-14125.154,-1348.133,9357.995,1764.6886,-1532.2025,30411.25
339,7592.125,9604.83,-8395.387,3910.6863,384.39456,-3062.873,19138.884765625
340,-18385.207,5241.036,5409.8584,-2187.1187,-3191.7322,142.17699,24641.20703125
341,-28.986328,-964.697,6381.671,162.47717,-429.12595,-146.77708,6976.1650390625
342,1081.3782,260.69922,7780.448,-3316.5999,-5052.8,-2970.2815,13678.7578125
343,-2650.6064,-15226.146,-6911.2324,1231.2026,-2565.9998,1868.002,12549.3583984375
344,-7375.6025,-9754.868,-926.3452,-11566.99,-66.92041,840.92737,21589.7890625
345,697.92395,1648.1,4721.875,8362.46,4311.1094,-10425.268,24594.296875
346,4029.1082,-7397.537,12332.82,-1961.052,-3797.2031,1370.5428,18836.986328125
347,-1770.864,-11943.095,5701.826,-3535.9155,927.2948,2369.4233,17095.599609375
348,-5241.0596,16051.0,10460.68,340.8305,-3650.9978,-5211.201,22076.724609375
349,8949.66,7086.523,-12983.446,3237.1282,-2180.9258,-2819.705,22654.50390625
350,-11068.456,-9361.045,3431.5962,-2667.937,11.028592,485.6778,14507.615234375
351,1583.9412,1337.213,2301.8528,-1637.4253,3584.3276,-161.86632,6886.05126953125
352,-6260.5244,7098.945,-1451.1289,-7604.9644,13.902649,-1514.2977,17825.29296875
353,9941.044,-2115.5068,-1200.7305,12846.055,2189.3228,-2010.8776,25626.974609375
354,2877.5234,8994.839,2665.417,-2121.863,1941.8513,3361.7961,9873.619140625
355,16062.1045,30031.705,-2417.8223,5261.76,9212.528,-2338.6516,33895.32421875
356,87.97656,-6035.785,-15228.19,4268.807,157.28891,784.6904,15325.875
357,11633.689,7404.6445,4955.5713,3844.3213,4569.427,-7075.447,17070.48046875
358,968.3732,-6302.8813,3218.834,-247.14177,837.1707,-1074.7957,8947.1083984375
359,2781.6445,2404.0269,3484.9587,3713.6377,356.2433,1026.9052,6769.08203125
360,-11290.18,6178.5176,-1926.885,4606.8584,-2663.7117,1548.28,17927.88671875
361,-5433.445,-8889.881,758.4336,1629.3123,167.73773,-1810.6349,9464.2333984375
362,6475.508,19189.281,6514.956,-1117.9285,2000.2557,-7732.6626,18875.23828125
363,-164.40608,6663.505,-6990.6206,-2791.2595,574.8957,640.2913,12861.6162109375
364,7276.705,-2503.458,-2397.3164,3270.4348,947.55,-1728.3351,11762.94921875
365,-9663.972,-8245.049,-6500.078,-11651.432,33.748283,2401.9949,20787.3515625
366,11459.391,-399.9463,5313.058,-2551.3289,1382.2902,1661.6027,11792.90625
367,-230.6615,7980.501,-6018.0845,2067.699,2128.145,1626.515,13519.9375
368,-3037.1191,-6517.222,-2802.706,-4205.6284,842.3692,-161.01831,8261.375
369,7832.936,6125.367,19216.502,-4016.3245,-3515.9885,913.9383,15489.498046875
370,894.68933,6260.1426,-714.48584,-473.26477,4487.952,-158.28246,10059.0126953125
371,1746.8015,4170.389,-1617.2784,-1496.8568,708.7404,970.80774,6033.244140625
372,5063.606,-339.76318,206.90576,790.96844,-594.70734,-161.29588,5436.66845703125
373,-2488.6716,-2113.9336,-1769.2041,-514.91406,1574.4994,933.64276,3352.02490234375
374,-2814.418,-6599.1025,-2834.8325,7207.1323,-1088.1599,4670.633,15461.9521484375
375,-15947.814,-6555.3794,-349.21143,-3969.857,1588.3292,-3576.0305,16680.4375
376,2501.1594,3393.3586,2063.587,-512.7673,-1905.9556,-1330.7798,4286.9111328125
377,6015.0176,10115.268,2079.7478,1901.0872,-2386.3096,1148.5983,8962.0107421875
378,6438.089,12859.977,13800.904,-1902.0999,2040.2363,-8276.503,16643.66796875
379,-8009.755,3557.1855,-17068.36,5335.2505,1158.0856,-4930.7593,21976.990234375
380,672.45215,-5459.139,-5645.2476,-569.08887,-1241.3188,-2951.6287,8396.58984375
381,2992.9575,3869.7886,1795.7947,1747.2797,2368.7886,4616.371,9652.814453125
382,6945.994,444.6582,4048.2039,-4993.5234,-5260.2534,208.8017,13775.7939453125
383,-4691.888,5923.5884,-2356.9692,587.1073,1726.3683,716.7303,10240.6123046875
384,-2408.1594,-2555.579,1139.9438,672.61035,11.795799,651.51227,3970.49926757813
385,-2765.5542,-893.61194,-2727.0308,340.99152,-916.48676,487.21857,2648.46264648438
386,-2862.941,589.84204,-4339.8325,-1401.8088,1169.9835,-1981.5632,6401.86474609375
387,5228.003,10249.961,7185.643,-2918.17,-620.1081,552.3485,6843.7744140625
388,-5287.043,-2885.817,-7980.13,1002.0682,-145.50685,847.945,4971.74853515625
389,6632.6406,-6997.1685,-590.9291,-4474.5767,-4830.1494,326.7492,16427.80078125
390,-1180.878,-1021.8203,-651.8705,-378.5307,-766.41144,299.16742,1637.53625488281
391,3216.9229,-2308.9756,-5739.025,3971.9795,902.10596,-1495.7793,10850.724609375
392,-15375.041,-5159.8965,-9699.742,-11557.595,-1358.0554,2861.5483,22570.2578125
393,6574.572,4615.0156,-2332.1272,11875.756,2125.3289,-2553.2988,22845.6953125
394,6203.715,10078.081,2787.5256,-5385.471,-1406.3845,1534.1425,11828.8232421875
395,-3219.096,-5119.5713,-5891.117,-2846.5486,-106.37394,370.3191,5516.09130859375
396,-789.4319,-4085.0022,-7381.3237,972.787,-1253.0135,-401.447,6373.56494140625
397,11109.793,17888.443,16936.016,-661.0153,-1837.738,3398.6858,9300.37109375
398,10577.834,8384.8545,12084.617,-4505.995,-2161.8774,-1756.2908,9724.74609375
399,9229.864,12221.422,6451.4595,5104.314,6460.147,5641.2744,17994.865234375
400,-13412.773,-11220.444,-11263.857,-5992.334,796.0482,9919.404,20236.65234375
401,4609.3535,-5942.403,-415.3388,-1539.0901,-4763.094,7818.963,18497.1328125
402,6438.395,-3314.912,7272.202,-6554.452,-4343.3477,-4720.6934,18875.5390625
403,3282.6064,6683.6533,-7716.242,2506.298,4953.17,1009.60657,16292.74609375
404,6189.606,6188.045,4358.2915,1094.1627,6332.6055,-152.53224,11283.5234375
405,13959.838,6705.9414,10791.457,-441.31247,-2380.0034,-2560.403,8770.3505859375
406,1997.4395,-156.54114,3451.104,-725.9005,2135.7783,1609.0226,5737.267578125
407,-9143.134,-6784.388,6549.154,-5475.6714,-1843.1848,972.3421,17826.236328125
408,419.0208,-1833.1526,-344.09024,1390.0583,2936.9502,-899.29944,6167.3330078125
409,-1887.1719,1888.0508,-948.3677,-2879.2864,-150.68823,-2985.5254,7954.15234375
410,7495.586,15193.393,9164.318,-231.9658,4029.552,1013.0636,10057.2109375
411,-7019.69,-16223.545,-12008.738,-9913.076,879.72504,-2258.24,19393.58203125
412,-4454.1562,3727.1963,-7545.3945,-244.12529,3663.9717,-2110.0,12473.5703125
413,7476.4355,-1656.1401,3349.8416,3146.1587,-2955.5627,868.9481,10996.0224609375
414,-1187.3342,-4261.6694,-8843.046,-3998.7764,5408.0947,-1367.553,13632.642578125
415,5716.6787,9675.219,3277.9375,1913.9238,-347.22385,-315.02176,6551.34130859375
416,4724.111,127.37201,-1759.5862,2286.939,-4034.254,1512.5123,10234.423828125
417,2098.9658,15997.699,1312.3604,-2817.3323,1510.9946,-4158.2544,16948.775390625
418,11239.479,9759.428,-5900.8086,-466.2512,-155.27396,6499.262,19951.37109375
419,10109.384,11097.892,12873.534,2642.2485,-1949.2046,-969.00214,6406.62255859375
420,742.0006,-5394.2236,1722.6576,1448.1498,-1270.9452,523.4267,7522.74609375
421,-2671.6184,1557.5925,-5926.9414,-872.4396,2067.0615,-6600.9263,13713.8310546875
422,-527.1198,-1343.9401,3257.0466,778.0413,-127.80044,3278.3982,7224.044921875
423,1914.4761,-9941.215,-715.4717,3169.826,-6130.902,-3517.5308,17213.962890625
424,4625.315,-4375.6304,6213.1387,-754.7419,3544.7275,-4855.3613,14420.74609375
425,3802.097,4464.8174,3001.8735,-2992.7197,1635.9004,254.00342,6058.1396484375
426,-1174.3405,-3965.782,-2775.1096,973.30054,-668.2113,683.2677,3386.46997070313
427,1145.7722,2615.1902,-1031.8262,1082.4802,270.8463,-634.38214,3878.609375
428,2662.081,7088.685,7667.6025,-1707.8904,323.5655,442.2512,5669.578125
429,5918.402,3689.2393,5915.82,-3962.8596,-127.898735,-918.9784,7393.16064453125
430,7276.2583,382.44843,-3538.746,459.7549,5591.7393,-591.31854,13616.8310546875
431,18069.469,5656.694,10897.046,3847.3928,6745.338,-1620.4696,17472.11328125
432,-6755.381,6809.0146,4825.221,4015.6145,-2398.6416,-2064.417,15473.87109375
433,6969.3228,11108.025,3830.6826,-3126.3557,-2023.0305,1893.9111,9608.890625
434,4230.5312,303.54736,2248.0593,-6037.631,-1066.0365,1160.1488,11330.15234375
435,4924.1855,2313.188,-5910.462,-1033.9293,-3129.8428,1195.1259,11523.7763671875
436,8500.398,13866.236,12622.626,1863.1428,-3810.314,-3621.5288,10815.8017578125
437,-14495.68,-3364.7502,-12759.118,-7024.412,-1809.3575,5962.405,19289.451171875
438,7912.3154,3311.505,3484.5676,432.3124,464.39102,354.19772,4688.83837890625
439,587.3161,1818.0964,-2780.374,900.8384,1499.9974,320.81223,5147.2626953125
440,-6816.5107,-312.3874,470.51077,1522.1426,-111.90305,-379.39926,7445.0498046875
441,1933.2028,7190.747,-9655.973,988.1736,-3772.1792,-1043.9133,16485.390625
442,-3836.1616,11458.83,3371.8738,-5327.924,381.398,727.0107,16211.9716796875
443,-4739.623,-2731.4019,-3440.567,999.88837,-8.6991415,293.94403,2523.97973632813
444,-8377.945,-8159.9634,-4603.342,2537.894,1039.8427,-326.08932,6029.75048828125
445,-1384.805,1741.1012,-2438.6804,-4414.9326,115.76401,-313.07043,8543.1484375
446,-10313.945,8111.6147,-63.880077,-2125.0417,-2818.7092,5765.749,19819.59375
447,-9417.462,-11389.047,-172.65794,-3635.6814,1515.4756,1814.456,12806.3173828125
448,-1171.5186,648.8808,2725.6714,2930.4744,-4179.119,-1558.757,9841.484375
449,4688.8867,5143.369,-1408.4342,4461.9644,107.476814,4354.803,12522.37890625
450,3065.3286,3219.788,4339.5903,749.7342,-992.8226,122.31276,2477.71142578125
451,-11.795396,-8145.611,634.59784,-3930.566,-433.81665,-1684.1793,11280.798828125
452,-1049.4836,2898.065,5761.539,1113.9536,-1184.0817,457.2731,6606.2431640625
453,2122.6143,-5140.4624,-1854.7635,496.73224,215.35751,-1581.2206,6932.8173828125
454,-721.72925,-3519.5068,2501.757,1778.289,-713.9506,-310.4187,6208.2373046875
455,-6320.6616,-25541.91,-11583.12,2077.9817,-4081.1162,-1951.5458,19244.349609375
456,11611.7705,497.1401,-5980.3955,-1173.0417,4135.2646,1924.4703,17436.42578125
457,-3883.6213,6333.857,-7596.044,1126.921,-2580.6582,1058.6063,13537.419921875
458,1104.1376,-3035.3918,-12689.198,-3219.639,-1368.297,3029.9773,14647.5634765625
459,715.67413,5051.579,-1061.0188,-960.2193,105.82598,1332.1782,6146.87255859375
460,6329.0063,3002.3267,2631.2976,-3460.2083,2294.1213,787.89294,8124.603515625
461,-12447.792,-1028.304,-2908.7808,-31.527836,1994.9688,133.53262,11156.2978515625
462,-20949.592,-40478.445,-11609.724,3768.509,-2918.2866,2377.0547,27131.375
463,12793.176,13193.227,10435.112,341.42023,-764.6514,-912.61115,3356.51684570313
464,-4400.327,-5623.877,-1856.1378,1673.4796,3.43456,-157.6802,4422.57177734375
465,-4379.359,-7055.082,877.60065,887.1328,-162.68118,-1000.09906,7369.0087890625
466,8985.72,-3413.1958,3760.3284,-8312.858,4356.324,2283.9006,19903.28515625
467,7218.7393,-1210.9727,6471.46,-6746.9463,-2323.7861,1898.9536,15129.4736328125
468,10509.256,6167.117,5028.107,3341.983,368.5331,-3256.8247,9530.5810546875
469,3292.7395,2598.4897,4353.779,-57.735313,110.72725,85.76652,1553.46801757813
470,-1809.1006,8134.4087,-783.4433,961.57495,903.90533,2130.9521,10419.9140625
471,-1261.8918,-7062.4033,1284.2516,632.0863,1308.0857,-1328.9346,8156.4560546875
472,-5695.2715,10798.374,-10318.273,-794.3868,6732.8496,7363.1514,25888.17578125
473,-1199.1746,11175.143,-2482.921,-5293.731,1046.8557,240.982,16068.2890625
474,1586.5543,2586.0903,-8158.919,-4973.5615,-4923.4727,-1899.6985,16231.8056640625
475,-6934.1406,-6870.6255,-7040.0015,1560.5406,-482.31885,-1139.4481,3452.64331054688
476,5847.82,14986.803,8379.201,-741.0279,2847.1174,-921.3978,9762.5390625
477,2222.092,-1885.3407,-10071.379,1274.9585,1427.9642,-604.7546,11384.0595703125
478,-6860.2075,-4760.167,-51.043476,-7723.492,-1817.5059,-347.1061,15023.44140625
479,2572.8406,2998.9182,-7791.8545,-1279.3762,-402.36707,-254.53358,10845.0498046875
480,2722.4258,-2471.6135,4731.1357,347.72128,332.9623,-301.1078,6512.572265625
481,3563.8052,-3786.1626,-238.17262,1344.9224,-456.13345,981.75024,7033.83056640625
482,7079.741,8270.6,4831.753,-2956.9214,869.2251,-664.89075,6242.72998046875
483,2223.5059,-2284.6506,-5299.0225,148.5357,482.718,951.3687,6817.603515625
484,-2724.5005,-2283.499,-3377.661,-3062.723,3977.2231,-1129.298,8962.74609375
485,-3181.9158,529.8809,-2339.0908,1631.4639,2213.856,34.9133,5835.37060546875
486,3170.272,-9338.163,2135.2449,-3917.35,-1012.43567,1960.7355,14325.888671875
487,1323.7251,4615.389,663.6999,-2789.6763,308.05704,1475.2357,6603.31787109375
488,3068.6897,7500.934,7579.663,-279.50067,-221.45583,-1164.0011,4944.3017578125
489,-13544.622,-16434.559,-3607.0732,-1573.3999,780.91034,410.76697,12065.9814453125
490,-11556.88,-13312.084,2321.8472,-171.38089,2296.4253,291.0857,15369.5419921875
491,-2326.7844,1875.3749,4359.2896,-1204.585,1231.6401,-5291.699,11277.2294921875
492,2660.9336,-7273.7236,3135.9226,-4090.9395,-707.9273,-647.619,12514.4306640625
493,-1696.9718,-11599.902,-7177.7393,-6127.898,-941.4568,-1096.4836,13883.458984375
494,200.50568,2549.4927,-3075.5579,1012.5507,372.34015,-943.02826,5486.8349609375
495,-10234.014,-7141.4717,-9026.566,-4172.0806,3282.8806,1312.2427,9849.0751953125
496,-11651.281,-4962.4185,-2865.9873,627.75745,-188.24643,1317.3635,8345.869140625
497,10758.515,-3148.7778,-1230.1268,3626.9998,341.5053,1548.2358,14745.072265625
498,9972.006,-2648.2688,3880.6917,-10224.325,3914.8652,794.88495,21931.390625
499,4758.981,-754.4946,2477.5466,84.59361,-339.48477,9.556397,4836.55029296875
500,-4695.2534,-10955.687,-2751.0664,989.39246,-265.2537,-1090.8738,7865.248046875
501,-8401.764,-2674.0125,2929.0845,-597.81683,1107.4841,1821.9879,10535.919921875
502,2977.4797,-13965.5205,1799.6869,-4907.604,-3518.748,-1864.1376,19705.8515625
503,1211.963,-3343.0786,-4143.629,-2702.3853,-3269.9023,-121.63086,8891.88671875
504,-7929.828,3843.8303,3269.529,1712.8245,-243.3617,2106.7085,12429.033203125
505,369.9548,16345.986,4163.0586,-1205.8937,1746.6826,-177.164,14920.853515625
506,-663.28174,7870.0874,-657.671,-2418.24,4077.6152,262.97256,11849.15625
507,8265.105,2804.9478,1542.5562,192.29735,495.716,-783.6719,6402.37255859375
508,2419.3765,-1745.4459,-2974.5864,-489.49463,-286.6046,642.6805,5116.6435546875
509,-4816.2354,1741.2872,387.43066,1266.4572,489.83994,-494.16873,6497.71240234375
510,-1569.4056,6909.7153,5312.485,1572.0314,-4428.84,-1269.3082,11488.8935546875
511,25.753508,4384.656,-319.9101,-1591.0847,-422.7596,-1088.5544,5684.3564453125
512,1324.1969,5032.721,1410.341,602.5588,-1121.0667,1648.6016,5143.380859375
513,-6680.586,162.06763,-136.23029,-471.95685,-410.4695,-362.37503,6814.4970703125
514,-3751.68,10837.529,2283.7285,538.62976,-1604.5826,-928.1512,13130.0478515625
515,-20448.336,-8293.451,-2590.0427,-1098.3585,478.33853,104.85797,15935.2734375
516,5105.2188,-575.8377,8681.141,2700.2498,-796.5338,-534.67365,9487.4501953125
517,-3571.718,-4849.3423,-202.11964,-1693.1674,-1219.5443,-200.81543,5520.40673828125
518,-5910.4116,-15867.727,-17922.688,-1366.9948,1785.0122,-2945.2153,12846.033203125
519,1664.7618,-5525.6226,7582.648,-1439.8907,-1625.6478,2568.1392,12775.3251953125
520,-6133.4985,626.02734,-4981.078,3009.4995,-409.93304,-560.19275,8236.8857421875
521,2895.9927,-5574.8257,3600.1836,-4338.2534,6216.046,-125.866486,15831.685546875
522,-2970.6853,-4333.408,-4664.187,-1214.5864,-316.04596,-15.601676,2672.68286132813
523,6710.717,506.66684,10504.35,-570.5166,-996.44354,-1025.3103,9139.294921875
524,-9644.175,-14975.004,-2855.927,-5203.7983,1946.0845,-2957.5408,15150.130859375
525,-4955.5835,-5450.249,4372.9956,-1269.3369,565.5886,-11.875683,9883.083984375
526,10130.612,11140.257,1529.4429,-3616.1194,1.4613779,-1196.2428,11278.544921875
527,2434.8198,3799.1172,773.21014,746.8652,-334.4266,69.27407,2985.38549804688
528,6883.096,4255.8896,5928.848,2545.4636,-3271.5889,-1891.1732,8220.9150390625
529,3303.7632,9814.96,5514.0527,-494.46054,-1560.4313,-1429.6388,6859.9814453125
530,-6164.13,-7608.433,-1838.1542,3948.3147,-2170.8748,-1663.5116,9810.9921875
531,517.5085,-5178.081,1886.6575,-3594.382,-635.36456,606.08563,9120.5400390625
532,-727.8959,-3596.1316,-2737.1748,-1421.6769,946.8079,711.2314,4095.2744140625
533,8589.344,1719.9828,-1561.4205,3034.8208,-457.72934,-332.93802,10444.537109375
534,3685.9343,-6075.719,2919.4094,384.84308,327.95847,-600.76105,9499.7158203125
535,-11775.6875,4243.056,17.318987,-1430.5605,406.19138,-406.9053,14625.224609375
536,-2884.7366,10186.185,-405.08975,7196.1665,-753.97076,-1632.5253,17596.63671875
537,6359.614,2172.5486,2671.9622,1226.8757,-5365.2544,-444.20764,10351.5869140625
538,1665.0072,562.6899,4398.1714,-514.5097,653.00354,2.2707574,3711.0
539,-6598.022,13066.885,2966.6414,-5607.4146,181.69409,59.332283,19609.7421875
540,-448.2818,3393.268,801.15924,3505.6272,-2164.6887,213.28008,7910.82666015625
541,-8406.882,-2450.5552,-4400.159,3097.1892,-1948.5541,-924.9435,8390.5419921875
542,9224.2295,-7637.044,2151.734,-1868.4132,2445.9316,1311.8018,15768.7841796875
543,-6566.117,-3104.3171,1327.4193,-276.793,-145.26297,451.03537,6918.78466796875
544,8669.135,-5115.2407,-3622.858,-221.82655,-576.0407,362.43942,13160.6171875
545,477.42337,-14137.816,-2277.2578,-4627.607,704.30035,25.049757,15705.6484375
546,3941.2544,-15788.841,-2715.2402,-1423.4221,3883.0598,-827.5858,18857.884765625
547,-11428.022,-3700.1987,-12508.21,-1139.3394,2581.7295,750.20276,9737.1572265625
548,5008.717,-645.72675,-203.89041,-3282.057,79.15104,-920.2209,8033.96044921875
549,-4187.3315,5603.966,-2429.881,410.44632,-1397.5336,-208.08768,9393.8818359375
550,-1960.1089,-6186.3745,-7935.057,320.9866,-3832.7778,1384.6654,8856.701171875
551,9321.278,7467.1216,9000.898,-3093.2717,187.13255,-383.34262,5674.2763671875
552,-15361.554,-14040.184,-8504.518,-1610.113,-29.580992,-114.47739,6893.7373046875
553,3105.4453,5251.7495,515.36035,-2616.4111,261.90115,2264.436,7280.10205078125
554,1983.9904,2766.8435,4034.7021,-114.67004,142.5452,-64.078606,1823.62133789063
555,11426.985,4029.0024,4366.641,-967.4093,-4459.6675,776.87274,10799.5576171875
556,10286.52,9164.967,225.54866,-86.92075,1101.1361,5.457686,9739.474609375
557,10097.348,8540.112,1582.7762,2219.4878,1859.7289,-165.33994,9322.0107421875
558,-6008.4663,-7103.318,5663.7944,-5781.2563,66.65814,286.39575,15835.0224609375
559,-3597.7336,-4621.543,-1899.3932,-7239.4287,-1196.0946,1119.504,13074.8271484375
560,1559.4816,1440.6754,-1722.3445,-2546.2239,583.985,-2680.882,7240.77783203125
561,4149.9463,-17.818104,2103.3257,1688.1396,-631.6806,903.1866,5022.2333984375
562,6084.4653,1331.3405,-1988.2212,-30.505096,-665.11774,424.57587,7159.658203125
563,4244.144,7534.9453,3383.2834,-1282.5796,1051.9647,-265.0003,4782.1513671875
564,378.3021,1558.2949,-2257.4238,98.91048,510.7902,-627.2713,3666.33984375
565,6144.095,-1689.5785,2773.142,-3558.7747,-622.8732,-39.827198,9245.8701171875
566,6906.0625,-0.53231776,1553.0574,-2609.2273,-122.44132,-372.82886,7763.4306640625
567,-8271.876,-8934.655,2468.4482,-5548.5054,-545.3921,4408.976,16567.42578125
568,-4560.6777,-6839.921,-1287.2004,-8996.535,-1478.3408,-1500.8114,16718.205078125
569,-2794.9016,2582.6594,-2837.3801,-5277.774,236.40591,602.22485,10675.6162109375
570,-2825.5752,6582.8003,-534.132,-5050.69,-340.69818,-3653.9111,13752.79296875
571,-4921.767,-9355.009,-6803.596,-1363.1082,-625.76794,2719.1836,6616.8828125
572,-604.5866,-2048.8367,3791.4915,-3020.7258,1259.1953,151.47853,7743.404296875
573,3072.8315,4809.2485,-7300.269,-5686.387,-3711.384,-531.7282,16364.740234375
574,1419.166,8817.227,1643.0884,-2352.0254,-878.0204,-1359.7743,8807.9873046875
575,-3297.1702,-5113.6343,-5913.8145,4831.6016,-2958.184,2609.226,11050.03125
576,-21047.541,-3464.9116,-4665.8794,-109.12199,5169.1865,-2947.0386,19892.896484375
577,5689.101,6659.8945,8689.289,-11698.065,-3454.992,-1882.3392,21540.79296875
