Element Label,S11,S22,S33,S12,S13,S23,Mises
1,-18622.395,-28294.611,-37524.72,1979.4198,-949.07623,-3072.4932,17629.505859375
2,2196.0073,6071.376,-3051.5068,-683.0937,-4795.525,2899.732,12589.96875
3,21631.781,32939.258,39061.492,5954.956,-472.24408,-5041.7065,20442.05859375
4,-20491.582,-31929.246,-35966.242,4703.3774,1926.6035,5241.6016,18794.017578125
5,13763.738,-10768.615,10140.685,-4756.9126,-98.80765,-2885.1394,24879.044921875
6,12623.044,28027.809,23758.428,-5647.4326,547.5813,1260.3359,17061.97265625
7,-23339.828,-8362.619,-19537.33,-3497.5012,4765.399,-4340.283,18524.6796875
8,3725.6826,17333.55,27796.584,7707.626,162.16116,-430.65457,24817.060546875
9,-1430.3008,-19539.02,-22332.068,10225.171,-821.03064,9882.75,31543.560546875
10,36978.66,8993.551,29507.1,-4423.5283,-1893.0109,-4005.6523,27340.212890625
11,-14586.482,-6372.6885,-19981.057,2948.4941,-1177.4009,1381.0581,13298.09765625
12,-11455.039,-3467.494,-5984.1523,15694.599,164.87015,-2806.8015,28508.064453125
13,9079.33,7456.726,20809.918,13949.288,-773.6163,5864.85,29120.548828125
14,-15311.566,-43318.492,-42919.844,9033.944,2173.7527,8203.896,35132.6875
15,22512.275,-19364.686,4592.8984,3777.1255,-1267.8304,-8713.726,39997.3046875
16,-304073.12,-293790.78,-310513.16,12284.599,9875.505,-11535.474,36850.125
17,-84630.375,-72094.15,-101891.47,-8157.5854,4557.705,12302.035,37248.734375
18,20877.227,20676.373,15552.613,-1233.5851,-2250.4456,-10359.868,19210.978515625
19,128866.06,129060.414,127911.336,79.99043,-961.5162,156.21118,2000.19226074219
20,25107.418,50674.574,19250.648,10495.2705,-7003.764,-327.4464,36271.9453125
21,-47273.586,-28731.682,-56905.312,6211.7646,-10388.939,4708.6553,33484.703125
22,-47025.527,-14741.557,-37719.156,8614.29,-2263.2625,4971.9395,33772.2109375
23,-11727.841,27705.342,17305.088,6964.405,5736.455,3913.7712,39283.69140625
24,12479.546,2321.2568,28912.404,5136.4907,-1831.4058,-16873.045,38515.85546875
25,-11494.599,1385.8674,-10010.511,-7034.4556,13172.548,-7810.464,31638.615234375
26,-47943.297,-24952.088,-35646.746,-15025.343,-12037.813,-3562.1228,39334.0078125
27,-10624.877,-15700.022,-34066.234,-1665.3657,-8936.448,-15259.481,37453.19921875
28,-3643.4395,-14034.989,-13921.965,-915.7497,-11188.839,18734.295,39215.17578125
29,40972.04,7174.918,28665.88,8180.659,10717.316,-1359.6244,37797.77734375
30,8703.638,3882.5063,8388.479,5768.212,-9436.74,-5464.4873,21871.85546875
31,-37562.44,-23101.195,-45566.863,5611.638,3532.775,-8855.09,27497.328125
32,-14373.321,13972.414,7975.8164,5022.1943,-2310.1047,4550.832,28692.66796875
33,-37352.574,-5328.6523,-16034.55,695.016,-579.6111,-10145.051,33294.53515625
34,23698.25,15070.358,1935.8545,4346.081,4961.169,3002.12,22755.697265625
35,4478.9575,2973.7668,9184.666,6300.71,11929.317,2924.5552,24559.6015625
36,48499.97,30740.309,27179.75,-2747.7107,-92.847595,206.77242,20349.970703125
37,7457.0327,-12997.357,-2707.8286,10342.517,6093.0938,6665.465,29653.9375
38,-44123.477,-42096.79,-24244.887,13003.49,-5658.0376,-10982.201,36388.4140625
39,30619.021,8809.316,49535.992,2929.1458,-2229.5454,-3394.0398,36349.68359375
40,-23502.998,-33725.66,-22063.473,-14999.518,10349.064,-3880.0972,34098.71484375
41,-20447.715,-6646.845,14226.477,394.84668,-2375.2092,5769.0415,32116.46875
42,-33807.363,-18038.621,2146.1816,-5817.192,-4043.5708,-9842.875,37624.26953125
43,-276372.72,-276085.1,-275511.34,-123.915764,651.6125,823.44727,1982.67504882813
44,-5760686.0,-5761442.5,-5760804.0,1074.0323,102.99919,68.529495,2000.87512207031
45,68952.05,70048.766,70540.37,-666.72064,281.8105,386.26236,2000.75219726563
46,-17971.225,-24071.574,-30735.158,-4460.413,-9028.744,-17128.842,36148.3046875
47,71369.41,84572.96,84886.516,6396.907,6624.6226,-14631.594,32790.8671875
48,-13200.268,-20552.064,20062.012,2326.6155,-1116.8381,1753.4739,37870.453125
49,58818.586,49007.78,81673.73,4238.4937,-4048.136,-2342.719,31021.900390625
50,-59929.08,-19023.846,-37798.89,-1378.4072,5599.624,-3292.2969,37283.078125
51,-6984.9023,-29139.465,-23140.055,-8005.6,9010.559,13676.657,37294.7109375
52,35824.38,31061.068,32548.324,-2128.315,16100.003,-7470.9907,31248.734375
53,33019.023,24264.264,11657.731,-8647.228,-4620.7754,-17291.36,39131.69140625
54,-82691.28,-64115.31,-50779.676,-7457.7856,-6300.466,-12432.156,38990.34765625
55,-31749.166,-50915.08,-62081.246,1646.1924,4219.891,15035.662,38023.55859375
56,-38286.164,-58196.223,-80359.34,395.75665,1100.0037,7894.512,38986.578125
57,63525.758,42031.895,52429.055,1057.301,-15591.565,-7777.5225,35506.703125
58,-83173.125,-69133.54,-75761.3,-8045.7896,-13586.253,-10757.171,35257.61328125
59,-30027.154,-4385.6562,-5530.17,15270.383,-5984.2256,1123.8094,37950.29296875
60,-94526.55,-110201.11,-70199.99,-9610.663,886.88727,-1815.5582,38834.57421875
61,69197.56,94391.41,104965.7,6924.1616,3988.4531,-9977.4795,38770.5859375
62,-5519.531,-5108.308,-20874.498,-4760.2817,-436.27374,5047.2856,19678.302734375
63,-15164.768,21070.967,-18707.93,1753.2,4810.4307,2274.5828,39346.33984375
64,64425.402,70825.22,103072.16,-6862.3657,-2392.0564,-3037.7705,38383.89453125
65,-110262.35,-113899.36,-146267.55,-6810.743,8733.16,1915.7646,39466.74609375
66,77048.22,59384.957,87136.52,16768.504,-5123.91,4853.308,39811.20703125
67,46140.324,16762.453,52553.414,919.4031,-4904.2817,-4186.6294,34926.5703125
68,-44857.516,-40698.902,-49906.12,-14728.058,1919.6061,-7828.6,30156.9296875
69,-155210.77,-133686.47,-153734.0,5922.6216,4462.77,-5244.638,26099.61328125
70,-41911.996,-20162.664,-38634.75,-4608.879,3519.28,-7902.212,26470.96484375
71,50392.055,34131.926,72403.35,-2558.811,-4244.9937,-2498.7593,34629.890625
72,154282.31,128316.85,134764.72,-9742.658,1663.0859,2972.8843,29460.62109375
73,-87783.91,-64174.453,-95902.32,4471.2373,6048.4414,5708.186,32900.80859375
74,-691179.56,-678270.4,-694417.9,-13607.138,653.86584,-562.03534,27868.091796875
75,146500.03,125272.44,119419.34,-405.07962,7677.9746,-4485.463,29100.185546875
76,171311.23,179871.33,156467.28,189.20285,-1136.0823,7921.674,24757.259765625
77,-27654.17,-13952.338,-21826.666,-5145.976,4516.005,-2847.918,17516.0078125
78,-6755.4795,-25471.654,-16423.525,11952.875,-1098.0791,-227.87996,26366.7265625
79,12796.428,6863.117,-29058.54,3929.997,-2943.646,-544.9003,40148.78125
80,-35077.926,-9775.888,330.44043,-13105.905,-2315.504,713.72406,39127.33984375
81,65066.695,33261.977,70750.94,-2544.9663,6102.1313,3688.4834,37370.9765625
82,415159.53,381488.28,389277.16,-5921.927,1173.9386,-11078.143,37545.65625
83,-172944.98,-201456.23,-178518.94,-13645.195,4255.5977,6976.4214,37999.41796875
84,-38625.19,-64184.414,-31885.46,-457.84875,10869.254,-7813.117,37538.5859375
85,189793.69,190841.77,217451.64,-530.01324,-6077.419,-11511.702,35302.67578125
86,34498.66,-2901.1846,2826.5178,1020.52716,-4616.603,7304.3794,38006.12109375
87,-20689.318,1818.3553,16776.447,-3043.521,7789.905,-7116.657,37799.328125
88,-41091.32,-49248.434,-48179.83,-10262.015,15307.475,11256.255,38183.19921875
89,17874.648,7481.752,44628.562,-5619.0127,565.5404,9389.836,38236.38671875
90,-130851.96,-130009.62,-159146.22,-693.8654,-9274.936,9108.872,36517.671875
91,14692.761,34768.984,20048.672,-7578.372,10987.382,-2524.9924,29627.751953125
92,-54481.152,-31470.85,-12276.289,7635.213,-2246.1511,229.49512,39112.15625
93,-5416.726,10141.253,-11740.952,-4212.6436,-5538.2085,-14378.651,33851.5859375
94,5759.295,-5231.2183,18862.123,2362.2834,9330.208,1742.2477,26897.732421875
95,26623.705,-10734.436,14140.637,11439.475,-5393.191,-288.06982,39562.69140625
96,45654.13,65407.008,44497.33,5018.234,-7113.999,-3698.2146,26129.865234375
97,77383.95,82275.94,106815.45,197.64503,-8335.575,-1808.9065,31057.12890625
98,-69350.52,-78093.86,-100824.44,1308.7416,-5534.315,-10708.59,35112.8515625
99,-3611.9214,-14877.716,-28458.621,-17391.803,-1640.6886,-236.01172,37148.703125
100,42400.99,67404.18,23791.014,3732.808,3800.9282,-3537.3787,39490.26953125
101,16950.023,11461.101,49408.848,9672.552,889.86664,-386.87543,39311.15625
102,248.16797,7193.3906,41972.312,967.44507,2194.7683,5249.86,39991.234375
103,-38701.895,-33789.92,-28444.299,4720.626,-3613.461,-2369.0518,14206.4130859375
104,7549.826,25471.145,29269.457,2553.9644,-7205.3843,-440.4767,24074.35546875
105,-43845.824,-17948.314,-12450.667,3290.2058,-10291.756,8607.878,37627.17578125
106,-12968.8545,-1850.5195,16626.62,-13380.548,6497.8203,-2427.0183,36768.3359375
107,15933.255,-5177.927,6720.8613,10161.891,16580.62,-2429.548,38578.70703125
108,2889.8538,5869.819,8885.372,3216.1033,-3753.6123,-2390.4397,10835.19140625
109,12302.569,588.4053,8746.417,-9237.716,-4074.5176,1440.3116,20499.884765625
110,155439.47,158613.08,173163.67,-13906.511,-10361.299,-10059.748,38390.203125
111,-83384.836,-91771.945,-76690.43,-20738.719,-905.0796,2213.3652,38454.4296875
112,48196.965,36181.57,62213.26,-10568.43,3489.3386,3776.2493,30391.107421875
113,-68178.586,-66678.414,-103526.5,-4429.139,1218.391,-1884.316,37130.9921875
114,-61524.957,-72897.38,-92880.86,5308.729,4392.6196,331.87418,29978.251953125
115,65604.336,48156.73,92912.414,-4223.732,-982.7019,2345.4062,39994.12890625
116,160681.89,132241.16,153066.9,8323.922,-645.2723,5867.469,31027.10546875
117,-128106.45,-154996.58,-136329.2,10215.642,-10284.115,2358.9253,34880.40234375
118,1433.1012,666.0355,487.45917,471.28384,123.82627,-919.1126,2000.97155761719
119,-157793.58,-157682.44,-157393.88,-139.71494,-148.47818,1116.8429,1998.60046386719
120,8515.835,47201.676,42271.31,807.0263,-2844.2766,8880.067,39911.875
121,-11457.983,-11011.996,12515.158,3727.4028,16437.723,-4053.3477,38285.5625
122,-79236.81,-54050.71,-35872.438,926.4051,3929.6553,-5818.432,39662.234375
123,-43706.477,-38628.633,-26712.898,-20386.61,1084.8523,3616.9148,38960.16015625
124,16382.775,12647.41,38515.562,-5175.6016,4357.6865,-4469.486,27995.4453125
125,-706657.8,-707501.1,-706389.4,188.76144,116.54958,-908.59924,1906.28259277344
126,45241.805,61158.08,75307.125,-4956.9004,-9374.44,-468.03046,31886.259765625
127,-45599.715,-42369.04,-38534.938,5338.749,-12393.793,12290.374,32202.630859375
128,-12078.988,-35705.21,-6303.5635,-519.7095,-2172.2727,9607.632,31935.744140625
129,16394.281,11155.519,42715.344,-8987.322,7826.8564,9675.011,39560.65234375
130,282702.2,252066.22,293522.25,4447.511,-950.0762,2779.4263,38371.13671875
131,80796.76,54686.406,94654.86,-1837.0394,9415.152,-4715.6064,39729.1796875
132,152691.36,183009.06,153458.19,12432.091,-264.04993,-4822.015,37817.1640625
133,-211342.25,-175199.27,-178102.28,3679.3208,3675.2612,-5762.4253,37290.35546875
134,-230682.58,-249379.3,-256022.39,-13803.067,-8833.665,-962.1755,36419.1484375
135,65172.53,64278.703,87954.23,3501.7402,6079.142,8137.1724,29773.5234375
136,33416.4,37648.918,16579.201,12443.481,1140.9332,1458.0663,29111.388671875
137,-2553711.5,-2554436.5,-2554837.5,-860.5538,-224.4777,466.83298,2000.94458007813
138,-26208794.0,-26209190.0,-26208170.0,847.6281,455.42044,-380.97366,2001.59008789063
139,19933.771,21895.426,55515.29,-329.58536,-6666.5806,-3910.8525,37143.42578125
140,18422.81,46163.074,48488.043,-5500.6465,-6615.455,-5726.42,34056.7578125
141,5311.4683,-26172.025,9296.303,-2085.7437,-4306.7744,-7621.376,37087.703125
142,31866.645,28923.379,44314.23,-4075.9365,8873.438,3880.1682,23053.46875
143,-173912.5,-135797.03,-169782.5,-7980.36,-3892.4785,-3465.367,39811.65234375
144,42513.184,29509.152,47728.055,-16753.055,6456.894,10010.805,39138.62109375
145,-81049.74,-99522.8,-119649.16,-2690.381,10824.013,2528.108,38864.96875
146,-52.391567,-10694.969,-2366.2334,-5668.449,1297.6038,3063.6174,14953.1142578125
147,12989.545,20623.305,46685.38,12879.937,2632.7307,-4354.815,38882.16796875
148,-32841.188,-12862.646,6096.348,-9861.984,3069.609,1529.335,38267.7265625
149,24427.25,32299.803,49899.402,17457.156,-1160.5924,5704.2383,39066.4765625
150,5634.9707,10144.763,-11706.26,8344.364,-1453.8494,-11927.496,32268.92578125
151,10708.72,-29790.012,-674.72766,4064.1482,-1624.4669,-111.17209,36962.421875
152,746.11884,15954.847,28837.564,-638.8557,314.93878,16631.73,37743.41015625
153,45549.168,40081.332,34117.27,-6929.8403,13606.757,-15407.54,38855.5546875
154,-27679.822,-68577.65,-48650.484,3632.4546,5820.0005,1200.0465,37420.15625
155,7022.783,35452.316,46615.89,9818.988,4023.7014,-2723.604,40128.55859375
156,-2553.7266,-5852.185,23767.926,15115.992,5055.3394,-3469.7158,39859.69921875
157,-32517.238,-33204.76,-12963.193,14637.172,2638.4773,-6030.1167,34190.484375
158,-7887.135,-28367.287,-27610.408,5947.205,2809.218,2397.3164,23484.734375
159,3255.7861,-10716.476,-29421.697,4128.836,14779.894,787.5616,38920.45703125
160,-368446.88,-354961.7,-341769.1,17035.62,-3125.3818,-1314.0629,37933.109375
161,-387066.56,-385347.53,-402258.38,3887.86,1441.9324,-18886.67,37169.3984375
162,-31594.36,-45607.508,-10798.395,-13849.626,-3559.089,-2875.779,39477.91015625
163,28233.932,35491.37,70249.55,-3952.7373,2486.8706,-2386.6123,39944.58984375
164,5582.6797,22548.664,46805.492,6575.5815,1504.7352,-7462.3164,39891.671875
165,78258.92,96905.57,107739.164,-4719.2393,6864.0293,-12515.402,36676.1328125
166,-20918.652,-55293.707,-42900.836,-2409.1277,13012.964,5094.3584,38890.91015625
167,-15951.82,-23086.86,-1883.6537,13469.157,-1457.6332,-2573.3098,30326.447265625
168,4152.039,-878.0498,-31211.14,10751.925,422.0059,2598.4224,38282.86328125
169,-807.7168,11623.752,21644.975,3469.544,3693.748,-1412.1041,21507.474609375
170,2461.4375,13952.719,41928.61,-4361.9146,-3211.6377,-3656.4016,36936.55859375
171,-17754.36,-10140.261,-14691.314,-16995.729,12432.7295,-3218.334,37488.53125
172,54007.082,41461.383,19749.354,3831.8752,634.17053,-13689.023,38841.00390625
173,5892.826,-6087.0356,-2405.1016,-7203.0825,7212.0303,-42.224636,20607.361328125
174,-10129.304,-28572.32,9649.114,1403.1428,9562.884,780.45905,37123.90234375
175,18230.525,5152.859,-10391.85,-304.45816,-1195.3289,-4145.134,25924.173828125
176,-14908.917,-22264.53,-40321.89,-15253.484,88.24237,629.2867,34816.86328125
177,-8434.379,27762.521,21299.914,-3642.3467,-6000.438,-4560.8364,36445.4921875
178,-31097.863,-13716.458,10988.541,-8006.0522,291.10303,708.2153,39190.65234375
179,117841.805,120407.91,149101.88,13351.421,-405.5154,1676.9805,38043.02734375
180,24589.033,1246.1785,21618.006,6691.029,-18095.256,-1934.4944,40152.39453125
181,-46188.805,-18723.816,-9925.461,-1902.5925,-7625.353,-6721.474,37339.19921875
182,-20724.846,-38914.305,-64363.07,2728.828,3422.4968,3893.1428,39298.15625
183,18894.482,-13271.322,-16647.068,-12238.547,-1579.465,-592.7496,40155.98046875
184,30242.13,29038.395,26702.582,-3321.572,12373.608,-16883.695,36841.70703125
185,4903.536,4629.632,9418.668,-306.5163,-2442.7395,1339.659,6727.9267578125
186,-109645.01,-105393.82,-89069.086,15973.349,-842.6168,7248.575,35765.4609375
187,-979.25714,-32100.879,-4798.606,8228.808,8895.393,-7042.8306,38126.1953125
188,41387.39,41270.1,40671.57,143.06139,1078.863,30.416018,1999.55212402344
189,17300.203,42965.535,5364.76,1771.9971,-8610.686,5279.326,37722.09765625
190,3423.9326,13935.627,43650.72,-5081.1084,536.55023,-1419.1998,37285.3515625
191,-40267.36,-11386.745,-13099.639,-14164.048,-817.13855,2518.8958,37555.99609375
192,-40505.68,-18847.596,-49877.926,-14845.832,-1452.2837,-5651.6143,39028.73828125
193,9562.809,-19915.746,19945.875,-5050.6045,-8795.075,2628.1099,40151.93359375
194,-62040.95,-43784.81,-56416.508,-1.2352797,1156.6721,-1602.358,16551.638671875
195,39759.066,68834.016,65446.992,12003.062,11343.112,-303.23352,39709.46875
196,-14015.594,-32896.152,11413.05,-862.50305,4869.31,-2194.008,39635.86328125
197,-9528.871,-6864.3843,-23316.223,788.57135,-7109.7725,-9285.363,25418.35546875
198,-61320.793,-53747.91,-35767.945,-3695.9868,-4113.9634,-11226.803,31411.244140625
199,9409.943,8373.782,28367.164,13687.212,-12287.883,607.0012,37365.671875
200,-31042.676,-23461.807,-20062.973,-228.37631,-8857.647,-3118.3857,18960.24609375
201,521.09247,3824.5447,-4951.819,-1544.276,-1054.5499,1306.1764,8634.4619140625
202,-27114.023,-14953.045,-19604.855,-4067.015,-145.5406,6295.8916,16779.69921875
203,-36790.168,-34900.48,-21415.078,-9600.627,1469.8724,8312.965,26480.634765625
204,16108.722,26961.303,31964.486,-2446.4788,4651.4136,11957.877,26625.984375
205,21571.506,20343.135,12643.592,200.15561,-449.07315,1462.1323,8797.0693359375
206,-1243.1973,14145.424,16150.017,-13207.83,-12839.813,-2945.6697,36271.609375
207,-13415.573,-14064.533,8535.368,-1109.8652,1175.7301,-3788.4058,23396.767578125
208,-29984.15,-31690.445,-3996.4727,5653.2017,-2310.9058,4125.008,29758.318359375
209,-24651.617,-12722.668,-12867.992,-7091.5293,3453.7383,-3700.902,19191.96875
210,7103.9697,15745.952,-2368.582,7322.881,-344.37128,954.7351,20254.353515625
211,-3691.1826,4012.3716,7648.0166,-10167.581,11454.741,7393.988,31118.4140625
212,-6010.582,-2092.6758,9800.856,-3615.4731,-1185.6068,-1025.8793,15811.1689453125
213,-5801.8926,4789.967,-25854.324,-8697.479,1742.0111,-6884.2393,33240.04296875
214,43242.523,-45.57422,12126.055,-2564.7314,3178.807,4674.145,40133.6796875
215,30030.104,37420.824,16795.379,14041.6455,6199.6846,-64.74813,32162.38671875
216,-9410.316,-45503.484,-49509.44,-4516.0435,3792.1672,-1097.9331,39639.55078125
217,-24201.39,-10312.266,2097.9014,6357.7744,273.04324,601.1029,25334.9140625
218,-137262.06,-169000.73,-171898.12,-6041.971,16.870062,10435.231,39292.453125
219,2222.1177,9379.386,-11290.545,4862.1016,10414.591,15404.398,37930.59375
220,358012.75,323412.78,331080.44,-3615.23,4145.3594,10116.884,37262.125
221,-64073.0,-28029.943,-64283.992,-5947.057,6043.0903,-5455.0977,40145.796875
222,-151604.08,-117286.734,-112077.586,2429.8843,3911.6252,4287.7266,38760.14453125
223,89050.875,129693.59,115512.47,4314.745,-7067.7466,2321.558,38709.87890625
224,-15559.866,-21601.521,-1196.3229,11801.575,-12013.774,477.9737,34367.16015625
225,-52277.523,-59975.094,-92678.41,5515.2183,-1513.3501,5456.1826,39597.078125
226,71331.27,45187.883,42166.973,-12453.835,-2491.5237,-7568.97,37780.48046875
227,94636.35,127807.164,94011.195,6687.0293,7628.514,2885.8645,38146.390625
228,42134.77,54832.277,68736.79,8276.424,9629.362,-14077.053,40115.7890625
229,-68674.75,-65226.44,-56355.832,14067.573,15624.702,371.35236,38048.1875
230,-247584.69,-238914.06,-276566.75,-3335.255,-8715.435,3266.496,38205.89453125
231,8671.919,12359.547,47997.46,2366.6636,-697.2982,4992.177,38834.34375
232,11556.618,-80.54175,30395.293,-12862.002,-4376.55,-7654.6113,37935.24609375
233,-33282.293,-39585.89,-69719.04,-4155.45,-2753.1565,10321.467,39138.6015625
234,40985.016,55950.93,43082.156,14508.399,1772.3289,14960.979,38850.84375
235,22892.762,25082.729,-6671.0044,-13564.99,1461.4066,-1296.9786,38820.56640625
236,65834.04,61753.574,92805.125,13901.063,5433.3857,189.545,39019.68359375
237,-8560.96,6037.744,34441.73,4464.01,-2323.931,-3665.711,39381.04296875
238,22136.719,1610.252,20627.44,11636.651,9049.01,7966.7334,35141.5546875
239,56706.41,51950.008,28227.252,9024.915,-8505.573,1637.2849,34170.91015625
240,53709.758,52187.656,72633.15,-1898.3123,-16563.088,-5705.383,36341.26171875
241,-47605.17,-19036.842,-29792.527,169.61577,17422.918,3070.7695,39542.53125
242,-27700.326,16116.461,-8930.895,1398.3265,5467.31,3806.6482,39859.734375
243,3798.7834,2526.2283,5082.5386,-1278.7156,6548.2837,11609.344,23297.576171875
244,-11588.275,-37428.75,-32807.66,-227.02272,-724.2228,4821.9497,25321.041015625
245,148538.34,146174.86,174135.05,-9765.3955,12438.123,6080.75,39779.52734375
246,-82471.54,-80475.06,-96085.57,-16557.896,7375.5283,5069.129,35767.06640625
247,16794.543,33026.355,-1463.9116,9752.166,-7417.5728,625.3694,36670.9609375
248,52287.54,42097.27,33559.52,-4953.747,9389.251,5078.129,26061.30859375
249,-83018.21,-82455.516,-61001.9,-8404.204,-9079.615,3502.4265,31123.259765625
250,25675.395,48962.008,42337.258,-15116.792,3539.7686,6155.3066,35618.69140625
251,129886.97,143469.1,112798.26,2991.088,-1945.5789,-146.55539,27328.7265625
252,103513.25,103686.484,103581.4,105.19985,109.39689,-1141.9269,2000.98571777344
253,-70757.766,-84802.64,-102879.63,1118.5729,9500.567,-5158.819,33649.6875
254,-5068.9287,-4285.073,-6189.5723,-426.35767,-393.75174,283.21704,1999.94836425781
255,166418.25,165789.94,167024.58,-631.35675,-491.5624,-559.7137,2000.98645019531
256,149728.92,148172.2,148500.45,-644.7092,-146.00078,-463.61047,1993.94860839844
257,12411.38,10596.823,11112.863,-454.96655,-187.84387,-411.851,1964.23840332031
258,156223.67,157976.86,168753.03,-1022.53015,136.56902,-1684.6798,12239.251953125
259,100419.7,88406.67,119634.93,-9756.461,-2649.8208,75.79081,32419.4140625
260,-111037.86,-103124.01,-99609.41,887.97546,9157.8,18439.426,37105.17578125
261,233771.86,273459.62,259891.0,-3224.7214,-1366.3605,2656.4106,35758.703125
262,-42523.992,-26673.309,-56317.316,3904.0286,-7407.3315,-11210.485,35319.8046875
263,16938.965,14192.045,50436.547,4723.4536,5170.679,3018.4092,37364.71484375
264,124958.01,96273.92,105894.98,-6849.241,-3632.605,14753.533,38375.69921875
265,667.91364,14467.333,20684.307,1596.0775,-12766.861,6624.233,30710.37890625
266,42343.45,6894.028,25721.11,14106.949,3577.0322,27.234558,39738.10546875
267,-33750.93,-22793.408,-9953.794,540.2641,-13606.561,-9718.693,35570.54296875
268,-1239.1138,2242.1992,13303.649,5892.033,7331.6587,-17859.262,37353.0625
269,-9986.551,7489.1025,8226.353,19282.287,-2993.5247,2175.1814,38409.94140625
270,-195.92867,-8839.866,-21710.238,-4840.1006,-6560.1597,18516.861,39744.484375
271,-3833.0178,22970.229,30421.4,-1212.9464,11355.461,-6634.2866,38690.359375
272,32839.453,44148.63,58787.918,-7238.6533,9644.717,-14331.95,39499.80859375
273,11611.292,26990.139,-16138.916,-1206.0594,-5047.297,4717.335,39760.51171875
274,15613.752,18935.338,52113.492,-1584.8964,-2133.8438,7809.725,37765.03515625
275,4062.3887,-5718.1445,-6182.7603,-2125.282,-512.7944,783.0375,10798.0400390625
276,23350.244,47872.55,16501.182,-13807.524,-4931.329,1683.8,38335.50390625
277,12882.121,22459.812,-8831.713,3514.8965,4849.3335,4443.871,30627.548828125
278,194799.27,224840.3,192153.6,9849.527,4100.4243,-7867.2036,38937.13671875
279,4677.801,-8478.561,-37151.016,-7097.021,-989.33795,4606.878,39876.484375
280,24035.352,-11549.345,24482.463,-4801.1294,1738.7633,8018.731,39414.5078125
281,26858.965,52355.62,42061.824,-5755.2026,-9226.829,-2608.148,29474.765625
282,28749.86,39253.56,9373.693,14403.752,-6367.6016,-3508.0078,38343.79296875
283,-73924.914,-86833.46,-114564.44,-4925.843,-1423.0787,-3324.4026,37491.68359375
284,5687.6035,-14365.28,-28497.021,15362.972,269.92905,-131.94754,39919.16796875
285,-9272.563,-17908.184,399.56192,15992.002,3376.832,10308.2,37038.72265625
286,-18674.105,-16436.78,-14636.957,1760.5994,-3718.7183,9524.921,18309.283203125
287,-17192.73,18019.818,-1149.9335,14189.901,-2657.2612,-3470.6816,39922.01171875
288,-9633.83,-21260.812,-16913.584,6388.5947,-5299.9106,-692.59204,17654.705078125
289,-6017.334,-12055.793,1834.9131,1186.6887,2506.3694,-13249.369,26367.478515625
290,37310.637,1450.4707,27607.348,-11200.108,1746.9381,7743.213,39968.71875
291,-7382.46,-18019.857,-19871.121,1596.8488,1062.5726,-532.8955,12172.21875
292,-50635.957,-34129.285,-30424.092,-4306.708,-2701.3677,-6000.1577,23084.62890625
293,25806.502,22285.045,43405.82,-8535.089,1117.6702,-16892.316,38242.04296875
294,-71594.66,-103386.055,-94157.02,-14723.957,4911.1797,4717.234,39899.43359375
295,-87945.32,-62006.227,-105312.4,1953.5155,-1671.8501,-401.42883,38016.515625
296,-35003.637,-23796.389,-55624.984,15412.334,-3704.7036,1498.114,39274.40234375
297,-9727.01,-3438.8135,-23827.361,-5147.5317,-4007.7092,996.83044,21393.564453125
298,16239.578,40372.387,58714.67,252.35594,7868.713,3917.5408,39918.23046875
299,75681.77,41757.574,57438.504,-9448.074,11581.981,-1459.6759,39260.62890625
300,-16371.91,9741.283,-32895.652,-2009.0519,3484.8137,-763.10895,37903.9375
301,-5269.738,-27206.752,-41957.953,2434.9707,-4482.138,7021.7036,35332.65625
302,-2580.616,-2993.8235,-9184.256,27.192448,19090.912,2281.2253,33912.43359375
303,54539.098,34496.69,15596.871,-9379.04,-3728.267,-3826.5374,38564.55859375
304,60901.164,44421.31,50785.445,7616.2026,12392.709,-14329.713,38183.59765625
305,-62396.67,-76251.47,-100566.664,888.1045,-11672.947,-1568.3351,39224.79296875
306,13562.724,13508.168,13581.035,252.1871,685.68787,-894.11664,2000.98547363281
307,-280332.97,-301193.44,-261478.2,2198.803,8042.8535,2833.8564,37638.2734375
308,61517.434,66158.14,82959.26,4927.8564,916.554,12807.263,30809.61328125
309,86340.84,83894.59,92902.62,-6306.5703,-1439.3313,16554.377,31824.0234375
310,-158742.45,-147659.73,-182511.86,-11496.314,3541.3464,3667.6433,37758.640625
311,62328.914,61743.47,61190.113,323.196,950.7395,44.559258,2000.98693847656
312,8475.35,16139.426,33305.91,-6111.058,1419.55,-3079.4324,25130.076171875
313,-80607.85,-113687.26,-104987.83,7799.648,-9588.338,-6341.1284,38224.30078125
314,13144.58,10061.145,8808.131,7253.3496,4167.7256,-3108.5835,15933.427734375
315,56429.49,33613.934,26260.42,-11234.8,9635.732,-6380.5645,39009.44921875
316,-6709.0615,8019.5957,-5688.1436,2563.5034,-147.80444,-4655.89,16963.224609375
317,-18040.646,-18796.74,2925.8936,10415.307,-1389.1313,5736.5117,29765.2109375
318,1667.0354,-13970.705,13638.007,2034.6371,4169.49,-4200.769,26316.431640625
319,-4199.1504,22537.898,8751.799,-2741.2898,-3458.5513,-6595.686,26930.73828125
320,-23846.98,-38094.855,-43767.098,-6991.204,5695.763,5424.8794,25460.509765625
321,-4664.7314,-656.08154,-12107.034,4880.33,3089.6812,-4772.7456,16423.1328125
322,-8597.303,-4591.544,1301.6401,-5462.2847,3863.2515,-1776.0453,14769.197265625
323,-31928.582,-37358.324,-708.25,-4428.374,6303.1675,-5712.015,38073.7734375
324,-28652.738,-13387.729,6954.967,-11209.828,-92.025276,-466.44287,36538.14453125
325,4114.9863,-13009.928,-37631.09,-4864.3467,-4078.0225,-948.8258,38008.90625
326,37775.69,29535.115,19051.102,9317.621,1421.2703,-15978.092,36008.7265625
327,32575.312,71777.47,40624.793,-2129.3367,2912.7268,-5090.1997,37454.3828125
328,45836.69,36659.03,34958.754,7371.8335,-5273.401,11482.79,27290.04296875
329,64338.02,41887.145,38994.465,-11786.524,-12000.381,-7487.8574,39929.31640625
330,-10991.547,-13430.365,-15658.65,-4137.332,8725.028,-19680.51,38184.36328125
331,22535.328,-6653.338,-22259.012,587.994,-3217.1694,521.5549,39798.58984375
332,-47601.47,-81470.94,-77665.61,-8495.95,3283.159,-8174.6562,38497.9609375
333,37572.562,42740.88,24204.844,4772.628,-14130.374,-4248.414,31559.142578125
334,30333.771,41351.47,36108.527,-5054.6416,8202.359,5541.0244,21487.34765625
335,-163313.2,-167162.62,-160802.48,325.91306,-8771.864,513.2981,16209.0234375
336,-54722.676,-76777.125,-42900.203,5033.0957,-2756.8655,-6139.0737,33147.69140625
337,41552.176,30342.824,36265.844,-9260.689,1335.4956,-569.402,18919.37890625
338,-50428.812,-34923.016,-78634.35,-2180.4148,3195.6685,4723.895,39814.27734375
339,-267889.0,-274491.28,-264836.22,-15767.005,-9056.697,-9152.668,36280.09765625
340,4301.7637,22991.95,-11214.797,11057.361,-9016.631,-897.10425,38641.984375
341,124593.445,140685.02,139760.17,-11907.288,9468.724,11648.965,36692.3359375
342,-34521.418,-35182.74,-55191.543,7797.7944,3151.755,-18015.479,39998.8984375
343,-132812.89,-130838.43,-158070.11,2658.509,11383.646,-10909.522,38193.10546875
344,-7372.167,-1452.8663,4305.588,-6016.5537,6616.2397,4205.3394,19881.126953125
345,-76243.64,-61275.21,-102948.46,-458.57693,770.1689,2773.3203,36910.90234375
346,9419.2705,1294.2179,-2151.8318,-3267.3296,3892.5989,-8312.782,19765.662109375
347,40926.69,47205.426,78139.57,-9684.432,6162.389,-922.34674,39854.8984375
348,5621.302,6866.1577,28986.986,10594.059,336.15363,-5318.784,30664.76171875
349,-11904.147,-8539.124,1937.9236,2682.5203,-10979.588,-8979.237,27954.7734375
350,-8229.692,-11139.434,-807.6919,-6795.8184,-3102.9915,-1089.238,16004.474609375
351,271525.5,295070.88,255299.55,-2706.5823,-1662.2262,-6889.611,37045.625
352,115581.375,92689.086,77644.63,9328.086,4090.7393,7813.4805,39864.6171875
353,-145302.45,-117027.41,-160999.94,-955.5172,-1806.677,-5451.212,39892.54296875
354,-17826.0,-15048.849,-42160.586,14879.126,-3015.6123,6859.909,38730.9609375
355,-62484.992,-54768.07,-96029.46,-946.81366,-2518.091,-5205.6836,39327.48828125
356,28967.486,57592.258,66632.56,4985.5786,9786.539,3886.448,39586.5078125
357,-10023.762,13842.752,33145.156,-3207.9307,2882.4863,-6542.113,39838.0546875
358,-21879.389,14513.788,-13158.4375,-6740.239,-3144.4668,-8183.823,38079.0703125
359,-10259.86,-5439.267,6601.0684,-12403.44,-1229.7219,-2554.462,26681.412109375
360,-1482.6433,1362.3209,8321.211,-2610.4446,327.56696,491.65298,9889.7978515625
361,-3665.915,472.55737,-1430.2117,653.2037,157.0688,137.25737,3779.34912109375
362,7523.4575,4179.1875,33891.734,-294.0859,5803.112,5359.6606,31338.771484375
363,2403.0232,4415.709,8514.733,-1962.6349,-1319.7816,-1476.5691,7240.51123046875
364,25683.557,22991.822,32390.078,-5123.786,-8787.161,6468.2456,22498.70703125
365,-6144.6133,1586.5522,-84.960205,-1126.9818,-2002.0658,2497.1943,9175.24609375
366,-6645.13,-12278.934,-4888.5264,-1159.786,1564.2128,5576.215,12222.10546875
367,-7888.7446,-14209.611,-9885.906,-1631.1715,2572.5684,680.2193,7780.92529296875
368,-8086.918,-15092.261,-9876.287,62.390404,589.4289,1144.1793,6687.51953125
369,3803.787,-2072.8447,10675.32,-3164.779,-584.6163,-335.36002,12391.3056640625
370,15221.378,7996.9194,25196.963,-3037.5664,-1071.1425,-2232.9043,16427.21484375
371,-2190.4707,-11561.8,-7231.1943,-3203.177,-1569.1543,-2348.5723,10986.69921875
372,1853.5466,5538.8257,8018.955,957.25946,651.67896,-18.234154,5735.53662109375
373,6083.9385,6600.71,1510.7034,2552.6633,780.1822,-287.44897,6720.6435546875
374,-331.6892,3967.8564,3534.0312,-280.8595,-277.14688,1596.5382,4992.28662109375
375,3911.022,3023.5251,-1232.4021,681.6877,161.40588,2352.1118,6383.35546875
376,-11656.748,-13608.3125,6952.871,5893.843,-5391.959,-4633.995,25343.59765625
377,-34351.047,-25690.885,-32319.148,-14996.729,-3621.5537,585.21576,27867.73046875
378,-7469.0444,-5057.831,-10348.294,927.31146,-349.6182,-2055.4333,6055.35693359375
379,-8589.853,-8926.661,-10238.39,2590.6868,-1660.1782,-14.890938,5538.9609375
380,8792.716,12378.096,32150.379,1731.7307,-3147.1326,-754.2586,22695.947265625
381,-2442.9658,-10683.956,-42289.656,-547.2476,3750.308,1148.3204,37072.1640625
382,41840.85,41882.86,71609.336,4830.876,5386.2466,-2334.2258,32531.626953125
383,-12741.433,-15922.1045,-19536.191,698.1395,1897.8643,-503.58368,6906.67626953125
384,-78499.36,-78087.96,-114593.83,1527.8251,2416.8547,-112.24037,36638.68359375
385,10601.771,13917.102,20947.088,5127.163,-1227.2991,543.2655,12960.958984375
386,-4463.8706,1104.8314,1629.0516,-549.3524,813.54504,129.94295,6094.7568359375
387,-30506.566,-27587.14,-49871.297,3059.3328,-275.83725,1560.3118,21809.63671875
388,-32226.668,-24290.48,-45320.266,430.34,-1331.8315,-1495.8013,18733.06640625
389,4287.4165,9268.452,20318.375,-3429.43,-2687.1262,-629.47754,16127.158203125
390,-4884.2803,-2131.6448,2837.2917,-4277.5376,3455.3098,-1313.5234,11909.26171875
391,17261.607,11159.106,26624.146,-6494.261,-270.37186,-2750.477,18206.4140625
392,4477.1455,2828.868,5118.7627,2206.8877,-122.81797,-1129.6724,4761.39111328125
393,5157.7134,-1695.9546,13005.533,-3962.0369,706.38763,-850.26825,14598.1650390625
394,8624.347,4432.539,20532.967,127.74845,719.0612,1940.8882,14906.587890625
395,-9008.186,-10044.66,-16702.156,1387.3307,204.12222,2192.0427,8521.212890625
396,-8800.965,-1301.4241,-6012.172,-1390.8229,-1182.5903,3921.9543,9962.4150390625
397,9175.2,14877.259,26144.904,-133.6965,-488.16116,-5338.273,17606.30859375
398,1585.3098,8011.093,5735.7793,-4918.6465,-2050.4805,545.9616,10859.740234375
399,6749.6973,9773.738,42042.27,3331.2668,283.75116,1483.9452,34469.17578125
400,-6099.5757,-8300.171,6464.551,-5244.5415,-1163.8741,4121.7725,18107.869140625
401,-13857.712,-4877.955,-17968.541,1997.2256,2902.919,74.46841,13103.9453125
402,-30634.441,-32130.168,-40256.785,-14267.96,-5526.185,-9153.274,32157.763671875
403,2650.0833,-5113.8193,12543.668,3052.5437,821.4557,1277.3475,16427.029296875
404,858.3313,-12890.419,3970.0618,-69.68129,-305.063,1013.78516,15648.337890625
405,-2623.1716,-8220.869,-6938.4106,2423.6208,-3470.3713,39.43445,8919.4736328125
406,687.571,-1491.9865,5735.86,2306.0544,2574.667,264.588,8791.423828125
407,9610.299,-4409.355,4800.7935,789.88715,2038.6266,2141.9995,13429.76953125
408,-4027.186,-10879.802,-6674.728,-3622.3435,-106.6375,1912.0933,9283.9521484375
409,2692.4133,-5352.297,-4632.335,552.7674,-1580.4686,-1427.3293,8600.3447265625
410,-1175.5243,-6499.279,356.14038,-5750.6143,-3757.7935,-2668.6738,14204.919921875
411,4403.249,-1558.0088,3466.4204,-1021.2292,-1636.8821,-431.69714,6523.4599609375
412,-8535.253,-10008.161,-9030.299,337.91187,-702.75336,-2275.358,4363.63037109375
413,114.62059,1947.6843,-15011.45,7944.863,-12633.75,-10001.964,35045.69140625
414,-20242.664,-19922.83,-44771.062,2109.8079,1673.5652,-2351.7903,25454.640625
415,-284.08713,-8704.938,-24652.62,841.623,-6028.4087,5375.563,25639.275390625
416,-9608.272,-21162.562,-26080.152,-2477.9644,906.0121,-1313.214,15510.0185546875
417,8298.744,-2118.6538,-5263.7856,-964.36084,-3779.1338,3059.9424,14996.7802734375
418,12013.492,12471.273,30515.031,2532.8486,2111.4023,951.6631,19219.361328125
419,22623.945,27011.328,52784.117,-2445.7527,-598.34033,-60.991062,28558.556640625
420,-56.520187,-7994.938,15626.581,3287.2627,8374.199,10004.762,31250.005859375
421,-5846.179,-6993.9746,-11635.976,-2736.5889,1048.4253,-671.6044,7437.1484375
422,995.9336,15652.691,9291.575,4156.532,-381.397,-2484.8645,15259.1396484375
423,-61241.94,-63635.387,-50673.316,-7902.744,7434.4727,11918.995,30365.79296875
424,4452.768,8311.604,13423.67,-2042.0349,-503.58948,188.16383,8609.71484375
425,-12061.221,-10027.636,-11985.858,-16874.643,5442.0933,-399.93872,30782.748046875
426,6902.41,1745.3677,18282.672,-1087.3977,1555.5815,5209.2095,17521.654296875
427,459.22412,6439.078,7067.717,-2301.5996,-413.32507,-2165.144,8389.34765625
428,-2085.0657,1994.7357,5742.455,-1840.9327,533.11755,1424.7472,7942.8955078125
429,-3812.5444,-1180.7661,1428.5338,-2708.2803,-2392.699,1652.569,8244.642578125
430,-25837.77,-13299.222,-28538.754,-647.4833,2519.5266,827.2276,14857.0380859375
431,-9300.558,-1359.502,-7354.2065,937.8269,-2064.5374,32.937794,8174.43115234375
432,32989.418,15133.16,12945.694,-3653.609,-1618.6323,-8508.196,25055.25
433,-16018.35,-2793.275,-926.47345,5789.7007,-6929.247,-2993.0732,21784.326171875
434,1055.7394,-1392.9912,8113.2104,358.39362,-1415.9691,2306.0518,9769.3349609375
435,-5493.0415,-13017.83,-15365.861,1590.3192,-1797.7294,1382.4766,10140.0537109375
436,2221.353,4031.319,-20302.244,735.4911,232.73698,-1316.0504,23629.1484375
437,-6330.5728,-9789.362,-9971.842,1842.585,81.293,195.909,4790.40771484375
438,-9273.677,-16299.69,-17749.467,-752.274,-631.87897,-110.94693,8036.50146484375
439,1021.2974,7068.2163,3852.733,-2634.9216,-5392.0425,-4289.2266,13809.5615234375
440,-3008.2583,-8033.342,-8563.234,-325.0887,-2665.039,4586.2256,10626.3701171875
441,6888.372,6207.6084,11660.402,856.5948,4062.7393,4331.2505,11596.65234375
442,3865.9863,2353.518,-3974.1292,1840.2776,-1652.3779,816.18884,8499.7919921875
443,7585.3286,10690.004,29704.314,2305.5354,-2917.7825,-10.641609,21718.734375
444,5752.5015,3536.4849,2497.1443,-796.8513,1959.628,1792.9135,5600.27783203125
445,-8354.83,-11540.944,-13728.217,-2833.4573,-87.4584,-485.0512,6835.1005859375
446,-3373.5095,-811.4997,723.2236,-4093.7952,-412.35205,823.7634,8103.98583984375
447,-3673.618,-6113.4834,-2678.0256,-2095.4185,-872.56415,-235.38046,4999.5908203125
448,19792.523,11899.913,2663.811,-7852.7534,1407.53,652.41626,20315.349609375
449,565.41534,315.87735,3748.9663,2137.3113,2429.4563,308.84177,6533.6748046875
450,-3942.244,889.27386,11127.125,2616.2812,827.7978,-730.7478,14206.126953125
451,27288.184,22490.576,17891.71,8901.129,94.18458,-729.7664,17479.837890625
452,-10799.098,-3933.0918,-14276.244,-1757.5594,-430.2834,-1104.1168,9827.837890625
453,-13549.6,-13358.238,-17000.133,-2521.94,5749.233,2647.5732,12323.701171875
454,8049.6294,12977.663,22545.54,-818.9283,-513.2647,-936.8313,12977.51171875
455,-13619.539,-10271.1455,-17683.877,34.953716,1262.6115,1053.8982,7032.63232421875
456,-4512.201,-1118.662,-2356.4373,-2219.1582,1602.6241,-582.63354,5687.296875
457,9654.42,6962.652,21445.043,6305.075,-1411.4149,195.74281,17417.09375
458,7778.0635,15443.423,11180.012,3394.375,3076.7249,4845.73,13328.9609375
459,-4320.0737,-14063.564,-28982.28,5444.845,-3185.788,62.36201,24130.115234375
460,7157.238,-743.842,5826.5767,-5.1499133,1019.60425,-6195.074,13112.580078125
461,-7774.3105,-8837.5,-2223.9927,2285.1562,2248.1726,626.2536,8357.193359375
462,-6430.9634,-7408.345,-4077.2927,2181.9111,-2483.0732,434.83334,6491.677734375
463,-72.49245,-2308.5398,-7455.762,-2348.0173,367.49747,1243.5854,8036.63330078125
464,10947.597,2705.4128,8937.625,-620.7151,349.50647,-152.41916,7549.771484375
465,-4444.777,-11141.649,-19610.936,1896.3994,2004.3007,2813.5852,14828.4892578125
466,1120.387,5241.934,10951.11,-1701.2795,-479.03406,-1310.0632,9361.2373046875
467,-9641.833,-5869.8438,-6826.02,-716.5925,-927.27716,128.11726,3962.92504882813
468,-30348.363,-39848.035,-48214.184,515.0874,-984.16095,297.79495,15610.2392578125
469,-3804.035,-15072.156,-12556.441,-3219.176,1781.9369,9434.767,20312.84375
470,-8127.996,-9258.59,-8378.4,-6487.631,-3102.1892,-1226.9103,12677.24609375
471,-423.9571,-2983.7852,2958.2305,-2783.4802,1307.6394,-220.94945,7427.599609375
472,-2164.311,7706.7744,10478.645,2447.3115,1531.8636,36.83797,12549.6943359375
473,-8864.674,-5383.24,-11259.867,-949.77606,49.765797,1443.6395,5929.75341796875
474,-4694.5327,-13894.113,-24441.72,2503.312,762.4376,-1467.0284,17886.25390625
475,-7660.103,-9624.056,-16578.232,-789.30176,-2075.5652,2994.2698,10371.365234375
476,-1556.1707,-10085.637,-5501.954,1028.9553,-7436.5156,-2449.8784,15548.40234375
477,-4588.2627,-5064.719,-6795.949,-2399.112,-441.77313,-742.2084,4853.2822265625
478,2627.555,3688.7075,32919.27,-2989.7554,-6286.2944,-2394.429,32390.40234375
479,-7734.8535,-8505.225,-13299.594,-3181.0576,-305.66687,-1998.2917,8360.029296875
480,7791.0205,6221.055,6881.528,641.36475,-1556.4421,-286.017,3257.4677734375
481,7244.974,8520.483,4749.271,-404.2538,241.83014,945.6872,3793.07690429688
482,-12291.884,-14178.494,-12011.605,444.8857,-215.90504,-108.47218,2221.6083984375
483,-16799.867,-22321.387,-24463.879,1401.4869,-239.07431,-871.57,7433.04345703125
484,2736.737,5240.6123,15927.45,1282.0734,-2598.8071,266.19855,13139.3125
485,-6348.7954,-2228.1433,1007.789,-356.83725,-425.0109,-637.4464,6551.95361328125
486,-1459.5181,-10030.62,-272.74323,716.63715,642.20807,-967.2757,9519.9296875
487,-17577.438,-9907.692,-15648.015,1831.9098,-873.4636,540.2638,7809.07373046875
488,3249.235,9073.045,17181.186,1360.5974,3015.031,673.4079,13456.013671875
489,-79.8145,-306.83698,5911.1084,-1414.9697,818.47107,617.124,6816.259765625
490,1586.0687,2829.4788,12095.531,-1414.9531,-872.19775,-819.8869,10451.4306640625
491,-19991.693,-21591.354,-27286.672,-3176.1084,701.37146,987.16077,8875.154296875
492,-37529.457,-40301.56,-33332.344,-1487.57,-904.5699,1659.3473,7368.0908203125
493,24733.48,10872.921,21269.938,2500.874,2589.2173,-704.21155,14016.689453125
494,-8451.193,-14609.3545,-7228.9775,-3666.6133,-355.01077,20.031208,9362.416015625
495,-10768.818,-13519.396,-18178.852,-548.04175,-2231.3533,-1277.1144,7926.1162109375
496,-6387.494,-8310.414,-1281.4313,2414.8467,-835.95483,-346.30417,7716.13525390625
497,-21954.797,-16557.643,-27045.873,-624.7414,250.40668,-614.6864,9220.53125
498,-5412.0854,2954.331,4023.451,-83.36125,-382.86746,590.41956,9032.775390625
499,-29907.043,-31245.379,-48945.77,6.7024665,-912.53937,155.13333,18475.783203125
500,16337.546,8440.557,21912.92,-3581.6328,1139.9729,184.48312,13414.951171875
501,-557.10645,-390.36688,-3225.3694,1068.644,532.7842,-1183.1907,4008.70678710938
502,6352.1,6027.02,10399.336,-3405.6108,1120.6575,-613.0011,7582.279296875
503,-9981.377,-4249.427,-3407.1575,-1723.1342,-184.05836,909.48004,7062.802734375
504,-8826.411,-18575.938,-25978.475,-1336.467,1032.1871,204.88445,15188.8994140625
505,2237.3428,5900.881,18062.934,-2621.972,2044.5669,-816.4877,15526.0458984375
506,399.876,1096.9406,2442.357,268.02185,786.1941,283.28122,2354.66381835938
507,14624.111,12502.487,26923.338,2357.7722,-331.25464,1950.6545,14501.3173828125
508,1022.6094,2566.5562,-7145.2827,2442.2983,-4938.7686,-1837.4309,13524.283203125
509,15992.216,16604.902,24848.664,217.13899,-37.697414,-49.224007,8575.4775390625
510,4287.1006,3031.2917,4842.356,-1023.26465,-103.14875,1365.3645,3368.74609375
511,1771.9486,-9.180537,9048.717,1332.1782,1537.968,-989.0162,9189.08203125
512,15172.062,9115.914,6849.036,1379.4536,-150.25604,3035.9941,9432.517578125
513,-2768.3818,-819.98914,2035.0233,2137.151,-212.5689,-1137.6603,5935.5390625
514,-2039.1326,3101.6921,4882.223,3037.7158,3123.1196,2054.3008,10409.466796875
515,-2930.042,-1988.2836,-4011.9595,1141.5232,702.8344,-101.173645,2915.17114257813
516,12407.976,5913.9443,19474.006,301.76593,-8591.937,-8939.957,24484.56640625
517,-54818.727,-56191.43,-86590.195,1506.7637,33.448383,1267.1152,31294.23046875
518,-1389.7758,-2786.7288,-3845.2515,-3518.4895,-856.7168,3.0403605,6625.0947265625
519,25310.662,20665.25,37517.93,-3851.415,1789.4078,4126.636,18234.54296875
520,5944.8906,6239.136,11532.237,766.78406,3965.9905,4170.228,11436.1044921875
521,411.22968,4807.7373,2018.3203,2500.3757,-3390.2385,-1521.9761,8662.1279296875
522,-10062.782,-7942.5674,-5222.7134,-465.3884,370.31882,214.33353,4342.64599609375
523,-777.74475,-4176.9272,-2323.8784,-1114.9946,2981.0598,-164.04718,6257.78759765625
524,-1193.4178,504.80518,-5229.8267,1592.3069,780.6106,463.78607,6009.2392578125
525,-4093.2793,-3358.1536,2169.0254,625.8435,478.24252,5938.66,11950.62890625
526,-13607.1,-19404.857,-20943.223,1447.1798,793.52875,3658.445,9655.275390625
527,-8550.162,-10625.619,-12392.21,-2094.0444,-1492.6804,532.5344,5637.81689453125
528,3710.2493,5648.701,10002.502,2478.3472,-334.1133,246.50406,7077.89599609375
529,-7859.017,-7064.682,7614.8496,846.4849,1300.8676,-1379.5865,15515.033203125
530,6182.1987,6543.0864,-881.8603,3211.88,2061.5215,2676.727,10852.337890625
531,1070.1019,-1776.4246,12231.8545,5429.826,-296.39432,353.59378,15923.169921875
532,-5272.841,1014.8474,1495.1132,2249.0015,1367.9268,198.18396,7980.662109375
533,2131.1924,-2955.7202,5136.188,1091.1218,-2429.1865,-982.7304,8623.490234375
534,846.11914,-4295.5825,4860.3813,-1193.2332,-846.8966,1422.2659,8699.607421875
535,-4713.0273,-2885.4385,-9186.727,-945.2602,535.7699,931.69714,6138.080078125
536,-6202.99,-7378.4854,-9723.744,-3671.986,-330.89368,1110.9615,7356.6630859375
537,-15863.651,-8915.848,-10741.804,186.3238,-624.01105,368.6036,6371.7841796875
538,-64761.406,-63494.48,-96939.26,581.85895,-219.17609,970.2061,32890.26953125
539,695.75665,1401.0488,5458.61,2162.6714,-441.94525,278.53568,5888.390625
540,-386.02023,135.74635,-1502.4071,2509.8772,207.41599,-507.34036,4679.82373046875
541,-25944.398,-23084.418,-40564.336,-3427.3877,-419.07352,-1391.7976,17473.234375
542,-13023.869,-8207.078,-15967.337,4092.9646,-413.7674,-210.29617,9846.162109375
543,-1814.1505,-10173.189,-14460.52,5878.843,544.10016,450.0504,15141.6923828125
544,498.36948,-3085.7637,1294.7947,3480.032,1519.5483,670.4569,7806.5537109375
545,-6591.3145,-1468.8246,521.0435,915.67755,9.210439,-258.84094,6565.76025390625
546,-11506.031,-17237.975,-23268.094,985.84656,262.64484,580.5139,10388.2353515625
547,-8150.198,-14806.827,-9691.5205,-2115.0679,-761.24475,-2132.1848,8076.13916015625
548,-68679.02,-73181.67,-87933.19,89.0452,-2194.303,-1.3994865,17854.1484375
549,-24224.232,-28095.898,-45814.12,2343.1409,348.02765,2492.4692,20808.55078125
550,-4369.371,-5489.0024,-14265.757,1688.2047,898.4384,-352.58084,9972.7802734375
551,7295.2686,6670.0728,11422.414,1689.4337,-344.99765,-187.28358,5387.88720703125
552,-13591.416,-9747.884,-24796.256,2409.654,252.15378,4568.072,16235.7392578125
553,5359.4233,4558.7065,9168.031,-641.0459,-63.67856,1333.3649,4977.431640625
554,-19335.209,-14137.197,-13571.463,-719.00934,-1212.5026,-465.05252,6073.7392578125
555,2223.0847,2359.88,6479.0405,-2071.1553,1313.0278,-973.659,6199.587890625
556,-2826.546,-3020.178,-11697.555,677.64325,-1078.9456,326.6723,9066.6806640625
557,5053.958,2365.075,13550.195,166.80739,-901.7819,833.57574,10337.7548828125
558,1129.4229,5773.9966,2243.6404,1554.3689,-1003.6932,-283.66937,5305.68310546875
559,7528.408,9155.218,11159.486,1364.4957,439.85107,-768.31903,4226.23486328125
560,-16424.768,-15655.793,-24887.629,-1509.6061,-29.735489,242.73721,9259.3310546875
561,-34164.344,-31248.32,-54670.914,-564.4848,1154.1829,-433.46634,22233.67578125
562,-11415.678,-9608.997,-22702.57,-2815.7224,3458.8162,4025.7942,16104.2236328125
563,-21999.047,-21078.303,-38695.48,-389.01688,722.62805,352.90518,17244.8828125
564,-678.4421,-1252.4692,-5915.021,976.3223,-39.8499,358.28827,5291.01318359375
565,-3263.4597,-4289.651,-9853.208,2207.8596,619.4228,-724.27673,7420.52734375
566,-6464.9277,-4236.6797,-7235.582,26.31355,-1060.5785,242.22305,3290.7109375
567,-4923.331,-3291.3857,-6589.4487,249.68695,180.38162,797.3307,3217.15063476563
568,5319.9697,5883.3105,-2345.2756,-224.79152,-23.915165,-719.0162,8068.19384765625
569,-3848.0913,-3520.021,-7395.0215,-378.42078,-1253.123,-1580.2555,5146.27734375
570,-11267.429,-11936.727,-27530.623,-1350.1757,-365.5626,226.73454,16126.9521484375
571,-41114.41,-36229.164,-64179.11,-1263.442,-258.4124,1825.9921,26144.11328125
572,22362.885,21699.22,25165.646,-2631.602,-2673.2493,2087.071,8089.3994140625
573,11976.766,1367.6587,5951.2617,-1142.6613,1252.0033,-110.18211,9674.224609375
574,278.90387,4889.68,-1867.6925,951.1507,588.2206,-452.99167,6335.0048828125
575,-1082.6995,-442.7296,-4676.7783,2169.671,-794.0922,52.99719,5625.802734375
576,5267.7075,-5670.6797,4273.3745,2189.5493,-182.0173,-908.92377,11257.0341796875
577,5097.0337,3705.4219,-7825.0493,-979.01654,-105.5133,-3343.7043,13688.833984375
578,-14308.285,-19309.645,-22962.998,33.87773,20.52034,2381.746,8582.2587890625
579,-8747.341,-14743.294,-15734.472,1413.5009,-863.1968,-423.1172,7186.32763671875
