Element Label,S11,S22,S33,S12,S13,S23,Mises
1,18979.21,10468.017,-3680.7998,411.75296,2903.1406,875.5553,20521.837890625
2,19258.674,10504.86,3417.1216,7359.214,-9897.277,-62.82233,25402.052734375
3,8223.368,12444.379,-4093.4834,6868.6724,-4312.9487,-1527.1328,20636.091796875
4,-8660.997,9993.627,-10493.006,3335.4092,3061.5383,-2332.2678,21525.310546875
5,-14108.812,4919.2607,-8771.673,866.32526,5722.3496,-1574.6956,19922.939453125
6,16422.457,14154.904,-942.06836,-1063.002,-5513.9663,3119.7307,19776.07421875
7,15715.996,10250.899,8057.335,1667.6343,14087.107,-2375.606,25831.76953125
8,-10987.364,-2744.354,-7228.1143,2796.8423,201.6355,-1377.2057,8964.9697265625
9,7489.6426,6145.934,8620.67,1461.7118,3944.5698,10964.283,20453.35546875
10,-6921.6626,-12214.8955,-2294.9097,5157.0356,-6232.7046,-7303.2397,20742.52734375
11,1472.2292,4544.7925,-1368.3566,-6343.213,3924.5884,1822.5912,14251.9892578125
12,20200.389,6181.9795,1792.9888,-5918.012,4208.444,-6061.1646,23360.66015625
13,16599.16,5300.8022,-11288.686,3413.2207,-2365.2275,-1613.3817,25491.9609375
14,-3577.2012,-10260.181,1188.5414,-8514.807,13654.816,-10855.547,35065.9453125
15,-3932.9585,4838.1753,11435.907,-242.40637,5689.343,13128.158,28154.220703125
16,23339.277,20064.883,35117.156,-13806.786,9196.2,10553.948,36711.7890625
17,1979.8198,-10938.608,12531.966,5604.219,-13042.849,3877.4568,32622.451171875
18,2064.8135,17202.344,33146.89,-4960.9673,5183.7964,-12442.917,36655.9921875
19,-3757161.0,-3757730.8,-3758412.5,-135.07338,-146.38379,-868.04926,1886.09985351563
20,-18375.377,3705.4246,-5283.7886,14876.324,-7601.853,-6361.5215,36449.48828125
21,1777.6013,13611.485,-142.99902,7938.8237,4774.9243,-8096.7725,24911.951171875
22,-27976.277,-941.8294,-21787.072,-1828.5421,-1671.9434,-8391.814,28836.26953125
23,-88804.555,-86632.53,-106149.83,-9150.212,-3606.0422,-11556.064,32156.931640625
24,18400.58,13717.357,7964.3296,908.44336,760.91656,1474.885,9628.66796875
25,-19840.365,-4481.17,-8402.776,2583.3916,-12920.701,-4040.1792,27583.97265625
26,-12779.09,9036.733,-12596.009,-8358.824,17467.73,-1714.6068,40071.984375
27,-13067.879,2254.1694,15172.973,4596.106,-2372.4714,3979.9038,26969.9921875
28,-6796.019,-359.23602,1009.0597,1589.7814,-12072.015,-5146.7505,24007.53515625
29,2586.978,11610.887,-1833.3594,-6296.289,4729.4463,-7874.0874,22647.197265625
30,-2928.126,4019.0542,14924.51,4816.572,2636.4873,-1504.8702,18444.501953125
31,10046.424,1157.4556,10902.057,-6826.828,-5220.1255,-4794.081,19438.802734375
32,4736.302,843.3237,8509.186,8241.472,-8056.0347,-3553.0522,21918.369140625
33,-2519.9893,6614.213,17628.258,3526.249,-4659.5254,-6506.046,23125.09765625
34,4033.6592,-9457.094,-7670.6216,5577.879,8310.753,-6634.4946,24365.64453125
35,10828.469,16145.777,-5032.195,8016.3447,1285.8048,3052.1606,24287.08984375
36,877.77673,9371.927,-11290.724,8790.658,-281.81393,-2760.045,24052.0859375
37,682.2237,-8700.858,5632.275,2921.311,-8596.359,-16420.662,34859.73046875
38,3985.5518,11464.862,13837.867,10797.133,-1825.3473,-7859.1797,24986.990234375
39,8017.457,-4059.6436,-9945.368,9695.321,9087.462,3111.486,28466.96875
40,-13347.42,1161.1427,-10687.099,13208.6,-9258.26,4657.249,32009.3046875
41,4993.977,2185.2236,3998.2766,8098.277,2798.3567,-1649.6073,15312.939453125
42,-10230.147,2961.7869,-12125.061,-5849.734,-12300.038,-13143.864,35741.15234375
43,265105.22,266408.28,265941.97,331.822,20.268175,887.8084,2000.986328125
44,4639.3433,5326.6626,5010.3003,-131.42043,-1057.8307,-282.87808,2000.9853515625
45,17058.705,1342.9023,1097.0999,1769.1305,1949.9583,-1306.8014,16638.1953125
46,-4254.7886,12674.707,7255.808,-3754.7393,-9910.624,6058.9893,25909.896484375
47,27653.742,13075.161,11873.734,-3462.8765,-6247.724,-6178.7876,22340.6015625
48,-45349.16,-12838.682,-36984.43,-537.9177,-4247.996,-11946.058,36579.8828125
49,-5660.4517,17996.021,11153.034,-7827.877,7697.9556,-15129.883,38638.28125
50,440.11407,-51.038628,-2021.7682,-16911.264,-6797.3184,-10684.43,36662.61328125
51,-20518.162,16332.477,-9427.81,-244.22682,-4303.832,-3238.1353,34051.1875
52,-1071.4122,27169.746,21721.389,7586.6484,3797.8115,-8702.774,33414.61328125
53,-13599.804,3842.857,16755.707,-7668.4565,-3047.2493,-14184.21,38782.3515625
54,-6581.179,2342.1353,-6181.497,5839.984,12582.414,-15402.271,36948.29296875
55,9071.319,-9095.958,-15867.892,-7935.481,6797.8394,-9415.235,33051.83984375
56,10329.408,35534.23,13641.832,619.4732,2638.3333,-5664.9854,26097.431640625
57,-6308.373,-10009.088,3063.1626,5837.436,8709.1875,636.9855,21614.7265625
58,4885.877,23859.021,6479.9146,-5784.792,9603.925,10785.452,32532.333984375
59,-923.79395,-8724.143,-30002.477,1395.192,-2951.5806,-7045.785,29334.208984375
60,7093.608,10529.567,32777.246,4423.6597,3418.1133,3294.7979,26637.0234375
61,10226.741,-1917.7023,18480.512,1598.18,11125.61,3710.387,27132.09765625
62,3819.3528,-5957.519,5344.6006,-1190.5632,2462.769,2899.5737,12668.7158203125
63,2666.4675,-6573.8467,10798.273,940.8069,10944.134,-1024.233,24326.421875
64,10949.925,-887.1997,13778.713,-389.35193,-2755.775,-1777.9839,14639.865234375
65,2805.5615,2714.6475,19554.56,-1357.9329,17807.4,594.45105,35213.1015625
66,91.106445,-16752.604,-18034.846,4865.983,6566.9824,7461.8823,25969.224609375
67,2988.7488,2017.0145,31370.174,-3230.672,-1406.5161,8012.6963,32617.25390625
68,2032.0262,-11200.881,-13628.458,1584.4393,-166.70425,-21525.879,40135.171875
69,-750.3343,-7939.2363,-10294.165,12324.9,-5764.56,14712.357,35761.9296875
70,17690.08,16244.863,12159.338,-1844.8844,-9013.916,-291.29947,16700.361328125
71,-9010.583,-3195.6006,-2895.6067,-9621.518,-3806.7266,1241.3213,19012.244140625
72,11667.116,-14768.153,-21348.688,-2437.912,1512.6412,-3593.0447,31297.115234375
73,-1407.4644,-12550.82,-35656.914,-2804.5938,739.0653,1902.9912,30848.75
74,-8133.187,-8318.21,-10824.377,1737.4409,4832.825,-2385.14,10147.421875
75,-6989.8584,-16812.807,-5733.7705,-5562.878,667.5907,-6137.2554,17820.72265625
76,-8513.323,3946.8733,-29062.799,-2004.444,-1414.7467,3298.5857,29736.978515625
77,4389.2427,5008.9277,5166.9634,601.60205,-887.9157,123.077484,2000.82971191406
78,-106883.65,-125644.86,-111832.836,12310.52,2958.0537,-5426.431,29203.76953125
79,8597.277,8794.028,15970.67,9229.06,2297.9412,-3074.6675,18779.87890625
80,13305.415,15461.877,27510.879,-8730.793,8530.137,5702.6855,26839.22265625
81,16572.291,16011.346,30255.615,-5524.0737,-14996.0,5865.833,32628.7265625
82,13859.058,9732.743,17211.607,-815.60474,-187.50583,6181.876,12603.4765625
83,16090.817,5612.4663,17468.807,1885.9059,3180.3232,3737.6821,14458.8330078125
84,8130.084,16237.349,-16746.893,742.4831,-3677.3042,11310.044,36224.97265625
85,-6571.118,14089.352,3170.613,338.26746,5394.0405,14147.265,31757.7265625
86,4953.8613,12348.725,4436.341,4316.331,-4542.67,14467.358,28363.56640625
87,-4066.6274,-660.67505,-5666.561,-1976.6987,1123.7588,17377.723,30676.9609375
88,-5485.701,-1208.9053,5083.118,1327.8439,-6563.56,-2669.9126,15514.703125
89,2949.651,-2459.4238,18220.691,-4114.1978,-4987.266,1564.9337,21858.873046875
90,935.90765,-15451.023,-4953.117,-11639.667,-13605.238,8316.291,37093.72265625
91,10244.463,2591.642,23348.287,-8127.2046,-5064.5356,8065.4614,28298.67578125
92,8811.253,17814.285,29405.924,9726.208,-15970.523,4003.9146,37641.0
93,3361.3904,14948.696,-142.8141,11882.58,-6564.974,-2941.1614,27676.423828125
94,1524.2253,6989.217,21049.736,10310.992,-5966.25,-6530.15,29292.859375
95,3782.9019,-2077.107,-5352.935,8053.4453,-8701.067,-2974.2053,22638.5625
96,2007.0369,4808.7935,-605.62573,-3629.9011,542.57825,-1371.6954,8249.37890625
97,-7348.834,-7757.701,-10513.323,-12185.311,-5133.348,-1307.2106,23205.880859375
98,-18240.613,-19782.36,-29159.44,-11709.544,9209.058,-2612.4587,28124.705078125
99,2628.6626,33380.414,29269.152,-726.7806,165.67125,-11799.569,35433.046875
100,-15018.227,9283.928,-3338.0332,-1320.4113,-3500.2869,-5012.89,23675.755859375
101,-17315.822,2851.0732,-7045.669,-1547.763,-2732.3213,53.153534,18293.56640625
102,-296.0292,7774.6006,17578.662,3112.8228,-5516.8926,-7767.109,23275.328125
103,6526.6055,14724.509,10325.577,4067.375,-3466.836,8550.523,18855.1328125
104,3022.0703,8896.825,16786.773,4486.7524,-4497.9263,877.45544,16325.2001953125
105,15006.342,19175.4,25247.746,11830.661,-5357.8804,-7259.104,27270.28515625
106,5098.615,-9089.051,-904.70166,13816.301,2108.408,-9581.598,31836.83984375
107,12569.762,5453.1333,11766.939,6088.153,3779.77,-21143.316,39252.4375
108,-4418.594,11433.016,29100.635,6208.24,-11860.597,-623.28033,37179.1875
109,51.949455,3195.1782,-8830.85,-1469.3685,14883.718,-5190.167,29471.51953125
110,7629.287,5124.0073,-9105.927,3649.775,9857.279,6338.2334,26389.34375
111,-9538.3125,5923.9053,-4677.4414,-512.1435,14416.217,4998.8154,29778.87890625
112,-1857.7703,-1768.425,14410.107,-2948.1057,6291.9604,-2387.0122,20618.732421875
113,-1326.1113,-14291.12,-13194.729,1680.4626,-5341.4175,2772.083,16498.369140625
114,-459.01965,-12824.863,-5880.737,654.80865,-11434.227,-4279.348,23742.669921875
115,4110.7275,-12594.945,-24370.287,-7011.286,-2513.5847,-10991.436,33812.96875
116,2249.32,29003.959,16151.26,-3527.3682,-15555.558,1364.3241,36138.21484375
117,37719.746,37957.586,37517.258,169.99844,-1120.525,-39.951687,2000.98608398438
118,-21724.865,-20521.863,-21417.951,-749.7813,-131.50961,603.6971,2000.9853515625
119,-12308.784,-6346.3574,3811.5908,4147.751,8033.2554,-3843.6829,22109.57421875
120,10986.493,-4673.403,-5791.3057,9963.014,-7784.4077,-5944.25,29147.326171875
121,2017.8132,7523.7026,-9291.844,2537.422,-14745.991,-5415.0786,31306.71484375
122,3901.44,-3372.0972,-11950.01,-9702.141,-3225.5845,-6772.3516,25299.77734375
123,3715.6992,-5695.837,-945.7706,-6364.024,-5439.832,-5966.3633,19583.28125
124,36296.047,36208.1,37780.26,77.55054,327.52054,-664.05865,2000.982421875
125,-16522.037,-15299.994,8403.561,5771.495,-6118.351,11727.845,34888.08984375
126,3026.4841,22754.615,14251.504,-3128.9304,7960.277,250.59488,22658.521484375
127,2542.9092,-412.73782,-2083.4211,-971.5223,20870.773,2152.6104,36605.53515625
128,-15944.005,-17389.965,-36043.137,-273.80096,2539.3877,9552.393,25890.5078125
129,6262.711,17071.205,14326.121,-9184.729,8540.396,17577.023,38645.01171875
130,9871.98,23583.428,-6109.6797,-215.51465,10080.742,12663.222,38060.79296875
131,971.8877,14622.568,21685.797,-1417.5154,4681.42,6734.098,23247.95703125
132,11886.318,-3484.8845,22628.184,-4808.847,-12560.749,1359.3048,32634.525390625
133,6970.5244,9024.268,7008.671,1442.1921,-6007.1143,4860.887,13766.6865234375
134,40009.363,18256.037,24190.84,-1717.0951,-6832.1577,-4511.817,24275.033203125
135,-6753.6167,3624.5918,-2921.698,5399.9023,3459.4438,-13544.258,27501.693359375
136,18318.81,17989.508,16335.393,-18.779932,452.23132,-6.0335784,2000.98693847656
137,66335.78,66892.164,66333.34,-38.35014,-1074.435,-274.0882,2000.98522949219
138,-24537.357,-10237.034,-28088.65,-1660.9266,-19551.795,-1045.2329,37765.953125
139,-5963.3364,-750.4887,-28682.23,-12833.514,6648.36,8257.836,38639.70703125
140,-11784.77,-20572.535,6019.632,-8155.3813,3434.197,-5609.6475,29664.7734375
141,-4416.567,-581.4142,-12799.478,5161.931,878.8037,6762.59,18346.189453125
142,-2807.3564,1310.4011,5933.1406,-1480.1694,3915.1445,-1696.7919,10888.3447265625
143,7680.7026,16254.752,30516.059,2423.1592,5166.445,-10221.791,28466.171875
144,20432.012,-4533.2173,28509.742,4683.7695,12178.448,1198.3628,37486.53125
145,2949.2656,18425.713,17902.143,6159.218,-1808.0078,2274.96,19257.009765625
146,-2890.624,1378.835,-2726.4338,1810.1395,-2056.271,-5029.765,10768.677734375
147,-7598.3774,-18804.89,-5257.417,-3826.8103,-12912.102,-6875.2617,29038.048828125
148,11023.468,-13363.858,-1772.7468,-6576.2944,-4708.8833,-8936.917,29703.34375
149,-15848.779,-3028.9895,-9406.903,17488.955,-9524.171,4742.084,37154.3203125
150,-30109.912,-9933.582,7899.718,3116.1104,-9309.265,-2173.0312,37258.625
151,10770.348,11965.419,18704.06,1357.8529,1747.3806,-6017.2573,13349.310546875
152,695.60394,7115.01,-26240.467,712.33997,-5307.248,13378.94,39530.81640625
153,-13538.722,-17635.492,-19648.54,3742.1665,-223.11787,13842.747,25418.666015625
154,-2844.2976,4969.1206,-11833.402,-4708.357,-9456.473,-1280.5073,23490.18359375
155,16688.705,7071.7095,5666.8276,10753.996,-7760.452,-6452.0415,27576.7421875
156,4558.1436,7897.8784,10281.584,6848.9756,-17345.227,-5383.3906,33985.81640625
157,-71.250694,-7104.9688,-7784.263,2187.5938,-2628.5017,-2484.534,10407.453125
158,6675.696,17114.94,31070.988,-3495.7095,-13542.876,-9946.844,36512.2890625
159,-4113.058,14276.716,24547.041,-3692.2048,-1467.5846,-9442.43,30779.365234375
160,17173.072,15804.793,43062.28,903.6823,-2452.6365,2980.2915,27471.615234375
161,-4382.025,19380.191,715.28125,-801.948,297.2793,5599.2344,23785.51953125
162,-5581.3228,26328.85,3148.9414,33.975693,2506.8992,10179.888,33847.30078125
163,-2822.1663,-2346.3013,-1878.5693,2979.2495,2124.9192,-2302.0654,7532.59228515625
164,-1494.3895,10870.56,4793.4653,-1865.7516,1075.2786,-16231.83,30315.158203125
165,3277.7585,29221.914,19343.592,-17978.236,2693.299,1507.621,38892.5078125
166,8145.136,8950.395,19415.87,4420.4897,-6621.7573,-6553.6987,20919.373046875
167,-31654.445,-5035.315,-21968.344,6345.739,2066.927,-6480.234,28357.8046875
168,11518.077,8648.988,9127.286,-6194.0547,-4788.359,4190.3237,15609.25
169,-9400.62,-3047.3276,14527.621,-5546.138,7509.722,11956.118,33929.55859375
170,-5394.7256,-1254.6313,-13084.401,-1553.1438,-8303.848,13160.287,29013.5390625
171,-12409.597,4572.1963,20415.355,340.67227,-1584.761,-1119.1735,28636.90625
172,-30315.184,-8933.396,-13233.3955,8543.884,-10301.649,7617.598,33093.48046875
173,17382.459,-4766.5513,-8406.639,-1518.3331,3022.6968,-5840.4966,26853.556640625
174,-6875.2383,8018.4727,-3804.516,5286.207,-8620.577,11781.251,30144.421875
175,1633.457,12584.39,5956.8213,-2547.9756,996.31323,5698.0874,14530.263671875
176,16248.431,-1950.0039,13354.502,-3942.715,-2851.536,-34.29206,18918.912109375
177,8947.151,23300.469,32856.29,7861.6685,-11870.842,7921.929,35084.5859375
178,-17657.713,17427.594,17496.844,5262.7925,2438.5103,3152.389,36934.48046875
179,12835.705,22327.367,4061.7236,-4718.985,-8285.484,1422.3545,23003.859375
180,-7493.201,15766.557,-14092.424,-11244.244,5286.81,6450.251,36414.69140625
181,5166.1763,-2746.073,-29745.469,-7593.298,-5257.813,2672.8862,35812.54296875
182,-269.8285,-24176.645,-18128.045,13178.4,185.2057,-1795.6273,31532.603515625
183,7177.952,12654.989,1227.4554,734.0557,2755.027,7754.252,17400.279296875
184,-20155.803,-45632.316,-36606.47,6586.9404,14155.027,5476.7046,36356.734375
185,-14958.818,-23792.365,-12973.336,14195.41,6839.473,14980.714,38956.92578125
186,-421.56442,-4619.2793,-20773.457,5642.443,2685.3315,2217.1172,21869.619140625
187,-791.6387,-2619.1885,16463.625,4441.339,7676.1387,-7492.14,27147.029296875
188,86558.664,86821.44,87894.83,-145.1518,102.412994,515.41455,1547.54797363281
189,3310.075,-552.2254,10793.032,-5907.9062,1525.2761,-7027.5547,18964.76953125
190,-5396.746,20368.781,23150.254,4639.779,-2571.069,2251.8833,29032.6015625
191,10217.03,442.57812,18729.146,-1344.8683,846.94196,734.91406,16136.7763671875
192,-9702.1875,2405.7485,19630.037,14633.883,-1729.7894,-7202.1226,38195.13671875
193,-2267.021,-9462.641,-8657.026,7229.656,-10712.682,-7855.5405,27071.12890625
194,691.46436,5391.8584,13649.217,-315.53766,-10524.793,-1538.7839,21651.94140625
195,15134.329,-7558.8086,-15003.126,5138.123,4941.7524,3245.597,30387.44140625
196,-6690.068,-4647.69,-6315.0483,3241.627,-2198.1353,-17525.645,31161.041015625
197,-8660.134,-5477.339,9800.27,11496.745,176.45763,-2223.3367,26525.638671875
198,-11761.644,-12501.222,23304.535,4084.3677,-1771.0267,2764.793,36585.6015625
199,8349.157,8477.73,4793.837,3536.158,-1799.7109,-196.23506,7775.57666015625
200,5541.955,-1723.8859,-3389.934,13617.796,-6751.442,-466.19815,27593.556640625
201,16932.877,-2312.8855,-5801.885,4269.4624,5685.446,-4790.473,25888.697265625
202,13026.092,2244.4023,-3653.1235,8429.716,4373.4854,-7360.075,25449.666015625
203,5503.8477,-17130.498,-15802.042,6274.8447,-6289.454,-2253.8674,27130.095703125
204,-3654.7249,-4424.132,-13338.577,3098.3967,-1270.6565,-1804.689,11416.3369140625
205,1845.2192,-6707.1147,-13707.279,2089.8699,5008.144,-217.70721,16446.939453125
206,-7337.8745,-9115.32,-6744.526,-2911.7812,-3329.3757,-8379.184,16549.556640625
207,-2367.7703,2553.269,-4710.9536,11570.6045,1833.411,12494.877,30353.33203125
208,-7551.1367,-3360.2195,-8453.037,7618.889,-5605.5034,2041.5247,17408.84375
209,-17868.78,-11144.116,1328.5332,3579.5542,-8263.614,2022.4967,23242.966796875
210,-1983.3431,-6545.551,-3186.17,3104.4048,-3194.5107,-6070.6196,13669.5625
211,-55415.54,-19842.389,-15818.023,-253.89226,-872.79193,-6028.4053,39195.76171875
212,-45713.914,-9841.569,-5128.407,1985.8087,218.25548,-2786.0457,38902.0625
213,16625.727,-25179.275,9815.705,328.68045,876.71606,2119.3438,39056.96484375
214,16521.248,7334.8794,13818.745,-4042.9385,-5697.405,-4272.1484,16371.859375
215,-7788.4287,1387.1089,-10621.064,-12389.735,165.86284,-5836.997,26096.283203125
216,-8359.149,13953.035,8461.189,-2086.7542,6916.2383,3242.1472,24363.087890625
217,-5739.8135,15984.99,490.16504,-3229.8599,-232.67952,9646.617,26192.837890625
218,8672.049,25377.525,4085.377,-8220.096,3403.2942,-7381.4253,27886.314453125
219,3565.4834,12048.879,9327.655,-4291.391,4358.555,3805.0725,14558.9384765625
220,-264.17746,2285.2002,-1533.0217,656.436,-7829.548,5424.0386,16876.1015625
221,2718.8635,10924.46,-11918.093,-1868.573,893.27826,6272.8228,23077.927734375
222,988.18506,518.6421,-18890.775,1362.4697,14094.328,7384.821,33929.125
223,2040.9624,17502.066,-7160.633,-7765.6606,8176.707,4946.57,30345.998046875
224,-1246.6394,24585.088,9217.982,-10745.712,14552.805,5237.3247,39629.77734375
225,4163.4136,14630.104,-3248.9707,3057.3132,2117.6177,-8307.507,22149.8671875
226,-323.63037,10301.293,3518.9644,2637.7754,-6700.288,9352.514,22467.552734375
227,-19.913086,6544.1387,1209.6542,-11214.837,8114.713,3414.4714,25423.74609375
228,5954.984,12157.939,2629.5718,193.49251,827.2661,-5895.567,13289.12890625
229,-8737.915,-6416.9854,-4629.7393,-1802.364,-6240.223,11335.771,22908.400390625
230,3672.0352,-2597.6528,-4228.658,8519.544,4198.7676,7024.3784,21699.25390625
231,7707.602,6047.316,6381.448,-211.55022,-556.40576,-457.23608,2000.91394042969
232,2621.5496,-2193.3152,5260.2056,12096.944,-2826.653,-1472.7443,22634.82421875
233,10822.289,-11476.249,6104.9023,1264.7244,-1842.2535,-2968.6802,21347.298828125
234,10307.74,-5662.6396,-25443.086,1750.1044,1501.8972,7247.6445,33701.0546875
235,4907.667,-1880.6492,-9928.052,1071.81,1566.9247,-650.2438,13324.818359375
236,6721.1973,-19823.652,-18016.932,-8730.59,11135.403,10779.324,40114.546875
237,9074.786,19.157528,8645.595,-4935.5063,4594.0195,311.51666,14662.3955078125
238,12763.473,-15550.505,-17815.973,2995.8662,843.591,10150.734,34772.55859375
239,2166.2915,-22264.727,-188.31909,-2856.088,3521.691,3532.8127,25377.435546875
240,3009.923,-4683.0835,32277.305,-7833.199,913.29895,3482.903,36930.84375
241,19560.623,-13597.572,-7500.3403,-7526.3057,-717.2174,5173.522,34441.89453125
242,4289.6777,-23252.768,-15935.202,-1422.8671,5042.5034,1888.1935,26526.201171875
243,-3950.7175,5395.32,-5408.0776,-9692.495,-6342.7075,-2449.9033,22882.791015625
244,10217.889,-11352.168,-7349.9487,-10313.688,-6786.3037,8601.802,32775.1171875
245,-22628.715,8496.771,7394.289,9769.076,1555.6909,11014.421,39915.078125
246,-23417.287,8295.264,-15213.371,-7723.378,-11144.911,9053.498,40128.53515625
247,10633.656,20128.578,-15391.121,-7354.465,7245.116,-2688.998,36823.59765625
248,-2412.3716,6268.5376,14937.381,-9337.785,-3562.6057,7582.6772,26417.998046875
249,-3100.809,-22950.877,-33925.62,-7937.5254,11784.838,1789.9415,36709.5546875
250,-6760.704,-3174.953,25719.035,-1228.2238,-8780.98,2805.054,34796.18359375
251,-24045.797,-51573.11,-39067.09,-10114.802,1906.4784,-3896.5618,30549.591796875
252,-33244.543,-24911.334,-29550.662,1825.9048,6588.9897,-2372.5728,14471.9970703125
253,12635.626,13891.898,14657.412,105.44731,-289.55533,-444.6473,2000.98559570313
254,-35939.324,-50035.88,-34403.008,7996.3535,6718.8145,3331.3743,24151.1171875
255,161439.1,162519.55,162599.69,241.8028,204.95418,851.2845,1932.83984375
256,-76294620.0,-76293610.0,-76294480.0,765.7888,-602.7567,287.0366,2000.80737304688
257,-138429.83,-137894.11,-137441.97,-33.976357,961.8684,377.01364,1984.71643066406
258,-139919.2,-143114.4,-138145.75,59.453407,-2492.741,-4822.2197,10365.0517578125
259,-3598.4824,-15654.882,-3054.3936,1295.6288,1574.9487,3078.691,13896.939453125
260,40801.87,58453.8,37241.223,16398.355,-7434.0654,2380.8862,37103.11328125
261,53879.688,64488.81,26140.441,6857.2637,-1253.5663,-3772.2742,36942.9140625
262,23670.682,26237.314,38170.914,19768.719,-6240.2305,3848.9834,38901.15625
263,-12725.404,26120.203,-12218.757,1449.7076,-2365.8118,-1640.5768,38996.5078125
264,-20611.945,1855.106,3357.349,9627.13,1583.8203,-11584.434,35056.29296875
265,-11888.11,31899.229,8512.673,4997.8096,-4330.3457,-1122.8191,39688.77734375
266,-16588.512,24003.342,-6730.0996,3554.8267,4297.4507,-6880.8667,39750.0859375
267,-28092.436,-49580.445,-10518.646,3802.6218,-7360.6665,-3628.4758,37331.140625
268,-13299.721,2351.9707,-29727.883,-8012.047,9194.464,-9916.063,38899.44140625
269,-3222.1475,23426.268,12782.649,-5183.819,-3911.9983,2049.5647,26056.060546875
270,2367.5117,7107.3096,42155.34,-3219.6921,6009.4834,2745.5806,39736.7109375
271,-17595.426,15792.387,12434.833,5485.4526,-11088.667,6491.8164,39993.6875
272,-6427.8555,16767.664,-12513.392,8979.411,-8357.538,-4303.155,34974.41015625
273,-2805.1472,-13898.389,-30641.967,-12424.792,-5057.1016,-10315.511,38055.5703125
274,-56605.79,-32746.006,-59637.473,-7120.391,-13312.328,-5966.5576,37965.3671875
275,-8164.7383,1122.6619,-4546.2803,-4804.4307,-3207.5522,5235.4976,15750.7802734375
276,9352.192,-7311.911,8855.332,-572.55756,-2905.034,-1193.7441,17327.310546875
277,-36289.84,-7060.3447,-5036.798,12557.321,-347.87488,-2839.6213,37619.37890625
278,-13111.672,28611.074,-899.25684,-1749.7893,-1167.6177,-671.8389,37350.02734375
279,3271.6807,-3811.9023,-16410.107,11545.722,3422.3223,957.0949,27128.0
280,7249.249,-2345.6348,-14668.118,-5140.094,7404.7227,-2291.0425,24932.634765625
281,15517.068,30490.389,1372.7594,-14023.256,9279.787,1486.463,38613.16015625
282,5642.2065,13346.249,-608.4629,-601.79095,-575.6463,-5312.962,15275.5302734375
283,-1393.4878,18409.111,680.0752,6976.6367,-1144.1704,620.1577,22505.158203125
284,-5902.1514,-4550.8916,-12119.685,5179.3457,-939.8171,-7439.3115,17263.88671875
285,-15050.55,2178.746,-5655.6094,7946.2363,-6094.65,-7876.9316,26650.435546875
286,-9979.511,-9182.083,-2625.6982,9553.292,2613.6248,-4521.054,20111.17578125
287,-21555.0,-14547.768,7493.7773,12411.315,-432.08835,-8578.52,37051.80859375
288,3625.2183,2701.7812,-16241.518,6933.2617,-1978.4498,13625.713,33017.08203125
289,-8995.808,7491.0107,-3772.742,7745.335,-5390.1836,2682.3975,22398.716796875
290,14615.201,-1602.0269,-41.33252,19918.303,-4568.05,-1402.2513,38714.86328125
291,3377.7822,5430.63,7078.844,11783.087,-7028.075,-2065.468,24244.953125
292,1967.3672,-9872.944,-10696.856,-11918.403,1720.2952,-4608.263,25482.517578125
293,4668.448,-355.00146,12416.739,-11145.603,-5518.7124,-11233.873,31093.984375
294,-9365.604,21258.92,5515.09,-7620.8115,-11314.294,-5846.0444,36937.53125
295,-12909.787,12010.034,27894.69,-3875.5063,-1495.8386,-8812.438,39419.6796875
296,-8521.225,4334.5186,-878.85876,2289.5518,-3923.1707,3599.9656,15040.173828125
297,-6183.925,2694.0657,11161.318,-10186.491,-1337.2142,-902.5428,23340.677734375
298,906.99365,8891.817,7598.941,-4571.8438,10259.039,793.33356,20867.259765625
299,-2131.8918,11882.377,-1382.2913,-10495.126,4197.966,15788.194,36298.33984375
300,-762.59674,-5487.4756,184.60481,3112.586,2339.2341,2638.4634,9698.5654296875
301,-10427.773,9912.929,-6439.8306,4293.1133,2948.5413,-19205.766,39198.0703125
302,-11176.186,18867.986,-17942.035,-1987.6377,8385.845,-8377.522,39812.953125
303,7190.265,12383.369,7334.0454,-2260.3542,-5360.344,13758.802,26375.81640625
304,319.99902,3950.4355,37483.164,8168.304,-4779.8677,1484.3748,39174.9609375
305,-22383.412,-4634.863,-6152.192,4158.3193,17127.0,-9172.254,38401.18359375
306,11358.495,11565.588,9973.653,294.08078,634.35175,310.81702,2000.98571777344
307,11973.15,9712.99,11070.032,-2398.11,-4372.708,6939.3896,14931.9345703125
308,-38481.12,-60731.77,-44416.547,15114.448,-6264.3584,997.4609,34703.09375
309,-182994.6,-175042.69,-185305.8,7484.8857,1913.3049,-2908.331,17069.880859375
310,-21347.188,1665.5159,-40125.83,-2691.6248,1087.9279,-8772.96,39630.15234375
311,150543.14,151503.03,151415.73,195.92836,140.86784,691.79254,1567.04846191406
312,10298.362,-5910.323,19554.992,-8675.352,3060.4275,-7616.961,30436.53515625
313,-48563.5,-33263.9,-25509.205,13842.292,-4805.297,12534.172,39093.1328125
314,-27788.047,-16402.447,-14113.331,14685.538,2415.8767,-2691.148,29106.119140625
315,-7426.84,-4302.948,-16832.496,2030.8914,-7569.3076,-9116.175,23689.197265625
316,-7312.8916,-3999.455,-21101.193,12676.901,-8714.512,-5339.2695,32283.83203125
317,-1577.3032,-4990.2866,-16620.771,7626.3525,-5657.8,1413.4633,21520.2421875
318,4427.2197,-3231.6973,-13095.165,651.7089,7839.381,9723.291,26471.861328125
319,-7606.39,-12128.719,-2182.033,19721.672,-3277.6099,301.27408,35689.484375
320,-5504.915,-9014.58,-18585.627,5962.793,-3272.4404,5006.2427,18748.134765625
321,-15587.621,-14670.26,21597.086,-4012.7258,7250.58,3084.558,39799.42578125
322,-51871.492,-39020.383,-52519.49,16567.201,-7026.7666,2281.592,34074.3046875
323,-7380.508,-26971.893,-13545.924,2417.2466,-4923.8574,3990.1353,20954.03515625
324,-9486.366,-3419.4028,-7325.585,-2146.6868,5577.781,-5672.0283,15232.9599609375
325,-7225.0864,4617.425,-24126.277,-133.13994,2360.6,7556.3237,28532.65625
326,14803.194,-14817.001,10582.701,-5736.5625,443.1788,-4218.467,30378.556640625
327,16993.258,-10919.131,-1030.0928,-5951.603,-2948.2065,-757.7465,27109.609375
328,15756.437,-13669.63,-15390.808,-1290.8811,-11380.069,3710.0342,36801.0
329,-13005.872,-10199.861,5089.438,-4201.5737,-3210.6025,-2457.9358,19660.779296875
330,-6023.415,13170.953,3723.7527,-4196.4395,3441.9265,-8933.987,24579.658203125
331,-16665.422,17320.668,13463.258,-3584.9578,-10071.253,7067.389,39134.7109375
332,-3288.699,-13492.481,7895.217,-8572.638,4744.3174,-7367.928,28181.03125
333,-41106.84,-41678.97,-40695.62,418.45386,681.9851,667.9393,1997.68688964844
334,-112210.87,-119163.445,-108087.18,7720.462,-13313.025,-1715.3464,28519.59375
335,-26214.52,2175.7102,-34864.496,7440.2935,4790.1816,5516.228,38112.98828125
336,2028.7266,11289.229,23117.146,-17460.137,9782.577,257.16846,39205.26953125
337,-6230.5903,-17569.48,-24922.422,-10824.803,-7812.8213,-6747.8394,30614.701171875
338,12437.482,-6538.527,28920.398,-6379.453,-9741.37,-6463.531,38427.36328125
339,-937.2173,24372.326,-4421.855,-8354.394,10159.818,9315.016,38990.66796875
340,-2484.592,22234.842,-10587.636,3140.2866,1787.6283,-260.72556,30271.890625
341,-7941.5864,-8511.858,-8357.422,453.09216,-899.32715,483.19473,2000.91650390625
342,-3894.5637,-10328.78,-7486.7866,7397.766,-6028.652,-1089.9531,17549.041015625
343,-17730.326,-7385.6074,-11333.453,-6165.0977,-2076.2559,3136.11,15434.46484375
344,-13867.572,-8947.111,9257.904,572.76086,1830.7328,1027.2504,21433.97265625
345,10543.336,3755.396,9790.421,839.39136,-8410.743,3279.004,16974.197265625
346,43232.785,54401.234,51701.613,-16408.04,10854.118,-10758.569,40127.53515625
347,-10760.025,-457.8745,-12795.27,2490.9194,-1932.2325,983.2254,12804.6376953125
348,3564.2852,3823.2256,2656.7307,240.39249,-910.7039,268.77112,2000.98278808594
349,-24129.379,-3405.3389,7621.873,-9506.851,-3595.8296,-333.66522,33013.3046875
350,-3253.629,-20755.127,6667.2666,4416.9697,3472.1426,3663.842,26708.13671875
351,13.025879,22574.984,-4848.104,-5871.313,1470.4578,-1806.2401,27605.078125
352,-589.2244,5677.17,-10978.72,3974.125,164.0272,-831.37,16181.755859375
353,8775.343,-8944.74,8848.68,3818.617,14565.956,-6850.005,33709.35546875
354,-2815.91,-2341.9302,-24294.986,240.18376,5082.6646,-1923.8611,23675.583984375
355,-1007.7759,-61.598633,-26134.748,-11905.858,4963.2715,-1375.0205,34071.35546875
356,-2114.0522,1956.6808,-1317.4255,-12291.073,-4945.0205,-6369.0396,25733.787109375
357,7147.1826,596.9973,-6358.2876,-14973.199,10387.632,-8392.181,36666.390625
358,-8770.274,-4230.92,544.666,1441.5562,-896.3015,-542.83167,8638.19140625
359,8939.651,-232.93604,929.5071,1365.624,510.89883,-1620.9956,9438.5234375
360,64364.367,89256.39,71111.07,3786.662,12550.079,10195.457,36394.5546875
361,46722.508,38474.312,76843.39,35.341095,-2041.6113,-379.1339,35166.5
362,75591.086,96022.05,75311.95,-489.72772,6608.642,-5054.728,25131.609375
363,3003.1008,7829.6562,7971.757,-3017.2239,-77.291695,-3883.6814,9827.4853515625
364,-35053.22,-21761.152,-37155.75,16325.221,4641.453,-2890.9033,33140.40625
365,-10334.4,-9194.572,-9823.569,-2858.5425,-75.87879,2192.93,6319.47705078125
366,9242.483,12477.65,3851.233,6015.45,3493.5483,-2645.7952,14938.0634765625
367,-2107.4004,924.47546,7588.439,3012.8445,4119.627,2114.9832,12859.6318359375
368,-21913.248,-8911.719,-23886.64,2076.8374,1432.7134,-188.76094,14757.90625
369,12572.439,12704.157,18495.234,-3288.4863,6350.6045,2662.4092,14457.349609375
370,25028.672,23386.291,29254.285,-4034.2776,4947.715,-3524.445,13675.681640625
371,-1275.2966,1018.2111,2925.3992,1530.5437,-2179.3674,757.16016,6022.3076171875
372,329.87335,629.23804,1494.2253,162.59773,1103.089,-1799.8273,3813.74267578125
373,-19046.521,-34620.92,-41717.715,1158.9386,567.5419,-1264.9464,20328.568359375
374,-126311.92,-147613.55,-108423.56,-11118.139,-980.47266,-568.0459,39108.7578125
375,-39004.863,-25176.809,-53235.33,-312.27667,-1316.827,-2108.3738,24684.63671875
376,8058.7344,6297.718,10212.069,-6803.2354,7126.6445,-80.95428,17400.2578125
377,16436.19,18232.379,29119.307,-1069.7139,1967.5381,-1335.7864,12716.365234375
378,-75773.84,-87592.195,-108579.14,-6715.7397,6527.0874,10142.293,37414.796875
379,46861.684,32123.45,63488.312,-8551.201,-6379.1387,-7108.0845,35096.03125
380,32113.158,19151.898,35559.36,1201.2806,-6804.289,1243.605,19297.708984375
381,3048.8052,-15126.666,-6063.1665,1171.0673,-522.32153,252.10472,15902.349609375
382,45365.71,36699.734,48340.074,-6583.5283,6288.4795,-3698.449,19985.515625
383,-5876.3677,4151.926,-4059.6594,240.09468,1169.4174,1230.9906,9719.5771484375
384,292.1754,3641.7258,894.73004,-1145.0934,-1050.7377,-964.08325,4427.02001953125
385,-10358.538,-7767.4805,-8337.647,-253.83235,888.6403,-344.55823,2912.01538085938
386,6925.666,5025.4185,9388.207,326.1786,893.32733,-3394.8503,7186.2919921875
387,-6788.5195,347.2754,-1580.4818,-5511.3467,1413.3242,569.7487,11788.58984375
388,-3345.8833,-9482.057,-3461.0288,-4185.982,2636.377,-1626.3931,10877.2041015625
389,664.2759,13428.304,1168.7214,-6137.303,-645.0821,-767.70074,16515.20703125
390,-362.5525,-1469.8777,-1190.762,821.4477,-1007.97687,-327.49292,2527.67456054688
391,-4717.475,-12933.743,-7846.89,-1025.8104,3188.725,1222.9532,9472.8984375
392,11732.116,3990.481,9133.979,-474.06732,-234.06177,-1075.1692,7132.7373046875
393,-2430.299,-1875.6608,-1484.4587,4073.3328,-1391.018,150.39873,7505.09228515625
394,-9122.551,436.2666,-8696.193,-9.345418,437.2034,53.28818,9384.0029296875
395,1174.3931,3579.6348,-374.6001,1543.8508,4892.3896,6268.3413,14447.9560546875
396,7314.8325,3077.0344,10040.172,2254.5508,1959.374,2034.2472,8724.4921875
397,-78588.29,-50799.47,-95535.23,1426.5273,-369.41403,2143.775,39378.34765625
398,-1901.0195,4077.5273,30570.004,-10879.25,-5420.976,301.54337,36599.02734375
399,-24138.684,-38113.504,-42649.547,831.9734,4737.739,6094.8174,21450.33984375
400,-73064.086,-84827.29,-103309.81,-5770.8335,12408.453,8081.0596,38146.00390625
401,4606.0674,20660.137,32748.941,-4974.1406,3662.938,1614.8845,26837.435546875
402,38915.516,47997.336,79052.664,-1470.9316,-2186.1135,-1099.5023,36788.67578125
403,4713.126,-118.49768,718.6139,846.5579,1470.7825,-2338.8162,6711.96728515625
404,-4268.375,3617.7542,-7676.707,-24.359238,-3699.7273,-2194.5544,12498.0087890625
405,-7819.9077,-3876.072,-10070.283,277.3784,-3271.865,-1420.0581,8239.4755859375
406,-4880.5566,2499.8442,8297.89,-8176.5254,415.09738,-2638.3438,18784.1875
407,7570.3936,3283.9836,6962.689,-2428.3455,1490.9948,-245.8329,6377.99560546875
408,-17613.207,4850.374,-4440.7227,-1145.0089,4400.3877,-3193.9731,21791.1328125
409,-5106.663,-7257.2656,-12872.439,-2520.9775,-3992.9907,1831.3605,11188.87109375
410,-6396.798,-1985.5107,12595.157,-7428.214,680.49475,6601.8477,24373.189453125
411,79114.305,61286.53,83069.336,-5087.0493,-913.3056,5970.302,24311.546875
412,-18445.082,-27897.152,-31023.443,-138.4683,-2802.505,1146.898,12499.240234375
413,71887.76,72168.03,76044.9,-202.66351,1685.9778,2730.7705,6871.4873046875
414,6564.4053,-3904.6775,2997.606,7276.9077,1725.6561,-4629.8438,17806.8203125
415,-4211.1304,12236.889,11360.187,-1202.6714,928.92474,3237.6606,17183.166015625
416,26939.918,7354.8955,18363.117,3595.3887,1376.3077,-11.158801,18265.302734375
417,8511.008,4668.1045,-15487.425,2191.303,1805.2218,-2123.1426,23155.43359375
418,164117.4,163741.38,173284.28,-149.9133,3738.8223,5017.399,14322.943359375
419,-3922.205,101.159546,6566.4834,5603.2427,-2833.9824,61.48412,14223.0419921875
420,12620.669,29751.594,-3800.9316,14794.527,-3304.9954,2423.32,39388.76953125
421,173406.58,173222.95,181995.75,358.37924,5299.529,5155.6636,15484.4345703125
422,1851.5741,-2421.4194,-1000.31213,1516.2896,1539.8347,1620.609,6007.94775390625
423,28014.738,9815.579,19292.701,-6349.8545,4322.4023,-4279.4126,21920.3359375
424,35959.766,61880.797,54653.184,-1831.513,-6163.9785,-5329.6255,27313.970703125
425,9045.518,8519.207,1406.125,-695.26196,792.7374,-762.81635,7726.4326171875
426,-8188.1997,-2582.4512,-825.95605,-118.80422,605.4333,-3722.1172,9330.6279296875
427,5296.8936,4156.674,11261.739,1932.8331,-729.14655,-1251.6339,7821.955078125
428,4151.3716,-529.5332,81.36438,-3794.9294,-433.50995,740.34784,8052.14990234375
429,-11849.042,-4048.8662,257.19775,2766.6501,-3185.6257,589.1522,12939.1650390625
430,7059.3066,11809.681,32721.29,-2048.0242,-636.2997,-197.70776,23939.80859375
431,-50706.453,-28171.334,-72334.42,5557.791,-2976.7996,516.6178,39787.453125
432,1370.0312,-8928.377,-12167.396,159.85333,120.37651,-3560.3718,13713.28125
433,13446.6455,12409.367,13456.146,-1490.6564,-3885.695,737.0396,7394.431640625
434,-38414.168,-55707.94,-80499.24,550.67145,2055.866,-3918.1958,37444.15234375
435,-4709.962,3935.625,-14482.32,87.696594,2986.248,-3495.2634,17837.029296875
436,8846.572,7204.828,-3324.5547,-6983.1895,2449.4604,2768.1616,17836.263671875
437,33170.75,50407.434,37819.746,18069.43,-5491.845,-1121.3453,36226.36328125
438,-1989.835,719.3096,-20877.334,-2240.7593,-1366.8031,2058.803,21180.876953125
439,32540.828,14319.591,42008.18,-3578.4915,5682.858,4078.1301,27916.767578125
440,-355.1394,4279.0444,1434.396,-1777.3091,889.61615,-717.6767,5457.19482421875
441,7267.056,3282.424,-1892.1001,4678.255,1863.0677,3744.2168,13468.4931640625
442,24572.387,26352.383,40431.223,-263.58417,-3369.4648,4167.9897,17686.919921875
443,3506.2417,4826.294,5816.5684,397.8178,-239.19841,-849.0941,2615.28247070313
444,-3568.9146,-6965.4717,-2764.5044,576.8821,-366.69696,100.12859,4043.23608398438
445,4695.5137,144.02539,1855.3945,1201.6045,-1592.9545,20.703049,5272.65673828125
446,77868.914,50916.0,88235.44,-24.507814,1011.2624,-3901.9683,34089.26953125
447,7830.4927,9197.995,19251.654,-9508.662,-2888.0938,59.836823,20321.724609375
448,4467.13,3687.9243,10573.301,902.0782,841.0772,-2407.36,8037.41650390625
449,11751.721,-4837.3906,13839.562,-2843.1943,-1810.4326,4040.0698,19930.978515625
450,-9512.564,-1053.1143,-8208.1875,580.23254,-356.5237,1445.4182,8359.9296875
451,36225.32,18905.771,59623.996,-7026.3726,-5086.1523,1735.9622,38567.81640625
452,-8048.375,-8655.715,-6401.4346,-2146.3533,745.5579,1134.0525,4840.22900390625
453,-2421.4756,-1230.2163,-500.99268,-1236.1409,34.86686,-2136.146,4593.1142578125
454,-9950.232,-1969.5657,-3882.1182,1169.0405,347.05124,-1033.5707,7729.9130859375
455,-16595.277,-22832.85,13379.444,-11784.583,-397.36768,-503.67123,39271.16796875
456,15804.688,-12183.79,18437.758,-7826.2065,6195.7354,1991.8116,34275.2890625
457,-1685.4668,-2527.5183,-5620.0557,-3111.4395,492.89645,-1620.9185,7108.51953125
458,10048.619,-545.3906,-10457.493,-1347.5239,-4503.579,2183.862,19902.099609375
459,3029.0134,3943.1804,8150.658,-659.43854,1818.7885,183.76328,5806.44189453125
460,9530.684,15886.314,15243.43,-534.9786,1269.8792,-843.88837,6674.89599609375
461,620.27124,3231.5615,-7583.8047,-1824.5095,-566.8771,1887.888,10825.517578125
462,-2236.9268,-12.872559,-11929.744,-2074.676,4291.6934,1322.45,13923.71484375
463,-8646.76,-14458.396,-6551.4873,-7828.258,-3888.8076,872.76166,16788.11328125
464,-6697.765,-4429.075,-4012.349,-2371.3284,1913.8353,1256.969,6234.0869140625
465,-8423.538,-3415.998,313.26074,-1663.9716,1175.5396,2255.5298,9239.673828125
466,37740.547,45784.227,18880.252,17049.26,452.6957,1121.5424,38059.66015625
467,-825.0166,21879.5,1094.0264,-5374.0737,2668.9932,633.33594,24183.109375
468,17500.566,33270.676,22597.19,-3948.401,3666.1921,-1836.3082,17073.552734375
469,-7271.335,-4908.4746,-9440.954,3741.5474,271.7708,-1840.2474,8233.802734375
470,4472.495,11890.612,8668.465,-1155.4536,1825.6438,-60.688797,7451.41748046875
471,-7657.506,-1665.7183,3030.4148,447.49597,-3911.9243,527.8455,11551.6015625
472,-25204.312,-29532.977,-46870.043,-10148.911,7484.727,-2908.8738,29946.734375
473,-15222.936,-29636.873,-45043.363,915.765,1446.1719,-1144.7887,26075.111328125
474,-30100.61,-52839.836,-16450.467,3866.3962,-2744.0542,-9676.831,36907.34375
475,-2639.771,-2989.2969,2333.8662,1963.8091,-834.4768,-480.84012,6399.2158203125
476,-4086.3086,-4515.181,18056.324,2803.9731,12746.058,10785.93,36877.609375
477,-8024.3535,2688.245,-3804.8328,1059.1355,-3867.3113,3651.2173,13251.0322265625
478,25753.76,15639.809,21255.607,-455.641,-442.54,1792.4564,9374.451171875
479,5487.6973,1221.4377,-3052.8987,2303.7104,1725.0006,-1479.7245,9280.2607421875
480,-4742.314,-1842.6963,-8510.535,-2706.464,69.52334,-2624.2812,8728.3203125
481,-3182.721,-4692.1846,-10801.846,-6018.9463,-2767.4866,-1449.4962,13667.185546875
482,-9572.388,-11997.619,-6831.6157,-583.5677,45.96541,2651.3953,6492.93994140625
483,14571.287,8682.928,9812.663,963.69763,-122.99441,-2274.103,6902.38671875
484,1556.2412,-4508.731,-9340.306,-523.29126,859.182,1021.22705,9777.3291015625
485,5133.936,2891.8914,-9.182861,-818.59735,1387.3514,719.48096,5411.5458984375
486,-32991.68,-41587.59,-47116.26,2516.5837,252.82524,2304.3809,13678.5126953125
487,-2499.8823,-5045.9717,-6348.7305,4557.016,1875.554,2736.7146,10335.2705078125
488,-6324.38,-3734.2236,-208.67017,2754.6987,-1850.7764,807.3632,7954.048828125
489,-3618.7446,-4432.3164,3345.4956,4244.0376,819.9275,-467.6573,10561.1064453125
490,27264.465,25339.502,46089.383,1965.6718,1500.5781,1700.9543,20526.734375
491,-28462.84,-22988.348,-58533.008,-1677.6465,4305.4067,-381.92505,34107.10546875
492,6651.5166,7317.956,11014.339,791.82697,-2251.887,-1628.6173,6451.5068359375
493,2800.7346,3066.7798,-1798.7861,1834.0195,1719.8905,1836.3083,7178.515625
494,17782.967,19547.865,24594.355,-5727.98,232.92943,-4394.6826,13929.1142578125
495,-34624.715,-39033.22,-66798.54,6378.5464,-4547.66,-726.03973,33142.6328125
496,-4760.6035,-5077.156,969.64453,873.3045,1265.7699,643.80237,6564.13134765625
497,12599.971,2755.752,9611.173,-1654.7828,-377.39496,-1378.581,9526.953125
498,8039.1826,17616.379,11107.091,-5965.103,2607.2158,-978.15344,14204.3388671875
499,1792.0608,2378.855,6065.6514,-1215.5305,-552.35754,-2641.0098,6509.44091796875
500,-9085.81,-7238.7593,4279.534,1801.7548,-1060.4982,-397.48254,13074.572265625
501,-8486.962,-6961.8623,-3207.5427,4735.566,-2200.1729,-1876.8098,10701.06640625
502,-3838.538,-9266.361,-24866.87,-11264.31,818.2443,2278.1433,27490.83984375
503,-24679.613,-21878.607,-18363.213,-1067.7349,357.53452,418.50333,5863.39306640625
504,2049.0432,2939.9255,976.6776,-598.9481,74.4039,642.2416,2286.75268554688
505,16171.569,8657.187,17269.906,-7718.574,1123.9436,2391.588,16297.349609375
506,-26030.62,-18052.162,-16862.455,-18338.883,1356.9446,-4710.6406,33994.13671875
507,3522.7837,1925.8547,27.964478,-504.51376,-1436.3329,3174.3713,6809.23095703125
508,-1521.2476,2917.6968,-6029.631,-2307.6726,832.1935,3452.5796,10670.37109375
509,2386.2563,1237.4664,-1947.9297,-1678.6487,-1057.7357,551.34924,5277.09912109375
510,-17124.68,-13574.162,-26783.031,-953.46924,-8265.958,-1402.9154,18809.361328125
511,-8366.277,-7578.632,-16254.107,-773.2918,1238.1401,523.3176,8733.015625
512,-5735.5195,-9479.169,-12406.727,-1030.9323,3909.1775,-2211.7537,9861.7587890625
513,3264.022,6513.7236,2273.9167,1396.8779,958.8924,298.59058,4861.904296875
514,-18605.873,-26980.766,-40702.938,-1286.8828,3650.9277,-1011.37036,20527.619140625
515,-14997.086,-30780.725,-43543.33,-885.6151,-2.0099769,-426.89484,24826.34375
516,1402.2334,6140.5283,10140.579,-1390.2102,463.96265,-1080.7689,8206.9052734375
517,-20445.816,-27930.408,-28053.262,-2310.3108,-1599.3528,-6197.4155,13995.1416015625
518,-25024.809,-49616.72,-30640.516,10336.618,-437.1472,-4953.2373,29881.62109375
519,64819.94,73557.3,35429.332,-9956.367,2870.8909,-2045.2689,39135.7734375
520,3715.3103,5884.521,8464.508,1894.6664,3375.9768,-1921.5886,8543.8154296875
521,13440.98,17747.04,31007.418,206.21558,-4601.86,649.62476,17787.767578125
522,4227.931,2054.8284,3915.9475,-285.1705,-141.31407,567.7124,2326.47900390625
523,19006.365,15016.19,30945.604,-4755.8164,2334.6992,1107.3218,17146.162109375
524,-1984.2109,-2035.8408,-16241.113,646.36774,-241.59009,-1959.2292,14678.8994140625
525,1155.932,-3344.074,-2345.032,3239.8552,-2153.673,1069.2135,8098.58056640625
526,12037.139,-3983.9297,4743.8857,-5483.022,1357.2147,2023.7333,17350.033203125
527,-3469.7224,-2387.023,-2844.1978,-1053.6504,-558.1158,1011.44727,2867.11669921875
528,-7166.2983,-2104.9043,-631.9685,-1483.2781,-3894.8484,5973.776,13943.107421875
529,14849.018,12145.43,26659.422,1616.2933,4126.5776,-2817.5728,16169.873046875
530,2949.54,-4241.6406,-4237.5425,2977.822,-1029.4974,-1900.7953,9607.5263671875
531,2276.8374,255.315,-123.31885,-2334.4236,3397.6736,2129.0002,8341.1279296875
532,-1494.9348,-2369.2998,2735.6567,-1033.9353,410.10132,2152.5852,6322.49853515625
533,-6836.8384,-4338.2363,-6518.351,376.61627,-847.7039,-3701.0198,7015.884765625
534,-2133.7686,4312.6377,-1938.8448,-1267.2886,2072.1497,-2227.4128,8539.3896484375
535,-1158.0903,2775.534,2618.689,-349.1636,753.3033,1924.306,5296.9833984375
536,-933.31885,6068.0522,8676.922,-4889.4214,-670.28577,708.7952,12192.8427734375
537,-4484.4736,-8115.8438,-3275.3315,489.89062,1160.2062,1175.1932,5285.9404296875
538,6470.466,-1606.9578,-896.86816,740.1227,319.44196,2.6306953,7871.64501953125
539,3756.33,3183.852,4459.637,-5445.435,749.0641,758.7916,9674.392578125
540,8429.41,-614.8345,9182.502,2748.718,33.991947,2304.3806,11303.8486328125
541,-7810.9893,-12856.506,-17500.203,-5771.144,-1170.1427,1455.4722,13447.3876953125
542,14150.054,6902.9517,19283.336,2932.222,870.9045,-185.77365,12010.2138671875
543,-5266.3267,-6089.343,-7161.6772,-898.56067,-1333.5245,-2285.318,5112.234375
544,8154.379,1110.7964,849.8679,1658.5043,-226.69063,-231.17566,7751.41357421875
545,-3533.0283,-5968.4546,-5650.286,325.45792,2417.958,957.65344,5085.89111328125
546,-15427.396,-17503.87,-35971.324,-2146.134,-4159.117,2232.719,21549.322265625
547,14045.475,13602.551,26132.152,-3031.36,-9208.138,325.8414,20830.09375
548,2954.162,-1854.4281,506.8916,-2660.024,-763.14716,361.04913,6380.375
549,1380.3365,1960.8982,-725.8161,-818.48486,1863.2471,363.41928,4337.8251953125
550,986.0718,14658.845,4414.9087,-1070.3135,1104.8394,531.519,12639.865234375
551,5506.865,3596.69,2621.7356,-496.7278,-996.12274,-1155.6217,3766.30053710938
552,-1873.5137,-2802.3054,352.29163,-2286.7766,-462.3241,-952.90186,5190.1357421875
553,-24169.023,-27847.27,-48140.21,-1505.2914,-3925.8398,-799.8706,23556.93359375
554,-1729.1033,-1462.2896,1711.3217,308.88303,-4962.589,931.3918,9368.0478515625
555,18213.922,24748.518,36156.434,2022.7379,1725.717,-603.4934,16422.208984375
556,1016.69604,-104.73926,-8025.7715,1223.3335,-2557.8542,669.2605,9916.8798828125
557,-6870.1777,-8035.883,-19289.33,294.49847,-767.5174,-293.15628,11975.07421875
558,-966.0188,-6969.918,-2691.5286,479.26556,1106.7126,-780.2996,5903.7724609375
559,3571.1558,779.907,6820.8433,-1178.5767,-1910.0593,658.5575,6620.8330078125
560,43061.47,35444.49,67973.61,194.65263,-6104.606,-511.18463,31322.271484375
561,19426.945,17109.326,36912.0,-2211.3557,556.76227,2714.7085,19731.48046875
562,560.3911,671.5281,-6389.016,-150.19017,446.82513,1623.1663,7592.732421875
563,2915.8198,2964.7886,1020.0066,1269.106,1923.91,-803.79126,4643.6796875
564,1007.69904,1744.5531,-1859.5457,-4040.323,562.4602,1634.9009,8295.61328125
565,2152.2556,-547.8777,1483.9111,-1764.1202,1180.5837,1085.2362,4794.130859375
566,3678.977,2433.6992,3999.7256,-289.97452,4.6769595,173.94981,1547.93872070313
567,-17946.467,-4657.0537,-30644.08,1202.1731,4119.8145,3660.0195,24536.162109375
568,-28671.865,-30215.129,-48063.766,1099.3596,328.9684,-1095.5889,18869.341796875
569,-227.25372,1386.1625,-4179.8013,-366.54794,185.35774,-248.97758,5029.41015625
570,-8765.199,-15381.741,-8985.208,-2765.568,1464.9431,-2505.6365,9517.8388671875
571,-6900.3984,-9711.593,-12366.953,-1095.1342,-6971.0405,2270.0408,13684.3681640625
572,-1434.021,13186.548,9531.892,370.0664,1643.2063,-1181.5547,13652.24609375
573,1181.835,8272.433,1103.5972,6114.0615,437.8598,-3036.2864,13828.0498046875
574,10086.128,10364.152,18709.496,554.2029,602.68854,-2598.6604,9711.4619140625
575,-59880.2,-50293.453,-91714.875,785.373,4472.6006,-5764.768,39649.765625
576,-8885.393,407.10303,-11470.8955,467.38687,7084.474,5013.46,18538.880859375
577,11884.3125,5460.337,5637.929,-6290.6597,929.805,2111.8875,13223.0546875
