Element Label,S11,S22,S33,S12,S13,S23,Mises
1,-194771.58,-194784.55,-217988.34,1845.5074,-1036.9913,1473.1855,23636.240234375
2,242511.4,244107.94,223520.25,610.5089,-11101.562,-1736.8522,27810.69921875
3,-114642.445,-113506.87,-75917.04,-754.2757,3188.9045,-2593.2751,38850.484375
4,-31448.814,-12518.516,-41505.562,274.8523,-2813.5066,8327.719,29696.775390625
5,7428.0234,13205.936,43826.15,-9355.423,7435.406,3386.4194,40133.9453125
6,116241.73,115502.15,89551.6,381.53574,3264.5305,1329.2084,27034.771484375
7,-165140.47,-162719.7,-124485.945,194.5607,1947.1383,592.3184,39658.23046875
8,-5296.558,-7913.9673,-45857.453,-407.0188,-213.59346,-1195.4142,39380.1171875
9,51887.31,18542.285,52580.62,-7086.4595,-2256.1145,1721.0747,36198.06640625
10,-38596.492,-56723.434,-67299.32,1674.3921,-14046.933,-4245.0137,35868.703125
11,40759.273,58013.89,24171.729,1373.4348,-6252.57,-530.7578,31350.728515625
12,-4249.0273,-32484.012,10325.448,6906.4033,3734.3838,834.55444,40101.88671875
13,134666.16,156371.0,173129.36,-4701.0034,-8540.689,-4215.3706,38132.8828125
14,-192031.78,-190766.72,-168487.66,2496.531,4228.5693,-7149.178,27419.228515625
15,161191.62,160815.7,159922.33,-613.13544,-717.87225,135.07741,2000.95971679688
16,-54978.547,-48629.1,-86757.1,7912.093,-1535.5757,2726.5159,38329.45703125
17,37540.234,44054.703,17187.955,13407.3125,-4918.055,-11265.131,39771.5625
18,-33894.637,-54121.086,-75998.23,-570.3372,3994.2935,-5822.907,38480.81640625
19,425352.38,424990.6,426212.44,43.857548,671.2165,-698.7608,2000.97802734375
20,19944.652,40264.69,15747.224,7838.1973,481.0533,-6834.8037,28999.3828125
21,94625.25,138882.36,117537.92,1068.7217,-4647.4023,-2392.5188,39433.83984375
22,-20121.59,-1479.5712,-41334.656,-4097.176,-2305.202,8697.436,38551.421875
23,25666.785,7910.053,45055.305,-8145.001,4218.0566,-4016.3667,36555.2421875
24,35756.164,58240.668,19842.373,1693.6207,-9698.893,-5032.4844,38514.98046875
25,-8674.677,-49597.117,-26279.465,-2278.0215,4208.8823,7052.5664,38497.6875
26,43938.2,55492.098,39191.984,-19916.71,-5594.4995,1540.2701,38754.29296875
27,279627.3,303394.7,316349.16,1725.5162,-5080.1504,-730.6487,33594.01171875
28,-140236.42,-107505.19,-140516.3,9649.841,-7006.2837,-556.19257,38834.5625
29,-19388.611,-51735.18,-56592.14,1280.3374,-7963.433,-633.2694,37727.52734375
30,75530.33,94533.805,61161.04,-14261.259,-242.79935,4353.8364,38831.30078125
31,-288225.28,-251929.33,-254114.14,7555.0435,-367.98462,-1398.8527,37687.9609375
32,-39456.758,-34673.48,-53515.91,15833.591,-5239.1724,-9726.584,37497.49609375
33,-124640.23,-80849.63,-93051.72,3898.1423,-445.13773,1656.3458,39831.921875
34,-46098.117,-76272.53,-87837.81,-4997.389,-2669.2427,589.49304,38607.83984375
35,-398970.12,-387494.22,-429924.97,5219.6,-3782.3423,1718.4135,39732.1484375
36,245416.58,202584.75,233440.25,1567.5118,-2227.7305,1154.9751,38617.2421875
37,69662.3,34481.516,40687.56,-12453.484,-4018.054,567.82135,39655.2421875
38,75119.414,107898.6,115425.97,7048.675,-443.5837,-1519.1721,39171.96484375
39,121244.61,96776.44,138610.48,-5778.7485,1879.805,-1452.18,37977.43359375
40,-117677.086,-107254.164,-143835.28,-12019.949,-3150.8513,2026.0638,39256.45703125
41,63383.508,65044.29,99549.14,8260.402,-431.02768,1777.0441,38280.3046875
42,-68089.66,-89487.1,-105633.37,-11967.861,-475.16208,-357.7962,38662.5390625
43,207178.56,206978.7,207523.36,96.73068,-516.1345,991.4567,2000.98815917969
44,-424823.53,-426048.5,-425669.03,-729.1185,-318.23254,555.449,2000.98364257813
45,172830.44,173631.92,172990.25,418.33066,-652.9114,743.81934,2000.87805175781
46,5922.4526,26408.986,13144.403,9348.508,2068.3254,-14907.81,35575.9453125
47,158498.69,158826.23,157981.19,491.21164,273.60144,-914.85864,2000.98413085938
48,5650.6826,5819.726,31500.758,-1700.9744,11454.555,2115.2358,32857.390625
49,-39712.965,-46889.023,-15682.885,-9800.434,3741.0828,3917.8164,34315.62890625
50,-15339.784,-10727.834,-2924.9824,2588.4934,6122.644,14023.228,28994.048828125
51,109337.7,104818.58,133323.28,12606.436,3588.091,928.58417,34958.55859375
52,-51544.535,-22222.57,-51367.508,2473.55,6018.4507,-4157.902,32148.146484375
53,7721.063,-10151.552,-5567.7544,11982.109,4047.9917,-16168.3545,39020.96484375
54,-232108.36,-224275.67,-244134.31,11222.246,-3867.1897,-8077.705,30308.4140625
55,-1681.0992,6225.586,-21903.299,5182.821,-8156.332,-8532.419,33614.16796875
56,-83166.016,-92985.164,-100595.41,6118.0195,-1667.6279,-17721.29,35941.94140625
57,18212.518,-16790.162,9048.781,-5160.587,-2022.9392,-4819.263,33915.39453125
58,-4635.1245,7269.269,-25197.053,7355.755,-10010.898,-5685.0312,37002.9609375
59,-9591.143,-11.495767,-3684.166,2703.631,8174.8633,-8715.147,22811.1953125
60,24455.443,20472.59,-1223.9,-12712.016,12711.922,1642.7432,39378.61328125
61,66802.11,82278.04,103582.54,-9804.651,5218.471,-6190.755,38835.0390625
62,-38866.96,-44637.12,-6054.5557,-4609.347,-4179.2935,5421.0757,38776.06640625
63,35539.15,45244.875,26670.898,-19667.678,-7998.6616,-381.72314,40146.546875
64,138233.94,94778.27,120588.01,5060.8535,-450.24683,4840.207,39757.83984375
65,67741.01,60846.73,97536.65,11742.342,-1217.8715,1410.5234,39557.51171875
66,-60586.953,-31118.254,-17564.445,-6160.7485,-3876.7869,377.31207,40136.0546875
67,31969.24,-498.58856,-2877.2458,11233.108,727.6156,2980.393,39291.6328125
68,32991.598,36409.793,71374.74,-416.85275,-2024.6438,144.2981,36967.9609375
69,-90815.87,-109176.06,-122496.766,-13590.349,7238.0884,1294.032,38410.8671875
70,-23360.646,-50198.883,-10716.368,-8107.1904,70.12383,-2320.8335,37853.29296875
71,-175763.08,-159185.55,-165314.67,-4081.634,-7575.1826,-10296.736,27403.880859375
72,-21761.123,-40743.85,-36299.062,-6865.0835,353.93378,-4827.6655,22525.73828125
73,-26927.229,-39427.152,-53754.125,10956.06,4031.5303,529.0065,30826.95703125
74,114801.35,115988.79,113854.1,-369.4588,-199.54321,-119.19824,2000.91662597656
75,4502.9673,5448.869,10233.057,5055.0977,-5314.374,-2069.048,14231.6962890625
76,120919.95,133842.8,142251.95,-1867.2122,-6004.603,1954.4915,21828.177734375
77,214010.42,214307.19,214036.52,-161.6975,570.023,978.00055,2000.91955566406
78,489055.9,487910.94,489038.16,556.76105,295.46362,-710.0289,1998.80297851563
79,42226.93,42326.31,43746.125,279.19934,-697.0429,197.58983,1993.85131835938
80,141971.31,142188.5,141266.31,479.6074,861.95575,352.4823,1997.25231933594
81,-67860.3,-79238.195,-111045.74,256.51416,3393.6528,4922.2485,40131.19921875
82,142915.84,160018.83,186239.11,-3349.158,4718.0806,-3802.495,39651.84375
83,-34280.004,-26683.662,-66012.15,6424.3286,-1187.2113,-2903.8955,38197.171875
84,28447.979,6682.323,28813.975,8779.758,-11914.93,8551.909,36856.453125
85,-9240.783,-45191.227,-23075.291,13115.762,3114.0203,-2017.6913,39291.796875
86,-3686.4143,4686.382,-33793.582,-7823.0205,3325.5918,1545.236,38112.5625
87,-22489.412,-18565.07,15948.357,-4681.2183,-342.41223,-5714.0264,38808.03125
88,-20989.932,22061.934,212.12256,3361.1997,704.12024,-7724.939,40057.5390625
89,24744.637,16712.088,-5383.206,-14519.125,-4746.525,2567.8044,38078.73046875
90,379714.0,402297.8,417672.8,8846.493,805.03955,-7192.8633,38543.2578125
91,90690.34,125600.484,107669.99,-12987.94,1594.124,-6810.2573,39586.4453125
92,-102026.57,-139747.47,-138278.19,-5413.0967,162.92026,-6546.833,39826.75
93,-2950.285,680.13983,-681.7742,12048.919,-3829.6924,8916.999,26984.404296875
94,-11521.867,9725.3,5103.505,-927.38556,6007.3125,-5338.0117,23894.134765625
95,-70208.11,-34368.793,-59479.332,-10597.141,-2252.6987,-674.17944,36993.7421875
96,77683.31,110032.04,118474.125,4317.425,-2963.6406,413.7039,38387.27734375
97,-31991.545,-3421.6694,5694.4473,8225.852,1648.4375,-4291.2173,37764.76171875
98,1668.5996,-38527.61,-12999.315,3649.4648,-9841.023,2198.3086,39828.1171875
99,-413171.72,-448103.84,-448571.2,1.4303297,-1912.199,-9153.7,38718.6953125
100,-55968.56,-55032.406,-69732.766,-20148.174,4013.4326,-163.50592,38333.6015625
101,468888.9,469649.06,470110.4,334.45474,723.53687,-564.5675,2000.91845703125
102,-105912.305,-127553.74,-141178.33,-2435.3237,-1864.677,-3698.3792,31907.58984375
103,-216384.22,-187211.62,-178950.08,287.22574,-7093.1978,729.19684,36236.546875
104,104993.305,75930.28,82733.234,-15484.403,-279.5257,4317.28,38323.31640625
105,-121611.1,-88311.82,-81593.98,186.61903,860.568,-5090.493,38180.3125
106,-193366.53,-165706.84,-154510.84,7694.3384,-853.65454,-1085.3728,37194.29296875
107,276476.6,236843.78,242083.53,-4366.2725,-5494.251,406.8344,39227.5234375
108,166127.34,163385.03,194603.36,-13400.548,-3872.047,684.5449,38491.58203125
109,-61935.195,-30058.568,-18251.0,1579.2009,1837.1576,1203.6399,39419.2421875
110,39776.918,52944.695,41237.246,-8045.6113,-5271.023,6048.6885,23315.234375
111,34821.363,6228.138,-7300.518,-511.59616,-3300.3823,1058.0372,37739.18359375
112,52737.5,25212.133,61735.605,-2498.4492,-6506.0586,-6316.8477,36765.59375
113,-65145.055,-23692.436,-53160.0,3182.277,5281.0767,1868.9298,38596.34765625
114,-38780.25,-36047.29,-69861.27,12073.845,4701.904,-1320.5668,39589.53125
115,-35886.043,-10496.235,-41684.797,-12114.486,2453.7349,964.15424,35869.6328125
116,49504.67,18152.697,37942.156,-16848.807,-1234.5681,127.79254,40129.7734375
117,82414.73,46022.062,43446.367,-1592.5625,623.8389,110.46429,37863.03515625
118,330122.72,308443.53,305032.56,-6830.737,2739.9119,-4885.6875,28101.19140625
119,271145.1,269099.66,272126.2,1592.5935,854.9171,-5775.8447,10818.3173828125
120,158814.64,157056.28,159034.7,271.5286,52.919415,-284.9927,2000.11291503906
121,368413.44,369485.0,368003.72,744.8775,411.35236,-159.81772,2000.98461914063
122,161506.02,160933.6,162843.48,-307.43643,-356.52292,-369.257,1988.97338867188
123,-552051.5,-550052.2,-551637.6,131.71,-321.79047,-211.45067,1959.05627441406
124,55526.008,15258.115,44644.094,-8173.3823,4223.3384,181.86067,39442.984375
125,99862.914,89669.27,75626.5,-18877.332,-2056.7576,1069.1898,39108.03125
126,-59700.637,-29282.746,-18173.729,-1635.3573,232.13206,54.440533,37346.55078125
127,-53960.027,-14577.492,-38849.0,5151.705,6771.283,1078.2413,37481.671875
128,-146922.72,-112926.01,-149699.6,3699.886,7335.6636,2812.7031,38524.3984375
129,108079.484,106746.664,107979.4,640.61615,-12.765754,606.09033,1996.67810058594
130,131966.45,149660.58,132657.14,8936.835,-4674.957,-8935.636,29086.79296875
131,43142.023,23550.936,13785.167,-6190.6743,-4496.592,-8456.321,32567.8125
132,30014.307,33609.098,40865.457,18952.77,9144.795,-6084.9346,39131.13671875
133,-44070.57,-53276.586,-12397.7705,-3308.4612,244.11406,4364.7944,38336.25
134,177643.11,155293.42,199268.47,-1060.6261,1237.3973,-223.02194,38191.65234375
135,90533.9,84109.61,108333.9,18876.316,1469.2218,300.3568,39346.6171875
136,21315.533,-7011.0044,32128.88,10046.242,2618.8674,-162.77682,39358.125
137,21429.037,57042.926,24381.654,-1513.2269,-5271.0137,6788.011,37421.44140625
138,26213.162,27831.234,57016.65,14637.054,2386.2402,-840.096,39541.8828125
139,63397.113,64015.906,62391.555,-644.034,-219.40552,446.75757,2000.95422363281
140,73204.06,61288.0,102167.77,3123.3584,-7561.0796,4496.425,39842.83984375
141,13601.302,14937.3545,14390.239,777.38684,-493.0139,-190.05635,2000.98486328125
142,-567992.6,-569494.8,-568252.2,-170.99419,684.912,354.15402,1950.72644042969
143,80597.94,81828.96,79928.96,315.94867,-265.10568,-485.5098,2000.98657226563
144,211334.25,177788.64,176401.94,4469.16,4681.562,6289.1934,37657.42578125
145,60855.457,43244.184,41261.31,18141.89,3943.2488,3168.0596,37591.91015625
146,-61922.35,-31531.533,-21652.312,-1060.2078,-4192.5225,412.05072,37122.1171875
147,-132179.42,-94339.56,-98181.1,-6834.6963,-890.4542,-5900.7803,39347.484375
148,74492.02,67940.24,48291.484,13008.991,-896.9754,-6043.313,34313.46875
149,-83522.67,-71532.6,-39424.06,-2657.2275,3075.3079,-636.6771,40130.7265625
150,-27055.373,-22580.77,14118.241,3167.9292,1746.6907,-1174.8539,39679.38671875
151,29496.076,16590.53,59831.95,5295.185,1215.9867,-1101.6078,39629.6953125
152,49752.867,46757.53,52776.473,199.01163,3688.9204,3490.454,10230.541015625
153,104871.766,95100.24,122391.04,-3822.115,7515.7803,4513.1973,29120.28515625
154,66059.71,102991.65,82595.99,3913.4087,-5358.794,-1012.30023,34086.19140625
155,11564.2,-8386.408,31673.568,-3062.7844,1383.3068,2467.5115,35436.6484375
156,41255.273,40470.934,10531.397,9116.817,221.98436,-10670.303,38878.48828125
157,-88832.67,-77725.47,-114491.34,9341.104,-2686.325,284.12903,36747.69921875
158,275960.94,289742.34,318125.03,1767.9166,122.55074,1124.1187,37414.8359375
159,-45932.99,-33604.03,-7939.3,8401.327,-1430.4877,-1423.0062,36756.7890625
160,108152.91,68765.63,91727.57,2947.3665,-9527.296,-3443.8542,38834.8984375
161,-49549.156,-55493.918,-87289.234,-4402.1206,3206.6882,5681.522,37697.765625
162,-29273.434,-58747.746,-70421.64,5799.024,-2973.5088,1009.5673,38465.1015625
163,-57987.49,-39538.527,-82888.12,-3946.5972,2092.027,-469.66562,38474.85546875
164,-229384.89,-222269.45,-252480.08,-13845.577,2105.9995,4454.688,37366.9375
165,42389.05,45623.375,20253.803,-16055.646,2179.6267,5410.7563,38045.4375
166,-54757.066,-41604.47,-23476.512,16062.177,-191.99216,2241.5095,39105.0859375
167,-33249.15,-71736.51,-54815.1,11562.297,-2111.9097,2567.9036,39377.32421875
168,240029.64,241272.98,213414.25,1648.3933,-2283.0415,-9777.677,32459.42578125
169,-87153.37,-62043.547,-86126.92,3682.5676,3022.0112,-12158.181,33426.46484375
170,-94541.97,-92592.4,-115470.164,3757.4124,-9055.999,-13748.446,36579.20703125
171,-2399.8186,-39822.516,-2749.572,4248.612,-4744.965,2835.9348,39157.57421875
172,42500.277,37483.59,36318.953,20565.66,-2157.2686,-5714.7266,37591.765625
173,-19276.549,-63784.562,-47733.227,3353.2844,185.95648,1747.7174,39587.83203125
174,66938.86,61039.92,95758.92,-351.09525,2012.4336,5215.6025,33608.453125
175,96858.72,95062.28,95117.25,418.6242,85.04092,-329.16574,2000.98620605469
176,38928.734,23860.096,58731.195,-13080.847,3744.993,-5522.305,39553.578125
177,32941.01,34345.832,71022.37,-2480.9177,7370.268,-2950.4353,40077.52734375
178,163935.16,125652.58,153550.02,-2423.9531,-4504.854,-4053.542,36105.93359375
179,-32672.848,-12441.139,7121.8164,-2539.2566,-6066.358,-1408.2024,36380.1875
180,-190243.8,-192098.64,-198821.69,1550.5752,303.14148,-2296.8433,9188.3076171875
181,-163660.8,-185573.33,-154207.78,-11977.585,5536.018,-208.97746,36043.296875
182,-111268.85,-67086.33,-100530.79,-2058.6267,612.4732,773.98663,40107.39453125
183,23777.66,-12036.268,28047.166,5352.094,716.37585,-2095.059,39426.08203125
184,29365.248,4849.229,27039.344,-18039.83,3255.1423,1484.3064,39549.04296875
185,-24932.768,15609.936,13119.164,982.4161,1198.4094,449.86572,39455.58203125
186,120486.9,82049.27,86755.68,2635.8845,7192.261,-815.48535,38687.5
187,24069.533,29843.922,-5167.295,-2326.4407,8328.377,-8051.6504,38415.75390625
188,3686.0312,7561.147,-8749.759,7304.825,-11462.925,-6246.5156,29819.28515625
189,8161.0073,7024.639,-10387.796,-11628.107,-12531.909,-3926.6296,35317.29296875
190,17858.371,-10732.599,27278.143,11055.948,1985.6422,730.66974,39441.44921875
191,121145.32,121801.27,122387.57,215.30208,450.09055,835.27814,1999.61999511719
192,14857.903,-3476.5056,-15516.035,4332.951,11369.368,9210.143,37422.31640625
193,99381.98,92503.53,119662.53,-12904.626,-2336.6257,832.90894,33409.00390625
194,94681.234,78897.83,75877.18,18271.934,-7496.9634,-1354.1892,38491.83984375
195,-210564.94,-197037.81,-207488.33,-19259.082,3617.2727,2789.833,36416.6328125
196,-27649.252,-68818.71,-59427.863,827.9852,3271.6116,-5766.7563,39120.70703125
197,14453.243,15907.844,39893.58,-7814.8345,251.4028,-5495.6626,29771.3359375
198,123216.82,123958.02,135243.89,-19782.316,-762.43256,1322.5747,36294.5859375
199,171934.08,133641.14,159774.38,-6490.598,3174.4946,-280.77908,36130.72265625
200,99850.93,101965.555,129948.03,13368.269,987.8003,-6233.939,38759.62109375
201,53559.793,37278.664,76858.68,-8031.067,-482.3679,1705.7379,37284.93359375
202,66793.984,60009.008,34258.094,3533.1426,-10482.093,10352.484,39654.2421875
203,-163817.02,-163776.2,-202208.98,5919.936,-284.80487,164.61702,39761.45703125
204,-66168.555,-63532.55,-94925.49,10965.534,9747.032,1215.1555,39495.390625
205,39385.312,20024.71,38008.117,18742.854,1340.0425,-4556.3696,38361.6796875
206,22405.7,1480.9404,-2770.21,-7556.9907,7045.8335,-3818.666,30147.54296875
207,42165.098,33087.066,8220.966,-4972.7856,13443.091,2159.1235,39456.1796875
208,17441.348,20354.607,40916.03,-18486.592,-1906.7964,-3426.5798,39529.15625
209,47036.812,55108.13,27055.033,5646.9766,4150.1636,8427.809,31402.505859375
210,-5445.438,5452.03,19590.988,-4395.971,-10346.059,2211.0112,29436.474609375
211,43102.27,8628.477,3753.408,4818.6045,2369.5674,207.62384,38300.1484375
212,6637.168,-4817.9873,-8474.44,-8668.169,1308.6732,-6719.3374,23504.75
213,22918.133,22665.809,48335.4,16174.764,5071.275,3226.5935,39316.27734375
214,3550.1492,21127.215,24453.281,-10143.065,2423.861,4298.013,27571.140625
215,-6455.0225,9512.546,14211.246,2862.6956,-6970.664,-1167.2854,22945.830078125
216,54549.01,34235.254,39404.72,-7744.3486,4789.228,1482.5656,24283.529296875
217,-104146.625,-88384.97,-109976.37,-17669.152,40.0133,1716.1918,36328.22265625
218,-29754.754,-14471.576,-58383.195,2419.1711,-255.37192,892.88184,38869.54296875
219,-14607.967,-44754.527,-48617.86,-12953.458,630.4672,3752.0813,39837.2890625
220,20771.816,21602.223,33875.48,8922.033,-2238.5967,2757.3054,20932.376953125
221,34256.297,31149.795,68306.43,-2177.484,4692.128,6553.056,38521.92578125
222,-4022.1223,16036.316,33493.05,-9016.981,-9599.644,-437.86438,39726.38671875
223,47688.94,44707.906,31825.96,16617.453,3705.023,-4430.0645,33789.19921875
224,-11021.413,-10240.672,-19388.611,-371.67404,2325.121,-1892.6638,10224.07421875
225,1892.0669,3951.8066,18467.012,-2278.5798,-351.19193,5967.369,19173.041015625
226,-7765.0303,20546.246,-12991.601,-2649.218,-8800.154,6129.1914,36645.60546875
227,41695.598,33625.6,75110.14,1438.3029,-4262.268,-636.24426,38900.296875
228,12054.616,54731.336,21994.379,-2534.5955,-880.2159,-3181.7954,39343.01953125
229,69088.91,60899.742,88755.69,5334.3535,-6865.4243,7391.7324,31710.888671875
230,-145255.56,-164891.05,-155233.08,18750.379,-823.05853,3082.4404,37073.6640625
231,-136537.33,-132176.89,-125527.81,-20987.111,-1401.6836,2700.1484,37965.2421875
232,-17754.586,13057.867,19027.799,4007.3572,4171.2964,10375.611,39904.02734375
233,53399.754,24338.453,13737.137,5586.835,-4057.707,-6415.303,39134.8515625
234,-30020.23,-34380.72,-48936.09,-19340.777,-3944.7976,-6385.8857,39819.10546875
235,60304.992,39340.766,21827.098,-6764.119,4122.2197,-5051.407,37123.79296875
236,-39607.05,-2697.7332,-12862.37,10697.724,-2829.5361,-2345.4048,38396.52734375
237,-44227.777,-42583.832,-59834.125,-19437.033,-7698.449,332.92834,39792.4921875
238,-117027.164,-145022.75,-141128.05,14776.788,-8915.212,582.1588,39804.61328125
239,-97180.76,-68441.64,-110229.98,961.099,1624.3993,6096.2964,38644.83984375
240,-87995.414,-111241.8,-99182.305,17008.35,7657.194,-826.6893,38095.75
241,36788.113,37752.84,53909.562,-19684.357,1102.9865,-56.02013,37995.23828125
242,4130.0977,-11911.15,-27992.98,14845.179,3624.4297,-72.48865,38398.9921875
243,11967.646,10164.691,43363.934,-6923.3447,-5129.94,5590.436,36906.49609375
244,-10760.594,22226.26,-19268.334,-6361.925,589.2602,-3583.3796,40026.78515625
245,-7294.868,-31252.299,-49820.035,-280.66867,-2184.1055,249.35582,37125.30859375
246,-84960.71,-52201.004,-62081.562,-10670.683,-378.05444,-1063.1447,34533.3125
247,65154.47,68581.766,38969.14,-13827.348,4956.2876,5289.5312,38966.41015625
248,-214142.1,-199298.44,-180544.36,11198.373,-2666.6753,1777.3265,35460.53515625
249,362097.84,392808.94,397422.16,-2524.3018,-1622.8184,2393.56,33916.578125
250,-266147.56,-266234.1,-267191.0,60.041676,719.1753,691.7432,2000.98474121094
251,22264.795,7507.8296,8176.736,2344.8335,9268.573,547.2059,21987.650390625
252,-671863.44,-672141.56,-671308.4,-563.92926,-438.1543,789.8482,1985.29382324219
253,48083.684,47376.74,47841.316,-1042.7393,-341.4089,-41.53986,2000.98608398438
254,220082.06,218675.69,220140.44,9.804058,-39.916237,-803.223,2000.9912109375
255,202516.11,200549.45,200952.0,191.57132,-145.67914,444.2385,2000.97961425781
256,28218.184,27592.148,26900.459,-15.526748,-250.55203,-914.97,2000.98449707031
257,84079.61,85547.6,85970.484,-444.61337,232.54549,312.972,2000.93713378906
258,-12773149.0,-12772645.0,-12774544.0,-90.81248,79.59596,-593.97455,2001.32214355469
259,92795.71,92936.89,94449.12,-9.617665,-337.6894,595.0113,1981.09851074219
260,347493.72,346820.8,346538.06,-658.5297,792.5799,-177.46062,2000.755859375
261,336088.75,337293.06,335802.72,212.1621,681.1327,447.36148,2000.97827148438
262,-89193.28,-88514.61,-88055.59,-714.4781,360.30844,605.59143,2000.98425292969
263,130751.11,128895.234,128876.37,290.67233,-76.38422,-290.59332,2000.98767089844
264,-180937.12,-179857.14,-180523.02,593.8378,-506.00995,655.0238,2000.96435546875
265,75238.1,72645.59,70848.21,-31.292595,59.537178,-1023.33276,4215.0458984375
266,-4000.789,20279.771,14742.454,1383.0332,-3110.1484,-9362.596,27990.896484375
267,4239.638,-25312.197,-35650.57,4280.661,-1313.0922,-2274.8992,36896.8984375
268,-21631.834,-37851.19,-39359.9,-12993.729,-2814.5938,-3237.9624,29181.2265625
269,86293.94,47954.14,61106.145,-2550.5862,-4393.362,-4937.2153,35905.70703125
270,45808.31,60691.703,77092.336,-3891.4768,-733.13947,-16077.479,39460.01171875
271,-64071.504,-61736.15,-31162.645,10066.474,2798.8174,24.66497,36593.671875
272,56380.703,26032.338,44976.273,-1457.8333,5914.254,-11317.585,34648.9921875
273,-42105.53,-30727.719,-37607.734,6192.4707,10693.382,-14189.312,34067.6484375
274,71161.35,43762.418,56159.04,-4708.1772,3340.6504,1876.979,25986.0234375
275,526.37006,2783.7222,-2063.223,4527.473,-2323.3296,7825.299,16704.513671875
276,5965.4697,15107.159,-18834.814,-4257.7036,-10428.11,-5509.502,37376.8046875
277,5638.518,-1063.0126,532.0599,8347.523,-16579.88,1344.9922,32801.11328125
278,118729.95,78669.81,99527.33,4003.5254,7449.045,-3644.991,38192.97265625
279,19374.271,26687.564,47163.883,-2365.866,-9929.015,7086.075,32949.9375
280,76654.984,89636.37,116983.17,4025.49,1031.8074,-5830.7666,37751.3515625
281,-16148.471,-3769.4155,-5533.529,3119.4666,80.436775,-19756.201,36532.86328125
282,-49749.32,-7433.3926,-19279.305,-6865.37,-1667.2675,1701.9901,39851.25
283,-25600.992,-34291.8,-59680.758,-14198.495,-460.77902,1321.7267,39388.4453125
284,46516.574,45415.04,73063.63,1128.1288,3157.6353,7490.5405,30614.650390625
285,18160.762,-189.04395,-4223.9624,7563.1836,-798.28406,-5362.754,26207.447265625
286,1718.8384,18191.523,-16308.255,2743.4265,4326.7383,10024.296,35685.86328125
287,-22740.03,3131.391,17904.998,-7842.669,137.8044,-2434.0027,38368.69140625
288,-290097.06,-263836.25,-287563.16,-5030.9717,-12542.005,5602.0825,35658.046875
289,33447.316,3153.3958,33401.32,-156.46555,1092.4753,8110.8706,33426.6796875
290,72984.03,58191.074,30200.418,1331.2504,-761.0722,2286.3108,37935.58984375
291,420.67236,1428.2144,-25673.414,10196.18,281.01263,1246.6647,32015.51171875
292,6097.5933,-13286.463,-36559.656,855.48676,-5156.692,1625.8184,38189.16015625
293,-24192.37,-24134.969,-42974.586,-18782.059,1365.231,-2596.9019,37920.62109375
294,12908.726,23052.555,27916.545,-1362.9429,7613.8647,-7667.33,23059.58984375
295,-33597.836,-2650.9219,-8828.49,-7413.143,-6461.604,-13021.823,40044.0
296,93180.95,77529.445,120858.33,2501.629,1136.6326,-1214.902,38357.23828125
297,-214499.4,-217289.5,-186680.72,-8343.365,-1166.2295,1013.0322,32791.3828125
298,-179556.86,-210483.06,-218452.81,3542.993,6279.7383,-848.37964,37743.1328125
299,68128.01,82228.97,107970.195,7423.71,-291.6523,922.99225,37317.14453125
300,22577.73,8440.178,37475.504,3537.9211,-1990.0663,3135.3633,26671.24609375
301,1115.6202,-26502.137,-36665.875,11175.498,1693.1631,2240.3284,39307.4375
302,1546.0024,78.348145,-18204.562,-3918.7253,-5587.4746,-2762.079,22931.810546875
303,-118490.02,-91448.75,-79733.8,-577.59595,1509.8165,4707.205,35490.4296875
304,-45813.715,-61421.305,-21216.482,-366.12643,1366.3784,-6060.0737,36724.6640625
305,67832.164,69704.12,96389.14,-454.62653,6442.173,-1305.2494,29929.64453125
306,36877.055,41172.344,25646.227,18779.3,-3465.4292,982.6703,35912.8359375
307,131212.84,129606.375,130075.98,724.2866,-225.57686,-276.7463,2000.76513671875
308,12917.257,-30998.36,-11496.77,2596.2917,-1089.978,-69.09934,38422.2578125
309,368974.38,368791.38,368471.0,705.7095,-400.73062,-781.7023,2000.94116210938
310,-220714.61,-220246.14,-221866.0,272.42398,118.075165,742.68195,2000.93798828125
311,-109224.625,-90384.94,-99287.34,-6502.4775,14223.793,4132.8667,32426.923828125
312,170015.9,169728.4,171770.45,121.362076,249.28368,189.56558,2000.98522949219
313,-7497.9414,9946.537,-8984.483,2859.8416,-1158.9144,41.520218,19000.58203125
314,58232.086,63285.797,85757.66,2927.9495,-6293.6606,-15281.678,38590.53125
315,-11107.016,-10873.601,-42334.258,-3364.0056,12636.84,-5480.692,39819.8046875
316,129067.445,108107.15,146431.33,2896.1182,613.6843,-468.54758,33641.3671875
317,213718.86,197210.06,206691.58,21156.441,-13.315667,-1666.8945,39459.24609375
318,-142061.42,-154563.89,-129565.305,-17474.256,-7727.6416,-1173.328,39598.30078125
319,-75954.25,-91518.5,-117805.46,-8972.944,2032.6436,2013.059,40105.86328125
320,-131928.02,-152526.7,-174984.12,1862.6007,1323.1996,-1166.0847,37562.9453125
321,-59428.613,-62492.625,-94910.086,-4700.355,-2324.9368,6816.2085,37168.33984375
322,25910.85,11481.15,27096.734,-3785.5154,7059.179,-12310.081,29560.703125
323,34143.52,8375.584,23477.143,25.190285,-3753.0278,6271.794,25752.11328125
324,-85791.39,-47066.9,-73939.38,-7570.6523,2689.465,3158.1558,37478.78515625
325,-101949.14,-115872.805,-144504.61,-3803.2593,-2284.9172,3012.8987,38711.7265625
326,20071.99,18939.014,35618.438,-3068.8154,-179.88437,1103.2997,17105.296875
327,-1113.3894,-7917.491,8424.085,-3934.533,-8240.488,4558.785,22686.10546875
328,32523.482,61484.08,66935.484,-8516.864,-3167.3647,235.34459,35695.70703125
329,-22505.352,-60330.613,-23661.803,-35.149532,6405.575,4703.2485,39721.5859375
330,18211.607,-10566.787,-20886.451,926.2938,6644.1875,3783.3386,37544.98046875
331,-22823.588,-27345.225,-61037.473,-2752.485,-6950.419,1576.1008,38510.5546875
332,48555.246,76660.98,65891.74,15844.534,3886.5808,688.0398,37458.1875
333,-188340.17,-177722.52,-211857.4,-2269.1748,-3091.9448,-3067.1724,31429.974609375
334,58842.973,59462.176,59103.75,729.702,199.73495,-799.0475,1980.51794433594
335,46229.766,48346.086,47266.305,-255.6282,12.348803,386.38596,2000.98815917969
336,312232.06,312136.16,311321.88,470.26407,-4.188444,-926.8336,1997.72509765625
337,-1180.1997,-2734.4417,-420.86502,1561.1216,1884.8444,2283.7239,6147.18212890625
338,23647.508,45222.734,25830.822,-683.0488,10408.223,-11411.242,33766.7578125
339,-4060.2812,-24895.365,-19253.646,-4333.9814,2118.2053,1471.1455,20607.9453125
340,-44719.76,-83120.95,-83869.45,-81.94837,-1056.1156,3991.2273,39434.89453125
341,-31783.814,-20843.668,-59003.62,-10057.521,-194.03249,941.7058,38270.4609375
342,-30274.543,-52508.418,-19377.803,1206.9125,7174.481,2298.998,32093.712890625
343,13273.992,25025.83,-4427.843,-6804.0522,-5315.7856,15519.213,40071.0078125
344,7057.4956,7850.5137,43506.87,9037.849,-2616.5774,-3295.1667,39980.53125
345,6218.936,-5987.382,-2318.1,-4129.8027,9134.481,-2934.303,21094.59375
346,-58982.613,-54452.02,-34818.97,14684.515,10536.443,-5465.8013,39553.9140625
347,17066.594,19472.979,-13233.705,7214.0957,2359.5127,3472.6187,34724.94140625
348,50264.63,36222.89,20500.59,6644.033,4256.119,12582.956,36426.5703125
349,99842.45,105434.23,139477.9,-4743.819,6046.4526,124.98454,39469.50390625
350,18023.44,-5019.131,12324.09,7950.56,4306.137,14702.528,36412.5078125
351,5455.086,10168.377,-3604.4224,-4934.8223,3568.8782,-8493.78,21787.40234375
352,-3487.0752,-11310.044,-13187.988,-3105.3213,-481.854,-3208.4321,11828.9619140625
353,-1217.9297,-5659.646,24690.408,3302.5256,-1855.8737,-730.5585,29166.80078125
354,-19779.562,-24199.164,-53156.645,-7422.643,5537.5547,-9832.713,39158.34765625
355,-14824.228,-15839.605,-39833.906,1157.4476,-6031.7,-532.70514,26742.013671875
356,-1482.197,-6222.574,2123.166,-2164.18,922.6095,235.99754,8326.603515625
357,3351.2285,9959.763,13.033691,-2653.0984,-2069.7769,3190.6475,11890.595703125
358,-57887.273,-69351.68,-98721.66,-5989.9956,-1371.3575,-3314.947,38431.578125
359,29640.168,27563.785,45851.32,1629.1874,1039.0804,-5594.995,20146.638671875
360,28816.393,28573.795,17082.322,102.126854,-9055.798,-4296.062,20888.33984375
361,-2246.2358,-8822.862,-14452.964,2562.0605,-1609.4205,209.5711,11814.0615234375
362,-26879.006,-15799.621,-43568.695,13091.845,-3019.2302,9285.875,37234.78125
363,26492.418,34925.605,47370.41,-6207.0103,-1293.8116,-1891.9065,21500.7421875
364,6713.1084,2172.0825,-4930.4185,370.3085,3160.0232,-8719.385,19020.271484375
365,5835.129,-6178.1323,9237.691,2128.199,7228.3687,-430.00015,19174.517578125
366,625.0869,-11443.684,-14054.918,12314.719,-6325.034,5331.91,29055.998046875
367,-16646.113,-16624.95,-40684.652,5787.6387,292.9007,2721.8342,26482.69921875
368,-4417.517,-9303.861,-21273.506,52.80511,-4522.5405,-809.75934,16999.181640625
369,-7670.12,-8693.3125,-11377.25,1045.6805,441.45383,2700.3247,6061.09521484375
370,345.50806,2067.9688,6408.544,-2074.0686,-1940.952,1313.0665,7659.21240234375
371,-12979.668,-14330.689,-23373.832,5073.1025,1220.0461,997.0441,13434.2138671875
372,-22720.102,-44135.355,-55201.78,-6795.224,10560.451,5754.149,37289.3359375
373,13470.219,-4830.1084,11015.37,7037.56,-4866.3076,5945.8374,24933.658203125
374,-806.9751,-7878.4526,-9171.41,2188.0322,-1598.8682,7330.852,15622.9453125
375,-9979.018,-19091.057,-14789.844,5024.8345,-2882.5374,-780.57776,12838.953125
376,67861.68,50696.59,92538.0,5874.339,2929.5703,-1088.4069,38209.3828125
377,101552.75,60641.004,87523.664,8811.976,-260.01187,-1165.9393,39164.59375
378,74126.43,56284.926,93575.67,-2842.2205,-7813.2754,-2637.8418,35662.96484375
379,-16792.633,-10995.392,-44713.887,-884.69037,1730.8574,-2755.8762,31767.765625
380,-38605.47,-57610.04,-45400.12,-8288.78,3872.8198,9826.4795,28618.1484375
381,2853.2393,650.0052,-140.91687,-7662.7793,-2701.8818,2613.899,15025.8056640625
382,-1587.5654,-1449.5956,-1984.381,4052.9739,682.728,-2417.086,8272.623046875
383,-1708.9805,4341.852,-19889.074,-2029.4154,-2289.36,-2349.3784,22842.3046875
384,16212.959,8374.195,6811.042,-823.6644,1464.6914,-4310.646,11847.32421875
385,4416.5903,-2625.9624,-1524.3516,-2079.2834,491.29736,-1420.879,7924.89794921875
386,16779.434,533.94336,15687.051,-4810.533,-1782.9254,-490.00388,18084.341796875
387,-2665.1924,-15453.978,-16297.373,-3015.4414,4444.347,-2857.7769,16914.0859375
388,-1307.0203,-1452.9391,-1947.1542,-2238.8967,-2746.633,2145.94,7198.8046875
389,11479.942,7886.172,20769.795,-1859.1865,-2358.3428,5781.581,16122.5693359375
390,1289.865,16.228394,-2908.6245,4172.44,1968.3417,-5362.825,12807.5244140625
391,-3093.0303,-9463.437,-5042.767,5966.241,-2311.4011,-3980.457,14223.6025390625
392,18771.098,1874.4756,-274.8545,1438.1726,-869.04425,443.0991,18316.4296875
393,-838.87646,-9596.537,-8898.718,-8507.181,5137.056,1480.9047,19337.423828125
394,17592.307,13908.769,12299.387,-8070.968,-1305.5872,3582.21,16159.16796875
395,28286.422,34982.95,53069.176,-1434.7445,7208.7764,14004.788,35263.96484375
396,-62293.83,-82576.61,-90838.89,-13286.333,-9717.941,-1488.0599,38298.51953125
397,-56763.35,-18627.967,-53691.395,7304.6953,-1669.3918,4420.0938,39669.16015625
398,12184.271,-532.8063,32211.736,-11100.817,3915.4158,7694.3022,37560.578125
399,4812.471,8711.539,4364.2793,-351.07788,4420.4604,3656.5542,10782.0908203125
400,-17370.578,-27015.182,-37181.188,-10552.584,-2359.426,-6691.5615,27919.810546875
401,17908.441,16218.537,18403.113,3697.0618,-477.85565,-1097.305,7017.0146484375
402,20862.701,15142.547,30661.145,-4710.745,-5110.977,-4203.712,19563.5234375
403,13954.0625,8369.299,25141.922,860.52454,4879.0913,-4805.8047,19020.11328125
404,-4738.5186,-6021.561,-7718.367,-82.19716,-5205.3364,-1248.4324,9627.306640625
405,10702.442,12242.96,1982.2119,-524.8131,7291.0024,3625.7112,17075.978515625
406,-11707.239,-12926.037,-23525.717,-1827.5067,8739.953,-2893.5212,19775.1015625
407,-1662.0077,1877.5284,-6046.0425,-557.49536,-5613.5347,-4653.6245,14411.8671875
408,16941.242,17228.992,35832.754,-249.31348,6122.135,6833.94,24581.94921875
409,-311785.12,-324561.28,-329909.7,-964.39075,-1595.425,1296.3912,16602.28515625
410,14561.391,-59.839844,3237.2883,4205.932,-516.6681,-2980.2014,16029.927734375
411,137635.08,138408.77,138337.38,-432.14688,488.41852,852.3633,2000.98352050781
412,-3300.1897,-2927.3108,4374.707,9920.011,-12731.371,-5000.663,30210.66796875
413,6757.749,-13041.62,4958.918,7214.7163,2047.143,-4977.139,24549.533203125
414,-12024.195,-11447.214,-37476.73,-1079.848,392.29034,3689.5715,26601.66796875
415,24564.328,14024.66,52882.37,-6513.1616,2752.9434,-409.57013,36904.76953125
416,340268.03,339724.22,349264.16,-845.0296,5756.096,-428.0009,13718.888671875
417,7001.4697,-8665.788,6129.035,-564.7269,2999.0247,7459.4307,20674.234375
418,30520.54,12332.251,36737.285,5801.1587,2401.987,-4266.594,25601.05859375
419,68257.984,68355.43,70014.39,-9.071667,-271.96045,-534.9298,2000.97192382813
420,5326.158,-2961.1938,-315.96265,3565.6882,-5148.7144,2422.2654,13748.7373046875
421,-126.293945,-12421.838,-18488.996,10127.685,10770.333,3361.0122,30857.564453125
422,-2118.004,-8636.793,-31685.863,8143.6665,-10823.461,8299.087,38484.16015625
423,3823.2412,-4990.842,-4399.7314,-7709.7314,2392.154,-4423.4424,18083.5546875
424,6284.164,212.09204,2022.7859,-2307.0955,-838.7787,1491.3625,7342.01708984375
425,10010.664,1089.1548,5446.5557,3740.227,4579.1235,4560.756,15065.861328125
426,-27575.312,-15056.924,-53504.266,2631.3225,7012.859,15.293545,36358.25
427,20533.838,6951.701,16757.59,-2582.0708,-898.2775,-648.69635,13081.642578125
428,21948.295,18305.186,22244.895,12173.59,-3592.3232,5770.7764,24446.87109375
429,81071.55,69084.72,111850.945,-1964.5145,-4755.381,782.45294,39258.86328125
430,5278.6294,3333.183,6723.2856,6762.166,-7070.2773,4579.4634,18940.53515625
431,3419.6929,-3612.5283,-4524.8154,2992.5986,2141.4387,1995.335,10453.138671875
432,24262.29,50407.195,38661.984,9480.17,5557.292,-8007.168,32696.2421875
433,-10496.326,-12379.854,-21257.727,-7587.333,-1154.3745,1233.0094,16743.583984375
434,-33438.42,-32234.59,-41973.668,2323.3752,4357.3813,10041.621,21453.009765625
435,29782.736,38797.742,2099.842,11332.496,-4075.314,4339.027,39859.2109375
436,-10703.977,-14024.529,-13244.104,4062.5056,-231.32466,-6221.7505,13222.9580078125
437,30816.893,28713.479,40788.01,953.3766,12253.636,-68.14927,24041.97265625
438,-1005.87,2789.3823,-5767.149,4210.596,92.183846,997.1299,10551.759765625
439,9811.395,73.20215,20882.074,-10507.497,-1461.0442,-5899.0684,27698.8125
440,-27924.41,-31465.39,-63166.64,3379.727,-489.51437,8374.841,37083.171875
441,6469.6245,5567.9146,13061.405,823.2072,4895.811,-290.5676,11153.5517578125
442,4535.764,-2751.723,-7998.0083,226.41116,2781.1265,-5385.4575,15140.3583984375
443,1582.7812,4002.782,6992.1157,599.4617,3084.639,2.8593824,7186.77880859375
444,-49770.5,-61321.695,-88139.945,-2307.4854,4166.3525,6709.016,36952.8515625
445,3689.5828,-6639.138,-8178.51,3322.7043,-2210.7537,-2751.9968,13980.5478515625
446,20219.72,28312.994,32586.197,4439.3037,-1551.7754,548.8101,13623.33984375
447,7188.3027,-14880.504,14197.946,5299.5405,-5467.751,-4880.5117,30598.435546875
448,10294.799,1372.0547,9549.807,-5012.01,-3488.4346,3074.2139,14619.9736328125
449,14699.888,1122.6218,-18171.426,13651.694,3844.8137,4472.1323,38496.96875
450,-846.59424,-2892.4,-14290.125,-1437.7322,-6326.058,-1129.3546,16955.693359375
451,14425.644,6110.151,14894.024,-475.68365,2584.646,-4720.8984,12682.3603515625
452,-2259.4912,-5363.9595,-12345.143,-6832.8784,3022.3313,143.59715,15734.595703125
453,-47963.453,-63566.598,-93217.85,-2651.434,625.1994,894.1749,40124.421875
454,17385.766,6481.883,24760.404,2341.9502,-2308.4204,-3285.5488,17847.05078125
455,-16302.736,3825.6792,19599.502,-1357.5127,994.8616,-2521.6787,31607.642578125
456,9957.64,5535.147,11745.484,4192.736,3406.9453,9215.322,19312.87109375
457,18791.715,12074.568,14456.51,1609.8038,2275.4397,-862.7214,7767.49658203125
458,2078.5818,3170.3296,-3300.353,-8973.257,-1110.0793,-304.3046,16778.853515625
459,138.2898,-1875.8657,-2675.4226,4723.263,-2818.8694,-4385.958,12441.1474609375
460,13232.378,4445.879,14519.35,-784.79865,4610.997,3111.6523,13595.79296875
461,-7105.716,-3480.6313,-13306.379,318.75757,-4960.783,-923.68976,12278.4326171875
462,6505.704,-333.12134,4656.9736,1920.9452,2142.3457,3351.2754,9801.8544921875
463,-5880.5327,-8905.776,-8882.831,-1254.479,727.24316,-1400.0138,4612.0634765625
464,9969.481,4230.1445,-2040.1812,-5875.865,596.41113,-3491.31,15794.19921875
465,2917.1074,22162.227,38121.64,293.99557,-3504.298,-3941.0562,31873.40234375
466,74166.9,70417.0,100215.09,5721.6104,-2118.9187,13979.252,38577.0234375
467,-5074.8945,-3873.2227,3676.0718,-1141.1697,-5094.786,-236.14008,12225.0673828125
468,11919.067,8600.967,30934.271,-2906.5842,3284.571,-3893.2786,23213.462890625
469,-2441.819,545.68604,-7950.65,-6957.2734,-7683.7886,-509.641,19463.865234375
470,-163.85303,-6418.211,-12027.611,7532.225,14115.622,-7120.116,32026.697265625
471,15747.527,13963.237,31799.258,3075.351,-5676.995,3221.437,21110.98828125
472,-185753.8,-182684.28,-220835.5,6202.876,-2706.1975,4224.2866,39227.0703125
473,2522.568,-2344.4749,2362.7258,2722.0342,3129.2576,-7204.7324,15174.4970703125
474,-234927.33,-241793.75,-276173.1,-2087.9045,-3472.2524,-1559.5938,39008.90625
475,-3359.7605,-11618.279,-6990.764,398.0604,-8292.33,7669.8623,20848.130859375
476,5861.5713,11784.11,11089.411,4300.272,3629.2375,-3016.5615,12398.9814453125
477,5694.55,9050.655,-2041.228,-1030.6132,-66.97761,-2050.4167,10624.517578125
478,2650.6846,-4131.3867,-17088.803,-556.73346,1544.0421,-331.42538,17611.953125
479,7273.576,9161.818,8783.115,-1805.3395,3785.1943,-3760.3948,9908.3974609375
480,1834.7483,9447.474,2336.2573,-4477.3223,-1874.4525,2036.6609,11726.515625
481,-13382.308,-12834.773,-12710.549,-866.14124,-2082.0178,-1508.24,4739.47265625
482,11795.522,5965.5,1592.4009,1628.31,-54.389484,3671.619,11270.041015625
483,7664.45,1875.4053,11157.765,832.57837,2920.0063,-717.03436,9754.0009765625
484,-23273.83,-27156.748,-42563.965,5537.043,1844.9882,-5294.0796,22328.337890625
485,-2800.3765,4634.344,1595.2656,-610.635,-1188.4733,3590.1934,9270.4296875
486,-4649.54,-4561.9287,-11588.715,2416.5918,1817.3141,2351.8455,9632.7021484375
487,-11548.543,-5767.1787,3106.5068,-1512.2947,640.04645,-3539.2598,14461.591796875
488,-8293.66,-9234.021,-13406.89,6783.6797,4448.88,-605.1155,14857.73046875
489,-14675.585,-9704.684,-20187.213,5467.6963,-4384.7295,2570.2515,15800.9140625
490,-1151.1904,-5108.171,-11506.2,-1710.1218,571.56995,2099.397,10241.3564453125
491,3820.9683,-3977.2925,-7522.23,-12024.465,1825.9358,387.73755,23350.380859375
492,15852.373,14845.241,11415.445,-5179.9165,6486.2305,-3951.7742,16425.279296875
493,806.81854,-757.32227,4277.2847,12153.427,2271.397,940.7732,21935.5703125
494,210.87012,8286.833,9310.575,979.7872,-2917.5964,-2057.612,10754.3154296875
495,-4497.8022,4427.6133,-11558.275,-939.7909,566.30334,-6298.785,17752.9375
496,3747.1753,7513.8394,4900.2886,-4017.8857,1700.2515,-5675.7837,12842.1328125
497,5149.7983,5768.2754,8114.285,-517.56665,-570.7269,1906.6283,4474.7890625
498,-7419.0425,-6565.3145,-8075.0166,-4249.073,2538.781,-1814.2081,9224.6044921875
499,-9652.198,-714.5071,-3750.2087,1845.9858,2097.1848,1568.3784,9631.3349609375
500,274.3169,-1028.9312,-16633.33,12067.24,-6491.625,-7677.3594,31711.765625
501,-715.97144,-4513.1333,13961.896,5274.7393,-8859.892,4108.6973,25596.841796875
502,2718.8704,3321.8337,-399.64685,1842.6769,-4287.4727,2157.2864,9553.23828125
503,-3900.9512,9204.17,-15327.101,-4413.505,-2594.1838,-4562.969,24354.2734375
504,-37241.797,-45247.1,-78756.77,-4007.0903,-1919.1196,-2411.5308,39139.54296875
505,-3685.5962,1721.6929,-4698.225,-4566.155,-1970.7976,1868.4806,10973.37109375
506,-6714.06,-5843.317,-13964.129,-269.8584,-357.7151,-2003.384,8501.625
507,8933.653,7482.8867,4191.3447,-185.72,1528.6638,3947.0974,8459.7216796875
508,5375.334,1838.562,3471.8682,-957.1189,-719.9138,-421.4192,3773.0166015625
509,9729.805,8981.262,14849.513,3111.9353,-1174.9006,164.39159,7992.41650390625
510,-2256.7207,-3082.9875,-2881.9067,464.9304,-298.13635,2024.6127,3710.7021484375
511,4298.7324,6177.4487,5736.4385,1214.896,875.2685,1211.4169,3744.90649414063
512,54304.863,56913.46,91907.89,1736.5808,-3717.8262,4711.874,37944.96484375
513,-22075.05,-4335.8936,-22729.436,-4590.2803,-3931.9236,-1102.1456,20974.99609375
514,-8415.082,-16747.475,-9873.592,707.3407,1401.2052,1577.7335,8617.5400390625
515,14725.03,-5851.674,26490.633,1129.8052,1005.2815,4089.5159,29342.13671875
516,-42077.07,-38190.156,-75290.31,-6307.5444,1595.7822,5444.5127,38252.41796875
517,115170.64,106096.32,147560.11,4982.107,-3863.5264,460.13916,39309.19921875
518,-1162.6594,8087.2466,-379.06616,620.12427,-2892.124,-2151.9194,10911.72265625
519,-82.092896,177.17249,6020.2837,604.74945,3491.0405,-935.17896,8718.2001953125
520,9614.203,8571.393,12289.386,-45.563694,-3926.1917,-3659.9375,9872.7080078125
521,3777.0435,-4398.6416,-9089.664,-4550.725,3000.0913,6048.3506,18057.5859375
522,4766.5195,-245.32214,-1823.6483,2703.2915,-6802.9653,4624.6274,16138.3359375
523,-7971.675,-2222.3792,-6381.818,263.0258,-1225.5854,868.4299,5780.80712890625
524,20672.525,15969.598,26431.865,-2436.3225,-2482.19,-3241.4739,12255.021484375
525,-1422.0122,-4686.7725,-16690.582,819.53827,23.431396,-2637.012,14724.7314453125
526,6798.323,18840.574,-6148.706,-355.1847,3913.048,6263.3604,25150.66796875
527,-1196.6006,-10300.133,-12973.667,4499.607,-2390.5967,-633.737,13908.623046875
528,558.41455,7921.4043,5730.3135,-4895.3247,4483.5503,3632.6555,14651.599609375
529,16757.78,12376.458,21899.035,-7350.831,-3760.6492,770.67847,16567.05859375
530,13956.348,8951.854,21115.172,513.45264,2890.3801,-3184.4297,12976.732421875
531,5462.0947,1762.9803,-2219.334,-4377.983,2224.5447,166.51869,10802.892578125
532,4737.2554,5809.347,10370.436,-1659.1987,1818.8857,1011.63684,6935.19287109375
533,-2447.945,9237.682,4229.8633,2036.543,1362.2334,-1584.2328,11342.466796875
534,-1444.4844,22219.979,16936.697,853.43616,1738.5721,-624.70874,21801.779296875
535,-3754.3953,2981.6465,-4639.4736,-1100.7958,2185.671,-230.29248,8381.251953125
536,-2567.891,-6535.7964,-14483.492,-1543.4658,2589.414,-1015.16315,11865.8994140625
537,-5509.527,3551.539,-2485.721,-4281.794,2381.86,1909.694,12116.486328125
538,6223.761,9131.711,11377.358,660.26044,1343.1497,2034.4167,6258.26416015625
539,6352.4795,3731.0256,246.20435,2184.4636,8052.507,-8632.749,21460.861328125
540,18379.318,7182.882,8597.03,6191.0386,-1639.4393,-2098.679,15741.3505859375
541,-3287.7502,1968.0444,-4561.923,-842.5251,2331.7546,2173.257,8279.7109375
542,16399.383,6943.4443,14172.827,-1060.9358,2299.026,1558.2568,9991.7939453125
543,-758.5161,-8449.541,-881.56274,-955.49396,670.9669,-1176.9125,8152.63916015625
544,-11015.806,-14473.714,-9455.45,2206.5232,6817.9165,-5303.8623,16069.798828125
545,9062.514,27093.107,35219.203,61.254375,3009.455,1077.9796,23839.501953125
546,7624.3765,9840.595,9275.802,2667.4294,-2071.5115,92.85757,6182.53955078125
547,5783.698,5706.584,8145.686,-515.2148,-1976.9983,614.2164,4406.89990234375
548,9646.58,12864.343,20585.967,-1729.0231,-3637.091,-9187.176,19917.0859375
549,2020.8567,2645.9316,-3056.148,-1724.0099,-1279.4349,601.7429,6652.3662109375
550,-7259.234,-5691.3374,-5360.6343,-447.25342,-1434.6797,-780.66473,3418.99243164063
551,-12593.623,-11880.758,-37724.793,1967.3108,2437.9292,2347.0918,26381.185546875
552,-4164.0127,-227.17334,-7078.997,1234.0443,2142.3027,-1572.3286,7824.65966796875
553,-1071.6842,1300.4792,776.3134,2100.181,-841.6477,2228.71,5909.08935546875
554,-4738.134,-4531.291,-16210.102,-1644.5311,1653.5437,-1079.0568,12402.857421875
555,12684.156,10275.937,4616.903,1258.7467,1472.6985,4185.3433,10736.0849609375
556,-5947.0146,-10543.573,3064.1943,-5422.6567,3293.4421,1719.5844,16534.134765625
557,-3202.2288,-1437.0903,-5620.4033,-2417.634,-3526.4495,-1669.0753,8742.5126953125
558,-23891.91,-29080.023,-60938.53,-2944.896,2501.9807,-1613.612,35493.3046875
559,7216.4565,8833.73,-1156.502,7132.3643,-487.33273,3747.0957,16784.21484375
560,3980.9434,646.6552,-3061.8809,1711.0967,-2680.1055,2529.8748,9315.00390625
561,-718.1979,1816.4368,-4347.2314,-1619.0769,-1003.6835,54.395153,6299.82373046875
562,3849.5332,1432.7224,6580.9585,-481.9942,-4239.4194,2564.5664,9708.19140625
563,-6441.355,-5641.6274,-7662.7354,-1106.1115,870.1501,-3193.0833,6295.822265625
564,9911.382,4507.216,5898.7754,-115.37592,2760.2856,-2143.0679,7765.10888671875
565,1702.1805,-668.51025,4544.7305,1793.1337,1997.7505,-6301.1343,12695.3125
566,-6299.3423,-9326.347,-18780.71,-119.86918,-1480.5371,3401.1072,12980.2861328125
567,-1930.3916,13661.129,1673.9299,-6021.307,-3501.5044,650.3515,18620.115234375
568,12052.972,11153.253,31286.871,767.27924,-792.155,-3815.091,20865.544921875
569,-1457.5463,-5132.496,1091.634,1852.9619,1132.4457,1994.8068,7446.95556640625
570,-4420.4395,-8554.76,-6630.422,-96.88417,-149.98747,597.87494,3742.7080078125
571,-12649.878,-10174.449,-19378.725,-8819.09,326.35257,-1412.0739,17541.16015625
572,-2436.084,-12328.99,-18669.73,-1945.8667,-3254.52,-2468.0498,16192.94921875
573,90073.89,97995.516,131657.12,416.3922,-3757.7651,-105.54553,38799.828125
574,19352.47,25057.19,20166.234,-2952.6465,-4659.002,-658.3796,11006.2431640625
575,-4744.825,-13927.972,-20572.438,-330.55792,-6664.3276,-1025.1493,18061.466796875
