Element Label,S11,S22,S33,S12,S13,S23,Mises
1,9752.109,-1099.7429,-1759.2363,3555.2883,1598.1547,-4768.763,15464.8046875
2,5616.7983,4874.005,312.4585,2107.9626,688.3809,2603.6394,7735.4169921875
3,4715.9834,9156.555,1472.6931,1357.1735,689.5023,4837.5947,11036.2421875
4,-5030.5654,-1060.5374,-2080.34,-1120.9205,4291.7866,-357.60712,8494.927734375
5,-2871.884,8718.698,2283.8826,2187.4124,662.2568,-1172.7903,10998.2529296875
6,5250.6826,6235.417,1010.3789,-1196.1578,425.41098,-1026.8606,5578.89599609375
7,2990.8481,6923.4077,2107.4685,2536.8848,-1786.7017,954.0854,7164.8046875
8,-13350.451,-4469.8267,-7636.404,978.7895,2413.5342,1911.0227,9595.6796875
9,15690.117,6864.8164,10461.887,81.36671,-5531.8745,-187.75255,12288.6181640625
10,-9772.043,-13048.554,-11959.582,9773.393,2098.5498,-1050.5685,17647.486328125
11,-1312.3468,1247.2458,-2695.1218,3999.1677,1149.1578,-1724.0187,8535.88671875
12,2934.4844,2399.8318,-2482.8608,6769.0635,-805.56744,-709.5246,12948.1591796875
13,38.126465,-912.1553,8456.947,6092.903,602.31104,329.8432,13876.77734375
14,7368.585,-16561.508,-7772.751,7002.6577,31.147524,5539.453,26052.7734375
15,-1814.0332,-15090.118,9015.781,15506.387,1256.7974,-9633.465,37971.1796875
16,14480.378,18525.479,12385.865,-1046.7799,701.48364,1650.6777,6493.07568359375
17,5670.3037,6415.7207,467.563,-3199.6682,-2280.9624,-3397.859,10604.7490234375
18,-6331.1807,-13925.002,8997.478,5397.1978,-1808.723,-11196.287,29703.724609375
19,-128757.6,-130380.34,-129201.36,637.98535,-21.356009,-473.07217,2000.98596191406
20,-35368.32,-12092.976,-18181.977,-4530.401,-3440.8982,10530.101,29442.080078125
21,9199.158,10845.857,7499.7695,18.51497,3219.3489,2975.1794,8126.9091796875
22,26806.01,4551.869,28745.125,7275.246,-9145.198,-3743.6921,31526.140625
23,-7425.183,-9734.078,-27358.768,1505.7655,8052.2437,2965.7349,24173.515625
24,10367.157,-4483.338,5361.7393,3533.16,-2338.1062,8710.012,21276.77734375
25,9505.348,9890.525,7453.2646,8953.737,1857.7788,1419.8065,16188.255859375
26,-1538.0347,-6298.7725,-5126.9224,-1641.1709,-3043.583,-2276.6147,8359.33203125
27,11597.029,6024.7314,2218.9556,-3353.1172,1446.9296,712.42017,10405.525390625
28,3605.9783,-1020.48615,-1748.2478,-2997.531,-3566.598,2332.2375,10331.3212890625
29,-363.73218,-1954.4065,-3734.1824,-335.41663,241.46759,-116.96349,3013.69604492188
30,3280.7412,6059.3623,-365.87183,6403.602,3454.5212,-706.36346,13837.17578125
31,-4527.2715,-125.50635,-10138.13,1566.0924,-2263.321,367.39496,9934.0673828125
32,-3518.7847,4998.709,-10044.175,-403.36435,21.29141,-4528.3667,15255.037109375
33,-3294.7295,878.8313,-4504.0044,2825.4058,-1305.6704,1701.4097,7853.369140625
34,11952.41,10170.581,-10810.833,1041.9923,-1054.1716,-4273.0356,23284.060546875
35,7570.634,1027.7023,-5615.5366,3631.9392,-3738.0833,2540.7888,15207.5107421875
36,7129.9336,3613.0125,2270.5476,443.5971,-1485.3856,-2351.4136,6533.6953125
37,14885.387,7224.0566,8002.3755,4678.1196,4669.611,6882.6113,18069.865234375
38,10180.1455,-28.062256,-2352.5496,8374.903,856.449,-1168.5217,18709.71484375
39,12429.048,-5956.84,3541.7349,3799.5154,1891.3937,-6648.2466,20982.4375
40,8595.764,-6247.8867,-4144.391,974.803,2527.787,13671.991,27862.609375
41,8680.701,-3881.2532,-7292.5483,1615.1017,-1638.2115,3060.1912,16008.2265625
42,13628.302,9580.826,-11141.046,7625.143,-4121.696,-6626.239,29778.58203125
43,347165.8,347880.4,349137.38,20.335503,153.83997,-354.0517,1853.95129394531
44,-2200543.5,-2199732.0,-2199877.5,369.0028,972.1972,-241.62221,1995.18530273438
45,-1013457.56,-995559.7,-1003988.4,1279.6748,14971.628,492.13245,30308.568359375
46,-28150.729,-4956.9863,-29668.736,4155.6777,3274.772,7772.89,28994.77734375
47,4045.099,6261.6216,30827.205,12822.0,9500.619,597.96594,37787.56640625
48,9958.091,13517.189,34680.69,-11175.926,-3233.5667,13572.009,38659.46484375
49,4901.155,10723.178,-7250.5386,4073.6633,-1165.5569,2568.8953,18054.486328125
50,11255.63,6220.8687,35899.78,-8909.198,-6486.2617,-2843.3865,33843.0390625
51,1464.4858,4710.08,11943.099,-6539.911,-4626.52,1836.9071,16999.234375
52,-14011.831,-5513.199,-25225.32,-3397.9023,-11749.86,-13039.093,35385.55078125
53,-11524.436,5547.152,-35119.363,-2941.9172,4740.5366,2557.2114,36931.87109375
54,-4158.868,18648.918,16333.221,-7265.9546,1197.7831,16343.259,37904.27734375
55,-7909.5815,2120.9585,4967.818,-1861.2823,-8873.929,-164.18964,19595.552734375
56,-3301.3105,-3287.7334,17222.87,1670.1853,415.15405,7662.8535,24617.2109375
57,8085.61,2469.7185,1888.2603,583.92725,6179.5493,2087.2935,12798.26171875
58,-3010.384,-597.32446,3973.0374,1462.8135,-357.6274,-1247.0916,7014.87646484375
59,-1522.7578,7112.5044,7653.5347,-813.6627,757.1434,2549.0403,10135.6376953125
60,7742.79,9950.032,2448.0312,3763.9453,1049.9594,1785.5684,9998.353515625
61,454.92578,-2566.5571,4050.418,791.4355,-72.63324,1672.8998,6573.53466796875
62,4563.872,-3519.3467,-3434.7197,7289.525,-4691.4204,8193.528,22169.869140625
63,-6230.0703,-9206.601,-10810.703,7939.1807,-2343.5444,-10117.946,22997.705078125
64,3998.2178,-3537.2173,-1466.6965,-1830.9945,1062.414,9681.87,18442.537109375
65,3585.9443,7748.57,13052.295,3551.476,-10731.017,17571.826,37109.90234375
66,2814.7703,-5703.6865,3414.0034,1063.867,4222.1304,-9366.988,19953.0390625
67,3969.1328,5989.9956,-10920.685,11437.919,-9386.801,8349.801,33494.0625
68,-123.38931,10021.025,26740.246,-2590.9172,-15642.361,-3815.2483,36741.0625
69,12023.793,-14954.602,-7555.524,-3300.1467,-4203.6064,-3374.7393,26510.6640625
70,-6942.5273,270.90918,-7097.6235,-765.7916,19667.797,686.1513,34882.875
71,-6711.734,-8286.431,-1969.7275,-6407.12,3283.0625,2439.9963,14345.150390625
72,-8580.938,-27002.512,-25225.908,5390.0674,-483.45807,-8128.975,24410.71875
73,-20426.229,-22127.736,-26056.986,-8619.81,3362.018,-6619.799,20329.728515625
74,47447.73,20885.37,63461.1,8485.848,1596.4863,399.46265,40143.4140625
75,29527.703,33307.98,62152.113,-8092.8916,7905.801,-7219.586,38673.89453125
76,14858.406,-27641.994,-2531.4224,6563.872,214.93864,-733.7617,38737.87109375
77,-6117.7393,-20576.49,-3318.8347,-19156.713,-4473.1377,-2951.3997,38006.0
78,-17615.928,-32987.65,-18123.7,17205.73,2672.7288,-7418.8965,36102.69140625
79,8220.778,-1215.1279,7523.4863,8533.248,1876.015,2777.2341,18305.4453125
80,3843.2178,7314.506,14205.629,-3173.5896,4198.343,1799.9281,13276.7080078125
81,1088.2805,122.01123,3516.6748,2148.3596,-106.9526,-3083.9368,7182.6123046875
82,5411.6323,13080.467,-4327.554,-8624.451,844.68164,-5325.8447,23210.53125
83,9408.432,14493.729,-12157.008,-3564.859,6688.96,-1993.0597,28015.41015625
84,1678.7695,7473.0605,6689.753,-2167.4148,400.16757,-1100.4832,6917.75390625
85,1547.5643,2662.8423,1541.6488,1497.2059,-5329.2646,-5282.893,13300.5791015625
86,4929.2773,5255.619,-7876.4185,-2894.6838,-1078.7031,276.5049,14040.267578125
87,-1304.7759,-3652.911,-13096.417,-2803.9644,-170.88423,-516.2794,11888.736328125
88,-3367.1409,670.98804,-3052.4565,-905.35626,-3889.134,-1043.7444,8138.67822265625
89,7464.3237,1260.9712,-99.16553,-3927.1907,2744.966,6832.064,16052.2041015625
90,5793.4365,10587.952,-3999.0654,1080.3147,-3602.9875,-1673.0326,14719.83984375
91,269.05487,3891.214,-1176.2131,-1658.7881,-2119.3135,-2388.668,7700.01513671875
92,8926.894,849.9624,9418.211,11480.813,1985.8273,-5190.8643,23612.275390625
93,10639.089,4050.9902,1747.9517,2539.2073,-512.15704,-7684.097,16159.9931640625
94,22775.56,13611.331,16353.501,3877.681,4378.6553,-6764.789,17501.0546875
95,5542.295,-10715.239,-6749.568,2813.1555,4689.746,-518.69244,17495.4765625
96,15504.432,10539.689,7835.8906,720.7035,3437.992,2584.475,10121.21484375
97,-20552.342,-10972.91,-24759.004,-352.6142,-3477.2417,-8507.517,20088.28125
98,-4755.155,2009.8528,-3199.9316,-12232.011,13233.083,3991.636,32552.60546875
99,330.31204,-11413.772,-25380.883,62.23937,5677.7407,-4294.113,25476.943359375
100,14159.731,4320.9434,5123.8994,3895.7988,9037.378,-5855.883,21976.689453125
101,-632.8703,9074.775,-5499.054,-1872.4474,-4172.9185,-1209.3203,15241.4775390625
102,8006.5835,16214.644,10759.462,1332.3464,-4858.6777,-775.49646,11415.1064453125
103,-4878.002,2808.5103,-11896.357,1108.6691,-1675.696,3789.827,14747.4111328125
104,2907.5352,13577.682,3426.1047,1384.7379,267.13065,-2869.1572,11800.4443359375
105,12032.163,-4134.5034,-610.645,1844.1565,5723.0767,-2459.3933,18531.568359375
106,16977.74,-3187.4116,-2956.5845,3199.0737,-3924.796,3119.3655,22541.908203125
107,16891.934,-7244.495,11738.213,4579.6025,3027.5847,844.7958,24026.9375
108,12705.48,5332.689,-361.27588,167.41061,267.8599,5530.0874,14859.49609375
109,-5069.6836,-47.198303,6793.701,8536.532,-4791.208,5845.002,22279.091796875
110,5186.4307,2580.6208,4317.6973,4222.6743,-2005.7985,-6325.374,13815.7470703125
111,2442.2524,7085.086,1718.6183,-2874.7734,-3048.7,8079.811,16551.91796875
112,1804.6497,-2819.4724,2053.4656,6363.951,578.892,-324.3327,12058.8359375
113,-10728.928,15915.527,16931.17,-4365.883,11238.076,-678.42706,34285.07421875
114,5125.21,-14116.617,-16498.46,-8034.943,4252.601,3439.59,26555.2109375
115,-4702.4336,-15271.742,-24843.719,-17174.76,29.96564,11139.263,39517.98828125
116,8039.3525,11966.672,19544.8,-7649.087,3801.6997,4161.5303,19324.931640625
117,-128145.0,-145244.8,-133700.27,-12976.557,-409.04477,-7140.11,29780.67578125
118,-1124600.5,-1123884.4,-1123134.9,546.1717,651.69653,-273.04205,2001.00280761719
119,-4334.995,3939.3728,-5555.281,1404.1198,8751.557,8356.098,22917.42578125
120,8858.732,21345.41,5705.9824,3138.4102,2350.354,281.12347,15861.361328125
121,2669.3718,3692.1616,-9134.937,5241.2393,3607.816,715.5624,16596.927734375
122,-1894.9962,-19919.342,-7010.2295,5464.0273,-16653.955,4107.1646,35086.74609375
123,-729.0117,-12177.757,-538.94385,-2916.0085,2996.3806,2927.5774,14541.0537109375
124,-2323567.0,-2323230.2,-2324061.2,-618.76733,542.33655,134.2978,1615.31298828125
125,-14458.794,-16216.806,-14675.7,9439.21,-9284.259,-7202.1494,26158.3203125
126,-1061.0721,389.746,-29810.682,-1583.8838,6115.641,1442.2405,31564.61328125
127,1179.685,6129.85,-1475.2793,-735.325,-4635.6924,-1908.0205,11032.1416015625
128,-4051.847,-1285.6841,-10961.262,-1100.3334,4659.119,-5934.272,15776.7353515625
129,15170.861,14635.431,-4338.8975,-5315.5845,4313.065,-4392.595,23852.25
130,6282.496,3282.5688,7167.182,-7420.9033,-3340.6353,-1411.7672,14734.4638671875
131,-251.24512,10557.529,8616.174,-1674.1292,1346.4247,-4386.4834,13083.7763671875
132,15000.562,12724.557,14457.756,-360.5378,1518.8857,-4576.822,8625.09765625
133,3785.8933,1988.1329,1587.3928,-1509.03,5018.627,-6007.2495,13955.83984375
134,15593.791,44907.957,53964.773,1180.8562,7138.1377,3291.2522,37368.1484375
135,8612.82,-13503.48,-10196.1455,2759.5017,-1877.0039,-1213.011,21558.09375
136,-4007282.0,-4007226.5,-4008822.5,-333.18066,408.383,313.69504,1894.80615234375
137,-3356999.0,-3353733.0,-3362805.2,444.77078,2260.1516,-7.2848353,8902.8642578125
138,26948.41,25968.875,51947.945,-3749.8044,-4017.9612,-5499.541,28840.494140625
139,6249.8286,-14855.354,-13438.886,-60.04635,-694.943,4455.9834,21876.1796875
140,9092.245,-6092.0396,806.5368,-5311.3145,8301.633,3008.8833,22179.822265625
141,-9775.694,4079.789,-13131.173,-4695.069,9130.174,6299.402,26172.201171875
142,2784.5183,8108.656,-8211.234,-6664.629,-1503.3661,-5869.6064,21241.11328125
143,-1020.6146,-7615.6216,-4354.9873,-1043.466,3199.5479,7616.893,15512.9267578125
144,4008.9185,-1894.8796,-2536.8188,8069.6206,-941.6349,-1261.4518,15551.4287109375
145,-8948.786,-4467.1206,-14722.393,3990.1514,3993.1409,595.5639,13264.9443359375
146,1077.2998,-1748.6641,-2731.034,2515.376,2852.682,-3619.141,9716.8173828125
147,3146.7617,-2191.9392,2721.7043,-225.69833,2254.2058,-1520.2328,6981.6630859375
148,1256.3042,14554.795,608.8008,177.62231,-5258.23,500.94937,16421.765625
149,-9311.648,8999.407,1346.282,2937.146,-3252.7205,10300.152,25092.404296875
150,-7936.1016,-2483.0693,-18423.635,14694.907,-4023.4678,12384.66,36789.1015625
151,1460.9407,-11558.503,-16710.438,-1693.5643,3353.6982,-3389.6821,18437.45703125
152,-9822.888,-886.9304,-929.87256,-3365.8784,-4119.5337,-1431.0566,13058.0361328125
153,-4901.4585,4363.6416,189.14014,-3648.0935,4524.1445,-14964.106,28942.94921875
154,6765.886,6201.3867,380.36646,1953.0771,7285.5234,116.75876,14429.4794921875
155,6906.9316,8611.411,5268.0117,6499.393,-6650.9844,-2579.2483,16963.947265625
156,5611.81,11236.632,12481.733,5389.9585,1155.7853,-9154.284,19564.19140625
157,2946.6108,4321.2466,2314.3086,8894.28,-1335.2649,-4595.143,17583.4609375
158,27494.387,-6288.3213,2167.9526,-2380.0242,3153.7424,-6635.835,33257.1640625
159,7718.2695,-5156.2554,-9663.378,4718.5176,8678.659,2799.1953,23671.75
160,8076.722,13939.059,1059.5767,-943.10187,1563.6349,-2201.1147,12218.1044921875
161,16268.133,1631.7324,-13412.086,-2884.04,-2630.4983,-1110.8279,26648.48046875
162,8783.301,-2012.3032,2063.573,-2054.3948,1150.1946,-5274.655,13756.9140625
163,8871.311,4401.213,-474.09277,1558.1133,4739.7803,1791.4403,12241.3623046875
164,15217.728,7374.357,-1568.9551,-211.54953,7321.862,5105.975,21232.595703125
165,-1799.6871,16833.877,-12062.1875,3566.5498,-6295.0903,10423.295,33566.890625
166,7895.569,7108.4365,28894.043,-4113.6436,9196.101,-4885.0225,28881.57421875
167,265.38232,7902.9893,3019.8313,667.59735,44.823673,2939.654,8494.1396484375
168,4975.29,9903.634,-869.3008,3380.7827,-791.43164,-5878.9546,15070.0517578125
169,-6963.8203,-2040.685,-5331.6914,13018.489,-86.36781,86.62454,22964.189453125
170,-7883.327,1254.8286,-6466.1885,6137.5986,-2065.9456,1830.3208,14437.07421875
171,-5469.401,3006.4436,-13195.919,-14314.4,3235.2139,-4112.2554,29897.5859375
172,-2741.7717,10738.382,-4606.9336,7879.297,-3248.5706,2123.164,21018.302734375
173,4467.9194,201.41388,-1583.2307,4206.086,1604.1288,1890.5958,10025.888671875
174,-6792.7344,-3877.554,-7676.9175,-368.2321,-2901.5034,2231.4768,7242.86083984375
175,2679.683,1530.8147,-4482.939,5637.9043,1404.2964,-1579.8766,12375.6298828125
176,-2165.8286,27749.625,6246.861,6763.029,3088.0327,3336.2312,30220.080078125
177,-42.40081,15580.346,12358.719,-332.0177,-1888.2001,-2408.7915,15249.650390625
178,6474.37,2416.863,-2005.2402,-1683.5043,1879.5486,-1349.2192,8861.31640625
179,3881.5295,7304.3794,-548.374,-3567.8538,4103.2676,5258.65,14770.314453125
180,4408.0845,5617.8623,-6149.201,2021.6122,-3950.4216,-1346.673,13791.6875
181,14865.679,-398.70752,7392.31,4179.0244,5505.8457,2985.8726,18570.36328125
182,-5898.866,-6541.0645,-611.24097,9351.017,-609.21045,3560.555,18254.798828125
183,12658.389,18737.45,20150.084,4178.9,1156.0922,-5015.901,13394.58984375
184,-10207.854,-4932.229,-3968.4731,19122.674,4236.0645,4281.8794,35209.5390625
185,-41665.78,-47681.688,-46978.504,3108.3057,7664.017,4537.11,17303.3984375
186,3139.082,-3269.8188,-775.33875,-1929.648,4785.1504,2467.2803,11376.9765625
187,-964.9003,316.82547,2605.0564,-2948.1094,232.12442,310.12814,6027.9296875
188,-19190992.0,-19191316.0,-19190692.0,-354.00214,330.26688,1001.4653,2001.03845214844
189,10336.234,106.113525,-2180.8823,9956.959,3339.4753,4210.187,22745.07421875
190,-4983.7266,2974.5842,18274.541,-1681.4021,-842.67,-6096.045,23265.46875
191,13380.909,13896.276,-4816.943,7643.381,3793.2864,704.2563,23679.62890625
192,-13735.639,-2652.2358,5420.174,-2832.5447,1471.4838,-526.51904,17574.775390625
193,-5392.9414,-8879.111,-10221.597,-2552.4082,7219.7715,3970.0715,15551.201171875
194,3169.1387,2318.4846,3549.8472,-187.51396,-447.03055,-1928.0391,3612.39526367188
195,74.880615,-2401.1387,-1774.6593,1633.3706,12408.624,-310.25623,21798.76953125
196,513.2876,5697.2144,-8010.746,6062.3184,-165.78043,-2675.153,16599.009765625
197,2517.3223,-1483.8748,1233.4883,3775.1895,910.1445,-2052.4363,8390.451171875
198,534.4916,2178.8616,2164.4453,1964.4469,-3181.655,-9212.585,17298.599609375
199,20074.885,5433.977,1170.0786,1797.9102,-1150.2585,-717.7231,17611.828125
200,14603.041,8737.369,6279.0586,7004.352,6416.869,-3971.3706,19310.51171875
201,12112.148,699.0337,4519.506,7450.4956,-2857.218,3229.8303,17987.9921875
202,2751.2927,-3451.483,-503.94992,6126.9033,-1401.978,1006.7273,12265.1318359375
203,10470.734,1401.7162,-4305.3857,3741.1519,1216.5297,841.8476,14667.328125
204,10492.332,-3900.9688,-11203.773,4557.104,-1866.7651,1173.6174,21035.62890625
205,12637.982,-168.24121,2028.0337,1477.3873,-4588.9067,-2700.802,15241.4638671875
206,17485.715,-4614.658,-2909.7512,1209.4525,-5456.022,-3770.7114,24289.951171875
207,3796.6885,-334.0077,1414.388,-3438.5,4175.0293,2549.8337,10961.9736328125
208,13564.896,-8275.784,-3508.0974,2267.58,-4135.049,-5536.7783,23543.705078125
209,12286.9375,-3607.6196,4291.4355,-155.4159,-785.9075,849.14014,13912.892578125
210,13491.028,-5669.1274,-6653.377,-522.7364,-6610.0474,1228.5435,22877.1640625
211,5378.7285,-15643.638,9425.93,1343.9282,-2725.9402,-3244.1182,24549.64453125
212,390.70752,-15381.641,-5636.4253,-14256.439,-1924.043,1855.9609,28656.74609375
213,-35424.824,-2898.8828,-3391.1182,100.29337,-6770.1406,-3699.2559,34939.328125
214,-7721.7305,602.11395,10409.45,17728.86,722.29663,1645.8444,34637.17578125
215,-8125.5996,4815.667,-1778.2515,-1141.3485,1294.191,3194.9768,12852.1953125
216,2387.3103,3794.7354,-626.73914,31.61744,-1499.2485,-3515.42,7689.4833984375
217,-2979.3374,1293.5059,429.58588,3347.0808,1227.0137,1530.3152,7775.8134765625
218,1569.0848,-7929.4673,1089.5717,3128.6772,3172.135,6153.952,16095.474609375
219,5047.8057,-4323.3843,-8817.486,-1028.4802,5295.2876,5946.9546,18534.388671875
220,5661.1533,4785.6636,-4571.198,-899.4442,686.92834,169.17151,10021.8583984375
221,3584.6687,7662.9014,-212.53369,1426.8564,-1502.6945,-1951.0923,8416.5859375
222,6876.4595,4767.233,-3093.2683,-1290.1278,-719.75,2157.4634,10165.0009765625
223,3032.167,9102.007,-3369.9353,-2515.2075,843.83844,2006.9468,12242.8798828125
224,7175.616,3077.8472,6068.712,578.8281,-1812.9957,7218.4336,13441.1474609375
225,4152.686,5540.1743,3961.1797,-823.38257,485.78528,-409.8208,2339.4892578125
226,4649.8213,398.7046,5527.431,-55.828716,622.66406,4711.3965,9504.591796875
227,12768.014,4171.8,14632.338,1525.791,-4269.134,1998.9692,12924.5888671875
228,4162.0166,1399.5723,2099.9292,238.53976,1743.8538,1532.5084,4746.20166015625
229,8010.5107,-1909.4417,3199.5715,-3311.5168,1962.8795,995.4513,11011.638671875
230,-1529.0098,3494.0344,563.5425,3560.4663,-2537.6301,-5167.624,12512.443359375
231,7952.799,-1704.1709,-2345.5798,3512.2224,1220.0261,-1428.3042,12143.11328125
232,-10912.914,-13993.351,-8458.673,-2046.2906,1922.453,460.78745,6881.77978515625
233,12918.395,283.80713,1226.2002,4352.261,4557.56,12710.556,27430.447265625
234,8106.052,6241.792,3161.591,5318.8887,2749.3862,-3831.2444,13049.513671875
235,88.03223,2343.8513,6244.959,5586.243,4828.1514,5061.35,16416.78515625
236,6020.7925,4615.681,-2210.9192,9419.018,10304.28,194.86621,25356.875
237,17042.201,8123.2573,16464.51,9114.75,16055.88,-4883.4937,34188.94921875
238,15567.512,-10473.546,1489.5785,5800.896,4156.2124,-9984.834,31009.4296875
239,-5765.603,4709.554,4860.546,6717.1104,1997.528,3216.1184,17020.361328125
240,13721.821,7132.235,2460.91,7386.5,-1328.7714,-3518.2935,17382.154296875
241,-20288.945,-19678.256,-27698.908,1641.6521,-2631.3853,7732.1157,16371.3203125
242,-5971.6187,-5326.6294,-2001.5671,6294.66,4262.817,15923.847,30784.841796875
243,-15826.225,-10266.632,-5050.5415,-5392.6797,-1604.2672,-6460.619,17529.94140625
244,-21323.354,-20476.521,-5632.953,4550.698,4460.741,-5331.862,20993.478515625
245,-959.86926,-8840.581,11068.553,-5824.112,-453.3601,-6558.2227,23086.5625
246,-18647.44,-19114.275,-22548.584,-4936.543,-4827.491,2222.2542,13094.017578125
247,-4730.9565,3300.7275,-13451.587,-11879.432,10769.75,14304.642,39947.3671875
248,1367.1149,-1081.1875,38300.11,-4031.2844,-2258.287,-1166.3694,39097.2890625
249,10471.784,-6006.441,-22611.531,-3750.3567,182.26117,-15230.385,39485.08984375
250,17921.117,13471.789,53821.523,867.54694,2408.6965,-4939.121,39512.234375
251,10811.474,-7697.5845,-13426.564,-17679.979,-1699.9839,7136.2256,39757.21875
252,16182.665,13767.073,8614.867,-11394.302,-2698.9255,-4530.3125,22753.90234375
253,99659.07,91040.2,114913.95,-7089.5156,-4867.7114,-5694.8994,27525.25
254,-36123.65,-26632.34,-56046.07,-5442.288,-2526.7117,1990.1271,28212.90234375
255,51470.094,50819.73,52526.965,-561.26404,519.77,-83.904526,2000.98815917969
256,-7035680.5,-7035737.0,-7037125.5,-141.98279,214.11304,367.7543,1616.57543945313
257,-4973076.0,-4973164.5,-4974658.5,161.971,695.54755,65.561195,1978.64758300781
258,-968965.1,-966440.75,-970872.25,-2283.2168,8479.14,11756.093,25705.40234375
259,-516823.4,-513808.16,-507239.94,-13127.356,11484.812,8568.586,34712.8984375
260,19107.365,30286.273,5289.7803,-15363.676,4284.028,9801.5205,39009.67578125
261,-35503.94,-34566.05,-14232.114,14053.128,-3903.7964,13258.883,39987.54296875
262,2293.4668,24677.566,14135.017,-13878.292,8259.902,-11928.862,39819.59375
263,5164.107,-14309.992,-4790.6924,-16173.754,-12608.621,-3110.9885,39688.984375
264,-3270.2256,-3682.9702,-5505.1704,-169.4316,-6364.0596,-7902.0244,17696.291015625
265,39181.004,36708.71,41880.85,-9255.03,8537.349,-7462.7637,25744.5234375
266,12982.411,-8744.35,20544.148,3697.1335,-15733.875,-6573.3965,40085.203125
267,7377.9165,15589.771,4492.1177,-4877.1353,2554.432,3478.7136,15056.533203125
268,10242.316,8728.869,23005.492,10274.254,2280.14,-6534.516,25394.552734375
269,-1669.981,10553.075,11257.878,-2451.2075,-6199.6104,-5618.902,19661.169921875
270,-8124.127,20984.895,15258.436,-967.9443,-5380.3267,4180.099,29249.103515625
271,-16456.328,9712.477,-20467.01,-3654.7725,-2049.878,-8940.002,33140.54296875
272,-6261.557,4474.272,-14173.312,1920.0468,3049.7568,711.2321,17414.748046875
273,-17003.408,-13664.039,1552.1963,10517.655,826.68774,-2576.741,25442.681640625
274,12937.762,24919.816,2730.1562,6244.4253,-2313.2678,1105.409,22511.572265625
275,14317.11,4725.4165,6485.5347,3889.1138,2181.9614,1839.1641,12166.435546875
276,6393.363,3182.9802,839.51294,6353.623,-4032.052,-2688.0767,14658.68359375
277,1432.8711,-2110.3281,-23413.969,-10392.745,441.87076,-2031.7069,29645.896484375
278,6217.894,6778.5376,8501.199,3614.552,-3748.521,286.65588,9265.1708984375
279,6188.544,4021.6675,7657.1533,-961.0013,-2676.419,-1722.1152,6572.04150390625
280,7287.9854,787.9363,2927.6755,-512.23956,-3240.0547,-2137.4578,8883.0126953125
281,17062.2,4123.6235,-12614.603,-10091.603,-9912.749,3904.0303,36196.37109375
282,2427.8828,4123.8564,-516.57056,-944.16974,-1445.8462,-1016.784,5346.6982421875
283,5866.2295,5452.2793,3522.1914,544.7001,2257.6895,-120.93495,4573.94921875
284,3739.712,3415.9756,-1664.7008,2345.4978,381.76166,1475.0547,7143.63623046875
285,3985.3894,9637.21,-9267.904,-614.83746,8409.583,6562.0903,24999.5703125
286,4015.5254,-3998.4634,-9106.423,-4191.505,-4133.2026,-2597.3433,15982.6533203125
287,-4735.309,-339.37646,-12467.078,7755.2993,-2101.9365,219.4355,17519.294921875
288,4550.3887,-4518.432,-2967.356,2052.4,-1291.7695,-1282.9999,9652.1611328125
289,13619.915,6672.5835,-3360.1313,6436.5806,-6628.383,305.27155,21794.40234375
290,10491.361,5459.0117,-932.2739,10358.127,4223.2524,-2950.1113,22356.783203125
291,607.5,-4351.406,-5139.638,2783.7556,2571.4355,3094.402,10046.4677734375
292,-6751.0645,6904.539,1388.9692,5078.1606,2284.4707,-7347.522,19913.724609375
293,-28595.883,-20012.148,-13798.61,-866.65137,7119.7344,-10782.372,25859.76953125
294,-3262.6787,-671.86865,18510.127,2242.7537,-398.06473,-6645.406,23925.041015625
295,-7851.8784,-7331.649,1806.0781,1577.0105,-143.69447,-3579.0825,11596.32421875
296,-7058.751,1097.3738,-6107.924,8213.107,-3835.2896,-966.2878,17577.435546875
297,4894.73,11709.952,4317.22,-4318.721,3899.98,1387.0568,12572.66796875
298,1794.7783,-3516.22,-11105.2,4931.737,2741.9634,3587.2075,16131.6376953125
299,8550.294,8369.965,1307.8623,-2064.1772,628.26575,4702.5166,11466.775390625
300,338.59473,-1893.7251,-6010.9688,513.4135,2611.4717,2456.2632,8394.9853515625
301,20819.078,-5604.4775,13193.899,-9599.886,5763.3203,-2022.7198,30712.513671875
302,-7049.4526,-15200.915,1459.9553,1605.1707,-13073.685,7544.0664,29990.87890625
303,-18421.945,-12477.17,-29090.406,-5275.3916,-12317.71,-6548.87,29663.25
304,2809.1394,1577.1338,2303.0376,-2178.0076,-1781.2603,1405.1774,5551.92236328125
305,-12478.352,-2398.5393,3837.3542,613.1081,-3018.5186,-7026.3257,19491.419921875
306,-2093697.8,-2093650.9,-2091973.1,143.71025,-71.14163,497.26724,1927.34338378906
307,6457.7334,2720.6506,6621.6826,-3513.7104,-4360.568,6620.824,15498.17578125
308,-135581.06,-122802.81,-102879.266,1691.5106,-2506.6177,14651.389,38551.80859375
309,-7125056.5,-7129810.0,-7144839.5,3240.6323,6506.6973,-12414.813,30672.84765625
310,8434.187,31558.092,48413.754,-10110.232,-3365.2498,-1920.418,39500.4609375
311,-7108164.5,-7108355.0,-7119131.0,1262.0708,3857.714,-4585.248,15189.1123046875
312,3202.702,14949.707,-7689.282,1175.7397,-7996.3784,-1853.7131,24307.564453125
313,14657.379,8935.316,-2083.0317,3483.5757,5098.8506,-652.3342,18244.75390625
314,5322.999,11331.168,-1817.352,6067.197,-1639.9614,584.2946,15795.833984375
315,-7025.0767,-3563.4302,2198.516,3596.5264,6311.982,4147.3223,16584.875
316,6279.2026,10447.063,4111.2563,620.2059,3390.0916,-5613.9146,12699.880859375
317,752.6787,993.7661,7656.365,-904.7586,8430.536,5845.7007,19085.3046875
318,6227.506,416.3537,-9493.75,3525.4343,-834.4324,-22.15261,15130.9326171875
319,8093.6855,-4629.95,5264.2974,-1253.6,50.918026,1515.707,12062.779296875
320,14856.017,-6260.656,15629.022,5596.6143,-1718.5511,-3711.6133,24637.15625
321,893.7964,-6725.176,-10540.206,-5054.354,-606.7295,2732.535,14206.12109375
322,8004.9966,-15724.831,-132.50987,-6688.691,1529.5427,-202.88031,24032.890625
323,-30332.492,-24226.943,-13552.657,17394.807,69.714554,1240.8005,33597.046875
324,-1568.5474,7634.749,7305.118,9755.139,-246.0403,6948.9336,22634.232421875
325,-3058.8906,-835.9458,-5130.859,2336.3467,629.8237,2936.0237,7567.47607421875
326,-2755.7383,-2609.7173,-14889.3125,3082.7568,5352.2495,6157.056,19421.498046875
327,7801.876,1305.0942,12502.094,5996.934,2216.2012,-3806.2778,16153.14453125
328,-792.8218,-9117.524,-10571.802,4079.1763,-5080.3574,1671.5461,14807.20703125
329,-3157.6206,-4181.8486,-17366.988,2382.9685,-1823.0334,4134.861,16330.9130859375
330,-31438.639,-25728.746,-27065.467,-2238.5947,3229.0808,-14411.089,26383.904296875
331,1871.892,10781.226,165.60081,-6154.9966,2129.5872,-2152.3003,15448.111328125
332,49719.363,26728.143,60979.207,-12231.099,-8184.4556,-764.74115,39569.78125
333,-28267.02,-24123.271,-41506.3,-8133.0156,-4651.0713,3189.8843,23263.078125
334,-230505.94,-240488.7,-230172.03,-9762.601,8197.144,14959.965,35524.734375
335,6536.3486,-5946.168,33223.81,-3344.4453,1254.0686,10260.524,39436.90625
336,7194.231,14997.27,17987.496,-4755.119,6014.4814,-4666.23,18298.5859375
337,-25646.61,7845.9717,-5214.7607,5370.2876,1282.3091,1386.4958,30856.412109375
338,9080.861,10420.438,-2180.141,-886.95,-5630.5303,7128.074,19839.017578125
339,513.8877,-2262.6846,-14921.702,-2699.0198,-2788.8276,-2240.3938,16228.17578125
340,-140.35095,-4552.9854,-1353.201,145.44147,-3412.964,3767.5535,9653.09765625
341,5359.3027,376.417,5042.873,1793.4438,2267.4778,663.4848,7053.14599609375
342,3274.4993,-2118.4348,2.328125,-2660.1965,-4014.1152,-4828.295,12714.1982421875
343,6421.0947,1879.13,2258.5884,-53.16098,9045.17,-49.767715,16263.798828125
344,2389.0645,-4386.0493,11790.704,-1023.4794,-7463.904,-2862.1914,19820.158203125
345,-11184.639,-27544.996,-34916.242,-2059.1506,7541.5684,-3266.7146,25650.595703125
346,4485.8247,487.4112,-4617.7603,2451.6572,-1749.6166,380.62057,9492.767578125
347,4440.9517,-3064.6895,-1610.3981,2369.297,-543.4419,794.5965,8194.8193359375
348,8570.943,10628.162,-2449.7227,4680.9663,-64.01396,-493.191,14657.267578125
349,6437.3145,5844.1353,7494.8735,6506.7124,2046.2727,11668.965,23455.60546875
350,-25987.08,-23319.684,-16232.965,-19345.15,-905.7394,2716.1282,34979.09765625
351,1895.0175,936.0016,-2179.0872,-2409.8313,-1980.6708,-1144.5316,6836.06591796875
352,5248.5557,-823.55237,-3679.0535,-489.6753,-632.0241,1187.9678,8277.3671875
353,-10222.389,10586.523,-466.03198,7730.522,-12904.656,-7283.735,34105.86328125
354,-13043.331,10180.025,-13353.443,-4099.1206,-4382.1367,-6337.8403,27841.419921875
355,-19940.197,7925.9863,-7827.038,-549.73535,-1110.8063,9577.783,29419.642578125
356,-2057.5693,27197.572,18553.492,2386.348,6301.1143,-2580.4739,28876.845703125
357,-10614.711,787.3032,-11616.199,145.3458,1017.9036,-4581.3477,14441.810546875
358,-7635.9717,-6741.4136,-947.51074,650.1639,-475.58493,83.45183,6443.609375
359,2643.301,7202.344,-487.34082,-1928.6744,1252.6224,-1024.4205,7992.08203125
360,17568.922,20524.027,31665.988,269.98328,4121.5713,4192.009,16422.580078125
361,2658.8406,1308.268,-1212.604,-244.52325,344.58224,135.48337,3489.14233398438
362,-5181500.5,-5178238.0,-5202789.5,673.42065,6735.4233,-7753.283,29173.94921875
363,2759.882,2628.5222,1778.8083,-1712.5306,-2434.579,-2098.3054,6374.900390625
364,13619.701,4412.713,13891.757,-5137.133,-571.2157,1302.9286,13137.3359375
365,217.46191,-2391.9624,-6198.742,68.698975,-4171.601,-580.1369,9190.4716796875
366,4274.6,86.44946,971.5451,4622.138,814.1357,1835.5061,9529.1796875
367,3435.6963,1105.1512,533.3369,-40.661575,-3968.1248,-655.1085,7457.98583984375
368,3633.8252,2273.8145,-1215.1738,1465.679,300.80896,1447.4714,5636.4306640625
369,6763.3037,393.02344,7262.832,-1357.6046,-290.5718,859.717,7211.9375
370,-2960.0288,3657.2173,1012.0416,-206.5519,-3193.1123,-2587.7012,9169.8203125
371,-1532.5762,2414.7073,549.7479,220.814,-1370.769,-424.73434,4245.24365234375
372,10628.337,4747.2886,-473.146,3047.9785,1715.2828,426.53424,11392.287109375
373,-1822.7095,-240.62677,-1085.6829,2571.9324,-737.6799,-773.8396,5015.3427734375
374,5470.0225,-3142.2598,14493.047,-6476.058,-493.80222,1071.1593,19060.0859375
375,21748.586,24328.738,42286.523,520.3208,3755.5303,1614.4614,20649.861328125
376,-9006.224,-2678.5815,-4225.141,-3010.4304,-1101.413,525.8991,8018.84912109375
377,-2027.0386,3190.8032,-3.682434,-638.25635,-1201.6152,-1210.5317,5541.859375
378,-24339.18,-12086.92,-15408.391,-3678.1428,-510.7311,1820.5936,13105.9892578125
379,29177.613,25001.71,57315.523,1457.1075,-2541.7727,2540.9329,31173.732421875
380,1980.3943,-3785.732,4964.5366,569.28876,343.77094,2062.309,8570.0888671875
381,2714.8936,-3490.6165,-1382.4877,-2279.246,-290.8192,-52.011776,6761.45556640625
382,10149.155,-1790.2207,13793.74,-3225.314,1538.861,473.79037,15437.986328125
383,-97.46205,-841.2102,-101.53876,758.42017,-15.000952,-1926.395,3661.88720703125
384,4208.1387,1963.3141,401.74866,1978.9357,-657.1048,-926.44147,5157.70947265625
385,4175.354,5059.2124,2132.56,-1049.1742,-151.20695,3456.2522,6779.94677734375
386,3321.722,797.5449,-1153.3596,333.1346,-1880.1494,-848.19025,5310.18115234375
387,-6.04126,-4639.2324,-5797.014,-3519.7122,3747.801,721.23956,10441.9765625
388,8774.616,-2580.0176,2008.6831,-3272.0344,-682.83307,-1348.4686,11698.4345703125
389,6762.2407,1739.7703,2758.2468,225.1228,-282.95035,1592.1488,5398.54345703125
390,-535.3435,3812.205,1865.9049,-3063.358,1520.6454,838.6819,7171.287109375
391,7472.4824,6557.967,6003.694,3254.3398,4420.978,-514.32874,9635.94140625
392,-454.55298,4225.567,-1341.0834,3302.0825,2995.3384,-873.1778,9420.89453125
393,3620.466,-1113.8623,-2258.1948,3287.3113,-3055.5083,-1192.0879,9686.6845703125
394,2573.293,2092.121,594.8578,28.344692,-1943.5505,-696.11115,3997.75610351563
395,-4873.1777,-4453.9844,-628.4026,-915.5662,3201.1223,515.6327,7104.11328125
396,988.19403,-834.04895,2818.9973,124.76487,-300.6132,-34.364082,3214.02026367188
397,-40127.37,-29754.164,-65532.125,-3551.2346,4146.451,1806.7438,33402.6875
398,19026.533,5957.667,26385.43,-3019.8977,5085.004,2828.1028,21214.3046875
399,-13922.046,-13004.657,-24020.365,4324.345,-1515.5918,-350.6717,13245.4365234375
400,13762.277,14191.366,17297.533,224.54591,-1733.4155,206.2444,4523.08251953125
401,5199.5103,6402.3594,-2175.428,-1460.8534,-760.0157,1080.6521,8737.6240234375
402,-21641.844,-23411.535,-46826.773,-1715.3,1448.3594,1053.8278,24724.373046875
403,6275.4814,3654.959,2480.4546,1014.2354,-521.8358,1129.1256,4364.87646484375
404,964.9972,-3107.9138,-2030.3318,-4122.662,1598.0765,-356.7225,8508.419921875
405,2514.177,1700.8954,911.0676,-1697.8994,-79.614944,1133.0591,3800.87890625
406,-4172.161,-8041.8364,-11187.034,-697.0508,-1843.8394,-1567.0792,7487.431640625
407,-2748.0215,-3776.669,-1859.956,-1278.671,-199.6809,-138.46307,2800.43115234375
408,8105.9287,5842.6533,9758.501,343.99326,1326.1201,-190.33414,4163.30322265625
409,-1495.5211,4934.4385,-1168.0875,-242.93619,-1394.0042,-967.7572,6939.9326171875
410,922.28815,-500.23846,-380.766,-2786.068,-312.4105,2268.4653,6394.140625
411,22837.447,23465.871,10383.04,1229.866,5167.5845,3314.2432,16761.14453125
412,-2331.7344,-14919.305,-14142.447,-3594.0608,-1450.8054,-1962.4785,14348.9365234375
413,-5137582.5,-5141146.5,-5165330.5,-388.93958,3261.841,-9421.969,31344.103515625
414,7083.5923,2174.0793,-504.386,1290.6475,1263.4271,-1532.1132,7826.59716796875
415,5608.919,5841.449,5198.14,227.65988,1140.2915,-2492.636,4797.3232421875
416,4136.8833,-2065.0828,2248.3435,-5339.2524,1198.7898,-2141.835,11572.1572265625
417,-1761.3113,-5317.3125,-5926.0566,-1464.1967,681.68256,-1049.9447,5129.64404296875
418,-5281459.5,-5280840.5,-5308579.5,-1481.7997,3608.8774,-5667.3486,29911.2109375
419,5913.885,-1810.4358,507.85107,-944.2461,2455.7043,1925.8884,8889.64453125
420,-7866.8135,-2469.1333,-19872.008,-3715.1345,-945.40564,-397.24704,16811.345703125
421,-18517288.0,-18517524.0,-18524148.0,172.76013,334.98965,190.45857,6784.64111328125
422,-1460.1957,-3613.7239,-3581.4612,881.9366,-323.08725,133.56482,2696.17456054688
423,-22267.818,-12052.712,-38117.348,-548.13385,-3791.9407,-2200.978,24000.65234375
424,-6959.3203,-8597.8125,-16711.03,2211.4124,1191.105,169.22244,10040.693359375
425,-3126.7217,-2577.9236,-1822.475,258.05267,3184.9807,673.394,5768.7890625
426,-5634.3735,-2708.9058,-2336.342,782.0459,-1146.5391,-866.28076,4221.001953125
427,-101.95532,-4982.4395,-3704.6995,1532.5262,316.2036,286.74658,5177.671875
428,1474.8616,1702.7634,434.41858,-77.90555,-1517.5623,1454.2686,3826.67797851563
429,974.5821,102.91913,86.299286,15.626456,-2200.2483,-1213.5958,4440.38427734375
430,6778.1494,11134.371,14056.146,-2356.187,2116.0376,-311.66248,8403.5966796875
431,-4809.753,-4556.915,-15268.072,-2387.7861,1953.4001,1218.8845,12045.478515625
432,-3774.119,-3552.4458,-4297.0356,2283.4143,1951.9076,923.208,5483.357421875
433,-1527.4828,5140.86,2825.9216,-3598.557,-457.9149,1452.6289,8955.2900390625
434,-4879.1265,-11683.202,-24229.76,87.107475,1409.4431,-538.78314,17202.689453125
435,-3147.5852,-3501.9138,-4184.0117,-1217.0878,-573.56714,-637.8656,2735.68212890625
436,3932.1702,6321.4907,1360.9061,4017.5215,1406.922,-303.3514,8549.8310546875
437,-4399.183,-570.31696,3388.0105,-3734.5496,-2115.3586,-1136.7906,10228.693359375
438,-3718.5747,-2973.1125,-6558.463,-847.888,673.88995,2688.665,5995.29736328125
439,12788.571,277.52264,13000.196,-5984.0767,-644.2399,-1110.7262,16480.06640625
440,321.2957,1281.5105,550.5883,3089.043,1358.0599,594.25226,5997.77978515625
441,2917.838,-456.76147,1031.5522,-3698.514,-573.9439,1635.2936,7656.91455078125
442,15613.409,20486.023,34011.812,107.613594,-272.51413,966.1783,16602.810546875
443,-194.39467,-1518.5377,-411.7024,2827.5803,-1658.156,-1205.1704,6172.861328125
444,6081.9204,3792.193,5118.3354,-1063.5354,415.7272,-1033.6184,3328.95043945313
445,296.92484,-3926.1296,-439.34747,2302.597,883.9176,-1050.009,6068.30419921875
446,19422.113,193.48726,-2623.6611,-2410.7659,3010.6294,2556.9758,22273.02734375
447,199.72545,1539.9751,10381.315,616.04144,480.0175,1133.066,9874.029296875
448,-2248.1597,5466.5923,1990.4878,-242.46779,285.4196,1374.0656,7132.20556640625
449,-10096.162,-2079.2317,-13215.531,-980.03455,1484.6537,-1414.479,10700.7314453125
450,-86.66803,-2672.8396,2697.2837,-414.8096,389.76053,369.1395,4797.83056640625
451,25557.818,21584.824,41521.508,-4081.5703,2826.4092,107.58706,20199.6484375
452,6623.918,3933.1775,2147.3042,199.7232,2051.1067,1361.7817,5791.2763671875
453,-1884.331,235.35173,1542.0459,-212.03851,-274.19562,-1839.1895,4413.45263671875
454,-1917.3938,-1218.2435,2419.7751,-242.09178,352.35284,434.51666,4169.19775390625
455,35270.453,37506.812,59724.61,-4254.2905,2830.4326,1022.27234,25095.515625
456,9455.553,7329.4624,6365.558,-978.00775,-954.9028,2000.8787,5011.4150390625
457,1913.702,6566.593,1069.751,-1008.68555,-176.3773,177.47658,5434.0244140625
458,9168.347,2088.7476,2076.6392,288.46042,193.7434,63.322018,7112.02197265625
459,-1815.514,3146.7974,-3090.1218,-2705.6526,-575.43085,-697.64886,7549.1279296875
460,1276.8542,-407.0681,37.57813,-1560.2269,-826.24457,-316.24695,3454.78735351563
461,-2973.6963,5035.5107,-1265.2671,1529.3157,1744.3889,1402.8992,8685.185546875
462,-4084.7004,-10904.087,2761.8804,-767.17566,825.4843,1212.0265,12177.2802734375
463,489.5384,-1755.9991,3301.0068,-2044.7068,1150.4633,-372.8332,6015.83251953125
464,1743.0061,1450.1094,2702.8562,1000.8866,-555.575,-1787.097,3847.16748046875
465,-4596.5684,-2330.1707,-446.59116,46.18182,791.6247,-224.13779,3871.75537109375
466,-28730.81,-28344.238,-57395.0,-1807.5186,418.72665,782.957,29069.443359375
467,2701.9424,3820.9343,-2096.8665,-4590.5024,-2780.23,-762.0114,10853.556640625
468,3314.0251,3361.3362,-1673.2742,-378.66977,-264.74805,-2385.8445,6544.35302734375
469,-789.6153,-3548.4646,-1228.54,2674.8943,-2210.0046,-1557.7369,7070.37109375
470,244.89964,-812.4049,-1032.7563,-565.91736,-1611.8643,-1956.5317,4651.72900390625
471,-5543.9062,-5118.3887,-5445.5767,-1026.1475,842.0713,2071.5361,4278.88623046875
472,10703.294,11743.434,16210.179,396.71616,-4427.0786,-605.59186,9276.2705078125
473,-9841.497,-7948.3525,-25035.004,-1293.014,-373.25644,-434.7264,16407.033203125
474,24251.412,14038.499,26637.785,3558.8499,2887.6384,1484.0667,14282.4775390625
475,184.22604,-3826.0469,-5227.1753,489.60034,-1623.4209,160.78229,5689.24609375
476,15194.319,15471.12,16737.512,1976.3796,6550.743,1595.0304,12252.2734375
477,3080.3145,-196.29395,-5147.941,1037.2354,2157.1248,1038.6984,8479.5869140625
478,-5221.036,3025.3923,2176.3542,3798.679,361.25803,-1083.7228,10436.8427734375
479,10764.394,7062.3374,3084.0283,222.66135,808.0339,328.69418,6833.13232421875
480,1680.2795,-901.84735,1232.6715,387.137,1229.683,-126.44885,3278.0947265625
481,4851.741,-6264.054,-3918.9321,-498.23737,1128.7004,1015.4773,10519.1640625
482,-479.74725,1502.5331,275.75867,-187.90459,-1527.9446,162.05383,3192.35864257813
483,-2005.5823,4444.79,-930.4438,701.41974,-2470.9377,102.838524,7460.05908203125
484,-2179.4148,1816.1545,1297.7295,-1723.7839,1197.4083,1512.2222,5851.328125
485,-9475.704,-5856.269,-4552.3516,-889.82056,2219.3918,3176.1802,8181.48876953125
486,10592.512,9042.93,15554.292,-2265.4792,197.51697,1166.0433,7369.01318359375
487,362.47516,-2812.655,4185.0728,1150.6146,433.94113,1362.4563,6851.01953125
488,1637.602,-2403.8416,4000.776,1432.0538,2180.7476,910.10016,7373.78173828125
489,-7458.4253,-6019.9346,136.09021,-2868.4763,-744.4631,-575.8923,8727.1640625
490,-4564.2744,-5104.4424,949.6505,-4191.761,-1607.325,1096.7787,9886.62890625
491,-1640.0227,-1374.9111,-3290.9395,50.376526,-2099.8367,-1532.2325,4848.943359375
492,1668.6353,-2513.0623,3045.4556,-4482.2534,263.85855,187.93427,9258.8486328125
493,-859.0158,-4897.6377,-85.02071,-898.8169,696.42206,-83.86094,4892.3544921875
494,947.4021,-2790.308,-197.62732,-1175.5648,194.11003,372.53647,3959.42236328125
495,-2776.902,-3336.1194,-3203.7522,-32.32157,-731.89056,-447.99582,1571.13000488281
496,-3367.3987,5503.3877,1567.0294,-1978.2985,791.3212,557.0445,8591.71875
497,2809.6829,83.55788,-2825.241,-1412.0078,1245.0546,580.2427,5955.20263671875
498,455.4003,-128.69987,-207.29341,-1397.5713,-3005.2312,-1012.01404,6034.8681640625
499,3207.9717,7174.031,613.15265,817.21906,765.5799,-264.741,6060.20263671875
500,-205.26668,-1953.2034,5055.5786,-1351.5963,-1352.9412,-194.86746,7142.34619140625
501,-10275.112,-916.7177,-1537.4581,-878.27704,-372.53772,-125.325966,9215.927734375
502,-6255.9053,-10606.602,-7195.4697,-2584.0703,2284.2036,-511.3763,7224.48046875
503,-804.9676,2786.033,10955.271,-1788.5667,-814.1258,748.06104,11055.83984375
504,2426.1567,6227.177,2757.1038,3312.2715,-255.33849,1709.8795,7428.28564453125
505,11680.067,17520.58,18256.736,2159.0933,792.15344,1206.3289,7693.263671875
506,2464.4285,6323.8896,7156.112,-6771.885,22.152437,-1394.8358,12736.3037109375
507,9233.431,7706.2104,2547.302,-2074.6675,-1989.4526,-200.2717,7856.994140625
508,7573.94,9158.447,1378.7848,-806.534,645.7376,-187.70824,7349.490234375
509,1137.9036,2309.955,1135.6436,1426.2716,373.26733,291.9103,2855.298828125
510,-3451.3994,-1754.5323,-1111.9225,-1503.3661,-877.3827,-754.03265,3895.91528320313
511,-1282.29,576.7339,-2505.6865,-402.65878,-27.86863,549.07477,2936.01318359375
512,-1592.6654,2029.3479,-1145.6205,3591.7073,1287.6749,821.6367,7576.2978515625
513,427.60138,737.2361,-271.4228,-1922.8998,654.2301,-194.51427,3645.70166015625
514,-22651.521,-20440.123,-38644.383,-1993.1084,94.256546,2428.648,18046.26171875
515,-11938.663,-9307.658,-9494.034,3191.9812,-819.9262,1347.0626,6670.3349609375
516,1332.0308,3756.3323,-314.04373,546.9071,-1702.9913,-972.4513,5001.22265625
517,-811.5016,-2511.6882,-7236.8184,-3774.6138,1284.9558,-2310.725,9847.126953125
518,21582.076,19161.592,36505.188,19.938671,-1462.1505,1233.4769,16602.962890625
519,-3351.1277,-5698.331,-14090.803,-57.669743,-228.65065,900.81354,9911.7607421875
520,-4940.5728,-6143.0435,-3635.1528,-261.215,493.38068,1286.4952,3258.82934570313
521,8397.178,5424.6187,1874.1497,2462.6785,302.60974,1362.4757,7485.5869140625
522,3316.171,5918.498,443.96075,-82.04709,760.1415,-433.29083,4981.26416015625
523,-2271.6516,-4383.009,-2149.6685,-1690.5304,594.37463,-390.60345,3849.86938476563
524,-7561.4653,-11960.224,-4216.3003,-95.87921,-102.85726,-2244.1465,7773.13818359375
525,-5514.017,-10945.644,-527.0033,-901.3167,-303.90274,895.40466,9304.83203125
526,2255.8528,5856.1816,-1949.9629,-66.09026,-1243.7845,-1582.6748,7613.294921875
527,-4167.037,207.67195,1400.364,-2233.6816,-132.49753,537.78064,6454.96435546875
528,5771.6284,3706.165,11012.488,-2032.0774,-1325.2965,-1592.3656,8235.392578125
529,-7318.99,-13123.2,-2611.1702,91.882675,-1069.0963,-987.7081,9463.5361328125
530,-2548.1235,270.06583,-1914.1443,-1122.9078,1451.8807,-869.63025,4351.18994140625
531,4219.8047,-2972.352,-138.50093,-268.76495,619.6699,821.59985,6539.88427734375
532,3600.7827,-324.91733,-3070.093,-3382.6038,1589.8055,175.77162,8702.01171875
533,4269.351,3844.1572,-2598.9304,-1440.2035,-1175.1957,257.20737,7416.06396484375
534,6302.4854,5826.3154,-1710.9478,-712.5524,420.0104,-1392.9404,8276.43359375
535,-17465.29,-9564.837,-485.18488,589.51044,-216.80133,-395.23828,14773.04296875
536,-7256.941,-4285.112,10270.91,1895.253,90.72604,322.914,16585.56640625
537,8430.435,6189.604,6378.4473,3624.6938,23.744755,-343.1561,6663.63232421875
538,267.2382,2440.9312,-1528.6879,172.46523,-694.4824,688.16705,3848.50024414063
539,-3689.6492,5107.6064,3066.4822,-613.03467,-1330.053,-895.34607,8511.2333984375
540,-2312.3047,297.9898,231.70917,3299.901,1667.7367,1767.9634,7552.09765625
541,-11004.854,-11393.025,-1601.2356,162.47469,-1220.3053,205.71353,9843.908203125
542,-6369.0645,-8785.261,-1862.4907,2127.904,-1575.6249,390.98453,7650.248046875
543,-5995.472,-1242.396,-9.30443,-1503.1827,-396.42337,-751.7987,6238.505859375
544,4920.1216,-1066.0786,2490.5308,-373.02554,820.9902,-1379.1715,5944.69091796875
545,-675.6716,-9786.072,-232.25833,-3370.7744,-92.25528,1475.9196,11308.5185546875
546,-3711.4265,-6529.6465,1365.9738,-2141.5583,-889.2238,-1160.7599,8258.6103515625
547,649.08594,-8273.828,655.6643,331.36987,-2332.5247,452.97,9846.01953125
548,-591.38837,-1599.5354,1047.6248,-2490.9614,-474.2361,-138.70831,4970.12841796875
549,592.67957,576.6915,-1507.3945,331.37308,175.44325,1826.0073,3847.29296875
550,-14327.369,-11261.665,-24778.984,2106.4207,-1526.2661,-881.9767,13164.70703125
551,4681.05,-996.7688,-1457.2083,272.82962,-760.72406,1151.9995,6403.486328125
552,-9275.72,-5846.5264,-1513.9543,-983.8781,-420.56387,-500.29147,7040.83251953125
553,17549.389,13713.204,13218.747,-1192.9097,796.3229,705.99664,4952.212890625
554,-163.68196,2243.6528,364.2266,-218.97226,988.73724,-389.3015,2886.9384765625
555,-167.13686,2507.8682,-2677.4211,654.8376,-1833.5903,-773.40155,5774.01513671875
556,5780.5327,6589.4414,3554.9846,986.3321,-1540.284,1229.2175,4687.91748046875
557,514.8705,3377.327,2984.4795,1841.6472,1009.65765,1163.4009,4951.48486328125
558,-8462.261,298.93512,661.77655,108.76618,-833.11505,-2946.2053,10403.2314453125
559,-6771.173,-2211.2434,1570.5895,-5057.015,940.87103,-72.28408,11477.443359375
560,18617.621,14638.86,35538.004,1555.0261,-764.7162,1214.7391,19567.51171875
561,218.78381,-584.53296,-2448.1917,-170.96242,-1200.4469,-1965.5826,4649.4189453125
562,-1543.4946,-2130.4988,1656.269,2044.8538,-439.58087,529.58276,5140.68896484375
563,1832.5198,2381.5178,-3633.1987,-2309.6902,-986.7411,-283.96472,7234.84912109375
564,5171.6816,2296.6523,-2171.352,528.35925,1212.9807,2181.2783,7784.59228515625
565,10234.241,3497.8655,-769.55096,3210.6348,3160.0564,1422.9531,12621.1455078125
566,-7.3443427,-741.8403,-3220.1606,-1449.4078,-162.69322,-1363.8602,4523.71240234375
567,-14500.985,-10796.892,-17227.457,794.4142,-1431.5457,38.138016,6268.86572265625
568,-2668.5776,1847.9781,1003.2121,2522.5828,-1979.1123,-822.418,7082.9033203125
569,3785.9065,5306.0557,109.75273,-1323.8462,2464.5999,503.0744,6756.69873046875
570,-4494.655,-7890.7935,-16434.854,1202.2786,1672.532,-849.4171,11333.3388671875
571,1529.7676,2916.4243,4980.842,-3239.5276,-1516.6146,-1841.8164,7590.0009765625
572,3237.0488,7286.5,2241.729,1638.4949,216.86423,712.4057,5580.0419921875
573,3666.001,7134.36,1164.0679,292.96063,-1167.1177,-2955.3232,7583.703125
574,-3316.0889,-1910.7052,-3658.5742,-1941.3925,1605.4415,1470.3308,5300.8193359375
575,-29294.674,-29890.139,-47691.816,-1734.6409,1257.2274,1042.2715,18571.009765625
576,-3159.8054,2550.2053,1551.6853,938.78735,-2656.7678,-2752.663,8628.462890625
577,-5637.9033,-360.04025,853.89465,2388.2266,1970.0189,81.65956,8031.828125
