Element Label,S11,S22,S33,S12,S13,S23,Mises
1,1474.1953,1711.5399,-19.701036,125.844215,219.53468,-97.78041,1692.16040039063
2,1584.339,2500.4446,441.8164,-336.7265,208.91644,-60.730774,1916.62084960938
3,729.4461,1804.6218,-104.4585,-487.67636,53.755375,172.44792,1886.62719726563
4,1250.3474,2769.9888,446.54996,-385.25357,-130.77695,-173.08575,2182.50512695313
5,1590.987,2843.547,-450.1529,-178.18361,-325.57993,599.6834,3127.9267578125
6,1474.8208,910.43335,-359.43076,323.65424,180.68468,29.868776,1750.04479980469
7,912.13495,1668.4492,-25.730106,78.71202,53.692123,-60.917957,1483.00073242188
8,772.3043,1638.0165,-324.8361,-421.35104,-215.83052,-166.19685,1912.6435546875
9,1195.4462,1499.5463,65.00549,218.80547,568.1414,87.955376,1687.99584960938
10,501.38943,2514.2756,19.60826,369.02206,-61.623074,-607.469,2603.95336914063
11,1818.213,2610.2383,356.60056,424.44147,-60.931553,-18.371817,2115.14794921875
12,1599.7715,1434.1064,-100.573555,518.99097,24.037111,-19.861143,1856.85278320313
13,1093.825,1756.3055,435.35535,284.07147,51.017365,32.659863,1249.71362304688
14,1290.7637,1851.4913,-359.30658,-684.99554,-379.22308,-275.62122,2455.47875976563
15,2150.3518,273.78632,298.65506,1318.1875,-100.501724,256.7736,2986.03466796875
16,1488.1654,4672.4155,3058.261,326.1221,-1323.3794,2232.0579,5303.24267578125
17,-187.38728,2134.1765,1199.882,1464.8729,223.26317,-527.53406,3393.45190429688
18,2594.3203,1932.9185,-23.398176,174.0329,-281.9517,264.4292,2469.34399414063
19,-4234.1357,-9613.59,-9872.062,11418.57,-9210.866,-2527.3982,26367.22265625
20,2534.7654,2058.123,759.8331,-1404.4192,-59.466057,-463.18857,3017.115234375
21,802.36053,2450.4531,-2159.3525,-1166.0138,36.52185,-599.57056,4640.0810546875
22,812.24347,1203.9896,2920.9587,-2103.4954,980.86975,-697.26263,4625.2548828125
23,1496.9028,242.52557,-1407.8533,1452.179,-557.4346,388.73306,3752.25561523438
24,2160.4128,1412.235,271.1447,175.9644,509.60278,253.85587,1944.45349121094
25,60.02757,2914.4412,-596.83984,548.4806,-409.07925,322.07672,3488.53173828125
26,3525.7488,2491.8933,636.71906,1452.1792,431.54648,-722.888,3857.6396484375
27,176.76642,539.86115,1241.3451,396.79272,1200.0005,1429.6964,3435.55737304688
28,2126.4246,6298.6216,1248.2036,161.86168,172.32765,-867.26,4926.1259765625
29,-561.2637,2119.0,-892.9506,-2931.2146,-530.68933,-276.6732,5918.90478515625
30,1689.2432,1990.4525,-330.33643,-625.6889,-430.56638,-26.270613,2551.55590820313
31,3498.9575,2839.8252,4813.2266,1768.5958,-465.04428,886.3161,3926.48657226563
32,1510.6127,2987.8594,3018.3032,-1096.7305,826.0079,405.18848,2894.13403320313
33,-796.3436,2417.6912,-2054.9268,-2371.322,166.73888,-812.8664,5907.1435546875
34,1810.4185,-653.56134,-2490.811,-939.6676,-1397.5361,-992.79694,5043.6904296875
35,881.45874,1215.4226,4600.979,-1339.1571,-25.919546,203.89728,4267.42822265625
36,1279.3677,1333.8497,-1495.5983,-1399.8976,54.378536,327.3642,3750.21362304688
37,3259.35,1860.182,-656.45624,477.86545,1431.6361,249.67966,4339.72021484375
38,1614.0504,2324.6096,867.8741,-1706.648,969.09503,-845.72485,3910.62719726563
39,482.74423,379.0988,113.85663,823.47723,499.35425,996.6652,2423.01879882813
40,582.5012,1809.863,-887.1357,-492.5359,-645.87744,128.36,2738.3759765625
41,2950.251,1486.3949,-1151.5406,-7.2827044,-531.0566,-217.6449,3735.16625976563
42,2924.625,225.10326,1967.2452,-1967.9824,1466.5905,-291.64825,4893.48828125
43,2995.2026,-84.60876,831.13666,-1200.8195,-605.11523,676.92596,3781.87622070313
44,2749.7766,676.1127,-3504.0686,-942.79706,-953.0131,-996.2841,6229.87451171875
45,-4063.0154,-1907.116,11594.309,-2413.276,-4844.5107,-4536.9688,19122.654296875
46,1535.63,4984.377,14916.32,-10848.707,-9581.357,7467.118,30668.45703125
47,5555.143,-8768.304,-1091.6586,3768.4265,10825.528,-2272.8552,23744.744140625
48,1790.1118,-6673.2744,-7978.327,-1213.3875,1333.3345,-1527.7415,10056.3154296875
49,2847.8113,1472.5574,-262.48663,-592.1042,-13.058092,96.09671,2892.7158203125
50,-6570.625,2106.8584,-244.42947,2431.3115,1783.3801,-75.02865,9365.6845703125
51,-266.82452,2581.9448,-6.7080355,-2095.9631,-439.59818,2120.1553,5889.501953125
52,2616.7498,1625.1791,-20.161077,-609.6147,365.8613,-1189.8475,3329.48852539063
53,1502.8678,3025.6592,-955.42053,1453.104,583.6205,585.9493,4526.7998046875
54,802.6434,922.41095,-222.01459,-901.35126,409.15955,1347.1418,3093.68701171875
55,1737.9791,-1021.3607,982.25574,-1538.3322,182.31471,-144.06876,3655.29174804688
56,2753.3503,2834.2095,241.21132,326.016,-407.89694,-81.3938,2712.63403320313
57,1917.296,1786.5643,-753.0805,-316.58893,316.79315,-230.72055,2749.60986328125
58,2329.8374,2367.0613,87.664856,-119.43091,196.5486,271.7674,2343.59643554688
59,1370.4851,1823.6565,157.39389,305.20288,1026.7911,469.3869,2515.951171875
60,1559.236,2079.5317,-426.15744,908.65295,-288.81555,13.424352,2823.68920898438
61,2302.7122,2697.8687,-674.4741,954.2635,889.7856,-77.07036,3914.21411132813
62,864.57544,2227.1423,384.0749,1121.2096,415.46964,321.19867,2709.40356445313
63,-1603.5356,1436.0271,-1012.89655,2895.9565,-200.42055,661.5241,5863.91943359375
64,537.50024,2486.6528,-135.7707,1645.3936,133.38649,-1148.9307,4207.16748046875
65,2834.289,4709.973,880.15686,1740.0667,-60.687267,322.04498,4517.50390625
66,963.022,3031.7395,-295.70215,460.84995,-7.1636844,510.15665,3144.20166015625
67,2747.576,1313.753,1331.0356,317.2674,-366.75375,975.30664,2364.431640625
68,2103.5989,2088.2888,-595.1262,670.60297,-517.2292,-31.98809,3065.42114257813
69,1109.5184,556.93005,-1858.008,-22.551977,-51.08981,45.976337,2736.31958007813
70,1340.0306,1200.1019,-1097.6953,497.74585,121.70974,-208.7554,2557.22680664063
71,2117.0913,1760.3433,768.32745,191.92761,-231.40987,442.20023,1524.15466308594
72,1260.089,1362.2001,2291.901,773.9541,-790.43475,553.36414,2357.90478515625
73,2604.8325,1972.176,1018.5775,449.02042,-498.72958,902.89636,2389.4814453125
74,2674.794,1675.7563,-17.451765,-201.50496,777.5203,251.48526,2771.6005859375
75,1438.6936,3624.5376,591.22986,-1331.6696,-334.2958,60.500896,3607.60375976563
76,661.0647,1647.2236,-768.7355,-453.16168,276.49365,-933.789,2808.58422851563
77,93.03009,2403.1294,699.4389,-532.43945,-449.6483,564.2083,2591.41748046875
78,3122.7717,-1788.9971,-2139.3774,1135.2278,166.61359,-1985.7916,6461.333984375
79,524.33954,1386.5637,840.353,373.82016,-900.3524,-1164.3513,2736.62036132813
80,1357.7596,2539.947,2464.0232,-912.6817,-160.89116,-880.0683,2492.74096679688
81,2686.4546,1334.8033,1606.5392,-1762.2853,19.931927,1372.7379,4062.61962890625
82,-217.71701,-2009.276,-1236.2621,-2519.462,7718.2446,-6854.141,18469.35546875
83,3484.6836,1035.5842,4904.6543,-2896.3706,-7938.8477,786.26245,15086.0693359375
84,-254.06107,-5251.7485,999.9552,1291.3771,-7514.838,2898.2737,15245.9150390625
85,1523.6667,5185.637,-3104.9287,-3211.027,-393.2391,-177.50084,9125.470703125
86,1828.1741,7183.5977,10958.029,-1363.8765,2904.4463,-1623.42,10096.2841796875
87,-1634.7524,8108.491,-1373.0618,153.65755,-2721.7964,-455.75705,10740.9521484375
88,-2244.1746,-6668.6963,-6682.989,3361.1587,-706.83984,-633.76825,7499.056640625
89,783.7629,2009.2249,-2102.1787,1042.5175,-965.31683,677.9379,4560.90625
90,2611.1628,3491.207,4001.163,-480.12146,-658.82245,-4157.273,7438.12890625
91,1985.4333,1092.3423,-617.9899,517.0645,509.11798,-266.63834,2653.91943359375
92,1478.2017,2033.7288,1494.5571,1869.9581,-438.99008,-474.65384,3470.45361328125
93,1702.8167,914.53076,176.51056,-1300.9011,-166.0888,489.85217,2761.79150390625
94,1995.4587,2536.3345,775.084,315.549,-118.58731,-889.24615,2270.48681640625
95,1990.4209,2047.0182,332.5936,-82.00824,1090.2701,-401.52435,2629.70190429688
96,2236.5564,3231.7576,997.84845,-312.68433,463.83823,-188.71841,2191.61645507813
97,1190.0526,1327.3022,270.51123,1463.2538,885.91455,259.0338,3157.49340820313
98,354.58533,3369.2363,2027.6354,1785.7611,1.9140359,1543.5631,4853.6748046875
99,-585.32184,3340.071,-751.63336,2262.1611,1254.6418,925.1005,6223.43408203125
100,-1956.2451,-58.960712,1829.73,-1518.4932,23.195673,1732.112,5164.294921875
101,2384.4565,2371.8096,476.5043,130.96512,246.94739,91.44017,1968.70520019531
102,2425.475,1577.0437,-1313.5867,-661.8826,318.24442,-344.8151,3674.62622070313
103,3729.408,-3945.4644,-3584.945,-3569.8237,-1428.5828,1078.7637,10203.4970703125
104,275.4066,1437.1442,-26.298296,-1463.0685,-670.34534,-693.009,3316.8876953125
105,-48.491875,2369.0972,-3826.249,8.244677,-1474.5659,3.8230138,5981.01416015625
106,2797.8972,1891.8168,-429.87964,1224.8143,-589.51276,-56.74427,3723.9287109375
107,-452.2398,2075.1572,-228.7037,-778.91895,-303.4466,-159.26237,2836.4091796875
108,1649.6779,364.60257,-1049.3601,-2014.4255,1414.6382,995.5945,5159.3330078125
109,4857.1816,1635.0049,3144.6697,-753.18005,-1452.5033,-185.45847,3991.41918945313
110,4961.2183,-769.25867,-5188.3936,-164.38953,-1039.8419,-1739.1329,9491.548828125
111,1636.9644,-379.56512,957.9844,-1572.8682,-243.44386,508.58,3396.13305664063
112,466.33112,-218.98584,-2571.004,-1533.543,-2177.5366,540.0792,5456.0830078125
113,1930.3245,-2259.1938,1228.302,-2351.04,358.51425,625.9595,5766.021484375
114,2145.6143,1825.3169,-493.10092,390.3796,-160.12509,-90.575554,2603.642578125
115,3392.436,3437.8015,468.04953,950.5562,1665.6642,-292.39026,4469.58837890625
116,1962.2605,1564.3033,-554.04095,-258.7474,237.7629,360.58948,2499.85620117188
117,2378.991,1932.5983,254.1133,616.229,-48.52953,-715.03235,2538.88452148438
118,13.777176,1368.886,-495.60916,863.7306,-229.6295,139.61101,2289.28442382813
119,593.5221,2603.4207,4008.8914,-835.99146,-2236.604,1263.1696,5543.51171875
120,4479.014,-357.1574,1222.2319,-3640.2065,3668.591,-300.96667,9932.046875
121,-7653.0737,405.8184,-3513.143,-3391.6829,12485.944,-4833.332,24920.109375
122,2009.4968,750.3655,452.84528,469.12814,-428.73175,579.4286,2065.77734375
123,1708.8569,3880.0505,5256.696,-894.33685,409.37366,1646.9363,4542.8701171875
124,1930.9489,468.62338,-1627.4728,-780.9178,849.5981,-1167.8545,4205.2099609375
125,1157.639,3334.4805,-195.43236,-172.6614,-565.19806,134.7805,3258.39575195313
126,-496.7979,2740.1604,1118.5239,-1036.7659,-1327.23,660.66425,4204.41845703125
127,2134.1338,1655.4711,733.30255,140.07802,-622.0982,171.52658,1681.98352050781
128,2186.6738,2032.065,-214.46765,-199.08333,-426.70004,98.8934,2472.36889648438
129,2502.9417,3067.4229,794.33875,-146.37099,858.4554,857.83997,2947.06909179688
130,2416.2676,2070.4734,-540.1242,428.57797,716.11755,-24.98684,3151.0166015625
131,3519.5784,2715.3494,1841.0647,570.5785,318.21133,964.10895,2486.615234375
132,-310.5409,-2586.1758,-8308.886,2933.1653,316.5838,1878.289,9361.9267578125
133,4104.304,5185.891,5839.8125,-51.86299,100.73205,-72.75118,1535.93762207031
134,-1098.595,362.33612,-2173.919,133.67169,1198.7686,-2541.913,5348.86181640625
135,3475.869,-305.81107,-618.2197,951.29865,173.79019,1110.3801,4699.41259765625
136,2358.895,3576.1726,-1540.9124,1415.6053,677.51733,540.5672,5450.04150390625
137,-8092.272,5740.2905,-1065.3597,-2199.9734,-1872.5925,-1352.1699,13192.4833984375
138,-2620.822,-1981.0872,1212.605,1036.2538,1266.9669,-8497.175,15404.384765625
139,3237.6372,-265.001,-51.3617,-2159.6394,-290.47632,850.7488,5289.83837890625
140,1556.9374,3087.8699,-5016.2544,4693.9326,3855.818,1165.5955,13053.373046875
141,-7775.8066,-6671.174,-3345.8508,7942.82,-6355.074,2786.1958,18699.357421875
142,2002.2423,1051.7118,434.9211,-442.56436,370.1661,-962.56433,2376.65014648438
143,1973.1029,1482.7134,-1860.4591,1.085914,148.54544,-503.11356,3725.8974609375
144,1419.7346,2043.6023,1452.4496,-337.34268,-104.60705,246.3636,962.384826660156
145,2635.258,892.8012,-1344.7938,-491.4689,729.3261,-181.66792,3789.62866210938
146,1825.4109,1296.3856,-695.57556,760.891,143.63213,655.36884,2896.35205078125
147,2158.6074,2187.7842,967.19836,779.5026,-759.3815,-649.1981,2504.45532226563
148,1291.8531,2557.7566,434.38126,1376.3224,438.73105,-1235.553,3776.673828125
149,2098.441,2175.2866,-431.77716,957.9461,976.60236,-368.8008,3553.11499023438
150,2940.2324,1419.449,-569.84906,816.70825,221.34503,277.26205,3416.7265625
151,2266.3987,4108.2334,1788.9369,-79.11608,154.50188,1622.4949,3533.7783203125
152,2155.6355,1480.0128,-1678.852,1483.9453,-1429.7812,-252.00974,5049.62646484375
153,901.0531,3285.5083,-1780.8657,683.96686,-116.29803,820.9031,4768.53076171875
154,1239.8217,2860.5095,5013.2603,-1193.9366,1995.7075,-1600.7993,5887.4931640625
155,983.2352,4128.5576,569.3782,-1.6531309,-113.09093,110.43794,3382.45629882813
156,3625.5186,1320.6852,1945.0029,150.82169,242.525,829.192,2563.2900390625
157,1924.6266,2716.0112,-1461.2994,760.3474,7.289666,-593.264,4190.55908203125
158,1383.253,1977.5637,1522.854,262.0055,-93.53296,626.78625,1304.03063964844
159,2952.235,3340.572,4008.433,1202.3806,542.137,73.84675,2468.08715820313
160,351.18277,1773.4045,-5831.504,-745.3867,906.8063,106.61753,7294.46923828125
161,2681.9346,2403.87,2955.579,-812.4016,2378.3608,369.01266,4425.67431640625
162,3913.6675,3447.2563,2840.725,677.40283,382.56223,996.7844,2380.07055664063
163,2368.306,-49.070663,200.1411,-453.43497,680.9375,-114.42384,2711.17919921875
164,3647.4683,3820.429,4583.0674,-985.2675,-1185.0323,1167.1653,3457.66162109375
165,1369.4536,186.95822,-3963.3687,-1932.2605,-354.74744,-234.04309,5939.1923828125
166,-601.1085,1501.907,1925.5391,97.792,166.82916,-369.21973,2452.38623046875
167,4340.3213,-1223.5396,-422.18475,83.53791,2758.7527,358.88184,7097.8564453125
168,2685.559,1743.4342,-738.712,-907.543,92.38789,314.4151,3490.01733398438
169,-1617.2305,-995.9686,2784.285,-42.677948,641.6596,-386.54416,4325.93408203125
170,2437.316,2209.1653,-1581.3386,-643.41345,-279.33768,2186.7612,5577.32763671875
171,-635.33215,-162.41542,-327.61246,1842.3572,382.265,-567.37024,3429.2509765625
172,2839.5464,-221.92474,165.8466,-985.91614,-882.1022,645.81305,3851.94116210938
173,1242.5906,1433.1936,2780.0483,-609.857,-661.611,-623.0843,2387.61987304688
174,1605.1012,-1734.5662,4154.898,-1000.33185,-256.54926,3888.0605,8644.119140625
175,2593.6074,2187.359,-18.427189,-83.43004,-295.34442,763.1286,2820.689453125
176,818.13434,2335.3406,-249.41602,-1027.7266,652.5269,-468.58575,3188.42138671875
177,2236.1145,2341.9004,489.4388,-697.4983,-753.8569,548.29846,2704.28295898438
178,736.07153,1750.992,-38.825844,-1057.4652,136.51103,-208.80493,2440.9814453125
179,-352.07498,-1199.5388,-3084.712,1110.7937,357.69556,-381.81113,3223.73291015625
180,-957.1051,4587.581,1336.5446,-3007.2302,-173.1066,505.623,7160.58447265625
181,-2627.5332,-943.6073,-1571.2194,-2630.8267,-1971.3182,3838.072,8876.2080078125
182,1889.9133,3162.1663,-599.7687,-892.20276,353.83322,-153.13667,3717.34765625
183,1870.42,1170.3584,827.859,775.8515,-250.28616,-295.3375,1761.42041015625
184,2127.0537,3128.9365,1172.7231,1292.8618,-115.79371,117.38055,2822.5302734375
185,1448.2869,979.8047,-1127.5586,-1189.0127,-683.52234,172.96933,3373.47509765625
186,810.91064,3808.7158,-1809.7513,1130.5048,-568.0219,1117.855,5679.94775390625
187,1775.2855,2073.4424,800.5835,-947.60846,461.1528,-495.72714,2323.50244140625
188,1913.9036,2978.2324,-1501.8276,-489.88556,-240.55367,-125.75835,4168.5107421875
189,2186.4546,1929.262,-769.3642,288.37842,74.634605,663.09686,3102.916015625
190,10642.705,8663.397,5270.5933,3342.5762,-2098.484,-6655.9287,14204.84765625
191,-6800.701,657.69995,1044.1123,-4412.732,3860.6294,-2623.7205,13507.064453125
192,-1229.305,-38.857952,2128.2188,2703.216,-614.13367,384.7686,5673.705078125
193,-1428.2882,-1885.504,-2183.3108,703.326,-686.48004,-257.093,1878.81726074219
194,-7102.324,-5637.188,-773.79956,4154.031,6748.555,-14.110359,14876.9013671875
195,4987.775,-828.6273,-350.93124,626.60345,-1285.8333,-225.04964,6129.453125
196,1335.1917,-4807.497,-7564.7886,-1266.7992,1996.358,-734.4292,8981.1640625
197,-938.8237,-3777.3645,1824.8776,168.94864,479.9281,214.1092,4945.13818359375
198,5149.47,-1476.8927,115.66791,-1825.3284,-447.96335,-1237.8146,7147.453125
199,1851.9333,-1686.4557,-4241.8164,12.625705,-755.52905,665.47894,5579.736328125
200,2411.901,658.80865,1431.5521,301.8188,581.83716,356.85995,1996.67443847656
201,4423.255,-2156.8606,-163.63127,-4849.4106,-132.23715,171.1127,10239.42578125
202,-780.51086,-5389.937,-1400.3356,-1410.324,-1937.9879,-699.3302,6121.72998046875
203,3226.0063,500.0128,1112.5033,-1181.8455,226.08997,253.10602,3266.85693359375
204,4093.7356,2200.6116,4151.45,-893.9357,-1536.1068,1465.1061,4428.58349609375
205,3399.8105,-5957.167,-5195.9165,-1814.2913,1552.1276,-467.97586,9938.2490234375
206,626.6716,-2565.6318,-2141.0847,-528.33545,-422.93066,571.4145,3371.84326171875
207,-264.19348,-4451.954,-4287.521,441.31662,-455.002,-304.16245,4284.70263671875
208,2801.2258,-3252.1675,2458.2915,-86.142,-1189.6134,1582.2262,6816.4052734375
209,-731.77167,-4291.929,1376.0035,-1396.7157,-1120.9779,-268.37595,5870.2421875
210,562.8606,-5807.3804,-7165.627,-302.54065,2718.9258,-1789.92,9118.162109375
211,563.7772,-4453.923,1617.593,-932.5858,58.174683,-62.712757,5848.64697265625
212,1265.9393,-4771.6245,43.453907,480.5043,-619.38245,-177.86853,5701.25244140625
213,737.08606,-5580.608,-4047.7063,-1332.0471,966.1326,-1675.8676,7009.10302734375
214,3705.8228,-3350.8384,1804.9539,206.48427,-340.6535,279.58615,6380.1669921875
215,4863.989,-5394.0845,2640.451,-1403.1733,-787.7163,107.16684,9755.2861328125
216,2844.6316,-2567.2693,1741.2771,-1077.506,724.9367,-291.28134,5463.4248046875
217,4116.2754,-2739.3564,3213.8416,-667.51337,-217.28642,368.30472,6596.41015625
218,1223.199,-866.7183,630.1705,-2293.873,223.61476,-898.4092,4673.01220703125
219,-2504.0974,-3610.3813,481.3772,-839.00653,-2407.3315,2136.5605,6828.75634765625
220,-16237.099,-4672.36,-5633.646,3139.211,-2238.7314,1171.946,13125.177734375
221,-6449.124,-641.04083,1997.909,-880.1231,-3681.8113,-7045.2466,15745.560546875
222,-1106.6261,929.9589,2667.3394,-641.89264,21.143211,-977.2128,3847.95336914063
223,-2918.8347,3075.2498,190.20921,-1601.574,-334.3398,-930.99927,6131.07470703125
224,-5306.1553,-4458.554,-4953.1997,-329.22543,-570.1445,389.02884,1515.99206542969
225,-1269.0225,4554.6167,-4579.723,-660.2196,574.20056,-1180.6277,8404.419921875
226,-4976.86,3593.68,-497.08005,-682.6293,-38.713745,1186.8857,7794.6767578125
227,-3969.029,982.4887,-1679.199,-2484.062,341.61746,675.5323,6217.19775390625
228,309.33057,3188.1519,1703.3994,-916.05035,-561.39343,200.75285,3130.75122070313
229,-2827.1948,1120.5814,-710.9275,-506.97668,899.7217,-234.26865,3882.42114257813
230,-1884.6925,871.9729,-493.87302,-865.01544,496.8893,1560.5392,3998.85717773438
231,-517.3891,5319.187,-455.61923,847.21265,482.8192,1171.0084,6377.72265625
232,1301.8724,4700.704,579.8913,-181.71968,1250.115,198.7887,4408.30859375
233,1100.5023,2357.0356,-360.0825,-1134.6693,2.510598,416.15598,3151.10400390625
234,-755.69147,1152.1436,-1480.7535,-1094.9576,-59.50429,-568.9125,3182.33422851563
235,-1411.2766,2734.5688,-2541.9412,1270.521,-259.2215,-227.24991,5324.7705078125
236,913.87115,1892.8992,-1005.50134,1094.8632,-678.85834,639.36487,3567.44873046875
237,-2061.6719,1399.7205,-3097.221,1021.6934,-701.08716,-32.352646,4609.48193359375
238,-767.40936,1815.0968,-1277.8109,2285.888,-421.5154,-457.00464,5008.3330078125
239,2654.9062,68.69651,2803.9175,625.5973,675.1153,-78.053406,3107.37744140625
240,1466.9125,829.2798,-2384.8386,591.54767,-29.095854,-32.500416,3720.49096679688
241,650.8086,882.5236,-1776.3091,1225.1599,468.78152,307.4629,3457.29809570313
242,2117.3892,276.4058,684.1163,415.70193,-622.2774,-284.266,2174.2568359375
243,2360.0217,1131.1475,605.6048,-175.13306,-119.61638,261.4699,1664.98986816406
244,1311.0547,1325.0546,263.98813,905.55884,-715.1902,405.9461,2366.47021484375
245,2466.8125,-432.15836,238.57245,711.74396,-380.46936,903.9973,3363.79614257813
246,1171.2313,16.804491,-800.10596,174.1088,-635.2418,746.9323,2432.76977539063
247,2879.994,-223.80542,-149.88377,248.28963,442.86002,618.1825,3365.91186523438
248,1559.6985,-910.0211,580.532,435.0938,420.1977,-360.8736,2475.544921875
249,2837.0947,575.4845,553.06177,720.993,426.65015,773.14484,3010.80346679688
250,2172.5574,-501.23682,-1192.4656,-127.10212,135.79593,-229.00752,3120.3037109375
251,757.20605,-35.700394,-632.12146,230.8681,18.778677,-506.14246,1544.93481445313
252,1539.9297,-876.37335,339.10748,-77.805695,-562.18207,58.30037,2314.18408203125
253,1533.8691,-523.887,140.0246,-123.23458,14.841645,-432.23953,1978.80895996094
254,-171.64644,-661.45825,-1289.3042,192.40654,-279.99066,-494.38504,1421.66357421875
255,2179.0168,-271.59973,538.5373,-808.6434,-905.48926,273.0848,3053.14233398438
256,1737.3722,755.35425,-1049.3381,-3823.0188,-837.4142,-1195.3163,7498.6708984375
257,-458.58325,410.0647,-1854.656,-929.0512,-171.645,-383.22903,2652.29174804688
258,1454.2998,-793.85455,-4467.08,-2557.282,649.32275,167.62076,6911.80029296875
259,2362.3862,1178.8755,2597.4053,-4680.3774,-829.32446,-2763.8762,9614.1689453125
260,-2147.6663,983.70056,-2784.2617,-1255.7256,81.994446,-2185.5833,5593.3134765625
261,304.6164,-4627.152,3659.2366,18477.025,-3259.5981,-1986.6919,33466.95703125
262,5408.4106,1813.277,156.26993,-1856.767,420.33823,159.31168,5707.60595703125
263,10939.539,11706.115,2284.721,-10543.044,-5501.8354,3784.7114,23438.81640625
264,-1776.0834,4425.063,-2661.5588,-4610.937,2815.2437,2070.8977,12047.9921875
265,-13158.854,-10786.954,-11186.81,-269.2689,-501.6547,6789.459,12004.1708984375
266,-377.86487,5266.5547,13557.961,6644.291,-2443.2263,-4354.4585,18831.857421875
267,-9347.062,5348.4155,5489.0215,1324.775,1915.8947,-3299.3252,16339.423828125
268,-1524.2673,-5480.8843,-1290.0675,-2953.557,-475.80368,-1593.9575,7148.9912109375
269,-4580.574,551.79504,-5646.936,-1210.3627,-923.5824,-633.13696,6411.53955078125
270,6097.6616,962.68787,5725.237,-579.9864,665.89856,117.024704,5193.7236328125
271,-146.29669,2316.9639,-3455.0144,-1715.5929,-993.66144,160.44844,6085.60595703125
272,-528.1341,1988.7184,-226.45493,875.6912,-348.5823,-385.30313,2962.546875
273,-1266.6221,2955.0098,1436.7344,951.6509,24.228075,518.35236,4152.40673828125
274,-1978.7919,3275.3218,499.73022,-224.6191,-211.39264,235.81488,4602.0205078125
275,-2011.4271,2701.1096,-220.98325,910.5169,-89.750946,-746.501,4599.9169921875
276,-2069.0906,1951.9072,325.6715,-204.53757,11.083016,-586.4015,3664.89453125
277,-2491.9539,330.96518,-399.89276,537.12445,161.22595,224.4554,2744.90502929688
278,-1861.7601,2119.9243,-1008.5145,1175.9869,-740.1116,168.5707,4365.9892578125
279,-1879.2909,1512.5621,130.37167,617.68555,657.1742,84.20077,3344.91259765625
280,-1470.0315,1625.5681,293.79507,1330.8245,722.14435,-87.23121,3759.56201171875
281,1196.882,1562.2205,246.2715,1745.3846,-1537.48,305.77658,4230.314453125
282,1821.6923,-4160.304,-5226.859,349.92606,457.99353,-42.858303,6656.130859375
283,1507.6089,-1785.036,3738.856,-276.93384,-234.8261,514.3269,4935.15771484375
284,-741.13,2092.3035,-269.67035,1383.8673,-329.30414,-418.45523,3675.68676757813
285,-2946.7317,1043.9453,-243.88246,703.2064,392.54852,440.7902,3869.54345703125
286,1097.2451,-733.2268,393.4349,2095.9375,-389.7858,470.49374,4105.65771484375
287,1817.0117,-515.60187,726.41296,599.5189,618.6792,272.80673,2556.63403320313
288,11.22536,-399.01535,633.10815,-126.86692,342.6107,-450.56137,1348.92761230469
289,2071.1843,1853.5631,1913.3771,-1111.8873,3.1876404,485.00458,2110.09936523438
290,235.37823,304.63184,-1363.041,454.71222,544.0746,18.167158,2044.44799804688
291,1308.5822,589.1245,2561.1487,-885.0655,-580.53107,24.128445,2520.02563476563
292,-5520.7246,-3068.3193,-835.8374,-220.19391,-856.07605,-547.71985,4440.41259765625
293,2078.4587,-3598.5361,-1566.344,-856.2566,-451.6159,884.6263,5475.43798828125
294,5747.757,-2610.6965,36.6882,1219.6511,1689.2421,-1319.1199,8543.29296875
295,-2034.0361,-3156.863,-942.4849,-1057.8684,-393.89874,44.881435,2739.82055664063
296,-1898.9882,-7824.9214,-5319.038,-2.937907,-644.0019,1300.1703,5732.5390625
297,4951.01,-7186.9424,4907.721,-1509.8827,-23.640726,459.77945,12421.0078125
298,2008.2863,-233.93887,4245.787,-1271.287,-196.80923,-155.25253,4481.96240234375
299,1643.9886,-277.7968,-669.5237,1002.6127,213.18198,879.7511,3173.86938476563
300,1146.3712,-268.0216,-401.86987,-516.47003,295.53708,16.265476,1808.52990722656
301,2205.6487,-732.38965,-783.1763,533.49286,-150.80229,-210.4852,3136.69262695313
302,1596.6716,-431.33978,-325.14816,-97.98482,998.23376,-260.63968,2670.34887695313
303,-5167.463,-14369.82,-3209.6921,411.8818,4186.911,12228.796,24662.974609375
304,-3160.998,3364.0076,1124.3445,799.95636,-1617.6218,2020.1985,7415.62353515625
305,-8830.089,4193.2446,1243.0753,-1019.35925,780.7438,-1112.2932,12187.9951171875
306,-3916.3403,-3542.6602,3919.6777,2159.2568,-455.2361,852.8549,8683.6416015625
307,-3026.8062,2015.4264,-2324.6516,444.20416,325.85873,-585.7948,4931.1943359375
308,-1607.8236,1485.8672,-925.5814,-25.562544,-188.51213,-188.095,2853.14575195313
309,-2122.112,359.73868,193.00642,631.59845,-457.1699,-383.166,2835.09936523438
310,-1309.201,1036.7361,973.1679,1229.527,-813.4347,707.5391,3657.923828125
311,-1847.353,1744.6296,3.2339694,666.7012,-9.705205,-219.86743,3340.43603515625
312,101.69863,1109.2914,-675.16223,1667.1992,357.09003,1092.527,3834.52221679688
313,-2062.234,-1358.9113,-7923.8496,6993.1685,-657.0075,-3619.47,15042.794921875
314,-3399.4321,-460.60583,-5405.347,-503.99124,1939.4009,-248.39998,5548.54833984375
315,7775.3013,10076.284,5020.2437,-1924.1232,449.60327,-677.77814,5684.67529296875
316,10499.099,5750.9023,4127.2856,-531.3234,-253.62512,574.65076,5909.42578125
317,-2882.3762,1556.2855,689.12787,-1382.7761,-580.26733,504.23624,4910.57666015625
318,-1230.4182,-2336.0312,-624.0984,-2500.0754,-524.3993,331.3142,4708.0546875
319,-12517.617,-8064.966,-4453.294,-5106.828,1554.2493,143.11604,11597.38671875
320,-1359.1755,149.65797,-14.621702,1209.6637,839.3426,-562.37866,3083.48046875
321,962.4412,645.8972,-1334.9412,1138.7814,470.92413,-106.441124,3039.85375976563
322,2043.9688,-363.4784,777.281,-179.70538,-401.19003,1185.2931,3024.12255859375
323,3289.227,-1334.3956,5918.6494,1084.2566,469.04764,-70.45821,6682.13671875
324,2012.523,-757.9459,749.03656,-417.76956,575.51733,1013.80475,3220.57470703125
325,-1155.0123,-1342.5112,-1608.7747,-1202.4104,-1394.9115,-200.26134,3232.80004882813
326,2868.4458,-4078.3833,-5992.318,-1446.3828,328.79266,279.8873,8488.388671875
327,2302.8372,-1985.5824,-1162.3829,-1423.0054,563.71686,410.2299,4803.228515625
328,139.87032,-2334.9539,361.38016,-544.4558,69.19979,828.3169,3111.91381835938
329,150.16203,-5579.705,-1617.1819,554.8662,8093.1123,6280.1187,18481.529296875
330,-4808.609,1285.3646,464.72357,2546.738,118.44488,-843.68427,7378.6259765625
331,-423.87357,-391.29828,-708.9409,2751.0686,-360.42523,-340.00122,4851.10986328125
332,2463.8892,524.50775,1088.3838,557.60443,532.82025,1229.3359,3050.220703125
333,2695.2478,-457.22064,-22.645988,474.67215,774.961,-259.61682,3381.82885742188
334,1788.3727,-1360.5182,-1998.1283,1123.501,-173.5912,177.13179,4037.46411132813
335,2791.099,293.8109,594.4171,396.0691,884.2258,487.98868,3017.72900390625
336,2587.21,-24.628397,1522.4458,137.96303,528.0601,-175.41437,2482.01245117188
337,7167.086,-1620.3687,969.9605,-4522.883,-1965.2001,1505.9906,11871.2353515625
338,10370.048,791.8699,2393.5796,-2180.1484,-2603.994,2220.6074,11329.619140625
339,-6157.765,-3405.9434,-6397.1543,-3340.982,2890.9363,2498.7197,9250.859375
340,-5800.3887,4889.848,-5809.241,-2011.4149,-952.64056,465.94366,11396.8037109375
341,-803.4312,545.518,-476.37137,26.807076,-663.3454,358.91586,1787.21691894531
342,-500.45917,-754.3242,39.79908,1621.4677,532.44086,-460.31622,3141.19458007813
343,-1316.295,1206.8838,1148.4651,263.9395,326.22003,-805.70935,2949.2705078125
344,4014.4756,210.98875,3983.0757,-1078.9508,-229.3779,1180.1091,4709.17041015625
345,-275.07205,1385.1626,819.5201,2658.7935,1397.9054,2401.321,6819.54736328125
346,1478.1355,1850.1953,2456.992,1434.6542,-1128.2316,670.12616,3474.625
347,-504.93002,2301.0125,-357.02753,1432.1743,250.38081,-689.0993,3904.63793945313
348,2421.443,-2835.4973,-587.6439,-853.3183,-39.526173,-374.59485,4845.77587890625
349,2038.7407,-98.216484,912.6391,777.62177,-274.46948,20.493362,2338.71923828125
350,-2180.8792,912.43024,858.4104,-1069.2244,46.649723,4.6250873,3583.3916015625
351,1576.1412,2545.9043,3215.999,1298.3872,-369.76123,-343.8829,2803.86596679688
352,904.1156,1859.3477,457.5001,1410.1229,1298.0165,-289.21936,3579.01928710938
353,-2794.2593,163.11884,73.42576,602.515,-151.17538,642.0539,3298.970703125
354,-2689.7822,-1620.2448,1111.0472,-2046.2585,-1913.388,967.4546,6154.48388671875
355,-1435.669,299.6967,-145.55585,1410.4147,-277.88452,528.5789,3078.10375976563
356,679.52783,527.2761,-376.5553,1338.6542,-252.94516,-227.14722,2588.5166015625
357,904.4277,812.899,293.91104,1518.2275,73.53585,1058.059,3258.06103515625
358,732.6447,708.86255,-1611.6343,909.65295,-67.49161,1102.8059,3403.68505859375
359,-762.17035,1061.2053,160.1757,1730.7943,-1244.3528,-469.5912,4097.23974609375
360,-224.72566,-42.554115,77.94104,691.34045,-118.12754,239.48901,1310.5107421875
361,968.3333,1946.6123,437.0155,-1095.2806,17.613346,-76.84855,2318.76538085938
362,1258.6006,-1936.8464,-637.81256,313.6099,-239.1744,52.212772,2867.44165039063
363,384.585,-1747.2751,-35.70109,452.15005,142.58328,96.21649,2127.80615234375
364,-2805.6555,935.5325,-22.647682,-1111.2491,503.02588,-172.74898,3985.36328125
365,-1052.7201,432.96082,335.40933,-720.6356,102.65836,-80.57205,1918.56005859375
366,-856.4471,-577.45404,-602.5359,1182.7198,439.3955,176.21725,2222.68090820313
367,-9.704364,-1263.622,-95.630974,-164.56479,-110.87529,796.11096,1868.54223632813
368,1102.829,-1834.9272,-83.643394,-265.42905,68.88939,-13.6779,2603.59741210938
369,1654.857,-2150.1404,-251.08498,744.3893,-726.8132,327.58002,3798.36303710938
370,1091.3044,-2032.4995,-798.4447,-179.40071,479.43738,132.0049,2874.8056640625
371,1186.1403,-99.58048,-316.54736,686.9949,-73.38836,339.80075,1938.43969726563
372,-64.70222,-397.38226,161.02083,-406.31628,-378.2979,-387.5111,1269.57543945313
373,471.94415,591.3696,-965.73737,696.5383,245.4253,108.411804,1980.99560546875
374,-204.27339,-265.3927,192.63289,363.11777,80.132065,8.747379,774.974426269531
375,-1564.2224,-836.155,-204.41983,-612.0265,-128.60883,-230.43672,1649.77893066406
376,-45.51288,303.80188,151.8553,4.422028,698.2625,-293.83038,1346.77783203125
377,-680.7715,650.5387,-8.957961,1636.5708,27.206615,-373.53842,3128.1357421875
378,-1096.8207,1174.0089,-564.0726,-312.18082,-152.0104,42.538635,2144.25463867188
379,1002.2695,845.2853,-505.58133,-559.8125,-577.27875,428.6204,2133.6865234375
380,126.42278,-1670.7236,398.78473,-85.52523,-82.773636,178.36528,1982.75854492188
381,-54.104263,-706.13074,-326.27283,-173.77383,287.23273,-593.3439,1309.97094726563
382,958.17505,-1413.2554,-212.64803,876.16003,231.28674,-188.68585,2605.42504882813
383,901.5098,-657.95264,-31.426603,1034.0052,6.099226,111.742165,2256.65356445313
384,430.22324,-905.07715,-951.34174,1275.533,-208.36526,-31.149057,2619.36206054688
385,-404.83182,-1127.9357,-22.636902,706.47314,-185.62285,70.63858,1600.30261230469
386,800.0162,-1461.9774,112.927124,1094.0083,-148.06009,24.445044,2773.56005859375
387,-684.903,-266.9601,-406.6102,1459.7604,-204.29385,-179.1358,2598.07446289063
388,-161.88405,194.71722,-468.5275,-920.60004,62.487095,179.82568,1726.78405761719
389,-1385.9353,763.2056,-533.9291,-1149.5663,-164.8605,-6.942385,2749.51440429688
390,-751.6238,752.0112,-186.74762,-729.5607,368.46875,72.71191,1936.64172363281
391,857.1855,-223.15034,-50.209286,81.70346,-161.2478,363.41208,1226.55358886719
392,-365.90414,-803.5222,488.38055,-927.2031,5.437235,58.046078,1970.90747070313
393,2298.479,-1606.0737,1851.2872,470.4725,-18.180788,-679.36816,3968.51049804688
394,580.2018,-3293.2246,-1777.8774,-339.4778,-83.36735,83.70096,3437.69213867188
395,427.90033,-747.8714,1339.7887,1012.83466,-248.78745,100.78701,2565.11474609375
396,1589.0515,-1072.1874,-410.49615,71.65355,-162.6159,79.75775,2423.41235351563
397,-659.8195,627.1852,-422.514,-441.6874,205.27022,99.46668,1465.82177734375
398,-1652.8545,-670.34094,-106.3618,576.2648,147.64789,145.45772,1721.23193359375
399,-522.3357,72.770065,-253.17482,1332.0894,-31.73194,-60.063396,2367.20263671875
400,1603.2134,-1116.7852,1046.2385,1101.9929,-420.51685,4.359807,3219.83959960938
401,1511.1741,-737.32965,560.6329,11.270837,-62.22773,233.3545,1999.34057617188
402,732.97125,-895.18414,629.2594,1047.8712,-558.07947,159.19974,2607.15942382813
403,1498.8373,-1047.185,201.16386,645.5388,-231.57156,114.25085,2512.46435546875
404,-182.56883,2627.8682,-117.55233,511.42126,-238.37743,203.77182,2966.43798828125
405,479.16202,1883.946,-341.533,2273.7158,452.84695,-4.7476296,4463.685546875
406,-1157.8716,963.2849,245.59734,926.67194,-166.16074,153.59003,2494.35620117188
407,1727.1354,-665.7213,244.89034,288.89523,196.46849,155.68274,2194.28955078125
408,669.27655,-730.9855,133.1272,641.85284,114.37658,-141.93906,1683.16711425781
409,1617.1575,210.3739,110.38353,-575.6987,270.35724,-215.70122,1866.23950195313
410,1624.3516,-1668.3267,1156.7112,-671.6016,235.25697,172.22766,3335.98559570313
411,38.973167,-397.43625,356.96518,-180.75125,-560.9778,216.04034,1269.830078125
412,-775.95233,-1142.018,-1098.5149,-832.331,-127.50478,-98.02586,1508.60729980469
413,-1112.747,19.973206,-604.188,-298.7807,42.388847,-2.4472833,1113.03649902344
414,-293.02908,-796.0986,380.52005,323.2856,547.5433,112.80446,1515.49182128906
415,-286.72604,1504.8964,-651.7766,-2152.9792,-292.81412,337.68527,4301.45068359375
416,643.6768,-599.50854,13.879061,756.0265,90.01894,-100.90036,1711.36804199219
417,-1016.1423,1932.8491,1024.7217,-326.75223,219.89224,-127.93298,2712.498046875
418,27.465162,239.98672,97.01129,871.5358,5.7289314,-163.3542,1547.28747558594
419,203.98299,-211.92683,678.8311,1236.3488,-130.90994,361.83835,2371.8818359375
420,159.03806,271.1984,-89.43475,117.83562,339.21008,-355.72903,932.020935058594
421,610.14105,514.4909,780.84344,-310.02844,-353.39636,187.1529,907.036071777344
422,-489.40668,-292.83276,356.5299,1172.538,-291.5607,-333.7227,2302.52734375
423,-203.44443,177.23778,357.20105,679.731,-120.44053,36.478863,1295.92712402344
424,425.36954,-383.59283,613.83527,-238.00786,-1932.2756,413.25366,3567.31665039063
425,-923.15625,616.8527,-285.79184,-1111.9742,484.82397,-333.37976,2558.1953125
426,-1832.675,507.3848,39.53309,1088.6257,-487.7691,-184.462,2995.18237304688
427,-1755.5153,1240.3937,-124.50749,739.8436,-472.51654,-6.7357244,3010.2099609375
428,350.9681,533.38257,366.84406,235.0485,-170.97171,122.934456,573.93994140625
429,-887.2055,26.342749,207.85724,211.39703,-214.80254,223.63525,1206.59228515625
430,-31.768103,-646.45135,-541.3511,-67.11423,524.35046,-254.1925,1164.6728515625
431,-894.66705,-323.66263,-367.37015,1382.8031,-35.46229,-196.77864,2481.80810546875
432,-141.32066,868.65643,366.68893,14.9502325,-144.40126,107.59125,928.979431152344
433,-2193.048,1173.0863,-160.8763,131.31862,48.077435,-55.221912,2947.51342773438
434,175.59048,-506.55743,148.59915,600.38983,-388.97113,-59.946133,1411.99230957031
435,1033.6399,-1382.8312,-759.42084,1040.0754,-26.025606,-98.31229,2828.04150390625
436,-926.8865,-315.1375,15.882022,-183.58813,68.31344,-488.314,1231.57507324219
437,-78.54175,-1057.1879,-834.15216,1668.6644,100.721565,55.786995,3030.2333984375
438,-672.9699,84.4579,-44.85952,512.29694,-122.16796,-181.7841,1193.20031738281
439,-849.6261,-788.5245,509.59372,207.70769,-226.4463,-214.71745,1479.77478027344
440,778.13116,-653.0413,-678.4091,-320.86044,188.06276,0.5308453,1581.19006347656
441,1132.8824,1320.7397,797.0736,-434.36166,-344.27423,-37.5763,1066.28442382813
442,-2423.9744,-1349.3898,189.02159,302.13144,2.328009,-92.671524,2339.70629882813
443,113.60973,-1329.3546,292.8642,874.2937,-84.46713,212.10414,2196.01318359375
444,1532.9673,-2217.098,-866.5608,-1014.25726,-289.03787,9.94403,3762.89990234375
445,-153.00714,855.7691,34.354145,36.021908,-64.249306,367.87476,1134.01953125
446,-339.10742,-281.6996,11.908226,-844.85364,-292.8365,228.73906,1631.53723144531
447,-950.38806,-30.290432,-570.1906,-216.809,814.5342,-120.64299,1678.21081542969
448,-2099.174,-1352.2294,-409.46472,-505.06036,-84.31682,67.96195,1717.95434570313
449,-345.13483,1576.6932,195.05916,215.16277,-1.9535556,352.06653,1859.52185058594
450,-1198.6774,882.6696,213.48907,115.33847,-83.13191,137.68541,1872.03759765625
451,-618.3675,-330.95557,-0.8774218,1502.121,118.959015,55.093998,2665.912109375
452,-435.4475,46.9509,-16.996893,392.1105,494.79868,-324.11743,1310.28039550781
453,35.645542,1194.5035,684.801,-802.40686,-96.842255,519.6484,1944.70678710938
454,54.947292,-74.84455,933.72437,-59.960445,-87.453964,197.9954,1026.88366699219
455,-1830.6891,-1301.0143,-556.96216,232.87433,576.9034,214.9522,1589.978515625
456,-46.48659,510.0645,-703.0137,152.03355,504.16428,-62.87634,1396.39379882813
457,-586.2609,776.5704,-309.2202,1549.0596,-146.64452,-233.95471,2997.328125
458,-152.49977,-1067.5742,-371.1261,-591.45306,132.75732,300.83173,1434.89440917969
459,602.64526,-780.0711,-162.50876,-23.106375,194.0207,-143.10858,1270.96350097656
460,1533.2211,-363.67535,-1190.088,-145.85144,469.85022,-82.476105,2568.130859375
461,-1521.9851,-820.6239,-657.3641,-309.61923,-256.9504,-220.05234,1124.2763671875
462,-418.25943,-85.81856,288.16553,363.3214,127.16011,-209.51465,975.148315429688
463,-1115.2115,332.34958,-592.7747,98.42803,155.54048,-298.79205,1407.68859863281
464,-1645.8182,-236.34673,1460.4272,132.89601,56.478966,186.56541,2724.73510742188
465,-839.171,-579.581,86.47288,-849.3095,-287.24704,-222.06943,1800.93664550781
466,-882.1187,99.871284,-405.0982,-394.25934,9.137254,-39.16944,1092.97668457031
467,-355.09888,459.75797,559.7787,86.1901,-538.0578,262.65515,1361.34729003906
468,-238.65034,-332.2892,-152.81282,913.90753,95.60165,-12.109829,1599.28540039063
469,324.70673,1055.954,-405.35165,38.694088,-135.31665,213.13,1340.61840820313
470,-1141.3632,100.43444,428.3878,1674.0205,234.58769,232.70728,3285.03466796875
471,-2484.7383,-1196.155,432.13147,1036.027,-272.3024,101.927216,3143.82177734375
472,292.6337,1106.348,20.649906,913.48834,-147.51062,-102.31271,1886.13037109375
473,2521.0415,3931.082,-103.38482,-107.2078,193.34492,232.03215,3589.50122070313
474,79.111755,154.49684,474.92242,-640.48645,-212.98572,-148.46872,1251.15832519531
475,164.21391,1161.9456,-739.88824,-175.82036,162.84595,-66.56403,1703.08764648438
476,1483.693,732.5129,-386.93622,420.65018,-120.7093,529.8633,2018.70324707031
477,840.26544,-133.1922,455.88287,-550.45154,-379.22217,262.18152,1505.93029785156
478,1460.8567,850.3358,168.60765,418.72397,242.5062,-127.321175,1415.89099121094
479,-321.8347,883.05426,785.7061,58.40269,698.131,-50.69939,1680.48937988281
480,1261.372,2525.7168,-329.919,1518.9846,-455.92325,-250.17201,3725.05224609375
481,640.6073,-469.07263,39.808857,-167.00287,-111.482346,224.76701,1094.609375
482,1609.9318,-1185.3674,111.910194,116.81732,-166.15698,362.22556,2527.396484375
483,-1737.2102,-914.766,-42.75932,714.1151,158.41264,170.25854,1961.15161132813
484,-1835.8162,-2346.8074,-71.48558,845.66235,102.06342,-154.47829,2554.17456054688
485,274.13712,-358.2409,-424.39923,-1226.8309,-239.16911,362.9803,2351.23974609375
486,-3348.44,-1198.6818,-1077.9697,229.94882,-432.0746,-89.90588,2374.5478515625
487,-558.51965,-546.67236,-451.87497,-3.8515313,-402.59036,263.75308,839.778869628906
488,765.97577,133.34035,-44.90649,178.35645,381.25342,-47.934845,1040.74658203125
489,416.27365,635.19885,1194.825,370.24515,-109.93487,83.20042,975.650634765625
490,-3182.9402,-2532.9905,-555.51105,938.43646,114.18155,-192.71269,2900.11010742188
491,-1166.8396,-2911.8928,-555.09454,-385.61176,755.2611,-225.16089,2606.99243164063
492,342.17688,93.89373,-511.99304,2380.4656,238.9348,-563.9127,4324.84521484375
493,32.86319,-1499.9314,396.5273,-327.2106,5.9400663,161.34123,1854.32800292969
494,-1480.8964,-2084.0676,-314.9881,1189.637,-1.1791686,301.02243,2635.138671875
495,-102.166,-515.5662,-388.19345,-458.70895,50.17141,58.711296,885.212951660156
496,-315.76804,247.91377,80.59849,1307.6039,-340.73914,312.3574,2453.95874023438
497,-949.59973,-751.97296,-488.35532,-380.2369,181.97789,-176.64886,887.328125
498,-562.75555,-1097.0996,11.743075,-150.52893,-18.935904,-144.3017,1026.68090820313
499,1952.2051,1922.3494,-175.67332,36.650116,87.70154,-407.31122,2233.83984375
500,-694.6096,-1177.6915,256.4444,55.86572,66.82314,-59.550472,1276.9912109375
501,325.19162,3226.629,1631.3373,598.8721,2.1224031,-116.911896,2729.76513671875
502,-2451.507,-1676.9009,163.59433,1222.2964,340.02005,61.886497,3202.10131835938
503,656.0657,533.5121,424.32184,851.4865,-358.79633,62.787792,1616.61462402344
504,263.35745,627.35974,-940.3598,1674.6228,211.68219,395.2347,3322.00732421875
505,-1046.6208,663.14624,713.9785,1316.0059,-555.80084,204.85857,3043.19848632813
506,-1039.4863,589.69104,254.17505,-376.81085,-479.36313,89.0927,1832.84301757813
507,389.70804,-939.35016,767.99225,-1217.2921,286.44675,-9.392645,2665.34741210938
508,58.677258,-1337.3197,309.94516,-709.6208,-91.36772,330.95273,2055.97436523438
509,-1907.0566,1822.4841,178.13213,1052.1947,39.289536,318.43704,3756.44360351563
510,-1168.776,1175.6691,-1053.5452,-239.4987,42.62434,334.55817,2398.51318359375
511,-236.02147,211.10683,1067.756,336.16983,-392.2344,349.4853,1576.0068359375
512,-744.1595,632.27057,793.8791,1324.5598,84.00281,148.3089,2737.45361328125
513,-197.29868,3124.0178,1403.6333,-1145.7509,-310.9988,-207.55116,3554.51171875
514,-972.77747,-168.97025,133.51836,1123.7725,5.542511,108.36256,2191.95385742188
515,301.9138,1736.835,-334.83194,-684.06024,-111.58087,129.82948,2206.77514648438
516,1526.9762,-547.16736,543.1634,408.10724,284.04428,-257.87814,2042.20263671875
517,-169.44553,-722.6838,-239.20901,726.92786,-252.78421,-284.87057,1514.18933105469
518,1273.2457,-466.74713,-387.68707,-183.55397,-123.81365,81.5593,1750.2236328125
519,1024.9365,-229.46234,-35.36151,1425.4319,-24.97757,2.1627986,2732.24560546875
520,-1126.0483,729.97955,-910.63086,-547.84674,85.92564,-68.65015,2007.01770019531
521,-554.77277,10.943797,-882.0512,335.9761,-115.21932,29.520628,996.681457519531
522,1345.3906,-39.603203,-2348.271,-581.57434,-409.30588,274.73535,3491.32690429688
523,1995.6964,-1752.3383,-1209.1807,92.57947,251.38733,-76.658295,3541.177734375
524,-3186.2017,-2330.5664,863.9139,752.40436,78.323555,-2.3237553,3922.61181640625
525,-3528.3894,-1982.5208,706.67145,-143.71313,207.35915,-250.03418,3762.59350585938
526,-350.03952,-95.98567,128.15158,625.19214,42.214603,62.174713,1166.73168945313
527,-929.5237,170.17712,949.9026,-1168.0319,199.32559,-203.68893,2647.89208984375
528,-64.76569,1528.3387,997.0987,2333.4014,343.4634,-39.843613,4320.51220703125
529,1069.4238,-153.80533,499.44598,1628.5343,-86.50651,51.712673,3018.40942382813
530,-1675.398,-73.03985,-412.31467,1159.5322,-138.1684,173.79488,2514.05053710938
531,-1388.7319,-1359.0704,-40.94381,1305.1649,-30.502506,41.998238,2626.00170898438
532,-2046.9242,-1855.1439,-653.7282,619.7614,-277.48898,-469.8377,1938.07702636719
533,-88.64511,1016.8967,217.45895,1048.4934,32.61667,65.03209,2071.57080078125
534,598.7915,2266.4731,855.4852,-678.75037,-168.86082,-432.49963,2108.9775390625
535,-3236.682,2754.2878,-1237.1415,-117.206,63.27352,220.43028,5301.8564453125
536,-1009.429,3412.585,389.83044,1411.9479,27.77805,397.2939,4667.0361328125
537,1898.6365,565.69885,2845.755,1076.2935,197.18616,-130.7808,2753.06860351563
538,2339.683,-662.5256,1272.761,664.50244,91.3785,274.2403,2919.55834960938
539,1241.66,3083.239,-146.0166,-2025.6611,-16.406176,-11.081401,4492.623046875
540,-1767.3612,-127.9577,-434.02594,1857.5719,-228.4545,41.588787,3576.7353515625
541,-953.49585,-559.2163,-1194.3428,2535.052,466.88162,-85.561806,4501.53173828125
542,842.02496,622.0848,1143.2072,-1064.0391,25.749626,54.520405,1900.72888183594
543,4048.7356,-1143.0492,-2328.08,777.65753,-203.63802,-230.08778,6050.5234375
544,-1532.152,-1791.6077,-339.4547,-641.4091,156.19489,-20.680098,1762.9482421875
545,2848.114,-1154.8086,-531.2141,56.222557,203.26501,-92.57703,3751.693359375
546,4741.5483,-892.7723,-128.87872,-1789.0573,375.0938,87.947945,6170.2958984375
547,2890.8838,-885.1747,-1782.3466,-1462.3547,-57.038322,128.77614,4992.62060546875
548,2153.9468,405.84988,442.28513,95.24232,-11.560308,91.306404,1745.30883789063
549,3552.8413,100.64225,-190.4984,-647.3241,73.56924,-3.3523455,3779.00415039063
550,-1171.7206,646.53357,-533.9706,-1246.5444,-184.32587,166.72325,2720.31591796875
551,-217.67029,1047.7216,-297.57864,153.38074,156.97498,402.28766,1529.28857421875
552,-3167.3494,-1308.8441,-546.3396,-526.8136,201.67068,-251.95122,2568.58374023438
553,2351.53,1818.3536,244.57486,-39.512066,-109.62547,337.30273,1995.54870605469
554,2441.3525,-24.748425,794.7888,-938.0224,-150.88991,187.73064,2746.984375
555,815.37225,587.611,2175.5786,975.6452,503.6757,138.1625,2426.07177734375
556,1569.548,1043.1624,157.5139,-204.46289,-231.89845,179.83482,1382.53942871094
557,2317.378,1428.1975,968.2509,477.73053,233.84215,-321.8132,1603.30444335938
558,-2111.3728,-4656.299,220.49553,49.252438,-117.82733,-305.59958,4263.5419921875
559,-2166.597,-3026.6172,-620.1106,-1049.2225,-57.045677,62.900036,2790.25073242188
560,2229.9329,-2037.9283,-140.20734,41.785248,-164.71964,415.9132,3784.48999023438
561,412.56192,-586.7829,-362.87378,131.4271,32.640503,-225.77916,1016.36956787109
562,1529.7477,917.5627,1612.563,1272.992,-200.32506,-38.658844,2327.81567382813
563,-1346.4067,2031.207,-8.182203,368.05658,35.362167,234.06976,3041.97778320313
564,1095.0563,-1315.9823,-176.911,510.2812,56.983986,61.403984,2272.98461914063
565,73.31585,-1261.2681,-252.12564,-462.77658,-15.987434,-40.191826,1449.41259765625
566,-524.92303,-663.7106,-1276.2577,-905.9497,126.12843,-91.13086,1736.1923828125
567,89.21857,2744.836,-1228.2505,1988.5785,619.1281,-148.02148,5036.44140625
568,1282.2941,3049.1775,536.5927,1295.7014,-98.951485,90.169014,3175.81591796875
569,908.45483,3724.5605,-71.32596,-2356.5522,-58.893646,170.23138,5329.81689453125
570,2793.4785,1413.5144,1263.4987,-914.5247,-201.31242,-567.61066,2393.95361328125
571,588.83075,372.7863,-114.701805,-631.09125,208.96638,-148.79732,1334.87463378906
572,114.442406,-904.5739,262.68097,863.5818,143.639,-43.591743,1875.19177246094
573,1788.4281,-942.0368,524.9358,247.85947,183.82,-107.140114,2433.52416992188
574,1511.7206,-959.334,1209.6617,662.00323,-130.60008,-185.6608,2630.640625
575,-187.65839,-1326.6229,-369.66797,489.03775,248.93248,284.4446,1506.37561035156
576,920.2935,587.3423,-42.848297,-1133.6962,5.6704273,217.44409,2171.53466796875
577,1445.7743,-308.53284,420.86887,-235.65483,-470.47632,-37.08787,1778.9873046875
578,-1314.7096,-308.48117,-110.50793,276.83118,-600.0798,-24.016264,1600.880859375
579,-926.46497,-974.6435,-1836.7286,1155.4222,-205.46268,-21.623102,2218.12866210938
