Element Label,S11,S22,S33,S12,S13,S23,Mises
1,6901.326,3032.2747,-4966.778,8118.132,3463.5012,267.42,18542.314453125
2,12247.859,9802.93,9222.275,594.912,-6575.343,-2421.1091,12493.4765625
3,13070.257,510.83887,-12004.033,-1203.9307,4554.422,-261.33203,23201.767578125
4,26837.88,986.52435,1668.6785,2053.2744,-1414.9495,7646.2134,29071.828125
5,-6002.044,-26305.455,1674.82,3471.7175,2534.424,-9119.336,30527.767578125
6,7713.224,7576.1543,8485.897,3139.0266,-2062.0334,-1217.6371,6891.01220703125
7,-24.519777,4024.8318,-11803.157,4047.4915,3743.1895,-1489.6251,17339.759765625
8,29756.27,22304.352,23212.89,5553.334,-5340.741,6680.902,19015.220703125
9,-8063.4087,-24004.006,-14140.413,10164.173,10336.503,-13878.476,37449.41796875
10,28193.973,34441.15,2589.6904,-14535.516,-1451.791,-2214.076,38851.4375
11,639.8648,-2544.1912,-10613.681,995.2176,-473.33868,-160.24504,10230.7939453125
12,22036.29,10851.545,17050.145,5946.7793,-1192.1549,6639.303,18351.802734375
13,-9491.011,-19882.857,-27639.438,7825.5063,8532.807,-10283.562,31115.22265625
14,25078.975,37077.516,19505.662,-17037.688,-1778.929,4352.8677,34337.77734375
15,-3744.9414,7010.859,-4998.9224,-6.986461,-5785.9116,4492.077,17079.638671875
16,11114.844,9834.22,8234.268,333.79657,6584.0425,13608.866,26310.37109375
17,9946.745,13373.73,-7727.198,1908.94,4167.349,274.1814,21164.568359375
18,-1239.9644,11734.182,18110.25,-10991.452,-7910.0576,1261.076,29096.75
19,40924.473,40422.35,40263.633,-107.85818,651.10693,883.3947,2001.22277832031
20,2187.3777,-52.864403,24181.541,9793.386,1247.3248,5082.4653,30131.828125
21,24333.766,10568.069,18715.934,-4529.3145,-7793.26,-2569.932,20181.265625
22,29808.455,24385.578,26521.838,1275.2457,-4772.7583,-964.9532,9919.4931640625
23,-91206.43,-96016.766,-118822.69,7114.951,-7104.938,-3826.7754,31625.84765625
24,29505.588,28082.162,33908.39,5406.4946,-2922.7295,13340.6,25979.03515625
25,-113831.03,-101909.65,-117162.07,-7298.3193,-3237.3098,8953.68,24993.35546875
26,-4136.6943,7376.2227,-7260.92,3354.4397,-7399.243,8213.067,24055.01171875
27,12616.877,14168.3125,22727.844,3433.1006,-21318.984,383.57166,38577.8359375
28,-7256.7266,12330.878,11990.734,3613.2231,-14786.976,5012.984,33876.9453125
29,-375.32263,-10713.336,4297.825,-5841.3267,14005.757,-1526.3247,29578.03125
30,-15645.828,-3829.756,-30976.973,-3458.404,9479.686,9577.652,33711.8203125
31,-8486.399,3000.2664,538.4409,6766.7607,-9916.121,-925.9359,23337.8125
32,17537.309,3389.7515,-3152.206,5869.934,-16260.919,-7378.887,37355.96484375
33,8967.83,12594.491,22220.275,6059.536,-13992.539,-106.945305,28953.05859375
34,23216.506,12804.67,5286.8696,5689.8647,-5002.4985,5517.169,22510.3046875
35,8012.3804,2631.1138,-11971.88,4033.017,-4385.6914,-1188.8446,20773.220703125
36,14265.669,2584.2231,-5226.588,5847.725,-19898.904,-1872.8862,39871.25
37,21247.375,8431.823,2286.782,3537.5505,-9978.133,11324.27,31649.66796875
38,2375.5452,10424.488,5950.088,3946.59,-17802.611,-42.160667,32346.908203125
39,7972.7095,9048.715,-2043.8877,2058.1714,3145.9287,-428.7525,12458.66015625
40,19853.49,3990.628,-10013.311,1679.9365,-11539.461,-2339.0935,33079.3203125
41,17913.623,8723.71,1271.7728,8118.604,-15154.772,6235.1235,34811.42578125
42,16924.92,26313.08,12722.481,6599.1006,-8766.731,-4260.093,23683.486328125
43,-33674.44,-33909.895,-35335.62,200.39839,-205.26042,677.8844,2012.28283691406
44,17197.588,15432.751,17031.23,-293.313,-327.7424,-438.31052,2001.35485839844
45,-4472.1533,-6504.2866,-13290.043,-3594.3577,-2230.5793,-4669.5527,13530.1318359375
46,-18887.4,-31295.49,-38914.312,4660.783,9569.916,13459.369,34495.28515625
47,3229.36,-6861.0347,6571.728,-4399.314,4830.244,1944.521,16914.859375
48,6032.8315,15299.7705,16281.99,1878.5955,11959.242,5322.6694,24911.7109375
49,-15351.107,993.9122,-27381.941,-3494.758,4205.3784,-5122.2026,27873.84765625
50,-33042.047,-17531.996,-37173.35,283.8451,1091.8213,15877.432,32890.765625
51,11056.132,28726.807,11670.746,-7166.9385,2991.4321,-16866.299,36553.0703125
52,8525.228,25163.252,9083.596,7710.7085,9417.823,12090.142,33923.609375
53,-5597.942,14012.118,-7848.938,3707.7449,-1124.3617,16226.68,35619.0078125
54,17220.902,14033.159,-4390.6626,-7324.5737,-3272.031,14898.253,35598.734375
55,-27261.871,-25096.92,-31854.67,-2234.1877,5018.697,15784.761,29559.0390625
56,-84931.48,-78157.25,-102758.04,-4616.7593,3483.4043,-12664.968,32649.466796875
57,-6315.289,5055.9526,6092.2246,-1829.2471,-3761.8997,-6433.4497,17855.662109375
58,8491.537,-4208.683,11037.997,901.583,9833.735,-3954.1501,23228.693359375
59,197.53119,-8186.4,-16031.805,-16026.624,2364.1353,-5661.3228,32879.98046875
60,12496.963,-21188.006,-14703.834,6780.4565,-2525.8943,-4099.8296,34143.703125
61,26723.182,26661.592,5581.9175,4483.4375,7654.505,-2651.8315,26510.9296875
62,26273.867,5217.198,1589.8457,11895.536,2698.1135,2505.7021,31592.837890625
63,20944.797,21737.469,6145.1855,-12609.718,-6201.3525,-11572.274,35007.51171875
64,11149.054,-19486.568,-16528.322,-11946.148,2380.2437,2028.5042,36251.03515625
65,13386.231,138.17567,-20671.855,4090.7896,-1692.9182,5200.688,32003.185546875
66,253.57373,7063.1895,15763.7,-538.9142,-129.6,-19550.564,36454.25
67,23392.602,31144.404,29094.756,12777.513,8947.286,-13540.891,36447.5859375
68,10131.554,16855.729,-11451.65,778.1496,-853.9694,12535.991,33639.796875
69,-5827.3345,8104.171,16237.713,2975.9346,8440.445,6027.175,26885.4296875
70,2737.3152,16070.997,-12916.416,-1182.225,8140.118,10402.778,34046.71875
71,8156.546,17636.932,15767.445,8021.0127,-3848.9778,6147.476,20651.330078125
72,43920.59,22226.76,24841.377,2223.2559,-3551.7034,7267.057,25136.431640625
73,-11377.622,1140.7172,-6961.6157,-4410.003,645.4087,-791.97,13505.7236328125
74,-1070.3988,-13781.807,5664.2285,1839.6825,-5843.911,2451.5183,20571.30859375
75,-4099.576,-3855.62,-2585.4075,-568.3834,-356.5907,472.7564,2000.99389648438
76,-26479.014,-30418.348,-40628.152,-1489.2654,-1892.7339,722.4878,13377.0439453125
77,-18208.182,-24966.242,-26639.441,-4359.734,-6174.312,4342.805,16963.095703125
78,4366.18,7143.195,5105.0063,7389.1143,-7899.16,4083.5022,20179.646484375
79,1698.4393,1013.1024,1427.9938,-261.47375,573.8031,-352.87173,1387.04443359375
80,1526.6384,1621.5538,844.4937,277.59167,1037.5603,36.922348,2000.98266601563
81,4383.943,9015.969,1728.739,-1861.4897,9181.621,797.2797,17493.24609375
82,4188.2534,11260.988,8522.1875,-2844.913,12562.29,737.23236,23184.009765625
83,-2362.06,17492.988,-6499.3726,8324.16,-5686.4116,-5076.187,29591.732421875
84,8231.034,7081.6025,-1348.3904,8494.592,4861.164,-931.92676,19288.548828125
85,4574.473,-3839.2048,5455.9907,4059.7554,2640.354,-3450.2607,13603.529296875
86,19470.303,22739.994,-15594.255,-221.79224,3387.0698,5733.6035,38575.265625
87,6096.4053,5549.472,-8267.428,-3295.9531,-6398.9033,-2587.7488,19346.314453125
88,9089.865,13463.367,-2205.9548,-1254.5721,-8192.761,-5596.4575,22274.923828125
89,13794.631,-7544.104,-8541.895,7693.734,-6034.873,3239.9126,28212.75390625
90,6739.214,5967.427,-3196.3826,-569.573,-696.8022,1968.8615,10281.1796875
91,27411.795,20795.562,13656.604,2152.0947,-16323.026,7240.6353,33353.72265625
92,13022.502,20540.188,9467.178,-1845.5402,-11789.82,-1863.5,23098.037109375
93,22599.451,11239.729,13304.421,-2434.165,-18579.848,1805.9545,34249.73046875
94,22071.445,-1367.8313,-42.18896,-159.83864,-4769.4004,-6462.405,26714.998046875
95,4387.0625,1338.004,3074.6057,8038.9883,5031.53,4099.9453,18090.634765625
96,24682.373,20145.89,17173.762,-9429.604,-2472.5928,-6685.766,21496.232421875
97,6414.9736,11667.642,10303.145,-3774.9915,2803.0747,848.72485,9527.3017578125
98,5249.469,4023.9844,-532.979,-9821.94,-10497.383,8712.123,29589.73046875
99,-55302.28,-45040.15,-28043.283,-3394.473,-2308.4478,-11724.857,32118.529296875
100,4405.132,6077.9404,-1234.4106,6480.1357,-9994.595,-17860.426,37771.33203125
101,21869.518,12879.7295,21649.8,1037.8494,-13377.355,3869.4922,25766.267578125
102,15909.829,17199.76,24825.025,4756.8545,-19932.895,-919.4515,36496.9140625
103,8924.408,-5789.474,-3776.9453,-2927.6968,-9137.454,536.98486,21633.19140625
104,34345.49,31517.223,35846.453,1142.78,-17721.842,607.61304,31011.5078125
105,28541.94,23417.59,31761.807,6553.7837,-14857.0,-1626.519,29190.931640625
106,-15818.283,5559.606,14815.889,-1991.0372,-4825.818,-7601.725,31554.55078125
107,74.344635,-4657.3496,-18972.168,347.041,-1214.1127,-9498.886,23885.2734375
108,19936.398,24553.854,1820.9038,-9271.872,-3693.9753,3631.7798,27776.755859375
109,15021.713,1289.5187,12721.26,2290.658,605.1533,-1770.8313,13730.3486328125
110,29786.404,11815.25,12462.103,4231.694,-3994.1904,-17111.467,35940.859375
111,36503.6,9405.937,12931.582,767.59375,-5718.6396,-1349.6837,27504.87109375
112,-1098.0996,-9718.197,-5722.581,7106.981,-4865.913,-4811.0103,18650.060546875
113,9394.733,-1345.7513,-487.09412,-7814.512,4274.1333,4641.7144,20236.451171875
114,5791.181,2553.384,-23772.102,-2485.959,-6515.7803,10134.182,35252.83203125
115,16911.494,15545.59,-8496.063,2115.0579,-1658.1377,2729.9658,25626.787109375
116,14423.65,14443.314,8616.886,-3060.7373,7324.1475,-6166.3115,18355.84375
117,9585.224,5871.407,-2667.655,5720.038,15705.207,-3467.9001,31505.818359375
118,13305.632,14982.299,15756.243,596.9015,-3976.729,344.18564,7319.5107421875
119,-68690.74,-69143.93,-70522.39,-89.372025,-36.80744,646.5536,2003.08666992188
120,-4547.2876,-2286.9155,-609.2051,371.5816,7395.21,-526.30396,13305.21875
121,20080.408,18526.508,11029.077,2468.8757,-15370.688,4087.696,29111.2421875
122,15660.734,14321.018,8088.0986,-1680.1621,-11691.494,-4054.921,22734.6328125
123,-7935.1587,-11355.584,-22677.527,720.6881,16131.068,3871.574,31713.89453125
124,-1996.1238,6891.9854,-2106.4333,-7085.3257,-8489.874,-4794.9023,22711.3125
125,51960.84,51918.785,52671.66,58.031532,-413.77194,-989.6005,1999.64477539063
126,-9717.634,-27872.182,-17565.201,1337.7617,1261.7231,2422.515,16626.8828125
127,-7629.676,2215.6892,-25932.36,6979.824,9095.814,-8928.838,35293.6796875
128,50453.168,70475.47,59821.84,-177.94041,2935.8074,10813.11,26034.671875
129,-72062.49,-55882.73,-43836.34,1992.3652,-8330.49,6287.577,30667.7109375
130,11156.391,23439.719,22028.906,-2300.4387,1640.3318,3625.986,14104.34375
131,6132.0674,21316.693,-1019.7055,10783.625,-2172.8079,925.12476,27493.78515625
132,10876.135,14143.136,14862.254,-2154.3105,-9061.736,5262.7515,18891.73828125
133,3121.9832,1381.8474,-717.546,3643.3186,-10670.6045,1046.3787,19894.224609375
134,-19053.658,-58.677685,-3995.2712,-1746.5762,5320.1143,-928.5044,19954.431640625
135,33.754807,-449.64056,-3345.7964,4827.7144,-5743.977,-4349.7104,15351.9248046875
136,1399.7126,4950.9126,632.43115,9524.422,-5562.792,-16725.969,34931.0234375
137,-170532.39,-170419.38,-170232.48,-452.537,-842.60626,-627.9532,1999.03051757813
138,4117.9727,3096.568,3713.095,39.362495,1005.0168,-241.5983,2000.8955078125
139,28469.945,16887.324,7514.683,11446.536,10352.268,3878.7954,33019.33203125
140,4586.3696,-2084.1824,-20953.404,-1414.9122,-2477.4492,-12173.836,31550.5625
141,3363.589,4430.2637,-2385.6157,3636.5603,9215.104,3554.9924,19304.55078125
142,11855.465,-12495.487,-640.7966,3302.615,-2417.7568,-3277.9631,22963.517578125
143,20510.281,-3377.534,13401.2705,-1537.5199,14376.697,6014.813,34453.46484375
144,18546.604,14402.296,-1977.3468,-11162.142,633.84406,1490.376,27110.873046875
145,-10405.304,-24869.727,-29690.312,2742.9224,8546.407,12809.337,32188.7578125
146,6444.343,-8326.397,-12342.937,-9092.324,10297.168,12092.809,36033.99609375
147,16633.77,21037.34,6384.7036,5410.8975,-1005.6294,-7387.6597,20595.31640625
148,10001.146,-8846.299,15109.129,-5518.071,9678.744,883.5914,29194.416015625
149,12014.664,16250.41,9741.568,-4641.3228,-8190.173,10453.437,25028.427734375
150,24391.059,33338.92,6705.422,11671.791,6614.696,2278.147,33265.88671875
151,2965.64,10137.508,-11577.749,6330.5337,9795.895,6066.125,29761.5234375
152,-36351.582,-26890.58,-25890.455,3542.3337,-8751.841,-7126.312,22798.125
153,25428.795,47767.11,31557.033,395.87585,-2033.3234,-1621.5149,20504.205078125
154,-35130.52,-33290.992,-40437.656,11311.749,2805.572,11871.84,29523.12109375
155,-16824.072,-15111.114,-2799.1501,6263.9736,-12139.298,-5129.39,28536.6484375
156,-14595.751,-12693.81,-17454.133,-4615.304,-13885.167,-11923.223,32954.67578125
157,13828.738,14361.305,14313.709,-4207.666,-9232.049,5676.5864,20142.9140625
158,-3213.4004,-21055.613,-20785.965,1650.6395,-11057.334,11395.148,32834.76953125
159,29781.447,10525.965,25493.174,2977.1082,-13237.869,-1866.1228,29484.75
160,3262.5083,8105.4204,-10135.459,-297.2302,-6955.9854,2883.749,20933.580078125
161,11970.441,25244.322,8192.457,4355.826,-554.1236,-3130.5466,18106.888671875
162,-1737.2534,21088.764,-3185.6619,4066.8862,1239.3668,10745.791,30932.65625
163,-3865.942,-9393.076,-10502.258,-5073.068,-2373.7761,-4774.231,14156.3564453125
164,-12145.601,-12955.4,-16332.953,647.3634,4.584845,2326.6477,5682.95263671875
165,31325.38,38786.68,13684.242,-5736.1694,-10358.805,-5072.518,31564.58984375
166,-4025.256,-8543.517,-25871.922,-5986.051,-1472.511,-8105.9224,26647.771484375
167,-21198.713,-719.88995,-1245.0066,-5514.4585,-3161.8743,-1090.9476,23101.833984375
168,14933.024,19215.643,2366.4026,423.67203,6046.495,-5248.9214,20565.775390625
169,-3537.0408,-15244.564,4927.386,6554.2393,12572.763,-10188.441,34961.69921875
170,-23281.982,-13206.602,-13272.698,5726.657,15551.543,9179.66,34315.96484375
171,-36136.145,-29645.373,-39395.1,7036.177,4646.7363,6060.3794,19934.60546875
172,12320.723,-16743.988,4038.6196,-3991.0808,8766.951,-7138.541,33224.60546875
173,12250.609,-7980.064,10888.682,8559.401,3579.26,-1401.9099,25449.984375
174,26.029179,1020.29144,3678.4841,5755.8193,4346.694,6516.8013,17151.478515625
175,9996.296,1730.7555,-5416.7886,13112.216,2273.6248,-8050.3066,30070.017578125
176,26973.023,21455.822,21717.33,9812.704,-1648.3333,-5904.9263,20753.025390625
177,-3733.1604,17196.979,16174.192,4211.8765,5684.5444,9313.959,28777.09375
178,-6227.0254,2754.2222,-9719.632,5654.992,-132.60802,5682.372,17806.927734375
179,-10379.36,3377.8613,-21231.035,759.40063,7544.953,-3363.2563,25743.9765625
180,-42827.887,-50092.3,-35654.137,-3414.0618,7674.0005,-18565.924,37444.1796875
181,5872.744,10273.1875,-1897.1652,3922.2905,-4260.234,-15118.436,30003.826171875
182,21993.26,16570.23,7393.085,5961.3516,-12288.443,-5750.3037,28674.48046875
183,9870.295,-3924.1697,-4199.5586,239.8928,-10369.046,-2671.6335,23201.267578125
184,5084.6943,6419.3125,6598.6675,604.786,532.834,-26.855259,2000.9853515625
185,-689.04626,-445.6309,-1056.3918,-145.01894,-1088.4265,-185.49129,2000.98486328125
186,-5744.277,-10716.973,5841.6313,3313.1655,9832.79,-110.920906,23229.15234375
187,-5120.928,-10275.566,-4930.062,3455.2236,9785.73,-14858.163,31827.392578125
188,14884.154,14965.107,12979.347,-6.4706564,258.7949,-67.22674,2000.91333007813
189,10949.878,24173.924,10989.667,-5626.5283,-15252.695,3303.9282,31622.875
190,-30027.205,-26464.824,-34166.01,8010.026,-1055.1714,-8308.167,21153.3203125
191,20606.402,11141.079,27604.252,-16295.993,1281.2363,-4597.489,32707.990234375
192,14881.158,4792.4453,-5423.229,-7817.7554,5064.2593,5494.7524,25691.908203125
193,20776.305,-3489.104,1267.9297,13665.658,-4077.2288,4705.71,34242.68359375
194,23543.012,812.72217,-1782.8066,12058.002,3136.4443,1263.7156,32448.251953125
195,12472.446,9658.065,5533.1094,-4936.835,1684.8739,-4829.6533,13716.970703125
196,13626.608,4808.1733,-5516.3467,-4074.469,6020.35,6704.1406,23849.126953125
197,9437.332,780.1085,-3471.8533,6960.055,-3242.5842,2367.88,17986.873046875
198,-18517.174,-446.81073,20667.441,3256.9053,-1104.4789,6260.034,36151.59375
199,27236.1,6715.9346,-13439.881,2958.7854,-4807.185,4286.7783,37304.8828125
200,24353.805,2666.7598,-645.1455,2622.3206,14693.318,-476.2451,34958.734375
201,-5766.629,-15890.279,-33478.25,3358.972,13740.192,2260.4944,34719.38671875
202,16495.957,-1874.6488,-9242.076,3755.5437,5409.6167,5930.876,27617.607421875
203,9172.944,9039.226,-6946.743,3223.901,3677.4373,-6946.763,21776.833984375
204,28617.668,2274.2576,7883.1367,-2863.7937,7399.178,3890.2173,28494.326171875
205,24881.793,-781.5121,1255.4354,6263.3623,-650.48895,11745.059,33812.3828125
206,4557.2085,-20375.404,-17338.516,6832.237,-10853.438,4048.8528,33132.3046875
207,19128.277,21208.295,11633.653,14100.616,14808.639,-2385.2085,36708.60546875
208,-4558.0786,-3990.2864,629.444,-7684.631,9432.674,-1400.9408,21777.556640625
209,2459.4033,-7786.975,-18739.736,-547.3027,3070.2605,3273.811,19962.69140625
210,-22751.287,-6579.1987,-15941.819,-7127.402,2344.7815,-6774.757,22458.12890625
211,-39942.59,-36822.465,-45878.348,-4625.4385,-3713.5066,-8306.793,19392.048828125
212,-96939.42,-105247.22,-122598.58,5635.752,6331.38,3330.4358,27623.546875
213,6364.916,5964.994,7442.649,177.89012,44.880936,-846.6624,2000.98571777344
214,-532.8616,-1179.6976,-2286.773,597.1959,359.84286,-248.62445,2000.98498535156
215,10074.959,9487.79,-3570.0552,3455.2695,-4836.9214,9391.555,23433.462890625
216,-11024.473,1191.7223,-9878.808,5599.5483,-1843.5417,12975.274,27310.919921875
217,10342.956,9046.443,21814.639,9983.087,7128.194,8059.357,28185.685546875
218,22850.084,11915.302,12295.032,-2841.1602,9897.459,3230.8628,21563.220703125
219,12043.54,20500.225,-3983.4646,2101.3435,2969.6804,5245.7764,24211.033203125
220,4465.113,19174.541,8217.567,504.61996,-1414.7224,12169.702,25026.484375
221,1051.1509,8550.272,6729.231,6510.8135,9550.2295,1562.7261,21307.6484375
222,1208.0864,4228.359,-8095.0596,5555.34,14076.719,6827.4287,30832.732421875
223,3730.8845,-15946.657,-8324.515,3550.554,-4452.221,-4548.3955,21322.93359375
224,12584.632,21890.121,15105.102,11173.505,8644.195,913.13135,25897.876953125
225,16291.1045,12120.29,14163.605,1662.8328,18735.771,-1214.1307,32845.90234375
226,9769.867,2550.5754,18764.61,7258.259,1979.9019,2824.18,19791.265625
227,12038.057,15866.097,26440.033,-2469.1165,2128.7014,-499.8951,14127.0263671875
228,-4977.0693,-955.29114,-2473.5251,1830.7949,4532.7334,8887.608,17917.447265625
229,3942.564,-5253.3477,-5256.1924,-591.2492,453.04944,4289.5845,11893.572265625
230,8993.978,-5139.627,-4541.314,-5413.0586,-6328.058,-733.0676,20032.703125
231,34100.84,27438.33,37978.33,-1667.8201,5443.723,-1025.3196,13625.66796875
232,51564.33,53930.992,68307.15,474.26465,8463.342,6937.752,24622.24609375
233,15876.905,23174.861,27379.105,-4743.6094,11853.392,9762.618,29606.73046875
234,12597.482,6897.7993,16623.305,3018.891,5905.519,-14069.263,28238.955078125
235,-24187.182,-6998.728,-1360.4036,6782.358,6185.083,8827.6455,30177.75
236,-32478.348,-33084.223,-23028.965,454.1136,12602.876,-5132.154,25524.814453125
237,36425.57,36335.52,17700.547,-775.8299,10905.538,4958.452,27951.8359375
238,504.604,-2242.1812,-1203.3408,6205.748,10597.173,-2919.4116,21994.853515625
239,-1744.6771,-22465.773,-1518.9736,7564.1455,-1947.8663,9542.278,29837.69921875
240,7717.6016,3524.1084,-4318.829,4291.0913,-12614.837,2613.107,25789.8046875
241,-10800.733,-5215.985,-14776.353,5764.741,4211.83,1222.7927,15053.197265625
242,19620.602,5436.126,11129.738,12245.074,5177.7095,4020.4954,27048.111328125
243,-3111.4287,-1042.2256,-7064.124,-3096.9478,5535.884,15405.293,29338.79296875
244,23000.006,30287.719,12930.032,3923.2888,-400.47922,18062.596,35402.4296875
245,12827.247,7162.899,277.6223,3427.16,19930.71,-5816.064,38038.25
246,3138.1064,-11604.661,-8827.359,7902.8687,14325.751,8896.713,34994.5625
247,33138.41,12764.528,6941.481,10298.983,-673.45306,-8316.888,33086.5625
248,-2108.7615,15879.488,11616.709,-4076.396,10437.999,-2739.289,25773.748046875
249,2385.049,-4691.053,-7662.8687,13786.556,-1875.3792,-1643.2404,25860.994140625
250,27238.664,11672.951,10716.948,1362.7963,612.1623,7498.348,20819.6484375
251,27693.83,-3935.3057,4203.9536,2686.5715,9536.773,-1837.983,33374.38671875
252,-35628.285,-37406.125,-33702.754,850.3323,1326.7582,-1666.8372,5106.54150390625
253,-26345.357,-38699.88,-40579.793,7405.5083,-4943.835,3211.1416,21170.1953125
254,-1389970.6,-1391061.9,-1390018.9,630.82526,-37.411575,-745.0868,2000.99609375
255,120040.27,121380.64,119987.81,597.34863,-205.34448,558.9677,2000.99047851563
256,6397.1123,6719.5107,8189.977,-217.6999,-403.12238,-459.5147,2000.86279296875
257,7780.3105,7685.6934,8433.279,28.390284,1046.3136,193.47859,1973.86401367188
258,9695.327,19976.95,11215.783,-4647.842,-1092.758,9112.782,20246.20703125
259,26190.568,26882.37,12213.317,6557.5264,6618.651,-1982.8527,21857.03125
260,-10890.808,-20117.902,-36291.152,-7119.7173,-3372.6917,-12707.866,34155.69140625
261,20033.441,20609.223,13777.674,1241.6552,6276.4873,-1840.2526,13267.8447265625
262,20718.17,2629.0564,10429.271,420.85052,7232.375,9401.465,25876.16796875
263,-4463.497,1837.998,-2692.7217,1577.0009,3704.0176,-415.49347,8990.2109375
264,-19201.602,-6673.572,-31330.607,5464.571,-3076.7444,-735.66754,23992.16796875
265,-11608.624,-12529.692,-30325.078,-2120.3735,5248.5693,-3061.1406,21404.603515625
266,-8716.842,164.85114,7583.1187,1676.6636,2781.433,2316.0234,15733.2939453125
267,5200.3027,27028.758,12082.117,-8828.565,4058.2605,1916.6558,25843.400390625
268,2302.794,-928.12274,-3290.65,10842.683,-291.87265,-1756.7626,19643.294921875
269,-14787.257,17739.164,19986.451,-449.19235,-4697.26,-8640.49,37774.15625
270,-16296.506,-7509.9067,-15009.748,8258.898,-818.58514,9175.821,22951.673828125
271,-19051.516,-18998.924,-2843.249,18428.613,-3189.182,772.80164,36235.39453125
272,6065.22,-8051.2446,-7002.6655,-3525.5488,-11648.519,-723.0379,25129.517578125
273,4513.808,28745.283,13987.245,-1171.4963,2810.8062,-17672.725,37578.578125
274,-64855.1,-59931.76,-55286.426,15524.084,-567.9546,-670.07434,28177.921875
275,1104.6606,-9886.867,-6769.89,-590.7662,-7538.8516,625.10016,16400.9453125
276,-4643.7666,8024.5186,5770.5034,-1490.2059,1669.888,-6667.4917,16893.951171875
277,-15572.574,-1473.564,-1174.2036,10830.096,233.48239,2103.8298,23841.291015625
278,3122.1677,1559.7314,2814.6682,-725.22076,-335.22604,105.9127,2000.98278808594
279,-14151.725,-24083.266,-38734.55,-417.87418,-12233.701,4021.2136,30932.671875
280,-36383.152,-48395.445,-58452.734,-7237.871,-942.21857,7175.903,26087.5390625
281,31162.004,1302.4204,1786.0361,8077.191,-7300.6797,-5679.913,36466.35546875
282,3990.1353,15240.79,8889.994,2520.4868,-10381.564,-3020.6072,21568.974609375
283,-5009.6416,13201.932,-3136.3115,4364.8633,-5610.6675,-2670.5352,21772.56640625
284,-85891.44,-103912.49,-127260.14,5424.726,-543.2667,-1725.3721,37265.52734375
285,-36287.203,-40640.773,-55011.11,13044.501,-13616.915,6753.722,38621.22265625
286,10090.84,-395.31076,20237.76,1054.829,-2973.9019,-1805.5741,18946.556640625
287,-7632.1807,-13007.151,-26350.107,14846.196,11674.7295,447.12323,36733.7578125
288,21334.78,14424.111,12991.531,932.5304,7624.036,-2624.4797,16042.443359375
289,26954.068,17591.414,3431.1396,-356.0682,4026.9758,-1985.0028,21945.412109375
290,22931.707,18348.184,5032.814,1991.7112,4572.2993,4798.429,20075.666015625
291,13778.4375,-9991.386,3953.0708,-586.3949,1330.7542,-3506.1472,21707.5703125
292,13582.045,9525.578,8513.9,2628.653,14968.571,-6291.023,28865.498046875
293,4669.827,5515.606,-1252.8262,646.80725,4798.254,-16303.474,30141.947265625
294,36899.47,31460.805,23271.879,-960.7087,9702.001,-2211.8994,21000.171875
295,1386.029,-2569.3076,-8272.125,4046.9165,-5914.2056,-5310.776,17589.83984375
296,5595.546,6571.12,6633.1836,-107.12128,-495.24036,859.76434,2000.9853515625
297,-3210.7246,-12570.56,-9882.633,-2140.12,2098.4714,4714.632,12779.1728515625
298,18228.654,17257.992,31206.646,-5054.1567,-3864.287,-6058.7812,20335.3359375
299,-7419.713,5617.479,5015.1587,-667.64905,-6706.9155,8987.927,23261.82421875
300,-18553.674,5706.2734,-551.8295,2474.7507,9073.784,63.404224,27226.337890625
301,-7538.906,-8745.541,-9412.192,6211.4434,-15276.706,3578.5447,29274.59765625
302,-24381.201,12680.109,-18259.832,1065.7472,-6487.905,382.444,36252.875
303,-27642.512,3583.605,-24268.895,4943.065,-2910.4683,-9365.065,35255.2734375
304,21774.475,11504.735,-13974.429,3615.7583,11573.171,-3257.4226,38590.0
305,7049.653,-8085.514,25787.736,-1627.9049,-1258.5852,-532.7277,29620.041015625
306,9024.943,9033.886,7160.1934,42.038925,34.14237,-408.69464,2000.98486328125
307,3440.401,5559.082,-2793.8013,5659.147,7270.278,4467.1543,19263.37109375
308,-65192.49,-64335.824,-74388.32,5724.4478,-4770.246,-4431.4385,17851.09375
309,-76232.68,-104198.07,-87434.73,4831.4204,-972.7902,1015.02106,25888.935546875
310,3129.9563,9750.322,5269.4023,-3126.6042,1079.4915,552.7466,8245.12109375
311,14071.198,14603.106,13702.823,-489.55533,-449.40054,-829.5581,2000.98571777344
312,-2423.3284,1163.6064,-1270.5422,-9626.77,-10272.515,7991.8813,28218.2265625
313,-49526.426,-67683.04,-48665.867,4469.0474,7042.6904,4595.7427,24861.740234375
314,8296.396,4325.8,-560.5631,949.814,-2167.9763,7553.26,15716.4228515625
315,10966.676,-20533.797,-25868.406,7358.1587,44.20935,5045.992,37783.59765625
316,33196.805,15722.468,7324.2817,9329.607,9923.28,376.86853,32857.265625
317,-6325.8354,-10710.319,-31564.158,-3082.0515,10390.147,-2532.887,30284.46484375
318,12167.442,-4093.166,-14441.567,-1545.0245,10882.783,-10624.087,35225.671875
319,-13797.41,-18522.523,-25909.258,-2544.4502,3384.426,-8586.074,19665.7421875
320,7796.493,-2703.848,-6356.8765,2636.362,-3869.623,5172.5874,17549.927734375
321,3160.3523,-18210.094,-4834.9756,-9091.242,9399.148,-7554.347,32155.033203125
322,-41724.184,-51851.33,-64930.504,10935.997,5870.4546,8074.3286,32616.52734375
323,365.9217,460.14114,1418.1414,286.26508,-931.0276,-216.60933,2000.98559570313
324,1300.7811,1064.1199,1411.5416,656.091,75.52104,212.85295,1240.51794433594
325,2733.502,-2169.7244,-914.6607,-6678.49,4303.015,5371.984,17186.974609375
326,-3268.604,-6583.888,-12210.554,1045.4282,1824.4846,16820.93,30387.505859375
327,58693.785,80520.086,47423.926,-1079.1898,-327.78094,578.15814,29226.625
328,-2777.1343,-22378.873,-8125.8716,-2847.691,7090.1753,6195.1997,24459.638671875
329,-14579.2295,-13611.256,-35630.97,985.8229,-1710.0168,6466.7715,24528.26171875
330,16411.906,12307.265,16160.405,-4660.1313,2346.2593,750.5644,9961.642578125
331,-3929.3328,-5878.2207,-3177.17,-2564.7065,-1704.1437,2615.828,7402.900390625
332,10151.334,2224.633,-14903.109,7776.1797,3961.2236,-820.5708,26878.60546875
333,10183.6045,2947.5522,-830.4975,-9879.513,7812.553,11334.628,30908.185546875
334,2497.0269,-13971.704,-524.91003,-6511.2476,953.34436,-3698.7424,20038.5
335,-3016.0874,-9441.129,-24833.152,2815.3381,3018.0083,-2492.659,21138.435546875
336,26245.938,28783.516,29812.299,2935.1648,4026.4817,7866.1772,16438.423828125
337,-20295.662,-5095.873,-23489.96,4811.9644,-1665.7407,-12795.395,29304.35546875
338,12423.851,5046.581,-886.8461,7332.398,-4739.597,-5315.6978,21138.958984375
339,2465.3684,210.33565,7843.9844,13489.705,-4760.944,4661.9995,26930.69921875
340,7090.7637,12434.619,17948.137,-6818.2476,-5110.0586,8781.12,23185.05859375
341,16533.479,12639.895,18198.717,-5118.434,-823.58514,4428.0283,12801.134765625
342,9600.355,8933.793,9956.591,-466.85504,97.42656,408.8913,1411.58605957031
343,9859.769,11575.635,26095.64,1875.8282,-7301.363,-5954.281,22705.40625
344,-7716.9287,-24317.979,-33471.96,1450.4465,-9429.11,-6419.608,30133.466796875
345,-8626.186,-23466.771,-28888.857,8995.45,-4376.95,-2557.2065,25494.201171875
346,-6266.575,-3170.0015,14346.568,-1140.9849,1802.7191,5114.815,21512.76953125
347,-343.20975,877.38464,-13283.899,2950.5205,3144.5305,7036.13,19724.32421875
348,4153.2334,-14520.836,-9223.522,-61.96008,15431.468,-4317.4224,32375.646484375
349,4389.9263,-12662.468,3835.554,-12158.162,-9208.044,-1291.5215,31376.251953125
350,1928.111,2296.6091,663.8718,173.24364,240.4197,-324.8086,1667.3056640625
351,-2995.236,-18235.037,-11092.1455,3659.2415,2352.9045,6750.6724,19180.96875
352,-65830.305,-80979.51,-103663.64,-2629.3806,-1931.9856,-638.55194,33479.49609375
353,-8989.735,-9419.663,-1357.4951,-478.74875,4916.431,3996.4978,13521.638671875
354,-706.71497,3365.5046,7282.491,2055.5984,-462.25232,1007.50964,8014.9423828125
355,-1175.7335,-5369.8477,-12592.025,-6535.191,4208.934,-3468.6667,17815.935546875
356,-24202.17,-34784.652,-41474.902,637.06396,2525.5017,-6430.0835,19285.689453125
357,25225.793,4407.9985,18175.295,1325.9258,5225.3467,3710.496,21559.326171875
358,-9853.12,-8849.563,-7482.988,-12836.345,4806.743,-8750.902,28242.0
359,6175.441,-19042.717,-548.1633,-299.6603,-1031.5582,7626.2075,26259.17578125
360,2367.778,1258.2698,-4789.0913,-57.59132,827.9809,518.4018,6883.6044921875
361,5354.145,5171.6714,-1286.5161,-502.40616,-2213.0806,-1371.664,8000.9208984375
362,-12650.193,-16253.754,-14348.525,79.8405,-7883.1133,4518.686,16045.40625
363,196.95203,-2264.345,-1149.4961,-178.5452,533.02423,-67.65909,2349.17211914063
364,-25940.389,-34186.934,-30692.695,-4923.6084,-7742.9844,-11265.201,26166.796875
365,-7382.4805,10201.703,6164.59,-3554.7917,-3330.7822,3226.077,18892.515625
366,3089.1714,-4543.371,737.494,-2275.4734,-2567.123,3193.755,10570.748046875
367,3726.588,-287.69824,28998.428,-6710.342,526.9077,-2504.9,30182.30078125
368,24317.057,-2777.21,16072.17,2729.4612,-3561.1216,-2866.381,25762.984375
369,-23.569336,1384.3477,21046.918,10522.555,-4187.1055,-1662.8369,28448.994140625
370,-18255.096,7697.0757,11372.803,1902.0526,-228.1719,1705.1543,28322.279296875
371,-7821.4897,285.84033,-4655.3306,6424.065,4365.576,4515.104,17094.541015625
372,1433.6248,3021.3699,6141.835,-2404.0771,-1269.0391,-176.66862,6283.0341796875
373,-754.3769,3822.4634,-57.317078,2393.6033,18.733051,-91.41577,5954.591796875
374,1197.9016,-780.1881,-71.36065,1099.924,217.88864,69.11641,2607.56713867188
375,1512.7318,-1455.5443,1640.4956,-1519.4208,61.09552,803.209,4251.91455078125
376,13725.139,5315.9917,13284.443,9426.092,494.46518,12020.525,27712.2421875
377,8057.985,2213.2832,11959.112,3907.3467,1571.6792,3427.2576,12674.0341796875
378,-6834.1484,-1404.0308,-3482.1938,-5265.687,-217.32706,-1735.4707,10718.205078125
379,3944.269,4422.3286,2190.9937,415.3362,623.20215,133.92247,2424.28271484375
380,-8845.718,-6153.5376,-3624.8882,4630.188,4305.813,-3949.4097,13681.3369140625
381,-11629.888,-11052.591,-16830.459,767.5513,-5936.089,1319.9983,11961.9208984375
382,-18434.164,-11170.851,-13905.292,5735.529,2169.5247,-224.3993,12382.7392578125
383,-7234.24,-3909.7434,12066.634,7631.1104,-8531.392,1073.3531,26756.71875
384,-73.58832,1710.0182,-3531.005,3985.7444,-370.91016,-5219.908,12292.8916015625
385,388.78345,262.73975,8479.135,-1245.1769,3600.5598,-2571.8413,11396.3154296875
386,109.26808,-471.42148,1366.8563,152.18713,582.3611,492.51547,2112.72973632813
387,-5866.8613,15385.354,3497.6,-1455.3755,-4435.328,5292.1323,22129.73046875
388,-4098.4473,-9228.812,-5182.277,648.4258,-151.53395,160.36517,4831.3857421875
389,-18684.107,-2880.895,-7937.0186,-4510.338,-2958.7476,-10789.308,25138.06640625
390,-13236.127,-18582.533,-7286.8745,-1915.851,2028.968,9338.279,19512.990234375
391,15615.879,40390.82,21537.826,-12749.257,2309.4648,-9111.743,35423.92578125
392,-2079.2964,610.54443,-574.9112,-2202.4932,-264.35034,416.16327,4553.4609375
393,-19747.912,-16788.39,-16877.914,-3622.7966,2742.775,6302.0215,13769.1923828125
394,-4486.7637,4404.6973,655.56604,-6093.9824,1772.0604,170.57335,13442.341796875
395,-2163.621,-3037.4285,-15489.88,3522.1658,-320.25485,3137.6174,15289.4306640625
396,-11559.658,-7086.495,-14051.062,-995.9942,4705.819,-3814.2642,12264.451171875
397,-5526.2524,-11540.254,-4864.429,4557.7905,8039.298,-2996.7778,17992.76953125
398,-35171.36,-32610.295,-34264.402,4634.4863,9342.832,3380.2178,19121.646484375
399,14825.962,2008.0469,26887.129,-2747.0034,2728.9233,-4228.5034,23727.40234375
400,5357.8096,-3807.3765,-5794.5703,-596.35114,2660.7927,-649.72217,11390.142578125
401,8803.923,338.2129,18839.115,4270.5493,4460.7964,-377.0881,19291.548828125
402,6881.665,33417.19,25077.574,3269.3474,6922.019,7399.422,29873.91015625
403,6191.356,-3693.9253,13603.318,-5389.279,1462.6194,-5025.6006,19880.796875
404,-11307.34,-11206.817,-16493.107,1171.4462,-2710.742,-7619.873,15092.123046875
405,6496.7173,5155.763,2775.9482,837.1794,-1015.282,-5916.1807,10993.2470703125
406,5050.5845,7289.0967,11169.867,-462.88007,-1903.312,2094.376,7309.4638671875
407,-2710.5063,4240.0903,1746.6864,-889.7028,648.17413,1372.8774,6818.11474609375
408,34603.94,1595.3535,8041.684,3594.3594,1323.3815,-8739.666,34518.04296875
409,-9449.373,6747.0996,-16276.007,3885.3562,-4555.004,9737.766,28486.84765625
410,-62580.08,-59440.805,-75006.92,2658.699,-6459.8813,9542.044,24956.779296875
411,-2166.474,1528.4971,-3243.3496,354.94238,1791.0967,3509.2234,8107.865234375
412,-2760.087,-2754.6113,-1083.3606,1408.034,7405.8945,-1452.9479,13402.4228515625
413,5115.0757,-7035.5503,-1950.561,-5218.262,-10917.219,7622.9746,26931.134765625
414,-2270.8716,3193.2046,795.95154,755.02295,-377.3333,-290.8934,4989.5244140625
415,-36976.066,-37689.555,-32707.244,-3343.3743,9134.528,-2957.363,18217.271484375
416,-12350.203,-5292.921,-30062.111,2710.9473,-261.07556,-7267.2153,25868.982421875
417,-13175.136,-5101.2856,12046.831,-9348.704,-1328.4242,-266.20154,27665.82421875
418,-11575.028,-9012.162,-10425.272,194.40294,5873.225,1166.0084,10612.255859375
419,-16370.293,-10196.674,-19025.545,-6484.743,14017.858,-7033.769,30424.248046875
420,-26042.893,-21590.748,-22103.299,659.50085,8383.36,-9683.804,22611.447265625
421,-49554.434,-47014.543,-54773.637,-2578.6758,-3233.9565,18146.64,32957.140625
422,-297.03418,-9408.059,-8294.673,8618.979,-662.9367,-8616.611,22825.9296875
423,-58455.742,-58831.94,-36175.242,-491.77756,-254.13033,-3445.5037,23269.677734375
424,-18315.467,11299.714,-4592.3984,-11482.177,4229.9053,-3370.6138,33797.203125
425,-1572.835,-13226.528,-14755.848,-2936.584,-4178.5664,-8522.308,21262.892578125
426,-15502.694,-16125.138,-24794.586,-6167.3257,-1922.0406,6992.331,18783.27734375
427,-3658.8472,6254.305,14783.744,3552.4026,-6843.4375,3705.98,21797.591796875
428,-988.38696,-6116.3647,-2706.7505,1862.383,2699.4937,-2066.8164,8094.41796875
429,-6873.287,-6397.6875,6675.668,11334.549,-2285.6663,635.87946,24076.095703125
430,-23542.562,-28574.996,-42549.15,1347.3363,16042.275,6159.3433,34383.84375
431,2117.9966,853.57007,9401.165,1614.5415,-4344.827,2966.0803,12437.7666015625
432,-4397.2056,-574.906,1631.5201,-2644.613,612.4849,3759.0884,9613.08984375
433,-6441.9844,-3441.6462,-9573.428,281.75458,3811.8328,-8566.35,17093.236328125
434,5926.082,-5939.2314,-293.76428,4510.633,2219.1736,-4279.8203,15376.408203125
435,3920.1055,7076.7773,8291.794,2920.2488,-494.90347,-3866.0627,9296.984375
436,5715.901,-2999.9915,11795.379,4115.3784,2125.548,4508.771,17066.484375
437,-6562.6484,-1084.1381,-9951.805,-968.56726,1545.2877,-2246.437,9229.6005859375
438,6846.8027,7644.3994,-6661.571,-1704.2832,153.22491,-250.37425,14242.8505859375
439,-14049.855,-8709.926,-9769.009,-2321.598,2616.6318,5969.426,12945.76953125
440,-5317.08,2988.014,2797.8406,-3206.1233,1457.9451,1765.3981,10676.8779296875
441,-1908.7649,-2780.3823,-5027.7476,-956.52435,2388.1343,387.49313,5298.49365234375
442,-115.27519,4065.2085,1733.2543,3016.0112,-118.51257,-104.28298,6366.27734375
443,-681.3973,3548.8765,-1608.9211,4779.103,-8906.619,-425.33383,18158.33203125
444,-3291.8198,-1227.0513,-5717.405,-192.48268,-4238.116,1658.5356,8797.912109375
445,-4546.8413,-2216.8428,-9280.681,2653.766,-289.17484,-3733.3875,10102.5146484375
446,-8302.748,-5890.3853,-30283.463,-3205.3733,-7230.738,-2900.479,27475.607421875
447,-1916.4517,1290.1658,-5415.577,-1295.1477,-626.91235,2343.288,7512.05078125
448,23392.973,14870.551,12685.134,-2995.9617,-3095.6216,8215.691,18820.2421875
449,-5476.0737,-1000.63135,-2543.9287,460.38068,716.54443,-904.35925,4487.111328125
450,-1579.52,-3781.304,-7964.3306,362.76596,1143.6754,-998.5305,6234.232421875
451,1573.2195,-1580.2604,4172.886,-2515.331,-41.500698,-620.7562,6711.375
452,26373.064,6244.051,5327.3125,-4815.2124,-6541.9214,-715.09454,24979.06640625
453,-6691.0537,-14303.813,-12562.885,2725.3237,366.3862,5997.958,13354.5146484375
454,9465.594,8987.512,20160.555,-5277.3853,5151.371,4554.116,18577.029296875
455,11409.614,-6341.016,-12881.719,-3145.613,-3079.527,-4516.399,24357.66796875
456,2055.9648,-4104.662,1088.6776,1808.0352,-5074.4453,3730.5696,12717.63671875
457,9692.87,4486.747,-2769.4375,-2577.6714,-2996.2983,6237.7847,16766.90234375
458,1370.3876,2341.8044,16134.38,-2260.1821,-422.24854,-4517.4194,16782.68359375
459,-3568.4846,4063.4255,624.11865,1446.6627,825.9203,1208.4629,7518.80859375
460,-2941.8713,-5513.62,-1729.5819,-2057.2175,-6772.4404,4128.475,14581.7841796875
461,-806.07477,895.63885,-1249.7698,1052.7229,-322.47302,923.0946,3168.70483398438
462,693.2334,3891.4753,6374.286,-1663.4003,-1421.5835,674.18134,6329.3515625
463,-1552.5173,4406.9004,2115.3423,-2424.6606,-805.478,-11068.024,20351.814453125
464,10279.461,1578.8004,9323.215,-2704.633,106.14191,-6841.0903,15188.0341796875
465,1425.8406,4176.9863,3009.1965,-724.20105,-1433.7706,-1410.8074,4408.10693359375
466,-2100.0393,1258.9104,-4119.426,1371.1527,-3066.7776,-91.50143,7484.9287109375
467,718.0429,3249.7014,10503.35,-1823.6078,-156.577,4071.9097,11712.38671875
468,-494.85153,-3869.9634,-7408.9155,4406.237,1627.3767,-11381.613,22151.142578125
469,6845.787,-2547.2969,3074.7893,3205.976,760.94305,5237.259,13486.576171875
470,-3063.401,-10652.895,2390.3994,5359.6587,376.93524,-1960.4613,15062.2119140625
471,16000.806,14704.756,39769.98,5152.009,1044.784,2653.9521,26485.734375
472,-7308.439,-4301.0615,-3180.5178,-3581.7534,-7998.6055,-1245.6312,15771.638671875
473,-2450.6033,-4122.8984,-5632.074,-2362.0105,5624.4053,-2681.5063,11866.2744140625
474,-1374.0178,-4219.3604,-5241.73,-4792.806,-545.7747,2636.4795,10134.5869140625
475,3702.8555,1674.4788,-1055.2731,-1016.6433,1866.0706,-2571.9043,7105.93017578125
476,10102.398,-5349.632,-6005.6313,-7356.438,-5298.1934,9464.284,27651.658203125
477,8206.111,-2435.8284,-17538.059,6463.018,5389.41,-7846.92,29986.943359375
478,4234.6733,23006.996,-3291.0881,-604.76984,-5900.38,6819.5464,28202.349609375
479,-26401.469,-6766.4834,-30217.818,-2121.19,1422.2485,-13698.78,32520.263671875
480,-2553.8682,5235.041,1065.6549,-1311.8962,169.71402,-1608.5615,7654.2763671875
481,4285.076,4938.36,343.13867,985.6913,-346.64435,-2929.9268,6897.06591796875
482,4707.6045,-47.347527,2931.2798,1309.6687,737.34863,225.78816,4924.25048828125
483,1680.3905,-4145.72,-6545.778,-338.32086,-804.7846,-819.417,7614.95849609375
484,-1390.629,6873.3965,2077.603,-1338.1003,477.76123,418.01422,7631.62548828125
485,-5253.169,-4920.101,-2480.4023,2480.451,-2034.8213,280.1245,6163.640625
486,-5518.885,1497.9518,-9854.96,222.1313,994.4994,619.24097,10135.509765625
487,-6530.5825,-688.68823,2425.7043,814.9655,782.7148,216.65619,8123.5693359375
488,8968.547,4766.022,3970.5078,1541.7692,1682.905,451.63666,6154.41455078125
489,-10754.028,-1829.455,-13881.477,105.88273,-2492.2527,-5571.167,15136.755859375
490,2644.026,-13277.304,-7328.632,1640.673,380.61716,12429.997,25810.640625
491,-9102.729,-12078.139,-2986.637,-2775.1426,358.2442,2028.1276,10014.32421875
492,-15830.727,-17712.967,-14524.173,-1962.4756,-344.9449,-577.7323,4541.076171875
493,6333.3975,4661.6846,10898.2,-1331.4429,15.826055,-211.1708,6059.35986328125
494,790.8452,-4066.536,-2943.9043,-1176.5945,448.63266,-404.5237,4964.80224609375
495,167.09642,-8042.4663,-6468.6494,-3480.591,1185.3846,-1412.5366,10173.40625
496,-2363.3862,1586.2114,-4559.0786,-149.8031,-450.6722,-48.288967,5456.75
497,-1553.0007,3243.0886,232.88333,925.56274,267.49622,2423.8894,6167.41259765625
498,-413.05264,3890.0305,3041.243,1085.3076,468.29477,1593.2784,5233.712890625
499,3071.373,2112.6184,-2866.6042,-296.81396,-531.29956,-458.99002,5677.0478515625
500,-14116.245,-8624.784,-5085.7173,2770.8582,-398.70148,6853.736,15051.4697265625
501,2144.6914,478.45294,1792.745,-122.241936,-759.85803,508.90567,2206.29272460938
502,5197.2886,4586.9863,4993.829,-1407.1359,-681.5219,1210.8582,3467.23754882813
503,-8027.1187,-2198.8882,-2124.6035,-773.3642,-1128.8625,-3232.0713,8447.654296875
504,-3554.9253,-8186.592,-9336.789,-4178.7935,2662.1553,2476.9958,10961.6279296875
505,-3716.2932,2247.326,2357.2568,1219.9109,587.9856,1066.5248,6719.12060546875
506,2333.823,12376.097,8809.712,1338.8203,-361.758,3075.0107,10577.748046875
507,3584.3762,9137.196,1649.7386,-177.36311,1370.4313,2390.843,8258.107421875
508,-848.88904,7644.885,11198.06,-3444.215,-3962.9983,1389.4481,14263.4052734375
509,3532.6526,3908.1965,4528.259,1087.7087,-468.75308,3.9644692,2228.66284179688
510,1020.6956,340.77728,-2546.792,169.934,165.15944,-481.63403,3409.99047851563
511,-1899.9612,3012.9153,-4134.436,1190.3297,-642.6397,69.115234,6753.58203125
512,-7213.001,-725.7763,-1544.9584,159.25717,586.11206,-333.24063,6235.4423828125
513,-826.1398,1462.6753,-1388.7844,-1889.5653,155.41412,227.3826,4216.86767578125
514,412.5013,4409.078,-4691.39,-1828.6908,-1517.9216,741.7715,9000.87109375
515,-1021.1075,1423.3239,-3416.412,-793.26117,569.73175,370.77637,4565.29150390625
516,1007.1558,1919.4662,5387.1665,1692.7726,4126.9272,-6031.3813,13595.755859375
517,-15873.215,-12751.175,-7633.0776,923.30945,-1903.1829,161.40857,8088.4443359375
518,1108.9637,-2066.5063,-10990.053,1029.9459,661.555,13282.181,25530.2578125
519,1288.4009,647.8226,1473.1766,-3642.5571,1175.3706,-1889.1122,7430.8974609375
520,7632.232,8616.783,13244.772,228.89673,-4205.6714,5089.3335,12564.564453125
521,-2262.7004,8344.601,-4148.9556,-194.44211,6098.6934,-9302.922,22525.751953125
522,6385.448,11867.068,14112.785,5153.5645,2838.1538,-3304.4858,13564.7880859375
523,2888.2202,-38.299824,-3610.0408,239.35643,-690.086,-481.1595,5836.92578125
524,2311.6118,230.9678,1127.7683,-564.8779,665.31934,-270.92862,2402.67065429688
525,-4130.1177,-1264.0688,-11388.328,2670.5635,-574.17816,-602.2811,10255.302734375
526,-4689.895,-4353.3447,1925.1866,-434.0192,-550.73956,2316.6692,7695.595703125
527,-8649.655,-8025.488,-2233.2122,-708.8049,-260.22577,1385.9467,6710.31298828125
528,-3674.3374,3058.2961,-944.1128,231.42937,1510.6321,-1548.2073,6971.2568359375
529,1389.3867,8525.063,2178.6096,602.90607,288.93915,-514.8833,6931.4775390625
530,-4582.477,-11392.0205,-11566.536,-2463.913,3683.851,-360.12277,10339.3740234375
531,647.2404,-1144.1722,-1100.9417,291.29355,1172.3789,313.61145,2794.03173828125
532,-1591.2936,-678.42535,-3911.685,1051.3104,3660.9292,84.90355,7202.8017578125
533,2159.7808,-1299.8279,2755.3633,236.20256,43.883183,700.7712,4003.80883789063
534,2926.8752,-1183.4,1932.2644,948.08374,-220.43317,-317.06174,4115.75439453125
535,3656.5005,-1706.796,-3943.4802,622.21643,-317.26694,31.746124,6872.42041015625
536,478.7631,1184.0161,1606.2517,2504.1836,-269.14352,137.68468,4478.88818359375
537,-14042.03,4051.3074,-592.0895,-1285.1002,-248.57831,-338.52512,16443.81640625
538,-5353.884,6595.866,6227.965,4352.166,1055.0583,1026.5978,14207.7705078125
539,1528.2275,3625.2144,4529.568,152.65393,-351.45645,430.4432,2847.4453125
540,5296.35,1814.1172,-297.27777,2525.8938,-678.20306,1338.4104,7059.08154296875
541,-6172.8076,9490.087,1905.5533,-5590.1006,16.20444,1396.4224,16842.033203125
542,-1476.2654,-599.5779,-4426.8325,1669.1049,-1063.3201,1675.3162,5677.22509765625
543,-4809.047,-4813.746,-3975.193,1403.3628,-1528.1831,207.35294,3707.09423828125
544,7019.6416,-5076.5894,-2939.757,2369.8333,246.97389,-654.59717,11973.0556640625
545,-2924.578,-2424.9324,-5226.991,2899.1958,-361.4971,-2831.3337,7507.232421875
546,8469.794,-3461.3542,-598.3794,589.54834,373.24844,336.8391,10871.5859375
547,3931.6646,-10877.825,1759.3556,-3739.7642,-260.86777,-253.51112,15304.365234375
548,8492.355,-10449.244,-1540.1973,-4723.1646,-504.65024,675.476,18397.3203125
549,4749.0757,883.3885,6200.5234,2637.4697,-1942.6172,3532.6472,9606.7626953125
550,3638.484,3886.5522,2285.4912,830.7583,-443.29105,-930.2249,2735.63818359375
551,560.29663,3965.074,-1669.3608,111.758,811.0089,-117.49891,5119.32275390625
552,-4619.451,-187.5772,-2594.6157,-23.143452,1791.5006,-2544.843,6620.14794921875
553,6840.568,5459.1553,4888.949,-654.1017,134.48619,245.51955,2130.67407226563
554,-16099.156,-11148.271,-7217.9526,-156.52133,406.60065,-2296.7744,8707.0205078125
555,4067.8086,6664.759,3133.1118,-2482.952,-816.527,771.9447,5685.7861328125
556,5357.419,3834.0852,-762.3825,107.63656,164.02779,1427.7856,6056.5009765625
557,3421.2522,5670.437,3092.6165,2192.2358,1417.4392,436.40973,5188.68505859375
558,8098.9365,7300.8716,2672.5261,-901.46387,789.93225,612.57117,5584.60693359375
559,4708.845,2532.9539,-3458.4238,-327.5634,136.13022,-289.35678,7368.6064453125
560,-2964.551,-7644.0093,5160.372,-3478.5166,738.943,-536.6511,12834.884765625
561,-6167.6973,-3050.5005,-1387.2615,-3160.5503,-541.6075,285.84796,6982.85791015625
562,3812.9187,3640.6943,1283.691,-413.45575,-3451.0635,1713.0303,7144.0068359375
563,-771.17816,-5507.564,-7294.7935,1631.091,-806.15454,1017.87427,6865.2587890625
564,4289.9478,346.54108,-1093.8279,1671.8906,235.04771,874.0576,5843.66357421875
565,-1861.9552,5476.4795,692.87024,957.4161,-745.42456,840.05554,6940.1240234375
566,425.27023,-3952.1821,-3609.1228,720.7707,-675.9282,-961.8332,4845.8837890625
567,1380.3585,-269.38205,-190.67146,-611.58905,-66.23608,240.24661,1976.46850585938
568,4577.0464,-2913.1313,-63.815067,-849.8569,-134.02121,122.05975,6718.990234375
569,-3463.424,-916.6904,-5999.2305,3209.292,177.9066,-772.1854,7221.9541015625
570,2477.8198,2132.2231,107.715485,-863.502,-89.57499,812.8848,3026.7236328125
571,-4782.078,7727.947,-1223.7003,-4185.1733,-177.49298,-327.44464,13327.0625
572,3170.7395,1881.3949,4646.3022,-1741.4021,2820.87,82.48109,6223.50244140625
573,-986.4863,7521.3115,6156.4067,369.1461,-1460.0585,814.0147,8451.345703125
574,1893.7563,1099.5546,-2353.8503,-3222.4746,8053.746,-2074.41,15935.82421875
575,551.3944,5187.076,3295.29,-19.774704,-9063.129,2981.3281,17011.341796875
576,672.5735,2655.7134,-5035.964,-742.5538,2426.1907,1111.1852,8417.7568359375
577,986.7728,-665.31604,512.3002,3702.061,6916.4883,-3312.0613,14822.587890625
578,-3728.0945,-13264.026,-30127.361,913.2751,-4162.2183,4252.789,25393.83203125
579,18473.934,-5779.517,20505.473,-2998.6382,2111.3037,-1996.8518,26342.728515625
