Element Label,S11,S22,S33,S12,S13,S23,Mises
1,20863.057,20690.484,3130.654,2328.689,2072.1252,-2439.0315,18931.556640625
2,12729.908,12983.839,368.08496,5058.6187,-2940.098,-2724.6245,16762.765625
3,13253.168,9141.27,4611.24,4047.3743,594.23914,3082.2175,11608.5810546875
4,11985.795,12009.983,-3830.2407,-61.89175,3696.5767,8063.3066,22058.703125
5,8222.284,14142.314,9714.521,-6706.0596,760.3412,1757.2476,13204.2138671875
6,20069.465,11435.01,2944.192,4883.3506,-208.3823,-1105.5249,17184.28125
7,15254.717,15576.993,-4721.5137,3195.703,1227.7302,21.133492,20994.103515625
8,12731.966,14550.8125,1822.0289,3210.6558,-106.64758,-1402.9261,13380.6611328125
9,4139.4297,7779.1123,-4582.436,-5273.105,-388.77722,-5380.5366,17081.68359375
10,6148.729,3255.0708,-9719.892,-3574.008,7903.7637,677.1936,21008.875
11,20162.941,13348.549,5212.9717,-4185.643,143.18129,-2230.71,15349.62890625
12,14357.111,10406.686,-5476.3457,-658.07074,-1473.297,-938.8963,18468.265625
13,27409.094,12608.448,9975.759,-1262.8213,3943.332,1651.8965,18015.984375
14,-7938.193,4665.731,-16560.504,5408.534,-2114.8757,7325.96,24577.671875
15,17928.496,42714.402,53141.78,5008.9155,-7980.9883,-7626.0674,37714.05859375
16,18743.684,16617.605,26506.494,-479.75974,2026.3044,20614.709,37002.60546875
17,-6286.1772,-17598.264,821.4484,-5188.8936,-11090.05,10469.025,32209.109375
18,-1240941.9,-1240457.4,-1242153.6,-349.03555,573.4961,-197.52284,1938.9140625
19,10207.229,19100.576,16218.606,3535.2532,2389.1577,-19838.508,36015.05859375
20,10440.605,3926.3474,-6170.462,9255.604,-6415.118,-10607.209,30465.599609375
21,-63.58651,1580.7438,-5371.2417,7755.6206,-11621.476,-11030.8,31468.447265625
22,-111532.72,-124182.47,-127156.414,-3609.7734,-6706.3486,-8149.4375,24077.7265625
23,-29807.598,-18375.959,-30081.982,-9412.18,3675.232,11674.843,29139.140625
24,4321.9316,609.065,5343.5576,6027.5327,9410.904,7483.4854,23692.166015625
25,1480.9846,-3963.8333,-30739.98,-3096.6113,4460.6846,10233.584,35986.63671875
26,23810.844,27004.459,32579.635,1783.6123,-19558.93,4618.205,35780.8515625
27,8733.186,-16129.761,-19266.695,-735.3401,-7937.7812,-5222.3164,31280.421875
28,220.10764,-2882.3452,11776.788,3858.0742,-19485.805,4162.4966,37613.28515625
29,4280.862,-2950.6096,-14358.725,766.22504,-11446.368,-3693.9304,26470.576171875
30,17757.91,16304.576,31504.158,36.081707,-19285.7,4389.5835,37211.19921875
31,732.9519,3337.727,-1304.0004,-1130.8514,-10988.554,-15584.257,33330.59375
32,4091.0376,13123.701,8563.186,-1531.6998,-9835.338,11855.378,27929.9765625
33,18962.074,-945.4101,-16307.23,5841.2676,-1868.6376,-4672.422,33413.171875
34,21450.684,7704.7095,-581.3118,980.9334,-4029.7942,3197.9636,21302.458984375
35,11604.073,-3668.5415,-18650.64,5440.385,-4602.4434,-9053.382,32935.75390625
36,18701.998,-7914.263,-22982.035,-3212.2717,-8746.821,-1429.4565,40038.953125
37,13338.337,18967.832,19431.93,-3179.9138,-20832.383,-3594.5425,37491.0859375
38,19487.568,5234.006,-13806.252,848.74817,-3191.2085,-1040.98,29547.427734375
39,13547.465,14910.948,17144.408,-62.54503,-19671.986,8391.7705,37177.0234375
40,5414.2866,3911.9568,1135.6139,-1807.1453,-19843.62,9938.342,38749.87890625
41,-1296.6162,-2208.173,516.937,-38.898285,-19859.217,1958.9889,34647.59765625
42,-181639.25,-181608.45,-182457.36,333.51187,664.3592,-673.60486,1927.30041503906
43,-489945.75,-493104.8,-502740.62,2302.9958,-2021.93,2843.6592,13627.3203125
44,23906.643,25818.719,24398.049,527.16907,-178.96523,-264.15778,2024.11828613281
45,19541.408,34244.69,35584.223,-9239.91,6069.8228,13723.079,34195.046875
46,8969.547,18276.064,-12192.631,-243.01425,-337.78232,-14646.21,37087.046875
47,18766.148,34262.004,48731.06,-9268.341,-489.63287,-505.83777,30543.064453125
48,11793.083,10672.178,16899.232,-1359.9595,-5379.532,-15325.131,28809.6875
49,-16342.219,2470.207,-12271.869,2404.43,13016.244,-14973.997,38628.6875
50,24474.734,7105.483,27070.26,2519.291,-3.778724,-9881.071,25796.45703125
51,21018.598,11399.382,11414.849,-3907.4272,3107.641,-16629.328,31571.517578125
52,-8349.857,14191.841,-21722.576,-604.2493,5544.4624,-5377.364,34182.86328125
53,15566.816,12396.134,25747.695,-660.5561,-5981.4136,-13475.6455,28273.732421875
54,18734.203,17339.213,37569.54,-2326.0532,7597.7446,-17026.275,37974.75390625
55,217.02905,615.28394,5108.8325,-4744.937,16023.545,-11222.547,35182.12890625
56,-13529.564,-7333.4062,2743.6626,5030.072,1769.7806,-13380.718,28719.521484375
57,-55574.05,-52378.59,-63895.87,10787.38,11787.621,3505.762,30147.529296875
58,-64071.38,-79252.64,-89127.555,-2562.702,5727.737,9411.726,29355.802734375
59,32756.771,39109.06,28570.21,846.5065,15632.258,-6546.336,30794.298828125
60,571.4621,5279.8325,15066.412,-2800.0137,16898.537,1109.1034,32371.544921875
61,12494.419,9103.994,-7862.928,-1622.5513,-3695.1418,-15857.239,34060.4296875
62,23902.871,7169.5254,-11044.279,514.6735,-546.15814,-1881.8063,30476.853515625
63,15281.855,8376.686,13472.244,-3866.7803,19733.209,6204.779,36973.13671875
64,12101.98,7999.64,5719.4517,-890.80493,20579.418,1771.2147,36245.16796875
65,17322.572,19478.81,14266.929,-2753.8293,21020.621,2695.6719,37292.4296875
66,622.8676,19.040285,-8822.813,3432.391,21993.408,-810.6423,39652.58203125
67,24338.928,-2463.5808,-9050.738,422.2581,5498.1577,2645.7551,32412.060546875
68,24202.105,1990.8286,3169.9343,3713.001,16552.64,-2853.5645,36827.96484375
69,23412.486,-830.6418,-3727.1572,854.44196,13229.004,731.17615,34570.98828125
70,10523.918,7961.4873,17196.348,6619.6772,13712.185,2380.8162,27941.408203125
71,-4652.3496,1097.2723,-274.29007,-5572.8076,18479.62,-2794.0232,34177.92578125
72,23348.082,-3202.1663,-4532.7354,-5180.636,-4245.115,-1021.1802,29660.09765625
73,17514.244,2701.5293,1185.7618,-6329.858,-4332.2017,-1527.4337,20680.208984375
74,10627.382,16558.385,-4876.777,-7350.176,15352.934,8662.774,38234.2109375
75,-1839.5778,-33845.99,-21119.877,12786.356,-938.7637,8365.489,38498.15625
76,4042.8206,-10535.135,-11474.936,-1217.293,19126.969,-4722.5464,37362.76171875
77,27895.85,24653.97,42704.586,14650.933,-7529.067,-5012.575,34164.37109375
78,-109768.586,-141490.98,-105299.38,1155.8749,-6327.009,-3721.1304,36519.85546875
79,-73674.77,-104288.53,-65889.24,-5233.639,-3833.2673,-6309.428,38494.70703125
80,-343467.3,-377619.3,-344475.16,2305.8315,-3733.086,2443.8552,34765.36328125
81,-25621.705,-30595.174,-42254.086,5207.4395,-7578.244,5984.988,24078.0546875
82,13133.133,14658.856,17405.955,-2464.149,-646.3923,19303.127,33931.8046875
83,13297.8,1841.603,26841.91,6151.944,848.3726,16629.25,37618.421875
84,20725.123,6022.5566,19885.283,5363.861,-3859.1887,17361.012,35209.8046875
85,5305.814,20286.201,-11784.228,3642.0823,-5390.5786,-6508.469,32039.76953125
86,11891.558,12223.275,15563.622,-101.82008,4390.1147,8130.46,16387.177734375
87,7251.8984,15681.197,-22259.277,1517.9474,6497.42,-2966.021,36751.52734375
88,-3544.9636,5397.5435,-5167.8955,-2878.006,-9181.656,18207.996,37006.296875
89,6469.4414,13730.133,-6012.9136,521.1815,5671.292,9897.129,26273.986328125
90,4887.0044,15101.482,10961.094,129.82423,13.335219,19347.082,34672.26953125
91,-376.7627,13478.724,5308.582,-1631.139,-7550.552,11888.15,27359.150390625
92,6673.321,6865.8447,12250.6875,-7307.599,-8115.467,15607.074,33445.44921875
93,17734.213,1034.1854,9122.671,1974.1996,-14077.929,-12116.995,35439.49609375
94,-2577.57,-5223.8174,-3316.504,-3690.8694,-16122.674,10160.463,33704.41796875
95,6759.416,15328.922,18420.703,562.5862,-19393.855,-5876.661,36638.91796875
96,16870.934,22350.947,24685.154,4369.562,-19798.281,3580.5063,36330.78125
97,20245.932,19624.342,34106.46,-2029.1307,-19806.207,1171.4147,37342.234375
98,14486.176,799.1598,-14283.355,5657.1523,-7002.2056,-5203.7305,30750.455078125
99,-3964.996,15642.871,-15882.316,-3840.3655,-6073.892,6588.9995,32331.57421875
100,-19764.246,-52110.383,-16423.363,8001.787,253.94104,-503.42957,36858.35546875
101,19485.654,-3639.0042,18066.367,2853.645,5375.2603,-10309.538,30559.998046875
102,7476.842,22509.246,8805.929,-3454.0352,-12172.552,11415.508,32848.2265625
103,-16360.008,-2975.507,-4039.9893,-1954.0187,-13136.549,4707.233,27598.294921875
104,-164.85097,-5953.3135,-3027.2666,-9594.983,-7201.3843,-13838.641,32115.814453125
105,2531.254,3079.8054,14755.712,-81.1967,-20887.652,686.3442,38122.796875
106,11693.301,21689.129,18992.799,32.192005,-15637.211,6755.779,30833.85546875
107,15821.467,4771.7046,-9288.8955,953.3599,-5676.3984,-6005.2827,26129.3984375
108,21396.795,8794.334,9410.403,2112.4478,-16378.301,-7397.344,33670.95703125
109,12125.739,9904.802,14741.04,-3071.7837,-13271.459,-16684.703,37542.2578125
110,18967.535,26863.014,35124.164,-879.16724,-15145.031,3999.5452,30565.25390625
111,6901.3853,12845.962,17623.293,-6507.634,11410.795,16415.057,37584.42578125
112,19703.709,4899.926,-3978.8088,-2267.9587,689.9974,1379.6873,21260.1171875
113,16213.157,2645.673,-18253.107,-2737.2205,8283.898,-4821.7627,34676.70703125
114,13522.42,1800.0764,-565.86884,2125.537,17342.871,9247.577,36649.38671875
115,-681.29926,-18227.346,-28058.703,6530.7534,-7480.6997,-3397.6277,30124.529296875
116,3394.103,3579.0784,17892.557,15357.893,14488.097,1146.3074,39354.91015625
117,-13287.201,-32785.11,-1427.7883,11538.012,11087.429,13.209967,38989.984375
118,-478629.22,-489045.16,-482871.88,4311.1934,-4007.5337,9747.982,21709.681640625
119,3516.1455,3506.6782,18317.436,-147.49712,-15934.969,-6228.891,33127.79296875
120,6571.7754,21326.332,23855.436,2627.9229,-16615.584,-3377.8022,33831.76953125
121,11881.777,23115.771,33055.34,-8067.1587,9222.713,4396.989,29070.1171875
122,-2958.4077,4586.5903,-4573.412,2364.9026,22423.428,846.53674,39988.484375
123,-20272.986,-11131.756,-28748.885,5181.9004,1551.6355,-2108.3875,18275.611328125
124,1731.3607,1144.8284,5613.089,3984.1282,-9512.275,16120.119,33411.57421875
125,12579.714,29138.057,-9253.097,-1269.4907,-7216.613,5817.466,37080.5546875
126,4116.1646,6801.8423,1459.7169,2790.037,-10294.143,11518.774,27580.998046875
127,6874.0957,15837.387,-17781.787,588.6171,434.35776,2209.8206,30422.134765625
128,25021.445,20360.979,17681.232,7236.3384,-12112.174,9545.693,30198.65234375
129,6287.0796,17076.95,462.56284,-2725.4797,3616.7114,19573.438,37736.94140625
130,7707.0703,-2417.9568,-21446.559,-7322.651,-2006.5833,-4288.35,29755.36328125
131,12824.806,12462.45,28959.025,5501.1045,-546.4875,1240.5106,19041.787109375
132,-535682.6,-534309.94,-535152.75,748.3345,-160.50302,-316.42188,1869.5859375
133,2537.8635,20709.479,121.87419,-4025.4841,-14331.076,-1045.8771,32372.541015625
134,11440.27,13491.57,12470.448,561.90765,35.741093,128.01147,2038.65405273438
135,-57623.68,-36372.844,-43726.81,6538.319,540.3979,11498.665,29583.50390625
136,9817.899,-22033.47,7578.6978,5775.622,12079.652,-6081.717,39962.375
137,18921.91,4132.655,17965.266,-7032.866,18131.121,-8186.141,39257.15625
138,5854.1777,992.2028,6772.266,2808.7083,15482.958,-169.57863,27782.443359375
139,18653.781,-2263.4307,-9159.298,-2792.696,3954.304,-11369.419,32976.09765625
140,22491.514,2436.1938,-14926.329,-166.53708,4893.2803,1794.9199,33666.97265625
141,23824.328,4800.5806,9604.443,68.88053,18060.072,-4783.1855,36616.14453125
142,24241.656,10779.8545,-6262.227,-2720.6064,6618.392,-2086.6223,29457.533203125
143,-6961.106,-932.7175,-9036.412,828.52216,13750.95,-4409.108,26092.240234375
144,19473.365,20535.139,28430.484,6993.7617,10321.258,-2091.3977,23479.607421875
145,9959.59,19222.543,-10211.48,-6676.2246,-12590.91,3442.6094,36392.0546875
146,16773.547,20979.494,34274.37,-1442.7893,11966.366,1785.5181,26377.115234375
147,17193.156,15512.847,-13290.78,-4331.1826,-331.69925,-718.57104,30643.5625
148,1781.2543,-501.96646,10773.639,-4907.1353,-10903.309,-14766.596,34491.31640625
149,13546.178,14176.282,16697.785,-10171.607,-5504.459,-18544.566,37964.8359375
150,-3351.5408,11879.184,-15596.483,2211.9575,-2219.6345,-4791.7173,25821.564453125
151,-9509.033,15746.489,12884.3545,-4657.5566,1622.702,-8408.14,29305.578125
152,-35372.438,-24681.684,-8851.929,-8320.853,5034.1216,-13661.102,37117.64453125
153,-12151.409,-4885.295,-11820.151,-8480.314,11227.651,-4913.8027,26774.30078125
154,-9218.865,10247.382,4428.136,6930.7334,-14326.36,-7292.991,34913.05859375
155,10547.021,18404.674,30308.293,-708.78656,-16085.803,-6950.942,34924.01171875
156,15353.026,19028.66,23306.043,-3890.7327,-16939.062,-8011.3745,33856.80859375
157,9789.018,17363.875,-2540.3386,2428.6165,-14378.038,-13351.75,38411.859375
158,11438.044,22931.3,30641.44,-602.24164,-18113.752,-414.47577,35582.0625
159,21890.686,26827.557,38553.734,2080.678,-18379.705,-3003.3057,35682.69140625
160,22702.111,33755.125,37274.81,-622.7237,-17969.025,804.04333,33841.11328125
161,14620.381,-3579.4583,-21773.537,1495.488,-695.28235,2963.0386,32060.66796875
162,12480.017,7244.1875,13296.697,50.733414,-52.91536,21825.83,38229.22265625
163,933.0084,12015.215,-4364.819,-741.56244,633.4446,15360.118,30335.57421875
164,3312.0947,10201.7295,-6126.617,1952.2083,14457.334,9283.057,33144.953125
165,6104.038,2156.6406,8501.578,1670.5474,5562.6387,14715.375,27957.50390625
166,-3633.506,9990.261,-30225.244,4214.805,382.34158,-8531.03,39077.80859375
167,19052.893,12758.959,31571.625,-3007.5645,-2813.2217,-18471.35,36736.5703125
168,9225.497,-1118.1272,-15858.631,-2213.669,-7112.491,-15698.51,37182.4765625
169,-1598.9414,18028.688,-25930.605,2965.568,-5814.0566,-1253.9302,39841.65234375
170,1380.1372,8240.877,-8532.268,2908.0051,4728.728,15697.711,32327.052734375
171,6827.2144,98.52467,2780.196,-5096.7686,2544.2417,-20708.455,37660.23828125
172,11625.152,-7135.141,13318.783,7777.2847,7194.0615,6228.1914,28977.28515625
173,24967.254,5395.2085,-2405.127,391.55362,-5713.519,1433.0,26478.8984375
174,10479.377,10218.521,-24396.037,3879.1313,7806.3237,-3606.5981,38395.921875
175,26467.412,8583.5205,-11941.039,6326.6685,8989.776,604.5151,38363.71875
176,15979.96,23421.053,24702.615,1163.6768,12411.358,4430.4795,24323.318359375
177,20109.531,3106.92,19112.934,1869.8903,-852.79364,-19950.201,38468.69140625
178,-7705.5005,5746.6816,-15614.48,-551.50653,5335.3667,6133.2686,23432.201171875
179,8171.88,-353.11728,6097.7163,-3947.1812,-3526.35,-21447.605,39030.0
180,8283.298,19778.945,3289.0933,1510.089,1387.5093,1272.1812,15230.7451171875
181,6539.6465,23437.63,-15455.944,2051.4868,-7950.6987,-44.858864,36651.08203125
182,23864.13,1736.249,13479.341,-3586.5198,8324.181,3484.9124,25506.720703125
183,26119.89,507.93896,-9113.229,1568.1594,13104.129,-2913.0176,39280.3359375
184,-37915.31,-53885.99,-51001.465,-5795.803,-10039.964,9022.163,29405.615234375
185,-52445.527,-65724.09,-78357.914,3316.4,-3682.2678,14948.244,35323.01953125
186,-126533.77,-123423.336,-153308.64,3246.2788,-7269.31,6711.9517,33691.90234375
187,16606.357,-11525.742,-2203.303,3853.4604,-2304.8457,-12003.965,33299.14453125
188,-97513940.0,-97513680.0,-97515440.0,59.081764,-609.57776,238.6615,2002.24096679688
189,-26046.518,-18229.527,-43351.633,5107.871,3517.2222,6538.2104,27193.279296875
190,12446.48,-4869.1,-18138.86,-4296.5205,16540.03,2561.5112,40018.38671875
191,-3711.3867,-20025.924,-40889.215,7699.209,9425.597,4265.658,39252.546875
192,21087.625,-5364.582,-12480.9795,-6606.824,5979.744,753.47473,34329.7578125
193,-2590.4395,-32139.355,-36605.465,-718.2452,-3941.4858,3259.5193,33242.74609375
194,7709.4487,10315.888,8937.367,10692.047,7158.68,6223.556,24859.57421875
195,18822.408,2557.3252,-14262.072,-12154.384,-5866.8477,3320.6648,37423.80859375
196,19842.95,23937.6,11415.053,-7757.299,-4132.499,452.44434,18832.916015625
197,13378.198,-4465.169,10104.071,-566.57996,-3404.3013,5460.862,19896.685546875
198,21301.865,-6447.077,-2909.319,-9244.451,-5955.571,-9784.179,36528.44140625
199,16089.161,-6934.6553,-10792.771,4348.9585,-3506.1804,-5641.0117,28686.111328125
200,5365.8735,-8415.657,-18994.63,6641.179,-4961.8354,-3381.8242,26232.140625
201,896.3408,-5378.8843,-32085.732,6186.9844,5758.6855,-11439.197,39078.3203125
202,16825.334,430.14404,-1392.9819,-594.02625,1994.6398,-12868.759,28492.556640625
203,11785.105,-7392.6367,-13120.974,6861.2534,-3084.5598,-6850.765,28653.60546875
204,16455.79,-6396.8584,-13422.291,7708.5684,3488.5637,803.2156,30803.599609375
205,14762.184,-1503.1943,-24389.352,2540.158,-1880.3217,-5558.225,35822.2890625
206,15867.516,-3886.236,-17109.076,-3537.8206,-5221.4575,-10538.41,35759.875
207,23525.832,1781.4526,-9151.964,2797.3708,3833.261,8266.289,33206.17578125
208,17652.576,-477.16043,-21652.42,-176.63518,-7862.4805,-8001.785,39225.1953125
209,13440.773,-10395.419,-24175.338,-5413.784,-7442.437,-5197.838,37704.9140625
210,29014.455,-4393.1753,-1748.8423,1874.2828,2685.4033,308.0447,32667.70703125
211,-13426.283,-10925.79,-27784.855,960.18176,-9302.178,-18455.094,39146.5625
212,-47850.754,-46501.727,-72746.43,-11248.8545,-3356.2725,-3813.2908,33350.06640625
213,-24946.85,-13469.937,-31546.084,-13947.769,-1063.2922,9071.76,32937.98828125
214,17020.652,28194.217,31118.398,5605.4014,-867.37695,18295.818,35592.16796875
215,-10928.09,19481.836,-9426.821,-11719.159,2414.9814,6045.726,37689.90234375
216,5032.2373,11789.035,-17120.684,-3651.2163,2014.5409,-3127.4885,27705.630859375
217,-3115.7937,116.33545,-15156.469,-4093.547,-7866.7856,14553.211,32644.443359375
218,12432.56,9994.108,14697.061,8296.562,-11278.909,16518.57,37726.98828125
219,13304.449,21125.496,17544.086,-1505.7075,261.0565,16820.006,30028.794921875
220,2137.6062,11348.263,-2036.2183,-1180.6924,-12929.62,14262.24,35449.15234375
221,5162.6064,21432.084,-12404.979,-5710.6523,-1462.5443,6016.7217,32741.197265625
222,5975.7075,12522.526,-7607.6836,-4067.031,10882.5625,14001.304,36184.5234375
223,13234.104,13288.923,11105.574,-1832.1886,3723.2456,18110.824,32253.908203125
224,15163.2295,16254.229,23608.246,5517.3936,-8946.143,13329.453,30458.87890625
225,15897.98,28068.316,10231.464,-1823.0729,-1656.3563,-4259.7085,17939.525390625
226,8094.205,18246.648,-9533.157,-3089.2378,697.9437,-341.59583,24963.943359375
227,6750.942,3210.6824,997.6881,1260.8174,-1784.2677,21449.184,37680.0703125
228,13201.129,23519.855,13944.344,-3785.5923,7101.4663,14905.469,30986.498046875
229,-17095.451,-18874.492,-8116.9727,11943.769,5638.2695,-5815.669,26917.43359375
230,-12156.397,-2820.608,-3917.6206,5884.5513,-5858.6353,17171.611,34198.921875
231,-46806.117,-44326.84,-40351.074,1814.0715,9482.9,17464.332,35020.96484375
232,15957.165,-12184.307,-17302.48,5799.935,9716.262,7544.107,38949.28515625
233,12741.634,16303.977,8814.854,5130.214,18097.066,-4562.34,34146.91796875
234,9074.727,-2703.849,-11819.118,-228.06096,19708.188,3633.5857,39168.74609375
235,1732.6406,-9671.3125,-24749.033,1921.1702,12885.338,-12957.441,39270.69921875
236,8673.003,6687.8774,15142.182,-2533.6038,19891.33,1177.5028,35623.66015625
237,17264.477,9435.396,28253.324,3612.602,18534.363,3774.282,37155.58984375
238,25862.9,7737.1733,4611.996,8372.779,128.70157,708.111,24633.697265625
239,25823.793,13234.475,8270.524,2264.1353,11763.949,-8372.545,29773.703125
240,32796.816,21883.152,47152.707,-2265.5112,-6340.4834,3150.5964,25449.099609375
241,11026.162,8779.514,-26742.928,-3638.0361,7948.9243,661.0054,39714.86328125
242,17627.344,10145.707,46101.797,-296.408,1903.6049,5774.666,34510.578125
243,16274.179,17525.35,41165.023,-2164.3318,12184.061,3966.706,33114.7734375
244,7526.0527,5186.832,-18976.469,-10714.678,13146.717,5211.5527,39878.09765625
245,-20824.104,-7093.264,6963.9985,15720.882,8641.87,4545.0425,40082.625
246,12813.36,-1152.5237,312.043,-1640.4456,3658.6003,8647.822,21197.185546875
247,41045.953,24793.193,17504.74,-15768.17,11322.096,1183.2745,39628.35546875
248,22123.1,12478.59,-3947.8948,-8870.898,14531.151,-7994.7725,39781.4296875
249,18408.305,-15087.82,-4799.7603,-6282.8945,1782.3588,-13039.965,39003.859375
250,-23945.693,-54685.28,-16976.836,-9023.653,4517.054,-984.8928,38937.22265625
251,-13954.829,-42735.973,-6309.71,4966.856,-5258.101,-8260.33,38320.859375
252,-234195.62,-263838.5,-227859.67,-6314.529,-3211.0554,-3365.6863,35933.21875
253,-1124766.9,-1129231.2,-1123050.1,539.01685,495.7413,2010.4695,6654.09228515625
254,-293669.62,-298857.78,-277774.78,-15911.964,-7943.475,1514.9664,36301.2578125
255,-171965.73,-170167.11,-171771.38,-474.7743,126.631355,273.8408,1967.88024902344
256,-22084648.0,-22083264.0,-22083740.0,-734.7719,-485.96133,252.03902,2000.49084472656
257,-1275.4745,33831.992,28163.756,3810.87,7928.548,661.9144,36043.5
258,-109232.04,-77804.92,-81173.625,13496.836,-3544.5322,481.64676,38445.078125
259,225081.25,264138.0,252161.31,-5646.472,6401.862,-5255.9077,38763.04296875
260,3658.8718,-2083.914,-4579.7227,9078.928,-3671.9434,-9746.138,25024.65625
261,-17570.135,-4029.084,-40728.31,-13534.007,-1032.1769,81.353,39824.25390625
262,-18196.639,3728.1157,14643.919,7008.5435,882.6715,-2552.9312,31755.703125
263,-15406.327,12571.028,-16985.781,118.46364,436.64862,-8153.966,32085.689453125
264,1004.22363,-16503.078,-12775.037,5315.4966,-463.60074,11578.472,27253.021484375
265,-6632.5996,23446.98,30188.955,-6851.366,4676.702,3399.9424,37338.296875
266,-7392.2236,-2998.1602,-25612.049,4685.3384,4300.0938,-3946.678,24482.38671875
267,-16625.805,6434.806,13836.631,8234.71,-1743.8523,8051.548,34121.9296875
268,-19439.68,3108.8281,-37751.984,-4081.794,-1364.6372,9178.9375,39560.328125
269,-13216.474,15173.623,-21675.645,-1779.5392,804.96655,11934.025,39451.4765625
270,-17707.332,-82.64349,-19769.95,-364.64603,9306.51,2395.5103,25073.5859375
271,-2636.7307,-4607.431,-789.3705,5053.8267,-454.96707,7591.779,16158.1796875
272,-14606.745,-11709.1,-504.68988,-874.2644,-6599.991,7355.798,21487.146484375
273,-44230.383,-17831.873,-40348.727,1309.943,6492.086,-7235.5044,29968.744140625
274,9890.332,-27679.756,-20136.408,5736.835,5618.6304,3993.824,37766.4140625
275,10320.8545,-2838.879,12023.803,3582.276,-3293.5193,-1702.8154,16680.15625
276,-1521.1875,2328.9697,19232.604,4585.8975,-9197.84,17096.084,39488.71484375
277,7247.134,6566.0283,-3979.3826,6792.1094,2267.1277,12033.863,26591.5703125
278,12083.238,-1277.8658,-14386.018,10484.022,-2634.5928,-9287.902,33687.4609375
279,8886.685,-19290.902,-33542.43,-4137.882,1237.2042,-6457.8853,39745.78125
280,36997.164,65060.043,43252.137,-15885.764,4716.9717,-5120.763,39415.80859375
281,8004.6494,20527.965,-12243.524,-3416.5452,-4355.8633,9019.96,34006.08984375
282,688.9126,15274.997,-9958.619,8889.851,1165.2686,3513.9507,27561.4765625
283,-2661.0676,-2586.6907,14759.734,10139.351,15465.034,1729.0583,36566.16015625
284,-13895.442,-23940.36,-47502.164,7907.3335,11881.603,3674.1646,39297.953125
285,23065.793,-2734.5576,5796.9746,-9549.435,1558.7373,-1527.811,28393.578125
286,-3320.5664,-16.79541,-9842.564,3202.9321,-7782.8086,3587.865,18058.501953125
287,14577.988,-3266.1172,-13987.817,3621.3967,7849.5757,2471.8992,29448.396484375
288,7978.745,-5197.3926,-20029.242,7359.1606,-9241.256,2970.2668,32158.396484375
289,19193.416,942.3291,-11319.619,4925.635,3706.5786,5176.7197,30027.462890625
290,12995.125,2084.1797,5265.749,5045.2256,-1126.3236,2165.942,13736.8046875
291,24356.023,17472.465,12485.193,7581.3926,10594.434,-4392.645,25954.40234375
292,720.83856,-9512.073,-23671.688,-5291.051,12563.518,-8163.8364,34749.9296875
293,11041.966,7287.0273,27760.914,-4306.785,11879.504,7511.388,31696.64453125
294,7830.6177,-22656.756,12342.213,10608.83,6157.9365,-1548.5414,39318.921875
295,-35942.66,-23555.17,-13467.433,-8067.6543,7210.9326,11497.712,33586.0078125
296,-6104.242,8327.508,11662.962,5927.7075,-12194.643,15672.735,39445.9375
297,-2201.8965,20470.65,15886.162,-1576.8435,2830.7065,19293.035,39740.17578125
298,10621.361,-1270.3059,4295.3516,4961.7,-0.14456496,14247.587,28089.85546875
299,10363.658,11703.295,5390.6416,190.65393,1896.0574,17871.66,31658.654296875
300,-243.0835,4921.7754,-19289.564,-2565.714,8384.024,7376.347,29692.96875
301,-13410.086,11255.383,-29170.387,2293.6492,188.9226,480.57593,35525.90625
302,-22330.094,15594.885,-12031.196,856.38116,699.41626,9358.518,37685.53125
303,-13133.801,-6468.78,-6761.0044,-286.1962,-1111.1234,5929.2173,12327.8779296875
304,7574.8765,-24165.629,10924.976,6743.545,-5640.056,-908.8125,36869.3828125
305,2406284.5,2382895.2,2380459.0,544.82904,5349.7593,-4225.842,27391.564453125
306,26996.195,21665.271,28687.115,348.71353,3916.7783,19012.406,34221.26953125
307,-29157.104,5760.2812,-8002.3154,-12851.911,-1315.3911,4756.046,38686.48828125
308,52382.24,54368.676,66056.55,-15629.825,11883.99,-7922.4663,38841.05859375
309,-6141.804,24495.963,-5412.8804,-10796.199,-1962.8505,5515.848,37005.09765625
310,-1827411.5,-1827329.9,-1830768.2,-1499.4702,6831.583,6660.7,17070.443359375
311,14392.55,-5423.9395,5114.585,-7346.222,-8633.789,11989.213,33341.6953125
312,-20457.82,-34237.668,-37483.938,8058.567,-8895.451,11621.355,32901.8515625
313,-18078.072,-4232.751,-6089.8057,7843.2554,15493.098,4960.397,33880.74609375
314,5027.373,-27995.098,-18734.541,7196.111,9470.083,7514.1973,38265.1796875
315,9874.863,-14342.061,-25269.082,10694.702,7315.7944,2496.25,38637.60546875
316,198.12695,-16786.686,-32048.893,-1399.7206,1090.2047,1393.0499,28211.869140625
317,2841.337,-5672.713,-33471.742,3171.3035,595.38153,4509.297,34266.5078125
318,41446.066,12487.502,-2414.8064,1755.9939,-2422.9163,1841.0242,39105.71484375
319,23065.549,-14149.533,-5507.868,-1020.6697,4706.4565,-456.71527,34759.80078125
320,12378.982,-10018.952,-21550.344,10325.816,4487.7837,-3682.7908,36247.71484375
321,-90965.47,-95686.39,-120911.29,7447.244,9.086545,9681.342,35003.38671875
322,-5842.226,16055.24,-19715.809,-7820.6445,2636.6233,-3170.4165,34788.921875
323,4949.7197,175.53638,-14049.2705,-4754.143,11575.736,13696.079,36408.73828125
324,-49361.08,-31694.27,-60588.973,6468.8257,-3099.133,-3214.4744,28668.6640625
325,25116.715,20169.621,3315.8274,11639.085,8767.596,-3727.9817,32720.208984375
326,13077.88,2937.4424,6566.6704,1036.2804,11733.888,8909.051,27084.78125
327,18064.56,-5744.442,-9687.044,3514.2095,12719.466,297.6633,34625.87890625
328,21331.008,18191.773,38178.95,-2277.1199,-1719.0739,8748.159,24507.34375
329,-1153.1074,-31999.611,-37185.25,-3366.599,10886.497,-1428.0531,39166.6171875
330,-9349.638,25116.418,15587.254,-1748.5697,10468.169,-3625.8232,36436.8125
331,-59994.465,-77354.83,-35959.145,2684.8865,-5936.5503,-4634.814,38576.40625
332,-1200402.0,-1218085.5,-1193843.2,-10750.456,-697.9671,1535.5667,28756.865234375
333,-75020.76,-37628.26,-42381.824,6244.2344,-3514.045,5839.006,38721.39453125
334,-3965.198,2033.5985,-9809.655,468.4777,-92.81279,-5791.826,14370.90625
335,16842.174,3397.9214,13820.681,299.00958,5361.7163,6103.737,18642.28125
336,-21208.762,-47432.445,-49841.543,12727.764,3833.5212,80.07358,35871.375
337,15121.675,6237.923,9456.18,2396.6558,1272.5896,11675.753,22175.390625
338,7555.049,23798.496,-3053.794,1667.7542,3952.7864,-72.062195,24575.48828125
339,-76918.99,-83478.234,-85766.64,4169.311,-4054.0923,17313.78,32619.44140625
340,-21405.902,-22088.336,-28042.814,12442.64,4298.2603,-15064.405,35223.24609375
341,-19386.678,6613.312,9046.468,5584.3506,5830.102,9594.041,34883.2890625
342,17376.072,-8537.791,9290.65,-7052.9243,-3244.314,1702.7092,26774.677734375
343,18081.225,-147.46533,-3561.2178,6851.363,3397.804,5854.2705,26161.865234375
344,11192.555,13834.82,-16830.836,-13542.279,315.5441,-1252.9695,37703.125
345,-13952.929,4218.842,-20165.822,7441.143,-2461.1152,-10442.663,31514.17578125
346,-43715.31,-41191.66,-63847.92,-9099.176,-1236.5537,-4513.637,27867.35546875
347,-22340.652,10177.043,12668.746,-8400.187,8029.3203,-3597.3137,39856.6796875
348,-41058.938,-64843.684,-62111.34,-7038.9004,-10945.366,-5374.9727,33210.00390625
349,-12378.854,-24011.514,-7093.6235,-9768.04,-3414.857,-13434.271,32975.75390625
350,-31344.943,-22974.94,-16638.36,852.327,2702.529,414.32568,13705.9033203125
351,-11912.838,-34262.043,-9365.653,-2507.1775,100.50355,6296.06,26470.96484375
352,-10936.915,-24052.816,-22403.771,12147.233,-16854.957,1282.2257,38118.03125
353,1224.8583,3687.1296,-2096.071,554.32074,-2846.5674,-3006.2297,8809.7265625
354,860.51514,626.23206,2039.793,1623.9615,-1943.5485,209.35535,4593.17431640625
355,54173.65,88303.69,64407.445,6082.4775,10135.205,9259.567,39958.55078125
356,-2072.4001,-537.1643,-6014.345,-207.56055,369.5235,1490.3422,5581.21337890625
357,182900.67,191659.6,216458.56,1057.8486,12263.1,-7660.723,39236.30859375
358,8429.363,17917.83,10200.225,458.737,1045.0945,-845.56836,9078.388671875
359,6613.974,13092.758,7431.7974,1525.1604,730.0722,3342.4275,8912.7880859375
360,1305.7117,4878.4917,3381.759,-1739.6805,-561.0568,-7057.3105,13003.775390625
361,7208.0713,-3617.5635,-2320.2434,2480.2192,1185.2323,-1.3155695,11291.673828125
362,1201.2306,-1051.7786,-5596.429,9929.258,4905.406,-4895.573,21813.4921875
363,-12505.261,1837.3062,-4192.0854,5730.344,-4735.369,-1062.2067,18020.888671875
364,1725.1953,6790.898,1102.1658,4871.073,1177.7405,1164.1694,10421.83984375
365,-1858.7356,1151.4441,-2444.2595,1424.1177,-1641.363,-1187.1255,5436.99365234375
366,-1535.0999,-1702.165,-2655.413,-622.76587,396.92258,580.92346,1935.0498046875
367,-929.6034,-104.11544,1033.6436,-809.52386,903.6178,584.40924,2890.55297851563
368,185.58894,-830.65576,722.2195,-108.654236,-169.61977,130.75215,1427.96765136719
369,25773.95,31715.225,62213.68,-8947.676,-3639.8708,-2855.467,38092.5703125
370,-4877.073,-10941.948,-28407.043,2017.7844,5446.016,-3167.73,24063.0625
371,-5663.3203,3135.9795,7307.2593,2377.176,-1271.8357,190.61911,12387.33984375
372,114.20227,990.7998,620.26306,1318.5164,-1234.2708,-19.683298,3219.90698242188
373,-126578.125,-130533.61,-101433.97,-11447.812,9967.016,7584.6787,40138.44921875
374,47476.8,18373.633,54288.97,-52.27786,-9888.075,-1849.7437,37353.0546875
375,26588.271,-1263.666,33070.79,3568.512,3946.1885,7992.6025,35705.3125
376,-11432.307,-13095.657,-17843.365,11237.392,-4719.3105,1181.4181,21978.271484375
377,13005.013,5923.0615,18107.775,-2034.3737,-4452.1816,4191.6685,15392.2626953125
378,-5141.091,3233.384,-5095.083,-445.7577,-2481.0376,1744.694,9896.62890625
379,-2586.3425,-1233.3589,-818.40344,-144.2291,1111.7993,-82.2364,2520.94604492188
380,-5500.197,5114.815,-1593.685,-69.58291,-2294.543,2865.9368,11265.9541015625
381,-3408.6052,4597.95,-6622.0386,-2827.2136,2213.2112,-70.70496,11783.41796875
382,728.3236,1195.0382,-5906.062,-7990.0493,-636.7327,-2399.0332,16041.642578125
383,6962.7065,-10907.219,9776.014,-4365.8477,-2969.188,-3973.1309,22550.1640625
384,-10019.071,-8417.171,-14550.301,1792.7793,385.2549,1864.5205,7132.5625
385,478.7613,-472.28528,771.6632,-165.13824,-898.01697,-284.88507,2003.35668945313
386,4061.334,8044.236,7615.671,9461.128,-6349.407,978.8568,20166.767578125
387,15474.327,-3045.3154,4961.2744,-426.07303,2531.2683,5546.4077,19257.671875
388,7942.4365,876.7622,1590.6819,1414.9003,1332.1383,-2582.7205,8759.5693359375
389,13892.278,3003.75,6506.619,2640.4941,1283.3192,-1263.0715,11105.5146484375
390,2893.0874,16315.22,-5435.658,376.86795,1033.1228,-4959.709,20946.01171875
391,2442.469,3620.584,-1424.5989,3116.3682,1563.1283,3241.25,9427.64453125
392,7023.489,-11354.494,-3794.1792,-2374.7517,-4494.854,-1395.5302,18421.109375
393,-38733.668,-5437.5957,-26412.096,-7994.3125,-11968.536,-2383.0544,38583.55859375
394,-3890.7598,-24321.621,4616.5347,-10566.381,-4973.826,2315.1096,32997.6796875
395,-9172.316,-878.41016,-40410.586,2159.0427,570.1986,1103.1517,36363.66796875
396,-98902.64,-108978.53,-139919.72,-2752.333,2010.4832,-383.1441,37495.77734375
397,13336.28,6237.407,22042.814,575.10767,1370.2572,-613.88556,13991.423828125
398,10396.348,24894.06,47949.242,6153.418,-4633.087,1524.0092,35509.58203125
399,4650.0396,5116.1846,1417.5889,40.78758,1740.3054,-359.9625,4653.2265625
400,8185.6807,-437.6941,1986.4052,-2707.9187,-3450.6843,3130.5986,12101.943359375
401,-8345.789,1079.5769,-1728.929,1134.0924,-2598.985,-434.8084,9743.9150390625
402,-4478.4834,-4076.7302,-4415.0117,-12710.747,3124.698,4665.289,24071.044921875
403,5711.5723,-3738.6367,1761.0493,318.72995,-1898.6344,1443.2152,9216.7041015625
404,-9938.338,8485.082,16826.16,1721.8453,3426.131,-1910.8905,24854.1953125
405,1224.9775,-1554.5808,3413.5828,86.46834,-215.11786,-3209.7888,7047.60791015625
406,1284.8103,-2939.2227,9096.999,5030.916,4509.7515,-4524.5347,17613.34375
407,-29850.727,-50937.414,-27177.383,-5256.7812,9281.179,14368.253,38325.30859375
408,4117.2266,5594.5635,-1179.7043,-4944.6685,2564.7263,1586.0271,11776.86328125
409,-1221290.4,-1234672.0,-1220432.5,2074.8909,14694.904,-3210.3313,29714.279296875
410,-4529.588,4919.945,-1752.1548,-1770.4678,2789.2983,-5585.3213,14039.017578125
411,5376.809,-3762.5618,-5172.53,-1317.6089,667.2064,259.85916,10254.2041015625
412,-9185.159,-2955.65,21087.658,-1673.8608,1305.2231,-3359.1738,28531.27734375
413,29957.246,30066.049,37975.414,-7366.207,12322.733,-10531.303,31851.025390625
414,-5521.0894,-357.1538,845.1084,284.8739,-2740.402,-1601.0029,8048.76220703125
415,-3083.9033,-6969.392,6785.1543,3738.619,1512.1005,-2865.724,14975.6376953125
416,-40084.96,-27858.477,-68623.15,2219.4211,1304.5663,931.42914,36542.06640625
417,-664957.7,-654481.75,-644493.6,3173.9841,10771.96,-9785.37,31300.658203125
418,3153.0337,4564.5625,2857.7876,-1652.2097,-1011.09625,2339.2905,5492.677734375
419,9352.942,1909.623,23745.895,5478.247,4190.353,441.28622,22649.203125
420,-42614.344,-50576.117,-81449.375,4271.2637,1074.4054,1083.5479,36387.7734375
421,8569.015,11509.998,5957.3896,6264.107,-3406.3237,-6626.658,17533.24609375
422,1659.9885,4576.426,3145.8186,803.7427,-1812.5256,1337.1455,4851.55615234375
423,6467.5547,1401.0605,4870.2144,-3593.5608,1126.1642,372.0113,7942.85205078125
424,-7105.902,4365.121,-8239.269,-9162.283,1339.6804,-1188.0845,20182.44140625
425,-3631.922,5748.7803,-599.89453,3750.2434,-1203.494,-4633.756,13405.2783203125
426,-2732.4194,-4800.6455,-14907.212,-5113.81,-711.4821,2196.489,14891.8896484375
427,-109645.41,-99593.83,-140046.61,3557.8035,936.62604,3879.7349,37637.8828125
428,6379.9014,-3636.3625,-2819.4575,3107.2324,-1912.2389,2455.5542,12281.466796875
429,3547.2937,2993.8562,-4936.892,859.6476,-1481.769,655.8395,8813.9951171875
430,10094.32,-1844.8694,-25612.037,-7778.815,806.4514,-7299.6133,36531.04296875
431,1676.6157,-3495.149,-7030.0493,430.75012,-386.23746,1689.0961,8190.705078125
432,-775.1238,-5192.2573,-7151.2075,-9925.782,-2469.5344,-936.3984,18667.921875
433,55539.047,70818.516,80081.11,15213.825,9016.491,-3296.9275,37837.37890625
434,563.2886,-1249.6805,4931.399,3172.145,1694.3534,-2590.742,9445.7578125
435,-141.42635,-1117.1577,1011.08154,129.47855,-429.55267,-12.18371,2002.28625488281
436,722.30444,-6102.6323,-4338.8896,9186.214,-404.6301,1441.4177,17249.259765625
437,29970.55,46959.363,71374.445,3545.9998,-1438.837,-743.5773,36675.484375
438,2651.8442,-6245.442,-7878.7725,-2559.6267,2671.7688,-1934.69,12192.65625
439,-2037.9381,-3843.6885,-706.71814,-1040.89,463.89896,-923.33765,3726.97631835938
440,219712.78,189735.36,229384.66,-1214.4207,7936.133,-1803.7772,38539.078125
441,3688.7483,446.75864,-5141.63,-1642.5809,195.61353,-3633.977,10377.111328125
442,7714.5234,2962.3193,-4532.7856,-232.76762,-1250.8062,2765.5828,11923.9150390625
443,6750.949,-6162.1895,-2122.0156,-4838.6523,-1549.023,-527.7261,14462.7939453125
444,4855.929,239.53711,-2343.997,4489.371,-1529.21,1354.2876,10625.1318359375
445,22538.258,2040.9512,39131.242,-2149.2866,474.63586,51.31905,32405.55859375
446,1862.9949,3058.623,1269.7651,-6165.3403,-3112.7896,1392.3102,12304.8349609375
447,-8.096436,-1214.794,-5755.846,-1440.6036,1535.0688,5385.077,11307.052734375
448,1646.8612,793.28723,7.674988,3215.1904,353.84436,3065.085,7847.83740234375
449,9949.119,11313.412,-5782.0723,2660.4937,-3292.4004,3927.0486,19256.509765625
450,47577.664,31818.236,22873.143,6287.1562,5236.9795,2582.3523,26271.892578125
451,4956.2534,-1742.11,-4814.3154,7076.3936,1512.366,-385.42697,15245.28515625
452,3813.656,2497.9282,4617.828,691.3188,3528.441,314.92435,6520.4970703125
453,1607.0869,1728.5809,5894.097,1843.8862,-681.90796,-662.3348,5548.25927734375
454,-3400.866,-1851.2756,-6203.9185,-2092.1482,-81.99943,-824.08276,5458.08349609375
455,1162.4271,-3090.5952,-2832.4814,-203.5577,2438.088,190.76346,5926.49560546875
456,11151.439,-11297.332,-9713.58,-1267.598,2230.694,-2302.4915,22506.78125
457,5665.1265,2564.2117,2434.0251,-3898.9907,-1502.4154,-552.6982,7958.07080078125
458,-1325.2098,5046.0474,1745.4462,-2451.767,2104.8743,-2024.5839,8606.9560546875
459,-3448.151,242.47937,773.95764,-2113.5977,45.74927,483.90332,5474.97607421875
460,-15039.15,-15726.283,-46290.207,3027.701,-112.564644,-1417.9755,31451.517578125
461,19548.152,15119.547,51501.316,7947.6973,3704.891,102.88554,37587.67578125
462,-124.63559,-2989.7166,2627.2327,1408.3291,-3230.2188,-1388.3295,8167.0849609375
463,9100.084,4338.982,11359.016,440.07208,1886.1976,-520.31067,7112.8232421875
464,-1882.4299,-2250.7979,-775.48444,3869.9622,-2511.6328,-2201.5461,8953.4306640625
465,-440.59302,2527.0972,1459.7937,-3557.6982,1590.5645,1065.6536,7466.39697265625
466,-12223.111,-17908.607,-38446.703,-1295.5342,424.5862,-1310.1925,24117.076171875
467,92086.51,58041.562,92611.53,-7598.002,-7216.9404,152.23648,38816.484375
468,-3542.642,-10632.396,-5517.2686,-571.7447,1626.4114,232.23392,7017.283203125
469,40009.66,78520.51,70623.17,5504.517,3546.7078,7935.233,39482.40625
470,-2443.6404,-2576.5664,-2076.4758,-471.20166,2128.1367,1641.3322,4747.2294921875
471,675.45764,3795.2983,-1480.7083,-5.8038597,92.745476,1306.1674,5123.814453125
472,911.823,-278.79608,2392.336,207.7158,143.76505,451.8941,2485.21362304688
473,2230.3867,2914.3882,825.39624,1764.9265,344.6855,1193.6527,4168.76611328125
474,-2895.2915,-2390.0503,-3225.491,-645.31854,-1214.1455,-1050.4921,3084.39428710938
475,3953.4941,-1491.5814,2473.551,-633.25183,-1091.721,-133.8363,5349.1123046875
476,-3017.2256,-5098.5503,1631.8975,4110.655,-416.4611,-1790.7242,9821.1728515625
477,612.7665,5901.4697,-1410.5715,2853.3362,-532.2803,-1632.59,8719.845703125
478,3987.158,2406.1416,3855.5916,802.5744,447.49445,-120.71006,2210.375
479,-2731.3145,-2746.45,-1342.8933,1923.4181,-278.8558,-186.6667,3658.60400390625
480,-18124.914,-219.58203,-30212.283,-673.31775,515.38135,1511.5483,26308.650390625
481,-73648.15,-61024.445,-102460.195,-1096.9496,473.36465,4044.041,37504.01953125
482,-495.5149,-3465.0881,-1479.7758,-504.16687,-2284.3184,-64.01584,4826.33154296875
483,-210.3653,-1904.8821,4343.4136,-1591.483,212.31425,-373.71143,6283.10546875
484,-2195.3035,589.04596,1765.0881,1642.3335,1738.809,486.6135,5502.97314453125
485,-2749.9863,2386.6992,-3014.2288,2042.1835,109.70771,1751.5521,7040.1806640625
486,6256.324,724.98096,-7139.739,-829.3238,-705.1516,-890.4082,11911.572265625
487,3367.2183,2241.317,4875.7085,937.2379,-1463.2611,1448.4087,4538.0517578125
488,1421.9294,-410.8376,-308.8791,3905.76,920.9249,-1914.3947,7904.8388671875
489,3480.997,-826.4801,800.3827,1945.6326,-650.22455,-1404.9325,5721.8623046875
490,-2685.0002,-1557.736,-861.3371,2247.2627,-1127.4753,-1631.6682,5430.64599609375
491,-3693.9138,-5540.262,-9419.275,-637.6382,-1462.8717,3621.2559,8520.4443359375
492,9558.164,2602.8213,16873.541,6305.854,4558.752,-2191.8542,18676.80859375
493,5285.534,9383.945,9363.912,1684.2893,4499.5767,78.65141,9272.6953125
494,123.87134,2268.9155,5238.4014,-155.15944,-1347.2311,979.951,5309.14013671875
495,4433.915,-309.4008,-2661.433,875.193,-653.76086,-1881.3597,7306.58447265625
496,-1238.4915,-893.28546,5195.4834,-3472.9443,-2930.224,358.74954,10080.8203125
497,4437.345,419.62256,5550.6577,365.29544,-712.4484,678.8857,5016.0009765625
498,-4900.1787,-1563.8715,-389.5747,2791.1594,-70.66415,-398.92493,6347.5859375
499,-5545.0483,-395.76538,-4128.48,1475.0133,-462.97943,-1454.1847,5894.189453125
500,-5392.2534,-7831.2246,-5446.003,792.717,-4629.999,-3981.1765,10934.6025390625
501,-2126.268,5846.047,2254.7795,2567.1616,-252.61697,-147.85728,8237.25
502,3294.55,1196.9216,3822.3098,-1048.5947,105.24817,2011.7035,4610.6787109375
503,-9944.038,-3900.9258,10321.813,-5447.6367,-1815.9808,-4577.5493,22057.6640625
504,1290.6074,18701.94,26781.385,-13668.738,-6344.4688,-711.5421,34523.68359375
505,1135.6909,2414.4744,3981.7173,94.592804,-496.20407,1218.326,3363.65209960938
506,44.3927,-664.71,-3191.2683,565.8076,1314.4037,-1275.1299,4438.37451171875
507,4410.8696,-365.94025,-1052.7146,-9.785744,266.71106,-240.95338,5192.1123046875
508,-2526.4822,-451.46326,-3189.42,-378.16162,924.59106,-1864.4575,4420.75
509,366.97394,2025.9963,1228.521,-515.17847,-497.57642,-2617.2231,4914.6552734375
510,2199.2656,5926.642,4566.091,3084.639,738.5622,-1124.2113,6681.77490234375
511,-167.96268,2522.4573,-1304.8243,664.1578,-296.43735,-220.07324,3649.888671875
512,-44063.008,-73670.77,-84993.125,-2753.9807,-1561.8147,-3893.7566,37624.4609375
513,-5349.4814,-7708.2954,-7397.834,-2394.012,3386.9312,1824.1323,8155.87109375
514,112.024414,3612.376,3341.8528,-1639.971,-326.97733,1531.919,5177.67333984375
515,-3675.4558,-5834.3516,-10473.284,2465.7485,2551.2842,3297.0967,10323.513671875
516,12147.407,6760.2705,31184.133,-3635.7542,-334.2465,733.778,23142.5625
517,-1362.3718,294.8075,353.38544,-1417.7505,-174.55315,-4040.6843,7612.46337890625
518,2004.9678,6735.059,900.2053,-938.1881,480.24127,-884.969,5873.83056640625
519,-198.76808,860.4894,-1743.6866,-556.7721,1454.2324,987.9425,3917.61645507813
520,-1336.346,-1825.4031,2194.3325,-1381.0703,318.62964,1929.6865,5623.99169921875
521,-3200.8835,-3623.873,-448.33472,501.5405,1165.0369,-357.0562,3758.82592773438
522,33.809082,-2254.4868,-1063.1586,-4043.2466,1207.4205,-442.6313,7611.4609375
523,-948.63153,-1321.27,-3015.2812,1174.5629,-1391.4883,-243.31151,3710.10791015625
524,9857.869,9154.734,23632.945,2539.147,3768.0693,1086.9044,16291.525390625
525,1902.4955,-461.2334,1294.3687,-756.86743,133.14272,1889.213,4122.94677734375
526,-3328.456,-3842.3948,-3133.2703,2900.5964,-967.89087,-993.6754,5604.9560546875
527,2539.1436,-4002.8447,-5056.293,1145.6497,621.00574,1694.046,8031.36767578125
528,-4591.8774,-5633.378,-2515.5679,502.30606,-792.1248,1278.77,3886.3017578125
529,-4485.1,-3309.048,-1148.4604,-153.64043,123.08934,-1533.8977,3970.76782226563
530,1649.6572,2803.5447,1319.1272,-303.13336,190.21098,-556.74164,1770.93041992188
531,-1108.1936,2422.0796,-2523.2625,939.2775,331.28632,1585.2441,5475.0166015625
532,6823.54,5268.841,3959.6777,-393.47037,1021.6296,1707.1354,4301.73486328125
533,3424.4714,6754.6562,7022.611,819.5718,256.6681,3520.9285,7173.40966796875
534,722.35065,-1323.7898,867.2069,466.8404,581.9723,-422.09528,2590.0693359375
535,1392.9744,1054.54,-1341.3511,-1003.5897,192.1995,-963.5443,3547.29956054688
536,-5078.5825,-1977.1117,-1821.1783,1425.0083,-1832.204,-2559.6174,6778.2626953125
537,-4024.064,280.7999,4103.689,1060.3926,2087.1228,-922.3791,8282.345703125
538,26986.406,10181.121,50633.05,411.08792,3353.9514,-1910.4164,35835.359375
539,299.23315,-2815.5703,-4028.2026,-501.47806,948.2366,186.74721,4301.873046875
540,-3363.8389,-2655.0073,-1892.6033,-3585.6606,354.35196,1788.4264,7082.8740234375
541,3981.6387,382.90723,642.5028,-866.9522,-1294.6849,-136.81079,4407.22607421875
542,634.05383,-483.67175,-727.1791,573.4792,2723.9373,270.15652,5004.5849609375
543,-158.19604,-6882.2656,299.48535,-2066.0837,-382.64636,457.60883,7897.69873046875
544,7992.379,-2608.0518,2772.6912,2252.172,768.62695,553.4069,10108.9716796875
545,2624.2253,1813.555,2258.8726,78.65533,619.49255,-1503.3617,2905.96826171875
546,-183.97656,-1996.5149,-1889.9058,315.97702,153.57959,-681.75146,2206.36962890625
547,-18068.121,-7442.8506,-39708.547,-1705.0521,-1809.1456,887.20905,28845.13671875
548,-2895.6152,-4756.151,-366.06934,-1763.2518,-545.1202,-877.91394,5205.5107421875
549,118.418945,1229.3853,13799.462,1469.5255,1313.571,665.46185,13645.125
550,-2041.5833,-646.68146,1912.6658,128.45914,-1594.1703,1903.2117,5532.298828125
551,-3396.623,-4480.858,-1259.4856,-2271.8901,-1361.397,-3928.5989,8683.6865234375
552,-331.96936,-376.57016,375.55826,1316.3969,473.58978,1090.5154,3158.06518554688
553,666.5286,2237.172,201.58032,259.98306,588.9774,-606.4009,2399.99755859375
554,-3043.2678,-4492.893,1921.3392,-1361.2513,-2576.8042,917.2244,7870.72021484375
555,-2889.9604,-3517.9473,-744.4497,-403.30862,37.72291,-1195.3595,3335.24096679688
556,3426.9307,1805.4443,34456.59,7407.0396,-187.80893,2566.055,34644.41796875
557,3649.1216,4742.34,7872.707,733.25433,-168.05472,-978.13983,4357.119140625
558,857.28656,1405.8599,880.6449,391.1401,-1626.6405,-132.70647,2956.06958007813
559,3284.416,1906.1958,1016.2914,537.7103,-52.11684,-651.9484,2463.44506835938
560,208.0058,-35.72345,-1402.9094,1163.7494,935.93384,1849.9663,4384.03955078125
561,3624.8577,583.583,1659.9807,821.9226,-185.29396,587.2917,3209.16943359375
562,707.78516,-731.7655,-435.31018,176.76317,1151.0643,372.00092,2493.42456054688
563,-831.00244,-1099.414,-1397.4025,128.52338,179.43106,-1598.5863,2837.8515625
564,742.4474,-1219.4603,-5250.3335,1086.7373,589.81354,-2147.5178,6813.76220703125
565,1235.3302,1394.8643,1078.893,699.1624,-1056.0753,-3310.3164,6145.06591796875
566,215.63992,2871.236,-1625.3167,-812.1354,-365.14117,770.29767,4414.62353515625
567,-3756.9492,-3700.2793,-21194.62,-9472.327,-2248.1685,2950.88,24809.767578125
568,-8201.133,-1493.2688,-2356.2793,-556.59674,-247.54143,-2572.191,7804.677734375
569,29612.887,26777.336,63233.625,-5645.2944,-1902.8715,916.59595,36643.12890625
570,-40948.523,-46569.68,-78230.2,-7680.9727,-1848.1001,240.9911,37408.12109375
571,-1339.7871,-3458.3606,5305.018,-953.40063,-892.67126,-1544.8024,8660.025390625
572,60.47406,-1165.1266,-957.4109,-3198.7473,841.0548,6464.7295,12628.8134765625
