Element Label,S11,S22,S33,S12,S13,S23,Mises
1,26277.86,32851.883,28009.564,15510.484,371.84406,-2135.2256,27760.583984375
2,-33744.41,-44783.55,-51399.316,-9552.851,8511.775,-11483.062,33546.49609375
3,19624.562,31000.938,49376.637,12514.359,-5210.88,9809.954,38937.51171875
4,-9042.467,10844.777,-14748.531,11646.052,-2785.2483,-931.06976,31213.8515625
5,-16443.252,-15844.089,-33992.1,-4512.8687,-10669.511,9985.283,31946.30859375
6,-16492.965,-23714.63,-17956.734,9388.157,1514.9023,-5256.3594,19947.66796875
7,42389.594,52451.926,68792.67,13478.584,10914.363,5022.968,38868.671875
8,-100234.97,-121865.89,-99699.17,10837.868,-1949.6426,-13094.95,36850.890625
9,22765.31,33874.523,31217.617,2451.9678,-1386.6229,-1106.7653,11333.005859375
10,33993.99,34690.93,34231.766,-921.8142,-414.0892,-433.49713,2000.98522949219
11,30855.36,-1406.873,33425.91,3468.3167,6331.7886,-7140.03,37943.29296875
12,-56217.64,-76745.836,-99511.29,4346.612,-5070.2065,4874.766,40150.921875
13,87851.03,74798.4,95226.29,-819.0872,-653.73694,-14793.774,31319.232421875
14,584.20026,2233.6345,1602.9988,751.18195,-266.95013,-79.979034,2000.9853515625
15,-33956.19,-32485.377,-32094.512,-586.8714,128.91632,-99.78866,2000.98645019531
16,-3316.5327,13909.2,-1572.384,-1665.5739,-1261.1792,16109.978,32579.31640625
17,-11737.961,-14387.205,4804.5435,3623.212,6017.2935,17903.828,37870.1171875
18,267680.47,266716.38,265655.84,59.62972,449.1,-322.26172,2000.98779296875
19,-55675.484,-48368.242,-44819.74,-4419.9434,-2312.104,-234.18388,12912.2861328125
20,-22617.873,8535.307,-14463.218,-12274.134,8137.86,841.08496,37891.09765625
21,25966.361,-13044.555,10684.708,2735.7349,1392.0613,1621.5859,34574.328125
22,6567.9155,-2599.5273,4967.135,-619.8177,-7787.2837,-5954.251,19009.646484375
23,-1734.2681,13743.711,14865.679,1183.6613,-2420.3037,1560.8903,16949.2890625
24,-543.45026,-1321.7721,19336.023,-17211.098,-1376.4525,1331.5618,36206.9140625
25,-15718.097,2876.313,21582.557,-8615.843,2325.9624,-4088.2852,36504.4921875
26,-7043.375,-24971.729,-33120.062,-12680.6,-5289.554,3633.204,33761.5
27,23577.803,42799.156,45077.477,-2944.0332,13662.254,8199.752,34729.30859375
28,11265.337,13834.989,20408.488,-251.76028,7615.437,3619.5823,16738.71484375
29,-6800.885,-39118.812,-4578.059,-3143.6143,9497.693,-2104.029,37878.39453125
30,-5428.0737,22609.102,23457.713,-6769.875,6796.4814,5972.378,34549.5859375
31,-11714.412,-9043.226,16445.389,-942.76556,15434.984,3036.4421,38339.69140625
32,-16467.12,-5161.401,9097.393,-9471.793,8179.663,2831.2957,31404.654296875
33,11179.2295,-15575.28,20992.408,-376.2983,4327.4326,739.5874,33658.5
34,-10281.804,7723.039,10473.36,-8900.101,-2698.3237,-13913.084,34949.359375
35,-16378.853,3785.212,-5066.678,20128.246,-3955.5652,662.3421,39625.1171875
36,-19328.717,11397.366,-11312.527,-10439.535,9701.591,-996.27704,37072.0546875
37,-25209.918,-37528.348,-19636.076,-8807.303,1101.7411,-5424.9985,24002.322265625
38,-7360.6514,12776.705,31891.125,7721.0566,5963.3623,-1503.9728,38053.94921875
39,12486.113,-27509.371,6981.629,4880.6504,-421.53497,-5682.4814,39732.23828125
40,-13964.672,16918.262,-2349.094,-13821.892,-417.13303,9403.262,39609.015625
41,-2669.9712,-7559.8203,-18304.203,-8587.449,-802.75055,-5980.5776,22855.169921875
42,-1025.457,9862.057,9050.923,5364.9565,-5031.0537,11529.606,25912.21484375
43,-32377.6,-4595.3975,-27622.04,9779.601,-12527.86,-2616.636,37955.8984375
44,203481.17,203488.14,204929.5,91.46211,-608.1266,-510.48615,2000.98669433594
45,213149.84,212241.98,212145.16,844.7886,-546.9433,-119.999626,2000.78356933594
46,6909.7085,5356.504,6702.1743,-345.0694,-110.17129,699.5806,1998.76037597656
47,-667303.94,-667659.25,-667451.25,-52.44832,-474.91336,-1035.6517,1999.55236816406
48,-62.642227,2083.9448,892.1582,-276.42963,-128.3333,-291.7628,2000.98547363281
49,62853.625,62361.75,61580.406,-911.5341,214.79277,-212.80464,2000.92761230469
50,-107.80049,1336.944,1128.0004,-696.4899,-255.12369,418.05493,2000.9853515625
51,-19552.057,-5814.2646,-17950.125,10556.206,3212.2065,9233.632,28112.65234375
52,8906.396,-9995.581,6983.317,-2965.799,-4180.172,2935.367,20719.3515625
53,6088.893,26908.096,3609.006,1042.8535,3080.9666,-4669.1807,24256.169921875
54,22336.568,37013.03,34578.59,-11288.9375,-3352.8354,7662.585,27888.826171875
55,42366.402,5816.207,30531.074,-5166.3613,3736.968,-2761.386,34471.04296875
56,13214.852,42368.91,14314.024,-806.87024,-1020.08093,1513.2833,28828.23046875
57,1854.948,-20913.604,-9007.303,-7078.9707,-2226.2043,-10419.033,29663.94921875
58,-8299.705,-5876.308,-29368.75,3311.726,9212.529,6959.3887,30555.689453125
59,21894.172,11217.877,-880.75854,-12260.73,4884.8906,6809.751,32422.369140625
60,19427.99,11648.228,43688.086,-1980.3083,7732.0425,11128.569,37422.828125
61,13698.713,33678.0,17550.602,-9536.279,7221.587,-2322.7302,27973.416015625
62,-28512.521,-33328.57,-28230.29,16028.5,-2575.4902,455.6195,28563.857421875
63,-7389.839,-523.34717,9584.765,-3197.2673,312.25687,6865.914,19776.55859375
64,12592.269,3706.2268,34809.96,7312.085,-3406.847,1323.2804,31152.65234375
65,5938.366,-10197.072,4074.4275,7863.781,254.36145,-1779.2157,20711.33203125
66,939.58856,3599.8816,1718.9342,-7044.6265,7999.6494,-1280.1381,18745.42578125
67,14283.024,-10526.784,-3285.7976,11777.286,8394.471,-628.0583,33421.6875
68,-155.89471,16337.575,11640.581,2979.929,-15295.095,-4613.3735,31763.751953125
69,-797.23224,12259.607,-7309.989,-12239.299,-2956.9492,-6550.0874,30037.908203125
70,14194.954,-16989.55,2578.621,-9499.857,9321.449,-6214.7856,37315.4609375
71,2448.6309,4145.2295,33082.246,1994.3008,-7881.0386,6580.478,34892.63671875
72,19241.395,-16410.908,-132.12724,-5477.241,11573.186,2512.6294,38294.4609375
73,6901.645,5603.8203,27227.387,-9373.246,-7147.546,-7499.379,32043.046875
74,-1507.529,-14726.669,2444.1555,-2531.0107,-10909.772,2616.3945,25286.822265625
75,15679.601,-1630.2305,12771.473,10463.555,520.0256,-3042.0188,24794.740234375
76,-294384.94,-301976.47,-297556.66,135.52354,-869.0378,4419.9116,10224.5087890625
77,15847.349,9709.265,17314.334,2322.4573,-5813.073,-1339.2496,13106.115234375
78,94595.375,93584.63,94835.54,-124.09348,-228.6294,-908.97754,2000.9384765625
79,197583.56,197193.03,197096.95,-736.1967,517.04663,677.4051,2000.96691894531
80,282421.12,283301.84,282628.44,620.1721,-555.337,655.03625,2000.57873535156
81,304201.5,303452.56,304847.1,-484.46548,781.4041,47.17919,2000.94555664063
82,347363.7,346720.22,346891.62,698.94995,10.651408,-857.297,2000.98608398438
83,59489.47,59415.836,58549.23,443.96573,-11.454525,-929.51556,2000.98608398438
84,-2528.4902,-12171.241,-28550.975,-3789.5303,9478.384,-139.53462,28842.38671875
85,-10641.192,-6336.015,23656.053,4121.039,-9648.87,-4339.1416,37867.07421875
86,14650.189,8774.908,41859.293,4835.857,2770.8271,2180.8118,32282.693359375
87,-10248.13,-22989.457,13240.862,5315.3667,10230.89,5142.3193,38619.40234375
88,-7273.643,1711.8593,-2620.1492,9651.449,5992.2285,3560.4934,22040.49609375
89,22758.451,20659.81,44477.875,3684.976,-2233.1687,-16452.225,37275.25
90,-19422.855,-14353.092,4269.1934,6187.5312,10311.537,8878.725,33722.95703125
91,-4566.029,-15134.82,703.82043,8967.732,95.159004,18599.047,38395.67578125
92,-12264.242,-8642.154,5738.172,8909.386,9962.194,16359.959,40134.92578125
93,10717.86,-26776.727,-1007.7922,9533.773,5312.543,1552.8619,38317.98828125
94,9215.571,-19013.645,-27820.268,8244.682,-7721.976,-1804.2089,38931.0390625
95,-13125.393,-29329.053,-8886.298,2364.9785,2100.6726,11417.084,27754.00390625
96,-96.293304,-23408.402,-3486.0112,-407.99652,2779.8306,-12823.51,31510.826171875
97,-5158.4136,-29547.955,-17401.123,-15056.421,-2050.6963,8353.997,36717.9921875
98,-7700.1855,-6488.2188,18125.836,6466.2036,15205.008,-2685.7046,38442.20703125
99,10991.441,-30082.836,-3724.0012,4045.6416,4645.0986,2875.282,37918.97265625
100,106455.07,105515.445,106515.85,366.18127,924.28595,177.99847,2000.98254394531
101,8774.913,28830.31,2414.944,2157.973,1439.0941,-10775.598,30638.927734375
102,6521.386,18095.984,-5463.133,9769.523,-10211.408,-5885.2124,33457.0234375
103,-11341.797,-141.98369,11230.765,7940.2095,-10828.968,-8163.6533,33511.55078125
104,-9180.267,3997.546,10779.305,-8328.785,6939.35,-10774.301,31778.013671875
105,-3347.761,2792.7495,-6929.1387,15489.272,-13800.795,-4262.7817,37658.6796875
106,-24167.693,-11216.716,10239.794,4963.57,12818.227,-2199.6416,38566.0390625
107,-12015.23,190.09555,-3467.0527,8621.525,18857.773,-2025.308,37680.9296875
108,-22986.643,1081.9586,-5346.47,1853.2924,-7528.8965,14108.244,35261.64453125
109,-798.39386,-1370.7166,35689.797,782.72253,2993.304,-3954.7888,37792.02734375
110,8582.243,-22165.066,-4110.747,13250.168,980.40265,3303.3833,35756.88671875
111,6796.999,-25869.87,14248.648,3664.7397,-6785.399,2748.1755,39587.203125
112,-4168.64,-34404.074,-14750.011,5291.289,1696.224,-26.371899,28263.783203125
113,17369.828,2256.6968,6254.325,-19613.932,4188.438,-5793.8755,38618.984375
114,-6235.8105,1440.1,-617.7894,-6860.63,-13755.423,9451.893,32003.326171875
115,19170.156,-6942.239,3635.0498,-13138.609,-4100.527,-6415.5947,34775.41796875
116,147040.11,145365.61,145901.9,-615.6092,-1994.0686,214.82047,3924.00708007813
117,31409.334,31069.527,29908.832,794.0899,94.201065,-275.9727,2000.9833984375
118,67660.016,67419.94,66279.63,414.56366,264.40402,-740.9229,2000.97790527344
119,99424.84,99817.75,97882.99,141.52034,240.51915,-459.28693,2000.98742675781
120,218416.39,220381.06,219446.39,150.74649,304.55267,-503.4074,2000.9775390625
121,-6247.759,7337.2046,3413.5442,20014.959,-1606.4717,-6592.077,38555.77734375
122,-7074.508,21549.043,15362.482,5356.395,10520.228,1569.6268,33256.421875
123,-12671.928,30415.564,6528.9097,3771.535,4054.4246,2241.351,38793.65625
124,-22689.758,16213.727,-3958.7998,-6859.4565,-8128.696,1350.2065,38477.046875
125,-10084.415,11379.724,4596.2886,10534.63,4187.039,-5952.345,29205.20703125
126,-39590.652,-18730.371,-16920.24,2653.8564,-5459.5703,-11359.774,31206.90234375
127,4734.5894,34008.617,16344.948,221.40923,1599.6144,-8626.068,29714.267578125
128,10389.185,-1633.4614,33644.215,-382.06955,3767.4585,10302.801,36419.6328125
129,-7426.584,-19017.318,-20440.303,-5631.6045,14896.818,-9251.064,34212.578125
130,-9092.393,7579.2666,31801.047,7172.0444,3156.452,-4934.721,39060.40234375
131,9223.245,8524.82,41189.875,7462.9453,5357.665,-7858.1235,38511.4296875
132,-14921.556,-26670.129,-25210.781,-714.32135,-1550.9713,21729.389,39347.93359375
133,-13090.843,-11521.953,-20561.04,3002.3796,1974.2941,-3324.6106,11911.365234375
134,-8715.429,-9061.258,16833.703,4298.3867,7322.5376,-13628.867,37884.5390625
135,-18344.371,1079.3069,15035.549,12564.681,4983.761,6754.744,39091.48828125
136,-11079.058,-14297.072,-41571.3,14427.019,-1153.2197,-4066.2595,38987.40625
137,-180507.69,-181268.62,-181337.27,391.95633,-964.1935,-191.00774,1998.82897949219
138,174837.1,175350.98,173681.05,764.31696,129.47955,-39.279785,2000.5185546875
139,5608.184,-233.63173,33596.57,-2760.065,3299.7932,7596.7954,34779.78125
140,273030.7,271244.22,272905.3,-158.46112,545.31384,131.981,2000.72473144531
141,-299495.2,-298973.75,-299645.1,-947.6808,379.19998,389.06052,1988.04296875
142,-405457.72,-405679.66,-407208.38,314.0965,-508.91443,-261.48917,2000.8994140625
143,76517.766,77790.72,75928.4,-334.1909,348.62985,442.06134,2000.98327636719
144,9503.304,-5091.8726,1059.3329,1267.0806,-6637.5737,4428.3574,18891.75
145,-66381.34,-49700.465,-55747.902,8560.662,-11757.622,-8416.334,32573.46484375
146,14388.228,-286.43604,-5129.91,-17200.713,2615.9216,1203.1805,34962.078125
147,1289.3914,11486.693,36787.055,-4103.305,-6129.972,-5686.749,35529.5234375
148,-8342.222,-27259.768,137.33034,4583.9873,-6238.561,8426.78,31353.123046875
149,-3855.5825,-28283.836,13956.649,-2727.8162,-4394.62,6544.5537,39470.1328125
150,-21419.62,-29590.207,1757.98,-10978.339,-1312.5624,-11217.177,39211.6015625
151,5399.4136,-21123.945,-22989.994,7204.1733,7914.1724,361.76175,33173.1796875
152,28518.748,30593.47,29556.686,63.893684,-494.007,101.79741,2000.95471191406
153,-275.99478,611.94495,228.00658,-814.0193,-478.65125,494.5698,2000.98291015625
154,-7031.116,-30344.568,10440.779,3126.6082,-1967.1875,1717.8322,36137.2890625
155,-20857.178,-13115.697,-27545.957,-8089.562,14498.88,-2716.4114,31710.62109375
156,-4992.923,-21961.47,-15705.531,-3095.1145,16092.656,2479.6384,32326.767578125
157,-2718.3162,5978.069,10307.695,10898.16,-12910.196,6812.9814,33579.81640625
158,-2620.4197,5779.777,-10700.715,-3802.9033,4627.734,14928.743,31304.419921875
159,-18455.936,21419.338,-2454.2236,-4560.236,4203.765,1601.6749,36484.48828125
160,468.22647,3531.6643,18609.4,-4850.101,-1961.1886,11730.175,27889.294921875
161,8541.054,8617.767,27372.13,15441.9375,5460.2275,8609.313,37152.84765625
162,-28491.31,-27949.703,-5567.496,-1213.0222,-289.80493,4533.595,24077.076171875
163,-1082.8118,17005.297,2572.5254,5971.7817,18436.303,-2793.9277,37742.8046875
164,-729.75366,31854.367,19824.19,3586.2024,13793.3,4238.7993,38440.9609375
165,-23348.73,-6210.0825,-15947.479,-6893.1626,8015.433,6152.3086,25894.123046875
166,5655.9453,-21728.725,-1964.5215,-4455.5347,15734.144,6274.9272,38983.03515625
167,-2848.651,-5960.8896,14991.21,8287.065,-3123.3472,-9450.861,29777.796875
168,-8720.332,-33183.25,-8420.022,3592.781,9520.627,12517.053,37236.43359375
169,-4444.0054,-31075.807,-10753.425,-2571.1428,-17302.473,4894.4805,39634.04296875
170,-8549.15,-39216.83,-13338.549,11988.001,-5805.128,3617.3645,37256.625
171,3715.7634,1789.0776,25811.027,-10667.732,-9380.157,5201.4316,34942.9765625
172,32327.74,45759.996,17228.525,-9168.643,4872.8325,121.60516,30572.833984375
173,-18073.516,1662.8762,-6361.2173,8514.139,-7137.3125,5629.9546,27584.943359375
174,41778.96,30677.283,18048.271,-11134.018,1278.3163,-6090.3984,30183.150390625
175,-59893.785,-60629.523,-60004.74,899.135,-596.2189,-115.70607,2000.97839355469
176,-12014.276,-11009.238,-10518.825,23127.812,-85.436066,1381.0798,40151.89453125
177,-11435.562,-4147.5327,-19925.545,2039.8793,8126.6055,-2514.78,20412.037109375
178,46276.684,67443.05,54193.633,-1842.8505,2824.792,1272.2528,19547.443359375
179,48373.734,49703.086,48921.086,-224.12662,-163.72736,-900.5934,2000.86730957031
180,-2582.5352,-32324.55,-30770.03,567.71185,-14574.533,1411.988,38535.2890625
181,-11680.789,-18428.78,4277.9844,-10845.759,11227.115,-10722.458,38520.859375
182,-8853.532,7227.6875,-9622.279,-19331.328,4207.769,1394.7866,38100.02734375
183,6206.1714,-15962.052,-13222.49,9500.476,8920.03,3734.7852,31456.76171875
184,19584.812,11389.088,15390.062,-3284.6294,4583.838,2899.5593,13077.087890625
185,48899.45,50159.492,49086.895,377.9575,-739.4218,-427.38486,2000.85424804688
186,-33269.24,-7398.547,-13486.9375,13394.852,-478.11862,6541.561,34873.75
187,-11817.432,2499.052,21501.15,12123.358,5690.7227,-7351.951,39221.40625
188,-22185.32,-22282.111,1839.6848,-630.27216,-455.7207,-1420.5476,24236.423828125
189,-12004.504,-42952.88,-46720.1,-7291.5933,2515.6096,541.0751,35608.26171875
190,6565.184,-10467.067,9939.176,8930.445,-1042.4352,-6590.9775,27051.609375
191,-16081.031,-31835.373,-31548.785,-8480.776,-7135.524,-5114.2437,26282.13671875
192,-1879.1615,-30314.797,-37305.297,-331.84036,-5995.8945,1067.2012,34173.54296875
193,1041.5911,-21249.066,-37407.805,1679.4514,10616.4,-821.54297,38298.53125
194,1157.3418,1514.9272,751.15674,-116.52373,180.6936,-1068.8247,2000.9853515625
195,-1924.4503,-7047.4062,-23704.617,-15411.341,3793.0205,3234.2502,34294.48828125
196,9281.884,-29403.068,-10061.684,-8845.093,81.06715,47.17553,36839.2109375
197,-11041.37,-17000.422,-9637.959,3441.7322,-1411.5902,-9248.372,18546.005859375
198,1145.9233,1555.0255,-23466.49,-11249.318,4612.0586,11664.416,38309.76171875
199,-8639.222,-14935.498,-49494.156,-29.341944,446.1195,-3673.4897,38634.4140625
200,5818.908,8668.534,12612.049,-7513.766,578.961,-1928.5037,14711.9755859375
201,-7878.9204,-24226.469,-30844.334,7027.607,4199.3164,-3477.8484,25623.72265625
202,-4018.4377,-25981.725,-28196.121,387.60342,2016.4385,-12410.296,31790.25
203,-395.9453,6421.369,33273.645,-5710.093,-377.04816,-8593.174,35641.98046875
204,6577.5957,-33364.312,-101.40823,3922.019,3019.252,-5401.2607,39168.96875
205,-18988.28,-215.65738,21677.809,2384.383,5643.9907,-271.0343,36818.109375
206,-5555.269,-10952.497,-11149.147,-3316.5645,-5564.7256,-686.12225,12551.482421875
207,-9543.222,3843.5493,14769.774,3157.4812,8387.356,-2824.7336,26641.03125
208,-8658.583,3729.888,12814.16,-6943.291,-1368.8619,-8247.573,26511.4140625
209,-15710.522,3702.4211,-22956.086,6107.0083,-3882.768,9030.376,31173.31640625
210,7130.256,6114.606,-10771.7295,4411.7886,6750.2764,-785.53845,22366.76171875
211,-22687.758,-5453.6636,4156.6587,9933.576,-5529.6606,5131.069,31964.671875
212,-5526.0015,-459.19424,163.06985,-283.6316,5122.011,-1284.7738,10635.361328125
213,-13471.562,-7872.8853,858.17065,5157.1265,-8601.564,-2509.1582,21842.505859375
214,-13263.396,10223.735,1279.1014,8127.837,-12140.227,-12915.526,39526.4609375
215,-284.59186,11147.822,32167.715,5322.9365,-1555.9226,-9788.627,34533.453125
216,-7672.7534,1785.8729,21965.244,-5867.279,-9050.24,-6350.4785,34022.38671875
217,15525.465,-5765.7695,20975.254,7778.121,11706.813,10310.459,38866.59375
218,-16163.973,-17836.936,-21771.035,17584.766,-8569.809,5917.6797,35747.8828125
219,-7399.0317,-15707.795,19845.057,9307.714,-1246.4851,2403.2466,36325.3203125
220,-10625.638,18328.678,-1369.2834,-9982.559,-12117.604,3732.1113,37911.3515625
221,-751.4711,12941.661,-12127.454,7347.4824,4710.647,9619.005,31285.626953125
222,36709.23,-2919.3115,7766.922,-3511.4028,-8585.086,-1902.9904,39116.51953125
223,-19128.469,9609.142,16756.293,9600.602,-2391.1174,-7422.4307,39258.9921875
224,-11192.521,9428.224,10837.28,9354.09,6212.8267,11909.93,35497.75
225,13367.916,6970.856,31106.02,-118.81129,3428.9473,-14439.284,33612.921875
226,27804.209,8251.255,39455.047,4328.245,-2518.1775,-14966.717,38640.6640625
227,13627.484,-15431.19,-19341.264,-13345.128,-2682.8967,3043.0037,39458.4296875
228,-2884.4043,29563.246,28884.965,-3518.4658,7402.0625,-2243.0117,35325.69921875
229,2608.9182,3648.9343,9574.692,-3691.5764,8326.401,3442.1794,18076.919921875
230,-7440.3853,-20212.93,6298.3105,139.55379,9198.7295,6720.634,30278.322265625
231,13200.052,1507.5536,26977.686,-1387.4703,7997.222,-10627.264,32001.41796875
232,-941.2638,-9635.513,18210.47,-14192.072,-3777.1814,-9342.558,38958.76171875
233,19983.229,-16875.174,-1797.4131,4613.278,-3126.4192,11478.221,38968.67578125
234,10678.253,-13005.906,15385.496,11549.268,9515.146,482.62216,36973.6953125
235,7729.8647,-15081.323,-7557.6265,15875.337,4628.559,-2207.1936,35217.84765625
236,-24704.426,4290.9775,-12802.499,-10868.742,-13467.679,2362.6204,39402.51171875
237,4748.881,-13274.511,23001.203,2550.7158,-6532.892,-11521.511,39150.3359375
238,-11070.473,4672.1855,-9383.614,753.15265,-3992.6504,13251.922,28292.876953125
239,16251.531,-6961.9116,11691.576,-2635.0803,-11449.26,-2993.6304,29912.837890625
240,13175.495,-12144.676,14136.444,8086.1636,11894.672,1363.8914,35952.109375
241,-19605.508,-12078.831,19747.045,2613.6853,-6362.0796,-524.67163,38102.8671875
242,11573.16,7339.9434,10435.986,-6312.4224,-1796.9854,2084.706,12516.583984375
243,1434.1646,-8291.011,32017.424,-4872.783,5337.7153,1864.1509,38658.41796875
244,11501.12,-10804.711,-28214.773,3974.327,4580.9175,8183.587,38733.1875
245,-16358.261,-3863.7122,-40054.69,-7737.593,2011.6917,-9994.664,38796.1640625
246,-24059.648,-8293.492,-31841.695,17986.738,-4523.4688,1827.5653,38390.08203125
247,-32021.092,-35740.082,-67588.64,5830.398,6004.84,-1601.6768,36938.55859375
248,-12782.626,-22266.217,-7402.5645,-17163.525,-1011.64496,-10292.151,37074.53515625
249,-11736.258,18180.69,-10674.799,7132.7095,1187.2422,9527.6045,35966.31640625
250,306.4597,-21618.938,-21363.1,16074.087,6711.245,1411.5496,37301.578125
251,-18820.256,-21819.855,-28121.775,-11893.609,3269.8467,-12793.47,31860.369140625
252,-18023.393,7980.743,11956.436,-3811.668,10590.746,8024.038,36995.125
253,527114.6,538350.06,546360.7,10186.179,-7006.395,-5329.1094,28708.0078125
254,27512.77,10295.456,29785.41,3509.259,2487.4204,2243.7988,20281.517578125
255,507047.38,504041.3,501931.9,-177.24098,2195.3035,11485.187,20739.04296875
256,128570.29,130066.61,129380.68,-923.4029,1388.2506,2578.267,5474.05029296875
257,-241.76527,533.2304,1933.2224,-277.92065,-124.940285,162.19789,2000.76428222656
258,37402.445,36736.523,35371.28,412.14154,303.8501,-1.4078099,2000.76123046875
259,164070.28,165407.42,165515.69,-535.59607,591.2892,212.63489,1997.38122558594
260,180722.5,181084.28,181614.97,-463.74768,-458.7862,-841.05646,2000.81872558594
261,176392.05,177023.03,177854.12,-191.16463,-133.47232,860.57825,1999.53149414063
262,113355.484,114814.55,115428.27,-175.03209,390.70712,-107.69042,1996.408203125
263,-97036.24,-95868.445,-96102.26,177.25322,646.438,709.5401,2000.90380859375
264,164120.64,164268.39,166131.4,18.59646,-175.21602,-163.63431,1985.29235839844
265,-1099877100.0,-1099876600.0,-1099875200.0,585.53656,-37.867916,-91.77319,2007.94030761719
266,56173.414,54596.098,56726.273,101.32177,-303.45255,80.83273,1998.06530761719
267,17246.2,18199.783,16037.754,-122.06278,-18.188747,377.35468,1998.72375488281
268,193388.75,192914.8,191510.03,170.02554,-446.88913,389.13263,2000.97961425781
269,36361.66,34661.957,35000.89,-290.15018,655.9012,-104.864525,2000.9873046875
270,65809.266,67371.51,67688.914,-225.5187,-639.141,-458.91266,2246.57397460938
271,7116.8574,10535.402,10299.388,-3280.8083,-2487.778,-1101.0547,8088.91357421875
272,-212757.94,-188714.45,-184917.73,-5174.9214,-6071.356,-798.59937,29607.892578125
273,-32248.482,3893.5042,-30748.531,478.41818,-2202.6396,-8598.449,38617.65625
274,35016.477,53284.3,61037.75,-7867.5024,-2371.7056,-2321.2183,27462.701171875
275,-11075.219,24151.664,-2556.1094,-7995.938,1817.5698,-8976.161,38168.53125
276,-475.71313,-12039.797,-10895.0205,-13007.094,-819.96234,-15891.908,37269.6796875
277,1538.4661,-17546.611,-31546.947,-9432.83,-766.52386,-12054.949,39142.17578125
278,-6411.861,-48674.78,-29523.08,2174.9202,-7667.847,-1420.2255,39244.93359375
279,-24347.992,-27406.432,-7302.241,4036.5134,3663.4204,17988.049,37575.21875
280,-21560.463,-6092.667,157.88106,-12429.363,1108.8372,-1280.3843,29104.607421875
281,25330.205,-2056.7908,35954.14,5802.9683,8201.765,-745.6958,38188.6328125
282,16320.856,-8607.051,13952.857,-10496.454,-7285.622,-4671.3413,33514.33203125
283,-2343.0647,4160.3794,-20895.3,9348.06,14145.342,6061.295,38467.9375
284,8839.722,3493.5906,-990.2133,5707.7793,466.96072,6246.8613,16974.00390625
285,-40768.023,-8615.156,-27963.703,-9793.195,-3109.1736,-10862.029,38167.18359375
286,-43611.152,-44011.223,-40897.242,-594.12036,-431.62222,-15966.964,27839.912109375
287,-18740.16,-58492.04,-48597.664,2142.5278,-187.26321,2535.6846,36303.6640625
288,17690.594,-1460.3999,-20198.8,4635.195,4989.806,5302.976,36059.13671875
289,7811.061,-17029.969,23122.41,-8169.922,-1182.1082,-1386.1157,37974.50390625
290,34591.78,35251.18,36148.047,-108.73329,1052.1772,37.3854,2278.47802734375
291,873.3457,-17008.139,-19134.295,-4586.731,2151.5605,18269.941,37956.0390625
292,-22716.385,9062.971,-16241.768,4325.8423,-1283.3226,-1103.0968,30179.77734375
293,-1356.0372,2402.564,-9817.999,1767.9032,-7696.326,6744.7446,21002.107421875
294,19670.406,7355.2773,-3207.6846,-6768.4487,-12581.777,3438.538,32266.583984375
295,14181.245,-2106.2703,-27127.15,4090.6755,6810.231,-2145.2256,38755.64453125
296,17436.504,-17512.434,19379.973,-3076.7407,-2055.7593,-1679.9976,36642.4921875
297,-26675.09,-229.46205,-3552.8044,1434.5516,-60.17453,6918.218,27790.24609375
298,-11659.608,12875.658,-14200.468,2020.3467,-125.54845,2989.5818,26643.599609375
299,5002.131,14595.548,3026.5613,13759.193,12937.275,-2688.1436,34736.62109375
300,-7291.133,-359.43018,-11542.803,-5234.8823,6674.8457,-1452.4573,17826.890625
301,-102.87165,-7938.1953,-36678.25,7278.6743,2651.871,-6061.6387,37454.4453125
302,-10585.215,-18532.234,-1999.0236,-15704.098,466.8273,-249.06139,30753.99609375
303,4940.6284,-21570.434,-297.24832,-1159.7019,2897.4446,2997.7344,25447.779296875
304,-26684.26,-32709.14,-16967.355,-10595.381,5552.5015,1172.8586,24953.248046875
305,-6437.142,-9677.882,-16439.537,10558.228,8421.554,6795.7944,27638.375
306,-616.4532,4823.0547,-13810.022,5466.37,9918.327,-15126.445,36696.26953125
307,-14299.025,1496.9523,4638.2153,5660.255,-11069.057,8611.269,31545.982421875
308,-1463.5823,7273.224,16596.504,12757.374,13437.365,1016.8428,35745.671875
309,-6605.2803,-3639.8423,10451.427,7910.2847,-354.81006,196.37784,20913.048828125
310,-32278.947,6359.7246,-23324.979,1300.5875,-301.43304,-9111.418,38490.93359375
311,-6153.27,26733.852,-14188.607,-513.9835,2977.4614,-5006.4434,38896.91796875
312,5264.2217,8776.818,41465.64,-7612.6943,-1208.831,2153.2654,37254.16796875
313,11770.285,-9383.027,-1733.3611,-1249.6917,19719.477,-3382.1099,39366.71875
314,-4608.2397,-19059.76,-9758.163,1224.149,3614.6196,-1055.7635,14421.5068359375
315,21503.135,23404.826,22267.775,-69.84256,-632.6623,-111.095535,1999.86010742188
316,17916.535,19889.832,37594.72,-2992.909,-1253.5814,2819.6653,20192.3828125
317,58998.504,59947.164,59990.984,-499.52667,872.2962,-98.67254,2000.984375
318,61177.695,62224.71,60396.836,-322.0153,-20.051485,-623.99176,2000.98474121094
319,-22327.97,-1067.825,10033.584,-9599.218,-4975.4316,-1234.2017,34154.38671875
320,-20981.7,-19147.281,7288.336,10452.923,-11268.704,-1368.4927,38276.1171875
321,46243.9,46265.156,46825.062,-64.92481,-259.75568,1074.403,2000.98449707031
322,37994.312,4501.855,44666.68,2315.8335,2436.6992,6277.169,39266.390625
323,-13280.438,-11714.774,7234.9346,1492.3827,-9193.383,3306.4922,26158.111328125
324,-17664.857,-2367.6055,-12155.989,-3458.1343,-3082.1274,4991.294,17866.076171875
325,15446.915,6124.67,-22862.943,-4261.6094,4854.5635,9201.936,39706.7578125
326,23872.625,-11912.768,14343.685,-2831.4683,242.1006,-1070.9629,32527.935546875
327,250.74684,-7235.6274,8812.401,2013.1538,-9510.987,2923.2546,22419.0703125
328,7946.1084,-19246.123,-16309.26,3676.6223,-12864.583,-1522.62,34816.41796875
329,9580.715,14376.712,-11879.479,-13558.094,-3990.8418,-4774.447,35413.2265625
330,-12931.017,-7981.1514,8395.211,-3975.103,-5301.8955,10632.365,29062.404296875
331,-5936.1787,11878.059,2559.3928,3119.617,-9119.662,-8866.857,27436.177734375
332,-21998.834,3862.561,-2918.9314,11075.563,9575.925,7573.397,36804.75390625
333,7918.136,11463.159,28188.328,16044.66,-6110.513,-4521.905,36017.23046875
334,-10887.823,-23260.197,-11573.231,-5668.1846,570.41174,-7254.914,20008.189453125
335,-10521.736,3984.3508,-38056.727,3182.6423,857.6811,1038.7126,37468.1015625
336,10439.769,14153.004,40187.273,-11393.452,-7911.5444,-1798.3358,37083.078125
337,848.1309,-26112.492,-19921.32,-11280.197,9019.664,-704.9576,35008.1484375
338,7019.853,8376.433,8912.25,385.75266,-286.90207,-387.55243,1999.55798339844
339,36232.805,34252.78,35628.883,259.7152,-455.82126,172.05664,2000.97985839844
340,85891.28,86318.83,86275.86,-78.87332,223.05025,1106.006,2000.98388671875
341,-223050.34,-218903.38,-218348.67,739.24603,3582.1362,2598.172,8954.966796875
342,30169.75,43567.85,47939.656,16383.12,-7100.583,-8349.83,37720.41015625
343,18247.08,-13631.186,-6844.1772,-7911.1807,-2515.4587,-1929.7427,32616.619140625
344,2428.6575,4205.0854,27621.63,10725.568,8205.3125,1772.459,33905.8671875
345,17089.084,-3982.5364,25537.35,9715.7,12572.638,-5803.9,39393.640625
346,-35064.31,-32435.094,-18689.914,-9470.119,-6675.918,7205.9673,28116.05859375
347,-17904.6,-36853.527,3067.9624,-7146.358,3565.087,684.3625,37270.14453125
348,-14824.822,-9232.111,9838.75,-8740.361,4076.493,1861.5948,28125.890625
349,7281.861,11875.149,1609.9175,-6982.3667,1771.3401,-4629.873,17300.36328125
350,-1037.099,12356.036,-13754.676,-12644.423,-7998.2173,-3815.3406,35023.8515625
351,60307.293,83088.05,91115.445,-661.2511,1107.9635,2412.4736,28084.27734375
352,-27945.172,7821.2305,2608.794,-33.393593,-9724.291,-7708.408,39773.390625
353,394.88153,-19343.502,24896.422,601.20264,1783.5552,1319.991,38592.80859375
354,6840.826,-8711.818,-23491.21,-7724.8857,-7396.052,-581.88043,32160.78125
355,-40759.64,-9606.918,-34136.402,-11738.105,-10680.614,943.7247,39576.1953125
356,32025.445,13332.915,-6531.582,-90.91474,-8822.15,5205.81,37817.2421875
357,10333.022,-1469.1511,-22195.922,9317.992,4349.419,5223.145,34822.1484375
358,-1912.1271,5183.301,-3666.4087,-4291.0527,868.52856,-276.98,11117.6689453125
359,-16468.557,-13077.413,-11356.802,4047.2136,-489.9749,-992.171,8550.34765625
360,63137.63,63268.504,62126.38,7.909541,793.57996,560.4615,2000.98693847656
361,-17713.22,-14012.011,18195.008,7208.635,2397.032,-1463.7771,36739.00390625
362,-190047.77,-191100.48,-194980.2,210.91388,-1828.038,-991.29474,5775.05908203125
363,-93866.65,-64459.65,-81504.805,4.1371965,-347.52206,-2255.6597,25878.33984375
364,-55648.945,-76632.83,-42240.156,-12140.252,1294.9557,6052.8438,38191.4375
365,-73099.65,-85246.75,-51275.445,13724.703,1346.6403,1515.6354,38293.37890625
366,3258.6763,-2789.4148,11409.688,5440.444,2934.4824,-2197.1104,16775.791015625
367,14937.058,-11509.055,29588.291,-2272.306,2175.0085,-3246.968,36916.58203125
368,5702.37,27559.766,14843.25,-10690.027,-2500.2388,4490.855,27992.724609375
369,1071.5312,-33051.65,4852.7666,-6076.0015,-861.44574,2454.4807,37931.12109375
370,10657.484,47343.332,23025.072,10399.585,2176.9336,1438.3395,37282.3125
371,-2715.6262,-3578.8052,-1640.5321,-194.05788,1422.6941,-916.0873,3395.83618164063
372,-1163.504,-2298.3406,2321.7048,349.45584,-282.25485,481.1744,4323.14990234375
373,-9311.196,-4886.9814,-3925.4016,-2221.8499,-904.1225,2011.918,7359.22216796875
374,143862.88,150791.94,133128.9,9732.615,-1994.4347,2641.3337,23550.81640625
375,-16568.291,-4435.604,16350.956,15989.249,-129.09727,-93.05287,39981.546875
376,-10036.052,-15793.756,22762.635,-3292.402,-974.80566,-2053.3594,36684.73046875
377,-28504.922,-31509.027,-49863.953,10107.108,2371.6006,-1528.114,27044.552734375
378,2553.9492,2803.9268,1200.2006,-199.1948,735.3336,98.70739,2000.9853515625
379,-99749.664,-88484.4,-72633.28,-1203.8844,-2102.665,-7258.892,27063.208984375
380,-9042.881,-24956.795,-19998.473,-17684.7,-3642.6213,-9283.6045,37888.5078125
381,-29130.367,10888.99,4654.0137,-6368.8804,2342.7876,3210.0054,39496.4609375
382,78002.555,43408.953,39027.61,-6001.4214,1850.7936,1063.1019,38590.125
383,55981.6,74521.95,33962.094,-9579.575,-2563.0105,-1065.6654,39182.54296875
384,7998.0156,15585.342,10138.21,1592.0247,348.96045,1112.0602,7588.71435546875
385,21815.375,-2882.9111,16069.871,797.87524,352.31818,2965.0203,23016.697265625
386,12179.663,14475.222,28331.41,-3137.9402,624.26294,1374.6027,16292.6044921875
387,44992.543,15799.825,24542.686,989.53156,-511.3814,3885.7236,26878.302734375
388,14464.982,32012.516,54263.18,620.2326,-1944.3606,1616.5236,34839.44921875
389,-21593.15,6835.5967,-22881.178,-13129.647,964.3843,-211.5676,36966.97265625
390,9824.036,7705.574,16267.601,311.2305,2553.766,1848.2532,9474.2666015625
391,-9274.913,7287.913,-12656.55,15778.149,-2106.4019,-4656.4165,34161.08203125
392,5956.6675,1278.3325,-21648.346,-1527.6086,-3033.0762,1104.1097,26325.55078125
393,40878.66,31775.6,63637.082,-9910.279,6791.9233,4459.0254,36064.70703125
394,-33511.273,-20148.8,-40365.402,-1042.4841,744.05383,1583.7936,18154.04296875
395,89589.83,52261.71,71631.78,-4187.487,-300.32083,-1692.6653,33271.7734375
396,-10543.948,-17367.445,-3349.9346,-1767.4194,-1824.6251,-1380.4799,13133.107421875
397,51457.38,48804.977,27194.883,-8655.647,3896.2874,-280.229,28317.65234375
398,6400.924,-13006.545,24000.852,1531.0374,1099.1385,727.15906,32252.443359375
399,34066.094,35211.047,33623.953,-209.89578,662.78,-424.77832,2000.98645019531
400,281718.1,267681.5,298717.78,-7532.47,-4509.4736,4586.167,31921.03125
401,76528.586,57566.42,79582.36,8498.155,4373.3975,14150.585,36076.9765625
402,-46643.816,-28356.412,-11129.603,-6678.163,1378.3187,302.84103,32954.41796875
403,-37629.184,-62945.863,-43785.363,-17944.803,-467.7462,-3369.6995,39035.2109375
404,45730.062,72434.695,62356.875,-2931.3901,3321.8306,9729.252,29806.59765625
405,17020.432,11917.94,46235.617,7468.671,-774.4928,-6459.608,36372.44921875
406,-128755.04,-89922.84,-129243.914,2888.7095,1382.4404,3375.1653,39901.19140625
407,-42173.945,-5069.131,-39171.094,4527.455,-98.31562,3134.913,36950.91015625
408,12264.628,-6112.708,16289.348,-2788.2544,1268.8389,-3333.5918,22121.93359375
409,13630.738,28653.533,45676.05,7639.532,3375.9343,589.28906,31328.83984375
410,38916.215,30833.586,47578.0,6458.653,-4558.857,-4080.2905,21161.376953125
411,-38457.465,-29959.266,-1386.1611,-11869.986,-122.875694,82.262054,39423.55859375
412,87905.2,88728.13,87714.1,196.5589,264.0231,-967.45844,2000.98840332031
413,158811.72,166376.05,127445.664,2489.031,1004.2017,160.01546,36055.5078125
414,60000.08,59997.23,58153.742,55.18741,63.27074,-392.315,1971.44274902344
415,-25540.47,-29850.508,-32614.809,4707.9644,1466.6276,-2920.6948,11690.64453125
416,5994.759,-5458.757,20365.03,8295.027,-5841.755,-5539.4736,30052.220703125
417,40396.53,39515.914,38303.504,-446.08762,-131.227,-118.6133,2000.98608398438
418,-24178.78,-36179.32,-63887.094,3808.432,-3857.4321,-2926.747,36852.29296875
419,39087.81,24291.963,64361.85,-5503.863,-4759.4746,2874.9702,37620.1640625
420,-76843.64,-88761.94,-76983.61,-17011.701,-1305.2976,-1173.0553,31903.4609375
421,85202.62,85546.45,84958.65,-228.19693,-187.32771,1077.1587,2000.984375
422,-28098.818,-28300.34,-28648.824,13505.998,6530.8105,-726.17505,26019.3125
423,-38088.027,-36226.777,-75364.555,160.29208,-5724.2363,-3104.427,39870.7265625
424,-91778.02,-117525.95,-81945.37,-2721.4568,-6495.8516,-9676.227,37980.296875
425,-62353.47,-35484.156,-42944.46,7001.9995,-3737.1418,68.05964,27679.583984375
426,7446.8457,-13607.96,-30791.268,34.539207,-337.54608,-4142.8125,33944.015625
427,10877.155,-7623.592,23157.006,-10227.292,-1143.8015,-1066.7527,32270.57421875
428,-51783.54,-75435.54,-34873.188,-8479.853,2881.2073,-2838.7373,38860.5703125
429,13271.377,4946.35,-1490.6841,3747.5522,-4020.5242,-2547.4,16565.748046875
430,46990.082,35642.918,39820.426,-5708.025,6013.9795,4642.5786,19227.998046875
431,-98618.914,-91604.23,-119109.29,5445.4434,872.56604,-901.42096,26579.6015625
432,-11152.98,-9943.535,-24350.389,279.34204,1482.4022,5559.148,17062.67578125
433,-12376.562,-27203.16,-9450.185,-3614.877,-4766.1206,-1773.9965,19712.201171875
434,-248942.97,-233169.83,-245437.89,-13492.992,-9747.038,-2361.2236,32460.96875
435,101897.26,57313.5,89901.59,-985.86914,-1777.4615,-156.97679,40115.625
436,-15925.186,104.07617,-36540.18,6208.7095,249.69458,6198.158,35262.4609375
437,-93606.55,-87391.195,-97653.58,1554.2286,4642.6133,-263.34564,12340.1494140625
438,28189.484,33585.008,-3755.2207,6676.9,-1491.1918,2622.245,37188.39453125
439,2956.252,6339.9673,7327.393,330.40887,-612.54645,-1383.0277,4791.3623046875
440,-11012.406,-18149.2,-45971.24,-8363.922,-1650.6434,-1492.3934,35331.0234375
441,26520.451,1933.2368,-1496.2703,-5890.1045,6114.223,1180.9395,30348.46875
442,-11075.586,580.5947,-6563.35,3614.1384,-2906.9346,-3004.3867,13973.0888671875
443,-15396.175,-16210.869,-25923.246,157.93004,1996.6774,1666.171,11102.701171875
444,-12616.358,-12181.01,-13714.464,434.61328,-118.13191,712.271,2000.98571777344
445,39309.44,10784.611,35068.652,13922.559,3967.964,-5886.021,37991.6484375
446,-12546.561,-11543.104,-32860.004,-10160.489,-2159.969,-374.00967,27534.509765625
447,26310.518,17562.076,20802.373,-2734.7825,6616.6875,315.58102,14586.4580078125
448,5252.531,-6205.3257,5945.838,4138.334,2770.245,-1651.9453,14909.5244140625
449,97732.1,94185.17,85213.336,15796.967,805.0091,5916.001,31312.470703125
450,-12112.687,-8862.783,-30553.717,-2870.8562,182.96188,-2156.1418,21197.587890625
451,1411.2725,18460.217,7900.858,-4897.7046,4906.44,2060.9194,19469.5859375
452,-55619.688,-30827.893,-13706.834,-1642.3629,-2607.2478,1977.3329,37046.4609375
453,33529.434,32894.953,59210.484,7125.7144,1327.1826,-620.9667,28896.046875
454,36754.18,55203.297,70483.46,13012.185,5915.95,1739.9314,38441.99609375
455,12242.275,37511.168,49279.258,998.2383,1229.7358,-3274.995,33377.75390625
456,-243900.81,-251834.78,-215774.34,-2331.0369,3013.816,1517.4833,33580.640625
457,-10828.59,-23410.572,11842.937,-2537.2495,672.47205,-2848.3242,31663.31640625
458,-23911.156,-36350.273,-35206.406,759.7768,-1517.9198,-1468.2684,12526.8837890625
459,-95552.82,-65867.734,-100797.13,-9312.678,5861.309,871.62427,37814.109375
460,-9881.8125,-1825.7688,-902.04443,1057.8577,-1016.69525,-1616.7241,9353.8369140625
461,751.74756,5902.3564,4075.3481,-2252.6633,930.3466,407.0076,6226.84521484375
462,107510.57,73077.164,98428.76,-12244.89,-6728.2954,-1559.0585,39348.88671875
463,-3985.0571,-13574.19,-15943.048,4838.8516,-1128.1276,-118.42004,13942.0869140625
464,-23588.32,-25570.006,8277.237,-3210.5613,111.54223,-820.81006,33398.65234375
465,17249.049,28590.717,-13852.601,-5016.2905,1584.0079,-2726.0964,39420.83203125
466,-163426.81,-175436.89,-149492.88,3105.5806,-3045.957,452.9355,23730.30078125
467,30407.453,50427.684,69679.57,-4745.0464,3320.9597,-1678.6299,35580.3046875
468,12967.809,28537.414,12442.322,3483.9521,2177.7278,921.2673,17437.25390625
469,70257.305,49345.582,36021.72,-12438.492,131.9993,1510.1335,36939.03515625
470,-9465.295,25641.91,31848.6,3572.8826,-2695.9456,-2430.2615,39582.2890625
471,-135293.6,-97433.47,-129987.42,3894.0889,2851.7927,1474.5804,36565.90234375
472,-55105.664,-52656.85,-52463.43,-2214.0737,-560.57434,3654.4175,7888.0380859375
473,-7580.9717,-8703.414,-41201.676,2271.2737,-4849.9834,4126.592,35085.66015625
474,23742.898,21870.955,24111.336,769.48145,1389.5292,1249.3188,4071.9384765625
475,-4064.4854,-3506.876,25840.857,1926.9847,-1825.0499,691.55853,30008.865234375
476,2800.7188,-12228.249,-24112.795,7691.055,1054.9836,-2908.688,27420.833984375
477,18588.676,20002.412,40968.293,-859.24817,-1267.431,-1008.8014,21938.41796875
478,4691.836,11202.444,-5997.0366,-1230.1534,-1553.9941,1338.9064,15601.078125
479,10103.141,-33604.64,-9151.548,-3928.4836,658.4076,1220.1235,38621.2265625
480,19435.473,36674.73,32132.469,-11325.799,-3660.1997,-3022.6768,26304.771484375
481,48730.957,38979.17,79488.086,2785.676,749.17377,-1174.1207,37015.328125
482,40333.414,42102.99,40800.625,-2583.3333,-992.02576,-304.1666,5076.77490234375
483,-47956.418,-49232.63,-66956.33,6347.5522,2357.973,319.31165,21822.87109375
484,-22130.121,-9994.702,-48641.01,-2835.5215,2600.7468,-6693.5684,36751.0546875
485,187587.38,218007.97,194223.66,7248.2197,1173.0577,-4193.4453,31337.9375
486,-36884.05,-43899.45,-19719.684,-8597.609,472.85028,4148.002,27171.517578125
487,19065.71,-6001.8086,25668.26,9304.507,666.0213,-536.42255,33157.19140625
488,37943.6,30215.355,42308.742,-7328.2417,2833.9407,568.33276,17282.568359375
489,42157.04,22640.596,17696.309,-6201.9067,-2168.8552,731.5831,25158.31640625
490,-87639.72,-67519.92,-55354.918,16203.213,2416.5781,1522.7534,40120.55859375
491,47551.188,48571.22,67683.89,-896.9107,-110.03897,201.5641,19707.912109375
492,-1591.6104,-11904.383,-15879.006,-8898.46,-2014.1736,-5310.61,22303.95703125
493,-26045.887,-32936.59,-40509.312,7507.421,-739.6746,-418.51675,18117.953125
494,-101656.516,-62583.72,-95370.26,8454.923,-160.85387,2881.624,39497.15234375
495,-10153.103,-21733.305,-40902.84,366.25476,407.4986,1402.5779,27025.201171875
496,-5014.328,11322.931,21182.121,1966.2734,-2444.441,2202.4553,23859.146484375
497,56474.79,74270.61,54507.93,10488.862,230.07631,1142.8704,26261.904296875
498,47672.004,33145.65,47535.848,48.06165,-2575.943,1105.9956,15252.5
499,-44909.625,-52816.414,-83528.21,-5924.3916,2924.4414,-1488.6952,37231.23046875
500,27611.08,5758.708,14608.36,-6844.2944,829.64624,-139.42447,22474.71875
501,7270.9746,7537.3438,14197.65,-408.403,970.4858,-63.249374,7038.65380859375
502,-5434.4365,-8654.429,18008.836,8491.358,740.5037,-613.3325,29232.271484375
503,-54945.94,-37954.08,-51244.766,2329.29,-1146.1637,3488.479,17212.162109375
504,21068.74,-770.1085,39611.086,-10073.158,1787.6295,4407.753,39974.67578125
505,-57354.03,-32630.3,-32504.61,14845.587,332.37497,-1213.5818,35781.42578125
506,-10278.237,-9720.993,-8383.177,-3867.438,-2996.2637,377.9212,8664.7705078125
507,118985.56,82956.44,86795.125,2311.1677,6750.9746,-1207.1616,36491.80859375
508,53298.516,49770.926,36425.523,4695.4766,-3004.2827,-1087.1096,18286.220703125
509,28240.568,63112.926,60502.33,-1336.0312,200.31091,2249.715,33948.75390625
510,6568.2153,12156.328,19659.158,-435.2891,1147.8243,-2327.736,12256.513671875
511,27939.05,34632.082,42645.95,4209.596,-2415.4082,2402.004,15831.2783203125
512,12659.768,13129.758,-9634.951,-1139.9825,-416.04257,-1110.9755,22712.869140625
513,-6235.7393,2463.7776,14708.517,1415.807,-499.95264,933.44885,18480.1484375
514,-72991.47,-111669.46,-106383.33,4937.8076,-755.3851,805.102,37366.76953125
515,-9793.44,-7514.8438,-6698.712,-2982.5317,-2073.754,-555.3002,6944.828125
516,-206587.64,-191096.31,-183526.58,1015.2709,-40.200573,490.1729,20453.98046875
517,-1932.2955,30269.082,37072.086,-359.0795,-6312.6885,-6337.545,39277.296875
518,-3588.5312,-9998.512,-7655.9424,6877.286,6650.396,2762.5342,18139.154296875
519,-59388.973,-69225.484,-31261.852,10163.34,236.38225,-4292.4165,39113.7734375
520,6759.235,8544.201,37353.19,-14270.781,-4405.573,-4064.3123,40041.42578125
521,18985.588,29036.395,13654.848,5764.0835,1123.1002,1233.2649,17059.736328125
522,13983.84,13582.144,19514.31,-4674.4653,-1553.076,961.6583,10417.8408203125
523,17824.254,10401.698,19129.783,-14.285974,-567.1561,124.43899,8215.9091796875
524,-22191.28,-17369.07,-11577.59,-3453.1372,3042.8633,3396.5642,13523.392578125
525,-13028.304,-9675.626,-17394.406,943.0836,-1704.5044,-1625.5564,8015.79443359375
526,-58102.227,-33147.14,-75993.2,-4378.185,2427.5667,-44.828094,38268.8515625
527,12135.2295,28729.322,26587.488,-1910.0624,1094.8511,1347.0485,16260.2060546875
528,82060.59,78883.46,41482.383,-2263.9097,1351.9067,2979.1082,39689.3828125
529,41145.44,29754.242,55075.023,3804.8901,-3119.1826,-856.2856,23606.9140625
530,-58252.473,-57322.055,-81578.49,1834.4457,3156.4277,-2240.1628,24934.142578125
531,81772.24,84475.96,117175.48,-6559.397,-4190.891,-2221.8535,36899.2734375
532,-32670.328,-37165.863,-53058.316,-691.419,1669.5428,-2055.5461,19149.3359375
533,-47522.305,-67097.24,-75749.56,-5237.9614,1637.1259,1755.4629,26963.00390625
534,-21363.47,-16733.531,-38410.527,1198.1619,428.04645,2002.6752,20195.392578125
535,-7832.26,-1243.1343,-16920.959,204.068,1562.813,515.239,13933.9912109375
536,41201.13,54886.38,74642.805,13485.48,-958.5072,2333.762,37585.16015625
537,-22122.709,-21776.03,-51760.684,12319.726,-1199.9043,-1014.55975,36763.28125
538,-17715.11,-14116.754,-14431.237,2527.617,1475.7393,-1932.2869,6986.8876953125
539,50051.93,50897.633,76853.125,3870.6719,-1512.0847,-1362.8042,27454.15625
540,30384.287,45931.17,48897.727,-17316.674,-2048.0918,677.2242,34787.76171875
541,-31763.754,-38220.176,-52927.6,-8256.439,-1417.7529,117.704475,23738.767578125
542,-106322.68,-142421.31,-127596.21,-5304.0303,1877.2458,-3737.4321,33535.125
543,18568.8,20181.164,50582.344,654.553,1708.5962,1283.4595,31477.51953125
544,-33550.77,-29051.777,-32165.44,-5366.5386,1765.4318,1527.7072,10893.970703125
545,15545.979,11198.692,20634.477,132.6378,-1225.3136,-892.2172,8594.06640625
546,18629.984,9100.186,12083.455,-1247.6981,1799.9995,327.52524,9273.568359375
547,21342.135,16420.168,8030.235,-4588.2573,1616.3224,-880.65674,14464.8603515625
548,-3187.5554,13237.45,-2301.228,-12349.247,-1598.3142,-1493.9956,26979.251953125
549,-14578.398,-9126.905,-34523.887,-1872.7213,-1372.1412,-882.44275,23553.759765625
550,-24514.15,-19175.072,-34065.094,2752.4268,-1235.324,1465.719,14299.3056640625
551,25994.963,40432.66,6543.1177,12073.676,503.05194,7114.633,38178.46875
552,15342.158,17787.443,27226.656,-661.66815,316.50885,-1882.3823,11419.4462890625
553,-1355.5627,-4366.1387,2950.2334,-632.9068,-2452.5625,467.12866,7776.111328125
554,121022.17,102737.164,81607.82,-10223.479,-2826.742,1122.661,38838.796875
555,-19129.908,-10182.427,-17762.38,997.61194,-51.45112,-384.91794,8551.5927734375
556,-19088.848,-3829.849,-13089.933,-6691.7856,3183.1016,-2063.053,18835.91015625
557,31645.484,32863.03,36134.316,-7830.488,4.0054936,1966.6027,14550.5634765625
558,45971.188,51801.258,73133.55,-5389.0166,946.5556,4038.0781,27425.45703125
559,-18380.498,-415.05664,-36702.168,377.00986,1670.4799,-773.0023,31594.115234375
560,-5421.755,-12825.703,1319.5991,-172.74115,-313.92465,92.56082,12271.4228515625
561,205129.3,190533.12,187894.97,-15860.928,-1588.4784,-4412.9805,32851.41015625
562,-61119.76,-69094.89,-30575.922,-8370.182,-2776.3364,1371.0045,38458.5859375
563,1523.2976,5694.7017,4030.3936,-1853.5375,878.6651,-1458.7611,5677.58251953125
564,-21175.0,-17416.287,-31533.578,605.3133,-2.995382,298.34204,12717.28125
565,-7634.615,-14365.617,-18483.752,1407.3347,382.591,263.9293,9827.2314453125
566,-1982.4242,-2580.08,5375.678,1312.5697,-1328.1478,116.99092,8330.544921875
567,-13201.076,-13823.2705,-28171.025,-697.4378,-167.55956,-1683.7975,15007.375
568,-110859.125,-72594.04,-71317.57,-3533.5989,358.0542,-3042.452,39753.03125
569,31941.793,9904.947,-12926.829,-311.00995,-163.94704,4773.515,39733.90234375
570,7118.026,12696.636,16032.311,-5592.943,-853.49316,-1475.7854,12783.5146484375
571,-117928.6,-115138.56,-91869.19,14659.275,541.3864,-2764.8086,35814.3203125
572,-5525.999,-19569.188,4947.577,-1280.8458,1201.8317,112.66824,21523.99609375
573,-15496.907,-7268.8374,-1140.5757,8788.54,390.3017,1062.4233,19779.763671875
574,-3138.0205,-2779.6333,-24491.865,1340.7253,1150.5182,937.79553,21812.15625
575,73441.164,68921.234,80380.234,22211.406,3151.8777,354.94345,40126.86328125
576,11556.585,15433.539,42538.73,-1109.4288,1219.4677,-1382.8977,29473.697265625
577,1370.2548,-5661.594,-25946.236,1413.7167,-2270.617,582.34814,25020.640625
