Element Label,S11,S22,S33,S12,S13,S23,Mises
1,178481.14,178990.52,179264.11,158.25096,-698.85547,814.09595,2000.56530761719
2,-64181.42,-68358.31,-53422.945,9322.701,5171.783,3355.2627,23513.439453125
3,16720.928,25755.352,46418.125,13802.199,1153.0325,-143.3171,35648.2734375
4,-14741.135,-32509.078,-40031.965,17649.764,-2848.3262,5756.092,39550.4609375
5,16176.298,23477.523,20879.725,10132.834,-1672.0825,-3951.0647,20108.025390625
6,46533.45,47187.96,46458.81,1313.0109,2824.4802,1137.0363,5785.01708984375
7,-48114.098,-45592.68,-69713.66,4789.1206,12512.516,78.90175,32647.73828125
8,87098.9,72472.51,113520.8,4756.1196,2069.0447,7847.5566,39546.96484375
9,-23607.344,-18452.045,-51544.867,13802.052,3357.8005,2750.4426,39738.11328125
10,14757.229,-17774.617,1525.5312,9070.289,5548.912,2631.6765,34101.41015625
11,74440.79,70885.32,79619.484,5221.9663,-10846.256,-2860.539,22740.966796875
12,12283.944,38416.113,13098.613,3279.414,-5297.2085,-14553.81,37605.1875
13,-30186.121,-45789.1,-41253.85,-1190.0212,-19337.139,3793.2876,36911.359375
14,42647.215,23480.82,30081.912,-10822.089,-1747.1396,1934.2034,25615.224609375
15,9191.802,-5342.799,-13942.134,13155.366,-7648.767,-2764.1855,33582.95703125
16,24642.832,38237.45,27110.865,2335.4468,-3698.4385,-4184.9272,16349.06640625
17,35210.65,25920.01,32863.816,3914.1335,-2493.4028,-743.1533,11674.302734375
18,11123.236,18890.627,12173.197,49.491043,8492.0625,13846.314,29065.328125
19,3380.8547,-10821.173,-923.26416,2809.779,5634.72,5581.3755,19273.96875
20,-1150.8041,-4563.149,-13848.739,-4504.7026,12506.647,-4701.692,26944.30078125
21,6302.0894,-2764.1763,-10218.872,3311.2874,4692.863,8085.7993,22370.943359375
22,105896.86,105469.086,104640.484,295.49973,836.0827,370.4696,1998.70727539063
23,46779.816,52355.633,73972.89,-1174.869,-6047.558,-1822.8699,27253.583984375
24,24628.795,25840.668,33284.37,-4171.4277,-3298.1694,-2795.2546,13197.52734375
25,11383.7,10429.516,11091.671,91.37204,-522.3968,902.42267,2000.98510742188
26,6621.6304,7525.529,7461.4326,2001.4625,2225.4167,2473.714,6782.0341796875
27,66467.68,68272.484,68193.61,-355.30017,-263.2432,314.19095,2000.98486328125
28,54140.836,58915.81,77516.48,-6619.1934,9.566916,-3004.2625,24821.787109375
29,11651.729,33943.05,24694.805,4270.339,-5329.0474,3699.765,23606.056640625
30,-8920.737,15569.65,4805.373,-874.0188,-15636.119,-3057.2644,34868.67578125
31,27044.543,29308.828,58076.492,3561.3965,-3436.76,-3956.1885,31910.5390625
32,28015.744,26413.316,28085.117,51.562885,301.2859,-588.7548,2000.98608398438
33,37794.453,40296.883,40488.14,-2170.3625,-5062.227,4797.464,12916.4306640625
34,3613.8286,3480.9124,3743.6694,1028.2217,202.71982,468.02896,2000.9853515625
35,3665.744,5164.1846,5016.2837,-762.6066,-254.04376,-81.683044,2000.97888183594
36,-47194.816,-46444.51,-48227.332,241.94508,-359.92017,-587.5583,2000.91516113281
37,61168.715,61091.56,61749.31,108.0037,-1053.7422,288.66885,2000.98474121094
38,2340.872,1762.433,2677.132,346.20175,945.20355,327.54675,2000.9560546875
39,11854.502,11400.33,10285.191,-278.7379,659.45496,-412.28842,2000.98559570313
40,-578934.0,-577416.4,-578306.8,-209.81946,-761.2845,-359.84317,2000.97741699219
41,-1192097.4,-1191361.5,-1192260.5,103.82395,-468.93127,918.497,1977.65002441406
42,-394662.3,-395111.44,-395667.62,-195.29768,-473.13425,-883.6608,1972.16027832031
43,3254.4119,4651.781,2945.9246,-254.09923,330.92163,-578.16925,2000.98486328125
44,-1439.5624,-7286.942,-7416.481,10174.0205,11771.469,-12237.7295,34792.046875
45,-4338.191,-3535.1777,11018.0,9043.588,7922.827,-2570.8472,26031.26953125
46,931.00055,17714.195,33110.38,9333.809,-2596.9883,7333.4697,34929.1796875
47,-20799.69,-18369.516,14431.202,842.1742,-5960.002,-2221.7312,35846.97265625
48,7041.355,23449.945,3011.211,-8976.859,-7046.0005,747.00433,27275.947265625
49,62.547146,12758.395,-3102.176,-5621.518,9735.163,-11768.883,31717.869140625
50,11242.259,21533.17,11862.059,-9791.392,6069.065,-14623.699,33757.68359375
51,-5411.994,-8607.722,8444.365,1573.5654,-6948.434,-17887.715,36860.1953125
52,-13442.591,-3711.186,-10833.163,-46.6425,3841.047,-19416.113,35374.28125
53,-15871.493,3617.4873,15848.052,2171.347,-6158.3394,-6211.6304,31803.16015625
54,32068.592,7063.538,17770.04,3182.9836,1403.4237,-15014.517,34420.56640625
55,33163.676,26759.947,23402.598,-1730.9518,-8740.651,-16311.372,33318.87109375
56,16909.85,15165.893,37024.684,-7138.7153,8870.955,-5891.7427,30591.345703125
57,38942.758,34991.816,38623.156,197.25618,-2897.0676,1947.5079,7150.06640625
58,-62334.805,-63212.04,-63873.05,446.71564,691.74164,247.07315,2000.91430664063
59,85890.55,85344.164,85942.86,-172.47006,413.7718,-1011.8022,2000.98571777344
60,-23885.488,-23473.582,-23224.695,-99.88814,1099.4142,54.614662,1999.78625488281
61,18388.744,18664.479,18641.371,77.91928,-750.2887,-861.5366,2000.98522949219
62,7409.6865,6183.554,7152.3716,-505.95648,-675.686,-451.73917,2000.98596191406
63,69236.02,69352.08,69640.06,233.64566,939.50586,-595.0715,2000.98486328125
64,19948.89,19374.703,19958.701,-396.45523,1029.9918,68.71525,2000.94116210938
65,18638.258,17929.426,18383.61,-212.15625,-782.8281,-740.0227,2000.79406738281
66,19861.996,18842.574,19867.656,-859.02325,465.21725,178.77051,2000.98571777344
67,14570.037,14756.94,14027.848,-421.79218,939.66504,-361.04788,2000.98559570313
68,7599.821,3838.532,7000.554,-3419.853,-2422.319,-7441.8604,15201.490234375
69,23047.445,24919.916,23575.734,427.60754,-862.4677,554.39075,2549.15161132813
70,32901.184,33332.867,33355.113,-95.83615,1039.833,-422.64777,2000.91333007813
71,5073.622,6621.103,6339.2993,-555.565,477.0424,345.08533,2000.98522949219
72,11123.719,3411.8948,-2499.3738,1207.146,-10304.592,-14954.183,33672.09765625
73,28343.041,28845.86,29185.906,-145.809,-697.1197,804.7202,2000.96789550781
74,19958.229,20241.16,20365.348,-118.78604,-1097.5089,269.01532,2000.90600585938
75,-12704.916,-12896.566,-18790.346,2532.689,7374.1396,5786.2876,17852.83203125
76,11051.198,9429.678,22461.346,8868.554,15864.548,8427.832,36815.93359375
77,4373.6626,-12622.904,20301.422,-9020.712,8513.128,-1773.0154,35836.63671875
78,15882.963,16565.898,50567.715,2661.2573,8116.1553,-4383.131,38161.62109375
79,-1700234.9,-1700365.4,-1701757.8,74.07538,-771.207,148.0839,2000.99267578125
80,594630.94,594015.7,593564.6,119.73805,1007.54016,136.28139,2000.91149902344
81,-439254.56,-438149.06,-437505.94,149.96979,543.8741,475.3177,1994.83471679688
82,-470633.97,-470744.16,-472469.94,-385.92996,198.26096,-293.55362,2000.97241210938
83,-45062.387,-44379.637,-16086.043,2501.1592,-2831.4988,4330.973,30321.650390625
84,19956.768,3657.588,35680.637,2588.8198,-8745.036,-4312.9976,32779.99609375
85,-37231.95,-35667.26,-28990.242,-7924.5513,-6982.0723,7473.504,23657.58984375
86,5233.6963,-998.8565,2220.9092,-1508.319,-787.05194,14216.804,25380.705078125
87,8393.265,9554.551,9421.772,-7159.096,-3957.604,14838.683,29368.646484375
88,-3708.4377,7372.607,20318.064,-2998.0493,-6338.2627,-3694.5037,24945.0859375
89,4727.6807,12486.679,16951.63,-908.93756,5287.314,5326.096,16918.30078125
90,85620.99,99006.8,98432.13,1682.4227,1913.311,-3210.0422,14906.5322265625
91,32955.496,32233.0,31452.197,618.5766,424.34845,454.60986,2000.97888183594
92,1212.7778,387.7558,1736.3658,-540.0535,284.1215,707.1031,2000.97729492188
93,3849.0684,2375.1912,2571.1948,415.3378,583.2415,425.85913,2000.9853515625
94,48690.434,48648.35,49930.105,-520.07056,452.52902,573.71564,2000.98522949219
95,74607.56,76613.875,76421.984,94.41749,-207.10014,-239.02748,2000.98413085938
96,17225.59,17685.309,16966.502,347.5736,-48.186832,1038.7445,2000.98327636719
97,28591.176,28151.05,37382.32,-335.0642,-2633.1304,8963.104,18533.638671875
98,14919.699,21836.35,31329.963,4333.758,12677.422,-2390.4036,27554.859375
99,3455.9346,22647.047,31693.658,4269.495,-7555.7104,-9491.647,33466.11328125
100,2441.5083,-9749.736,3331.146,5355.6895,-3964.6636,-10931.594,25533.6796875
101,92536.41,90910.4,92234.125,509.8264,92.328674,564.1513,2000.97644042969
102,1636.1902,24996.22,833.6505,7490.911,-9716.429,-4067.3547,32653.955078125
103,24169.543,32642.53,20406.787,3058.8357,-17310.584,815.0605,32355.26171875
104,-65627.68,-43603.785,-66922.09,-1135.8516,-10828.449,-2169.167,29748.744140625
105,12144.95,24189.406,33405.574,-4016.362,-16208.542,6593.063,36165.7265625
106,101197.9,101961.98,101195.79,-733.789,51.953575,-773.53815,2000.98767089844
107,-3697401.8,-3697145.2,-3697747.5,130.34422,-320.3984,1040.74,1970.3740234375
108,-24977.986,-26912.834,-25246.04,223.47081,-378.8383,205.52641,2000.9853515625
109,-885305.94,-884794.9,-883813.1,284.40622,-559.2474,604.50354,2000.98986816406
110,1264.2008,1051.4032,866.60706,-470.51276,-997.22095,281.26617,2000.89575195313
111,19025.871,18730.035,18844.564,-91.14137,585.87744,979.98956,2000.64245605469
112,12629.892,11461.169,11595.7705,10.428489,-852.9865,-440.03287,1997.6708984375
113,28352.504,29598.322,27916.615,-182.81248,618.2997,-396.51343,2000.97827148438
114,5041.0605,4900.5225,5006.222,-12.967395,1021.7389,-533.93335,2000.91931152344
115,38907.746,31156.674,34025.48,5474.4365,-12500.017,2851.678,25082.4375
116,34947.156,43682.164,48499.94,4401.2485,13614.511,-8455.136,31148.681640625
117,-20284.455,13560.423,11231.289,-982.6356,3184.598,4094.0364,33995.2421875
118,14493.745,10478.37,15054.716,8552.921,15519.388,-3515.4937,31587.625
119,9516.703,-6684.635,21561.535,8123.887,-2680.6348,-3109.461,29176.361328125
120,15982.416,14256.894,15858.981,-201.47261,587.2922,150.25067,2000.97729492188
121,36882.113,36823.453,37661.65,-628.58185,-173.34534,-830.98553,2000.98608398438
122,27427.553,27051.354,26545.994,38.87901,-1037.2059,-247.98029,2000.85876464844
123,-207.51274,19892.832,29955.016,-1007.07983,5468.406,2015.991,28503.8671875
124,49831.85,60783.14,80544.33,922.0936,-6865.181,-5598.583,31061.5703125
125,5423.5117,11430.997,7545.082,-4229.0483,4091.5393,-3546.9883,13017.8974609375
126,15852.316,16371.802,-18571.852,7193.898,-4076.6406,1589.3398,37628.015625
127,6717.342,21664.61,18723.47,7907.886,5754.418,-15416.063,34467.640625
128,1546.6453,3498.6824,6120.0215,402.49072,4529.6226,-3904.1045,11115.9052734375
129,41029.23,25145.877,46660.08,-1083.8672,-494.2275,-902.6402,19496.806640625
130,46638.87,49434.066,45648.164,815.794,-732.7083,-515.2216,3995.91552734375
131,1000.8403,2563.868,1963.3414,40.202965,-399.75604,742.66,2000.98559570313
132,40411.92,18904.525,48631.223,-3635.6843,3021.9453,7186.991,30478.03125
133,54734.805,68589.8,77909.56,-2514.959,-10854.9795,-2687.3848,28320.96484375
134,40632.902,42919.07,61780.758,-2361.1665,-9073.847,11782.911,32929.48828125
135,9126.249,18586.277,18016.139,74.542175,-18672.229,1530.6316,33725.734375
136,1659.6938,1862.5063,1627.9393,162.69981,622.03894,951.34125,2000.98559570313
137,8113.128,-6060.696,12398.15,7324.6406,617.9314,7139.086,24392.41796875
138,-744.69867,-9471.861,1257.2258,4917.632,3255.781,-14230.556,28452.029296875
139,25181.234,24856.371,46532.742,-3542.1802,7811.521,-4832.078,27453.166015625
140,14603.166,14468.762,35680.977,-2839.7332,-5959.4375,-6144.5977,26289.35546875
141,3382.3008,2864.6748,3289.498,-622.44446,-902.24884,238.7134,2000.9833984375
142,16783.197,16586.998,16320.631,-1093.2067,-220.20804,-192.7516,2000.98559570313
143,59420.875,58666.37,58764.137,1001.8391,334.3405,225.41882,2000.97644042969
144,-25124.512,-25316.186,-24962.043,-239.34625,1078.6571,287.11414,2000.98547363281
145,40179.562,40084.637,40052.84,174.4309,-959.4848,615.8439,2000.98547363281
146,29216.129,29074.545,29513.16,-20.558014,917.1316,665.5347,2000.94897460938
147,18888.342,19812.148,20050.37,273.2864,890.7142,299.74237,2000.98620605469
148,7527.459,7879.388,8198.929,-45.623615,1058.5123,301.39862,1994.625
149,-8771.874,6803.8145,1511.0739,2414.482,-4122.175,3809.7393,17325.86328125
150,7922.9385,-1187.6683,16102.907,-5195.7646,9207.891,-3451.6716,24403.388671875
151,25798.7,13511.507,11039.482,-9948.716,-169.1629,-12318.477,30654.71484375
152,16845.902,-5857.763,18326.576,-2974.1006,-7285.027,-5932.92,29027.828125
153,68162.5,67577.29,68201.375,-618.9977,-478.6335,774.6966,2000.98522949219
154,978.4937,1640.2979,959.47864,-878.3753,-390.97336,-509.83746,2000.98559570313
155,14205.293,14513.767,13691.283,910.76733,-423.79428,390.94107,2000.93005371094
156,55824.73,56195.086,56600.164,-955.24994,518.8867,-49.76634,2000.98522949219
157,-51824.016,-51125.42,-51076.984,39.780743,915.694,-565.0656,2000.58715820313
158,-246530.61,-246344.19,-245429.8,926.96643,265.23178,238.9276,2000.35705566406
159,49973.344,49655.18,50149.23,864.26917,571.197,445.7712,2000.98559570313
160,59272.418,60726.562,60327.387,-571.9458,140.88358,-650.3276,2000.77648925781
161,-1558.8706,-16612.492,-1538.1984,-11074.399,-12283.356,-3381.717,32890.73828125
162,14774.753,14964.065,13418.044,325.74164,-716.5351,-63.27576,2000.9853515625
163,47230.523,46437.977,45201.254,-36.433765,-368.3223,-389.481,2000.95654296875
164,37264.64,38525.684,38688.76,-387.68497,-757.4232,56.307945,2000.98791503906
165,-94770.88,-93490.69,-95121.15,-297.44604,418.2308,-567.6577,1991.701171875
166,-3103.03,-3587.0413,-9483.559,-11634.432,-3357.2598,2225.2896,22194.740234375
167,8895.768,27945.832,19124.004,3226.063,4431.732,18418.197,37155.16796875
168,113181.19,111958.164,112114.08,97.79218,936.82495,62.878166,2000.72058105469
169,331923.38,332179.88,333267.38,-124.561165,756.65906,-485.56793,1999.71655273438
170,435067.78,435701.78,434912.8,355.42114,-1007.72046,116.122955,1997.53576660156
171,22594.23,30860.664,10019.09,-15570.166,7502.19,-5950.3516,36507.23828125
172,17749.02,34262.723,3862.2573,-13778.716,1187.5009,-3671.8303,36181.52734375
173,-21108.096,-12527.633,-19548.988,4441.94,17845.273,-8056.1323,35664.19921875
174,11280.047,11226.045,12170.979,582.1568,632.93524,559.24316,2000.39660644531
175,56975.547,53398.855,76445.91,-930.144,2493.3823,-6181.865,24442.173828125
176,30583.46,31264.105,30862.908,-28.901928,704.22925,-811.8688,1954.19519042969
177,7319.0586,4467.3667,23222.635,-2089.2168,2897.583,-17565.568,35641.80078125
178,-26225.934,-11888.236,-10138.455,16736.525,2127.7708,-6473.142,34833.03125
179,-17594.28,-9803.357,-11888.661,-4312.89,487.58298,638.69867,10321.8505859375
180,94012.01,90513.07,94138.695,10553.553,-4337.7954,-8854.896,25268.78125
181,-3567.875,28655.9,23220.23,8871.364,-4244.8364,-1977.5243,34563.73046875
182,19959.773,19037.139,19352.912,-89.78094,482.66614,934.74365,2000.98547363281
183,-111483.875,-100501.15,-97404.22,-3107.9595,-7016.0264,-1190.6489,18577.6484375
184,-15500171.0,-15499487.0,-15500667.0,154.0104,559.8254,-803.99316,2000.93041992188
185,-244400370.0,-244401150.0,-244402620.0,36.439915,-101.0972,77.459335,1997.15930175781
186,-62082.26,-59643.656,-52066.754,5714.075,2075.9138,11567.586,24375.001953125
187,6714.777,5965.851,6549.4536,-796.51135,187.28116,-714.38165,2000.98571777344
188,12070.073,-5019.119,7981.808,-6837.5396,-2638.251,2284.8296,20388.416015625
189,27673.576,27637.857,28364.703,275.94733,-158.89465,-1032.1725,2000.98522949219
190,17756.924,31383.21,14548.8,-9738.138,-5379.2046,4322.7554,25827.169921875
191,50539.336,48963.133,49346.65,-53.98526,809.9646,-0.39989954,2000.96813964844
192,54655.746,85739.25,67414.58,-2783.7202,-3570.1323,-5645.7944,29824.36328125
193,-35397.7,-8326.309,-4023.3203,8761.4,-37.83568,-5954.2095,34706.08203125
194,12938.021,-2836.5945,-11485.562,-11539.384,-11614.441,-4965.567,36581.4921875
195,15105.432,15524.107,23390.797,693.90045,1761.1964,3020.0708,10171.8291015625
196,15404.677,14088.974,15598.291,-661.8055,192.46791,430.32993,2000.98547363281
197,-27109.537,-28628.254,-23866.82,-6807.3213,5085.809,879.188,15384.4287109375
198,4724.4746,5608.7666,6098.237,-530.0549,1019.8495,-339.13852,2400.53857421875
199,-56021.26,-56426.305,-64083.773,4102.2266,-1512.6934,5049.953,13991.357421875
200,35382.37,35896.336,36229.473,946.7802,271.72867,426.95996,2000.98291015625
201,25934.984,26060.799,25389.39,213.71475,-815.1505,-705.0498,2000.9658203125
202,56992.414,43100.76,50484.777,8261.761,4656.52,1369.3881,20502.9453125
203,11798.791,11989.837,13479.388,512.75836,374.22726,-291.6648,2000.98449707031
204,9614.809,11343.513,11341.953,-294.66342,479.61258,150.17413,2000.98608398438
205,157622.31,155531.39,156633.9,89.33327,-468.71188,-113.58681,2000.98486328125
206,13682.625,14545.951,15510.421,333.10654,31.92289,-621.77704,2000.98559570313
207,432357.12,430786.34,432829.72,-332.7187,-63.18253,274.85385,2000.9384765625
208,45670.14,46456.527,45500.605,1.7766412,584.25903,-854.1844,1998.36047363281
209,93588.414,92698.12,93990.33,158.23337,-102.51903,928.31635,2000.98571777344
210,205733.81,206203.19,207505.23,38.465126,391.91394,578.60846,1999.09448242188
211,148792.3,149832.72,149721.42,98.76375,-999.07935,-19.316021,2000.98217773438
212,-201851.38,-201193.66,-200567.7,-16.873701,-928.02344,-247.17877,2000.98498535156
213,765721.25,765684.1,767677.3,-1.4415909,-87.6192,-21.987642,1981.07690429688
214,209849.81,209727.23,211186.55,-27.257746,-461.19193,-682.61426,2000.98681640625
215,62627.176,62357.367,62372.22,174.93227,1075.0499,349.4523,1998.58996582031
216,307380.5,306281.12,308101.7,-120.562965,251.68369,645.15125,2000.97302246094
217,7417.312,6457.7334,8156.431,-528.55005,-571.3951,57.847614,2000.98547363281
218,-347172.28,-346434.44,-346777.9,-90.987724,-936.8054,-552.81537,1995.85107421875
219,54358.246,55368.797,53880.99,808.00336,-292.556,-138.17989,2000.98413085938
220,12271.986,12791.656,11453.985,260.4396,-695.25397,-573.30914,2000.98571777344
221,-69860.78,-62154.207,-63400.91,-5814.9785,-700.0933,-4323.7266,14502.8935546875
222,-77267.734,-77887.38,-75254.54,-742.5342,-198.4444,-76.75176,2733.91235351563
223,-53417.855,-27931.846,-38211.805,-8705.345,-6782.7437,-8175.609,32543.919921875
224,8616.767,-5946.2754,25526.332,-1457.1058,-5838.1006,11371.11,35224.94140625
225,21870.76,26615.764,6036.56,502.13348,3575.7073,-14820.175,32348.052734375
226,-435.7365,27862.15,29419.523,13191.622,-981.6537,-397.71695,37049.80859375
227,86281.305,62344.418,84564.664,-12850.054,2795.166,1234.1038,32530.138671875
228,-50462.9,-52762.0,-37145.598,-10655.125,-9906.946,5536.681,30663.6015625
229,33390.375,2873.1233,-2022.5051,-1633.3937,7586.735,-3127.7937,36258.7890625
230,-67206.58,-60315.902,-47104.64,8634.406,6662.9556,5702.9043,27703.185546875
231,845.33746,9761.254,-6796.6865,364.2689,8358.592,10648.137,27498.626953125
232,139191.44,128378.305,147098.8,6045.1904,7864.184,11225.454,30629.318359375
233,2187.7078,3223.167,2175.866,291.89728,-207.18428,910.85284,1989.45336914063
234,38363.09,37361.65,38968.473,99.50069,760.4226,-296.58368,2000.98559570313
235,3023.6987,901.8412,2628.9985,27.953852,-53.76034,-239.69301,2000.98559570313
236,25154.71,26980.99,25189.871,420.24454,148.57852,-208.79703,1999.78796386719
237,21137.086,21181.334,21810.805,401.11023,765.44965,-667.70526,2000.98559570313
238,187775.9,187422.22,187678.0,82.91261,957.7508,-608.0911,1995.45983886719
239,-78479.35,-80412.9,-79756.44,579.8404,166.94824,-61.739925,2000.98522949219
240,52428.695,52551.125,52811.258,1029.2566,337.4119,351.08817,2000.9853515625
241,8597.4795,10045.801,9771.535,591.71674,147.81073,608.92834,2000.9853515625
242,-7127.421,-14195.242,-777.43933,6750.1016,10930.179,-1865.1533,25311.880859375
243,-30308.807,-31344.66,-30230.803,106.24471,490.5342,-834.3319,2000.9853515625
244,12864.664,10248.298,39072.78,-1436.198,-6794.518,-134.48094,30116.765625
245,56174.727,34431.418,47370.594,-11019.836,1519.422,-2520.1772,27370.484375
246,21090.232,4595.5596,21750.744,-9720.319,-13335.279,4736.164,34170.77734375
247,31884.975,42663.85,56847.35,1082.8026,3808.0635,-11322.581,30031.017578125
248,4472.333,10413.861,-16547.164,-7023.589,12938.443,-2301.988,35610.515625
249,4087.7876,2560.5642,-1923.7458,2761.6443,18057.943,5863.4194,33668.63671875
250,20148.928,9203.189,25366.229,-8816.074,16374.61,2775.0,35563.91015625
251,30068.361,5734.543,15513.16,4349.892,15335.343,-3715.088,35404.7109375
252,-21615.129,-9634.791,-23642.967,-9261.966,16322.608,-3999.8074,35729.046875
253,22668.895,11037.72,14064.997,9022.536,-15779.72,-9500.499,37030.16796875
254,9510.711,-4093.3296,5406.1943,-5265.7993,17315.97,8397.138,36610.5078125
255,-4329.6597,-1732.8138,652.39886,3118.9885,11185.179,-2548.8643,21038.677734375
256,-3519.9817,3663.7478,-32599.154,-468.5382,-11436.671,-2174.6064,38901.65625
257,4897.631,3626.6104,4616.384,86.51845,-270.36612,-899.0864,2000.98498535156
258,-963.7558,6076.929,9876.694,-14916.285,3549.8699,4866.518,29446.609375
259,2031.5264,-12830.347,-7785.3945,6744.628,2146.5188,-3493.302,18927.533203125
260,6855.214,-1923.6941,6988.512,13725.371,-3022.1711,-2459.311,26248.044921875
261,-10798.559,512.5748,-11062.237,18214.996,-2533.0046,-9818.365,37878.76953125
262,-2556.0217,6594.0283,-5419.28,15693.417,-2833.1057,6441.034,31709.791015625
263,6327.175,2963.8906,26981.826,7560.307,-1225.0525,-261.00748,26145.26953125
264,-3174.9163,-16042.107,361.6104,2281.5037,8413.769,-143.45407,21251.560546875
265,-8032.902,-7926.1494,-7893.9985,1799.3633,6076.3667,1853.4943,11436.8701171875
266,-7481.742,8959.589,9443.635,-3096.234,3365.3374,835.5386,18529.458984375
267,6692.5913,4817.5176,-6843.3096,-1190.671,10618.715,-2943.974,23019.14453125
268,-3975.38,12766.764,14392.177,2901.47,-4644.3193,8305.5625,24638.7109375
269,-12049.01,6216.326,-18867.35,-2850.862,4256.3193,6381.1074,26561.966796875
270,529.9883,19779.773,14822.835,-7550.623,-14924.237,-4533.9087,34649.80078125
271,-5412.802,2273.58,-8113.341,-7148.2065,-6465.2876,15671.92,33206.1484375
272,-2630.0208,5321.985,-26885.27,-8840.005,-2764.394,10140.2705,37553.5234375
273,22795.62,40409.82,9773.241,-15139.795,3702.857,7021.954,39823.58984375
274,27661.844,13797.09,46373.6,-7108.908,-9656.043,-9261.491,38606.3203125
275,-13688.483,-19268.148,-5915.4097,8482.805,-13543.193,-6606.0654,32124.3359375
276,23966.617,25042.078,25548.46,-196.53291,617.4768,511.9937,2000.93872070313
277,-34548.492,-33046.805,-32885.24,-465.6073,-520.38086,76.13265,2000.98449707031
278,-258.74316,-1225.8896,-17009.633,-2535.695,-310.74954,-8367.3545,22247.3359375
279,13184.654,23979.607,14788.448,-16811.814,-4254.064,-9004.703,35316.3828125
280,44602.86,44100.125,43753.215,798.99567,593.01373,402.60474,2000.98522949219
281,44633.35,46155.367,44944.637,-545.6537,-595.29456,169.14801,1995.45056152344
282,-7483.275,22588.72,23195.482,2294.07,-8148.6577,5403.936,35007.67578125
283,-9267.353,-11653.6875,-40789.684,-9102.756,-2298.7637,-875.2855,34508.85546875
284,-20840.21,21322.502,2222.3118,2969.5015,-2210.378,-3397.314,37588.98828125
285,-6672.402,-7790.841,-11636.801,-304.67053,-3702.785,912.7234,8015.8154296875
286,-817.0163,-797.1292,-191.80034,-912.2688,-144.93599,595.91516,2000.98083496094
287,346387.34,344745.44,346729.94,-188.03032,3.4023933,416.92188,2000.82641601563
288,21222.781,21685.523,22021.643,561.13184,921.1682,101.7077,2000.98364257813
289,-55353.277,-59967.203,-50728.367,-2368.0767,-655.854,1334.6681,9352.8017578125
290,-2851.7317,-5585.6875,-12249.694,1835.6255,-724.51465,-275.87485,9056.171875
291,18319.94,18749.535,18714.701,-2136.5276,-302.8875,807.5671,4012.07788085938
292,-42845.02,-30666.83,-17042.766,-1361.2632,3857.0215,-8126.8535,27352.625
293,28083.076,26000.203,27615.107,-364.25708,-73.42956,-48.422455,2000.97351074219
294,-11737.582,-8712.903,-7820.7407,-1853.1656,6490.2695,-18604.643,34463.23828125
295,-11701.031,170.16994,7687.3174,-8519.148,4438.8794,9451.719,28835.986328125
296,5673.9946,-3246.1401,-3335.4429,6636.008,-3571.4333,-9766.905,23171.662109375
297,100741.64,101287.81,101072.586,-179.61584,1065.4678,290.52078,1995.67858886719
298,201413.84,201285.89,201919.88,65.01382,581.3283,938.1227,2000.97937011719
299,-299161.34,-300769.03,-299530.78,-657.7579,58.402225,-425.69757,1994.74975585938
300,9189.188,5989.5396,11576.675,-8733.22,-16386.871,7305.385,34900.984375
301,8730.197,-11863.503,15920.353,-1888.052,6651.5596,7213.5083,30387.478515625
302,23061.973,9096.836,-4231.6895,-16093.322,-2526.4312,-3291.3335,37248.375
303,-10055.62,4292.2305,9856.217,-1287.2173,3929.804,-4360.164,20615.138671875
304,12510.576,16711.365,27200.51,-14173.257,12455.735,-2223.6047,35420.9609375
305,18165.893,14463.771,3383.5032,-11360.08,8938.909,-14083.625,37408.6953125
306,-645.57935,5470.983,-27881.08,-8665.707,6175.391,8212.476,38571.96484375
307,2697.1208,-1058.054,-2544.0059,-4197.804,4136.2207,704.47546,11294.595703125
308,39850.676,68844.14,46388.62,-7802.52,-5700.8374,1571.1626,31326.51171875
309,-10666.865,-12337.098,-14632.825,15137.277,-6349.649,-245.92625,28643.349609375
310,2534.6821,-2747.059,-752.4704,3079.4497,-6606.298,4605.548,15631.763671875
311,10722.332,1190.0067,-2856.7476,3097.4375,-282.64795,-7920.721,19053.921875
312,-11918.194,-12346.079,376.61093,-13919.957,3787.856,-1275.8105,28032.630859375
313,6359.691,22634.684,-14249.361,-2756.1536,-138.01659,7244.471,34717.6328125
314,23910.074,30223.428,30391.336,13300.594,-2577.8074,3258.3071,24968.9609375
315,-28716.346,-28960.059,-33952.22,-1967.7456,-11300.363,8029.7144,24785.830078125
316,-27041.557,-51683.188,-27779.037,-8217.02,-692.4534,1212.2323,28248.65234375
317,21981.506,7865.459,34280.938,-2223.0984,18.597408,3749.0923,24107.111328125
318,23488.354,39667.797,41637.598,12321.989,5058.1865,-4138.9146,29684.451171875
319,9406.195,8772.139,8100.825,-311.61218,652.19574,615.3772,1995.44274902344
320,12514.927,13245.757,14016.006,-436.44693,-699.85114,-301.5479,2000.98559570313
321,-1626400.5,-1626905.1,-1627005.9,20.093554,899.6259,-647.85236,2000.99169921875
322,3498.3481,3390.1284,4351.839,-199.02328,226.76265,-982.90814,2000.9853515625
323,53446.285,53657.723,52937.53,608.1054,-718.3138,-555.7715,1998.7626953125
324,49164.105,50558.996,48511.86,-429.0279,-90.58273,218.70372,2000.31530761719
325,5789.0093,6747.5405,6962.68,-214.41301,547.9431,773.3075,2000.9853515625
326,17678.459,42788.8,31531.928,-13103.399,-8154.1973,8544.608,37525.76953125
327,19568.332,19628.533,20344.814,335.42688,834.6122,-580.6855,1999.6640625
328,8714.777,9658.735,8227.862,879.8771,-26.816107,-174.60782,2000.9853515625
329,-120552.31,-120869.24,-121317.164,276.34674,-115.30148,-1047.5212,2000.98132324219
330,-31903.344,-32526.762,-33061.35,-160.71068,-343.79047,-924.484,2000.94494628906
331,-2589.2683,470.69327,-33459.215,-4454.7153,-626.896,-2380.615,33682.2265625
332,31893.6,24307.924,46153.277,58.01043,13428.844,12368.97,37000.48828125
333,11870.011,2494.422,7206.3926,-8942.318,10867.878,15343.598,36965.28515625
334,-12124.836,-1795.1371,4151.5464,17135.834,-5379.7173,-1971.2899,34393.1015625
335,6246.372,15356.309,9811.762,5261.197,-6874.016,-13502.429,28895.779296875
336,-5076.3857,10220.538,5175.8174,-5718.0522,-4439.5522,-11698.557,27387.263671875
337,659.6685,-17219.254,7479.97,6688.7603,-532.41986,16039.344,37349.19921875
338,-11047.017,-17946.81,-7125.6895,-5050.35,1848.8226,2846.9854,14181.9892578125
339,26861.531,17323.05,52190.45,3013.915,4605.3223,-5951.4175,34223.85546875
340,33134.426,33363.973,27787.912,11655.527,-1924.4617,2219.432,21524.576171875
341,16654.172,-11609.3955,6056.314,-10384.418,5700.161,-5779.4473,33657.1015625
342,-729338.7,-729392.3,-730610.9,429.51636,737.0241,-294.83563,1999.24145507813
343,53852.207,54028.84,55505.16,-90.75015,594.2079,-386.66034,2000.990234375
344,3679.3389,9387.891,3039.1611,-4197.6123,1929.6718,-3506.816,11729.275390625
345,-28958.34,-9073.137,-24420.049,-17879.2,-121.948845,346.87613,35849.34375
346,28169.184,-1985.4133,2370.3552,-12756.999,2408.8574,7010.8906,38079.0546875
347,-4378.7925,1844.902,-21159.268,-9707.446,-716.83685,-11450.964,33202.01953125
348,482385.7,482375.53,484373.44,14.968159,-80.41784,11.874907,1997.9833984375
349,-24692.73,-3792.6768,-20411.51,4351.883,-1048.224,11706.59,28929.380859375
350,-9775.806,-16025.948,-41420.953,-5936.4375,4161.1113,9525.105,35672.73828125
351,-12146.013,-2086.046,-17869.297,-7015.3613,6200.5796,-14510.548,32957.40234375
352,6218.206,-5673.3745,5396.8984,-4960.287,275.37085,-5666.8716,17398.23828125
353,10962.396,-6074.334,-3427.8171,-628.255,5383.5625,-8712.191,23832.86328125
354,7585.052,19538.238,14051.861,-613.42737,-3904.5994,35.258152,12420.5322265625
355,-1863.2988,1284.3223,-2978.2725,-1024.1925,-738.42456,2275.9473,5914.6201171875
356,1891.5344,4356.8496,-4589.2017,-4969.4165,-4116.696,3040.8318,14721.4677734375
357,141423.6,138533.56,158677.89,-1488.7953,-3421.102,442.06934,19956.85546875
358,-13936.14,-7318.7173,-1942.395,6203.214,-1762.9387,-3536.2214,16448.421875
359,-317124.5,-316732.22,-317981.4,-194.49358,-626.68933,-704.2543,2000.98608398438
360,-12862.846,-35854.27,-9594.106,-6800.425,9171.068,1626.4817,31834.609375
361,-7999.703,-34450.81,-30883.03,9335.663,6579.9365,-2206.1558,31999.53515625
362,-31612.236,-11131.352,-8.582468,10987.63,-1332.686,640.27264,33759.87109375
363,6437.1714,-10196.151,13594.152,-3014.3474,-14660.393,-2287.472,33684.89453125
364,-26202.826,-3772.793,-10824.639,-6915.302,-1025.5088,-6510.551,25854.259765625
365,-2849.3235,147.65344,-551.89417,-1984.1511,-1722.109,1853.148,6195.54052734375
366,-617.1173,-4081.7505,-557.11255,-4997.9785,-132.47473,1401.5458,9648.84375
367,-2155.2373,-1810.7944,-1958.3662,-1963.7806,443.38617,-792.87836,3759.60571289063
368,11094.132,9502.053,-18653.273,-493.32062,775.041,-5549.9746,30578.119140625
369,-7736.9185,10694.389,-8929.394,-216.08757,-4174.7812,2128.2163,20715.412109375
370,29960.395,28326.494,49375.31,9394.347,3768.2144,2977.2585,27299.859375
371,-3409.5625,-3908.4873,1899.2582,-740.77673,-1890.6106,1954.2657,7410.00341796875
372,-22408.043,-31863.312,-28990.865,-8243.665,-1292.0166,-4875.579,18726.6953125
373,-6179.1924,5797.9575,30467.104,5672.0034,8954.9375,-4911.7686,38170.0
374,15972.125,15363.065,18108.291,-3730.1665,12650.082,1933.602,23222.140625
375,55710.277,47407.45,72396.59,16481.908,4195.712,-437.4881,36800.26953125
376,-8370.307,-26616.205,-19112.879,-6039.094,1090.3872,11532.437,27645.576171875
377,-62243.64,-26902.766,-27736.824,-3251.4856,-890.7622,-1159.7917,35472.9296875
378,10324.479,-1346.5635,1521.4137,-2536.6558,389.50854,2255.9578,12082.767578125
379,6951.1836,35482.773,5857.9316,1991.2849,680.24133,5699.602,30938.3125
380,-92117.96,-83020.48,-106155.51,-15307.773,8316.64,3776.3186,36888.86328125
381,28632.623,28048.604,28208.781,35.624073,-382.44446,-1046.9252,2000.98583984375
382,10102.674,9923.6045,11975.054,51.772026,-138.33907,147.57166,2000.98583984375
383,-281240.9,-280856.38,-281757.9,-89.33881,-1059.122,15.584652,2000.96142578125
384,-5858.698,2099.9653,764.0776,920.7673,145.52797,-468.2475,7599.85400390625
385,38202.336,37187.8,40300.79,-1010.01843,-5295.053,-2856.625,10918.6005859375
386,-37933.344,-74531.76,-65671.02,3447.2073,-970.79407,-3606.791,34222.3828125
387,9894.31,6596.277,-8766.75,-8143.423,-12387.755,-1084.0587,30990.45703125
388,-29159.861,-47611.477,-67667.34,-2307.3306,7129.0435,-244.33223,35796.4140625
389,-23979.002,5969.1,-3786.2083,-8442.268,513.2608,-5501.497,31706.58203125
390,-39913.887,-18837.262,-41896.035,5928.7056,-4677.5386,6419.4453,28011.5078125
391,-7647.0513,-10836.65,-20602.611,-5530.425,6501.46,1769.0077,19095.783203125
392,-16596.547,-19717.314,-38977.406,-903.12976,-5716.336,58.433483,23265.494140625
393,1674.7502,-6002.7734,4528.5415,9416.263,-6041.601,-3783.9863,22526.763671875
394,11296.401,12036.312,3986.4937,-2779.9714,-7667.1675,1233.9539,16232.6796875
395,7158.7256,-1632.5647,-12744.679,1250.3506,7179.1367,-2290.934,21760.306640625
396,-7406.891,3764.1228,3908.322,1812.4181,10250.412,57.73239,21248.544921875
397,18867.678,3527.943,-1577.0759,4535.2393,2834.8013,-6680.354,23651.072265625
398,-9886.463,19163.209,20205.93,116.65227,-4096.095,5759.54,32018.01171875
399,-48149.098,-51965.758,-60761.973,2045.7024,-3911.1824,2579.9053,14280.2978515625
400,-712696.8,-713389.44,-713838.9,28.336018,-858.8532,-514.97894,2000.97985839844
401,-46979.918,-49062.445,-80048.16,-984.24225,-2147.9062,3261.0793,32827.28125
402,-1721709.4,-1721860.0,-1723676.6,-34.7216,-324.16855,-171.8101,2000.9677734375
403,4950.7915,-13839.352,-10164.688,-52.583546,-1382.686,2430.832,17916.353515625
404,-1778.4229,12835.977,37504.227,6122.367,452.17487,-6066.5444,37497.828125
405,28077.324,26055.707,12331.828,-2966.7913,-2357.3777,4547.588,18035.939453125
406,32145.2,42942.12,60054.305,14460.271,216.70444,-3628.5325,35511.9296875
407,2239.373,6890.165,3576.0574,-1255.0815,7548.1704,5194.2256,16546.607421875
408,60726.863,34111.895,34710.254,9046.87,-8435.061,-7496.7886,36337.07421875
409,-21317.338,-23891.914,-2299.2222,-5287.136,-10089.07,-4653.792,29520.900390625
410,-15622.305,-32276.85,-55967.36,10466.312,1691.9154,-1602.9553,39725.25390625
411,-26516.332,13254.629,9093.294,-4571.731,-4012.8582,-4144.1094,39950.9453125
412,-19754.047,-15981.846,-15315.799,-2647.5024,-4134.0615,-8805.309,17946.73046875
413,-1006473.75,-1006295.2,-1004711.9,80.97317,-589.08234,201.5552,2001.02001953125
414,41833.605,33043.082,25689.154,878.82336,-1574.6525,2010.4474,14760.7490234375
415,5489.003,4252.828,1234.5679,-3397.152,4109.289,-5009.1123,13225.8623046875
416,12002.858,26942.732,32713.455,12859.573,376.43414,2912.449,29405.662109375
417,-12222.146,-21040.045,-229.00977,16084.234,-3617.8164,9023.722,37242.46484375
418,137.51953,10309.354,16363.104,2920.3066,-7047.544,4174.315,20701.564453125
419,-7444.907,29165.76,32261.486,1309.1321,-4060.797,1080.2595,39004.79296875
420,-11724.684,-14817.172,-15547.545,2470.1118,-1203.6609,-3840.1282,8902.0283203125
421,-50661.414,-45429.81,-81409.914,3667.7769,-529.4258,-2889.6355,34640.33203125
422,-24971.354,-21032.787,3287.211,-3078.973,-1423.1512,-953.4118,27203.01171875
423,60169.3,50071.984,46547.41,-8098.2246,1516.7344,-3676.6719,19853.615234375
424,-24518.402,-9223.886,-11687.278,-7710.627,7942.6636,4201.9146,24957.994140625
425,-22810.135,-17884.104,-10457.611,9372.961,-1477.9723,1697.1879,19868.40234375
426,13609.978,23369.549,40629.32,-81.375694,-2582.914,6147.488,26362.966796875
427,16019.016,20130.287,30176.795,18564.275,2588.689,3657.5437,35401.58984375
428,-8836.712,-9414.1455,-10210.293,895.48596,15964.15,6771.961,30099.392578125
429,-21408.148,-7727.0527,-22897.633,-443.5362,-4286.7363,-2955.5735,17079.037109375
430,64423.477,69929.586,90285.08,740.7631,-1162.0957,-406.0496,23726.25390625
431,36276.883,33649.29,39080.848,-7127.237,-9534.778,6862.7515,24260.146484375
432,-21205.602,-15174.07,-21362.104,-520.0263,8664.421,1700.8379,16494.06640625
433,14606.399,9075.716,202.99805,3853.198,954.4027,309.9612,14350.890625
434,4697.8696,-5596.256,-971.2965,-3643.7502,-2091.9292,-3907.2935,13360.7421875
435,10119.987,16997.201,6814.0005,-1315.2006,2112.3428,891.03375,10095.4765625
436,-4548.0576,5219.5713,-10349.876,-1332.7444,327.38376,-50.93288,13834.5810546875
437,-43149.008,-42240.46,-77500.63,-9253.72,-6163.952,2202.45,39968.72265625
438,100700.79,93486.35,119425.734,-2537.4138,-2724.547,-5617.116,25961.55859375
439,-36293.54,-8287.518,320.08887,-516.1301,898.3728,-3562.085,33775.4140625
440,-7486.524,4862.6875,-1045.3302,-62.11796,1940.0736,2529.631,12039.462890625
441,-7482.8774,-570.3882,-12169.031,-550.3068,-1268.3755,2410.5906,11193.8916015625
442,-5281.8564,-10227.293,-17503.412,-4117.976,-2765.1013,8029.078,19508.7578125
443,-11246.424,-3162.49,9286.267,5459.944,4986.5386,2014.2367,22297.029296875
444,488.1875,25275.932,31614.594,-1051.3098,332.51642,-6032.8447,30406.662109375
445,23783.928,7023.1426,-2722.3193,-31.024948,-4486.632,-1297.5864,24590.306640625
446,-39353.723,-55509.0,-73519.06,-4092.031,-1541.1384,-2935.6714,30976.23046875
447,13200.958,4422.8994,44467.88,-7182.0303,1892.7804,-1694.1158,38771.640625
448,-17578.646,-46505.89,-26295.025,-4981.55,4154.7407,6406.9033,30166.17578125
449,-8752.633,-6754.4326,-3964.1455,7848.779,3059.9412,1260.8619,15330.462890625
450,-27654.592,-9984.771,-12057.994,5408.244,466.91122,4063.5461,20440.7890625
451,2047.5295,-673.1302,-922.71924,2755.5227,1199.9117,2690.8538,7547.41650390625
452,12187.209,-11665.327,3395.613,6525.0737,6936.3433,15358.357,37632.9609375
453,21633.65,25233.379,8314.444,3498.2456,-1326.3362,-3018.1528,17539.19140625
454,446.60742,17675.434,19161.85,-4972.3965,1001.6911,-816.89154,20095.705078125
455,34049.816,18650.277,46639.934,-15423.082,2461.6953,-7462.958,38580.05078125
456,49990.926,20479.658,52054.33,918.9847,-216.80305,-1146.9146,30703.208984375
457,-2539.1086,8187.5654,-7782.6724,-93.45917,-3528.8652,387.33566,15383.025390625
458,46067.832,40768.176,63827.957,-11640.26,-7090.725,5435.642,32917.953125
459,-9840.543,-21662.861,-48268.62,4876.9927,-975.2088,-1881.4315,35312.9296875
460,8775.946,654.4075,4669.306,3965.4722,-3673.3867,2053.2722,12238.2861328125
461,-5596.3066,-6937.813,-1162.3208,-794.3221,-2624.6572,2754.6516,8528.2900390625
462,791.1079,-207.7041,-14485.216,5093.7607,-237.21678,-1227.363,17367.578125
463,66819.44,66416.234,101389.36,4302.7446,-452.7889,-2312.879,35796.4375
464,6857.2656,4999.552,3372.9414,-7178.637,2341.1414,-1299.0112,13609.642578125
465,-8761.371,-32225.46,-6595.917,7591.517,-6440.964,9534.935,34295.18359375
466,7492.858,479.04785,13196.966,12724.423,-3502.0857,-5492.9014,27106.833984375
467,-3259.576,7703.0225,-1395.2864,-2659.4382,-3267.7246,683.8757,12564.6982421875
468,10743.789,18942.22,25274.977,3092.434,-261.4669,-610.1268,13756.74609375
469,313960.88,307337.47,337430.62,2041.2397,3837.1592,-1691.7651,28555.314453125
470,8491.096,-2004.9385,2943.5146,375.67944,1608.9766,1387.6832,9832.6806640625
471,206873.2,210979.06,226431.8,-666.9065,-1192.0741,-2697.5051,18615.015625
472,838.5513,4580.9067,5190.94,-1757.3298,354.3744,-666.11584,5256.693359375
473,-4187.559,6536.0146,13826.623,-8767.452,754.58276,2125.1978,22185.392578125
474,3358.0803,7172.6826,-10001.662,-1761.712,786.21124,-2626.5054,16608.939453125
475,2160.23,6470.227,4638.062,-3970.5796,-116.959755,-3367.263,9766.740234375
476,3552.5156,7430.932,9530.661,-5279.6387,2021.6033,1059.4443,11262.6044921875
477,-11804.941,-770.8037,-10383.78,1679.272,2261.9292,-9115.04,19523.095703125
478,-46410.707,-33573.074,-49717.105,5952.113,9738.17,-1465.0306,24807.28125
479,4731.8516,28639.637,16538.85,2286.2205,-418.42944,-2783.3618,21636.89453125
480,4937.443,1552.522,813.1847,-633.60046,-2437.7622,1122.0983,6108.7333984375
481,-44194.77,-66543.41,-88809.63,4510.3413,-1729.8254,-1061.8203,39575.94140625
482,-119093.78,-112771.55,-151058.27,-3311.503,-371.45908,1096.7573,36065.30859375
483,13475.725,-5537.308,5977.287,-3836.3772,-4030.9333,1156.5415,19288.994140625
484,2067.5046,6944.7207,4024.0571,-1247.4956,1634.4631,-4268.612,9242.244140625
485,-31289.395,-23461.426,149.29883,8640.247,4044.7417,5521.248,34176.9140625
486,-4977.6284,-9138.176,-17694.15,-1846.5251,3643.0156,965.2718,13377.267578125
487,-11657.15,-13591.3955,-15538.646,-2458.3718,-4772.368,5354.1,13555.662109375
488,-9586.833,2766.9536,-6174.157,873.4161,1180.4261,-1555.2426,11654.529296875
489,-4944.361,3755.2588,-4907.922,-724.916,1370.6411,1002.84875,9251.880859375
490,11258.874,-5615.063,10748.743,4912.826,760.4295,613.16254,18752.39453125
491,-1657.8228,-3486.5364,-8174.492,-4271.2666,-646.6934,-248.56302,9490.2685546875
492,16959.893,18038.945,27881.107,3312.5115,145.71371,3098.0056,13054.7900390625
493,-10641.676,-8859.08,-16334.924,2117.5146,-917.08746,3218.7307,9633.01171875
494,20364.373,16561.648,15596.838,4442.622,-5064.6724,-4364.225,14572.6884765625
495,2903.2964,-5552.7935,-1675.9166,-6196.6704,-841.8391,1613.3829,13374.740234375
496,11166.432,4101.483,11003.812,3423.146,-3160.2773,-4404.7207,13119.130859375
497,2267.9412,7309.6533,-1212.6482,-3011.7773,-1732.2556,118.17505,9557.087890625
498,-16070.802,1806.2781,3667.6492,-9077.051,1619.8119,4308.8823,25827.890625
499,1337.5435,7129.073,19253.178,-1662.0435,1850.7837,285.07874,16418.283203125
500,19084.658,5724.325,-9756.5205,1161.6948,2624.0894,-486.14932,25502.9296875
501,6059.261,4568.871,9309.66,-3809.6958,-647.99567,-2993.2356,9450.404296875
502,1007.4497,8044.3066,9555.688,2679.9429,-1403.565,1856.8192,10011.8232421875
503,14282.492,6873.7817,-16243.164,-2847.038,-3411.7944,-1655.6796,28775.173828125
504,2358.0134,18549.38,-4705.9854,632.6644,2591.101,-4801.814,22736.548828125
505,2467.076,-2019.7512,3426.2625,-2697.3132,818.1527,-1558.8469,7515.3173828125
506,31143.234,42323.805,32363.523,-9711.52,541.78467,-5738.9556,22259.35546875
507,21349.219,-2676.1216,102.6167,4435.6987,3429.8577,879.1102,24795.45703125
508,556.38416,864.6394,-5726.99,2136.0376,2448.8057,-5684.939,13044.0107421875
509,-7858.9844,95.94092,-9177.933,-3520.9817,-1569.8033,-202.24564,10964.4921875
510,-27278.523,-33710.4,-63677.945,2937.0227,1372.2583,-2356.6252,34356.35546875
511,-7628.092,-13274.606,-8456.028,956.56824,7477.7617,1392.8351,14290.1875
512,-1249.7017,16223.254,1374.0999,-1857.7054,5303.796,-731.3547,19044.462890625
513,-4091.838,-8106.9863,-950.72314,-185.36653,44.204647,-1903.6433,7041.34765625
514,45817.027,41554.55,83067.69,556.8119,702.3126,1621.4794,39684.4765625
515,-3758.982,5576.776,690.1561,-211.42049,2290.2686,-771.7805,9114.392578125
516,3227.409,576.2263,5801.001,357.12415,-2040.5399,1335.209,6220.73779296875
517,11228.885,15184.281,2295.8647,-207.9493,1021.6014,3998.0002,13490.3818359375
518,-5676.658,-2982.0037,-1567.6376,-1946.8215,315.18295,-2482.653,6575.095703125
519,-22484.52,-1296.3896,-6349.3564,8049.4966,-2408.6758,-1213.9502,24158.140625
520,-22595.586,1719.8232,-12576.036,7582.2534,4536.7314,4351.0786,27184.81640625
521,-12247.793,3840.938,-5118.1577,15064.284,-6425.3193,-2525.234,31917.9375
522,26777.787,12262.096,-5970.0586,-2618.3809,1262.8241,-871.4677,28903.27734375
523,-591.79736,-4456.759,7752.694,-2822.4995,-2056.69,-881.05444,12479.4951171875
524,5945.958,-1373.1448,-7105.1514,-7494.49,5914.0347,1869.6544,20305.041015625
525,-4707.2896,1334.9779,-2100.4482,-2271.2551,-1276.9742,55.179432,6923.171875
526,19185.148,22195.734,17485.389,-1613.004,2757.977,-2953.2537,8594.1767578125
527,-8000.5654,-12521.16,-5021.0176,-4658.193,950.7932,938.0133,10640.9921875
528,-2663.311,-796.79614,-6654.644,3806.336,-1964.3374,206.83438,9057.22265625
529,15221.611,17775.97,8285.624,597.5139,-249.56667,-682.03455,8660.43359375
530,512.1924,14189.659,6268.9185,-436.65723,406.77805,3976.885,13783.7158203125
531,-5609.6934,5055.144,2297.5498,1501.1299,-297.99518,-1588.7751,10321.4814453125
532,-5925.741,-3026.7664,5633.516,5893.324,2728.7913,1154.0906,15460.884765625
533,-3601.8633,-97.380066,1587.9971,-516.53436,604.22943,-1131.0463,5173.1787109375
534,-263.69824,8933.549,10083.805,7107.7163,-3913.9028,6252.1143,20279.873046875
535,-159.11206,10860.436,-754.36597,6946.265,-1693.6213,934.235,16861.7734375
536,4108.2607,-3310.5784,-5430.787,708.0562,2264.6213,1970.1571,10188.1328125
537,-26156.996,-39389.3,-15805.613,10273.559,-3042.0178,-4617.4224,28767.67578125
538,-14602.631,-8579.145,-9685.192,6408.918,1541.1279,-1383.545,12920.29296875
539,31025.766,3141.1484,2398.7812,-1516.3063,-3891.1309,2695.2012,29545.154296875
540,13374.701,-2506.532,-2557.2004,-986.201,1201.627,261.59708,16139.2568359375
541,-4899.472,-5089.047,5232.3896,3346.1084,5158.388,-1317.1062,14940.9443359375
542,-5482.8438,-13146.461,-8177.383,-962.95953,26.312365,-2864.1743,8528.544921875
543,535.06006,-6586.0806,-8993.926,-2635.29,2394.1345,1241.8534,10784.779296875
544,-5601.0146,-787.61755,5911.5527,-3475.2795,-2058.949,-553.66034,12254.125
545,2091.1987,11519.6,11132.775,-12284.841,383.42847,-208.88593,23210.3671875
546,20586.521,22937.803,27186.734,-10862.486,3483.104,4772.8374,22187.58984375
547,6483.555,9493.261,4648.13,-1543.5603,2987.5938,-631.1998,7285.0068359375
548,4117.909,-2652.5862,-8188.5483,-1661.4017,2026.12,-4364.041,13845.5234375
549,-1928.3071,1716.2761,441.78784,1403.7339,-2851.0825,1313.999,6763.1005859375
550,7804.9907,7256.612,5190.898,-558.1415,-8420.059,3039.8445,15717.8046875
551,-7106.4355,-17883.617,-8077.6045,2603.3955,3417.8953,-234.6913,12734.5439453125
552,10220.684,2816.7617,16219.529,800.82745,1085.5109,-3249.111,13128.150390625
553,5002.156,13953.928,15792.304,-5663.371,1329.5896,-61.267994,14195.30078125
554,8211.307,16339.539,14293.244,-2860.836,1934.7428,-2800.9028,10627.357421875
555,-4774.2974,3157.7432,-3555.0193,-2391.613,1874.2633,-3296.8594,10725.5966796875
556,6622.6807,-11227.856,-16779.037,-2060.293,-251.41692,-832.27124,21530.232421875
557,-1331.6825,6186.0767,-1370.2096,-2345.8628,376.904,171.09686,8592.498046875
558,3027.0127,-5924.838,955.927,477.8728,-154.04251,1853.1827,8771.779296875
559,-4522.7915,-9644.339,-603.21045,1709.9799,724.34955,-2053.2039,9201.12890625
560,5944.764,3901.206,-3546.525,3892.2861,-1344.3698,426.81622,11237.564453125
561,-2271.6187,1645.8882,-1589.9707,-1953.9497,-1874.7308,1896.3715,6776.9775390625
562,2303.1448,6336.824,5512.8384,-2165.4683,-596.20984,1414.539,5895.994140625
563,9024.703,24051.611,2992.9873,200.4884,-809.29565,4582.365,20442.78125
564,219.82544,3049.1753,3844.939,-1164.1007,-2343.5522,617.2077,5707.44189453125
565,21337.56,4170.2793,13931.768,10560.432,-314.10257,4162.7773,24683.482421875
566,-50111.805,-39631.094,-23963.926,16903.041,-5981.368,933.7235,38556.359375
567,-12511.17,-3013.6753,-18071.705,-3469.987,5650.6606,-3916.9565,18758.279296875
568,58510.72,52803.723,61437.96,-2485.2017,-8538.728,-9659.542,23979.6328125
569,-7733.4736,2622.0054,-228.17578,2945.9326,42.31969,-426.08484,10603.3046875
570,26335.174,14902.232,23609.342,-479.99716,7117.0127,-2719.468,16787.23828125
571,38168.473,44908.46,58414.953,-12635.67,-22.359364,6117.9575,30168.802734375
