Element Label,S11,S22,S33,S12,S13,S23,Mises
1,3987.824,7584.48,4639.9976,-4353.9536,-9376.4,6494.6133,21405.068359375
2,-8594.077,-5410.1216,-3829.4731,-2897.9763,1278.1012,-7856.859,15262.8583984375
3,1858.9479,33250.242,21908.402,4320.37,1110.5446,7156.614,31166.708984375
4,-25366.855,4259.5947,-3653.7607,14727.051,5039.965,-4185.9546,38540.0
5,19179.816,19946.482,36614.215,-17565.188,-246.8148,-9405.42,38501.37109375
6,-12928.984,-4779.007,-14855.016,-2281.673,3994.2942,-3335.8413,13516.419921875
7,28005.791,52674.55,18301.744,-9331.047,-602.91455,1635.3379,34819.84765625
8,-7338.1763,24304.209,-16037.463,-2137.4275,643.2135,-7116.1807,38975.01171875
9,26213.674,17364.545,9177.684,-157.79031,-8549.7295,19373.543,39536.68359375
10,-121806.18,-147699.69,-159422.77,-1306.3121,-4057.161,488.63022,34156.59765625
11,6747.202,14810.767,17925.695,14478.587,-2605.018,352.73648,27376.291015625
12,-1441.728,2769.6545,-26584.566,15227.136,3284.0293,1328.5963,38587.96875
13,66479.78,35151.797,56770.188,16428.676,-769.92944,1664.0164,39891.4296875
14,-54602.92,-71449.805,-88951.25,-2995.7104,5889.7793,5717.016,33376.74609375
15,208116.47,207610.48,209813.7,20.877956,23.031296,44.89454,2001.08569335938
16,13722.319,21325.553,24796.146,4439.1533,733.7604,18475.432,34365.6796875
17,-17676.201,-34796.645,-33533.766,14889.644,-7529.122,-785.25146,33318.17578125
18,1898.5364,-30841.303,382.65985,-12883.212,2570.3232,-3593.046,39762.375
19,391849.78,393843.06,393654.12,-204.16473,-28.730024,-87.00861,1944.86486816406
20,103513.93,83045.46,106537.445,-5955.797,2065.8574,753.117,24716.51171875
21,-7473.8643,-3983.7534,-5312.551,-1928.6554,-6803.967,-10867.133,22663.48828125
22,6257.8726,-11271.684,-15910.174,-2366.391,-3995.8086,548.5855,21810.853515625
23,-3076.762,2200.0862,-5580.0303,533.4988,11393.473,-2594.579,21396.3515625
24,-2979.9585,-185.38231,-10852.361,-12622.742,7611.0737,2367.211,27575.017578125
25,377.4353,-11930.64,-15666.891,-393.4165,-11761.003,778.20953,25073.474609375
26,336.9187,-36596.254,-14762.004,-4840.7944,283.06146,3640.4968,33833.19921875
27,-24898.281,-11860.2295,8873.546,-8580.33,1162.1293,-1968.9977,33267.95703125
28,-25695.86,7457.247,14069.212,-4780.4556,-3182.3381,485.15854,38232.1875
29,11577.774,-1836.9064,3009.311,-17274.91,5457.3286,-8274.537,36447.87890625
30,-44056.88,-9687.165,-18368.473,-5288.956,-1523.7406,-13343.453,39790.65234375
31,-46390.66,-15578.97,-4576.9307,4070.4634,-2483.9019,-3325.1965,38868.7890625
32,-5579.8833,-17329.406,-14557.36,8983.159,2656.4006,10674.7705,26800.716796875
33,-25545.547,-1622.8815,-7779.0654,15164.01,-546.2304,-4470.6304,34837.0
34,10173.8545,2281.3782,9571.352,-854.3627,-4494.3965,-16122.101,30007.564453125
35,7075.861,-17935.676,-14173.291,9140.11,8370.678,8547.743,35009.296875
36,3590.7517,6418.2554,36311.79,-1112.3391,-1425.2697,-5820.9717,33130.0390625
37,-2177.2422,-6636.541,-11694.718,-6915.2905,-18130.297,494.9211,34617.1640625
38,-24030.635,-4584.9146,-26678.5,-11172.025,-35.377865,-1656.5995,28623.697265625
39,-13766.502,-14512.416,-8146.6436,-4619.957,2998.3994,16353.241,30489.666015625
40,746.4894,-12210.284,2229.73,-15247.044,3248.0876,-1607.763,30432.185546875
41,6336.855,-4499.15,6095.789,-1270.0603,13802.652,-3207.2708,26871.984375
42,5121.935,4602.6216,13073.854,-2971.7231,-3204.333,831.62634,11269.591796875
43,24574.744,23072.414,23467.785,464.49237,328.62537,-415.02426,1818.60241699219
44,198198.88,197200.77,197692.77,-300.12494,816.97577,-571.8198,2000.18090820313
45,201435.47,201786.17,202717.75,757.6016,69.45865,564.70276,2002.63818359375
46,122141.84,133294.38,133738.19,5424.0503,6034.6826,11105.419,26401.3203125
47,222621.4,222633.45,223597.27,-42.964977,-672.5797,752.9734,2001.05615234375
48,-178704.67,-201776.53,-173162.69,-8522.2295,-1796.9236,-555.2635,30321.36328125
49,21316.152,24606.158,5618.0205,360.37683,-3575.3872,-8107.205,23341.43359375
50,8308.136,36401.477,33191.332,3898.7295,-4708.787,8301.443,32065.830078125
51,-2988.9075,89.19877,30480.486,-1699.5157,2796.5305,7453.7886,35006.51953125
52,-44455.453,-41055.75,-46290.18,-5226.958,-9756.436,-7906.571,24004.8046875
53,-21882.441,-15779.395,-27970.945,6697.2144,-1520.8827,1408.196,16091.048828125
54,25576.762,3177.6106,19624.582,3291.9734,-5251.3384,1560.6666,22942.85546875
55,-4510.401,-26893.477,808.74133,2475.754,-744.4411,5861.793,27775.646484375
56,2401.9124,21583.57,28301.797,124.14406,-2076.3503,5663.4893,25517.49609375
57,-3840.9048,4061.4563,17991.635,-5218.464,-9308.6045,-14738.198,36876.40625
58,20631.95,-3908.5078,6714.011,-7921.5757,-7258.5176,1289.7064,28384.728515625
59,12133.048,-2331.0032,24846.799,-6542.8774,16653.842,-986.54626,38963.30859375
60,-13178.66,15245.31,19373.94,9656.777,7609.0464,-85.4163,37360.33203125
61,26689.053,478.85,2205.1243,13547.396,4738.311,-4559.8135,36401.03125
62,19090.877,5635.683,21466.014,-14946.461,1931.8376,-14819.478,39482.6328125
63,14513.529,-11448.947,8399.321,-11344.558,-8572.43,2710.5063,34369.9140625
64,7303.977,-32713.178,-20331.13,3635.796,-2421.4507,-9838.881,40085.55078125
65,16421.28,-11271.369,9855.561,-2987.5618,-369.07974,-5927.8184,27582.087890625
66,2668.7683,1795.8018,32047.637,-5824.8945,-3094.6553,10852.617,37059.1875
67,8733.207,-18549.266,-9880.483,6832.575,575.33813,-2045.0972,27139.783203125
68,-2441.8494,5427.1626,26299.695,-8984.028,-94.862404,8778.892,33692.76171875
69,20119.049,13425.277,42400.758,-11202.642,-8357.426,-3048.0842,36115.640625
70,-51694.934,-47038.766,-27625.861,-12667.16,-4014.026,-6888.788,34073.51953125
71,-7758.816,-31409.436,11183.117,-3699.32,-2747.6128,-522.99945,37824.078125
72,-178812.69,-179409.7,-183879.2,2552.5867,1992.3428,-222.53204,7389.53076171875
73,109365.49,105826.17,120750.25,-10365.809,-13722.764,2775.9858,33058.203125
74,93297.5,92305.0,91494.37,459.8681,-162.45302,-530.6938,2001.31237792969
75,297064.88,297332.28,295746.72,62.670036,-676.77826,392.0344,2002.11572265625
76,116724.17,116165.91,118050.914,-13.501951,-512.46875,366.0112,2000.72290039063
77,2893.7532,3729.8513,3362.6663,-195.51978,-1012.7208,-285.59476,1990.74597167969
78,14997.562,11079.454,7853.5854,-1106.9943,-1322.4674,9913.822,18497.88671875
79,-10154.258,-12415.5205,7349.213,405.30463,-14985.962,-2757.9722,32374.587890625
80,-12761.11,-4518.861,-25524.025,-19930.348,3683.3135,2318.6638,39805.8671875
81,10944.978,-10002.095,9992.929,-8223.322,14054.605,-833.67145,34889.734375
82,2733.9773,14941.852,8793.473,5516.4355,-4337.9277,19166.203,36899.21484375
83,-3667.673,18203.428,4235.585,414.66284,4292.9463,19908.832,40160.2109375
84,-12775.361,16105.039,-1960.4291,-3304.4746,5635.989,11028.588,33639.8828125
85,-15506.162,17568.947,-6618.329,914.5149,-2586.512,13531.888,38090.75390625
86,-11184.805,8237.901,7607.275,1774.2246,5361.1387,19526.137,40060.828125
87,13776.615,18516.97,15349.612,-1441.3955,9172.928,-10355.185,24450.74609375
88,18828.488,27129.547,2260.1501,11407.107,-8611.769,2135.7004,33278.96875
89,1419.2545,-11603.775,16767.828,2579.446,-2242.6902,1915.5924,25517.07421875
90,-9095.4375,-22198.41,-4796.0366,2904.4565,-10886.812,-6829.313,27700.212890625
91,-3975.1763,-1140.8671,5887.3115,5420.3594,-2773.5466,-19302.7,36143.4609375
92,20122.166,-280.7638,25136.871,-3159.123,4565.7603,3095.2043,25786.837890625
93,-14324.51,-19745.275,2652.0903,-4470.259,-7349.9985,-6102.599,27264.59375
94,-3226.717,20270.336,34695.152,9614.62,-2002.1215,-1706.4042,37379.2890625
95,3893.7065,4964.4893,-10343.177,4625.5547,-6121.898,8482.294,24729.5
96,-516.7166,-1049.8258,-9922.334,7134.2554,-9524.105,5483.5386,24469.609375
97,1879.7892,11796.72,12026.606,2899.2188,2063.755,-6116.8643,15840.4501953125
98,76247.79,76633.625,77869.234,239.48369,-409.94412,625.7364,2000.79992675781
99,19589.012,41338.195,19353.312,9858.008,-1716.2166,-2632.8806,28273.345703125
100,15119.093,24690.871,1725.035,-14580.873,744.9007,5304.7,33512.8984375
101,-55774.85,-17239.85,-17574.86,-2953.8962,-4421.931,1159.8281,39509.765625
102,-37983.164,-6474.193,3558.4548,4363.8228,-3299.1387,4786.5303,39599.26953125
103,-25263.87,-470.02493,14216.507,7223.9507,3218.5396,-7236.215,39233.73828125
104,-27647.174,-17286.785,-10980.914,15138.4795,-111.60658,9602.692,34301.984375
105,5794.685,8076.5864,23288.512,-7970.782,-3981.1335,10600.737,29096.341796875
106,-12842.6045,20622.787,24096.684,3346.4275,-6092.0347,-7349.7227,39436.59765625
107,-277.29242,-3615.2463,-1396.8258,-4302.396,-162.30762,-4447.6636,11118.1982421875
108,952.53217,-3380.749,-30704.504,2115.8743,-12071.34,5466.0,37735.6640625
109,7473.3726,-8226.326,1190.5201,1294.6235,-4097.262,5954.2085,18683.267578125
110,-5875.6694,-3722.8633,5513.6562,8676.338,10065.511,6154.0166,27445.001953125
111,-17131.31,-24122.99,-32081.084,17892.27,1357.266,-8667.527,36866.78515625
112,15951.978,-17759.3,-19036.85,-352.9601,-2102.5974,3321.367,35041.1328125
113,10882.303,19334.816,15069.712,-19939.498,887.78485,1732.5914,35464.15234375
114,-180302.75,-182490.83,-187407.14,-437.48575,-15548.767,-6691.003,29998.171875
115,133129.1,133091.81,133201.66,491.29276,770.5835,-704.68555,2001.15173339844
116,111483.82,107895.13,96630.51,3975.9998,-3164.9224,-5071.202,18298.166015625
117,64546.5,63178.516,62865.58,-324.5049,407.00262,-533.9926,2016.36120605469
118,266652.03,267066.62,267469.25,938.63257,-206.2297,-146.64622,1826.50524902344
119,-10189.235,-6500.728,-2708.8538,-11708.883,6647.753,6295.856,26547.21875
120,-90.72451,-1759.3347,12921.541,17267.62,6747.6753,4365.8354,35806.45703125
121,-9515.083,-14156.23,-37802.223,340.78238,-11890.043,-372.92313,33396.1484375
122,-31674.111,-15596.631,2046.4264,-13865.196,-3223.8616,-1408.1432,38305.0703125
123,-10887.57,-22402.172,7816.129,-15835.302,-3739.0747,-2460.0767,38860.62890625
124,-6809975.0,-6809863.5,-6809441.5,1019.3345,-158.98679,89.08645,1858.58459472656
125,266257.97,283324.5,289825.22,-5727.6304,2440.264,-509.59604,23696.65625
126,20620.1,6682.8213,10141.378,-8163.4565,1153.7711,-8981.618,24575.078125
127,26666.254,2058.9585,-12353.7705,1308.2085,4735.777,-6016.836,36727.75390625
128,6766.4663,-23223.078,-24358.463,-9864.534,-5772.669,4009.5303,37078.81640625
129,12888.396,11243.452,24658.29,-353.55698,9485.028,-10237.738,27300.2421875
130,1537.2175,5200.356,1921.221,-4932.0117,-9296.024,15913.998,33228.71875
131,-11739.138,23882.846,4998.867,6839.776,-10601.358,6032.128,39236.70703125
132,5003.8765,1557.0952,-21389.307,1140.0435,-1670.6228,18083.568,40135.11328125
133,1067.3143,11644.792,-17359.516,-2725.1936,-8894.091,11904.0625,36483.62890625
134,88216.13,88657.55,88117.21,-569.3941,-851.2849,448.02106,1999.2880859375
135,12936.631,-12643.346,12344.436,6701.9536,-9498.888,2624.4348,32644.076171875
136,464882.1,466244.0,465197.1,-355.43436,-195.57607,-807.5231,1993.75134277344
137,79594.19,77578.54,79019.32,-383.3563,-36.685284,-319.60614,1996.48400878906
138,141449.48,139885.98,158025.23,-5259.63,-9251.79,-1331.0189,25459.94921875
139,-56343.707,-56644.566,-57433.28,-882.6876,-13925.008,-9136.724,28904.048828125
140,-47473.973,-42466.56,-24602.062,-16250.879,8434.58,-4594.6123,38764.6796875
141,-8120.4023,-12773.153,-354.33908,-12808.85,-1161.31,310.06143,24791.68359375
142,929.2891,4672.73,23519.48,-13018.603,-8850.742,5575.4155,35727.85546875
143,16714.5,2284.0503,-19600.613,-3495.366,3399.2063,-2669.5762,33101.03125
144,465.48187,-13270.887,-4289.3237,-19410.195,9270.16,1764.4528,39286.08984375
145,-5953.985,-13802.921,18220.693,-7117.573,11051.48,5821.452,38155.203125
146,-13209.83,-4880.706,-34438.24,3969.2974,9642.831,3829.7273,32665.771484375
147,5987.513,1229.3203,14487.773,-4040.8525,-6850.567,7016.257,21743.978515625
148,15412.757,16035.272,-15173.111,4769.0786,8375.823,4889.7153,36129.58203125
149,-524678.0,-530996.4,-539218.94,5740.5815,-4297.044,-9472.873,24144.3203125
150,-8033.252,12342.206,3032.7898,10418.1875,-2682.5864,-3911.5547,26556.4765625
151,13754.446,35603.586,13890.957,11569.727,-5840.1226,7968.613,34187.921875
152,19366.273,-12445.057,19540.088,8438.552,-612.4444,2176.8057,35305.64453125
153,-12031.923,-16036.556,-15671.133,8151.1616,7906.3125,15438.71,33415.89453125
154,12355.546,6430.078,43008.19,-5835.158,-616.422,3828.5754,36105.23828125
155,-4237.4414,-16475.324,-17972.957,-2837.8538,-2246.3352,-7762.3945,19758.521484375
156,-4247.0713,2182.571,10492.649,-14637.235,-7872.212,-4420.649,32420.919921875
157,11737.463,-19014.857,-12823.222,8553.036,-3756.3728,-753.09,32513.537109375
158,8627.555,18668.006,10013.129,12541.8545,-14735.338,7101.7217,36924.33984375
159,-2926.9807,-15162.575,-3446.7234,15890.871,-4560.7305,-7552.0596,33685.03515625
160,-4107.1807,18580.562,-3142.6855,4020.6653,5415.966,15001.578,36130.5859375
161,-12789.248,-2309.4563,-33788.973,3461.9807,-8988.4795,11365.378,37904.3125
162,20595.258,19098.793,31367.516,-5584.3286,3931.7651,18864.557,36632.5859375
163,-7607.0254,25796.488,14617.681,-11551.147,-5149.8237,5879.1113,38090.55078125
164,10134.231,-7514.418,16048.984,-10482.765,-7439.055,-5252.443,32082.623046875
165,39487.78,28537.52,23041.174,4822.4053,-2247.7964,4353.183,18763.78515625
166,-26068.422,-55293.203,-56721.984,-415.97995,3141.5537,-3684.2922,31124.49609375
167,8435.501,-3328.3599,-20467.969,11045.872,-4966.2705,-1340.6904,32851.1875
168,6368.8306,-11417.057,8986.567,-12626.283,14644.703,5332.823,39708.15234375
169,-2030.2313,5609.507,-14506.254,8569.212,6629.2676,39.371147,25719.072265625
170,-1390.4407,14593.101,2684.7805,-14118.56,-4436.6997,8312.726,32730.76171875
171,20747.262,55303.42,40394.02,-5504.129,1746.8339,2312.7827,31895.052734375
172,-66507.45,-68473.0,-93907.234,3289.1477,217.92094,-7239.294,29842.517578125
173,9597.81,-16803.81,18939.531,7711.627,4480.565,-7660.8633,38021.7109375
174,-9644.694,6518.4087,-20881.336,-7845.6553,-12358.481,2646.8745,35114.15625
175,5663.75,-36525.836,-19610.615,6050.7954,6153.195,-3335.2378,40115.24609375
176,-3567.5093,-27893.188,-4825.8564,3354.473,13092.17,6229.928,35030.2734375
177,163095.89,157039.27,157683.69,-10574.212,-4269.6646,-8224.269,25024.841796875
178,48299.65,65469.734,33546.16,7002.434,-5121.9146,-2021.008,31683.650390625
179,-10432.256,12104.004,-9232.831,-4985.263,8232.602,15630.787,38641.1875
180,-15590.238,4230.4653,-6649.3057,-3249.5652,1669.2152,6875.72,21850.6171875
181,-6266.708,2683.6177,18685.898,-10300.372,-1083.7471,10604.824,33743.30078125
182,1756.4868,2919.1814,30807.021,4849.5728,-1420.7858,5903.3184,31506.6171875
183,18436.248,-19272.176,7921.0723,-3354.3662,-6171.466,4964.1245,36850.06640625
184,-32343.879,-40353.566,-47816.438,-7592.7324,286.5191,-15021.804,32090.2421875
185,-5414.12,9459.011,12646.061,-7149.57,-2057.5266,-1534.4686,21257.51171875
186,-4192.2236,-31983.143,9371.093,1854.0405,1587.4504,-1510.6324,36850.4296875
187,3476.9265,-12961.022,7676.8804,9253.81,-1020.48267,1080.6344,24908.048828125
188,-1099278.0,-1101064.9,-1099770.5,-556.5859,-177.37679,258.37283,1944.08422851563
189,-6978.0913,6094.508,30947.727,9218.148,4061.704,5182.11,38709.80859375
190,-59566.53,-28759.084,-35174.094,270.58795,11452.473,3903.782,35100.37890625
191,-2335.5457,-6176.271,-404.0578,-13730.444,3525.2373,15101.354,36234.09765625
192,-17972.998,16508.021,19126.637,-1575.201,6398.231,2404.4297,37864.09765625
193,-19722.541,19216.445,8223.8,2241.945,-6611.8506,-1869.2534,36956.07421875
194,-38826.51,-9791.844,-4134.204,-4732.571,1298.7526,3739.3257,33963.0390625
195,-7511.8086,-2150.1245,19457.12,4729.182,-9996.894,-1738.9396,31423.759765625
196,-9143.108,-7341.5566,13424.588,16815.295,2364.0945,-3932.536,37192.921875
197,-8766.766,-4618.704,-8975.499,2782.6018,-1786.3496,-8131.754,15789.0419921875
198,-14532.209,9307.704,17663.436,9744.356,4572.9053,-6352.3345,36138.73046875
199,10635.585,4780.8394,42110.36,-6416.379,-6925.108,-2058.1057,38591.51171875
200,10391.065,12331.332,7081.0234,8625.987,-5085.186,3428.7092,18900.048828125
201,-16497.604,-22610.398,-9703.212,6080.09,2506.6433,2226.2732,16422.0546875
202,6864.3496,9344.97,13559.809,-13457.931,14670.382,6669.2324,36835.0078125
203,11484.365,-138.30331,2487.3699,7690.7114,8353.027,-3955.6025,23348.74609375
204,-1616.5323,-9365.129,3150.3499,15595.62,-254.79997,4207.493,30044.5390625
205,18231.156,14838.044,21873.705,9125.62,14744.182,2675.8674,30993.955078125
206,-1050.2045,6663.961,-27808.305,6185.4106,5650.4395,-10316.833,38881.76953125
207,-4517.9297,16989.469,-5028.54,898.0032,-4588.9927,12467.587,31713.2265625
208,4843.395,-8093.5146,-12577.128,-20466.062,3273.3916,1897.7461,39306.4765625
209,4182.217,-24231.436,-22984.588,8740.546,-266.30695,-1134.2239,31728.951171875
210,12789.349,14070.008,33835.727,6041.7847,3021.0864,-7184.056,26633.798828125
211,-4743.7876,300.20612,-8347.627,540.46313,-11333.067,-9814.269,27051.033203125
212,-5371.0977,-25989.725,-13743.691,-11295.984,5246.047,-7175.769,30699.0625
213,-2263.503,-17915.035,1191.5924,-9651.132,-3465.8184,4691.6123,26315.16796875
214,-11045.443,-21422.943,-34257.324,-9662.909,8010.414,-11093.501,35318.76953125
215,4003.0735,-7703.5664,22683.395,-5367.31,14280.691,1594.2288,37557.24609375
216,-3244.4302,4790.8496,4064.6133,-5937.245,8491.253,7615.6846,23565.0234375
217,-826.91943,2269.2402,-18303.82,-4737.0376,-9007.087,-2273.0222,26369.31640625
218,-1241.4873,9013.1875,-28263.176,6624.235,2282.7805,-1552.5435,35594.0234375
219,-13504.072,-65.671875,-32828.168,-6031.779,6.0080085,-10837.663,35710.05859375
220,-894.79565,9097.449,-4866.5933,-5090.7817,-12647.757,-7645.444,29804.55078125
221,5678.914,12373.648,9768.54,-13578.218,-2452.5657,-4085.711,25600.662109375
222,-13955.2,5334.6514,-1034.7693,-7485.045,1433.1277,-1888.708,21788.611328125
223,12305.448,7595.039,10440.609,-1116.4595,-8921.886,-9002.866,22418.203125
224,12625.359,-1285.9509,-17.692183,-4182.7466,-16054.17,-10119.905,36199.7578125
225,7193.1533,-9206.023,-15071.273,-6592.864,-6015.1914,-1060.6617,25334.552734375
226,-13157.261,20301.541,3314.9775,5971.3174,-9624.335,-2782.9792,35323.828125
227,-6981.2065,-12345.137,-33436.688,10165.065,-9011.241,-7470.386,36163.12890625
228,-13352.665,-33374.56,-35330.973,7721.88,-3671.7751,-4836.1787,27080.783203125
229,-13922.284,203.48363,-11058.951,937.8347,-4578.1797,-1102.956,15377.1435546875
230,-10436.741,-11121.569,9257.592,-4837.71,-5894.5713,6979.9995,26878.103515625
231,-5491.1797,-17196.314,-34696.535,-4425.983,-1870.7847,-2056.8225,27019.794921875
232,8172.2334,-12057.921,-29000.273,2822.161,-824.9754,2513.5713,32923.22265625
233,8868.792,5326.7744,26531.549,-16008.895,-10569.472,3150.4426,38998.1015625
234,25050.55,-7252.083,-1762.66,2629.42,6585.3984,-534.8822,32372.41796875
235,-5486.015,909.45044,-41058.35,3080.0151,1404.2458,-964.9547,39635.3828125
236,4106.3237,-25494.188,-15224.833,-14312.768,-7362.011,-1546.9807,38236.30078125
237,14396.902,-17605.012,-17189.459,-7200.734,-718.318,6689.5654,36088.046875
238,3657.1045,1027.103,28701.836,-12774.576,4081.1235,-8024.4517,37851.48046875
239,12268.015,-7752.4854,23042.066,-5831.7754,-6177.1523,1763.7507,30958.607421875
240,-1163.3617,-22387.455,-29062.715,6202.992,-12267.581,-2197.2742,34901.19921875
241,36456.98,14058.804,48334.105,-14533.649,-338.02866,-3659.7349,39786.6171875
242,-2936.4656,-10182.946,20617.348,-4182.394,4628.3687,-5359.3965,31319.12890625
243,-48807.39,-69167.164,-32448.76,-19.846092,-10763.335,2313.3115,37132.01953125
244,6314.923,-1645.1594,2884.0774,-18924.36,1114.8558,9437.211,37324.65234375
245,-79809.234,-46743.816,-86908.27,-1967.3809,-1526.3453,-2587.5054,37644.88671875
246,22866.746,22730.83,59795.67,-1385.5566,679.3891,1182.1102,37149.9609375
247,121567.78,121909.54,142312.22,-6443.1104,1502.1212,3595.2441,24360.75390625
248,42912.36,53504.08,55554.52,-2082.6675,-5979.343,-15896.42,31882.048828125
249,-274502.28,-273522.5,-286472.72,4146.3926,-4639.2373,-7665.319,21175.373046875
250,213849.72,214135.31,213857.86,1504.3088,2993.8342,186.82896,5819.10498046875
251,-58909.684,-61210.242,-55841.734,4935.5654,-669.721,-7743.1816,16615.0078125
252,593911.4,593859.3,595750.6,-42.830063,-215.20255,355.0769,2000.99621582031
253,-140097.72,-139967.14,-140594.34,-567.01807,-28.479134,-943.9505,1992.14074707031
254,-2108972.0,-2110281.5,-2109578.0,-1261.1448,-5111.4126,-25.83279,9189.2080078125
255,607421.7,607089.9,605661.56,-32.97092,-136.62782,-663.4599,2000.97668457031
256,286585.47,285627.6,287063.47,-884.6777,75.54223,-34.23588,1993.10620117188
257,2960.1985,1598.2957,2366.438,413.28204,351.7163,-63.52706,1514.69897460938
258,100769.945,102225.95,100546.83,331.18423,294.37717,553.8498,2000.9677734375
259,-528574.2,-540261.25,-526562.2,512.3022,2807.1646,3623.1296,15098.3115234375
260,-785583.6,-791343.2,-777419.0,-10164.266,4599.4697,-1575.8378,22971.947265625
261,-314630.22,-304141.3,-318745.62,12679.935,1345.843,-11546.641,32524.923828125
262,67297.09,58012.35,38284.33,-3177.577,643.043,-9004.751,30550.92578125
263,45514.7,30527.648,58171.74,-59.755238,933.4362,5909.023,26112.798828125
264,16604.076,43742.484,56814.344,-5152.2686,3536.2878,-6204.913,38662.2890625
265,110646.586,141933.86,112415.15,-1726.4852,1114.4396,-8289.336,33845.1640625
266,9476.6455,34.50615,-8477.821,3568.8235,-11554.581,-4223.2925,27096.705078125
267,1375.0438,-29055.275,-32169.348,-4658.3325,-5832.087,8516.64,37619.1875
268,31235.67,1927.2117,8845.436,2234.8357,-337.28476,-1175.3094,26898.95703125
269,20029.115,-5467.4155,7161.1294,1092.7437,-3894.3267,5563.426,25089.916015625
270,13420.181,12960.572,1529.6766,7040.8027,-5527.22,1134.2124,19502.791015625
271,-38351.812,-37562.184,-37901.63,-1455.3079,-21331.873,4417.997,37822.30859375
272,-43452.48,-11159.603,-35710.6,-5305.1143,6691.203,-9746.054,36830.22265625
273,1671.9576,10586.471,6456.693,-15446.729,6609.6504,63.140804,30109.587890625
274,-12249.851,-9723.945,15768.195,-7348.0215,3576.1584,10631.7,35497.41015625
275,-1911.5305,349.38126,-12944.836,-5292.208,-2930.846,-4274.673,17787.673828125
276,6157.02,-4807.9346,11833.125,-5748.7485,2332.433,2698.9216,18761.775390625
277,12885.5205,45626.867,7586.746,-5489.042,-4732.0806,-956.3101,37866.5
278,-4393.3843,23571.268,25112.635,-5010.969,1236.2921,7033.45,32493.44921875
279,-33007.707,-27401.941,-41462.734,-5788.4126,544.0818,1779.4567,16162.1044921875
280,532.5637,-16098.8125,-36815.418,-12155.931,1941.9534,4167.4033,39459.36328125
281,82458.54,75439.09,61274.652,4090.6072,-17039.244,-4018.0623,36317.6484375
282,7007.6294,4648.446,4195.1865,3274.3975,534.7902,-4592.301,10155.3544921875
283,13716.1,-331.87207,6407.6245,8297.214,3561.6606,-6252.3135,22582.115234375
284,14455.776,18099.113,5487.844,1256.1382,2495.1357,858.73,12328.5810546875
285,-19186.6,-17752.791,-5873.646,-13662.696,-4864.235,8429.533,31691.6953125
286,8715.418,-7693.777,-24499.523,-3869.0894,-7661.994,-2372.5142,32640.12890625
287,-8944.653,-3587.7537,21632.846,12024.99,5179.128,8871.747,39373.5234375
288,-2417.256,2891.3896,-21757.592,10580.276,-2442.5007,4494.729,30318.859375
289,-16913.37,8844.981,11325.595,7789.368,3562.4128,7804.0977,33709.78515625
290,-14594.519,-14360.697,-16613.305,-523.1233,-5400.1636,-6414.9487,14709.2890625
291,-1241.938,-6025.343,-20580.06,-4892.9033,8862.14,-10867.47,31081.853515625
292,-22724.873,-38533.562,-20479.715,-11547.04,4009.9438,-7844.952,30386.17578125
293,425.36246,15759.496,25586.31,-14142.336,-5945.261,-6065.329,36038.97265625
294,-34826.684,533.3192,-12318.341,2526.9663,-10235.124,-105.1982,35979.484375
295,3048.9346,1016.43146,-3192.032,2243.3767,-7409.8716,5537.8154,17384.330078125
296,-8222.224,-22797.746,20913.418,-61.132694,-263.54004,-1859.6376,38685.82421875
297,425.61182,441.57666,-10495.541,-4988.006,6236.9165,3438.1204,18607.69140625
298,18388.07,7805.6313,3284.773,-8969.73,2193.81,-11222.532,28529.111328125
299,-9935.142,-6113.548,-10490.217,-3708.5137,4789.394,-7092.7354,16674.193359375
300,-4715.3696,3220.4854,-3447.4968,10185.52,-2991.2563,6314.1865,22632.0078125
301,-13536.62,-33217.973,-31851.521,-3783.5352,-6306.9946,-2599.786,23342.7890625
302,54818.758,63028.074,53539.184,3624.6335,-13290.62,-9506.137,30331.009765625
303,-42637.52,-48717.457,-49079.37,3428.386,1318.069,5906.8525,13580.9853515625
304,8660.974,27214.4,6312.5854,-1367.766,-854.8271,-14294.106,31844.689453125
305,-24851.629,-18113.484,-40093.094,-12714.294,-2876.6729,3157.2344,30333.05078125
306,488687.12,489360.72,488069.7,-946.11597,6.7019205,-113.70163,1993.78662109375
307,15245.248,14739.051,8513.833,16139.115,-2426.4678,-12105.841,35789.5390625
308,651374.3,640914.25,662599.25,-49.440422,817.5332,1451.5225,19004.1796875
309,-215671.05,-216109.44,-212985.05,-2626.2708,6595.385,302.1387,12650.982421875
310,3991.5564,9907.982,12386.826,916.8635,-3078.197,-17382.793,31515.822265625
311,895589.06,893952.3,895854.6,257.31958,-38.55586,453.34937,2000.95227050781
312,31972.672,11285.909,-4809.3613,-5571.133,-7196.9883,-5533.548,36882.5390625
313,-17936.787,2897.4102,4695.7456,3305.0962,4294.641,2074.0317,23995.255859375
314,1473.0083,-8600.92,-6958.5527,8663.987,-1882.6139,-11631.858,27006.73046875
315,-20935.076,-13658.065,6351.03,-10457.316,12501.998,1084.4572,37408.81640625
316,-10925.644,11888.047,12279.628,9926.987,983.8627,3907.8555,29561.875
317,-26441.762,-12603.63,-11506.036,19340.209,-2755.5596,-345.67746,36785.26953125
318,-16713.688,-4476.4717,-4148.3867,4554.554,-1645.812,4652.8403,17005.1953125
319,-5759.905,-11730.212,-9476.952,-1978.9137,13115.3545,10882.468,30171.830078125
320,14070.992,-6399.5,-9561.46,-9456.874,741.37115,8772.996,31537.416015625
321,-651.625,432.2417,12972.14,-4086.867,-3711.2356,371.6763,16243.677734375
322,2225.4229,-21332.055,-1748.0007,-10056.23,2614.794,-5109.8574,29654.099609375
323,-5410.585,9234.443,4423.667,-8502.447,7605.1357,319.45496,23619.095703125
324,-1736.269,-21403.672,17378.87,-4584.897,547.3913,-11090.877,39511.08203125
325,13678.082,4229.8247,-5394.814,-6979.7656,3981.691,4293.54,22844.162109375
326,12403.982,282.35425,24255.268,5781.629,4259.286,-1661.0226,24372.66796875
327,2311.32,-9333.872,-8214.773,-8491.558,7586.6523,3403.2036,23400.1640625
328,-20581.695,-8709.829,3094.5806,-9256.629,-4808.278,5229.0605,28790.083984375
329,-21233.523,-20977.623,-15885.846,3619.883,-8702.644,-2514.9255,17685.810546875
330,11002.884,15781.327,49386.434,-7024.9507,3972.6057,-1634.1489,38937.421875
331,-54965.508,-63135.812,-27821.33,-8249.196,1416.933,4918.7163,36167.5078125
332,20231.07,20148.654,20018.293,224.4691,181.63776,-1113.4446,2000.98547363281
333,7029.8257,7164.45,6204.9854,-329.1602,-975.09174,-75.1959,2000.98547363281
334,253529.48,254779.02,263174.8,-2515.6626,-1117.1888,1397.6769,10541.9189453125
335,141751.98,138426.83,148500.97,7897.369,-4468.0903,7333.3174,22076.6015625
336,70114.695,83752.36,69760.13,-18062.434,-4477.3145,-9885.004,39025.3828125
337,-10009.688,-1609.5348,-10490.23,-13668.291,4473.695,3826.1453,27189.275390625
338,5763.116,2494.846,12468.013,-18182.865,4903.94,7226.7754,36030.890625
339,7181.416,16024.098,32401.168,-3114.652,15186.474,-11182.405,39841.52734375
340,-11412.855,-2415.28,-4455.871,4635.3804,3424.6162,-1134.1819,13048.5
341,3748.5808,-23687.115,-8473.779,8465.397,10204.102,-4827.6455,34118.22265625
342,14714.137,-10667.479,-1537.5559,17186.488,-1428.1577,-507.62335,37267.51953125
343,18682.531,12657.612,7914.0923,1578.179,5716.336,2489.1504,14541.9736328125
344,-148.44922,8673.951,22178.08,6037.0337,3418.0232,-4431.5186,24137.85546875
345,-15379.384,-7763.677,-19327.232,-1915.2943,-5978.8794,-2280.3752,15410.923828125
346,-134909.73,-176726.84,-148961.69,-6035.972,-4260.9736,3359.0408,39447.83984375
347,-6400.131,-2836.9905,11017.825,17047.92,-3839.331,-5509.169,35513.19921875
348,11928.535,8572.605,5632.5933,1259.0876,5371.395,11262.305,22396.484375
349,25847.387,-7286.797,5553.9365,-2786.5999,1922.7096,-5179.19,30856.916015625
350,-16947.08,-586.00244,2639.251,-1277.162,-3190.312,-87.77146,19139.13671875
351,9650.158,6509.9897,-18392.486,-5097.4814,-7905.5674,10705.503,36296.86328125
352,-39341.387,-33858.234,-18684.594,11692.357,4454.669,749.9005,28545.693359375
353,31244.46,21534.43,8503.124,-14597.671,-11996.31,3465.6917,38699.8359375
354,-16909.22,402.40378,-31931.531,-2805.3706,405.50015,-2918.263,28897.666015625
355,-11831.663,-20267.154,-12957.781,-22369.17,606.2935,2484.2334,39795.51171875
356,39376.28,47857.402,9530.756,-7934.2324,-7601.9033,-2152.7627,39899.05078125
357,25282.426,-6807.833,-10089.563,-7453.136,2458.0881,-3422.6418,36956.51171875
358,3639.8237,5005.7427,15525.156,2043.8455,-1413.9442,1087.684,12205.37890625
359,1477.5947,2952.6602,3075.9485,-950.6554,-687.33704,-1470.1688,3603.5537109375
360,37854.875,59301.574,61078.16,7526.796,-7888.653,3314.614,29846.76953125
361,14036.177,11180.897,32069.219,280.0922,2004.0854,-741.5734,19969.146484375
362,19700.695,18264.64,22866.98,741.7481,5959.275,2971.3335,12300.8330078125
363,5761.493,699.959,6134.7305,-18.506481,-1121.0148,2406.1074,6984.74755859375
364,-24791.416,-34523.35,-24991.629,-2970.6157,3261.1562,7311.713,17651.1953125
365,-6906.101,-10267.88,-14190.384,2222.6565,2871.7366,984.3524,9074.263671875
366,-3842.946,5234.8403,-5880.978,6475.265,709.5024,-679.5225,15288.662109375
367,-20756.543,-14954.688,-25756.559,2677.564,4663.894,1413.1884,13432.2783203125
368,14848.502,20623.998,34566.48,-4167.795,247.20854,1986.5878,19297.884765625
369,-28208.867,-30821.09,-37732.906,4407.7134,-1585.2849,1171.1022,11941.095703125
370,8530.703,7230.403,3135.5657,3313.1235,1062.121,274.41525,7766.82470703125
371,9856.367,7880.1895,9327.78,269.95917,-1028.9764,-1450.7892,3584.6171875
372,8313.961,2360.4812,-2270.0908,1887.2493,58.143177,19.52299,9754.5146484375
373,458.02832,765.85815,-4085.2773,-1692.4347,-482.35254,-214.7138,5618.20751953125
374,43977.996,33069.953,76380.555,921.89435,-230.11069,2716.9016,39334.62890625
375,-591.81836,19968.03,29334.943,13818.631,-4630.6855,-3735.5112,37176.39453125
376,-5513.5986,-13784.512,-12004.732,-14.947409,-1412.906,1589.6514,8392.0068359375
377,26533.205,24776.896,43793.31,2004.6523,681.4009,475.53827,18585.9375
378,-21747.627,-5637.8926,11613.93,14298.713,2521.857,-5013.515,39279.96875
379,10542.877,-8460.213,-7824.8145,5784.786,16474.312,1207.3557,35614.8828125
380,42506.984,31612.645,71335.74,-4262.218,-1123.948,-3553.4927,36878.5234375
381,5115.5176,3661.1038,-2359.6018,452.5387,504.09302,1489.0918,7426.28466796875
382,-74691.75,-108885.33,-108781.5,-8692.461,2204.4492,3320.1865,37947.171875
383,1286.5553,-7167.7812,2547.1748,-1078.639,-513.8528,-871.55817,9501.791015625
384,9607.617,5185.746,3321.8008,865.5937,-1847.2584,-439.4276,6658.3408203125
385,-22348.477,-24313.666,-39410.652,3691.9788,-3802.1316,1028.5759,18678.4375
386,6168.3643,-2939.2043,-1730.6819,-1838.1622,-966.4531,-936.87256,9432.5732421875
387,11467.964,2670.4097,7168.883,56.01744,-832.62134,-2027.1669,8513.228515625
388,-11644.785,-13124.418,-20296.713,1356.3489,3271.5442,1169.0997,10294.2666015625
389,7560.6655,9689.881,26449.441,-969.08044,-1633.3643,3390.702,19141.91015625
390,-25.294601,1739.131,-996.65,-2388.395,1759.7948,173.78207,5680.2412109375
391,-19314.129,-22728.918,-31630.725,10449.178,3.4875894,-4020.027,22301.087890625
392,2899.623,4514.8145,17252.627,8763.272,-4067.2053,3341.3083,22336.943359375
393,3849.5806,2851.9072,14949.728,3219.6038,4390.0566,2500.412,15586.99609375
394,6245.447,2725.7017,848.2185,4644.218,-1568.876,4116.8477,12060.576171875
395,5055.238,-267.5205,7516.908,-24.25689,-3342.0703,-2301.3433,9843.427734375
396,-4734.4854,-7535.469,2948.207,4277.388,-1113.4779,3102.3608,13261.5966796875
397,-13835.081,-5905.33,-9391.731,-6252.0083,-20299.678,-6064.342,38874.3125
398,-1050.7432,-7184.092,31178.676,-4760.0596,-3219.178,-1677.8489,37169.03125
399,-71969.09,-60813.367,-86609.85,-9862.238,-7945.1,-5219.71,32634.8203125
400,72569.49,85465.43,115345.21,5758.0938,1263.9115,1272.3396,39415.1015625
401,19671.107,-3198.1772,-17563.934,8329.403,182.27017,1589.523,35689.3515625
402,2453.5156,-22421.021,-39555.523,-6178.572,-1656.7657,-2683.9075,38508.640625
403,-3795.1206,-6161.4526,607.75635,285.6711,2609.061,1692.4624,8041.34521484375
404,3579.3196,9487.795,-4683.8594,2706.6494,1231.8799,-1330.2072,13559.1953125
405,2571.388,-4416.8726,7695.7627,3174.9739,982.0608,585.641,12044.462890625
406,15077.828,15644.057,18767.38,3234.1917,-4754.9043,-2352.451,11298.3935546875
407,5057.5996,1412.0771,9360.127,-2073.7007,763.422,305.59448,7900.3701171875
408,-1074.19,-17462.879,-6418.365,-1684.6921,-946.58954,4954.97,17158.763671875
409,-13114.681,-11781.925,-20062.668,-3736.334,-1559.5974,928.7302,10539.2578125
410,10311.349,-2418.4229,23867.314,-6958.0,4068.4338,2578.8826,27078.1328125
411,55726.344,62575.688,68961.33,2502.2441,-19366.574,-5174.295,36820.15234375
412,-13380.341,-12060.5625,9245.396,-16171.618,4656.6143,1763.7595,36643.59765625
413,-4076861.5,-4076804.2,-4076466.8,-282.44022,849.2205,698.65076,2000.921875
414,-14016.729,-10246.89,-8635.115,2393.7012,-1048.3549,-3642.382,9119.9248046875
415,-29181.87,-35397.324,-16367.531,3141.2651,828.1028,-2199.2808,18128.88671875
416,10636.138,27438.703,21789.244,2396.1272,-608.71265,-2436.7473,15983.3125
417,16050.373,5825.5186,24337.324,5103.9565,-3318.3376,-1038.1599,19296.958984375
418,-1332625.9,-1332187.4,-1332293.0,30.04783,866.00586,728.9751,2000.98571777344
419,6853.323,10037.803,14821.752,4642.2905,-590.5767,-1586.8695,11023.3779296875
420,-35479.176,-10767.842,-51782.848,7410.372,1806.9867,-172.73181,38130.97265625
421,-5462862.5,-5462608.0,-5462020.5,124.302864,905.0017,559.57294,2000.56237792969
422,-9049.812,-5944.5747,-17609.854,-1499.7943,-2499.4146,-1718.9232,11993.7998046875
423,34371.746,10889.562,5819.366,-3284.4797,3356.1067,3309.5474,28199.15234375
424,20074.723,9698.766,45425.23,6501.8794,380.8705,1770.6162,33911.7734375
425,10639.736,2859.42,-2489.5237,4073.5698,1873.2711,-934.8908,13917.341796875
426,-1454.4937,-4127.9126,-7366.9033,4500.1006,2825.7478,859.38306,10640.5029296875
427,6134.1504,6997.337,16001.034,2481.5344,4040.077,3581.4133,13982.267578125
428,-11579.988,-21132.873,-19399.715,5408.5894,3742.2822,1090.6616,14527.4208984375
429,-4237.7007,-11217.066,-10240.086,708.7657,2144.0212,711.5509,7724.23291015625
430,-29825.111,-3622.252,-44714.676,1894.0333,-519.7775,-3037.7004,36574.49609375
431,18003.318,41856.438,-206.08203,1867.8292,-5219.8613,-6158.1353,39254.0390625
432,3461.5674,4164.925,21425.807,5780.849,752.5798,-704.91724,20347.427734375
433,25266.258,25981.113,41328.406,-430.2056,-1362.468,-2280.7065,16393.61328125
434,50099.105,69128.73,27961.52,5521.109,1893.5598,1536.3392,37185.41015625
435,-17873.822,-19625.713,-25134.637,-284.70935,-3575.993,97.91582,9038.9990234375
436,13482.096,12302.551,17657.832,5955.287,3552.2363,-1984.6057,13409.736328125
437,-30082.836,-10311.727,-48649.254,343.70453,8639.041,7145.9873,38472.5390625
438,21784.074,16541.969,40168.49,-2010.616,2684.7976,2748.2231,22765.09765625
439,-8861.12,5101.898,10370.777,601.18677,2834.94,-154.02126,17932.1640625
440,-267.72742,999.1063,-4661.632,4243.5337,-456.39157,1477.6823,9363.5390625
441,5704.6045,550.98584,15340.731,-910.5707,-592.26764,820.23425,13214.9072265625
442,6592.6987,17745.398,-21172.273,6856.884,-731.62885,-4055.0977,37375.375
443,-626.6464,1482.3812,1065.8279,-88.80948,-591.1861,-2173.6372,4357.666015625
444,6648.55,8493.165,11758.225,1081.5089,3602.2988,1942.0153,8592.9580078125
445,1280.4808,-1724.5902,469.11798,-3552.202,-1297.8613,1259.7736,7410.76171875
446,26550.047,9449.886,53418.78,-2929.2832,-327.2444,6017.9067,40106.2734375
447,-2362.954,11563.889,19540.354,623.80334,-1415.3778,203.24292,19389.923828125
448,-3195.755,-4352.9673,-19205.953,1527.4619,-1453.5812,-878.275,15962.162109375
449,13409.379,-6672.841,11280.852,-6223.663,-1795.1278,92.205215,22157.96875
450,6473.83,1965.6575,9238.091,1409.7417,817.776,1227.3324,7274.197265625
451,37730.195,8181.4277,48032.105,541.8034,1423.3629,5373.6265,37111.37109375
452,256.8461,627.5309,-2286.7063,-1524.4968,-1571.9886,-316.15204,4715.45263671875
453,-3506.729,-3490.006,-3301.3975,289.5631,-30.537106,-1363.604,2423.13696289063
454,-2296.7068,-4218.4263,-715.44946,4462.508,-1184.796,-1768.4248,9086.65234375
455,2577.893,5417.439,10498.57,-10731.582,2634.5957,3143.17,21077.748046875
456,29267.973,40931.754,15899.659,6757.3193,1651.4316,-1460.4921,24944.8515625
457,65251.72,52763.605,61098.95,-8670.066,-221.6929,3159.1082,19414.83203125
458,-8915.678,-13661.637,-16535.906,-31.962833,-792.64307,5355.3804,11504.560546875
459,6052.474,6640.3657,6702.3105,313.47327,-98.46919,1423.8787,2606.15576171875
460,6513.1543,6095.245,11051.327,-2756.2632,178.84525,-715.3974,6862.1064453125
461,6896.959,4601.046,13755.323,-865.89056,1714.4364,2135.5693,9633.46875
462,-22932.984,-20878.488,-17884.479,-2078.9058,2972.5042,-1535.1997,8116.626953125
463,11453.659,8670.207,12138.451,1574.6537,-1699.1965,-904.35394,5355.0546875
464,8132.508,8588.682,11181.344,323.10696,-1556.4418,1404.4265,4648.72705078125
465,-6313.08,-4511.7246,-8269.17,-2017.5032,-1879.6512,-2660.1711,7391.51806640625
466,-9291.728,3348.031,19581.365,2490.129,-1044.6155,129.08083,25502.861328125
467,37422.727,48044.01,23853.088,-162.7322,156.24654,-2435.5442,21424.80078125
468,-38900.613,-37643.344,-17410.836,-17094.082,-4095.9978,-2055.3445,37094.484375
469,-7005.158,-3596.517,-4728.2627,605.5805,-459.12503,872.25275,3613.44897460938
470,-8527.922,-5623.862,-9466.137,18.64767,5923.092,-47.390846,10830.2939453125
471,7427.453,855.3003,8741.242,2376.2632,-2436.7322,1510.1465,9754.3916015625
472,4944.1934,15897.546,34220.02,5425.9424,5833.809,4754.769,30242.80859375
473,16299.605,19530.258,40492.184,528.9096,739.9926,-1897.8267,23040.126953125
474,89580.33,65716.445,106484.414,-2870.85,1349.7894,10076.254,39917.58984375
475,-10260.616,-5194.7305,-10090.186,2406.689,257.95135,-1022.319,6748.35888671875
476,29250.441,67482.305,49653.004,9990.981,-5733.7227,-4055.5828,39310.828125
477,-14989.391,-10284.445,-17503.0,595.9017,692.6675,263.62668,6557.00341796875
478,-2035.6296,-1864.6309,-9495.813,-1003.312,-482.84378,1412.6501,8164.8837890625
479,7315.762,4872.6006,1877.7878,2091.1272,1039.4178,-379.89804,6248.7861328125
480,1430.2434,-3940.617,-6054.5815,-47.15088,-2160.3977,-1232.6002,7952.064453125
481,-8238.613,-11323.783,-24353.943,3421.225,-1320.201,38.13872,16119.8984375
482,14486.812,8218.297,26816.035,1605.9373,-140.05894,-1247.1846,16764.615234375
483,1208.6067,-419.71823,-881.3542,-2613.6965,1033.2156,798.97375,5406.306640625
484,-10575.508,-9062.17,-25834.607,-60.350487,-1494.5758,-901.03937,16351.4619140625
485,-5146.1836,-6652.464,-12166.091,1198.7765,3040.1648,813.3156,8660.1083984375
486,23771.332,46693.492,18689.578,-4839.6953,1804.465,847.8765,27384.80078125
487,7829.4272,7255.605,12667.33,-2072.7576,736.6566,-1720.0806,7064.25244140625
488,-6113.3257,1008.1018,-1473.9019,8.964461,1709.7565,-1195.7987,7229.07373046875
489,-7870.6875,-13436.356,-10256.263,3252.2153,1807.3158,812.11914,8179.169921875
490,24574.39,20950.736,48387.188,2220.062,-1973.4067,1264.5797,26414.693359375
491,-6091.3887,-12121.018,-7415.0244,4552.176,-3014.0024,-1690.6052,11319.0712890625
492,12400.773,15578.404,23997.531,363.62613,-630.28796,-1323.1212,10703.8466796875
493,4439.6235,-2973.2656,21368.848,-3680.7595,861.9991,796.31537,22623.427734375
494,-14443.297,-4399.579,-10124.942,-4198.053,697.1061,-406.9078,11444.546875
495,-21572.805,-25947.703,-59783.004,2020.005,2009.9034,-1100.9269,36605.87109375
496,-11124.067,-3638.2754,-16273.365,-1524.5521,355.43942,-1868.714,11786.7294921875
497,17731.248,15083.588,33677.402,2056.6753,-220.72064,-33.071934,17786.205078125
498,4739.79,7095.486,7868.959,-3684.9666,-3621.3657,-2312.0476,10202.2607421875
499,9257.623,7818.838,4835.914,-1034.5315,-85.58787,-1809.2578,5320.96875
500,-6993.379,-12349.808,-8018.541,4003.3933,-100.23989,-392.45886,8533.7431640625
501,-1307.2397,4581.462,13169.557,2745.8538,617.8065,1263.9106,13695.3095703125
502,-22903.836,-25175.227,-51397.773,-6329.631,1633.9796,3897.8599,30432.3046875
503,-57998.316,-60496.984,-76346.234,-1085.1632,-334.79633,-1536.1421,17549.708984375
504,-10778.862,-7718.6025,-18096.389,1638.6882,-314.84012,-535.987,9722.1416015625
505,-51509.68,-18891.225,-41249.67,2761.846,981.50464,1234.9028,29409.421875
506,-51959.688,-30706.045,-70526.2,-4745.787,-6952.6353,1272.8835,37529.78125
507,-750.4093,-5195.9614,-1094.1232,-4896.5547,-645.32837,-408.7775,9593.35546875
508,2011.9633,-357.7705,-6340.651,-1104.9501,-1569.4495,-292.75763,8179.10205078125
509,2505.1536,4676.3345,3883.352,-691.3816,-875.7887,858.8464,3093.38549804688
510,14085.595,14453.281,30347.86,1686.8374,-1713.6416,2226.1567,17053.748046875
511,-12065.443,-13011.348,-27253.344,1739.969,278.47946,-361.90372,15063.4931640625
512,-23985.33,-25887.19,-26410.35,1957.3345,4653.856,-802.4313,9126.1181640625
513,5361.7993,6467.7695,6457.8164,-1622.354,-177.64688,551.27893,3180.37084960938
514,6778.6816,-36983.695,-17815.412,444.26178,-196.04037,-2696.089,38291.42578125
515,-1115.0718,-7776.3384,-14785.916,-682.9261,1169.856,2443.6304,12791.3310546875
516,4870.8135,5576.5864,10472.969,-2973.0476,304.14462,-653.22723,7483.5205078125
517,-26985.44,-41062.418,-41661.188,1975.5634,-216.93044,-1707.9246,15084.7421875
518,32453.115,15102.435,30456.672,-619.77264,2527.9182,7029.2334,20951.041015625
519,-48771.055,-14082.244,-43865.066,7002.305,1348.406,1667.7128,34901.2109375
520,-7908.58,-3953.4233,-12713.952,-1656.0657,-394.11444,686.8682,8237.103515625
521,3801.3093,5367.7974,8530.709,-2258.0325,-754.31793,1183.1587,6214.11865234375
522,7426.896,7836.187,6385.642,-3256.055,-241.26643,-85.84024,5803.47509765625
523,-3895.478,-6069.497,18284.467,-3750.8127,4307.7827,-2402.2688,25692.126953125
524,-18324.95,-21679.064,-31137.312,-913.7141,-1946.9795,-2307.8145,12739.2080078125
525,-1784.7478,-5728.967,-1827.4932,-1333.3301,-0.8421623,404.47708,4605.88818359375
526,2222.6414,-1530.5441,5280.967,-2536.5483,-2748.329,-1438.8339,9115.4326171875
527,-3829.2815,279.55225,-14768.703,825.3012,-233.58638,1843.9677,13925.1357421875
528,386.14038,-745.20215,9199.458,2412.2468,-3649.5557,-6669.2495,16726.525390625
529,-5821.8804,-12598.903,-16029.797,2179.423,336.46005,-321.90585,9790.3251953125
530,-4891.0376,-6174.224,-363.7815,-858.2483,1457.9578,672.3713,6155.880859375
531,-547.8721,-2205.1577,-5725.7866,-910.8496,-373.5685,-193.73671,4898.603515625
532,570.88477,-1361.4153,-5223.482,1487.3151,1823.7502,1807.9939,7247.96875
533,-1682.8315,-5234.6055,-15324.936,-2357.1096,2523.9302,1621.0752,13925.8994140625
534,7044.314,10946.634,1243.0088,392.66693,191.59383,-1269.576,8770.9716796875
535,-8820.53,-5854.9507,-4373.535,2384.5344,-401.06403,1106.4591,6049.44921875
536,-9131.667,2886.2522,11998.17,2576.4568,414.32407,-594.3118,18932.84765625
537,4110.6367,8428.315,9130.681,-102.637115,193.01166,617.5054,4843.09375
538,-2491.082,-1296.1138,-5130.1807,-2542.0952,-256.8672,1342.146,6044.43408203125
539,4716.929,3551.3477,2125.2808,-1722.412,2581.905,-1417.8628,6323.310546875
540,6747.4375,4222.9126,17428.076,-964.66534,28.119421,247.6463,12263.396484375
541,-2770.4404,-6280.763,-2010.4752,3158.7283,-2453.3513,-940.38885,8136.9599609375
542,10315.781,638.98535,18893.643,-1904.4286,859.27423,308.12964,16235.970703125
543,1189.936,8957.449,11786.08,-1635.8339,2089.7368,52.595592,10556.7041015625
544,891.5534,-5447.5557,4598.9805,-1756.4581,-275.5494,307.56714,9337.9931640625
545,3509.563,-8141.4023,-3247.167,-458.66754,625.7874,-489.3183,10256.7158203125
546,-22452.93,-26942.234,-33832.562,-603.0884,-575.2367,1217.5299,10251.5478515625
547,37664.332,33035.008,47994.227,-406.10178,1781.0718,-617.834,13678.9755859375
548,3177.2444,-1617.6906,-1581.2733,-1568.0623,596.4217,-295.955,5614.66748046875
549,2547.877,1606.0808,2792.382,-1434.1075,-274.33636,230.92487,2780.78955078125
550,-13759.2295,-5778.3574,-8580.017,3084.199,1239.4069,-6021.5327,13824.099609375
551,1749.429,-1835.6345,-443.88617,-4110.788,793.7254,325.5971,7918.580078125
552,3072.5273,4759.448,13785.01,-872.75446,-1046.9393,-942.31146,10381.1884765625
553,-2383.5928,-1852.9863,-21626.373,2789.0732,438.10712,2152.2114,20459.3515625
554,-3331.7498,1559.1257,-602.5715,-2426.147,880.93823,-18.285421,6165.12255859375
555,48676.086,50078.234,76189.52,-283.84494,133.36414,118.87081,26846.130859375
556,-1251.48,-7575.9272,-8776.869,-800.20856,-278.24008,810.97253,7291.259765625
557,-2196.2441,-4447.4746,-16869.65,2508.1716,-283.32663,873.0229,14447.96875
558,-18672.24,-16698.414,-17353.643,-3652.222,-1453.7952,-752.1654,7147.447265625
559,-2001.6187,-2170.4094,486.08862,-2038.923,-3067.866,-2992.7861,8614.779296875
560,26646.51,36699.598,41376.28,3210.055,3015.2297,6356.3623,18690.88671875
561,-13561.192,-7426.037,-10321.045,2966.7102,-2585.9438,-1176.9102,8881.478515625
562,-88.00281,-3691.3503,-1788.6791,-1243.6807,-1397.2697,-803.6514,4709.90087890625
563,1461.7812,2000.2119,-2662.647,-3527.7605,1080.723,323.85764,7789.4384765625
564,11986.756,3616.0947,913.9385,-892.1778,-6.472355,1841.7626,10609.08984375
565,12847.027,5949.759,6151.282,848.0457,-187.02357,1151.035,7242.93359375
566,3437.0913,-2808.8489,1235.405,1975.5709,1624.5459,-387.96964,7084.154296875
567,-10931.489,-13370.094,-34096.04,-795.7814,-2446.815,-2240.9448,22824.984375
568,2640.6965,872.82007,9485.074,743.4724,972.90826,-1348.9072,8486.8994140625
569,-1037.5449,2260.5977,-6885.859,-1284.4894,702.21216,561.9228,8470.265625
570,-15345.365,-24101.078,-25329.215,-659.88934,-658.1843,1483.2157,9906.0498046875
571,4854.8125,4717.8916,15107.918,4409.4736,-3542.6602,-1632.4622,14509.48828125
572,34118.805,45477.332,54475.297,-5184.0474,-615.39966,-1715.659,20069.201171875
573,-7344.691,-10281.873,-4901.7036,5208.376,-3625.1003,1402.7261,12185.2060546875
574,-12538.409,-10739.701,-16936.666,-1099.7787,1398.468,-636.014,6418.7548828125
575,-10003.596,-42753.797,-46389.58,-10421.345,1529.6276,-2277.3394,39411.40234375
576,-18219.135,-18812.88,-31023.352,8060.159,673.8422,-2351.4944,19223.61328125
577,-12671.131,-8605.475,-10773.49,-264.37518,1739.8906,-3670.4612,7881.85546875
