Element Label,S11,S22,S33,S12,S13,S23,Mises
1,9558.335,-11403.949,2409.1873,86.098724,8897.158,-3558.2766,24822.36328125
2,2980.0508,-14928.816,1059.769,1502.1409,2807.0374,4397.6387,19453.798828125
3,-11489.671,-14548.855,-9852.905,8653.436,-1430.4081,-274.18707,15749.740234375
4,-13829.267,-16633.79,-1597.0918,12948.322,2475.023,-2151.2388,26963.58203125
5,-24902.014,-25264.473,-842.63184,-625.20886,-952.72345,-7925.1895,27928.970703125
6,-10746.505,-17560.182,-2322.3774,-358.83362,-8269.916,3437.1677,20391.041015625
7,-1635.4822,-9019.722,4813.2266,690.2189,-1630.7186,1327.1616,12586.6064453125
8,-13166.8125,-13705.533,-2417.7422,6894.162,2715.879,-7297.893,21121.498046875
9,-8096.7593,-3119.158,14011.529,12690.6875,2552.088,311.69415,30108.109375
10,6300.6255,8524.653,6867.7773,-4348.635,-6864.6636,70.35264,14217.037109375
11,-10147.05,-17405.582,-1875.0552,-8029.095,9229.699,712.2643,25132.40625
12,-5271.029,-9884.879,-262.44092,-1104.4874,-2087.9258,1324.0259,9564.494140625
13,-9256.727,-10965.223,-270.60156,2777.728,9121.063,2405.186,19725.76171875
14,-18085.152,-18883.174,-5002.4736,8362.297,-1553.5837,-8513.701,24833.6015625
15,-23257.275,-21202.834,-30564.393,-2105.3987,223.65714,-2851.9053,10510.708984375
16,-7915.8936,-15010.345,-8154.112,6107.664,-2543.214,14768.364,28884.703125
17,-19129.941,-6729.8726,-22563.443,6401.816,-1694.4615,10473.727,25860.90625
18,-3033491.0,-3033445.0,-3034500.0,322.3325,715.15533,-603.0694,2000.93103027344
19,-38816.7,-42021.99,-32593.77,-5411.232,-954.12573,11312.683,23312.029296875
20,-15094.26,-24622.947,-4612.409,11919.821,-3048.834,-4004.5251,28333.455078125
21,8627.49,-4706.328,16627.006,1784.1068,-17301.904,7156.579,37546.15625
22,7524.69,5688.608,-10845.89,2269.8367,5812.3496,2661.1855,21099.095703125
23,4408.0317,-1453.8057,-10774.17,-16314.545,-10332.316,-140.17041,35981.76171875
24,-18497.191,-15062.303,-5346.367,-5075.183,15089.485,5215.2495,31329.18359375
25,-11093.589,-11921.334,-15864.367,-9231.2295,9210.114,-5882.008,25167.755859375
26,-5659.641,12107.579,21210.326,7629.69,-8432.259,-13248.972,38403.33203125
27,-26621.527,-13367.225,-9067.175,-2142.751,10551.014,-4687.642,25784.275390625
28,-19004.992,-27287.264,-27803.725,2196.1404,11024.469,6636.8003,24173.693359375
29,-10998.702,1589.781,2760.3254,7342.2344,1034.9271,1279.972,18558.794921875
30,-6495.0024,17709.232,5681.6226,6750.052,-239.68788,-6917.468,26829.1875
31,-16548.707,-21985.068,4208.8125,10252.518,5246.88,8936.041,34796.03515625
32,-5832.66,-17655.562,1609.2013,17672.26,1123.1201,2642.785,35281.8671875
33,-16014.361,-14820.927,16748.85,11015.686,-1948.3827,-4774.938,38465.2578125
34,-35197.098,-22805.58,-17328.043,615.3526,-11185.848,-603.6125,25080.404296875
35,16310.132,814.1416,24628.445,445.40024,-11169.019,-4999.409,29799.982421875
36,9177.006,-9169.238,-7420.919,6817.1226,-3162.0068,3991.286,22907.89453125
37,-23370.62,-914.70715,6941.106,-6421.596,-1525.8134,5222.662,30901.697265625
38,-20503.213,-13160.83,2525.5024,1953.5771,-1266.159,-4668.165,22288.580078125
39,-2672.0757,-17699.393,632.1201,5871.9487,-1015.8874,-8212.594,24398.0859375
40,-16756.643,-10710.675,4740.452,2999.3613,-14473.178,-10816.803,37082.67578125
41,-8074.7075,16083.934,-10229.72,-4719.228,-3041.8318,8704.847,31020.0078125
42,3029.849,-1115.335,932.387,-8424.013,-4813.99,10958.715,25604.361328125
43,1171.0881,-12576.637,-4929.239,8167.7983,-14056.065,10324.454,35425.82421875
44,-5174.8438,-6854.7095,7062.9624,5039.7354,-3402.5725,56.972553,16854.75390625
45,2059.1184,2158.4202,3408.6357,265.4846,-84.490524,-831.4708,2000.98522949219
46,21659.6,20797.658,20265.078,-318.6628,323.8904,594.78094,1779.4052734375
47,17131.55,17766.076,16542.783,-183.00679,-341.9243,899.4316,2000.25
48,18500.564,17537.688,16679.393,79.868164,261.85815,-654.7235,2000.26733398438
49,-15586.059,-1712.9575,696.265,-819.2197,7453.5,11491.918,28223.404296875
50,-41238.414,-42689.684,-43213.098,413.5786,88.57672,-330.40323,2000.98449707031
51,-17598.246,-15888.319,-16354.381,523.376,345.1341,-400.28873,2000.98596191406
52,17078.105,2480.145,14218.327,-9213.108,-279.42343,5852.8706,23177.111328125
53,-23176.404,-13958.668,-10789.14,-9426.04,-5704.281,8192.356,26262.896484375
54,-4511.6523,-11962.03,-7848.6934,-8265.504,-302.71164,8914.566,22032.267578125
55,-25529.008,-11251.95,-13011.071,-681.51874,-920.2138,4024.4976,15308.0810546875
56,-26560.773,-27013.408,-26561.314,366.21936,-540.4951,916.616,2000.98559570313
57,-5040.264,1412.3542,-7850.7114,2061.7554,748.9685,-6519.033,14477.5126953125
58,-14184.723,10981.185,5965.3057,864.99744,-1536.6324,-4115.0747,24338.912109375
59,16707.627,23097.453,4745.1865,-2933.0437,-11006.575,8095.94,29090.251953125
60,-3868.7334,-1067.5858,790.8644,-9753.45,5700.6616,-9645.846,26048.3203125
61,-8800.925,19445.1,-8660.819,15902.843,4040.6982,-1870.3396,40150.68359375
62,-1166.4341,23951.764,10560.796,10788.239,-12645.391,593.77264,36108.4296875
63,-1615.91,6132.837,-1339.4489,-5065.8716,2201.149,-246.49841,12234.537109375
64,-13354.449,3289.597,-4899.443,-4770.4434,-2379.638,-5056.738,19229.068359375
65,3914.0908,-2238.397,-6755.7437,-6285.1636,-5268.3955,-9254.102,23339.78125
66,14808.073,-2193.479,-9447.565,4322.6465,-6360.1577,9582.257,30296.44921875
67,13132.28,8583.004,-1306.7186,-9626.297,4133.897,-8257.342,26406.60546875
68,17517.219,5152.1343,21813.53,4833.938,9470.286,-272.973,23745.76171875
69,-11009.399,4393.9717,4967.2144,-7216.7734,13920.945,4933.9155,32512.712890625
70,11993.684,-6315.3594,3814.4312,-4528.434,-3938.443,-1100.8569,19080.271484375
71,-10206.531,-5988.427,-5481.246,-4771.3516,-4591.2495,-7196.741,17524.392578125
72,-29019.268,-14571.661,-17135.197,9978.426,-10861.673,8365.084,32261.845703125
73,7712.573,-6920.2817,-4024.45,7763.5127,2678.7952,3164.4148,20310.5078125
74,16294.221,24045.291,47897.445,-11710.658,4610.5337,8356.89,38711.58203125
75,-3188.5254,3466.1943,1573.6567,-8060.3384,-2823.1604,-7661.369,20740.787109375
76,-22670.922,-30397.074,-58029.71,-1253.9058,-10044.946,-4656.5312,37539.57421875
77,71075.95,70643.61,70708.375,-944.5872,448.12164,432.68594,2000.98486328125
78,10926.988,-726.4689,-20248.045,7081.4683,4673.778,-2412.4863,31270.166015625
79,20960.2,20990.416,22475.812,-248.35028,496.63538,-524.9657,2000.98486328125
80,-140492.64,-141132.89,-142141.16,-305.1226,606.81226,-422.04385,1997.59545898438
81,20592.654,20578.043,20879.193,-27.422731,1080.6808,370.39084,2000.98522949219
82,43908.816,45194.55,44416.86,181.95436,900.93536,209.25372,1980.84558105469
83,7706.7188,-17249.816,-17033.537,6229.7827,-5768.3184,-3640.0942,29554.69140625
84,-1732.875,1039.6589,-1785.0248,-10547.564,5583.7246,9607.176,26683.609375
85,-15477.065,9445.568,2601.515,265.80795,14579.969,-2426.4153,33955.96875
86,4878.2046,3681.4492,8241.704,2349.826,-4437.3955,-5247.877,13229.8056640625
87,-10776.386,-15322.225,7455.8228,1282.435,3824.206,2052.368,22302.533203125
88,-7276.9385,-15431.258,1667.1405,8092.627,1821.0785,-10710.08,27748.1640625
89,-3413.5864,-5260.3027,-6376.8955,13374.54,-4335.2188,-7831.69,27995.404296875
90,-5978.54,-2463.377,11985.248,21.403812,7386.789,-1277.4713,20988.08203125
91,-11555.521,-15281.131,7202.0415,-4581.872,3478.5237,10162.61,29064.181640625
92,-35205.06,-19517.322,-15727.567,-1594.1117,-8649.153,10421.274,29627.28515625
93,-14113.697,-14091.427,-13020.156,189.73055,6754.75,6783.0386,16618.927734375
94,-5841.0894,314.95447,6885.064,4320.908,-4492.9097,248.44362,15435.7939453125
95,14098.969,22936.318,14166.665,-5553.9526,1651.3341,4512.373,15469.6318359375
96,2430.034,27780.834,-10953.579,2427.8044,-3982.3784,-193.43779,35020.6015625
97,6131.5835,-6857.191,948.9604,-1376.0247,7189.0054,-9626.843,23811.88671875
98,-5024.773,5428.1816,-7528.485,-1070.4072,-8840.913,6059.483,22130.94140625
99,-1122.7471,8486.465,18948.883,-6702.5444,1854.612,-8717.9375,25989.095703125
100,-229989.36,-230119.61,-228195.42,-109.41939,326.06668,-245.10477,2000.98522949219
101,1452.9438,-213.28421,1903.8741,-102.03061,95.47538,-267.3068,2000.98547363281
102,4439.8354,6787.2563,7179.385,-3527.9639,20874.05,-4277.9976,37496.74609375
103,19791.66,20828.154,20104.92,-505.62958,-9647.668,5719.9424,19467.93359375
104,-19973.826,-4819.2627,-495.9912,7351.892,7638.5894,-4336.38,26598.4296875
105,-3231.958,12011.504,11744.555,5753.707,14773.458,-4630.051,32353.638671875
106,22588.861,29322.135,20650.611,7672.0576,10079.129,12679.783,32028.474609375
107,6220.8066,15479.063,-3782.8474,-6051.969,8724.868,-4832.755,26205.349609375
108,-18033.037,-13710.101,-5601.6685,5820.4263,-956.0111,2484.46,15568.501953125
109,80.76352,10582.95,19770.857,2180.7249,-3897.3254,-6003.492,21428.171875
110,-107.75879,-13216.889,8889.867,12278.124,-10239.928,-1018.2908,33774.15625
111,3824.6194,-9448.116,-2078.3428,-6095.612,-6703.7876,2392.9004,19903.056640625
112,7401.1504,-584.2302,5745.1206,-12949.014,952.6169,1437.477,23774.712890625
113,9032.12,-7496.3906,-10289.301,4820.885,8938.262,-2547.2048,25612.8828125
114,2839.9995,-15082.298,-24745.318,-2399.1465,-3373.9895,1611.9158,25435.8046875
115,-16121.05,-18486.617,-35723.72,1090.3503,-16219.27,3500.6436,34249.28125
116,1041.7069,5017.258,-14109.45,-3824.121,-17673.18,-416.08752,35874.9453125
117,59437.34,58312.19,59203.51,-709.36487,684.7738,-100.073006,2000.98181152344
118,40671.793,40230.066,40908.555,-1088.2512,-104.58408,-144.33388,2000.98608398438
119,-89288.95,-88759.95,-88405.81,305.40424,821.1379,-607.92725,2000.98498535156
120,-891.5783,-5892.1934,10469.221,3690.203,1583.3917,-1884.6544,16429.083984375
121,8265.005,4257.548,-559.9923,5037.851,-1311.0262,-6806.9614,16699.546875
122,-7321.659,-11731.838,6318.9365,4968.626,3453.8713,-3729.7808,20426.849609375
123,-14858.227,-5555.4863,11010.324,10238.25,-4906.0957,-132.14696,30030.009765625
124,13457.1045,9026.322,25853.293,-4035.2175,-11459.629,-2904.3074,26388.357421875
125,2781.2302,2450.7422,2516.0603,-649.79865,329.8245,879.19916,2000.98559570313
126,8759.663,9743.6875,8924.763,-921.99243,-28.394224,453.951,2000.98559570313
127,-315.30234,-1566.3801,-760.69543,212.3579,-744.18915,577.5965,2000.9853515625
128,-15920.79,2347.147,210.08833,-8538.75,1120.3792,2880.542,23380.203125
129,1799.7578,8585.901,-2351.32,-9473.508,13118.384,4635.2983,30682.71484375
130,940.2811,15644.408,-10498.174,12750.231,-7564.7603,11495.285,39636.45703125
131,-7522.4697,-20353.38,3260.6055,319.50705,6371.5693,57.425407,23267.369140625
132,-1822.7666,-5518.9175,14952.007,4100.682,-299.77054,6898.7065,23463.7890625
133,-10967.369,-15600.907,-8694.047,2360.5815,-11314.745,-8788.588,25878.107421875
134,-31021.92,-8898.855,-12843.037,5438.8223,-14384.777,11062.888,38657.46484375
135,-12518.765,-9506.575,3365.0786,-11346.339,3957.0762,-6203.5225,27607.412109375
136,-7005.8774,-8022.0054,-17395.88,-5418.835,4110.066,-9947.53,23109.662109375
137,9861.92,9508.243,8478.791,-727.37823,-30.731318,536.9417,2000.9853515625
138,5043.364,5079.388,3172.1597,-72.918564,-19.068995,-372.33,2000.76049804688
139,-5311.4756,-21924.467,6493.949,10465.162,-4896.3643,4697.9453,32835.60546875
140,-24547.514,-24687.186,-24156.07,292.51938,-86.980385,-518.59625,1146.13940429688
141,1480.847,1608.3428,1605.5288,-638.8831,-676.4013,680.92285,2000.98547363281
142,-3724.6433,-7514.683,-2008.564,13.819218,-14397.263,3888.1775,26287.091796875
143,26421.92,39556.152,21520.277,-2096.9165,-4750.584,14352.263,30980.173828125
144,-546.75037,-7752.442,5302.901,4529.873,-11711.3545,2643.3489,24945.537109375
145,-15592.409,-16994.795,-9012.247,-3206.454,-13259.696,14116.109,34793.52734375
146,-3430.4873,3759.788,4638.1226,-1241.59,-3192.5454,-2764.8115,10813.01171875
147,-1824.1775,9548.559,9524.217,562.5618,1071.5011,-2103.8289,12113.419921875
148,21888.697,-4110.161,26038.3,-363.6242,-8524.05,11640.675,37761.5625
149,-1664.8434,-1460.7644,-837.33765,-9456.263,-11094.151,1796.0927,25450.7109375
150,-3080.1323,15100.81,8217.763,-2511.1357,2803.3818,-3869.6619,18444.505859375
151,-15041.081,-383.18286,15186.558,-15251.719,-5745.6807,1998.8356,38656.94921875
152,-31711.836,-27880.164,-20558.426,-10853.326,336.26096,7967.7925,25308.5859375
153,-4465.8594,-14784.786,-3149.1143,-207.03304,10691.889,907.3797,21618.267578125
154,9578.141,5523.7573,-12510.883,-9589.977,-5683.393,-10423.435,33369.9765625
155,16692.102,11655.765,17201.531,3114.7817,8960.501,8718.932,22939.626953125
156,-21630.855,-17761.268,2473.6597,12430.201,-1834.6909,-13268.334,38787.89453125
157,-15044.535,-4239.301,2520.5369,18769.73,8617.162,1821.7952,39052.80859375
158,-5405.9775,-13049.032,-9403.693,6081.0923,-7193.8213,-4408.5264,19192.20703125
159,-38995.17,-30031.584,-39453.56,7932.038,14256.357,6048.705,31510.4453125
160,15436.922,15734.84,-2930.9387,-7132.0405,-10274.191,4388.319,29495.52734375
161,-17779.145,-2055.4307,-10244.076,3518.4536,2466.1912,875.56635,15595.4443359375
162,4555.6147,18762.246,3784.3665,-1389.2864,-2236.9297,6377.002,18872.7421875
163,-952.1748,6244.101,13973.163,-2763.9724,-2143.5547,-6309.633,17980.06640625
164,-27943.092,-26124.758,7290.333,5849.147,-3916.792,201.39249,36461.17578125
165,4929.827,-24130.703,5386.828,1391.8109,10996.277,-159.74474,35023.51171875
166,-4099.8403,-3284.5474,-8881.472,-10652.755,-5427.0635,9722.066,27198.998046875
167,-6878.201,10183.359,16989.158,-1036.8878,-11255.032,-1503.9961,29044.310546875
168,3211.6917,-6809.5103,2786.0996,3488.6414,849.28815,-1810.2458,12035.255859375
169,-392.37274,6752.8315,10327.601,8879.206,361.9652,3694.0881,19163.19921875
170,-2348.4722,-20848.291,-4718.5117,4762.361,-6845.4683,9734.5625,28229.802734375
171,16289.449,-4772.3086,11984.648,6584.796,-1380.6976,8564.517,26968.736328125
172,-15157.53,-9817.255,2246.3323,15682.47,1147.8484,-5247.3267,32601.3359375
173,11525.537,9909.518,8737.993,1501.8877,-1109.3503,488.8536,4129.54052734375
174,-32228.822,-15113.701,2336.6902,8953.55,-2575.8547,-11332.483,39265.60546875
175,-10086.096,-25080.873,10221.894,38.164986,-587.38446,4811.836,31816.2265625
176,4437.344,16096.194,-7644.305,-1728.3279,-7079.0312,-2758.2808,24594.24609375
177,32539.525,-2949.092,14011.742,-2664.0166,3572.856,-13766.328,39665.06640625
178,1743.005,-2781.6313,3393.0037,-8313.757,-571.5072,531.3295,15486.86328125
179,-6794.6855,-7047.9956,-6882.448,970.72955,481.4398,379.4736,2000.984375
180,24195.438,12554.881,33840.36,-3259.7366,6492.692,3305.768,23063.53125
181,-4392.5967,-10981.848,4051.3147,1954.0922,517.66156,-1225.6655,13679.2919921875
182,5188.64,-25859.273,-413.7345,13540.408,-8210.241,-3567.14,40147.765625
183,5331.028,10207.639,-2665.8438,-7882.225,1294.7432,1009.6999,17922.189453125
184,-17383.01,-5219.6064,8133.407,-8386.116,-2692.5312,-11001.835,32932.0625
185,-16537.178,-11304.699,-4656.812,1440.7325,-4969.08,-16747.355,32063.720703125
186,-12782.413,-7601.0547,177.16515,4291.127,-9663.96,1051.404,21595.900390625
187,4680.611,-29243.865,-26579.234,2678.9897,-8530.948,-4279.0415,36910.25390625
188,6430.4604,-15315.779,-11126.252,6652.373,5658.6562,6389.698,27398.04296875
189,9209.598,24324.443,10349.512,-2241.4272,9773.873,-12292.89,31105.169921875
190,7908.233,24649.629,3563.5315,-2784.497,1652.1335,1443.6907,20238.30078125
191,2793.102,3595.231,2016.1366,-573.3978,75.096146,613.96344,2001.10949707031
192,2908.2212,8933.429,10815.052,14739.027,-4882.6577,-3149.828,28358.119140625
193,9298.805,20734.639,13225.391,-601.8458,-1004.83673,-3702.9414,12105.5224609375
194,-4426.649,7426.001,10363.973,5283.6196,1650.7557,-2367.214,17107.767578125
195,-14154.785,-5091.104,9043.86,1637.2395,-10242.649,-14788.847,37268.8828125
196,-35945.25,-21142.152,838.5408,6060.2856,-5448.568,1056.2125,35074.96875
197,8755.703,10156.328,8171.3267,9788.9375,3746.5732,-2768.7793,18860.0234375
198,4640.7227,10346.754,16536.04,18554.4,-4674.4204,-380.32986,34712.59375
199,3408.199,-14304.542,5032.3545,13930.189,-2373.6475,1606.8417,30853.626953125
200,3350.799,1546.2843,5562.1367,7502.442,-4334.9683,4259.2144,17082.01171875
201,253.08844,-21714.0,-21942.908,6766.536,-5538.98,8122.6323,30248.376953125
202,-4518.118,-11360.192,-10250.23,-2412.4346,3964.7998,4169.3486,12538.755859375
203,-4284.1777,1106.4995,15532.54,6864.909,-5530.5103,2985.7476,23975.419921875
204,-8327.272,2121.4321,4392.791,-9762.773,701.78436,-7907.443,24760.107421875
205,-14150.706,4782.445,-20479.611,-9006.99,-9193.965,-3373.3477,32395.19140625
206,-4823.8433,475.39337,-4863.3047,4582.3853,-5842.6606,-6710.0796,18132.095703125
207,5892.9785,14569.079,4341.2686,-14106.534,10911.417,3449.7222,32878.671875
208,-12118.852,-2988.592,-2256.1018,4312.7544,-11330.621,257.741,23059.353515625
209,-2858.8855,2967.4265,-8742.596,6866.3066,-10104.941,3900.3057,24418.21875
210,-10682.52,-29005.102,-24390.9,-1373.2072,1788.9934,3680.0933,18120.474609375
211,-33499.832,-17733.857,-12714.858,-2130.0042,6078.687,6659.4326,24706.111328125
212,-9730.144,-3793.1038,-4333.12,10444.306,-6454.307,1778.8026,22227.26171875
213,-14241.697,-12360.21,4086.9832,-574.087,18495.576,-5289.0586,37631.97265625
214,699.9568,-15940.313,-11155.129,6997.9,782.913,-98.34547,19208.05859375
215,-994.5331,-5345.6045,2927.7273,11758.892,-8837.85,-1540.3444,26601.453125
216,24351.795,5738.7837,10094.103,3728.4202,-10422.674,4298.242,26596.4609375
217,-13773.209,-1495.4902,-19590.027,7918.405,-6361.3525,14336.957,34382.3203125
218,-4303.7876,-11515.5205,-8150.662,48.907322,6122.4976,4045.2048,14163.9697265625
219,-18177.723,-6445.355,-3292.3538,1387.0061,8263.986,18396.297,37556.69140625
220,3464.7625,-7918.1,3356.21,5168.665,-6193.4873,10592.2705,25693.529296875
221,-3890.7861,-183.00256,7287.4897,-2199.5522,-10039.043,5078.3633,22169.470703125
222,-3165.9407,-8942.928,-20622.387,-2312.5305,699.61066,-5433.3022,18529.15234375
223,5131.6934,-927.9311,7709.297,-4112.538,882.51917,247.01352,10594.37890625
224,-2690.4407,-1312.9742,3596.559,-440.6357,-11900.4795,-2553.5,21857.984375
225,-13364.6045,-7080.2603,8359.655,3754.0957,6847.045,-145.13072,23619.96484375
226,-16009.8545,-22670.57,6896.8213,11575.264,5703.608,-521.68445,34957.48828125
227,11133.513,828.0359,-18083.912,-11807.905,5583.1343,-976.53796,34255.1640625
228,-6113.665,598.77997,8339.491,7527.489,7007.277,9518.195,27313.326171875
229,-11943.052,-24324.088,-5803.456,-8023.2256,8968.498,-10599.759,32225.490234375
230,-2513.9602,-3391.4338,12881.407,-4388.52,-11896.317,1350.5824,27186.6328125
231,-28898.33,-7602.6904,-11343.037,-3840.6792,-10603.495,9415.635,32176.990234375
232,-14559.459,-5983.488,-5164.903,13161.869,5241.2256,-687.26355,26168.115234375
233,-18602.24,-9387.037,-13491.084,9100.597,7009.526,-7172.004,24781.431640625
234,13339.702,16786.06,13893.252,-5913.652,-5180.664,3169.0574,15027.859375
235,362.1313,-12395.408,4741.465,-5092.06,-4890.044,-8175.0537,24245.044921875
236,-3898.1423,-2538.873,-6060.818,-12184.961,-2192.966,-928.3093,21723.1875
237,-16276.476,-20815.182,-18151.902,-6169.3315,3182.5803,11.337506,12655.9814453125
238,4764.6265,-4330.739,6695.9126,6329.2075,-5858.552,-393.78375,18100.578125
239,3359.2827,13450.122,858.5844,-4221.6294,-8058.7603,9338.134,25361.62890625
240,-15564.225,-682.598,-13172.289,-5318.9585,-145.30153,-5245.516,18949.193359375
241,-6605.5625,-2136.6887,-10942.23,3671.9531,6846.111,-6899.963,19545.931640625
242,1061.1042,-7691.9326,10172.241,-707.98096,-10315.398,3645.512,24494.365234375
243,11032.947,-11305.243,7643.249,-3614.0156,-8492.676,8142.6963,29820.052734375
244,-4523.2935,-45345.41,-8970.424,180.25807,-2784.105,1011.8033,39129.31640625
245,-7723.6704,-12432.155,-14644.201,7519.8037,7908.884,-13183.662,30268.77734375
246,11170.926,7836.624,5486.084,13891.9375,-11114.497,-11730.997,37240.875
247,-1527.2693,-805.4079,15216.739,14556.227,-6430.822,-7791.2,34793.99609375
248,19656.2,6078.6484,23658.81,2339.046,6214.763,5585.621,21922.52734375
249,28710.266,21860.275,35517.28,1852.1091,3663.9766,-9611.233,21623.560546875
250,2472.915,-555.15607,-11281.099,8843.479,7682.3267,11314.651,30861.525390625
251,-4917.8813,-3179.4717,-4412.047,-477.8753,235.54945,501.19217,2000.92858886719
252,94859.75,95857.92,94317.3,7.749984,-391.40726,-756.55975,2002.24645996094
253,61272.977,61867.07,62775.066,224.65997,394.41614,-745.8846,2000.99450683594
254,79145.47,80743.13,81227.4,21.335272,342.90454,171.94206,2000.88623046875
255,-34152.492,-35730.223,-34853.79,422.18933,-54.77654,-727.14716,2001.13842773438
256,18130.975,17611.844,17411.754,368.7963,-482.26385,-910.07684,2000.97290039063
257,12241.502,13014.267,11464.446,-835.6495,61.740574,180.12401,2001.2900390625
258,1666.899,905.2567,-197.72955,-210.22632,113.4105,-630.95447,2000.56005859375
259,-30687.996,-31257.092,-30701.191,374.78394,-70.86669,-1048.55,2012.79943847656
260,173.93787,1128.7576,199.05869,582.15137,-608.27136,-574.471,2001.26440429688
261,-47283.848,-47430.188,-47054.28,220.84846,-372.88998,1055.232,2002.92736816406
262,2807.0703,3099.9167,1816.322,-188.71132,896.1514,208.45152,2000.98291015625
263,28060.498,28249.033,27931.752,-416.1533,-859.2853,630.5762,2000.98413085938
264,2397.6423,3040.9016,3931.508,790.40027,289.1665,181.69806,2000.98608398438
265,-24308.424,-21148.066,-34489.023,-6059.5317,4444.956,9692.893,24435.423828125
266,8275.347,-1755.6704,-8223.519,6162.0645,-1292.122,11798.489,27273.951171875
267,3300.9878,-19625.613,-20289.834,1260.6531,1781.5763,4250.0054,24693.642578125
268,229.46245,1771.0339,715.3061,457.91537,-709.02997,32.57718,2000.98425292969
269,-27904.512,1165.4015,-10993.685,-5988.091,5212.2197,5765.722,30467.091796875
270,-3472.5757,-4071.528,-3957.4436,-953.4961,275.001,-341.61725,1899.44116210938
271,-2187.1626,-1517.3087,-1738.7336,284.61172,-1046.4176,-205.3882,2000.98596191406
272,19617.822,14690.801,11532.67,13145.225,-976.4118,1227.0302,23991.189453125
273,8963.029,2529.5327,2826.442,-7941.473,2094.6672,-2699.5854,16241.767578125
274,6075.3696,10039.105,8750.25,-2041.5632,9446.826,8615.593,22697.587890625
275,29439.443,17106.154,3936.3472,-3818.1555,-7276.212,-5423.453,27906.7578125
276,41438.996,24493.434,16905.525,-617.8055,-898.93896,116.82782,21838.501953125
277,-17235.594,-3553.2397,12433.045,840.7964,2104.2527,-344.41833,26024.189453125
278,-23382.764,-8375.644,-16990.484,1193.9219,-10061.51,4395.3413,23153.412109375
279,9989.71,26474.922,-77.73723,-4122.494,2620.902,4495.4424,25909.439453125
280,13724.816,10724.602,11340.777,-9181.859,2468.3552,15513.803,31634.861328125
281,9159.816,16625.12,-2159.8813,5668.7964,-5742.738,2708.1118,22038.958984375
282,-11327.979,-13928.445,7624.5713,6193.5996,2157.7603,18318.553,39382.80078125
283,-4355.8228,-10193.358,2705.7654,-4364.6616,-1453.9816,-16177.439,31205.556640625
284,-2237.7456,-4995.637,-438.65924,7900.381,1436.0292,4534.714,16459.947265625
285,-5271.118,10330.079,-5847.1997,3787.1428,-6058.683,-3262.8486,20923.8046875
286,7164.4556,8651.703,-11632.826,6092.979,6066.222,5371.1045,26302.51953125
287,822.6539,13444.371,8203.529,-5049.942,-754.4174,-340.92816,14113.384765625
288,-17781.38,-2708.278,-4367.1714,7055.916,-4449.0034,13352.982,30799.203125
289,-7321.275,-7863.1055,-19441.57,10388.819,-1233.5742,-16564.406,35945.99609375
290,-4549.6865,-384.359,10567.951,-7704.2876,-3646.1794,4000.9368,21187.203125
291,10408.785,11064.104,-14107.93,1378.2178,1789.0294,92.282104,25157.322265625
292,9262.432,-2794.132,-6517.769,-5238.8447,-4502.5312,-6205.3687,21512.673828125
293,-28727.312,3417.872,8233.57,-6779.895,-4408.977,-1129.282,37567.9296875
294,-6509.292,3819.5369,2001.9623,-241.54929,-9929.573,-2205.8809,20044.373046875
295,7880.701,-16483.19,-6104.1147,8605.633,-495.06564,11776.525,32975.984375
296,-6248.9727,-15661.059,-3936.1335,7319.9297,-5519.871,-645.2222,19212.111328125
297,15718.462,-1759.9406,-596.6086,10925.738,-12392.646,330.3663,33251.92578125
298,3355.2346,33851.95,5827.73,959.25323,10311.715,-10105.69,38586.1328125
299,6186.58,-12926.103,82.61924,5153.0186,1748.4092,8794.255,24632.056640625
300,7734.7773,-3037.9707,19936.018,10198.439,1367.8523,-5279.43,28242.130859375
301,-20381.113,-26271.693,-15053.055,8483.773,-2506.0576,44.11208,18145.041015625
302,561.7921,353.62836,-150.77121,-389.70444,-923.04846,443.2946,2000.98559570313
303,-1590.0339,-2299.7915,-1985.1581,-242.28633,-69.00407,-1069.9082,2000.98486328125
304,7636.176,8483.603,69.35158,-2197.9553,-2038.5276,-3834.3562,11638.46875
305,-15712.532,-8936.578,-22432.629,3291.7307,1203.1304,-3698.0566,14645.2802734375
306,-2524.654,7592.933,-2826.5398,1765.7688,16423.0,15147.336,40153.89453125
307,8542.2705,7311.267,8472.15,743.5105,-79.9129,-545.4029,2000.98547363281
308,-37841.805,-25514.863,-20826.629,-2355.4275,-6012.629,-6621.2173,22098.5390625
309,35777.344,35178.38,35306.688,301.18542,-1062.8824,-121.457794,2000.97998046875
310,17766.773,18184.89,19348.82,118.37774,-298.4073,748.00714,2000.98425292969
311,11760.919,2300.1216,18885.402,-3963.5596,6694.221,10823.675,27215.64453125
312,148037.08,148170.08,148154.08,-466.70828,-718.6899,736.4892,1961.1376953125
313,16107.619,6827.006,-7213.5273,1723.7885,-7670.0693,-4492.864,25681.37109375
314,27400.258,16535.17,-416.69333,622.6097,-9354.684,-11113.916,34983.56640625
315,13833.361,10730.337,1554.1602,9253.077,-6557.4585,-18028.867,38513.4296875
316,-1941.6333,4983.375,-12470.228,5740.346,-13713.192,-10255.13,34788.36328125
317,-7055.0083,-6063.8467,4383.7666,7675.845,-15524.723,-1348.7921,32027.408203125
318,-3749.0825,-3520.6672,-10703.601,10870.506,-5384.0264,3008.9072,22773.525390625
319,-1980.8322,5827.5723,-4044.0422,-13477.482,-3050.1892,694.6965,25605.169921875
320,-15192.596,-11707.688,6580.6562,5765.657,10690.749,-7955.7466,32292.84375
321,-38670.758,-9012.774,-7621.1875,4511.8555,-9513.099,5985.321,36916.71875
322,7874.059,2974.682,6072.803,2033.3639,2950.0715,1139.5973,7799.48095703125
323,7621.805,-6063.618,17348.693,3421.3765,1881.8944,7244.558,24863.8828125
324,1493.9235,-4747.975,10785.674,-686.8608,2334.0232,7831.6436,19622.90234375
325,11037.705,-4929.241,-3550.8247,727.1607,1401.814,10995.68,24597.373046875
326,-8573.91,-18440.316,-12692.791,-972.6111,-1857.8098,-2103.5242,10006.9638671875
327,3737.1196,13502.295,-3906.8174,-4862.2144,-3243.2583,-5102.921,20224.533203125
328,690.69244,1758.6951,6158.786,4925.3047,5462.4644,6172.9785,17372.65625
329,-11376.255,-17257.3,-9613.286,4659.686,-19106.627,317.88422,34766.2734375
330,-10144.3125,17843.203,8779.232,-3747.7327,9761.303,175.72208,30657.083984375
331,-25662.598,-1749.8246,-11565.274,2890.1985,616.579,-1367.7003,21569.9140625
332,11672.416,-9383.315,-14729.98,5198.788,-12962.893,11283.095,39390.671875
333,2948.1624,15210.448,2586.2693,12233.969,761.5492,5571.7827,26435.134765625
334,58713.35,57415.75,58373.797,187.95937,850.062,351.96024,2000.97253417969
335,126835.21,127021.15,128214.75,-224.27255,-515.6079,676.83215,2000.98657226563
336,4309.111,2803.1938,4288.059,-366.03152,-534.133,411.85394,2000.80712890625
337,4005.267,4349.828,4343.321,666.43463,-824.65,414.27545,2000.98559570313
338,1883.2837,-19871.785,-10991.469,-1209.5807,-3499.9897,15724.7705,33791.94140625
339,14321.123,6921.94,-11401.581,-10638.322,-4307.028,-710.2109,30377.04296875
340,-21483.584,-13542.805,-8105.5884,7702.546,-98.30195,-4727.134,19515.353515625
341,-2926.044,-6598.816,24132.473,9006.489,-10836.34,-7568.83,40156.234375
342,-5487.3413,13702.21,-1926.2032,2873.8682,-1647.4591,4004.724,19839.78515625
343,-2206.3843,14279.39,5062.552,6711.073,901.75964,-9763.952,25066.779296875
344,10229.043,31132.898,16107.605,-6980.176,8666.529,-4215.5835,27811.009765625
345,-5776.3945,1362.5193,16912.906,7569.309,-7586.307,7105.396,29996.515625
346,-12680.484,5728.888,-5586.305,-5402.4604,-6425.6733,7436.99,25218.783203125
347,2679.5266,-885.03815,-488.56284,6532.7725,4915.88,824.23267,14629.32421875
348,-1185.519,9698.445,5417.74,10050.072,8033.875,-3289.1267,24885.546875
349,21653.744,16086.416,3721.5166,-6250.3325,-3363.1223,642.33716,20126.96875
350,9247.561,-10619.38,6034.383,198.70667,-4900.5977,3481.0076,21206.1796875
351,-9214.72,-17714.828,680.7461,5182.108,3411.395,2678.231,19780.771484375
352,-10404.872,-7934.974,-647.18054,-546.7024,11096.465,5942.0996,23525.078125
353,-396.96094,12557.391,5196.984,181.02625,2220.532,366.49155,11913.650390625
354,2999.3628,5151.248,-8776.459,-2413.971,1575.2491,-9391.912,21405.392578125
355,9177.193,9731.829,19800.686,617.8037,2449.1714,3110.1392,12467.2890625
356,-6059.763,-3760.146,-4131.075,629.46405,217.91362,162.5824,2446.07153320313
357,938.4397,6621.7134,2791.8638,-1355.7921,-133.6836,1478.5312,6109.62841796875
358,16695.945,11350.626,14329.362,19188.604,6817.277,-2435.3804,35823.8671875
359,2209.0903,4225.422,11566.108,2113.6943,-415.30252,3188.9414,10825.0224609375
360,-37176.805,-26768.385,-23449.117,-779.15234,-6247.8945,8540.586,22173.3125
361,92.625854,-1168.1115,-3478.136,-7040.335,-809.25934,2099.3928,13180.4404296875
362,-5940.574,1265.4084,-6410.2197,-2901.393,854.91345,-854.7385,9228.73828125
363,-7186.809,-820.881,292.99536,1810.089,-4228.998,723.0821,10672.7548828125
364,-7997.497,15037.485,1695.5277,-1686.208,-618.55176,650.1975,20303.5078125
365,-3114.308,9144.391,9379.626,-965.40173,-343.77463,-549.9285,12540.833984375
366,-2920.3003,-2126.642,-18496.064,-1206.099,-3555.482,4511.3545,18945.75
367,3600.3896,-1601.7812,16213.527,5128.0747,-6741.3604,-3560.331,22472.796875
368,15045.827,13549.229,15937.751,4639.865,-2589.2827,-4977.5137,12782.6171875
369,-7451.3643,2252.5933,2215.7227,1732.291,305.0219,714.83606,10228.6337890625
370,-7359.354,-1363.2432,140.20776,4701.6426,775.5143,-1111.0457,10911.115234375
371,-5019.654,-6021.7837,-6729.072,2276.6045,269.84604,-847.35675,4487.158203125
372,22692.35,29841.268,42770.69,3426.1938,2851.509,2416.129,19693.4296875
373,23798.182,5023.981,7431.5454,7792.206,3750.1724,-264.0839,23186.697265625
374,-7598.8643,-4605.2993,-16724.49,986.5414,-554.5425,856.69104,11207.173828125
375,3930.308,-884.8386,-1129.5575,-343.90326,418.82434,2428.9087,6557.72265625
376,-2623.9983,7002.543,25368.682,3783.0774,-7066.4688,-5061.8438,29603.9609375
377,35790.32,18158.033,6700.0415,-3679.4297,-1135.1825,7043.3926,28939.98046875
378,5288.1484,14949.748,15859.906,1759.2085,45.891987,4139.111,12792.80859375
379,-16136.324,1652.042,-14206.717,-614.48694,-630.908,-6856.9253,20717.23828125
380,17629.479,29822.01,39319.254,-3043.9126,-1741.8248,945.0679,19855.1875
381,11676.492,9191.928,15519.428,2489.4346,-2216.4558,-1976.0065,8690.9677734375
382,-3302.3127,5423.5176,2811.623,3497.4744,-2124.7573,-1004.9989,10650.9150390625
383,6461.633,4020.7185,13812.458,2122.689,-1554.5934,2649.4304,10943.5634765625
384,13811.869,4627.4307,7319.6836,-2899.654,1535.2488,1071.075,10129.7509765625
385,3292.024,-3769.0725,-5319.619,2181.5642,-1864.3123,-2928.9563,10660.80859375
386,17769.428,19961.72,18473.48,3049.5554,-6511.533,1061.5261,12737.2841796875
387,3134.9045,2340.9478,943.7466,-1691.8258,583.42804,1468.2777,4446.05029296875
388,-4137.612,-2116.4214,3450.5823,2489.67,4014.1973,3569.354,12307.9765625
389,1780.9424,10397.184,4676.605,-3599.3547,876.33734,-2261.358,10685.78125
390,-17905.805,-5894.956,-2648.146,5571.9404,4717.4043,274.76874,18812.947265625
391,6595.983,4863.727,1647.1707,2642.039,1310.9025,1148.1671,6997.8720703125
392,-7514.9595,-1774.4076,-1649.1165,-2951.6145,1331.4017,-2234.666,8951.2041015625
393,2559.9067,2499.2256,6347.319,3216.451,3924.166,-1391.5232,9880.3291015625
394,-25206.826,-12552.969,-35349.492,2749.4036,-9984.87,2015.0131,26931.19140625
395,-23775.756,-23106.904,-7547.229,-2662.667,14394.857,-5393.9536,31355.1796875
396,-26868.074,-34705.184,-21352.145,5143.3525,-5066.7114,809.9316,17129.494140625
397,-13471.037,-22544.482,-13729.32,-13336.181,11322.054,-5246.0923,32874.65234375
398,19376.844,32788.375,21737.3,-4295.9146,157.3319,488.66873,14489.2685546875
399,46615.445,14215.361,27184.943,4763.264,4229.017,4713.885,31402.896484375
400,-32093.29,-27088.709,-9197.42,3590.6526,-4156.5874,972.6931,22978.921875
401,1120.4253,1545.2692,5821.3843,2232.5046,135.23482,-3276.8503,8216.0009765625
402,-13165.452,-5393.9194,-13026.983,1152.2327,-70.19487,724.0411,8056.6865234375
403,-940.37866,-5070.847,-3253.877,2741.5994,573.15967,2908.9333,7859.8681640625
404,-1316.4036,-5817.8027,1253.676,9242.562,4236.035,-179.91629,18671.92578125
405,6142.3193,4109.6934,-1241.4783,-7266.5015,2313.1265,1135.2281,14898.576171875
406,2150.9575,-2943.7695,-13440.875,3269.7861,3631.269,1847.9806,16477.357421875
407,4648.0957,5776.361,3228.7773,-1762.3121,-1230.3871,43.208218,4330.4970703125
408,4222.409,3566.8643,-706.8259,-2870.7263,949.5032,-3062.3833,8778.2802734375
409,-302015.22,-301932.78,-303591.94,1.478344,380.13205,-562.0092,2000.97204589844
410,-22017.398,8534.147,10959.598,-775.2053,4279.4062,2195.443,32933.01953125
411,-333262.97,-333137.28,-334806.1,2.6241274,442.99567,-524.14636,2000.98168945313
412,1298.9922,-2335.5542,3136.1846,1935.8864,-43.136982,-2921.369,7753.34130859375
413,18541.7,15354.889,16896.338,-11806.463,520.43024,3692.0774,21621.841796875
414,3852.1587,-59.82263,1142.4448,1393.3877,-1930.2559,2023.0254,6428.52587890625
415,-8581.89,-8063.994,-9118.063,-225.05284,847.51263,-536.5884,2000.98498535156
416,-5167.735,-362.135,-729.49976,-294.8359,3722.4236,3187.4558,9683.6494140625
417,16747.826,4189.871,11563.21,1457.9086,974.3713,2287.3816,12016.4609375
418,-6406.4834,-2659.934,-10963.425,-1367.8052,-380.24948,307.45282,7629.23193359375
419,-18743.29,-1787.1592,-13577.763,1371.6945,-2821.0142,-5014.351,18208.673828125
420,8062.5146,8435.313,6881.7866,445.6201,259.0841,-211.02507,1704.1044921875
421,2550.4954,-5480.8237,-767.2783,-3219.7734,909.0982,104.08197,9081.6474609375
422,15611.115,3545.7307,3408.4976,-979.73334,-656.1706,-2409.4924,12993.7060546875
423,10791.806,-17690.521,-6607.5186,9118.167,-5779.302,-8925.5205,34742.26171875
424,-45602.08,-68189.375,-36372.54,1848.7505,-953.4873,-7638.91,31494.13671875
425,-12254.934,-7252.5713,-4415.1743,3669.7043,-1532.9131,2158.1304,10425.4677734375
426,-6003.807,-2173.7988,-932.7334,-7425.848,927.7617,-385.14297,13762.9716796875
427,-1102.907,-1605.6125,4410.399,-5091.3257,-1060.1091,3412.4526,12226.6767578125
428,7167.3105,-990.9197,41.2937,-3068.6929,1564.8715,1068.6534,9910.8173828125
429,-9325.942,-10953.483,-14922.43,5581.1377,-1974.7072,225.16599,11408.7177734375
430,7630.7007,4960.3926,-479.29517,-2950.1536,-1894.5067,-473.98627,9423.2724609375
431,9626.788,8642.61,7259.982,-15.682261,2592.8945,3461.913,7769.52978515625
432,-13314.842,-7303.048,-5907.0303,-12831.581,-4349.6714,-3999.2627,25400.251953125
433,-14864.268,-13198.154,-18323.68,5794.6475,-1326.7416,4258.7617,13451.1318359375
434,1243.9897,-272.18335,-224.76465,3459.6543,-5787.402,1198.0005,11955.1005859375
435,25074.57,32425.906,35701.13,4185.159,-800.73004,-5098.328,14876.00390625
436,16724.523,16660.807,18457.838,-3022.5413,-1644.6594,-51.55769,6216.81884765625
437,-17055.238,-8066.325,-9724.352,1196.8921,-947.4509,-2670.749,9850.6396484375
438,24529.104,10832.094,20402.133,15324.358,-11157.272,-6314.586,36683.7421875
439,-6370.6426,-3858.233,-3054.2063,-1307.9749,985.77606,-201.67302,4141.06005859375
440,-1736.3755,6496.806,-1709.6836,824.32306,2403.1665,209.46056,9330.703125
441,-9270.683,-9099.811,-15842.098,-4838.358,4486.2173,4465.9995,15322.486328125
442,-14448.425,-1379.686,-6983.7363,3105.2444,7115.8564,1441.9708,17777.265625
443,-2195.3838,-11961.72,-9476.562,-3574.3784,192.23337,2096.4473,11353.9033203125
444,-4949.899,-6975.926,-3786.9731,410.39993,-2051.903,3054.6355,6995.8486328125
445,-18528.861,-7488.5703,-17099.95,3449.3013,1151.3483,1832.9059,12565.93359375
446,-12973.393,-7559.8726,-11687.979,1361.9983,-1428.747,740.5289,6110.1630859375
447,-1046.6255,-2427.6375,-616.1176,-5223.094,198.17043,-149.47484,9204.0234375
448,4735.0483,-7217.0977,4421.419,4781.834,1933.076,-11.046227,14799.05859375
449,-74.66821,4427.3574,2522.4595,-722.8452,-2237.1924,1450.4266,6181.81103515625
450,12498.944,3442.914,19865.182,3155.4104,2136.1426,5079.923,17998.833984375
451,8580.627,-1616.3628,3470.7566,-3898.449,-796.8322,-3385.7754,12644.091796875
452,-4072.5957,-928.26843,-3186.6848,-5566.5527,612.2157,2640.3357,11085.310546875
453,19056.73,14116.077,4463.9146,-7385.3066,-3207.89,5672.4316,21360.984375
454,18109.56,15821.275,14400.096,-10983.189,1083.0632,801.38885,19438.240234375
455,-13912.063,-16419.854,-5493.519,4160.223,704.06805,-5040.1978,15096.1298828125
456,-3860.8489,-3710.2957,-6441.7246,2436.473,1163.1097,-1579.0685,6034.9140625
457,-4442.288,9382.13,9621.665,1629.4764,19.225325,580.1143,14263.9267578125
458,-1752.9641,-3908.5842,-4148.214,1107.4166,-3191.8901,-1639.9583,6894.39404296875
459,-2163.8696,-2089.8992,-1110.66,1887.1854,2986.5552,1966.6888,7076.95947265625
460,-12516.502,-8678.568,-8936.648,4152.5483,7364.2134,2403.881,15670.599609375
461,5237.654,11035.907,-17389.871,3153.858,-5387.495,-3567.9473,28843.21875
462,1491.1226,-6063.6484,942.364,-8240.868,-1361.3007,96.35405,16203.486328125
463,-1550.6981,-2186.9233,1333.0237,-3779.983,3113.2183,-90.37492,9084.109375
464,-19548.973,-26032.41,-17114.844,3689.348,-1468.1991,-7126.5503,16229.7666015625
465,5915.4346,8071.0513,6484.1333,-4024.969,1889.8221,5929.155,12981.6884765625
466,-14930.046,-43130.117,-27364.285,4921.019,-5987.0815,-8811.338,31816.845703125
467,7564.3037,-3124.88,1163.0272,5174.777,2179.9873,-963.8416,13571.6435546875
468,5661.3657,14607.115,15811.592,-1026.8405,-1128.8237,-394.0801,9985.1884765625
469,-4749.209,-1644.8433,-4514.8164,-4576.1475,937.9236,1557.8663,9039.2314453125
470,-2722.92,-8582.99,-14896.154,-6641.7637,-19.044876,-1146.3043,15731.314453125
471,-4428.3013,2249.841,-2960.2634,997.4539,575.86163,-246.3429,6411.75537109375
472,34638.16,43116.914,22193.516,-1755.9917,4369.9175,648.6688,20001.873046875
473,13887.975,1601.1221,10453.889,-855.82947,-4105.9883,2829.4763,14048.421875
474,42993.29,22335.03,28651.63,-2229.4407,-1613.4368,14076.574,30876.265625
475,-625.8838,-11396.88,-15726.879,4423.4077,3415.1836,615.5226,16620.1171875
476,-2625.1204,-1548.6785,165.64441,-1878.4138,-93.7347,-36.591087,4069.23706054688
477,5382.8193,5534.4775,4195.693,2617.2498,386.0301,-221.6424,4770.4013671875
478,3341.8306,2938.2612,1188.7501,-912.05347,-1852.8562,1183.1312,4574.26025390625
479,-3246.3064,-1048.5862,-3669.221,2134.0808,-1219.1923,1065.5701,5240.876953125
480,-5538.172,2082.165,-4860.1978,-1650.8578,381.87424,2539.1833,9017.6845703125
481,-7129.7676,-2510.2163,-8617.042,563.4478,1474.8799,-1937.65,7011.73828125
482,1901.9773,3857.6924,-3059.6357,5958.8647,-2748.109,-183.64612,12939.3818359375
483,-2423.5085,-6403.148,831.2258,1658.5979,-80.24334,2250.2947,7927.6181640625
484,-15490.879,-34469.16,-12834.916,13209.126,1336.5927,-662.9287,30785.642578125
485,6266.097,-140.76855,1930.8625,1597.937,773.5272,222.87654,6455.32177734375
486,-8102.784,-927.85876,1917.4907,-3303.211,-235.39046,1534.5872,10952.4169921875
487,-8102.8164,-5169.846,-2066.2478,-7518.2197,1456.9807,-2315.0376,14810.6337890625
488,4066.4277,2438.4387,-7371.884,-8134.5884,-370.32773,-1660.7839,17946.15625
489,1163.0573,-1136.5311,1395.7551,4630.7354,1385.9875,1477.0978,9083.8779296875
490,-6209.6787,-2184.4058,-6578.1416,-1111.4425,2858.269,1312.8306,7155.9306640625
491,-13918.262,-345.12695,-11640.15,3699.0857,3214.8223,2634.2656,15854.705078125
492,1802.9346,6409.2144,2203.5957,3666.422,-823.58856,156.18806,7872.02734375
493,-3566.4614,330.29117,5265.4487,-2371.5132,1436.7932,672.9132,9121.1474609375
494,2021.7704,-126.20618,3385.818,4963.0444,-594.2905,4797.7666,12386.0830078125
495,-5461.9277,-5576.749,-9393.982,984.96844,-154.66072,-1369.73,4861.42822265625
496,3500.5095,3189.809,1489.5095,544.51733,-1257.2653,-762.5814,3300.31420898438
497,-668.3354,35.108154,0.7195587,-3035.2144,-2595.0627,-2187.2651,7916.11279296875
498,-9397.659,-1501.3599,-2300.785,2465.1292,-1863.8871,-35.050358,9237.673828125
499,12280.796,10198.449,1702.5483,-4578.3345,3703.246,-2282.3164,14623.96484375
500,-2766.2405,-2551.634,5644.9766,-4268.7183,1062.1722,1122.7784,11437.740234375
501,-3820.1372,-3797.2104,949.3867,1991.1564,3109.2063,-450.47043,8008.9892578125
502,-7525.0146,11071.854,14628.559,-561.42584,854.0067,-199.20775,20685.498046875
503,-2796.3267,7579.369,-15710.642,16059.248,6599.476,8270.121,38961.16015625
504,-878.9973,9453.454,996.03394,4534.6074,-2678.727,-4236.7583,15098.5654296875
505,-1654.3348,-1452.2582,2865.5083,4862.116,496.5994,866.2604,9667.88671875
506,-722.3872,4137.93,5045.6104,-670.64154,2236.9177,542.8965,6789.9248046875
507,6422.1543,-112.57068,-3851.471,2530.4849,-1240.6777,254.60608,10253.63671875
508,-2387.8665,1624.7188,-1126.6733,-941.5967,-2583.018,527.06616,6011.65234375
509,-5238.875,-4505.1436,5.6433105,2577.028,435.0044,2527.8806,7991.03955078125
510,585.3855,6587.6304,740.39465,-376.63785,-1407.9594,609.0287,6527.322265625
511,7770.0405,-7350.1504,-22567.389,-783.40186,-7574.4883,-2346.0132,29677.318359375
512,-12300.186,-6077.881,1759.9199,-1432.6217,-477.01266,-966.9943,12592.158203125
513,8158.785,3989.0151,8775.629,2924.767,515.5959,-2337.2424,7949.0869140625
514,-221.98462,-2797.648,-7019.8784,-10091.378,-2156.1492,-2520.8215,19335.3203125
515,16721.39,-5461.8887,17769.44,-732.077,-4728.8164,163.19746,24191.28515625
516,9395.177,11841.25,10097.198,1786.1129,-1031.6232,-914.559,4475.65673828125
517,-594.49365,-6040.7583,-11776.414,-263.72958,-1658.216,-2678.8962,11125.853515625
518,3429.8079,3156.3225,-8030.1685,-514.7069,-1247.9088,-1194.4719,11748.1318359375
519,-7567.997,-5367.9854,-3787.518,430.55136,939.4554,-67.52503,3745.99877929688
520,-22850.877,1944.331,-15904.642,8525.154,-2218.2383,-1196.1353,26979.767578125
521,820.3916,2724.666,2861.6812,-1544.3904,446.41385,-889.7843,3746.24853515625
522,-3280.1003,-1477.3226,-3115.6633,1191.6932,-401.74716,-715.27576,3043.03515625
523,1641.8655,2496.021,2463.5537,-2137.9553,513.23315,-682.9366,4074.91040039063
524,1924.6832,4064.6265,3097.2317,4936.003,4733.7275,1489.3523,12264.4384765625
525,-3503.688,-10761.435,-5505.175,149.22491,1177.2828,-1397.8618,7227.82080078125
526,1047.6797,-3645.6685,1622.4948,-3771.8093,-1723.6565,-1669.7471,9220.2236328125
527,-10540.011,20.128906,-5542.701,-2279.2312,1115.4272,-2160.3127,10818.2919921875
528,1811.9481,4125.589,5616.7725,-30.337442,485.10477,-2521.9312,5551.19580078125
529,364.0475,-3313.4282,-375.45282,2784.223,-2533.5518,-97.66634,7341.1279296875
530,-5819.627,-2769.3857,-7385.141,4158.053,2098.8547,2828.0186,10276.51953125
531,-7501.4688,-3165.305,-6384.679,6128.696,-218.6127,130.56728,11317.4296875
532,-7021.7954,2515.0645,-2560.0715,3770.2168,-185.91928,-346.7312,10555.3681640625
533,-11278.062,-5853.9575,-6690.7036,3884.586,1413.6633,-1292.0005,9047.4091796875
534,5826.2607,2698.4658,5883.5083,-3202.86,-1454.7776,1408.3169,7282.82763671875
535,926.4751,-481.24854,5488.0547,-457.61993,-1216.6744,435.88333,5903.41064453125
536,-2019.4668,20335.17,7611.7783,-1622.0138,-2142.8591,-2259.664,20351.271484375
537,-2503.5808,8473.158,5491.7925,-1928.2211,-976.44446,-328.35406,10535.158203125
538,-468.93994,-2466.3545,4789.453,1557.7651,-5420.7124,-1363.1914,11964.5595703125
539,14823.832,-5100.508,381.8728,3129.7048,1555.8723,331.44952,18835.603515625
540,-4359.9424,-5391.0903,-5865.3506,-2121.2576,-1797.1049,332.45132,5029.58740234375
541,3386.968,-4033.9116,-4477.0645,404.55206,305.828,1629.2457,8203.0068359375
542,4140.237,-3112.3452,-1784.9537,-3472.858,-402.12955,1203.8226,9260.1201171875
543,-370.48242,-5989.0693,1444.1128,-9282.581,2817.414,-332.5944,18102.513671875
544,3383.0222,1978.8118,12317.546,-8340.334,992.28754,2856.747,18178.666015625
545,-3833.1997,-2400.9321,-3221.3665,-814.81604,708.41394,-2052.9844,4206.06494140625
546,1377.3865,4145.446,-930.9021,-1149.9056,108.27298,-1115.6926,5207.31787109375
547,-4760.458,-17001.16,-4064.6123,-4240.3433,7695.2397,1178.9398,19864.490234375
548,-11120.339,-11918.085,-4816.8975,1133.0693,867.7766,1352.8082,7549.7841796875
549,-8145.261,-6329.6055,-15900.678,1792.3114,-1131.9484,-2750.0273,10662.705078125
550,-2045.3396,334.46683,1653.7516,4699.1807,1454.4183,474.83356,9154.939453125
551,341.4984,4103.6084,1760.7926,-6020.7646,605.3418,423.5209,11009.7490234375
552,2703.627,6687.4717,-1076.915,-1265.6136,-214.37526,334.89514,7106.63623046875
553,3488.5266,-2823.3562,-483.49738,496.42395,2059.9473,-447.30353,6679.48974609375
554,-2049.0996,3620.7012,10777.318,-2585.404,-1739.0516,-1136.3202,12527.56640625
555,-8420.232,-8688.685,-2630.5308,721.95215,-455.8597,-1671.2986,6761.19482421875
556,-3153.6243,5523.8687,-3346.2053,6741.5195,-175.54204,-838.90955,14681.794921875
557,2032.1866,1183.3809,7126.0093,377.7888,1534.1066,876.58856,6386.314453125
558,2590.0981,-1881.0073,1877.0013,-302.17126,-784.226,-201.5479,4421.7392578125
559,3375.2324,584.1648,3929.977,822.3052,1688.7705,-564.62085,4602.9248046875
560,-305.599,4408.406,1478.9729,2747.1663,-223.80403,2606.492,7756.7060546875
561,-4364.237,514.85474,-6225.3374,-1943.0829,2839.2258,-175.75739,8482.494140625
562,-3980.6006,-1751.8564,-1757.1321,765.73663,-316.08972,2167.476,4594.36865234375
563,-741.0354,-8110.514,-4683.605,1297.681,-1356.1058,-109.177,7169.5986328125
564,9672.361,6293.05,12657.228,1321.1812,3142.348,547.2254,8134.73681640625
565,2264.9766,2848.1252,-1441.3748,-2622.345,3043.788,2156.1917,8866.2255859375
566,-2824.6416,9160.921,7257.8096,155.92998,336.61542,-308.7038,11187.6923828125
567,-768.0598,3605.8784,3228.1272,2916.8647,-430.07245,-1329.2595,7000.125
568,13519.491,38010.504,18258.098,-7165.2583,3905.4785,2052.0898,26807.18359375
569,25879.646,26156.684,26523.832,-3172.0417,-127.11958,-264.25464,5545.87939453125
570,-1656.1433,-4251.505,800.8574,2155.4036,1174.8322,-3955.3496,9173.98046875
571,-8820.848,-6393.029,-22466.734,-2267.0605,-2651.3247,-347.03207,16189.58984375
572,-2276.327,-80.6427,382.52362,-9091.254,-1259.74,3281.5618,17060.83203125
573,2926.4155,-2072.8872,-4019.2761,2263.6533,7094.889,2443.6838,14926.8740234375
574,6711.324,6599.828,-20.303223,-6975.554,-1490.9414,-1197.7747,14195.931640625
575,5434.791,18248.766,7847.9707,-5823.3457,-4960.805,4655.1255,19485.18359375
