Element Label,S11,S22,S33,S12,S13,S23,Mises
1,17655.834,-857.1295,25073.309,3323.436,1603.8705,-1981.0659,24242.419921875
2,-13391.272,-1.5840029,-25730.512,280.7723,-2296.0688,-179.4029,22647.47265625
3,8951.5205,3782.1172,6873.3296,1100.3925,-380.69943,-1183.9651,5345.2138671875
4,-9924.398,7186.684,-10139.186,-4450.3223,3079.2678,5565.571,21847.173828125
5,18299.975,11240.443,2862.6626,-7263.7373,-698.24225,-4203.6343,19797.154296875
6,10126.824,1774.8693,-4531.9487,-2859.404,2324.6396,1487.9955,14477.1611328125
7,-8010.462,-2546.4597,9232.423,903.98346,1063.675,-820.2326,15518.4208984375
8,3161.3145,-7523.335,3226.3887,-1316.5896,-4241.849,1903.5732,13598.2392578125
9,-13163.144,-12600.025,7730.241,376.0975,3908.2786,-3404.5337,22496.80078125
10,17550.516,-15690.347,-4548.634,-5190.946,-497.84003,2740.0352,31029.6171875
11,3744.3818,2241.438,-8860.695,-2955.8665,3329.5737,-864.9886,14279.927734375
12,2354.1365,-45.97129,2790.9368,-5410.8237,-2914.5715,-1410.2102,11237.4814453125
13,-6513.6333,-198.14336,-9358.011,-2371.1064,6676.0396,2043.1797,15134.009765625
14,-12426.565,3948.9192,-11042.784,-2661.3662,-5877.4453,1442.823,19456.056640625
15,28746.465,17983.76,9257.059,-1588.7166,-2773.2322,3318.459,18697.462890625
16,1924.2849,1804.0944,1982.1233,-122.751175,-189.9364,811.37354,1467.36315917969
17,-1495.692,-1807.9764,-947.3607,292.70514,16.0344,1029.0314,2000.98498535156
18,1785.6602,25036.805,29299.887,2963.152,2413.4082,-3753.474,27276.203125
19,-319.86505,497.96933,1061.4718,310.5167,582.74146,-597.8912,1956.447265625
20,-1849.4071,-1726.2493,-1954.3542,71.26842,64.62581,-1145.5812,2000.9853515625
21,5923.8203,-2577.958,-5602.8647,4790.426,-5811.0405,-8794.928,22568.755859375
22,1776.4192,2016.2368,2621.3452,-369.8199,13.101165,985.5435,1973.19213867188
23,-17.55045,-432.99377,731.1692,-1374.1631,-349.4347,1463.8801,3674.82592773438
24,-2734.6255,-2393.351,-2698.236,-162.20206,-1030.2485,-331.5116,1923.08032226563
25,-5225.3647,156.78082,14663.756,-1872.4843,3580.2896,-8274.438,23913.8359375
26,3568.436,3566.6191,4174.5605,-486.4429,-408.10104,670.97,1711.31909179688
27,6197.331,6247.1606,6504.913,-110.822655,-1098.38,297.78046,2000.98571777344
28,-889.6571,-643.1304,-632.1437,56.42276,-947.80347,601.39545,1962.95153808594
29,1984.6124,-6911.199,13965.754,-840.67206,-1118.4407,-5042.077,20283.138671875
30,85.5829,-387.94415,11830.091,-8508.035,-17829.998,-1759.7227,36385.37109375
31,8987.026,6821.347,9503.764,-1050.9777,-1407.1693,-3617.7683,7388.8466796875
32,6508.188,13781.073,-15607.881,5536.0547,3399.09,100.189896,28801.01171875
33,-540.3228,-684.232,-533.5763,-256.612,-872.75024,319.50095,1676.48352050781
34,735.3803,1590.4513,1180.101,-436.6781,-5907.225,-118.30153,10288.2763671875
35,1473.8682,1582.1432,2093.505,510.27524,-2590.673,437.12015,4670.94287109375
36,-12338.212,12811.425,6674.309,-1860.0266,-4907.244,-8239.752,28321.810546875
37,1664.8452,1632.1686,2091.6995,-338.10922,-1036.7424,-282.40833,2000.98522949219
38,-5968.5723,-3386.0588,-26239.072,-5493.562,-5835.1714,-13892.83,35236.75390625
39,-1533.717,-1203.0326,-1323.88,60.969822,-1109.3867,268.68805,2000.9853515625
40,7754.0728,20735.328,28341.04,6221.7515,851.4859,-3939.8735,22135.15234375
41,1355.5621,21105.732,34028.53,-217.63095,-5147.1333,4738.548,30972.2109375
42,4617.5225,7982.8755,19213.34,11891.267,817.3391,-927.8535,24577.162109375
43,-2974.2869,-3157.069,-3073.9126,-74.544334,-1065.2167,431.3108,2000.9853515625
44,3891.6619,4097.427,4920.7974,-23.307053,-874.15704,161.15558,1806.01599121094
45,-428.1209,-1192.9082,-1718.4095,44.547314,-839.42365,455.0257,2000.9853515625
46,1455.0891,1419.686,2151.205,269.8369,-583.6602,863.9668,1997.5498046875
47,-227.02945,-217.18587,255.27731,-234.53706,-351.802,-941.93304,1850.94555664063
48,7000.199,5855.113,6497.0107,-490.10303,-522.6799,-587.39264,1887.72436523438
49,-4012.314,-12525.281,5137.806,-1100.7355,2080.2112,-15601.43,31319.650390625
50,2726.0452,4985.7134,10813.258,-700.6813,896.73083,-6479.6045,13493.544921875
51,11211.329,1916.8566,31650.895,-4030.9895,5241.4556,5953.437,30522.671875
52,481.63403,75.24918,888.455,136.1455,-196.612,-993.2975,1904.59265136719
53,-10746.443,-11994.471,-7544.917,8504.754,-10219.747,-2028.9227,23632.0703125
54,8943.373,7346.591,9256.55,314.71738,353.9835,-2287.261,4417.64794921875
55,2508.0908,2726.71,2407.487,283.47583,264.16467,-989.76324,1862.58630371094
56,-712.48254,-790.5117,-388.38174,11.513511,230.69923,-2061.8918,3612.57202148438
57,-22338.834,1547.6216,-2514.134,3015.4004,-2656.5933,-4258.4517,24349.400390625
58,-1649.9257,-1956.4438,-1483.0203,-201.66075,-308.83826,-808.8697,1594.96875
59,9263.5205,9080.626,9820.999,165.69359,113.540245,-1070.3137,2000.98583984375
60,-47.65226,-313.52338,419.86615,-321.90674,-196.17297,-783.03754,1636.86511230469
61,14632.402,-6027.8647,4551.3105,1050.3448,1538.5367,1281.2493,18317.552734375
62,628.18665,1785.5314,1014.6613,-241.34079,352.71277,842.0363,1927.83703613281
63,-25.58725,1043.2253,-37.322044,-410.38098,529.48706,-421.89722,1742.22265625
64,27.216286,50.80138,254.48642,-549.71423,749.13336,259.39896,1684.89489746094
65,1815.5139,2340.5034,2152.0095,-212.77278,1094.5802,-143.31969,2000.9853515625
66,1813.2635,2015.4586,2254.0935,-140.84792,1061.7471,372.5713,2000.98559570313
67,1773.7539,2188.8816,2419.7002,-147.31894,888.19244,-507.9247,1878.07250976563
68,431.08594,530.8853,693.51166,-29.371643,1131.8356,-187.58325,2000.98559570313
69,903.81793,-8102.417,-33021.035,-5525.1284,-1407.7559,-1952.8513,32178.25390625
70,1963.4838,2124.4646,2352.4153,-9.606198,993.6913,62.94511,1757.5556640625
71,4408.7017,19223.766,7759.982,3201.6152,-7023.906,8071.2056,23563.904296875
72,-5439.628,-6263.4097,-29164.562,2918.4255,8091.836,4674.501,28836.51953125
73,3447.3538,3550.3833,3920.5012,-285.59293,1081.3536,147.80605,2000.9853515625
74,-703.7424,-616.2841,-348.14935,1.2335383,714.9052,-857.5742,1960.24719238281
75,3397.8298,29307.941,24315.498,-5687.3223,7139.0073,-4620.5166,29679.6953125
76,-2563.9788,86.31488,1454.3329,-245.6294,4729.949,-1125.6604,9144.439453125
77,13090.973,12183.135,16752.352,-1365.017,3826.5554,125.01577,8192.5625
78,12099.042,15068.744,884.3518,-10111.207,14786.64,-4465.354,34501.515625
79,201.69574,4233.898,9070.261,-529.5784,1952.7605,-2166.502,9247.3037109375
80,-5504.36,4858.5293,9144.381,4776.7153,-299.58548,-365.29755,15469.0791015625
81,2975.5762,4241.8228,6875.562,432.93466,3950.5054,-580.2958,7763.177734375
82,2818.517,6095.7036,7874.169,-1345.4806,2930.9297,1098.6586,7386.09521484375
83,1171.0472,1363.2592,1975.5829,28.077394,942.7038,-518.30664,2000.98559570313
84,540.2683,-577.4751,136.84238,-802.4534,287.04233,-528.9847,1994.89978027344
85,-16079.9795,-321.59262,23265.998,1271.0808,1240.5054,2139.5935,34635.25
86,4976.3516,5647.9746,5483.725,-303.74835,129.83755,544.6169,1258.93872070313
87,941.58105,1322.2596,3837.0154,-332.22968,-2407.3022,1846.2338,5947.13427734375
88,8477.6,1066.548,21437.025,-323.27612,946.12555,3712.2798,19059.26171875
89,10719.43,7866.0703,17008.318,-1891.5382,-365.94968,2224.4343,9571.6279296875
90,10040.974,1706.908,34871.414,-1705.6133,5479.1704,5201.1504,32755.046875
91,4416.5806,2312.8093,10952.593,1514.923,-14.987357,7118.769,14826.052734375
92,5335.4336,5113.3594,25080.91,-598.08765,3437.0466,4626.1523,22249.380859375
93,5287.736,2591.2842,7477.925,-23.811607,1672.4291,3786.4253,8329.3056640625
94,1926.523,1784.7932,2790.2979,-81.10382,-927.9383,2990.2834,5506.08251953125
95,3633.6138,3711.749,4191.9683,-164.43018,-377.30405,1005.89294,1953.94116210938
96,3762.8103,1027.2101,-14903.619,-4051.01,-7311.334,6103.004,25023.87109375
97,1552.5614,-14.74499,432.11148,-213.2182,-100.18908,727.3018,1925.92114257813
98,4698.2754,4781.412,4865.9272,-183.86472,-1038.9681,-462.9899,2000.98547363281
99,8155.95,569.77136,33902.688,-941.163,7562.3423,5977.456,34600.265625
100,-1741.328,2478.9636,6735.229,1131.6266,4659.17,-3180.5269,12377.4755859375
101,-4339.5283,1527.4529,3101.9565,-1333.2065,6910.2812,1224.0625,14114.580078125
102,-2728.7644,-2667.8,-3245.9104,562.032,-161.06416,-1811.826,3343.09594726563
103,810.9684,542.999,3769.9653,1624.9381,-11692.107,4484.5,22090.49609375
104,128.49799,-229.13689,162.58073,-333.6955,-1083.2236,-53.262653,2000.98547363281
105,7909.953,8241.315,8447.517,-421.80624,-744.29834,-664.85175,1934.53674316406
106,2467.1018,3646.99,4287.365,61.810215,-3910.6782,276.8741,6977.0654296875
107,5442.2437,5358.0483,5652.236,-260.05396,-1052.9402,-367.9417,2000.98522949219
108,9129.634,8455.242,9652.09,-465.02847,-870.6768,-16.823797,2000.9853515625
109,7924.2554,8070.446,8351.789,-102.54702,-1114.5817,-60.69887,1977.65844726563
110,5461.693,5705.152,5602.9023,-102.12127,-1015.64734,527.0056,2000.98547363281
111,3511.5676,3543.2327,3815.6267,-152.592,-1095.2883,289.4214,2000.98559570313
112,4665.154,-10391.296,23187.969,-3499.5247,-724.2776,-5252.7085,31141.0625
113,3405.8982,3319.5947,12756.255,-2722.2383,-148.2951,2752.093,11543.974609375
114,4100.517,32498.66,26849.768,-3889.2253,7957.6694,8541.042,33647.3828125
115,-3376.2104,29505.652,20063.879,-1999.4906,6832.4624,807.7756,31841.796875
116,2174.7422,17258.639,7302.5664,9139.938,-2724.0974,3623.4924,22107.408203125
117,1186.8892,3979.1494,4936.473,-611.71185,3597.0444,1630.3685,7700.60693359375
118,47.41752,651.77625,1085.0895,154.87624,988.7067,-239.9443,1998.04638671875
119,1922.4233,1611.0066,1890.2369,652.38873,-2815.3484,1148.9694,5394.79150390625
120,1533.001,1200.2443,1300.0345,-168.75133,-1024.633,95.00317,1830.19287109375
121,-778.29675,-800.6158,-902.4757,590.63763,-2821.279,-163.26889,5001.85205078125
122,3568.6277,4040.368,4145.3564,-83.86189,-1029.2671,-416.9667,2000.98559570313
123,6387.0845,6488.9106,7095.1772,158.32599,1035.8157,85.90769,1937.974609375
124,1787.2006,19180.383,43964.918,-141.38617,-6720.498,5212.9565,39559.546875
125,-3584.3857,-8589.348,14162.171,6873.647,2234.9363,-2045.0841,24455.75
126,2448.9475,2369.3955,2800.6482,-358.40735,-604.3567,-631.6544,1684.06372070313
127,2330.407,2344.2334,24141.064,156.39508,2793.5413,139.40547,22337.11328125
128,2278.6558,2222.4038,2525.2393,-162.07536,-42.19888,-880.40283,1577.12194824219
129,-2657.3496,-2883.393,-2386.9617,312.4063,-939.21515,541.43304,2000.98522949219
130,10438.829,16095.196,17928.36,-745.7681,-6557.255,12591.88,25535.30078125
131,1601.0787,2539.1316,4776.4575,1482.0262,-1091.5658,3107.8293,6864.68212890625
132,6118.662,6077.5864,6524.58,97.05027,-126.256744,494.9096,997.003051757813
133,1655.3813,610.2355,14376.763,-1327.4135,-1966.9679,2949.401,14805.7900390625
134,1793.2059,3889.559,34818.945,-6773.937,1284.0427,2113.0186,34378.19140625
135,1573.5956,978.65735,1972.3794,-51.951237,-883.3042,484.59064,1950.25427246094
136,-2271.491,-2687.6167,-2289.8284,-49.252373,-760.61273,-755.0342,1902.35876464844
137,-8024.724,4969.5327,9010.929,-6020.1694,1536.826,1379.0424,18953.01171875
138,2204.0864,2704.706,3181.21,-11.894139,1000.73566,307.07214,2000.98559570313
139,3898.4985,4205.052,4458.635,-17.589922,1118.1807,-73.06385,2000.98559570313
140,6191.1226,8341.973,10440.381,98.506294,4795.847,149.77618,9090.6376953125
141,3324.1174,4480.8545,6563.7915,-215.26642,3005.5198,903.99805,6146.2333984375
142,4995.9316,8599.841,10737.734,-271.86456,3950.3293,876.4539,8637.4228515625
143,5233.3325,5626.7983,6008.236,1.2086174,1067.3561,-31.284534,1967.50610351563
144,-2346.2158,-2648.2322,-2114.6365,192.33524,1053.2424,-341.6736,2000.98571777344
145,1097.5139,1380.8228,1598.8782,-123.09303,982.104,323.37646,1855.35620117188
146,1021.30237,758.47986,1051.6976,-119.27347,1034.242,-107.83327,1834.2626953125
147,341.10822,478.96088,501.58905,149.0435,1066.1776,203.15338,1903.49536132813
148,5367.195,-1459.3245,27371.705,-2998.3008,2358.154,4271.161,27917.638671875
149,-167.6243,2548.8591,22080.264,-1106.4935,10699.847,-8604.434,31798.64453125
150,4085.91,6557.3384,12473.97,-662.2994,7744.4707,1873.5798,15732.587890625
151,13163.166,4831.6177,16674.945,984.3423,-532.42926,-2278.6365,11416.638671875
152,-1123.8307,3222.7732,-104.80886,481.68823,4148.5195,-884.83026,8377.205078125
153,-4170.026,-4489.515,-3964.3257,-135.24988,-309.524,-787.49133,1553.32727050781
154,1719.772,1290.0651,1987.7019,3.5768924,-15.934875,-845.9886,1587.27941894531
155,-4104.9917,-3676.4229,-4120.246,-267.61572,-1092.8013,-73.037346,2000.98559570313
156,4607.473,5282.06,5252.5312,-119.1483,-1081.5126,-73.7712,2000.98571777344
157,-2930.9832,-6581.4707,10023.749,-3213.4812,-8617.719,-9230.524,27162.927734375
158,-1951.3159,-1856.8195,-1835.3883,-198.7923,-942.10114,-110.742905,1682.08947753906
159,3240.6138,1483.4713,2649.9873,476.63913,-5281.1733,69.653534,9314.8837890625
160,253.96043,351.1655,2164.8064,317.7975,-4837.115,2570.0105,9684.314453125
161,2604.6016,3004.822,6385.7036,440.85062,-5460.467,885.10944,10262.896484375
162,1821.3173,2951.1104,4141.033,770.81134,-4919.0527,-351.24347,8875.8388671875
163,-3028.4182,-2693.0557,-2764.6545,-211.06808,-1118.354,90.48686,2000.9853515625
164,-939.4623,-13910.784,1333.355,2865.775,-2044.2579,-11915.351,25807.0546875
165,3283.286,-1198.8182,8085.658,38.03031,-2105.4075,-317.06845,8847.6513671875
166,1370.0702,-2159.0776,4720.736,618.5861,904.7916,3915.8828,9225.6787109375
167,7511.8257,7698.5493,9275.7,1128.823,-2131.248,5390.434,10365.1572265625
168,4100.25,3800.9753,4725.606,-270.75964,701.61633,726.31647,1986.73706054688
169,1030.69,546.12683,1296.425,26.23172,292.6534,1050.5171,2000.98547363281
170,22862.172,22175.732,23479.049,108.76783,34.046597,899.209,1933.87805175781
171,9064.411,12600.906,15741.468,-1038.1423,-3095.9424,-3628.3542,10244.9580078125
172,10979.302,10529.296,11401.633,-10.395514,540.538,-782.1283,1811.89477539063
173,8546.219,808.07153,11782.022,1714.8737,1906.932,-2221.27,11398.33984375
174,2262.325,5390.0195,11674.5205,1261.6812,1019.735,7263.3057,15332.8193359375
175,5849.6763,3884.2222,8638.28,1664.8733,-1380.6741,5428.1543,10933.8447265625
176,6129.575,550.3867,6900.453,-784.22955,459.64377,-5753.2065,11738.8037109375
177,2117.4827,-5617.81,3572.609,3356.9915,1479.7106,-9559.015,19690.328125
178,5063.0728,11476.56,27405.324,-5463.974,1303.1428,-478.0734,22189.2421875
179,-2494.3545,30583.967,3165.4006,605.54626,-785.7954,-2746.0903,31057.50390625
180,15098.952,1649.8971,-11770.142,-5173.886,2626.7073,-488.87207,25361.080078125
181,5183.562,11340.002,-3326.2734,-5070.261,97.7794,3874.5388,16878.88671875
182,-11895.384,328.57233,-5491.825,-1883.2782,2833.8926,-12671.38,25071.466796875
183,6332.131,7041.0674,12496.276,-49.132957,3747.169,-686.2045,8813.2275390625
184,-29161.148,-17217.168,-35099.45,5866.6543,7494.4683,6118.668,25157.849609375
185,9901.567,2829.4207,32091.678,-7137.0264,-1225.159,1474.3983,29379.9921875
186,10036.839,2000.2969,40860.06,2218.1917,3947.6987,-6139.4727,37907.2890625
187,5388.114,-9481.831,11967.526,483.40717,-7488.295,10828.625,29714.33203125
188,-5566.5996,-445.88113,-6465.098,4893.581,9058.626,-7501.3047,22769.634765625
189,-2055.1182,-327.35843,19031.613,-4251.8423,1619.7388,1626.1786,21937.20703125
190,718.5456,-413.89816,755.70905,-467.11313,-688.83496,209.62645,1880.36975097656
191,623.98846,1276.8657,1222.1443,-514.4517,514.55133,169.81253,1438.15734863281
192,-890.35516,1180.5704,-258.2389,-189.79694,390.61285,140.12505,2000.98645019531
193,5316.7725,-6858.494,6215.9683,656.8092,-449.0645,109.85991,12725.1328125
194,13115.242,2509.2202,7871.577,-393.88226,1389.461,-1736.4834,9983.619140625
195,1369.8448,-2532.7703,1487.762,2789.691,6916.578,11643.959,24275.79296875
196,12581.146,-3019.9487,-8284.588,5603.714,9583.945,1722.4508,27053.763671875
197,3934.0273,-3742.6436,-1035.3721,3354.5881,468.94162,-66.77316,8939.275390625
198,-53435.156,-48344.664,-61771.73,-2910.0266,4465.467,-7649.8486,19965.853515625
199,-25694.197,-16324.744,-30192.967,6678.529,-13239.384,7470.9526,31261.3828125
200,-3441.9917,18648.1,23422.43,5562.786,-3325.1348,-1281.0614,27334.19921875
201,4393.7725,15821.121,25740.52,-5055.6064,11078.699,-749.5609,28087.486328125
202,-718.80176,9620.718,-4525.234,3930.759,-4855.081,4314.8115,18266.693359375
203,-4024.384,-6780.255,-30128.9,3880.9792,621.4676,548.75995,25774.94921875
204,4336.2144,20290.115,21204.387,1420.9912,1616.965,-5301.035,19187.322265625
205,-9223.378,14164.364,-6107.5273,3797.5203,-2704.16,7135.1567,26490.650390625
206,-4783.8574,10842.637,19611.088,-2106.1458,-2551.7546,1855.666,22388.9609375
207,6065.6304,5593.7866,30331.477,-2983.6487,-936.201,-1789.1855,25287.2109375
208,-1083.8066,-1394.385,-6147.2617,444.88077,-760.92535,-323.267,5177.5205078125
209,2362.5642,8805.67,4697.834,959.0655,-342.9393,-155.86568,5925.01708984375
210,3058.292,8826.667,-5435.409,2507.5393,-84.30922,-1106.6201,13303.021484375
211,-4259.285,2027.8983,15094.651,4206.1816,-3035.9019,-4415.866,20776.125
212,3663.7095,1307.1515,-4314.4385,-785.90466,-4929.2104,-448.7302,11213.90234375
213,-3909.0513,8874.326,-24489.447,-4630.2456,-1199.9448,196.69806,30311.837890625
214,12304.666,-748.15027,24982.156,16529.91,7494.7334,-15.30605,38533.09375
215,2991.4075,7656.206,-13885.363,7333.047,11774.447,6068.691,32757.18359375
216,-21549.053,535.6177,15009.582,-8546.51,-3847.5225,-4245.423,36530.68359375
217,-1877.1852,28110.309,33438.62,6959.635,-944.1609,-6804.6045,37071.7578125
218,-2040.4438,272.60693,17608.959,-42.111145,8578.98,5035.587,25354.93359375
219,-4398.281,-7304.055,-11003.956,-5722.535,-109.768715,-6335.514,15861.2255859375
220,-1529.3973,-470.09134,-2357.5593,-242.28706,154.17404,224.42024,1756.06652832031
221,-356.72644,309.38577,272.66312,-140.08635,586.5535,765.03876,1807.60974121094
222,-3188.459,11031.802,24825.656,-4192.132,2329.0176,-4818.7456,26968.39453125
223,-17639.004,-8450.809,-39899.074,-1907.6458,-11180.624,750.34644,34235.78515625
224,-7925.1865,-7059.4907,-11832.778,-5280.733,3510.1106,11252.962,22801.53515625
225,9324.675,-1006.64294,25492.293,-728.51294,3871.3118,3251.612,24767.580078125
226,6704.027,1265.9299,28642.086,-2774.0127,10149.786,2601.6843,31346.431640625
227,-6362.6055,2085.4568,-3440.7173,-1452.7019,-6629.8066,2430.4194,14530.580078125
228,-19298.004,-3352.9175,770.84143,-20.040142,338.88916,4071.3628,19674.3125
229,-3017.4983,-6384.7686,17890.514,-281.86905,8082.3477,2846.8625,27192.125
230,13150.578,5270.6787,20946.38,2517.818,-5734.7847,8032.359,22260.623046875
231,-2453.0054,-1630.7233,1010.5252,-1036.3738,-1719.3663,4221.951,8682.7236328125
232,1819.1935,-17.880617,27486.826,245.04129,6285.231,4715.519,29912.48046875
233,-611.58777,-6368.392,5159.6143,3513.4883,7475.4585,6019.5835,20323.84375
234,6819.993,-1755.3054,-4883.8735,2419.1406,10741.279,7772.5737,25594.388671875
235,4459.1177,8333.737,7180.219,-8170.068,11844.308,14112.547,35078.1796875
236,3454.2463,629.5597,7257.354,1.2216969,5692.281,5591.9526,14973.3447265625
237,4110.5728,2957.3948,3187.9917,-748.6144,-216.38931,579.58435,1986.59826660156
238,-328.39008,831.07275,353.01276,361.80777,-398.65393,-839.81104,2000.98461914063
239,2230.0261,1692.1437,3931.465,-456.83655,-936.34656,-1567.9214,3838.0791015625
240,11702.2705,15364.492,44406.875,-4503.628,-2545.1543,6831.649,34402.4296875
241,6961.375,7687.3857,11717.014,-362.12994,2011.2089,3688.738,8546.2978515625
242,-4497.684,4653.859,-264.21902,8804.653,10529.042,-4549.1235,26270.9296875
243,-8614.853,5270.3647,23228.78,-1623.3444,-1439.5099,4811.142,29124.28515625
244,11569.677,4404.4307,10269.29,2485.3171,10509.021,-12275.144,29079.212890625
245,4235.2153,23596.773,16397.658,131.67271,-13526.345,4961.961,30168.06640625
246,-9276.173,9263.46,6260.614,4510.35,6220.9683,-4027.9187,22866.283203125
247,-2028.2032,22703.652,30147.049,-1496.1643,-7337.819,3410.1191,32469.845703125
248,-7457.9233,-12508.377,-13271.862,1957.1094,5739.8096,-3147.9795,13038.4951171875
249,-2789.3994,11882.54,27720.307,-850.9095,14105.022,2437.263,36267.33203125
250,15016.599,12404.92,15340.078,910.2194,12737.371,-2396.5435,22676.154296875
251,-4208.862,10269.97,14208.646,-5929.6895,-1458.7609,7486.914,23710.892578125
252,-15053.527,-6479.3926,-16479.033,-5564.1455,11119.13,434.1179,23497.234375
253,1690.8766,3217.5808,5197.569,2946.6594,9725.705,-9022.39,23733.962890625
254,29793.148,-988.6205,22877.977,-744.40765,5699.407,-2124.0967,29918.611328125
255,-22671.703,-10918.993,-7652.4077,5924.6235,1902.3748,1569.0905,17627.669921875
256,7462.0557,-2370.6467,14023.15,1389.9701,9865.779,-1147.7345,22494.265625
257,11378.11,1491.64,13759.046,-5723.285,3032.0356,-2562.0393,16507.271484375
258,-1862.9336,-207.62732,10651.488,261.79086,4678.7476,11162.058,24047.615234375
259,-160.52573,-3600.497,-4616.1,9933.589,-6106.731,150.39638,20599.306640625
260,70.20975,8768.705,26129.814,-2608.2185,-8216.229,9949.074,32372.322265625
261,-7512.3057,2417.1643,-3146.1567,2064.1382,248.2361,-7476.573,15967.7294921875
262,-3979.016,-10876.988,-8691.636,2226.4622,6142.182,-3467.3118,14191.5693359375
263,-16627.662,-24796.834,-19140.844,1259.7467,-5114.3086,-1356.839,11885.8408203125
264,15602.67,15375.229,13938.448,-7545.3813,-7688.0273,9555.614,24989.75390625
265,23417.014,10007.503,41294.36,279.6084,-4504.576,-1246.3335,28370.921875
266,20699.426,-3058.089,-13247.983,-5652.954,7757.986,4730.1133,35410.2890625
267,4391.3687,-5418.5195,-29917.912,-2031.886,4553.317,-1008.6019,31850.0546875
268,16148.744,3076.6484,36236.465,4962.63,2485.5134,-10166.108,35205.83203125
269,-8036.542,-11577.222,-22224.035,-4550.126,-2207.0068,2995.3486,16347.1064453125
270,2159.5305,14397.346,-24544.33,7918.945,585.668,2797.0786,37447.11328125
271,14591.302,11345.796,24986.178,1380.9741,3101.8313,10512.569,22769.521484375
272,4016.3665,-3746.3782,18535.64,-10720.102,1225.6317,3954.6355,27927.845703125
273,-10311.369,-234.23857,-16265.07,2101.3347,-2788.0193,-6179.278,18657.646484375
274,16794.773,6521.6074,23955.115,3268.7214,-6134.787,13219.862,29993.708984375
275,-7957.1543,-3487.043,-26847.951,29.343103,-2109.728,3210.3662,22484.724609375
276,2569.0479,14382.288,36125.523,2988.9338,-7903.176,-2698.9573,33244.7578125
277,8804.013,-241.46391,23431.992,-2437.721,-571.0279,-7927.2188,25208.00390625
278,10244.5,23109.223,-16021.171,4427.05,5765.7095,479.88928,36776.4140625
279,12056.4795,-6214.412,28745.564,6942.726,-7161.2515,-6659.5146,36725.7109375
280,5543.1133,-11593.544,16568.783,-4696.9775,698.2983,-381.17786,25927.921875
281,-5468.7905,-6042.5854,5203.642,5870.277,-5902.4614,-67.00849,18118.08203125
282,-4004.199,-5383.822,-21954.285,-6324.2236,-6623.5303,-14935.612,34930.83203125
283,1978.9021,-2351.5132,10883.608,-3285.7725,-3553.574,-1035.6973,14494.7548828125
284,-357.49673,-14259.544,-16046.5205,-7263.8335,-764.0145,5260.58,21549.126953125
285,-4223.211,-917.9679,-30256.318,1455.412,237.70233,723.05884,27978.306640625
286,4201.0522,-8136.406,-12426.635,9088.577,2971.1553,3999.6733,23363.0390625
287,-4769.5537,282.2818,-15720.592,1888.0376,9570.576,-8072.896,26110.646484375
288,-83.8607,7012.701,-3527.477,2023.1172,2420.4375,-3146.8293,12092.1337890625
289,1881.2032,-1979.6926,14820.725,-1466.0941,-5773.8525,890.05286,18469.783203125
290,-6167.669,-585.9698,-4944.1733,-6031.202,4738.3613,6377.6895,18009.171875
291,4313.8115,1672.648,-20301.43,2984.156,-4114.3247,-3640.3801,25790.08984375
292,2768.7725,-1672.2952,12774.592,-304.19476,-2891.0928,8077.53,19630.80078125
293,1649.1892,-7684.944,23137.494,-342.49576,9077.02,2592.2114,31892.560546875
294,19167.93,-13375.71,21311.584,-5190.839,7691.6455,-3968.8362,37934.4140625
295,2643.4495,13639.183,18409.969,1201.1669,-4222.1973,4749.0312,17933.04296875
296,13319.383,8734.838,28357.521,-2855.979,-2770.161,-1775.0254,19314.50390625
297,5825.027,14359.229,-1730.2992,-5386.602,-11798.435,-1825.3402,26627.908203125
298,2223.6052,10644.905,20804.164,-1070.2345,-1015.56384,-5155.017,18599.353515625
299,330.72623,-13141.895,-17360.754,-4026.7883,35.302612,-8540.469,22882.6796875
300,6677.6577,6148.261,2504.2559,4004.1758,651.0664,4173.9624,10822.4755859375
301,33042.504,2863.0227,25647.654,2554.0005,6605.8584,3706.5874,30561.56640625
302,-1447.75,3276.6746,-2807.4211,-1525.1416,8771.942,5935.144,19341.392578125
303,-2788.9434,-10737.94,23025.936,-4976.4614,-5019.3267,-4459.7646,33828.12109375
304,-749.528,-1624.3446,-2246.402,-88.543274,-783.1271,300.2582,1957.11389160156
305,-8262.78,-2249.0164,-7476.829,1253.3018,6301.3887,9452.452,20589.751953125
306,15494.779,203.64996,8417.562,-2044.3257,-10404.673,6625.0205,25390.3359375
307,1485.8549,-4494.849,4774.992,-1198.7905,-4268.7095,6775.011,16215.3583984375
308,4243.0015,38.356396,2886.085,10738.169,-8164.508,3725.0662,24522.349609375
309,19240.27,-9617.376,8870.155,-4960.375,189.70784,-7119.5464,29445.43359375
310,14865.759,-3293.1833,21146.615,-3357.979,1705.863,-14074.268,33467.34375
311,11235.44,991.3955,15714.489,-58.836727,-4261.798,-14180.7,28786.486328125
312,8388.065,256.6733,4588.4556,6132.3784,7706.264,-577.90295,18483.5078125
313,-202.23466,8298.664,-2953.7312,14511.913,1447.4497,4876.719,28506.9375
314,10040.294,8077.602,16591.895,3088.3862,2673.8325,-11530.492,22551.134765625
315,8268.777,-1875.7263,-14002.134,-1712.0542,-2567.1055,-395.26654,20050.16796875
316,8885.823,9387.69,13680.871,671.4397,3937.2935,4715.4565,11636.3134765625
317,-2478.7185,-22735.225,-10036.264,-289.50552,9770.097,-9926.884,29943.24609375
318,-7871.0176,716.864,-4948.8203,5460.4565,-1380.6437,-2430.9666,13041.9541015625
319,4571.2954,-17176.842,-9727.555,10592.681,10935.304,8848.359,36009.76171875
320,8187.3506,7711.2646,20384.967,10125.224,4453.4204,10035.447,28705.49609375
321,2503.7412,603.7172,22632.494,-7892.7676,13635.072,2493.3938,34789.44921875
322,12212.25,-2424.534,12442.5,1610.7881,7943.768,7790.2905,24429.875
323,-376.73346,-3869.6348,-7881.7393,-5432.9,6526.4453,-896.43274,16157.1865234375
324,4397.615,13304.483,34953.94,-6421.174,8617.661,1837.0358,33128.1015625
325,21859.586,4453.8296,41943.08,-875.09186,-8084.932,-1500.8032,35510.9609375
326,-12033.854,932.6713,22917.732,8804.6045,-2409.103,-100.92821,34446.31640625
327,6057.1235,3581.8313,737.4824,3292.0093,1781.1864,-16792.93,30154.5234375
328,30029.479,27303.982,46122.6,3868.8943,-13462.972,7013.0044,32349.423828125
329,5623.402,902.447,33752.03,3985.1401,-6088.689,5290.1855,34483.6171875
330,-627.80396,-146.58179,874.3862,-362.91095,647.95667,267.733,1906.5576171875
331,320.1357,158.4514,-137.68823,627.5073,-416.3598,696.0579,1821.14636230469
332,5428.553,4732.2485,16119.08,991.82825,2197.9011,4272.4272,13943.4736328125
333,2074.0334,1508.3123,3155.2637,1104.1249,4161.8486,-2142.298,8455.1357421875
334,-6309.3887,3750.6355,-13899.597,1524.0289,-1570.4927,16495.271,32646.93359375
335,1843.4777,6460.1504,31870.896,1246.5521,-3126.6404,-6568.703,30785.802734375
336,4173.953,20263.361,2161.804,-6460.5938,12015.045,-11044.581,34921.94140625
337,600.9076,6633.5083,22241.484,924.05927,-6981.0396,13625.44,32861.55859375
338,-25828.34,928.2144,-5000.281,1308.8105,1101.0402,5438.2217,26266.5703125
339,8090.988,3264.2107,31516.016,94.4196,6797.699,-499.28574,28714.0703125
340,-1148.3893,4041.8694,13717.571,-3416.1567,4802.4146,7695.2466,21275.05078125
341,27705.607,27229.693,42355.29,-812.4871,-9525.587,10415.46,28660.912109375
342,7297.6763,-4926.8584,15975.352,-453.83478,-16455.303,-6455.4165,35620.046875
343,-1973.2173,18618.277,17007.514,-2744.4304,-1742.1163,-6741.2017,23695.3203125
344,4486.59,8131.5767,-5935.5366,-2916.3696,1980.7018,2931.499,14931.8916015625
345,-6918.18,-8892.183,-27769.162,-2380.7778,-12915.803,-36.86625,30248.34765625
346,2870.932,3541.9404,10998.383,-2065.0676,1212.6979,6245.386,13973.978515625
347,-891.2835,1119.4766,24831.377,3519.685,4258.618,-6176.9976,28635.892578125
348,-8791.983,-7855.837,-7526.1074,-240.81982,-187.50002,-864.35236,1953.0830078125
349,-5037.792,-15997.766,-43610.188,-1333.3734,618.44415,-564.21265,34534.53515625
350,-19.808815,-16610.42,-36057.758,395.88004,-3172.7698,-2179.224,31953.203125
351,353.23752,5974.5303,2894.87,2055.0557,-4611.403,-2343.4128,10803.294921875
352,1277.2349,803.43335,24850.572,2069.5754,5628.6865,1535.4764,26116.3671875
353,-16449.168,2441.306,-3232.5852,-7397.3174,-2551.0325,1491.7051,21730.630859375
354,-13447.804,3031.1746,-18345.66,5784.0386,-4757.4663,5707.4917,25342.642578125
355,20884.879,4559.249,4298.2266,10253.669,-4103.4395,2786.3054,25691.90625
356,1225.294,2153.6309,236.33041,-3895.2996,-2567.639,3647.3657,10390.6767578125
357,-1545.8711,5500.443,-17967.066,531.36633,-2952.3892,-839.91296,21543.63671875
358,-1477.8793,2372.2524,5292.7266,1607.9023,636.98944,-431.69254,6642.9873046875
359,1804.7324,1041.5426,2458.3079,132.35219,-131.77988,-185.76083,1310.18786621094
360,-1661.9795,4398.9473,1440.9001,1020.1423,-687.69495,4902.4985,10207.873046875
361,955.8649,116.77219,-461.27982,75.31813,-261.30386,-261.2823,1396.39636230469
362,4725.4985,1552.9036,73.7188,1516.4867,-323.71838,472.6559,4982.9697265625
363,-1996.0807,-4987.704,-15177.046,-1840.8195,-1251.4834,712.35443,12634.951171875
364,-425.16382,934.8579,161.7349,844.09357,849.4016,319.7842,2450.43481445313
365,-19888.236,-7536.4683,-19063.92,-9334.239,7244.6074,8484.766,27890.404296875
366,6270.749,1729.2695,16582.65,1616.5422,-3588.7192,828.36615,14910.6181640625
367,1006.1592,-3551.2551,-2219.6023,743.04846,168.5198,-286.83377,4296.83740234375
368,189.17616,3605.9878,-6428.53,220.34787,-2657.4004,-1333.6962,10234.61328125
369,1623.1627,-715.2204,2141.566,-1417.6982,308.90027,1262.0438,4247.72021484375
370,977.04285,152.69972,362.235,120.69667,533.4428,281.99942,1298.720703125
371,-738.79944,-811.9645,-137.36044,436.58133,-165.3384,-22.224525,1032.66076660156
372,-1026.8309,-147.37828,128.59991,420.13492,28.623732,-10.192461,1274.60595703125
373,187.45201,-1191.1448,179.93512,-262.00107,120.13678,83.146935,1469.76025390625
374,2019.5178,2208.5676,1840.145,791.0672,1938.1244,732.90247,3854.81567382813
375,2444.4236,-738.11,2163.7988,-1479.3944,879.9227,243.34073,4287.24072265625
376,1475.649,1515.5974,2470.345,162.37866,-76.47209,75.63807,1032.03063964844
377,219.68079,170.7431,-614.5895,730.1939,-79.0187,160.21857,1533.90539550781
378,5749.597,3281.5234,-2381.8853,1474.4279,-1581.4202,-6799.798,14313.61328125
379,6041.5957,-0.05544562,-1238.7455,1188.5128,2215.1887,402.23734,8060.0185546875
380,647.358,-1958.9276,7228.791,249.61002,1573.3844,1666.2932,9121.6337890625
381,2172.3901,3646.0874,292.25272,-1850.1199,-218.2232,-135.51721,4352.49853515625
382,-2699.6064,1864.4053,-6097.3374,-2416.082,-1423.577,-982.68317,8623.8701171875
383,-2976.2202,-892.5539,-392.85733,425.82645,17.152163,-41.97496,2486.5068359375
384,-1273.6216,51.289787,-57.480736,41.250656,-161.25607,1.0058795,1306.22668457031
385,482.3158,2714.4512,3902.0615,423.07495,47.91234,-537.2884,3233.2109375
386,1356.0924,601.5494,9990.76,-742.2176,1701.5319,-294.00256,9604.1474609375
387,-6262.4365,3994.046,20180.293,-967.18036,465.87814,-2324.988,23513.359375
388,-6608.5415,-7175.1523,-20653.596,-621.6204,-2375.332,1949.4279,14802.47265625
389,14299.369,10797.425,22693.883,-3543.976,939.17444,-5119.904,15201.7861328125
390,-541.6811,-629.0087,497.52472,-643.33514,-89.391846,-74.72887,1568.65942382813
391,-1286.2487,3274.9106,5424.687,-2655.2031,390.67395,361.46152,7565.1396484375
392,-4789.2227,1282.6686,-18688.213,-1678.1698,4231.4414,3192.77,20178.908203125
393,-5873.7124,-4187.3335,-16799.727,-2293.9873,3030.8003,59.50396,13564.736328125
394,-5653.515,-3080.5876,-8686.076,461.242,1607.94,-843.71466,5843.7275390625
395,-6077.005,1221.308,13169.783,-1546.6744,-1584.6681,-2311.131,17719.177734375
396,2037.8842,2528.215,5694.059,-1882.0884,480.9996,-240.1769,4827.96142578125
397,2604.8323,5570.826,10229.685,562.19006,1192.8389,-1663.6216,7605.2548828125
398,-2710.0242,-3443.7407,-6147.951,-1897.7101,-2324.8416,-2546.3054,7503.6533203125
399,983.05975,1582.6965,1075.7742,-798.9249,-1802.0896,-375.9573,3520.51440429688
400,-2833.5525,-3504.331,-4766.824,-1546.7107,-1326.1079,-313.0837,3954.41259765625
401,4831.8516,1563.3748,935.2875,287.18625,2268.8442,244.11043,5385.11669921875
402,2796.8845,1199.2838,2236.164,722.21277,435.5875,1699.0245,3572.80908203125
403,3690.3591,203.81401,427.42462,-406.58627,811.248,-2232.9194,5371.63525390625
404,-190.30853,-2091.5645,-5318.3643,-1403.9058,868.6803,-149.63403,5329.71142578125
405,1295.346,2771.0918,3209.9685,-853.76184,671.86163,-185.57787,2581.15258789063
406,3386.3455,727.97876,4616.82,-2598.869,-567.63416,-81.75611,5753.35302734375
407,1792.9602,-894.5442,20460.963,-3728.1887,-6943.328,-3903.7043,25257.30859375
408,2597.879,-4424.8823,8104.1284,-1558.8486,-1235.6168,1852.5731,11852.1474609375
409,-2615.0237,-9219.698,-17312.814,-4508.0635,2955.9407,3966.3052,17232.181640625
410,422.4569,1523.2897,-4651.0137,360.01895,-821.44794,-587.51135,5998.8046875
411,2630.6594,119.35567,284.59625,5359.057,649.9504,8916.948,18217.591796875
412,3636.8054,2839.0483,998.19617,1043.7964,-273.53253,616.5366,3182.302734375
413,5345.3794,-5921.8057,929.08154,4120.3096,1183.3613,-6015.9414,16136.9287109375
414,2872.137,457.6019,4394.795,-1362.7083,2676.7883,-535.281,6304.8447265625
415,1734.2273,-848.47614,-1367.276,-1275.0374,-421.79205,-175.5761,3712.51708984375
416,1566.8812,2303.6006,-563.1369,-261.51666,1145.638,-2053.0176,4841.09814453125
417,225.34485,-1125.1965,-1733.3868,-837.2567,-3334.2185,220.5389,6214.1123046875
418,-1581.3713,8534.81,-9266.761,735.55066,3603.4844,-876.54584,16793.822265625
419,1142.4178,2034.8513,-726.247,-2092.4563,-1495.9761,554.6413,5169.8974609375
420,3662.768,5488.268,-1219.6057,626.56726,1906.28,306.26517,6960.14794921875
421,-1040.5769,5496.601,13039.717,-1343.372,-371.6469,-565.2913,12479.220703125
422,7128.6353,5213.7715,6963.5464,761.0856,-1726.4939,130.13988,3756.16064453125
423,4376.987,2405.273,-2835.1726,286.62448,-2452.2148,-786.9144,7863.00341796875
424,-5086.869,-2730.4421,-9613.904,-2072.4878,-324.14218,1353.6687,7443.95751953125
425,92.696335,1255.4784,6181.851,2.6676838,-649.67865,22.92596,5711.16015625
426,-3806.2566,-1783.8444,-17001.857,2680.1438,-1470.8356,707.0505,15311.4453125
427,-3138.8154,-1650.0042,-5460.114,-765.07605,-277.09317,1824.9617,4799.873046875
428,3699.7202,-2746.594,-8229.639,-2275.1125,318.6632,106.68639,11082.931640625
429,2634.022,-1077.4873,-6220.6377,-1109.4785,-2211.2542,-254.09526,8824.48828125
430,3215.3774,1691.7336,609.383,-1322.8768,2391.584,-244.22743,5265.93408203125
431,1241.6713,736.33887,5186.7783,1616.5754,-1852.2727,377.19586,6030.94873046875
432,351.50238,20.50399,-3381.2664,-689.615,166.65953,212.87686,3801.78442382813
433,2895.8975,3660.809,3682.2056,178.9886,1315.6642,-692.70715,2707.48413085938
434,-0.91605204,1335.4408,-2009.7516,-122.45054,273.3062,62.403793,2964.21069335938
435,5758.734,-3702.3262,14080.715,1126.8972,-3026.8901,-4640.7964,18259.48046875
436,3530.909,5840.6895,6280.66,480.86862,2619.0742,650.81104,5393.3212890625
437,2889.1267,1209.0078,-1150.4221,-708.54834,1.3165162,382.28625,3781.32080078125
438,-543.11,2674.9036,-2804.2002,219.94688,229.37894,-943.88257,5071.49658203125
439,-309.4114,-369.23456,306.70383,152.99176,245.16248,-57.581936,824.933410644531
440,585.864,-374.68744,1850.9562,-901.35077,572.0913,1261.6104,3454.337890625
441,-544.6364,-271.9421,-455.03397,-1325.8345,-89.942375,890.419,2781.05639648438
442,-2194.8972,1015.0299,8300.883,1326.8271,-2764.4214,-1313.6383,10961.6953125
443,8162.2554,-595.905,18669.6,40.934376,3419.513,283.3986,17733.015625
444,783.54956,-2119.0667,-2250.194,-2152.6738,934.16595,501.94385,5108.70263671875
445,-3916.8547,-938.5679,-835.9298,1651.8054,-3333.8276,-264.36957,7136.15380859375
446,-1990.2557,-3728.5317,-772.2192,-1681.7533,230.74538,-371.21185,3959.86206054688
447,2404.6064,398.64212,655.1776,120.065796,-1067.7703,-860.5861,3043.11938476563
448,160.28941,1605.4219,558.9825,1002.21277,2631.7554,815.0224,5239.8173828125
449,-4256.605,-1491.8501,-7051.6265,-1410.3171,-623.4545,-80.84774,5507.83447265625
450,1177.456,1944.7292,1737.2863,-12.126304,849.2515,-202.3748,1661.19458007813
451,5451.548,1459.7354,-15711.17,1844.3071,-755.5003,-68.73298,19780.00390625
452,3158.8264,3788.6243,6300.9253,-2494.2852,1616.5363,-494.68106,5960.58837890625
453,-1463.8994,-2231.8193,-6537.6245,18.106852,-32.677963,-0.17757362,4737.12548828125
454,1860.9708,2060.3755,1359.4026,860.5927,1793.7201,-438.48578,3583.6171875
455,3218.4905,1904.9536,1212.5261,-178.98726,712.7183,-1501.9102,3391.39770507813
456,-1031.4316,-71.10755,-5244.0073,582.68604,368.86774,-1613.8856,5652.79541015625
457,-314.5189,20.601122,-1476.9155,-1021.6791,374.40488,143.59143,2338.13818359375
458,1180.5117,-167.64989,1565.7043,1271.786,-85.59089,-8.338481,2712.88037109375
459,803.40564,1110.8762,6095.1406,1324.4261,-1491.3654,-573.8718,6276.365234375
460,-2457.5774,4008.2468,4356.757,-1796.0171,129.9758,-1193.0581,7627.556640625
461,2662.7153,1708.1329,1286.7567,303.987,-544.4821,521.7986,1863.98803710938
462,-1958.3528,-1371.1912,-5960.221,990.45844,-209.93303,392.63055,4716.6904296875
463,-800.21265,420.17633,-106.14195,265.33118,-549.4708,-287.91022,1577.87219238281
464,3652.5942,-2174.7253,-33.959873,-1784.3033,-2204.64,919.8655,7261.99658203125
465,4039.3086,-402.72864,-11790.991,-849.2152,3747.2034,1020.4326,15729.693359375
466,751.16046,1373.3512,2128.1714,682.6691,161.44566,-548.3247,1950.59020996094
467,848.87195,586.40656,8484.897,1704.9966,413.89194,-361.65808,8367.15625
468,1713.0055,335.15274,-5954.7915,-803.8105,-2451.0334,-1067.5879,8573.724609375
469,-1047.7976,-318.23917,-1634.754,-1414.3451,264.17642,-642.59875,2958.76245117188
470,-1877.578,4192.9785,1274.3706,-1253.9423,2420.7527,-1589.5078,7584.80078125
471,3813.4343,2847.9216,16133.383,2377.917,-3513.7095,-600.52106,14822.0185546875
472,-1295.0966,-3299.2537,598.3172,3629.6824,4278.63,1190.888,10492.607421875
473,-3724.824,2186.9177,11998.402,1422.8376,-6393.63,820.0251,17886.955078125
474,560.9474,1273.346,-121.87923,367.9481,-104.636,83.0882,1385.61279296875
475,1068.9622,2820.4636,1744.9784,225.69984,-123.01356,-129.58414,1609.13220214844
476,2068.852,368.6225,511.77173,-393.15213,-95.59987,42.81438,1778.90661621094
477,1122.3436,-3319.4294,-896.9617,-146.31714,-387.81186,50.05327,3919.2578125
478,-1795.5948,-1896.5016,-1987.7172,845.14716,248.73314,-0.33104593,1534.96997070313
479,-2721.2932,-641.46967,1992.261,1406.489,104.35945,-4.365227,4765.2138671875
480,1702.7949,295.53912,2638.2388,-999.8133,-67.040924,85.32299,2684.40600585938
481,-1990.7916,-1692.9244,-1534.792,176.7878,174.87384,233.43802,714.015014648438
482,-972.1518,-231.72504,-308.96457,-847.6965,714.24896,297.2428,2109.09692382813
483,-1257.2721,1357.8842,4752.0786,926.9741,-1410.9387,58.918633,5983.013671875
484,-2196.4373,-2536.2358,-9177.578,-1814.5536,1200.3553,-77.67613,7790.8974609375
485,-3964.3662,-2161.2827,-2975.636,884.3524,-239.23573,105.02831,2235.38940429688
486,-4139.6807,-673.3906,927.15784,902.887,187.30075,2.7879703,4761.908203125
487,2883.5344,1867.6542,2774.9414,1145.3774,1134.9929,987.6164,3414.66552734375
488,1344.2814,-1938.6793,1173.471,552.4774,-13.435889,-255.63066,3370.240234375
489,184.10013,-1246.8986,-889.90356,2048.87,-168.73671,149.48886,3796.10424804688
490,1353.5737,1406.4694,3581.972,931.48755,-448.73087,446.33313,2942.0078125
491,1645.4362,297.5559,-1234.5245,262.73734,312.6034,-137.04274,2604.93969726563
492,-1234.7097,-1982.8983,-7197.713,-622.2168,915.62085,899.1017,6144.7080078125
493,-1008.32587,370.5305,-2202.4146,-878.3832,-833.919,65.57475,3063.88696289063
494,-4033.639,-77.23974,910.4649,-786.36224,511.80734,195.15376,4826.1376953125
495,-2939.9163,-1268.407,-3926.5627,749.40594,200.30946,-34.711388,2688.013671875
496,280.87915,-976.1535,600.73553,419.4663,170.0616,-2.3422961,1642.90734863281
497,-9569.418,4818.2627,-8747.563,10615.904,-3068.335,-4862.2705,25161.828125
498,-453.83313,-1772.9888,1369.1218,520.4282,-58.239006,73.60952,2882.19799804688
499,-2201.3928,-2191.1,-4588.8374,-468.59732,-302.06375,28.999958,2580.61450195313
500,-1192.9014,868.49084,3824.028,563.55023,-340.0385,-226.82452,4531.1201171875
501,1570.1559,319.30527,1606.5383,611.67755,-417.00232,-102.2987,1813.001953125
502,-3857.3088,339.65265,-1149.3206,760.18494,-317.73358,38.186844,3952.62524414063
503,942.0198,-851.16943,-3210.62,-148.7066,511.34464,466.35764,3810.07934570313
504,1949.939,454.43338,-41.892498,-1809.352,-141.02919,531.8381,3735.58862304688
505,6106.158,855.9547,-2051.2747,649.4321,-436.15732,1901.8724,7997.96923828125
506,-89.510864,-472.75153,-526.13556,488.72556,18.6764,-145.59305,975.386413574219
507,144.02919,580.3852,-886.2489,-118.02922,184.80504,-49.670998,1361.28637695313
508,363.4008,1595.8475,3978.736,-544.45715,-457.64035,-444.4069,3499.13745117188
509,-43.464123,841.1816,1457.0294,974.07196,-380.23706,-456.17844,2368.78857421875
510,-1487.7034,1842.897,102.80839,0.2062787,94.47054,52.586933,2891.4248046875
511,-2136.5422,227.793,-1623.6727,1132.0492,-1017.4979,-32.745827,3405.03295898438
512,-244.77316,1275.5424,-535.2939,-96.50991,-9.820153,136.66917,1709.30151367188
513,571.5776,-525.12933,-705.8729,-824.1352,-494.7995,-761.2165,2438.04956054688
514,147.48474,-3275.456,1485.0083,-1434.2562,-40.66422,-233.821,4942.06494140625
515,1843.8595,-4194.8037,-13172.964,-699.15784,5469.179,2841.5537,16932.642578125
516,-2747.75,403.95523,788.5052,766.0696,155.87419,88.85952,3626.33129882813
517,-1900.9037,1113.8284,19.595585,-1872.622,-133.4945,11.224643,4190.5986328125
518,170.73509,-46.9655,-570.5298,506.79044,-1238.0466,313.21844,2469.5341796875
519,-658.5824,2828.7644,2916.9749,364.8195,466.98764,-265.976,3707.11889648438
520,-649.31555,122.40374,-1148.1222,-305.33542,-306.7388,-145.2228,1361.80822753906
521,902.0852,1029.8473,840.9118,-44.661797,46.735447,-92.98625,257.598419189453
522,-2670.6807,-1706.0336,813.0754,-6.7953124,-153.85007,200.46143,3146.14184570313
523,-2922.321,-2978.9124,-2043.1506,102.13706,-380.7701,74.50105,1144.02856445313
524,-1487.6195,527.6635,-200.17813,996.15045,235.60349,-126.3171,2513.09643554688
525,413.04794,-1418.8743,1460.4618,880.2452,-116.52191,-96.72724,2960.58959960938
526,1457.4468,518.9402,-551.05396,684.4986,-320.7645,-164.2886,2196.619140625
527,343.1437,-107.19868,222.14113,2506.0796,372.32584,87.48826,4409.43359375
528,-4145.719,-1234.3696,-2741.2258,1637.8451,80.97724,536.03577,3910.09838867188
529,-88.38943,-2631.8103,814.05725,1205.4261,-39.726654,254.05219,3759.81640625
530,-1604.9985,-3294.4136,-1675.5323,604.19824,65.80033,185.00974,1987.65661621094
531,-839.3684,340.50818,394.54834,66.490074,239.1447,-152.41077,1308.93469238281
532,-1187.8998,117.57971,942.88293,-361.69623,-130.4743,170.17477,1998.30932617188
533,-1582.9982,3105.3071,-837.86426,767.2897,-5.4865003,150.10757,4569.015625
534,-288.74854,-99.44251,-777.81836,600.2431,-126.34613,125.13676,1242.31762695313
535,-359.36887,-580.95746,1138.6797,645.0583,98.58985,120.51548,1986.51293945313
536,157.1321,-927.8907,-1118.8656,1100.6292,164.01836,120.55574,2275.83349609375
537,1299.3264,2815.6482,-346.81955,-703.9891,-90.89609,-140.06702,3012.56713867188
538,-2434.8982,70.40994,1691.3094,1542.6375,342.1953,-120.10086,4527.5263671875
539,-660.0977,-516.1507,-1409.0547,1979.938,-71.99011,611.907,3686.29467773438
540,-105.73035,-968.0145,1238.6635,-2302.6013,37.037586,24.964212,4429.68212890625
541,2096.994,1083.0143,-736.1383,-84.495674,0.7867113,-200.67528,2514.8134765625
542,-711.53705,22.978485,3727.106,-1311.8578,-639.03296,-257.88242,4854.7216796875
543,1854.728,437.39526,539.1808,-236.80232,-69.21263,-152.39449,1458.49169921875
544,2998.3901,-781.9934,403.43597,-1436.4086,119.32988,-229.71335,4195.9501953125
545,749.7468,-723.60004,-577.75574,-821.6426,-251.43654,53.86707,2049.58471679688
546,10.904472,344.86157,-2685.5403,854.7368,-456.79883,-279.54294,3366.748046875
547,1660.3867,57.08063,84.37653,318.65405,-11.892458,72.11003,1687.666015625
548,2102.7073,464.77332,-292.54706,-497.43,209.27663,71.48619,2320.73999023438
549,-3292.2036,-490.5104,-1230.3958,-1494.4933,-289.039,-74.20027,3645.77319335938
550,-2048.7336,-3647.3726,-1016.26105,-1877.9425,343.37296,-256.12717,4050.02709960938
551,-951.88086,795.71136,174.96806,-1117.2031,403.60022,295.2371,2617.09716796875
552,1046.6567,-1012.7493,-524.4047,-366.92712,160.73506,16.812773,1989.01892089844
553,-780.19666,-395.09778,1122.6213,-745.74255,107.841064,21.87569,2177.37573242188
554,-1229.8177,59.99308,-1561.171,107.12673,-86.5272,148.34511,1524.3681640625
555,974.22864,630.19824,1240.1707,1144.7958,63.9529,-286.0954,2114.25366210938
556,-2058.6047,-3392.3403,980.27966,-437.93103,-175.06816,330.07043,4007.60205078125
557,-1574.0393,-3290.069,-295.4414,-269.74966,121.9727,-17.330526,2652.83056640625
558,-320.14612,-1935.4285,1204.9205,-782.81586,1070.5878,1250.0765,4166.9326171875
559,-90.17254,-908.1632,625.85876,178.23607,34.255554,228.87929,1422.49719238281
560,818.4263,320.1059,875.8916,283.654,-38.68376,-52.885155,731.10888671875
561,1746.4777,174.49738,494.4668,333.07806,-50.553104,138.26703,1571.1015625
562,-520.7527,919.513,-685.65326,486.2786,246.05696,-4.597118,1797.26293945313
563,895.1482,-560.91174,-97.03023,-207.9908,-159.45302,31.342972,1367.06286621094
564,1068.6724,-1197.266,-21.787134,-58.493725,-120.706825,95.78415,1983.47265625
565,436.2811,-1142.7683,-1388.9956,-99.87299,63.14393,174.37561,1753.83459472656
566,-1172.7415,1658.6184,-663.0206,456.76633,-329.6427,421.63077,2884.16845703125
567,-565.0242,398.28073,429.3785,296.59067,-13.720196,-85.253975,1115.86181640625
568,1053.7074,1685.2917,-741.5236,-493.20386,11.283517,-81.37365,2346.3994140625
569,-66.5903,645.31195,663.8174,-1405.6024,-815.8225,-750.62787,3183.47314453125
570,-862.4727,-572.93805,-4344.1094,-765.68677,747.9507,104.44086,4084.54663085938
571,-376.2619,-721.41046,-1680.8759,-758.0369,1036.7119,61.776634,2516.04516601563
572,-2857.853,-640.20746,-603.4009,1277.5132,-1634.002,-2464.438,6010.59912109375
573,902.7495,1414.0262,-1686.6512,-502.69485,-389.86957,240.65866,3110.97265625
574,3592.1602,-957.7028,-6967.861,621.1936,-496.4995,-28.800686,9277.30078125
575,472.06177,1358.6338,-592.38007,-342.9463,-140.617,96.879395,1817.43322753906
576,2780.4363,204.97765,-1952.7356,-1548.2601,1103.155,674.56866,5390.09521484375
577,689.16473,3139.425,7738.9883,-1650.3363,-1274.1938,-1156.5079,7448.75537109375
