Element Label,S11,S22,S33,S12,S13,S23,Mises
1,2139.638,1802.5559,2321.89,254.33026,1571.956,-1334.7886,3627.73266601563
2,-620.8969,1475.9198,-2945.6306,612.033,-2648.9807,1232.6804,6434.99169921875
3,1319.319,4393.224,3018.4739,-152.55757,2739.3228,-1624.7081,6132.984375
4,2583.4624,4060.3088,-4775.055,-1881.5271,-4647.9595,2758.7134,12863.078125
5,3004.0952,3506.6035,2737.6438,2443.4856,2165.5972,-3007.4197,7718.3173828125
6,-1437.5806,2965.7312,-6391.3506,-1095.5383,-1773.9148,1103.3967,9079.392578125
7,6540.2007,3423.415,8384.448,1461.1229,3425.6838,-994.03656,7964.8369140625
8,-7301.368,2157.642,-7953.394,507.46768,-3949.1262,1240.2268,12175.359375
9,6396.8535,4087.471,8120.8076,592.1846,8508.612,-1194.644,15323.49609375
10,-39.798058,4343.953,-4659.6064,-2477.7356,-4380.706,651.9321,11750.587890625
11,-276.73474,2107.0618,-1470.1001,1256.9752,1203.9374,330.4856,4400.8369140625
12,4885.725,2390.7954,554.44617,-713.88464,-1933.4468,-324.0635,5218.90869140625
13,-3405.9724,2585.2063,-302.88187,1878.791,2617.9675,213.71892,7630.20849609375
14,1852.3777,1917.5818,-769.3415,571.24725,-5993.369,-2069.297,11341.736328125
15,4853.634,8606.847,-17.06768,2922.2717,4756.863,3620.0098,13744.3369140625
16,1751.9364,-645.6954,3814.6995,399.33093,-1316.4419,-527.1829,4632.55810546875
17,-1017.32806,2545.2878,-246.7985,546.92365,673.1603,-1268.6149,4198.310546875
18,509.20694,2634.856,1731.5621,-429.68008,-186.25977,1606.334,3437.021484375
19,-3095.4727,-3798.946,-1100.0896,2172.2727,610.3191,-8490.835,15408.982421875
20,-11326.826,1690.3593,-9356.21,4645.1855,-5052.669,4020.778,18371.177734375
21,2894.8792,68.01154,950.06177,-1427.0431,-384.71313,2371.8247,5450.30078125
22,-5922.0825,-5658.462,-2162.5698,9788.953,760.22784,-490.45218,17410.875
23,1786.3555,294.1481,7705.007,2647.3176,-1007.1861,1208.7052,8633.65625
24,1218.7227,-1485.7903,-13839.463,3064.736,161.61824,182.75108,14889.4150390625
25,4512.2446,-514.6783,13936.584,1776.4816,-789.0234,-3276.5415,14318.0322265625
26,7263.3574,-2404.6223,-19749.771,6970.708,72.81746,3561.7368,27310.48828125
27,-147.71971,4915.5605,17910.67,7901.5767,-1483.8182,-220.38335,21315.794921875
28,-6866.9,2012.4963,-551.6987,-3190.3625,387.39908,-700.92596,9752.4169921875
29,3520.6946,-2095.1062,-4745.453,619.30566,481.76456,932.3807,7609.22412109375
30,-229.28886,-2471.773,-4754.591,-451.90192,-303.39713,4056.8018,8100.67236328125
31,-457.7807,1278.7782,495.39923,-139.4348,-101.46689,-1427.5592,2910.65698242188
32,928.1606,-1933.7559,1074.2626,685.38116,-1040.1392,-97.13985,3648.734375
33,-1469.7097,-1971.124,528.2788,-740.19244,269.61212,-638.2725,2886.01733398438
34,3159.9243,-550.93835,2982.7024,-403.79715,589.8626,-1447.3552,4578.39990234375
35,110.113235,1742.635,-2369.1802,-1149.7799,325.14365,-863.7325,4402.35888671875
36,1849.7573,1941.5088,4550.5684,-621.8843,137.92642,1990.0775,4489.26611328125
37,1880.5686,3930.219,2968.22,361.7698,-173.1379,204.13618,1939.67114257813
38,2958.5732,177.3143,-804.7047,-305.31808,-1154.6027,-1175.3878,4455.85009765625
39,1810.4294,1533.2543,-294.6081,537.20184,-628.28125,-20.022196,2444.52783203125
40,1972.8049,-2836.129,311.6591,-298.42575,2977.413,-1591.216,7235.67236328125
41,-513.1352,-32.03719,-455.7919,-853.51917,-2304.0864,715.79175,4456.02490234375
42,4964.394,-8358.945,6097.923,3636.6023,-1492.4534,2016.4021,15888.775390625
43,7367.992,-21720.27,-6213.3345,7474.484,14201.211,-6152.2505,39008.96875
44,6338.8867,5692.904,-2144.889,-6486.2456,20241.398,-7412.752,39838.609375
45,-2261.2556,4919.93,-13947.973,-3427.1667,-6639.043,-16657.799,35664.9296875
46,-3206.4702,17578.266,9251.498,6810.2466,-2486.9531,-3061.5205,22673.388671875
47,9438.531,5477.1177,-13315.9795,837.576,2976.8745,-3667.4658,22635.400390625
48,-18039.684,-5928.066,-11211.856,-2488.489,-4257.133,-6933.048,18104.232421875
49,-12089.074,-4070.7341,-29286.658,3155.0176,-5202.8374,292.7384,24683.494140625
50,1439.5406,22835.016,-4958.34,10273.099,-4083.1626,-1149.6162,31720.27734375
51,354.20193,379.34393,3876.708,470.83792,4022.4072,742.9883,7948.6201171875
52,-8675.921,8243.567,-7363.3906,2762.2988,-1534.9667,-4038.9905,18565.669921875
53,2757.534,1756.0862,-6769.4478,3209.129,-7485.093,2412.7449,17281.923828125
54,4736.5176,1006.03143,9693.046,-1100.7745,2926.4907,-30.849716,9290.046875
55,4694.0024,6337.556,1358.3822,-171.31479,868.9667,582.2189,4762.37255859375
56,1807.7981,549.5468,-12912.905,4171.058,-2287.242,1097.655,16470.037109375
57,355.1286,2567.083,-389.21265,3239.084,26.514517,153.17413,6216.16650390625
58,3028.5742,3340.754,3808.0813,1530.7048,-666.8263,-383.53543,3044.04052734375
59,3165.9448,2813.2576,-878.04645,2067.9146,-763.94025,294.77054,5467.38330078125
60,1454.6283,2548.0972,5662.064,178.5663,-1025.33,800.1491,4412.2294921875
61,865.0573,-979.5029,-6617.4136,-70.03839,-88.29417,-376.6372,6786.130859375
62,-568.9786,398.35025,-3133.5647,1593.2222,-659.46576,-540.1697,4448.45263671875
63,4064.7654,2334.7515,2562.3093,186.48553,594.6223,-338.87994,2039.76196289063
64,2588.1704,144.8848,-3019.596,1005.78125,-51.61445,-1111.9583,5519.732421875
65,2114.5168,3745.136,656.5644,329.4498,-1030.0676,1014.9525,3709.58544921875
66,1541.5995,-1290.1771,-5204.193,-277.46106,-224.67355,-980.1478,6138.9375
67,251.47458,926.6991,-3538.4907,291.86835,-663.31445,-817.38544,4578.0693359375
68,-1247.6215,3658.9756,1625.9166,1733.216,-1555.0409,863.74786,6061.13671875
69,-857.843,-424.61478,-7176.85,5983.7397,3027.9238,-5051.3735,15947.55859375
70,2327.7698,322.29785,3007.1301,813.3255,-443.18716,735.14746,3168.74609375
71,4388.118,-8196.461,-16520.254,6048.7866,2618.205,-8693.1875,26257.41015625
72,283.20532,3399.9543,11148.492,5756.499,904.75085,961.90924,14090.69140625
73,5204.963,-8851.135,20818.398,692.5769,-4050.069,-4899.0605,27990.494140625
74,1413.279,448.65952,310.11694,-1311.4902,-11953.211,8502.664,25529.7265625
75,2527.81,17960.234,23581.229,-2003.7164,4376.962,-11631.055,28842.0390625
76,5203.4844,-7191.976,-24827.502,1350.1118,9287.421,4772.397,31871.9921875
77,-2178.4421,11818.397,23463.738,-6090.6025,-948.6869,-23.543142,24668.025390625
78,-108.9928,5411.21,2768.8037,-3496.7053,1799.8873,519.63275,8371.2607421875
79,2587.5986,7090.886,4606.8955,-594.509,-3357.4736,1422.4321,7497.455078125
80,-538.1216,63.680378,-3489.7302,458.13867,-2433.3962,-4981.179,10182.376953125
81,3503.156,2534.8015,12355.122,-1259.4318,-447.9035,-2701.1765,10729.2255859375
82,-1594.3214,2294.9158,-9014.234,483.5864,-255.14532,-2724.384,11054.53515625
83,3836.949,1762.5903,5070.9077,-824.2757,559.41974,-581.66174,3518.15649414063
84,-525.4122,4084.976,3411.2751,72.35524,2515.2026,-790.6481,6282.78125
85,1641.5779,2146.0662,2827.4238,-1018.615,-668.89655,-2184.2874,4453.18115234375
86,-7219.1924,-2246.533,-19395.547,-1049.58,1116.7742,577.0136,15543.005859375
87,-338.61945,2322.3562,1291.923,14.361316,60.951202,-1363.4639,3315.04028320313
88,-16.554361,1368.2542,-636.8176,432.91562,995.005,1766.0022,4006.24633789063
89,3300.626,3778.8203,1130.224,2618.1433,31.537138,158.93538,5159.455078125
90,-146.31895,2946.1255,-2345.928,1011.5099,331.70944,576.44806,5059.65283203125
91,-454.80597,1152.3956,3331.1655,-532.54193,-1558.181,-698.6553,4520.044921875
92,411.52182,-494.4935,-445.39478,-886.426,-2625.594,-358.59805,4919.65966796875
93,2244.4268,3039.5918,-936.5097,-1567.5322,398.0349,-18.820864,4596.50341796875
94,-1498.1962,1175.4258,-1891.9967,1272.0399,-91.18799,-831.3841,3912.67260742188
95,8128.8755,1618.9113,10969.307,-46.392773,-1303.8405,-1947.4073,9242.42578125
96,-483.62814,325.48242,-596.22534,-1668.5817,-1097.5713,-194.87444,3583.13452148438
97,-1501.9332,-13430.294,-14364.474,-5607.3223,2566.3281,7418.566,20820.455078125
98,-9306.338,-1943.2275,-34616.047,1797.1417,4065.7852,-706.956,30690.962890625
99,4780.1836,-198.08612,7925.3057,-1326.6714,-3038.5237,-2265.3413,9935.068359375
100,195.24493,-335.50528,5247.5254,-3166.254,865.7151,2326.899,8778.154296875
101,7359.3066,2433.923,5545.1553,-1767.6735,-221.13936,-3741.6738,8374.73828125
102,5049.2505,-2312.3596,-4120.8096,485.08105,-1757.7366,2890.514,10286.736328125
103,1783.0621,415.61108,4414.6875,-54.67058,1280.7886,-2353.3655,5825.736328125
104,-1441.691,1349.7759,-2529.891,-63.351326,1634.9829,-1001.2269,4801.35986328125
105,-202.01106,1539.2158,2746.911,838.8736,-1359.5126,1978.9757,5098.84814453125
106,-6958.3433,2910.0903,-3567.7844,1129.5374,1031.8861,718.52045,9164.775390625
107,334.9042,-1336.0765,-2128.668,4.8340774,199.62453,620.61005,2453.54296875
108,2.5635924,-990.9849,-10810.273,3756.9946,-1645.7992,1396.3896,12786.015625
109,674.5435,2029.1859,-1390.6069,446.6081,207.15814,-913.62317,3482.62622070313
110,1265.9121,3256.8545,-1919.8641,1312.7583,1314.2766,439.6603,5602.46337890625
111,2069.8286,3627.0479,-559.38605,1445.5195,587.69714,-436.45123,4616.078125
112,2449.068,3166.3215,2316.6736,-475.47604,-476.14542,1079.7904,2341.61450195313
113,3065.2207,2340.7773,2283.6199,-837.1149,-131.35374,945.5984,2325.08227539063
114,640.3767,3542.3135,-2.961016,3899.8,-3420.3523,4126.6157,11937.783203125
115,3473.35,2312.8035,-2179.3567,4943.941,2621.5881,5964.673,15080.369140625
116,-1814.2777,6878.4536,4716.3003,-2951.3835,-6355.9478,124.429726,14450.4716796875
117,6759.968,4705.251,16820.469,2176.9426,1285.042,5175.3413,15021.009765625
118,5358.545,-6267.511,-5404.0986,-63.783176,-6598.59,-1996.1141,16384.8203125
119,831.12476,-3361.2302,21833.666,924.5052,-7336.84,10134.702,31920.54296875
120,2009.6769,2796.724,7812.398,-676.2381,341.4118,-176.04878,5615.919921875
121,449.25513,-2727.3796,-2108.8123,674.84015,123.267654,23.585447,3149.94482421875
122,4295.432,-2908.9348,-1779.9508,31.662155,3009.304,-436.41986,8531.47265625
123,269.25424,-199.88501,-4921.8403,-1391.5083,614.1479,-1871.9606,6495.0244140625
124,-1619.4215,509.32022,1667.0526,-397.19666,644.8209,-2692.1228,5639.1181640625
125,-1931.1124,11161.852,-24048.834,-2364.601,-8381.361,2287.4534,34545.89453125
126,4404.581,-14828.06,669.09644,-742.9862,-715.4463,864.9273,17816.875
127,-2250.4724,3262.0024,-11475.418,5479.029,-5051.039,1892.8815,18538.78515625
128,-537.24384,5326.1216,-11395.476,3394.1235,-2170.1536,3820.935,17562.27734375
129,3587.9229,4608.7363,19610.477,701.8659,3409.44,-1612.6078,16898.53515625
130,-5373.0156,860.44977,-29283.225,-966.4609,3419.575,-1443.8824,28350.212890625
131,-669.1904,1477.034,-250.26105,2144.7395,1041.5472,1595.1609,5345.134765625
132,-3172.2751,2527.085,-15188.483,-543.51636,1117.0833,1285.156,15966.8837890625
133,1642.2616,3132.7527,-620.76843,448.60684,2667.9482,2109.3154,6783.88671875
134,266.62048,2264.026,532.39014,-300.6891,862.5746,-56.627308,2458.125
135,7015.4546,4119.2886,26265.115,-3849.325,-4570.971,3827.5723,24202.71875
136,-3925.0847,7300.821,343.7152,2469.5383,1389.049,-518.62915,11009.7060546875
137,-596.09125,633.7389,2407.0205,-4393.4043,-3068.0806,-5324.68,13343.1572265625
138,-6645.6343,7815.626,222.28323,-3762.8096,-3661.3125,8413.759,21261.314453125
139,4939.6816,-2588.2183,4849.1167,-347.1966,-1965.2322,-6574.385,14057.4306640625
140,9637.362,1852.8582,2406.5166,2248.5435,2262.9348,-6424.03,14523.4306640625
141,-2998.4773,1193.2859,-5404.5015,1733.6298,703.75775,1626.5691,7203.10595703125
142,3218.6536,2307.9329,1130.6875,735.3001,-402.3396,1396.4435,3353.39428710938
143,2118.891,-224.54037,-1401.9279,-244.87607,-235.55034,182.97987,3175.50463867188
144,2181.0244,3938.7002,6178.2827,315.0852,867.6527,752.9785,4037.1826171875
145,411.77792,-90.66119,-1954.4156,-530.55145,415.6838,-314.64752,2514.4169921875
146,-179.30322,1034.2719,-3315.4329,549.1688,794.07227,-1317.5735,4808.1611328125
147,2319.5103,1736.3743,-108.18376,2082.8694,-2234.1394,2139.5103,6822.0048828125
148,3838.2646,4393.1465,392.91965,1370.8169,-606.0534,-1508.398,5258.81787109375
149,1453.1294,3524.3574,122.72375,1453.1237,-44.594116,621.30396,4039.09204101563
150,3139.7603,22190.719,24904.475,1131.5009,-2147.4827,2458.55,21396.552734375
151,-10445.99,-5114.944,5967.5557,-3720.4956,-4614.1533,3261.4937,18644.91015625
152,681.1472,2854.592,-11735.927,2170.1406,-7346.3833,1401.4418,19178.7421875
153,7918.0703,5521.871,10216.586,-1317.0583,8382.809,-2387.971,15800.5771484375
154,6852.2856,8563.515,29126.504,-94.760185,1392.9667,-4365.5513,22890.5
155,2225.3044,-2321.8208,78.5904,1154.3829,-270.01135,666.299,4590.3955078125
156,2245.8784,-1193.2213,3348.7368,-431.61966,815.71875,-669.9353,4553.90625
157,342.27563,-1768.3293,-5021.981,-1960.9587,-3374.343,-1635.6978,8696.5078125
158,44.50656,1239.4155,3614.331,-258.03748,905.30426,-1127.3494,4046.85888671875
159,857.1168,-1212.3652,-3645.2876,-871.0185,-2630.9917,2140.1033,7212.43701171875
160,4269.0947,2344.7905,9043.217,-736.60583,949.19745,1124.3099,6618.53173828125
161,5976.164,4082.1184,27441.477,75.35136,-1706.0934,968.699,22728.126953125
162,-2211.9766,-1027.6835,-434.6916,1639.9493,-1692.6692,113.17127,4377.05126953125
163,-3313.865,3859.836,721.8653,-465.25977,1406.3612,1834.531,7448.318359375
164,-6167.9346,5920.6357,-6696.315,-1280.3123,2273.7515,2961.9922,14126.1357421875
165,-10967.938,-7745.6714,-32574.531,2826.126,5967.599,4982.6973,27424.98046875
166,9876.574,-930.67316,27501.49,-2422.3735,4810.816,10055.485,31753.501953125
167,14168.426,2165.8242,-5480.285,216.58186,-6949.127,-2769.5117,21501.65234375
168,-1515.9675,2627.5134,-1175.0923,-3670.304,-3216.2856,2402.39,10229.052734375
169,2507.4226,1622.7067,2932.4114,-5226.307,-2280.6191,2437.3254,10803.1259765625
170,1440.6322,2676.863,-7785.8584,-2253.1357,-78.30113,-1909.3651,11146.6474609375
171,12172.137,11985.257,35885.527,4660.1904,121.8832,11086.2705,31633.908203125
172,21354.45,6642.6377,-4796.903,8763.349,2675.382,-4213.945,28648.3984375
173,1949.1792,330.2864,-2784.0718,1450.3099,586.0765,-1281.5143,5443.2841796875
174,-1176.8556,5402.389,3040.8213,-697.1471,454.4748,-848.1735,6128.78564453125
175,1411.4147,4232.5884,4659.8096,525.3818,-19.50946,889.68567,3542.68896484375
176,13051.578,21872.729,-4462.396,689.4294,1886.5146,-1378.819,23597.703125
177,9574.184,-2244.4832,23735.611,-3256.9585,8986.153,482.88263,27970.912109375
178,6709.8936,730.1644,12461.887,1579.0134,-1103.4054,-272.22394,10704.7939453125
179,-1551.0363,1956.642,-8516.879,1179.3622,218.77625,1099.3623,9654.158203125
180,-3130.2014,4683.57,-8366.926,1980.0417,-6461.5913,2754.1538,17005.033203125
181,1651.8403,-380.43692,4138.7666,1496.9513,2034.9313,-1370.0935,6336.0849609375
182,1433.3428,-51.942886,-5216.474,-353.0042,1218.0029,-1126.6547,6721.73681640625
183,2325.9631,2727.29,1194.4346,-978.4252,-717.98004,919.8709,2975.30737304688
184,14747.706,-3662.5247,-6725.1484,98.7622,-457.70514,3466.8574,21009.876953125
185,-2951.6301,-6374.5376,-1747.4481,-5171.6094,265.99408,-1422.3572,10188.5390625
186,64.64861,1056.7576,-1267.504,3092.3684,252.43257,-546.0099,5818.44677734375
187,810.3781,-713.93787,-1163.401,800.81165,-540.17413,-712.56946,2744.66918945313
188,-10606.253,-13518.742,-32.60788,-638.2078,-493.3746,-1475.4463,12631.8330078125
189,3611.8901,-4547.8184,-13658.613,2803.5002,-899.74304,2381.9705,16338.8388671875
190,-14722.676,-21942.305,-15739.933,-6574.387,2582.8767,2142.6038,14466.076171875
191,4141.7134,-4358.968,-5344.848,-829.784,1728.552,239.06898,9634.0517578125
192,6741.116,-10587.501,-4327.3413,-799.50275,-1092.6826,-5587.298,18169.861328125
193,4107.3423,-7318.331,-11213.15,1724.783,853.52655,2355.5664,14763.90234375
194,1857.154,-821.2794,2398.3306,2302.5999,272.95517,-920.71533,5252.51806640625
195,-914.9634,-1418.0344,-4706.4917,495.11224,-3098.475,2426.468,7740.90771484375
196,5293.6274,-3565.0347,-2321.2083,-1228.4575,2894.211,-347.59286,9951.056640625
197,1817.1931,-1184.5713,596.618,-430.2913,-440.32367,83.99956,2827.50561523438
198,3132.1948,590.3684,8817.735,-290.15607,466.54285,-494.0919,7407.82373046875
199,1870.4379,-3548.5713,-4045.5466,-363.67804,-141.33215,905.4464,5934.81005859375
200,2010.9835,-2032.7736,-182.51248,299.22595,-308.48395,-396.1793,3649.4384765625
201,-119.28023,-3907.2473,163.11761,750.13043,-80.779526,1108.4156,4570.72998046875
202,2842.2244,-956.90234,1825.3195,-2134.8118,-201.24333,-494.06467,5111.767578125
203,-1549.7914,-3166.4912,-1818.0942,-728.9755,-224.7835,602.21216,2255.1533203125
204,4178.69,-4405.6113,-2362.0918,-989.9279,251.17772,1309.7465,8282.4794921875
205,1373.8667,-2285.7134,909.9809,-2611.4375,-107.49318,-346.0645,5723.884765625
206,547.7374,-5821.426,-2526.9094,-1114.5546,577.0644,-720.2986,6059.6171875
207,3976.3,-1222.7556,2436.2834,-1647.4535,849.42615,-54.402683,5631.24853515625
208,3708.0945,-6336.6235,-3432.9985,-2140.9963,-497.20767,604.74194,9785.279296875
209,8628.882,-8038.695,3467.3804,-2324.8066,-1024.6548,-297.75302,15428.8486328125
210,5875.6514,-4652.075,4949.656,134.13783,-854.06,1269.4729,10441.2060546875
211,-1374.9247,-9970.712,-4902.305,2224.8203,-1567.8806,666.57623,8920.0087890625
212,-8950.28,-12860.109,1140.7437,-3619.7446,812.6269,-1451.1001,14289.0009765625
213,6269.9873,9306.079,-3887.726,797.36285,-626.94666,180.0919,12100.4384765625
214,13567.107,4241.58,671.1362,1343.4296,2452.643,2654.7986,13327.20703125
215,3064.4648,1098.1802,3788.0967,1372.9076,60.985332,1381.6106,4147.90478515625
216,-2334.421,2972.1409,1187.9733,-302.23264,-1982.6829,43.302555,5826.474609375
217,-2042.8136,2760.4167,-556.2768,-1052.1261,1012.3128,-189.79703,4964.26708984375
218,-315.8558,-4732.486,-2443.6738,-1521.5122,1435.4065,3905.123,8573.947265625
219,-3738.9287,2310.738,-13911.09,-959.5092,-166.76953,-862.83514,14376.66015625
220,-508.24942,2448.5955,-781.6288,954.57886,323.40988,105.67797,3564.68188476563
221,613.4363,447.38278,7210.3403,-1064.536,-36.4672,-198.46169,6940.02978515625
222,-589.84735,2019.1938,-541.79065,-437.06317,-925.70184,-481.9032,3244.15771484375
223,-2302.6318,2610.2253,-6659.801,-270.829,-1639.0205,-1198.7913,8781.6708984375
224,-3480.091,3080.5452,-15291.262,-1227.4214,-1533.5232,-2591.0503,17080.6875
225,380.7851,1550.9957,2167.5972,-223.99478,-478.7462,843.81793,2333.52612304688
226,9702.07,2844.613,22592.63,3510.824,-2455.9824,1773.1785,19133.568359375
227,-1711.9823,350.65854,4337.4595,-1745.858,151.27625,-2398.0679,7405.22216796875
228,-502.12927,1959.5706,75.67425,1448.3541,-642.58606,-584.55634,3678.11108398438
229,-925.91095,1407.0535,-3020.1868,800.542,-1600.6565,506.59436,5009.33203125
230,-966.11884,1508.798,-1515.282,1600.2173,497.45734,616.5703,4165.43896484375
231,-370.4859,-545.2118,-4373.961,228.70808,-597.83105,43.067863,4073.5146484375
232,293.38922,3913.997,2386.6753,1390.7855,-66.34905,-398.9028,4025.55688476563
233,1052.5461,1334.6338,923.76105,209.34415,-335.68677,945.6597,1812.41174316406
234,1509.7952,2282.9534,3395.3455,778.53125,-149.35864,-265.53036,2189.068359375
235,2027.381,3100.6196,3632.842,529.7402,135.61533,929.3044,2343.96484375
236,2339.7568,898.36176,-5870.655,2096.9658,-100.38946,-84.076675,8420.0517578125
237,2743.7212,3047.069,2367.349,-151.3189,-780.0707,-622.3289,1844.97985839844
238,1651.5223,3729.8203,250.66003,-943.6777,-157.82806,310.1323,3496.8564453125
239,3506.131,1823.5458,2570.562,-40.301464,454.8414,25.639975,1661.23303222656
240,1836.1168,958.3621,326.181,-121.640045,213.86342,-243.08006,1443.56213378906
241,3190.7417,2722.3892,648.6601,-1606.018,-140.54655,321.75433,3687.63623046875
242,-1475.3058,8133.5283,6774.013,1447.0544,3606.1633,1327.9999,11476.083984375
243,955.69714,1765.166,1917.1176,42.912186,172.90353,407.19345,1180.66076660156
244,493.4337,1837.6747,-2327.77,-124.26108,785.1199,-1035.8701,4321.2490234375
245,2476.467,5280.544,-2809.157,2461.9968,-116.98927,-2640.043,9474.005859375
246,4132.6714,1009.3195,-4069.8264,1112.7146,530.6276,3519.3684,9650.59375
247,4236.9487,-4890.1704,-5744.622,-638.0243,-1260.1382,5437.0127,13656.5546875
248,3395.5952,-3480.5642,-12821.796,-1345.7391,-1004.7344,-1426.0177,14605.9599609375
249,459.77533,-8967.096,-17936.459,414.18906,-2901.306,-2690.8652,17359.66796875
250,1455.874,-1561.3403,29715.656,634.8205,2514.3508,3567.1057,30843.67578125
251,2153.5627,2653.7644,-7029.265,-144.16125,611.11566,3814.6067,11576.0185546875
252,13617.815,-1427.2612,2504.8726,-6981.5547,-12456.693,12106.934,35130.10546875
253,272.43887,-8022.4365,-11094.227,687.98303,-1567.6769,-971.8119,10739.9736328125
254,-7968.3716,-12274.215,-4414.0444,2011.2156,13049.091,5751.0713,25858.724609375
255,-3710.5706,-4221.4233,7325.0625,-4507.32,-2491.2795,4744.0864,16576.1875
256,510.25128,4046.4814,-7753.453,-2739.86,-2251.2375,-4403.0903,14349.30078125
257,359.22482,7755.107,6386.9,-4795.3257,4431.6934,-623.60443,13248.5390625
258,-1696.5885,7261.8296,5193.6274,-3076.9001,-4335.56,-6193.969,16306.1904296875
259,-16258.57,-4015.1418,-26032.057,5281.273,-2305.6216,-2757.2556,22079.72265625
260,-5846.0366,-1336.509,4095.4688,-3860.5715,160.5318,-1254.4456,11128.70703125
261,1135.2063,11146.524,18670.555,-3224.9905,3253.2722,-984.4764,17263.359375
262,-3148.284,11846.959,-22977.8,4834.4673,2714.7742,-3148.275,32208.330078125
263,-2227.158,12786.61,3690.5386,4338.2964,-542.59076,2138.112,15577.087890625
264,-3794.2559,3729.9985,8802.253,-220.58237,-509.55902,-1843.412,11472.8603515625
265,2843.018,-498.0569,19959.531,1382.1956,1051.1887,4572.053,20810.640625
266,-3678.7026,3006.2617,-3150.7556,3079.2988,725.8798,-667.0847,8532.298828125
267,-1742.8041,122.13712,5393.197,2818.492,1797.3663,2839.3916,9939.919921875
268,1416.0344,-380.82465,7254.5073,-616.4558,2394.9978,-6877.0894,14423.5419921875
269,1749.12,-368.83136,-6132.3477,1609.836,-2110.556,-2117.389,9192.3203125
270,911.19543,6469.948,10481.503,5335.647,740.35815,-583.43964,12544.501953125
271,-2258.377,-958.5107,-407.025,1746.6156,951.7775,-1249.832,4389.36474609375
272,-1480.9314,4308.2163,-3805.1257,1844.1912,2123.607,170.94626,8728.7529296875
273,386.2814,-144.70912,-420.644,1547.2706,-363.24228,-1170.5115,3491.82983398438
274,2727.0007,-13320.02,-22497.191,716.5826,-1572.1456,2734.0688,22811.716796875
275,-131.83176,-1920.8998,2320.3591,-809.3848,-277.09772,-840.93774,4233.0048828125
276,-3397.4065,3083.0947,-8070.399,4128.8916,-584.10223,-1852.6534,12513.2255859375
277,-1872.3079,546.5285,-4287.161,1731.0045,-3334.5234,-85.36065,7738.962890625
278,1628.3113,3025.7712,1725.904,1262.8806,-435.90244,-873.2098,3077.037109375
279,247.35191,1090.009,2477.3735,1388.6558,367.7744,-183.22939,3177.34350585938
280,35.37633,530.03754,-3755.6333,646.1619,500.4503,-294.60873,4330.822265625
281,4619.2373,3321.0542,6886.959,1973.7305,913.3918,-3549.3704,7858.46923828125
282,-1425.5504,2445.9504,-794.05707,6.0690184,304.29926,28.557077,3636.3203125
283,-872.5648,879.4458,-987.8073,598.5464,-85.679436,200.54172,2121.8330078125
284,2914.6155,4741.348,14893.372,-178.7446,-10.605206,-1221.3094,11380.5341796875
285,-16133.272,-12151.514,-18498.537,-2966.157,775.0645,2019.3992,8443.763671875
286,-2649.7915,-3318.1406,-3950.6353,218.9221,542.90283,-2416.0864,4450.83154296875
287,-2172.6345,-1371.573,-4857.755,703.01855,-1679.3605,1313.2008,5011.9326171875
288,668.8033,-2816.5505,-1206.1469,511.3852,354.34143,160.65427,3219.76904296875
289,3031.1646,-137.97867,1439.2993,-606.5206,716.9286,487.6601,3300.25048828125
290,1508.7203,-3497.1978,-3095.6228,983.5971,-1405.4658,94.03351,5662.609375
291,1339.5508,-1017.8021,2900.798,199.81902,-298.10284,-601.9163,3626.05932617188
292,1268.631,895.39716,-1299.7059,-183.23901,-169.6299,-72.81469,2445.4091796875
293,757.2375,3959.7703,2940.6643,1416.0999,-1072.6217,422.17184,4246.56640625
294,-1643.41,5319.926,7174.0254,-1070.8893,-1635.361,-2094.1145,9458.1201171875
295,221.59451,644.9677,2617.9773,532.6702,-74.442924,1711.2645,3815.8154296875
296,-2006.7126,7445.4365,-4482.9204,-4787.165,-1660.1896,-1324.7693,14183.2568359375
297,-2392.6213,4099.565,-1912.0924,2036.6249,-816.0128,-124.18097,7331.2431640625
298,-134.85219,5278.371,-849.26697,596.51624,937.17847,-2484.8157,7477.03076171875
299,1025.0449,3051.8674,3171.0835,407.00284,422.9502,592.97253,2540.14086914063
300,-281.4887,1743.9192,682.37,727.8047,325.88403,-251.25713,2275.123046875
301,2665.5928,-681.28955,7689.013,6808.0435,-1130.0549,-3793.607,15469.4208984375
302,39.66754,5025.9897,2909.0686,3380.1619,-939.2189,-2809.214,8909.9404296875
303,1012.9954,3791.99,1577.5178,-565.6362,5371.0503,-429.44208,9722.6708984375
304,-2475.7124,7551.8037,-7826.4907,801.4739,351.82138,2699.2244,14387.2431640625
305,-2253.7803,-2982.7874,-78.811844,2202.4683,750.42596,426.03064,4861.484375
306,2144.9114,11828.846,8698.75,-3143.8833,5604.989,686.71173,14091.8017578125
307,4696.8936,-855.216,-3890.9905,2974.0256,-4312.5234,-3004.1074,12895.6904296875
308,-12976.057,-4596.558,-16500.12,-613.12164,2309.5884,-29.634657,11370.9228515625
309,-1173.2286,2619.2327,-2494.061,594.74347,-2011.2959,3867.548,8899.8564453125
310,2969.841,11439.865,10466.797,9560.579,1825.6969,2321.5178,19100.474609375
311,-3938.0515,-2943.887,3314.1,-3930.441,-1248.4165,-6985.5728,15613.7001953125
312,-328.81085,1178.0753,4210.959,2210.219,46.565586,614.31226,5642.0869140625
313,2196.9792,-1468.8538,5999.284,773.924,209.5364,280.15466,6633.13818359375
314,4055.6326,-1655.8202,4282.5693,-788.87305,1040.8173,-881.5867,6435.5869140625
315,1017.8497,-2273.7817,21395.91,5633.488,-5189.723,1112.9594,25940.345703125
316,1590.3479,-2597.7256,2697.2124,224.12477,-123.37716,352.96747,4896.00439453125
317,2494.7966,-854.12744,-1248.1559,-1329.9404,623.4278,-1046.4655,4737.89013671875
318,-366.34573,-2704.5476,816.6336,864.4045,793.3769,697.13605,3901.35815429688
319,-718.90375,-8643.701,1234.5259,5039.851,1170.6244,-2015.654,13213.583984375
320,2635.0945,-14798.969,-1095.2664,413.34467,-407.46292,2971.6855,16743.064453125
321,-1659.4071,-9448.515,-3764.9248,7851.816,311.91547,353.70868,15307.6298828125
322,-5547.8823,-21724.326,-3787.8037,2589.9348,-1336.0363,-354.46976,17863.431640625
323,3468.23,18605.898,14640.937,-2500.64,-680.7237,-1592.7379,14581.146484375
324,5424.022,-1922.978,4404.133,-2509.0864,2645.012,-277.78156,9361.18359375
325,-1947.8046,3316.6355,53.082035,-837.65393,-194.71738,1206.5691,5269.771484375
326,219.76535,-503.97592,-358.40283,1588.5547,166.7255,526.0218,2987.24682617188
327,2557.6172,877.30676,-3765.1133,774.7975,349.69968,-838.6602,6037.720703125
328,1382.031,1217.971,-1314.4923,261.38474,324.59076,-228.72183,2744.76708984375
329,2589.2222,2292.6707,5667.8257,661.62396,42.94564,464.57748,3527.74365234375
330,535.0106,584.5765,-5787.1045,199.88211,-516.4121,-226.71524,6431.1005859375
331,-3633.2512,951.0641,-6995.1167,-322.84634,57.861183,-1039.7518,7162.1171875
332,3651.0642,-1960.4062,-3661.442,136.87462,1296.2323,840.1635,7151.35791015625
333,1.4047261,-8357.884,-6543.2256,72.05127,185.64476,1650.2064,8141.86376953125
334,6157.139,3922.418,24859.922,-6323.6406,3870.4841,-6419.729,26174.978515625
335,-3326.356,5519.905,-9751.6,-4559.1216,12660.449,5196.721,28295.138671875
336,-15623.042,10147.837,-17691.277,-5696.23,600.7043,-2598.6907,28989.642578125
337,1520.5525,2760.5588,434.58286,2156.7607,1847.4575,440.30368,5370.22412109375
338,1410.0127,2824.394,3086.9243,2876.4006,-1531.7544,353.95038,5888.66796875
339,103.694756,1964.9812,1659.0624,-1283.7384,1256.4167,657.67096,3737.09326171875
340,-4506.0728,-635.7658,-11919.612,-2941.459,3537.0586,1159.8838,12890.2060546875
341,-837.0671,1385.4961,992.1122,2896.8796,-122.59163,101.465256,5428.80517578125
342,-44.593292,944.4882,-1065.8174,879.7876,-56.73123,808.2343,2706.0517578125
343,-293.24292,2015.7716,3853.0244,582.59656,58.091633,-803.2607,3989.15454101563
344,3117.6787,-5480.9575,-875.073,-2557.4521,-676.61005,887.806,8882.9091796875
345,1739.5269,-188.91525,-1051.6587,649.36237,85.92108,2.2680416,2722.89233398438
346,-7175.351,5536.9604,-6212.727,-699.3022,-1036.1212,-661.37213,12501.69140625
347,-993.8909,-499.5845,-1284.7583,-409.9611,911.5066,609.6571,2141.14501953125
348,-1149.5066,-1880.3595,-2822.0732,1037.867,-509.05884,401.9902,2569.61840820313
349,-1248.8905,-2555.574,-785.9126,1856.7037,532.5633,-343.68924,3751.53564453125
350,-7237.401,-3395.436,2171.314,-4716.4834,381.3195,565.32434,11630.4462890625
351,-2482.1409,3250.6758,11250.452,2199.3123,-2088.541,2006.3699,13505.4189453125
352,1158.3569,700.6984,526.28326,821.69366,255.40082,-108.47493,1605.06237792969
353,338.37723,1357.6442,-1122.2831,976.7746,368.08792,-204.20131,2838.14428710938
354,2385.2034,1406.5034,480.45374,1273.4124,-328.8651,490.70416,2938.24975585938
355,-685.47174,973.0273,6380.454,4544.4077,559.4017,-875.2748,10302.9677734375
356,-893.21484,4131.3984,-2318.2327,1223.2175,-1046.6362,-469.50424,6547.82421875
357,-1017.8353,3443.1223,5262.8223,182.58417,585.2349,1271.7198,6108.05859375
358,-1917.0396,-809.8427,-7449.222,3046.6462,753.12317,-1319.2615,8527.91015625
359,-417.46466,602.3629,461.2215,1751.4541,-388.6037,167.86174,3264.41015625
360,-1217.0596,-403.50455,200.69626,697.434,-67.42227,115.039345,1740.99487304688
361,1205.0475,1469.1827,511.31644,-763.19366,35.109688,-74.22739,1581.736328125
362,837.5115,-1371.3776,444.57587,-874.8783,-560.1995,-413.8992,2813.7666015625
363,-465.1259,-1427.2573,-127.34087,-549.8813,138.91386,11.281596,1526.48962402344
364,-3641.8562,743.183,1027.3075,-2124.9954,657.48114,-562.1825,6028.84765625
365,-1672.0156,2097.4382,-940.514,-410.21304,-6.2790008,-122.24756,3540.66235351563
366,-1003.70856,-385.33466,-1393.9253,-273.6707,53.358746,-93.84589,1017.64666748047
367,-615.2598,-616.9381,-563.01044,-997.55396,207.25357,147.32677,1783.85534667969
368,687.72034,-2227.3232,-377.03665,-551.6329,-94.076485,197.08725,2753.78833007813
369,439.3598,-1712.9751,-472.45316,605.6046,-258.71075,42.2394,2192.67846679688
370,385.7097,-2856.729,-2078.6216,-577.8331,147.64519,272.20236,3144.08129882813
371,1081.4769,-1291.7484,1599.7756,-25.004507,171.80502,-182.71217,2705.81787109375
372,-265.2721,-311.48132,493.46115,372.2597,24.57105,-203.98203,1074.82141113281
373,-1216.5454,-653.3642,-121.99622,-96.39363,-129.69524,77.359436,997.533264160156
374,-599.63666,-302.188,262.1133,630.2145,59.980698,26.188896,1333.83801269531
375,-773.07416,-865.04584,351.31784,-329.78308,-41.333427,-41.297855,1308.67907714844
376,-842.63544,-178.90126,-306.6054,-1422.3159,-462.60156,525.84265,2812.92895507813
377,-624.43396,1021.1296,-1382.469,1425.4004,329.861,55.43039,3310.71484375
378,-526.6548,-558.15533,62.55382,461.2081,23.590796,18.563679,1003.77368164063
379,1683.7021,1030.2496,54.44339,388.06125,-144.92506,177.50278,1620.53918457031
380,-820.50323,-2419.871,117.1844,-1262.4558,611.3538,-373.4241,3355.28295898438
381,1018.62494,-462.55807,-1654.5236,1059.9249,-12.296799,-31.057417,2958.69458007813
382,1273.521,-1180.9512,-287.5958,580.4784,-201.32741,81.04898,2404.5732421875
383,837.4061,-1007.48114,-107.95346,675.43677,150.73888,1.6293412,1997.51123046875
384,1370.8527,-495.7275,555.8546,429.3778,-76.53593,-77.955246,1793.31652832031
385,-376.20532,131.07329,295.43896,1033.3607,-55.686916,49.69359,1894.18627929688
386,-764.76874,-148.08333,108.6215,464.5804,6.7705164,41.03861,1121.2490234375
387,-724.00275,-42.01528,-207.83437,1223.758,72.22735,-96.53275,2217.17700195313
388,-1314.2491,1137.4475,743.3571,-1098.8542,-58.517742,54.191208,2973.458984375
389,-2716.0044,1176.7961,102.82696,-2110.4868,-144.92522,123.91579,5059.4560546875
390,-1576.1422,-2843.1575,-299.32675,-1663.3097,-82.65081,-182.5054,3643.28784179688
391,-372.2923,-310.67242,948.1114,-1460.7367,21.17374,-300.82742,2887.904296875
392,-715.374,-1803.9569,179.17944,-786.4346,11.085526,-181.89459,2216.7763671875
393,615.8367,-2631.9077,-1093.4961,-759.2433,194.10265,71.59392,3126.650390625
394,253.62126,-1322.8263,849.84766,-250.12129,140.55833,-47.325382,2008.54760742188
395,1700.7727,-1784.8221,-303.6542,42.204544,64.86814,24.109577,3033.18139648438
396,-1041.2015,1392.5415,35.10534,-257.62454,-108.83319,151.32239,2182.98608398438
397,-1668.141,-293.5567,4.8597655,272.81744,223.47821,48.758865,1664.02551269531
398,-817.79614,199.23297,141.18835,1096.8541,90.21806,-15.667932,2147.81420898438
399,2013.2213,-1118.6477,912.21277,-753.2984,-435.9406,103.30915,3142.79125976563
400,1923.6938,-1933.0411,1393.0422,-86.75252,-136.5606,99.22532,3635.58422851563
401,1364.28,-554.4345,810.4433,-6.375095,213.88492,-152.22229,1769.865234375
402,-2479.2874,3381.2812,103.60013,339.14902,303.68088,157.70216,5155.26220703125
403,-995.41266,1540.5496,-1448.9089,627.9472,240.32765,102.90807,3028.99438476563
404,-288.43478,2609.125,1820.7291,1476.0636,19.028921,-185.8732,3657.05078125
405,1318.5955,-282.9317,956.6445,-152.83366,74.27011,-7.370998,1484.25366210938
406,631.8845,-726.9896,-101.07638,113.446686,119.99685,159.77667,1243.44799804688
407,570.33826,-447.30048,474.0576,-47.89747,-0.3722102,-29.261541,977.921875
408,504.00638,-1515.3068,899.4249,-2396.4597,-223.23642,-4.006907,4734.03271484375
409,-270.67535,-1075.5985,-717.4262,-635.9387,-0.0017469373,236.0889,1366.87805175781
410,-2404.7637,-700.6676,-827.8293,-988.24445,131.74036,299.6528,2440.23388671875
411,213.97685,-293.4589,-179.18947,-480.6588,42.944897,-8.36721,954.675659179688
412,-94.77915,-770.3984,-59.220337,571.52924,90.217896,-24.393862,1219.791015625
413,1297.7312,-760.91345,-3.1480312,-2177.3743,581.3718,33.065964,4300.27783203125
414,998.69037,-1136.646,172.71033,-87.87782,-26.426538,-121.21597,1883.4814453125
415,-1389.1154,316.88095,-742.508,-2482.4326,-582.66626,933.24677,4933.98193359375
416,629.8124,-532.9755,1764.6708,655.2511,58.10075,-79.53941,2297.1171875
417,19.610916,-1498.7423,-346.47998,980.62634,-129.79114,131.32544,2206.9716796875
418,594.34094,-597.69086,-303.4876,641.4942,26.427347,-110.48864,1558.86450195313
419,96.73088,-639.3488,-96.14215,1207.4359,-155.54424,12.660977,2209.9345703125
420,-2308.1707,-1574.8591,498.4548,610.02246,-130.06293,144.47801,2754.36279296875
421,-1756.3723,-1890.8292,-458.3644,505.50388,302.97272,-219.9165,1750.57104492188
422,-29.714968,263.15582,-362.12915,-912.1077,466.87158,49.56225,1857.61267089844
423,-1454.919,-2988.3975,-2052.4226,-1668.9585,-364.4061,178.32265,3262.26123046875
424,-829.72046,184.24194,121.85906,-569.3398,39.498875,-44.52226,1397.07836914063
425,271.17047,593.2469,1488.5875,1753.7179,-155.16661,-57.324814,3240.74145507813
426,-1412.8337,1451.278,-548.147,-710.897,-75.192154,-177.76045,2846.42602539063
427,-733.1794,511.7968,86.413994,159.6902,86.44547,-46.08056,1143.0732421875
428,-1797.5786,61.83146,148.38852,105.03922,-42.298527,-40.235615,1915.5068359375
429,-384.55865,-538.76685,-688.1877,-448.58176,-0.19862685,103.79847,839.730895996094
430,-323.29602,-402.04007,-210.02432,1197.1099,22.877193,82.4256,2085.4541015625
431,-1443.3865,796.3034,-91.40685,-335.98355,31.16019,-46.296844,2040.59838867188
432,-220.0268,-864.94653,-481.58707,409.88727,-201.85117,-42.24139,973.271423339844
433,133.22946,70.11166,-366.43402,-602.2104,-47.49165,-94.27862,1159.10034179688
434,787.1673,-1733.1548,-247.78966,102.07578,20.244146,-124.369865,2212.154296875
435,523.99426,-1146.2314,-227.25859,-314.98972,-175.8985,51.86473,1580.44897460938
436,602.41003,-1212.3309,-889.6179,429.89328,12.453368,206.51709,1869.39184570313
437,-17.76997,-662.4261,-99.8916,-169.8697,57.92403,90.95455,700.597045898438
438,193.16354,-761.01404,802.3374,-762.4167,-96.31313,-192.25343,1935.29284667969
439,-322.61737,-2442.023,-1124.3738,-491.45535,-109.56823,-68.22738,2051.83129882813
440,-343.47864,-998.363,647.17523,-415.22144,117.50704,-24.81529,1618.49621582031
441,620.39185,-1587.6289,-652.20294,-796.4233,-25.063814,-129.07796,2374.80004882813
442,-1238.2532,-822.3442,314.95413,168.89868,-11.547062,-98.389496,1433.33935546875
443,182.12126,-130.66508,482.9268,539.5729,-60.971615,2.4977474,1080.27551269531
444,172.35599,-714.698,-592.63324,-1294.4595,-81.8309,-99.095055,2402.06396484375
445,-112.48596,-186.52312,266.0626,-448.10492,38.046623,-141.68987,918.570617675781
446,112.27599,-978.13696,453.98993,-592.0192,103.77338,108.12059,1672.48779296875
447,-601.6504,-1265.4111,134.7382,-729.06757,-36.806152,149.21327,1771.1884765625
448,121.80923,-498.39902,967.696,-837.0839,-109.48092,99.21098,1947.41467285156
449,-2280.0652,-1960.736,-357.68234,-602.8099,132.24539,188.6695,2105.48046875
450,-347.9577,-17.524342,-34.441833,1364.6267,-74.7011,175.68913,2408.28588867188
451,645.54266,374.46127,-400.34402,1042.0859,-31.016266,-10.657775,2035.90270996094
452,-1196.8605,-701.50854,-120.990486,849.1472,32.07813,5.975104,1742.4931640625
453,-198.64534,617.7907,1695.1049,-413.93774,-437.5267,3.2359884,1948.09777832031
454,-314.6275,-44.007324,-34.84466,-1166.9808,-92.33908,-95.52621,2052.87280273438
455,112.22946,-71.87455,593.15906,-194.02592,-53.840927,48.971508,694.663940429688
456,-1696.6761,-791.7338,-133.24136,281.92062,-205.85161,115.3657,1501.30639648438
457,-286.35574,-72.834,-790.72485,-646.39197,203.68181,-171.55344,1368.90173339844
458,-10.5781145,452.38187,821.0742,-591.32495,105.107735,-24.751524,1266.85913085938
459,-15.796204,123.590645,-432.2413,-425.9242,15.545603,-71.7567,900.726684570313
460,254.9528,-1280.146,-3094.6814,-383.74774,-37.330868,145.98505,2990.72924804688
461,794.4481,-434.2619,-70.156586,-491.2854,-104.64648,-10.004394,1397.19653320313
462,-65.19494,-1005.29553,386.356,-261.14493,-58.10005,-21.16834,1314.6298828125
463,-593.2412,-650.13165,-511.24786,-283.73718,-30.354595,-47.85701,515.5380859375
464,-326.0593,-1248.9965,2210.4666,-323.82907,-18.57776,-149.94766,3163.84497070313
465,355.1543,-267.19577,375.36694,-563.8697,19.640892,-82.72895,1172.96374511719
466,-848.2454,455.23773,-563.00244,-347.0727,-42.435585,156.92206,1359.88122558594
467,-952.29156,-59.55576,-207.70895,450.79922,-64.94213,-56.524242,1148.28662109375
468,-1256.9984,53.86877,-845.02594,-209.19116,-8.039426,203.71935,1266.50476074219
469,-1023.71204,-599.4842,563.5971,129.31854,366.21393,48.245598,1576.587890625
470,-407.2742,-748.82526,-360.1869,491.31488,-549.05835,147.48471,1352.32336425781
471,-557.31494,-749.4966,-260.27444,194.50168,9.158042,-108.3905,575.53662109375
472,-973.0317,-159.56607,227.93303,1295.6962,-127.62824,52.27167,2494.12280273438
473,-2101.7957,-1417.949,197.41045,793.2826,-57.000885,-137.60027,2477.12158203125
474,293.67288,877.86536,703.54456,1046.5594,-295.64426,-204.06859,1985.65856933594
475,478.2809,2354.8604,-839.6231,-616.86334,72.5201,212.0383,3003.96264648438
476,1007.75214,-828.06226,609.57837,273.25262,104.46522,-98.92058,1756.09777832031
477,206.22679,-504.42236,369.33414,40.536858,-198.23305,37.770973,880.134643554688
478,-301.45856,163.36395,-513.34924,-49.773735,626.9275,-183.9235,1283.54162597656
479,-506.66388,496.62494,494.86026,-641.3893,-190.84106,235.08475,1585.56530761719
480,-1131.9313,859.7166,-729.9831,-455.05215,-28.099068,16.427286,1987.98388671875
481,1494.071,3400.5647,292.751,1273.7483,-163.02013,14.772141,3509.39916992188
482,1173.0654,-650.5695,39.311337,-987.4349,203.07509,135.06464,2376.34545898438
483,904.86237,-1231.6998,-402.02032,-34.354675,-70.543724,-177.38547,1895.64526367188
484,-1177.0519,-1091.76,-316.70752,137.49818,37.869385,112.10281,879.094665527344
485,-1884.8379,-996.85425,472.28708,342.17847,1.8348457,21.04309,2145.70776367188
486,118.83476,-936.7986,57.08598,-115.26088,-19.372639,-30.020342,1047.22265625
487,-2487.3223,-1065.411,226.62242,131.21498,-139.94702,-20.636492,2374.87353515625
488,-421.21127,-1119.2809,480.85785,320.64813,255.9077,-243.60526,1616.68786621094
489,-413.30408,-757.52673,-229.69186,60.699284,-5.25231,126.83699,524.218505859375
490,-570.9879,-238.87646,108.4873,-564.5201,99.745834,-111.617905,1170.29699707031
491,-3062.7183,-1576.3464,-379.67297,190.33376,-407.33594,39.015667,2455.81860351563
492,-3485.2998,-1687.9733,-725.0832,-253.07758,284.29117,-41.39091,2515.53491210938
493,-171.74748,234.09143,-214.99773,1103.303,17.465536,-77.29722,1963.36462402344
494,277.1276,-1761.2723,155.5311,391.45383,220.88844,157.66737,2145.38061523438
495,-456.05762,-1659.9655,-818.97363,-268.79437,-33.949608,65.894936,1173.63537597656
496,18.646273,-793.45624,-728.825,-51.26592,52.35451,89.8647,807.17724609375
497,-1295.9291,-668.21594,373.98187,211.04222,-6.410869,-61.99543,1509.85815429688
498,-568.80743,-853.0728,-184.68758,39.379787,-277.3245,67.7163,765.951904296875
499,670.8172,1601.0012,-58.76364,179.08638,-105.22679,-128.54305,1501.72521972656
500,-807.89655,-825.2214,-724.9112,-559.2308,-46.159798,-14.459586,976.658081054688
501,115.492905,1592.7334,221.58824,581.02075,-36.798656,80.90638,1753.06091308594
502,-2431.004,-1567.9335,-72.32772,957.69995,449.89835,-37.05631,2763.232421875
503,79.846794,19.577787,398.77432,968.2565,260.06442,-69.77463,1776.12951660156
504,-506.21472,103.878334,-634.38995,406.59186,52.531616,24.692295,986.356872558594
505,-3048.6128,201.03178,-95.02143,263.3145,-17.345915,-116.78939,3152.078125
506,-357.12894,189.96413,363.31616,1.982178,-162.96667,19.974426,710.693054199219
507,-238.58765,-503.713,904.7265,-721.1628,-95.454414,-335.47586,1898.8876953125
508,-306.86456,-2047.3098,655.9308,-959.80035,-60.083805,90.78472,2903.62231445313
509,-815.46454,2366.9707,90.2158,415.36093,83.72268,73.39884,2936.09375
510,-460.22635,2096.3057,-6.5852747,142.85002,100.3437,67.99117,2384.783203125
511,2.68827,-975.3475,263.33374,24.772135,137.67694,209.21886,1212.2021484375
512,-1545.6813,-317.55612,237.09137,763.0104,-61.452988,-26.025293,2063.25415039063
513,-509.16254,2428.8472,358.7697,-440.285,86.23603,-39.504948,2728.3251953125
514,-1238.3273,149.9718,57.997433,1141.7919,189.14055,109.34944,2421.24047851563
515,350.21518,2345.0442,-544.2667,8.051186,-21.68461,134.54514,2572.8759765625
516,824.62494,-197.76663,-257.05017,-170.42766,220.42828,433.35217,1380.46911621094
517,-1841.6161,-2000.9395,324.351,451.76904,-94.2734,161.73662,2404.01977539063
518,-7.6133766,-784.2561,-486.55215,-249.78297,143.87447,131.66603,872.853942871094
519,-1548.4084,-798.38617,1025.725,595.55133,-423.5424,-61.89858,2621.40063476563
520,432.50143,422.93225,1785.7523,-735.20795,-240.1103,-35.128098,1908.55493164063
521,-1112.2169,165.3601,-1028.8777,-119.50234,-15.845045,295.98755,1356.13330078125
522,-1083.1904,490.13095,-15.186774,-213.63579,-192.6398,134.69923,1496.10888671875
523,1373.8181,-1792.3953,-2061.8525,190.42928,161.89857,16.134468,3337.49584960938
524,1453.1968,-1276.1237,-1295.0581,-86.76417,-0.3031358,43.8093,2744.005859375
525,-1724.8064,679.35547,-1173.8013,-356.48068,70.266396,-46.437695,2271.87426757813
526,-3906.0068,-2246.8699,770.905,257.61954,-281.6076,81.59478,4162.1611328125
527,-2988.0496,-1910.3026,109.20211,69.20644,49.839302,-288.07837,2772.58740234375
528,-1299.951,327.51984,-182.86855,182.34256,5.0051765,19.063593,1476.28833007813
529,-660.743,-692.86835,66.55614,64.46378,95.311295,-108.75982,792.82177734375
530,135.3691,722.1064,1154.7639,294.06726,-97.06106,8.445414,1035.95983886719
531,289.52502,-286.51245,406.1179,1653.4579,-122.37352,-200.522,2963.08911132813
532,-1858.3063,-465.93842,-286.5759,1437.9164,54.6487,152.01279,2915.76586914063
533,-461.66138,-1867.8611,604.88257,368.36914,72.55365,39.224075,2245.48046875
534,-505.44254,-1489.9908,-150.28638,469.9875,-267.32968,-135.01292,1541.71508789063
535,516.14154,2086.331,25.605944,44.1991,-48.735054,48.492634,1869.86499023438
536,-25.11099,1943.4437,9.004655,0.5109554,-6.088211,-159.14424,1971.11791992188
537,-1496.4932,3128.8406,184.65181,828.1303,48.24931,203.19144,4316.5205078125
538,-1225.2285,1694.7941,354.66675,1266.7148,72.85725,-107.5663,3357.619140625
539,1451.5829,777.5091,2023.7042,864.1029,-168.82635,-32.466793,1869.77026367188
540,1444.5494,-355.65396,1243.7742,840.74615,-131.11406,-33.306522,2257.22607421875
541,134.64644,2608.0054,319.90878,-2123.5178,96.463684,165.14221,4396.73974609375
542,-2047.2654,-164.10638,-210.83337,1924.8439,72.75156,-102.40521,3823.98852539063
543,-1643.6744,-1225.4961,-890.5304,2161.1597,87.00505,177.36514,3815.24169921875
544,4632.1836,335.96832,-915.25745,589.6637,130.95337,-94.45157,5149.74609375
545,-837.6001,-544.10394,-33.24862,-829.87134,149.49054,-52.894657,1624.35900878906
546,3571.7083,136.68968,-659.2227,499.25287,137.33337,61.958447,3997.83203125
547,4128.5557,-871.7344,-254.95238,-1981.5704,281.05786,-128.8123,5862.23974609375
548,2643.5796,-1532.3518,-902.98364,-1605.1719,-193.7023,40.58082,4801.41015625
549,-151.80812,-425.89938,-383.19748,1089.3496,195.92847,25.130192,1934.51586914063
550,3347.8225,1396.3322,283.36575,-540.7466,114.56907,-46.612827,2853.43115234375
551,3285.2185,549.4944,-343.2471,-635.4351,7.0429945,0.1098778,3454.69970703125
552,-1401.7217,70.539055,-770.8384,-1101.8488,46.679707,100.089294,2305.54614257813
553,164.97539,1200.1566,-372.36954,278.4598,238.83875,122.67927,1538.01538085938
554,-1869.6354,-2898.4358,-208.52281,-446.63397,-181.00139,-223.82545,2524.61938476563
555,1908.8103,2404.898,300.583,51.00159,-72.57027,118.55976,1922.52221679688
556,1425.4548,80.70676,1071.8192,-1316.3466,-126.942894,-91.16228,2594.115234375
557,2660.1418,657.2784,1772.2808,-290.03018,-33.170666,85.34785,1816.31518554688
558,1138.0977,1494.3008,-121.55552,35.023743,-54.94002,28.871832,1475.64733886719
559,1736.9132,516.4995,88.41916,384.1981,149.48433,-115.06351,1656.70678710938
560,-1398.449,-2580.3955,545.3353,-159.87404,-101.93223,-161.5039,2767.46166992188
561,-2101.4836,-3342.7532,-561.91064,-506.75262,-102.60244,22.11375,2574.00537109375
562,615.51666,-1687.2762,-57.25492,-517.8429,-124.42259,-22.968529,2249.16259765625
563,1157.8623,-883.5533,-381.94775,414.87457,-16.755873,12.347947,1978.04528808594
564,1990.1324,155.60222,-149.00035,630.24054,-16.570757,-380.87683,2375.8623046875
565,-117.44292,2820.6414,-113.85819,236.77263,76.09361,27.990032,2968.11791992188
566,803.10754,-681.917,-376.54022,253.91724,-8.742125,-107.91745,1440.01745605469
567,510.74112,-1019.0463,-646.1889,-261.381,-5.172969,-47.717655,1456.27990722656
568,370.80942,-1383.7533,-240.93993,131.7533,19.932926,337.25195,1665.49096679688
569,-2043.4305,1160.8258,-1642.9631,1764.2675,-108.88686,-291.85345,4332.8349609375
570,2274.436,3120.3237,883.48444,1366.9165,48.248924,79.80763,3075.44067382813
571,832.2888,3392.3848,420.01245,-1809.8262,-30.525614,23.327822,4196.47119140625
572,1856.203,1953.5548,1815.2861,-971.29016,88.350334,77.58005,1699.06506347656
573,-880.8263,-290.94556,-736.82007,-236.4524,46.345688,70.058846,687.494201660156
574,-1072.4829,-356.17676,-175.66783,361.52905,-24.238735,5.6705346,1033.89868164063
575,-311.73282,-276.49454,228.40775,378.72617,-155.04138,-67.7226,888.894287109375
576,697.0617,-171.53732,296.66473,-152.89389,104.72166,-87.99727,832.620971679688
577,81.88408,-706.7413,606.32306,-148.37578,86.42656,34.762913,1184.32775878906
578,-204.5011,-927.3797,-297.1075,-961.80676,-21.801514,156.68253,1820.57055664063
579,-148.90973,-1496.0421,-1253.7177,-242.85564,-34.030117,19.828123,1314.77526855469
