Element Label,S11,S22,S33,S12,S13,S23,Mises
1,136320.48,122621.266,155085.23,-523.00336,-2905.641,-13734.604,37268.1328125
2,-8963.83,-9689.527,-39565.43,-207.81929,-4938.0664,3301.6558,31949.380859375
3,9373.211,11153.633,13259.094,-4875.323,2558.3154,-193.06311,10119.513671875
4,22226.412,16708.96,9293.464,3967.953,-2130.2048,5138.0684,16321.55078125
5,18388.09,19624.133,2826.5469,8664.475,-3053.371,-12029.175,30825.572265625
6,-17149.871,-17457.246,-44525.99,-9429.159,-1121.7355,3053.9136,32243.0234375
7,2965.2024,6701.873,-4666.709,-4767.977,6552.172,-1190.923,17377.435546875
8,6448.6187,8621.154,-6525.883,2214.01,-3516.0615,2206.448,16359.828125
9,11689.162,11694.522,-10946.735,2651.0676,5851.4907,-2165.9807,25502.626953125
10,17422.467,-273.98633,-1803.5503,-3442.4255,-2173.8848,6220.3496,22547.248046875
11,11476.905,-1761.5938,10474.246,-13025.943,-411.07254,-366.1495,25940.783203125
12,2143.637,3741.157,-2901.9568,3739.913,-3487.8901,-3245.383,12088.21875
13,6750.6997,5965.156,13459.268,3171.8416,8237.8,3581.8552,17976.28125
14,-16649.254,10603.068,-4075.1956,438.42545,-12952.691,4176.7075,33381.90625
15,31548.242,30239.516,10517.368,-9320.142,903.15576,-3921.3496,26938.076171875
16,13758.963,8445.642,34557.535,7722.427,-2093.2878,10324.174,32911.09765625
17,128736.85,132275.86,131205.0,-3765.754,-18.482944,-1569.8834,7734.26611328125
18,1552.7726,1271.673,23222.629,2245.0735,11704.792,-12553.042,37075.83203125
19,-25730.818,-15734.028,-19655.418,-312.69348,-1373.841,614.9437,9121.5087890625
20,-23123.01,-20598.986,-31266.371,-7570.2886,920.3863,-9942.59,23754.44140625
21,1864.9731,2253.4062,-10300.017,2328.0674,-17368.031,-7112.481,35011.86328125
22,-330704.75,-328803.25,-328713.94,-1197.2277,3862.739,-373.89526,7298.98779296875
23,-34408.457,-59359.695,-42465.266,-6783.0303,8936.53,3579.2202,30041.55078125
24,-58962.652,-59370.355,-52986.76,-3500.9216,2822.999,-7568.515,16457.169921875
25,36201.305,37260.594,36784.984,7524.764,58.589275,1062.9679,13195.1015625
26,27107.773,48100.586,24700.217,6780.435,-8286.149,7378.6963,31690.30078125
27,17234.54,39794.04,42633.695,187.5599,-5807.21,2028.4175,26356.705078125
28,15043.617,17807.986,27405.016,7810.0444,-2138.2522,10413.135,25461.37109375
29,9695.9,-2371.9246,-8910.228,12360.503,-7198.4873,9286.4,33760.88671875
30,-12942.324,-19793.953,-23290.867,2146.0989,-8692.805,-12797.432,28547.634765625
31,20474.613,17969.57,12506.7705,8335.735,-9454.16,493.9159,22959.328125
32,12881.888,17551.799,28091.023,-625.2369,-9512.516,-9779.065,27232.83984375
33,1058.9352,4729.4644,13956.118,951.7321,-9815.658,7999.581,24823.564453125
34,8637.604,32561.28,29058.91,6790.8345,-310.3877,-7558.0117,28474.9921875
35,5412.6475,13704.771,-17821.217,3907.6094,9747.598,-4554.8896,34559.0234375
36,13790.597,7410.622,25643.191,16654.736,-9303.445,-4050.2004,37387.46875
37,1337.7671,7055.63,22884.484,677.91846,1848.8987,4677.255,21237.18359375
38,2566.7615,-1522.077,2308.8066,-1250.1417,-7138.0405,-859.8001,13247.3251953125
39,54538.71,57632.227,87689.43,-10402.675,-566.305,-8917.385,39625.1953125
40,-52834.734,-40815.918,-48679.785,4416.431,-9613.994,4497.414,22544.609375
41,27667.922,31613.123,41483.773,-4035.9417,6842.2905,-6305.3613,21459.873046875
42,456094.66,443457.2,449175.53,-133.33134,3320.1597,1808.3433,12770.0322265625
43,-24606.484,-23965.459,-24053.902,665.78876,-448.30762,754.75037,2000.93701171875
44,23537.486,4212.728,17360.508,-1423.1039,-4111.881,-5376.264,20874.4765625
45,7598.4375,-3942.8696,10951.385,-5741.419,-10585.836,2330.281,25189.3515625
46,17738.025,4763.7437,22952.988,1928.1538,8074.159,-9047.931,26749.072265625
47,41.52596,-18512.244,-17135.133,1388.9572,-2306.9585,-4077.036,19804.259765625
48,-5237.9453,-10208.457,-12208.131,-4989.6064,3635.252,-11476.292,23411.3984375
49,18542.693,11344.36,28118.9,1208.1904,2599.3367,-12567.233,26662.845703125
50,-1298.1724,6687.6904,13665.222,769.68835,-14746.399,-1400.599,28778.685546875
51,22306.758,8171.3037,9765.611,9251.701,5687.5996,3320.609,23805.970703125
52,9349.355,10772.296,15146.8125,-3876.0242,1918.3557,-14147.928,26153.169921875
53,18024.17,5933.593,15032.893,-1649.2162,3983.6057,-10012.24,21805.171875
54,26319.205,7271.746,13487.817,-5225.9487,1156.2054,-7317.073,23013.162109375
55,-2456.658,-12376.239,-11853.1045,-7593.2896,789.6152,-8895.071,22487.640625
56,-10651.999,6674.092,6530.6797,2410.9531,-9461.932,-7607.399,27520.34375
57,26953.668,27892.787,26159.434,122.15097,679.2297,-324.79938,2000.98449707031
58,32907.547,31619.87,31811.78,-553.1407,445.8854,589.04517,2000.77062988281
59,-9007.367,432.96994,-9281.306,-17774.143,3818.0137,-663.5877,32933.1796875
60,-40188.855,-19970.537,-32148.486,5986.2476,5705.6006,1370.4446,22840.0234375
61,-1920.2212,-13509.059,-21548.322,1096.704,-4640.8833,1124.1335,19081.650390625
62,14301.517,16824.838,13787.774,1806.8154,4956.351,-1599.2373,9954.400390625
63,9490.437,22476.002,13275.594,21.669949,9626.72,-6084.1846,22866.44921875
64,-4283.23,27216.861,36284.785,-2465.3762,3369.724,-6293.27,39131.04296875
65,11492.02,8658.176,8840.022,-3820.3184,487.06113,-12188.361,22309.484375
66,10773.074,17836.553,43148.945,-1710.3544,7221.402,7055.7607,34408.9609375
67,-14099.764,1.8582482,4907.8696,-3103.3125,-9396.529,16137.446,36974.78515625
68,11300.301,1296.517,4851.713,-2525.2788,5196.9683,1035.0316,13435.77734375
69,-7180.4985,1616.1754,12061.123,4467.7803,9901.364,274.17886,25151.123046875
70,-503.4112,5595.952,-5501.0903,20299.29,2595.624,5572.425,37976.47265625
71,-55065.117,-39155.83,-25290.066,5219.9136,8245.015,9932.716,35321.65234375
72,24891.775,16219.568,32714.594,-8765.437,13620.398,-768.1039,31512.83984375
73,-6282.0312,17381.092,-11886.364,-9579.301,-12415.945,-123.66797,38233.1015625
74,56780.855,59232.48,67384.79,6716.139,13181.384,7778.2534,30504.5390625
75,-40400.47,-11993.511,-34842.195,2018.1915,2062.4077,4340.667,27594.56640625
76,4762.954,9599.146,4048.9307,-14963.2,-2157.371,9432.821,31304.0078125
77,28063.646,26010.943,30848.01,14192.703,5887.619,7829.5024,30164.146484375
78,42340.766,40468.207,36451.844,-6059.0205,-13640.455,7238.268,29200.296875
79,283461.62,282971.6,283555.1,861.8289,286.70422,-641.46606,2000.98754882813
80,413462.1,442881.12,439019.16,7369.1904,10813.28,-8687.885,38818.9765625
81,11831.398,3963.59,20655.135,1566.5425,8162.8555,2672.3252,20925.26953125
82,32706.158,55320.863,45474.324,-11913.556,-1314.2322,-2234.8823,28838.634765625
83,2893.852,-6163.128,15460.605,89.30165,5169.343,7575.8564,24619.912109375
84,10712.495,405.1082,28702.354,6855.0063,2501.5403,5858.368,29631.29296875
85,-19872.635,-2009.496,-15301.669,-9123.538,-15890.061,10741.943,40145.9921875
86,-11505.277,-2409.4214,11618.699,-3398.259,-11305.072,6100.1504,30607.42578125
87,-5801.85,-2784.0896,2734.6226,-1077.399,17448.676,-4947.0107,32349.455078125
88,-35527.8,-5149.2603,-5827.821,-1495.4355,-4825.005,-6216.3516,33093.54296875
89,-72258.24,-49061.97,-50898.94,-9539.75,310.8453,-6738.622,30139.146484375
90,13598.907,27957.041,24311.559,-7440.11,3692.1772,726.01825,19381.609375
91,32115.254,35242.39,30993.62,-8002.382,-1517.6096,-3300.7588,15692.4609375
92,25283.67,25456.348,25560.703,-909.37756,694.6414,15.399908,1996.97814941406
93,2307.529,3659.908,1289.3167,2284.1858,-6630.6646,2096.057,12844.169921875
94,-1708.5262,12260.133,3626.1375,-2969.8315,-5618.943,3425.0696,17476.685546875
95,3901.3699,12648.57,11262.179,4427.239,-7536.5864,-1578.048,17406.34765625
96,-1875.7607,2237.8408,-29107.207,3765.5867,3662.582,-1653.2721,31007.66015625
97,-18839.693,-9553.535,-10697.658,-19080.324,-7371.287,-9552.816,40073.30859375
98,3781.5781,19125.44,29276.936,13154.281,2611.6702,-4315.57,33010.4609375
99,-24156.502,-6964.302,-8506.709,-6562.0337,-8415.867,12994.316,33461.19140625
100,9104.805,1853.5182,-5339.49,-5807.3003,3848.4543,-14535.58,30593.04296875
101,17632.54,19501.02,31055.166,-6789.5986,-10079.367,2363.0496,24867.79296875
102,27731.287,3668.7612,20405.215,-4898.885,5863.9253,4199.105,26161.884765625
103,10122.415,32924.277,24490.846,-4231.009,3604.419,1814.9031,22389.978515625
104,22397.63,17874.672,33204.023,5949.136,-7851.2656,-3187.83,22532.259765625
105,13283.8955,2945.2615,20972.404,-11512.681,-7444.7593,8116.182,31733.345703125
106,-3503.118,9896.889,5641.6426,7016.362,-5552.927,1571.2217,19703.962890625
107,33062.414,18882.521,6045.7793,3458.947,-10396.079,832.1285,30167.541015625
108,-151714.98,-150412.94,-137042.31,-6025.6533,3420.27,5819.4663,21059.3671875
109,-9775.092,-4962.708,-5858.864,-5378.3364,-4318.343,1716.3821,13084.767578125
110,197575.36,199181.25,203440.45,268.52823,1216.266,-1297.6316,6104.52978515625
111,9943.71,-10512.363,-3899.838,-7369.9556,3589.151,-4846.6772,24473.98046875
112,58682.355,52620.08,53646.77,-6096.85,3396.5217,1339.8413,13531.095703125
113,20029.389,36724.98,22711.77,11420.441,14077.006,-8008.981,37674.27734375
114,4243.1157,11905.741,23624.412,-2776.3271,10787.861,609.0106,25675.072265625
115,3569.7412,6064.7705,-23627.098,1976.5061,11411.382,-2286.1277,35097.12109375
116,794.03546,17547.283,32419.783,4996.837,449.62766,-7718.735,31706.048828125
117,176.6753,6113.265,-29433.97,-651.12305,-12730.903,560.32776,39702.15625
118,14985.466,19702.283,14433.2295,-5361.8833,14495.496,-9987.432,32264.71875
119,20704.117,21813.896,30971.668,-1395.6602,18302.15,-33.645355,33256.765625
120,16493.924,37191.562,24244.115,-4919.1436,505.49905,4857.3296,21729.8984375
121,19182.531,8203.552,13271.542,-3103.7246,-790.24805,67.69833,11016.701171875
122,22573.986,20238.885,27668.697,-2144.8713,9859.391,7640.512,22888.029296875
123,18057.035,24831.63,33691.67,-2237.1802,-7627.5625,-9790.287,25720.068359375
124,-3124.194,-3333.6543,-4167.6934,-5991.012,-7115.95,-96.00366,16140.9033203125
125,31842.38,29324.264,47213.438,1480.3467,10405.192,3069.9482,25317.35546875
126,29444.23,1520.0547,-9303.484,3529.3042,3749.9885,6244.179,37358.6875
127,11966.261,9815.799,10829.015,194.06999,-324.84464,184.48822,2000.96984863281
128,8076.108,-7657.4116,10226.704,5473.552,9047.529,-1620.6508,25086.595703125
129,10880.093,9599.969,16555.293,-47.93191,4790.056,-11142.765,21964.42578125
130,33789.766,32220.518,23305.719,16297.658,3613.6643,3011.8303,30970.240234375
131,50087.613,42496.81,43063.68,8194.335,5025.6196,-6419.393,21318.453125
132,-17793.297,-3267.6274,-8276.625,-4182.4087,-7089.0703,8286.714,23928.587890625
133,-18163.697,-23126.895,-25643.107,-3264.723,-16455.072,9346.058,33908.453125
134,-12760.016,5413.938,-27506.379,-10966.596,-7024.5815,5252.271,37514.52734375
135,29752.24,19416.27,42513.266,776.43146,5641.0864,12122.199,30654.37890625
136,11593.711,17055.701,29519.607,-2022.9288,81.35092,17226.22,33996.83203125
137,33154.168,22496.361,38093.42,-5830.032,-2584.4407,8553.24,23067.427734375
138,-399639.12,-399910.3,-385699.78,-5039.9546,894.4821,2399.5693,17147.494140625
139,-19130.143,-25953.764,-24749.566,1716.337,-2111.245,-5759.6885,12709.3056640625
140,-21224.027,-700.78204,-14608.369,-3419.2195,-1887.1389,-8792.787,24635.181640625
141,22530.475,16073.851,34840.566,2063.6863,15763.084,-307.75958,32112.193359375
142,10415.571,11175.046,22945.787,-3363.6194,15939.186,6459.1665,32700.826171875
143,7222.462,14217.007,28662.518,3320.0322,12062.883,8391.498,32241.203125
144,-2604.0283,-18405.188,-27402.29,1280.5883,9792.648,5426.628,29218.85546875
145,-6930.426,8250.904,2175.552,4150.0557,6349.233,-3210.876,19459.884765625
146,1981.954,13230.983,8641.878,1682.6881,4430.296,-1285.7701,12973.5908203125
147,27963.475,15659.997,15973.0,-6190.738,-7310.389,-7586.254,24404.453125
148,5356.7104,-2396.0059,5264.0435,246.14104,5114.657,1117.4938,11908.0673828125
149,-15593.751,-25120.143,-4484.934,-14966.364,2151.431,-11753.327,37686.45703125
150,-19417.373,-20517.424,-9425.714,-17079.053,5598.435,-5204.672,34094.13671875
151,2700.693,3978.9138,7202.5776,19615.035,3760.7031,10430.941,39233.1171875
152,11120.952,2160.8953,14801.466,-3369.8691,-6108.319,-8969.782,22675.541015625
153,44946.055,35169.02,53971.582,3352.0278,5483.8306,-8447.638,24562.302734375
154,14465.717,2442.076,23629.822,463.5797,8277.093,-4679.599,24710.4453125
155,32155.078,11211.143,12013.117,4702.3394,6799.934,-8877.453,29393.46875
156,47043.48,21989.543,17493.654,3095.3013,4035.234,-13054.654,36734.40625
157,-27942.143,-14622.171,-22804.768,8526.669,-5339.2285,1408.7712,21094.37890625
158,10169.797,5027.684,9375.724,1742.47,-8662.951,-774.98755,16094.6962890625
159,2615.4065,-9110.871,-2947.0693,-4043.4988,-5937.5513,-751.2898,16116.01953125
160,9186.383,25205.52,15427.391,9778.843,-15251.661,8078.6997,37095.82421875
161,5940.435,-12662.226,-2650.8228,27.908758,-1740.7203,-899.0834,16479.265625
162,15461.008,16125.284,14422.002,-8772.888,-2859.2598,-165.60152,16053.349609375
163,32982.906,21179.479,49522.383,2970.41,-620.5607,10294.258,30881.033203125
164,30998.049,27320.12,47513.555,5863.6733,1715.2019,13602.931,31845.328125
165,4325.3184,-1336.7627,-4006.7136,758.19324,13635.983,12812.789,33261.8828125
166,26103.633,29236.629,42239.402,-925.3723,-927.75256,14797.41,29692.87109375
167,-4150.163,-10194.485,12886.585,-16463.562,3423.8743,4114.8926,36453.70703125
168,10019.86,1900.8627,8709.706,-4792.0767,-3070.1074,-11979.505,24180.400390625
169,22291.877,-339.9903,24506.98,4447.7607,7326.2036,-12444.299,35386.28515625
170,25134.754,15629.122,-13658.094,1359.9015,-8849.904,5789.0635,39592.19140625
171,-409937.03,-384844.9,-391730.28,-10953.271,5643.401,-12.469713,30979.369140625
172,368761.56,373241.4,380595.94,-2726.0776,2529.8867,-5482.9077,15452.75390625
173,-180041.7,-164159.5,-162451.72,-13093.327,2145.7056,-3522.0732,29113.86328125
174,12733.063,-3477.8235,19647.836,4272.148,957.3928,-6222.033,24420.19921875
175,26955.418,6910.312,13452.912,-4866.9404,-8060.6074,-11213.059,30929.66796875
176,18158.785,22682.865,-4521.1357,12511.931,5406.444,9595.553,38353.74609375
177,13696.6045,8934.916,6258.543,-3121.1401,-823.26733,-7190.6724,15131.2880859375
178,28746.488,18968.209,1436.4547,-12955.372,1840.2229,-3166.1448,33438.9765625
179,11164.592,-2046.8857,12584.531,-1264.2985,2467.18,-11360.394,24607.94140625
180,-9774.296,-8967.807,-26751.133,-11394.811,10032.808,-5658.404,33016.73046875
181,9011.43,9207.374,-4690.3857,-6403.184,-3441.6533,14054.941,30685.896484375
182,-25137.541,-31157.51,-45352.39,11623.198,-11076.405,1593.3972,33228.9140625
183,9993.748,26734.414,27947.312,-5004.2563,-10904.661,-2223.184,27362.67578125
184,-261189.0,-261069.2,-260599.02,-227.32298,-554.9126,-635.0271,1606.34484863281
185,245233.44,247609.03,246418.81,-3292.9265,-2709.2285,2484.2073,8791.83203125
186,32924.97,27495.855,30444.793,-1588.4652,-449.3529,8931.773,16421.525390625
187,21420.55,18051.766,-4308.5425,-12955.482,-7239.5,2817.3552,35654.3984375
188,5663.644,-15169.583,1912.9204,-8445.359,-3131.2231,-2802.9663,25237.0234375
189,-47846.492,-11654.55,-17039.238,7288.7256,1786.1974,334.99384,36238.84375
190,6536.4697,17422.209,33210.895,-4140.217,-6633.8643,13840.363,36024.5625
191,9229.82,12390.072,4932.0835,-4520.802,-8710.737,10217.959,25381.1640625
192,-1100.0093,28349.92,28160.984,-1013.4156,-5419.3135,3426.7097,31435.408203125
193,-16175.831,-13823.825,-19706.023,6491.7705,-11024.63,-10531.78,29156.62890625
194,2379.1072,1249.494,-750.69965,-2699.4468,9589.928,8756.154,23136.7265625
195,22666.605,12308.188,18329.26,8406.095,-681.2055,15746.347,32224.26171875
196,-8164.2363,-3581.8884,8103.341,2604.764,-10647.476,1576.4778,24062.515625
197,-56.616943,14200.631,-19439.4,-4478.676,2434.1094,-5514.5254,32007.60546875
198,-8033.4683,-6346.483,-29762.336,-5120.8857,-16766.264,-2803.3132,38173.48046875
199,3031.6565,-3950.2627,28760.664,6454.7734,75.819016,4631.7466,32859.328125
200,23998.984,6375.039,47510.617,-4555.1157,-3300.308,1736.5619,37171.7421875
201,10318.297,11221.693,39351.086,7600.25,5052.72,-5609.0474,34084.55078125
202,16849.422,-3061.709,-4702.94,4415.3994,-7614.134,12599.786,33771.31640625
203,5835.1807,17311.805,41726.8,-124.642975,845.8502,-6478.4717,33706.25390625
204,11912.076,18131.77,46675.996,-2316.9233,-6412.24,-2410.3794,34465.61328125
205,22398.48,7896.0933,-6369.0103,1612.3456,-3925.7651,1887.3685,26180.353515625
206,-15919.538,15768.522,-13156.037,2704.0627,-3495.3765,13159.56,38759.65625
207,9969.61,15645.176,-3956.4941,15613.63,-5031.3267,-6127.8916,35001.98828125
208,19384.543,19471.729,24168.041,10317.398,-15427.444,8710.447,35825.3046875
209,-15322.276,7857.771,-19177.586,-255.52141,-17402.344,2332.2686,39580.0859375
210,17298.752,35591.305,21207.635,8000.5356,-5846.252,-1587.618,24093.9140625
211,355911.84,339628.94,335784.06,4064.8489,12843.439,9566.917,34081.23046875
212,-255488.58,-237925.14,-233076.12,-9364.352,8545.866,8224.7295,33200.30078125
213,8064.098,8662.411,9952.428,-632.676,2.1515675,-55.18347,2000.98510742188
214,569036.0,567570.5,568058.8,-472.66138,-704.4064,-241.26888,2000.98498535156
215,-415599.47,-389235.03,-393104.3,-10291.956,526.3023,-1045.8601,30494.736328125
216,-14184.279,-36124.3,-37892.18,-10911.169,-3426.0923,9703.603,34614.04296875
217,-7493.155,-1642.8035,-12421.852,-7367.122,-7030.666,12597.922,29573.474609375
218,35618.543,38774.023,60082.387,10645.163,3941.433,8262.479,33505.37890625
219,34184.203,25191.602,43597.2,-1970.4552,14369.561,10396.794,34777.859375
220,16704.398,24012.697,28964.908,13211.766,-4229.4805,10914.876,32385.94140625
221,-34216.84,-2542.7483,-31599.037,553.90643,-7723.8843,11403.396,38693.5703125
222,15571.584,-4440.731,12687.436,1219.0594,12856.7,9060.239,33131.5390625
223,3157.5706,7840.6094,25513.453,5137.732,7335.824,12133.034,33155.484375
224,4477.2153,16371.808,26824.7,10287.571,8604.2705,-1635.5872,30376.064453125
225,-4785.7993,-14745.154,17159.28,5970.938,11968.182,5704.2036,37863.12890625
226,-16712.54,2279.811,-16686.29,18296.652,-7523.615,4102.0938,39809.671875
227,-24019.146,3742.4438,-723.4706,7427.2856,4376.301,-4783.767,30955.974609375
228,-81456.43,-52408.47,-62305.73,3625.4143,7466.3877,-6560.733,31464.994140625
229,4717.128,13813.427,6449.449,-3768.7344,18539.186,-5759.3555,35259.1953125
230,13176.695,27859.457,16689.326,-2540.3994,9972.988,-4997.6025,23854.0859375
231,37131.473,37642.41,36523.72,1007.60187,2029.7909,-959.4767,4371.3466796875
232,-79018.664,-79166.44,-79453.75,-616.46594,947.0615,-93.51072,2000.9853515625
233,-12345.215,-14552.068,5272.805,10476.781,11462.4375,8433.312,35929.9140625
234,-45278.152,-31186.785,-29803.709,-6154.183,-5849.9097,-4560.4414,22330.4296875
235,-12751.908,-7767.2163,-3758.153,2237.8953,3907.671,-6844.732,16195.3369140625
236,8216.843,4341.1294,27308.295,259.79752,1769.5189,4912.3384,23140.591796875
237,-7437.1367,-12550.057,14663.6045,449.82248,4115.1084,2395.4993,26385.767578125
238,-25710.674,-15470.4,-24426.62,637.1379,10471.981,3004.583,21228.529296875
239,11594.586,-18058.105,13281.788,-9252.262,3914.9731,2715.8076,35455.3203125
240,3815.4875,18307.996,39135.95,-574.7413,1402.6927,355.68347,30870.03125
241,4437.592,31287.857,24621.465,5216.7827,2958.0842,5192.361,27841.69921875
242,-3450.5837,-1375.6836,-9595.686,4529.041,3722.2063,-1929.1237,13003.2158203125
243,-1139.1322,2256.6658,-15830.567,-10142.306,6447.424,5056.844,28058.525390625
244,52579.74,37594.77,44604.926,10196.344,13770.454,5596.0713,33813.68359375
245,18937.115,13283.476,17544.451,618.6309,6799.074,18487.268,34513.72265625
246,11681.57,22449.29,8105.395,-11213.417,11818.504,1990.3129,31231.033203125
247,17712.656,29778.781,23774.932,-6780.8647,16026.041,-5145.364,33121.91015625
248,23774.977,24089.146,34615.785,-2263.4495,15278.759,6375.845,30852.248046875
249,17892.357,18538.127,17827.46,5900.126,18737.846,2214.3828,34248.04296875
250,-3075.4673,12346.125,19988.217,-9155.38,7134.0664,-10487.274,33884.7578125
251,31052.045,18201.244,38863.605,5658.698,6788.1265,-4990.9,25210.59765625
252,-15546.777,-4593.951,-21492.193,6372.273,17920.45,5265.7217,37267.41015625
253,6464.7207,17570.545,28882.283,1521.1702,15781.489,93.44142,33631.1640625
254,-60832.973,-39869.44,-42591.68,-8976.15,-530.31433,5311.7607,26777.125
255,-125.03804,-18189.812,15541.689,-1786.0273,-886.7786,-7435.3525,32133.791015625
256,-59497.324,-37732.3,-43710.37,5937.0283,-2959.8647,1633.5819,22789.775390625
257,-22224.52,-23777.578,-19997.473,2003.9618,1782.1769,2861.2212,7547.6005859375
258,8293.441,10466.801,21536.42,2388.6516,-9218.165,6815.6196,23721.654296875
259,-15826.193,-23232.213,-38252.035,-16028.898,-2847.1477,-2628.9543,34749.2578125
260,-12237.035,-3435.701,-23489.12,-5377.554,-1946.484,1644.7164,20232.20703125
261,10618.075,8115.3267,18270.652,-10290.999,4727.3896,204.3755,21653.22265625
262,7951.782,8040.34,5731.1963,-1199.099,-3018.1802,-5198.564,10855.9873046875
263,-20966.021,-14503.812,-53677.58,-8408.344,1862.461,-1402.355,39390.37890625
264,24408.062,10321.599,47884.87,2306.0815,-2347.2803,6436.8975,35172.125
265,10347.742,13054.352,33271.62,-5975.4023,-12201.864,-2539.6653,32309.541015625
266,-8726.251,1878.4375,-35173.824,-11334.534,-4919.75,-3530.902,39847.58984375
267,5984.954,17236.512,43051.195,-4749.846,-4974.3916,-10532.643,39473.75390625
268,-1691.7559,6309.254,-25619.62,-3199.0442,3362.8547,-3204.8958,30388.287109375
269,7921.6836,18573.416,18878.947,-334.85107,-4324.5347,-1189.5679,13322.671875
270,9164.429,-9144.566,2743.882,-8310.527,-4700.1387,-165.70801,23074.658203125
271,6540.918,13266.49,21150.506,-3870.666,20013.64,-2616.5542,37782.77734375
272,-11228.535,-19623.693,-33314.36,8214.224,1825.822,190.27864,24194.591796875
273,-8697.924,-4337.82,24866.512,12457.635,-1284.794,5788.8325,39627.0
274,45934.82,54116.816,38750.812,16393.08,-3642.4248,8477.945,35198.89453125
275,-40072.12,-62694.703,-39634.02,-15905.394,-2590.1987,-637.2794,36085.65625
276,25027.86,22282.215,21663.178,-92.501625,-7930.385,-4058.0605,15739.240234375
277,3536.8203,-3841.5605,-33760.84,-1111.543,-94.979126,3553.4014,34813.40625
278,4526.455,-6108.3486,-24822.477,-2076.1575,689.7622,-316.12576,26019.169921875
279,-13200.908,-2266.9814,-28009.936,8559.311,-1573.0137,-3177.2954,27536.7578125
280,-12915.784,-12513.498,-14841.241,-1406.9828,1414.2766,-757.7233,4278.50146484375
281,-19658.205,16580.938,-3736.886,10493.011,5159.584,7682.991,39712.0625
282,-487.34854,-8935.346,-6864.246,6770.4873,14157.962,1447.1808,28342.6640625
283,-19733.559,2893.5193,-2970.9163,8636.66,8006.129,12979.127,36539.35546875
284,-13016.725,792.23047,-14306.449,7628.309,-2559.8352,-9469.544,25950.12109375
285,-7698.3076,-22065.86,-24660.94,18833.89,-3342.5623,1696.382,36834.0
286,116.66804,9859.416,-1405.5726,-8053.0244,-15156.787,5863.895,33150.61328125
287,16383.847,4170.2153,-13087.565,-10217.592,8470.801,-10923.195,39296.2265625
288,-29979.98,-13565.172,-4074.9944,4713.1846,-10721.995,12214.149,37072.5078125
289,-6032.4863,-2808.2583,2005.6665,4315.2827,-8628.264,-8454.212,23296.30078125
290,2221.7302,25623.902,-215.83525,14186.356,-3773.0225,8844.075,38623.3828125
291,15556.542,24824.475,23062.123,4082.1711,1173.0494,20643.39,37486.48046875
292,10334.114,-5873.498,-21306.059,5526.533,2550.0322,763.6167,29391.5078125
293,10948.384,-2845.84,-2391.7634,5241.191,16408.205,5682.234,34222.5703125
294,12128.093,-429.72482,-2338.441,-4553.82,16672.055,-940.746,32924.91796875
295,15725.171,19345.17,19899.045,-5067.522,18282.738,-2658.888,33413.171875
296,8665.299,-14729.4,-11511.529,7041.686,-2376.34,4130.543,26443.650390625
297,-55680780.0,-55681028.0,-55682164.0,20.10103,-355.87732,813.3801,1999.91198730469
298,-295271.3,-302553.25,-287459.84,-19426.402,-3447.6187,-5961.804,38018.0390625
299,25557.047,24739.014,41708.07,13488.051,87.46469,10285.203,33732.75390625
300,25230.072,14988.492,40224.22,7994.324,5011.2197,9752.284,32181.732421875
301,-5060.509,4042.297,619.4081,-3527.8804,16472.723,-5681.8223,31806.576171875
302,-928.29724,-11506.24,-3715.8442,-7766.4126,7030.424,2647.5496,20986.6015625
303,7223.4814,6103.2607,36534.32,-80.477196,3789.336,-7192.378,33037.890625
304,14664.103,15350.963,49779.367,698.0616,9858.647,1694.9379,38872.78515625
305,7890.841,-5101.7046,34898.34,2050.106,6403.8076,-7487.799,39407.41015625
306,19965.104,-1785.7426,5001.74,3562.838,4745.301,704.1221,21878.259765625
307,931.13544,10171.363,-5350.745,-9351.894,-11059.031,-4006.495,29331.31640625
308,-3152.0886,11279.832,23615.994,7478.3413,9018.017,-1575.8625,30946.669921875
309,-10331.177,-4293.848,12129.1455,11106.593,-9396.264,-4846.512,33327.4609375
310,14985.374,-3369.038,-5664.3174,-2257.417,4267.1304,-2041.1603,21603.0859375
311,25224.656,11670.186,1122.8168,7374.5894,-1899.8083,8118.434,28454.228515625
312,-23094.953,-28297.916,-15428.655,9864.294,-15923.998,2584.006,34617.8515625
313,18584.033,-8748.8125,-6006.562,-10664.119,1157.8528,-3536.134,32593.80078125
314,-99335.39,-74539.65,-71973.266,-10404.295,2403.7852,-9220.557,35807.66796875
315,-28330.686,-590.68475,2996.883,11035.656,3997.0537,-8221.966,38703.82421875
316,-7206.5244,10087.424,4057.7217,-6198.14,-131.65845,-3189.7178,19416.134765625
317,7963.0337,20007.748,-8223.69,7193.057,-9134.572,-9560.313,35802.09375
318,19449.213,9323.478,25702.223,2082.7634,-13354.151,-7411.0796,30294.109375
319,-6771.314,13663.763,-1831.9677,6059.2935,-1500.1793,-15619.738,34494.62109375
320,-4980.173,-8580.301,-1473.5724,-7465.8145,-4612.417,16925.682,33591.0078125
321,63282.484,97604.97,78468.07,-2026.9736,-4110.1475,8832.549,34416.2109375
322,-6797.872,-36407.523,-39649.53,8764.589,5930.695,-5318.2617,37470.81640625
323,-1185172.8,-1197111.2,-1201522.1,1585.1482,-5567.856,2732.495,18373.447265625
324,681603.0,681137.75,682898.4,-227.7395,296.34158,-279.89972,1775.16467285156
325,407103.1,419225.6,421370.6,-4446.9976,-2846.3762,-9319.863,22842.3125
326,13775.769,14829.933,24844.654,6036.372,17826.361,4602.754,35187.640625
327,8456.579,9310.498,9456.667,776.9875,5575.014,-2195.7246,10506.7822265625
328,11731.294,1118.6335,-24976.99,-6310.928,8099.454,2443.3435,37480.0078125
329,2366.4253,-30569.352,-10749.046,4590.8145,-1339.1599,5340.6343,31288.76171875
330,907.37994,8664.782,-553.73083,-3599.53,9909.612,-782.04877,20222.572265625
331,-29046.098,-31448.633,-17573.299,866.45825,13187.716,533.31024,26264.3125
332,-4438.259,412.38052,-5363.643,604.6679,4278.4414,-5080.2637,12740.212890625
333,3535.8289,23640.771,15187.361,-11336.475,10280.539,-1251.6216,31828.111328125
334,-7101.2886,-3955.468,18166.12,-7825.276,2772.2952,-6361.7266,29950.421875
335,-5128.878,20335.592,175.3295,-3082.1333,-11475.011,-10930.0,36378.921875
336,19344.295,-8538.351,30173.908,5366.835,-5555.8286,-153.34103,37091.26171875
337,9676.68,2126.7017,14149.105,-5641.5684,8361.942,6549.701,23339.138671875
338,-13911.068,9561.851,-6090.8135,17992.264,3363.0796,7704.8286,40146.71484375
339,-63.199196,2514.834,26261.328,4341.169,8934.353,4927.1855,31632.232421875
340,-8866.938,-11347.557,12968.656,8326.225,8407.195,13175.755,38443.91796875
341,13139.907,13372.388,13486.971,152.56357,1106.0424,-236.9899,2000.53088378906
342,102081.04,106324.71,99026.016,-2002.1764,8863.208,-2694.847,17600.810546875
343,17790.04,1223.624,10288.083,-6161.9624,-604.6692,2840.6624,18591.912109375
344,-2426.0352,17014.506,16463.31,-2562.8855,-8435.359,-11594.191,31685.482421875
345,9965.87,118.20996,11242.743,-8412.287,-1933.8428,1205.4291,18413.55859375
346,9057.773,10772.834,14209.461,-11.67934,16542.746,-14186.721,38018.71484375
347,-10591.589,3114.058,-5591.9746,7221.365,16753.62,-5154.323,34964.4765625
348,-21298.707,-7932.26,12397.357,-14612.382,218.42654,2103.5894,38957.328125
349,8360.819,-6869.2437,-10205.274,19292.828,-4283.471,3601.438,38787.71875
350,1065191.5,1037295.9,1045005.25,13219.372,3055.7317,-3276.5762,34742.16796875
351,6191.292,-6418.11,-20634.094,16020.788,-743.6876,-8492.421,39094.32421875
352,5145.2476,2892.7551,-9634.157,5036.542,6486.099,-14728.512,32300.30859375
353,-31613.3,-846.32983,-27090.781,2085.6938,-7616.692,8942.623,35424.83984375
354,39079.598,17729.105,14976.224,-2771.179,-2814.782,-3935.781,24808.783203125
355,-781.7854,-1397.5194,-6167.3745,12576.412,16358.958,8874.278,39238.640625
356,39050.977,14575.877,4783.919,12728.826,3392.3674,-6605.294,39825.30859375
357,13943.678,10621.055,8258.237,807.9532,-2179.7769,3867.417,9249.6953125
358,-1997.5713,1187.4194,331.36902,2392.426,-22.997522,285.83307,5056.5078125
359,2835.153,1731.7883,2983.6504,786.0391,-172.23608,-154.48245,1848.64135742188
360,1184.6212,-957.6821,869.9765,1892.6428,-1766.7378,992.6143,5203.9052734375
361,126.1019,-1172.1034,-139.76195,-341.28784,32.81769,-80.21053,1335.22985839844
362,-2950.185,334.24365,-136.8617,-4420.1313,-1036.7743,641.0426,8516.58984375
363,7275.003,5882.126,1112.8528,3295.8638,1620.0145,-3742.0552,10667.6845703125
364,-1393.3677,875.8163,972.82275,161.59404,450.48773,-451.2508,2583.9443359375
365,4541.786,-5328.1016,-1869.2902,-1269.557,1901.7269,-4343.216,12145.5986328125
366,8408.565,8657.018,4779.449,994.20496,-1986.217,-717.2945,5520.6806640625
367,-2057.6465,1051.2775,6744.8647,3451.2776,414.44583,-58.285095,9800.1376953125
368,-6908.0615,1049.2646,-2959.5142,3055.7957,-663.05615,-2014.4246,9433.794921875
369,-1508.9836,-982.95776,-4885.0176,3566.4402,-643.92224,626.968,7350.63623046875
370,-1683.6902,732.611,342.67902,826.9818,182.19797,-201.08815,2705.72729492188
371,-1018.5541,502.80426,523.6426,-37.44273,-95.15857,-6.665184,1542.13256835938
372,-1725.0054,-1010.48956,41.96985,567.3799,161.62042,-223.94571,1888.06274414063
373,-1810.3892,-718.6184,-99.71051,-573.83234,49.700623,110.08857,1811.7216796875
374,3315.031,3115.496,1907.3696,-843.27594,784.2622,-316.76373,2453.57080078125
375,228.93213,6488.331,7324.964,709.6561,550.27356,354.19534,6921.8818359375
376,-2441.0627,543.0994,265.7102,1335.9845,352.22528,82.93999,3728.50952148438
377,1047.3898,1582.4366,-245.29901,487.29367,-203.81177,1.4421189,1867.07202148438
378,-9100.957,-1558.2051,-1364.8425,-50.2227,4712.309,-1724.7231,11573.1640625
379,58.79358,-283.26538,3147.7212,-183.97212,74.61931,-599.38916,3451.24877929688
380,2936.4866,-3167.2524,4916.868,2504.372,-724.7695,3188.8079,10205.9921875
381,-8146.2705,-1773.1814,-2987.2307,5173.435,1157.4116,-3783.9185,12712.9521484375
382,548.5725,2818.767,3509.2402,3328.5027,327.19833,-1794.3245,7100.3388671875
383,-3696.935,-2546.9539,513.46484,-142.82239,4844.9873,217.94327,9210.5068359375
384,-552.66846,-852.8764,215.9779,479.24725,162.24419,86.74257,1304.71142578125
385,-5380.1865,-3150.4016,-1209.4844,-416.32883,629.54553,-301.4444,3879.24047851563
386,-160.21436,5401.439,197.19226,-381.54303,-2054.3682,1048.3182,6742.9130859375
387,-10340.82,-5914.959,-27797.705,6976.758,-224.76797,3202.0923,24052.650390625
388,-25826.426,-16412.29,-51582.246,-2995.057,5387.888,4772.405,34304.28125
389,2279.2275,674.6484,-5015.5034,-3885.9448,-1543.9187,2780.5183,10942.0927734375
390,46.715027,-1640.1705,334.7304,-930.34705,-126.01592,170.25058,2479.03540039063
391,6443.975,4375.833,5415.5195,4817.1396,1766.9578,-1189.9203,9297.1279296875
392,8496.377,-1920.8799,-3484.7075,1481.7125,555.31775,-69.53804,11609.5498046875
393,6100.3257,-264.4458,-2631.0771,4151.703,844.3151,1684.7279,11114.7548828125
394,3906.3992,5963.5806,8230.08,6723.6763,-1470.9452,485.8905,12524.15234375
395,4971.135,2906.1,1168.7079,1059.5076,-631.3277,-698.6377,4110.7607421875
396,12933.152,954.8867,6204.3853,-1184.0326,-3673.199,3494.0833,13764.6298828125
397,5803.8696,-3915.0137,-1467.6726,-3018.1929,-4086.8247,3252.0464,13631.6923828125
398,1840.7349,-5230.199,-5242.5034,-238.94475,-1336.4781,-335.05124,7480.0966796875
399,5011.4746,-961.6494,29.720093,115.05857,-814.8268,-1463.159,6260.47119140625
400,-1503.363,5967.137,-176.89441,-951.9225,-912.9498,486.52383,7320.35009765625
401,-383.77588,5084.0205,1813.068,362.0372,-357.29144,360.2054,4886.35400390625
402,-2154.8271,2153.4128,151.50987,23.339115,1441.8987,-935.28784,4775.66845703125
403,3732.1326,-10.112305,-526.1222,1738.6055,111.15378,1166.0139,5420.86474609375
404,842.214,1165.8925,1750.2732,1073.0251,965.07806,933.5504,3081.92236328125
405,-354.11917,680.93396,-2477.4695,2098.683,-146.81006,333.8848,4624.95849609375
406,3950.5698,3181.9543,846.14087,-4280.8438,-1415.0043,3593.9727,10371.8671875
407,3444.0237,-209.70935,2111.4624,-448.05286,-327.48206,604.5847,3503.88598632813
408,-6636.3223,2706.4749,3959.2761,-3666.8984,5140.819,379.68796,14853.1826171875
409,1956.5208,-2524.728,-1584.672,-684.7862,536.0214,-1152.1107,4796.19677734375
410,1244.8889,3565.187,9262.484,-40.563213,887.1188,2315.5676,8337.49609375
411,-11204.605,-6151.6763,-3867.1882,-5768.9116,-3321.2214,-2389.5361,13869.2666015625
412,717.51135,-1354.5574,1489.4679,522.972,753.9946,581.07526,3166.68627929688
413,-6115.614,-446.41025,4056.787,4538.013,170.66086,1532.4309,12118.634765625
414,-1582.4111,263.19836,-527.743,2236.6633,1168.8481,2169.7053,5983.44091796875
415,-6032.4585,-1090.5251,3665.8774,-1093.8765,442.31808,718.51263,8733.6884765625
416,-7170.868,-2060.5186,-3522.9946,1677.5227,-1274.8168,-1003.95105,6092.80029296875
417,-5766.002,3155.9863,6391.627,-5002.183,1279.6184,6660.074,18220.513671875
418,3290.5894,-597.96466,-518.67303,513.4481,265.3273,-620.8888,4120.3642578125
419,-12898.512,-7971.424,-11102.154,3357.4287,5294.2046,4513.5337,14059.552734375
420,-612.183,249.70164,533.50653,-989.8854,-543.97864,256.15826,2256.59155273438
421,4385.062,769.0995,807.71387,-1784.3112,2550.5947,-433.46115,6524.462890625
422,-1618.0361,4180.53,5006.78,-1272.4645,-389.02838,401.64203,6700.193359375
423,-1534.7806,-1471.3729,-2105.423,2845.1177,-1205.7278,-2055.5366,6456.54296875
424,-87.30478,310.16785,-1781.4905,-1764.6918,8.696027,-181.37129,3625.32299804688
425,8366.814,-1917.3271,-4264.6943,3949.2,2689.2666,-611.85583,14318.60546875
426,-1869.9259,2332.5615,2492.1238,959.65356,145.30089,-573.0388,4708.31005859375
427,-1457.3353,368.17297,-3922.4614,-1640.1144,979.55426,-358.17084,5024.22119140625
428,3708.367,-1396.9341,-3323.9463,-1044.322,1143.5577,-3969.3684,9699.38671875
429,3861.753,2346.0269,-5148.932,2112.972,1364.2336,1030.4294,9591.39453125
430,-4367.0464,-1413.8003,-2933.9705,-1385.0513,215.53882,555.45776,3655.5732421875
431,1283.8203,1844.9601,1301.3821,-1193.8788,641.33856,-5.565843,2411.51611328125
432,4349.6553,512.4939,311.05115,2526.315,319.61154,-1017.7981,6172.38623046875
433,1911.8674,-603.80554,934.2441,657.9909,-507.2707,376.90842,2705.91650390625
434,712.4872,-4724.561,-4438.2803,4025.5625,-369.00977,1756.1418,9293.1689453125
435,-539.2845,-870.3948,-587.8537,328.79565,-287.42566,-887.3303,1740.72888183594
436,6238.209,-1452.5463,-5206.611,348.23547,-365.45377,123.22726,10145.064453125
437,-5190.248,-4649.2427,-6871.3496,-5612.8403,2884.3142,-220.19406,11119.5078125
438,-2003.7507,617.2546,75.01216,296.70694,-192.2451,-245.36053,2509.59375
439,1261.0557,-668.96106,2724.3174,-507.51526,204.8896,-425.80313,3183.20556640625
440,-1825.0128,-132.51491,-829.2694,-604.3088,70.21352,134.37192,1826.2763671875
441,-7043.4126,-2936.3523,-4749.2983,-1243.3558,-1020.2847,-2439.1675,6190.16943359375
442,1253.781,-1026.7382,-445.7985,-1608.1575,76.93901,-452.0443,3550.03051757813
443,-1463.3976,-1989.4847,-489.97058,-1690.6073,451.84695,714.01245,3528.85717773438
444,4097.979,3134.5798,10358.69,-1396.121,-1497.4257,342.37958,7686.494140625
445,-675.6487,-2596.8538,1132.1102,-1616.8231,-169.30676,-63.906864,4286.337890625
446,-183.3593,638.7289,-2622.2427,-30.637148,-1052.6829,679.2282,3652.43090820313
447,-3595.8464,-2003.9648,-247.196,-1567.7988,364.03305,192.71474,4037.30712890625
448,-1484.6543,-1071.3689,-495.38306,1213.7896,-318.31714,-80.93493,2341.814453125
449,904.6383,-61.22335,3623.5598,1530.2297,430.13034,1060.4705,4680.29541015625
450,-578.7399,-2525.7935,-7511.236,2208.1086,3410.0383,-1880.6042,9923.4521484375
451,-663.82605,1054.3713,-656.3531,-65.020004,-124.62395,-33.482265,1732.64453125
452,5540.0303,5615.6333,-1225.576,-735.3466,1388.3163,-737.23895,7438.123046875
453,-1911.1841,1618.5122,730.8302,-1323.9142,-105.98966,-279.89795,3954.802734375
454,-146.5334,353.0851,-651.6947,1918.7435,-1136.0234,1365.662,4611.796875
455,-1651.0453,670.29205,-2493.4917,3.4614289,-238.1314,384.39963,2944.03979492188
456,390.4962,2358.056,-793.1078,159.0991,-593.5195,139.89517,2965.20947265625
457,1194.1292,417.50934,-579.52704,51.934883,-205.71696,-237.07176,1635.60314941406
458,2899.1794,1482.9841,4535.1284,222.6175,-768.82074,-1958.575,4519.81640625
459,1243.1259,-1256.8875,-473.66397,73.83367,-201.99348,-65.21362,2248.76708984375
460,-3.1877723,-926.3216,931.69745,227.14104,-114.81985,-222.73863,1712.41882324219
461,-264.60992,-1424.4076,3227.0107,-1134.9437,-910.93335,989.3938,5184.255859375
462,508.44083,-4423.8726,-5730.917,-1378.852,-164.54318,197.71115,6195.56494140625
463,-103.75552,-835.2743,-2588.294,-262.26465,-107.16163,104.298676,2272.443359375
464,1090.5497,2337.503,1800.7113,1001.68207,1221.3544,-477.71304,3056.71923828125
465,-4774.4473,1359.0264,-4600.5283,197.1609,-775.2355,246.62459,6219.73291015625
466,-2217.0054,1022.3348,2761.2642,120.88737,151.77892,-24.25807,4389.18017578125
467,-2754.4575,-1000.8262,-3133.2307,657.1449,-650.81134,-25.05761,2539.87963867188
468,207.27667,-1243.4456,-1675.8336,-298.34723,-1764.2728,474.0015,3632.88720703125
469,-1686.3666,-2373.2197,-474.17773,-1101.6041,236.10764,-1042.1562,3136.8564453125
470,-2575.4072,-6917.462,-10076.185,1121.9554,2703.1443,819.7098,8382.087890625
471,-1045.6151,-2682.55,1522.3081,1717.8312,541.3029,1977.5315,5911.09619140625
472,-2157.2612,-531.77094,-9126.645,1232.1997,-471.76157,-86.72372,8233.3701171875
473,596.9274,2508.3684,616.613,-93.03219,264.75894,36.598755,1963.83337402344
474,999.9703,888.3803,1985.8423,-560.066,89.732574,314.26022,1534.8828125
475,1301.3037,-1905.1879,3792.3108,-575.9003,-1019.7684,-658.84766,5467.27587890625
476,1305.8431,-1599.3693,-820.8992,820.23456,1444.0812,-390.34833,3939.06518554688
477,-3114.5342,-797.79584,2107.475,-1208.5194,-972.0524,1375.6783,5782.068359375
478,346.5042,852.1425,187.9073,-160.09715,-257.38803,-74.08234,808.158081054688
479,1633.1595,2454.8591,979.4925,726.4211,-183.60837,89.24541,1829.66723632813
480,1519.9026,-2517.8926,-242.99278,-947.264,-139.80836,44.983948,3879.43505859375
481,1983.4825,-2110.1833,-223.22124,615.8265,-59.28268,281.7055,3739.0478515625
482,-582.69946,-351.18494,1592.2727,1077.3506,-25.697346,62.929684,2788.63403320313
483,-3669.4954,-2284.7166,273.71213,778.6617,-46.104282,65.64491,3720.78955078125
484,592.9079,-634.16504,-166.09825,949.4437,58.180744,161.34483,1985.70483398438
485,-2498.9697,-2654.2678,635.96326,1210.9933,-343.79178,33.039787,3885.375
486,-330.41306,-909.8885,-66.87053,-757.84454,684.75494,-430.5114,2060.0087890625
487,-455.98337,-1842.4163,-336.3359,-1301.3557,210.59857,309.056,2757.27709960938
488,-1905.8759,-1509.9996,-1649.6499,-2830.2102,390.11218,292.4749,4986.4208984375
489,-3017.6765,-2048.9539,257.47226,706.99994,-155.30823,-87.25815,3176.013671875
490,-5367.0684,-2301.3716,-304.97086,251.76495,-7.46982,-138.05588,4444.3193359375
491,1112.8467,433.5513,4127.132,1488.6677,197.84172,410.2048,4343.451171875
492,453.38184,-2094.8677,103.22863,779.93115,165.41231,-67.850006,2764.90087890625
493,-1259.1099,-2457.8452,-1359.7719,-60.991917,404.28143,341.85486,1475.97998046875
494,1078.6543,316.77002,938.0834,292.70505,108.74186,142.82184,920.231689453125
495,-3151.0222,-789.6412,-444.68402,472.41202,-262.80768,-308.25156,2769.74194335938
496,-1245.8433,-103.81864,338.11224,573.615,454.14255,-196.05637,1930.12231445313
497,2116.5156,501.661,13.674177,478.17084,41.350563,-406.6116,2195.67407226563
498,-370.62637,-1622.3673,81.69821,-821.7446,1504.087,-1628.4148,4370.9814453125
499,-731.2795,-475.9453,71.28881,188.9052,169.68535,84.54523,848.096008300781
500,-2382.6157,-501.1409,95.43157,2790.4253,-93.48543,-1294.5844,5782.02099609375
501,-4302.9907,743.46405,106.47029,715.60944,-27.219957,126.848724,4923.89013671875
502,-1600.0568,370.22937,-1665.9178,1340.0432,-179.61081,318.02512,3131.05053710938
503,-3072.2886,736.8457,550.24896,507.77036,546.29846,61.96784,3938.76733398438
504,-902.6392,-2136.8113,-1542.2631,-1665.3674,-0.7118138,-166.70012,3089.75854492188
505,857.2819,-770.13,1434.8933,-403.70856,83.867455,325.0391,2179.24536132813
506,-688.2356,-945.91034,1734.315,-1283.9528,-1643.0582,281.49945,4454.39404296875
507,-1153.3043,2169.9072,767.23083,1332.6135,-54.370285,111.790634,3704.56225585938
508,319.92142,-196.73259,-47.39785,556.30426,74.37882,-78.96581,1084.34521484375
509,990.3273,-567.24506,790.3524,-844.8199,174.78653,640.95435,2370.61743164063
510,-2913.6687,-306.4173,-1334.9773,1817.8306,-145.8068,38.859848,3893.046875
511,-926.50146,1207.3606,-868.4548,45.075653,281.2322,-49.656357,2164.17211914063
512,-2174.232,520.7496,5515.519,988.6883,-1707.9924,6.263894,7573.36181640625
513,-416.5525,2053.3381,-915.7135,-231.59401,8.942351,-80.046,2786.17358398438
514,1820.7334,206.71661,88.48365,416.77023,216.95576,429.00143,2006.06262207031
515,-1550.1307,-2648.0615,-974.2611,46.493816,-276.28915,-87.5925,1558.15661621094
516,1459.8585,-2424.8752,697.3222,-1634.471,454.46835,-1857.8297,5630.19287109375
517,-2378.8884,-254.17087,3598.01,1551.5049,161.46693,169.8999,5909.7236328125
518,-327.25116,1208.8413,1201.0576,-1088.9071,-538.2579,122.748,2611.36083984375
519,-937.41437,432.301,-390.4196,-145.329,122.531784,57.618217,1242.76293945313
520,-1825.8922,921.9299,1216.0437,-543.7093,-130.14203,-185.89766,3080.02368164063
521,614.1991,-145.95598,-183.08264,-462.13376,230.53671,10.067909,1186.54309082031
522,-1175.338,606.44904,-458.91232,-461.92484,-210.09236,291.29425,1854.34887695313
523,-2534.3735,-236.10716,-522.27905,-822.90753,-240.21228,-148.13431,2641.34252929688
524,-4379.023,-1850.1613,744.6089,-449.0632,-688.2038,-45.326515,4660.6650390625
525,-4119.25,-3164.09,-1673.0898,-376.99524,137.82944,119.36199,2255.14184570313
526,-3075.646,-901.04065,-796.1786,-67.371124,-439.19522,-343.06412,2431.72998046875
527,-571.23596,-892.15344,-165.47931,1418.6721,-108.47895,-204.59541,2568.38720703125
528,253.7091,594.16406,1407.8927,916.5269,530.7533,-585.87195,2334.52368164063
529,-690.70844,-571.6399,49.413456,2376.9895,-118.97599,-159.68773,4188.44091796875
530,-3824.4062,-3705.728,-1442.2798,1552.385,2107.7825,704.03784,5239.35595703125
531,-1473.7998,-2718.8977,-1263.653,989.962,-289.92685,-270.48895,2295.173828125
532,-521.71533,-3459.3845,146.95265,521.654,-10.040859,-279.26312,3477.35205078125
533,1387.9968,2388.6497,858.55945,626.8549,-222.495,25.572428,1772.20434570313
534,-872.7358,252.60283,-64.1908,210.92422,-20.161133,-97.96438,1083.38488769531
535,-1777.155,2992.5918,291.20773,538.99133,-202.23671,232.56088,4280.1318359375
536,-1321.5878,856.5845,606.8662,1424.9008,120.44838,220.04906,3246.94921875
537,297.98428,-284.99088,705.84656,532.5382,-381.02277,177.0595,1457.51879882813
538,503.62253,-610.0763,235.04027,589.395,92.293236,-8.0190115,1442.65319824219
539,819.77924,4903.686,793.56244,-3019.0115,105.60128,280.68808,6663.26904296875
540,-4150.554,-2855.8125,-1841.702,1668.9424,1439.0922,-373.55737,4359.5283203125
541,-3030.8752,-1070.1221,604.23004,2633.2427,166.38126,-90.73224,5553.435546875
542,4362.2656,428.55365,-779.4769,920.09814,221.27287,107.315125,4940.30859375
543,-2882.5637,-168.38199,1062.837,-1994.012,-372.26654,-107.15695,4960.12890625
544,2599.2688,-242.94582,60.520245,87.373764,-245.1603,85.81625,2744.64331054688
545,2524.8884,-2196.9382,-19.323885,-1522.2964,80.57665,95.09405,4873.81787109375
546,3358.2185,-261.1835,776.37463,-1617.3127,5.2570715,-15.746707,4274.2470703125
547,-2451.93,-1282.7899,-3064.2532,1215.3695,266.77078,261.88797,2703.39501953125
548,2560.0803,179.07692,-33.76387,118.20142,-196.23392,183.38661,2545.50244140625
549,3933.2964,282.47333,-104.548134,57.608128,-266.50375,21.870148,3887.89208984375
550,-2659.4773,446.19418,-418.5093,-1321.8611,869.6679,228.42366,3921.08032226563
551,499.77136,840.93097,-516.38446,-865.58636,-335.4021,-50.25919,2021.98291015625
552,-2130.7717,-3161.193,465.09595,-957.7648,112.069595,-45.749744,3642.94287109375
553,1836.8655,1769.3287,152.0711,-258.16144,140.76503,171.49356,1754.11645507813
554,939.6386,54.43065,168.65675,158.9946,165.72295,-57.609703,929.361938476563
555,916.09393,-812.98584,37.569836,-763.3789,-453.1086,139.34843,2159.83837890625
556,2116.783,1334.7426,1419.6678,90.610725,-222.24394,-159.57343,895.31201171875
557,1497.2565,1096.6293,94.90942,63.696507,94.80512,-252.00455,1339.74462890625
558,-3229.7224,-4594.168,-1851.0208,5.4246297,73.18763,-375.64478,2466.40991210938
559,-2919.452,-4429.776,-460.0925,831.36035,49.011246,111.76021,3763.25830078125
560,764.1605,-2532.8435,-700.8134,-853.06335,-409.96274,-302.0054,3338.76318359375
561,818.5886,-1981.9812,-722.1019,-358.7338,1.5057584,-88.50191,2512.30615234375
562,1406.2354,570.9871,12.063344,1215.1652,121.44559,-132.93462,2450.3095703125
563,-999.84674,2319.6963,-320.2322,772.8872,325.61157,171.63252,3379.90209960938
564,296.3346,-941.5139,-41.887733,178.8733,-53.234715,-238.11784,1225.79943847656
565,2549.6077,-990.131,-635.9685,539.634,97.38128,244.44406,3533.10913085938
566,368.244,-673.5534,-596.19073,-473.91272,-29.92219,-84.72431,1307.18432617188
567,-1752.8352,604.3292,-513.07086,2096.1099,158.2039,121.629326,4179.88134765625
568,-355.08206,2419.0437,334.52197,692.3983,65.121376,48.21846,2777.80908203125
569,37.86885,4015.3464,743.4484,-2478.8132,-162.1158,-146.74313,5664.69189453125
570,1762.4945,1969.8416,854.9985,-2117.811,-14.462852,371.7169,3863.31811523438
571,-763.36115,319.13217,713.78424,702.8467,347.31546,211.06071,1931.90441894531
572,-3890.9084,287.01968,1588.1113,-59.772682,-79.10713,263.12747,4982.06689453125
573,-4252.2305,-3468.027,-7058.0034,787.7715,292.87933,388.71335,3641.43041992188
574,2240.2178,-503.26282,234.5519,670.73627,133.62318,-549.67206,2890.76489257813
575,1230.3662,-970.7551,1673.5143,-119.32668,388.83105,71.56204,2555.07080078125
576,5374.4194,1426.3383,7464.7515,-1908.3538,-934.30225,2614.0696,7890.11474609375
577,4378.683,-967.88055,1717.4146,1765.9658,-51.094975,-1776.5055,6345.95166015625
