Element Label,S11,S22,S33,S12,S13,S23,Mises
1,1282.6274,1308.2036,458.0411,518.8968,283.3586,-91.38366,1332.43298339844
2,1367.3516,1715.5913,-978.40686,215.99176,-340.23886,42.271183,2633.12475585938
3,2004.0165,2254.9568,1172.9121,-174.57193,391.45667,-336.34793,1361.17370605469
4,712.79004,2084.041,-1108.9031,960.87354,-857.7636,579.93634,3699.05126953125
5,850.7671,4504.114,2104.3328,440.4998,447.81958,-1327.0074,4099.4208984375
6,700.43915,1455.4963,-1789.8964,134.37054,-307.5357,27.83413,2998.74194335938
7,2735.523,1702.6493,2017.2997,762.7044,1004.4707,-188.77512,2391.60717773438
8,-434.80322,1845.0414,-1961.432,581.18036,-1034.7374,129.58167,3909.53881835938
9,4542.612,2182.6113,1563.7039,508.38315,1935.3705,-561.1714,4513.35205078125
10,-2530.1875,-554.33954,-1845.2354,1358.9193,-1307.5612,978.75494,4069.74072265625
11,822.34424,1862.5326,-1377.0762,324.50613,-135.60909,122.87725,2936.60205078125
12,3534.0662,2398.6968,1794.5222,67.374306,-594.2476,-259.32095,1901.26330566406
13,57.446655,1196.6554,-1778.4412,488.22092,642.21735,-2.067403,2951.63696289063
14,3923.847,913.5093,1658.1587,105.12069,-1060.3328,-359.26535,3341.896484375
15,-2204.6313,1930.3508,807.6255,-1230.2041,957.3347,-219.99548,4599.02294921875
16,560.1086,179.95409,808.59344,271.6415,532.09015,-537.55023,1496.10583496094
17,1032.9574,1157.7106,784.20184,702.8069,244.13362,752.2931,1861.96850585938
18,-327.6793,1544.168,-2368.0178,-995.2096,291.5777,273.64584,3864.84399414063
19,-2255.6436,2914.7468,-19257.904,-3732.467,-2195.407,-2138.7866,21764.529296875
20,-1848.9441,2706.0415,-1185.871,-137.31067,-268.67075,-366.8688,4340.986328125
21,-974.81287,-1291.1251,345.9924,2211.0837,-8303.473,-2023.3663,15364.0498046875
22,-2021.539,-4633.363,1624.9595,2117.85,-473.2627,-154.33688,6621.3173828125
23,1809.6586,-2238.2249,-4020.8462,1044.0073,-391.40112,-216.90166,5536.20068359375
24,-692.33887,2440.5793,-7333.36,1042.1559,-2221.58,594.584,9687.580078125
25,1692.2094,3186.644,2269.7883,540.4291,-941.2531,-917.1358,2785.90283203125
26,1635.4763,3291.6638,7741.52,390.083,-553.9835,-1963.4712,6546.51171875
27,839.51996,1499.2739,937.6839,42.534527,-299.02127,-62.47347,815.797119140625
28,1019.0635,-995.66925,-4951.507,-520.0092,-44.8034,1894.1882,6265.6884765625
29,1397.4159,2273.024,-437.83838,381.8407,247.01128,-295.49957,2573.75634765625
30,1463.9615,3223.5596,5211.1562,1870.8177,192.07263,614.9271,4721.12890625
31,979.61566,2501.5327,7196.8467,911.16705,477.0212,1083.2599,6180.75732421875
32,-1027.8326,2734.3364,-6645.119,-119.76716,1088.1082,-251.83647,8403.9423828125
33,1578.2793,655.682,962.3314,-1787.6099,-667.6441,-1526.8766,4310.48193359375
34,485.3889,2163.8696,112.87327,866.0522,-1717.8837,108.57559,3836.69165039063
35,2069.565,1537.9984,340.94733,-687.3113,18.050377,635.05304,2231.55810546875
36,4027.9749,2119.0986,3220.573,-180.77876,971.3221,-98.70696,2390.01000976563
37,1329.1293,2507.3015,264.63834,575.6428,-248.45255,-1293.9648,3158.74975585938
38,715.55194,1656.2394,-1185.0544,-180.82068,-965.07666,-294.11533,3071.93627929688
39,1318.1283,1581.6638,-584.7988,-45.26821,156.98227,54.468224,2069.06982421875
40,2274.5688,2171.44,681.2075,318.5276,-149.7202,-66.93251,1664.38635253906
41,1498.9543,-335.69165,-2640.7495,36.64957,-208.49121,1349.9028,4302.24755859375
42,2085.001,1145.5454,-458.0852,-49.2275,512.3552,131.27008,2409.82080078125
43,1090.511,507.90753,-1060.6831,-608.9007,297.18594,675.4514,2541.59643554688
44,3717.1792,-1362.6652,2939.4487,-362.72757,3079.5745,-225.84026,7173.4228515625
45,2390.9858,2842.3867,5861.0664,-3135.6013,1090.6158,-1286.3043,6979.03125
46,2786.698,5065.289,10383.83,-417.5476,976.35815,1359.4342,7384.0830078125
47,-4687.28,4179.1343,-9352.101,-1657.7264,1101.0277,-1515.0546,12668.9072265625
48,-4281.9053,-2343.6418,-3439.458,644.30676,-2961.9392,-1582.7876,6157.43408203125
49,1520.0032,-3799.7812,4384.056,-2236.2275,-512.0923,1795.9542,8786.595703125
50,-910.4809,-1283.875,-8013.867,-1225.006,943.6711,-352.16635,7449.20703125
51,-3403.446,-1876.023,-1829.6265,-54.418285,-82.191216,-1904.3046,3648.87915039063
52,5645.594,4216.657,6689.7593,-3200.2754,363.0747,312.29675,6003.126953125
53,1184.8779,-563.6123,-8842.906,-109.76109,509.44318,193.72485,9327.7822265625
54,-4726.3223,672.9262,-14805.944,-1835.0277,778.7307,-502.2873,14065.9580078125
55,-925.5043,3831.2964,-2761.131,-5166.4907,58.76791,-2604.087,11625.8525390625
56,1748.4307,3490.104,1496.652,-894.12115,830.76434,-240.58081,2859.69189453125
57,1826.3513,4741.227,5403.349,991.4765,-2515.825,-1298.372,6153.0009765625
58,968.9886,5340.176,804.37787,-670.2919,-2809.638,-1403.2036,7126.775390625
59,675.88354,1991.3469,-2384.0488,164.05748,-2564.3706,-545.7521,5985.0751953125
60,1799.8596,3092.15,3666.42,-869.63934,-403.2666,1244.6797,3185.32495117188
61,1819.6803,2111.7668,-114.70859,1185.3685,1605.9944,-922.8818,4347.443359375
62,-2767.0703,3253.6978,-4144.971,1271.3805,-865.7088,-62.60428,7318.03369140625
63,-162.76569,722.89453,-1067.2054,745.42065,-213.49419,-217.58302,2085.46264648438
64,1907.2836,503.93607,745.3708,1362.1603,-70.00458,-736.25275,2982.65087890625
65,1285.439,1431.987,-2694.5415,299.75903,1408.5836,-913.4021,5016.94921875
66,580.6784,1341.3342,1861.5267,373.7402,-102.24551,125.1549,1319.95593261719
67,1766.5062,2250.9175,2483.8054,184.51927,-119.07947,565.12915,1226.58032226563
68,2084.29,495.63336,-1654.0377,-46.95966,274.74738,198.95445,3303.30541992188
69,2857.7568,1183.7699,2159.3044,-22.750431,-446.49997,-597.17664,1946.88659667969
70,1245.3243,786.352,-1836.4261,439.31985,-211.73236,-90.55252,3005.24536132813
71,1946.1693,2665.0054,2168.9834,-681.825,-273.89944,48.014038,1425.77673339844
72,1344.8884,1384.3923,1105.5336,-12.080622,759.8749,-18.318047,1342.37878417969
73,1844.6483,750.6674,-118.563705,-367.73666,187.15016,179.16734,1873.59240722656
74,2326.4434,1329.037,-699.93274,-575.4096,466.7506,-212.24329,2986.17529296875
75,2297.5654,698.8136,-1189.2544,-1668.5055,-93.26051,-211.14658,4201.30126953125
76,1743.2434,756.7634,-817.9955,382.92264,268.2353,381.70996,2469.68115234375
77,1999.9646,864.2882,577.1896,-580.1348,1910.0311,-1797.433,4831.65185546875
78,3366.1802,1598.5177,1689.3855,-317.10333,-140.5925,895.9301,2396.10083007813
79,-2539.116,-8192.182,-7733.282,705.38684,751.96466,2398.5652,7072.62060546875
80,1360.7042,-2435.7004,-3805.613,-1971.9053,1532.331,-126.86774,6344.109375
81,-3561.8118,-2575.993,-1454.7267,-966.9049,-921.44415,-733.0553,3209.119140625
82,-5614.197,2466.019,-11104.019,1766.9128,2527.3364,2385.9563,13615.9306640625
83,8825.651,5638.096,5107.4404,-4216.944,-2414.7603,1.1276165,9109.0419921875
84,-6951.7427,-4455.489,-6756.8135,5423.7563,1911.7891,-4228.2075,12594.923828125
85,-2167.6511,115.41822,611.6524,2260.335,1293.408,1940.1743,6183.07958984375
86,1003.61456,-4430.762,-1077.3838,4017.0415,-515.1078,-2416.9036,9449.0322265625
87,3153.9404,9115.538,4353.939,-1142.8674,1842.494,-2354.3186,7781.900390625
88,1085.6116,-4134.458,982.61774,-745.81683,-1788.5316,1343.5488,6588.0751953125
89,981.0354,1609.1514,-3140.2905,-1174.4308,-885.8434,28.715738,5144.2216796875
90,728.1104,2500.1619,-4008.252,-327.66513,48.1785,-410.57394,5899.24951171875
91,932.9426,1320.8138,455.4293,-142.18071,656.41986,120.14899,1400.10400390625
92,444.1725,2400.3628,751.79486,-279.01486,-224.2928,-62.999893,1927.67224121094
93,1119.6824,749.14636,1527.3381,-433.01642,563.60065,492.5907,1642.53308105469
94,-1672.8834,-15.2131605,-7827.9873,-240.41595,-316.1472,182.99893,7170.078125
95,1219.0951,2421.3948,1976.4971,-9.493663,-22.147596,-706.571,1614.93896484375
96,1941.9022,95.34049,-640.8808,-62.190933,-1301.9735,566.5604,3372.13134765625
97,1470.7168,1268.2041,1189.3805,461.949,-254.52962,108.03804,965.790161132813
98,125.76809,737.1664,-1479.7798,1279.2378,-7.6790013,-464.05646,3080.38818359375
99,1448.2247,3601.3713,888.5858,-136.16684,-536.93384,-309.71445,2713.39404296875
100,1825.9823,1289.132,1003.0852,234.06926,65.32509,1242.7471,2309.55053710938
101,4217.947,1824.484,3453.1746,43.23851,-199.58289,238.33852,2186.00341796875
102,4455.308,2296.555,5242.3867,-4940.3984,-2388.5715,-1601.995,10247.751953125
103,-7784.56,-83.40469,-13938.078,1747.7865,5222.442,2026.5376,15743.8662109375
104,4285.603,988.061,-2003.3663,784.4594,788.9483,1806.6265,6572.05615234375
105,800.2591,1162.3657,7864.543,575.431,1720.3751,-760.449,7686.64306640625
106,536.26776,1700.4479,-80.88541,294.52994,-89.11153,732.9666,2085.77514648438
107,2668.797,1719.3344,-5169.609,848.1436,-365.1629,1037.2012,7790.0732421875
108,3598.5933,2481.2554,3592.3867,-436.04462,1154.4402,-187.15771,2432.12524414063
109,231.23387,2353.6953,-203.56612,-153.53023,-807.82733,362.08588,2835.22973632813
110,56.88347,301.83398,968.47076,-176.89845,-1181.864,404.7693,2333.130859375
111,1447.5131,38.38895,-819.75433,-239.6088,-413.49158,-1098.5721,2870.02026367188
112,-562.41815,1803.2056,136.90988,-50.981915,939.9645,-2440.5115,4995.755859375
113,2355.6472,2002.0715,154.72916,245.27174,-208.92276,-656.7142,2407.51049804688
114,1056.941,645.7405,-3032.7112,892.4569,107.81769,-1264.3486,4736.31884765625
115,1316.6344,1963.8855,-1244.2538,664.65564,173.49469,-445.0102,3262.56420898438
116,2414.4265,817.49615,-1173.4525,-754.3918,583.4322,497.2197,3628.1748046875
117,1761.6838,1549.2059,98.89301,-530.94257,-353.37662,3.7285647,1917.57153320313
118,1146.166,908.3617,-1203.7723,-84.15908,145.2816,338.87195,2334.31079101563
119,357.63156,-911.46826,103.13456,-275.85504,-709.0725,955.776,2414.44873046875
120,3496.2905,-942.7538,-70.84879,-224.68338,-404.9064,740.48895,4345.4775390625
121,640.52246,5031.258,12892.077,-4049.8896,-574.325,-3030.9546,13904.68359375
122,-7709.3506,1674.5764,2682.867,1417.2128,944.68243,-2759.544,11405.4580078125
123,2354.5117,-235.88925,13479.577,-1116.4948,407.62335,3579.5586,14211.7392578125
124,285.67276,4897.812,1992.2667,-1400.6731,149.11847,151.00879,4725.88818359375
125,-5928.9814,-159.16386,-3541.9128,1740.3169,-1699.5681,622.6761,6643.103515625
126,1375.8503,1030.9867,252.61066,683.34485,-322.82062,62.40016,1648.76770019531
127,-952.2148,2345.32,153.97496,568.4552,343.32547,-735.03766,3375.43701171875
128,2700.234,789.9765,-91.78189,-221.13414,80.60057,878.25336,2931.06518554688
129,800.25006,-3566.5132,5650.468,-1206.5878,3756.7446,-945.0482,10637.634765625
130,3570.1199,4264.62,10853.308,-16.383,2619.1208,-672.4516,8390.8125
131,28.343977,-2094.6992,-3858.0032,-203.94931,-623.8406,2787.6133,5997.06640625
132,-1895.3218,1427.8951,-11259.253,-1039.2368,-400.4596,-1117.8529,11718.16015625
133,693.03394,1675.5037,-1523.6644,412.98575,41.38308,784.09784,3227.70434570313
134,1017.2836,1086.1812,1249.5424,-911.78015,-196.83057,-80.01104,1634.67126464844
135,604.12427,794.5189,444.00723,-388.49182,-495.38193,747.69934,1720.03588867188
136,27.57528,-331.42963,13408.829,-20.531324,-3861.508,1597.6302,15374.7529296875
137,-2465.6042,-2263.6296,-16518.777,-1371.8461,49.981045,1862.6547,14711.6513671875
138,-190.27681,153.26343,-1362.0378,1028.4628,629.2102,489.9773,2640.974609375
139,1250.3419,5910.5703,9908.89,1684.7421,-2732.9648,562.34283,9391.93359375
140,1073.5098,4501.876,-58.914917,-272.37613,-504.97177,-671.2653,4388.3701171875
141,2882.5881,469.42838,172.7185,-3228.8445,1932.8713,301.31387,7027.3779296875
142,2152.1267,-1222.7848,4056.1804,-1285.8176,-1841.7764,331.6464,6075.181640625
143,987.4324,1745.7382,2888.606,-691.555,-336.09122,541.3414,2323.916015625
144,1081.4456,1367.5989,-2153.6555,-399.4642,-150.32553,371.9935,3526.34985351563
145,3209.4731,2556.6323,2571.8423,-720.22186,1001.98914,679.8125,2524.09252929688
146,2032.9386,1407.3317,-28.053482,28.074799,6.2251606,-45.99255,1832.62878417969
147,2792.7197,259.97556,-370.5658,-15.657801,-551.53766,-115.156845,3059.81616210938
148,841.44104,1064.4785,-1274.7565,190.75894,554.49023,-61.653225,2458.24682617188
149,1209.8263,479.51703,667.5322,406.87698,-287.4169,892.92725,1888.86767578125
150,533.37006,1879.2585,1675.8706,830.3919,-112.8002,-244.48807,1966.00927734375
151,5422.6763,2398.9824,20932.424,-1800.1318,2081.8997,-111.79634,17870.466796875
152,2049.8748,2051.7488,-556.81287,174.57143,81.511925,350.81656,2698.2001953125
153,-1404.2803,2738.1897,-4873.603,1387.2808,-1367.991,744.5533,7524.54248046875
154,2786.6638,2489.7473,4745.4966,-827.14667,1002.5976,-1366.7151,3895.97802734375
155,-353.63834,2980.4475,-5138.593,1286.3352,-1484.73,743.76495,7949.97900390625
156,-804.9501,1800.0115,3255.0034,-2725.4104,365.65036,-1615.0032,6572.8544921875
157,721.11804,3290.5852,165.0518,440.41583,1116.2847,-583.7845,3699.02026367188
158,3930.5115,3753.0757,2908.0986,1482.623,-797.0846,180.65181,3081.208984375
159,3920.6086,2325.813,3145.264,97.257576,1666.2903,-285.1462,3241.89575195313
160,10.026526,1150.2788,-4520.9917,-510.46768,-1624.587,-510.70047,6039.7705078125
161,2091.2888,1949.3007,-207.20073,296.61255,-373.3803,-86.48013,2383.5830078125
162,2087.1665,3173.7563,3559.962,-124.684265,-807.0396,-1429.6127,3143.47485351563
163,2627.398,410.9202,2065.014,-328.1839,-249.92003,-1251.6453,3031.97607421875
164,2307.4207,1283.6643,2060.4211,120.685104,1056.3086,687.4511,2380.13525390625
165,3509.2092,2479.7183,6637.07,-110.61687,-525.8387,-358.66614,3913.517578125
166,3517.4004,2693.031,12698.41,-93.13575,1426.3888,-1594.4551,10309.9814453125
167,445.84842,328.8533,-131.68747,1806.2094,-30.272676,758.54456,3434.49584960938
168,-849.66315,9102.54,5956.982,366.41605,-4269.256,-1619.0339,11856.72265625
169,52.385857,1697.4252,-9622.534,658.28644,-24.119778,2404.807,11440.14453125
170,5449.5093,-280.63916,2148.1887,-4652.8223,-1900.6615,-313.63776,10044.6591796875
171,-440.51056,-378.9228,-13482.015,-897.75616,1591.719,864.5186,13533.2412109375
172,8307.078,1471.1317,5200.9404,-506.88242,-1453.2904,-18.216347,6500.2158203125
173,-479.73178,66.66822,-1082.8895,-808.9401,-1026.7212,1855.7289,4055.703125
174,1666.5492,2167.8123,3283.5374,-2561.3516,35.568924,-2259.3586,6087.26904296875
175,-1348.7474,-575.8294,-9974.03,-92.90598,-55.421295,184.75674,9044.1728515625
176,10067.83,5679.1685,23060.234,-4533.9307,-2285.72,988.3765,18037.626953125
177,2035.8263,-1882.512,10168.015,-69.36448,-2212.1426,229.46123,11322.705078125
178,1583.7212,2811.269,-653.61163,964.73834,243.34372,255.6597,3524.89135742188
179,1395.4698,419.12088,-1929.5922,481.04556,-217.91245,246.05675,3127.4873046875
180,1990.3257,2148.5547,2451.0354,843.43744,71.40721,-1064.8152,2390.67846679688
181,1684.5531,2146.09,2628.01,-107.14385,-440.03894,851.55743,1859.69873046875
182,1543.6074,151.06001,-3710.0015,-235.00697,201.6909,-237.02438,4762.34814453125
183,2858.4548,5951.3647,6182.815,-1285.6007,1733.3403,1022.62897,5238.75390625
184,1746.8645,1407.2529,665.7833,393.8421,973.96857,-881.93744,2561.55126953125
185,2575.716,1349.7743,6897.8413,222.55849,436.45248,250.63426,5137.20703125
186,-541.85803,935.7705,-4405.7803,1073.5894,-1293.2198,-224.16684,5607.89697265625
187,1603.3651,1983.0521,3262.2375,576.1769,-519.74677,526.29535,2214.37963867188
188,2173.0032,2051.08,-143.09645,-303.69067,64.59919,-337.31662,2393.18774414063
189,2507.542,2101.9888,-245.19084,-799.1115,-567.4556,847.8103,3415.22094726563
190,-10167.551,455.63193,-1115.7465,-2544.2407,293.75583,-1434.9769,11157.2412109375
191,-2877.604,-6330.7393,1813.7383,-1304.1326,1181.2795,3373.806,9673.1025390625
192,-845.4551,-796.12103,-1007.368,746.8793,-1824.3087,-476.90775,3518.06103515625
193,94.56882,-1138.4312,-678.5912,635.02484,-884.48193,-84.85382,2177.85546875
194,529.8743,896.1664,1561.2139,-471.4348,-1418.1606,-1632.4624,3938.927734375
195,2148.5928,-7426.2544,-7498.227,3401.4795,-501.2763,500.63547,11339.662109375
196,3726.8306,-832.8144,553.8464,-1208.2286,2164.2527,2116.425,6946.91943359375
197,414.72098,-2789.564,-495.41336,1434.3281,-28.685493,356.83694,3838.7255859375
198,915.8965,-1032.3384,-8000.182,1103.4811,-0.69003487,-513.02057,8388.328125
199,1809.3331,-2682.6252,-449.04178,652.6941,682.1028,70.19392,4221.61376953125
200,1843.6152,-699.6802,1478.7621,162.68356,430.02927,529.145,2673.517578125
201,-2043.7412,-4896.1494,1237.6926,-1741.3806,-4.1087904,-431.7299,6157.9599609375
202,-1246.3281,-6608.407,-5502.6353,-1348.9174,2121.7063,-1021.7998,6792.73583984375
203,-315.76245,-994.807,-486.242,594.013,-369.85623,-689.7523,1808.48327636719
204,829.68164,439.14532,3575.951,999.1564,322.90256,976.9312,3864.96484375
205,-742.2533,-3203.5166,-3480.7856,845.9507,143.62535,-384.08862,3077.08984375
206,3912.6653,-2121.1553,-114.485306,-360.57764,-1239.3473,324.01733,5799.89501953125
207,2993.4456,-1277.3671,1004.28296,55.83238,-233.21841,-84.30411,3727.615234375
208,1073.4335,-2770.5376,-468.5237,1248.1512,321.15488,-301.71158,4059.88452148438
209,549.184,-1945.3214,-892.8967,-126.35645,-219.76904,-428.38254,2334.13891601563
210,1485.4935,-610.5327,1129.6254,-105.82626,-205.72633,-652.563,2283.01147460938
211,1954.4327,-2011.1475,-294.19058,-896.9477,376.70612,-117.53211,3840.01904296875
212,2209.2778,-824.83514,-542.52826,-613.40314,116.81163,786.21265,3384.24340820313
213,1571.5352,-3014.0571,61.39429,-1245.9462,-31.729216,-157.32353,4595.40087890625
214,1748.2028,-2196.4534,-865.62244,-907.1718,-736.9748,691.9678,4197.2001953125
215,3307.4485,-2708.5942,1275.8363,-1377.0807,-885.4,658.611,6118.83251953125
216,1990.5598,-1322.4725,1710.7205,-728.81976,-1828.3129,106.78693,4667.2587890625
217,2882.7275,-3288.2637,3542.541,-2996.552,-2285.2786,4195.3745,11747.21875
218,-4171.1294,-2158.4082,1523.3202,-4915.5566,462.31247,-444.61542,9936.740234375
219,1434.2892,3553.7986,-4620.2944,-1185.061,-1573.2104,-1630.0219,8578.580078125
220,-2536.0725,3178.3462,530.5817,-1608.8328,1659.0251,-790.9454,6514.1162109375
221,-7443.228,869.82434,-4008.9612,-261.9157,-445.67093,-1744.402,7891.91162109375
222,-2487.434,5137.4585,2254.5322,-2603.833,340.26785,671.90326,8155.35400390625
223,-6756.1265,-3162.797,-4099.2583,-2098.6604,395.7789,386.18564,4955.24267578125
224,-2843.1702,1518.6873,-2235.635,-900.28864,18.287004,-871.597,4632.11865234375
225,-3521.6807,3441.3628,-5407.9863,-249.52599,-220.28958,320.78653,8112.806640625
226,-1501.0793,1839.681,-1165.6649,-547.9928,388.91223,199.18333,3409.73779296875
227,-1327.8828,2204.2961,3162.034,-1465.1218,326.4295,-107.89632,4854.9755859375
228,-1179.4186,665.93384,-1075.6328,-1151.4878,288.2344,94.16672,2734.62744140625
229,-1206.5259,790.852,-3775.5964,-372.03796,340.2439,1045.7225,4445.693359375
230,-1276.0828,2436.333,-5968.2754,-922.179,-295.19412,555.12744,7546.869140625
231,-651.1723,1184.7731,812.9194,-520.7507,211.77292,6.0431423,1942.79809570313
232,2714.3062,671.3307,7967.6963,829.5442,729.4201,-589.1322,6870.6787109375
233,-1398.1112,2428.255,1507.5018,-506.0727,507.65753,933.4422,4015.11474609375
234,-35.08721,344.97678,1113.4789,-309.90234,864.49097,-147.89381,1903.39001464844
235,-2160.97,-288.5784,-2794.7317,362.67715,1113.7145,-557.12616,3184.49462890625
236,-400.24292,771.41986,926.67444,690.2577,572.5119,475.0038,2160.64013671875
237,-52.295628,-1767.6649,-940.5215,511.24002,340.7637,-391.49506,1949.37561035156
238,2070.3723,523.58527,785.3047,506.15347,-316.7777,-542.3866,2002.09655761719
239,1711.0872,-1114.0378,874.4206,28.240396,209.3092,-449.13217,2656.43310546875
240,2679.09,-449.40677,1790.4841,558.92053,59.38522,-184.97676,2974.47778320313
241,1922.5103,522.0322,1277.9495,-11.477707,345.47552,-290.51477,1444.21459960938
242,2906.2056,-86.19188,-1500.052,-47.83357,-82.080925,293.9986,3933.275390625
243,2596.8171,-103.075134,819.3264,-434.93558,485.56766,-604.3361,2832.02392578125
244,1644.7426,-422.725,-2319.066,48.415134,-673.3908,208.32748,3645.3740234375
245,2603.3977,-752.50305,1323.3519,-586.2638,727.60736,522.65076,3470.40698242188
246,1520.2726,-1091.4502,360.09256,-222.07736,-214.65804,-94.03618,2334.47265625
247,2042.0778,240.08203,-767.3583,-269.9552,447.16205,531.82336,2782.89868164063
248,2757.3345,-4.8900666,-960.2956,-638.4787,-948.88086,1130.0176,4351.625
249,1871.0896,-501.72202,207.33495,-278.67142,-101.153275,268.17773,2220.3525390625
250,2420.3108,-322.5617,68.56556,-1431.1609,583.2927,-460.81305,3795.51293945313
251,2340.5483,-797.89996,-2322.5586,-910.85626,-400.5389,-298.36432,4494.08935546875
252,559.4197,1056.732,-1506.7787,-1757.1827,-383.34305,438.6377,3978.08740234375
253,1973.3406,749.4311,-218.4749,-1703.4255,1522.2661,1470.4275,5075.70263671875
254,-944.1936,-324.8229,-8858.642,-1088.8987,-116.01265,1082.5186,8662.3955078125
255,1799.3783,4169.797,-1718.7092,-3471.6504,2641.5034,1636.9777,9563.677734375
256,6595.073,-555.0272,9674.629,-301.5966,-1481.5422,-1491.0781,9805.837890625
257,-3677.2786,4214.8857,12275.677,-1541.7181,-752.97015,-387.46826,14147.8505859375
258,-3274.7104,-2043.7625,-16549.781,1279.6884,26.240208,-4277.703,15934.0751953125
259,-2196.9023,-2570.3333,-10187.352,-94.737816,1027.129,-384.09637,8039.7353515625
260,3600.2744,-3627.021,5096.148,-2173.1152,-2309.5337,132.19467,9772.6201171875
261,-504.77597,-6716.8228,-8898.699,2515.036,-296.35706,135.53027,8729.1943359375
262,-1924.9858,6628.204,1139.6896,-1048.6725,-143.03555,-4424.449,10882.2939453125
263,721.3012,1600.5343,-581.8014,1692.1765,2615.7185,1542.9467,6314.68505859375
264,-406.8389,-672.80664,-648.3413,-618.762,-789.3585,-781.20374,2216.64794921875
265,-6197.769,-4051.2402,-13979.667,687.13074,-2453.4363,541.4736,10110.572265625
266,1310.8175,-422.72406,4959.396,-2144.2466,-275.69705,513.4204,6120.00537109375
267,3491.5105,332.96298,15384.709,-1951.1598,1740.5641,-1192.1018,14620.6328125
268,-1324.385,-760.27295,-5653.8174,-1806.0316,1255.5472,-703.6812,6124.0869140625
269,-1192.5488,-11.821778,-1411.546,-425.41138,-219.27492,287.77185,1623.65600585938
270,799.58435,-1086.9679,-284.54187,-3072.419,372.4631,-36.25608,5606.11767578125
271,-604.8632,1127.6516,3402.009,-1633.4995,-257.702,1417.614,5133.00537109375
272,-2889.0862,1885.1483,-1083.5197,-828.82227,-15.719893,15.450746,4415.369140625
273,-1756.4856,2441.9946,2036.627,-199.631,262.7482,698.3386,4228.3955078125
274,-1147.3479,2028.7633,1944.7708,-427.4556,179.05194,-481.414,3341.79296875
275,-2361.711,1942.4088,332.7556,836.8045,-468.61218,-370.23865,4166.41796875
276,-992.60583,1603.2788,1165.0608,1566.7498,924.80945,549.1427,4077.70678710938
277,-1975.6251,2568.3628,3261.4568,1535.7622,302.38193,-282.3243,5645.06298828125
278,-3638.0781,-3193.9858,-3862.8357,1915.4799,1630.9293,2.8229706,4397.10693359375
279,-3498.9868,-2915.507,-1101.0094,871.15753,-273.39728,276.59036,2724.3466796875
280,-1789.147,-7473.317,-6518.759,901.1887,688.51196,732.0241,5767.25634765625
281,855.69745,-2090.244,133.54399,-611.4754,-20.326014,777.30426,3163.57470703125
282,-1759.8909,2567.4946,103.98609,-1076.456,602.75903,-606.81177,4450.33447265625
283,-3005.9873,1193.9202,-2331.429,834.53546,-942.50555,62.635696,4475.18017578125
284,327.59988,-832.47906,-890.14874,407.58084,-133.95609,-351.42673,1529.28466796875
285,310.65076,-535.0743,362.97394,409.66153,-246.86758,-382.23087,1373.62280273438
286,932.53094,-1120.8069,-1885.5809,109.99909,1048.1819,732.38605,3363.47119140625
287,385.99225,-180.58011,1072.3605,-1037.449,208.73015,-810.46454,2551.69482421875
288,-1296.1449,822.7366,511.60916,-600.5836,144.55577,379.34702,2346.0009765625
289,-1009.99646,729.02094,-534.4871,62.82745,276.19275,387.36743,1764.71557617188
290,-222.39171,1101.5817,3368.875,1347.3385,289.17874,-319.66602,3987.32421875
291,-61.06121,-2120.4429,-8338.701,-760.1947,983.3284,1251.5846,8065.19873046875
292,1030.8221,-3499.86,-2096.324,-582.28625,1271.7916,128.5526,4696.501953125
293,-3231.0598,-3205.2947,1924.2029,3211.9949,-1659.8914,2410.4165,9115.4453125
294,-162.17102,-2669.1533,-2332.0508,30.18865,-187.57596,-204.11641,2405.57006835938
295,2740.117,-2463.0427,1032.0121,129.92874,-1024.1198,556.433,5022.8388671875
296,1219.098,-782.74805,-1411.0016,-190.60834,1077.4834,-246.90788,3071.57177734375
297,1025.0623,-1561.8806,3038.9182,813.77576,-378.60846,-114.89957,4291.14794921875
298,1893.2145,-590.32404,61.790104,6.1228256,-189.80907,-104.254486,2261.51879882813
299,1741.346,-206.48128,-136.87679,-844.5313,45.507072,212.2839,2438.11474609375
300,1723.4037,-458.76114,-3344.852,-794.9797,275.49207,1148.2118,5046.595703125
301,1880.0698,-79.64728,962.50934,-1003.69617,60.102898,-42.038383,2433.64038085938
302,-5019.267,4196.9175,-107.75469,-110.81162,2420.075,991.33154,9184.27734375
303,-5044.331,938.13336,-2586.678,-2433.6292,899.11475,3041.217,8664.12109375
304,-6313.9546,3292.0803,1770.3374,2802.7664,-540.7797,1321.0687,10471.541015625
305,-748.705,1592.9042,1361.9185,-267.1192,385.25986,119.857414,2387.05688476563
306,124.78894,2706.791,2883.1274,-1453.2054,-1847.4888,-606.23834,4983.04833984375
307,-973.9523,3104.13,1126.4429,-1072.4183,195.44267,-191.84479,4018.96508789063
308,-880.9303,2637.8704,3210.983,-73.116035,2038.7899,-481.8698,5282.96435546875
309,-3908.0066,1515.0287,-4129.373,763.72144,-1525.8396,-367.0416,6308.51171875
310,-12.273506,-195.7477,124.36143,163.81082,571.51074,-480.51953,1352.94995117188
311,713.6492,-1836.8046,299.11163,-1047.1687,735.8659,3372.0422,6681.7353515625
312,1537.8157,1111.4716,2349.0325,581.3645,265.66818,804.78314,2086.724609375
313,-3695.083,1487.077,-14235.482,700.6151,1795.6309,66.345314,14273.5947265625
314,-470.91864,1717.9106,672.18677,469.69534,19.890776,-420.08984,2188.16259765625
315,514.4456,-1037.7981,3120.547,-2238.1636,2185.1963,1472.7783,7007.6484375
316,1722.3606,1528.2329,5446.372,-1010.19934,409.2867,246.37286,4286.61083984375
317,227.45076,-401.79794,3005.503,877.4469,-629.79956,50.937443,3656.375
318,2043.6147,-5959.513,-3128.8289,1634.3635,490.43192,-167.09204,7630.6796875
319,3283.7642,281.5317,7947.207,924.59625,1267.0011,271.336,7236.2431640625
320,4915.2524,-1933.8757,5440.672,63.16448,-1656.8342,-1069.2019,7903.298828125
321,-114.3332,-3164.5396,-2446.6724,1206.3004,0.07396357,992.1614,3866.275390625
322,493.88443,-2983.1538,423.05667,-259.7892,-1670.0354,287.447,4545.98095703125
323,1227.0109,-894.8807,-897.8599,126.332596,50.416836,-134.88019,2149.14819335938
324,964.44824,-2739.8408,-444.0011,-91.70929,1635.6838,-3310.7183,7170.93896484375
325,2368.801,-1168.8483,434.91687,-536.0435,-32.007324,-986.83344,3633.19262695313
326,110.12429,-2317.0803,-4046.098,714.0541,929.2628,-643.5442,4294.20068359375
327,-8699.346,-16243.224,-3104.2295,3981.2688,3970.587,-2193.667,15482.5380859375
328,-6241.2017,5221.15,3054.905,-1742.3718,1431.6339,-235.53435,11254.8037109375
329,367.31964,1452.0812,6583.5938,1148.7297,-461.92075,-822.8894,6301.26123046875
330,-6202.268,-2987.4285,-1960.351,355.30533,569.04474,125.501755,4011.15747070313
331,1893.9083,-937.3647,1187.4886,945.36426,285.7055,-56.304924,3074.18334960938
332,1865.514,-357.23566,205.85114,-7.729768,365.83966,839.71924,2554.04833984375
333,997.02155,-568.5278,-294.70016,-241.46094,565.2919,-412.40784,1934.1796875
334,2667.8062,-378.41782,654.8387,-365.44775,370.75583,317.3247,2883.52026367188
335,674.5421,-85.462814,388.89722,-146.96237,-107.49922,744.5923,1484.86499023438
336,2205.036,-265.5964,2475.412,-889.7924,195.4021,275.14716,3092.24560546875
337,1095.9247,138.75037,-458.78418,-112.99107,-889.55206,971.5166,2662.50219726563
338,702.18335,2722.7158,-5424.6533,1808.0719,1125.3505,1672.0254,8717.4404296875
339,-2451.8528,699.0423,6013.467,173.52225,-1474.6907,3653.2812,10078.208984375
340,2282.8367,-740.91174,1866.0964,987.49805,1596.9385,-968.47845,4631.04248046875
341,-8313.076,-1145.5972,-16538.432,-3084.75,58.04855,-719.72925,14425.5146484375
342,-1117.7065,1477.8823,3352.867,-2174.639,-374.02972,-623.7733,5558.189453125
343,-1879.7458,-256.6571,-1081.6876,364.21164,326.26456,-867.2284,2224.75756835938
344,77.3999,580.34344,1350.2189,227.83667,1665.1086,165.00282,3128.5830078125
345,-2190.9973,116.98299,-5181.233,-1093.5885,-213.09904,-228.00511,5004.96630859375
346,353.5782,351.5219,1836.7388,1325.694,-243.93388,-274.52783,2807.10180664063
347,-356.8167,207.09744,-978.83746,277.60403,6.6286154,-536.3038,1466.24157714844
348,-1649.1545,394.4678,-334.3711,385.61478,-623.98315,-104.79111,2205.72705078125
349,2048.396,-2642.969,80.53692,-869.5279,-253.3361,62.03226,4372.84228515625
350,1782.5541,-1314.975,6.594608,-70.23741,96.770775,-355.99332,2769.6064453125
351,-677.3658,-336.95322,-4226.586,-1368.5387,-672.2816,230.04109,4588.505859375
352,-202.2616,278.6879,761.3156,253.61401,-398.32327,-1003.8429,2094.8525390625
353,470.71338,-103.84959,-1254.8992,724.8169,623.6248,-367.08795,2337.40258789063
354,-1143.6184,-2136.7803,-493.07343,-2386.2927,-1037.989,2236.0269,6113.14697265625
355,-2175.2307,144.41481,-1325.4504,2699.9211,347.17868,30.096922,5134.65966796875
356,-609.23987,2928.0176,6198.4634,240.80127,501.92752,1971.2997,6882.16796875
357,384.45236,-133.08098,918.14404,546.18335,12.213268,88.72219,1322.07482910156
358,459.8897,-100.37682,671.7741,763.9177,244.55182,-664.0079,1931.41198730469
359,-1429.8092,-757.90485,675.1066,625.03595,-69.00261,115.16932,2166.54321289063
360,1028.6117,196.81523,671.9898,-472.54465,4.5347066,-60.51061,1096.98181152344
361,829.2004,-1283.1576,-621.2839,-410.75998,-292.28113,-209.28767,2096.63500976563
362,960.4157,223.02061,-443.44263,-262.48685,-143.77962,91.8801,1331.69555664063
363,-531.3262,1259.1252,79.38876,-427.77887,-19.757738,26.417097,1742.83752441406
364,-1199.8628,87.395325,200.9533,-886.91876,288.3277,20.39038,2103.95532226563
365,-535.1496,-568.0848,-363.58807,301.16074,28.10739,-219.37213,674.5400390625
366,-623.62213,-25.929958,-302.57007,-549.21387,148.75516,-93.41729,1125.11877441406
367,938.5049,-1770.2754,-243.92032,116.57499,-83.686874,83.405075,2369.67065429688
368,544.55145,-1748.5426,27.519117,203.63391,123.32865,-34.38084,2124.517578125
369,568.5358,-2079.65,-510.6623,829.5181,264.26865,-20.902576,2755.85986328125
370,-247.99155,-878.4679,30.606026,53.85545,-98.18191,167.32962,878.853881835938
371,-636.2932,-426.93436,170.37695,233.81287,-114.852234,-35.551105,856.17431640625
372,-684.0318,-29.749205,-155.0093,482.72855,-5.692988,-10.553237,1030.20971679688
373,-1056.9423,-530.60205,280.62036,1075.2297,125.351585,-36.99911,2209.45629882813
374,496.6431,-1077.4651,400.53876,-644.7219,-34.018612,-14.920736,1893.91455078125
375,-1126.2578,613.40967,143.91371,-325.59265,50.66813,-51.94083,1662.50695800781
376,-1129.8646,774.339,-271.69815,300.9736,78.92817,179.26784,1764.98510742188
377,-823.63513,-535.5058,-279.8941,102.52507,-0.9614177,-187.27196,598.961059570313
378,1751.7291,1027.6296,-53.672733,174.63974,-153.93427,-38.153893,1625.87109375
379,-1046.7401,-2379.9006,-625.70374,-259.5338,319.96582,-10.009794,1739.36950683594
380,2014.5614,-1189.2363,107.122215,-510.10233,-56.030796,71.70892,2932.07299804688
381,1671.4412,-1309.5513,789.88696,-71.72313,-9.672724,-117.67632,2663.23168945313
382,666.375,-1240.538,-863.29956,431.63263,265.67346,-49.19438,1958.87536621094
383,95.60776,-686.3991,-151.76212,402.0265,207.54745,-113.580826,1063.99584960938
384,-664.94635,-986.43915,248.44759,616.80023,-87.28522,131.51897,1564.40771484375
385,-1123.6155,640.49084,21.84116,719.31024,-2.4480171,-194.32849,2017.16748046875
386,-709.7175,-1308.1473,-318.8763,840.5181,258.04938,-108.687325,1760.50720214844
387,-721.7474,-149.23024,646.5969,-1138.3262,-325.75665,-99.76253,2377.45874023438
388,-1422.854,-1981.2207,-378.49005,-1230.3802,-74.36963,-369.9981,2637.1201171875
389,144.17511,138.27148,236.12491,-652.06213,15.76224,270.09482,1226.45275878906
390,228.94579,-736.93054,58.44308,-437.07196,175.68938,-56.35975,1213.47802734375
391,702.6278,-1415.8417,659.0287,39.858913,-226.15646,162.01097,2152.76538085938
392,909.3291,-1997.9507,-635.69135,-12.558169,-79.120834,-44.505688,2524.43115234375
393,574.9325,-754.56854,755.2109,100.92522,-66.142815,101.15244,1454.00524902344
394,432.6648,-1606.3335,47.484562,274.21802,-101.58893,41.4871,1944.78967285156
395,-1495.2225,690.3809,-137.78606,-864.0215,161.2507,41.5333,2444.47509765625
396,-1606.6608,-1122.1165,132.78157,-455.1238,-37.984818,16.829884,1744.76281738281
397,-727.4406,-212.11655,-58.0263,161.10602,-13.336308,-44.034027,672.9970703125
398,704.14734,-1039.3269,118.13227,-51.135845,-191.66187,128.80034,1590.35522460938
399,278.58252,-483.98822,-89.17628,-684.0337,321.55682,132.32402,1484.16638183594
400,1267.4154,-1212.6957,592.7455,-363.28976,-130.1826,-58.735466,2321.63842773438
401,1175.1205,-1312.753,-726.7559,-452.1602,146.06114,61.453068,2400.77026367188
402,-1309.725,118.852585,67.4394,-755.8676,-81.436325,55.97074,1927.00048828125
403,-376.34805,417.3003,-310.54083,-125.52513,-81.22312,113.70551,829.354309082031
404,-1512.1624,1178.8754,493.55795,-522.6044,-283.03384,124.45966,2640.69506835938
405,998.08905,-358.25558,448.7021,-715.32355,14.963163,40.899773,1713.79467773438
406,-523.8189,-771.2007,-105.163635,43.440792,-15.396985,-34.927074,591.667053222656
407,-335.2641,-404.75717,-250.63173,-660.16003,-176.53354,176.27339,1229.64074707031
408,559.7341,-1674.3184,845.4816,-1681.308,-11.093283,434.08798,3841.49340820313
409,441.2066,-770.69995,127.2195,-613.6336,-263.379,102.26631,1598.71875
410,-1747.3468,-116.495476,-687.27545,-1037.3615,-82.71171,-201.73209,2329.28662109375
411,287.3365,45.777416,-323.764,-491.62314,26.170124,17.3582,1006.08953857422
412,-936.7555,-1018.8535,204.91684,475.28876,26.788706,-95.34529,1452.93078613281
413,103.82588,177.88065,1586.1431,-929.891,-118.63697,-63.434723,2177.46728515625
414,366.45044,-809.75055,237.92366,-102.42303,44.841934,45.635944,1136.90209960938
415,-62.469894,-833.92706,311.8814,-349.4368,-2.0981073,427.03937,1391.94116210938
416,-860.076,-1238.9298,-395.16006,801.125,104.058304,80.132614,1585.23315429688
417,37.80789,-760.3667,959.2915,482.9862,19.455072,-46.86066,1711.51098632813
418,30.262054,-1055.5206,34.518738,-450.4889,0.35263327,106.97342,1351.56018066406
419,-616.5055,-883.4123,156.7484,-91.61239,31.095806,213.689,1020.10577392578
420,-203.64455,-73.16474,-462.4947,-309.51303,112.86155,-55.963413,672.909301757813
421,-865.71674,-122.42933,-658.15515,-773.24713,548.03436,87.0907,1777.29919433594
422,-1371.1973,59.937992,-547.1606,-508.1184,1.0707867,-84.99657,1531.04748535156
423,-1397.8616,70.246475,-719.04755,-1652.7736,201.79152,326.60947,3202.611328125
424,-218.62187,-505.73587,-58.15602,932.5765,164.21906,173.8599,1713.166015625
425,-404.94867,497.0326,-184.16273,-257.93655,-239.65349,-0.83826417,1017.38348388672
426,-815.4507,-155.50133,-4.466965,-533.02386,-50.600952,-30.072657,1191.95520019531
427,-1114.527,868.99097,-240.54565,-1319.251,-35.29484,-116.01427,2868.80004882813
428,-2111.5063,-387.0407,-149.21132,-309.26257,16.383444,-40.83569,1932.15185546875
429,-759.33777,-482.5313,-715.4717,-944.27405,-18.314798,-16.036266,1656.24340820313
430,-632.6024,-998.2809,-703.1805,516.8046,-151.63576,-147.2703,1023.81640625
431,-856.3759,-348.6737,156.18608,-565.0788,77.33602,-107.360825,1333.95166015625
432,-270.2568,-687.70514,-11.459653,326.0173,-184.73425,-152.50375,916.672119140625
433,-914.83026,715.0953,72.77164,-426.67706,294.03598,-61.42792,1684.97729492188
434,450.12103,-1372.2753,-509.71533,-104.9809,-119.29678,-27.522156,1603.50939941406
435,238.51212,-816.92175,-154.23401,-730.5485,-40.508392,71.98795,1573.29138183594
436,1042.7223,-1277.2788,-250.47182,-211.4653,192.13898,-182.16005,2097.37841796875
437,-969.70074,-1305.0099,216.07622,-487.65213,-88.523994,-9.290712,1628.89013671875
438,250.72676,-729.8569,78.51781,-523.32874,66.02742,-48.5401,1290.00048828125
439,14.240469,-1898.3867,-773.5794,-217.18143,-151.86464,-204.83002,1763.10949707031
440,-279.33206,-499.58038,724.825,-465.15262,42.820175,16.999533,1390.49389648438
441,-83.44758,-1457.3643,-561.33215,-538.74866,107.386566,-127.56217,1553.57958984375
442,-1761.8398,-1046.7007,177.98354,84.40496,11.507265,-111.69392,1716.47644042969
443,-159.72269,-845.02014,71.5262,489.9256,-53.26906,121.27001,1205.94213867188
444,-108.02962,-987.6184,-623.6847,-1174.3193,-223.2564,-163.13518,2225.412109375
445,-931.85474,-93.04408,-62.224373,-331.95834,-10.580486,15.280793,1030.54858398438
446,-381.38763,-233.76662,506.59518,-760.07794,265.24884,317.71338,1710.63513183594
447,-760.61835,-817.0074,212.20901,-980.9589,-163.84439,94.840004,1999.69738769531
448,-900.75757,388.7541,388.4296,-248.51562,-375.7802,-171.50894,1536.09252929688
449,-851.5316,-2572.7412,-543.45123,-227.50813,-49.395542,23.386097,1937.00463867188
450,-318.01062,19.613497,98.70537,1118.2877,-15.044293,97.92739,1981.943359375
451,-227.7412,-9.537529,50.275135,767.14813,108.33449,293.1615,1456.99377441406
452,-873.8073,-1438.9198,-68.78083,438.30817,-78.83773,-22.411692,1420.86083984375
453,-1030.2855,-191.38275,630.1865,-1.16065,-141.08298,28.16021,1459.46801757813
454,-397.75125,-471.72025,1114.4169,-542.01447,-86.556694,71.8762,1822.98962402344
455,-1532.5653,-1732.1455,-392.3566,-511.2596,23.861174,-63.536705,1538.00170898438
456,-811.3585,-358.42865,-188.41197,-136.473,53.176964,-23.93151,614.111511230469
457,-496.08786,-27.635372,337.6816,5.986341,-5.425887,-146.09818,766.986145019531
458,-955.0355,500.7147,-169.90022,24.598444,-80.06896,-117.26913,1286.46411132813
459,308.9296,-511.83707,-650.9831,-670.8057,40.751408,71.18639,1475.58520507813
460,-568.8106,753.23505,86.90945,-101.85005,99.2758,-45.377213,1173.7744140625
461,-862.46967,-1826.1184,35.372,-464.98422,-17.252964,131.50299,1816.96057128906
462,-227.38464,-867.0966,-378.6478,-86.42683,101.36586,15.367136,623.9306640625
463,-111.52045,-260.36057,310.4739,-133.85323,-81.729454,73.72471,594.253723144531
464,-722.6917,-103.42673,20.713203,-537.4699,217.0095,-92.16437,1228.47839355469
465,-1109.5605,-348.64188,-563.5536,340.2283,140.60812,-231.62608,1014.48687744141
466,-873.7171,-630.1734,-421.17056,189.52687,-54.98987,-84.056786,540.302368164063
467,-1109.0162,-711.08997,233.99365,1079.4487,-54.46713,-158.5882,2237.76245117188
468,75.69095,-1002.08875,-390.42538,-350.89264,-75.165436,-214.05653,1183.33850097656
469,-178.04993,-328.36838,73.597855,-440.25015,-199.14813,-9.942186,908.012451171875
470,-643.89484,-1066.9951,763.7674,1172.6964,84.48949,-105.78832,2633.77075195313
471,-2217.738,-2122.5374,344.54364,81.75515,152.19476,33.284267,2534.419921875
472,-325.106,207.38113,184.65387,405.77106,-11.688734,-151.69249,913.974426269531
473,237.22772,3252.402,-259.18024,-296.75604,-13.819654,278.287,3366.23681640625
474,-641.80597,-133.38268,246.80275,357.05408,-175.1688,-107.55815,1051.45227050781
475,-541.66174,-475.99582,-406.26514,130.62589,41.478497,84.02422,302.132873535156
476,175.50966,-637.74603,149.23196,-147.24736,292.16632,-174.93628,1026.47058105469
477,-249.70361,843.0449,244.9933,-500.88617,-3.3784304,81.97813,1292.7109375
478,-503.33215,1170.3253,-541.6949,-133.77916,-74.65821,186.67828,1744.06579589844
479,748.711,2385.0786,250.0742,115.878685,197.3344,-45.735535,1976.27734375
480,1321.7256,1944.5793,-88.76907,-536.61127,58.21558,-278.55164,2088.72436523438
481,543.6843,-458.86694,-243.11424,-18.05993,158.4355,177.4919,1003.06988525391
482,-1591.9238,-2520.2551,-291.27087,-460.15195,-16.260653,-108.19982,2105.24780273438
483,-2176.3997,-810.27783,-4.67372,-217.42441,160.0208,63.579845,1961.27685546875
484,-596.42175,-332.39352,186.29645,-927.0708,-21.647558,1.349058,1747.99633789063
485,-2213.2253,-711.7285,-184.49156,-215.89427,10.409533,-123.347206,1873.47692871094
486,-760.14496,-1038.7931,611.0537,320.08514,63.213764,-79.681625,1636.55480957031
487,-716.3285,-929.0991,-393.13596,564.21643,173.88474,38.454525,1126.34594726563
488,-4165.0176,-1282.0858,-98.33595,-53.263542,-67.831764,-145.15076,3634.65942382813
489,-2912.817,-413.22736,318.97552,5.0310664,129.60051,-2.8785071,2943.59741210938
490,21.778967,62.011097,-194.29808,938.2037,-12.058454,-97.01149,1651.16613769531
491,752.9358,-828.3604,195.30748,817.193,56.47155,-158.48837,2004.49670410156
492,493.1206,-82.398865,19.63127,-566.35114,156.2446,13.792399,1148.46899414063
493,-373.6292,-1317.9016,-225.60214,639.24524,13.919237,322.22055,1609.75256347656
494,-1038.8937,-805.9093,-304.22562,-399.8838,-209.0089,-102.11624,1031.9453125
495,-1883.9629,-1933.4792,158.3788,-37.780426,184.54459,-58.473045,2095.57861328125
496,-384.67538,-2195.1294,356.76794,-244.91312,-47.462475,-26.200356,2314.86401367188
497,1081.1399,2010.1191,682.69727,875.0102,1.299251,-346.38358,2012.15856933594
498,-398.44537,-343.125,-282.77908,-342.31918,57.01975,39.049644,613.119873046875
499,-1094.145,-445.12207,735.96594,439.82843,-132.4662,28.142256,1793.91137695313
500,-2855.6335,-2130.359,-78.73784,664.5647,143.6768,-165.24248,2773.435546875
501,-893.2618,-132.08629,-396.58978,1201.6875,-59.70213,-147.12943,2203.59008789063
502,-486.65463,372.68463,49.49579,641.378,-113.88113,-147.04568,1379.51342773438
503,-2176.2173,17.427464,-77.88658,1139.1082,-131.6766,22.996656,2925.47119140625
504,-107.83916,-457.47955,413.4215,193.668,-95.212814,125.18939,873.470275878906
505,-1151.636,49.957825,483.09293,-497.34857,36.19293,129.72792,1717.08203125
506,-370.82593,-1610.5879,950.053,-543.66327,-8.171731,14.425652,2409.73852539063
507,-1443.5382,1251.8228,-628.2431,462.4138,157.98738,170.18689,2556.4453125
508,302.74963,1807.1241,-290.5497,-79.14646,279.71265,-104.41704,1947.79626464844
509,191.63783,-298.24835,263.9447,-476.0578,35.26998,4.003752,981.993835449219
510,-1946.0214,-454.8854,108.624214,728.63885,53.903664,158.30215,2248.98608398438
511,-278.42194,2510.8188,16.335716,-367.73822,62.188034,-36.57681,2732.380859375
512,-1573.9056,-465.01587,-85.32892,604.1539,15.262191,-16.427567,1700.39514160156
513,-1967.7891,2659.1428,-462.43475,98.27171,-4.556257,-41.42564,4091.89453125
514,377.5837,-88.599625,339.84976,241.93481,33.797398,179.5106,690.547668457031
515,-1284.5824,-589.39655,293.30554,386.44104,-139.12024,-362.70547,1666.38146972656
516,223.18321,-791.2546,-191.44339,-6.8391805,-10.197802,97.230385,899.555419921875
517,-80.20623,-506.84885,13.80307,794.55,-115.36357,-49.80477,1473.86120605469
518,-549.8217,-458.63733,692.597,-446.7214,44.647194,-136.41798,1448.83386230469
519,-1614.4617,389.27844,-684.7996,-134.78569,101.07434,82.3926,1766.90698242188
520,-1737.984,843.0549,-309.39606,-191.63275,-79.60398,-133.04486,2279.83911132813
521,-955.4449,468.47287,742.39453,-665.2906,-57.531837,229.43866,1997.07470703125
522,1065.6648,-744.9147,-1964.8156,26.326149,-209.45987,-33.760174,2666.87109375
523,1532.4366,-551.55914,-1988.2239,213.97935,178.4131,-89.80413,3107.748046875
524,-2085.985,1171.8933,-612.6022,-802.57245,153.28615,101.10231,3165.13012695313
525,-1797.9352,-1886.0785,495.8182,61.529713,78.32221,175.21953,2364.97778320313
526,-3100.5403,-2381.2925,472.95657,-18.106058,102.27085,8.529076,3278.65014648438
527,-1830.8901,-113.61859,261.92468,-92.14459,-32.71798,-76.19876,1944.49645996094
528,-982.20624,-1753.9998,-82.837,153.11032,80.51366,79.59181,1485.74487304688
529,-446.92783,237.06363,190.86465,192.11545,-143.58388,-70.10812,791.010986328125
530,416.15182,-434.67593,-29.541037,1579.8323,-12.34976,-72.40682,2836.74780273438
531,-2027.3651,-1283.2198,-802.19977,921.7258,-128.17001,31.434261,1934.95837402344
532,-1727.1505,-2318.339,401.8225,-9.601314,62.47077,-381.7023,2567.04663085938
533,-2216.8774,-2696.568,-241.41441,1202.0729,-22.656628,125.05128,3076.2900390625
534,-327.4499,1014.1103,471.6221,-402.55438,-106.948975,-346.7109,1499.12854003906
535,-1377.9476,198.67392,237.97014,-579.9005,-115.71668,94.577484,1903.96813964844
536,-1224.3275,5067.7275,-114.0734,1156.0925,195.74826,-19.24598,6161.3759765625
537,-1682.1033,1191.4296,-725.6837,1439.7651,11.682326,236.01973,3579.09521484375
538,1472.6744,-528.0526,1648.0597,1028.5137,274.93964,-122.53845,2798.19775390625
539,1727.1426,-678.86084,1668.8998,1237.886,-142.29752,52.862022,3212.21533203125
540,1039.1388,1883.2023,-288.2436,-944.2003,92.23109,75.62622,2512.3701171875
541,-1888.4156,-487.37244,-70.2817,1524.2611,277.50705,-134.55595,3158.59326171875
542,-1573.4888,-1210.2269,-279.17108,1745.5747,95.37054,27.578407,3241.55859375
543,3102.154,511.80997,-822.2488,-28.727062,-70.06993,-164.6245,3470.41430664063
544,-1254.6656,-476.2086,-481.65472,-1541.3417,307.91977,39.0963,2831.6103515625
545,2779.1836,466.12778,-929.94037,-203.4206,197.2864,-18.904556,3281.828125
546,2967.0374,-1060.3726,-797.30005,-1458.9012,96.465836,-171.50009,4661.6591796875
547,1785.0858,-977.4723,-1040.6112,-2212.9998,-110.3867,-31.78377,4747.8232421875
548,2696.1226,690.642,26.244238,-465.9518,19.203392,-144.01611,2551.56323242188
549,3038.6895,1082.9664,166.3203,-646.62494,157.75589,-19.134193,2790.68603515625
550,-736.5566,-686.9147,-230.3091,-1298.7922,-170.3127,-10.332186,2319.81518554688
551,-2480.1145,-3467.9038,-311.3512,-985.2175,154.31099,4.285256,3287.09521484375
552,216.10185,3223.2917,-247.49821,-333.32486,-54.386654,106.53587,3320.9169921875
553,1306.0497,-1069.6371,2170.1758,-1123.3103,99.286835,191.91087,3516.96411132813
554,621.3648,-213.5936,2052.7903,-752.43585,57.996777,-183.03491,2397.9970703125
555,953.2779,1077.0211,-179.2551,-144.10568,-27.401443,-66.60534,1231.23815917969
556,1150.5201,1461.6078,188.34447,231.6758,-20.446972,-113.62803,1234.05334472656
557,-1615.5728,-3273.2344,358.82828,-497.13895,-142.61491,-311.16293,3318.42065429688
558,-1739.3217,-3881.8418,130.78091,47.787914,158.78758,215.88847,3509.51904296875
559,1248.3739,-1769.34,43.348938,-58.216133,117.24827,-80.76566,2644.47338867188
560,873.3932,-130.98549,523.5706,345.31348,-0.3220021,-188.25296,1115.27575683594
561,-160.98851,1242.472,-427.17618,-286.8114,-21.466957,46.35234,1633.63146972656
562,1989.4387,-204.86479,-7.941998,618.2105,2.67596,-12.984776,2359.81323242188
563,-606.2295,1354.1378,16.238152,-214.32874,-23.44434,111.704926,1785.25463867188
564,1735.7722,-597.58813,-272.89423,-117.02698,-90.308815,-115.89836,2213.19189453125
565,674.78436,-1187.3191,-411.10757,641.4813,-6.2172813,103.77933,1972.68054199219
566,116.632256,-737.80206,-176.4654,-530.5352,33.907375,190.85832,1233.96276855469
567,-191.88417,1454.6779,-425.47137,1091.328,-64.70868,126.88628,2604.6494140625
568,1641.6383,1804.9973,628.66406,718.02075,136.45992,-455.28397,1855.43994140625
569,1720.3958,2637.0142,-8.57323,-813.7932,78.38289,-131.02055,2733.31958007813
570,1311.6332,3074.859,958.551,-975.00726,-107.86765,-141.57909,2608.28540039063
571,-1503.1022,371.5938,-9.063423,-778.66754,-107.759705,1.3801262,2190.79443359375
572,-555.0625,-1017.2267,176.59476,430.69354,221.46146,-12.258248,1338.33520507813
573,-937.8122,-21.378141,-200.41779,798.60266,-97.80823,-85.8142,1634.60046386719
574,-1296.8539,-1024.5416,-344.3422,-77.10656,52.382397,-37.53809,867.379455566406
575,-1608.3162,60.3632,-126.769516,-338.68616,-92.51077,79.658455,1701.78759765625
576,-116.099495,-495.96475,217.01729,-279.33853,119.13125,99.47028,829.55029296875
577,-423.68344,-1069.7444,1183.8036,222.78853,-123.60731,72.139915,2061.62475585938
578,-139.17625,-814.1403,-1255.1112,-136.45668,-84.86659,62.320995,1018.2294921875
