Element Label,S11,S22,S33,S12,S13,S23,Mises
1,134554.17,140432.4,170341.83,-8660.481,2360.1387,-1366.0532,36773.125
2,-167964.98,-164739.84,-198166.9,10746.425,1751.543,670.215,37107.5625
3,6307.717,33254.477,35667.906,5501.8247,-8787.849,9320.2,37149.34765625
4,193980.78,201093.17,233815.94,-5976.232,919.6553,-812.3108,38285.31640625
5,-22772.723,-59053.39,-20389.203,616.89685,7219.228,-909.7313,39603.28125
6,-56319.805,-22809.652,-62017.21,-3358.4688,165.73436,540.90094,37163.28515625
7,48595.906,7763.881,36664.363,6985.5195,-381.08017,-838.9445,38358.39453125
8,266646.97,285616.97,310343.97,-4035.6714,456.61414,-757.36847,38620.7578125
9,-400103.6,-440013.1,-406254.2,-4455.6665,3359.501,-6122.8433,39887.54296875
10,-33258.555,-31561.533,-52349.918,3160.8325,-10249.305,12348.797,34674.98046875
11,-75675.55,-62833.36,-102686.73,7881.862,226.82178,-2701.4878,38076.60546875
12,171539.0,139916.39,183511.48,-4725.531,-379.7737,-1245.8495,39925.08203125
13,-297685.44,-261001.58,-258458.81,409.31024,-4794.5894,-1397.9153,38997.16796875
14,-23842.664,-28377.416,-50448.684,-4379.29,11730.499,5291.543,34090.20703125
15,13250.769,13008.653,12721.07,47.341743,-247.8232,-1090.9055,1993.02526855469
16,22280.283,19344.396,47289.82,-321.99158,-3930.0928,15771.868,38735.3203125
17,10177.719,1223.8732,-23572.543,10183.156,-6099.0693,2531.5205,36864.19140625
18,40906.82,4701.959,34216.082,9144.531,-1095.3472,4574.002,37822.63671875
19,88674.61,90552.79,88552.51,-166.93077,43.008484,218.33725,2000.98889160156
20,70462.516,48407.918,68751.99,10910.183,-1577.0242,-10592.991,33952.87890625
21,-24871.215,-59676.355,-64940.72,-5648.858,-2636.873,-934.4969,39262.53125
22,28872.771,19992.549,35100.645,3940.689,-6844.9077,39.67618,18976.294921875
23,8365.521,-2668.2385,13534.3955,-403.90454,2350.5107,-12890.492,26852.40625
24,-50558.92,-64351.51,-52534.543,850.23334,-3047.4807,12459.279,25741.419921875
25,2645.8494,-12630.736,-11725.548,10853.699,-7204.2637,5584.9795,28688.9140625
26,26893.402,36897.57,17992.951,4370.4478,-4750.1597,-18330.977,37435.43359375
27,-12810.076,-21863.205,-36311.49,-154.89342,-15652.636,3970.5454,34697.21484375
28,3800.0344,23470.984,38259.38,-202.43472,12492.038,2214.2842,37142.01953125
29,6531.687,-3713.298,11548.942,-12813.644,-10377.935,8948.088,35176.8671875
30,-14428.118,4216.9175,27985.545,602.8133,4416.722,298.17175,37624.87109375
31,-1052.2389,2048.816,-5304.1523,-2377.869,-16431.957,10179.802,34333.01953125
32,-6338.234,-32701.54,-4371.0063,-14411.122,-1058.1439,-3394.7607,37572.99609375
33,-7199.0757,-8567.413,-26696.389,10497.438,-12450.755,7574.6265,36374.6640625
34,-10770.207,20346.756,28629.076,6883.1265,4017.3013,-2992.6235,38884.42578125
35,62452.168,87104.03,81701.7,-17301.916,3371.7378,3333.2815,38330.5234375
36,-29288.602,-51323.203,-49010.9,17632.688,-6134.625,-4020.0928,39166.8125
37,16237.63,46355.38,50371.79,6481.564,-11585.954,-819.05194,39685.30078125
38,8055.7544,420.68484,-12734.894,-5855.3774,-14636.865,-857.0254,32856.97265625
39,-64828.117,-59194.47,-43616.164,19105.232,-2306.853,-1413.1167,38459.97265625
40,17317.426,-7156.2534,-1278.733,12953.857,-3387.4927,5563.973,33471.89453125
41,-27049.729,-38409.664,-58001.973,-616.7502,-12453.354,7212.2446,36850.00390625
42,-22745.742,-19709.807,-17413.168,3869.7788,-1473.8646,-8214.012,16592.65625
43,-37920750.0,-37922428.0,-37921190.0,360.21097,439.26138,-507.29135,2001.32678222656
44,170322.4,169362.77,171095.5,390.2269,475.84756,259.3387,1896.93701171875
45,194660.38,193465.97,192616.53,-373.89752,-188.56075,307.95,1993.310546875
46,68153.08,61637.28,90771.44,9913.484,-658.3113,852.3309,31618.5625
47,83642.22,84362.61,83455.08,607.1567,234.44783,760.1331,1921.72338867188
48,-9553.312,-6076.336,-18905.092,14070.468,-8755.678,-11423.745,36708.12890625
49,28826.9,-6432.677,18819.607,747.5047,983.623,-10787.035,36663.1953125
50,34932.86,35300.434,11876.074,10774.622,-2412.9634,-12556.523,37134.47265625
51,93243.81,99884.4,95133.234,9881.178,-287.22714,-19129.664,37763.91015625
52,18583.234,34566.332,16297.378,8910.413,-888.59534,-15942.575,36059.28125
53,-483.44766,-1064.4619,28936.361,-8621.967,6149.251,-2964.4724,35295.54296875
54,35493.117,18868.719,30852.791,-2858.61,11042.963,-16091.122,37254.38671875
55,-793.0801,3085.4207,13881.172,7283.7075,1134.3739,-18651.092,37149.2890625
56,12605.313,9143.042,25599.713,-7211.993,4048.9448,-12788.749,30359.654296875
57,13269.618,-1084.1913,-3183.9136,-2549.5176,4586.175,483.55142,17996.673828125
58,4138.151,15294.338,10899.615,-7308.6934,11921.88,-2483.0881,26455.388671875
59,9186.619,22061.115,-8317.464,17316.174,-1919.5065,-988.5139,40137.71875
60,16081.376,14275.22,40079.203,-9574.067,8166.5054,-4267.2183,33943.96875
61,-8951.949,12281.924,21868.33,8250.8125,8406.592,1159.5588,34155.62890625
62,6272.829,37613.332,38004.176,-4523.5894,7686.505,293.0948,35121.5390625
63,-10487.917,-1843.0818,5416.23,-9136.389,13132.912,9798.294,35299.390625
64,2981.6633,-13750.034,-31498.143,10147.96,5999.109,8200.255,38865.7265625
65,29231.895,25882.984,51483.016,-8840.022,6918.3247,6462.7944,32926.8203125
66,33653.316,36832.637,49367.3,-12417.556,11561.085,-6321.535,34504.0
67,-32891.438,-7904.2856,-41421.4,8491.772,8388.127,5940.9106,37994.12109375
68,-12122.066,23141.082,5304.303,3705.94,12151.218,-4176.362,38329.40625
69,2494.5896,8012.128,22014.277,-11825.028,-13073.577,-7078.405,37233.3359375
70,-114251.195,-92024.29,-78243.06,-3572.8228,-8854.072,-4246.273,36302.109375
71,26140.826,32255.861,44071.727,-17609.297,223.96516,-9698.226,38234.04296875
72,-482913.2,-481296.4,-496445.97,12755.783,2917.3047,1898.5883,27057.451171875
73,-9628.416,14217.807,25749.135,-4674.411,-10031.06,-1169.0599,36716.609375
74,-66412.34,-56778.406,-39305.55,1388.9412,14221.714,-5688.0293,35722.0625
75,207360.7,207392.97,206745.0,-176.57568,-317.13806,-1005.4018,1956.466796875
76,163092.16,143215.2,154098.86,4942.7065,10443.059,1759.9138,26588.8828125
77,-122156.305,-121741.734,-138041.83,13823.768,6128.982,1525.7994,30855.703125
78,14763.247,11436.2,16896.588,-1171.956,2114.9983,699.6729,6459.630859375
79,19652.36,19537.732,20020.293,258.1848,-490.12848,-614.39026,1497.92248535156
80,-46500.637,-49948.13,-49542.504,14346.4,-1291.5632,5027.255,26625.80078125
81,24364.273,19605.182,49835.004,5918.929,-264.64133,9363.58,34072.94921875
82,-1875.1589,-968.0776,10112.446,8197.508,-2676.2957,8986.957,24475.15234375
83,-5229.0894,12185.464,-24787.832,-3015.3083,-4068.8325,10916.417,38221.26171875
84,98.05145,-12903.118,11797.326,4038.2964,7290.9434,15626.678,37402.9921875
85,31496.99,-2303.004,31993.234,5270.697,8744.482,6777.9565,40125.05078125
86,13193.465,29810.605,53771.535,-9524.515,-521.9312,5324.0386,40080.171875
87,22995.412,-2614.6682,41502.434,5407.5757,-3680.7385,1039.0265,40049.47265625
88,-25197.271,-22714.164,-57375.176,-1855.8508,-387.13898,11871.999,39434.75390625
89,4559.785,14417.944,-20571.986,1480.257,-9031.553,9706.123,38864.49609375
90,-5979.684,35533.965,6966.466,-405.66928,-3438.0217,5217.906,38355.92578125
91,17374.611,20649.258,-8890.21,-5155.998,-3957.1475,-361.24426,30227.3671875
92,1093.7355,27805.875,27503.043,9567.394,-1664.093,3744.9001,32101.8125
93,4383.9863,-5483.309,12359.298,5444.807,-7180.997,3333.3625,22729.62109375
94,13311.303,-307.03467,1987.4663,12438.83,-11032.809,3717.9004,32098.083984375
95,39498.168,41501.938,26754.941,-4308.9053,-13229.744,-11556.839,34254.91796875
96,-14631.3,655.07996,11213.176,17680.861,3355.4097,-6380.2515,40003.49609375
97,86576.69,74214.71,115946.32,-4718.334,-2167.586,-6021.7485,39599.59765625
98,21502.854,-10251.469,5357.7964,-4127.3755,15025.697,-1279.9957,38596.1171875
99,115349.63,109028.44,101142.28,8022.799,12156.292,-2886.7961,28520.552734375
100,-4391.648,15039.83,1496.025,-7675.941,1642.4819,-1185.2346,22066.005859375
101,27312.354,14181.394,18901.844,8349.302,-16284.056,1130.9937,33781.68359375
102,-2854.641,11086.735,32969.4,-5334.571,4115.153,6854.406,35431.796875
103,43597.227,44327.273,29430.36,-12023.409,-12824.941,-5127.668,34893.82421875
104,55971.1,57424.527,38878.918,-4887.4775,-15689.507,5357.936,34862.0703125
105,-83434.94,-49683.023,-64869.277,14288.984,-2197.9802,-2506.328,38769.9921875
106,42033.156,33248.55,22416.322,-4525.5176,-16673.51,-66.43086,34425.79296875
107,7183.34,-3086.097,-22954.848,1858.7921,-10745.239,-11700.2295,38362.76171875
108,-22456.092,-22352.035,-44857.207,-4779.428,-5102.797,-13803.32,34962.7109375
109,11328.974,19480.49,40576.863,4034.816,-3612.4312,-8750.499,31641.326171875
110,2713.2026,-11267.948,-32792.605,609.7327,5045.5664,10107.866,36656.765625
111,135725.33,103047.734,93134.14,3150.9507,458.99344,-1675.8336,39101.14453125
112,25127.3,28927.22,39416.37,-2408.3938,14029.713,-9495.304,32290.892578125
113,16203.017,-11963.011,-14922.469,10331.91,10044.995,-2992.9456,39182.44140625
114,-44887.137,-13670.609,-14399.741,4960.51,9841.674,-4659.275,37172.08984375
115,7626.328,13737.651,35353.035,9999.896,7595.94,-509.5872,33324.75390625
116,-55124.47,-26027.07,-16173.0205,-1505.7242,-626.82495,-5334.591,36384.640625
117,-85176.15,-110715.164,-109293.11,5386.556,-9693.311,7218.1094,33810.8671875
118,8634.941,15189.227,40256.12,687.8123,-8874.678,-1663.1252,32887.69140625
119,-46154.504,-50250.72,-36502.21,11690.778,1648.5818,13191.781,33011.046875
120,-1407660.4,-1409639.9,-1408766.6,245.09433,82.74161,-532.56616,2001.00463867188
121,329859.3,328660.9,329140.78,928.4843,302.04025,132.494,2000.99243164063
122,-11979.702,10765.129,23601.967,3445.0662,9538.054,3033.079,36196.8359375
123,19718.666,29328.969,30889.627,2034.3646,1899.2595,-4317.026,13745.5302734375
124,-9050.17,-19369.424,-26916.504,11281.845,15684.581,-4598.476,37744.1640625
125,89610.44,59225.754,65452.17,11178.784,-9766.62,302.60522,37870.046875
126,-713943.06,-715614.2,-714799.25,283.77658,182.91957,-722.7278,2000.97277832031
127,-101999.13,-101965.58,-94752.945,-5167.837,-1764.851,3915.8123,13701.4482421875
128,45737.105,50914.04,62354.695,-17157.621,7616.2573,-1195.1617,35754.38671875
129,44268.664,44064.816,72510.43,11429.853,1832.4174,-7146.4546,36859.31640625
130,4979.905,24872.324,2080.8733,10256.557,-910.39404,116.2865,27926.6796875
131,-25330.916,-17933.766,-58641.07,-2201.5427,-20.905254,7193.625,39755.13671875
132,9718.2705,-24694.268,-12161.439,-6011.427,-8025.514,10556.526,39318.7890625
133,-25847.656,-12143.64,-52790.41,-2333.37,2872.9353,7629.8115,38712.703125
134,17370.744,-2107.7566,16938.469,-2917.1826,-5073.3667,17979.072,37995.6171875
135,-3988.8452,-27464.172,-28052.766,-8622.552,2445.0625,15193.846,38714.2578125
136,4018.77,2887.1743,4546.399,-79.046364,-13.3197775,777.4102,1997.08312988281
137,-26860.203,-22695.775,-57099.03,-192.19936,-2926.24,-3461.3596,33457.421875
138,258135.81,256861.53,256970.95,-379.18387,618.609,-556.2637,2000.99780273438
139,231899.75,233313.45,233961.16,135.06036,447.3836,26.269062,1997.74523925781
140,21881.16,31197.822,54831.7,3590.8752,-11043.973,-133.18504,35639.77734375
141,20829.592,-4152.4873,7047.459,-12389.695,10762.476,-9005.857,39000.87109375
142,19137.248,37968.895,54129.242,-6088.0425,-176.67435,-10697.867,37077.39453125
143,2731.91,30734.77,29832.385,4846.1934,12838.623,-3450.075,36883.08203125
144,-4582.1567,-43039.25,-39143.4,1529.9146,2478.8782,-2473.287,37257.35546875
145,-12300.467,15192.483,21922.096,-2478.4458,3958.9526,1175.8341,32492.501953125
146,49769.793,27268.904,57760.06,-15542.074,-1685.8462,5012.5195,39477.75
147,14725.674,-5740.5566,-30535.656,4027.1638,-1579.3193,-825.64636,39991.34765625
148,30825.36,-7113.576,6460.4185,-11447.098,4187.7627,-1051.3197,39467.3203125
149,47660.535,60946.39,57836.227,-3534.1155,8228.684,13427.567,30436.296875
150,90666.11,78767.99,75533.0,8744.861,-12289.871,356.56094,29554.064453125
151,19659.648,10354.377,16008.965,-6392.113,9383.033,-7102.2944,24575.880859375
152,-3659.4033,7785.5,1256.2194,7322.3906,-11563.531,-14703.019,36185.97265625
153,5583.428,24287.514,21514.54,2923.1548,-15266.361,-4110.048,32881.05078125
154,-6977.02,13570.268,25084.508,6290.7407,484.28616,-1871.42,30352.6875
155,-11035.533,7493.605,-884.42126,-7892.8853,-3597.4258,-12930.968,31394.740234375
156,-9221.343,12021.362,7573.3315,11829.704,10479.184,-11227.962,38781.6484375
157,2644.3188,16594.264,29187.46,7330.286,-2996.4578,-9163.541,31127.333984375
158,51356.523,58615.99,80742.695,6007.3076,-520.41986,-9287.021,32722.1796875
159,19434.938,19636.85,32906.4,115.35857,4609.419,19840.428,37729.4140625
160,-4854.3633,-18333.094,-27594.514,16013.538,3359.1697,10785.7705,39299.2734375
161,-10394.134,-27539.568,-1458.1455,16819.705,7813.9937,-409.31763,39489.42578125
162,-9446.741,-5418.0776,-37068.953,2107.685,7660.5063,11251.667,38205.6875
163,-25786.105,-7747.9976,-45757.4,6123.8267,2730.079,-8843.045,38130.4609375
164,99755.56,101877.89,96944.375,7170.3843,8643.108,-17614.764,36435.78125
165,5767.5415,1378.1216,8469.695,-4832.991,-16644.951,-8747.559,34193.9375
166,-7136.4062,9082.428,-25612.068,-4394.2085,-11528.32,6846.547,38746.7890625
167,-14486.769,2653.875,-38686.484,-3733.5342,-5881.506,7513.2974,40114.45703125
168,-10228.37,12930.632,-25691.863,-7968.463,3578.4023,9065.684,40112.86328125
169,46715.387,50763.496,26491.8,8933.584,-4798.9727,-8426.959,32075.005859375
170,65796.4,66884.0,43496.363,10484.606,769.5146,-9327.458,33395.953125
171,58441.55,73348.69,57555.45,-4915.7915,-13716.733,2680.2346,29911.693359375
172,-26424.148,-32978.49,-10812.825,18860.312,6992.443,113.9035,40035.61328125
173,34406.85,36336.297,19198.855,-14820.267,-14024.53,-979.11066,38938.515625
174,2047.2609,16849.879,34511.617,-6115.887,4510.1167,-5333.196,32420.041015625
175,56837.426,37207.95,51707.29,9623.01,13800.1,6997.5815,36151.98828125
176,-24315.297,-20273.326,-18735.2,-6052.146,-3567.2075,1598.9221,13440.625
177,36790.28,5605.674,47739.926,4726.781,120.89654,-4304.234,39452.3203125
178,-15832.425,-6476.1685,-47220.707,-5864.913,-1707.1028,4910.6636,39379.1640625
179,13140.679,13975.738,35587.824,-10675.026,-5941.059,-12364.0,37312.0546875
180,6456.7764,-989.1372,-28059.557,8868.277,9507.819,-1999.4163,38845.09375
181,-33101.457,-47452.645,-73233.984,1773.5486,7410.197,3113.0857,37998.29296875
182,-49997.195,-20133.527,-7459.8906,-6536.8486,661.5149,-2617.1218,39761.703125
183,19803.838,24175.238,37365.89,-5260.938,13695.971,-13294.41,37772.46875
184,13995.068,14174.87,18907.023,9343.805,974.42804,-580.8615,17001.68359375
185,-5977.2627,12610.522,-6510.9824,-9815.843,-6844.8955,6742.7593,30359.771484375
186,8388.584,-4657.6504,21192.76,-6192.5005,10068.322,-4260.0405,31221.720703125
187,5138.6006,-27287.764,-19550.361,-12745.767,-853.9997,-8203.144,39393.7421875
188,166838.53,168151.19,166696.14,-104.026634,-712.6658,-393.7615,1987.84753417969
189,4534.5176,10597.259,27306.469,9411.4795,-3297.4617,-4244.0405,27742.412109375
190,-2232.268,-25540.715,-23921.154,16005.241,-3885.775,-7794.9756,38784.5703125
191,12397.495,-13848.074,21408.666,-5634.08,12301.386,3951.9656,40032.35546875
192,2721.5715,-24340.91,-30555.275,-3379.3518,-11432.241,-6794.466,38781.63671875
193,-12245.023,-6375.4844,-24144.15,12171.887,-15930.531,5919.417,39456.44921875
194,8142.7734,4947.7983,-8089.1504,-5858.3154,3365.7012,-4073.7698,20212.69140625
195,16988.295,-14151.429,16186.021,8787.972,5980.8345,-8233.404,38570.80078125
196,-581.2524,30985.332,-3976.7234,7010.9497,1139.2565,-8281.961,38370.4140625
197,3539.1348,1197.603,-13527.388,-11359.049,249.3401,-1127.6764,25453.341796875
198,-19459.318,-24848.617,-53786.203,-6852.5986,-11557.32,1055.2266,39589.28515625
199,11228.483,-3679.3665,-3259.2668,5092.2207,6691.344,-11634.167,28884.833984375
200,11316.611,-4161.4355,-6601.602,6215.9194,1005.3127,5393.3027,22124.677734375
201,3776.339,-14041.515,-21873.338,14592.568,-1663.3964,-1194.0626,34201.85546875
202,12227.728,-14570.203,23426.346,5734.181,7127.731,-888.0562,37377.265625
203,-3727.721,10638.901,-21799.957,-402.80566,-2216.801,-8634.086,32117.1953125
204,20157.51,-9147.664,13594.735,1685.536,-2397.3271,-6226.664,29182.505859375
205,20713.752,-17361.121,-14192.284,-2041.8524,4360.247,-690.7907,37550.75
206,6580.3135,-4157.427,-17792.549,1027.216,2198.0037,3985.5906,22648.1796875
207,-6538.9146,-28144.168,-27818.955,4880.4727,-10597.448,-10192.869,34350.0390625
208,-710.859,-20738.318,-32474.871,2896.7944,1268.4326,10888.443,34052.52734375
209,9852.019,2969.3257,-9415.109,-806.89734,-6076.6567,-3926.2595,21094.099609375
210,4530.771,-13761.55,-16252.456,13164.394,894.3527,-3625.9763,30791.6328125
211,12848.757,-25344.488,-14110.336,-3836.8079,10405.711,2331.5286,39257.7265625
212,6413.0405,-15282.062,-4947.443,2563.2698,-920.62933,2567.6416,19882.234375
213,1427.9153,13488.323,29325.125,4859.607,-2189.0696,-10276.385,31453.0078125
214,-21121.258,-2514.1064,-21953.803,477.83975,-6032.87,-1784.2013,21950.67578125
215,12824.657,5212.0376,10279.89,8226.8955,6127.514,-11869.06,27988.638671875
216,3350.056,-1132.4667,12872.28,-7473.994,-2320.9897,-4261.2354,19790.564453125
217,4530.4907,15798.362,4471.015,12203.658,6739.543,-5026.445,28044.361328125
218,-12472.614,3835.4622,-12718.233,-1762.6626,-12837.416,10297.069,33042.8046875
219,16030.95,1963.5698,-7788.488,-6815.5273,-2243.561,16975.105,38067.0078125
220,-3644.664,6957.5195,-18203.13,7471.039,383.97708,16906.025,38781.94921875
221,607.89844,8327.307,11557.321,1114.384,-7539.027,10530.1455,24532.515625
222,7942.4634,16187.559,-4879.6504,3284.035,3024.5596,-2827.6223,20540.025390625
223,4308.163,891.84546,-3370.0652,1200.4359,9739.299,15389.17,32307.26953125
224,12788.408,7558.791,7749.1543,-2.8000622,3188.0557,15506.569,27896.986328125
225,-4589.4443,-11412.126,-4083.9084,-4184.341,160.6976,20038.64,36159.3515625
226,-21570.076,4454.524,-20126.195,3144.1343,-5883.401,-259.2292,27847.6171875
227,19123.934,-8035.1313,9000.3545,4724.234,-10898.9795,10106.363,35984.56640625
228,17882.316,-619.9894,26254.479,-10634.91,-6915.7197,98.77137,32405.978515625
229,-22998.193,4220.195,-9474.851,41.50838,10377.52,11347.752,35567.34765625
230,35551.438,28707.023,46539.35,-12815.96,-8051.602,7241.4883,32974.76171875
231,-4563.4585,-2284.262,18586.271,9741.18,1127.5734,7998.963,31125.201171875
232,-71053.09,-81361.48,-70253.766,-5935.059,8358.966,-1758.2125,20969.1953125
233,-6942.2993,-19054.344,-21891.963,-14237.059,-1076.4835,-5912.862,30092.638671875
234,11431.571,-9719.58,-17206.717,4543.499,-7877.8403,-2323.745,30431.90234375
235,4421.5337,-3494.125,-8046.315,4176.2236,7062.638,-7291.067,21928.46875
236,-21473.57,-14311.69,-29697.387,2203.705,15964.307,-1280.2246,31014.26953125
237,5226.449,-7232.649,-1797.8005,-8709.001,1089.7443,19459.27,38524.609375
238,158.49068,10047.852,-1680.9858,4625.44,12935.93,-13785.314,35435.546875
239,7718.5776,-23879.703,-32763.594,5917.025,3857.3162,1686.8837,38939.6640625
240,-1192.9305,-2887.313,-1109.4988,1747.5441,11545.082,4535.0664,21765.7578125
241,17144.146,33744.023,19652.98,-12959.882,14592.522,3067.841,37565.13671875
242,17234.477,4794.343,-3586.4038,-10248.021,10090.134,-1713.9126,30960.654296875
243,24834.406,4546.506,30943.207,1590.7236,11959.9375,-8325.956,34893.08203125
244,26127.43,37111.324,38110.035,-9835.162,-12522.244,-13706.845,38168.79296875
245,-3937.7747,7167.205,-19646.062,-15920.808,6687.2866,4035.656,38573.91015625
246,17052.707,-10800.467,-12266.31,8412.694,12126.084,3708.5461,38903.5
247,20560.412,-3437.3916,-6686.227,11176.917,-2460.5588,11966.239,38560.609375
248,-43512.19,-26724.97,-49855.44,16262.829,4369.5713,-7868.635,38275.2890625
249,-92194.17,-112228.56,-92220.125,17397.84,6108.4067,-398.3062,37700.4765625
250,146624.52,163883.27,162308.14,-11677.404,-9121.378,-13130.141,38066.34375
251,99267.305,77117.305,95440.94,9793.956,13015.043,8834.873,38086.91796875
252,70926.04,54828.543,66577.195,16131.428,6979.2954,-3325.5881,34176.2421875
253,200384.11,206033.86,183171.02,-16077.324,-1161.9058,-4818.78,35701.72265625
254,-94264.54,-96680.82,-109905.305,-14098.227,328.00995,-6324.0933,30483.84375
255,-3837566.5,-3838918.8,-3837591.2,-386.52048,-218.27153,-570.6973,1834.10266113281
256,-78205.125,-60398.242,-98093.055,-5958.286,-4489.5107,4621.2227,36024.91796875
257,444419.56,444842.16,444332.06,672.7176,571.96484,592.33167,1901.28039550781
258,72177.555,72889.08,72569.15,-378.77908,-890.78314,-520.2739,2000.98547363281
259,359052.75,359739.62,362932.28,926.89264,-823.17584,-1990.2876,5417.728515625
260,-164752.89,-168412.5,-187558.06,-1224.938,-6590.0586,4131.2964,25219.068359375
261,211722.8,221727.73,193481.44,814.2306,1421.8148,4057.676,25938.33984375
262,-96645.5,-93553.42,-110389.516,-545.35095,7930.9077,12682.504,30217.28515625
263,-287086.53,-301081.56,-303046.97,-18977.36,4664.186,4996.766,38050.19140625
264,-93008.81,-72082.34,-77854.93,-13040.759,5968.6367,10315.346,35870.83984375
265,-51485.004,-71150.445,-35854.24,-9059.886,-6134.428,1787.4778,36154.6640625
266,1670.1426,32188.996,2828.921,13268.036,2232.7983,-4252.343,38661.40625
267,120809.664,152883.97,145708.19,14723.293,-1594.6653,1527.1785,38923.59765625
268,9724.571,3263.7869,-17993.082,-14082.443,-1345.4177,-10810.511,39773.23046875
269,37183.14,-3257.9473,12211.328,-3233.8225,-4667.858,-3089.221,37074.99609375
270,-10197.295,-17144.207,-12204.544,-21497.186,5026.5103,-5413.188,39855.1953125
271,-17734.33,-13190.582,-22312.008,19643.145,-1445.826,-11006.203,39870.296875
272,-11410.887,-20569.45,-34970.586,1841.4548,-4526.465,-319.96466,22251.12109375
273,-14878.787,26696.635,-1735.7332,-3973.1206,-1313.5751,1696.4983,37629.71484375
274,16970.486,30494.783,12278.593,16815.195,2022.5043,-3132.5752,34034.36328125
275,-22164.654,-35496.594,-23429.469,-6125.9097,-1612.8369,-7889.8887,21670.556640625
276,6026.1455,-34316.21,-12878.029,-3265.7744,-2093.896,5855.6987,37016.90234375
277,10848.203,11898.457,-7671.418,-3622.9128,6145.783,200.73077,22723.09375
278,21047.512,36940.62,852.33594,-1279.9697,-2323.813,-17.095625,31662.537109375
279,-4544.897,-12518.381,19377.893,4824.851,-7400.0815,3287.4622,33063.0859375
280,7837.407,10043.946,12976.733,9909.67,-1222.2183,1318.5704,18006.7578125
281,9330.932,-28468.559,-3854.4946,-6820.255,-1964.0059,-2978.3809,35804.8359375
282,-19136.88,-39187.723,-17164.832,-14536.858,-11324.2,-5778.279,39551.296875
283,-5709.6675,15361.4375,-1285.7368,4910.4204,-3064.102,2016.1038,21978.224609375
284,-3958.3481,6322.7246,-12426.476,-2070.5862,-571.0448,-1540.2294,16894.623046875
285,-3181.6348,-29741.28,-10519.098,-5756.4443,2529.1912,-909.3696,26181.17578125
286,-12488.682,4014.4946,-2303.5466,1338.2993,15509.1045,-14640.658,39724.3203125
287,5387.815,-16811.756,-8870.274,2472.8389,14154.532,-3485.5825,32178.18359375
288,-37441.71,3482.0325,-24663.94,-6010.197,2105.121,5049.2305,38900.59375
289,10404.331,-13754.925,-12142.548,6524.6123,2229.6882,4137.147,27226.63671875
290,-1140.233,315.15756,-6593.205,1301.1117,-1408.1787,-10635.71,19752.767578125
291,17771.668,15566.883,16746.15,13038.065,2602.8687,-3039.7305,23699.57421875
292,6985.9443,-20713.848,-5863.0044,7083.3516,-3900.7903,2661.353,28175.86328125
293,20110.217,-4556.0015,7988.169,-3139.2524,3697.3867,-5879.1006,25112.337890625
294,1658.3342,6044.6475,10618.669,-10382.543,-11974.925,-1171.5537,28599.48046875
295,-15166.59,10797.726,-11947.95,6209.3086,-15514.42,2380.4841,38153.55859375
296,14698.162,7079.57,6416.665,4691.303,-4244.6353,2857.8623,14426.041015625
297,5410.8438,-1598.6014,-2808.8857,10626.592,11056.629,1690.0927,27805.939453125
298,-20633.826,6660.1035,-695.99445,2330.053,5079.734,11166.93,32651.0859375
299,7070.5737,6767.7207,26130.895,8343.88,-2965.4011,16972.344,38322.09765625
300,9351.598,12569.539,11637.637,1488.6017,1199.8848,15977.048,28017.671875
301,5267.595,14371.884,21247.049,1215.6268,-868.6519,16805.809,32353.546875
302,-25093.945,-22186.447,-2211.6858,10083.132,22.665714,-1069.0355,27820.134765625
303,20603.863,2539.2651,-14945.238,-6132.913,9250.992,-9904.806,40147.02734375
304,-2802.0376,4248.1567,-29357.115,7434.5044,5145.076,-11901.821,40153.29296875
305,-6480.149,-6450.067,-31989.932,-3722.4355,2456.9326,-16184.516,38691.2421875
306,6380.9775,22354.908,7570.909,7341.1494,7737.1377,6333.059,26441.72265625
307,40040.65,40175.707,39437.066,-367.21143,978.1682,181.41988,1959.02587890625
308,-18851.268,-18195.732,-12927.609,2849.7842,6011.91,19774.365,36571.92578125
309,-542340.9,-540195.75,-559812.56,-4986.8164,3647.496,11136.918,28878.208984375
310,145703.03,115369.45,140671.9,7996.4663,1896.4073,3479.1997,32121.0234375
311,27862.129,34403.008,29118.227,21478.217,3896.2744,1451.2804,38365.97265625
312,-703109.4,-690246.8,-701997.44,-3894.2834,8669.45,-7325.1626,24172.876953125
313,13137.845,3559.3508,33328.19,6336.622,-971.5721,-5786.8237,30274.458984375
314,-68187.18,-36626.617,-38287.48,-2709.0813,-2452.8645,9907.497,35790.390625
315,-24483.25,-12250.812,-3812.93,6869.5127,-1545.2749,-3710.8755,22673.603515625
316,-30292.277,10722.302,-9562.589,-4818.8906,6310.03,-6965.6113,39954.59765625
317,32109.367,19063.713,14591.763,-10744.811,-6110.572,2968.7092,27080.19140625
318,-25111.697,-36373.89,-9350.494,2416.2173,17510.586,5520.59,39768.89453125
319,10493.87,-781.9201,-17397.21,-986.96735,16612.238,2054.0017,37868.7265625
320,-832.7351,-5478.7725,-21629.2,3878.3623,16571.105,-7233.668,37193.61328125
321,-1307.5643,12091.817,5861.1426,-2586.4016,3399.5793,12870.287,26202.103515625
322,-6862.076,-1849.5011,-17722.03,9047.43,-5376.8237,926.8134,23073.28515625
323,15826.93,18563.957,4817.4146,5870.3203,-1339.9675,-2430.8618,16891.708984375
324,6668.001,414.54742,28469.527,1228.3329,143.74074,-15112.471,36612.78125
325,-7022.6606,2602.0928,-18709.652,6903.351,15305.406,5968.2095,35976.37890625
326,-42907.64,-14973.793,-15969.237,1182.3646,-4528.209,8837.919,32457.951171875
327,11094.984,-20456.857,-11618.168,11920.333,10132.429,-385.38248,39108.70703125
328,12405.678,-12402.672,-17172.34,6215.8823,8197.987,6028.697,34396.21484375
329,12944.452,-9659.15,-9711.699,42.339397,5831.202,-50.07553,24781.748046875
330,25606.3,24180.436,45501.848,5762.163,17134.127,-5319.204,38619.40625
331,-7310.211,11587.706,17050.213,7413.513,-2558.314,-2743.2722,26406.29296875
332,145193.88,147326.97,131999.8,-8398.744,13294.279,7144.685,33192.5859375
333,-304200.4,-287938.88,-281148.72,-2490.7097,3175.2148,-1099.8134,21758.8515625
334,299022.38,310522.78,281130.5,-3823.6147,272.5751,6020.0796,28477.173828125
335,96156.86,115960.375,120059.72,11832.314,5411.7993,-1900.4066,31762.771484375
336,-7525.158,17311.953,19910.299,15160.783,-4762.4775,-5345.6406,39134.23046875
337,-15118.518,-7590.2188,20768.42,-7100.066,5431.092,2374.6704,36483.1484375
338,9545.483,12895.128,25153.084,-3971.0327,1278.7961,19819.994,37858.25
339,12036.229,10948.991,13407.886,10651.008,5701.679,-10002.448,27249.974609375
340,-51002.457,-54701.72,-57475.734,-4688.3833,3151.3184,5199.9688,14439.3828125
341,-6720.9204,-1338.4615,10768.158,13898.3,4111.2925,1257.7887,29591.33203125
342,6836.9917,-6579.3784,28610.19,3046.1685,5273.894,-4546.1997,33458.50390625
343,12863.958,-12176.794,14185.162,8342.802,2804.2478,1254.4105,29983.12890625
344,-39266.887,-6170.134,-11134.48,-1325.4478,-987.2995,13624.816,38997.91796875
345,-29378.553,-725.8076,-15690.344,2166.2917,-2127.367,12921.291,33833.07421875
346,-14069.792,-32176.496,-27885.11,9896.614,955.5606,3146.857,24389.38671875
347,-7324.195,308.32086,-10447.83,8942.469,1037.2513,7901.556,22853.626953125
348,-6.0139227,5620.653,31743.088,-8601.023,965.8203,2035.9114,33138.9375
349,13983.727,15009.998,-15944.834,-2745.3672,-5620.7495,-1808.4657,32475.9609375
350,7282.6494,-7158.3574,20128.336,5760.449,-4169.7705,-1992.9205,26882.771484375
351,-2172.2993,1433.326,-19697.223,3474.6013,-10448.385,4054.3418,28219.66796875
352,72.918945,9695.609,8574.678,93.203,-153.3288,-229.65796,9128.0390625
353,2009.8379,1741.7986,2410.92,1880.6174,-973.9958,563.301,3840.35302734375
354,-46120.08,-39846.004,-23014.066,-9815.686,2866.1396,-214.04013,27241.654296875
355,1677.9268,1768.9272,908.81134,-164.67786,-741.8165,144.26175,1569.86474609375
356,-49608.797,-59246.406,-89502.44,-7005.9966,-3395.1187,-6534.2427,40122.6640625
357,-4154.66,-3009.9285,-12674.838,-539.463,3531.6594,-3732.9634,12796.6064453125
358,10355.352,7637.479,6693.028,-7997.8477,-1041.5454,1359.4237,14544.4482421875
359,-11323.723,-17699.654,-22219.715,-8144.4126,-215.9626,-8223.914,22179.62109375
360,31525.197,-5267.867,16753.312,371.25058,2964.6409,240.75084,32486.765625
361,3913.04,-14751.996,-2580.4126,5081.869,4335.4595,2770.1255,20645.42578125
362,-7873.3594,-10790.091,-9549.74,5249.1494,-598.80414,2190.7761,10225.6015625
363,1820.5123,-6812.593,752.4144,693.2797,566.8289,-3433.0557,10208.5126953125
364,164.35364,-1150.2142,5562.014,-438.6605,-227.29558,-836.8857,6386.8466796875
365,681.2212,703.589,1359.6394,425.03992,234.57793,-35.91722,1075.40893554688
366,-1353.7123,-113.921875,-713.4278,1109.5408,-578.1833,-229.31256,2450.9404296875
367,-3228.8916,-4714.0425,-7758.951,-1408.6794,715.36566,33.62587,4846.7578125
368,-873.25195,-2058.5508,-38761.37,3263.4358,1121.5582,1513.4948,37876.1328125
369,-468.33008,9159.879,30053.223,7781.3477,-1852.851,3502.2593,30970.056640625
370,-1213.4708,-2297.0173,872.045,19.383217,-1449.4542,-520.00085,3859.82958984375
371,-6608.663,-7011.168,-14381.922,1892.0515,-200.71942,-186.8232,8271.755859375
372,29265.719,42497.562,30590.996,4651.674,1482.6946,-7915.714,20464.2890625
373,-12068.59,-15966.253,-29907.498,-3092.9067,-2551.8608,-1919.9832,17977.251953125
374,21684.799,8593.124,18222.066,2279.234,10.619942,-3590.3672,13867.470703125
375,-2584.8164,-9421.161,-3190.8794,7023.648,-2627.0945,3102.0308,15508.9404296875
376,10558.824,-3004.0723,9682.909,3591.966,18.505302,266.2378,14551.9677734375
377,-2313.9282,418.22296,284.23926,2039.9429,1541.426,1304.1337,5641.88916015625
378,-2134.9683,-527.4067,-984.4069,590.09985,-136.48895,477.15027,1960.103515625
379,-5972.843,3869.0225,1932.1694,4523.4727,-2151.0017,-1541.472,12804.12890625
380,-17273.543,10554.582,11923.379,-5004.836,-4700.1646,1320.7473,31000.357421875
381,-17355.707,19763.252,11062.007,-4865.036,1001.5016,-2725.3872,35026.35546875
382,-50790.305,-38233.06,-18399.31,-11965.755,-4167.217,3818.4753,36407.37109375
383,17028.506,29278.537,27934.582,-11472.902,5662.5977,-3845.5767,25900.75
384,-1042.4347,-2275.1191,-319.78174,-670.0597,-185.72395,-211.29662,2125.30004882813
385,-13463.319,-16473.963,-12990.858,4830.825,-5927.3374,632.8335,13686.5498046875
386,5691.5254,-6443.7783,-3760.3713,-8070.3545,-2560.2427,35.94372,18356.541015625
387,-311.55078,-7461.108,-9706.672,1856.9587,-2674.2493,-1312.2887,10448.900390625
388,-1447.1963,22793.238,16954.191,1481.3882,-1091.7152,1402.037,22275.734375
389,2013.7153,6769.664,12854.729,6113.3184,1837.9645,1050.7162,14633.9208984375
390,1208.7485,-303.39062,13242.809,2693.43,616.9688,-2836.7817,14572.2333984375
391,26793.988,28304.947,55619.24,-846.45245,-4598.205,822.2476,29278.533203125
392,-21050.352,-24071.934,-48811.652,-1060.0599,-6004.8003,-816.2147,28451.3515625
393,-2168.6248,878.7898,-10225.928,-1501.1835,643.16705,1784.9946,10785.224609375
394,-77382.71,-35883.797,-63755.094,-888.48535,2187.1724,-4292.1733,37607.5546875
395,70724.234,62253.562,99057.48,2946.266,3982.9353,-3872.7183,35116.28125
396,40810.43,6967.8457,31979.812,-10814.46,4789.814,1888.5288,36808.0625
397,13711.44,-1719.185,9804.669,2353.6516,521.88916,1228.8943,14664.5771484375
398,10303.648,2055.7114,5926.6885,3325.5654,-1601.8546,1468.1193,9921.060546875
399,1472.7676,-1521.2777,257.1944,3326.452,935.27515,-159.93295,6534.4658203125
400,17557.584,-19605.467,14819.586,-557.1109,3993.5042,-913.51355,36580.26171875
401,-6510.383,-1962.0232,-7901.932,-2807.7402,-1295.5463,-1466.0609,8005.4228515625
402,-46571.734,-55045.496,-37806.855,-349.3592,-4571.8643,8782.856,22746.140625
403,9153.118,-2484.8323,-8278.992,-443.88583,-1169.0885,3160.1257,16465.021484375
404,1772.8419,1978.1705,-820.9569,2852.3542,-235.8168,-1900.6141,6535.60546875
405,-106370.09,-83634.29,-70931.0,-13093.556,-1808.2017,450.93518,38624.50390625
406,25671.445,14054.584,26753.299,1516.9907,3189.521,1230.5819,13807.806640625
407,-27294.48,-1759.9038,8405.034,3046.1409,-13028.882,1763.1255,39513.4921875
408,1942.3159,2389.7317,14711.744,7381.457,-644.2108,392.792,17964.154296875
409,-7518.144,-9337.378,5052.3096,834.049,2723.8843,-207.5671,14445.3896484375
410,31.961426,-4823.941,-7698.383,4636.773,-626.5191,-2192.6663,11220.5234375
411,-10350.214,-1887.3953,-2151.351,3081.4832,1202.5446,-4303.6733,12563.634765625
412,-55361.27,-52193.008,-47779.12,12642.353,-18494.135,-175.89362,39359.671875
413,6351.682,6548.9346,9981.466,-2714.692,-1379.2561,2782.1836,7970.92138671875
414,-66971.11,-65060.69,-34439.31,-7484.9585,-3358.5718,7.912756,34666.01171875
415,112346.62,95172.23,83889.42,2812.1016,-16906.553,-1378.4802,38767.96875
416,-2817.1318,9429.924,12370.501,2470.6604,-1646.1194,1154.8252,15003.1083984375
417,-29123.184,-33491.64,-59970.773,-2433.2114,-337.752,-913.39404,29266.1484375
418,-77442.96,-87962.48,-80654.64,-9808.688,-4313.2983,3139.2698,21475.556640625
419,-7361.665,194.21973,-15305.484,5155.716,-1984.1089,-2438.9866,17018.181640625
420,-5085.5825,8144.548,8973.327,1023.04846,-765.81915,2540.469,14524.0947265625
421,-22587.703,-6933.8037,-23164.32,11546.348,-1408.142,-108.193535,25697.111328125
422,-5505.174,-2650.3682,-1007.9446,1526.2091,2490.0415,2894.0825,8139.55029296875
423,-5518.4897,6234.3867,-14520.042,2092.454,1831.0675,-2517.863,19161.5390625
424,17321.256,12961.041,37455.47,206.27887,-3391.2422,302.32736,23389.974609375
425,-6773.365,-41430.18,-11518.65,-7965.6533,-4694.859,-2053.5095,36445.66796875
426,12073.02,-3382.5833,2431.6995,3777.507,-505.74963,1256.1215,15202.8896484375
427,1846.8936,248.94019,7886.293,-643.14105,1603.4647,-1445.531,7993.83154296875
428,23255.707,15010.06,24155.227,1038.9225,-11.119381,74.497,8914.7099609375
429,6512.6494,1416.7761,6148.7227,1007.21704,648.74756,-1886.8059,6263.5478515625
430,9722.345,-21116.848,1204.291,-12456.852,2556.562,2551.3867,35574.98046875
431,1523.7988,-13860.43,-3458.8677,5180.0913,21.968575,2840.338,17016.19921875
432,-6828.6914,-5078.3496,-8350.364,3588.865,833.58344,-92.13938,6985.16552734375
433,-5317.453,-17420.234,-27484.512,129.76715,-1581.916,-650.6621,19452.5234375
434,-2111.1787,-744.91785,1750.043,364.7227,-70.99962,-545.30493,3578.62109375
435,-2193.1636,-1767.501,-1484.3921,6917.5884,-1779.3453,1216.159,12564.8828125
436,-18558.057,-13741.597,-22433.479,-3399.6553,-486.93906,1108.9393,9795.740234375
437,-10338.564,-4567.0527,4639.517,-3280.3896,-2708.769,-439.0422,15035.974609375
438,36651.9,9805.455,31997.105,-8459.68,3468.9668,-2614.8667,29811.84765625
439,3864.631,1548.2648,-3012.7766,-3584.5754,423.37634,-1036.124,8890.423828125
440,-85773.805,-77817.26,-120289.18,843.9969,2836.429,375.86487,39445.37890625
441,3881.0417,5780.1074,11705.267,1870.7517,132.69998,265.46112,7792.919921875
442,12171.811,6171.749,20395.906,2757.294,1107.4049,663.54443,13445.7978515625
443,-5015.611,-10794.3,-20751.521,-1238.777,1404.3591,370.1902,14177.8232421875
444,-3535.9731,-2002.8456,-12273.106,1969.9188,-640.93695,128.5597,10247.2841796875
445,60788.715,86406.555,91325.91,8750.283,2615.6821,-1851.4622,32665.095703125
446,2121.743,-6639.183,-16933.738,-11491.264,551.2305,1061.7664,25949.23046875
447,5693.6523,10113.8125,16155.332,-7956.667,2495.3396,-1175.2966,17189.880859375
448,-2685.455,1425.6973,-11317.726,1978.14,-1232.0714,-790.2227,12044.61328125
449,75570.0,81559.06,103183.53,15600.494,1999.9038,75.77373,37082.8671875
450,82774.97,84991.65,115956.19,8985.334,650.864,-517.3771,35730.0625
451,-422.3122,-3270.2424,-8050.487,-4253.3286,-1121.57,-316.94913,10145.0859375
452,-439.88254,-6901.777,-15358.665,1794.4027,-928.9331,-812.28107,13496.30859375
453,5766.969,-234.36177,-3779.1042,3035.8752,-1816.3593,-172.93408,10367.794921875
454,1487.7465,-2349.694,318.04843,1755.229,530.22986,214.16109,4672.15234375
455,-6870.152,-4964.9634,-3079.7676,-3894.9807,2537.4893,-1866.1731,9276.4404296875
456,15454.436,9927.12,17518.98,-10839.381,-2337.259,-1699.7211,20585.357421875
457,7888.9253,-2466.2354,2034.6326,-689.552,-912.2295,665.49603,9280.7080078125
458,2507.1501,2689.6047,-7245.046,-4497.2935,5231.1772,-2461.1057,16058.0712890625
459,-6658.4106,-4109.0273,-11755.027,2635.0247,-1812.5533,2296.769,9590.6015625
460,-20426.87,-31132.611,-49260.465,-15470.048,-802.53076,645.7828,36857.21875
461,-75633.8,-78442.43,-111884.266,451.71628,-115.7112,-462.16464,34949.4453125
462,-38871.74,-42481.934,-43284.227,3968.6814,-3644.8743,-2161.8877,10849.033203125
463,14602.695,20252.629,9827.315,-2688.1353,2834.4739,1828.6581,11726.87109375
464,4175.263,3126.6978,4484.6294,916.5687,-1574.2537,-753.4672,3630.13012695313
465,1020.70245,653.0497,12074.204,5463.092,960.9313,735.2887,14842.7470703125
466,-25243.482,-12017.568,-24284.95,6296.299,-2958.2537,-1462.391,17741.640625
467,-6955.263,-6675.368,-15395.165,-958.7842,708.86597,-115.63142,8830.5126953125
468,5872.517,11022.346,-27093.252,-5593.9487,3177.3813,-178.65904,37513.87109375
469,-10705.609,-23035.754,-16549.264,12208.123,2650.7114,256.87378,24135.435546875
470,-11948.688,22454.143,16934.973,10335.669,2425.1052,-527.0298,36920.125
471,-19009.447,-17402.223,-37752.96,-33.43396,-2390.1104,-2114.1619,20361.18359375
472,5075.742,6312.288,9158.975,-523.18585,-549.8744,96.55363,3861.21142578125
473,-966.6464,2129.0168,510.66483,128.69113,2.1175475,1065.076,3262.6953125
474,2682.4944,-618.50574,-1456.0881,330.62735,368.84625,663.6549,4052.21020507813
475,2589.9543,-1388.0863,2017.0317,-1470.4335,-1277.6133,458.40903,5088.001953125
476,241.96829,-1288.5433,-1257.5322,1486.7949,-244.6799,-137.9815,3027.27001953125
477,-5388.5845,-4578.15,-777.64954,2841.874,-53.42564,130.4568,6516.826171875
478,534.8509,1912.5779,-3022.876,17.48832,-1315.2996,1502.684,5605.55615234375
479,-14.774383,-755.97845,1550.0071,816.103,290.0379,-306.36368,2586.45727539063
480,44130.51,43430.645,70554.99,-3808.8328,1520.0259,3.9585438,27707.212890625
481,-12886.135,-8986.985,-2764.6465,3082.3406,-2191.7078,1210.065,11202.173828125
482,2948.2751,291.87656,-3721.6362,-13087.077,-3534.2231,-3581.3142,24971.796875
483,-6472.0645,-1326.5137,-2422.5684,2244.2097,-471.76202,-449.04913,6198.40869140625
484,17788.12,21865.09,41358.312,-5.8144507,-195.1782,106.494736,21822.673828125
485,-35143.574,-34520.285,-55715.426,630.61554,-599.3269,1315.7114,21068.357421875
486,-1216.6718,-4203.643,-750.5912,2693.702,-284.48166,251.59691,5721.20458984375
487,1473.3495,-4590.581,-188.43571,2673.6501,129.26643,-286.28094,7155.2109375
488,7448.04,2023.8379,9116.263,-969.50867,477.72757,1205.222,7008.27392578125
489,-24428.541,-19724.102,-32970.547,-1737.1179,-11.281275,-479.24298,12042.63671875
490,-4913.7485,1021.98004,-1043.3872,-831.8701,-163.75916,-808.7381,5599.8037109375
491,442.22205,-704.66754,328.4209,-477.3026,78.75996,382.30225,1529.15563964844
492,-15478.821,-25925.816,-20289.254,5605.1313,4149.515,2019.062,15497.1982421875
493,-410.5946,-3576.9402,764.19574,-262.67615,-527.15985,-510.9249,4116.97607421875
494,-4834.0674,-1798.6904,-7008.9824,-0.46592134,1597.2006,284.37952,5333.03125
495,-3267.7097,1550.8068,2404.2366,678.13074,605.33905,-114.66157,5529.65087890625
496,-45753.504,-38432.902,-61340.203,-2438.6084,197.15617,952.3405,20768.205078125
497,11494.533,19423.031,25838.723,2520.145,-1235.589,374.06552,13376.9267578125
498,8543.771,2796.0398,-2281.441,490.99908,-162.34265,1758.6155,9903.6220703125
499,-4291.462,-5373.922,-12510.689,-2172.93,-28.73894,772.69653,8705.685546875
500,-2501.1602,-10650.217,-7335.5034,-7819.121,-3573.124,900.76807,16569.080078125
501,-330.50464,-3989.3433,-2928.4124,480.29932,500.0565,-622.5093,3638.08813476563
502,-425.077,-1110.5942,261.63486,460.8706,-520.0052,-202.85777,1727.46484375
503,-2841.2366,63.774757,6602.8755,-2888.3557,529.40533,-2996.377,11090.4697265625
504,-7385.2236,-6977.0127,-8558.692,1233.6022,-628.00586,684.5466,3029.35595703125
505,-643.6262,1569.0009,-11.29458,329.41592,108.57712,-331.8828,2141.91455078125
506,-719.59576,601.6351,189.32088,4441.455,-349.91504,576.7357,7868.650390625
507,-2150.601,1239.8448,-1019.1655,676.6124,103.743706,284.7327,3253.93896484375
508,15781.844,11639.116,16287.925,-3758.8462,-1160.1505,-112.676994,8122.658203125
509,3869.619,-820.7698,8657.417,-953.1391,350.8266,-1235.0203,8663.1328125
510,18017.166,15757.814,13574.516,-2352.356,-379.20392,-23.70648,5642.52685546875
511,20389.188,24948.133,39874.87,2362.431,-481.71133,-636.4627,18174.056640625
512,45274.145,63448.477,74733.59,-8607.271,2106.7488,1614.8126,30102.376953125
513,-34553.824,-51533.176,-16679.494,6729.6953,-4326.2114,-2558.3164,33510.2109375
514,113.15804,5395.789,7714.295,149.01115,2440.8892,1668.8346,8474.958984375
515,11994.678,12148.462,24036.762,437.79984,-882.6959,-557.58936,12125.5400390625
516,-1249.5199,1055.2899,301.72052,294.93768,199.8984,696.65436,2445.40502929688
517,498.29645,2132.235,-2130.3992,1970.0343,999.5131,282.88034,5362.38525390625
518,-30509.697,-31915.008,-48390.797,847.4823,142.91106,389.0744,17298.849609375
519,-4670.8027,-4898.549,-44.990753,200.76208,-1213.9706,-992.98035,5477.5576171875
520,-156.81984,-1613.1622,-1580.0176,1812.1543,-1174.5332,-250.38168,4031.39306640625
521,338.62418,-1775.0459,2535.056,2650.3918,1257.998,-828.6749,6466.52587890625
522,17069.146,27447.893,33013.777,667.21576,39.32974,-1825.714,14415.416015625
523,6612.622,7245.9453,17574.91,2777.2307,-717.5844,637.8873,11812.48046875
524,-6083.9126,-4917.0103,-4455.0796,1479.9274,-106.9299,-515.5454,3084.84790039063
525,-256.68842,-3997.1733,-306.24814,866.11584,190.01933,-688.4201,4193.908203125
526,-817.28467,-4841.687,378.2914,2202.8713,685.3538,167.84738,6203.8916015625
527,339.14514,-2301.78,1096.3212,-257.9908,-273.48172,945.5794,3557.22680664063
528,-2125.5012,-2254.4626,541.00116,-287.61566,176.3044,436.76303,2895.59057617188
529,-903.38617,1918.0854,-1517.6212,501.2468,948.8796,1140.428,4174.640625
530,-2619.835,-2039.5745,-2256.3926,1077.9923,-854.22327,-167.97119,2453.12841796875
531,5306.2485,6202.569,13581.622,-514.09796,10.682699,529.1813,7968.7607421875
532,662.499,-212.4161,-683.5059,966.85455,-697.3498,-51.406097,2381.345703125
533,-1499.6526,131.13052,-1193.8403,-473.20337,609.5479,-273.51624,2065.21313476563
534,-4474.2886,-2058.9875,2239.0857,2272.6648,-181.06541,-1726.5105,7695.7216796875
535,-3888.049,-2191.7297,-90.250656,2880.3423,243.67645,24.01599,5993.953125
536,12545.849,11377.92,15399.019,-1072.0164,126.36516,-73.016136,4043.32666015625
537,-678.25714,-1282.989,-1053.0995,-2367.3906,-160.32089,843.03577,4393.447265625
538,2359.294,491.85498,-662.8979,-93.86435,168.50569,438.0514,2768.482421875
539,183.14122,-2160.967,-36.832138,-1050.5638,-138.39037,-627.517,3094.74267578125
540,-7581.2656,-11179.595,-18946.021,-950.9918,899.4938,435.41943,10340.2470703125
541,-11386.171,-12269.368,-25575.797,2882.916,-1692.5455,-0.48462856,14937.236328125
542,2022.6555,1146.3354,1075.92,72.83531,-647.93195,895.70245,2125.27954101563
543,641.1574,-429.67276,-1011.49084,130.72295,481.16782,-406.92667,1830.52416992188
544,-42833.89,-50197.14,-75524.63,-61.932514,-816.47064,-279.71912,29739.50390625
545,-2055.9062,-1573.7621,-70.91975,-823.8864,-360.43915,271.5817,2421.35693359375
546,-2187.1438,-5113.958,779.61676,-3516.6135,-213.92569,-248.3719,7967.0029296875
547,14607.398,17207.986,30200.398,-456.3534,622.4638,200.99805,14534.857421875
548,-1332.9929,-553.922,618.71234,133.84108,-124.10276,11.1953335,1730.86938476563
549,-1547.0079,-2640.9055,1675.1887,220.66905,33.74196,-516.37537,4006.66284179688
550,-1742.7986,-375.60318,-1117.8083,1746.367,1400.1956,196.94324,4068.5068359375
551,1597.5878,812.9487,688.5444,1620.633,-5.935053,-956.7188,3369.59033203125
552,-1240.7832,-4568.393,1596.6263,1000.33514,-256.06827,129.6354,5640.46240234375
553,-5024.988,-7852.418,-2879.3574,227.29884,-40.768406,142.41537,4345.74951171875
554,5827.552,9742.67,18167.436,524.2217,551.22076,1730.5355,11402.1494140625
555,5433.4966,4068.8901,10379.997,-323.24896,-68.61062,921.6079,5996.30859375
556,2913.3818,-263.58157,1086.1187,-84.14709,45.690437,-1074.731,3334.5888671875
557,812.28766,1039.13,412.97827,95.4182,-31.011806,-473.35074,1001.93188476563
558,1010.34125,82.129906,836.5571,417.20813,-634.1055,-203.49968,1607.22204589844
559,1043.8743,290.5236,609.3593,1032.2484,455.36374,541.38776,2264.28344726563
560,287.74216,-482.77493,-442.59085,-531.76263,-215.4041,684.4118,1719.62756347656
561,-16551.385,-16285.015,-28858.16,51.025635,253.68983,-200.80017,12455.0263671875
562,5763.8643,5405.907,8325.733,575.9742,1006.1272,367.52963,3470.69067382813
563,655.67126,1406.1407,821.08276,-607.9356,-548.8306,-1197.2125,2603.61010742188
564,-27613.809,-28069.389,-46182.387,-1736.8513,34.390728,-109.544556,18591.1171875
565,-432.63113,-2581.778,-2715.7473,799.4625,843.7094,-290.80032,3038.31420898438
566,-2382.2708,-2361.6672,-1140.4175,3882.8801,239.98575,-738.32764,6968.17578125
567,185.34746,-1202.4102,-3241.8687,4805.06,-75.53997,1495.6742,9214.6396484375
568,4819.837,-4711.653,-587.0466,-637.63275,922.26685,142.06647,8507.6455078125
569,39730.023,17732.91,47418.066,-4129.771,-1043.5846,-2587.456,28046.58203125
570,5393.018,16790.885,19415.465,-10644.229,-6706.8384,6574.596,27771.103515625
571,5492.965,-12537.663,-7171.563,-1057.7426,2498.9124,-2670.3743,17338.60546875
