Element Label,S11,S22,S33,S12,S13,S23,Mises
1,-2663.8252,2962.1057,-3000.0764,1626.6143,3822.7642,-2996.6484,10600.650390625
2,-1497.7356,2227.5305,-1173.2002,408.07733,-580.695,-6616.784,12067.751953125
3,1337.8757,4161.229,-4776.7383,1299.4164,1810.3931,3135.1829,10344.5478515625
4,2246.432,-4423.577,15399.316,1999.2751,177.09839,4269.8833,19287.2578125
5,12285.762,25414.623,6769.996,3415.7673,3454.5903,1982.3387,18915.611328125
6,10843.917,10456.346,16156.859,3090.195,1678.1481,-7785.1436,15791.0908203125
7,-9437.53,-9015.14,-25500.625,1672.4062,2574.4968,11.994706,17124.884765625
8,-3042.023,3810.2852,8624.057,665.887,-2586.9392,5241.217,14385.0625
9,24834.016,18011.625,10367.62,462.9017,1524.9735,1044.8225,12962.27734375
10,-21156.668,-20474.645,-11394.7,-3473.4707,-2500.8208,554.51935,12040.8916015625
11,-9736.947,-5474.583,-6216.0166,897.673,1654.369,-10244.454,18467.05078125
12,3011.25,-3034.518,1966.2072,-1854.2113,-167.72104,5504.163,11515.705078125
13,-3209.0823,2384.4636,8179.9014,1283.6647,-2220.198,2501.921,11653.41015625
14,13108.17,2073.547,231.45703,-8.792052,-261.61768,5537.8027,15417.2080078125
15,-24118.855,-19514.805,-50032.055,-3308.964,465.96774,-5847.109,30790.615234375
16,-2546.2268,-1096.1248,-15012.714,3013.8738,-4555.3125,-8792.313,22293.744140625
17,28371.041,18368.398,11352.22,-4437.9424,-602.2922,-5928.051,19622.93359375
18,11721.524,802.99316,6245.6064,-3722.5347,8680.256,5393.725,21078.427734375
19,80483.055,81532.75,86719.05,-4675.919,-10030.5,10305.928,26823.599609375
20,315262.8,301424.16,284044.0,6707.6445,595.2685,-1409.9567,29598.998046875
21,-9576.984,-14998.465,-25057.344,1710.1956,-7901.1123,-5333.363,21598.583984375
22,24879.963,-702.6955,18263.262,-360.2192,-5378.0156,-3280.2844,25464.083984375
23,48250.086,37674.367,66244.21,3590.6619,2931.8223,-8039.32,29737.056640625
24,-19075.23,-21813.145,-37150.613,4210.6597,-8125.438,-7958.7896,26944.591796875
25,646.2285,-15988.656,-18178.41,9286.581,-8195.384,3854.8938,28683.375
26,-3641.3984,-17071.29,-19666.14,-4856.4717,-2121.6565,1047.3228,17592.4609375
27,-101.121826,13974.4375,1270.7325,670.8081,7557.243,-10023.225,25588.5625
28,-15876.541,-14716.072,-17809.176,7045.5674,5320.884,-6620.629,19304.875
29,-2234.8765,-21547.203,-3747.7769,3304.0647,-3054.1223,1364.2362,20306.50390625
30,28989.848,25427.074,32341.805,-55.763176,467.34274,-1309.726,6456.15478515625
31,-6809.585,-4744.673,-14995.39,6633.9067,-8101.615,-4662.36,21961.82421875
32,-2016.94,6050.0957,-2587.698,3679.808,3643.427,-9138.025,20024.09375
33,6309.3887,644.51855,-2697.6033,2023.6357,-4258.244,-12996.907,25211.80859375
34,38528.71,12788.24,40382.88,-1360.9298,3222.645,-17.004625,27394.3515625
35,-14002.409,-9168.312,-28700.988,3105.6465,6952.4146,-4641.777,23431.873046875
36,-9594.643,-15279.549,-24328.213,-363.84567,-7647.624,-3774.2012,19601.701171875
37,26391.97,17325.852,37544.258,6886.1675,-566.1158,47.203636,21234.455078125
38,1470.1234,-12891.777,-19392.371,-8593.579,-1076.3833,-2932.7388,24345.640625
39,10432.4795,15527.549,14038.683,-3695.001,395.175,-2272.817,8804.2744140625
40,-28959.537,-7743.5913,-28007.81,-3402.3745,-8846.1,8672.414,30429.451171875
41,-13724.471,-1316.7017,-3709.205,-8515.637,3020.1614,732.9625,19404.0
42,14295.034,7700.7773,10621.294,-3755.8372,-8820.878,-6484.82,20848.412109375
43,-83981.52,-84458.49,-83634.086,-715.9353,-2380.1208,1509.1362,5087.14306640625
44,-39154.63,-39327.99,-40137.977,-130.79393,579.6032,-825.2122,1982.07470703125
45,174251.11,173589.12,173247.08,36.581024,933.4916,-349.07428,1940.474609375
46,-106107.43,-92482.81,-72651.27,-5422.204,4959.615,6224.5537,33575.984375
47,126974.27,130593.26,118620.87,1388.573,14976.05,-4378.6836,29142.005859375
48,147656.61,185733.47,175332.77,3993.7004,-4538.2666,-1865.7222,35806.07421875
49,13037.393,-17601.354,-12424.077,-13215.201,-2919.7678,-4463.836,37632.28515625
50,-10351.591,-30925.703,-22383.26,-17490.668,-6027.1694,-15.253092,36705.1171875
51,3312.6255,7422.1426,13840.846,-6909.6284,778.8692,461.80814,15170.8349609375
52,42398.33,65589.3,78575.586,13130.295,2535.3894,2742.509,39581.4609375
53,-23314.492,-9412.03,-37096.223,1039.6744,-1986.3152,-2364.0408,24630.462890625
54,46729.72,25456.52,45869.64,-1616.9712,-10538.459,-6642.3623,30139.279296875
55,-77547.336,-61843.047,-93957.445,-4497.221,-5910.31,4736.574,31723.828125
56,-60169.312,-42173.098,-71698.78,1857.4261,3369.5515,-7854.4854,29895.982421875
57,17048.102,24198.057,15864.091,1366.5365,8011.305,8069.532,21318.693359375
58,8869.622,-1034.3577,24310.727,-11181.869,-10109.005,-743.6678,34245.9140625
59,-5176.226,-7901.6826,-18364.006,-309.65652,-15617.261,12267.843,36453.90234375
60,3563.05,7250.6235,-5794.581,2574.8452,-5654.811,-10462.284,24080.46484375
61,-11258.063,-17423.926,-27439.96,7513.5117,627.3867,-327.0087,19260.232421875
62,17267.656,19766.004,31590.412,-3527.394,13859.263,9043.638,32164.064453125
63,-35210.62,-25969.758,-24063.178,-3960.197,-9319.473,11534.31,28519.732421875
64,2885.0393,1575.6527,-3289.1064,572.91376,-13192.754,-8291.5205,27588.568359375
65,1020.89996,-3442.4338,-2962.32,-221.87892,-10208.888,-9253.895,24243.029296875
66,-18262.23,-11018.187,-16103.054,4550.5493,18746.537,-8563.607,37120.39453125
67,-10111.241,-11803.15,-14436.594,686.3118,-171.92729,-1037.6056,4357.1494140625
68,12060.941,11260.831,31787.055,-2693.468,3811.0847,5709.16,23846.671875
69,-27391.703,-22060.816,-58132.82,642.7651,9661.072,3713.1292,38208.9296875
70,-28230.293,-43845.395,-65986.53,3269.5403,6440.221,5856.2993,36594.87890625
71,40818.68,53696.496,64261.133,11320.893,1435.2659,477.9249,28369.91796875
72,-52105.914,-37073.66,-75376.125,6685.251,7292.8203,-1290.624,37628.5234375
73,-17106.973,-1595.2894,1584.995,-5371.686,636.7151,-5421.9727,21818.173828125
74,100821.63,104040.055,67945.53,7556.029,2871.2996,-247.92122,37325.640625
75,-23312.27,-29017.127,7192.8994,1969.8629,1676.5876,-487.62537,34028.3046875
76,-87921.91,-98491.53,-69036.266,-6600.1484,-13171.09,-7236.136,38421.375
77,-14612.926,-25033.607,-21491.38,-1757.4243,3548.5085,5138.6035,14508.0205078125
78,-1058.5865,6034.1367,-2431.731,3316.1257,-2564.0093,-5441.5444,14264.4775390625
79,-33198.582,-22257.777,-43028.465,-3586.9517,-1078.8497,6606.4253,22291.244140625
80,-23539.72,-21337.227,-39652.35,-2528.3445,-8699.435,-8575.775,27691.255859375
81,-842.17035,-727.46497,-4218.5293,325.93704,2720.4612,8549.6045,15925.1025390625
82,5689.3403,-11.119073,1708.8723,889.696,-1913.746,-2615.1348,7715.4130859375
83,24042.46,-2451.8457,27194.768,4680.5454,3527.082,-920.7735,30016.50390625
84,9854.7295,25913.766,39226.246,-1723.3215,-7420.2896,-797.5383,28721.07421875
85,-15867.286,-2848.8154,-28029.45,-3155.5784,1721.5657,4486.993,23976.974609375
86,-4040.268,-8725.543,-8035.251,-2420.3035,11735.728,16674.42,35833.76171875
87,-1245.4473,-13445.664,8059.396,3101.229,-9611.197,3654.0308,26362.482421875
88,-13960.828,-16438.736,-20351.99,5696.9766,13251.714,3245.118,26209.40625
89,14076.231,4749.182,16415.482,-230.42236,-20027.307,-3382.1697,36770.09375
90,-33323.207,-29394.215,-45518.207,-1551.3086,4465.0044,4088.6575,18145.216796875
91,49798.355,37357.992,43859.543,-68.728455,-10262.546,3574.8088,21690.150390625
92,31900.066,36172.883,55720.02,7069.4644,-3251.1765,-2663.6416,26206.796875
93,6627.7036,-2288.8213,-23490.637,8870.009,-2719.6863,1264.9283,31322.345703125
94,-2196.129,15558.498,16344.883,-5445.39,4471.7466,2069.93,22172.220703125
95,-9330.873,-3288.1792,-14270.293,-3164.6646,-4468.5405,-2200.9119,13972.8427734375
96,-40763.418,-42417.492,-57700.934,-1848.7723,8594.767,-4171.2104,23359.375
97,-60204.176,-84570.28,-63744.754,-12643.259,-11194.291,-4222.9663,37801.66015625
98,257796.56,275844.44,282254.3,14213.57,-8609.56,2066.484,36383.48828125
99,-4367.3833,9464.292,5527.9116,15653.523,5957.471,-8005.3804,34441.17578125
100,-9694.447,-17514.715,-16643.416,4186.0913,3961.583,3006.3042,13485.845703125
101,-10309.049,-14519.085,-1308.0548,-9674.992,1904.1719,-2842.814,21273.82421875
102,-10775.548,-11533.892,-41278.934,192.18106,-4426.178,-11422.832,36854.12890625
103,-3155.5784,3537.4702,-13.301591,3452.7012,6669.0874,-4646.8257,16358.849609375
104,9097.352,25691.406,27628.875,-3418.8767,-1499.7635,12235.844,28323.638671875
105,10431.312,7872.678,-2173.3044,-844.22363,-12788.041,2255.0122,25321.291015625
106,24616.39,28035.203,15246.534,2839.775,-3030.685,2213.7576,14070.05859375
107,-53336.164,-47932.83,-54566.46,6152.114,-4611.312,1374.7726,14844.7119140625
108,-1241.8859,2686.2686,17176.873,14173.544,-9918.614,-1400.947,34438.671875
109,-15790.447,-14589.618,-32285.25,-3845.6555,-4224.6924,-1948.1825,20065.529296875
110,10289.93,4070.9763,-9552.901,4366.649,1003.405,15843.802,33500.94140625
111,-17583.977,-17327.795,-19885.818,-2503.469,-16727.81,-13319.793,37369.3125
112,32960.37,17827.16,45404.406,4602.2773,-1753.5499,-8188.0293,29087.546875
113,-28406.36,-19633.926,-33995.438,-13894.234,7721.7256,7076.698,32641.791015625
114,41675.633,30181.943,68955.55,1828.4147,8993.481,4725.379,38852.41796875
115,-16361.823,-18551.14,2948.5596,-1693.416,-605.9042,3584.3354,21638.09765625
116,27140.266,53660.453,65951.45,1702.6742,-7690.575,-925.8575,37000.70703125
117,-29665.945,-53368.457,-50382.617,-1883.4594,-9940.83,-61.58529,28408.912109375
118,-14075.987,-12329.6045,-37905.453,-9611.836,12425.258,5351.9365,37931.01171875
119,145329.97,144359.55,144750.56,433.0257,472.10657,-828.1704,2000.98681640625
120,48911.918,49071.594,80410.38,-1999.4304,-9275.511,6725.104,37321.9609375
121,902.1587,9999.487,3265.1123,445.81506,2109.7478,-12625.037,23642.59765625
122,-11482.076,-23175.54,-30024.725,-4907.759,2509.5571,461.36667,18855.4921875
123,25329.096,24702.69,26956.533,6824.205,3556.9968,-21171.85,39070.0390625
124,20398.873,21492.156,25024.05,666.5734,-2418.6086,4568.7046,9951.4853515625
125,6416.0957,6561.699,6426.3335,47.983982,-566.62384,-997.02374,1993.00744628906
126,-108497.17,-86156.73,-105590.27,-5738.6206,-11416.796,968.29724,30581.7265625
127,-70511.984,-70695.36,-109508.76,-3593.3477,577.25684,3103.5957,39777.6796875
128,1341.1602,12358.754,19065.2,-939.0005,1531.453,-5121.971,18128.365234375
129,8888.602,24121.615,25642.818,-5782.0,12111.231,-7011.9067,30746.904296875
130,-7578.2305,-2224.7495,-8811.847,-2844.3394,3835.7307,3742.9495,12133.5908203125
131,4328.1694,-2115.4478,12161.509,4494.7095,-1828.519,9574.392,22338.33203125
132,31251.293,30914.203,62903.117,-1459.4453,2293.0554,2937.7026,32568.015625
133,-490.43927,-20980.822,-5744.6567,3561.4978,6980.331,-13374.094,32567.294921875
134,1317.2124,-4515.0166,-14599.584,-1070.9718,-6584.6865,3060.794,18871.923828125
135,271273.06,268143.3,279273.53,1371.4437,8472.993,-6332.097,20979.658203125
136,11710.518,-7545.9683,-4917.2905,-4363.343,8464.159,-6571.1377,26994.1640625
137,125921.54,126714.35,125866.266,-80.810936,-801.32635,670.20624,1992.21496582031
138,77749.11,77028.164,76896.055,-40.2571,763.8721,-677.43195,1940.24853515625
139,17790.156,27312.596,41091.96,6886.0825,-5830.8467,13058.816,34170.3046875
140,-31355.062,-63335.19,-31601.154,-12338.997,5213.495,2289.2307,39609.78125
141,9106.674,7654.872,11153.267,526.1184,4550.1636,-2868.124,9843.1845703125
142,15566.546,14225.665,22735.084,14893.56,-3372.3125,-6322.528,29703.416015625
143,1919.9792,7094.5537,6207.9707,5314.406,15622.089,48.213493,28980.326171875
144,-1453.3798,-1798.1752,7009.3057,5187.8594,6481.5825,-5322.8193,19142.2421875
145,-3076.6729,8003.233,-5627.519,-7579.8164,-628.69226,-7791.074,22653.55078125
146,-8412.21,-13855.394,-7025.919,-6248.637,-694.2189,674.1448,12611.166015625
147,-6391.27,-14939.56,-16306.863,10419.815,2154.8564,907.9931,20706.330078125
148,31775.945,18218.035,57864.11,-6881.603,-6986.3984,-941.33124,38849.2890625
149,21081.418,17374.98,44749.14,-7233.2197,1041.2036,-3057.83,29152.759765625
150,21879.105,15166.965,5865.776,10925.061,10580.219,4750.339,30912.5703125
151,-322276.78,-346886.97,-339309.66,-2498.038,-7570.568,-13735.801,35118.02734375
152,95450.164,78761.484,113630.99,3914.386,1494.6329,-1824.7163,31227.013671875
153,-8883.912,-33461.33,-6884.1465,-9461.346,410.1369,3882.1914,31168.375
154,-21448.365,-27669.223,-24072.56,-6646.2437,-1437.2081,-2468.4402,13647.515625
155,7116.7666,-2256.4812,37515.332,2391.1045,-748.6896,8870.325,39392.203125
156,-326.7238,7041.51,21485.531,-6053.1743,-5378.367,-434.41077,23803.716796875
157,-12540.284,77.82241,215.1585,10658.862,-1731.6865,-9021.912,27476.9609375
158,-7562.5483,3487.519,-13616.179,1641.7947,-3769.0237,3511.9558,17701.638671875
159,3284.747,8967.083,-13296.221,3518.9834,-1625.6301,13446.488,31447.384765625
160,6097.684,6472.342,8573.358,8323.326,-4416.836,4303.842,18090.59375
161,33047.094,19765.078,52427.266,3706.2388,-7202.193,6714.5786,33785.95703125
162,-7517.251,1782.6384,-30999.97,10213.893,-10197.597,3031.7512,38843.67578125
163,17954.223,29876.0,14723.288,-7959.968,-2584.8665,13443.01,30714.126953125
164,-21617.262,-1826.5658,-21156.305,-4703.2305,-5206.735,-1185.6324,23122.93359375
165,68584.96,70800.836,104462.55,4294.785,312.73026,-10078.273,39660.4921875
166,25751.967,2980.7441,16374.58,-9235.162,672.77704,11430.287,32281.671875
167,-19694.635,-23433.262,-17036.13,-2679.92,-8586.744,-8989.094,22718.669921875
168,-1312.342,13144.121,-5062.863,969.1439,4116.676,6401.1943,21303.982421875
169,13018.836,26966.236,3522.056,-9875.267,-1072.1653,12039.764,33882.93359375
170,-1986.7532,-946.9338,-19124.637,-3662.1965,-4948.5757,5702.676,22888.21484375
171,-125393.35,-131342.56,-97327.44,11170.532,-4641.632,-1912.6744,37947.46875
172,73113.79,79661.94,63944.36,-7296.838,-6141.6006,-14302.221,32765.0625
173,-7196.072,-9156.411,-11375.605,6248.0176,-1953.2347,-8026.786,18302.037109375
174,36285.223,21525.602,61520.29,-4198.826,2753.0618,7164.6514,38167.265625
175,6426.3135,21936.014,41174.477,6738.034,7345.8643,-1306.6946,34817.56640625
176,-22059.025,-22587.477,-52238.22,-3690.36,6255.7427,6806.6553,34530.6484375
177,-14571.018,-2138.2654,-31839.98,8427.744,8643.649,11845.331,39059.51171875
178,-18302.045,-5814.947,-6452.2627,647.29346,4737.261,-11076.652,24187.48046875
179,-20714.748,-22136.787,-29428.863,-6653.131,-5795.1167,6137.4917,20300.62109375
180,-6502.1978,11391.448,-9529.957,7110.3545,-3432.0615,3671.9001,24718.103515625
181,3813.502,21361.057,35954.543,4271.5713,2937.247,8925.577,33114.734375
182,-25192.115,-15823.32,-46165.016,-739.34686,5481.7905,1386.0583,28664.98046875
183,7677.091,1822.8236,1403.124,-186.83319,8574.678,-10988.917,24896.876953125
184,-869.8784,-758.1056,-539.58673,411.70712,278.83353,-112.62709,929.771667480469
185,1200.8214,1998.5188,375.0572,695.5814,-131.00267,171.87747,1889.05493164063
186,24957.307,25139.355,49037.04,-2448.5945,-2442.839,-704.91437,24756.068359375
187,17493.14,22216.334,26705.074,6225.5884,-6822.2373,-416.9879,17890.857421875
188,19796.232,22911.887,11799.57,-711.9293,-452.17392,1543.5068,10385.080078125
189,28419.941,31777.004,59459.625,-1846.8588,5137.6255,-6721.3647,33098.0078125
190,-15008.496,-32727.137,-20791.18,-278.18527,1974.4541,-6343.0522,19430.873046875
191,-5745.465,-8313.167,-15029.928,11611.416,-5242.209,-10338.381,29606.048828125
192,-5463.653,-15143.513,-10831.238,4359.1157,2676.721,-5755.422,15761.599609375
193,-10039.94,-2629.9526,-19721.926,9848.301,-4796.3574,-8491.198,28225.4453125
194,7274.092,11852.37,4539.9873,3385.0557,-903.6378,-1365.4995,9130.865234375
195,-390.25763,-3495.9202,6209.5728,-3191.8938,3782.2998,-20432.584,37411.94140625
196,-2429.5938,10662.153,4963.538,-7717.7373,826.8167,-13078.682,28690.76953125
197,2568.875,-2147.9956,5615.2095,5204.4004,629.27124,1033.316,11469.3818359375
198,5659.744,12866.07,10051.748,11913.332,5619.841,-2263.723,23989.044921875
199,-3491.1006,-22992.264,-15772.467,8872.696,235.27444,-2806.3718,23486.03515625
200,-5074.12,1758.2764,-24234.955,-749.76843,-3148.7393,3413.3186,24720.76171875
201,-9769.097,-12117.111,-9353.215,-8798.687,-4213.2563,-4184.171,18565.822265625
202,-2267.2144,7990.877,-6867.0356,10615.618,10114.788,5856.424,30355.662109375
203,7241.3906,5016.8574,11336.178,-10347.639,-3875.5996,3076.7405,20627.78515625
204,-20397.727,-19452.643,495.30933,6133.649,-2674.0098,-0.6215151,23494.306640625
205,-9283.958,15431.651,5420.0503,4242.346,-641.9879,-7620.609,26326.8046875
206,-2492.679,-2872.146,19158.42,2082.6882,4879.893,-4311.244,24846.392578125
207,11599.804,7435.7314,15278.568,-2609.1501,4848.574,-15312.098,28991.748046875
208,-5914.88,6205.4346,-11156.432,9798.894,-8446.491,4206.4634,28161.546875
209,4837.5396,-20531.51,-13860.883,-3837.525,-7068.1855,7286.5044,29532.95703125
210,-14305.712,-12014.912,-16835.586,3273.628,8529.152,6370.932,19738.263671875
211,-36047.195,-40512.56,-26017.602,-8499.87,-945.20856,8113.5166,24129.423828125
212,22005.824,33846.55,14268.148,7521.28,2871.0305,-4400.6304,23328.69921875
213,1121.8495,1871.2457,1582.1512,78.09035,86.58667,-811.00366,1562.84704589844
214,-12599.919,-13426.773,-14628.329,-147.44022,374.4868,-363.8097,2000.98608398438
215,25441.441,14342.731,20885.055,11402.08,11888.347,3780.2515,30826.345703125
216,4905.8335,-23776.395,6237.6587,-7583.6826,-638.7556,8841.0625,35649.65234375
217,-3208.022,-22867.527,-8509.863,-12043.164,-3292.5527,1697.958,28047.44921875
218,-10380.039,-9394.935,-20883.824,3051.7507,-18231.297,6424.3345,35644.68359375
219,-19410.816,3252.5757,-25603.078,5609.042,2771.019,4657.984,29577.376953125
220,6199.476,3070.2153,-17886.926,7454.4834,5903.7676,3716.9128,28762.685546875
221,5693.996,15198.353,44329.26,-1904.9622,2059.686,835.37604,35235.2109375
222,30074.203,15345.605,39955.355,1670.6594,1866.9447,-2093.6536,22182.970703125
223,-30934.887,-42941.637,-51582.676,7722.6494,525.6156,-5822.23,24576.86328125
224,15927.101,7284.577,-1163.7139,-2193.124,-4874.5474,-3816.105,18667.681640625
225,32877.45,30928.799,41471.605,-535.6151,1578.3442,2899.5842,11311.970703125
226,52502.34,53050.777,85131.58,-3869.1797,-4342.65,4033.383,34602.9609375
227,3854.0205,4758.3726,3917.089,2038.4247,-3121.5234,-3559.4893,8970.615234375
228,29476.865,24465.719,56679.31,-12852.844,-1708.1471,-6305.2637,39051.3671875
229,-21117.367,-25282.621,-58200.87,5275.7114,9210.707,371.97955,39705.15625
230,-6150.774,-14385.014,-37315.695,-7388.3364,-4345.2183,-3655.0598,32294.26171875
231,-7381.4556,-843.30096,-16407.639,-6954.5435,6983.116,13133.182,31497.05078125
232,247.24115,-16341.125,-16201.945,1397.3717,-2165.9712,838.28107,17173.376953125
233,-1302.735,10300.668,-18756.453,-4784.473,3205.4578,-1157.6729,27300.41796875
234,11450.81,19365.787,400.82278,-2903.82,-997.6519,7898.958,22083.30859375
235,9298.502,10901.836,5401.8022,-4840.7563,11309.45,12476.462,30740.83203125
236,-7038.991,-18643.26,-7302.161,-4315.5596,7196.46,16234.049,33668.18359375
237,24335.24,7408.18,17759.441,9596.819,9591.607,12086.765,34770.9765625
238,12330.058,-1970.5731,-7259.942,-8924.534,656.7133,53.236443,23417.322265625
239,5432.592,-4147.027,-3071.3203,-774.7362,9165.065,12537.4,28424.927734375
240,11219.688,15384.6045,25109.908,3527.2605,-7863.1104,3674.5732,20389.96875
241,-7732.29,-2135.2268,851.511,-4262.9814,-9430.389,13440.138,30334.669921875
242,-31124.322,-32623.76,-58331.17,-3452.581,-1686.643,-16635.852,39701.5859375
243,-6376.668,-15558.029,-28799.273,-1880.4478,-212.57755,-1918.4207,20074.498046875
244,18581.08,21473.965,54261.33,-860.83356,1968.7006,-8634.634,37626.46875
245,-39261.65,-35942.32,-68072.3,2196.537,1943.0616,-13642.831,38998.5234375
246,37590.062,59694.414,39663.145,12617.169,3038.971,14164.479,39424.078125
247,1456.4209,-24004.537,-14809.199,-11116.403,6832.838,-285.78317,31776.15234375
248,-58032.34,-73055.195,-74335.75,-16782.855,2741.503,12603.724,39883.1484375
249,171849.64,173556.25,144217.25,-2983.7983,-12567.258,3878.3533,36868.16015625
250,-88980.99,-89430.15,-111951.7,14366.858,5937.2,-6030.6533,36764.31640625
251,36610.746,50664.223,12095.971,4476.2305,11249.345,600.7282,39797.3359375
252,-101592.555,-96213.53,-131962.5,8021.4927,6857.6445,2631.3203,38334.25
253,44767.973,33343.57,41783.195,-2685.0876,-2452.1462,1300.7289,12250.322265625
254,32865.14,55253.7,69669.625,-7294.2197,2562.9387,8.59581,34801.45703125
255,-169730.67,-146566.67,-160274.53,6252.81,-4872.7715,-8500.517,28499.970703125
256,121976.625,121395.32,121440.586,17.243906,971.39166,-338.98746,1868.17724609375
257,-9989607.0,-9990555.0,-9991758.0,51.139385,318.38562,-261.24344,2000.763671875
258,64019.387,63849.254,63619.43,-4.9419417,119.15763,-1131.4312,2000.98571777344
259,-527245.56,-504002.16,-507151.88,-4434.8877,-10015.734,1466.158,29040.744140625
260,134751.14,139828.16,149675.47,1313.8214,-17051.701,5753.1235,33904.21484375
261,-220137.61,-225887.11,-229633.94,15269.803,-10888.984,1809.7128,33670.0703125
262,68487.08,77208.49,103139.99,-6852.016,3118.6946,5019.1147,34932.34765625
263,-42413.742,-64744.703,-87914.945,-480.11896,712.7241,2636.746,39699.09765625
264,-42016.09,-21725.145,-34851.6,1841.6886,-5037.3286,19021.541,38593.1953125
265,-38159.066,-78887.06,-60980.41,3136.3562,-8569.379,-2999.864,39075.90625
266,-37732.96,-20731.498,-61488.58,-1613.2577,3070.7393,3570.9385,36491.23828125
267,-31637.793,-43767.016,-64585.633,1448.7532,-542.90985,1800.4081,29153.93359375
268,42059.54,40513.484,67111.234,-3317.0635,3925.43,-1573.4093,27484.0234375
269,108863.32,110463.484,148637.12,616.45605,-4392.262,-953.8072,39782.11328125
270,43932.688,58024.184,86442.24,-3312.0818,-1690.2604,-2987.6753,38404.015625
271,55788.992,20870.256,35438.184,-3501.033,3672.0828,7210.596,34000.75390625
272,-7272.6196,-13050.128,1163.9529,12352.273,6037.6934,1935.0858,27048.6328125
273,23198.66,11697.195,53034.742,1102.3136,1619.2108,1994.1136,37270.2890625
274,-11086.78,-3816.8567,11135.643,-3730.3113,9023.279,-11361.61,32532.9921875
275,11755.403,22496.396,10551.943,5474.457,-1079.0123,-8652.222,21159.58984375
276,732.7763,35273.14,41947.9,4825.9604,-367.84366,2884.5247,39539.53515625
277,-11748.674,-7022.584,-14443.338,1688.0803,328.24136,-3452.1685,9325.064453125
278,15791.519,20914.832,41382.99,-3882.649,6558.767,10395.608,32381.1953125
279,-14220.826,-8379.442,8655.961,1284.0197,2201.7207,-4407.2944,22396.3984375
280,-5913.857,-11574.451,-5584.828,9859.725,7652.5786,1825.5968,22612.826171875
281,-24913.541,-36147.84,-41621.91,-2877.4373,-2699.9878,-3809.9526,17547.884765625
282,9448.92,-843.4633,-8141.7954,4118.879,-1698.4332,-2857.955,17842.904296875
283,1625.5435,3647.8667,19397.84,172.87871,265.78635,-769.5497,16913.93359375
284,6858.432,8183.709,19816.021,3097.6326,3062.5688,3098.3604,15433.9423828125
285,-22390.273,-1874.751,-15380.699,-783.15594,-775.746,-13108.5205,29075.09375
286,-9187.973,-16476.281,-15021.4375,-9780.513,11169.768,6076.9263,28577.72265625
287,-5981.7466,-19963.19,-16433.154,-7756.413,-7884.376,4435.0317,24177.912109375
288,-10175.77,-7572.4297,-6302.495,-11331.102,1700.318,5202.3896,22062.3125
289,-2248.6362,14193.76,-8489.988,-1420.1011,3430.7444,-5740.8745,23498.142578125
290,-36279.6,-32886.543,-27088.334,-12323.435,-2641.5925,3345.9912,23977.654296875
291,8908.137,9921.102,18869.723,1413.7281,3091.972,431.19083,11198.3515625
292,10142.868,8119.432,5374.4355,-2257.1729,-3709.3499,350.63605,8608.994140625
293,25517.16,30309.785,43866.688,8355.63,-4461.5303,-7009.1606,26235.138671875
294,25885.797,29973.074,38052.625,-212.01761,-10238.851,-16880.455,35839.84765625
295,6535.48,8581.599,7948.1157,-3101.3193,1253.1736,843.16504,6244.2275390625
296,5225.8833,4117.038,3395.0298,-629.68634,283.1433,86.49168,2000.97399902344
297,13358.952,18918.99,8643.363,1602.4504,-1895.5514,-1147.3566,10089.6884765625
298,11108.203,4376.322,2893.1426,-3167.318,6778.5254,15331.055,30505.201171875
299,-17424.332,-6790.588,-28802.45,7739.0547,-1394.746,-521.0556,23449.080078125
300,-21399.742,-7361.068,-16938.078,-840.09424,-3666.7104,-3946.4055,15605.4130859375
301,-12918.4795,28362.318,15062.273,-3337.756,-6996.4087,333.53738,38891.69140625
302,74900.03,105570.22,118201.09,-4410.463,-1546.981,-3567.3452,39891.16015625
303,-61965.445,-65562.81,-101673.8,2884.547,729.7587,-3194.4487,38781.71875
304,-136132.3,-135304.75,-174308.36,2426.6519,3959.2732,1666.5643,39531.1875
305,-71852.484,-39986.484,-66626.45,-390.29034,4970.8037,8179.057,33933.6875
306,48578.125,48532.52,47503.54,-114.61249,-293.85098,-930.5337,2000.98474121094
307,-28617.518,-25233.566,-53313.77,11418.322,2015.1304,10885.373,38258.55859375
308,276415.94,276018.7,294086.34,700.232,-6584.9375,-3763.3577,22214.05859375
309,110028.35,112798.08,116087.62,-1127.5682,-13063.323,-9077.835,28117.4375
310,36041.24,-721.5541,5047.034,6782.8027,6135.127,65.598366,37731.44140625
311,68805.04,39062.27,29322.84,-1130.2227,2534.0647,7082.372,37983.45703125
312,17065.643,1191.0742,12164.2295,-3246.0706,-5543.875,3333.9578,18851.482421875
313,-18924.37,-20757.756,-31304.668,3745.3958,-1461.3223,6195.851,17250.8359375
314,-14209.246,-20829.346,-21541.076,-7503.858,-4543.0146,-538.0272,16755.685546875
315,11237.794,6391.422,41713.285,5767.518,7489.8735,-6020.6123,38428.75390625
316,13502.939,18657.7,25692.727,2751.937,-3997.5142,3589.193,14887.3701171875
317,2095.2185,1304.8511,3362.484,2683.9482,-100.81292,3248.5637,7518.84130859375
318,-7853.578,-14720.598,-11612.8125,-4428.142,987.79034,5658.153,13902.1455078125
319,15772.602,23195.531,42351.527,1445.2275,-4517.8545,7506.6226,28298.283203125
320,-14111.343,-36014.992,-10957.643,2898.584,-1769.1953,6726.416,27002.2734375
321,5075.3486,11040.66,25279.78,-10943.46,-10438.138,200.67404,31773.27734375
322,-369.5538,8554.374,-4201.1543,3486.316,116.379105,7685.9585,18499.62890625
323,1569.3491,812.03455,2062.701,512.87463,743.078,-350.00027,2000.91491699219
324,-58990.59,-69360.5,-78157.12,-6026.3076,954.5235,8811.823,24915.11328125
325,-74.38336,18451.113,8517.832,-6920.364,1036.2496,1458.0155,20276.05078125
326,-650.5303,-12361.745,-32694.281,6106.265,4779.261,2360.504,31397.173828125
327,-8899.652,-15210.666,-14881.484,10197.935,8503.672,5041.725,25358.384765625
328,-8788.466,-13123.146,-30041.008,-11845.005,-1123.6962,-9705.698,32949.0390625
329,1273.663,13093.073,13524.376,3523.342,11779.238,-414.04654,24474.265625
330,2290.1592,3622.0557,-201.73491,-3682.6306,-3154.0645,592.9529,9104.2236328125
331,4282.1616,3662.5955,19645.193,1278.6301,4960.5703,547.7065,18043.04296875
332,-301.78662,14637.797,-2642.3174,-1176.372,7013.4272,-6755.179,23499.982421875
333,-85532.7,-115241.336,-116390.24,6477.597,10846.063,-4909.51,38329.546875
334,58398.785,40738.082,82411.734,-5758.46,-6189.577,-3438.5781,39528.36328125
335,184528.58,184687.56,185006.73,169.0797,909.23676,607.9313,1962.7861328125
336,233048.53,200055.98,217357.28,3735.2598,3224.433,-262.7495,29837.623046875
337,16001.605,46139.816,59820.605,-1296.8341,2045.264,-4510.756,39829.95703125
338,-24944.908,-30159.582,-18952.672,8538.996,11213.453,51.056656,26274.0
339,2504.0466,1353.7578,33681.695,-1209.7753,-4172.3525,-8694.992,35953.54296875
340,-51977.234,-56089.727,-88984.18,4753.0312,1582.8909,9039.37,39429.140625
341,-19201.725,-26302.484,-26605.336,-1275.4154,3973.7832,3389.205,11805.7626953125
342,-8358.525,-22881.795,-24236.256,11513.075,-4571.5347,6201.2983,28427.9609375
343,30956.62,18215.734,45836.18,-3646.9802,15827.197,-9076.405,40147.921875
344,2225.855,-18171.658,-1856.6633,-13451.971,-4490.091,1436.679,30967.623046875
345,5695.2373,8216.239,13880.188,-3495.5737,3577.1719,-4174.5835,13417.958984375
346,-14432.338,-10188.509,-38074.29,-9021.835,569.0338,-6063.331,32136.08984375
347,7091.5312,7421.2407,-6650.514,7924.7417,9982.434,3266.254,26699.06640625
348,-23028.332,-23041.186,-39807.52,3175.276,-4678.7314,2678.7478,19969.26171875
349,-9949.698,-14462.19,-42070.43,-6606.4043,759.27155,1079.8351,32300.474609375
350,-7740.2285,-8088.2637,-8291.3,287.4733,732.3284,-540.10144,1721.91223144531
351,42757.78,31179.705,69030.96,7255.3774,-362.43558,-7694.669,38268.31640625
352,-19059.285,-13612.1455,-36700.168,-8298.768,3675.4783,-233.71423,26158.447265625
353,23838.783,26331.145,3393.9668,8909.958,-4743.615,-4513.645,29016.287109375
354,33133.797,10264.305,47504.46,7351.3647,1456.7723,-421.96948,35031.52734375
355,-14041.478,-15577.268,-12211.71,-12663.013,-3029.9695,1480.4287,22884.265625
356,92361.94,66499.23,108188.84,-7586.5796,573.18335,-1505.1621,38847.75390625
357,3216.9968,-1904.3419,-16815.754,-5285.3887,2576.2087,-1746.8914,20924.056640625
358,2206.147,29537.836,13603.525,8005.0747,-566.622,-3687.337,28273.8046875
359,-19741.625,1160.0303,2528.12,-992.8017,4577.6006,1291.621,23198.51953125
360,-118.10986,-6586.1084,-11209.916,-1055.095,475.11075,-1016.9755,10012.041015625
361,-2634.6553,4733.876,-6341.0933,1215.0116,161.9076,132.48972,9995.1982421875
362,14338.799,2182.5596,15859.047,1773.1969,-1818.6736,1068.3994,13832.7744140625
363,2015.4227,2376.24,4053.4302,-4642.3394,-775.12524,127.73676,8369.806640625
364,25214.348,13297.234,24501.033,-7689.0713,5053.167,-4827.1,21398.537109375
365,10688.649,6686.38,12120.09,4034.2876,-744.39764,-182.91263,8624.6962890625
366,-11172.49,-18516.068,-29193.328,-51.40517,152.06987,-2284.3303,16188.671875
367,3669.1855,13164.5625,15173.557,-654.9712,867.59265,1150.8737,10990.5888671875
368,-2082.5833,3511.6226,118.62738,-3645.32,-442.9812,3817.395,10392.1953125
369,-2077.3025,2290.3564,-5345.505,2020.1077,-658.30035,58.14094,7588.458984375
370,10431.639,4935.257,11174.3125,1102.1475,28.884466,941.02783,6414.59912109375
371,6018.027,3908.778,13276.337,4104.734,-1985.6672,1995.7363,12114.685546875
372,-3428.8843,-2181.0789,-10532.274,1707.4451,671.7768,2246.3367,9279.9169921875
373,1190.01,5159.688,-3584.9214,7367.7573,-85.135635,39.197655,14845.576171875
374,4868.603,2381.1016,165.06616,5454.7207,331.72318,276.15863,10316.5751953125
375,2423.2966,5237.335,-1698.3896,-3973.7932,281.30582,130.41216,9174.2685546875
376,-38026.48,-51536.12,-56533.754,1053.9015,-2500.913,3915.6206,18522.82421875
377,-4880.751,4873.1343,-7611.826,1922.3575,-2248.964,1784.913,12847.3056640625
378,2109.995,4922.9517,14569.786,-982.2995,-875.2063,-914.87415,11653.923828125
379,-1951.4857,6654.3623,-11078.278,3044.9265,-517.161,568.64886,16293.8623046875
380,-26939.664,-25190.883,-20497.316,4470.675,4796.8696,253.95424,12746.763671875
381,-18158.768,-1055.0059,-10282.911,1627.1217,-1757.1488,840.6915,15465.658203125
382,-2924.9263,-3585.9648,-1144.1049,3169.7498,845.72363,3532.4932,8631.841796875
383,4828.876,-1076.9463,7263.3447,-569.3555,2373.3286,-277.10217,8560.59765625
384,6455.391,3311.6448,-1028.1746,2318.4475,545.4451,360.4427,7730.9990234375
385,857.64526,433.80634,472.65228,4983.838,-255.81894,358.16833,8675.35546875
386,4223.8,5831.3823,-320.76733,3139.622,-47.34158,-239.84622,7764.931640625
387,1482.0752,-5318.0024,-9006.861,599.2665,-753.37897,-236.50388,9374.4951171875
388,-9683.623,-3303.439,-17771.496,-1165.2083,-1126.857,-975.88794,12979.2978515625
389,-3984.208,-18.625,-8080.9937,7905.3657,-796.90125,436.4654,15450.4609375
390,-2842.9517,5191.147,-1905.7759,-1947.3589,-2676.5583,2380.346,10380.86328125
391,-2179.9326,2669.4412,-11947.8,-5786.96,-734.9516,87.2576,16383.091796875
392,4910.739,11607.183,37.698242,-2198.7388,-249.85347,-471.7673,10797.1875
393,-10185.254,-3274.0547,-511.81445,2779.6846,1750.0685,-2746.1294,11378.791015625
394,-3131.7314,7530.5684,766.5418,-6193.89,2464.8467,-2030.7596,15264.5927734375
395,6516.204,5136.079,8612.724,2669.826,43.390842,1437.3844,6064.765625
396,-4033.3633,-10740.352,-27719.64,1345.6333,-2313.5576,-543.12604,21668.748046875
397,5018.535,-6291.396,-5322.1157,-648.9396,-895.3059,-148.42867,11028.4052734375
398,1188.6436,-13908.641,-19334.875,-1414.4967,1717.3395,-759.6198,18864.640625
399,19423.572,19453.908,18754.904,-3751.366,24.32698,-567.58167,6607.1767578125
400,5981.5337,-6073.782,7973.9453,-850.7401,-3710.837,-114.32847,14725.51953125
401,-2729.7727,443.02368,-4756.781,4242.386,-3144.5374,462.9636,10242.4384765625
402,-8533.26,-22157.549,-9282.094,1749.9642,-76.05289,3805.1848,15120.265625
403,19182.71,20114.012,22753.639,2086.903,-1794.3143,-82.861435,5747.87109375
404,-4367.467,-1359.8739,128.6565,3469.3755,1975.9478,-210.6135,7980.859375
405,6103.5063,5547.236,4155.9546,4682.2646,4112.197,-1796.3351,11366.65234375
406,-27.992676,-1842.1631,-6031.154,-3720.413,-956.8329,457.31265,8563.69140625
407,-2521.8364,3024.2983,-13399.638,-944.23517,1579.7858,-537.43085,14847.3671875
408,815.2403,-3469.1782,-2643.3403,8067.724,1289.9744,-1700.4202,14981.0185546875
409,-9715.372,866.91064,1095.3884,2747.0925,-5726.297,1809.5598,15661.7119140625
410,11823.579,7455.164,8496.976,-383.59457,-1819.0961,493.94928,5168.95361328125
411,2017.4312,717.0239,13533.923,-136.2485,891.5458,-1398.7765,12554.15234375
412,3996.831,6464.1113,2205.1602,-1561.8469,445.1973,-1364.5378,5216.962890625
413,-4369.976,-3201.8167,-8613.322,-7130.7954,2390.9346,-1917.1442,14319.505859375
414,3580.8125,2250.5542,14214.202,-2072.9128,1023.96106,2121.872,12590.755859375
415,-23684.318,-1896.5771,-6574.825,3966.512,-4150.342,-1170.1268,22307.990234375
416,-9992.01,-13506.401,-10803.392,878.7822,1996.4105,2361.398,6415.615234375
417,-22161.092,-7963.574,-13692.858,2640.0571,-720.8093,175.51163,13251.9208984375
418,2241.3667,-1171.54,-5447.436,-858.01056,-908.3002,-3272.1038,9018.2041015625
419,2340.4172,-2025.8956,-961.8261,-795.0562,984.63947,-992.1777,4827.9404296875
420,233.43091,-10701.003,810.42944,-294.49078,-185.15862,-658.1578,11307.8056640625
421,24100.791,17521.861,16251.74,-4863.1436,608.93964,2422.2957,11954.791015625
422,32670.68,33716.945,60867.195,-248.95984,2306.085,-5157.388,29369.595703125
423,-9512.816,-25092.229,-17046.168,11744.462,6423.028,-7606.0693,29886.857421875
424,224.0,-15971.776,-16139.899,-2436.4775,-1207.3645,-2176.0537,17362.095703125
425,-5819.7373,2649.338,16502.947,1655.8368,2083.5627,-1653.243,20258.916015625
426,11207.119,11010.0,1708.9365,2786.4382,2289.5527,-1856.6996,11736.3935546875
427,12031.465,458.37988,18460.627,-426.49585,235.371,-240.16412,15829.1064453125
428,1348.7576,-1746.6344,-8809.564,363.3478,-717.82117,-970.7482,9278.89453125
429,20732.713,10398.6455,25265.584,697.91064,2922.7402,1959.2405,14587.2275390625
430,11812.319,9797.478,15102.552,717.30316,-107.28788,766.61346,4985.5498046875
431,17905.494,10490.152,17261.912,1015.3103,190.61703,2515.3237,8532.9501953125
432,2633.3418,-1653.7563,7754.509,-2502.7935,373.52505,-2398.4988,10150.3388671875
433,8372.857,15575.465,10417.856,-475.6834,773.35,-5949.2847,12246.845703125
434,-12762.626,-11728.302,-16628.088,6042.2075,1754.359,-202.87727,11785.21875
435,-3216.3745,-5517.16,-16557.496,1122.5308,-484.92126,502.6395,12562.94921875
436,4779.0664,-4649.408,-2411.9966,3132.5662,-884.49255,723.9815,10303.6455078125
437,1441.3622,1587.6542,5133.7983,-3043.505,1151.4961,-1064.7052,6948.5751953125
438,-14923.172,-12358.6875,-18798.969,-3758.898,-1369.2759,142.43277,8922.51953125
439,-14421.217,-16703.24,7012.0537,-3170.5398,2760.4934,-1496.4915,23942.439453125
440,-3815.733,2112.8674,5636.7646,2187.437,-507.12643,1703.6908,9606.861328125
441,-10301.074,-10139.019,-11865.021,-6427.7026,-582.65094,-2742.3376,12257.708984375
442,2929.7456,7415.4707,-550.3672,7086.868,24.764353,-38.107918,14089.7490234375
443,7031.4526,1531.9404,-1326.1875,-1024.5594,-24.970428,-1149.8037,7826.17529296875
444,5864.0493,6056.5,5883.3843,143.15363,-709.56,-364.3338,1415.56079101563
445,-6229.392,-5544.1694,-11007.374,-4506.0376,73.41741,-1302.0266,9622.251953125
446,-13857.34,-16911.4,-28731.594,1328.0153,-1964.0739,-4236.752,15995.5517578125
447,24947.098,11078.342,9850.811,-4230.396,-415.4608,1003.71716,16373.8349609375
448,7655.9834,-4776.4785,13660.865,2010.7988,-4259.9,1480.9451,18396.46484375
449,-3738.6064,-2316.1177,5011.8506,-1509.7639,-300.38174,572.93225,8616.2724609375
450,5785.1035,5439.2295,5392.5776,219.856,-1154.7441,-1608.0916,3470.03271484375
451,-6418.939,-4513.2646,-28244.174,544.42664,388.4231,962.2305,22927.794921875
452,13761.727,1656.8799,6292.565,37.6318,383.76855,1008.6314,10742.47265625
453,-20896.385,-27818.545,-52770.83,-405.34344,-3165.003,1708.0723,29707.8046875
454,20118.424,25633.072,27139.066,-2905.0012,926.1242,3612.13,10393.125
455,175.42773,-284.73047,-13559.438,2890.1936,-327.85107,-1548.4297,14666.734375
456,9843.303,8727.983,12003.331,1446.8224,1891.2107,1036.7252,5343.509765625
457,-9719.405,-15902.293,-36285.457,7306.675,-1213.9089,3362.2314,27896.689453125
458,10289.559,824.4844,20777.578,-737.7917,-2169.3098,2110.8704,18110.0546875
459,4764.776,17159.787,5665.0483,3365.2754,1545.938,503.8488,13608.619140625
460,5569.8433,4932.1772,8223.432,2882.258,-2718.65,-201.29955,7507.14501953125
461,4801.552,1191.7305,6112.6655,1615.7703,207.41577,571.0725,5331.25634765625
462,-2742.777,-3269.0957,-1017.3822,-321.00226,-394.92593,-534.8144,2407.73999023438
463,-10900.57,610.91113,-23622.188,1393.9761,1748.7737,-402.9494,21360.9375
464,-22057.33,-21226.775,-11787.12,3502.7485,559.02423,-332.27823,11649.6162109375
465,-3229.0498,1775.766,-1883.8982,-3628.7034,1411.9469,-617.2706,8170.1708984375
466,193.9624,3041.3594,13252.56,-1724.3314,1717.1912,736.3574,12682.447265625
467,-6691.314,-988.01056,6927.794,74.43105,795.8962,2251.3303,12548.1591796875
468,25207.615,27685.662,52670.85,-820.95135,4091.0286,-8700.725,31171.369140625
469,-203.8877,-1867.7795,10088.75,-2210.4114,866.99854,227.701,11954.125
470,-6354.4897,-10366.297,-16870.092,1583.71,-664.24176,-521.84467,9703.140625
471,24201.664,24213.752,11456.966,1151.311,-830.5531,-502.64972,13014.818359375
472,-3429.0664,-3860.7422,-4808.4824,1411.9869,-1681.2705,1640.8442,4902.2353515625
473,-8487.004,-11716.956,-15573.571,542.2607,-1465.0131,-267.69254,6730.427734375
474,8425.719,8573.869,8286.803,996.77026,-1540.8748,-1294.1863,3897.45043945313
475,10557.0625,3221.371,-5488.371,-6624.348,1071.8978,-387.76263,18141.33203125
476,10980.404,17417.098,13589.257,2661.3203,-1406.4773,1135.8717,7905.5537109375
477,-14547.918,-14726.229,-26218.414,-2830.6958,1330.3058,-1749.9207,13140.9912109375
478,12709.161,-2409.0317,2467.0994,-45.726414,3979.4368,-1544.8518,15273.8935546875
479,-15107.889,-28185.516,-25205.018,1367.5677,1122.974,-1786.7002,12645.18359375
480,42.49243,9526.22,1371.2529,778.2575,637.17,167.77164,9067.7744140625
481,4203.2383,4852.935,-10.719482,-5143.5435,314.39914,-165.03743,10033.130859375
482,7378.6284,-5764.0527,1314.9048,-1731.7573,1169.9523,-659.90375,12008.953125
483,12272.831,-9816.982,-6246.014,-711.40424,1212.2991,642.204,20712.17578125
484,1139.7576,5942.989,8517.247,301.74872,-795.70935,-57.557213,6651.70263671875
485,-13678.208,-7611.8438,-16926.467,738.8773,261.03394,628.23047,8371.5791015625
486,2361.0645,3461.775,5626.2964,2027.9319,733.8195,-1436.3778,5331.20703125
487,-5090.841,7046.2495,-2846.1096,1032.527,-293.00912,-1.217334,11338.3935546875
488,4230.8643,-549.4238,7004.6,-1345.0712,1713.845,-1141.3566,7870.9306640625
489,-4566.3643,-22469.285,-10196.644,-3310.732,194.73425,1077.7106,16967.533203125
490,13144.924,15880.422,28022.91,1120.413,-1237.3522,-41.265526,14017.9501953125
491,-13612.153,-18667.002,2624.7783,-2005.3794,-953.3332,594.5074,19675.267578125
492,-29057.12,-30490.854,-13960.194,-3504.4648,-150.68636,1021.4534,17078.048828125
493,3990.9075,2147.3438,-1951.0781,-670.4842,445.70978,-835.20874,5638.158203125
494,-19.404785,-14645.982,-4329.9844,-2886.4749,184.21219,352.19046,13962.017578125
495,1266.73,-17063.1,3195.9897,-2452.883,878.4036,-103.35099,19886.287109375
496,5274.979,9924.543,5993.6436,-1314.7946,-294.14813,336.8951,4957.7783203125
497,-10686.545,5418.9585,527.67053,-2016.2068,-1758.2632,1994.518,15425.2822265625
498,1425.457,16878.215,19081.922,-2891.9263,-651.2182,343.42508,17447.44140625
499,3404.5552,-4530.698,-128.86264,-3004.2507,-1433.1846,-514.11615,9024.759765625
500,24995.662,23858.64,17488.432,-341.013,595.0645,-2896.6028,8700.43359375
501,6422.658,-358.5918,2070.8958,-448.67645,-872.735,182.2091,6196.880859375
502,15229.734,9474.696,5207.025,-3083.867,1560.6241,-64.693825,10570.9033203125
503,-13742.142,-7882.29,-8534.24,-1752.4702,121.48241,87.48994,6342.18115234375
504,19995.078,15008.961,16868.742,-562.2416,1870.5219,-2844.8564,7400.783203125
505,-24331.408,-10430.721,-15411.51,852.70966,377.57922,2283.4495,12924.876953125
506,10987.348,24234.666,16555.994,836.79266,208.1085,120.41929,11619.1962890625
507,10280.53,28224.596,-3136.2803,5225.063,-1528.493,26.692898,28838.640625
508,-799.78735,2714.8652,2648.136,-4205.4873,-3766.1104,1691.2949,10784.8642578125
509,7966.622,6471.564,1915.4348,1374.9167,512.663,338.25565,6050.462890625
510,307.60608,-2431.4326,-3072.703,-784.2245,320.06436,-13.396913,3438.44604492188
511,-14027.5,-14482.02,-10905.751,1806.3771,-215.62773,1441.3942,5247.107421875
512,-13.701416,6986.3438,1189.3989,981.3007,-390.70834,158.12413,6741.52392578125
513,-1330.7488,316.30835,6506.913,-23.844452,649.1818,3.5162637,7245.60009765625
514,5959.092,9991.725,9568.01,4699.2407,188.11415,521.7574,9050.10546875
515,-1667.0271,447.04224,1963.8728,-769.7025,616.5173,211.56996,3609.52099609375
516,3973.233,4488.934,-7652.2407,1359.7775,811.51355,-408.7676,12224.43359375
517,-35228.773,-27221.262,-3720.205,5164.076,1177.5117,630.8718,29832.224609375
518,22375.729,18313.27,31906.99,-1158.9312,-1572.2257,3541.5598,13969.318359375
519,26628.082,16423.76,6721.6553,-10414.466,68.653824,-1360.2152,25064.125
520,3622.3284,7107.3047,-5482.418,3225.4983,831.8153,-683.83716,12706.748046875
521,-4884.529,-8649.161,-13432.184,467.55008,1773.1416,2334.9587,9027.740234375
522,6097.973,1074.8949,-12796.51,646.60144,-1114.4417,-864.5261,17162.365234375
523,1395.1956,5148.4634,-7189.0513,-2225.7205,241.57156,645.5567,11673.9912109375
524,-4470.7617,2221.1267,-8209.7295,-429.64215,397.90576,-21.482086,9209.3515625
525,-1444.9188,-3561.0242,1397.7698,2507.0193,-1146.6897,-219.89906,6443.55517578125
526,-4892.661,-17481.979,421.3081,1652.3883,-1048.1102,-453.52478,16301.2958984375
527,-17350.248,-20830.166,2705.289,-2099.0557,317.21527,-910.0548,22363.599609375
528,3462.0212,11020.504,2251.4385,-2431.7566,-139.9875,-6.9270864,9249.0859375
529,1446.3215,3444.423,3663.5576,2088.8474,-21.872313,977.34436,4520.5283203125
530,-7604.6494,-11608.726,-34468.168,-1026.0062,-788.9045,745.95105,25235.138671875
531,12542.598,6546.909,15449.76,3482.1226,443.9265,89.25325,9940.873046875
532,-1198.1982,2406.7888,11387.642,2533.1333,814.47845,559.2934,12174.0029296875
533,7743.637,-9755.789,-1342.3354,500.85403,9.92842,79.244316,15184.111328125
534,9749.89,-3986.3394,1537.1724,-2937.5007,-275.59317,-520.9372,13047.9755859375
535,4073.647,338.31348,-460.28967,3023.9346,-286.697,-206.88641,6736.546875
536,7342.5625,1792.8916,3618.0725,2447.163,170.03035,-971.7669,6699.74072265625
537,-26748.113,-14998.156,4873.84,-404.57468,252.0224,564.0074,27714.412109375
538,-25700.227,-9468.449,4802.6055,6047.201,-504.94785,865.8843,28486.80859375
539,2864.0664,12776.517,3177.7583,-1775.5103,183.54375,568.2982,10284.59375
540,159.2207,7686.45,5127.5684,-1042.0375,-665.3719,-71.87826,6967.564453125
541,-17807.822,-2656.7598,-1142.5483,-4434.5483,205.40385,898.3902,17785.751953125
542,-7388.842,-8180.9346,-5452.752,10962.269,190.41527,-861.6928,19203.1171875
543,-3197.8506,-10846.912,-4262.331,5611.725,334.90393,480.1045,12124.4111328125
544,-4577.073,-27625.668,-1994.5107,674.7325,-231.58083,45.614643,24473.755859375
545,-13674.816,-2650.7788,-9558.397,-2069.9456,499.90765,178.32408,10334.11328125
546,-8000.6914,-26580.688,-67.64453,-3599.0454,529.1427,982.04913,24456.861328125
547,-8058.993,-21681.059,-4141.9097,-2276.9653,-29.427092,-206.96973,16430.087890625
548,-7564.974,-21850.941,1859.21,-5194.5757,-15.47096,410.78098,22560.927734375
549,10966.215,3282.663,2260.372,1487.7478,222.82948,-266.77527,8656.76171875
550,1822.6145,4008.1357,1521.4744,5013.5884,-210.57115,-679.4811,9080.2880859375
551,536.45483,3697.6895,3229.7634,5994.401,-616.9662,351.35797,10864.8037109375
552,-18054.258,-5193.695,3934.8252,-2217.4585,316.59528,-1201.602,19634.29296875
553,718.42236,-7023.468,-8712.271,-1189.8002,-449.05927,42.99835,8984.4775390625
554,-22584.832,-6282.338,-9093.043,165.82927,676.6185,-33.995247,15142.9609375
555,7246.376,11604.833,857.4409,-5510.3794,670.6901,1223.0122,13586.3955078125
556,-765.63916,3884.7683,6493.4204,968.0835,-500.25174,-494.85016,6697.73046875
557,7883.7905,19607.67,11937.682,-1350.9409,-862.57794,-399.17197,10702.3974609375
558,17949.285,15844.671,3822.1846,5941.6567,921.8734,-49.026768,16814.841796875
559,15693.171,12296.105,4680.6357,4120.221,382.66977,718.7894,12178.818359375
560,-16620.287,-12421.343,-157.42969,-4787.1016,56.300804,-21.32241,16979.107421875
561,-18029.455,-8527.317,4528.1875,-5048.562,272.5161,-694.0338,21515.6640625
562,2216.8596,1274.8678,-454.95825,-5054.9683,-818.5766,-3117.3418,10645.69921875
563,2959.1216,-8275.38,-1275.6912,388.3655,295.70016,-663.59076,9930.130859375
564,3425.6343,-2640.9102,2359.2085,1853.0736,92.94967,-877.40564,6641.36962890625
565,5925.7505,10082.615,239.34717,-953.335,-4.658901,-74.77001,8717.55078125
566,5005.014,-1141.5013,854.8218,2454.2942,-230.01666,-637.4551,6995.92578125
567,9099.852,-1540.1553,1147.1395,2778.0903,-321.34918,314.2562,10751.646484375
568,9146.588,9666.661,254.89844,-5037.9272,70.867966,371.09616,12669.9365234375
569,-13294.988,-6126.873,-7859.5137,-1291.507,-335.79587,-437.2101,6919.52734375
570,1371.4923,3509.4065,-4499.4624,-3250.0688,173.01465,585.86664,9186.87890625
571,-25022.754,-7259.939,-4745.446,-4652.3765,505.24023,1118.8875,20879.658203125
572,13078.132,15207.494,7284.6665,-4907.45,-762.15466,384.27615,11174.509765625
573,3659.7488,10230.325,-1694.4077,-1320.6149,346.66644,-870.4411,10718.4404296875
574,6084.3945,7015.1143,8460.05,3034.236,-1421.3251,848.1272,6335.38720703125
575,-7147.905,-2484.5332,-14405.845,-2841.9185,-182.4529,1069.0063,11663.142578125
576,1887.7505,4950.142,-970.96216,505.34836,-2673.0413,541.37445,7027.50439453125
577,-2541.3274,-2527.473,-925.521,-2477.937,-722.22516,2092.8752,5976.1494140625
578,-20603.746,-8092.367,-14028.314,9021.822,197.55446,2614.811,19552.794921875
579,28138.295,24862.426,18147.908,4520.1753,-4933.875,269.39993,14572.404296875
