Element Label,S11,S22,S33,S12,S13,S23,Mises
1,132.0303,-2927.4219,261.89557,907.3625,218.62268,-369.1689,3577.23266601563
2,-594.6809,1010.3163,-1396.4769,571.4399,-505.81567,855.0659,2906.26318359375
3,751.0361,2040.966,3018.6248,279.76877,942.1872,-793.01855,2943.71264648438
4,1134.2926,1501.9888,-2896.02,65.86412,-2173.5005,1259.656,6066.80126953125
5,2007.9938,4906.768,5139.7837,1866.2576,1343.092,-1828.3612,5917.921875
6,-930.5594,2177.5781,-2774.7131,485.95892,-665.9508,703.55817,4724.111328125
7,1822.6729,590.61017,3752.075,1770.3766,1477.9812,-785.8624,5042.4638671875
8,-4744.242,504.1291,-4924.8926,916.36945,-2714.017,729.44653,7398.60107421875
9,5742.048,2432.662,4027.2117,771.0341,5557.6143,-626.7047,10190.22265625
10,-1892.3201,-474.09726,-2808.8298,551.0072,-3963.6685,1158.087,7497.83203125
11,-257.5263,2564.2468,-1115.4093,1015.69116,911.0165,-82.42696,4089.52783203125
12,2126.3567,1297.8038,651.47906,12.481337,-1450.4922,71.879585,2822.67602539063
13,-2628.4036,1024.0734,267.0159,1607.286,2062.5303,444.98938,5679.333984375
14,4265.2725,383.58246,-85.47746,1178.5652,-4168.787,-1135.7684,8790.9951171875
15,299.2579,4935.4775,-335.43866,1584.1497,2256.2415,856.4059,7059.79638671875
16,-582.77295,5211.8975,-2764.4553,-2867.5518,-2176.096,457.03214,9512.1728515625
17,-633.432,4398.5977,4186.647,-1007.7668,-81.47492,338.65967,5264.0732421875
18,667.46216,2274.692,1567.2906,853.9154,-210.66278,611.99994,2321.83764648438
19,8752.164,-3692.797,20263.818,-6705.028,-4127.0273,-2303.6384,25150.484375
20,-14283.969,-8974.588,-25645.879,2434.698,-2289.3704,1497.5669,16057.4677734375
21,-567.9324,494.82727,3134.6604,1475.7267,-812.3701,-808.6628,4623.70361328125
22,17285.518,4304.311,13252.828,-1853.25,11660.272,-1638.6975,23636.212890625
23,1780.4956,261.72345,9847.54,1527.3074,1302.7637,2.8234653,9577.341796875
24,1198.1741,-3773.1438,-17692.09,2004.3922,-1530.7579,1093.819,17615.853515625
25,631.3395,4090.2102,-9549.465,4857.424,-1113.6796,1972.5698,15394.943359375
26,-5375.02,2858.6843,5017.7793,648.2636,-3028.2307,-436.66547,10935.091796875
27,6665.881,8826.818,25775.338,5042.6924,189.3769,-1271.6436,20243.314453125
28,-5915.0938,2785.9363,-1402.4138,-3451.783,-812.8549,-463.30234,9755.9111328125
29,3938.921,-6525.8525,-10258.781,-2028.4008,466.9732,1845.38,13628.06640625
30,1422.6189,-1880.2183,-1450.246,-90.6851,735.5965,-1012.41974,3794.26416015625
31,3714.4043,3977.68,7644.4067,422.996,422.17245,1328.5424,4565.7529296875
32,2308.0125,-1123.7616,-2982.5532,331.57285,167.86784,805.3745,4896.05712890625
33,-756.28845,895.39166,580.4491,40.435974,1023.7866,-1321.9141,3270.8935546875
34,2766.737,1716.5398,4181.022,1391.2482,1587.1154,175.70445,4247.8857421875
35,-787.11725,-719.72974,2960.9905,88.49703,943.4417,-1220.8639,4578.814453125
36,-511.6461,-1467.2384,-6274.78,-1618.078,-300.34506,-1351.5557,6498.07080078125
37,-1101.669,-2477.0916,207.59572,-429.30072,-646.9092,604.095,2882.69287109375
38,121.333725,-482.34033,355.52762,1206.4153,-1364.221,-1103.1412,3763.11279296875
39,3142.6743,-3706.6348,4549.0264,986.4353,1733.4839,-2576.057,9506.0859375
40,-451.5088,245.82732,-320.3255,644.5778,54.465622,80.39273,1298.74475097656
41,895.56836,2692.5576,912.3879,-2735.93,261.99268,-902.1339,5320.02099609375
42,-5211.9297,-1982.8796,-1930.8844,-162.08067,-933.9449,3937.0671,7732.685546875
43,4225.8613,2061.7405,229.79166,-4120.4087,863.0044,-671.34534,8156.2099609375
44,17860.416,3847.6133,19060.527,-4986.283,11370.408,-12889.235,34284.9921875
45,-16407.719,-15035.619,-28452.678,-1332.3845,1852.1383,5456.8413,16384.10546875
46,-7.170332,-9660.891,18069.379,569.58795,-3087.377,8857.893,29315.828125
47,-18205.889,-15112.187,-18663.635,-5763.4146,7374.7285,-8176.2656,21784.427734375
48,-19878.428,-8052.257,-27794.055,-4532.2314,-7143.3247,-4217.0146,23752.5
49,3033.5652,1415.0875,-4235.469,-1249.4767,-275.66702,-838.38336,7121.3603515625
50,915.1861,9403.406,26697.396,2258.8496,-3760.8765,3220.3538,24632.884765625
51,1828.1539,2324.0083,-9984.233,3816.9143,2876.147,-1566.19,14883.4677734375
52,596.0203,18628.55,20112.709,-946.1786,-1586.1395,4417.778,20565.056640625
53,4275.9893,6122.293,24363.75,-3805.5425,-760.8421,2455.1748,20811.189453125
54,-9626.138,1629.1781,4847.5796,-2835.4817,-1029.9658,-3965.8804,15740.119140625
55,-3883.8687,1886.5525,-21994.414,4655.0596,1266.0614,401.37357,23153.744140625
56,-2485.9822,8573.73,2187.2803,460.89014,1944.1807,-243.2398,10228.68359375
57,-771.20276,1765.4011,-1660.9597,-273.35587,947.9142,-1538.6696,4416.47998046875
58,1711.4769,6333.1685,3052.233,6017.6484,95.03744,-1214.6322,11403.966796875
59,-4094.1392,6117.139,-9428.474,746.76416,-5239.3877,-1849.7764,16777.58203125
60,1546.2615,3953.154,365.36877,2488.477,-2767.4165,570.232,7249.74169921875
61,2252.4324,1306.6415,7053.227,-1031.921,1951.8918,283.7481,6583.955078125
62,1701.5454,6948.5874,65.16907,2100.0322,626.92474,-139.73247,7298.17822265625
63,-4360.7144,1576.9867,-9211.633,3164.6624,-1403.0092,-46.795105,11115.2216796875
64,915.516,2557.7761,2798.9849,1287.1643,-678.98456,77.60635,3085.90869140625
65,978.7568,1986.5161,-1145.1842,-23.973099,875.0953,-142.34846,3166.5458984375
66,-3.2659874,3847.6667,-2452.2307,966.75543,-388.4495,-434.41104,5837.85693359375
67,852.826,3050.3687,-607.234,1234.583,1279.5968,-829.35297,4660.22314453125
68,-963.37885,2425.5728,-1174.3462,759.82513,-422.15475,541.7184,3923.19799804688
69,804.6249,1611.865,-1520.9725,-238.71017,329.30487,-188.32933,2922.33349609375
70,1897.2115,3362.105,2374.9165,-101.62525,216.9106,-445.65234,1562.77954101563
71,1054.216,1426.1079,-324.47305,810.72766,-15.453053,-341.83932,2207.923828125
72,388.01865,3886.7263,-1732.0205,47.66269,-220.92072,373.37003,4972.3603515625
73,-272.79968,1161.3273,-624.7417,-307.2783,555.1925,23.390743,1973.55773925781
74,751.8362,2660.6968,-1582.5667,-986.3119,-354.86072,762.62195,4311.63818359375
75,972.96954,709.63934,-1874.6665,1237.0818,-905.6603,33.29156,3805.7333984375
76,138.91216,978.0744,-3262.5608,-26.429388,808.2784,-1036.7592,4507.24365234375
77,2760.3027,3733.0725,3654.6604,-501.28604,-383.5623,1216.0347,2550.99926757813
78,5274.7373,1476.2372,-1525.7018,132.3889,3192.4417,-4954.2666,11794.2783203125
79,1215.0613,-881.7723,-2064.0757,1378.9949,-533.96124,-493.63873,3945.23876953125
80,3369.294,-7247.032,-4608.229,1689.8098,4304.232,-11584.239,23630.1640625
81,1952.5203,893.26715,-1930.0769,1078.3301,904.53577,-3322.1208,7150.96728515625
82,5826.994,2259.895,5261.2476,479.55234,508.43045,1875.2921,4800.18408203125
83,-327.52045,-6888.3726,12088.226,2273.6313,-424.28445,2779.3699,17829.087890625
84,-3561.875,2561.1924,13075.397,-2598.7085,-4563.4927,5192.8306,19392.0703125
85,-2251.2002,2764.139,-7595.0596,193.32797,-1574.5532,-1376.877,9682.400390625
86,-11235.3955,-16077.536,-14168.233,2167.622,5714.739,7926.899,17844.447265625
87,-12162.258,-12839.8125,-36762.07,4399.695,-6732.9727,-10573.307,33442.44921875
88,4396.0864,10374.723,-4843.8604,-294.55505,4032.5767,1609.0771,15270.091796875
89,2719.8455,10316.186,1656.4244,1078.6742,4160.243,-2596.27,11939.3759765625
90,2345.2688,3254.1128,7444.8066,-1405.0912,-1018.8475,-337.48718,5619.18896484375
91,2790.8022,-1684.907,-801.5296,1866.1653,1704.7975,832.1557,6172.7431640625
92,720.2659,3385.4827,-2021.3818,-1632.95,-1309.6953,437.92517,5970.58740234375
93,-3238.145,1054.0277,1005.59625,-507.5453,239.77406,-690.9206,4538.12841796875
94,-496.45044,-1647.713,3022.9897,4.4351606,328.61896,319.70264,4288.8603515625
95,-4537.738,719.10284,-9590.919,-745.64606,1001.7531,195.34041,9193.7890625
96,-1442.7554,1697.3242,3037.9114,573.22095,-5.6181993,260.23944,4129.87158203125
97,-343.66183,2713.3083,-1127.5873,-794.6472,1054.6587,164.53018,4203.39892578125
98,1686.2855,3556.1023,1268.3973,736.32306,71.90775,10.374404,2468.71826171875
99,470.396,1923.3817,-3951.2676,-481.8909,-570.4252,-99.52835,5457.96826171875
100,1820.2067,4145.6543,10248.987,520.075,-243.63759,-159.79483,7610.353515625
101,-4087.9878,1133.8845,199.00856,1878.3849,-1646.4764,198.37062,6488.13037109375
102,3404.785,1247.7571,5553.122,478.751,-1222.0901,-329.83838,4404.162109375
103,907.8345,941.58594,-466.36057,-470.6999,-974.19006,771.0997,2689.150390625
104,2719.324,155.49043,4316.3687,-4751.577,-5246.004,-533.20593,12820.5068359375
105,-11080.009,-6253.626,-8655.857,3517.9033,-1226.0804,838.9902,7824.26123046875
106,-1322.3811,-2537.6575,-6929.6343,4370.819,115.190765,1308.5144,9412.35546875
107,4225.981,-2739.2146,16441.383,21.865402,2394.8474,-2493.1968,17851.275390625
108,-844.4487,4.095547,85.5773,-1815.357,-212.4293,872.53326,3619.6259765625
109,3837.2297,1529.6716,353.34247,1323.9641,416.35812,330.4075,3940.71508789063
110,672.67053,-3883.4387,-3695.541,-163.53758,-1938.0586,-2709.1611,7300.99072265625
111,585.4842,853.7383,-2581.624,-390.0721,3051.9768,1038.4379,6525.8974609375
112,2029.6943,-185.31268,-494.69305,368.35928,-1589.714,3356.3208,6889.88818359375
113,-6596.2837,8413.202,-2610.9414,-2776.0156,-7568.419,3585.3264,20368.482421875
114,-1528.2577,565.675,-1393.4093,1072.6117,-176.16261,-2413.4238,5013.861328125
115,2238.7947,-8757.212,24199.229,8709.755,7893.327,8581.191,38471.46875
116,809.09796,964.6638,-189.53838,338.5799,-98.9129,-519.1761,1535.81274414063
117,1174.3844,1827.4021,-2116.7358,854.89355,67.98775,729.5994,4148.54248046875
118,-871.074,4039.4917,2479.5305,685.15576,-930.35846,486.52496,4858.1865234375
119,500.0508,2830.2827,-282.82684,-179.63155,131.36313,478.6079,2950.0732421875
120,897.76294,2376.385,3575.833,7.4523325,-392.80392,227.28377,2452.86645507813
121,81.61729,2364.6428,1308.2429,336.50577,-74.10815,-338.6687,2148.64428710938
122,2294.266,-39.654648,-3665.7446,2031.2065,-1099.6721,2884.0437,8247.2470703125
123,2661.9353,-288.77136,-4081.4292,3056.9714,2672.9114,4330.2573,11832.3251953125
124,5182.2524,-2061.5854,-960.47076,-172.89851,-516.8796,-867.1159,6989.72021484375
125,3000.6636,-6818.977,-12751.347,-6020.5513,-4161.358,-11861.831,27796.99609375
126,472.30457,2648.3184,5435.9634,558.152,857.13403,-1548.7318,5376.4580078125
127,-433.14462,-2706.1567,-3343.6536,-655.82935,219.05672,522.689,3045.64111328125
128,-2023.1025,22.806627,-666.90894,-85.766525,-1384.9333,348.37833,3064.41650390625
129,478.3876,-126.778725,5624.9565,-833.41766,-716.15125,1099.2992,6100.46533203125
130,72.96819,899.65717,-218.04701,617.9823,49.66597,-1956.4498,3693.8974609375
131,6410.9507,6214.8223,17890.746,2169.7966,1726.8857,-1756.6487,12899.751953125
132,6586.783,-9025.595,-8242.9375,5257.931,3150.6692,-3337.9585,19449.5078125
133,-6312.649,3547.808,-22509.857,-1291.6685,-319.65555,151.2155,22905.68359375
134,3558.4497,2318.9438,20771.066,-1667.469,-1187.2583,1611.5651,18425.72265625
135,-1840.4246,1174.3431,-5977.4956,1405.1498,681.8825,1019.65204,7008.123046875
136,5420.592,2742.384,-3675.8328,-5408.9,2481.8123,-1617.3937,13403.3681640625
137,1052.3555,-1594.3827,1417.204,-428.51743,393.2698,-876.2699,3379.70532226563
138,-21015.127,-5797.9688,-24541.385,888.7481,1552.9338,-7234.6743,21547.203125
139,7909.9976,5091.73,-20393.105,-83.183716,-2474.243,8854.646,31350.330078125
140,-10499.344,-484.25735,12687.163,3078.3955,1751.7379,7146.273,24424.25390625
141,-14582.159,-14307.162,-1084.8441,264.07477,2428.7258,302.06808,14025.7080078125
142,1976.867,2220.013,-3669.4033,-208.15355,-849.5811,5762.238,11628.3212890625
143,2699.0554,-1797.606,7574.19,-1711.8544,-1927.5527,-5075.5825,12772.27734375
144,-523.6242,773.1082,-2026.0065,1098.7406,755.89417,1442.3649,4178.98583984375
145,829.1097,1202.8138,-218.39867,10.222586,64.52989,768.5707,1847.51062011719
146,1990.4037,2915.7898,-740.43146,31.666,-731.353,362.33276,3583.62573242188
147,897.3451,1907.154,-1111.9196,-199.18834,-180.4681,-305.59778,2753.67700195313
148,-807.1557,1313.1864,-2907.6685,1211.9209,896.2671,-424.39645,4551.734375
149,2007.582,2379.5762,-2242.3198,-463.7405,-487.90878,-126.85993,4603.10693359375
150,1102.3616,1956.578,-933.8889,-145.35551,-273.14175,1048.5712,3193.91748046875
151,-413.182,2203.9053,274.3531,-124.186226,-568.7624,-319.90692,2616.53784179688
152,123.335526,4779.2856,-10174.349,1484.211,1851.7137,-1289.654,14055.265625
153,7704.584,6473.649,17127.924,1558.3413,-2086.0203,-599.37225,11105.47265625
154,4135.1035,-5491.7397,-1960.0881,-1005.25104,2193.7134,-146.07738,9417.15234375
155,-13205.443,-6280.094,-4451.04,2144.7288,-1016.02374,537.997,9040.8828125
156,-4753.1797,-2531.599,-7418.912,-425.22134,-2801.6523,1087.9263,6753.12109375
157,2036.5005,-682.74963,3278.5667,-3684.6882,4232.1245,-1779.4282,10783.18359375
158,1181.0665,-1561.4496,6990.0073,-597.8008,170.67462,-1805.8944,8254.6689453125
159,2109.9404,336.3265,-5919.195,-2288.0112,-813.20197,20.910929,8429.84765625
160,6835.2935,1997.8296,8230.934,1024.2899,-174.33882,-999.28143,6191.4951171875
161,641.21796,-776.8127,-3233.2227,1184.0914,-1851.5732,13.301758,5100.955078125
162,3042.7004,-6182.649,-10959.759,-1666.2888,1851.2087,83.13465,13062.525390625
163,814.7808,-528.08966,1334.7292,1940.0624,1137.5164,2406.6458,5943.15234375
164,-6370.1646,3053.1555,3265.096,-2848.5747,315.48947,-6068.3525,15031.8828125
165,-3971.6746,-1346.6503,715.8259,-816.8664,-2061.9326,-42.91561,5596.48486328125
166,4263.4106,3276.6794,1384.3573,475.38943,-811.4467,208.91391,3034.1376953125
167,-2883.77,964.6785,-411.3032,-2458.0913,-1517.7197,-1675.3671,6698.216796875
168,-1594.2158,3552.8433,931.5654,-1947.624,1544.3354,240.86613,6211.2900390625
169,-885.42773,1865.9407,5488.374,88.32989,-1054.6327,-89.53937,5834.6298828125
170,-7468.4316,5578.1094,-2893.7002,9902.144,-1442.8752,2305.4517,21161.38671875
171,-11935.435,-8925.828,-3341.5776,5141.7314,-2909.5134,2261.218,13307.716796875
172,-5449.041,-5446.093,-15359.97,-81.37903,-1878.6172,2441.0437,11257.8544921875
173,-15779.078,-7470.1055,-28542.406,1080.7032,1755.8821,-1531.7637,18915.171875
174,8271.479,2408.53,-5519.3364,2706.0557,720.8337,-1285.4884,13122.1328125
175,4724.674,-8128.148,1410.5988,9739.876,254.5165,-1583.5635,20637.2421875
176,10453.8,-1492.2618,4697.197,5410.161,-2961.6113,3157.469,15846.447265625
177,1811.026,5051.369,8719.412,-1515.55,1734.7235,-39.605457,7194.6689453125
178,6661.4175,-5526.1997,1959.6011,3629.4812,-349.83014,2920.7598,13372.3671875
179,1636.2288,-1618.893,-1706.8422,354.6789,354.85056,673.5069,3606.35815429688
180,1002.34344,2710.3967,2259.207,831.52313,16.290115,367.55682,2197.8955078125
181,4306.6274,3029.9368,14715.058,-76.9339,6343.9863,2038.599,16014.91796875
182,16899.518,-4765.643,7276.6885,-4449.5474,-1508.6935,4207.9526,21744.939453125
183,6032.9463,1212.3334,16529.832,6690.0063,-47.101616,1746.9497,18095.71875
184,4029.3933,3372.2568,10638.678,-678.70184,591.6179,-619.9528,7214.05859375
185,2291.737,3501.5999,878.9632,-2037.7151,1127.06,-772.6878,4819.5166015625
186,-3234.1848,3555.7725,-6625.592,903.1469,-4162.642,2113.2031,12184.3896484375
187,1015.4697,4006.6936,2309.6367,-41.617714,-99.696106,-317.30414,2662.36840820313
188,1027.2908,622.2889,3977.0623,1007.3328,699.3848,-85.70856,3820.13818359375
189,133.90143,811.1076,-3342.667,1224.3466,879.0889,1071.1938,5015.7080078125
190,-16403.355,3345.755,-28279.828,1170.187,6347.666,9430.367,34020.7265625
191,-1253.7745,-6097.8335,-33447.8,6773.0664,7665.8926,3361.1892,35380.5625
192,-1089.7614,-1058.5155,-3110.8286,1534.5035,-457.83475,-252.08754,3468.77856445313
193,559.0575,151.29706,1771.4773,378.3238,186.52861,-358.36533,1746.32458496094
194,-6762.188,-5599.498,4566.865,2098.3123,-3331.408,-1253.907,12951.7392578125
195,5643.4243,-6306.3125,-3622.5193,2218.914,-2819.3713,1227.5745,12691.1953125
196,-5364.99,-12710.474,-5290.29,-8014.1133,1791.062,986.6876,16116.2275390625
197,1591.9476,-5396.7466,-5021.6157,1589.4055,597.34424,-45.06735,7417.2822265625
198,4198.969,-4935.0806,-11392.981,-3418.834,688.1184,-2048.4663,15270.7744140625
199,2971.644,-8725.49,-817.6373,179.4235,-840.19226,-911.5422,10562.4306640625
200,3369.7864,-530.3976,275.1968,1211.8573,185.05325,795.05536,4373.02197265625
201,585.2993,-2910.412,292.17917,-2409.343,690.6915,349.14056,5522.0390625
202,-2333.0698,-5308.683,-2326.2131,707.41016,-647.2606,68.66442,3412.76953125
203,216.80786,-1555.3344,2576.9746,300.59344,5.328131,-426.03592,3702.58032226563
204,1806.9436,-750.1126,-50.189194,711.3491,-506.0021,664.88916,2975.07739257813
205,-223.0552,-6911.5366,-7364.667,-906.6049,65.740685,-1100.1876,7354.037109375
206,-2583.4873,-2870.167,-1586.8268,-344.50964,-291.36285,-65.9244,1408.90576171875
207,5500.0967,-4447.2817,-4466.4116,510.53537,1305.7802,1400.9639,10532.1513671875
208,5445.7495,-2872.7588,-2575.215,-1088.1329,1097.7854,-400.9904,8629.0712890625
209,1169.662,-3856.7458,1469.8207,2178.6433,-93.16645,2099.788,7372.6806640625
210,-1477.3585,-8762.736,-8704.033,880.7495,2562.5676,815.4901,8756.42578125
211,-8412.249,-3252.402,3402.8567,-1179.7845,-851.2393,2278.3894,11277.3798828125
212,-5884.478,-7744.775,1621.2404,3974.867,-291.9856,-961.5525,11143.9482421875
213,-2181.0454,-5188.6035,-9061.907,-2487.474,6295.0166,3955.8882,14835.380859375
214,-409.23267,-2375.1592,8760.893,-5506.266,-8114.554,-6809.5425,23099.53125
215,-3660.0146,937.0842,4860.1846,135.58774,-7094.167,4436.506,16267.865234375
216,10244.644,-7811.0244,-7006.507,1363.01,7000.322,2306.8708,21924.419921875
217,4602.8027,-16907.314,2885.0637,869.66174,2107.1113,-2320.9338,21457.76953125
218,3575.9302,3695.2349,657.7271,-2012.6251,1851.9266,-7415.442,14010.193359375
219,19382.562,18371.066,7422.402,-5760.901,-11073.765,3491.527,25218.880859375
220,-9831.819,539.8217,18526.2,1240.9374,13400.478,2571.3445,34362.80859375
221,-29973.756,-10497.299,-28417.78,9453.897,-15916.146,4710.008,38027.62890625
222,-104.84671,-12731.566,4141.177,5181.6934,-318.9736,-2285.1384,18099.6328125
223,5332.2144,13356.191,-2158.2766,-149.99153,-1758.9905,-2425.1755,14407.9580078125
224,7541.369,4876.351,6992.947,10327.319,-1337.8396,-727.49255,18244.431640625
225,-1183.2725,3101.301,-2454.72,-2017.8684,2763.1252,1973.336,8498.4638671875
226,-6725.141,3243.8872,-12116.188,-3222.2131,-241.72676,-1155.9467,14748.5703125
227,-1068.1707,3286.6182,-18.168163,-4181.0923,1182.5236,472.09888,8532.435546875
228,11674.497,6599.3486,7314.824,-792.9364,55.84958,-930.73517,5208.8671875
229,-2395.6257,-4188.1177,-363.17874,-1140.8417,-967.9054,-203.83183,4222.171875
230,-2425.5383,-1303.0444,-11.847307,1281.9893,622.73364,-1351.7083,3993.966796875
231,-5557.511,4063.7207,-9074.522,-353.87036,-937.7916,-228.74944,11914.12890625
232,2491.234,5989.5264,13670.053,844.1136,1635.0769,698.10394,10474.603515625
233,-799.37573,2166.4473,-3827.6008,-217.62917,-490.77682,643.60974,5390.2509765625
234,2756.6082,-340.1807,10044.382,1157.105,-2083.4983,-9.544082,10114.8544921875
235,-1814.5151,4629.875,-709.7268,-1149.9395,-344.8391,-337.301,6347.9267578125
236,-829.5689,174.83092,1316.6132,-122.57653,-620.7553,-1011.30054,2780.02954101563
237,-829.03046,1688.213,-2951.0693,-1492.3175,-1594.493,140.49765,5527.09033203125
238,-777.23627,95.874374,-769.56757,-330.88272,532.70624,-29.011902,1392.11645507813
239,-1075.1854,833.49304,-2356.5598,719.8022,-905.672,593.03577,3577.82788085938
240,961.6851,3284.3857,2117.5615,578.51514,833.154,-128.01793,2679.90209960938
241,1226.1877,1070.5228,1880.1678,200.75713,596.1248,-90.58186,1328.66223144531
242,1479.134,994.2113,300.55365,635.7477,-687.442,232.03406,1960.72839355469
243,-748.16785,2477.0886,1188.8331,902.60876,-385.90488,-92.58094,3289.9111328125
244,1315.974,2406.8457,-3400.7446,375.7422,-532.9742,33.906033,5464.60888671875
245,-215.56383,1529.6855,1500.2227,295.3677,-372.08185,-214.43942,1952.01354980469
246,637.3359,2357.4333,-390.83374,190.45267,405.20285,223.71597,2556.55078125
247,1660.3568,2222.46,-326.19458,134.93423,-342.36584,345.76877,2478.6943359375
248,1017.4761,861.0528,282.25266,-391.17453,173.00258,-51.116077,1003.34265136719
249,1304.9846,2279.1594,1995.3335,-78.00227,-446.00177,-234.69571,1238.27685546875
250,72.939095,3621.2566,2491.1846,868.5091,1874.1884,-314.7631,4791.20703125
251,945.5776,1154.4012,89.64554,-260.3438,390.9724,167.54103,1304.25866699219
252,745.6159,1648.2598,-734.2278,-66.96949,583.2139,-351.8455,2397.025390625
253,2435.362,3703.99,3317.184,1022.41486,-287.58203,522.2581,2338.95068359375
254,3066.5298,-345.27228,-143.283,-1582.2659,710.8956,-41.684284,4474.826171875
255,1457.31,-2572.3909,-4796.74,-1846.0829,-802.09094,2268.246,7598.59326171875
256,6501.3755,-1610.4156,-236.68832,-3445.789,-2694.7864,-1531.2258,10999.3115234375
257,2258.771,813.9346,-1196.3248,-1521.2478,-6.6007643,2284.8691,5624.748046875
258,882.47736,-3531.4834,-676.798,617.0034,-1969.2214,-1320.0406,5747.60009765625
259,1011.5555,-3018.9595,5398.2246,-1597.2761,4263.3516,1052.8519,10893.8662109375
260,-11407.342,-3762.5474,-5554.2896,-3892.1396,3653.934,823.4104,11640.00390625
261,11198.819,-168.42952,17024.928,-4768.2144,5924.565,9343.188,25783.3125
262,-6757.508,1334.5491,-3708.472,888.27057,-1273.6334,-414.43542,7606.1689453125
263,-3160.576,-1547.7078,-27883.486,-1620.1637,5867.7666,5478.9834,29239.06640625
264,-2224.621,12820.521,9335.663,-3473.0984,-836.99243,-4114.567,16587.59375
265,-9633.098,-1258.1162,10515.213,273.131,-9994.483,-6236.8574,26906.154296875
266,-3610.553,-13602.313,-1517.5016,-2815.4646,552.12866,6331.6675,16434.552734375
267,-9069.14,-7041.8994,-7384.6416,-7447.2373,308.28458,-4801.315,15471.2431640625
268,-14538.572,-2645.1458,-26605.139,6901.4556,-5097.0005,2976.0002,26037.79296875
269,-2244.0657,-578.31464,4865.9365,-4513.0283,968.7603,-133.2584,10269.0986328125
270,2157.5173,8841.561,21773.713,-1648.9282,1671.4937,-4063.4614,19090.04296875
271,1291.842,8718.09,-18559.824,2508.796,12.857259,-461.77222,24823.044921875
272,-2945.2705,-1183.5929,-5401.3135,2098.8901,-1813.5645,2882.3215,7840.205078125
273,-4078.7686,3132.3748,723.8705,-1404.6807,1131.8927,-492.04462,7136.01171875
274,460.65762,1864.9574,-5452.958,471.2444,18.071274,2285.3232,7847.4638671875
275,-3894.3054,2318.0457,-5248.17,-298.95377,14.958573,-288.37115,7025.32568359375
276,1285.8816,2011.929,5465.0596,900.93207,1031.2311,686.7512,4690.26904296875
277,1574.4158,-2.2046072,4688.6216,-932.84906,919.7663,-972.1662,5007.7724609375
278,1401.171,2546.0857,-6533.608,2314.2876,-1074.8242,1169.2416,9848.4052734375
279,-392.81238,2773.5562,6744.3555,2794.6394,1030.6373,-507.14902,8108.91015625
280,655.67694,-387.7861,3106.5793,1604.5195,1306.0145,-114.46408,4746.88720703125
281,721.8793,-2935.1187,1910.656,137.30136,-1092.915,698.92633,4923.37451171875
282,-4875.365,-10190.044,-14820.389,768.5261,1483.6321,1430.0636,9423.658203125
283,-2362.3904,566.58417,4696.2153,1305.321,-1305.361,-1597.9941,7457.38427734375
284,-1914.0183,2147.889,6228.36,-321.83026,-137.61751,-3373.9717,9178.3671875
285,-672.5143,782.21533,-2847.43,1410.673,-1542.2714,380.83218,4852.96875
286,75.892975,-539.4087,230.41547,824.7402,-48.972126,-414.9268,1749.80798339844
287,-204.46204,-8.165616,-1940.1122,142.6093,-230.16335,145.25162,1917.01513671875
288,2113.08,2342.6853,3412.197,-1014.7451,757.783,-1335.5406,3406.607421875
289,-1640.1014,-326.78052,1773.1627,100.54112,134.741,-720.72687,3245.85986328125
290,2767.4976,2682.5466,464.6501,-603.34814,126.01517,-307.45142,2556.951171875
291,663.14417,2982.7705,10059.823,-22.851585,-514.4798,-720.3012,8615.892578125
292,-11473.994,-12342.145,-18862.617,-3324.7825,-356.5898,901.62067,9214.8662109375
293,5344.314,-3645.647,11825.937,4347.7803,-1264.5526,7527.279,20312.23828125
294,4561.2754,-3840.3384,-929.87427,1874.3099,1552.1078,-94.08201,8508.70703125
295,-989.74695,-3871.1462,441.24194,-2177.5981,-139.2106,423.76596,5412.5888671875
296,752.75415,-4645.4077,-947.8669,-3024.3276,-448.42816,89.59067,7135.7587890625
297,1893.4365,-4093.1711,9859.231,-416.26862,-819.72766,-174.69621,12231.4638671875
298,1916.193,24.128073,4248.0312,-935.0761,23.814924,417.32416,4071.443359375
299,1010.75885,2015.1377,-1092.6644,-399.29056,-173.13353,-24.72258,2848.83471679688
300,1102.7672,1195.3947,2269.4822,1238.1395,-948.8583,145.02522,2936.80029296875
301,-514.1659,2590.6223,3705.4656,-182.36906,-716.0442,-1209.0851,4513.0400390625
302,556.4392,-468.93018,-950.6785,906.77295,32.398815,-312.75946,2130.90356445313
303,-29374.553,-13950.689,-35747.855,-4107.1143,11749.167,12945.444,36664.73828125
304,-4440.2534,13768.905,-530.34564,-1488.9227,-4506.4624,-1822.7656,18793.8125
305,-3274.3706,9409.704,7996.7314,2996.2166,136.90897,356.97656,13127.4697265625
306,-2490.8293,1246.7948,-23.546352,641.9901,-360.5256,699.4292,3732.22924804688
307,-1038.9207,-312.76978,5674.4897,2580.3247,-1065.6647,-3114.8875,9654.58203125
308,3840.0955,4197.9023,7090.2085,1737.2592,-509.52734,297.0089,4430.1298828125
309,-810.263,3213.5635,1390.5159,-1064.9148,2321.79,-185.64519,5644.17431640625
310,-1428.9843,2380.247,-1913.2383,949.9278,-743.1641,-41.73499,4578.0537109375
311,866.21466,3843.8953,4487.5674,2267.2815,-127.042305,-108.541985,5167.4951171875
312,-3760.1665,-4459.9634,-214.40338,580.16583,3592.2358,4751.7583,11090.6865234375
313,5492.547,1257.6508,2795.104,-721.53766,-867.05853,-532.8254,4296.05419921875
314,-14725.934,3493.4438,-17589.574,-2497.0112,237.28854,412.92682,20290.529296875
315,-3496.841,-717.9319,917.7298,-2739.6143,-93.19167,585.72974,6206.0322265625
316,4214.656,4371.8506,10616.923,5237.6714,1433.8107,-674.0868,11394.6279296875
317,-3458.2766,3871.333,2470.154,2811.0127,-4486.3135,-4035.139,13354.767578125
318,-240.06702,-1575.4897,4127.5864,1464.7196,-463.90314,-79.95549,5813.2109375
319,633.65546,-3698.58,2978.181,-1561.4554,935.1488,-950.0282,6860.59033203125
320,5602.023,134.96652,-823.9839,-1883.3499,1228.6779,614.05994,7235.4755859375
321,2831.205,-6975.718,16027.834,1954.0558,-2383.3818,37.990993,20694.103515625
322,3329.971,-3983.6587,-1159.1141,688.2755,815.5245,-13.663548,6650.302734375
323,2413.483,-3105.7195,-2984.8784,87.45781,-454.11923,569.38385,5605.6640625
324,3196.8955,5011.333,-10200.863,3943.8933,10431.13,5968.7856,26212.001953125
325,8068.5635,-9816.022,-7383.901,1581.0256,-3827.494,-13697.29,29942.802734375
326,-4988.6084,3912.7344,-1444.9655,3960.9485,575.1891,8354.151,17823.6796875
327,-1091.6824,-9347.356,-27706.71,4965.6787,8419.074,-4571.7007,30101.63671875
328,1874.823,-17439.893,-37795.12,-3621.103,5597.9873,-7632.286,38583.07421875
329,-19878.129,-20025.393,-11777.558,2964.3093,620.9272,-394.54916,9737.5
330,1388.926,12459.645,-3131.3665,2673.3176,-1752.0376,-1002.4115,15056.560546875
331,349.39557,31.990694,873.13196,1014.14667,423.53265,-176.6313,2063.61279296875
332,1172.8485,2385.2249,681.16455,457.97113,568.18207,83.017235,1981.43786621094
333,-431.62927,783.5404,-388.63968,-509.35452,124.23122,-457.96796,1697.07873535156
334,951.21844,738.9968,447.2552,-129.26044,-93.811745,-36.23483,522.044677734375
335,760.4519,1797.3579,-2643.182,145.32034,-352.04025,-206.12213,4092.89086914063
336,-1196.0359,-264.22446,-4162.6074,482.2982,589.38617,79.23843,3767.21459960938
337,675.6233,-4888.9385,935.16016,79.51286,-3466.0996,1812.1196,8853.685546875
338,-3349.5015,5155.7676,11431.266,-3080.0674,-766.60754,-3721.126,15390.2607421875
339,-478.56216,-394.96997,12082.402,-2972.1497,7189.794,-337.6838,18402.64453125
340,-14467.917,5036.6875,-18535.645,-1704.1268,1519.7693,-4345.758,23422.5
341,169.73296,1707.1112,1668.5011,348.8155,709.2783,532.85944,2243.15087890625
342,-2257.4753,-1043.6802,-311.1003,425.6519,39.995636,-628.5951,2152.41870117188
343,-2486.8652,-1980.2849,-3427.8337,3063.781,109.21022,419.77032,5508.48291015625
344,-6379.708,-1135.4152,-8523.555,-397.17975,547.4919,533.60254,6750.4326171875
345,-796.9261,1382.6179,-1539.2024,2450.3616,-808.60535,323.55463,5216.09228515625
346,-798.7426,597.6573,902.2079,977.71344,-310.2671,687.2429,2653.5703125
347,258.53134,4796.2666,-1002.0413,-591.3888,-373.56738,-47.027473,5419.84716796875
348,8045.8423,-19095.422,-2143.3025,-438.4119,5528.3896,-339.75076,25622.89453125
349,-20.920246,-476.70447,60.34819,55.927483,-200.73238,195.47002,704.467468261719
350,-2886.2705,3194.6729,-4934.867,102.997955,-1534.4083,-364.39294,7818.27490234375
351,-977.1943,2458.3113,2121.098,-1860.9218,710.9072,965.8968,5045.99267578125
352,1376.3944,1045.7148,5527.9644,1180.6615,346.3771,586.3973,4928.6025390625
353,-6409.2734,-1892.5853,-12470.064,-1160.581,1091.8302,549.5444,9645.2822265625
354,14540.19,10918.334,12646.836,6074.5283,-6062.452,2688.2244,15889.76171875
355,-1294.8292,-280.44434,-52.827274,1222.0912,-28.49079,107.06141,2414.33642578125
356,-465.0448,-383.76575,-2056.4648,1245.6631,-211.89717,-315.86285,2785.2490234375
357,-1620.8853,-11.784149,-2281.5083,1689.5793,-375.77554,314.68494,3656.96240234375
358,145.90048,-114.16665,-66.86784,133.63109,-133.68881,-1300.9164,2289.52197265625
359,-2256.9136,24.551687,-3369.7769,1224.7186,-429.46945,466.78,3832.66162109375
360,332.0066,-274.0964,581.38745,139.93887,275.8096,116.56657,953.114379882813
361,2240.8547,1572.3469,-68.979294,345.4252,-25.5583,82.77426,2149.08447265625
362,363.298,-571.6192,628.7607,68.87474,-421.1666,-371.56116,1467.40393066406
363,-16.500328,-995.3789,-88.56436,-280.0595,355.19714,-64.08441,1232.46496582031
364,-612.25476,-212.42603,963.745,-1611.0635,-96.178696,-458.48523,3233.95458984375
365,-235.78806,9119.277,5021.3516,926.3659,804.2762,644.52515,8469.6611328125
366,-815.4888,-381.01785,-47.007103,-74.91776,-28.21374,55.53673,688.422241210938
367,6732.0083,13437.99,8207.056,7401.13,-3200.5183,-2251.443,15732.8134765625
368,-5840.286,-2565.1309,-4623.1006,-993.39343,2585.5198,147.58281,5594.84423828125
369,-1396.3617,524.5353,-2605.0679,219.82874,1351.5978,-220.01411,3639.12890625
370,1149.9453,-721.20465,1678.4626,-478.548,-803.38586,83.57044,2722.81665039063
371,-1538.19,452.8091,-1284.1729,880.70953,358.7834,210.90034,2523.77001953125
372,-1093.4008,-48.447796,-2881.285,-444.82617,97.68326,90.86489,2608.39379882813
373,-1290.9614,106.544525,-288.35104,97.581635,-76.554306,3.166065,1266.20483398438
374,-658.456,-951.04254,183.96104,703.4893,-35.91819,-39.644123,1592.17785644531
375,-824.9043,-898.0391,178.75937,-186.97478,-21.34859,-14.734557,1092.24060058594
376,299.23996,-264.53275,-653.5501,-359.33585,41.622196,235.40086,1116.82421875
377,-1054.1005,237.4288,-2803.1106,470.21164,212.62276,203.35721,2812.28833007813
378,-1125.7013,925.21735,1407.3514,646.4209,-180.36943,-13.807996,2603.70703125
379,1134.4683,1297.958,-197.28876,51.77168,-294.87344,19.130838,1512.62170410156
380,-1962.6559,-2128.8804,853.74023,-1278.2759,731.4498,-15.469405,3864.662109375
381,606.67694,89.43165,-886.366,122.01167,-532.9736,197.4284,1654.75903320313
382,333.94086,-916.62524,-1138.3225,179.21213,-335.31204,93.02347,1532.94677734375
383,247.54439,-588.0832,968.316,256.935,387.52005,39.522022,1572.68237304688
384,62.089115,635.2468,-1270.3151,193.13799,61.788017,-172.64505,1755.06909179688
385,-100.396805,-138.77182,372.88998,453.89838,-82.8001,166.88307,982.763488769531
386,-741.8306,-661.98883,31.70306,841.3941,-59.45973,-22.093925,1636.72595214844
387,-1044.188,726.9422,1050.9016,720.2897,310.98734,418.05124,2487.27124023438
388,-3693.66,-10955.477,-7156.021,-7000.879,-2397.4827,-2019.1356,14700.0107421875
389,-20455.09,-25090.33,-6736.5996,-3411.1497,-1404.3629,-4219.8267,19170.71484375
390,3360.4753,-10406.392,-1751.5134,-2945.6943,666.5137,3021.8496,14143.6123046875
391,-220.17296,-1386.2046,220.93362,-536.8279,-6.895081,-110.62646,1723.35681152344
392,1582.8035,463.6323,2405.6377,-245.48398,-456.52008,97.520744,1919.64636230469
393,8915.58,-6001.156,4210.23,-1608.0892,-3519.982,-576.2639,14845.396484375
394,5475.7983,2718.3423,3129.8408,650.0193,-1124.498,-564.5017,3557.42260742188
395,4090.3362,-1238.3401,2550.3977,-1289.4282,-1599.0162,28.281006,5934.7451171875
396,-156.82759,5686.336,4719.0396,-190.34422,253.24449,1869.5178,6341.33544921875
397,106.11397,2381.9116,4160.4873,20.659822,180.85583,206.63402,3552.14916992188
398,299.26053,2273.8762,4437.523,483.86694,415.71182,1192.0443,4282.12353515625
399,1284.3329,522.50604,1567.7025,402.95032,-125.093185,32.058315,1188.98779296875
400,211.87444,61.692314,695.3647,-804.59106,366.96127,-89.560104,1642.88586425781
401,486.57776,-1419.1062,820.0702,-127.97597,-25.545376,-70.28684,2108.14892578125
402,1141.7286,-334.39255,1342.3925,431.63022,496.23264,11.980092,1952.81567382813
403,-1917.4127,1046.2042,-1028.9536,-771.1111,317.49,359.69757,3068.17797851563
404,-686.416,360.35486,-2839.083,-11.519211,59.323345,88.64417,2831.53369140625
405,-281.19623,1833.8501,3070.2415,414.63095,-129.61333,-307.83093,3076.93725585938
406,-169.27359,940.95605,-883.3838,1320.3152,328.19827,97.510544,2848.99169921875
407,166.14328,-696.0464,-352.27322,-106.67952,58.07186,98.62718,799.120727539063
408,160.3266,255.9799,-303.76108,-688.1644,-2.3413708,84.40694,1308.05932617188
409,-9877.247,-2917.0596,-3988.5823,-4414.949,3795.5344,799.10614,12072.43359375
410,2618.421,-3341.6777,248.86104,-311.1691,-367.99506,275.7357,5285.79296875
411,-1655.5198,2682.1687,-7173.507,2244.2673,-192.76541,-2191.0005,10140.126953125
412,644.6056,69.51684,4472.722,-603.937,-298.99594,-689.2849,4469.2802734375
413,-293.73868,-13.640539,383.1807,49.74402,-104.93248,-251.78937,760.079284667969
414,-811.74536,575.0245,-1066.174,-1048.0321,-89.66638,318.93207,2442.35229492188
415,490.38098,-990.6162,59.44024,-986.4355,-98.26737,9.695255,2165.46923828125
416,-1967.873,-657.06384,-720.0873,-1362.3317,266.9689,391.79816,2807.44702148438
417,-953.6568,-30.323292,-2804.682,357.77823,573.696,-4.0149355,2712.82104492188
418,22.258455,537.1015,-1003.3047,115.59871,-361.14554,79.749016,1515.02294921875
419,-514.6844,202.14099,447.85968,749.79126,214.13379,296.55298,1684.72705078125
420,-125.00397,89.684975,715.30023,-91.3624,107.67481,-164.29474,844.156188964844
421,10699.656,8469.123,13633.183,3949.7278,-5623.7803,-1625.0176,13027.9697265625
422,-126.92778,122.392204,-671.5547,-598.19196,241.2673,144.48453,1343.62316894531
423,727.33453,-2561.729,-2332.4504,186.54865,1507.3019,21.146286,4127.712890625
424,6133.4697,6096.9707,3377.4421,5281.3457,1091.552,1245.8763,9970.22265625
425,978.8024,17195.066,7195.1675,282.59583,2258.697,4641.472,16762.419921875
426,1002.60364,1542.3068,4698.5493,983.06726,-45.173553,-366.745,3907.10522460938
427,87.15858,622.0057,913.01245,-572.95184,-193.11761,-196.81456,1318.82641601563
428,-755.64044,-2244.6921,-5160.7144,-652.2995,-473.61917,-1508.1571,4882.1728515625
429,-1834.8033,-4830.9673,-6050.1333,-405.68335,-563.8708,-2582.207,5963.8203125
430,268.50937,2830.1973,963.6897,733.993,-107.791115,-186.47414,2649.54663085938
431,-5592.338,-1510.1451,-2284.0806,-1177.9117,-624.0394,-112.604225,4412.7841796875
432,-512.8075,-872.8457,-1911.7959,899.363,38.205647,-927.965,2568.54125976563
433,-445.86124,-2475.5022,-3492.0547,-1442.9036,-267.04102,-175.13782,3710.51538085938
434,-1.3995552,-1072.5148,-636.0273,-332.03632,-436.40985,98.21352,1342.13391113281
435,141.032,90.122475,-389.62402,-397.3056,657.9158,-565.56537,1728.83752441406
436,-1641.4845,1454.2445,-1149.7054,-1225.0842,318.7787,95.59598,3624.60205078125
437,152.51048,-1010.4526,-4114.291,-542.60474,81.86679,279.52652,3966.57495117188
438,427.827,-681.5921,-1712.437,174.3004,180.30473,-39.83236,1905.39282226563
439,-339.44104,-113.60757,-714.3561,-440.5622,-101.757126,-101.73422,959.493896484375
440,-6217.7456,6604.4023,-3269.9067,-2360.2454,1606.5181,1267.154,12828.546875
441,-573.5056,-1287.4261,-607.22705,-456.7584,-65.53446,-301.5897,1182.53259277344
442,901.4531,353.5884,2044.0222,-377.17566,-27.236471,-157.00577,1653.64916992188
443,-1385.7328,-835.552,741.7011,585.4274,72.02917,-55.61682,2170.53466796875
444,146.22682,-71.16059,1579.9943,225.26262,-90.67998,188.8116,1642.7041015625
445,241.01208,-656.13477,34.35781,-1023.6724,130.60748,-309.6035,2035.83715820313
446,16378.532,10493.518,6251.3936,4156.8394,1513.208,851.9668,11767.7041015625
447,-870.6098,-991.3251,376.48825,-1446.7894,-154.53511,246.2178,2872.88720703125
448,-56.131817,137.81017,1873.5016,-349.55255,-1024.3903,130.60197,2636.80078125
449,-2454.3455,-2006.0968,-475.7309,-768.96545,223.08398,211.89523,2299.31567382813
450,-158.34348,339.4951,207.37619,880.7824,-4.2184415,31.30645,1590.55065917969
451,-371.0706,369.68912,-2575.2573,470.3734,305.6691,163.26248,2839.71044921875
452,-326.94257,-2480.5037,-2908.3223,132.9148,-121.453156,-149.52628,2430.33203125
453,21.54445,437.9594,1178.3055,-295.3426,-305.11844,-3.2824667,1253.31994628906
454,-372.95984,-1153.4442,-128.97206,-4435.824,242.30801,-632.6489,7827.234375
455,-765.2304,-2060.5608,-2560.7383,-361.1139,-140.26706,1.8292354,1739.59692382813
456,332.82724,315.82886,349.96964,-245.43805,29.358221,-214.48363,567.617065429688
457,-285.24188,845.6225,-637.5494,-76.578896,-102.35874,-18.359276,1360.67004394531
458,-522.68365,-1440.6172,-404.3693,18.759491,-323.28192,-366.60886,1297.30517578125
459,893.96173,495.19257,333.10455,-569.945,-402.33093,-169.3126,1340.16711425781
460,-586.37036,-554.06464,-79.840416,-490.01788,52.67261,50.727894,988.760925292969
461,-2155.5957,-4507.674,-8059.031,-1111.7394,587.15576,953.58563,5828.17333984375
462,445.95566,-422.56186,315.10315,-818.8376,157.31082,-0.87210935,1656.35888671875
463,-79.45543,23.559738,763.3152,-857.4777,148.92938,-0.7461471,1704.81726074219
464,374.57388,-2012.7832,-1535.5061,-2822.0312,-185.0921,-130.93808,5369.6953125
465,1606.9149,1568.8446,-585.3422,1875.795,-267.78342,-80.30355,3938.81616210938
466,-953.8932,202.6401,-659.6942,-95.855125,377.27692,-135.9476,1262.49548339844
467,-65.74781,-838.3093,560.50836,253.56316,-116.44931,224.42381,1362.91296386719
468,789.72906,610.7486,4183.833,-488.5735,-2843.2505,-1669.2456,6744.39990234375
469,58.245743,1148.3207,732.4126,1194.0382,-201.18575,15.96909,2303.74609375
470,-882.1222,-573.0899,1296.7028,17.898272,-30.591433,-25.21882,2043.31298828125
471,393.79346,1025.0837,2116.1077,346.15402,-259.95105,-169.09239,1710.43322753906
472,67.53665,2570.414,-551.95056,-571.4395,328.54828,459.86853,3183.79638671875
473,436.7267,-687.69836,-98.950874,374.58456,-264.89322,-181.00368,1295.64111328125
474,-15490.135,-8399.021,-9362.954,-124.55164,4987.5576,2673.6067,11853.0986328125
475,-88.71404,-724.3825,-780.3115,123.24627,336.26718,-302.57034,1049.85571289063
476,-588.8991,-169.48264,-1898.7888,-111.64503,1189.5183,294.10468,2642.509765625
477,-6581.53,-1521.1271,-8706.859,-405.68915,3664.0974,2043.2335,9704.3662109375
478,-564.44965,1339.7639,-183.77695,130.0853,181.46521,-38.85079,1788.89428710938
479,1154.9844,3103.2874,-884.59924,1542.185,0.9454415,424.4465,4427.75146484375
480,2114.0222,-353.3649,1209.736,-925.6676,241.82465,-217.13089,2749.90283203125
481,1149.7327,-1107.1085,57.527,14.440717,40.999832,299.64502,2023.94189453125
482,-975.87054,-548.4034,361.46887,-79.71339,-113.07743,-147.2385,1233.69201660156
483,-2060.826,-1080.6533,-553.5138,-130.75363,75.531364,137.14539,1371.17956542969
484,820.7316,683.8986,3233.0635,-118.644684,-47.46484,-140.94518,2505.34228515625
485,-2503.0007,-949.52924,-575.9188,202.22679,-361.3786,-77.04123,1914.55688476563
486,-460.94568,-1058.3439,359.37085,554.79376,175.74066,-488.0516,1802.91015625
487,-945.9975,281.16006,-1080.0615,-100.94734,405.08386,445.63702,1675.42041015625
488,-1007.3478,-2748.4092,-923.4635,2891.131,642.7228,633.4696,5541.0673828125
489,7721.1533,129.06702,4341.5415,554.91705,-2908.6052,-1685.8188,8844.939453125
490,-2768.8433,-2772.8933,-1021.1702,-659.15967,-120.48605,-118.51262,2109.6484375
491,-4181.157,-2392.5566,-744.15515,32.362144,197.73586,-77.44221,3000.51391601563
492,118.671455,93.61009,-202.98997,631.62976,-16.359423,-139.55002,1162.80993652344
493,1076.5873,-1013.51825,915.8991,475.86276,349.73627,180.14597,2280.8212890625
494,-399.66125,-1490.8529,-205.35739,-235.0609,149.34955,253.06749,1365.75341796875
495,-300.3984,-148.53499,1340.5966,103.94572,318.62,198.31226,1709.29016113281
496,-13.49869,35.567543,-201.35266,-527.9856,131.9601,60.100246,972.77783203125
497,-567.0047,-148.13852,-454.54443,-401.81625,95.16543,-19.970518,808.53271484375
498,-1290.8353,-704.57947,41.9426,338.85855,-64.06781,-131.9742,1322.00036621094
499,-859.9446,-1152.9591,-1.822636,-254.12506,-35.621574,-21.099134,1128.07531738281
500,694.60443,1246.3381,-357.1354,254.18867,32.42283,-354.9859,1601.8369140625
501,2418.6785,4607.49,1873.5403,-7805.173,-1076.6061,-1127.7922,14012.0107421875
502,-469.85608,1305.7498,218.31752,232.95735,-223.1221,67.36093,1652.33288574219
503,-771.08673,-824.76215,833.40936,835.95166,-177.0024,-87.05081,2208.2978515625
504,-711.3761,2040.2107,253.54567,949.8554,38.352757,-76.31279,2928.4462890625
505,-563.846,-118.39989,-1262.1758,292.9068,-88.10392,39.11119,1132.43725585938
506,-2173.5723,944.55615,509.55603,371.79715,-16.717222,64.58219,2997.26782226563
507,-146.46361,1645.6614,2670.1057,563.3137,-605.30383,-330.75046,2911.4365234375
508,-314.82938,-1152.0771,287.2089,-906.14105,70.509285,19.076622,2011.65869140625
509,-1736.049,-2108.0547,-351.9234,-1145.9637,29.961828,138.2539,2562.97265625
510,-779.67114,1542.8196,255.32642,726.45135,137.51106,254.85893,2428.20776367188
511,1.1394264,1580.4966,98.75157,79.44806,273.07654,91.84988,1617.927734375
512,-373.11026,-360.36816,-864.9562,-282.1741,620.2896,518.49963,1564.6123046875
513,-1470.9497,942.1583,799.46,769.6515,-45.128548,25.170322,2698.92724609375
514,-417.98434,2492.474,326.17947,-292.2567,181.10985,-54.477356,2687.42211914063
515,-1342.422,721.0927,871.1214,1079.401,30.264414,16.270882,2844.12548828125
516,-1127.5518,3175.2993,-839.4759,-153.50891,-122.07315,-193.71275,4193.5595703125
517,299.0395,-474.42007,94.205215,-181.78845,227.79007,315.66177,1017.59466552734
518,-1143.9344,-1136.2416,-53.554703,243.2008,-163.33528,-380.33643,1368.22570800781
519,50.293125,2150.1985,7313.111,-434.02216,-1338.5885,-1242.2645,7244.111328125
520,-129.55824,-561.27026,-210.46483,482.55505,73.611946,52.885094,938.731872558594
521,489.48682,298.8197,1463.4961,-784.6436,-264.85098,-100.27316,1805.09240722656
522,-1419.9775,191.74934,-1609.5642,-1896.1206,1068.5038,754.0123,4342.314453125
523,1478.5874,-972.19354,-1808.9006,-375.85233,72.29759,84.693474,3036.11376953125
524,-456.8332,-1208.8197,-1372.0364,-857.8166,69.39287,-27.12586,1714.369140625
525,-1656.5841,1291.2513,-715.7641,-233.71971,-54.193794,124.82512,2649.70239257813
526,-3339.1501,-2703.9375,752.4102,780.9615,-59.3988,92.215576,4051.06762695313
527,-2896.6404,-2683.112,680.482,320.66504,-473.96323,-823.19366,3884.96166992188
528,-1503.4647,654.075,-134.09435,-352.50217,5.3579865,-74.79078,1991.31176757813
529,-573.7696,-340.2015,-71.17866,224.3264,229.68208,22.84802,707.500671386719
530,645.79877,291.50778,1351.5558,-298.29535,79.28574,104.89062,1091.99975585938
531,421.33395,-394.1307,383.12775,1293.6882,-22.390734,-21.76394,2378.88623046875
532,753.5905,-1032.0836,241.85295,677.2508,203.87018,-35.643417,2010.27795410156
533,-880.37103,-1547.1705,74.49018,-68.01741,-65.18811,-313.79663,1521.55017089844
534,-1455.7496,-1516.3846,-1056.6074,164.65372,-306.31854,-113.335724,767.172546386719
535,107.57571,1021.818,-58.10493,-309.243,-41.913124,-244.36572,1219.04431152344
536,-505.12897,1386.393,-167.3951,-222.09651,-362.2842,-153.21898,1914.4833984375
537,-1812.3213,2429.2686,175.61493,448.3958,168.87056,135.71266,3775.57250976563
538,-1181.6884,1732.5403,605.966,1358.7129,204.55267,339.97137,3534.03051757813
539,1666.0195,44.461067,2078.1558,922.56696,-86.918945,-34.320004,2459.10522460938
540,-313.82495,1075.4589,1055.9835,113.42909,-109.276764,15.232742,1406.60974121094
541,832.5843,2618.5134,201.287,-2029.2476,127.92587,248.69826,4159.7734375
542,-858.44324,-532.6364,-1178.0454,2431.9355,-72.68442,-213.66862,4267.10302734375
543,-1781.6091,-966.9699,-1487.7216,2031.4852,-54.215637,4.0300083,3591.69287109375
544,4305.394,268.17633,-1303.1984,29.447218,139.98648,-41.47715,5017.85595703125
545,1143.8834,-55.65196,187.65125,-269.5179,0.8495214,239.55186,1263.45080566406
546,3230.7847,-1857.9568,-145.19637,158.00273,154.02011,10.218433,4501.04638671875
547,2454.6875,-2317.4536,63.83007,-1517.249,74.59408,117.71665,4903.5107421875
548,3002.2341,-1359.1667,-600.57916,-2204.9915,-194.33244,63.790672,5567.78515625
549,3313.823,1229.9518,173.0504,-508.6138,-56.28555,-79.29059,2909.7138671875
550,3213.2886,76.11517,-146.32878,-237.07892,-28.501541,163.70432,3292.51220703125
551,-1769.9192,-59.295856,-713.56537,-1225.5186,357.46698,27.372284,2669.52709960938
552,670.5535,1043.686,628.5815,-396.32642,236.97707,-29.592592,893.854614257813
553,-3077.0806,-2539.6143,-1964.833,-309.415,-238.45787,-14.677381,1177.54614257813
554,1189.7535,2164.0085,423.53128,-176.46025,-167.64072,404.52417,1717.96667480469
555,349.32806,1410.713,1310.2122,-706.2418,-172.70708,42.96165,1619.04943847656
556,2130.2769,302.4925,1249.1865,-347.02524,55.74671,-89.09323,1703.25817871094
557,1917.5305,2676.1228,558.2176,-249.56038,33.14301,-19.49768,1909.35461425781
558,1802.9224,1491.135,831.83075,132.60957,286.03757,25.174246,1018.60974121094
559,-998.5458,-3497.3247,245.15254,-380.44836,-145.03252,-428.35037,3456.32568359375
560,-2484.9478,-3444.0715,-389.95935,-461.8255,-22.250929,-53.548622,2822.79711914063
561,627.51337,-1574.9967,-97.54166,-92.21213,-182.167,136.638,1990.19799804688
562,1245.3876,-749.99835,-371.97693,335.3782,-34.374184,-329.78995,2009.3359375
563,2719.276,242.84982,399.54144,1335.4701,-152.61691,-261.53287,3375.6064453125
564,-145.8905,2835.4358,-166.18448,256.92673,-108.98991,148.78796,3041.26708984375
565,547.3889,-1292.3214,-474.72946,75.12101,46.530178,-183.08789,1634.88427734375
566,751.6451,-888.59125,-370.00116,-25.563736,-5.63737,78.69636,1459.22436523438
567,-558.38403,-902.5039,-516.83264,-494.46097,62.577995,97.42769,952.965454101563
568,-1643.9099,1501.2762,-829.3261,2243.4543,200.15111,-264.91904,4839.80517578125
569,1359.1698,2896.7942,360.4031,699.51996,-144.81738,20.176344,2535.68017578125
570,651.12006,3852.2512,142.01724,-1728.4104,91.49366,-62.585674,4597.30419921875
571,1220.7405,1389.8156,914.2249,-985.62744,91.743706,-410.43875,1902.46618652344
572,-1175.1117,-176.35284,-2822.563,-167.85582,-293.672,-457.20282,2515.4287109375
573,-850.78064,-632.9333,1353.6584,239.12634,4.4479156,-122.416954,2154.8408203125
574,-118.70207,-183.28198,-235.35219,-407.49146,-316.41263,289.93112,1030.01135253906
575,767.9647,407.05258,520.7131,816.75,-70.04084,-43.06554,1457.28430175781
576,43.425205,-844.3421,-11.881935,78.92499,107.449425,-69.47409,899.940795898438
577,-4240.57,1722.1797,4384.158,3400.9534,-48.744408,-383.14142,9677.8203125
578,2605.6018,-8488.1,-7100.179,-2571.6404,1759.8812,1096.2765,11930.4814453125
579,-1321.986,6245.361,105.9667,2844.6558,50.383183,-360.97998,8554.1044921875
