Element Label,S11,S22,S33,S12,S13,S23,Mises
1,-1762.5294,3.3008332,2058.219,840.6796,-477.89957,661.784,3884.42358398438
2,-247.34688,-94.608955,-2581.0464,632.7875,316.60907,201.36078,2729.38623046875
3,1305.3383,3074.1335,2765.1045,22.08071,914.98676,-781.1361,2649.73803710938
4,1346.109,4271.2666,-4417.6597,-1318.9213,-1282.3997,1192.4368,8547.2529296875
5,6955.2036,133.05884,2128.038,3643.7725,603.4539,-1608.2245,9251.7255859375
6,1252.9218,4689.3223,-1232.007,-1298.2205,1217.9124,-237.8051,6016.53076171875
7,132.27423,2952.7312,228.1868,2648.0674,-898.5553,-377.19333,5619.5615234375
8,-2028.4463,3930.5022,212.38942,992.8459,-822.8928,1159.7322,6016.7275390625
9,2689.508,4094.1785,212.08173,2464.7114,2559.0198,-1599.8546,7559.06494140625
10,5287.437,6837.387,4263.573,-2722.1208,-2422.5952,2969.9888,8446.1123046875
11,-1395.8606,2891.6714,63.38142,966.5222,-453.4543,-328.6634,4242.544921875
12,5562.389,3951.6746,381.32092,218.43604,336.2097,146.44183,4651.79931640625
13,-6434.793,2392.1226,-78.16313,2489.6094,1010.1573,-544.9049,9206.4228515625
14,7056.29,2845.333,-865.83276,735.58655,-2964.3494,525.7061,8714.75390625
15,190.9823,5813.3394,-3185.3584,2089.8123,2220.658,-1256.243,9727.4833984375
16,13534.065,-1954.9156,15096.864,1597.6157,840.02563,590.016,16654.59375
17,-901.30347,3626.1753,150.18315,-1215.1254,1735.8674,-1413.5417,6025.50439453125
18,13337.648,-6975.5396,18205.236,-470.6996,-6385.6475,1024.4963,25716.49609375
19,-15105.62,387.3312,-29313.78,2721.945,483.28595,-6480.506,28477.15234375
20,275.47134,-1818.6649,326.02747,-746.67053,-86.9088,1623.7794,3754.86645507813
21,-12410.671,4700.244,19133.781,8473.188,476.3057,7742.8784,33823.1171875
22,1845.9897,1318.8584,-510.30383,3136.5916,-563.95,14.692105,5920.92041015625
23,1276.6665,-1890.8549,-3813.2698,1615.8298,989.62085,1332.2451,5992.7919921875
24,253.33028,3142.2546,-3721.047,4380.561,-860.2262,-283.63528,9780.208984375
25,6913.885,-1756.6475,-9718.826,4318.338,310.72015,-1273.5155,16392.376953125
26,5304.3823,5585.805,8742.767,3005.6077,-526.24835,-4312.332,9729.0546875
27,5955.141,265.49686,-3292.0403,617.459,582.50195,3896.326,10628.970703125
28,-1010.9805,1432.085,1701.521,-1543.2218,-658.7446,-2102.8262,5330.2421875
29,1997.9364,-2597.9287,-7975.787,4129.017,2795.955,60.34502,12221.6455078125
30,-3303.3435,2240.852,-5669.097,1231.0586,1720.9327,-1105.868,8157.89599609375
31,810.94415,-4300.515,4715.039,-1616.6721,-503.13776,-18.045225,8362.1708984375
32,-1476.3478,-2115.1824,-5888.7505,-2003.0885,1120.2418,1186.0887,6089.41259765625
33,2583.4905,-5261.0806,-3432.1514,1665.9967,-2392.5864,-1345.0598,9025.6689453125
34,599.10284,1134.8215,-1664.6569,-2173.0105,-45.460373,-1653.7322,5385.25341796875
35,-3618.6074,-2826.2122,4712.4175,-771.7365,-222.67332,-761.14124,8191.81787109375
36,1567.6965,-353.5907,4793.353,-1918.8972,975.47986,1870.7267,6685.33154296875
37,4162.623,-2724.3816,-5210.167,-1582.9675,4732.87,656.80664,12113.6826171875
38,-237.05481,-428.1468,3568.549,4460.1074,27.5685,-253.29228,8667.1083984375
39,1780.7091,-4832.0107,7021.6875,7145.527,-1536.046,-256.78986,16318.849609375
40,-5384.643,-2068.8179,-1983.0499,4224.023,1005.0202,422.89972,8269.2373046875
41,2148.6245,955.7187,-4222.203,-11432.906,17235.459,8845.926,39401.51171875
42,-10809.693,-15019.986,4044.089,-8115.2163,9311.688,-4902.42,28821.767578125
43,8718.626,-3573.7576,-2729.249,8403.339,5511.9375,10706.664,28077.134765625
44,3447.699,9354.999,-954.6982,-75.806564,10303.078,-5358.903,22020.775390625
45,1797.0208,8084.608,-5048.16,1134.8037,-6612.7446,-8291.814,21696.56640625
46,3711.035,12865.572,724.3431,-92.24176,-2616.8618,8555.383,18979.484375
47,3864.9678,4910.2397,-2640.9153,933.03094,2645.7876,-2768.4006,9839.912109375
48,5509.6885,3473.5234,8940.069,295.66318,2921.3442,5815.753,12256.9267578125
49,-12372.818,4808.5474,-16877.96,-1155.0022,10742.872,-5648.9976,28963.14453125
50,450.9705,1861.9557,-17235.885,2844.374,6017.2715,-306.52884,21747.357421875
51,-4368.585,2111.1038,-9159.864,5503.77,-13488.224,-3698.4429,27815.376953125
52,-1787.765,3632.2288,-223.26694,377.82816,904.5195,-770.2123,5292.14794921875
53,4602.735,8199.85,-11459.5,-1379.192,-4834.1313,-6464.4756,23019.41796875
54,-2611.293,6752.235,2859.8247,-3003.3337,-5292.173,-3150.2197,14395.5830078125
55,-176.75023,6679.025,6833.7236,709.59174,-2257.5225,2004.7056,8771.6865234375
56,8341.605,2662.4568,5178.826,171.61781,4717.004,-2386.8115,10403.0458984375
57,-261.21893,4251.611,-411.0946,3954.6401,-1239.1006,-613.976,8585.9775390625
58,2993.745,3766.9226,1401.5774,2720.0298,-653.0453,-404.40298,5322.55078125
59,916.31146,3427.0679,80.32414,940.6735,707.68384,-109.12284,3646.1630859375
60,1435.3695,3089.1807,-8571.735,2146.5757,111.78815,-2144.132,12127.6484375
61,-1075.966,4087.2676,421.12454,1881.2188,37.881775,247.16527,5654.640625
62,1705.1351,2655.8367,-789.4396,-756.74426,539.7293,413.62424,3550.14038085938
63,2955.695,2452.4705,900.07086,-315.4961,-1587.6531,-397.35242,3431.99536132813
64,1704.2327,2241.7446,-118.36468,1613.4294,-141.71696,-1989.0399,4932.44384765625
65,1406.9436,3138.5227,-951.27136,1274.9406,128.36617,1104.4957,4607.44677734375
66,-23.514452,4258.994,1977.7792,670.0502,-885.25116,1624.918,5039.1943359375
67,-1242.755,3308.6836,-4434.2764,-587.40594,834.62305,674.1555,7065.111328125
68,-69.932106,5178.0073,6965.4595,-365.1962,130.66652,-640.5959,6465.19189453125
69,172.32541,2209.433,-3592.398,934.73346,-348.65637,-1545.682,6012.1005859375
70,-525.321,2544.6748,2690.0544,1225.6327,892.9466,-463.83667,4175.68505859375
71,-855.06775,18.02812,-1379.0508,1454.0343,-4045.3735,-1537.8699,8001.70361328125
72,-914.6638,871.05817,-1837.5721,2052.4587,-551.14075,935.1037,4675.56494140625
73,8243.191,2938.8179,8804.207,-184.5734,4040.7012,-14828.551,27206.041015625
74,231.29094,2112.212,584.7717,-81.34974,-2858.633,1217.0305,5654.78857421875
75,4458.112,-3700.1965,7782.882,4163.9106,-2202.0017,3515.7778,14435.3583984375
76,-45.02669,-5478.433,10428.052,-1307.7816,-3208.81,2124.333,15673.8759765625
77,2306.6968,-3189.8745,-22675.45,3304.0793,-824.2019,735.4362,23524.77734375
78,-1642.2267,-11822.446,-19445.736,692.0188,1069.2603,7451.773,20268.486328125
79,24470.262,27812.125,55776.26,-9813.687,2415.6113,-3410.2966,35041.89453125
80,-2754.3591,2863.7683,-29738.445,4934.0093,-3034.7808,1686.6411,31945.29296875
81,12489.709,13050.068,23456.637,-3975.0718,1638.8011,-3098.55,14096.3017578125
82,-2547.6536,-9741.412,-41114.562,-1884.5662,-4540.313,-2820.776,36852.19140625
83,2882.593,38.56782,10983.897,2470.299,150.89941,3483.9912,12310.5625
84,3293.093,1389.9875,-667.2696,1328.7322,-3660.615,-1713.0481,8128.33251953125
85,-259.66144,6971.015,-9241.929,-2519.3389,1613.1033,1126.9537,15118.505859375
86,1210.3362,5603.484,5280.079,2108.9485,41.06736,2600.5237,7184.69140625
87,-2523.9019,2608.4182,-1175.6735,-1351.2493,-234.90211,1313.414,5661.90966796875
88,-241.28511,1438.907,-3736.39,-826.9926,32.52338,-2199.8477,6122.43115234375
89,-6311.292,-451.88867,-10493.362,-1273.5319,597.4442,-1520.8965,9444.712890625
90,1987.3755,3105.9248,-519.8324,96.89379,-808.79694,-93.21482,3515.447265625
91,-739.4488,2441.8494,-3834.9868,-3.5848405,-395.92798,947.8103,5719.806640625
92,6270.2866,7342.3887,7319.7163,2006.9686,-183.38733,85.44374,3651.32495117188
93,-2396.3003,5372.6753,-7546.245,1389.3256,-81.578964,1611.8179,11852.9833984375
94,-889.3411,72.39682,6242.957,38.231934,399.27658,3635.6055,9223.380859375
95,-1090.2147,-5157.7305,-3824.9136,-431.93716,-3625.16,727.48395,7380.55517578125
96,7632.822,2379.961,6449.5635,-1313.029,-1533.3147,-643.184,6020.25830078125
97,-2626.9988,-1954.6979,-5812.295,530.81964,-1303.1572,-473.5577,4399.12646484375
98,345.91098,1952.2639,-1674.8871,613.8913,1267.9154,-292.91345,4015.08666992188
99,4313.298,-12071.417,10000.64,-2192.6445,-915.44525,1694.7423,20482.76953125
100,-2376.5657,-3263.4001,-5325.977,2202.738,10282.219,1281.2991,18534.380859375
101,4573.49,2850.8936,6853.9844,308.56625,-2108.3276,-165.85828,5079.33740234375
102,3787.6692,987.56213,3217.6074,462.70898,-1689.5988,-396.3352,4030.7705078125
103,-232.78851,1711.7015,1594.5758,99.028496,475.7216,1415.4321,3207.1337890625
104,10447.94,6498.8975,13051.412,32.35994,-2683.174,-873.78357,7519.71630859375
105,3211.7502,-1523.0549,-5761.331,979.035,-3160.9656,6070.981,14278.298828125
106,3309.9004,-1251.9657,7758.876,1442.0063,468.1444,-3023.2568,9757.8427734375
107,4434.1636,1887.9188,3220.825,1988.4054,-757.82263,-585.7989,4413.5849609375
108,-22574.227,3696.0537,10127.155,1748.8314,-3246.2822,-3556.2449,31291.603515625
109,6801.8076,-6582.402,-426.92776,-2821.1694,-1670.5652,898.5554,13012.0068359375
110,8959.982,-21907.18,-12224.283,1170.9448,4639.322,-5877.772,30331.24609375
111,2625.0786,3655.9478,-1741.1725,1182.5083,90.08377,-1362.35,5866.4462890625
112,1552.7524,5712.8735,4597.4766,-501.3645,224.34354,2373.779,5632.06005859375
113,-260.68924,4099.642,245.78842,-281.27042,1325.386,7.289617,4750.5830078125
114,1805.1003,2239.742,-3685.613,245.99571,-852.98395,-299.2096,5946.1083984375
115,1372.2996,3685.0808,1216.5029,-52.020954,-9.955384,1053.0404,3011.42016601563
116,-946.4834,3129.0308,-3454.382,1249.4851,2912.9314,-3529.3408,10031.3623046875
117,1412.1288,1059.3556,1873.6389,2965.7437,2600.4949,4328.9736,10168.328125
118,2243.5352,-5706.836,-13195.883,2028.7935,-2220.148,6320.0527,18049.912109375
119,11551.619,-6340.118,2138.0369,-4359.054,1950.009,6418.6787,20792.171875
120,-3537.5044,-6002.6187,-12423.37,-4963.1123,-219.57904,-10177.466,21164.0078125
121,1.7210723,1301.65,-4332.776,631.103,546.8853,-1627.2756,6012.35595703125
122,1258.3352,-1994.4003,-4879.5376,162.17105,2518.0017,-1889.8207,7622.53564453125
123,-4416.4355,-5507.0166,-10.107354,-3211.1335,2031.0887,3147.838,9922.0615234375
124,2382.5513,4055.1172,3655.5918,848.1338,-834.93005,-746.4118,2865.2353515625
125,1700.2916,2918.1782,6002.8584,-28.087006,-600.8672,3046.7764,6609.78955078125
126,12683.922,-4588.7393,-5315.8535,2891.734,5224.018,3243.0823,21211.857421875
127,5946.289,7629.7373,5655.203,2802.318,531.5332,-1405.6067,5808.82861328125
128,-5091.4575,-615.7507,-21763.053,1374.8157,-4399.588,-825.9881,20937.46484375
129,-3628.7986,3657.1345,5905.4775,1432.618,-515.27234,510.92685,9069.6181640625
130,-3768.6028,8526.108,-3332.2703,-1942.4744,2176.265,870.28186,13182.7880859375
131,-3266.5715,3796.749,7108.1357,6175.055,5564.9136,14.976686,17074.67578125
132,-1694.9216,6964.9727,-2912.9082,2442.05,2368.639,897.84454,11142.955078125
133,3962.8533,6942.655,9020.394,1614.6681,-908.89545,2038.4775,6492.5625
134,7019.035,8282.712,18626.014,2593.8677,-8880.479,6888.0537,22820.173828125
135,8994.367,2324.4514,4704.074,319.46854,-1810.7644,1092.9246,6928.544921875
136,-14577.363,-17940.164,-5008.6104,8130.0977,-12790.036,-1692.3751,28856.37109375
137,-18088.121,453.40472,-22708.3,7961.2114,-10675.134,138.41707,31350.8359375
138,-213.41045,-2640.4402,-7219.6416,-3619.6064,2891.9373,1250.1459,10346.814453125
139,4287.8384,6593.6826,21377.734,-1921.8376,-14016.393,3643.8062,29971.068359375
140,4894.292,-2099.4783,-3507.7458,324.16132,-1564.3763,-3995.7063,10784.2109375
141,2526.2114,86.64327,-110.06024,2584.8591,4232.313,-615.9512,9021.6494140625
142,948.62164,3403.5173,3163.1003,900.7039,71.461525,-295.1563,2864.36547851563
143,-841.0885,851.8279,-3511.6484,1278.15,27.734674,-215.95714,4422.908203125
144,2933.0845,1917.3131,892.2537,318.76993,-420.22467,-1219.6097,2901.84716796875
145,1222.1259,2089.0745,55.78937,70.91547,-587.02673,1870.6776,3830.18090820313
146,1692.2078,5495.279,7603.5444,377.78537,-1175.5216,692.63934,5739.24951171875
147,1228.8114,2413.0015,4581.5576,-132.10909,36.286243,568.55365,3114.32055664063
148,2471.0476,2727.5063,-697.20197,1061.2977,54.305733,-1126.3411,4255.57763671875
149,1492.498,4408.6953,1314.3184,1945.7662,-17.477863,1212.6974,4982.60986328125
150,-1635.5847,5685.054,-576.17444,1936.5878,-176.97238,690.3931,7728.74755859375
151,13648.902,20853.477,17497.219,-3186.4578,-4144.831,-2022.4535,11543.8427734375
152,5590.1587,1338.7094,12902.385,-1355.5676,6431.2544,3169.4138,16197.6044921875
153,1414.6981,3594.3,175.54065,-4777.1807,-891.01013,-759.2163,9031.1875
154,-7120.12,3825.1396,-10630.753,2336.8274,-3764.7078,870.4897,15222.4404296875
155,-1882.8615,-510.03867,13485.953,496.34183,1649.3333,2120.0095,15471.578125
156,-2069.8687,-7382.476,-3585.0312,-1223.7395,2347.279,-3534.2388,8998.01953125
157,5032.048,4981.3394,13976.293,2508.9995,1948.0618,2722.7686,11531.09375
158,3156.2776,872.18475,7930.702,922.2374,109.693886,905.00336,6630.3994140625
159,102.0694,-2432.8848,-5095.5435,1121.1305,-1222.1146,-1520.4335,5954.16748046875
160,315.8864,-5210.9634,2523.1565,-1576.873,31.1116,66.44517,7422.47265625
161,-400.00577,-1755.3536,-2534.4116,-2088.4387,-1808.3359,-3175.118,7525.88037109375
162,-5027.586,467.5897,-2316.4087,-221.89653,1344.4999,486.58292,5378.66943359375
163,8239.817,1091.5195,1651.1775,3120.6504,2620.3953,-1643.467,10262.96875
164,5389.589,4984.5635,12163.55,1526.0497,-2732.108,-1318.4097,9131.7333984375
165,3436.607,4399.946,13146.58,-913.4049,3152.3042,-23.60646,10870.7529296875
166,2341.8455,-3357.846,-5522.7095,-1412.1471,698.86383,-1755.3353,8136.55224609375
167,15391.768,103.36915,20730.305,-4678.1304,5371.9097,-952.15295,22333.8203125
168,4446.326,14761.272,28804.068,-12880.881,-2287.5251,-2079.3645,31222.90625
169,-5411.49,-11037.609,-28938.357,435.10834,-1258.3619,646.7905,21433.0390625
170,1386.1361,-6063.259,8370.916,-7001.141,-11466.922,3063.3235,26944.083984375
171,-3924.472,792.17773,-20059.299,70.84104,12901.438,84.21892,29292.650390625
172,52.38049,465.7109,-14335.039,959.3382,1675.644,-2250.8447,15475.7451171875
173,8140.51,8425.352,-24061.535,-7597.52,-551.0157,3660.2764,35503.46484375
174,563.3924,-581.2694,8359.046,5177.65,-6402.0835,9566.183,23429.162109375
175,1198.3712,-2859.2922,13482.897,3387.6895,-7775.3438,471.65686,20825.11328125
176,7516.645,5330.9087,9888.855,-453.33127,1245.8053,-2016.2754,5749.658203125
177,784.2969,2804.7595,-1663.832,349.69833,462.85028,-1410.2052,4690.15478515625
178,1116.1715,-222.19464,-2717.7554,-2376.9187,-796.45233,276.56647,5517.3115234375
179,302.79742,2604.922,-3372.2268,1245.4518,756.4415,-2009.7863,6764.150390625
180,-4024.6572,4316.068,13405.647,-5503.8945,3949.6448,2007.6552,19436.345703125
181,3658.5776,16549.246,-13089.797,-2510.567,1704.711,-3353.4622,26906.1171875
182,1570.4248,2904.6667,5668.128,2675.7083,3077.577,316.01074,7955.89794921875
183,-7034.614,3885.0217,-8239.065,-666.63696,-790.0342,-2144.8464,12282.0234375
184,-758.36707,-1991.0217,-2262.2214,5960.1577,-3052.772,1823.6538,12100.955078125
185,2515.1907,-8566.886,-7029.5293,5543.167,792.3321,2176.3694,14710.9482421875
186,541.8097,2757.2915,-1212.0366,1742.7538,588.3372,-2126.5793,5965.48095703125
187,194.00787,-335.196,-6898.0503,1083.8751,885.97296,506.8058,7312.58935546875
188,-1248.6318,22921.904,6596.678,-2261.8506,-603.1293,13307.544,31683.587890625
189,-4228.4897,-8015.4116,-30277.79,-254.8393,-10918.688,-5038.3623,32066.546875
190,2470.4158,322.26904,-2679.2056,2248.425,238.42084,492.93246,6011.38232421875
191,-1172.6796,736.39526,-342.18524,1544.0588,-555.06793,-1231.9573,3921.55859375
192,-6804.365,-9005.276,4560.1055,-3516.7627,-1545.3857,-56.54024,14257.787109375
193,1189.6796,-4948.4663,-7099.8174,2028.9701,-95.086815,428.07938,8272.6953125
194,775.0531,-7987.6562,-1701.2642,-977.0717,2462.9272,4776.185,12276.638671875
195,1045.2845,-6205.131,-4886.789,2856.264,-805.9813,773.9878,8542.173828125
196,1054.3978,-5074.8203,-10285.934,-1776.0911,1508.5865,-2317.7183,11360.876953125
197,6436.095,-10636.977,-10722.116,-73.4708,-879.6671,1134.2133,17295.884765625
198,2456.073,-4056.6174,1973.6088,-1096.0442,1091.9622,-629.40546,6919.1982421875
199,-5610.1367,-11424.095,-10921.12,-3113.1501,-1290.549,-9835.996,18853.193359375
200,11683.697,-2087.3591,13024.367,-3967.0347,-5561.9326,-1582.582,18905.896484375
201,2324.1868,-2477.001,1077.5116,-1057.7423,-409.34366,2203.5046,6086.50341796875
202,10221.689,-12053.583,7436.9077,506.02823,3191.8354,754.21643,21793.328125
203,-3494.3557,-10949.753,-11289.272,-969.26416,1403.8259,-3254.7805,9936.84375
204,2210.7148,-8241.447,457.90683,-118.20507,-828.778,-696.94446,9877.203125
205,-86.921425,-3995.879,4387.925,-65.96326,-4822.947,1291.8956,11295.9580078125
206,-2495.793,-6451.769,-1223.2036,1936.988,1174.3074,481.82578,6196.19189453125
207,-945.9889,-4136.3643,-951.61316,-2105.2803,2455.6025,558.44666,6517.87841796875
208,6504.434,-7741.643,-4053.0754,-822.86035,-185.11424,-356.4416,12904.4130859375
209,14638.304,-5085.1533,2339.7002,804.19794,-690.7843,531.6516,17375.8203125
210,5236.2837,-6106.277,-2176.319,-1629.7834,1001.883,-1089.4479,10680.0302734375
211,6124.9263,-9781.973,-5463.0903,5536.2134,872.90466,711.4416,17283.96484375
212,7978.7305,-4563.553,1551.7543,4180.0757,-3003.723,-1718.949,14365.1123046875
213,6399.952,-2317.6943,-3602.201,5900.545,-2234.1807,175.54707,14434.736328125
214,3506.6272,-10340.153,5026.0796,4640.1104,-6295.6304,5120.734,21845.916015625
215,-973.5533,-14687.711,10058.468,6989.1235,16.720913,-1138.0138,24728.689453125
216,457.14316,-9128.98,5718.3877,5315.371,-12053.351,13390.068,35049.97265625
217,15528.262,10837.478,16442.137,-8045.8896,11505.777,6874.2104,27572.5859375
218,-6485.8423,16000.028,7642.639,988.2282,-13101.326,-11638.222,36218.03125
219,13457.072,-16932.002,-7836.744,-2815.916,-14378.696,3519.2686,37563.3828125
220,8000.0576,11204.967,-3485.8975,-7804.616,588.2616,2912.5928,19703.65234375
221,6259.3867,-3253.087,1666.0717,8752.581,-251.22142,1588.4569,17477.80859375
222,14473.956,-531.1449,7783.0386,1308.9187,2473.0142,-922.0427,13984.3203125
223,-2913.383,-3802.4348,-11140.378,3145.158,-3453.8984,2299.8743,11937.009765625
224,-5651.287,1199.7457,-7223.5737,3171.3943,-780.7192,-288.44952,9614.15234375
225,-5978.9023,1374.1346,5679.804,7076.624,1166.821,105.56434,16081.646484375
226,-998.4043,6910.2104,-239.45647,-594.1531,-766.41205,-660.89154,7826.3349609375
227,-2488.3428,7167.01,-6470.404,503.4108,292.60706,-490.26028,12217.5703125
228,2647.794,3631.5056,9879.226,-1844.2714,1325.2479,2720.7385,9155.75
229,-3001.8755,4760.745,-4441.82,109.15517,-1419.5115,904.039,9057.7099609375
230,6642.173,3199.1233,8141.099,-504.9022,400.8336,841.48645,4757.44970703125
231,9405.861,-315.78098,10600.628,-21.272144,1687.5502,3560.441,12414.828125
232,-2028.5995,-599.1039,2503.0737,247.38113,25.179405,-2222.4326,5577.15234375
233,1182.9487,5425.284,-46.57709,-982.77893,399.12857,-1297.0078,5757.375
234,1669.8762,5018.9395,1595.1581,1683.7874,919.6845,1091.2963,5107.61279296875
235,-339.74185,4190.4478,2872.5793,76.38104,635.7962,472.06155,4264.732421875
236,713.2019,539.6959,-536.9765,1424.4774,-339.84735,-1114.336,3396.36083984375
237,1607.5034,2619.038,-1434.0675,728.6769,47.051167,-502.03027,3963.16333007813
238,1639.1569,2060.6145,-1885.5526,408.71387,1208.7546,-145.41656,4362.86181640625
239,198.95357,2403.5872,1072.9419,439.2991,-745.2787,1202.9774,3206.89501953125
240,1543.6035,2109.3162,1877.8705,29.591208,-341.072,503.05667,1163.39221191406
241,1143.8566,3753.7537,4621.1646,-34.25008,-824.8643,614.6454,3606.37036132813
242,3150.1545,5395.904,87.7363,176.89894,-139.25993,36.856907,4631.99267578125
243,2706.3833,1652.8513,-4517.8413,1033.464,-1131.1383,-247.29605,7274.23046875
244,-841.7998,3554.419,1913.9292,135.08617,-290.19705,-111.48707,3892.3857421875
245,5942.8887,5313.9736,2806.245,-1357.8396,412.87228,2769.2637,6108.22607421875
246,1209.2551,646.76465,2486.0715,857.20465,-106.953186,352.9898,2297.25366210938
247,4286.5825,3282.8447,-4584.1904,-0.26101187,658.4243,-2064.3782,9213.0185546875
248,5054.4546,1512.9928,761.144,690.67474,200.51079,2353.944,5826.21142578125
249,-332.31415,2326.936,-2060.2966,1150.8573,270.3619,43.8184,4341.78955078125
250,-2250.8923,-766.9523,-391.01508,1120.2452,-180.56088,1202.0481,3331.46948242188
251,1575.6085,1978.6206,-1536.3484,854.0533,-1207.8127,-462.6309,4278.73681640625
252,-328.42566,-226.3606,1036.5302,834.4762,2153.435,867.8047,4471.50537109375
253,5817.9434,-1252.4445,-1414.9642,-460.38535,-603.4295,846.4747,7419.14306640625
254,5103.4717,2646.2017,7706.069,-981.61597,-184.71986,-1421.7576,5316.41162109375
255,2984.983,624.23987,447.9408,119.25534,-1388.0272,2224.2236,5165.69677734375
256,5444.1445,847.85815,-6276.8354,3528.6284,2011.2188,-5803.3174,15973.677734375
257,-1858.6373,487.7511,2292.6575,-4019.13,1945.6791,4012.7139,11005.501953125
258,-6614.2354,-2861.9292,1777.8103,-2175.755,9059.201,1027.0198,17792.98046875
259,13431.903,-2337.3616,18423.27,1393.2098,2527.9749,6750.045,22671.083984375
260,1085.7126,3356.6672,-2841.893,-2998.7578,-2314.5823,1048.1283,8709.07421875
261,-7022.516,7253.4214,-21862.906,-3269.5857,-870.9256,-1865.2198,26089.908203125
262,-7583.92,5009.4175,-9859.043,1184.3021,3780.9326,-5739.14,18393.666015625
263,287.6743,5058.2847,-185.6307,1182.013,3634.916,11837.157,22122.94921875
264,-9892.628,1570.3156,-16968.332,-3169.3577,5093.115,-9677.505,25524.2890625
265,3406.922,3770.3213,13525.824,-557.5695,-7196.8267,-4764.1064,17979.23046875
266,-3684.2966,4579.535,-27587.426,3269.963,-5144.9717,2128.4849,31020.373046875
267,1666.4557,5067.403,10056.025,-2687.2966,-1667.6708,-1588.7018,9539.330078125
268,4754.957,16001.762,21012.926,-3140.4592,4581.197,-1913.9768,17649.40234375
269,2715.8794,10902.915,-15162.112,5010.776,-1547.6266,-3829.0103,25680.9453125
270,-1331.6859,-282.48407,1386.4198,1390.8413,1538.8143,1118.4636,4721.98388671875
271,4704.23,5086.9897,5099.2935,2212.6462,518.1639,-1475.9176,4709.48583984375
272,3986.6702,3233.277,7641.4233,-1321.6229,-1855.4731,1156.8933,6021.78515625
273,-2659.981,1504.1359,-4223.796,872.25366,61.218746,181.94824,5356.33544921875
274,-33.369747,417.44785,4322.364,3446.841,1117.6976,1844.9944,8173.9775390625
275,-1338.4661,1787.663,7203.2603,-1781.7928,381.0316,-1722.5212,8654.0390625
276,-3343.8054,-3242.8684,-3194.94,3301.6045,-792.88086,-1025.6862,6145.01220703125
277,699.54175,2087.9048,12302.619,2443.0234,1073.9858,900.78827,12010.3857421875
278,-2441.1638,3223.9521,2491.164,2090.0627,1215.2874,-254.00093,6797.6904296875
279,-3446.4763,-3914.1816,-680.4353,1838.1539,471.85776,1396.6576,5081.314453125
280,7041.4883,-8738.499,-9317.317,1743.8939,-53.317295,-2209.161,16800.296875
281,4888.3604,-2478.886,4212.652,-2148.8445,-616.6156,441.96603,8082.94677734375
282,153.27394,3845.601,-797.59,-2388.5156,1787.4387,-635.42194,6779.3388671875
283,-2187.1206,-1982.4003,-4757.435,1169.5697,-1652.2856,6.759869,4412.32177734375
284,2493.489,1063.6292,1781.8563,652.60834,486.26144,914.8933,2455.91479492188
285,-135.76595,-714.3967,189.53441,1500.6776,750.15045,493.88135,3131.27709960938
286,1516.3553,1873.0597,314.2277,244.59418,76.44227,-7.1641235,1482.67199707031
287,3210.1072,693.6082,1378.754,292.14392,-110.33065,-1453.7965,3422.15698242188
288,2960.4883,5207.225,-246.0242,-1935.8838,152.80873,-224.8045,5830.8095703125
289,222.14946,813.86035,2829.928,1915.5262,155.04466,584.70825,4208.68994140625
290,4495.1533,-48.375034,7962.885,1123.648,41.317863,871.8382,7382.2578125
291,-538.11334,-7325.985,-15603.885,-1055.4402,2822.0085,2195.233,14576.6376953125
292,-21508.164,-5135.0215,1744.7534,6007.3564,5394.932,-6828.754,27632.06640625
293,-3528.6716,-4706.1113,-10070.257,3008.7244,1382.4763,3890.6335,10713.470703125
294,140.26282,-6692.174,-2253.5244,-1001.0845,-79.310715,96.41054,6253.82080078125
295,-907.65344,-5934.6475,793.18146,376.18356,-4116.9536,-821.2917,9487.33984375
296,-853.3716,-2267.942,-1328.6235,-379.19647,4761.923,-3610.1367,10445.71484375
297,-1091.1857,873.57855,8793.615,626.5673,163.26788,1379.0139,9439.865234375
298,-199.557,984.91187,-3168.8357,902.7859,-240.14853,46.292995,4044.88720703125
299,-1288.6112,3171.8984,-1228.1385,-593.38513,737.41174,384.4537,4770.86181640625
300,-2221.2476,-333.3511,-4859.209,562.5109,852.5007,1132.3982,4741.27587890625
301,1052.4133,692.3567,1212.1722,-991.7116,435.74908,-35.08147,1932.99914550781
302,5602.9497,-1052.7052,15573.766,12404.25,12946.269,4854.1655,35287.10546875
303,-7409.7686,-9672.534,8257.133,-438.90347,8303.9795,-7073.9463,25369.08984375
304,2895.034,2396.0903,11794.923,904.9653,410.09775,-3644.4822,11256.3623046875
305,5056.5737,593.7769,-5112.6323,-558.19885,-1334.4235,-1504.4283,9540.0693359375
306,264.04684,4778.589,-140.3562,807.7888,-162.6018,246.29733,4958.74951171875
307,1048.7178,-841.7285,-142.7313,1736.7749,-3810.4517,-1961.0626,8178.38916015625
308,1024.9972,7263.756,4795.9614,1089.122,-1403.8417,-721.6903,6375.69873046875
309,-2888.0906,1533.0632,188.21638,1130.8639,2056.1055,-276.43173,5670.7978515625
310,-8298.658,-2328.0469,-10653.423,-1308.8936,-1530.1862,544.9342,8264.828125
311,-5240.8037,3205.4902,-66.65069,2630.4456,356.00284,-603.08923,8754.3369140625
312,1354.3857,1658.2898,-3678.43,667.33264,-61.32338,1080.5514,5639.24951171875
313,-7321.024,-7262.6797,1633.1725,765.7369,-850.8079,-3005.5688,10520.9130859375
314,6018.374,1766.6534,12943.293,1996.6534,-3326.2927,-1434.2064,12116.0166015625
315,-2847.9883,2078.26,-18639.742,-2219.2817,3595.269,-445.87292,20139.30078125
316,-7843.592,6667.3315,-3873.531,-4576.77,2511.7708,212.08862,15831.02734375
317,6419.8833,4767.155,9526.641,6676.593,2874.7688,3474.4329,14569.0322265625
318,2379.8457,12648.712,686.2863,-5349.595,3897.088,-17170.395,33787.4609375
319,-6713.1675,6123.578,-6212.4478,291.1373,-2715.9878,4089.8762,15204.2900390625
320,-1231.5138,-2108.27,1257.5876,2800.3262,459.57602,775.40796,5925.3310546875
321,3874.5193,-2252.1575,4707.1064,1583.9714,-661.3953,-971.9771,7416.45556640625
322,3089.3179,-3760.5342,700.46106,174.4648,163.49681,-18.509813,6036.25146484375
323,2051.3975,-7292.3193,16576.785,322.60635,-5078.9795,-2392.752,22997.58984375
324,-623.25275,-8020.075,4805.5083,-1096.1715,1177.9976,885.69,11595.7392578125
325,-2062.1628,-7362.4546,1331.5455,-1803.2842,-1274.9607,-1940.1553,9139.07421875
326,-14447.404,-1377.4634,-4388.4497,13074.665,2520.8806,-1478.9568,26057.685546875
327,-13903.781,-19198.248,-18834.438,2588.442,-2137.9944,10798.09,20244.677734375
328,-22791.738,-5290.7593,-8973.98,18905.299,-2293.9023,-6835.083,38517.04296875
329,23650.24,5300.88,13250.611,11459.37,5219.8696,8262.113,30569.671875
330,9454.743,-532.5811,-3252.3594,-4432.823,254.68657,-540.1422,13940.1142578125
331,8112.2095,-7451.713,-4629.3325,4149.458,995.60596,2125.1143,16566.5390625
332,2531.8628,3526.117,6141.089,1159.8606,1362.1683,42.723415,4475.97802734375
333,1036.185,1212.3872,-1906.0878,328.69955,-387.30438,-638.6134,3347.2490234375
334,2901.3965,1627.1584,-2556.9756,81.149826,472.7984,351.35654,5052.0263671875
335,-881.0396,4832.823,1517.4847,865.8797,-1263.8662,1223.3894,6018.9423828125
336,3219.2756,3860.0002,2426.931,-830.8656,-612.5679,-1906.3127,3955.35424804688
337,7946.2915,-472.45645,3950.8586,-4334.292,-8596.049,-1326.6578,18344.392578125
338,3677.1113,-945.2964,5664.679,-2082.4468,-3990.2761,-7010.088,15578.9951171875
339,-2073.1868,13340.992,-2867.1147,2747.407,5576.64,4972.495,20990.083984375
340,-2086.0056,16930.541,-10366.42,-1903.9677,4518.7246,-280.89255,25691.005859375
341,1234.6066,5663.8433,3839.2012,3750.6077,-1646.1968,-1035.9115,8271.4013671875
342,-2965.153,-3280.1628,-977.2673,2118.2957,-264.06946,-868.56415,4539.94091796875
343,-5238.459,-343.36258,863.3926,4129.4995,-474.17816,-472.97296,9155.8369140625
344,4371.7793,2575.3467,995.26154,-430.855,-868.24384,-956.9718,3758.74853515625
345,-1337.7515,323.6779,-14225.451,-4090.618,1041.5756,8.944813,15611.517578125
346,-1384.4967,1737.6329,-1976.4717,1488.0748,20.778973,150.61168,4319.5830078125
347,-744.86163,3377.0383,862.4711,532.07623,-713.84607,-440.5011,3988.54370117188
348,-5712.543,-9968.981,-4761.3486,4166.5063,1478.7178,2409.6013,9956.326171875
349,2152.074,617.8153,2480.1492,106.20311,-343.24902,-43.439823,1832.45556640625
350,-5383.373,5661.5225,-7599.823,3637.9924,-577.8499,714.42487,13914.767578125
351,-2228.7725,3136.4421,-1667.8951,-1043.1946,-749.10565,-243.06851,5587.1611328125
352,3006.187,1525.3776,722.8497,-58.42638,-253.39001,-837.11475,2516.02514648438
353,-3626.4468,5120.84,7311.477,-4103.0986,-2844.6357,-1386.4491,13454.548828125
354,2754.6238,1680.5743,2510.587,-503.1286,32.280827,197.66191,1353.06335449219
355,-3392.2388,-408.0471,-1952.5231,2221.5562,-707.568,-331.08154,4828.92626953125
356,189.5632,-500.64087,-1788.9373,97.16692,-310.94843,-37.671993,1829.73364257813
357,2355.236,1476.3617,59.040752,-1012.5909,-39.127716,-86.870285,2670.22827148438
358,876.95496,-339.51764,-952.6637,-277.06775,-510.14917,-151.79764,1918.80505371094
359,987.90424,-410.41098,470.83707,-72.0152,196.77232,56.38221,1280.96630859375
360,-1865.6886,298.31064,482.55798,-3498.3604,-416.48096,-314.02835,6530.49267578125
361,-1430.5903,13370.613,10207.791,-853.8706,843.2842,3671.013,15067.0234375
362,-1371.3845,-274.59326,-1584.5853,285.1823,234.09071,-3.4530392,1375.01281738281
363,1019.0617,-10704.741,-2889.2605,-9247.496,2723.0632,-2164.2378,19993.69140625
364,4678.964,-3594.122,1295.3916,-54.79471,-664.5288,-34.827007,7296.39453125
365,2735.8845,-2500.3857,1835.6221,-318.44144,-669.7312,57.32294,5017.43701171875
366,199.16045,-3666.9976,-2827.028,285.78564,448.32047,-68.41968,3642.431640625
367,610.41046,-1995.698,1731.0704,-89.65331,492.10797,-99.00655,3427.5751953125
368,-228.80145,-395.17383,-116.56749,210.29643,-116.46196,-139.53468,539.186950683594
369,-1156.6375,580.33203,337.95984,263.9412,-27.98304,86.894684,1699.65014648438
370,-1222.3385,-1518.4883,-10.815298,727.3549,-11.223046,-43.232296,1872.80688476563
371,-2026.2294,-90.170555,-276.93365,-383.8669,-29.46385,-48.6381,1968.09118652344
372,-120.41022,1057.1981,1190.675,-233.02765,122.593994,379.45078,1483.81384277344
373,-981.00415,-368.09833,-563.13165,1539.3074,307.49628,204.83032,2795.0107421875
374,-205.78218,-204.61963,-125.749214,411.05762,-37.3296,-67.319244,728.693908691406
375,2259.052,1217.2408,90.867714,-203.41158,-109.67618,-32.066254,1921.15991210938
376,-1836.5217,-3855.3564,617.6089,-1622.6884,496.50415,76.07903,4869.20947265625
377,446.5628,-486.24472,544.63495,786.13544,-473.57993,58.531517,1873.06396484375
378,1453.3376,-1033.4672,1180.5968,697.50977,-78.02762,-56.901024,2658.546875
379,844.9291,-846.02924,-2203.9902,497.06366,-45.013245,-229.16023,2811.49291992188
380,1371.0978,-662.55066,1021.004,95.94614,-321.67883,119.78098,1981.77075195313
381,-78.19171,1547.3324,4315.7495,1174.3949,255.43651,727.508,4552.7734375
382,-1876.3237,-1131.0408,-172.79265,612.30383,83.79448,107.29753,1835.26635742188
383,-650.6742,-1468.3618,-5030.2993,460.923,-243.49185,-834.47144,4378.67626953125
384,-2416.9365,-1825.5245,-3300.7134,-4197.1875,-1150.8931,-1233.6897,7939.9169921875
385,-9250.211,-21392.566,-10773.255,-383.6927,-2748.168,-4456.5513,14626.8447265625
386,2576.6587,12839.419,10237.854,-6357.026,5185.8486,4276.0576,18497.609375
387,-3484.644,10708.736,405.6438,-8180.359,-1690.5198,790.29425,19302.12890625
388,-1173.3584,-1619.4388,381.4267,-732.02594,-69.42581,-28.017626,2221.32958984375
389,-6540.9746,-1658.424,-5261.1543,-1304.2667,820.5903,-409.64908,5182.21337890625
390,-1916.6923,605.8273,1945.8354,-1724.7981,583.4063,-51.685528,4636.0341796875
391,-1529.7222,-1720.8914,-3005.7393,-846.1972,575.46045,-483.32123,2403.20922851563
392,-932.6983,-1350.238,-9304.735,-343.47635,-727.3672,-2694.8916,9513.0498046875
393,-1742.0656,-1167.4044,-1515.628,-63.817543,-386.0017,-498.9788,1207.28369140625
394,-1092.2523,-1745.158,-8440.686,876.94904,-577.89667,-1772.9985,7897.31005859375
395,815.339,103.8856,-709.1421,-214.74007,32.633354,-202.92235,1417.98388671875
396,1590.4738,-2095.2146,747.0665,343.15775,-265.475,87.66333,3431.45068359375
397,776.49146,-1212.2622,-1283.6387,213.00587,299.308,6.625634,2123.01391601563
398,-1744.8611,5066.903,543.9241,437.35062,104.91018,270.18964,6072.38427734375
399,-381.6943,1112.7489,18.89681,1177.0789,116.22406,198.98213,2472.04833984375
400,-550.4349,1434.9733,1247.2905,1476.6411,-145.79646,-278.8595,3231.54858398438
401,1041.975,-1815.7704,65.87641,-458.37756,231.86414,-160.57722,2683.09594726563
402,785.86523,-737.2627,-577.2578,-283.73312,-112.656944,-181.22592,1574.77905273438
403,1051.9927,-529.71875,410.0379,-355.7423,-50.345207,41.97408,1513.63037109375
404,18912.406,-3167.4678,6025.7734,2635.291,-1580.683,746.8711,19976.34375
405,-526.1613,-493.02298,1482.7095,-125.5055,-346.61945,615.39874,2348.17504882813
406,-27144.965,-25806.738,-6948.4844,1045.8799,881.8011,545.22064,19727.32421875
407,-270.78204,-193.41377,-300.29474,-1450.1876,-223.09564,-85.54308,2547.45776367188
408,224.55962,863.61035,2138.9744,157.34409,177.02046,100.06395,1745.93249511719
409,2177.5588,485.3751,430.4771,-1271.433,659.7186,8.964198,3019.09741210938
410,923.092,-844.2637,83.52486,-525.7608,-84.162415,-44.539093,1789.15612792969
411,-2971.7646,-2907.334,475.22067,-2206.8936,1.6262656,190.50046,5136.5146484375
412,1068.2898,-1519.1569,-183.62817,644.27045,-251.6208,78.72475,2544.93481445313
413,291.67105,-1986.7161,1315.3193,1317.8608,-176.36617,132.89043,3731.98828125
414,678.80646,-379.92215,149.3329,688.8038,263.3327,182.34695,1603.68798828125
415,691.95917,-290.8822,2498.7961,1115.7992,-138.26418,-44.310055,3131.25146484375
416,-561.2955,-84.186424,1157.8646,43.714085,-305.10715,495.88608,1840.00830078125
417,3746.2644,-13435.794,3930.4146,164.83691,668.4723,1229.0945,17446.353515625
418,-358.38132,-39.71633,24.005259,1149.4326,26.441877,-107.78848,2031.36706542969
419,220.53542,681.01514,563.57916,-115.07115,68.00642,-136.74498,530.520690917969
420,-913.6721,-2923.421,-1875.9675,391.82776,979.49115,-15.791473,2524.01953125
421,-1456.4142,-4336.693,-3697.6462,-3964.4568,-382.48892,-1265.6505,7697.98779296875
422,-20.69041,-485.4162,903.9918,1482.8483,119.029854,-182.9672,2870.57202148438
423,-1048.7507,892.0122,-2016.2404,-304.60147,-21.874851,-322.43088,2678.04638671875
424,594.2602,5277.7285,7883.5835,114.424965,549.2721,2205.146,7514.13232421875
425,-2611.5684,-608.74567,-2068.6328,-970.02045,-184.33286,-311.1376,2536.50317382813
426,7006.708,-137.49573,6496.3955,-1341.088,2239.2556,581.11163,8312.984375
427,45.832523,1492.8546,3601.7698,1421.0647,473.9525,1139.8491,4496.99658203125
428,-423.28616,5089.467,2701.1343,-566.9251,809.9507,806.6216,5273.75390625
429,-716.8334,-1659.4347,-1658.5532,-147.15007,68.70228,62.321407,989.160461425781
430,25.51815,-34.957993,-1616.6425,-300.4908,451.69672,-113.61694,1876.89575195313
431,1022.531,-1482.8558,-189.84114,687.80896,-573.3147,288.90982,2713.86572265625
432,563.4118,155.37836,-792.31647,-484.9754,270.1577,-46.707146,1543.50622558594
433,397.02094,-999.13257,-633.5533,205.53963,285.57382,-47.530357,1396.6611328125
434,817.67816,342.11246,1733.5433,-104.43912,156.9194,169.82654,1301.40014648438
435,7601.3433,-2777.1782,2182.8591,2842.8853,-991.8309,943.6775,10521.7197265625
436,-406.09448,-2734.0457,-710.5884,490.03458,36.05534,-18.669836,2351.2919921875
437,-59.287033,-708.4689,876.1397,-378.0129,53.45167,-75.31994,1535.576171875
438,-1590.0112,-107.489296,-7.4765406,78.32417,-59.98059,-78.73213,1550.4638671875
439,807.02136,-737.4568,-901.36383,316.94934,-125.70349,-53.090088,1738.57983398438
440,599.2435,-1551.3251,-945.15295,-1023.25006,-251.57808,-121.40433,2657.81665039063
441,-11916.763,-7166.5215,-7871.421,-660.11084,-4860.5923,-1628.5873,9992.6689453125
442,-1351.8624,-954.96844,493.96188,-683.4522,-12.833016,273.9819,2111.63647460938
443,1452.5055,155.37843,64.54545,-1343.8688,-798.7229,56.508423,3024.89916992188
444,-3524.462,-2089.2139,423.1788,-709.07697,-16.574919,21.35373,3672.67260742188
445,-304.2068,-471.2586,438.83316,1028.3801,202.39165,87.49607,2005.66479492188
446,1008.5702,-325.97974,1211.4648,866.58386,-232.93288,109.124084,2131.75122070313
447,342.69525,540.6323,2559.5981,1053.0874,376.11188,319.74805,2927.98657226563
448,-735.7856,872.15137,1620.7461,204.16344,-206.98238,92.65614,2151.48266601563
449,1102.0133,1328.5652,5322.4043,-5.49623,2408.9636,2064.1538,6862.833984375
450,2385.3694,-1250.0198,-3138.2446,2157.104,-943.83984,400.8712,6384.33740234375
451,-1400.1364,883.2423,1441.1921,226.54779,-11.21813,252.40222,2672.93969726563
452,648.9856,482.36768,-31.245922,249.37555,-89.42552,87.6112,781.48583984375
453,172.62196,404.36755,598.32874,-66.79628,6.140508,-2.403299,387.030090332031
454,368.0013,-762.56055,-1450.3485,101.96606,4.389112,120.59949,1613.595703125
455,365.22302,388.8602,897.70844,-636.5248,-128.18317,263.04547,1320.55895996094
456,-779.04315,-649.6162,-440.6044,-768.14056,25.174782,-192.04222,1403.62048339844
457,-1997.52,-992.67,-2758.6414,414.5495,527.3491,-555.7042,2151.76879882813
458,-2553.0698,-1692.5568,2891.4563,-1802.937,-184.09775,197.45909,5972.32373046875
459,787.6303,-975.65533,-331.21518,-48.8795,99.67343,-24.291363,1557.84777832031
460,-368.9388,-620.56793,-1110.1654,-1025.4442,-101.260445,35.23691,1901.39770507813
461,788.26953,2103.9521,2145.6301,-591.04694,-71.07564,395.4193,1822.03918457031
462,-1249.2344,232.15656,2350.172,-643.55237,703.2659,-83.21696,3544.7314453125
463,-866.89417,248.61153,-832.07025,512.11633,243.32379,-136.95265,1492.44641113281
464,-703.42377,-396.13324,858.8177,568.748,-209.1031,47.615,1778.58386230469
465,-426.9645,-1126.7828,-1297.6667,507.0921,-243.52011,71.80621,1266.22912597656
466,-549.24963,-571.0521,2081.4778,1119.5686,-479.39954,1976.7576,4811.552734375
467,-457.64322,-143.40495,1139.8087,1200.5702,-153.92078,-17.375378,2558.26196289063
468,-2759.4185,-2270.3882,-2912.5762,407.7929,-311.2543,-192.27457,1112.62670898438
469,517.71576,-456.0931,-1002.39026,501.61908,-234.08766,-196.92786,1677.59680175781
470,389.48755,4836.2207,1155.8959,-254.53261,389.67834,376.8744,4246.03515625
471,693.6616,-390.69223,733.6484,218.50603,126.04932,-233.1945,1254.91870117188
472,536.99774,258.17538,-5697.842,-771.63196,-1589.3973,-1950.2529,7614.97265625
473,124.291466,-848.6936,-532.3253,288.09174,539.15576,-476.82596,1594.40063476563
474,-3277.7195,4125.1807,-2189.6587,3461.2263,1056.8289,-2236.8953,10111.083984375
475,373.2958,46.121414,254.52126,-607.6862,1.19082,18.527395,1091.40832519531
476,2446.6008,3596.7012,404.42105,1767.0856,-236.69426,-263.51547,4193.57958984375
477,1968.622,-1542.4026,-293.22623,-822.9753,-275.6289,-6.2787814,3429.53979492188
478,2844.1252,-1378.0464,622.3149,-478.97333,32.844955,518.42694,3857.47241210938
479,-300.15778,191.47246,1240.6421,646.8722,-177.02054,298.60907,1864.16271972656
480,-3253.5032,-1913.1448,-1226.9697,424.60858,-106.75656,-20.055126,1939.94653320313
481,246.85017,-606.51013,398.03897,-167.01399,-171.17319,39.601547,1027.80688476563
482,-2314.501,-2162.1792,-63.377243,569.72614,-69.10683,-60.137276,2397.24951171875
483,329.82013,-731.0407,-191.18408,-302.00107,0.6963223,-91.22866,1068.99096679688
484,856.97455,329.86124,-804.6489,15.513451,332.0401,-961.5056,2295.197265625
485,-5523.815,-1841.3765,514.9641,-393.95035,-38.061703,264.92508,5335.75341796875
486,-5296.3823,-2053.8286,-1235.5494,173.54807,365.59515,22.35022,3785.48364257813
487,-118.29065,-667.9115,-948.8079,978.446,121.80096,-77.926674,1862.83825683594
488,470.17508,-1164.1632,-8.362969,226.02023,-233.21288,-49.399414,1562.5966796875
489,667.6889,570.72186,300.2864,-937.9116,-67.95042,-82.83088,1668.001953125
490,-514.5274,-1859.1821,-142.96484,-160.2659,44.3497,228.33382,1638.64074707031
491,504.51392,292.06665,-37.43059,-593.44977,-15.862778,-9.101235,1131.92504882813
492,-2722.0269,-810.5647,-139.24121,-162.5426,192.03995,75.6723,2365.30102539063
493,2400.5872,-1482.5404,1306.9852,117.53371,176.31317,280.1182,3521.1005859375
494,1505.4945,1351.3473,-152.75378,582.85,-60.67941,-529.75366,2095.2421875
495,-751.0056,-1316.925,955.6857,466.2156,531.21045,37.979805,2387.85717773438
496,337.75214,1524.974,476.54636,750.1995,159.18349,139.82158,1756.99926757813
497,-2076.5493,-1272.0056,2345.4768,1158.5042,422.6598,-76.870575,4606.9443359375
498,-1432.2091,598.1542,-1289.5354,2049.7808,-259.35333,-191.20285,4095.03637695313
499,-740.54047,-82.31865,-684.93585,1021.5867,-56.2499,-18.290594,1881.79736328125
500,-856.51056,944.1637,259.10663,866.18994,-210.09244,74.55081,2208.64453125
501,78.47785,1681.1658,2322.3125,-92.3582,-212.70145,501.51892,2218.8095703125
502,-192.45891,-1090.0316,678.36755,-970.33014,178.68399,55.34124,2296.78002929688
503,-1683.1675,-2349.4243,163.25168,-1501.3417,-51.653187,20.60593,3443.06689453125
504,-1577.1229,1253.5322,62.975918,1169.8025,32.610725,372.99878,3253.59301757813
505,-911.91534,1155.671,208.67867,167.03664,-105.01106,-86.72512,1831.13854980469
506,-691.23236,1809.984,-95.588104,-108.77199,86.51652,-224.21516,2308.63745117188
507,-1236.1638,679.6149,1014.85785,693.24713,-136.84439,102.42436,2440.13793945313
508,-627.7474,2356.3977,-380.07397,-217.35437,179.9852,36.6015,2910.37841796875
509,-1154.2078,910.241,1077.0782,1074.6539,21.015862,74.37606,2848.99536132813
510,-1044.0312,3326.125,-442.6555,32.55423,38.53772,125.08243,4109.3046875
511,412.47205,-710.01996,-224.19931,-48.009567,134.92567,100.913895,1021.15649414063
512,-2467.6692,-2295.3162,-984.78986,765.48474,-267.0994,-431.56494,2122.19921875
513,912.0654,768.6411,1178.7521,-2467.9126,-478.31372,884.3328,4629.708984375
514,-1394.1593,-785.6314,1226.9922,1052.5002,-36.703125,-76.13216,2998.39916992188
515,-1477.0991,-453.5203,-1225.0317,-333.23502,111.93561,25.93615,1107.24169921875
516,234.32187,191.8237,599.16284,-406.46,15.362749,106.87612,825.242248535156
517,452.7611,427.64447,-1665.3463,1275.6567,-1335.0681,-261.68716,3855.95288085938
518,-117.798996,-1160.859,3951.383,1217.2018,1835.8076,1218.8265,6395.50927734375
519,2342.4697,-936.7824,-722.61975,-356.01813,-183.00151,144.15726,3261.92041015625
520,-796.4581,-406.8155,-1454.4851,-193.24413,-406.425,-125.79036,1223.21691894531
521,-4393.01,-1114.4153,912.8395,-828.7986,20.013554,80.65283,4856.6376953125
522,-3178.1165,-2220.4832,662.8316,323.5177,563.3068,264.54492,3669.82421875
523,-1027.3071,679.1867,63.37268,-279.32657,112.83021,-207.12732,1625.24841308594
524,-683.32996,852.0028,-460.03714,295.61566,121.756996,-178.37056,1570.466796875
525,251.62096,316.0315,2142.64,462.96835,-55.503803,-1.8770857,2027.45434570313
526,-221.52534,-717.74896,678.8502,1399.2612,-313.12375,-40.026127,2770.6396484375
527,-1797.3765,-330.75134,-331.97147,1953.0591,56.76753,-46.06079,3688.97705078125
528,-1786.33,-1543.6782,-372.1933,184.82654,36.768345,-311.59384,1453.72973632813
529,-1427.4124,-1211.328,-338.75067,34.089554,218.337,-29.169556,1070.3671875
530,580.09265,859.4541,280.5601,-291.6935,-88.788734,-380.27133,981.9189453125
531,228.33766,626.83673,-137.82083,-465.48212,139.28685,102.54556,1085.61376953125
532,-3096.3667,3669.6567,257.40512,916.4198,-150.11307,23.632078,6076.50537109375
533,-2099.8801,2502.7102,772.44885,1495.6477,140.64658,352.1848,4832.83447265625
534,1022.5188,714.65375,704.3589,119.04138,140.7682,-151.70595,518.7099609375
535,1818.8003,1516.1603,1150.0408,1355.4203,488.4181,215.43944,2588.98193359375
536,-415.08414,4100.187,-179.69623,-2821.502,-133.57729,468.55978,6631.36767578125
537,-2240.0198,114.77602,-935.1174,2139.8162,-30.635098,33.58664,4232.9296875
538,-2100.151,-1014.06024,-1036.6102,1992.3114,314.68066,41.257156,3655.91357421875
539,-365.7274,113.30377,1175.6552,-430.86578,-35.387012,63.268654,1561.94177246094
540,5241.7646,-268.42517,-623.16284,1754.7279,-21.753832,40.10208,6456.4814453125
541,-2081.3115,-547.83044,-914.70294,-1611.2083,-137.41922,-399.4451,3201.07250976563
542,4215.684,-2004.5474,-341.0913,801.1314,-325.3259,-123.48622,5779.27099609375
543,5467.9487,-1976.8646,-247.52856,-2101.2603,-24.002483,-173.02463,7673.2451171875
544,4926.6064,-1087.8262,486.2186,-2247.884,-286.8659,-18.73179,6677.642578125
545,-832.09155,-1108.03,-569.55457,919.02783,100.91173,114.80687,1679.71411132813
546,3032.3062,672.9485,-132.01016,-307.92743,-15.038351,-178.86914,2914.58935546875
547,2719.6338,-449.36615,44.043278,-114.23696,-244.86845,111.426605,2996.4443359375
548,-1978.7389,-238.55057,-88.20164,-225.14911,-229.93832,-52.784534,1905.66137695313
549,2203.1475,2078.1687,-704.96436,-611.7865,-127.73144,21.144173,3046.70581054688
550,-3970.4822,-3024.225,-1247.4849,-32.854355,254.94371,-215.83096,2464.02880859375
551,1953.1001,2605.2515,745.19183,-636.8294,-187.02179,135.17004,2012.083984375
552,1941.0042,-520.8586,1384.8988,-2211.892,250.095,50.72703,4457.99609375
553,1150.0096,-158.03362,570.0429,-1291.0316,245.11206,-98.281906,2549.1611328125
554,2177.7615,2694.81,784.4638,186.63977,13.601693,95.10457,1749.63232421875
555,1982.1227,1790.9243,92.327484,-596.4048,-13.804239,24.550358,2077.50634765625
556,-68.82593,-4249.8667,32.277935,620.9437,388.37112,-395.92334,4471.41162109375
557,-1625.9719,-3318.5657,492.89282,-247.73146,123.93691,262.7603,3373.15307617188
558,1038.415,-1654.0903,-336.2121,34.5899,34.844784,-125.64963,2343.62744140625
559,1480.2511,-2015.2023,-1364.9979,-118.791,-131.9577,-193.93706,3252.01611328125
560,3383.9019,78.98119,591.1582,2099.3672,80.992035,-74.11006,4769.72802734375
561,-1673.9984,2957.5996,-569.2949,98.73388,228.35507,89.311424,4214.87158203125
562,2801.874,-320.2024,119.03854,365.253,164.10088,-285.1715,3048.595703125
563,1698.0989,-1094.9343,-543.8436,143.87766,-16.09775,194.3823,2596.48876953125
564,574.85095,-1346.0228,-521.3544,-1338.4585,57.532845,120.51269,2865.94897460938
565,-605.59375,1317.5463,-964.18134,2805.6216,350.66748,164.2299,5346.1220703125
566,-306.14606,1648.5878,-484.04617,1163.661,-219.94353,-130.64243,2908.44116210938
567,381.61496,4304.7983,166.84467,-2371.396,-57.824516,-264.7959,5776.76513671875
568,1196.5078,1184.9429,234.8084,-1838.7922,-179.50111,-241.9578,3365.953125
569,-825.6326,-35.94336,-803.33374,-433.9572,161.45483,103.312645,1132.11181640625
570,-313.18292,644.9698,-1168.6722,398.5867,94.43921,-759.0841,2168.318359375
571,-923.35974,-1133.6709,-4205.282,-95.92475,-330.09442,-269.96738,3270.80419921875
572,-378.19055,-400.0922,-516.9111,-61.612926,-228.39934,88.21421,455.979522705078
573,426.66272,-735.9397,1666.5526,-36.81411,-12.47997,276.4182,2136.40454101563
574,-3380.096,4536.688,940.2709,-6894.554,-1423.0968,1169.4562,14139.333984375
575,640.02673,-4446.227,-4748.363,870.5926,598.0401,-999.7749,5817.5078125
