Element Label,S11,S22,S33,S12,S13,S23,Mises
1,4215.2715,3243.6472,1870.7693,168.225,440.9405,-551.8205,2396.7626953125
2,-947.0941,3256.7588,-3140.9116,750.82764,-708.2582,258.35654,5924.8681640625
3,2724.6506,4972.7817,3410.8174,189.76865,667.2389,-142.34586,2342.38598632813
4,-1226.3167,2999.8882,-3715.9954,-349.5334,-1318.9115,-166.26753,6344.228515625
5,4643.082,4004.063,2194.4429,1842.1827,624.7676,-307.52457,4058.95092773438
6,57.170204,3053.3157,-2782.9985,-385.77808,-604.87585,877.0365,5422.6083984375
7,6284.685,2335.425,4053.7737,1727.3192,1305.3129,-779.5743,5258.21240234375
8,-6359.0024,1627.0582,-3168.5427,130.64569,-1439.5747,471.5795,7443.9560546875
9,7627.416,4232.532,1210.9629,1368.888,2576.1963,-348.02948,7537.1279296875
10,-1455.5979,4814.009,1452.973,-357.79395,-2208.7156,1231.8785,7007.4287109375
11,-148.52887,1251.1124,-2713.951,1262.7678,240.45721,-407.25107,4193.54541015625
12,7058.6196,2093.6206,2755.794,-23.038595,-1150.1792,399.8219,5123.6611328125
13,-6458.991,2782.0286,-3282.6714,1796.052,1242.9227,-294.91855,8983.6474609375
14,6509.2515,3156.506,3399.428,462.51453,-2351.476,179.59013,5273.73583984375
15,-3526.9397,1982.7908,-1132.497,-277.81104,1408.1354,-1846.0625,6269.10400390625
16,7754.84,5149.388,10448.702,1290.8735,-1375.0299,567.0404,5718.373046875
17,2987.7786,3451.231,-2829.8567,-225.59215,703.30396,-1651.3007,6824.42919921875
18,1390.8214,3629.4644,-346.0759,2050.252,134.7703,1055.6942,5284.4287109375
19,-3928.1804,-4487.162,-5483.341,-2702.875,627.8767,-486.20905,5066.5732421875
20,-15035.613,21443.03,-3940.545,-2238.394,5280.813,-2005.3204,34056.0546875
21,-2897.8938,3352.1653,-79.25946,467.03143,-1851.0792,-189.37471,6358.673828125
22,1965.3307,1948.9712,1390.2886,-427.34665,-4400.2334,-54.44568,7678.83251953125
23,855.20624,7066.0225,7145.9146,3300.1145,1659.5677,108.846016,8946.9052734375
24,-461.11908,2737.8755,-5175.094,2358.9485,-1069.1691,-632.78253,8298.169921875
25,464.8308,4364.5054,-577.47815,3729.4507,-35.932728,-610.4656,7950.271484375
26,4930.378,-1032.0656,-17354.195,7672.347,-456.1908,-1028.78,24076.474609375
27,5475.731,5776.3584,17059.42,6297.6943,-2618.0662,-1231.8269,16579.73828125
28,5859.2666,-446.99124,-4197.1304,1093.0331,479.71793,1879.1017,9609.859375
29,-7021.707,2527.7578,2241.3376,-2489.5261,482.58646,-1215.0753,10595.2939453125
30,1258.7255,3031.4275,-1664.8896,610.5754,907.3327,460.8676,4593.26220703125
31,3624.4844,3602.6885,3375.873,4351.4067,-3315.4573,-471.0979,9513.3408203125
32,1164.5453,3748.0088,2400.4292,-682.61066,-1406.6981,-5175.0073,9627.3154296875
33,-5167.336,1303.2072,3259.657,-4932.1733,3094.822,2703.4744,13490.5146484375
34,5680.5796,2642.9749,8180.389,2339.1992,1715.1683,-477.6548,6999.6396484375
35,367.19373,1448.3036,6258.091,288.843,2733.4497,4171.3804,10216.1416015625
36,-1047.2001,1630.8367,-3160.343,-2166.8984,-2586.9075,-3420.922,9304.142578125
37,-795.5184,3098.391,1987.8661,544.3043,-585.0489,2039.7288,5144.7685546875
38,2396.1267,4203.321,-789.48987,1433.7561,582.71857,668.87805,5262.9814453125
39,2655.96,1301.337,3715.7842,-139.04788,2817.5764,497.02515,5386.01953125
40,1115.5862,5311.8623,691.998,-1003.28217,-178.43935,810.90906,4965.2412109375
41,2554.8916,3708.2114,1164.5659,1484.1003,-48.794247,70.679474,3390.63891601563
42,448.7461,-889.05554,-2271.7344,-171.43304,-525.68555,185.71547,2563.5791015625
43,-100.45812,75.502304,-1237.3636,-721.4645,-491.08954,-714.2504,2310.64208984375
44,-3444.2039,-2237.4653,-2446.1384,4272.425,4070.4465,2938.2756,11472.3486328125
45,10226.058,1957.3002,24681.541,-6910.4336,-11770.982,-581.95337,30932.32421875
46,-8884.638,-1407.7494,10233.475,3189.6135,-12208.664,-10530.953,32997.58203125
47,-2699.5854,1703.0275,-6416.584,-5304.369,-14734.132,9428.583,32433.794921875
48,-2294.4082,-20529.541,-1788.6528,-2150.1875,9822.209,9206.646,29993.044921875
49,8246.449,3378.477,-4409.019,132.22702,579.82336,1932.3783,11598.0537109375
50,14597.887,4823.6606,-5618.4404,7636.804,1895.8563,4652.2383,23607.447265625
51,-3238.1738,-3548.994,-26894.168,9997.731,-953.22076,4920.459,30456.07421875
52,12212.34,13849.071,43361.3,-8129.84,974.36786,5429.5703,34806.98046875
53,-5232.2744,-6734.2866,-34756.766,4860.963,-5436.9956,-4182.42,32274.6484375
54,8382.732,591.8793,15364.846,1143.8315,265.17694,-2762.1255,13815.49609375
55,-8857.058,14731.665,-21836.162,-5228.146,-929.8408,-3840.8425,34057.24609375
56,4119.998,580.3497,7272.056,-976.26166,339.70862,-1147.1843,6385.5556640625
57,-5766.023,9296.234,-3774.431,3524.9146,-3204.2317,1912.1575,16729.78125
58,807.03345,14196.414,33425.324,-455.61963,9673.483,3873.387,33657.84765625
59,-12840.288,-4075.5354,-15424.877,-396.61472,75.72978,-89.42474,10327.990234375
60,-4660.13,-4032.2896,15854.863,-1019.31213,20.038662,2464.0654,20729.49609375
61,3232.457,7979.9473,21852.4,-3115.525,1168.5669,-2449.4238,18222.462890625
62,-4142.379,73.38506,-13400.613,1653.1459,-2051.9304,-1446.5745,13024.0458984375
63,1856.5599,1474.5123,-930.2976,1555.9711,70.93261,-1057.942,4181.361328125
64,4796.6997,1470.9596,3083.7617,1301.9867,-1660.2361,521.6033,4740.125
65,-2524.7666,2417.8164,-6960.229,1508.3121,1484.1962,-164.89963,8918.5322265625
66,5670.9287,601.3015,2366.4087,625.13654,-362.74728,127.876724,4635.13623046875
67,5377.6123,235.94354,-3418.754,951.33,293.74313,-1198.7379,8116.013671875
68,3974.2375,577.10693,-4026.8513,1602.0342,1109.749,615.13153,7804.26220703125
69,1064.6482,3722.889,3702.883,-1551.5787,-1770.1276,1048.6012,5189.83642578125
70,3772.3613,-1093.8055,8662.392,2880.4214,-2311.1545,-1416.5884,10877.62109375
71,-1019.88934,-382.39264,8453.784,117.55243,2913.5234,-729.70905,10546.193359375
72,1248.46,2251.6755,4190.775,1239.3226,-2867.4075,908.2931,6201.669921875
73,-3108.5588,586.3357,-5797.058,3547.807,677.40015,-4358.7915,11267.146484375
74,-4806.898,2238.2136,21130.63,440.3426,-509.7798,648.61896,23286.8984375
75,680.8114,-6476.7935,12840.513,5950.524,-6780.1772,1039.8643,23097.76171875
76,5387.148,3556.6619,-17354.334,-2359.208,6667.4917,147.73218,25080.4140625
77,-13151.878,3820.1306,-860.7169,3423.4993,-5307.472,3389.1333,19612.330078125
78,-11863.637,-3227.4407,-3186.8894,3338.9497,15600.149,-6030.142,30782.517578125
79,11967.317,4403.839,7513.988,4316.3374,-679.48694,5996.463,14439.73046875
80,-1366.5682,22954.986,7420.1943,7923.2524,11671.355,-2679.712,32765.4609375
81,18604.686,10943.419,32092.867,-5769.74,-8276.424,-2354.6306,25806.25390625
82,5107.653,2699.9512,-12362.62,2761.3684,6645.7026,-13011.033,30531.568359375
83,505.76764,7020.583,-6759.322,-3007.5044,2733.5952,-6716.988,18095.90234375
84,4207.064,5007.2573,318.65833,-321.82938,-39.210815,735.5422,4561.78515625
85,1661.5212,3490.588,-2139.515,850.1441,-486.52765,-1039.8749,5555.90576171875
86,1780.2097,3863.0486,-375.18146,1387.5873,471.92758,1383.1238,5065.244140625
87,5828.3296,3492.6453,9706.618,510.96277,663.52563,458.8634,5682.4921875
88,244.27489,4824.9033,-2009.7089,1600.7612,546.7557,1869.5192,7446.92578125
89,5684.7646,5699.086,2607.9702,1324.0741,559.1145,-109.52429,3967.904296875
90,-40.33218,1592.965,-573.9594,-344.75732,189.8158,383.21286,2174.67431640625
91,3192.4443,-2426.763,-2116.58,-610.0527,-517.6078,-1047.3657,5927.89111328125
92,-5819.873,-1838.163,-20097.096,-457.1311,-2419.0173,-146.96799,17169.376953125
93,-1896.5239,-1319.8561,-2662.4094,1118.9663,-25.386435,754.31396,2612.6513671875
94,-1551.1445,823.27594,-4760.464,-106.41257,-256.9373,1137.7501,5260.5439453125
95,5047.514,6714.785,167.22055,900.55493,311.51556,-55.95418,6121.0576171875
96,1445.3822,5521.331,-120.679436,2052.4546,229.8547,1536.2401,6732.41455078125
97,3019.2668,3263.0774,2576.152,115.99892,-588.7947,-534.15076,1516.63647460938
98,10559.74,494.9665,13101.564,-50.268707,1501.1163,-128.1826,11838.93359375
99,3945.964,115.95998,-4784.087,244.42503,-1077.9044,-476.42645,7860.814453125
100,9920.263,39049.223,20828.352,565.16266,-2875.7217,2223.2222,26274.267578125
101,-6956.694,2370.4373,-25492.107,2632.4082,-661.6867,-1267.7755,25107.03515625
102,2050.4343,1556.7898,4759.8203,501.14752,2249.3867,-234.02052,5001.88916015625
103,6719.04,3155.4043,4216.3066,2644.4116,550.7858,-231.3157,5665.13037109375
104,509.26904,3484.2493,3696.0278,-999.48566,717.7034,760.6147,3975.32495117188
105,3364.4832,1801.7655,4173.8843,-1695.988,-2585.3398,-1398.3545,6237.7353515625
106,-71.61512,1034.8124,-7688.194,-762.5776,-595.6423,527.85895,8444.435546875
107,992.63947,2264.6345,4869.887,-1051.0916,2841.3677,-1739.6632,6952.19091796875
108,-2255.7373,857.25385,-1625.4119,2066.057,5.2365136,-880.54144,4822.62841796875
109,5477.6475,2110.4805,-606.3528,-881.432,1973.7136,819.33405,6625.58349609375
110,2658.7517,3756.793,1438.5936,-2045.9053,-436.46408,2767.5144,6335.64208984375
111,4109.1914,1144.3802,-1148.4651,1878.5068,35.36205,63.65237,5607.79541015625
112,953.4545,2329.9766,-2385.4802,-1315.4424,2010.1687,-895.2589,6112.068359375
113,-4154.571,-2658.3647,-8482.68,4166.338,2282.295,-1783.9526,10232.1103515625
114,-2816.4932,3192.5059,-4931.675,-1742.5465,-3047.9304,2396.617,10368.34375
115,8929.536,7669.499,32884.477,3266.6973,-7358.588,-2775.437,28691.123046875
116,-7151.169,19717.508,190.33447,8026.93,-836.6949,-4634.3496,28955.025390625
117,-1691.6348,3966.8374,1801.9717,-14862.283,2333.0913,1522.8778,26653.421875
118,-40.671352,557.279,9974.213,1287.1448,3132.7544,-3235.7224,12668.44140625
119,3339.8357,3197.232,-3381.024,-454.12073,1986.3112,102.84862,7531.173828125
120,-449.6841,-967.7366,-4174.551,2455.7227,-2044.379,614.60187,6631.49462890625
121,2589.7896,2348.6226,2010.7532,1713.367,1567.7897,607.85956,4188.44287109375
122,-762.4283,850.0054,-230.72374,1363.4193,501.39392,1294.8033,3658.65893554688
123,2176.559,2663.1973,3250.4084,-368.36716,1328.6675,-1554.9763,3718.1181640625
124,2287.9824,5331.9297,3667.9565,2936.7126,1118.2998,127.00527,6053.2958984375
125,-13281.881,-4573.938,-27557.541,5560.5713,5447.0806,-4047.9597,25196.51171875
126,-3664.8704,2923.4072,-13765.859,6254.017,-1063.588,707.64886,18281.62109375
127,2800.9866,5229.7407,7292.971,2042.4794,550.45337,1454.6578,5910.93017578125
128,2475.8398,2457.8816,-4787.594,-841.1931,508.35147,-1556.9791,7924.5185546875
129,-3855.1433,4429.014,-21047.842,-842.6585,697.22015,-12.501144,22588.3203125
130,2321.0095,2184.072,-303.4012,1163.0255,-162.30638,460.65195,3364.5830078125
131,-3107.6206,3482.8977,-10903.316,630.65015,-1048.8282,-41.744923,12652.4296875
132,708.93756,-1191.4032,-11183.593,861.0476,366.66138,-1718.0522,11572.6552734375
133,2239.904,6520.775,8434.205,1147.4332,980.68054,1890.1062,6908.7431640625
134,6087.8,3231.1987,4880.48,3806.6653,-1384.6355,-1851.2281,8103.93994140625
135,11432.323,13320.88,22456.137,-3581.7656,13966.704,-5062.0874,28369.69921875
136,-13395.507,-21801.605,-5239.1855,10839.39,-4881.465,5711.0244,26973.34765625
137,3911.8787,5386.324,2671.416,-2382.9656,656.52435,-927.23706,5142.92578125
138,7596.7695,10511.176,24672.094,-2086.2478,11146.797,-4528.591,26412.705078125
139,11572.687,11205.036,-7715.4385,3509.8298,1461.4899,5909.1294,22653.77734375
140,-1017.6344,7808.152,13544.871,-434.95517,4061.1384,-1936.552,14924.2177734375
141,-5810.1416,-75.88209,-1221.805,3583.1172,62.699303,4386.2954,11129.716796875
142,4974.8477,-5886.2573,-2546.29,1252.8772,-396.12445,599.4886,9954.9609375
143,1969.8873,-725.5984,-2818.702,353.59735,-3983.9448,2815.9265,9437.55859375
144,2163.2297,2795.0386,1287.8751,496.86813,678.2122,-670.8377,2277.96044921875
145,4243.618,2263.28,-350.78183,613.4836,-471.39044,-57.78569,4211.5927734375
146,1478.027,3198.236,-1541.4479,171.77663,-963.1769,-369.4609,4533.390625
147,2892.0461,4310.317,4222.2524,1172.8481,-122.52095,1657.4215,3782.49096679688
148,4556.5586,454.5796,4511.583,2113.4514,205.5736,2056.8687,6546.96142578125
149,780.6078,1406.2809,7181.294,1584.9205,-2273.9065,577.9789,7836.169921875
150,3271.895,3038.9653,-1321.2338,1912.6936,2420.9905,-838.32605,7123.7880859375
151,4775.215,4783.6963,26392.732,4681.7065,10634.741,1287.8953,29616.85546875
152,11161.168,9817.394,32128.734,1556.6571,-3007.8203,-1175.1102,22542.701171875
153,297.93732,3634.268,-2954.8064,-277.08337,817.3556,134.84557,5903.62255859375
154,-5201.4946,5236.5654,-9331.501,3805.0999,-2666.6611,2300.6465,15804.044921875
155,3259.4297,8778.411,-12087.824,-302.14868,2602.2815,-3097.96,20002.001953125
156,4972.188,9353.399,20025.785,1950.712,-1346.1248,1605.9116,14298.3095703125
157,-1435.6349,-470.46057,-7136.2046,-186.39828,1154.1884,487.69504,6613.94921875
158,3898.9116,6430.8945,1365.7264,-188.73878,3063.0251,1334.6941,7269.07177734375
159,5295.4927,5089.745,1801.6282,1229.7394,-2263.7817,13.520621,5607.31787109375
160,810.9749,2727.1995,-1776.5205,629.9443,-2887.1714,324.81607,6468.35009765625
161,139.74791,6498.8066,9226.422,805.8486,1937.843,2797.3223,10095.123046875
162,-1949.3934,-648.7983,-8799.8955,-2640.7944,58.40529,-2159.1196,9614.970703125
163,2115.707,1174.0594,-4202.4214,1.64131,-124.53029,134.56691,5912.43212890625
164,1800.3579,3889.0615,5137.843,869.3519,-2309.6829,244.5652,5194.33642578125
165,4389.941,752.26196,4039.9822,1697.6521,-133.70033,59.521545,4559.87548828125
166,6914.899,2965.486,4694.3677,67.1639,64.97172,-1372.6489,4175.8251953125
167,9344.648,4146.036,21301.498,306.03116,-497.59424,-313.13644,15279.685546875
168,2106.8816,1225.234,-506.1935,7.2920427,-31.838636,-1551.5009,3539.25390625
169,1766.8259,3202.085,1589.8522,404.2977,52.8911,333.19254,1782.44372558594
170,4046.6873,1224.7496,1771.4777,-1603.853,-1576.353,759.07983,4860.01220703125
171,-11391.669,-9943.308,-43988.598,4.3772254,-9582.233,-3018.2524,37611.921875
172,6213.3076,-10341.022,-2349.648,-14194.951,-6673.4863,3318.004,31252.8359375
173,-13658.882,-14600.403,-49397.58,-109.80845,6474.961,-4801.827,37940.4296875
174,-8516.308,2969.406,-21140.117,-764.0732,3522.811,-1431.7262,21940.9921875
175,884.6971,3119.9575,-3555.7095,-1217.678,1365.5712,-2136.7397,7640.58935546875
176,3888.093,3203.1838,4985.399,-2055.2285,-1876.7926,1670.2583,5833.7783203125
177,13586.378,13115.502,43886.63,-1720.8269,9.814227,9353.487,34697.86328125
178,6460.167,-2735.9294,-779.5414,9237.015,-11025.8955,-123.829185,26289.330078125
179,1661.0132,3338.2896,-3676.816,2362.904,-2221.1135,-1090.195,8681.8349609375
180,1281.1088,2970.9548,-2654.5417,3371.456,879.2745,1283.7737,8146.12255859375
181,-1476.8274,3971.0747,-1278.6127,414.24832,-679.9861,-1407.6156,6040.29541015625
182,2621.4653,-461.8006,-2984.54,289.82123,-531.9536,-890.0725,5208.32177734375
183,-12411.014,18787.549,4888.961,-370.42078,-8188.3867,-19.82976,30569.05078125
184,15294.65,1637.2749,-12607.635,1152.3444,-8841.396,-153.49966,28680.21484375
185,9456.754,3160.7083,9540.68,1277.0458,-429.22937,101.936455,6756.630859375
186,-1710.1038,-348.00052,-6882.144,-101.5999,-3.1587489,252.71155,5989.3876953125
187,4430.463,3986.702,3118.091,2244.783,-916.2401,430.57184,4419.12646484375
188,145.45251,3940.4377,-2868.6472,1756.7821,1747.9788,3058.3574,9022.802734375
189,1340.5925,4734.519,-2689.3267,-126.958336,-1595.6791,233.8154,7020.482421875
190,-225.5511,1725.6617,5053.442,-6787.683,-887.0154,-1427.5736,12964.056640625
191,1878.8054,2345.5103,-1710.4744,-3599.9868,-616.5505,278.5384,7418.13623046875
192,1462.6644,881.8219,-1386.4371,2261.5854,1486.4242,773.62585,5528.83740234375
193,1237.3922,1128.894,-3086.4612,997.91754,-259.36975,136.86926,4635.0712890625
194,-4550.1885,-1876.9341,-14163.057,3405.5674,5455.209,1142.5566,15913.4873046875
195,5875.448,1206.708,-7237.019,1529.755,767.60803,769.998,11961.6904296875
196,-490.00723,-10028.604,-6856.2817,-5685.815,1467.0458,698.0659,13254.9228515625
197,2733.7444,-2354.2864,-3646.8716,1618.6221,373.81607,-214.54057,6523.240234375
198,-3681.087,-8616.82,-23378.426,3688.983,-2519.3152,-2052.0986,19688.21484375
199,5943.538,-4753.717,523.70374,227.50395,3264.6807,-245.0588,10869.1474609375
200,1476.0695,-2085.0066,-2566.074,2309.56,729.59436,422.23895,5723.61669921875
201,3685.7637,473.3523,3190.5718,-4891.421,-2273.8552,875.6889,9927.9296875
202,2175.0525,320.40463,-6651.944,188.30438,783.53253,-1326.0447,8497.525390625
203,3999.2808,-601.3541,2349.441,374.20862,329.20615,320.89105,4165.5302734375
204,6573.323,-1567.9553,2972.7197,-1118.0842,-1246.992,1450.6064,8041.10205078125
205,-1560.4822,-2587.785,-842.37286,-259.3665,-134.70439,-2262.9436,4234.11572265625
206,-1991.4066,-2969.564,-3733.1208,1770.1328,660.8066,592.18536,3748.17919921875
207,2336.6086,-1390.6766,-3311.734,1542.0663,-1081.5546,1467.7399,6469.1123046875
208,1916.9327,-2483.571,2594.5667,2923.734,724.4231,410.00577,7108.36767578125
209,3491.0276,66.10094,-2076.4287,1000.86786,-302.95966,-1166.816,5569.87451171875
210,1220.825,-364.46567,-3706.5466,34.752445,-1178.6565,-130.02734,4816.9345703125
211,2857.7827,-908.83936,-2174.2502,-1360.1636,210.29713,-800.2665,5306.5166015625
212,1742.5544,-313.17786,-1900.3206,-944.303,330.37512,756.83484,3837.80688476563
213,2590.8315,-2092.9043,304.94208,-1467.6927,-1212.0007,-1285.9677,5682.1220703125
214,133.04611,-207.51524,2412.1062,-2439.7131,283.43066,1470.0507,5537.779296875
215,2832.944,-1198.9843,-363.46878,-1922.5525,581.81165,-1248.064,5510.255859375
216,3449.66,-4298.816,-2251.8782,-3838.7937,918.6228,-927.22705,9883.7265625
217,1051.5922,-2587.6213,-5502.2793,-3603.513,1437.6852,-1385.1572,9124.630859375
218,-9667.582,-10570.905,-302.16437,10680.763,3543.9695,-7431.4614,25349.203125
219,2382.922,4701.3384,3839.0356,-7514.406,-1429.3907,6331.925,17318.41796875
220,-1272.2775,737.6419,-286.45456,-3321.1077,1.4348769,-384.9764,6046.8251953125
221,6009.542,247.49211,5011.618,-288.6636,-1647.8425,485.1016,6127.73095703125
222,-1758.7917,983.0071,-166.44794,-836.7784,-525.0652,235.03891,2963.197265625
223,-1225.3276,3250.6782,-1323.4833,595.10535,-852.7316,458.94122,4935.5234375
224,389.76376,2007.7156,831.1867,367.57602,-73.662415,-347.9573,1698.01623535156
225,1690.2876,837.99146,-2084.8838,-56.3092,83.276794,1421.1068,4224.89208984375
226,-2683.089,1652.566,-12284.499,-705.5056,153.0533,-551.04834,12453.4267578125
227,-242.10739,3357.7603,-2457.9001,-24.641487,247.35936,386.31955,5145.7216796875
228,2044.9648,2458.4988,7132.4746,-162.63226,2.2178276,-215.32684,4916.13330078125
229,2308.7256,1568.757,1130.2498,702.37256,-158.2115,-295.95224,1697.69287109375
230,977.6753,4965.8696,-4168.9214,1266.4269,-786.9186,165.08394,8346.841796875
231,-3825.942,1209.5599,-5580.4946,-2501.9143,-1570.7758,1173.552,8220.8388671875
232,3014.043,3609.3704,12488.993,1282.2515,449.08075,1766.3911,9969.26953125
233,2473.986,411.9423,1855.0802,972.662,379.20697,-671.6722,2825.22485351563
234,11247.396,-894.10834,18121.193,3568.9048,2163.6028,-323.04398,18184.919921875
235,3707.0403,-177.5716,7660.3374,-343.64566,-166.95824,582.8211,6894.39892578125
236,2901.2224,2689.0537,1546.6167,-91.84964,596.2982,798.978,2144.6884765625
237,4595.6396,1136.5717,2914.7793,-688.59143,2287.1855,-98.398094,5110.91015625
238,2662.086,4235.728,-330.03152,1269.467,-507.78482,1029.5852,4992.58984375
239,4770.7656,1104.775,-1715.0985,1186.217,227.99725,837.5941,6181.48681640625
240,6408.5186,2858.9312,622.542,427.91754,346.4506,609.0677,5249.91259765625
241,1037.4093,-302.99524,-2484.8176,1853.3881,-589.62463,673.0764,4710.49560546875
242,3885.3936,2673.4338,2887.6125,1449.0042,23.77947,241.5676,2780.42138671875
243,2605.519,93.82481,-1149.9802,-565.4651,803.3062,106.599655,3729.47216796875
244,8045.619,-56.97175,-4137.0366,2490.8472,-29.169012,-670.4679,11632.802734375
245,8102.869,3470.6995,7588.9775,1347.9619,-806.32294,-495.66144,5242.05712890625
246,-5736.613,-6906.702,-2677.989,313.24008,2116.5627,-316.5755,5323.31494140625
247,11444.733,-8030.149,-4007.3743,-1757.3385,-1469.7906,-2355.5212,18694.96484375
248,1118.2778,317.9837,4201.383,1388.8785,532.9164,-1077.7433,4768.32666015625
249,9796.185,-473.14886,12359.055,1386.4644,-1722.6293,3317.2756,13639.2314453125
250,6287.8057,908.65094,3821.9546,-1116.2246,939.9366,844.3963,5502.623046875
251,371.8817,-3312.6526,-5557.6953,1696.0647,582.8255,889.1282,6237.67236328125
252,-6362.371,-8235.141,606.24384,817.36664,2161.2175,370.42957,9030.3916015625
253,1061.0946,-10160.262,-2214.9517,-808.6545,-2042.3219,-4644.3022,13381.826171875
254,-8851.937,-12169.132,-15482.91,913.59357,-1642.8691,894.2409,6780.662109375
255,-3467.4385,-19919.26,-3592.4065,5729.2495,3243.219,1794.9474,20206.828125
256,4458.806,-7780.2666,-33348.133,4255.6265,7396.742,-1869.6477,36679.5703125
257,3940.5173,-5036.2075,-13995.357,2771.7449,-1909.0631,2074.657,16975.443359375
258,16528.568,-16574.736,3620.382,-6773.627,1517.2953,7948.997,34194.42578125
259,13621.674,-96.825195,36586.227,1554.1295,-10845.901,-313.74698,37296.76953125
260,2614.5984,-20335.838,-13901.402,-3628.576,7118.2915,586.9017,24758.728515625
261,22736.236,6035.044,-14895.802,-1785.1978,454.98956,-2277.2908,33050.5703125
262,-4077.852,536.6756,2514.1177,-1510.635,2452.8713,-3394.8774,9685.064453125
263,1046.6149,11600.969,3137.447,-663.70074,-2658.8843,-3849.7139,12676.3544921875
264,-4570.09,-12732.315,-9258.94,2449.0854,116.45523,-6522.728,14000.302734375
265,-867.2895,22713.484,19847.275,7616.13,-2858.3008,4936.6016,27718.525390625
266,-18010.822,-20759.678,-49964.375,-3746.273,2561.706,-421.96243,31671.357421875
267,20385.215,-1464.7557,17210.906,-9211.911,-6904.2437,1545.1908,28685.978515625
268,-24171.812,12842.312,-15914.751,5543.5728,-168.40245,-182.10875,34999.640625
269,-3490.7307,8169.3193,21242.111,5549.935,332.61267,-5006.2227,25044.123046875
270,-7208.3003,434.62204,1904.5654,-762.8648,6559.618,-1119.1605,14366.58984375
271,-1441.514,4238.3247,-4925.673,3825.3408,-2544.8853,-2652.2654,12191.0595703125
272,978.61115,5051.035,-2765.7573,2774.3848,-3030.3906,-4031.798,12052.435546875
273,-4509.273,1571.9211,-189.10263,-3646.7214,2851.2659,-151.15286,9681.2412109375
274,242.21855,7691.243,10941.644,-2102.2434,416.61627,-9061.783,18718.763671875
275,-5510.213,2719.0852,-9077.319,2328.2673,-726.20435,683.2636,11359.8203125
276,206.42908,4689.2305,11467.1,3888.3284,834.017,-3910.4983,13774.57421875
277,-2204.6318,-2077.146,2527.6409,940.60095,1256.9984,2769.9407,7226.298828125
278,-11102.32,-3212.673,-705.46014,-3819.3176,-2935.8938,-3724.9238,14126.5302734375
279,4493.953,2960.9453,5858.8926,1463.6075,2753.206,633.64984,6056.1572265625
280,-5663.7915,2890.3318,6771.5166,288.5364,784.4368,-1385.1152,11370.49609375
281,-3385.1357,-929.6337,-5606.929,2967.862,1730.18,123.484634,7202.24951171875
282,3249.5798,-8409.985,-14851.611,-653.72845,-855.4996,-1165.7351,16127.650390625
283,832.32306,-1238.1768,3871.0256,-550.7618,827.5993,124.99794,4777.443359375
284,3486.4126,5388.498,8942.317,204.78493,4580.546,-3599.046,11177.505859375
285,-6074.14,-680.7291,-9992.732,-1008.6206,-2161.7952,-1250.0853,9345.533203125
286,2695.821,1021.9067,3340.1472,760.0298,99.28062,-901.5896,2914.92529296875
287,3436.8972,2210.9556,-3234.6482,-523.2483,292.34964,-170.55199,6244.8828125
288,19.382223,5402.963,14929.372,7860.071,272.8405,-1082.3702,18976.34375
289,1289.3397,2929.4507,-738.88904,1024.446,353.41376,83.86015,3697.900390625
290,2583.1519,197.49289,2420.072,69.81103,-125.61913,470.89005,2460.91137695313
291,4142.191,3879.6382,10233.672,828.1148,-200.61427,589.0112,6480.22119140625
292,-9742.902,-7149.632,-21199.64,-2157.359,2930.306,1078.1217,14522.4658203125
293,3175.408,-2068.6091,-369.8681,-415.60773,-1362.9286,-236.47319,5266.486328125
294,5462.902,-3639.0083,3299.0837,3100.2612,-1133.2401,-2874.247,11193.90234375
295,1506.163,-1890.627,-2220.2515,-292.22424,-194.3036,-1575.6387,4536.94384765625
296,-4926.787,-7857.004,-6593.436,-478.03345,-2054.6292,-703.2742,4616.71728515625
297,2596.5771,-4098.1006,5134.183,-776.90314,881.67523,-445.2047,8543.068359375
298,27.18255,-40.833042,1433.7333,-455.25095,210.69801,914.4906,2311.38452148438
299,-4659.2407,-2480.1094,-6533.376,1513.4402,-820.17505,254.1822,4629.0791015625
300,827.5478,-1896.5809,-27.578825,1194.0637,409.599,1009.03986,3695.64721679688
301,4598.386,5081.438,8974.056,-1873.3116,3196.2952,-1355.8954,7997.3935546875
302,740.4155,2387.123,19.234207,-3637.8298,121.83689,1906.0648,7420.54736328125
303,3186.2183,5546.2397,889.3033,-753.77155,-2255.5508,1238.4684,6150.99560546875
304,2666.5186,6312.8784,-1897.5723,-3083.625,17.925627,597.36304,8964.7587890625
305,1417.836,1868.5388,-256.65048,-1021.4715,698.67645,280.47705,2931.27856445313
306,2118.75,4822.4946,2826.0862,131.40462,648.686,-873.48413,3082.40307617188
307,2624.3152,3305.7188,1456.6831,436.14255,-39.79275,276.72653,1851.60693359375
308,-1652.2207,-1149.3969,-435.68378,813.5981,-4763.615,10361.134,19830.337890625
309,4329.4116,3932.7554,5128.7314,2060.478,-485.6419,5548.7993,10340.4580078125
310,2072.6118,-1359.6663,18184.615,228.43614,3506.1418,1615.5409,19275.466796875
311,-14527.153,4540.566,-6357.0757,-1125.1259,-1525.7415,1705.2146,17147.828125
312,2011.8308,1213.886,891.7793,963.2685,-280.07083,245.7975,2048.83349609375
313,-7517.3174,-10775.68,8823.068,-5329.134,598.66785,-12042.075,29192.0703125
314,10322.808,-61.322273,15774.717,1912.7354,-962.2034,268.09512,14426.9052734375
315,-12478.3955,-3525.5771,-27985.184,5452.8774,-11381.797,5358.7354,31991.0703125
316,-12156.663,-2188.3318,-14531.89,-784.871,8163.3247,4722.336,19933.775390625
317,6965.6123,12769.435,7120.111,5565.1675,-871.6386,-421.164,11337.380859375
318,-6821.3315,-22647.154,-3161.751,3790.7886,4171.6147,5948.147,22874.083984375
319,-3609.7925,-2970.1777,-35.676445,-11600.956,-1624.0667,8689.669,25477.19921875
320,-2186.0164,3670.932,319.0399,3593.8604,-175.10716,797.4736,8164.22314453125
321,594.65094,3882.6626,6268.056,1579.8757,-438.3678,146.39413,5698.52099609375
322,1891.2103,-4292.2393,-1129.5237,-25.140156,567.92694,-468.00916,5505.26513671875
323,6567.9097,-2568.3486,27734.432,2174.0364,-4935.212,-1098.2506,28561.203125
324,-3368.6145,-2917.9546,2337.0432,2359.403,-1796.6246,445.83105,7560.85546875
325,-4023.704,-4006.6184,-3718.5398,-843.666,824.37213,-980.898,2673.71850585938
326,-2390.9456,-5695.2812,3590.6924,333.80457,-2876.476,5001.457,12909.8525390625
327,8070.8594,-7109.267,5009.1987,-566.91974,1436.892,1984.3427,14570.677734375
328,4121.4023,-10237.402,2588.5059,2073.3965,-7300.8413,-50.993225,18955.8984375
329,-183.13095,2041.8103,-4305.928,-1235.1736,884.7822,141.43262,6173.02978515625
330,72.58447,2157.3318,-761.44763,-155.73657,103.17357,-25.825024,2624.35205078125
331,2253.8943,154.57881,486.6957,591.0454,263.39566,-4.5500293,2253.08837890625
332,2181.0564,-342.74072,2399.6338,-21.07527,922.8838,2370.709,5136.7529296875
333,3379.9565,-1052.784,3902.7656,237.24202,-286.9121,-920.53107,5019.75439453125
334,3725.249,-1518.9287,-7417.7905,-1125.4684,391.3109,-1270.1743,10115.9326171875
335,-4665.5713,-5362.121,-8253.429,5464.516,723.70245,-1155.4198,10296.4951171875
336,5520.7725,-867.31366,-5326.476,3157.4092,-1255.9739,-89.08247,11128.396484375
337,3765.1755,-13969.215,-35788.844,9124.199,608.42676,5584.3647,39012.58203125
338,-6008.41,-4579.4077,14539.767,-5293.025,-11784.09,9583.85,34221.328125
339,4359.133,7977.8423,18821.334,-6077.5024,-6768.8535,-7062.6387,23828.9453125
340,-13881.797,-6379.9746,-5429.131,4841.505,-8270.743,-2768.2698,19048.373046875
341,776.10565,8468.825,11041.8545,854.96545,1592.5771,287.42044,9779.6552734375
342,-3753.324,846.4176,1026.2448,797.9883,-492.19827,378.4631,5008.38818359375
343,2674.084,-966.85913,-6657.6147,2376.6362,883.4598,-1019.8575,9421.6728515625
344,-4935.359,-3230.9136,-18239.973,-1852.1892,1200.3137,-1431.9618,14945.2490234375
345,2541.0771,785.3915,440.04205,2638.8357,286.80457,-1521.8901,5647.4423828125
346,2420.0088,1888.5802,-3052.5154,697.9976,163.58467,-765.4099,5533.7255859375
347,910.91943,2104.7686,2750.7485,-293.0951,-125.73457,-452.9292,1879.9853515625
348,2366.1545,-1550.4612,1117.2363,-3439.1433,-640.0255,179.97458,6986.9404296875
349,4666.9683,2227.734,1537.8197,-1261.737,-183.41954,610.2385,3755.36303710938
350,-6860.3057,6406.7974,-10711.823,-1479.865,-2518.7773,-574.6232,16387.25
351,1228.9475,873.9502,-4671.151,-535.57324,-1625.3444,-1097.253,6726.09130859375
352,4733.912,3635.2815,4609.959,384.27292,-333.6574,1134.7882,2392.98706054688
353,-4144.942,5113.0234,-214.89047,4336.689,-2529.438,-2223.3848,12458.5732421875
354,1050.7474,1843.9847,1819.4188,-2893.9392,-57.77897,-498.51932,5146.8994140625
355,-2987.7583,1453.5222,-3272.907,1682.3661,-969.22046,236.07927,5705.185546875
356,2705.4338,735.2777,1405.5828,1088.8943,181.75163,43.325455,2583.02587890625
357,1640.71,-174.34702,-1435.3342,1387.3467,-7.805923,-543.18134,3719.24658203125
358,5232.0483,206.92513,-2772.9907,-2.9608996,-738.8605,-190.42973,7131.1123046875
359,-4509.0273,526.72925,1991.8273,-199.71384,3373.0837,673.51373,8396.2392578125
360,1617.6444,162.63477,-41.21291,758.1679,341.711,-31.104618,2129.05249023438
361,2298.9075,1479.2599,-188.78676,830.5168,289.4194,-157.34004,2686.30688476563
362,64.096214,-812.069,666.3216,-366.2652,-1463.0552,1128.7645,3507.75708007813
363,492.19052,-801.09235,-306.2092,-276.04678,-122.31094,-20.045612,1245.85595703125
364,-3569.3274,3367.494,3089.8528,-1930.6631,-2527.4568,-643.6803,8823.8369140625
365,-1184.7716,2229.9114,-794.89325,-469.47476,41.737206,-184.93921,3354.0732421875
366,-305.3298,-121.94366,-211.94044,360.30258,27.786404,89.655556,664.161254882813
367,378.6863,-1003.1169,-550.618,-661.83746,-267.67056,214.52542,1776.50305175781
368,319.70203,-1571.781,-431.74615,516.9058,-70.54642,-117.03092,1891.72546386719
369,873.9795,-1632.3413,-633.0032,336.19836,-69.73708,-81.50377,2269.19921875
370,1381.9537,-2426.802,-161.37018,-41.266426,-57.33543,25.078691,3320.72021484375
371,1131.2537,-1327.9005,-423.18732,464.30573,482.02713,146.89194,2459.60107421875
372,-503.63675,-922.1152,147.2009,312.8308,129.03427,172.58734,1141.91650390625
373,-1628.1649,997.50696,103.738594,68.96202,-10.580468,-52.30768,2317.11962890625
374,303.42386,-1132.2227,-159.636,1435.205,11.479336,-16.16533,2791.29614257813
375,-185.1722,-1569.0105,28.03662,-355.5915,127.384636,35.84062,1639.32397460938
376,959.95557,1391.3817,-2453.0571,-2156.535,1976.7468,98.020485,6245.84521484375
377,-85.15581,633.50323,-573.63806,834.34454,367.62473,106.93552,1906.37866210938
378,-1634.1512,-836.8999,-640.3702,-66.18094,-133.19125,-107.94739,965.523010253906
379,2615.8562,1369.4973,588.7152,-21.900728,65.16683,13.839793,1775.0830078125
380,-5011.423,-5006.1772,567.82874,-796.3171,1033.7639,-558.5315,6094.509765625
381,134.3868,-957.45044,1182.4182,1018.35425,610.5262,-562.4937,2934.84545898438
382,2544.1753,-886.5562,271.0702,-190.43013,635.4632,-95.77184,3238.24951171875
383,3031.1167,-131.32352,-793.8922,465.0085,-450.2248,107.196976,3718.41870117188
384,1547.4285,-837.83716,-736.8184,541.07074,78.37457,39.349827,2521.9208984375
385,575.9128,438.08023,-40.10173,314.53415,-59.30594,-104.09055,808.341674804688
386,-214.64566,-1491.9253,-369.77286,1004.19464,37.935104,160.08266,2136.30151367188
387,-127.81383,-10.986309,-1022.2576,1300.1277,2.3339906,54.62892,2449.11010742188
388,-424.12845,1792.4556,616.46027,-471.665,-80.71169,176.2683,2114.16064453125
389,-1248.7745,1534.9696,-396.6529,-759.45245,112.037476,282.7639,2847.99609375
390,-573.6192,-1122.1572,-24.142511,-1634.25,-135.1796,-355.64288,3057.90991210938
391,825.4249,-1178.6222,-189.47453,-1371.7448,-32.18516,693.8717,3178.81298828125
392,-1463.32,-102.58893,-162.87071,-1503.1742,53.92569,-77.51335,2928.9150390625
393,1809.3289,-1724.6267,1224.2079,464.78317,-290.34955,3.5514238,3415.3232421875
394,888.1526,-2479.216,-415.5219,-695.1481,-130.28845,-74.1501,3188.40063476563
395,-891.49786,-1603.8893,-123.00367,527.5128,-214.78163,-44.283695,1620.07397460938
396,290.11923,-2210.2502,567.06885,923.86066,-36.25861,-96.28734,3100.53857421875
397,-807.8616,1502.075,-147.7884,46.56267,-135.67615,174.86148,2097.67358398438
398,-779.5595,-717.64124,892.49365,378.19498,9.740943,122.01973,1780.48034667969
399,-690.3565,-3.2412558,17.350243,1290.4153,74.13334,87.08283,2349.77709960938
400,2791.5474,114.48849,1444.2249,-208.64816,-92.551895,-158.03542,2367.75952148438
401,-1539.416,-2618.1658,-1254.8024,1013.17017,-1210.2506,271.98044,3040.939453125
402,1641.1718,-3321.5784,245.5065,-591.16486,-120.45702,787.45197,4754.22265625
403,1408.4918,-1176.5713,-1036.5789,414.96167,-474.07178,331.46585,2803.69067382813
404,-1335.9758,2508.7146,-253.15645,-1162.9136,914.84625,286.65256,4313.4072265625
405,-489.1722,1461.4749,-2425.018,325.66068,58.723995,37.478134,3414.87915039063
406,-194.70337,3022.7864,2668.3655,1472.6884,-295.17908,-89.61548,4016.14599609375
407,2771.2097,-236.77205,3046.2297,-523.52765,181.44171,95.190056,3301.36889648438
408,959.28296,-358.66864,4.290424,-432.1011,53.851097,-177.7215,1433.1650390625
409,490.40088,-482.63007,-1454.4993,15.439844,45.29533,18.926905,1686.68981933594
410,601.38275,-843.60205,-535.30927,-1925.3074,81.45844,149.79076,3597.94262695313
411,-1268.5435,-1826.1554,-1279.0164,84.8951,-48.988182,204.03978,677.435424804688
412,725.2756,300.0183,1004.47186,-1331.8821,69.92366,-1372.3041,3370.99072265625
413,1018.3647,-60.551205,-277.204,510.7864,53.903526,146.6464,1516.80212402344
414,22.735989,-4797.821,845.977,-2921.337,1254.3541,97.74264,7631.216796875
415,742.9263,-1199.8154,-534.82684,-1189.7933,-57.148632,182.1641,2698.28247070313
416,-1709.6731,-3896.0657,65.828285,-4314.535,-316.306,-1128.0122,8472.1708984375
417,-1658.2628,-1948.2046,-1770.5094,905.93256,56.317745,-93.080414,1600.55261230469
418,1277.5863,-274.2655,100.78754,1458.1306,341.4127,-42.32992,2949.640625
419,-5898.4785,-5616.5737,-1976.806,1010.5129,-151.68155,401.65106,4239.08544921875
420,-868.6639,-1342.8699,-596.8145,-254.92905,-240.37224,8.412015,892.301086425781
421,313.80157,767.2847,794.42523,665.93506,-52.625813,-172.93501,1283.40478515625
422,1731.1996,641.17615,1987.261,-141.02814,-1126.9342,-113.06033,2332.54956054688
423,-7741.469,-4345.02,2331.499,-1725.5287,-637.2168,418.5352,9458.552734375
424,36.125404,371.6613,-837.3948,-756.36566,3.929403,-47.78144,1700.55334472656
425,-669.0359,1499.2216,3639.3477,751.31604,-15.347807,-46.381794,3952.52001953125
426,-895.6305,811.54535,-168.84036,-491.79004,-626.56775,-59.196346,2028.73400878906
427,-261.59677,414.5696,-446.90332,228.73227,24.0624,-202.23743,947.749877929688
428,-1746.0303,592.40753,-53.01147,704.6836,-408.9528,-27.33622,2523.74536132813
429,1115.0437,-721.5762,-130.93996,-749.8291,-5.489748,17.944056,2079.67236328125
430,567.5882,69.94143,-114.30044,1385.2391,-251.72708,-33.795128,2514.65185546875
431,-129.36014,973.72406,22.339619,-252.29752,230.49556,-157.46889,1223.60363769531
432,-445.42358,-867.2309,212.02615,231.94699,23.247545,-43.097664,1027.65295410156
433,760.10425,125.215454,-719.9053,-341.42932,-635.762,130.56537,1807.57141113281
434,58.360317,-1198.3903,-497.42856,941.2724,213.61772,100.63776,2003.77099609375
435,961.2832,600.45734,-1124.5316,42.958115,173.52563,-16.306335,1955.72766113281
436,1054.3647,-787.3475,-587.55457,-822.7531,148.76733,-349.39758,2351.01245117188
437,-306.65582,-498.9669,-181.60028,-786.24866,60.905148,68.514565,1398.72937011719
438,10.89246,-414.51068,1507.7777,-871.78754,190.90831,27.469664,2334.53540039063
439,-2843.7588,-5027.771,-363.06702,-1501.6683,397.88153,-432.00357,4913.3935546875
440,-180.44652,-408.23,2370.3557,-70.10285,-60.90568,42.163204,2677.81884765625
441,-1703.2549,1304.9827,363.48264,402.9322,61.02492,-61.50285,2759.21069335938
442,1875.327,-348.66272,1268.7283,574.47076,63.73576,-85.201614,2233.615234375
443,355.72247,-1241.3982,66.5627,-1280.1832,-93.89286,607.8616,2867.77368164063
444,-302.00452,-998.8925,-14.492725,-633.9139,55.740417,219.1145,1458.62072753906
445,-1696.3512,-2092.967,564.2648,-1873.0155,70.14233,26.920992,4087.27026367188
446,5417.746,-768.7711,483.53418,-2234.6,230.53099,18.369373,6872.744140625
447,-4972.9434,-3364.0388,-57.753166,-295.53772,10.112807,211.84853,4385.95166015625
448,189.14262,50.851166,1739.5914,987.16266,13.0426445,-81.10562,2362.44482421875
449,-141.06374,-66.5885,-2483.3782,639.2995,-14.27249,41.673668,2626.47290039063
450,271.52914,-964.98456,-143.85518,985.9518,-93.39051,-140.32312,2046.80773925781
451,163.67838,398.88763,-1241.6069,52.96594,865.2772,-51.53787,2150.1591796875
452,-1.2269973,1005.0918,632.7415,-856.0382,-123.20731,-216.0466,1777.80541992188
453,1766.9521,-228.94173,895.5082,412.8718,18.574524,3.9002478,1875.14465332031
454,-1165.8204,-894.20325,-1141.2432,132.01509,68.071014,35.067963,370.915832519531
455,808.9883,-479.19272,47.245483,-538.96484,578.99176,-120.64166,1783.03295898438
456,1460.9957,-62.286114,56.42461,-529.2059,203.33858,151.44601,1785.12573242188
457,-957.4919,1152.1868,-765.2449,-432.36096,-0.4336391,26.282919,2155.22729492188
458,1070.3104,-895.0712,355.69653,-2207.98,187.36739,-406.75934,4265.6904296875
459,1600.0033,-413.3064,-698.12317,8.368613,-266.3931,-66.183784,2221.3076171875
460,-267.96304,1065.9895,56.99769,-817.526,7.552042,203.59453,1892.3837890625
461,-646.93835,-511.2821,-57.98825,-892.41614,-19.814507,-300.61215,1716.64514160156
462,-896.0788,-2651.4937,-3096.891,77.919365,248.51791,365.15277,2159.9130859375
463,-600.7746,-2331.459,-2842.0352,391.78348,124.26025,-92.93706,2161.55493164063
464,-334.75598,-2.3763921,353.7502,-1692.8997,-91.32218,105.43806,3001.96118164063
465,-1084.4978,230.66017,82.55695,680.58905,-181.27948,38.359295,1746.25354003906
466,-846.6965,-212.7512,485.12463,779.3921,-795.9765,77.6012,2252.21899414063
467,-476.85535,-116.55421,394.7768,147.8069,123.2629,27.368484,829.986999511719
468,-516.34845,-282.03397,-340.406,1722.5991,-1273.797,376.64026,3773.58276367188
469,-574.09076,-468.73947,209.062,-410.8804,-138.21829,-98.795555,1065.35620117188
470,-748.92737,567.89374,108.85939,1701.729,338.332,29.84099,3220.8671875
471,-1993.3114,-1527.719,-83.87059,315.2693,-110.90527,-78.23685,1824.05224609375
472,390.67258,1458.7426,330.59235,993.4813,-220.01517,-75.69605,2081.34057617188
473,404.32675,4809.9556,60.917507,-718.44794,127.25639,-413.67,4811.5361328125
474,5722.257,-1234.5365,1619.0549,675.28876,236.74693,-456.54877,6232.94580078125
475,627.39185,-166.11739,599.1552,-227.96515,206.81136,-47.364006,948.153686523438
476,935.6698,3370.8638,2109.7385,1741.3402,1554.0287,-641.35046,4693.11474609375
477,972.99225,250.74785,-203.82182,-608.5268,-21.635834,265.73053,1542.96411132813
478,-40.304783,1774.2404,138.57974,-281.59872,-389.51788,-34.493576,1922.65844726563
479,3175.325,4225.538,504.14804,477.13223,47.674927,84.124405,3428.47705078125
480,2674.62,-1554.6705,-309.27545,-1555.1991,18.750252,-84.71752,4631.337890625
481,1982.0757,-2322.366,384.34637,-488.75876,8.718002,338.56293,3906.9658203125
482,-270.4307,195.20184,851.47095,344.24905,-43.325603,377.1194,1319.42932128906
483,-2227.1667,-2103.9846,-238.44426,648.6706,116.91186,-283.70163,2295.6484375
484,359.60556,13.470177,1270.7451,78.65817,-157.8703,111.860054,1181.62219238281
485,-3901.499,-3731.7314,-1031.2335,561.40497,38.44964,168.46999,2969.01928710938
486,1157.2596,-268.76935,244.95229,-991.5576,633.45404,-173.77682,2410.15209960938
487,-231.74155,-295.0461,-1668.1554,-386.28854,83.174545,253.70482,1624.15197753906
488,602.7736,-760.3978,-723.9599,-185.5686,-4.7583857,298.05167,1476.4052734375
489,-558.16113,-294.0372,-309.06317,-1300.4916,-180.8406,-117.53593,2297.6962890625
490,-3901.1558,-3827.5134,-319.11835,-1253.186,-225.16277,211.59349,4191.71337890625
491,-5654.967,-2375.663,-1254.9048,-296.06503,-302.79816,78.99446,4030.13452148438
492,641.28265,394.50516,-422.59738,966.17163,-19.501566,171.81526,1954.57507324219
493,247.4721,-2805.0273,-16.131119,701.4086,128.84135,233.27264,3204.927734375
494,672.31134,-58.364964,-651.64136,66.971725,5.3027368,-157.49075,1186.30004882813
495,679.486,-3072.9753,-523.1334,-538.5457,-183.3278,68.72375,3464.0390625
496,-569.6017,664.03455,-195.75058,-501.3606,26.40812,15.325942,1399.03930664063
497,-1189.4087,-1718.3346,4080.3345,756.9468,-301.5838,-43.877777,5730.16552734375
498,-772.03174,-901.04297,-1003.588,-944.9131,128.48978,-322.18073,1754.96472167969
499,-2369.8303,-1088.3782,-841.4125,436.1192,-351.93793,72.01872,1725.49328613281
500,769.2184,-998.9375,485.83047,507.70966,195.41295,-121.79733,1907.34887695313
501,2048.5972,1723.0334,-24.003105,370.22308,188.29398,-494.06165,2230.86303710938
502,233.33467,-939.1656,710.218,-1141.0688,128.69887,-670.90015,2732.66259765625
503,-343.85797,222.61554,756.4649,1475.1826,-132.69139,174.40121,2753.3359375
504,-1859.7057,-1408.5,1212.1035,1507.2416,63.12806,-44.252613,3884.16577148438
505,-3592.3455,3103.5745,-255.82092,680.61237,-254.56467,-72.170166,5935.1806640625
506,-1085.5043,173.70393,-2496.8623,1071.7048,-376.50916,177.96935,3052.97900390625
507,-3106.5051,1798.8112,529.61066,987.33887,599.78375,-70.68477,4844.16064453125
508,382.16974,869.87115,2128.2969,278.26447,-217.7688,-59.211517,1679.37634277344
509,294.59955,173.27147,866.8309,-1155.167,32.475372,-266.89844,2152.13793945313
510,-3374.1921,-1452.0077,49.21217,-2275.953,-157.35196,164.78282,4952.74658203125
511,-986.4322,1134.7284,-75.254715,504.69742,-209.17249,306.92285,2138.88647460938
512,-1121.6311,-1196.9174,-143.79778,324.14716,126.73611,-52.0616,1186.15966796875
513,99.376076,2304.4802,960.8207,-597.0924,-46.299686,-37.392666,2187.50537109375
514,-2411.2615,879.8877,560.9656,537.212,-142.5307,-149.82407,3298.15551757813
515,-1020.5345,2147.0422,-804.6606,-275.7801,-73.889366,152.00795,3116.12084960938
516,-784.6659,644.817,509.77765,1218.9946,158.70126,90.18401,2535.03881835938
517,-1756.233,3571.3591,-1007.7042,-261.68277,-204.03488,62.092354,5029.6689453125
518,869.6213,167.81995,-434.67102,725.21704,51.36102,-502.98196,1903.43237304688
519,-2757.6033,-3198.0654,-769.3407,514.7171,21.41174,-95.38221,2417.93701171875
520,1160.8258,-848.7622,91.82105,-323.61307,99.655235,-95.81123,1845.11926269531
521,905.6237,-101.729095,1920.8136,559.49384,34.217323,-206.61713,2034.38171386719
522,-563.07806,-668.2051,-772.7133,-601.54144,-262.399,-145.9341,1178.54418945313
523,185.80473,2807.2324,1084.6201,730.52185,-31.389387,-168.5052,2648.14965820313
524,697.89923,-784.8499,-242.63602,-1395.9935,520.46375,-327.41797,2944.3544921875
525,-1735.423,-1801.0293,-2170.1843,-1227.031,-118.55502,114.32244,2182.42724609375
526,-4949.5283,-2353.126,636.47485,-1046.811,-418.87732,112.85714,5224.29443359375
527,-4923.808,-3906.2637,-937.89166,256.61917,-116.00548,-39.962788,3620.74609375
528,-460.63095,468.56003,-702.66656,-88.612236,-31.290344,-73.17673,1090.61108398438
529,26.532452,2173.7014,94.34799,1395.1675,-21.607023,-206.76837,3230.8603515625
530,1353.6696,1206.2333,2475.9646,348.27658,51.460327,-250.81415,1416.79504394531
531,-371.09933,-1340.1755,-945.9609,2246.567,-67.95998,-71.88908,3985.35302734375
532,831.89453,60.411625,228.50511,811.5079,-122.40213,20.415634,1586.06188964844
533,-1591.3666,-1840.0852,-222.35767,119.55669,189.83537,-114.55529,1570.63903808594
534,-2049.72,-706.18774,-272.531,373.35986,-15.635102,-77.08666,1735.66186523438
535,372.68936,1131.3381,623.7026,-213.89351,164.19868,-324.92426,991.456970214844
536,1383.1614,433.0311,69.55272,-1007.5588,-235.29945,-87.19821,2148.17309570313
537,-3307.489,4495.843,289.7786,719.296,-20.471655,-149.59393,6883.47314453125
538,-2924.6958,2501.547,357.0271,2314.829,-254.66994,214.26598,6230.087890625
539,-453.4334,1718.3463,1409.3226,274.7572,-531.3452,153.34674,2298.91162109375
540,1252.671,742.77277,2330.314,1448.8962,-2.8923874,-41.524357,2876.43823242188
541,-486.82968,4576.6943,-189.6222,-1765.9192,-44.192482,345.80743,5826.037109375
542,-1448.0262,-598.5315,-1074.1652,2755.6226,-98.77072,43.487038,4833.1279296875
543,-2253.5073,-1283.7332,-739.306,2470.9878,-92.94677,31.39542,4484.53466796875
544,1884.6849,380.9413,2105.114,-772.3741,-330.229,-17.577251,2181.52880859375
545,6434.1616,-1371.8236,-1029.4137,1651.0123,457.47388,-86.92495,8197.9169921875
546,-3569.165,-1367.5787,-1075.2173,-1829.8756,24.127163,96.22753,3956.13134765625
547,4887.8477,-1605.7338,-1210.0482,97.81717,158.0283,50.71082,6313.880859375
548,2743.5593,-5940.4,43.222515,-2347.16,223.11185,-91.89535,8715.2451171875
549,3189.4087,-2079.9116,631.1114,-2088.0183,154.64235,-214.3425,5841.16162109375
550,-224.19478,-62.221134,73.28188,1255.4739,216.34445,39.865025,2222.69458007813
551,2115.769,934.82556,-273.44516,364.28293,-3.7961519,44.822174,2164.62963867188
552,3183.5376,739.20996,-93.30846,553.3915,-120.49528,166.4331,3122.20361328125
553,-2126.8337,-863.61115,-1088.1848,-341.93176,658.37616,129.59491,1750.42626953125
554,1399.4294,1979.2433,108.60152,-1058.108,-91.39534,-47.529766,2478.19995117188
555,-4198.637,-4697.894,-1915.5857,-353.30176,161.11395,143.54262,2667.50146484375
556,688.565,3703.8848,636.7174,-1187.0121,-193.96815,95.32683,3690.298828125
557,1431.9425,3393.136,1999.0061,-428.35223,129.16046,-31.171703,1912.88745117188
558,1446.5391,78.32056,295.55704,-1517.8984,-491.89655,360.61655,3106.45361328125
559,1993.3981,2080.3193,744.78925,666.6425,-57.493298,94.99871,1745.08959960938
560,3726.1055,1999.361,784.67554,-227.69862,71.55576,7.415202,2593.38061523438
561,-1074.5488,-5506.64,-90.09756,-598.15125,143.32042,-192.25949,5120.70556640625
562,404.44864,-2861.3423,759.8287,-201.18109,-109.94322,-205.19243,3498.0390625
563,1165.2723,-1808.3221,715.70764,-55.912548,-67.53125,-345.49475,2844.0654296875
564,1469.6362,-2247.4607,-390.05402,358.31442,162.68506,-70.76014,3292.7490234375
565,4195.4253,-70.381035,15.875725,2189.163,29.320518,-73.78446,5677.39404296875
566,-1881.6765,1742.5184,375.86282,1230.1365,-145.10408,-106.5472,3832.2890625
567,989.90027,-1007.717,328.6372,-514.8152,49.56131,-419.45587,2106.44165039063
568,636.21436,-1384.8939,64.6478,-446.29263,-110.91328,58.96372,1975.15466308594
569,747.1941,-1743.3904,-80.35055,-991.66754,2.1464975,115.05213,2795.837890625
570,-497.30234,1593.7156,-986.7636,3439.026,135.11427,-401.07477,6453.9482421875
571,186.67076,3445.7607,443.19946,1237.1833,343.98813,40.201046,3847.48291015625
572,-1081.3684,4648.788,-158.56378,-2154.8708,131.31158,80.84511,6511.54296875
573,1058.5934,1312.1226,-159.01112,-2602.7336,103.92112,527.3232,4800.50146484375
574,-728.57294,206.18987,-74.39752,-67.688034,124.80819,156.88348,908.042785644531
575,479.5216,-2381.1946,-1290.9946,363.47327,165.36078,145.14023,2606.7314453125
576,292.57077,-949.87305,-191.03874,-311.72427,-18.931593,-99.97023,1224.44287109375
577,994.4405,-255.17213,324.6325,146.85341,-38.830894,-103.06131,1128.83129882813
578,253.06479,946.26575,-338.57455,214.37004,204.47697,31.539022,1227.5869140625
579,1030.1382,741.37036,-65.71252,-1012.2412,-245.49867,134.90941,2068.12377929688
