Element Label,S11,S22,S33,S12,S13,S23,Mises
1,2047.0834,1006.04803,1069.4268,5082.5205,-23.845808,702.9962,8944.392578125
2,4252.8965,1177.0288,-2367.8257,2709.2747,360.59393,-1065.002,7664.4462890625
3,6471.488,161.95026,-276.85724,-361.65118,2022.9055,-892.6803,7604.66552734375
4,4636.6494,-1280.8333,-3426.2456,-2395.3696,-363.58783,-320.8815,8380.5546875
5,637.3441,3317.5708,6509.5977,-4942.2305,2046.9636,322.56366,10587.126953125
6,806.5447,7167.882,-1715.1729,-203.16551,-314.3384,-1998.7637,8675.9775390625
7,6194.276,5524.5405,4206.7153,2795.3306,474.9567,-212.11467,5226.9638671875
8,2494.565,-335.93066,-3813.7703,518.25543,1443.3699,-755.83875,6222.59375
9,7746.1196,6431.814,8542.809,3183.8345,1628.6282,-671.6994,6567.376953125
10,-4899.3877,9526.145,-10057.328,1840.469,-2717.0461,1148.5852,18584.216796875
11,3342.0671,6601.6416,-577.6079,-2319.5671,-1007.8499,836.43176,7749.3525390625
12,5542.857,945.956,-1966.7319,203.64386,867.4247,-349.77756,6764.119140625
13,7108.148,1714.2599,764.7944,820.09717,-225.76608,682.9409,6219.8583984375
14,6616.364,2953.9082,-3986.601,4069.1985,734.13824,3628.2554,13333.7265625
15,-3822.3477,1537.8245,7568.6733,9161.868,-695.14,1565.9236,18922.326171875
16,14473.09,13122.076,25487.508,3265.244,6934.439,17614.475,35285.65234375
17,-22671.178,-9080.708,10742.971,1036.6442,-824.5737,14161.17,38130.984375
18,12322.55,-2716.4724,-26543.156,1040.8994,-234.42874,2867.7754,34355.50390625
19,-57462.086,-59113.844,-86615.83,5480.4766,9428.9,10257.176,38431.26953125
20,6155.9634,7113.391,1637.2758,-1952.4957,1180.3433,-20756.066,36520.140625
21,8233.545,-1085.7924,16098.382,3328.9612,-230.94685,-643.97894,16020.326171875
22,-5626.001,-3688.5273,1601.3601,6155.021,1294.547,-14881.866,28724.134765625
23,-79864.71,-97510.414,-90109.73,17583.914,4833.7227,-5274.3955,36286.15625
24,-6959.476,-13000.037,-22206.762,-8652.309,-13842.151,3126.8535,31711.203125
25,-16359.885,-16912.26,11977.622,-8196.296,-3655.9282,-2618.353,32881.22265625
26,-9097.321,-18832.559,9415.399,-3037.1064,-3402.785,-533.40076,26095.666015625
27,13685.071,61.94376,29047.31,9225.569,-7930.603,-5785.1016,34282.484375
28,-2603.0693,-480.99362,-3633.325,-1184.1425,-899.8257,2351.692,5565.78076171875
29,5430.5127,-18392.688,-10656.175,-6346.814,-2929.9707,2926.577,24806.953125
30,4403.751,817.9782,1665.0697,-1237.221,-2585.281,-703.0371,6055.0654296875
31,9760.118,736.5826,-13325.359,-887.2866,-3171.8835,1480.2637,21099.021484375
32,14180.358,-14095.815,-19484.52,2448.2195,767.65717,4793.044,32705.0625
33,7414.911,-5518.3223,-11762.967,4239.2114,-13792.727,2193.9287,30431.861328125
34,-7507.239,-8542.53,-14587.237,4686.4336,-13206.759,3218.3352,25769.84375
35,2983.0815,3984.7688,10411.979,3948.9656,-7034.946,-7539.8003,20360.515625
36,11888.683,-609.9431,-628.62506,3077.818,2958.6042,2156.9482,15002.85546875
37,-4150.9775,-5394.9756,-24483.32,335.17575,-12983.838,-4259.338,30824.6875
38,9243.259,-3163.2844,6076.813,1371.4613,345.6034,-5260.088,14617.4775390625
39,9289.248,-7375.1987,934.10144,1756.232,-12407.172,-9481.555,30806.5703125
40,6988.7974,761.1218,9241.224,-758.2858,-5484.5327,3123.5786,13383.58203125
41,1753.3335,-4668.7363,2002.7424,3009.3896,-2408.8098,1780.2314,9848.3984375
42,1518.278,-13884.6875,-20622.887,-11646.958,3972.0295,-8708.314,32683.8359375
43,3245.8538,-3671.5574,-13444.04,-3791.05,3429.4224,5345.8267,19367.107421875
44,-2109.6553,-13227.7705,-1788.1987,-793.82983,1247.6401,4264.245,13725.9423828125
45,1225.6587,8083.799,22991.648,7873.1323,-9697.423,2518.1575,29302.22265625
46,-93678.13,-100729.41,-128692.02,-3023.7512,11978.332,1462.3693,38640.48046875
47,-30451.645,-17452.303,-40169.707,9412.31,-6029.7637,5431.971,29208.21484375
48,-23759.055,-4845.0767,-915.1292,-9033.8955,-10269.376,-14118.745,40084.22265625
49,-21319.605,-826.22955,-8162.798,-10799.426,-4381.824,-16182.102,38942.4921875
50,1938.5955,7885.717,-6738.35,-2437.8823,6216.458,-20018.041,38706.44921875
51,-18531.684,8328.082,14241.676,10353.74,-845.7056,325.18658,35203.94921875
52,-3306.995,11969.658,-22568.414,1439.8163,931.03107,2325.8723,30392.056640625
53,12715.838,9357.007,9256.992,705.46246,5543.7607,-20612.299,37147.2890625
54,-1833.2234,-2937.6309,-10129.436,2284.9006,-4601.063,-22120.852,40100.52734375
55,6605.0107,22496.68,13055.64,-8612.34,612.04895,-19950.418,40116.6171875
56,-15004.295,10651.523,-7663.3945,-9810.096,-1275.5942,-155.5681,28590.923828125
57,-4493.6245,5159.534,-1591.3926,-379.7792,-6096.25,-19291.904,36083.9140625
58,7809.5464,13257.689,3953.7085,-935.46545,-5251.14,-21575.232,39336.71875
59,5803.5894,12624.899,86.45985,2967.4753,-2304.2183,-18988.17,35245.02734375
60,-4871.266,-9354.761,-6820.1826,2122.6755,3820.7058,-14707.042,26858.220703125
61,-29312.797,2239.7283,-12476.645,1257.2922,-2001.0009,-15270.8125,38264.11328125
62,-18306.62,-14434.149,-10405.377,-3325.0803,-6644.3867,-8734.783,21007.849609375
63,-77188.73,-78463.53,-89611.9,1801.2417,15299.77,14357.25,38347.06640625
64,-25686.307,-29885.555,-40950.9,-1688.99,17231.693,-11860.255,38831.56640625
65,3852.382,-13929.511,-17563.812,-7427.9995,-3852.993,-1381.2404,24694.41796875
66,5415.427,-3470.8298,48.299072,-50.755997,22426.125,-3460.522,40060.01171875
67,10885.3955,-6485.014,-24926.4,-1723.3341,-7655.4697,-461.4344,33875.02734375
68,-6376.8643,-7210.9473,-14472.758,-2555.3567,21188.28,5542.233,38962.21875
69,-5186.4785,-9518.99,-14855.364,829.8328,22340.871,-2868.4006,39930.69140625
70,1328.0408,2291.5374,-7742.1997,-1038.4968,20514.04,-413.89197,36853.26953125
71,14589.89,3094.4648,-9174.69,239.13145,-6510.6074,11684.3125,30993.888671875
72,5218.205,-8848.63,-10491.533,4918.322,18561.875,-5802.7114,37827.2265625
73,8032.1553,4066.9978,7659.8105,-1350.8435,3901.2551,-3774.017,10404.2314453125
74,5940.3286,8552.7705,3826.6492,-2471.1719,21975.926,2110.3047,38695.19921875
75,-12483.163,-15962.319,-15512.109,-2844.1055,22368.04,-4849.306,40081.69921875
76,10306.701,-49.20276,-19357.908,-1566.4686,-6445.2925,1944.8259,28694.318359375
77,-2688.3562,-62.65524,-21862.678,-1733.8826,18393.697,-2881.307,38390.15625
78,164.16313,-421.3503,1162.7114,-1798.0991,22760.71,1876.174,39703.07421875
79,11873.551,-6979.4937,-25945.537,5115.9067,-6628.0693,5216.141,36941.19140625
80,-2123.0454,-2766.7273,-9547.889,-684.76953,22401.258,-2277.0696,39663.26171875
81,8172.737,-21868.117,2424.36,7967.3906,-7478.8853,-3409.497,33998.87890625
82,-2191.032,-12699.549,-11834.928,1305.2728,17751.088,-13464.562,39954.828125
83,-140.72604,-6608.572,-7812.8857,-54.800747,19009.596,2360.8193,33939.59765625
84,869.37,-21120.53,-6100.9937,-3048.2195,17205.096,-3610.0151,36522.34375
85,-15990.064,-11467.182,-10170.405,5156.157,5019.1875,6367.4624,17463.435546875
86,6315.4863,1894.5499,-6095.043,9337.2,11984.354,-5887.833,30251.009765625
87,-18424.78,-1638.2887,-21034.8,9378.053,-9362.711,4384.422,30280.451171875
88,-9112.965,17368.203,14191.216,7585.8955,-1542.7438,7957.6094,31574.728515625
89,-6692.6377,7031.3027,-23817.348,4535.692,2410.713,-2333.6353,28497.55078125
90,-3559.933,-789.40125,-11311.169,8352.08,1103.3984,18544.65,36522.171875
91,3509.5334,13399.02,4007.8733,1943.1903,-78.23506,1181.7427,10423.90625
92,-763.1331,12236.06,618.2437,-1007.7394,-1598.4319,5480.191,15929.2021484375
93,1092.4044,10981.911,3338.5483,193.26547,3500.7852,3752.9824,12639.9140625
94,-6988.8325,13702.965,5286.582,458.33575,-1449.9141,-314.50613,18222.77734375
95,-11970.218,10278.205,-8179.563,-904.3404,-2764.5005,5637.726,23361.46484375
96,-12245.963,12226.243,5689.536,-6238.67,3196.3613,13912.021,34780.68359375
97,-31325.053,-11517.901,-13569.764,-7813.0747,-13864.328,-12607.929,39906.92578125
98,-22866.582,-9787.851,-9984.068,-4187.267,-1811.5615,21111.86,39599.26953125
99,13440.943,-6288.2383,-22492.49,-5871.3135,7886.2134,2132.4485,35709.2578125
100,20415.08,7446.3174,16693.326,-3966.357,-5529.115,2793.993,17207.62109375
101,-4839.599,13295.989,-3499.5142,-2606.2568,810.9302,9334.443,24292.759765625
102,1099.3644,-5565.872,-26875.686,-6119.9395,9060.687,-483.59738,31621.498046875
103,8800.887,-5637.6943,-5689.4775,-789.1695,1583.9452,-16803.557,32645.0078125
104,-8171.419,-18673.523,-22476.953,-12146.019,13183.638,-781.6305,33623.49609375
105,-15554.667,-19769.6,10014.53,-13194.737,-1047.935,-1207.3566,36184.15234375
106,13641.36,2082.2542,4432.8394,761.90204,-5895.0225,-2589.269,15429.705078125
107,6681.997,-4625.883,-18248.121,2605.8032,612.49744,-6575.7393,24873.46484375
108,15586.737,8563.38,18098.229,1758.8296,-9086.389,9315.025,24301.2578125
109,-10602.732,-1220.0043,-27078.322,-6760.502,-15716.22,2718.0786,37607.7421875
110,6195.3,-11036.803,17814.064,1117.0532,1825.4817,2765.7217,25862.037109375
111,11616.911,-389.83463,1583.7145,5090.3335,-4154.6094,377.15158,15946.9267578125
112,-8319.5625,-6775.117,3015.2922,5379.594,3108.2717,5563.191,17944.626953125
113,4928.525,7231.007,15625.36,-2455.1926,-62.34836,2014.4851,11196.6279296875
114,-5810.4463,-1408.8632,-4427.216,-2825.1057,17856.225,-8086.46,34523.171875
115,7704.0684,-264.6382,-27802.59,-3138.3374,-3264.7332,-4864.254,34260.5703125
116,12362.041,3676.211,-2862.376,3839.623,20074.877,-7826.8213,40149.6875
117,-1451.6481,-4548.7734,-9106.092,-3443.965,20618.258,3381.3408,37278.63671875
118,-5384.4756,-1842.8774,-4045.8782,-2042.2158,22730.244,2259.0684,39842.2890625
119,6897.94,-7067.9214,682.6915,-901.3668,5347.2295,834.4904,15400.5966796875
120,2168.4644,864.6821,1211.7893,-2550.0044,22022.26,5064.986,39405.296875
121,-9689.6,-11098.331,-11566.924,-5037.229,20043.12,-573.93463,35849.03515625
122,-2331.034,-24255.645,-7368.8115,-5185.898,15450.978,3535.4136,35071.25
123,1878.4077,-2713.3916,-26828.26,4312.594,4673.843,-1613.906,29025.609375
124,2641.5474,-4428.377,4618.9814,-446.3872,-7197.8623,-5963.3735,18182.005859375
125,9894.006,756.6043,-523.5137,-1924.1067,53.19558,3227.3665,11797.9013671875
126,16046.549,3860.2205,8765.944,2822.8647,-5492.5635,-3834.0894,16471.220703125
127,-3842.5276,-2996.4202,-4809.3584,-2448.701,22452.643,1665.3109,39257.359375
128,-13364.572,2971.7021,-10716.924,6220.967,11335.896,-15383.808,37976.6328125
129,-18640.178,-16053.354,-2226.9915,-9383.239,2757.604,1484.6211,22960.55859375
130,-5250.5645,18437.62,4524.3594,10491.881,-2938.0586,4595.8584,29062.51953125
131,2007.9884,7079.695,-15964.527,5254.884,493.96002,2925.9526,23433.77734375
132,8453.472,14785.576,4110.8535,169.33992,-6662.6455,12562.984,26328.6171875
133,4377.3955,-1062.8542,14772.244,1047.9054,-14657.3955,6187.1235,30933.044921875
134,-3669.8455,8524.735,-12648.983,-6045.8403,6612.5483,7912.722,27703.736328125
135,-15634.44,3563.3218,-2620.9587,2226.278,-3322.1567,-16415.734,33830.2109375
136,-69066.81,-73125.56,-95276.97,2219.9146,2409.1853,-8999.917,29534.00390625
137,-3946.7837,-18273.904,-12480.778,8676.91,-2245.6008,-8846.297,25131.517578125
138,-14854.955,-21419.506,-17929.06,-3578.4705,-763.2035,-22163.547,39321.6953125
139,-11992.051,-629.5754,1685.5095,-6612.525,-2463.0105,-20680.883,39915.44921875
140,17912.781,9648.971,9376.408,-434.3558,21338.541,-2122.4382,38088.0234375
141,4818.7363,-7371.751,-10932.831,1950.8325,19394.65,-9033.098,39866.8515625
142,-6772.631,-7510.0874,-9731.867,2114.552,21932.035,-3653.8657,38776.6328125
143,2891.872,-363.81668,982.76514,-4963.5596,3695.8542,-6899.984,16301.744140625
144,9284.403,-1854.9867,-23570.178,525.7642,-7091.0967,179.1985,31453.236328125
145,10990.623,-2494.6306,-7968.532,-1148.9426,18123.28,-2691.5542,36009.52734375
146,-3635.863,-2881.5686,-3670.4875,436.87354,21824.422,-4987.0596,38790.42578125
147,5574.752,-16.22348,-517.7437,-913.2798,22682.21,-1686.7079,39859.75
148,-5526.99,9212.455,-1796.6761,-6367.9883,5844.9775,-395.13364,20019.919921875
149,-7682.8306,3117.3403,12386.645,-12944.185,-6310.948,-3185.9524,30907.353515625
150,2147.329,-9571.1,-14352.671,-2073.8394,-5595.786,-6102.2983,20851.19921875
151,2870.5059,6625.973,-1036.9397,2902.4421,4672.4175,-20481.033,37326.01171875
152,-12728.791,3987.6526,-13453.802,7122.754,-5056.7534,2887.155,23366.748046875
153,-16353.1,3210.8574,-20524.82,-8873.67,-1185.853,-11850.632,33816.03515625
154,-29402.332,-4430.197,-5087.5317,-3213.0166,-11897.885,-2645.8936,32928.3515625
155,-18825.484,-3428.044,-13367.882,-14370.423,3046.1138,8085.154,32036.015625
156,-5222.906,-13092.39,3460.3384,10728.3125,-7104.6357,-3881.7769,27341.951171875
157,14382.187,4708.4795,15982.728,5584.765,-15237.1875,4710.963,31117.349609375
158,1197.6003,-5084.7363,-1439.4908,241.88495,-15160.226,-11309.654,33215.24609375
159,9695.001,6107.491,9833.853,459.89563,-8500.453,10019.248,23064.068359375
160,531.20026,513.52563,5576.3604,7570.0107,-12753.451,5060.054,27608.373046875
161,4543.4727,-16463.584,-22550.617,6022.6772,2683.831,991.6631,27195.513671875
162,-10294.611,6068.604,934.73737,-8084.1055,-12145.431,-3132.3328,29633.294921875
163,12134.623,-10364.865,-5335.3394,2284.3188,-4504.585,2215.4958,22574.650390625
164,-5609.7124,-1681.4204,-17418.201,-1196.8062,-3766.9958,19991.58,38040.98828125
165,-3496.043,12821.882,-27600.936,4848.821,2128.0771,748.022,36420.6015625
166,7264.9336,7557.1763,-6256.821,2632.3997,3203.7488,6480.737,19090.712890625
167,719.5308,12009.899,14904.793,3750.2563,3749.0547,-2584.263,16520.65234375
168,5072.011,8735.429,9035.962,16553.51,-433.0307,-6584.448,31101.373046875
169,53.50933,6091.222,308.79688,-1532.4817,2686.8198,-20409.21,36239.31640625
170,-8889.025,18697.63,-18957.951,1888.9849,3547.8281,-580.3545,34491.3203125
171,4300.751,11826.588,14562.134,1065.586,-2515.3186,-6671.892,15512.5126953125
172,-2406.1882,3568.4878,16852.21,9571.929,2535.7146,-3580.1013,24982.521484375
173,3043.5312,-2419.2815,-763.11816,12182.626,4765.1694,1106.0261,23250.3203125
174,-1008.1366,18935.736,-1995.6133,-8295.956,-4625.856,-15732.47,37836.80078125
175,-2660.222,16640.604,-23325.97,2137.5425,-1244.1721,-6248.123,36523.0
176,-3391.475,-94.401985,-8822.056,466.8942,-3500.571,-21251.613,38086.4296875
177,7844.055,-5313.168,-16339.048,932.3875,3774.3154,3347.8928,22775.470703125
178,6452.8057,4200.971,-8217.627,-1542.4447,-13485.42,-3701.8413,27947.716796875
179,-4378.7827,7269.23,-12269.469,4387.6436,1064.093,-2775.3613,19341.896484375
180,4713.2563,-2800.448,-32160.531,-5873.088,-2602.0117,-2494.1804,35798.41796875
181,-1415.0728,6124.4644,2541.0876,-3193.7546,20028.71,-2278.045,35948.359375
182,5552.557,11924.415,-14051.912,1211.6567,-1309.6816,1685.2959,23831.14453125
183,10616.947,11144.344,6308.828,-500.94635,4132.6006,3907.935,10904.76953125
184,-1407.4432,9221.578,19.808334,-7549.0,4905.858,-4731.449,20252.5859375
185,-1650.0552,-17425.572,1022.2631,-15093.13,-9116.335,494.46353,35094.578125
186,13750.854,6907.241,13781.058,-123.81626,-1671.277,1374.2039,7818.7880859375
187,-21908.508,-5304.608,-18574.328,52.724525,-2034.1945,-2826.0525,16365.4423828125
188,-21151.406,-19719.568,-26217.62,-1467.3264,7998.3916,2411.021,15836.4033203125
189,-88316.86,-96489.63,-129779.0,-244.13672,-4945.598,2567.6025,39247.625
190,-574.13367,-25288.258,-19271.19,1835.307,-16179.216,1034.9199,36012.578125
191,-58170.38,-71982.61,-100956.07,3154.1404,5855.0693,925.55725,39568.78125
192,6753.478,-25869.135,3005.357,-9661.0625,-3637.72,2830.5603,36052.09375
193,1880.0975,-1276.0176,-27409.137,3638.2097,-7216.2153,2118.4756,31381.123046875
194,1434.2604,-13760.873,-12627.972,4638.554,-883.4666,-3196.2407,17677.638671875
195,2148.7134,8480.8,-7221.0757,1802.3245,-9850.645,-101.134254,22092.984375
196,17997.234,6121.8916,-2919.77,5152.2183,-6195.8936,-1164.3744,23000.412109375
197,2754.1614,-7497.158,-15801.796,2498.1082,10345.748,167.62111,24476.509765625
198,217.84445,-5401.9863,-13895.579,7694.017,-12222.258,7888.835,31046.767578125
199,-3225.7197,-7485.851,4795.7817,1864.3806,-15027.285,-2560.641,28709.26953125
200,-542.4613,-8654.958,-20070.361,7627.0986,9691.161,544.7843,27311.087890625
201,-3347.1243,-11992.631,-29419.098,-2209.4053,2539.0955,-2272.5154,24053.390625
202,15367.287,-2018.4172,-2815.4836,-1664.6672,-9991.382,4083.594,25972.6640625
203,9341.4,-12018.902,-45.353775,4113.5845,-5924.988,-15010.461,34291.29296875
204,1650.253,-6218.158,-14341.533,-1026.8888,1665.275,-16414.268,31805.44921875
205,-6996.735,-6996.973,-31007.363,3431.5918,4162.232,-13131.411,34367.23046875
206,4893.584,5446.93,-2062.5781,-6336.878,-5002.725,-1687.2399,16019.7919921875
207,20375.48,-9666.468,-17825.025,-1846.8352,-5561.7686,-2983.2786,36659.40234375
208,12864.77,-2003.5037,3352.9358,3490.2756,-604.9297,5889.206,17658.08984375
209,9103.651,-3129.3423,-9174.26,5019.5415,-6550.9863,7425.297,25097.27734375
210,3783.6865,-1324.9247,15690.052,12310.253,3494.337,-711.1941,26860.005859375
211,5810.6904,8436.743,805.79565,12964.534,-4663.1274,10372.013,30615.2890625
212,286.14984,-18155.701,-12618.377,-7240.23,2698.9973,-13975.36,32151.111328125
213,-2517.1404,-17321.955,-18612.238,6423.334,-7167.2476,-4049.4885,23812.408203125
214,-23194.756,-19467.21,-17708.695,-2327.772,-20113.756,3678.071,35973.20703125
215,-6040.334,-16920.633,-17640.092,4493.3076,4063.1226,-9186.96,22136.47265625
216,-25946.709,-19703.426,-36429.387,-4045.1516,-2796.118,-12645.906,27687.775390625
217,-5799.849,-1348.4053,-4893.932,2294.861,7032.226,-3168.3838,14521.5400390625
218,-970.15125,-8534.935,-19809.016,1614.9243,9581.29,6978.063,26437.173828125
219,-5200.9014,3450.7612,-7626.1177,2053.0298,4726.154,-8899.099,20468.302734375
220,-9824.685,13441.237,21269.746,-1028.5308,-3968.4624,-1548.5641,29023.09375
221,3534.2048,25561.08,3717.466,3484.1047,-4565.905,10266.364,29938.841796875
222,2280.8306,9320.87,-14574.9375,-2090.362,1841.675,11441.157,29467.41796875
223,-4483.25,11338.313,-14139.441,3054.2312,-12500.643,8282.178,34625.23046875
224,141.75241,10736.835,-9959.848,888.3452,-950.9292,-17009.191,34559.2734375
225,-1462.5375,6573.0576,-403.387,7024.3887,10109.506,5788.074,24745.091796875
226,7289.1953,5964.4194,10795.151,-2134.756,3592.4585,5957.7847,13325.3818359375
227,2144.3716,10316.516,-6837.7466,1305.6547,-3682.5144,11356.313,25564.8203125
228,6787.455,8889.621,-3512.1128,3456.472,-3232.058,-19259.754,36223.55859375
229,-3730.0637,26296.658,1161.5586,3880.4524,-2887.892,-1944.9412,29329.072265625
230,-7365.446,18131.996,7404.777,-3118.809,5999.2476,-5010.546,26535.76171875
231,-19856.684,-23184.1,-22585.434,5188.2495,-7366.817,-16625.33,32896.90625
232,-21453.943,4166.422,-17368.475,74.92331,-5493.455,8952.206,29989.99609375
233,-41375.816,-40281.98,-44129.56,-549.5004,9633.21,20552.748,39475.81640625
234,-4389.9214,-24238.896,-30299.848,2020.0583,-15000.95,-1857.2616,35336.8984375
235,-561.1953,-7459.691,-22246.26,-3718.4587,-14034.476,-2538.92,31936.744140625
236,-3673.7964,-18110.502,-27558.412,6438.742,-15803.121,-4579.917,37021.5234375
237,-8256.968,-11343.649,-28886.771,5508.4893,-15490.626,1648.1987,34503.58203125
238,10035.814,-9122.785,-25385.152,-3635.0454,-7749.0166,2989.0225,34491.53515625
239,5144.963,-11547.828,-29971.73,431.93826,-641.22955,-6854.783,32686.28515625
240,7850.6855,1619.3177,15689.342,-1466.3705,-11959.517,-2041.044,24436.82421875
241,8967.143,-3251.155,-11498.774,1567.0908,-15884.038,-164.507,32900.4296875
242,20680.977,6332.441,-8158.652,-1972.0796,-13520.184,1101.6729,34460.015625
243,11082.484,-8677.04,864.5336,-2886.425,-2246.8508,-605.93506,18280.708984375
244,12927.811,-11755.014,-18959.293,-416.83044,-8762.726,1580.4227,32822.796875
245,10805.27,-14488.845,-24755.16,-298.67886,-10248.953,2777.208,36652.37109375
246,-8093.6934,-13613.292,-30835.938,1858.3488,-16803.4,-4582.3115,36641.0078125
247,-4619.934,-10037.868,-24273.438,-2087.7368,-16660.498,-5743.553,35410.31640625
248,-14.313292,-13970.928,-26265.182,807.85626,-13119.841,-2632.6511,32506.353515625
249,4941.454,-14801.956,-25935.328,62.929256,-14412.284,-230.1081,36835.8203125
250,15751.304,-6427.6543,-17015.82,717.1864,-8630.335,1668.9956,32744.4296875
251,-1037.0576,-8597.526,-25363.656,-5941.4897,-16396.42,-193.03046,37115.58984375
252,8909.543,-10214.074,-18222.877,-10002.247,-12496.853,-3434.1377,37242.98046875
253,9228.978,-2621.055,22795.047,-12124.098,-1686.1824,-1936.6847,30756.837890625
254,2308.65,-24583.197,-20063.0,-5733.9785,-6230.5645,6323.963,30937.35546875
255,-19848.236,-35397.098,-43877.113,-13173.175,-4399.2593,11921.433,38086.11328125
256,1472.9977,-4704.0957,1207.5026,-18115.297,-1998.2272,-85.31469,32141.55078125
257,-75120.67,-61635.176,-93113.97,-14272.837,23.892517,-6278.888,38440.63671875
258,-61068.805,-49766.43,-63787.062,-2280.6392,18622.55,9105.624,38348.33203125
259,-17876.49,-3764.904,-12038.28,6140.318,-16853.033,-1733.7504,33541.58203125
260,-33310.926,2147.488,-20850.172,-7141.479,-5432.9805,2602.0327,35108.35546875
261,-13810.316,5728.795,9134.718,-4138.169,3195.0015,-12643.85,31961.291015625
262,-9381.026,5652.761,-22751.416,-1770.9182,949.41296,13912.231,34620.12109375
263,-3057.7476,11768.674,-13563.779,-6956.323,-1256.0553,-5769.2344,27124.2109375
264,383.39682,9637.295,-6047.9966,3246.969,-9885.7,13255.269,32224.6640625
265,-6568.0967,13052.758,-20747.66,-897.84937,-5099.072,-2.1217782,30735.533203125
266,-8626.768,7744.1963,-19983.148,-2549.356,626.53925,12311.269,32531.029296875
267,-1353.57,17407.6,10655.817,-2809.7769,-1308.272,2059.9329,17676.140625
268,-1524.3943,-2482.7173,-26792.459,1494.2194,3614.2476,5533.954,27439.732421875
269,-4080.4014,5848.8516,-3167.3228,-1166.7836,-2167.5823,-3132.506,11746.265625
270,-8953.154,3172.174,-16609.072,-4450.408,-3573.3118,15947.712,34046.73046875
271,-6138.9224,7225.169,-21028.74,3843.202,4567.2485,13133.856,34981.125
272,-20354.367,10079.346,-20047.576,4171.5757,-2794.9434,12405.724,38135.48828125
273,-16853.527,14412.683,7245.9077,5265.738,-3498.557,2646.0183,30753.3515625
274,-21354.56,3996.6648,-17083.97,-3897.6294,3172.042,4955.612,26497.0234375
275,-106048.19,-115112.54,-105716.836,7977.8877,11324.613,1445.6631,25830.72265625
276,-45258.61,-46469.395,-47231.7,-4961.0645,15513.79,3514.825,28911.96484375
277,2219.3506,-31242.186,3962.488,-5731.1724,-6496.579,-3720.746,38049.02734375
278,3819.2756,-7584.934,-13656.649,17.307827,7202.453,-605.3803,19821.482421875
279,-7195.7827,17607.836,16745.357,-4311.8164,1943.7313,5615.528,27500.595703125
280,-15832.127,12279.504,5329.538,7145.978,-736.29095,2662.329,28623.001953125
281,1558.4558,-6492.356,10107.575,7605.7534,800.63116,913.0543,19613.69140625
282,2357.6504,-1756.7675,-1917.7394,3650.2058,-577.40186,-4180.931,10537.048828125
283,8161.7456,-9342.037,4133.866,-2250.1748,543.3587,845.35815,16441.490234375
284,-3283.8997,9434.348,-17721.158,1415.6917,-2028.2521,-9570.96,29102.7265625
285,6322.1055,17029.705,4008.2844,6929.4604,-3375.4448,-13859.7,29988.1484375
286,-3738.1516,-2322.3906,3063.0288,18026.902,5426.7676,-2032.0103,33380.76953125
287,-3834.423,-17248.55,-20114.008,4356.6323,11561.371,9399.542,30815.2265625
288,7050.746,-19230.463,-871.6313,-2139.2024,13570.349,-1803.6445,33484.4375
289,-5304.087,-11839.521,-21372.953,-6309.1826,-7077.7,-14471.19,33073.37890625
290,5578.878,-7207.4697,-3424.0586,1008.9963,1717.5697,6721.6626,16639.576171875
291,5471.4746,9145.947,-842.3789,5697.9106,-9297.313,9002.956,26008.5546875
292,-818.15405,8765.905,-1465.2301,3645.424,-11863.833,-5532.1323,25542.255859375
293,5132.676,-5929.059,-16234.255,-1429.5354,8257.244,-6104.2285,25787.8671875
294,-8015.5303,-8492.771,-21151.68,4232.028,-14325.474,5263.135,30315.123046875
295,-2990.6594,-7852.584,-23987.03,-2794.224,-17934.463,2140.8757,36939.2890625
296,81.09477,-14287.745,-31849.168,2801.4216,-10650.022,-1171.7972,33691.78515625
297,3045.1543,-3615.6545,-5146.5884,-959.525,-3.1550326,1153.7234,7978.892578125
298,-5721.0503,-13796.386,-9383.268,1321.0592,9091.5205,-3328.5337,18316.37109375
299,-1219.8915,7221.119,-29006.402,5629.3276,-13.430752,-4906.48,35287.0546875
300,-9508.571,-4538.4097,-26467.043,-2379.0386,-3346.6768,12406.616,30148.486328125
301,6496.073,2384.9634,-5386.7944,704.38684,-2342.6052,10865.965,21941.08984375
302,-4632.898,22607.396,-17090.225,-1642.9835,1211.9293,2839.5342,35682.67578125
303,-9563.763,4340.933,-22539.104,4585.7373,6402.776,10187.249,32241.7734375
304,-11155.996,13564.018,-22283.023,119.8839,4851.8086,8598.267,36088.83203125
305,-17298.809,10575.694,-5172.1445,-2094.969,-1509.4733,11985.659,32202.322265625
306,-43153.88,-58472.848,-78549.945,-1391.5735,-13108.718,3444.3132,38758.6875
307,-4744.369,6406.7646,-9290.222,7121.1655,-3712.9614,11790.338,28394.21484375
308,-16258.196,6119.956,-20716.521,-1156.3259,-681.1734,15287.982,36427.984375
309,-9750.878,2296.7698,5118.278,-12252.275,2719.071,11519.714,32523.0
310,-4541.5454,12431.111,-22588.047,-4467.4604,1905.9058,11350.109,37111.87890625
311,-38053.44,-22232.383,-25630.016,-10386.242,-16496.934,-1031.8406,36760.82421875
312,-52641.598,-41928.63,-63423.87,-414.30182,673.6445,14291.943,31003.07421875
313,-40238.504,-27683.092,-57207.96,-2348.3696,-4027.5046,2559.116,27267.443359375
314,-42827.68,-53871.938,-72149.23,-2061.4924,-4260.021,3206.579,27494.236328125
315,-4679.551,-12551.259,-23642.86,5425.398,15786.375,-1273.2229,33363.06640625
316,6682.4824,-4734.589,-5014.58,3825.6052,-1096.0695,-6208.25,17226.76953125
317,7412.2153,-1320.4017,-843.8416,-891.2503,-1959.5328,13326.889,24880.6015625
318,17929.918,-1646.1676,-7627.9727,949.242,-5138.0244,11243.364,31579.20703125
319,12212.431,9769.786,9567.24,5618.527,1892.6392,8330.224,17892.17578125
320,4590.397,-20521.193,6460.08,-1207.2148,-9010.061,3318.3423,31015.93359375
321,-29245.98,-30723.754,-55315.34,765.6894,-9447.954,3181.622,30711.38671875
322,-8256.019,-7859.966,2528.0503,-4709.5454,-8957.339,12321.911,29578.90625
323,984.0175,-1911.8304,-20822.168,5638.73,3816.158,-11573.073,31010.181640625
324,-16479.32,-13485.504,-40847.297,-72.701035,4061.0461,-8037.8633,30315.48046875
325,-6569.745,7357.481,-10956.769,153.14233,7351.3716,-10599.458,27812.884765625
326,-71035.78,-71023.53,-109958.695,-3463.8298,-3381.7493,-2727.9963,40101.11328125
327,6920.1143,-10231.113,-26943.604,-857.73596,-7641.021,-4136.979,32997.24609375
328,4600.0156,2258.5002,570.9289,549.08386,-12110.983,4337.5425,22575.5859375
329,5994.3223,9557.815,12721.684,723.6634,-2591.593,1717.2816,8034.318359375
330,12240.19,-225.23752,-14906.114,-2914.2417,-11832.82,4884.557,32726.44921875
331,11281.312,-3800.9795,20157.299,-440.53305,-5982.5054,2894.209,23941.8359375
332,-5540.3555,-6023.841,-25600.07,392.0227,-16632.088,-252.0999,34977.96484375
333,3705.5386,-19646.105,-24782.143,-4949.8823,-6784.298,951.8695,30098.427734375
334,-1498.3173,-23719.537,-12431.918,-9076.577,-11412.41,1885.5979,31920.474609375
335,-22978.59,6695.084,-14240.8125,-5859.392,3458.1016,4466.6226,29938.58203125
336,-14027.421,14201.087,-25417.277,-1299.0212,-1879.7589,7844.4116,38057.37109375
337,-5371.1206,1673.5314,-20405.91,2766.1953,-2182.8452,15269.27,33440.82421875
338,-17881.1,-23927.457,-41548.31,11746.417,-2072.2463,5702.7554,31272.619140625
339,46.208622,12333.085,-793.3146,-1849.6932,6055.1943,5510.8486,19322.41796875
340,-6281.227,22378.117,-17599.732,567.0467,-2746.2,-4990.257,37042.4765625
341,-64818.305,-65995.47,-90945.6,-39.474724,2615.758,16963.041,39204.984375
342,-36269.13,-41737.363,-44237.246,5879.2812,-3168.3035,-20044.686,37269.30859375
343,-23617.531,8020.4995,7534.899,4880.3296,8489.262,8453.9,38573.28515625
344,-4053.5645,-19387.545,-5448.817,-6362.5527,4817.624,-5370.913,22210.30859375
345,3291.8855,-2513.5215,-7486.2393,2582.813,-3251.5095,-1288.3895,12000.3701171875
346,-2895.964,11827.441,1753.7297,-1147.5105,-660.1248,-721.4435,13295.0390625
347,-13907.908,-2133.3008,-15935.187,2628.4292,53.571194,-18128.713,34253.56640625
348,-37740.668,-36525.336,-52060.137,-7225.405,-5754.9717,-8792.831,26680.466796875
349,-51652.113,-40702.79,-62065.098,2445.0476,8539.79,-11074.776,30773.427734375
350,-69609.445,-58426.79,-79945.734,-5248.8877,-3648.8252,12427.17,30551.19921875
351,7821.065,-24581.887,-2162.1917,-11190.487,436.74948,7311.579,36915.5859375
352,-7663.622,8049.4844,-26525.928,4302.0396,-2632.6108,-11980.171,37496.15625
353,-15673.656,-5083.612,-20260.781,-13303.762,-12325.114,-2247.3406,34403.71875
354,2113.815,-7093.654,25304.098,-10766.172,-330.4016,3904.9458,35069.859375
355,-24669.984,-54692.098,-51099.23,2865.794,-14744.534,-6530.249,40139.0703125
356,-515.359,1140.9573,874.93317,259.7498,875.4604,-2245.452,4472.29248046875
357,1953.1318,1080.3916,1655.8995,-779.77673,-240.47083,390.08038,1744.91772460938
358,-614.4617,-3694.0854,-6937.945,973.2597,-416.92767,-35.686317,5776.1220703125
359,735.9536,-152.80095,947.4834,-338.0995,58.44511,-695.4544,1681.30285644531
360,-3901.6575,-12160.313,-5171.6763,-11843.023,-563.3688,73.32844,21933.298828125
361,-5030.003,-4127.521,-5625.3613,-2744.3455,697.11975,251.2792,5093.9052734375
362,247.90575,-2433.9673,-7710.5674,826.9994,194.64671,-670.7866,7259.57568359375
363,1916.5513,7038.462,16746.148,-7317.907,-813.45874,-2456.7563,18733.45703125
364,5126.695,-1701.014,5477.7754,1175.5981,2992.4517,-2882.5288,10250.6220703125
365,7048.565,1825.3826,7869.1963,4638.806,1359.9084,-880.9375,10230.9892578125
366,-10649.674,6562.509,-1799.2708,7819.2905,162.3796,1859.2755,20399.2109375
367,-3144.0322,-1634.8857,-3543.1013,1260.0669,-2106.294,36.156982,4595.18017578125
368,-3400.7803,-589.98773,1518.3322,-2149.2385,619.6509,-21.879187,5769.1103515625
369,-956.5209,-98.73608,-1855.2186,123.06144,708.0779,197.06203,1995.09338378906
370,-100.24963,701.2394,979.6313,242.68576,132.92519,-807.15594,1768.39294433594
371,-662.0875,-966.1303,-1742.3472,-640.115,204.53,539.6167,1777.42944335938
372,2318.5435,360.03546,-2301.1387,327.50674,961.47473,546.7275,4485.6826171875
373,-6986.1094,-16939.016,581.38165,7551.3047,1466.3628,-34.59582,20227.8671875
374,-3045.0923,3918.0808,-909.56366,-98.497986,-1635.8602,-538.06396,6863.0869140625
375,3255.7354,1454.4575,1473.2942,-1217.0526,-373.85468,-376.49625,2915.34350585938
376,-4681.5854,6181.002,3306.3823,1459.7112,1036.4393,-359.04187,10248.6611328125
377,-1741.98,-2218.1948,-4146.461,-3326.7573,1775.1976,-1615.1957,7439.47265625
378,1821.44,-1823.7397,-5854.2397,802.94525,594.02997,959.3736,7069.521484375
379,-3838.7192,3874.9592,5436.625,4074.3167,2558.9072,962.08405,12091.6015625
380,-1382.3698,3220.4568,-2702.8867,-39.2209,-792.7041,-841.15295,5746.3251953125
381,-1522.0006,515.04285,-1521.7474,-3126.7798,770.0061,541.3843,6011.43115234375
382,-228.61514,41.85523,-688.6726,1047.7986,-466.74997,-719.0412,2430.53735351563
383,1378.1959,6017.666,5727.7554,-2270.1953,-703.1046,-997.02386,6339.58203125
384,-2138.4675,-7639.5024,10253.679,-4041.6453,1349.3611,118.31545,17507.29296875
385,-32752.498,-30094.684,-40878.496,3004.8213,10277.967,6481.389,23763.734375
386,7960.4683,15421.966,10048.34,-6128.4185,2556.8257,-559.7205,13329.6279296875
387,-615.7466,-1918.7856,233.47133,-691.19946,86.24028,-892.2277,2714.6708984375
388,-292.00156,-4871.654,-5098.494,-2170.5286,-3508.2654,5818.97,13217.4931640625
389,3130.1484,-344.22885,1776.2454,-1356.3325,-2149.597,-3123.8528,7606.37646484375
390,-497.70398,-2566.5432,-4793.862,2635.3923,705.69275,2657.8926,7574.435546875
391,-2084.0408,6435.9453,452.45438,-844.4367,902.0411,2629.3918,9095.8466796875
392,3889.086,-252.97762,1218.7477,2059.8037,-122.6035,1267.6525,5551.6650390625
393,1028.2802,-6569.1694,1581.9235,-1734.909,-130.23,-1080.7239,8649.771484375
394,-487.51373,-2018.1118,-819.65875,2315.5515,708.3027,-75.80115,4421.80078125
395,10880.165,555.0646,7132.1104,-5396.0894,-1468.834,700.0719,13313.6259765625
396,1630.3658,-3111.5195,-201.429,-2345.1472,1321.4183,511.63895,6299.02392578125
397,7549.407,1486.4954,10480.045,-1433.1611,489.67905,1775.9998,8914.00390625
398,-2446.3066,7358.109,3375.2292,-1742.115,-64.11703,-2259.4634,9867.767578125
399,558.20886,-4213.6016,-849.88995,3669.7893,594.76447,-771.21,7828.2392578125
400,-3474.9248,2260.5076,-83.32058,2975.5564,-2322.4636,-43.38142,8227.685546875
401,-16.714506,1927.722,-7490.0244,-1321.9203,-7.322535,72.85032,8911.849609375
402,1746.523,1616.3766,3408.0566,0.12306932,709.22394,245.89386,2164.31567382813
403,4957.4155,5976.125,8243.776,2775.6897,-664.93097,493.2787,5801.70849609375
404,-5982.3994,-5891.22,3242.7368,-7157.0205,6675.7285,2853.904,19901.494140625
405,3263.5107,8397.01,5795.2666,-2450.5842,-3118.7424,-209.36467,8191.037109375
406,-25652.91,-17275.045,-26581.186,1799.7466,-5415.857,-11376.349,23765.583984375
407,-1527.8783,3960.9995,10.4459,-766.6663,3862.0361,1080.4222,8605.916015625
408,-12428.52,999.06934,-7391.4814,-9521.472,143.32181,-3477.6084,21127.109375
409,3623.8867,-469.22015,1236.3038,-125.78288,-2361.326,519.113,5501.3564453125
410,-4037.3528,19513.129,14770.598,4632.1377,-1196.9843,1068.6438,23184.52734375
411,-2868.646,6650.856,-5234.7407,-1391.6256,1189.6682,-216.28174,11355.1533203125
412,-6071.0225,18904.572,11455.17,-3612.437,376.36792,-2066.965,23358.333984375
413,-5848.5254,7862.082,5641.4424,-5262.019,1377.6217,-774.69073,15906.7958984375
414,-905.4874,-1777.135,4277.5146,8564.129,-1819.7418,-1297.5609,16345.009765625
415,-29016.998,-27110.393,-43971.105,-164.08693,-10835.237,5819.013,26639.119140625
416,3319.5989,756.0877,4090.2744,-566.5255,603.59436,-313.2166,3389.8837890625
417,23117.773,-4678.906,17653.445,4175.1494,-145.11354,-553.0143,26531.119140625
418,-6198.0293,-408.7521,-8529.561,3354.819,-548.2637,507.39954,9374.8720703125
419,-7928.273,2916.2417,3404.1648,-4838.5894,692.0229,-1982.5995,14373.5
420,20501.266,-2918.9526,21675.033,-7169.933,-1899.1005,1070.8992,27310.40625
421,-737.534,-625.93884,2147.628,-1520.8905,-1282.111,-495.02356,4540.984375
422,4334.8477,180.95749,-1935.4116,5409.4824,-753.70966,2862.0698,12024.6015625
423,-3180.794,1741.5641,-5305.2974,-2338.43,-2937.3564,1158.1653,9247.3603515625
424,-2382.2354,236.24205,1689.8085,-1726.6815,1313.4794,-1415.4795,5736.38671875
425,-774.7378,-686.1592,-5608.2427,-651.8712,965.01074,158.10605,5286.0478515625
426,-1212.1853,-6834.962,-4165.71,-960.50476,211.08829,-1922.7781,6142.029296875
427,1495.8905,928.4625,4877.737,-2892.2595,-1117.554,2110.9006,7475.81396484375
428,-5003.622,-7487.1445,-5010.613,-7080.6553,-312.98102,-866.53723,12613.6494140625
429,8168.89,62.682373,10323.818,-1561.1602,-327.26346,347.96164,9788.708984375
430,7136.6333,1689.1357,2342.192,1145.7255,643.85657,319.4437,5659.685546875
431,2952.4856,2553.7803,4410.1313,-1020.4768,-597.97437,-1556.2296,3785.13647460938
432,-1045.9655,-4420.094,-3916.1104,1029.008,1125.25,-2243.142,5657.599609375
433,-428.72443,220.13426,-378.55164,-834.9237,-1292.5283,145.50906,2749.12329101563
434,222.20717,-7435.592,-12176.867,-4218.8384,1512.6698,3248.9797,14469.1826171875
435,-7075.2974,1162.7723,-4815.4097,-5826.8677,282.74597,-393.79584,12526.69140625
436,2434.7393,2345.1763,-3271.9238,-286.7085,1675.4435,1990.5519,7253.80908203125
437,220.84213,476.36313,1868.0563,173.3832,-216.26259,-258.94128,1670.13562011719
438,-4328.622,181.65501,-5175.788,-1144.4363,-1705.5541,-121.078804,6130.34814453125
439,-1521.001,-1731.7926,-4587.9624,-630.52277,141.26134,522.68475,3297.92895507813
440,15267.087,-5578.802,5480.3975,-3561.3528,-5243.8555,-222.40356,21142.6171875
441,534.9867,-440.1652,321.86453,1182.936,169.14822,672.7867,2535.80126953125
442,-6700.608,-2626.0708,-14199.253,303.9983,-214.86757,621.4839,10244.974609375
443,-829.9113,-1302.1155,600.43494,-32.44009,-824.954,-539.6341,2421.3017578125
444,2567.1116,-298.80728,7364.329,-4026.3108,398.63354,280.2462,9711.9052734375
445,-3485.2136,-1796.1204,-9532.241,163.62807,-611.09485,899.1738,7297.92724609375
446,-2652.7,733.0008,-3567.2014,-2670.1238,-1302.0798,2303.6387,7602.01806640625
447,4713.23,4100.4844,1557.126,452.65186,96.295235,777.3406,3295.123046875
448,4659.479,646.2356,6533.918,-2652.0342,-227.95076,-439.9427,6998.47216796875
449,3328.1396,-331.4287,-4849.9355,50.47364,-280.62527,-2166.3044,8041.619140625
450,1178.7114,-650.41064,-2742.9548,2935.2822,540.04565,-594.00085,6271.60693359375
451,-1890.8881,2679.248,-920.2501,44.35793,-389.89874,-277.05945,4252.59765625
452,1299.1434,-2108.8132,173.6525,-2555.5137,-1494.1952,5.2548866,5944.3388671875
453,-349.27118,5270.921,2521.9414,2218.8628,1632.3314,-283.71222,6833.6455078125
454,2277.9844,2255.557,1790.6451,-439.19998,178.10753,-487.7126,1270.6376953125
455,-860.6121,-591.24066,554.45325,89.10142,-459.3428,-342.3936,1643.86669921875
456,-1870.2604,211.81702,1397.0477,-429.29437,-945.52435,14.259182,3382.76538085938
457,-1992.0991,7120.609,2676.661,-2700.498,-2727.8657,852.0464,10424.6572265625
458,-1845.0668,-4642.9536,-3866.5806,171.52202,-424.1451,85.82689,2628.45532226563
459,-2459.0854,-1468.5126,-134.1386,368.7282,-763.49677,-736.7072,2805.07739257813
460,1898.0189,-1116.107,-551.22766,831.94006,201.74583,-860.80994,3481.79321289063
461,-1130.0555,-2711.7175,5044.643,-291.9579,-1353.0394,513.43396,7545.4326171875
462,1085.2441,733.30396,761.6501,2533.6333,-509.83215,-1253.0135,4986.23095703125
463,4795.3467,7214.1646,12974.523,2424.6616,1178.0502,-369.57413,8670.3974609375
464,-1838.2582,-1206.007,383.77148,2541.9146,500.44208,-1011.3001,5209.201171875
465,364.05527,823.0031,4954.551,-3315.6934,-464.82687,-1189.1313,7553.0283203125
466,4577.1333,-3981.5632,-3397.3926,-2488.7551,723.3427,754.1143,9510.5341796875
467,1042.1742,4305.732,361.07513,297.6238,-131.60117,1217.9725,4255.0654296875
468,3523.6533,-21.914518,-1369.78,1333.2626,604.87305,130.7682,5064.42724609375
469,10684.843,3080.5088,906.8999,9399.516,4973.4927,-1249.9631,20567.59765625
470,-272.2667,311.47092,-6846.593,2478.216,295.60843,658.72955,8209.0673828125
471,-7106.982,9943.363,6457.0435,3157.524,3177.3728,688.1744,17465.494140625
472,975.0681,823.4771,3202.768,-154.43611,499.4754,-267.26733,2521.42822265625
473,3387.5818,4960.967,1422.5858,2358.375,416.05417,363.65665,5199.0654296875
474,1510.2935,2475.6968,-736.76776,-545.26215,-328.61227,240.41782,3088.6728515625
475,2064.7012,384.06787,2045.2555,-54.499737,897.97314,-635.2153,2535.88232421875
476,-1254.334,-590.58057,1347.5785,-33.374325,174.76756,1488.6304,3496.64453125
477,-1358.7635,1275.319,337.75122,-1820.612,-866.98596,615.6008,4322.44873046875
478,-85.652504,3609.0427,720.8304,-1063.8605,-953.4645,447.12073,4247.8125
479,-4545.4966,-497.94238,-1338.1912,-289.03976,-702.186,-52.71834,3927.58520507813
480,510.39365,954.35504,768.956,1026.8301,748.2834,-894.7681,2719.17602539063
481,-3166.054,-1848.9905,-5194.2617,3240.7625,-990.36365,1251.4364,6904.1962890625
482,-1911.5789,-2765.4702,-2246.918,-1001.4082,-689.29,-760.5736,2593.15893554688
483,-2188.936,-2534.1763,404.29514,-1208.7333,1312.6278,-85.941154,4160.95751953125
484,4146.956,-1739.5986,4550.7974,-2064.7947,-175.40659,-1023.72,7295.08642578125
485,3040.4907,1615.4468,1593.0339,738.86224,756.1817,-267.06128,2372.833984375
486,-1464.3126,-1890.3141,-2424.1926,-544.0732,589.19006,136.59875,1636.88610839844
487,-2535.6228,-1643.4994,-2890.79,830.1746,-48.01056,216.87787,1858.62145996094
488,-1145.2578,-4878.2705,144.23643,-3681.736,160.75754,1025.8671,8019.486328125
489,-240.67853,-2207.641,984.83307,1222.264,202.44221,498.67596,3623.82739257813
490,2611.758,990.6747,163.09377,495.58176,120.70116,-384.63962,2424.60986328125
491,2775.8516,2694.8328,-732.9732,771.22217,493.49097,-1149.9392,4303.04150390625
492,-7739.942,-4255.639,-15664.268,-1202.0945,-1834.9801,-557.0195,10858.7939453125
493,-399.1668,3233.52,2047.4364,1048.727,344.12268,417.77246,3804.32446289063
494,-471.1293,-4693.777,-454.2444,-308.609,1383.1913,870.2641,5118.57275390625
495,-286.19952,-1229.8041,-361.32117,-398.27335,120.731865,324.63702,1288.76245117188
496,887.82074,-2945.0054,606.82947,496.46384,-636.00525,-1917.0696,5164.39013671875
497,-128.89485,-805.11115,-46.08677,127.772736,459.83447,382.59732,1281.63366699219
498,-596.8484,4346.9136,3473.4028,332.87103,1409.9563,262.41333,5233.3828125
499,-183.59761,3478.8335,1965.2694,-1082.5898,1562.8525,-45.10851,4583.73046875
500,-1344.3362,3686.6506,974.66736,337.72415,16.430904,89.230774,4403.24853515625
501,29.35437,3318.7378,524.45636,940.6948,-440.5648,-228.76567,3581.98315429688
502,413.28485,2171.247,-193.27687,-359.82672,662.2954,-1681.4037,3835.40698242188
503,-779.5847,721.2717,-1194.133,392.1156,-144.66531,-340.165,1979.3388671875
504,285.0877,2406.337,602.15375,556.7478,314.44452,278.03262,2320.79516601563
505,809.3078,2393.6692,490.183,-352.30234,605.6855,-119.46913,2152.52978515625
506,2100.3696,4323.2,1954.4613,-458.57285,287.9924,1407.3772,3479.71435546875
507,-1859.4344,1405.639,-2673.421,-886.01324,-568.37463,269.1156,4185.986328125
508,934.7203,5246.961,6316.946,1077.4238,1144.5807,796.2279,5802.49755859375
509,-1498.751,-55.742477,189.7775,977.79865,-366.86563,208.1913,2428.76806640625
510,-6790.3833,-1087.4731,-5395.5996,1238.345,221.52124,383.5193,5630.56396484375
511,107.17156,-2289.3584,-6623.892,-1789.203,763.9384,-1258.7394,7143.3330078125
512,474.5809,3271.5781,2477.2964,967.5759,-54.588837,307.39203,3055.07641601563
513,-1064.6533,-1523.9668,788.8079,2192.2742,171.30473,246.21759,4380.1494140625
514,1873.4349,1866.8368,6606.432,2162.4219,302.33893,-305.1961,6083.9462890625
515,4092.2126,-4761.7676,-6202.435,943.1632,-4833.7803,-1462.2051,13130.240234375
516,5209.204,222.09752,553.60345,284.90872,191.57086,-919.2097,5120.1884765625
517,3108.2773,-235.41759,-2841.3467,559.94965,243.03154,1870.8088,6188.876953125
518,-3262.2253,-2284.8076,-1320.4131,1398.8087,-429.68344,140.48804,3051.4111328125
519,-3987.0508,-3866.4355,-4539.451,1686.7598,-590.0061,-1157.1619,3739.41040039063
520,321.50638,3750.4458,388.67603,-1017.6449,792.25214,126.4976,4070.5791015625
521,-1839.2057,455.42197,-3190.9714,90.8945,-479.3905,857.30414,3621.26049804688
522,-147.90092,-4026.251,-832.61096,-1067.3926,-423.6252,-1666.777,5014.5458984375
523,-2278.2058,-2115.057,-6888.263,-550.08356,1046.0555,-555.3703,5210.29296875
524,-2868.3198,-1789.2463,1287.8047,569.85455,364.07074,-1542.0071,4739.00927734375
525,-825.7195,-885.9745,-12.487177,-133.74918,-91.09991,-536.06586,1286.3291015625
526,-2035.5963,-688.62665,-667.3129,1372.068,651.8452,-352.18243,3022.91357421875
527,-233.67409,3281.6316,448.0396,513.5362,537.3204,-882.20166,3797.07958984375
528,-2738.8618,877.20294,-1536.9591,-266.83765,177.85703,561.0863,3380.42846679688
529,-2797.6184,4263.3184,-360.00577,815.9287,-979.2676,236.34917,6605.19873046875
530,-2010.5696,3377.3455,-404.8024,1329.296,-1017.1548,-892.6103,5809.60693359375
531,2591.804,-391.2401,425.76743,924.666,-191.60315,-821.65906,3439.39111328125
532,3103.5032,-1007.5424,1586.7471,1921.5671,2.6906552,-110.09645,4907.080078125
533,1390.4886,1637.6611,429.23743,-2164.3125,1358.5018,697.58,4719.30859375
534,-1751.7439,-1096.1482,-1431.9312,1119.3367,340.08676,-1373.8372,3176.54272460938
535,372.76773,1303.0406,461.9496,440.1924,-444.57443,-786.0225,1954.005859375
536,-326.07,-1203.1361,-3075.9863,731.03326,819.48206,1259.8694,3781.41772460938
537,2567.3481,-1849.2388,-1957.4685,1001.2336,385.55823,-893.4875,5083.72802734375
538,1719.4799,-3.974097,1071.4885,-685.1926,344.01657,1683.1787,3540.64721679688
539,3521.0476,-905.29614,45.981445,376.9933,-752.26654,-291.8742,4320.4658203125
540,6616.5103,-431.42233,884.0893,-2369.025,-103.358574,317.65778,7700.90185546875
541,6158.753,-283.40228,-581.05505,-1569.0084,-441.12238,42.704643,7175.10205078125
542,3932.78,2044.6685,1299.888,-1317.0243,19.720148,-28.48873,3276.14892578125
543,3769.6423,1641.8362,669.3398,-587.87286,-367.69675,-45.43231,2998.52807617188
544,336.35043,-556.96155,1391.7893,-609.34766,-18.012928,461.72452,2146.91625976563
545,-2467.185,-2990.9998,-1110.9128,276.27304,-1262.4287,-288.43204,2843.24267578125
546,-387.90503,1911.4055,131.14464,-62.622807,-214.20898,460.6052,2269.06982421875
547,3264.707,1222.8883,1073.9456,-214.11447,1498.9834,328.55048,3420.16772460938
548,3689.1338,-1435.0815,-937.0544,43.22104,-634.95483,292.15863,5042.30029296875
549,-78.009186,368.69736,-1129.6975,-179.54007,410.74463,191.20615,1577.31030273438
550,2910.061,1731.4216,471.34732,-1084.8319,-445.42947,76.544426,2933.5185546875
551,-1640.8116,-2572.641,331.78558,-1237.1534,-32.430367,418.69885,3423.19970703125
552,-844.3081,-1855.9841,395.54578,-430.90326,88.280945,772.8663,2487.45581054688
553,803.64594,-763.79626,-498.7093,145.42117,39.329773,196.48438,1515.10339355469
554,-1747.5636,-2349.1672,-204.96167,-234.39618,-190.83801,1617.3358,3433.80102539063
555,2495.7378,3637.8164,1693.8503,1020.55383,-755.0353,178.32072,2791.6669921875
556,3140.7993,3009.3499,-810.1034,227.27245,-574.4497,-295.39276,4063.77563476563
557,-2210.8835,2056.2637,-801.0674,1507.1249,1220.8137,-866.1138,5264.611328125
558,1721.536,835.81464,-727.1497,468.5547,519.7175,238.64473,2500.302734375
559,1287.6659,-655.95844,-1129.2333,-202.04901,-608.4807,-149.0955,2494.28149414063
560,-1674.8694,-2047.134,-90.05056,709.0199,1087.059,1156.7394,3508.21337890625
561,-727.48303,3301.5732,-1522.561,2143.6287,366.68268,19.495008,5853.1015625
562,1271.2047,2683.268,-748.7638,1219.296,-886.89325,-1242.3096,4514.01220703125
563,792.9187,4059.2156,1130.1135,-1361.6577,-567.4093,744.8542,4227.72216796875
564,1858.8513,723.9411,2357.7449,-627.8362,-507.06445,652.5088,2309.60961914063
565,-673.3121,-122.96011,-195.38844,-1452.0813,-116.14952,-186.09317,2595.81518554688
566,-1321.9396,-1360.649,-2538.0164,-470.54285,487.1892,-2785.0068,5106.6962890625
567,-2249.0994,1535.5353,-3830.985,1806.5703,2484.9404,5.3098664,7150.42919921875
568,4807.044,838.9109,9229.028,1241.9814,371.5306,833.5473,7744.23095703125
569,-84.24507,956.7826,-1504.786,-66.50568,570.73596,-484.21762,2504.87231445313
570,-1453.7836,-1658.5245,-10561.351,3185.135,1435.3184,2099.5447,11443.9912109375
571,1148.2262,-2953.6414,1124.8549,-3581.1506,-1719.0527,-712.1315,8098.810546875
572,282.2951,865.132,-6450.876,-1327.4106,928.7571,17.983133,7581.18896484375
573,-320.2906,-456.60217,1406.2925,1243.6898,-352.29913,-105.503555,2877.68188476563
574,5414.883,3102.828,7461.894,-594.3551,129.33748,-201.83961,3937.10961914063
575,-332.05005,2746.5884,-5029.9526,94.47156,-1179.422,-1058.5453,7319.35009765625
