Element Label,S11,S22,S33,S12,S13,S23,Mises
1,89094.805,90439.695,98083.484,2092.489,1514.1265,615.4572,9574.2333984375
2,17504.576,18777.832,-4621.1357,-96.190186,-11996.368,-11208.125,36441.35546875
3,474.70862,3132.6687,-5235.0884,-3057.9443,17048.125,-14764.845,40110.01953125
4,39730.83,9068.107,44825.56,-325.15265,-6819.578,-1017.6919,35571.35546875
5,-8840.402,-17825.193,-30219.486,4273.1064,9173.311,-569.89966,25571.59765625
6,-29521.709,-31495.43,-32807.64,4569.725,11648.087,-15965.22,35249.8671875
7,15702.631,24776.783,8505.303,2459.5469,16538.21,-13564.688,39876.546875
8,3843.2197,-18763.24,-14892.654,8409.333,12100.594,5076.2,34165.19140625
9,17400.791,12560.372,34075.875,9195.637,528.3885,-735.4407,25265.427734375
10,-24233.777,-1288.4297,-24161.273,-8467.228,4576.333,-861.85974,28371.98046875
11,14657.189,563.7842,20081.156,13287.453,-45.42695,-13141.014,36772.54296875
12,15948.662,17823.709,14318.421,-865.5288,892.00867,8996.021,16020.296875
13,5833.4272,10289.966,16176.221,11903.371,-1513.6433,-7601.9785,26192.658203125
14,-20910.986,2902.4255,-42816.875,-3598.5354,3.3588753,-668.2589,40109.70703125
15,16158.019,18045.523,22341.367,-871.33105,-6805.8877,-1274.2712,13275.33984375
16,86888.77,109806.086,101191.77,-588.7779,1793.4305,-312.67838,20321.791015625
17,-16777.666,4340.205,684.53265,-2540.652,-1632.3068,10414.6,27108.634765625
18,-15653.705,-2202.0393,-11889.57,4893.6494,-20212.455,-2727.8516,38265.8984375
19,1862.4918,721.4318,222.83415,-80.17732,-788.0701,25.470364,2000.9853515625
20,3303.5571,4874.1094,3828.9854,407.77716,122.810585,717.0198,2000.9853515625
21,9337.043,5626.0137,-7008.732,-3684.031,-1772.6079,-14431.26,29920.27734375
22,42397.992,42814.812,42369.516,-721.79065,-722.56836,-478.97897,2000.9853515625
23,21924.434,-2429.6086,11676.133,-9956.311,1026.1505,-957.4408,27419.935546875
24,863.8095,-777.7742,11560.99,240.7657,-8254.302,702.9553,18459.1875
25,14824.774,8191.008,15432.843,6338.756,-7846.41,831.62085,18860.623046875
26,10499.859,7596.1055,18273.693,-7166.434,2620.406,-5074.967,18530.416015625
27,5045.954,19048.107,23646.104,6809.538,5822.124,2640.1887,23308.71875
28,13619.465,2736.7463,8729.341,4015.7593,-9243.832,4285.0234,21188.146484375
29,24758.396,14293.089,13512.691,7804.38,-6005.5024,-11619.382,28535.1015625
30,-2060.3213,-15313.726,-9180.914,10197.799,-4586.2134,-7253.7173,25786.005859375
31,4558.923,-4993.94,-2752.8203,-9979.177,-10415.909,-1451.1522,26559.623046875
32,10256.828,14822.208,28593.51,-6174.3325,1092.6693,-3650.6418,20767.59765625
33,2977.699,-6325.002,3524.8674,3794.816,-524.888,-6668.3438,16412.1484375
34,-5511.0166,23101.178,17123.781,1896.5111,546.0555,-5800.792,28213.345703125
35,-63631.395,-61208.31,-63054.953,7272.449,9603.004,-4304.0454,22264.318359375
36,10151.457,421.30933,19066.19,4680.2725,5293.621,1316.0038,20392.83203125
37,11282.956,10742.846,11272.618,283.0066,968.48254,-470.30005,2000.9853515625
38,31857.762,31389.797,31633.674,553.0669,-213.8756,-963.4529,2000.98547363281
39,135740.47,134901.42,135955.03,14.903853,989.1158,214.46587,2000.94177246094
40,18625.527,19226.184,19458.762,392.0074,-836.4468,544.2022,2000.74658203125
41,140449.52,140755.52,141189.66,230.42047,1045.2627,-224.91585,2000.93127441406
42,159266.55,159314.0,159293.53,134.27899,915.06836,-691.56805,2000.66027832031
43,287.10892,-667.41724,393.28192,-751.883,-468.9214,-456.27448,2000.98547363281
44,834.65155,144.57204,707.3992,-368.53772,156.23184,724.3715,1568.25268554688
45,-17155.756,-17803.44,-18144.41,942.4302,247.6941,-364.58423,2000.98522949219
46,-4808.655,4222.414,-4332.7207,1391.2977,4529.09,5692.6646,15558.0498046875
47,4049.4753,-4367.402,3160.2993,-3642.341,3237.9446,-4918.822,14421.775390625
48,13584.442,9504.92,11455.456,6706.2905,-685.4137,1467.9215,12461.404296875
49,1329.2173,21549.396,-4633.587,-5661.4688,8008.9644,-3034.672,29684.921875
50,-24917.305,-54595.05,-31493.105,-4908.456,3104.861,-2653.699,29174.998046875
51,8180.508,15090.856,10749.112,6739.494,4604.7456,2783.691,16115.8583984375
52,-11051.44,-23393.326,10783.856,1421.5863,-2119.139,-2169.7993,30532.76953125
53,16708.46,-5087.54,21451.943,-5618.544,1964.484,-2765.178,27021.76171875
54,-18068.29,779.74805,311.47983,-364.18143,-3393.6758,-6557.3423,22596.173828125
55,-21628.584,-20452.861,-3423.606,6698.3984,2651.9092,6199.5645,24133.10546875
56,7357.9253,1808.063,16652.646,4477.068,9577.814,4188.3423,23595.3359375
57,2228.4604,-6050.822,6934.472,3275.22,9281.983,10456.64,27355.552734375
58,-6132.0273,1305.9697,21681.254,547.03723,4630.963,2973.6594,26716.857421875
59,7820.421,1076.2876,20602.05,1057.762,15091.433,-452.2153,31341.322265625
60,15828.433,6175.3276,29813.543,-1609.5302,7758.5444,-4328.5757,25852.1171875
61,8146.368,14607.171,15244.702,-1669.1655,3873.6953,-15728.953,29014.515625
62,5711.8706,-20149.354,-4857.5967,-1815.9467,7964.4736,-5817.1875,28440.951171875
63,-31739.53,-15717.987,-15132.596,600.9945,-12200.412,-1617.8701,26868.15234375
64,-40253.25,-25848.314,-6233.6714,-1849.479,2562.0784,1755.8107,30232.21875
65,13673.541,7725.9536,13614.659,-8643.33,-2923.5144,2484.542,17415.74609375
66,12975.27,15698.776,6978.454,207.73126,-7728.871,5857.0728,18492.251953125
67,-3905.5005,18147.582,-4478.968,-1015.79443,7030.397,-3614.5874,26265.65625
68,-4850.734,-844.0568,-9663.656,-12102.1875,-17258.04,3261.5322,37726.953125
69,-36013.215,-25293.0,-16643.172,3306.2031,-10482.017,2807.5735,25855.92578125
70,8114.697,16902.764,21576.271,-4067.99,-14771.092,2209.524,29308.53125
71,33108.297,18846.69,23044.4,4283.119,-1683.4734,-7582.2676,19928.82421875
72,30233.328,15495.761,20026.19,-1517.1008,11008.35,-4793.3003,24704.98828125
73,12251.233,18163.213,19726.957,2960.4128,-1897.0806,-260.75473,9161.576171875
74,3483.8862,4434.7383,3784.4934,-366.64926,-833.08655,519.58203,2000.9853515625
75,1069.0819,1183.8828,1195.4697,1151.9628,3.5875409,52.299072,2000.98547363281
76,2106.5596,844.0017,-59.88203,366.2563,-124.783295,-29.074677,2000.98559570313
77,-250944420.0,-250943700.0,-250942640.0,-568.4163,-369.08398,-282.50415,2003.09619140625
78,144606.98,143569.61,145726.08,-105.849075,241.83511,-319.05212,2000.97106933594
79,53763.2,53187.977,52783.35,351.1316,976.4793,23.939228,1989.84594726563
80,80100.27,80549.4,81502.79,-305.3344,-745.9261,-402.97943,1993.72521972656
81,-26550.834,-11679.625,-22622.396,2101.4233,-6824.7456,8767.949,23701.794921875
82,7676.527,8428.757,6841.243,-3153.3057,276.07404,1159.7561,5998.80322265625
83,5345.019,39127.46,36862.668,-748.82635,4959.7524,-8598.156,36974.81640625
84,-13870.0,-11298.858,5603.5547,13290.91,-821.6385,8275.539,32759.49609375
85,13310.972,-453.82855,26403.25,-3179.5483,-2347.0146,14387.678,34770.1015625
86,17690.268,31441.605,48864.285,-492.33844,2118.9666,12266.839,34610.078125
87,2170.8525,-5516.9355,20749.361,-2065.8394,1819.5623,12204.482,31885.33203125
88,-11051.077,-4498.6953,15005.809,-1466.302,4697.5737,10737.365,31139.765625
89,10981.996,30665.375,13617.94,2453.3528,10320.844,-783.06134,26114.26953125
90,19622.049,12993.328,28029.305,-8618.561,2581.4973,5847.9062,22710.7109375
91,814.4755,15835.75,3080.905,73.37762,-8259.759,2061.1946,20351.001953125
92,2049.5898,1032.7072,-852.1149,7149.444,-356.66165,-1348.173,12871.7216796875
93,-4777.431,-3390.9697,-3723.4775,-626.3794,-598.9534,244.13448,2000.98010253906
94,12600.092,12827.294,12501.329,851.29926,64.051704,760.1951,2000.98559570313
95,4476.2085,3371.1106,12311.97,429.21796,2490.6343,20760.14,37193.984375
96,1750.4318,23271.316,9879.666,-8233.572,-6522.3423,-9667.723,31075.345703125
97,-3311.4646,-1818.0419,-2299.0063,600.88556,-366.52023,508.0553,2000.97900390625
98,22622.664,8026.5254,17666.914,-1226.1044,-5690.811,6800.5933,20141.55078125
99,-7990.6567,686.81024,-2590.2166,1758.6715,-10815.009,2097.685,20759.91015625
100,-2247.1177,6741.1167,414.4155,8596.337,-8297.924,-8284.642,26421.830078125
101,19622.324,40641.97,39590.1,-11635.272,2490.7986,-2215.3499,29330.80859375
102,9223.971,11446.034,662.2384,-2019.8383,-12798.052,-2212.7732,24810.568359375
103,-9437.054,3326.9297,12675.717,6484.466,-12788.419,-2343.1545,31668.5
104,13051.192,14933.32,14338.4375,-314.56204,224.28726,509.7503,2000.98571777344
105,3772.457,3033.9265,3742.0432,141.0112,758.609,-751.4289,2000.9853515625
106,318470.97,317748.88,319300.03,-359.2637,684.41656,362.297,1998.42224121094
107,951.4422,-673.2292,637.1042,260.41602,583.9141,-428.15753,2000.98559570313
108,83198.82,84592.06,84301.555,-584.2214,-590.3331,-323.39026,2000.98425292969
109,23329.326,21190.182,43067.62,6420.623,17433.34,-3910.78,38957.9140625
110,23690.666,25087.91,39391.664,-491.79776,12328.771,-211.47156,26141.75
111,-4517.8,-7678.648,-19548.79,-16959.082,1292.7975,6673.274,34494.26171875
112,-51136.746,-59434.625,-81944.27,1958.2007,-11632.579,-7426.9253,36677.6953125
113,12748.091,25587.178,2634.838,1270.6298,-17037.316,-6773.6787,37553.5234375
114,-1269.0319,1862.438,1876.1444,-10224.138,7998.5127,-3415.3162,23459.96484375
115,-922.45844,11031.968,-11828.317,-4132.2007,-14873.135,9451.127,37081.6171875
116,2021.2814,-172.24759,1071.578,-244.81639,244.5106,69.46876,2000.98571777344
117,3912.0732,-3038.2556,848.486,-2010.37,-7578.066,-7989.1157,20304.767578125
118,1659.3385,516.0443,1332.4283,-723.99365,-533.31506,423.44644,2000.98303222656
119,4387.482,3540.2869,4789.9453,666.39813,370.15417,127.7129,1735.77490234375
120,8266.389,23713.002,16982.018,7747.6562,-13544.417,-761.00757,30201.0390625
121,18353.06,13674.379,30611.346,10172.495,169.5011,3687.2454,24100.22265625
122,-2458.2969,-12809.451,-205.0154,5917.8013,3663.6267,3385.8682,17755.77734375
123,4985.4053,11559.922,9193.618,1143.3441,9936.393,6430.363,21387.669921875
124,-10806.456,-19005.77,-22771.326,-4407.2305,-20825.535,-1478.5624,38447.64453125
125,-2185.3533,-1487.5056,-2686.0037,-240.95287,-877.4116,-379.98663,2000.97924804688
126,2686.506,13331.546,14903.785,6727.0684,-2342.6936,-2192.6995,17296.650390625
127,-340.58234,1040.8735,-1873.4064,2117.731,-3503.8923,-7784.216,15441.6220703125
128,-8508.294,7860.5054,1181.5696,-4101.333,180.82483,768.4545,15985.99609375
129,9772.934,10029.754,6683.655,249.27803,422.17514,-5288.9062,9748.93359375
130,-169430.2,-189673.75,-179063.95,12545.326,1369.9076,4518.8057,29096.96484375
131,162693.73,157480.1,165091.77,-3149.5906,3535.5127,-6804.4727,15861.8076171875
132,55839.266,75056.87,65547.06,-4913.745,7603.7207,11056.418,29826.404296875
133,-43950.414,-38249.207,-40110.938,2718.7974,-8113.0825,3515.7754,16795.2265625
134,-75491.66,-63954.484,-66823.14,-7468.693,1536.7212,14987.435,30927.94140625
135,9335.987,16981.457,5691.7676,2097.3643,1650.927,-8445.423,18301.482421875
136,-4626731.5,-4624907.5,-4625232.0,-79.45468,-575.31384,-225.11964,2001.08020019531
137,349.28714,665.67676,257.00687,-562.59766,892.20575,-419.7129,2000.98291015625
138,11333.278,10541.204,11972.478,145.61754,55.733913,892.3304,2000.98559570313
139,-11235.175,-12180.34,8067.138,762.96686,-10955.931,-3681.0564,28181.7421875
140,-4236.577,11401.961,16163.754,2014.1431,187.96312,-4716.3936,20511.349609375
141,-10720.871,-27738.873,-24809.426,-7520.7876,-3224.8206,-11373.233,28935.744140625
142,34779.766,16687.547,5096.4004,-8390.645,5942.0034,-5764.9995,32988.3203125
143,-8978.36,-11104.434,-16041.253,-5135.506,14407.384,-4271.182,28212.6875
144,4260.883,7408.884,9877.5625,1866.0533,-15467.028,-5213.209,28869.390625
145,13606.067,8588.7,11605.047,-10839.368,13218.281,2333.144,30201.21484375
146,23529.863,28538.889,36063.64,2404.7705,15837.1045,1236.3088,29896.1484375
147,-92.48227,1725.0565,21958.977,-1687.8751,5655.746,16238.275,36674.8515625
148,8528.773,11822.174,42891.656,1925.3896,4418.723,6411.2925,35658.01953125
149,-5740.544,10383.041,6766.8433,-6953.7466,13752.392,12018.291,36885.0546875
150,11932.572,18057.357,9180.709,3696.6736,790.1833,947.5413,10368.3740234375
151,-4165.799,-3274.6135,-7045.1123,2684.5842,1727.232,641.7183,6592.19482421875
152,-18463.303,-22005.191,-19151.443,-7929.1313,-3978.819,9168.455,22335.380859375
153,1342.3024,551.59937,656.498,-891.41956,-339.91354,-489.95285,2000.9853515625
154,3425.6506,-1513.7355,-471.12912,2907.4014,-8457.342,748.42737,16184.9931640625
155,-904.9217,21539.62,14396.062,-1670.301,-2756.0735,-6172.7715,23236.197265625
156,-530.4985,13362.46,11372.972,2947.4902,-5427.047,6890.2397,20644.134765625
157,12396.115,29305.04,36758.43,-4.552012,5887.815,754.7632,23941.630859375
158,26349.803,26293.791,26608.428,413.32382,1062.9595,-75.88415,2000.98571777344
159,53432.98,51568.61,52875.97,-9.253741,578.35944,290.12738,2000.9853515625
160,-22890.29,-7650.5166,-31948.86,359.262,4481.5728,6790.8193,25521.466796875
161,27546.627,26210.9,30226.734,-3810.6646,-1234.0276,-6185.315,13245.880859375
162,91781.81,92321.4,92800.73,226.68541,-948.08795,352.2168,2000.62182617188
163,319138.6,319735.56,320677.72,576.92584,-578.89484,244.91803,1997.576171875
164,-1228407.9,-1228154.0,-1229278.6,940.563,273.35782,-56.493534,1982.78686523438
165,4994.725,13564.526,-9858.512,-1780.616,-9562.805,-7466.8706,29537.525390625
166,5544.498,-6700.503,21963.209,-3675.961,-6055.292,-7490.99,30650.34765625
167,5613.3325,7365.03,31162.799,-2899.9443,1088.3988,-779.8284,25331.716796875
168,282020.22,282385.97,281301.66,1009.4856,-77.36262,72.83121,2000.99255371094
169,186281.7,185974.34,186812.1,-687.5459,800.5525,-202.78116,2000.74401855469
170,487576.47,486287.38,488480.47,-176.11365,291.5712,-61.978462,2000.98291015625
171,18928.129,3876.4534,19020.496,1336.7616,-2003.5707,-1459.1538,15866.40625
172,4266.76,-6856.72,12946.445,7564.3486,12452.608,-4813.4263,31654.14453125
173,-17167.645,-13321.154,-15592.579,-6777.2734,-21351.197,1434.1852,39023.1171875
174,56985.95,56133.336,56187.52,657.7968,-426.90552,-701.2896,2000.98571777344
175,-4033.039,7258.2974,16696.16,1942.6273,18024.459,4633.9214,37061.00390625
176,-2585.5386,-10329.755,5588.9253,-8378.268,1807.9597,-12557.711,29725.076171875
177,8572.854,-6821.603,9480.219,-7127.737,9447.689,-4892.255,27272.21875
178,25501.23,17536.154,28998.44,13698.043,14601.817,-444.77472,36147.89453125
179,98846.23,128973.69,126570.586,-2489.7415,3260.9705,-4199.2056,30731.703125
180,5293.421,56.781338,17178.043,-698.75116,-140.26114,-4441.716,17076.662109375
181,89187.59,88787.04,89196.92,596.29614,943.11255,186.71037,2000.98498535156
182,-12429.88,-5731.998,-16768.316,-5706.923,-2773.4282,1351.4799,14798.7861328125
183,6031.724,9499.249,22060.281,13710.001,-10311.128,1669.9329,33235.15234375
184,135597.08,136715.44,136946.64,-600.1288,-659.3661,-137.13757,2000.98107910156
185,472394.56,474007.47,474192.84,-348.37695,-468.57596,-124.31986,2000.99450683594
186,23508.668,28076.623,9660.307,-4481.2783,14602.313,8741.672,34714.2734375
187,-13968.763,-3517.471,218.08992,-1210.5604,17787.75,1081.2896,33456.5625
188,11524.312,20822.578,25385.244,-3886.198,4769.976,6025.7944,19292.40234375
189,-8738.328,-6675.9766,20166.094,1277.0752,-7941.7334,-7800.2065,34010.93359375
190,7171.8574,19477.645,24328.732,7812.153,-14666.474,-2028.9403,32793.5546875
191,-1856.9368,8148.553,17971.494,-4874.9053,-14205.098,-12852.178,38302.31640625
192,13353.651,16246.375,-3585.31,-15192.816,-4911.9546,5222.576,34510.4140625
193,-50335.414,-54702.266,-89569.12,3814.001,-2703.0945,-1817.1394,38242.53125
194,-26258.273,-690.1494,17682.375,-493.51572,-5268.9395,4049.974,39928.08984375
195,17006.127,30295.787,6758.1978,2015.2386,9166.612,3103.531,26664.326171875
196,-1943.01,-23499.678,246.78427,-2942.8508,2473.9832,-5260.321,25378.052734375
197,-23169.11,561.28986,-44998.56,-1367.1085,-2104.1943,-1987.9171,39855.03125
198,43390.164,20863.953,17743.283,5730.762,-3047.5115,-7298.292,29557.533203125
199,-35866.44,-22032.883,-50563.734,8082.16,10569.335,7739.1357,36352.06640625
200,-46960.81,-36880.66,-76321.91,-5580.4355,2762.051,-3287.809,37528.48828125
201,173682.4,172538.95,192961.84,-587.0097,-2024.0398,-2430.2412,20641.984375
202,143233.02,147931.11,175188.98,5704.152,-2929.1787,-3076.4438,32324.4453125
203,-497608.0,-495187.75,-527206.75,-1491.0275,-1209.5084,151.42471,31059.732421875
204,271524.5,274486.88,295454.03,1214.4828,-1314.4982,-4276.1816,23978.65234375
205,-500206.72,-512319.47,-525635.94,-6566.152,2730.7957,5558.754,27014.07421875
206,241602.17,248020.5,255324.5,842.0973,-3728.922,-2380.7856,14222.138671875
207,-1409951.9,-1408007.8,-1423873.6,-2228.1228,9775.526,-3779.9338,23855.82421875
208,12955.088,13712.856,14521.611,-524.42615,-663.88104,71.91658,2000.98596191406
209,57195.51,56940.027,58674.07,-651.97876,65.997986,169.79225,2000.98486328125
210,222551.44,218916.56,222921.86,-5015.749,3378.353,-2157.002,11762.9482421875
211,621253.2,620331.56,621447.3,175.6653,967.9146,107.68444,2000.98132324219
212,376649.3,375860.38,375600.9,426.8867,-391.0197,837.4203,2000.91357421875
213,518966.1,517378.5,517772.94,-274.9144,717.5968,-246.64815,2000.9755859375
214,4148.059,4769.048,3539.3376,336.2809,-740.9011,542.7424,2000.98571777344
215,335449.44,334678.6,334501.34,853.54706,-565.8404,-178.45097,2000.98413085938
216,265890.12,276154.7,272319.0,1492.3901,-86.74082,962.536,9496.619140625
217,-424021.9,-426130.12,-425746.38,84.87436,-150.27434,208.51047,2000.65222167969
218,37315.52,37058.414,38073.39,-742.619,49.26471,-708.5252,2000.76953125
219,-150703.67,-140834.92,-135938.81,-4675.1797,-3295.8098,-9375.1045,23054.703125
220,-82576.1,-58028.58,-70118.49,-7753.0303,-6690.6353,-1799.372,27862.248046875
221,259754.38,258815.42,264931.44,-3141.2236,1153.2954,-16892.2,30367.3515625
222,-4059.9175,9902.197,-20670.496,7338.646,6111.2495,1740.3301,31392.13671875
223,16082.729,32043.307,45642.406,-6508.3584,2048.9514,-5273.3716,29661.779296875
224,2967.6643,25569.229,18010.213,-323.5458,-4504.0786,-713.95807,21443.583984375
225,-3302.5327,28796.953,11557.214,9450.528,-6391.7505,4734.4556,35099.07421875
226,57048.445,65999.53,84432.68,6820.181,-11694.617,8783.492,36961.94921875
227,-6253.2686,10330.6045,15908.611,-1563.8436,-3339.0156,10083.116,27284.345703125
228,1262.0396,10703.468,27891.363,-7718.935,1344.0654,7027.6694,29650.841796875
229,-1962.909,5403.8735,7730.0933,19001.408,9535.884,2647.3193,38128.7578125
230,16454.602,34116.42,38709.8,9067.143,-1890.2607,7346.571,28869.3828125
231,25130.338,9950.763,28547.46,-769.552,3728.01,8476.676,23515.9453125
232,37208.547,48483.08,54495.586,-13770.804,-6526.001,-4854.2417,31597.716796875
233,2251.7715,9637.916,31252.035,-193.7732,11571.498,-9243.122,36599.01171875
234,-19724.809,-15847.107,-2532.159,-15056.222,3360.3972,-8646.313,34382.81640625
235,-6570.009,-9900.745,19196.617,-8851.665,6832.21,6153.2017,35348.45703125
236,4327.862,-5050.628,-2609.1987,-9982.3955,5427.57,-6285.641,24018.0703125
237,-2099.6345,10374.895,23005.473,2769.1448,-5054.157,-7099.1777,26898.677734375
238,19871.494,21341.232,21831.822,298.0047,-418.08276,-174.44519,2000.98498535156
239,-21306.12,-25797.605,-44754.344,267.95038,-142.25371,-7733.9536,25384.908203125
240,34839.42,23944.068,15528.066,-12243.475,-3327.383,10189.003,32796.38671875
241,2055.585,8394.119,-5800.612,4233.54,-6013.883,-15656.179,32393.060546875
242,-42186.254,-21199.73,-26599.432,-13787.901,4619.3613,5909.737,33096.51171875
243,21886.697,-1677.3025,26930.793,-11024.882,5157.2417,4310.8438,34637.40234375
244,-7909.208,13307.255,-3438.0425,7863.021,7808.0947,-4701.061,28459.578125
245,5374.06,5837.1,-3050.3118,-4735.653,-8637.91,118.08672,19137.576171875
246,-2409.1787,2829.0713,7303.129,-7585.812,7425.7993,-64.68424,20222.916015625
247,9562.273,14071.466,31509.094,5286.5513,2370.0798,2232.206,22774.46484375
248,2307.8743,-1106.4287,-6818.987,119.060356,-10360.998,-4035.7341,20850.66015625
249,-18781.639,-34995.16,-3200.0457,-7368.847,-6801.7876,5475.0444,33910.4375
250,-4256.667,-6889.103,-22921.041,3929.212,4281.959,2848.5852,20780.296875
251,4816.2544,3705.6807,4822.044,-554.156,-420.27432,-661.55066,2000.98559570313
252,10476.808,-17369.348,4542.766,-4240.1016,-783.17957,-8077.4277,29948.13671875
253,-6622.121,6784.2666,-1714.305,2371.6829,-1016.1305,2109.7478,13089.9619140625
254,-23502.66,-23247.043,-25029.867,251.83499,-255.27061,-262.22253,1838.50915527344
255,-103.60631,10714.501,-2759.4111,1751.2977,6624.426,4797.245,19044.8515625
256,-15765.739,-16187.524,-15797.97,36.39449,-303.74152,-1089.0126,2000.98547363281
257,1535.0917,1095.3326,2911.5273,-98.74281,516.8428,400.02087,2000.98559570313
258,-2213.0325,19607.719,4543.59,3716.172,-6621.2266,-2753.53,23875.931640625
259,-14768.729,-10016.494,-18612.379,-492.6974,761.6072,2554.9634,8813.353515625
260,-10360.792,-13547.188,-361.49945,8576.488,3948.5632,-8967.155,25508.27734375
261,20551.068,10113.394,2118.1057,1895.5566,-6159.4336,1178.0656,19623.47265625
262,7275.676,-460.01566,14043.784,2463.9785,-12745.735,-3775.663,26577.171875
263,-7202.3687,14537.477,5720.7007,7104.7505,-8508.189,9035.574,31180.220703125
264,25960.432,7570.6924,21480.787,-5233.5947,13930.216,-2803.0972,31044.58984375
265,16056.338,21794.115,19655.918,-8985.665,-4296.61,7886.8354,22570.80078125
266,-21569.184,-6493.2134,-36960.996,9447.969,-11644.458,-1658.0984,37135.6953125
267,19558.86,44596.47,15121.834,1834.2131,9710.995,11850.226,38365.98046875
268,15766.988,3986.3877,6464.449,-3526.0942,-2341.4875,-2813.9885,13900.8486328125
269,19785.746,9968.345,1549.0487,7417.203,8593.64,15580.044,36942.2734375
270,-3815.2122,12818.445,23129.96,470.199,-6693.315,17186.836,39695.7265625
271,-32745.225,-40499.504,-41328.44,-10976.341,-3819.614,16993.791,36589.875
272,-11066.642,-4329.8477,28312.365,-1695.7355,-5555.485,-6856.841,39661.921875
273,-5019.5913,-24879.818,-38633.992,123.26337,-8986.545,-3443.097,33684.5859375
274,-6126.664,2858.1216,-25031.904,9194.676,-5445.915,-6757.074,32978.30078125
275,41892.508,23473.918,40346.06,12245.103,-2287.674,4318.719,28890.04296875
276,-25617.494,5759.717,12223.952,1364.3805,-5985.2275,-389.70972,36642.25
277,-433567.56,-436788.62,-458144.25,-4160.919,-5634.1655,-10919.584,32250.720703125
278,16186.473,13892.742,-21392.56,3515.5898,3203.2864,7472.7476,39580.75
279,-12289.91,8581.865,-2553.0754,5507.784,-2022.0575,-2608.8296,21234.48046875
280,-7542.6396,-18406.764,1977.2058,2877.7266,5363.201,-4916.109,22264.8046875
281,24078.223,15363.372,14065.572,-17386.637,-1866.7137,-12015.661,37939.56640625
282,10058.293,-19199.389,4184.2227,-10257.786,2230.7925,4025.2722,33133.9609375
283,-136666.61,-103732.69,-131860.62,148.04318,-1894.0011,-9331.446,34950.19140625
284,-6524.236,17697.672,14580.186,10018.525,1729.1885,14313.951,38021.81640625
285,27951.324,40471.098,19347.557,6792.2456,6805.269,10237.42,30499.8359375
286,-1174.318,-9633.474,-18998.25,6128.437,-11771.163,3119.9119,28214.005859375
287,-465639.53,-468258.75,-475759.22,341.79202,4315.8022,-151.71289,11792.3984375
288,27650.613,-3577.2476,21053.797,-3054.0044,-2748.7751,-6795.699,31652.57421875
289,-45290.1,-62275.42,-82822.16,8869.308,3843.6646,4368.504,37379.5234375
290,-20021.223,-3919.874,-19743.1,-4546.7744,13976.644,1457.7186,30154.37890625
291,-17448.346,-29554.227,-46392.125,5820.583,-102.68075,-3044.792,27629.4453125
292,221812.17,218879.39,258694.02,1142.1292,370.407,-1679.7563,38598.28515625
293,-27174.191,932.23737,-4023.2444,2003.8693,7765.0107,-9552.051,33792.0859375
294,4272.963,-797.08734,27385.326,9614.694,-1103.9336,8245.616,34088.4296875
295,14127.34,-232.03867,10628.392,5606.1973,-7563.3374,-9641.197,26701.12890625
296,-16420.201,-9932.334,-18632.95,-2158.5166,7533.449,-5570.7515,18403.279296875
297,44291.04,43963.965,45015.582,-302.16193,798.0864,-540.69855,1982.60314941406
298,71229.75,70082.37,71648.914,816.5362,-25.835758,97.68195,2000.98706054688
299,76962.78,77146.95,77119.93,-89.94269,-932.56635,-667.3632,1999.77563476563
300,21744.746,38168.527,48903.453,-7587.2554,6711.831,-7100.3496,31943.349609375
301,30243.576,12661.007,48853.074,4958.3228,-7370.1484,-3184.2034,35352.40625
302,29464.2,11543.4795,-10820.756,5587.3623,553.14624,6447.2495,37965.3671875
303,-10622.93,21920.121,-6815.963,5449.4077,-7318.646,10632.978,39225.109375
304,7803.523,-22319.729,8514.334,3562.6348,12032.101,1370.8691,37514.75390625
305,8444.529,25830.219,42969.773,-4795.315,5857.9253,10893.463,37708.66015625
306,-7342.156,16377.283,24957.973,-5464.395,-11875.858,-4327.099,37531.68359375
307,16002.777,21291.574,-11523.912,-7201.4326,990.7009,2118.651,33215.44140625
308,15075.821,13202.63,28429.066,-3683.8057,1879.5573,-2853.6428,16809.833984375
309,-7542.806,-5425.889,-4409.026,-8670.288,-324.81476,9248.539,22138.486328125
310,10541.105,19227.16,31246.814,-9007.719,4018.7751,-1822.6671,25023.1484375
311,1961.8376,11169.497,27041.924,-4246.5234,-3907.2502,-6317.7964,26504.814453125
312,14300.423,12602.362,18233.664,3134.1313,6473.8657,4026.5046,15128.517578125
313,14126.288,-10224.726,3733.6375,18299.688,-5612.096,2989.1562,39671.58984375
314,9311.628,16930.521,-1790.0144,1033.7036,-16951.6,-2074.438,33823.984375
315,-8528.435,18399.426,18018.145,-2088.3323,8914.336,909.7777,31127.96875
316,43198.496,21467.42,9121.454,-12145.577,-2483.2766,-2890.936,37135.84765625
317,39579.7,16919.107,50979.543,1952.2365,-12794.471,-6735.4136,39248.08984375
318,24540.584,27089.611,45213.14,11801.316,-10978.239,247.95596,34069.34375
319,238801.98,239535.06,262099.19,2987.1438,-2853.1182,1558.3625,24180.443359375
320,-69209.31,-69583.1,-68113.3,675.5472,-526.89795,130.57568,2000.93811035156
321,-435403.25,-434207.4,-435004.6,445.01694,-778.70544,399.35098,2000.98693847656
322,263310.7,263952.88,262097.73,579.1808,-330.23077,51.351837,2001.00549316406
323,494036.28,492535.03,492015.6,200.55977,-370.4697,-91.23793,1964.88208007813
324,196434.17,197641.81,197022.77,655.6735,73.73825,673.75104,1939.55810546875
325,13662.301,13186.563,14600.491,135.48987,838.0835,-226.34412,1966.92114257813
326,39425.57,41047.805,39590.59,424.6356,-516.83545,-300.2569,2000.98498535156
327,2429.689,17865.836,33157.16,3104.927,-5842.6826,-3084.8638,29462.1796875
328,-21804.945,1289.3063,2110.8564,-9459.302,1929.8523,2693.9294,29229.6484375
329,-43646.793,-20156.07,-4256.9316,-1904.7117,-5675.864,2628.186,36143.203125
330,-9433.284,12163.285,-12349.84,3575.9119,-8530.538,-4465.2715,29230.005859375
331,-20383.322,9005.042,-14085.712,1231.3319,10583.069,-9370.164,36362.23046875
332,-3424.0002,10793.151,1545.2986,-1799.8916,-684.68353,-4446.532,15053.64453125
333,2202.8757,3459.6213,3705.192,-448.6656,-695.44977,15.851179,2000.98522949219
334,1558.3746,2198.7556,2185.3528,-687.5724,-554.3654,-648.5954,2000.98547363281
335,-10435.087,2396.936,-3131.8914,3291.3848,10840.91,1492.0155,22716.44140625
336,-2730.79,662.19165,19950.262,-4212.8086,2345.5679,2175.1023,23085.224609375
337,-7064.937,-18323.846,-6237.825,1105.361,1273.1152,7159.7183,17293.703125
338,461.18796,-8349.281,13123.833,-5911.656,7217.4146,-12825.645,33228.578125
339,-36440.934,-17241.398,-22688.469,-6655.6895,6471.7207,8359.408,27602.44140625
340,-28797.607,9476.217,-12067.352,5317.2085,2301.5376,-4579.446,35610.10546875
341,13183.614,6191.581,17292.686,-3190.8203,4794.2915,5433.152,16809.546875
342,-1031.958,-8484.413,11523.921,6459.2856,6127.709,12106.053,31372.669921875
343,945418.06,947328.1,962585.3,7370.877,1253.4702,-7347.702,24397.572265625
344,-16822.258,-4028.641,4351.5244,-6253.8677,-17631.91,8468.085,40077.76171875
345,-1985.1964,2612.3403,-5979.6157,-670.46075,3325.1184,-337.66702,9503.529296875
346,-6710.9116,5053.4365,2549.977,17495.68,-1746.5253,11310.856,37768.62890625
347,4254.976,135.03452,-4293.7676,-12684.615,7467.1953,7066.1094,29233.537109375
348,13007.121,-12639.027,8764.275,3030.4536,5683.6016,-2777.1584,26730.37109375
349,1426.3988,2226.9607,12990.656,14249.273,-9090.706,11312.671,36960.69140625
350,-1131721.2,-1131013.0,-1129784.2,-479.3543,129.61002,-333.26038,1988.62561035156
351,-13149.872,492.43478,-9696.089,5252.1167,-4008.6506,9950.337,24060.615234375
352,-15769.738,27183.146,7051.129,3371.0908,6611.5044,2558.8389,39628.171875
353,2658.2878,39913.94,19599.51,-6170.4443,465.99896,-4202.5996,34809.375
354,-13734.836,-16968.904,17280.105,2092.66,295.10272,10375.805,37537.4609375
355,16937.28,19629.758,-12546.313,5382.988,-891.81647,12745.371,39147.98828125
356,-5501.0024,-18057.734,-38007.285,3066.7144,12203.662,-5153.0186,36889.30078125
357,38958.637,11108.403,16627.096,-9812.893,-6750.946,-5106.7915,34003.484375
358,-14727.291,-28462.53,-20362.84,2350.9634,-3192.1653,4572.3193,15902.1923828125
359,15445.775,20253.752,31392.045,877.8501,-2647.2966,-5323.207,17580.58203125
360,-4171.9824,-4407.6016,-10763.129,-1744.0679,-195.19702,-390.4775,7186.29052734375
361,1315.9773,-674.20435,2781.993,-176.2985,152.26962,-1807.2155,4357.5849609375
362,-11770.738,-18267.756,-25556.723,-1839.8038,1873.1378,169.04391,12785.26953125
363,-40521.44,-42185.035,-55876.668,-883.1099,3090.5583,-17162.639,33580.7734375
364,-841.15967,4011.2102,2360.426,-523.004,4730.1816,1995.3176,9907.001953125
365,1095894.1,1094839.6,1062452.6,-869.8807,-517.2712,-3943.1746,33673.4375
366,597243.6,594620.6,634920.2,108.91329,-142.10782,-1426.0327,39133.4375
367,55357.008,46007.06,87023.96,4960.796,1561.8544,-3620.4634,38817.16015625
368,-30087.117,-35432.63,-66297.82,4068.8547,4795.7246,8642.431,38587.0859375
369,-1499.6299,-29836.105,-3551.1763,-12001.157,-2828.0796,-9677.562,38549.6328125
370,15946.924,11177.323,29706.291,704.0759,3722.7207,-4351.497,19431.048828125
371,-3519.6013,558.2446,-7263.7393,2304.1306,-1042.7772,-521.0154,8119.05126953125
372,1833.4287,-1727.0436,4735.0063,94.77271,2535.8645,-107.15952,7126.03125
373,-313.96167,-1403.163,-904.9554,-2485.2905,1558.9329,452.41705,5227.5029296875
374,-3772.101,-491.50342,-2897.9685,142.05305,4983.3457,-2984.028,10484.9306640625
375,-22167.908,-12043.201,-11756.597,3034.0215,-1368.4984,4777.969,14394.95703125
376,-6972.951,-21132.5,-47478.785,2057.3665,478.20825,1176.4218,35849.7890625
377,2666.9114,3779.053,7549.1523,666.66296,1213.3042,1559.872,5717.7470703125
378,-6797.122,-3925.893,-11665.972,189.38281,5815.163,2134.5393,12694.642578125
379,-942.5686,4091.4666,8973.788,-4326.161,-2970.9119,-996.8239,12623.9169921875
380,11606.649,14308.072,15248.342,-2528.307,-3552.5234,1782.9875,8791.8857421875
381,-16600.479,-22874.803,-3830.6836,-7256.782,-8806.59,3367.4016,26593.712890625
382,14890.698,19945.143,-14679.033,-6800.2593,-2158.535,728.7691,34694.046875
383,-10223.38,-3546.7188,27428.688,-169.0238,-7038.839,-4496.1025,37685.96875
384,3019.807,617.3544,1658.8195,1677.8024,1136.9106,-1026.327,4453.892578125
385,-14633.829,5777.3643,112.71265,3777.3167,834.48035,735.4501,19483.298828125
386,-362961.06,-363494.28,-401319.16,-240.42043,-764.101,-597.44464,38133.58203125
387,726550.5,729141.44,743730.94,-543.7255,-1967.838,31.886913,16427.84375
388,-7395884.0,-7395122.5,-7395665.5,-119.38479,-908.57434,583.0203,2000.06372070313
389,2780511.0,2790331.8,2770645.5,-4473.82,-6047.8623,-8545.16,26067.1484375
390,14560.545,14432.049,17966.127,-1402.249,-145.81078,-100.66727,4247.9638671875
391,-1910399.4,-1907930.1,-1943391.6,-375.55188,-581.7524,-1794.3475,34455.03515625
392,254854.27,254724.1,294769.56,-307.12354,-9.905586,-1798.9594,40105.30859375
393,-163204.06,-156934.95,-199737.75,1375.651,-209.71959,607.99603,40124.35546875
394,33019.668,53599.715,66942.734,-9184.481,2666.3523,-8517.923,36989.6171875
395,37750.824,52481.094,57414.71,12817.361,-1795.7047,-3154.7544,29092.6171875
396,35084.473,18238.309,21802.889,-3488.1465,187.32544,-3176.908,17416.513671875
397,-3945.5376,-13784.193,-8699.786,-2576.0981,5493.106,-1692.2782,13843.7529296875
398,1928.7451,-10953.365,-11364.748,-4398.2666,-1034.1332,981.26587,15347.5947265625
399,12872.866,12285.549,13470.745,-6158.5674,1214.8429,-3224.3606,12265.986328125
400,-1798.8494,3353.7615,6517.5728,1012.88257,-1868.3787,4625.732,11428.1884765625
401,-7040.935,-3945.755,-24596.236,-1033.4138,751.17957,262.6134,19421.87109375
402,12896.928,1379.2241,11978.799,-4186.921,5087.0737,-8874.745,22123.17578125
403,-32971.434,-22186.695,-1226.2402,1036.3853,-1942.9854,435.74432,28228.03125
404,-8544.826,-3943.566,735.2041,999.20685,5834.4136,2698.4724,13840.2451171875
405,-8007.441,-12147.031,-20268.018,-6066.031,-10444.985,-4555.268,24832.21484375
406,2772764.8,2767198.0,2786948.0,-448.4098,1809.161,-7717.143,22365.0
407,-140319.5,-133335.8,-175946.75,-3496.8892,275.45517,833.40753,40073.421875
408,-959966.75,-960700.56,-960330.1,95.59439,-932.2798,567.2214,2000.98608398438
409,-68999.41,-63980.094,-103469.15,6435.951,1351.1982,1797.8636,39061.61328125
410,11405.379,35450.88,20959.201,-4.674335,5412.904,-10043.207,28813.744140625
411,7115.7256,10602.443,7165.932,-2366.5405,-5163.549,3045.3618,11687.412109375
412,16486.385,10696.104,36347.62,6751.7383,6474.319,4807.6323,29577.802734375
413,5252.2817,7157.0454,13478.0,1365.9081,-3302.1438,-4258.4727,12179.3212890625
414,11541.185,37168.336,6195.4385,10862.856,6550.395,9636.159,39794.70703125
415,8463.682,12750.232,25413.936,-1228.3235,-2646.602,-7544.938,20720.65625
416,7166.1045,-6994.675,-27579.922,-10643.145,769.6988,6009.0293,36955.5859375
417,-3202.2446,7203.724,14471.621,14984.329,-811.1517,-4085.5913,31022.19140625
418,-19459.266,-19922.574,-37587.37,-294.17697,2097.1504,41.396446,18273.009765625
419,-1120236.2,-1120377.1,-1121600.2,-243.14656,-609.30707,584.40436,2000.97473144531
420,-17307.3,-17027.791,-31735.312,-443.11,-884.7699,-1894.4231,15032.7119140625
421,-2059.6138,1574.476,3006.7168,-832.0219,-5282.715,-6391.9263,15127.16015625
422,-622278.7,-619309.7,-657752.75,900.98193,52.66927,-1249.7137,37143.984375
423,10781.7295,11158.247,-1596.9731,-3548.6448,3052.8835,2574.2686,15609.4306640625
424,16495.682,13468.512,19475.008,1036.492,-2536.3306,-759.88306,7163.3232421875
425,-56964.32,-51576.223,-37165.188,-18422.797,-2981.711,7312.7837,38982.79296875
426,131102.58,135947.5,171861.53,2942.2742,-493.59256,-1183.3293,38964.01171875
427,-1454579.9,-1453461.5,-1489824.5,270.81375,-248.38841,-469.19672,35831.78125
428,-28709.996,-20799.887,-32144.223,1112.0184,5850.683,3604.6838,15713.412109375
429,-24774.742,-29560.498,3642.9844,3804.7815,-5805.4766,5334.439,34588.71875
430,-6085.139,5042.03,-15903.537,114.45907,4536.2324,7809.442,23962.458984375
431,-9846.172,-12322.305,-20932.559,-2792.4314,3079.3918,-2996.2412,13429.8623046875
432,-7127.3047,-29629.975,-48676.918,-5594.9966,3507.8853,624.6555,37812.1875
433,43042.29,24597.188,32868.87,6239.37,-3177.7632,-4464.4487,21516.23046875
434,-6801.086,-18890.639,-23517.36,-3537.8384,-2696.4246,-8346.793,22178.068359375
435,-10214.034,-10315.203,-4410.242,3302.8525,-1120.084,3403.962,10272.9033203125
436,-792403.7,-786525.3,-825650.3,2419.2163,473.1101,-604.1334,36805.62109375
437,16451.912,4490.3984,26888.678,1556.0048,1638.1387,-774.09216,19848.298828125
438,12370.742,3103.9062,39039.383,421.9888,635.4758,-4441.2217,33243.69921875
439,-2609.4473,-7253.018,-9472.124,-3670.0645,-4502.118,-4313.623,13922.251953125
440,5539.337,7987.976,2561.9639,-1427.6592,1546.4008,1115.3159,6258.720703125
441,21096.814,14813.814,16744.473,2989.6365,-5662.7505,-3000.1167,13456.943359375
442,2774.6228,1979.1368,609.3054,-1000.81146,585.9272,-1224.2784,3482.85717773438
443,-305645.4,-307914.2,-346225.44,68.47815,1756.6709,1767.047,39729.81640625
444,2487783.8,2482324.0,2499227.5,960.862,-11042.149,5519.2715,26137.947265625
445,35714.03,27097.713,41039.7,-8020.3057,420.99368,-4189.426,19865.87109375
446,26636.863,26436.984,43146.457,-309.6879,1813.5089,3643.4148,18052.26171875
447,-6579.6694,-2524.239,-1877.5259,-2167.7126,-2223.0537,-1367.3984,7349.8046875
448,10631.121,11610.188,13621.728,2310.1467,705.9587,2740.614,6856.57763671875
449,11771.947,7577.351,27499.96,-3539.5051,-5544.6113,-5786.5234,23689.6953125
450,15636.861,10437.947,10379.144,-4091.567,8446.146,-4600.969,18843.5546875
451,6432.009,12178.171,12695.121,-326.21613,-3029.2947,-740.8192,8108.73974609375
452,1037476.56,1035139.9,1064595.4,-1073.5776,8224.986,4898.349,32903.625
453,391533.25,391721.84,429682.84,-109.64309,366.53006,583.163,38074.81640625
454,-69102.07,-73381.78,-89350.9,-11122.482,-2148.6604,11321.204,33334.06640625
455,28070.613,29763.207,45887.332,-1701.5156,-772.8359,253.4662,17343.986328125
456,3133.4136,5019.9775,11298.347,809.94116,1298.5751,767.02844,7975.806640625
457,5226.923,2995.3428,8513.322,-425.76178,3277.4775,2269.577,8446.09765625
458,3455.9653,13807.568,-11043.135,-3140.693,5893.2534,6169.2715,26747.55078125
459,-35867.465,-22052.105,-38073.844,-7866.477,2085.1025,-5186.0664,22485.26953125
460,32.21277,-1443.3201,4139.6387,-2334.1018,-4085.6868,1832.4701,10079.94140625
461,431723.53,431881.28,471137.2,-451.29062,-503.7208,-205.99878,39354.07421875
462,623082.8,622381.06,660085.7,-606.71344,-636.8031,-505.32956,37399.984375
463,9199.79,8400.557,2010.3071,-228.31924,-2052.661,-4379.237,10812.5458984375
464,-76191.414,-67478.72,-104871.65,-4313.8853,-1432.3164,-1794.8698,34928.45703125
465,-10621.638,-34657.152,8400.764,-6802.1733,-1477.0171,-1901.0034,39407.6875
466,-19079.516,-15315.208,-34471.723,-2092.673,-523.1967,2083.2146,18330.560546875
467,1620.9756,-970.38513,5273.75,-930.57837,-1179.5007,2279.5437,7203.06298828125
468,17452.676,14854.194,23744.309,3095.1638,-2322.925,2395.2844,11172.5400390625
469,99105.15,99236.69,62118.574,255.97006,-1933.7041,-39.005898,37206.2890625
470,-31781.67,-18382.523,-23532.625,-9161.666,-2868.0063,-4223.6035,21611.455078125
471,-14706.452,-30319.682,-10752.298,14993.099,2349.464,6492.208,33742.12109375
472,-8840.061,-7891.1133,-6380.901,-2994.6985,-487.47998,1412.3701,6181.9326171875
473,3362.91,2556.677,-1056.0845,-1489.4042,-302.3247,-2434.6858,6428.611328125
474,1397.05,3347.0159,1048.9213,-237.568,-3608.5745,2352.6794,7774.474609375
475,2105782.8,2104383.2,2077233.6,417.61966,-1076.9147,1251.5074,28031.373046875
476,17256.53,14924.223,31741.262,-703.7329,2629.0637,-2949.0867,17243.634765625
477,2177086.8,2182925.8,2164431.0,-2437.1738,-7177.8013,-9897.918,27100.685546875
478,-1951.5752,4170.4014,5105.9316,-47.606976,703.637,812.0596,6895.7626953125
479,10891.883,22845.596,31917.738,13821.76,-8.2632675,5129.4624,31395.83203125
480,-49836.055,-45136.79,-48149.11,-2521.2234,353.13412,-236.91705,6050.923828125
481,875.374,-4992.117,-10327.746,223.46794,-101.18913,127.11486,9717.62109375
482,5419.098,2168.7554,16294.342,6596.7925,-2118.146,-4011.2478,18880.330078125
483,1616.2686,12867.289,2715.0188,8787.664,-3712.61,-2324.8667,20116.291015625
484,-1592.415,-17315.398,-6327.021,-6036.12,7512.37,4574.8003,23164.2890625
485,-5357.3013,-12796.091,-19791.252,6217.6836,3685.115,421.4837,17707.494140625
486,-610.23,-4262.8784,-4893.8843,-120.54729,2222.842,1679.2909,6274.677734375
487,-306004.5,-305807.7,-345684.44,-884.0109,2674.0994,222.91426,40078.5703125
488,-1298310.6,-1297665.9,-1334377.2,-590.0806,1060.942,-102.18794,36454.40625
489,-22693.453,-26998.996,-38146.004,3247.7678,-1107.5715,2813.5286,15806.9404296875
490,-9577.42,-6531.37,-3036.2126,-2179.6362,305.98523,2176.7576,7803.1474609375
491,888.78357,2746.9502,1045.1798,-4400.5156,-16.79659,149.71454,7832.517578125
492,6185.014,6921.9756,1577.3469,-929.2212,-307.43344,1957.7971,6288.25830078125
493,-17412.582,-24673.033,-41245.99,-1218.6704,4142.756,-1167.8048,22533.044921875
494,727.0778,7585.7344,-4180.7676,-1298.6702,-785.3963,-1624.1804,10936.791015625
495,597.5835,7952.938,10836.916,15.41917,-1663.7019,389.40103,9612.001953125
496,-43422.125,-36866.246,-54969.01,-1871.7618,-3744.792,2681.0615,18059.76953125
497,-12709.244,-18179.41,-28566.516,-1726.4364,-694.1233,106.27882,14319.7392578125
498,-2082827.4,-2083630.9,-2118037.0,1206.4036,439.35315,-459.17755,34894.84765625
499,19838.645,22937.965,16414.025,5530.634,954.60834,194.78479,11249.8525390625
500,24853.594,36570.1,1997.6602,-9314.617,4481.9517,-8302.809,38142.125
501,20071.484,22240.979,30840.842,9156.623,2887.0818,5583.2964,21618.93359375
502,-8466.185,-6254.789,-11754.799,473.17273,-135.97183,-1379.1484,5423.1884765625
503,-6647.173,2463.8813,-1691.1589,-1201.6748,-2651.839,-2277.2498,10168.83984375
504,143747.28,142152.75,180765.78,1103.0321,-228.063,-238.97545,37893.48828125
505,-3552.8977,-1798.4756,-10196.852,-1699.0029,836.20886,2188.535,9165.3173828125
506,-11757.041,-14197.878,-16037.339,-5113.7954,-2049.4023,-1046.8461,10400.5595703125
507,13050.644,11589.411,23655.207,-127.35669,843.01245,1213.3611,11691.2412109375
508,9023.906,-3996.4868,-4785.327,5310.056,-1526.268,-2355.7502,16989.736328125
509,13521.131,-3917.7544,-14577.31,-1670.7019,-3189.2993,6647.9775,27840.744140625
510,-27281.936,-24230.426,-32164.172,838.0626,-5695.046,-4638.673,14560.4150390625
511,-3501.5652,5759.591,2442.1003,-1322.8746,1723.9403,-1109.0377,9160.0634765625
512,43852.93,23168.713,24484.682,-15592.838,7572.8877,-4443.9575,36919.515625
513,-10033.393,-4129.428,-12110.428,733.75604,-281.65195,1088.017,7539.10693359375
514,17654.367,16034.706,21869.018,780.5875,-929.60767,-1146.2148,5964.45947265625
515,340.18896,112.603516,14397.743,1725.2394,585.1257,394.30954,14535.7763671875
516,-1536106.2,-1537397.5,-1573521.2,625.66974,836.8259,-183.41121,36832.234375
517,6933.0063,7203.9136,14306.03,-1432.2179,-373.27002,713.4231,7780.49658203125
518,-646.0928,-80.25049,-5728.284,-1950.716,2103.3853,-1269.7618,7651.79833984375
519,-4655.914,-7789.9067,-18471.238,-282.3471,443.5382,-480.94193,12606.0
520,333131.72,332855.0,372180.47,86.81336,-612.3481,88.959145,39202.78515625
521,-1298.8691,-3240.8018,-7881.3223,-942.0151,-395.48682,935.5683,6330.43310546875
522,8285.893,10128.646,8429.579,-5330.0005,-188.4472,851.9309,9521.6708984375
523,7754.9414,9515.412,17083.611,1742.7914,-782.72144,-1465.1399,9544.125
524,-3562.417,-2069.2102,4424.998,-435.70163,-2446.0605,2004.4857,9201.8818359375
525,-22668.17,-18812.879,-18763.266,7174.331,-3479.1614,2910.5217,15205.169921875
526,-21310.281,-27336.672,-5912.324,3145.5146,-150.75365,2055.0315,20214.57421875
527,15954.169,22856.55,35668.516,-3135.0825,931.54803,1805.7103,18495.775390625
528,618.8508,2593.0073,9110.366,264.25247,-2657.6123,759.46027,9075.6865234375
529,-17637.844,-12372.114,-39890.805,4054.3254,89.69613,-2065.5525,26499.74609375
530,7747.3574,3728.7368,19586.959,2594.3164,-2632.481,6585.988,19365.208984375
531,11145.265,4936.86,16004.371,-291.97098,810.21875,156.80713,9727.3515625
532,-1503.9219,1187.7224,14118.851,4386.873,-590.2839,-668.91425,16413.001953125
533,3067.7954,-6188.6123,-5414.63,2523.0044,-616.84814,-917.44666,10093.5185546875
534,3211.9087,-2284.3354,2270.7168,-2157.0488,-2503.758,1524.3754,8102.9423828125
535,-16626.186,-6912.2363,-5052.63,-925.01245,-2243.6711,1166.6617,11731.8154296875
536,8292.903,16994.598,24924.96,4893.5967,1012.4375,-1422.9537,16988.498046875
537,1333.254,3291.7483,3909.7744,481.2904,947.22314,-2023.7554,4593.62939453125
538,-21554.244,-20961.309,-52371.312,1810.8506,102.31921,-1719.2369,31417.38671875
539,321.4392,6389.162,2935.5815,-2567.3406,-1856.1766,-2155.0037,8475.32421875
540,1289.6396,-8861.478,-14265.4375,1403.1324,10603.62,7240.1943,26221.78515625
541,8060.3584,14282.27,28376.73,2838.4536,-3216.7227,-777.6665,19547.048828125
542,6052.146,-5126.2886,-3041.0747,3103.632,-928.3161,-516.2083,11759.18359375
543,106936.6,108709.695,144749.28,1668.1422,357.34872,456.6983,37084.41796875
544,-1131.742,-3740.7798,-9917.015,-5329.6997,-263.78012,-2202.7693,12690.5234375
545,-2135.4648,-13992.367,21434.672,3568.4875,213.82706,1084.1945,31897.83984375
546,6214.0093,-6929.534,-6462.9727,-4698.2446,-1242.6528,557.672,15447.4658203125
547,1832.812,4764.6255,2632.6077,1647.8007,2599.7268,-3084.4016,7990.771484375
548,9742.654,10641.474,12723.46,1550.6398,-1096.9165,16.527723,4223.484375
549,-2811.9495,-8725.351,-7028.0405,40.06843,207.99178,2705.4097,7064.3203125
550,-9399.534,-4357.0474,-11872.301,-1883.9293,249.56743,262.02756,7419.60498046875
551,-13289.031,-3345.64,4074.7295,-5542.6113,-4528.422,-2634.5427,20055.43359375
552,-17334.785,-2121.6138,9233.069,-2368.856,495.37964,3001.9128,24035.70703125
553,10941.234,10435.548,18666.488,-2212.9783,953.6598,3977.4814,11345.62109375
554,-10859.07,-11399.537,-13821.899,-2568.8508,1025.8961,-4207.2104,9139.22265625
555,5840.552,7988.1333,9080.743,816.4797,-1741.0543,1576.0309,5166.98388671875
556,-6228.05,-3974.7827,-19410.47,3111.3843,-3287.9358,-1392.4146,16608.646484375
557,6775.261,6831.07,3947.9219,966.4766,3621.695,-760.45685,7214.0068359375
558,10853.856,10248.877,27854.158,-2424.3596,-621.12805,1365.2719,18001.193359375
559,-11252.886,-13584.695,-6651.6963,-1980.8441,-2122.3635,-970.59283,8089.99609375
560,7437.912,5169.7583,11068.206,-1004.802,1337.6761,1835.0841,6712.46875
561,-10355.505,-14196.103,-23215.645,-43.68553,1522.7247,-673.04,11792.5185546875
562,6054.575,693.25586,11243.587,-1604.6848,1125.1072,-2103.7952,10406.2490234375
563,-15771.532,-9488.611,-23306.752,-795.3348,1590.6707,-673.74475,12427.7109375
564,3958.446,-1291.6338,-2468.5586,860.5969,-1659.0717,-294.73337,6772.55322265625
565,-5437.087,-5103.7446,-7653.0093,2175.8909,-3237.1477,-294.86884,7187.615234375
566,-10334.408,-6988.4326,-24835.57,8680.409,1549.1888,-132.018,22434.361328125
567,9747.729,10772.425,16217.155,947.57416,-1174.0463,-932.11646,6760.8916015625
568,-9959.219,-9532.975,-19207.26,-754.99084,1347.0199,-55.000607,9839.3271484375
569,-8070.579,11145.614,406.68134,-3684.9026,2484.997,307.66736,18378.533203125
570,-5918.727,-6561.3984,-22198.068,1164.1765,-1812.5847,-964.7868,16482.79296875
571,12392.685,5798.5996,33840.06,3254.656,3982.996,5433.94,28510.556640625
572,13900.986,-19278.877,-27964.418,2916.3804,-1203.4937,1864.8915,38792.02734375
573,317.886,3724.764,-10725.558,-3077.8562,271.25812,2598.4072,14835.216796875
574,3978.4304,7196.566,11685.302,-8139.3716,-1642.5255,-4171.0186,17435.150390625
575,-27778.65,-24627.21,-43482.37,-1227.3256,-5636.8735,2628.545,20654.236328125
576,-977343.75,-978387.8,-1013819.0,3794.088,984.96027,-486.31564,36609.51953125
577,378991.22,380128.38,418255.38,-865.01495,-774.31866,-1129.2449,38809.62109375
