Element Label,S11,S22,S33,S12,S13,S23,Mises
1,-9092.472,29.916443,10146.367,-6903.468,6950.562,-4811.664,25203.326171875
2,-3183.2798,8885.479,472.08826,-4687.8657,-5540.172,-3350.0105,17509.3515625
3,14081.461,765.7002,5955.4385,4693.73,3911.649,286.1738,15728.3037109375
4,-5961.7544,-2566.1123,-11011.857,-1228.9238,4367.2847,-829.19617,10862.5625
5,252.40674,3034.5864,13862.395,-2965.734,3804.4375,1465.9486,15210.5830078125
6,18128.012,-4221.525,-15869.851,7196.7065,3150.3845,-5531.446,34241.25
7,10499.186,6361.106,10087.914,1863.1757,-5392.697,549.8678,10684.3740234375
8,-3102.5247,-4834.384,-10944.608,2402.7112,-3466.2053,2048.0537,10810.30078125
9,13994.545,-7476.458,17960.268,3689.0432,-10086.573,5385.3164,31542.4765625
10,-17046.24,-22480.121,-15244.394,-1930.777,2213.2803,-2086.5732,9028.0458984375
11,4041.6318,7208.965,4955.0835,-1921.8314,-5493.346,1309.2527,10711.044921875
12,-2406.8804,-8388.612,-1625.7761,-251.11058,-3224.463,592.99536,8573.1669921875
13,1980.2383,9424.583,10755.609,-19.561863,-2377.4287,2569.1077,10191.03125
14,-20536.287,-109.20996,-21541.904,-5682.547,2118.7627,417.63263,23445.326171875
15,10931.514,16736.66,9559.222,-1901.2406,-2760.1555,1099.1565,8992.9541015625
16,15502.057,20447.715,33776.61,-1711.5332,-792.11444,15273.144,31281.244140625
17,-5631.8247,2433.1467,3664.134,-739.7356,1703.3419,3551.6501,11165.8125
18,-1603.3179,-2532.3674,-2441.2434,153.42636,-248.07152,-677.45575,1555.2666015625
19,4094.9731,4428.5874,10057.149,701.73816,5619.3223,-7175.6465,16862.595703125
20,14746.463,2293.163,-2259.1538,-6862.725,-10279.777,5225.201,27797.845703125
21,108777.29,108633.734,107808.7,913.4233,464.0046,-108.44459,2000.98205566406
22,-61.553864,-4938.6963,8871.69,-343.56122,5927.9062,-91.51448,15904.638671875
23,2691.215,6398.012,2169.5688,-840.56525,1184.6908,-1342.3551,5261.3662109375
24,-6151.38,-2350.22,12699.627,1810.4915,-11646.305,-517.7022,26752.580078125
25,-26556.234,-29186.297,-32340.72,-2553.9165,-6518.8823,-5511.249,16227.76953125
26,14393.101,26676.111,33449.703,2791.0862,-12545.323,-617.7684,27867.98828125
27,8631.413,-18515.812,-7231.43,-575.8012,-1578.4524,5603.882,25703.095703125
28,3793.0183,-198.0459,13020.234,1877.4308,-9305.851,12575.123,29709.736328125
29,-5559.3506,4016.1494,13891.159,-1171.3568,-19008.174,2793.077,37352.59375
30,-4528.403,17994.004,-1844.7213,406.34583,-2472.505,-5140.175,23497.177734375
31,-13887.079,8811.475,-2518.9185,-2399.2524,-5790.416,-7329.297,25795.9375
32,387.7282,11687.054,9256.405,4683.915,-12683.543,13360.917,34497.7421875
33,7468.6504,4043.9465,33270.34,8801.345,-8994.141,4546.205,36095.671875
34,-4933.196,14291.027,-10714.07,-1902.2937,-4066.0813,-5373.9854,25714.12890625
35,8448.913,7769.2856,14890.18,3257.9258,-15208.204,-8331.257,31309.259765625
36,-30604.719,-2462.7256,-13603.104,-2609.4792,1837.1648,-16916.85,38622.01953125
37,23369.646,20642.984,39312.05,-883.81885,-2701.0725,182.98892,18149.26171875
38,-11161.06,-10919.623,11909.442,3000.1836,13078.122,-1613.3829,32782.015625
39,-7725.9717,-7078.9,-6469.3823,-845.30853,466.61145,-86.59845,2000.98254394531
40,4423.044,6030.7393,5002.443,-307.56723,534.3601,-539.94977,2000.9853515625
41,-4461483.0,-4459843.5,-4460512.5,148.89789,601.5258,520.84937,2001.13989257813
42,-188958.48,-190431.56,-188786.8,-589.0658,-0.27948025,-412.05338,2000.67590332031
43,20723.639,21613.205,19975.35,-627.6716,-431.5298,286.62213,2000.98559570313
44,15063.124,12568.896,13854.106,-2276.796,-3599.034,-5637.6523,12426.875
45,-491.5671,1464.3918,-3856.4514,-2595.1343,-10110.123,-6960.8823,22224.748046875
46,24875.127,9190.426,34586.0,5448.444,-2458.0847,-4671.611,25792.984375
47,22022.354,21667.502,-3082.7656,-2720.4792,-1046.9792,-589.07495,25456.17578125
48,2127.9915,5916.6045,8701.233,-242.12769,-6480.8286,-8512.811,19396.92578125
49,9580.667,952.6057,10074.037,-2637.32,-4583.7183,-8548.355,19546.474609375
50,7061.047,6227.295,22102.51,1991.1326,4414.2646,-7706.395,22090.681640625
51,7219.412,2548.7505,8628.742,-6028.1157,1488.57,-7526.7603,17776.451171875
52,8036.2886,907.0388,18060.316,2461.7822,-3904.8037,-8315.391,22229.078125
53,13490.825,-1679.6824,13142.424,4506.3677,2129.4597,-11431.339,26297.0078125
54,-25614.615,-7267.9214,-19887.758,153.10205,8573.693,-6337.0464,24604.84765625
55,13637.778,9811.421,30692.164,-4010.2058,-4548.3516,-3483.0195,22747.5546875
56,13917.49,19984.86,12111.044,-7596.085,-7155.216,-3066.8972,20148.126953125
57,35166.152,22779.076,41287.152,-931.3021,2351.7957,-7565.0747,21391.90234375
58,-3934.4827,11348.516,14243.537,948.698,4813.467,-9288.687,24844.3828125
59,4682.6055,8721.892,6239.7715,5368.373,8182.3457,-7526.0186,21672.201171875
60,-7034.293,-16515.088,-6390.3926,6965.018,-7022.809,5865.464,22206.07421875
61,2835.7336,-5035.9736,6548.984,4072.562,2031.0787,11178.912,23281.30078125
62,7403.5195,536.01886,-824.5508,1509.157,-3479.1091,-4779.8506,13040.0771484375
63,5665.4404,17234.818,23252.152,1584.6525,6472.2173,-4850.936,21058.787109375
64,2010.379,-5689.874,8612.792,-7926.7793,13067.065,-598.9477,29249.755859375
65,8352.658,7792.8896,29653.396,-1399.44,9808.987,-5113.907,28964.43359375
66,-3253.1187,4185.4927,-16147.176,6841.8755,4339.776,-6225.1855,25113.68359375
67,10185.669,9308.087,17634.979,2562.9302,3586.1619,-1467.6205,11293.7587890625
68,6400.0835,25992.967,16325.914,-4739.871,-861.7253,-12273.629,28451.3671875
69,-1897.5756,9451.753,-2962.8362,-5954.621,5954.185,8353.307,23750.677734375
70,4587.3135,2963.4019,7077.6973,517.3563,12901.99,-2473.6062,23052.689453125
71,-23546.252,-9792.821,1387.393,5359.2495,-8541.837,1952.4954,28007.33203125
72,-7028.267,-199.19806,15693.124,-333.45135,2610.904,-11216.328,28388.974609375
73,-1854.9994,-11789.403,386.1515,2601.072,3423.1658,-9423.917,21162.73046875
74,11113.181,-7904.2,-5576.9854,560.1439,-9479.113,-5167.403,25950.48046875
75,5929.3022,9473.158,9807.293,-1729.5823,5952.3535,-3482.1047,12864.5146484375
76,-2571.319,-18200.018,-21296.367,-5773.8257,3343.6577,2886.9404,21466.021484375
77,10135.567,9525.398,3487.8435,-1049.7284,2023.3611,8557.271,16606.52734375
78,-9578.408,-478.5444,17359.89,4847.8955,7309.862,1426.9651,28288.8984375
79,16474.373,8612.044,19217.2,-1705.0918,8764.179,-6096.6323,21013.462890625
80,-57.45342,706.79205,324.98053,-107.659996,100.54964,-48.590046,714.310241699219
81,-240136.66,-240432.94,-239475.39,-932.8919,-290.8618,-368.70947,1998.36901855469
82,15014.128,15003.702,16456.682,42.849422,-751.4278,263.54642,2000.97961425781
83,6812.143,5354.4004,7255.933,-77.07005,-545.7206,203.13173,2000.9833984375
84,992.52496,-18108.424,3852.978,-564.0297,-6005.293,-3893.8064,24130.810546875
85,23503.025,16268.998,15275.716,10029.761,-4999.147,6462.164,23718.0234375
86,30924.465,-1274.3075,19290.13,933.0766,3729.6858,6992.203,31440.794921875
87,26347.045,12735.401,31191.182,4347.802,4834.6035,9423.915,25844.53515625
88,19095.344,3650.488,24091.11,1657.2426,-4569.6255,7014.4116,23646.349609375
89,18990.793,-12804.904,13872.404,-2266.592,7849.187,6703.643,34777.57421875
90,16947.932,6863.152,18255.125,-709.0452,-3637.0051,7248.4497,17759.673828125
91,16007.13,6493.251,32530.389,-3805.4304,-4419.9155,6523.1357,27394.10546875
92,17749.373,11302.544,28684.639,-8897.207,-4007.6877,8063.6475,26690.302734375
93,-14027.344,-12776.783,-5097.74,-6784.033,326.2588,2693.0706,15175.0205078125
94,12326.476,11530.308,11789.596,-105.601845,780.045,741.7097,2000.9853515625
95,18059.742,16557.229,39434.715,667.7429,-7663.299,4218.2437,26873.03515625
96,1005.1844,7511.9126,8034.4883,8372.146,-13911.809,-6676.818,31155.166015625
97,-33908.008,-20347.879,-16503.072,-7065.06,1951.2625,622.3303,20325.478515625
98,42881.78,51113.836,65731.68,11886.882,8893.781,-362.31912,32609.333984375
99,-7366.1543,-3923.152,11814.515,-1191.469,-5751.091,10711.139,27593.162109375
100,7909.9214,21464.29,24670.785,-505.1903,8746.743,725.1796,21663.89453125
101,1605.5085,13158.5205,23169.717,-2392.1465,8054.013,3183.6711,24321.41796875
102,11726.352,1981.2499,16470.928,275.10434,3116.1367,755.1864,13956.4775390625
103,5410.9785,13487.415,18637.512,4610.313,-5906.248,-12188.114,27338.861328125
104,-4462.5483,-2503.2322,11559.234,-3573.4922,1676.1412,3858.5298,17903.8359375
105,5116.746,-7024.9277,9713.5205,500.79425,-1179.8397,-11738.087,25350.337890625
106,15891.176,10839.71,130.13719,1214.2234,-2131.16,8879.667,21187.384765625
107,18455.145,17472.768,23062.664,-2427.2532,-5162.733,4839.861,13950.966796875
108,10225.59,9231.435,14300.25,-5675.787,-17034.838,-497.59308,31457.6796875
109,17204.37,42311.84,40325.523,-3057.0269,-10525.774,2957.3105,31162.609375
110,2025.3096,4188.7437,6337.947,-44.45552,-2043.9739,2318.4766,6527.98583984375
111,35476.656,35126.605,35685.96,-681.7503,-689.1574,561.29767,2000.98486328125
112,14382.822,13891.497,14898.582,132.88727,962.20825,-370.86234,2000.98522949219
113,-39374.766,-39058.297,-39176.43,263.45056,600.7445,935.7141,1998.57580566406
114,328.08496,-10576.062,-20911.076,-3658.3582,8049.986,-4787.39,25332.23828125
115,7422.3193,-1961.5029,11543.217,-783.0238,9843.541,399.1314,20897.62890625
116,-5576.653,3298.6465,20083.084,-6021.004,3809.1997,-6733.6836,28244.826171875
117,6929.349,-252.21265,12721.301,-4672.685,6067.672,-6164.4907,20412.533203125
118,-1239.6672,-6757.4795,-3393.7634,2401.5107,4033.9219,-17177.521,31217.328125
119,6349.936,1924.6927,7601.238,126.58465,-5623.7007,7487.639,17023.693359375
120,2812.159,2731.7346,6572.226,-829.9912,7888.1553,-6098.0215,17740.91796875
121,-1380.6775,9736.802,5303.085,643.40906,10811.471,6530.6294,23954.486328125
122,-1105.1438,-6556.117,7.506691,-1034.431,11768.794,-1082.6414,21430.26171875
123,35540.195,38267.926,50599.543,-7022.9575,4935.243,5238.9067,22282.74609375
124,18979.281,12952.845,28157.021,-8262.14,-12974.946,5220.3276,31103.857421875
125,25252.76,37547.68,47995.37,-8561.13,-10195.48,-3539.2844,30952.78125
126,729.3842,5009.5786,-280.84018,-3247.4666,-17.163443,-11021.269,20486.791015625
127,-1001.5525,-4082.961,-11704.422,12981.233,8632.912,5987.3315,30458.65625
128,1553.7087,-3246.5757,6373.7383,-1997.3804,1897.9309,-10057.748,19891.275390625
129,-990.1247,646.5902,566.14667,-650.118,-223.0586,104.99709,2000.98522949219
130,19596.467,10038.076,36828.332,-41.16014,-4520.413,5582.373,26604.60546875
131,4297.2812,-7965.8706,16606.854,4580.7866,2283.5486,13003.639,32229.5390625
132,28584.316,4022.893,28748.766,4675.271,-5727.834,-1098.7758,27837.9296875
133,25315.56,-2801.511,6140.905,-2034.2675,5111.083,11466.955,33231.90234375
134,-17602.55,4468.1865,4042.8242,-10592.46,153.39383,-3269.2693,29097.1796875
135,-16360.517,-15354.167,-16783.42,1757.8401,-1258.4274,2685.5554,6105.302734375
136,14735.332,10212.993,17265.488,-510.0851,-2409.6777,2138.4783,8379.435546875
137,12434.272,3332.5198,24269.031,-6103.5786,-7506.0854,-7793.792,28171.529296875
138,-8348.737,-484.15408,3542.9492,1912.9255,9114.172,2634.694,19767.341796875
139,-5484.338,8294.76,14669.6875,146.75885,7433.95,4770.8877,23504.96875
140,1057.996,12850.116,23588.125,2742.534,5320.868,-5241.97,23893.869140625
141,1595.7717,-153.86227,13898.419,1322.8557,6482.035,9242.676,23738.63671875
142,28785.807,57130.758,52837.883,2159.2478,-4471.6333,-1818.0631,28001.310546875
143,-17298.494,1450.4395,-22452.719,-10625.714,-5747.4,2613.03,30545.4375
144,8559.429,13337.886,11745.127,-5009.5923,9732.996,-9253.293,25181.572265625
145,-1997.8008,10156.277,25863.816,430.1492,6054.811,-4163.153,27347.611328125
146,1478.8232,13311.651,26442.77,3158.4321,6322.847,-1324.3708,24958.85546875
147,-1193.8416,-30769.672,-35557.2,-3739.5625,-1241.0435,-257.12994,32954.7734375
148,5570.53,-5052.72,-9846.83,-8564.559,12789.364,4149.614,30808.802734375
149,-168.50957,1930.8015,4516.658,5086.798,13885.402,-4189.332,26929.787109375
150,7225.025,7246.282,19870.557,-1299.596,1775.5167,-5577.6807,16355.33203125
151,19667.73,-3576.3691,18616.72,-1287.9984,9793.144,-5422.5913,29964.482421875
152,-31499.16,-25779.742,-22101.906,-6076.914,7356.769,2069.026,18795.443359375
153,-924.0912,7899.7583,5697.8457,1981.3123,11926.422,-5968.6743,24670.833984375
154,-1878.3234,-2241.8528,7077.3467,4027.5552,-505.60904,-4492.8247,13913.2587890625
155,4926.828,1477.2927,12235.827,-1400.0544,140.6609,-11772.804,22633.380859375
156,22405.664,18337.318,15267.508,-1657.932,-6182.684,-1042.0956,12831.41015625
157,12086.968,25509.799,30993.0,-7461.894,-10183.001,1813.1165,27781.654296875
158,32336.854,34769.016,39965.805,-12572.793,-9036.19,624.22736,27675.15234375
159,-7757.5635,11809.143,18406.498,-4282.156,-7956.6567,10018.274,33188.89453125
160,15719.454,14614.136,16243.855,-759.65094,-228.70222,-114.67156,2000.98168945313
161,-8618.644,-9264.825,-8875.485,-187.63382,815.65576,-726.8167,2000.96020507813
162,18539.602,22275.209,24974.773,-4337.131,157.74722,-490.16217,9410.337890625
163,54389.914,30335.904,49089.92,7887.3535,8984.918,4464.663,31109.744140625
164,33891.92,15176.989,24723.934,-6592.226,1836.6008,14693.975,32418.400390625
165,17417.451,2693.793,36112.72,-1480.9138,1189.8588,6903.634,31549.466796875
166,3390.5552,-836.2404,28050.924,-420.54562,-7792.5864,5289.054,31573.08984375
167,28033.662,33564.086,30685.625,-120.84149,1041.5258,-7836.3555,14507.775390625
168,5329.0654,-118.37314,5312.668,4048.3633,-1814.7351,-6743.793,15002.3095703125
169,6489.6943,-2192.5261,4325.9395,2556.662,-7547.562,-5747.599,18732.001953125
170,11923.75,3629.5237,-3088.2842,-8378.579,6652.589,2876.278,23191.240234375
171,9964.82,7899.3203,9205.426,409.0074,35.465252,-273.17044,2000.98510742188
172,7198.8145,5830.0933,7562.691,-571.3782,412.85776,55.5484,2000.96960449219
173,3917.1956,-328.93427,5154.698,3983.2915,-12676.891,-10735.493,30004.642578125
174,2102.8088,-2322.924,11184.145,2929.3945,-1437.651,-9733.347,21410.46484375
175,23204.33,10853.81,28686.879,-983.5081,5960.021,-3072.083,19699.912109375
176,5962.4897,15503.652,17132.695,1492.7122,11940.614,6220.5635,25685.330078125
177,6040.4697,8000.9043,-87.489365,8887.794,339.16138,15260.231,31454.03515625
178,16665.936,16908.062,29238.371,2577.9365,9125.731,3536.376,21502.853515625
179,7275.6797,2797.9714,-9199.71,6346.2764,3783.7212,20117.707,39945.6875
180,21817.719,104.39747,5646.0825,9898.124,3347.593,13456.188,35392.01953125
181,5323.662,5977.8936,-2742.374,-3982.9243,-9730.273,-886.5622,20118.392578125
182,3281.6628,10939.644,16671.328,-6683.525,11619.467,4036.6829,26894.58984375
183,-4039.2817,5311.5166,-19358.404,2926.7358,-8916.0,2784.4946,27437.232421875
184,23868.803,22253.23,28897.576,10661.51,12658.625,2490.362,29603.283203125
185,56712.715,55842.258,57256.633,885.7874,125.42796,-158.37357,2000.82495117188
186,28704.096,28213.469,28658.477,-548.3392,-440.75803,875.3133,2000.94091796875
187,6861.1465,14975.522,18961.098,8904.906,-3557.6287,-5537.0356,21952.376953125
188,-1095.4082,5258.686,24316.846,3717.5837,-543.66565,-5629.759,25731.611328125
189,2368.5562,10125.879,2460.3599,-10028.6045,5885.3354,-433.66232,21579.3125
190,14145.57,13064.574,27523.932,1831.7164,-5782.196,10077.334,24690.806640625
191,19333.072,33441.07,50938.277,-6579.848,1294.6805,7335.653,32378.783203125
192,6403.341,19265.014,21898.81,-206.03513,-6683.292,-9327.591,24522.90625
193,9393.029,20223.766,10598.492,-957.80884,3807.6277,-6109.2554,16245.529296875
194,9454.11,20139.365,30861.312,8530.027,-6042.3726,666.88226,25939.365234375
195,-3175.978,-12427.964,-15476.967,3522.6863,-7402.6514,6031.4937,20829.486328125
196,17717.7,27922.924,33931.945,9484.058,781.1003,9133.37,26898.068359375
197,55732.918,77329.234,66480.16,-4113.396,1782.364,4549.007,21729.568359375
198,-743.6846,13068.347,12508.112,-5781.9727,-15102.146,9053.435,34839.0625
199,-35999.992,-17577.664,-30889.68,-12262.183,3947.0254,2924.9712,28192.9140625
200,19155.19,26687.812,34439.676,2429.8403,-14249.859,1390.6785,28423.8203125
201,3021.3608,24339.27,16295.973,-4070.69,-14086.761,-3395.8472,32051.505859375
202,-124.06205,-3576.21,6025.2427,-6021.7334,-14741.909,-3883.7358,29613.59765625
203,-17818.176,-3708.9536,-15918.4795,-1252.0449,-13625.377,-6964.197,29715.84375
204,17549.375,17839.672,18011.408,-170.50177,1023.4646,451.17267,2000.98522949219
205,225.90044,14885.919,8450.147,627.7571,-10511.455,1906.2308,22484.265625
206,35404.715,36027.363,35749.17,-797.7999,-200.75447,748.7059,2000.97705078125
207,48031.49,49629.15,49689.863,615.46875,-246.78468,-102.64077,2000.98095703125
208,7509.109,8047.073,7603.5845,-474.394,-211.08884,-991.2102,2000.95581054688
209,-11360.193,-11937.965,-11817.85,12.081567,952.1121,-578.6765,2000.85949707031
210,34268.582,34267.133,33983.008,-935.93634,-266.26752,600.6042,2000.9853515625
211,-97681.64,-97023.43,-96742.4,632.8028,765.2059,-340.98468,2000.98669433594
212,162501.95,162807.17,163156.81,-823.3869,-428.15802,604.972,2000.98803710938
213,4815.421,5755.8457,4313.574,671.3283,296.67157,509.78967,2000.98522949219
214,14482.145,14417.417,15063.536,385.5091,941.36505,-416.23257,2000.98547363281
215,18259.863,19315.035,17540.475,487.87463,281.4833,-469.82043,2000.98571777344
216,3494.7898,1333.9846,2387.9915,78.98921,-226.26915,331.2227,2000.98547363281
217,-9349.153,-2662.5083,10244.01,-13351.706,1537.8066,892.223,29015.126953125
218,9786.64,11328.456,10555.823,415.68335,48.500034,-751.7998,2000.98596191406
219,-19601.016,503.08032,-3868.5847,-1970.7872,-484.92267,-5881.962,21249.650390625
220,1328.2434,7490.304,1637.4003,7528.1987,-3554.6135,12154.882,26216.638671875
221,22040.883,290.76395,-3120.4043,-7810.9424,4645.367,1275.7488,28487.724609375
222,2926.5024,15137.251,9279.788,12309.627,10128.758,10829.738,35015.625
223,-504.39752,10142.649,13394.725,1775.2517,5006.7983,18159.32,35107.0078125
224,35310.72,31342.662,44612.137,-6308.8135,479.807,5152.301,18409.3203125
225,-4034.4417,-12705.887,15460.272,-6129.214,3706.877,6971.645,30397.71875
226,-6695.2124,8885.08,17129.469,-5278.004,-4378.5225,11060.5205,30777.54296875
227,11392.445,2541.238,7878.166,4750.1567,-6921.801,8234.31,21781.3203125
228,11719.047,4274.2803,14394.2705,-5222.162,4404.5195,10378.342,23358.9375
229,17398.623,18922.947,8406.035,3893.1428,8372.608,-9026.373,24435.53515625
230,307.36682,3958.072,1865.5621,-6575.376,549.3763,16631.146,31152.27734375
231,-14202.353,-3896.7827,-15762.212,3564.038,4153.203,-3750.2659,16023.7646484375
232,-5365.6797,5646.5815,11413.475,4059.935,109.224976,3539.7734,17467.353515625
233,-2434.881,13878.417,-486.247,11855.266,-1049.66,-2890.7559,26232.59375
234,23076.14,18259.234,48446.766,-6707.8716,5541.702,-6117.862,33592.8828125
235,19193.104,9336.387,23069.236,-1087.2861,1221.9945,5172.358,15448.9951171875
236,3792.8914,10280.948,14735.572,715.5868,164.32977,-3243.8538,11136.66796875
237,8484.262,7906.3516,11326.638,-11369.979,18199.11,3692.2297,37847.1328125
238,8549.35,2522.7153,-15014.682,5683.8564,4162.769,6087.6514,26639.353515625
239,-5604.722,-15796.685,9641.429,-10252.303,61.98548,2612.781,28766.8203125
240,-64028.4,-68840.48,-62357.195,440.393,-4105.92,1416.445,9548.1669921875
241,247.86621,9875.526,11791.2,1846.3678,-4331.1514,-3876.9685,15046.6474609375
242,14145.709,12914.256,11860.411,-5468.105,-15241.836,-1359.8372,28215.484375
243,2752.1003,10023.195,-5596.939,1274.5697,6830.4043,1064.3538,18207.6171875
244,17082.041,3672.103,14540.263,-4360.5664,5424.572,-599.1468,17280.060546875
245,-10251.781,-6245.7324,-6043.3706,-5952.436,2727.0586,3780.0828,13724.873046875
246,15831.292,21356.277,30145.08,56.967674,-15882.651,5160.689,31512.064453125
247,2190.6646,711.9292,-3793.8572,9603.296,-5344.006,1761.5691,20020.142578125
248,-3728.1016,-5367.2705,3592.2559,-4852.2334,-8374.043,-385.55267,18700.962890625
249,10660.534,-3958.2532,14449.502,7802.6025,-8499.201,6986.2544,28796.349609375
250,11596.275,-1234.946,-644.1934,8047.664,469.32962,-482.3661,18789.962890625
251,-12242.488,-10399.982,-8903.977,-1669.3148,-1394.0206,163.56262,4760.171875
252,-11008.285,-8947.523,18332.15,4589.5674,-761.8013,11190.025,35287.78125
253,-8383.67,-18588.77,-14139.802,-2656.0427,-16566.46,-5142.28,31660.240234375
254,-9080.457,-17869.475,-22736.525,-468.78076,177.66113,-3294.1975,13304.916015625
255,-7590.784,-16981.447,-8904.421,-4453.049,3159.2368,12128.108,24663.3046875
256,-15290.31,-30221.424,-10033.324,3538.24,552.5495,4420.9966,20644.0234375
257,-9091.873,5112.989,-6631.0303,-15919.012,9256.253,-1050.0057,34546.5625
258,-5656.093,10.597973,8955.133,-4428.265,528.6026,4222.737,16612.14453125
259,1978.478,-12139.984,-16915.164,-8060.2515,2322.303,-5481.1753,24305.62890625
260,-12882.452,-15144.438,-11821.153,-3817.6204,2819.2952,-6499.238,14245.4140625
261,-5819.487,-1699.7222,23851.957,1326.8527,5709.992,-8203.675,32865.2109375
262,-19862.896,-5810.7305,-11163.501,-1232.2196,-4986.969,559.02057,15198.6748046875
263,-1243.1849,17086.758,25970.803,-3481.0928,-1269.3062,-1424.8755,25000.70703125
264,7008.4873,3032.234,14225.146,-4070.0754,-3910.045,3216.3127,14939.2734375
265,-19172.197,-4923.112,-15542.363,-6988.658,-3277.2844,-3583.4993,19538.693359375
266,9819.16,8894.914,28711.635,-2060.412,-4037.7415,2370.7717,21301.37890625
267,-10217.139,3654.4668,-12148.042,-2806.3743,-79.97147,1582.1893,15940.2294921875
268,9909.728,9107.011,-9183.511,-2705.8198,-1699.3335,-1956.2496,19798.43359375
269,8048.3125,27398.305,3089.2136,3462.7388,765.4571,6127.6353,25403.671875
270,3237.5056,17597.602,7360.846,1532.0967,-8529.278,866.48456,19787.44140625
271,-12206.493,1300.9939,-2684.2393,7129.7705,1258.1068,-1866.6691,17669.3671875
272,-5592.2085,2290.5156,-385.0694,5389.515,-662.04364,-5209.3735,14767.3095703125
273,6556.785,25134.24,9112.35,-4720.922,-3365.2712,8023.972,24457.427734375
274,-2044.3921,-22485.621,-10270.479,-3376.9338,291.36282,-492.035,18776.396484375
275,-9500.077,-15478.334,-9123.899,1738.2533,-7384.674,3250.194,15571.962890625
276,-1595.0426,29054.096,4300.3984,-1459.6637,2366.69,-3186.9368,29105.0
277,-3424.0293,-10530.41,-26542.416,7416.058,3058.6548,5551.8857,26574.470703125
278,-20.309326,7016.2344,-3580.8801,1128.272,-1255.6005,-5246.826,13355.9296875
279,656.9541,-2356.0117,-30362.041,1202.4146,-2430.429,-1905.9578,30178.6875
280,3656.1428,2302.3596,-18158.678,-6000.5415,9958.272,2359.805,29502.7734375
281,2453.3704,-5749.623,696.9901,1344.7797,85.49578,-3578.3875,9991.40625
282,-20444.674,6485.741,-19696.096,-1008.14453,812.8214,-4927.6196,27991.490234375
283,-787.74854,3488.224,-2143.0103,-3153.2795,3043.794,-2419.4485,10054.8740234375
284,-7002.1045,-1125.4869,-16433.373,8343.989,4529.995,4158.2935,22387.734375
285,-18264.35,-8143.5396,4249.899,9126.489,-4172.228,11468.397,32834.9375
286,8534.502,10316.534,9914.423,318.99252,-598.9782,23.05508,2000.98608398438
287,34384.88,45103.37,18477.305,5950.791,-10606.773,-1699.3965,31477.8125
288,-3454.7756,11890.125,27327.842,2065.809,-11108.666,4525.444,33987.1796875
289,6058.1357,15858.247,31459.705,-727.9054,-9695.503,-8599.0205,31587.513671875
290,54915.77,40750.055,71406.5,3992.48,-7318.6455,-495.86673,30256.564453125
291,-502.3096,21607.135,12274.376,-6206.1484,-17376.234,2637.0151,37573.88671875
292,6056.4575,2876.307,-14404.975,1642.4388,-1719.8828,2878.6477,20138.017578125
293,5070.067,-2236.2957,6775.0415,-1218.2125,-1285.2556,3783.1216,11004.1279296875
294,6500.5796,11168.694,-11.323296,-6790.194,4481.773,-3513.9656,18171.884765625
295,-386.40918,-17827.805,-21316.889,-1369.0698,5938.4785,-6506.5723,24812.427734375
296,384.42853,1604.3425,-381.7996,-268.0186,-380.7238,-338.40857,2000.9853515625
297,-84048.75,-84661.73,-83049.195,-689.1257,244.55016,370.5041,2000.86730957031
298,12056.1045,-12432.359,-8150.7744,-12.070637,-10261.792,-3401.7676,29390.423828125
299,-5828.4272,-3884.3699,-899.14777,8256.964,3379.9712,6599.275,19696.462890625
300,4551.0757,-3615.1707,8508.121,3907.7969,-4016.732,16510.361,32041.3984375
301,22721.73,-11526.031,4772.544,-3483.2888,-9230.664,-3347.4746,34727.44140625
302,312.58456,-5569.4805,21262.613,2372.6624,-2682.1726,367.7307,25211.271484375
303,1380.5054,14619.845,4364.0264,-5009.7085,-4672.5635,5907.456,19752.615234375
304,-2673.789,-3548.8362,5379.444,3752.4175,2895.2039,-1614.0411,12160.2275390625
305,-17037.105,-9315.946,-15024.869,-8544.87,16993.24,-5584.271,35029.07421875
306,-7525.0093,-7376.036,12761.794,-2223.3694,-4021.9744,2107.8376,22028.21484375
307,40011.867,27994.678,45741.11,-4266.036,-1197.3932,10539.859,25263.626953125
308,-3266.101,-6853.338,9788.06,-1762.2361,2888.727,626.40894,16298.330078125
309,-13299.235,57.74414,-24759.598,-2816.6843,453.59738,6528.5806,24801.4140625
310,2994.9417,-793.12195,-3272.773,13694.885,1660.8401,-5089.5605,26048.548828125
311,-8831712.0,-8830597.0,-8830968.0,386.6219,866.02264,335.99698,2001.07434082031
312,-1015.8042,-15882.376,19905.654,-373.0115,-3012.712,-4922.567,32712.296875
313,3584.4844,-11798.765,-7001.098,13904.215,-8881.203,-5868.0703,33253.1171875
314,1042.0612,7144.351,6835.264,4411.437,-5342.3555,717.66876,13453.515625
315,-18995.9,-25396.863,-20681.727,6468.0513,2371.429,4356.4946,15242.6591796875
316,-9349.965,11382.101,-2229.9487,-1636.318,-4841.2886,6725.1045,23386.5
317,5421.758,14627.986,30797.371,-2441.7546,-10266.571,-7031.8477,31264.953125
318,5342.2827,10639.218,18206.777,-5442.697,-9653.624,5563.4766,24222.16796875
319,5017.791,17899.56,16069.98,-899.5626,-11474.969,9658.652,28688.677734375
320,16037.374,14269.716,15105.567,-613.16956,172.29706,383.44394,2000.95983886719
321,-929923.25,-928194.06,-928386.75,-76.21603,617.2075,223.29071,2000.96557617188
322,170005.67,169123.89,169388.39,-605.4446,-758.4627,433.6574,2000.98217773438
323,-175556.7,-174984.2,-176397.27,807.5302,219.0745,-358.78055,2000.49755859375
324,21569.363,22909.24,21626.951,589.0065,638.6624,77.59285,2000.9853515625
325,12598.323,11907.186,-4137.375,7925.3486,-5896.859,1977.1298,23947.31640625
326,11821.695,1472.7395,-7643.463,3863.0588,6705.234,7221.4985,24912.837890625
327,14666.789,-1606.2456,-2273.491,-3616.3125,19525.14,3870.578,38781.25390625
328,23914.705,8243.291,-1714.3633,6183.8384,-3098.486,-949.5559,25436.6875
329,11649.225,5253.4453,-10131.582,-6302.6074,3312.7754,5427.2427,24828.63671875
330,-30141.55,-36226.816,-23359.05,-3577.7927,730.82367,-898.9055,12912.5634765625
331,-1036.138,-8366.822,-6579.7207,931.72986,1613.5735,-2531.2617,8571.41015625
332,14632.648,-12015.588,12487.763,3021.666,-5081.4634,4484.851,28683.94140625
333,239.1475,-5884.962,4484.2495,-2410.3047,7088.1885,-2151.1917,16234.58984375
334,-2756.8945,-5378.103,18861.871,-9963.846,-8925.069,1382.7804,32763.556640625
335,-343.47412,400.77887,15813.034,-4779.222,23.6874,3278.012,18716.9140625
336,-11391.3125,4800.954,6797.955,-1080.1609,232.76338,-8026.2544,22258.44921875
337,-3793.045,6714.47,22853.045,4270.321,-2134.8367,1398.0964,24792.767578125
338,7321.1714,25265.14,25778.053,10418.573,5057.8115,2428.4521,27414.03515625
339,-26399.318,5503.4585,-3384.9082,14097.944,1365.3445,-4858.967,38547.42578125
340,17354.904,13405.357,33834.07,5817.6406,1308.3265,13573.465,31806.193359375
341,-17077.094,4036.2883,-1617.586,4405.0293,7934.827,11836.526,32027.740234375
342,-6990.732,-6894.366,-25565.193,-7286.3276,-5970.7803,2999.4668,25298.66796875
343,14922.406,7050.144,7302.88,-3084.4756,-484.19968,5363.8267,13251.56640625
344,13746.504,3340.24,8324.902,7065.8096,3876.6985,5351.2812,19027.283203125
345,109154.88,108702.0,108478.984,-853.4975,-454.6563,529.9661,2000.98522949219
346,12836.349,7789.6025,12320.235,1390.5925,-496.08246,-3887.252,8660.4296875
347,-4156.0835,-713.4966,-17908.033,1174.7097,1424.9757,919.69336,16157.93359375
348,20174.752,-8140.96,1778.2191,-7870.015,-7662.2295,-2204.0356,31556.537109375
349,10317.816,13318.953,7762.1772,-7920.4727,-206.49461,-6433.721,18322.548828125
350,5903.381,9204.261,11811.474,1165.2434,4013.5205,182.33876,8876.802734375
351,5298.1265,5834.7847,4617.4263,478.10342,854.8779,-55.039467,2000.98559570313
352,5562.0947,10899.9795,6820.2007,3047.0625,-2818.426,-173.86305,8668.0595703125
353,9311.01,4359.5913,-9478.227,2853.4182,-1734.4825,5999.9556,20638.998046875
354,11683.508,11750.388,9502.177,9522.604,-16633.041,5400.614,34560.41796875
355,9774.924,13450.711,14265.697,-10268.025,2853.47,-3904.6035,20090.619140625
356,-5792.2627,12787.11,4819.0747,-3442.4368,6959.669,-1097.532,21097.8046875
357,-7303.259,16645.05,-7874.9316,6520.4717,5688.3037,7.7985673,28498.40625
358,3903.4492,27243.373,-5607.5933,-6419.1143,6464.9663,-820.8252,33289.9765625
359,-12049.096,23048.959,18534.861,-1280.8137,-8162.4136,5000.3696,37062.40625
360,-11543.547,5394.123,-3069.0022,8543.863,5384.943,576.7078,22850.53515625
361,15903.304,14445.193,5394.669,2243.91,802.4356,1032.6254,10838.3935546875
362,2681.6016,3720.0508,9874.234,921.5829,228.03001,1323.6842,7300.92578125
363,-1841.7451,-2816.6882,896.1542,-5007.3413,-2718.2683,-1835.5988,10890.8916015625
364,-566.0553,-1159.6333,-802.1748,1038.3868,-1434.7897,-207.3046,3131.68701171875
365,-4847.194,-2142.7554,3551.219,-4400.1973,-2409.171,-3119.5635,12642.265625
366,8870.9375,27229.053,-165.95067,4930.2676,-1987.8601,3500.5586,26573.013671875
367,-3710.0269,-2507.128,-3210.0093,2072.553,613.2982,-1325.9573,4514.95654296875
368,-4249.969,-24256.184,-6439.743,3310.7153,6663.3135,7927.8857,26755.755859375
369,-30292.371,-5547.595,-8588.187,16462.086,8445.647,1170.223,39716.57421875
370,20594.613,11224.096,18265.89,811.81665,7663.6074,-4155.3457,17360.26171875
371,-16411.812,-11199.554,-8713.903,1034.0115,-69.759285,-1911.8632,7777.51611328125
372,20181.834,1436.2637,8365.878,-2493.4263,1340.5039,-2289.649,17586.53515625
373,3595.394,3733.0679,11299.777,2211.681,155.80858,-4108.898,11122.60546875
374,-2459.5447,1633.7657,-508.5248,1740.9918,942.47076,767.60284,5108.9228515625
375,1603.3027,83.171875,-63.775696,-569.9345,-858.24286,-859.4288,2820.6103515625
376,-619.56323,-545.0642,-91.72165,350.17844,-302.08856,-1083.7988,2100.08325195313
377,-8205.067,-1597.4753,-852.7246,-3080.44,-635.3333,-3283.9036,10543.5419921875
378,1610.2592,532.8943,6890.639,1365.5533,-1015.49994,2841.7026,8224.705078125
379,-711.60406,5635.5786,-7069.6367,2575.1006,-3648.2207,-6968.412,18071.11328125
380,568.0787,2155.669,-988.1973,1468.421,703.686,367.79495,3971.56005859375
381,-5657.997,-11707.279,-1637.4111,-4078.6765,1067.2457,2072.1025,11970.181640625
382,6191.589,-2333.0261,-2580.8848,-3070.5305,253.56136,2538.9526,11075.1796875
383,-25.111816,-2444.5208,-5167.8916,-1641.0175,-448.38538,221.84242,5356.1962890625
384,9823.216,1336.5247,2033.5693,3059.3833,265.68027,-1163.4225,9947.1650390625
385,10362.693,4802.298,6287.6084,3259.4922,2789.3345,1901.3368,9535.4345703125
386,-8234.013,-6177.281,-16579.395,-3289.2417,1625.6862,-1181.849,11645.4267578125
387,-602.3092,698.5434,701.4037,4458.5903,509.85486,787.1685,7998.23681640625
388,3754.349,12266.164,11966.674,5064.0874,-1972.0237,-2301.277,13209.1142578125
389,-36959.65,-45199.992,-17132.314,-3227.8186,-1489.225,5358.4165,27357.96484375
390,565.79755,12262.615,-2929.8716,4601.5054,2401.5122,1200.1039,16585.16015625
391,9722.999,10595.633,10616.754,-706.8709,723.10645,182.31024,1986.88854980469
392,-20324.725,-44308.246,-45273.46,3678.1697,-1431.8118,-1249.2997,25509.0078125
393,8806.772,8632.942,-1358.9482,1127.8926,-996.9011,441.0754,10439.6591796875
394,-4977.3843,20841.24,9608.455,13960.312,-977.65106,479.1879,33030.12109375
395,31254.29,4764.2476,29445.768,3222.1245,-5255.4624,-4628.8247,28902.75390625
396,7750.8193,-4782.578,-10120.704,-1367.1903,7481.353,66.56836,20640.236328125
397,-20152.057,-22577.24,11378.494,-7488.242,1389.5956,-1107.4626,35414.9453125
398,245.21436,-2656.3203,-4409.9053,865.76654,6140.9526,-2565.2764,12316.9208984375
399,1843.2634,-7173.2437,20690.266,1697.0183,3258.5112,1906.3948,25648.33984375
400,3538.251,-8228.905,5768.3896,-2564.4854,262.01578,1863.7816,14143.5009765625
401,4561.1475,-3339.3335,2298.4807,-4323.8154,-2818.2517,-1043.815,11525.7763671875
402,6490.1274,-2869.2861,788.3733,3435.246,1965.6816,1617.9443,11026.841796875
403,-72.93286,5930.2256,1538.5593,-3030.3447,-1798.46,-814.66943,8258.58203125
404,-2622.7017,3366.9434,6390.2163,3444.1594,-687.90564,1682.9834,10422.4765625
405,-5264.8696,-795.52515,-2561.6475,545.6302,2832.304,-3149.345,8361.513671875
406,7467.125,-3930.9033,712.7856,3410.252,1130.6654,-4107.303,13707.095703125
407,107.10852,-1881.925,-2447.8928,3361.9885,-196.91556,-447.0755,6326.70263671875
408,-7335.5664,-642.6394,-4471.5273,1062.0691,2076.1099,5718.676,12175.9443359375
409,58039.98,58022.664,62147.332,35.746162,-2281.7456,778.91724,5863.85693359375
410,4289.057,13859.644,-467.03125,-767.77075,4395.429,1433.188,15020.81640625
411,35203.34,35200.832,36426.594,-14.567013,-814.7221,413.34564,2000.98498535156
412,4651.386,5982.136,-4947.7505,2237.663,441.1203,4084.8962,13128.3154296875
413,525.54944,-4267.517,341.4496,3215.5642,1363.3088,1001.6532,7856.86328125
414,410.7152,-3677.8943,-30.851929,-5201.187,1648.8192,-1855.4451,10712.01171875
415,1898.825,-2890.2734,3076.2878,-3583.404,1935.3334,1983.3556,9566.654296875
416,-837.3873,-5862.7896,3372.2334,-2097.275,1186.16,4035.8105,11419.7431640625
417,-24504.004,-16511.426,-28147.826,-3016.4197,-6134.7563,-1456.5554,15901.2265625
418,1313.4685,-14977.712,10002.758,5036.281,4332.56,3824.5469,25666.16796875
419,-1551.4529,-6670.8975,-4740.6934,3997.5757,-1909.7444,1478.7155,9246.3955078125
420,9816.132,3435.3237,3021.3706,4015.3503,-511.52817,559.5756,9675.7890625
421,-7165.1636,-9142.051,-8669.472,-2680.841,-179.87402,282.22382,5009.38330078125
422,-3338.7173,3617.1829,-932.36316,3504.4663,2181.107,7559.8633,16124.728515625
423,-26211.594,-25072.432,-26244.422,-4.481034,649.1723,683.9699,2000.98559570313
424,-6570.627,-4450.168,-4258.6357,3572.0522,-948.10925,1474.4587,7241.3154296875
425,-1190.6912,-1705.2847,4883.4873,-1179.7319,-1447.2583,-751.7245,7241.57568359375
426,-10088.722,-5516.1475,533.18604,-4807.553,-1485.9258,1213.0103,12866.2236328125
427,6259.17,-15044.6455,-9842.744,-4071.9456,-2185.5952,3716.8062,21808.455078125
428,-12125.528,4531.6836,-5202.4204,3915.911,4514.4297,-143.03,17812.275390625
429,-552.80286,2490.4329,-2730.317,-2599.2456,1836.903,3098.2231,8934.056640625
430,2182.5234,-4086.867,-16785.023,-1955.6295,-3081.9333,2171.7168,18283.205078125
431,-26318.145,-13630.922,-4319.1904,-5928.947,715.45123,3601.8853,22621.39453125
432,1235.6807,5964.973,1961.5413,17961.398,-12147.782,-581.01105,37828.75
433,-5140.5137,-11501.642,-11559.249,3500.8867,787.7849,-2820.0476,10164.7509765625
434,30151.473,19668.113,16873.701,18994.654,-1711.872,-8129.8877,37900.81640625
435,362.76392,15907.973,-3762.3364,-1903.1202,-1444.5367,-6209.2725,21344.46875
436,93.26196,2911.3516,4525.383,-2225.4985,-506.65936,1591.6753,6190.6494140625
437,3430.2783,-10869.989,-1482.6973,6548.891,-4989.231,3253.186,19836.052734375
438,-5017.266,908.4142,-805.73065,1123.4048,-2554.2285,-1055.6868,7388.93017578125
439,-2457.3977,-12522.543,-3998.918,-1267.723,1769.4923,-1695.8098,10536.1181640625
440,4342.485,-2396.4878,-4975.5957,-713.0411,565.3895,-989.3449,8652.55859375
441,-11201.079,-16974.771,-16089.519,2650.076,-1644.4753,1530.1553,8075.5029296875
442,-1431.1611,-10079.845,-8777.68,-4569.444,-3620.801,1249.9913,13110.71484375
443,2175.501,-1317.9739,7805.1035,1335.9155,2749.1277,4973.893,12876.7080078125
444,-6110.3335,869.3867,-475.10486,2496.8381,-531.1969,-2266.8171,8723.787109375
445,4330.9487,1528.3632,3099.539,6227.288,-893.87946,-2673.5676,12087.1015625
446,-2039.6091,2613.5088,679.45886,-2893.5254,-50.976143,-1103.8384,6721.11083984375
447,-6205.182,-13701.019,-13144.984,-170.52995,7649.3516,-4244.759,16793.0859375
448,-1451.2411,5264.012,-6518.0083,-2003.9158,-1656.0864,1709.8103,11568.7783203125
449,-1515.0452,-2760.9285,-1565.2985,-2610.8567,2239.0435,2806.956,7785.80810546875
450,-3939.8994,-1541.9651,1437.0414,-1069.0067,228.3117,-320.48276,5065.6552734375
451,-9118.497,-2954.639,1290.2646,2064.8352,-366.23077,-1397.6222,10061.3310546875
452,-8898.384,-15345.175,7310.6855,6831.0396,2355.8252,2180.9067,24076.953125
453,1956.5054,-445.20605,-14492.958,-637.1546,-2754.3774,-3446.9888,17218.27734375
454,-5477.403,-3506.6821,-5501.2007,-3025.522,-885.3385,1103.1641,6115.14013671875
455,-10891.764,17877.22,6095.226,-2915.2014,-3183.328,-7413.004,29125.03515625
456,958.15076,3350.6084,4029.9043,5174.545,8850.997,-937.2256,18049.759765625
457,-59.54138,1917.0083,-5110.3647,-1769.7812,-871.0429,1841.125,7825.759765625
458,-7630.9746,-7033.3706,-4518.462,-1256.452,-211.24184,1875.7863,4859.0556640625
459,-6326.351,-3402.1829,-3105.669,-697.0551,1248.397,1191.2758,4460.5263671875
460,-6632.153,-8036.9824,-4843.073,-234.2726,444.4332,854.21844,3260.97900390625
461,1919.6072,-5244.538,-211.21722,-1345.9822,561.8247,-749.2473,6976.09619140625
462,16831.465,-1494.3262,318.5547,-1010.95123,456.0357,-2986.476,18339.732421875
463,-1078.1053,-2788.142,-2177.7368,1081.0677,774.10785,68.778435,2751.5537109375
464,4694.0625,-757.58154,8472.679,-1.7843146,1511.5812,1627.4261,8910.568359375
465,-28043.922,-6219.922,6634.287,5333.5527,-8347.466,-5029.4663,35948.7890625
466,1559.829,3388.699,8061.029,-3569.471,-4975.813,-1168.7834,12260.431640625
467,4485.0083,-3515.4722,1961.9147,911.1722,-34.16909,-1816.3898,7910.73681640625
468,-8758.783,532.9756,-9126.146,-148.4537,-4843.871,-190.2285,12666.8515625
469,-1136.0806,3365.9321,10812.635,283.7886,-97.56768,-422.48422,10490.5810546875
470,-5128.125,-2041.9314,2351.5747,-2407.9084,1746.8135,-593.36346,8366.0673828125
471,-11956.549,-9704.926,-13091.015,1761.7411,5307.7124,-1605.4542,10510.484375
472,4830.1606,7115.2275,1470.687,-2656.5015,2972.315,194.91127,8483.69921875
473,755.39844,12944.932,17126.646,3273.2227,-340.04865,4677.5347,17753.0703125
474,-1973.981,-998.8113,-9920.668,497.4609,-1439.9896,-3520.5623,10770.16015625
475,-4609.898,1598.8146,-1862.9065,-1920.0646,-1012.1871,353.61536,6599.04833984375
476,-3403.167,-913.88635,6086.8203,191.98952,1130.4403,1131.3148,8967.5537109375
477,9499.713,-4394.4287,7614.0493,1016.5555,-308.63843,-2637.6743,13952.1015625
478,-4770.564,-727.0797,543.27747,-2720.418,-2398.0596,-1207.8434,8181.13623046875
479,47387.652,45356.047,22286.291,-5569.6475,-2696.5005,-387.233,26429.828125
480,-602.7243,-476.74286,115.44034,853.4971,827.9787,830.7048,2598.72778320313
481,2611.9592,-662.7007,-3439.9504,3250.0117,1601.2438,-2191.5913,9017.7578125
482,6661.606,-2835.9854,2969.092,-3810.0085,-3494.6238,-1766.8514,12582.5234375
483,3295.4292,-5126.2505,-1133.7616,1630.7065,55.1582,1769.1117,8403.4033203125
484,-2102.8442,-2593.695,-8026.6416,646.39557,2461.6748,-248.95709,7214.1220703125
485,2903.467,-1930.4458,11705.217,3691.5935,668.66003,-807.41895,13695.4404296875
486,3064.1523,4204.216,-5835.5215,3080.2905,-2143.0007,-451.9007,11554.423828125
487,-11020.538,-7184.9854,-5812.426,4245.7646,-1064.2128,-1337.7408,9203.5732421875
488,-6752.206,-5133.3804,-3304.0903,-2831.5325,-874.59717,112.586334,5942.53466796875
489,-5871.6445,-1183.564,-3136.843,-665.57837,389.1964,211.22293,4307.3798828125
490,-4277.3228,-7646.514,15399.566,-3051.3489,-7061.4272,8210.556,29061.826171875
491,-12843.284,-9731.938,-14252.756,-774.945,1890.8446,-1538.2344,5973.142578125
492,-6088.94,-766.88513,3831.4092,1527.9327,2372.7927,1235.1279,10119.869140625
493,692.8125,-2128.7852,3121.285,-166.29024,-1742.6139,-1730.8184,6236.291015625
494,1572.7234,-5902.2256,1634.2908,1458.246,1121.1235,769.1564,8262.1953125
495,-798.01965,-2789.609,-1296.01,2016.8618,-198.66772,10.319473,3942.65771484375
496,-3595.8984,-6871.1797,-4982.022,617.7086,923.2179,285.84378,3472.12719726563
497,-3435.6758,7105.274,255.578,90.03615,-1393.4941,-573.23114,9626.1748046875
498,-8849.965,-665.959,1240.5867,1928.3876,1614.1299,-782.9612,10345.40625
499,-410.18848,3418.2856,-12927.871,-1723.9567,3942.359,-2247.201,17028.376953125
500,2130.8528,-65.61743,411.03088,2974.2126,-792.62115,1266.013,6102.10302734375
501,38718.996,22776.58,29778.041,-4553.8486,4846.355,-6547.4307,21280.072265625
502,2501.2693,-2241.1477,2392.363,2194.0474,-286.62158,-289.6965,6076.6484375
503,-9457.749,687.1057,-2123.3691,-8038.2993,2553.5857,-2714.6875,17827.47265625
504,-1821.0347,8231.013,14500.248,1179.023,-1101.1239,800.8526,14597.857421875
505,3919.8445,9655.853,4581.4253,1876.1459,2351.676,1242.7214,7831.259765625
506,-3586.8213,-2739.4646,-4129.7993,1482.5669,-2877.9678,915.4754,5952.25390625
507,9518.093,113.03613,-1574.209,1512.0309,2601.6013,138.35771,11592.7412109375
508,-766.0348,163.46442,3559.6028,-2501.8347,-305.24963,-578.47107,5967.8623046875
509,1166.3699,-2190.0205,7933.242,-3912.0176,818.1275,576.6073,11343.9521484375
510,-2796.2034,-4093.2651,-617.9652,2129.6948,906.03925,-1171.7107,5425.9228515625
511,1220.3071,-3175.5557,-2599.559,505.2753,392.62918,-217.07819,4300.3642578125
512,9370.992,-1282.4639,1582.2015,633.26556,4365.502,533.64886,12264.3427734375
513,-8658.539,-530.176,-4177.0244,5886.1255,1979.5378,2986.6323,13862.9697265625
514,-683.92896,516.1166,-1965.8713,1903.292,-1821.6195,-566.3871,5138.74658203125
515,-6713.4077,682.1515,5304.721,-2397.161,1984.0061,3607.3567,13354.25
516,-4882.5913,1049.2754,77.12549,50.03292,-284.73914,-487.83398,5597.33349609375
517,-3168.396,-480.46783,794.03467,-418.02637,-1356.084,-21.28759,4279.9033203125
518,-1915.6309,-2030.9275,1456.4767,-1916.683,-1417.923,132.93439,5373.89501953125
519,4141.6123,5677.064,-19094.725,9102.037,2269.7742,8144.1133,32263.599609375
520,-3496.8662,-1127.518,-1631.1271,-454.71396,-21.259735,-1061.3391,2945.36596679688
521,-8547.339,-6911.5625,-5118.161,-844.6348,-310.04507,-669.3017,3549.38842773438
522,14469.067,21977.967,-3518.08,6813.4834,4757.0366,-766.13416,26905.47265625
523,-13065.367,-1075.3472,-9282.585,150.67967,4299.0483,-5323.248,15913.48046875
524,-2538.5557,-1098.2853,2856.068,676.3289,1128.562,598.5847,5447.4541015625
525,1640.6321,2263.7793,-4680.929,-3412.0583,634.6598,327.75784,8985.921875
526,-1402.2515,1499.7996,7677.7676,-759.8219,-1106.4978,-210.682,8369.9541015625
527,-8617.82,-4579.3623,-1997.5647,-2423.174,-765.2786,1825.4282,7922.7607421875
528,1551.6804,891.19446,4278.694,4061.4678,-261.91324,-2015.8536,8459.158203125
529,-9872.253,-4701.148,-3618.755,2164.5166,-948.60516,-2309.0422,8139.96630859375
530,8459.21,1944.273,6937.985,6170.993,281.50446,-886.28046,12316.0673828125
531,-7637.5693,-7645.9253,-3423.0435,-1501.3676,1920.9894,945.86237,6189.8623046875
532,163.38254,-64.027664,-430.16537,3230.131,1002.786,-746.42303,6021.49951171875
533,-7045.5957,-3472.6633,-3252.2385,1305.632,-610.4616,-2628.6467,6368.93701171875
534,-3472.5688,-8241.52,-1385.1033,3054.3027,-357.56918,94.72028,8090.25341796875
535,2240.3928,-3792.4507,-3571.9502,-2905.2678,-565.49774,-7.56318,7835.48681640625
536,-1074.8346,34.289337,1358.8073,381.7008,418.60437,272.49207,2374.6767578125
537,2469.331,-2217.1523,3168.0947,-446.52844,274.1831,-1745.3499,5973.9912109375
538,-1893.0344,4092.7908,-1938.8911,3282.2,-271.642,40.973553,8285.626953125
539,98.37512,2587.9382,1682.6195,2399.1096,335.03067,315.4492,4760.89453125
540,-6520.415,-2189.0903,-2323.0505,163.90729,-2026.776,359.57013,5566.86865234375
541,4138.062,3900.6824,3089.65,1702.9799,572.5819,-864.0156,3581.9248046875
542,-1955.6653,5581.5137,1001.39526,-1072.501,-162.4235,562.7483,6909.80126953125
543,-8518.506,-2108.1675,840.75,-1972.7095,-463.88715,358.63995,9022.1005859375
544,-5621.926,-2149.9294,1447.8618,4779.212,-823.97534,-4830.339,13343.3994140625
545,3614.4617,-596.03735,532.86505,2076.6833,9.220206,-955.5583,5470.5439453125
546,-6360.596,41.206787,9995.105,-10159.527,-4375.6597,602.8817,23915.76171875
547,4418.133,-2280.7244,-4513.9473,369.41882,-1256.0598,-58.575207,8365.0927734375
548,-1106.2914,-3269.9395,-2275.1013,-560.2532,2046.815,-1001.841,4476.56787109375
549,3132.481,-2895.4407,1622.7385,90.66679,633.6674,-1082.7631,5853.28515625
550,-858.2401,-760.0924,-2823.6492,629.5609,-2500.9172,1903.8799,5906.982421875
551,-2987.2644,-4623.7573,1897.4327,1726.2505,1509.6775,933.0949,7274.70556640625
552,-2686.2542,-269.18835,-61.77063,1877.618,-131.93553,-1542.1759,4914.27099609375
553,-7607.666,-1623.1793,-574.7881,-1459.0142,-1954.7925,-246.17682,7824.2509765625
554,207.24658,-1402.8253,-1570.2443,-742.5626,-1403.9531,-1110.3276,3762.42602539063
555,1289.3818,1266.7542,4231.8677,-764.4753,393.6233,-860.11273,3628.05517578125
556,3094.0583,3623.6484,5395.712,-2040.5835,-830.68933,0.9331162,4349.85302734375
557,-721.37354,-3055.5947,-1731.3712,-922.924,-1822.7891,217.2676,4095.82543945313
558,-7283.033,-5079.3896,-8006.2812,-810.7963,1048.2804,-537.0529,3620.36450195313
559,2287.1418,4957.201,3313.9192,4533.4355,-1283.3451,-731.3704,8581.58984375
560,-2531.1685,-7337.4536,-669.8325,4615.338,-642.59924,153.30205,10036.154296875
561,-1881.6058,-5792.341,-1202.677,6005.488,2151.3752,1698.2532,12212.4931640625
562,-3428.0898,-2938.3809,684.10693,-2499.2505,2749.4316,-262.5908,7533.91943359375
563,-689.3158,-3713.1724,-3239.7285,-417.46625,2052.9023,-943.31616,4875.6357421875
564,7132.4424,8173.7437,5388.1523,3667.6763,2417.4285,687.27344,8077.6015625
565,2579.8923,3020.2527,227.96631,5753.644,184.42847,951.00146,10435.021484375
566,7654.951,3949.4688,4135.914,4478.0986,787.34045,348.44284,8686.6875
567,-1145.7825,-357.89764,-1226.206,1485.1442,1775.7034,144.12532,4102.345703125
568,4490.6313,-1958.2426,417.93073,-1308.1322,363.64313,0.5717696,6118.89453125
569,3010.6465,-1309.8201,-848.3159,5376.353,-991.5004,-2197.9177,11001.943359375
570,-5883.3306,-3429.3325,-3466.042,2695.716,-255.98875,-776.97736,5453.5947265625
571,-3948.3718,1564.2972,1410.5646,958.5022,1304.7441,2239.9988,7244.42626953125
572,-1744.5786,-1099.0347,-2161.7039,-2180.4702,-1758.6008,-438.25293,4997.7568359375
573,-2638.0771,-201.79358,-143.8811,-2621.8503,-2218.8855,110.508446,6442.7646484375
574,-2363.6848,8636.608,5707.0127,81.52668,-2328.4282,-4638.3335,13348.76953125
575,8579.591,4651.108,11152.248,1623.6179,-703.94446,198.95216,6455.38134765625
576,21351.014,17623.19,14133.6,2125.382,4813.3325,-6225.774,15440.83984375
577,4821.172,-4724.411,3854.3188,-3731.4402,181.39502,2639.3726,12066.1640625
578,-4397.5063,-595.37585,-1220.9565,-1076.8058,-423.45047,2209.4543,5579.474609375
579,-5961.3794,-18731.502,-3579.4167,1531.7701,2014.3066,-1910.3481,15143.5556640625
580,-11437.3,-13621.253,-6745.691,-14540.493,-7794.503,2846.5693,29628.982421875
