Element Label,S11,S22,S33,S12,S13,S23,Mises
1,1108.9933,2598.472,102.499084,120.5791,2.573352,-46.905823,2186.54223632813
2,2099.0784,2885.9673,-99.382256,373.16055,3.376269,76.193535,2759.99365234375
3,1802.6377,2842.3298,331.2859,367.03915,23.061247,11.611715,2276.34399414063
4,2151.6755,2947.6455,-337.29468,470.1116,5.5279317,6.1675463,3077.80883789063
5,1652.4272,2715.0044,256.80743,306.29114,74.20334,153.19476,2219.94262695313
6,1666.965,2383.6392,-68.750885,401.00217,5.978225,31.247427,2292.53540039063
7,1546.8372,2599.9067,39.731686,769.02155,155.15886,-63.263443,2612.62719726563
8,2577.408,2784.7886,-300.5159,416.7088,-153.97974,-57.25144,3086.12670898438
9,1076.5665,3216.9463,351.1404,678.64844,217.57608,-22.87979,2861.02001953125
10,2013.6057,4030.6477,-145.97076,144.49379,-182.82756,-162.95523,3651.13159179688
11,1853.5026,2693.2659,131.77744,711.73004,71.86062,23.705313,2579.193359375
12,1800.5586,2414.3064,-181.6228,432.98367,-169.34769,-79.4258,2487.90576171875
13,2218.2861,2372.3445,284.74954,759.1712,134.8918,65.20284,2420.02880859375
14,2357.0415,2022.0402,-274.19583,804.04114,-138.30334,109.61276,2861.30078125
15,1720.0564,3404.204,-27.885792,2377.134,181.72513,-68.32559,5089.28515625
16,3234.9985,1949.7207,2354.974,55.58289,-489.56854,408.67636,1588.91650390625
17,1458.4879,806.7647,-2253.491,1063.9829,511.33017,-504.59024,4090.07788085938
18,1931.5133,1810.0052,-146.15811,743.5327,-177.17593,431.58347,2527.94750976563
19,7159.2466,-16085.275,-8498.12,3707.9263,5097.7456,2957.0886,23810.779296875
20,-9413.38,610.25726,-3650.6738,732.6488,-620.71545,-3337.9219,10588.2080078125
21,2541.9175,4209.0244,-179.6871,747.2309,-101.66807,-114.34011,4058.18627929688
22,-461.76752,-2166.525,-456.64197,1506.9183,213.12607,1099.0485,3672.51416015625
23,2144.7341,-1372.0619,1873.6605,1045.2332,207.95192,-405.37888,3922.791015625
24,573.80334,-352.71582,-3334.9746,1907.4474,1352.5586,224.89279,5391.703125
25,2029.3167,1117.4302,2353.1064,1512.1809,-1028.6641,596.6527,3511.99975585938
26,1695.285,2303.1946,-518.83856,1220.5068,79.59955,-194.47658,3349.51733398438
27,2149.994,3034.0789,578.52997,1307.7859,991.84546,-313.66696,3608.01293945313
28,1608.9905,3388.9888,-478.60648,543.7207,-518.7831,98.928406,3600.83862304688
29,2002.3667,3068.503,184.16266,482.14157,-125.49545,197.71574,2691.2578125
30,1627.1847,3971.9739,-2179.425,723.1023,-718.41815,-76.390976,5661.1416015625
31,2705.4004,5076.59,1359.8079,879.4819,779.5999,736.9346,4049.29931640625
32,284.82886,4177.233,-1624.6018,902.812,64.57065,-113.21642,5359.587890625
33,2316.9697,3667.3394,59.08458,-205.91293,289.9896,51.46578,3218.376953125
34,3679.0168,4605.8633,5502.563,457.18283,-86.90773,55.918995,1775.75500488281
35,1410.6329,3482.031,-159.52832,15.566141,56.357628,102.4505,3170.21606445313
36,1684.4017,4354.3936,-1353.7598,1122.9053,-143.68465,181.63185,5330.5537109375
37,763.66766,3679.5981,1555.2285,-136.33958,-95.36258,-135.20921,2637.98681640625
38,1019.32605,2256.087,-1802.41,-129.89969,-77.92657,265.4659,3641.68090820313
39,2155.6023,2694.2783,619.0109,142.13744,-55.20707,-0.2974792,1883.81591796875
40,1864.3485,1435.65,-967.3218,-2355.4712,112.1202,-247.64148,4884.12060546875
41,998.6693,1221.9224,-686.40045,-1462.4633,211.82216,126.98365,3140.84008789063
42,2126.1016,-3036.772,-1610.0873,541.7473,435.18814,1259.7527,5247.32958984375
43,-24873.742,-40365.023,-17601.158,-2058.8416,-3999.8489,-2325.6104,21965.203125
44,-8074.5796,-4480.866,-19774.037,13696.992,9872.911,2272.3696,32597.138671875
45,786.97876,14013.509,8010.502,3947.3965,-360.89166,-7125.511,18194.326171875
46,-3326.6995,993.9661,-6475.4536,-16.019403,-1192.8911,285.61075,6833.88427734375
47,3057.7532,7422.967,1894.677,1643.3099,842.2145,1843.2389,6775.46142578125
48,411.41986,5229.493,-6693.682,2031.1263,4554.424,191.06616,13514.5654296875
49,71.89233,2690.5278,21.249184,772.6447,805.1357,147.34854,3285.30615234375
50,1592.6876,5695.5757,3738.6077,542.06714,-405.50418,270.09528,3771.9833984375
51,1642.7866,2741.7888,-686.5302,-60.11384,-141.59894,-134.97633,3052.71923828125
52,-1196.8784,2540.663,-5535.352,1383.1058,206.93349,-320.662,7428.50439453125
53,2484.602,1947.2957,1015.94604,-524.97156,46.245827,-282.14886,1651.83410644531
54,1614.3368,1254.915,690.8725,418.4568,-41.5141,125.692116,1108.12512207031
55,1365.8633,1022.9967,1672.7886,435.82004,-359.94342,-126.66632,1150.48828125
56,703.01746,1753.4116,-1147.201,2031.2174,392.59763,-555.0643,4498.2568359375
57,2909.8538,-646.19196,1609.9004,2434.54,-357.68356,264.06528,5299.6796875
58,3551.59,2391.2693,493.872,653.00397,133.2727,-661.11743,3129.18627929688
59,2476.405,-712.1045,-2816.8962,2148.3745,87.47332,344.5181,5960.9951171875
60,-223.70135,1984.605,1190.3751,2196.7666,-276.5236,-953.5278,4603.03271484375
61,1857.4713,1315.2194,-631.8035,860.8055,71.43165,11.984457,2716.5068359375
62,450.20724,1246.1805,34.322994,1286.8776,-349.081,150.56027,2557.20654296875
63,2810.5986,1432.0223,880.2,776.0549,226.2809,-101.37295,2226.41674804688
64,2548.8745,2085.4226,-513.6103,181.3915,-183.53949,382.90665,2968.82250976563
65,315.41257,1225.4052,413.18835,556.27966,4.398341,-179.23651,1331.70861816406
66,2885.4573,1744.1884,-349.6089,753.0267,904.71783,25.79557,3497.8212890625
67,2427.8682,2435.1802,2185.9568,364.0382,-381.1749,109.689064,964.309509277344
68,3030.232,2222.864,1280.1566,-297.52325,105.18266,-275.57574,1681.73376464844
69,2770.8428,326.27496,1430.1205,-1385.9167,-821.63104,2027.3159,4961.201171875
70,3200.0388,687.72394,-640.52094,237.3574,-293.9978,347.99902,3493.50244140625
71,3818.8076,-2429.6697,-682.54584,1986.9498,-664.3464,955.47534,6861.9111328125
72,4484.632,-231.29504,8759.703,-2249.315,-1821.1171,-1335.6934,9547.6181640625
73,7394.3354,-2533.5645,3072.5571,3220.6672,58.031086,-682.929,10337.4150390625
74,7551.4434,-4714.984,11956.478,-4707.4336,-3466.9807,2059.6294,18416.5546875
75,2315.1992,-6587.514,-13517.622,-1632.1157,3119.6375,-1393.7445,15231.4423828125
76,3396.5818,-11712.804,-12122.498,-3761.695,2633.1643,-1130.8984,17370.66796875
77,-4622.948,1527.7056,-3507.8357,-492.40686,31.416246,351.14255,5771.96728515625
78,1350.1956,2480.0156,-264.80292,-126.09919,118.91557,127.12804,2418.26000976563
79,906.33575,1867.1431,-1278.8264,955.624,-1246.7825,-192.79683,3913.07666015625
80,3475.5908,2016.7913,-3602.7915,-579.6916,-908.14795,-632.0996,6825.439453125
81,2764.146,4593.1606,-4137.542,474.96286,-500.90744,-35.92947,8064.443359375
82,3937.0146,5471.0107,4164.5674,426.5165,748.11694,944.0163,2637.0712890625
83,2738.463,2190.346,820.24963,245.62575,-206.04956,-32.83473,1800.046875
84,2270.2961,2292.1985,-848.49524,-170.81807,-191.67252,34.37164,3161.79443359375
85,3074.205,1453.082,-220.84889,-399.72125,52.546574,2.8244689,2937.91943359375
86,3217.811,2084.7417,-510.0079,240.61346,-19.364077,-97.15574,3340.6181640625
87,3347.7966,2130.8838,2030.7426,636.6614,-104.2221,64.776505,1695.27465820313
88,2128.1357,-300.48203,-1453.8877,1422.1104,222.78156,215.28629,4047.81958007813
89,4345.1978,1805.6371,3333.2703,1879.3171,-932.97577,295.07733,4286.205078125
90,2128.8857,3824.3962,-919.5506,255.8551,294.56375,463.46115,4293.8857421875
91,1915.2494,6563.4927,9972.972,1178.32,408.70688,-279.9939,7347.13720703125
92,-636.3219,2066.4817,393.49924,-368.2841,-0.94447196,122.966675,2456.52978515625
93,-223.0947,4391.4688,5714.5913,-324.9232,439.7119,183.95671,5490.78955078125
94,1343.1572,2744.115,-4052.6855,-313.5297,53.943542,-73.67052,6241.5595703125
95,2604.8179,2676.8545,557.1834,504.6983,15.058519,77.43237,2264.58154296875
96,2445.6829,1899.2012,1559.7173,236.46964,-401.54834,-48.301582,1121.556640625
97,6756.6255,-3785.442,-112.79507,189.18077,1438.7726,-561.9109,9652.5146484375
98,1011.44867,4019.684,-3061.1807,-1355.2225,-8.163141,-429.35358,6629.5048828125
99,560.40314,2571.199,-550.03955,1026.8445,-1247.6744,51.340916,3917.96728515625
100,1309.0424,4212.6284,944.0694,939.81396,838.4046,-122.83903,3798.359375
101,698.96094,4721.5396,1379.8871,1167.3202,-729.3922,67.73246,4427.576171875
102,2151.228,3941.753,-1060.0408,447.84103,-272.9858,547.9473,4581.9287109375
103,2772.4553,4260.5425,913.32513,735.30963,-33.761562,-502.62473,3289.47875976563
104,1966.2441,2924.383,-211.02025,-686.9011,226.41893,-377.57446,3121.15600585938
105,1415.7036,5095.14,-281.25348,1345.2599,619.5849,-851.70056,5605.2451171875
106,-587.62,752.65594,-330.30795,-139.39752,-270.91208,-56.963875,1343.83386230469
107,9.773398,2278.9792,-747.6574,-516.6971,448.82755,1693.3401,4177.2275390625
108,142.77512,2473.2756,1046.5153,-951.5772,14.043842,-194.5045,2640.52978515625
109,1762.5387,1293.0974,-370.77652,629.61456,-23.391615,-185.43265,2250.32958984375
110,2468.5454,3538.9644,3159.7617,1349.4425,101.508675,-300.00024,2578.29077148438
111,1867.8375,1430.2133,-1823.4695,193.605,555.09283,616.8693,3792.1328125
112,1665.5184,2224.1934,95.141014,895.5188,64.25819,140.02611,2476.40966796875
113,1917.493,2455.2964,-253.60352,443.7412,151.39676,-156.27553,2627.40625
114,604.733,474.78748,-5234.56,-460.72537,1849.4409,-648.0576,6746.36767578125
115,1320.9794,554.1282,-1473.3069,973.99396,-73.09414,-393.06747,3094.96704101563
116,7565.755,-4257.751,8704.942,-848.6803,-2395.1736,592.01196,13228.189453125
117,580.31305,52.14649,-1882.238,283.86115,569.17303,-788.2435,2849.57348632813
118,3527.827,-11619.693,5942.3755,-2410.6807,-3190.1472,2103.4138,18250.7578125
119,7123.885,-2560.74,2055.829,9581.028,-8709.775,-7179.184,26981.212890625
120,1396.5568,1698.4231,-584.96234,412.2561,367.0085,-686.8392,2635.31591796875
121,444.19836,4311.413,-538.1583,1168.6122,737.13464,282.74857,5068.16162109375
122,3246.3608,2787.9365,2149.753,-105.62775,-570.85895,-81.63859,1393.23217773438
123,2200.1897,3069.9336,-529.1894,113.295784,267.8917,-596.8495,3449.97387695313
124,2468.4067,2133.2593,352.87057,526.68756,38.47248,-184.16628,2194.81030273438
125,-14563.539,-21945.889,-4680.992,4044.03,19364.016,3243.823,37823.87109375
126,-2279.9746,6077.0205,-2956.492,2766.9265,569.0741,-2429.725,10844.3798828125
127,1419.3595,3559.5906,237.6742,-296.3869,-719.8728,-536.9899,3345.04248046875
128,1333.3129,2537.4675,-1434.5809,470.0618,287.17755,-249.30324,3679.8017578125
129,2208.9836,2127.4338,2659.8782,1100.0046,-689.3795,-263.10074,2347.3720703125
130,2619.207,2586.3872,-716.7103,297.3242,-485.64465,84.422295,3466.1328125
131,1763.6588,2225.8542,1477.095,178.78987,66.88586,-84.5809,747.64453125
132,3150.2815,1230.0529,254.32372,-1470.2275,401.2105,139.6996,3679.55346679688
133,3532.9294,2516.5037,1298.9717,185.80139,562.3748,-682.694,2490.705078125
134,2635.7988,3331.2778,-736.43854,344.43008,485.6715,161.84721,3917.02783203125
135,-1900.8618,12952.641,-1593.7612,2977.9565,-1199.6002,692.36005,15764.4912109375
136,173.5934,2091.8906,1385.2928,217.9961,179.66139,-471.46085,1931.29699707031
137,-18514.574,1586.6656,21221.424,7805.608,-3357.207,6467.554,39068.5234375
138,-7912.883,-2003.3152,-1101.8582,2944.8123,-4855.754,8843.898,19299.15234375
139,4293.8286,-465.38882,4482.4663,-684.5084,132.66171,428.3188,5058.88623046875
140,-1722.4161,-939.882,-6572.3735,1309.4838,496.77676,-55.217743,5815.79345703125
141,1875.4801,1611.045,-1331.5883,54.426304,169.24458,111.09799,3104.67358398438
142,2004.2986,2144.8184,59.08558,305.95026,18.009657,100.35895,2094.98120117188
143,1182.7406,-113.33337,-514.3371,-180.77725,-742.85815,-124.584366,2039.72106933594
144,2431.2976,2414.1726,1005.1472,1233.57,-95.17081,-554.67053,2743.17529296875
145,2223.861,1244.2018,630.1727,-24.255022,-111.287155,-309.25827,1504.70751953125
146,2598.6182,1975.5963,395.75125,256.9843,90.53317,345.50818,2109.30883789063
147,2621.6965,431.22958,-2063.3962,1147.9817,176.26581,-5.941589,4531.291015625
148,4410.0977,2913.6882,3899.685,1289.835,-855.4557,-534.5419,3127.23803710938
149,342.4661,1568.2383,-131.432,1745.8499,-237.15013,-107.22047,3413.96728515625
150,-1904.7135,7139.155,6222.5425,-433.03802,703.6219,1121.2603,8953.2958984375
151,4729.0264,2368.2473,14766.303,3749.889,150.29672,1030.615,13245.953125
152,1425.2596,2651.59,-1915.7703,1980.6812,66.36787,-44.601173,5343.41162109375
153,2290.3264,2984.7578,-6.2408776,1304.7548,343.5358,80.584854,3582.17138671875
154,2241.3691,2395.7693,1264.722,1445.7795,656.0239,149.67767,2959.32788085938
155,2570.2664,2911.36,-3526.9534,189.81839,-414.27368,-217.96022,6335.427734375
156,3286.9417,4777.1733,188.84502,-150.08243,-516.38184,844.3372,4409.3212890625
157,1365.7018,2470.805,-5924.4644,-895.5263,599.4007,-158.104,8122.98583984375
158,4567.2114,4553.451,4858.132,349.00717,-1140.7789,491.3028,2254.4423828125
159,-91.190735,1923.7877,-3326.0286,-1450.0453,64.231964,-492.81818,5300.12451171875
160,1496.1315,23.70128,289.24408,-1158.6976,-313.29892,-785.33014,2831.96215820313
161,1287.9088,2007.4458,-1614.0533,-18.522682,367.2444,338.65826,3431.74731445313
162,1774.5706,1835.0612,309.4622,67.543365,-295.06168,-132.98436,1602.10864257813
163,1222.8481,2032.9242,-4109.372,955.4587,426.12915,326.5677,6083.72412109375
164,2944.855,2863.0017,5804.8677,-254.82779,1075.7902,727.07355,3697.72436523438
165,2467.3262,3826.7002,653.68756,352.18948,393.00583,1095.9877,3470.10620117188
166,2263.0947,3914.6162,-259.45715,629.7391,446.6878,-632.5494,4030.57080078125
167,2295.3618,3169.191,-16.404902,517.77203,319.27853,366.5199,3104.99951171875
168,2321.406,1590.7067,1216.627,-22.067438,126.36244,883.37384,1826.912109375
169,1593.2347,2859.3936,-740.2925,-1204.5165,-279.6058,199.55014,3835.32299804688
170,2405.5347,1939.8716,1058.8556,-1328.5941,-30.4556,-564.99554,2767.52905273438
171,492.8031,4856.46,-1882.2213,-937.9471,-400.35153,47.835487,6178.42822265625
172,1233.1987,2333.1973,-2582.1099,1831.6724,-590.7666,-409.01245,5619.375
173,1579.138,2623.2842,267.83,603.7934,-20.211082,36.51445,2297.3662109375
174,2349.598,2333.3318,-719.6677,-220.08788,-49.907093,-256.9823,3117.95434570313
175,2607.6553,1766.8187,61.666565,815.3196,202.69649,66.98519,2679.41430664063
176,1799.0114,5769.2744,-2273.45,845.6853,250.89977,-264.54907,7145.7001953125
177,1408.21,4437.7515,5498.542,-703.6624,-758.6551,168.34027,4100.5146484375
178,1880.7574,2444.8044,-687.7208,573.9861,166.21542,33.394333,3072.22729492188
179,1457.8822,3013.16,1189.1263,590.4791,263.68042,-261.0417,2090.00366210938
180,2579.8428,1731.6005,-590.7107,1047.838,-228.24152,291.3419,3433.27001953125
181,2063.5618,3525.063,3560.4534,-207.60406,-95.28016,282.3953,1607.71142578125
182,1337.6984,2779.43,-490.76038,348.2852,456.73984,133.91266,3016.87548828125
183,2370.8154,3938.822,1766.5315,1035.3583,-238.09099,372.07343,2751.83618164063
184,1348.4266,1398.1096,1018.6426,-4869.756,893.63696,196.6195,8589.6982421875
185,1091.1696,377.38403,-279.9471,-4099.847,548.2975,-666.0651,7353.21826171875
186,-1194.8226,-1204.7174,3255.1633,4365.098,698.4631,-921.14984,9000.9912109375
187,2163.4158,-2154.209,318.49722,859.3925,-290.9031,449.56744,4141.9580078125
188,-14239.959,-23057.615,10275.007,5711.1025,-5448.632,-785.24054,32919.01953125
189,2340.6538,-1494.6333,1093.0635,2111.0425,-988.8901,-1350.3715,5766.6943359375
190,2414.375,-792.18665,-1283.181,1855.1359,614.6644,-227.08147,4869.31591796875
191,1740.9441,-2212.9526,281.25137,1825.7166,-93.65571,-80.754234,4694.478515625
192,1492.3417,-1735.2933,-133.81555,996.4745,-938.99005,-3.2060685,3665.70532226563
193,1177.3448,-2034.8666,-2294.9272,968.4303,369.04657,-43.50337,3801.2021484375
194,1443.7684,-2255.646,1060.8827,1038.2206,-98.378716,118.71374,3964.95092773438
195,5034.476,677.3212,2893.6636,1194.373,-310.37695,295.66043,4367.0185546875
196,1959.2343,1826.1661,4787.647,617.208,753.7618,-617.7768,3519.41015625
197,1539.9805,-1628.9244,1594.7957,76.04279,205.02744,20.188614,3219.21508789063
198,-221.92555,-2621.704,-8983.896,-1131.4108,88.751305,-168.06711,8090.29833984375
199,1271.6862,-1900.2104,-8024.08,-532.49445,249.3141,-134.69125,8250.97265625
200,2045.6803,-1338.6051,-389.8786,670.59717,256.41235,116.429695,3275.625
201,-1374.9512,-1910.7673,1698.4874,967.86884,-380.33264,233.74821,3845.53076171875
202,2895.5684,512.53424,2003.7299,-1700.2133,-238.20134,462.48325,3719.27563476563
203,863.4849,-2431.0862,-623.89484,-1037.7762,340.98807,-432.32217,3508.08813476563
204,201.12392,-3075.544,-6442.631,342.59134,-223.98116,-106.76086,5800.2978515625
205,-596.0972,-2693.206,-1294.5851,-1252.8752,-224.80522,-300.50055,2924.47412109375
206,117.55601,-2427.6594,2126.0227,-2085.174,177.34868,339.05746,5395.1025390625
207,662.5128,-1925.2631,-114.60777,-1019.20465,-27.188349,-529.10236,3041.03369140625
208,2230.466,-1939.5647,1776.6096,-2079.9597,-49.9692,222.23877,5370.00048828125
209,2735.6724,-940.975,-874.0192,-3114.519,-632.8004,172.51921,6608.1259765625
210,2766.47,-1322.9858,-2872.6108,-2532.1372,-1062.5454,80.18414,6935.67333984375
211,-4548.3857,-5198.7993,798.9004,2319.446,-1465.1046,-210.74333,7430.1259765625
212,-5242.527,-6776.2954,-1793.7318,-1386.0796,929.59674,875.4707,5494.70068359375
213,-2737.692,284.34882,-1109.9637,-2732.3386,-1060.5282,590.59906,5803.513671875
214,-857.0284,3341.4473,-2021.025,-2600.5623,506.32404,-969.1536,6909.7568359375
215,-1394.0848,1152.6141,-1655.5198,-1116.3174,358.3656,-497.15286,3476.359375
216,-1206.6825,2264.1426,-2449.962,-70.40977,-288.53018,-134.39122,4269.236328125
217,-1196.4678,1345.4285,-39.754345,-329.11743,59.187702,81.72913,2283.52368164063
218,736.52216,2212.7441,1198.0536,-123.81809,349.83847,1396.0006,2823.21215820313
219,1714.2188,2056.4373,-1517.1881,-20.64558,-240.59698,-623.57025,3606.44018554688
220,430.8134,2436.209,-609.975,36.351265,39.192936,50.42517,2684.8173828125
221,-1688.0531,2131.9534,1336.9553,-546.883,172.4495,10.265577,3629.6484375
222,528.8785,2919.39,-344.71072,-461.57437,-64.75017,162.0302,3049.01928710938
223,613.39044,1955.9122,-158.26172,-112.20508,441.88876,400.58545,2130.43310546875
224,-600.1939,1522.4685,23.132227,-548.81885,-108.929375,647.10236,2401.36376953125
225,-117.2356,1657.1008,-214.10117,284.50375,-160.42757,-125.53043,1922.71594238281
226,-157.59378,738.54596,-300.1975,692.1078,336.2076,590.2455,1942.29516601563
227,-952.2022,1450.0516,-2187.9932,1596.8132,-95.72228,-188.02042,4248.48974609375
228,182.242,1484.6299,-1486.8169,1592.3489,503.52164,-4.1160784,3875.96606445313
229,-935.7633,115.951614,876.6461,1591.5343,-17.505062,51.549114,3176.88989257813
230,-2257.708,2483.1052,980.3934,2741.859,66.301796,-95.78664,6340.6201171875
231,178.02142,-2051.8042,-2089.0632,760.27167,500.61792,861.2807,3125.36376953125
232,1568.0137,-80.47117,33.933926,810.7136,130.14014,162.36005,2154.91479492188
233,1733.2368,-1852.4258,305.3613,1140.463,-11.803999,-171.17897,3710.28540039063
234,1900.1855,-1103.3999,-129.76898,648.0399,-79.54933,-58.904846,2886.92919921875
235,2225.073,-653.2065,-1677.1362,618.8334,16.604406,-116.16568,3670.1845703125
236,928.4877,-2258.9358,-462.25034,346.3518,-317.1462,31.72505,2885.41040039063
237,1219.872,-724.6377,1951.4037,-302.15442,-140.59718,-155.86713,2478.87158203125
238,692.5413,-1151.7278,-2325.0833,415.74185,-657.5359,136.29967,2968.73583984375
239,3458.4255,85.001656,3126.039,-202.35312,174.57382,178.47377,3267.87622070313
240,1307.67,-953.65405,608.94904,515.3739,-75.78849,-41.633144,2200.23291015625
241,3049.4226,-1570.0393,-122.31708,318.00168,161.07104,-108.27265,4142.9462890625
242,2763.5605,-506.77103,1465.7078,-175.18816,325.8267,-45.02707,2924.33325195313
243,1644.753,-1001.74426,-28.836113,-72.96349,89.57291,-37.290604,2328.07055664063
244,1059.0187,-1356.3798,-1434.2109,-705.5913,-113.95184,-66.04862,2752.05737304688
245,3355.8386,-545.9825,5212.7,-536.8615,95.13391,-145.6622,5183.89306640625
246,2519.0825,-2016.3165,943.0172,-2249.6099,-343.7972,-123.58865,5611.45166015625
247,2648.0286,-2252.0066,-1615.2345,-430.38544,554.4675,136.48587,4778.0224609375
248,535.09143,-4411.8945,-6868.6763,-1912.5161,888.6569,-323.13495,7504.5087890625
249,6702.776,-2877.834,12116.349,-2848.2153,-1300.9935,162.42436,14228.6357421875
250,3379.9272,-5557.28,-332.57553,-5419.9053,-221.37523,774.7811,12269.919921875
251,3110.03,-5924.9683,9773.445,-5444.0728,-907.44244,1064.851,16763.71484375
252,10272.783,-2053.564,15530.366,-6532.9185,-1831.522,-762.6654,19601.869140625
253,3549.6638,-2959.6267,-756.9274,-3069.3818,-20.946655,-516.3441,7870.78173828125
254,-7209.0933,-3046.7515,-11740.503,-12775.663,747.86975,-10895.329,30069.5078125
255,-16865.957,-4518.2446,15407.559,-5622.074,-752.2417,2663.3794,30221.5703125
256,-16693.477,4818.3286,18285.52,6070.1943,-9442.11,-6094.0864,37725.88671875
257,-16624.943,3781.4758,-15805.872,-457.60425,7384.209,5413.8896,25544.412109375
258,-18592.297,9780.38,3167.4282,-1283.9777,-4234.4497,-4311.284,27849.806640625
259,-2753.063,8140.455,4930.0483,1577.2903,1081.8961,-2006.2388,10819.0966796875
260,-2019.715,9171.647,2482.7612,219.08731,-3328.393,-4254.983,13521.2158203125
261,-3987.543,8248.448,-1149.2263,1699.7871,5931.3623,3772.3445,16731.666015625
262,-6871.2695,3871.8691,2191.4192,2668.755,1982.24,-2925.8628,12610.40234375
263,-2505.9395,5551.814,-1678.3462,348.546,254.34663,975.77155,7896.7509765625
264,668.4432,4805.514,3546.096,1254.5708,-1041.3282,-701.92645,4790.01318359375
265,-3562.544,290.61438,-2206.7615,-4.6885347,-168.05981,1296.315,4072.71728515625
266,-4281.278,3393.072,-2546.934,-216.77086,412.8776,-84.658424,7019.08154296875
267,-2250.6748,3994.5503,-519.4316,79.84367,150.87782,318.39554,5619.5712890625
268,-2534.569,2746.0427,224.42209,21.390425,2.7959838,-342.40222,4613.11669921875
269,-2859.6514,162.42987,-322.83417,521.78345,60.08248,192.14636,2973.26635742188
270,-3120.3179,924.3415,1155.1329,936.0361,-155.25075,-109.2253,4481.36083984375
271,-2788.601,20.322874,781.62054,1167.896,11.005567,353.848,3882.78076171875
272,-5207.4854,-1039.9874,-3521.1223,2205.8916,-2182.8186,-108.00799,6489.2919921875
273,1078.359,-213.65038,2452.4841,3855.3625,-1536.7102,1662.246,8080.7158203125
274,1127.5614,-2336.591,-3145.4768,1278.6406,968.11566,207.94057,4827.31591796875
275,500.83353,-387.30844,3833.678,-1094.6307,21.898739,259.8915,4319.1904296875
276,-1026.3345,4778.4443,1143.9768,-165.98785,-110.44571,-110.51173,5095.43115234375
277,-3276.3147,651.72327,902.5272,822.33545,184.20358,25.337873,4313.9287109375
278,2626.554,1238.0435,4040.2922,-548.26855,462.18668,-309.3588,2778.37377929688
279,1369.772,-1514.8588,998.3141,1082.5924,-228.38782,-519.1467,3445.08325195313
280,1231.5148,-1941.683,134.1217,391.56534,-36.37554,-58.37821,2874.95629882813
281,1880.6797,-1221.1005,124.40656,-1979.358,-251.3235,-123.76436,4387.13818359375
282,141.0786,2202.929,1251.152,465.04068,315.0782,-38.10856,2036.08764648438
283,40.24482,500.88278,2196.2126,863.2765,217.6939,63.398643,2501.44604492188
284,1826.5701,-3055.3635,1421.8986,1895.2899,-266.61313,-186.00755,5754.55224609375
285,964.9479,-1971.0568,563.04144,1734.6484,-143.11238,212.60117,4101.91552734375
286,2337.2756,-848.8845,3838.2012,-1235.9767,483.2123,223.24268,4755.99560546875
287,-930.5583,-1511.5703,5037.5737,-826.3254,-1164.5237,-264.03174,6763.84912109375
288,2899.8718,-1516.8153,1249.6185,591.237,-272.19437,-199.84932,4041.35864257813
289,1925.2551,-394.52145,-501.65622,-1517.8485,-491.15262,284.5523,3676.89624023438
290,1857.3048,-1986.3567,-4336.547,-326.29495,732.0072,-825.4094,5770.72607421875
291,1056.9736,-622.51697,4426.559,-160.02148,124.0782,-27.123903,4467.57177734375
292,2138.0583,-1354.1171,-23.343546,994.8541,214.94717,82.04425,3528.02465820313
293,2010.549,-1455.1313,-1406.3685,-367.3073,-92.049255,396.50247,3570.171875
294,559.1252,-1155.1101,-2421.7422,-417.1571,355.62646,-642.99036,2975.91088867188
295,2061.6155,-2940.5078,-1921.7583,-337.84476,-65.46115,89.14985,4619.77197265625
296,271.26978,2913.2158,1624.384,-1282.6318,-362.79248,-167.19914,3263.44873046875
297,-1351.0975,945.0345,1239.7916,-998.5417,-176.54997,59.11687,3021.7802734375
298,1127.7019,2374.6726,701.89056,-36.99983,206.0324,-1112.5903,2472.29711914063
299,978.0045,3177.345,-1232.1665,575.8664,-439.03003,-134.355,4026.18115234375
300,1089.3282,340.91885,330.2487,1126.014,34.292545,43.987106,2093.14868164063
301,-4553.261,5103.8496,1191.9955,1112.1489,-12.569072,-1635.3092,9083.99609375
302,499.76617,4127.8984,4995.356,-1012.88226,-439.3715,-601.83575,4669.7568359375
303,-2699.5361,1016.4052,-2278.0627,569.1809,-117.58136,46.479916,3665.99877929688
304,-2558.5957,2471.461,-2287.0251,1140.9099,179.49226,-406.06976,5339.06005859375
305,-2579.676,1516.5928,981.127,1672.0377,-80.98663,-571.1201,4925.24853515625
306,-30719.01,-27191.69,-3124.579,-9707.782,5605.6025,-530.2414,32471.44921875
307,2139.7776,2757.9763,5565.4224,330.989,636.38043,-778.62274,3655.38549804688
308,-6190.456,12687.921,-2675.8748,808.89514,-521.6242,2942.3435,18197.44921875
309,-10462.746,5986.5693,-2178.4001,-10541.923,2118.2024,5661.915,25415.884765625
310,-3188.7578,575.4164,-4368.964,-751.2847,-149.08485,4642.097,9295.7822265625
311,-14992.073,-1303.6053,-2281.5117,-10460.162,2208.2969,5388.8213,24595.47265625
312,-2228.1638,-2513.865,1386.1475,2214.2754,362.4968,-523.10803,5486.4990234375
313,-501.843,56.983353,-747.4985,1906.9879,1019.58105,-344.3163,3859.27709960938
314,876.2855,-3759.1936,-322.91983,674.1578,-274.17206,1332.9692,4928.10986328125
315,953.2586,-2787.0796,652.90027,850.39636,-132.20303,-127.01387,3902.21166992188
316,1892.1495,-2124.3132,159.12044,838.31464,-16.7513,-262.87878,3806.7294921875
317,1893.3956,-1217.4098,-382.9849,795.9271,-175.1495,-360.41998,3187.45678710938
318,1824.9755,-824.6711,596.94275,-618.14746,-9.311608,-175.377,2552.19311523438
319,1790.1438,-3057.1187,1187.3685,-1773.9551,-235.4427,-605.97797,5625.4921875
320,3911.463,-1923.8939,-1752.0826,-2220.148,831.71436,-255.49966,7080.71923828125
321,4483.5513,-1822.1152,1526.916,-1300.3337,191.8832,-1171.8386,6257.97412109375
322,-4603.147,-7299.496,1917.3433,598.0277,-98.65906,931.20685,8430.4306640625
323,874.966,2439.5334,-479.97833,-2508.136,764.3934,219.28958,5212.77685546875
324,-988.7363,2166.4692,-73.88521,-1407.3923,-200.44531,872.8614,4031.64794921875
325,-519.99884,1680.4829,1715.0961,-160.22981,241.67598,490.86295,2427.87255859375
326,1196.244,-1728.927,-3595.5947,2135.5786,128.51283,151.6034,5594.8173828125
327,1551.6863,-2129.4763,-4082.8628,589.35254,-208.01323,783.21173,5250.66552734375
328,1597.9257,-482.63226,807.226,865.0377,-131.88467,-13.069,2367.78271484375
329,1910.4177,596.27576,1831.667,711.86365,-15.323599,-340.15738,1870.22888183594
330,746.61926,-730.22235,-1873.0415,1277.935,-395.4632,358.95172,3306.04370117188
331,2093.098,-2352.9153,393.13522,-740.7847,-67.45236,101.32025,4097.50927734375
332,1413.8282,-633.8063,671.9277,-1108.6017,117.80018,410.74,2731.08544921875
333,2801.847,-5302.3774,-12634.882,-2566.1313,1512.2174,-418.71762,14353.0419921875
334,4376.3345,-1432.0394,-4823.7983,-5051.285,1395.6705,-810.1078,12218.8701171875
335,-14729.301,13238.259,1125.0372,-173.37578,3529.9504,-2750.81,25501.17578125
336,-2118.257,8583.301,-5270.233,1932.0945,-4970.9775,942.86346,15690.3525390625
337,-3637.8167,3414.8975,1846.3352,-1205.4993,-1220.1763,-1643.3695,7620.1513671875
338,-893.83466,-668.7157,6869.765,3427.6633,1129.2256,-2172.017,10573.6220703125
339,-99.15807,1772.5094,418.94022,-413.1752,-715.5589,-451.71667,2337.13842773438
340,-2194.1294,1242.0754,-4351.021,866.8513,-533.1844,42.01023,5194.5791015625
341,-6678.233,-3777.3809,-7746.585,3856.0947,-189.12914,202.11404,7582.46044921875
342,1955.0444,-181.77475,986.6142,2227.7295,-360.1987,-85.952614,4328.3046875
343,-362.26077,836.822,705.2911,1514.9308,-693.90466,99.221565,3107.48706054688
344,1893.2795,-2699.7563,-846.31537,-1838.0153,53.021084,18.090885,5114.9404296875
345,1751.2444,-1831.4585,-1295.2012,963.3683,-0.28775612,151.5254,3749.02587890625
346,-2924.7546,4768.59,-1665.2043,1235.4404,698.97015,663.54114,7645.21728515625
347,210.34554,386.20822,560.0715,1438.1256,-167.72572,-202.22256,2550.18139648438
348,-1843.9073,-3726.8035,-857.10675,2979.7605,354.91907,-1425.428,6283.90625
349,-5490.4995,-4913.58,-3906.8823,1377.3151,1539.6628,2358.4746,5605.08203125
350,-656.6109,-94.39214,851.59766,-2521.8003,-75.137146,106.13617,4568.58837890625
351,-280.7064,1521.5076,5.316134,-182.20352,392.43973,115.388626,1848.20861816406
352,1420.1312,-206.4807,1975.5786,1300.8469,-52.646816,-87.87335,2994.32373046875
353,609.2194,-1211.7787,-3259.095,1009.11523,302.2447,368.24225,3869.30224609375
354,2572.3677,342.30554,153.95256,280.0033,-851.3739,336.2551,2859.65283203125
355,-1293.949,2149.4875,1939.4686,2467.8137,-548.04,252.64577,5526.39306640625
356,-3352.4536,-872.6068,-5308.898,2965.7148,797.34534,1600.752,7128.10595703125
357,-1153.5929,15.427474,2453.7217,1396.3527,-282.45953,-418.9231,4096.0400390625
358,-2215.9597,-2838.7017,-5201.283,3188.962,-1355.2643,802.4177,6737.2958984375
359,-1909.555,-2162.9946,1880.0042,2645.1104,480.5335,-184.87154,6096.7626953125
360,1651.0496,-129.16042,738.5559,1052.5178,48.272972,-18.643593,2389.3046875
361,2199.2231,1495.238,269.5988,519.36035,-193.68906,-73.534874,1948.99780273438
362,-459.26117,-946.30164,125.59766,-557.19446,-574.9588,400.5824,1807.93994140625
363,1805.0938,329.70816,-174.26244,-80.61864,16.67764,-59.70811,1790.34289550781
364,-1576.688,558.46716,903.9529,-4382.7007,-989.8815,-1311.1177,8434.263671875
365,-982.26514,1834.2604,653.24664,-673.1561,-5.636661,-37.0334,2713.83154296875
366,-506.56308,100.26246,-293.97974,622.1828,140.5927,-17.047861,1227.16467285156
367,-362.3567,-1165.1643,-609.7184,-839.13574,-66.19676,-240.3243,1675.10107421875
368,707.9806,-3285.9888,-1695.1486,-363.18344,-64.350174,-59.35718,3542.24462890625
369,921.26953,-3261.2627,-660.355,1149.7174,-6.2973557,-9.672783,4164.8369140625
370,1114.3607,-2693.7183,-199.06366,1480.9169,123.895706,26.319067,4225.20947265625
371,1466.5602,-2058.6409,2170.0,596.9747,-115.0562,56.092506,4064.47119140625
372,-783.20807,-240.24767,676.03186,31.218405,-138.15517,-16.318312,1301.09997558594
373,-1193.0256,-62.96167,-401.85422,704.9336,102.89518,-48.048603,1593.23718261719
374,645.0421,-587.54736,156.47012,1224.7238,-95.655846,134.84288,2395.33154296875
375,-729.62463,-3041.3481,-577.7025,-594.11755,71.13918,22.505274,2606.52563476563
376,50.874393,-576.8183,-557.9747,-1112.5596,646.6127,869.1434,2759.791015625
377,-3853.5935,-165.4319,-962.7815,1676.5764,180.7304,399.55124,4506.349609375
378,-1520.5719,321.72565,-408.82938,211.77505,16.100618,-238.30707,1699.28381347656
379,2723.4885,1977.3141,-78.32751,-347.0245,140.03967,-64.18757,2597.8408203125
380,-379.6144,-99.93891,215.11058,-1404.2806,539.9312,-10.128216,2656.40405273438
381,1214.0994,-1124.9221,1432.2495,-958.6842,248.96187,54.00503,2996.796875
382,1946.04,-1522.9573,951.7368,634.08124,125.09035,32.4919,3290.8408203125
383,1147.6785,-1096.8439,-880.9151,777.4574,16.839634,128.98839,2542.4267578125
384,1774.4424,-969.03687,1267.4773,99.15476,-155.6275,-138.07893,2559.72583007813
385,153.94408,341.19272,974.5821,737.8739,155.57047,-102.068016,1513.96142578125
386,-110.70892,-1007.7775,-330.75577,692.73846,-1.8159518,79.04808,1454.01892089844
387,-897.22644,-303.22433,-1731.5399,1119.4324,-187.71974,50.07362,2327.47216796875
388,-674.9704,619.10175,-477.05737,-521.5153,-12.743361,-5.549824,1508.04272460938
389,-1600.3501,820.5327,-1073.0411,-1064.722,-24.810202,33.45857,2875.46142578125
390,-506.1927,-1120.969,532.94556,-1247.74,35.188133,-60.452812,2604.19653320313
391,-69.18507,-818.8182,-213.16699,-993.2465,-5.66966,314.92926,1931.83874511719
392,-1336.9543,772.04486,-236.98071,-1245.5648,95.89396,78.38499,2835.18798828125
393,536.33374,-2891.8555,-1148.3195,-631.8008,57.006126,-52.555492,3167.140625
394,680.6345,-1419.6697,2612.0808,580.2139,-39.71342,88.8739,3638.23559570313
395,1445.5233,-3016.1252,42.42644,483.15012,3.190436,68.626175,4040.95581054688
396,-1169.9205,1558.6035,-926.07983,85.14715,-77.09783,32.5978,2623.30834960938
397,-809.9704,-1358.9609,681.91064,288.3869,61.21793,-3.3089516,1899.18542480469
398,12.591267,-218.40503,-642.936,1346.885,-2.0602496,0.46719196,2402.90698242188
399,1422.1707,-1920.0664,-622.803,-1244.7208,-118.71812,-145.6614,3643.02099609375
400,-413.69315,-2171.7395,398.76282,108.16307,166.00449,-89.44836,2306.71215820313
401,762.1534,-1874.3827,-947.5655,489.1143,-135.94592,-19.600975,2478.10815429688
402,-2864.6638,3876.7793,-387.96503,-671.96985,434.60617,528.3049,6135.40234375
403,-1409.3394,379.60162,-1711.6313,1114.9487,245.5497,173.37244,2798.72509765625
404,-2341.2483,2246.2512,1375.7113,767.4141,-299.6184,-433.39984,4517.63037109375
405,1306.4867,-243.53355,303.95615,33.987247,-82.68336,141.69406,1392.08264160156
406,847.79895,-49.725723,-183.15735,-263.76465,-148.83289,130.16194,1126.54699707031
407,325.71042,275.98065,705.6295,127.568245,-35.84751,5.56126,467.411743164063
408,-14.2164545,-1744.2946,723.38586,-1813.8223,-64.16289,166.23642,3844.2744140625
409,-26.915215,-1027.8455,822.5118,-186.42982,33.673656,-2.6297717,1637.46618652344
410,-266.29056,-551.76013,-106.63188,-1418.9183,-53.18588,-358.1193,2566.27807617188
411,202.19081,666.5615,-485.7491,-767.5061,-46.63535,-14.056531,1668.13513183594
412,287.6369,-54.377365,116.59916,422.02252,163.01822,-70.13927,846.476623535156
413,-1167.6211,-801.9152,1316.9215,-5096.8696,42.804455,424.92242,9158.5751953125
414,625.3002,-384.54962,220.06688,-677.38904,450.0717,-20.033857,1661.400390625
415,-2975.1443,4486.8247,-1123.3895,-1281.4938,43.99427,-1205.5211,7388.13720703125
416,149.7236,-1309.434,-1015.5547,975.2694,3.0128946,-56.569427,2156.33203125
417,-1049.0726,-1381.6962,117.324844,1595.2961,-98.86234,127.547806,3093.8857421875
418,1119.3134,-538.5512,-1086.1781,312.9466,-65.93193,-73.04778,2068.61254882813
419,873.15137,-704.2042,684.55023,779.0473,-36.271065,-41.693466,2013.96032714844
420,-2750.6128,-1727.2781,-1185.985,2391.92,-657.48663,1103.6067,4899.8662109375
421,-622.0563,-878.1065,-160.09581,-476.58255,70.361404,91.02658,1057.52392578125
422,7.7949734,-40.75789,268.89783,17.385212,-196.81516,-334.22083,731.734497070313
423,-56.051956,-6404.719,-4508.1777,-200.5084,1558.0292,367.5088,6298.42041015625
424,-38.846527,-636.88544,-1557.156,-755.7488,-40.597008,-139.54295,1879.29125976563
425,-4276.951,-2272.9797,-331.10266,1311.783,-180.45775,-269.56384,4142.01220703125
426,-903.3194,1314.7822,266.18185,-248.95499,-287.07025,-338.50894,2114.37084960938
427,-347.84103,-32.827496,76.5758,408.53223,-41.90686,2.4446297,807.247375488281
428,-1411.842,84.711174,-1112.9845,661.9336,-146.69008,-94.31192,1813.12915039063
429,1255.9144,-436.3925,349.10718,-888.83295,78.508896,21.82624,2131.1025390625
430,140.67912,-245.29211,-55.797585,1244.5515,64.44627,-10.504207,2184.3212890625
431,0.25261873,1395.7415,602.8299,-171.92938,111.158646,14.092325,1263.30603027344
432,-2121.9402,-48.79773,-267.6886,719.7388,41.29116,275.8619,2383.17578125
433,45.159504,-853.34534,-3167.085,87.90641,373.35452,33.97988,2946.9365234375
434,417.511,-2525.722,-915.47296,762.3407,99.809235,-136.85849,2888.9013671875
435,564.3401,778.59467,-168.4608,31.309473,21.585413,17.70153,863.242004394531
436,599.61865,-1866.1392,-1359.0693,-58.108837,-109.55834,133.08368,2277.28833007813
437,179.13321,-253.61253,228.00267,-370.30948,87.66255,-131.7798,835.071533203125
438,-613.3375,-1078.4597,955.77094,-440.95096,109.179886,45.83438,2008.39318847656
439,-557.0286,-1062.9788,-1232.4482,-2291.0173,-548.1713,49.66627,4126.20947265625
440,133.83813,-332.5129,800.787,409.989,7.7535787,7.9222198,1215.72119140625
441,611.4047,-714.2726,127.78297,-1111.9125,-598.8092,60.528904,2479.10083007813
442,-1008.8921,1672.3739,1117.8595,1148.561,-21.24536,-116.21593,3163.75146484375
443,1097.2833,-4.4563704,1268.1346,453.54514,123.767334,-4.3654375,1447.19592285156
444,37.74404,-1561.0239,-644.3755,-1692.8241,117.90003,115.87013,3257.2587890625
445,-420.25925,-176.31169,379.8007,-274.00476,7.4147344,-73.017235,863.613891601563
446,-221.057,-1281.5774,-261.42932,-746.35156,-125.46159,-0.8992416,1673.876953125
447,-1559.3706,-2024.2168,-112.502426,-1914.8182,-2.2417178,56.109863,3740.47143554688
448,1861.0778,-759.3332,3872.5493,-832.62897,-943.3814,-368.3816,4619.5546875
449,-5241.221,-3360.3477,-198.7774,-651.97516,189.1666,142.75526,4574.21337890625
450,-593.8981,470.09634,-544.06384,632.09015,-10.38469,79.24287,1516.35083007813
451,-616.6678,-323.76816,628.863,-128.17307,97.894356,-42.979656,1164.43041992188
452,-99.316376,-960.66644,66.34851,1096.1913,-14.638109,-23.533184,2125.8583984375
453,572.5146,-361.80035,508.10257,596.6718,-31.216082,233.7277,1432.40112304688
454,612.98865,998.3906,965.6267,-772.5026,67.299355,33.87102,1394.37841796875
455,1862.3303,-513.6864,1067.6031,242.32253,-48.81381,91.99209,2144.16821289063
456,-921.8966,-1327.2609,-446.48706,430.8314,-65.795074,109.47333,1090.33740234375
457,818.3156,-945.1211,2151.4214,30.943424,-54.911983,-83.535034,2696.40161132813
458,-354.21436,-103.11722,-192.42703,194.68369,-52.52907,-18.848415,414.306030273438
459,-121.97474,431.05615,-431.43317,-210.53717,-129.63042,3.3111725,869.580627441406
460,533.4903,-650.09625,-1245.7759,125.58799,63.44932,-4.344223,1587.51403808594
461,-215.06871,745.1602,-158.53761,-759.6135,210.34041,11.208968,1653.81274414063
462,-675.0356,-883.3203,14.550475,-659.8066,-215.20967,-7.5989065,1451.79016113281
463,-877.8447,-1456.6722,-2291.9932,181.9243,181.13449,-115.91908,1324.51477050781
464,-1207.4421,-652.0655,3731.3086,674.19073,-147.73123,152.41612,4843.09814453125
465,-884.7424,-170.63539,-243.1637,-1160.0479,76.44987,72.31131,2129.26489257813
466,831.48694,909.0088,995.0066,284.08368,58.03781,112.473785,556.990844726563
467,-1056.2937,-579.71375,-762.0692,520.1764,30.54975,-63.648655,1000.08935546875
468,-977.4707,-943.94244,-1897.4818,975.0348,74.88391,-53.129845,1937.978515625
469,367.27365,895.6931,1263.6184,416.12186,-76.32044,-30.346693,1071.78564453125
470,-1556.7625,-293.76282,-1096.1936,1158.5189,-882.2356,204.9176,2777.24389648438
471,-776.7969,-462.94257,-73.80288,-320.5002,77.171425,58.649136,841.67333984375
472,-427.77942,179.43732,529.0401,1699.2566,-50.84629,61.367477,3063.4443359375
473,-1768.5043,-1861.598,-523.82654,694.0773,-116.78558,-121.02286,1789.92919921875
474,198.9958,-335.63785,1213.6339,924.7815,-147.1711,-87.974556,2124.06274414063
475,465.10822,4293.0576,294.6371,-349.02667,219.39201,-370.48575,4031.92846679688
476,3044.2864,-443.2856,2047.6492,65.514465,568.58307,-599.3275,3426.50219726563
477,328.18106,163.14091,-96.40813,-617.4115,-44.209244,-44.278202,1137.00305175781
478,770.1837,2750.7183,1008.2524,331.9529,993.2139,-853.35974,2997.05834960938
479,586.9791,176.23648,325.67886,-500.7946,-96.660774,-98.50646,969.116271972656
480,341.9954,3232.0264,992.4154,-835.6969,-187.42365,-166.64336,3029.76123046875
481,3099.806,4066.85,256.31363,740.3631,115.60126,66.34228,3669.892578125
482,3185.623,-830.09454,625.85516,-1723.999,-93.04137,25.775578,4619.91064453125
483,1290.5435,-3123.817,-1.139879,-399.0502,152.35463,-108.32833,4004.45141601563
484,-787.30133,521.01,559.2951,228.85564,244.64671,202.40811,1490.91284179688
485,-2268.3906,-1625.686,-100.628944,636.9236,-301.36774,-26.271639,2282.67016601563
486,-0.5390475,-126.4355,199.79128,135.81544,-158.72908,75.43592,478.745269775391
487,-2905.4626,-2979.023,-329.42957,729.2222,191.2747,-234.34138,2949.68676757813
488,1215.402,-352.16852,759.19775,-610.15173,425.86737,-78.81065,1905.21508789063
489,1131.9854,-103.30276,-189.54657,-591.1946,-141.46228,-8.993312,1657.9267578125
490,301.98395,-254.50954,145.85847,-1099.7283,54.827328,50.710358,1972.84484863281
491,-2996.7703,-2982.5327,-250.82234,-1013.3872,-57.088814,90.68158,3258.3193359375
492,-4115.911,-3083.998,-1622.8259,119.94803,-231.53947,69.90801,2219.53295898438
493,-80.640816,-261.65363,-1260.0967,440.1687,-52.893932,-179.81567,1377.32531738281
494,701.98474,-2496.8596,585.8888,144.75414,-121.0367,120.807434,3166.27612304688
495,-173.69476,-3535.683,-905.4073,-812.72217,-75.77439,-222.96404,3395.03686523438
496,-430.7233,645.7962,-267.206,-140.6856,49.644623,69.60844,1044.46618652344
497,-757.5286,-1005.3781,-569.49634,-154.95546,-436.60373,-35.701035,889.446411132813
498,929.3874,-963.0022,1097.5598,10.673717,159.84296,137.48882,2015.28369140625
499,1640.2814,2441.898,-56.47934,150.54803,-21.413654,-63.271633,2227.80541992188
500,-346.53152,-1032.9701,881.5519,-303.9815,201.51167,-268.5536,1854.12756347656
501,1031.0216,583.42786,673.5006,1332.6993,174.86787,18.729292,2364.146484375
502,-1501.6825,-1946.3119,1003.2814,1562.8008,202.03465,25.086185,3877.84741210938
503,-2703.3606,1347.2277,-879.91876,1059.5203,-219.12032,-58.629887,3983.5029296875
504,-993.4568,187.32175,-1962.1527,288.5114,-87.21499,-97.17778,1943.525390625
505,-603.8054,1478.1575,841.0896,1084.182,442.65005,22.795279,2744.04858398438
506,-171.75285,1110.7095,1831.843,409.83527,-16.218199,114.755875,1906.24255371094
507,-337.0689,-87.057144,1169.2382,-1257.1353,-70.4751,-108.586105,2597.36645507813
508,-2918.0745,-2101.209,713.0032,-888.09656,770.8757,-184.01627,3890.548828125
509,-1076.713,1488.6877,107.33771,303.65344,-120.41437,59.774117,2297.06909179688
510,-753.51166,-100.15132,-205.4465,575.77277,-117.55396,85.39391,1194.5908203125
511,358.76126,543.4996,547.1881,-299.74207,-157.81024,7.3236456,615.818420410156
512,-2196.214,667.6534,537.9851,854.36835,47.734753,57.951298,3170.79565429688
513,-1229.0922,2544.6145,-6.5507264,7.357117,-102.64775,134.51312,3347.83666992188
514,-994.6172,576.8343,532.24475,1176.5702,105.47161,88.16247,2571.1904296875
515,-945.25824,3570.3975,-1517.8658,-549.88336,65.82279,88.75963,4924.27392578125
516,625.39795,312.22433,-216.74724,-375.29758,-56.191814,-140.57953,1017.27758789063
517,-3348.2148,-3636.8147,-585.6287,348.42715,-107.07247,282.39713,3024.94580078125
518,308.48877,-731.12665,-749.7569,7.3639064,-143.79974,165.05177,1115.54455566406
519,182.21844,105.16645,903.7987,-377.69724,-31.616867,8.0905,1006.66534423828
520,1867.3832,-293.563,2070.8372,-195.92346,-136.82785,-157.73836,2323.08032226563
521,-611.1086,-159.08008,-1993.3152,115.72737,-99.80046,358.9716,1787.80932617188
522,287.62503,2434.1086,297.42853,526.79944,39.79497,-10.278445,2328.96215820313
523,782.9578,-1967.5579,-1353.4722,-1391.8407,364.56302,-76.11835,3532.86669921875
524,-1617.8348,-1762.2982,-1999.8049,-296.02124,-156.5257,42.061592,673.263916015625
525,-1420.7721,667.44995,-825.8594,345.3455,-289.08066,-98.88711,2027.34094238281
526,-4545.9473,-2434.1099,337.5417,-1234.7003,-354.65872,-58.922344,4791.28466796875
527,-3249.1985,-2841.531,-2.7643945,464.38742,33.206417,-6.0111566,3167.40356445313
528,-909.6644,608.6822,-545.7318,59.207752,22.077927,-106.8956,1389.78649902344
529,-498.6162,2370.386,271.818,1052.995,-91.257,-39.369957,3157.59326171875
530,430.2084,244.98062,1989.2473,457.8706,41.03478,179.03984,1866.50549316406
531,1003.20593,-1132.8704,933.5363,1460.5322,38.9593,-91.48901,3293.62768554688
532,-49.678738,-313.22998,-43.101208,1436.5613,167.94678,34.28864,2520.02124023438
533,-679.41504,-1649.2808,345.06677,135.50311,78.93335,45.670326,1750.38415527344
534,-2013.8501,-1152.568,-906.2205,212.41391,-45.73069,-111.96106,1092.66064453125
535,705.5128,1761.0713,56.325085,-279.7721,121.033455,72.04629,1585.95104980469
536,557.4065,401.52994,162.37726,-510.5977,250.54955,-160.32178,1079.96948242188
537,-2518.0488,5469.522,176.55179,994.0789,-107.074844,52.851204,7248.8759765625
538,-1845.9066,2743.1113,405.1789,2623.1943,-76.67263,-82.51046,6039.677734375
539,1186.6869,2508.6213,2060.8333,492.85666,-283.53717,-32.63983,1526.16430664063
540,1309.5222,884.8956,1976.6527,1991.5609,116.8799,-36.278614,3585.04223632813
541,-860.12494,3867.4697,358.30035,-2055.9658,-70.42606,-104.13516,5550.03515625
542,-1936.8789,-621.79034,-1251.097,2821.5288,-229.81078,-2.3753903,5033.82763671875
543,-2708.34,-1988.4474,-1335.9896,2696.7405,111.47836,84.09519,4825.90625
544,6582.442,-1501.2003,-1653.8907,2398.3389,274.79156,8.887064,9169.828125
545,-3305.705,-1417.6044,-1106.132,-1559.6925,-95.541,-90.76764,3405.88500976563
546,4124.895,-2544.1406,-1085.0215,187.03796,-9.584897,56.225903,6081.84619140625
547,2292.8691,-5021.4355,107.83391,-2710.767,41.59656,-90.63093,8022.84423828125
548,3150.1152,-2027.6798,-57.40512,-2514.4324,214.74254,-146.16307,6297.57177734375
549,181.706,-526.4574,803.17694,57.61589,107.579895,62.293716,1176.49694824219
550,2897.473,760.3693,139.44771,-105.551094,58.779385,-76.64072,2518.16162109375
551,2973.5676,263.77124,-585.64746,-88.57603,-82.79237,13.222295,3226.59033203125
552,-3075.4968,-1435.6788,-987.7467,-494.71075,526.95056,253.03293,2320.236328125
553,1229.339,2561.4668,472.1519,-115.18686,-135.72844,-90.75114,1864.49584960938
554,-4967.319,-6033.102,-2100.1196,-295.1473,162.65495,-128.56073,3578.10375976563
555,-333.75977,3785.6714,375.42108,-1567.835,-223.70879,-81.224,4700.58251953125
556,978.4754,1257.8646,1857.0444,-1328.0834,198.13016,-25.896479,2452.68725585938
557,711.70874,1150.0198,1260.5239,-2025.1251,-369.16492,104.92684,3605.27880859375
558,2494.3013,2706.5002,645.86163,226.45636,228.7052,45.08785,2042.26806640625
559,2538.662,2529.3123,625.752,-781.06116,-275.93488,97.71467,2393.46215820313
560,-1173.7017,-4564.2837,399.96976,-1007.7288,106.34976,74.38502,4733.4169921875
561,-1501.0809,-4178.699,-391.29007,-521.36755,19.178257,187.68849,3506.44116210938
562,1102.4489,-1392.9388,404.33115,-745.7248,-206.5344,-316.50214,2658.7705078125
563,982.6381,-2086.5374,-655.36993,828.0152,68.68852,143.41219,3034.51098632813
564,1711.6958,-520.1316,-134.71172,1925.2015,55.04847,84.39092,3926.71240234375
565,-1166.0056,2018.5885,265.8923,379.9838,-150.24428,-96.583176,2856.7158203125
566,951.34265,-828.4335,-130.76324,8.691185,21.953163,47.32458,1555.96960449219
567,388.0047,-996.17816,-187.75018,-340.97815,99.80156,-123.59633,1369.31127929688
568,1529.6685,-1852.5303,-8.8117075,-1326.8925,-85.38806,-72.13136,3731.24072265625
569,1093.4241,2115.9568,-1325.7358,3850.3577,135.87363,-525.12805,7397.97265625
570,-939.3688,1570.213,967.5937,1742.3695,134.42929,412.5814,3849.83984375
571,-1080.9098,5984.4604,197.57108,-2261.3882,-213.78989,19.586401,7615.833984375
572,1739.3108,2026.987,740.924,-1993.1416,-13.866847,659.1693,3819.51245117188
573,-676.3706,120.66116,-672.67365,82.91511,22.003368,154.59776,852.118103027344
574,-254.76077,422.58826,477.7404,770.4329,-95.75152,-38.640636,1520.48864746094
575,-262.12714,-327.56802,-320.90964,259.23273,-88.78796,78.42649,497.592193603516
576,611.3816,-123.45842,-102.28777,-236.08011,124.18929,-176.0077,911.749694824219
577,88.0559,-2035.5891,-29.2615,-264.95877,95.151794,423.33447,2247.19775390625
578,-840.28815,-1592.6727,-279.1062,-694.81824,-71.333885,174.30978,1690.55224609375
579,-1136.3419,-2670.4634,-4126.032,5.2837844,30.1873,-162.26526,2605.19409179688
