Element Label,S11,S22,S33,S12,S13,S23,Mises
1,9708.396,9323.732,5183.117,1046.6034,-269.5827,2395.2483,6292.94921875
2,-5751.411,-309.18848,-12598.954,-719.253,121.43643,-2084.6414,11331.6318359375
3,2203.891,12820.9795,5605.6567,974.6499,1233.4702,452.7266,9808.505859375
4,-6047.7695,-12091.4375,-16125.429,-1618.4227,-184.08841,-1369.5879,9527.1171875
5,4192.698,2888.4673,1869.0062,3414.2114,-56.961857,2389.0984,7494.90234375
6,-8304.528,-1862.4839,-5839.716,-295.714,-174.94049,368.14914,5697.15380859375
7,-133.9917,2344.6396,1940.324,-1505.8352,-1966.6802,-287.69464,4894.8291015625
8,4154.2427,6701.868,-6405.3643,-2855.8992,-87.80983,-813.01,13090.919921875
9,16580.154,12310.133,33268.35,-2719.5789,2424.833,-809.4799,20243.060546875
10,3958.117,5605.6064,-15543.239,-1499.8053,2190.9883,907.1743,20946.689453125
11,17682.965,4078.0576,-3009.8306,1590.2097,-1588.1592,-437.01294,18641.021484375
12,13994.366,8116.824,9612.624,-358.91107,3204.7595,-1434.1511,8084.52587890625
13,-1598.263,1343.9465,-6559.46,-3091.409,-765.9597,-793.232,8954.6142578125
14,-15204.205,-21182.09,-20735.014,1022.97784,1611.3005,2850.3005,8280.2998046875
15,-16986.568,-239.82666,9479.428,2712.528,-1694.4294,-2765.5864,24316.97265625
16,8911.501,6202.0483,17400.967,5527.786,-3676.466,-2335.3135,15842.7744140625
17,7404.7744,2234.7153,2828.7354,8875.905,-1549.5616,2835.065,17078.423828125
18,33683.24,41670.402,66787.08,1713.5748,-495.19116,4700.837,31162.33984375
19,117753.51,117640.336,118583.81,-678.6794,142.74734,-755.48456,1987.81274414063
20,29771.414,27114.936,42355.72,3069.128,5584.1733,-1782.3282,18171.109375
21,-3960.4639,15588.764,3805.9429,810.5194,1092.3586,-2959.965,17958.197265625
22,-18280.674,2695.83,10531.826,-1582.9976,-11425.59,-21.040247,32633.412109375
23,32228.424,28090.654,19118.52,5172.138,9355.6045,-1788.4792,22072.064453125
24,-37486.582,-51608.81,-49277.5,7359.0244,-4946.659,266.0594,20199.88671875
25,31027.111,42453.27,48044.066,3231.3555,-6412.34,3350.7458,20348.396484375
26,34196.07,29188.426,55267.324,10077.601,-2836.0864,-2975.455,30495.177734375
27,50383.4,21211.715,29856.168,2225.4985,-9400.368,-4179.5513,31716.015625
28,20030.184,13676.766,-3053.4082,6492.0254,-3223.8264,-4522.563,25407.4296875
29,-3430.0676,8538.638,-13416.041,5749.732,5113.6694,-557.4604,23260.44140625
30,-6335.8623,-22456.732,-617.88965,2776.6223,1191.8118,3126.6387,21011.28515625
31,42216.703,8885.858,42687.047,-2696.3416,5657.047,5677.8613,36624.78515625
32,-35175.664,-12179.83,-29717.87,1530.5887,1100.0734,843.64716,21115.9453125
33,26722.016,25840.176,29801.498,399.87097,-5682.862,-927.20233,10626.3837890625
34,6498.76,-1100.6274,-5563.197,-1109.4557,-1411.7286,-6056.84,15208.7314453125
35,30922.373,23693.729,34598.152,-2926.223,-1068.3115,1464.8906,11308.646484375
36,-10245.186,-21139.633,-48820.633,-5794.0874,3237.6016,3860.2944,36923.734375
37,-6217.176,9217.303,-11680.07,-1532.3336,4204.418,-4300.6304,21632.0390625
38,-319.5088,15785.781,11318.171,-9888.544,-1930.8073,-5853.2666,24793.22265625
39,3175.226,6130.1304,1846.351,-4490.1426,3022.6414,-3697.5427,11972.166015625
40,-27698.188,-36202.19,-46159.477,-4656.4585,3753.9163,-2423.6223,19521.466796875
41,2529.6697,-7455.9253,3591.4614,-3426.5957,5227.485,1674.6622,15396.7548828125
42,-16213.25,-12366.104,-8955.366,-6150.9443,3323.7773,1068.7338,13770.5009765625
43,-9949575.0,-9949965.0,-9949350.0,-1111.1598,47.90534,31.366888,2001.08459472656
44,9758.737,13703.884,10858.87,-293.24243,2283.7144,-571.3966,5414.59130859375
45,10868.488,4443.344,-2314.0732,-4089.6362,2889.1094,-5805.5083,17512.583984375
46,-10699.717,-16402.105,-36098.58,-4790.3,5893.9814,-625.5903,26589.796875
47,54.80722,14577.411,1524.5217,5900.104,1726.3949,4382.1953,19044.892578125
48,7146.0566,14238.736,33607.105,-1161.2902,-3828.805,3853.7,25600.615234375
49,-8767.684,-12676.371,-27367.557,-6079.607,7941.0586,-5270.8296,25921.865234375
50,28929.023,24860.95,46855.457,1114.1666,7291.015,6721.4214,26637.673828125
51,11295.513,6334.98,20060.754,6679.257,3389.4602,-443.8718,17714.6953125
52,6652.407,1401.7942,694.9421,2074.873,12113.757,-1596.9053,22194.029296875
53,1611.0558,-11852.32,-8139.723,246.7113,3943.5657,2532.4604,14530.642578125
54,-27819.4,-25856.057,-13029.302,-4421.3286,51.744385,-1898.2112,16218.0703125
55,31147.01,31016.492,42477.867,2737.639,-5111.046,-7693.226,20206.279296875
56,11834.462,32809.91,28951.398,7368.0386,4972.223,-7456.3457,27888.12890625
57,41718.824,37211.145,35586.453,2941.105,-3487.5317,1905.0685,10178.859375
58,34270.785,22022.865,30036.95,-269.88797,-1901.7151,314.84506,11289.228515625
59,-2124.2712,2727.1218,-15563.117,3273.903,389.57764,3911.7903,18650.80859375
60,35996.41,38058.62,57069.33,-2221.4219,-3059.371,1856.6034,21402.9921875
61,35498.285,17759.947,54558.652,3029.619,-1986.185,338.98334,32492.47265625
62,-22278.611,-29488.295,-14422.486,1412.5961,-4279.027,-3076.2754,16113.513671875
63,9230.872,9695.92,25108.51,-10116.189,-3133.1458,79.09763,24112.4921875
64,-19400.562,-24469.648,-24759.729,-1585.7574,2237.906,1477.1584,7507.646484375
65,-24227.71,-29694.33,-20972.672,221.11755,5915.241,98.5897,12783.5576171875
66,-47786.59,-67962.9,-39339.527,3384.9153,13423.318,-6435.6743,36715.796875
67,21187.908,35264.86,10919.324,11358.234,-10490.76,-5161.278,35288.3515625
68,56865.062,12579.161,25982.492,-2004.9905,-516.1465,-1435.269,39577.15234375
69,143021.19,154036.77,180962.56,-5879.6177,-6744.392,-2224.6387,37389.328125
70,-60434.15,-46872.664,-35205.6,-14021.452,-4090.4624,-12204.159,39561.09765625
71,131286.62,140310.33,166619.28,-5754.8125,-6736.527,-2542.0596,35579.1328125
72,-33902.707,-60983.695,-33811.72,-4219.8364,-12106.446,-5070.589,36140.0625
73,-89156.57,-119937.2,-118324.41,10112.005,3255.3909,-6257.3677,36829.609375
74,24017.027,15621.792,34758.375,-6163.8438,164.21059,-5162.35,21680.453125
75,208062.14,229869.89,215481.55,1871.1794,2784.4617,1676.507,20273.64453125
76,84182.305,73225.3,65632.805,4226.185,-11587.607,-5616.5044,28494.353515625
77,1563.4508,4268.398,-6562.8145,-5645.377,-1425.8822,3330.4731,15176.3125
78,13055.1875,10237.169,1088.1724,-1339.7633,-2026.3132,-4644.7104,14136.8369140625
79,33254.926,11953.971,46108.71,-5079.0483,-12179.77,7400.772,39742.83984375
80,26784.508,34047.91,47879.867,4247.6523,7851.1636,-5171.758,25765.060546875
81,15560.104,12241.782,26285.512,-13778.59,6758.66,2108.1057,29691.0
82,47388.91,26290.326,61733.4,11810.17,2826.4011,-7876.7383,39775.59765625
83,-3668.0928,-15213.992,-14226.74,4756.7485,-2623.7234,-257.2123,14546.95703125
84,11633.618,15243.613,10471.453,2920.3237,-3946.0,-5030.886,12915.3076171875
85,-14496.709,-1607.6978,-12591.764,3055.2825,611.02936,-205.7195,13208.09765625
86,8738.184,6183.8896,10952.858,3313.9036,3487.0586,1200.6847,9530.775390625
87,-29379.105,-24516.074,-45057.64,-6922.9585,969.2751,-1865.099,22422.0234375
88,-21670.215,-18582.95,-43729.984,-3776.1758,-743.94055,-4638.9985,25947.423828125
89,4483.157,19933.17,-850.3203,-489.48563,2044.0907,6964.0156,22545.453125
90,-17972.953,-18749.69,-33241.402,3968.4873,304.64258,3680.4268,17607.697265625
91,11753.795,-472.76855,28903.455,589.8958,10460.111,-5831.093,32932.8359375
92,-6449.651,7997.454,-7776.4507,-6296.517,102.73321,-6463.218,21770.099609375
93,-1123.6776,1782.4841,-3251.7754,-5304.8833,-2837.6975,-219.97774,11308.7265625
94,11435.528,25070.412,26468.535,-692.69977,6384.6714,-4286.9927,19641.654296875
95,14671.868,-5073.9023,14119.202,-3492.9065,1000.4897,-264.05618,20471.966796875
96,-9255.992,14915.294,-24577.338,7815.4463,-5852.096,-153.95786,38410.76953125
97,119438.49,135424.48,129655.08,-6469.457,-8537.444,-7591.813,26715.923828125
98,-2329.5884,6998.136,21487.213,2504.054,5409.6724,603.1551,23233.29296875
99,10303.291,-14191.24,-33327.566,-7222.183,80.06872,2106.3708,40059.02734375
100,5868.467,9313.974,1750.2998,4062.9363,-1134.5598,-4758.6616,12819.4619140625
101,-16199.783,-24429.896,-23039.693,-1577.3363,-3224.7107,11122.763,21634.0859375
102,20830.96,3130.9941,-4852.073,3487.1318,-5233.0835,-2647.042,25651.01171875
103,-6067.4385,48.517334,3458.2925,1493.0382,46.39108,-6868.04,14767.849609375
104,-28039.672,-10730.656,-33508.516,-8591.468,-2061.4985,1146.8817,25735.3046875
105,7287.332,7920.4795,8039.908,2454.884,-2229.3635,3436.004,8300.5224609375
106,363.47363,-282.33545,12439.054,-4069.9097,727.17303,-9582.224,21926.4921875
107,-9456.016,-17212.479,-20827.57,-9021.784,2945.7083,2400.6394,19717.265625
108,3397.0781,4169.4497,-1791.3468,8173.808,-9501.957,-4774.302,23899.802734375
109,2924.1318,-7541.8984,536.43115,-4538.0327,4919.1016,626.0084,15026.6005859375
110,-28029.076,-34224.906,-43932.35,-8546.951,826.89905,4170.109,21590.283203125
111,-21742.977,-32497.71,-30339.635,-163.35657,224.91649,-1739.9355,10316.298828125
112,-17414.31,-4568.552,-20772.055,-1813.0618,-2332.1355,2058.547,16072.0791015625
113,12694.927,3167.8508,-8203.348,2307.276,4925.1025,-5612.946,22619.892578125
114,-146572.66,-112698.38,-148663.5,6713.3345,-3593.598,71.568436,37371.48046875
115,69663.59,47475.504,57176.38,4404.862,4779.538,-3580.202,23159.626953125
116,-199725.08,-197718.5,-190123.61,8950.77,11789.036,2009.6094,27319.53515625
117,-245690.73,-225492.75,-254723.22,9207.797,-8720.9,-6259.1636,35665.48046875
118,66685.79,77691.375,58246.215,-6375.913,-9323.556,3028.2205,26372.048828125
119,-7798457.0,-7799542.5,-7797908.5,-2948.6985,133.03584,-5419.3027,10785.1123046875
120,48937.523,15194.544,51134.18,-8968.859,1569.8876,321.2114,38295.6953125
121,15984.23,-7831.2637,31789.639,5848.4155,2169.7324,-1974.7433,36357.06640625
122,25551.143,28743.947,17535.6,-11324.878,3911.6528,-5009.3315,24616.59765625
123,-63936.582,-71911.81,-105332.3,-4380.921,-4587.083,1313.4756,39660.38671875
124,22793.146,2467.1282,-7035.4478,3393.5708,2556.5896,750.1951,27430.662109375
125,-5512330.5,-5511434.5,-5513127.5,-718.6292,-308.68283,73.45064,2000.86511230469
126,-41415.938,-45051.03,-27445.443,-3288.1301,4179.0635,-13076.161,29273.875
127,-42717.758,-30043.549,-33800.047,1995.8339,5911.7817,3508.1558,16758.736328125
128,-13768.592,-36187.547,-22990.256,-603.49304,-2044.3911,-10620.422,27072.4921875
129,16525.264,2281.2354,30327.512,-432.3076,3190.6294,9500.611,29864.359375
130,-37804.855,-29598.885,-39199.55,-7916.033,2565.3447,5504.763,19477.396484375
131,-16100.218,-8112.8853,-21307.693,-6760.696,-107.51886,1351.698,16587.52734375
132,-12237.866,11269.719,-4976.8896,6518.086,-3429.4294,2729.254,24894.298828125
133,-80910.734,-72715.72,-104686.16,-2297.1714,3655.45,5091.1655,30999.140625
134,27625.03,28161.828,24520.355,-1887.3251,-4649.9023,9263.598,18563.060546875
135,1493.7976,13538.263,26350.182,8873.048,5543.799,-4470.305,29186.845703125
136,-7034.789,-5455.802,1077.8855,-2321.1934,1790.5475,2443.1602,9959.31640625
137,-3309.557,361.48706,-2007.8611,-917.40295,3409.2976,815.9688,7055.82177734375
138,12159.461,13791.899,19678.123,2147.1443,1491.9955,-1800.8789,8784.060546875
139,-74482.46,-66980.1,-96796.12,-15962.106,-1865.9008,-26.710838,38683.37109375
140,-20590.527,19016.63,3020.0667,-6337.621,-2895.7776,4288.5435,37307.72265625
141,-54443.53,-47104.246,-35961.51,-3960.7927,4126.634,5481.8696,21168.5859375
142,11125.311,10956.705,5573.9927,2110.9097,-879.6297,-1226.1775,7078.783203125
143,85751.15,93634.06,97846.734,9980.3955,10928.102,-10384.328,33071.03125
144,52306.234,79122.59,91295.555,933.5402,8736.412,-2095.038,37927.421875
145,18721.209,9518.16,10442.246,-2738.3308,-8167.9585,5885.343,20089.78515625
146,-15766.026,-17469.209,-36208.62,-2959.7065,-7092.745,2495.8523,24122.013671875
147,-9386.47,-11922.655,7036.547,-7907.2314,-2022.2399,3465.014,23529.974609375
148,65335.914,62161.875,100956.05,-5698.6416,-3382.0852,-3354.9504,39464.33984375
149,-35999.87,-27216.414,-41366.516,-5495.2856,54.363445,1396.8124,15796.970703125
150,20664.91,41240.516,17278.303,-2481.9573,-11202.9795,339.6337,29997.546875
151,15246.897,19732.004,2472.661,1544.8512,11019.538,783.32404,24776.6484375
152,12356.995,6596.551,-22845.258,6877.0806,-8039.1636,-3073.9587,37864.4375
153,-35207.62,-58922.344,-47742.867,-540.7428,-11620.476,3638.0757,29460.837890625
154,-33169.49,-33963.434,-66437.875,10017.8,-4230.8145,2781.663,38196.6484375
155,33593.227,32487.162,-1487.9277,-10416.25,2295.6438,-330.1056,39175.76171875
156,-33964.09,-33501.527,-41563.03,947.91144,8478.122,-283.23672,16734.5390625
157,8238.757,2131.7876,13729.456,3493.4546,-3851.429,1293.3633,13678.6669921875
158,-25914.959,-28108.016,-48262.047,-6949.3438,5448.9736,480.602,26264.814453125
159,26790.818,18488.49,44906.848,-3408.7131,2740.0852,6835.9424,27296.462890625
160,-34543.297,-29644.908,-18008.902,7162.2456,-3871.638,-2284.8706,20758.4296875
161,12722.44,-3890.0117,28790.164,-5691.1714,-2118.7334,4626.555,31239.71875
162,7670.0234,15827.402,18490.24,-6023.4663,605.1938,-1285.5254,14500.28515625
163,-56406.258,-56491.04,-74313.45,-10252.05,88.0087,2111.0222,25453.1484375
164,24011.518,29104.586,13704.35,11018.649,-3607.4766,-1301.3795,24352.134765625
165,23358.473,12427.925,3863.095,8054.5317,-3569.0525,3260.2756,23477.234375
166,16643.229,15419.806,8114.2686,136.64883,-9156.1875,7208.723,21708.65625
167,14490.087,14354.098,24843.07,12081.427,-1934.3641,-8703.488,28017.328125
168,2757.7068,8621.529,-2661.51,-3755.6865,2625.4612,607.1135,12634.48046875
169,10.267944,1390.8494,1756.1416,-4593.972,6405.329,3310.8948,14893.9013671875
170,-6710.0977,1809.3833,-14534.878,-3081.4546,-1629.4734,217.41312,15396.923828125
171,-17072.598,-20725.549,-23811.973,13909.638,2803.4177,-8494.283,29233.79296875
172,-16892.41,-15998.544,-27629.777,14533.375,-454.3901,-2101.9463,27806.810546875
173,2657.8547,4070.7688,15006.497,1931.7437,-11069.648,-4699.9214,24126.9921875
174,8438.461,15530.486,-10928.285,-3312.0806,3177.3596,-6378.75,27349.205078125
175,-38392.312,-7536.83,-10733.508,-8105.8223,10312.49,-2008.8837,37308.265625
176,11796.25,21237.633,31118.963,2247.544,3846.3225,1797.6447,18689.712890625
177,-2820.8184,-6051.686,-16962.207,7071.4263,14961.08,-6599.555,33420.16796875
178,12055.841,19299.39,31861.346,-3954.9663,-1407.5392,-1793.6069,19073.142578125
179,-9649.566,-2346.7468,-2275.0706,-2058.1184,3568.3245,-5476.534,13955.048828125
180,-5647.43,-18498.4,-9859.313,218.11696,-504.2503,-2548.672,12212.8349609375
181,-4444.1445,-7089.347,-12347.921,-2615.8916,-5366.4917,-152.46497,12472.2001953125
182,-57600.766,-27397.387,-36073.254,-3931.663,-9741.415,-1774.1373,32649.29296875
183,-51307.363,-39333.645,-67054.06,14921.54,4704.08,-3725.5312,36821.94921875
184,3647.763,-19500.76,-23852.19,-5410.9683,807.15393,-5461.493,28892.771484375
185,-4728.3003,-713.35425,1720.5522,-1676.5752,16055.508,4966.4727,29792.34765625
186,2852.134,-1710.5576,11715.648,-2715.4546,-235.039,2387.7236,13387.0087890625
187,7176.1577,9446.381,13103.232,3099.883,7038.874,-448.69083,14314.2373046875
188,3890.3018,3818.4104,5769.006,-49.588383,-83.1404,-319.13644,2000.85437011719
189,-634.8508,1776.6042,-11892.712,-809.41925,6278.3403,2506.422,17284.876953125
190,1107.9471,-9343.874,4603.7354,-20379.52,169.03424,4298.8833,38203.40234375
191,-22154.95,4448.201,3535.1797,-504.42355,4349.6685,4447.21,28304.19140625
192,18548.24,-231.13498,40260.758,10170.906,-887.078,2293.3203,39500.96875
193,-16098.393,-6076.0933,827.1504,4689.361,-4076.496,762.4896,18299.060546875
194,25779.072,19553.46,33134.285,-146.244,1786.0588,-2133.806,12725.6298828125
195,7191.3027,42646.37,33178.65,9288.735,8359.961,3332.85,38895.4140625
196,4191.6406,2586.4644,10071.88,4762.209,6017.6855,3255.3916,15970.5625
197,3630.784,6839.4395,9703.808,5161.5386,-1174.9547,-708.8477,10642.5673828125
198,6711.52,11582.925,-598.19336,13189.437,142.63657,-1374.1195,25305.73828125
199,-37074.668,-15955.318,-20411.725,-8710.575,2144.3882,-2783.6182,25227.62890625
200,-6127.688,13818.43,-5138.498,-1230.694,-590.93494,-571.0203,19638.361328125
201,23130.807,22794.541,41226.465,3419.7046,5052.3,2634.7576,21590.20703125
202,-54155.32,-46269.035,-71161.5,-671.446,-7548.3403,4032.1921,26581.568359375
203,25491.676,30799.605,45613.188,-5513.529,-1631.3904,2063.8657,20933.36328125
204,-6317.247,-2936.9756,-31942.379,2386.9658,-1832.942,4386.5137,28975.677734375
205,-11564.715,-21348.182,-42885.26,-2218.5376,3167.364,-2754.0896,28946.271484375
206,21095.355,14246.313,48703.23,1739.4213,-1113.3933,256.07352,31799.12109375
207,-1269.9714,-6446.7524,-3944.6028,-962.9356,4776.2114,-1408.4993,9862.8935546875
208,13167.037,15711.971,23201.97,-2854.3013,-7437.6377,537.1104,16519.693359375
209,-3131.8037,-22642.404,-16504.672,-6528.174,-10071.922,-1872.2484,27226.5
210,-27133.195,-32432.492,-32892.36,8145.3374,-7250.6416,-2881.3423,20307.447265625
211,47856.344,46472.78,53159.434,4638.6523,-6380.8696,-7331.7705,19629.990234375
212,-18113.975,-18438.537,-10731.094,-11132.471,-707.43005,-3323.8745,21527.888671875
213,-4883.241,-5189.7466,82.61842,4163.147,-6372.022,-14688.991,29109.767578125
214,-5084.616,6877.034,-10130.615,-5836.8477,-1288.8853,262.40207,18338.4375
215,-1350.6245,5745.4336,4675.865,-9319.297,1103.8917,1182.1179,17672.12890625
216,-21454.686,-18735.658,-27349.123,-4048.6543,-2063.2566,-5675.76,14722.54296875
217,-14411.402,-19976.465,-32210.04,-4240.6924,-1438.4801,-5644.7554,20111.16015625
218,7055.675,7692.1416,15065.25,-3556.8528,-7308.989,725.84045,16101.5107421875
219,24045.281,28019.059,42997.215,-2968.1584,-1681.9166,2902.5652,18969.634765625
220,-9666.387,-11926.323,-28280.006,-3998.5422,-2351.1475,-4091.4863,20598.01171875
221,-7463.6445,-2804.584,-19651.895,-4878.463,3324.6907,-662.86676,18246.181640625
222,18637.98,21322.387,38434.223,-4380.1836,-5472.9165,-1988.3131,22477.380859375
223,-34041.72,-23291.67,-17026.56,1954.6041,-5188.4756,2893.1265,18425.4765625
224,-53021.82,-45505.914,-34401.703,3260.2837,5119.615,2196.4058,19703.880859375
225,-11998.8125,-11274.879,-22339.414,2474.4573,2740.3884,-841.6527,12568.2607421875
226,-90896.7,-83451.34,-116360.44,9945.241,1886.7892,-4296.454,35442.96484375
227,140151.95,137437.2,178127.72,1458.3394,1790.9987,1807.5586,39729.44140625
228,-6442.949,-18595.521,-46743.14,20.095797,5534.767,-664.4107,37084.578125
229,-40534.1,-8643.58,-35941.812,2692.6118,-7062.363,1160.2952,32665.94921875
230,9388.796,20460.658,33326.56,2369.6282,-4.6086807,-787.1015,21196.015625
231,31141.297,22750.445,10384.036,3960.8853,1386.5824,-7250.331,23186.953125
232,-2862.1494,27389.668,-5140.6606,9169.716,8023.359,6208.116,39373.7109375
233,-5260.881,13033.94,9364.423,3858.4631,8751.222,356.85886,23576.037109375
234,-30570.305,-48296.76,-38115.01,-3906.2803,3051.6782,1745.5521,17895.953125
235,10146.461,-24016.166,-6866.9785,-12955.411,1751.7161,578.54926,37270.04296875
236,9019.299,25497.412,38463.305,14535.752,-4511.1274,-1585.193,36820.50390625
237,-70168.37,-60146.414,-40168.84,9305.723,-8049.299,-10159.239,38256.3828125
238,-35966.22,-73541.31,-44576.008,-5717.399,5947.517,-4283.7305,37705.94921875
239,44752.465,76209.42,70046.21,2525.0098,-13225.865,-648.28876,37132.30078125
240,23951.395,25298.275,37873.39,6493.943,5444.9053,593.07227,19834.18359375
241,-14995.875,8157.5854,-32680.922,8516.371,-1784.5436,2722.4133,38828.95703125
242,166699.27,153834.94,131548.66,3593.2522,1651.9269,-6006.0093,33226.56640625
243,-1716.8853,12582.305,-1745.7246,-2119.4692,-2073.9277,1269.6135,15365.408203125
244,-4778.1226,-18409.195,22506.102,421.82852,5019.847,3792.112,37701.7109375
245,156581.38,140963.17,182886.14,4837.3066,-6601.532,1932.9152,39482.2734375
246,60663.984,53177.805,44084.742,17608.621,-971.71173,10147.659,38062.4140625
247,-20765.414,-699.4602,-10986.189,19076.998,3712.0632,-2792.9417,38191.37890625
248,189692.69,174319.28,186458.77,10255.296,-761.44635,-12454.721,31300.1015625
249,4107.4434,485.5575,-19861.703,-4609.6973,4165.7026,-6602.7983,27339.029296875
250,7394.548,-19725.78,-2353.709,11814.596,872.1373,5565.5474,32865.27734375
251,73607.66,64006.684,91228.06,1354.0002,2166.9404,5553.167,26152.060546875
252,-227036.42,-233911.77,-255164.47,-4193.0615,-2566.7544,3804.3809,27586.1796875
253,-32747.799,-24844.418,-5169.142,-12679.067,-2153.7964,-6663.033,35134.91015625
254,55241.08,57801.574,53311.555,1866.6339,970.4783,362.7634,5375.21923828125
255,-2.3418803,683.4867,1753.0132,-127.67525,697.512,-216.46764,1999.20141601563
256,-17854.488,-29846.074,-31470.229,-426.5658,-3218.172,-3533.1128,15328.9462890625
257,51559.465,51668.145,70300.62,4198.4575,3212.7166,1187.4122,20911.275390625
258,-22824.465,6804.087,-3587.907,-6650.4214,3167.9568,5166.3037,30344.837890625
259,-97837.266,-98433.46,-112673.66,-7581.438,-3081.1335,-0.09150676,20311.162109375
260,-15997.767,-25869.072,-16735.768,-7798.9214,4457.2793,6015.656,21008.05078125
261,65124.445,75950.16,99490.76,-2451.402,3231.354,-1034.1985,31285.162109375
262,-33531.777,-56104.527,-48222.02,2210.2695,2120.8225,9280.578,26081.986328125
263,-8046.1177,-10320.025,-19758.053,643.6844,11858.084,9203.491,28158.59375
264,-9634.003,15617.502,9413.315,7080.347,4520.0547,-7046.862,29666.9296875
265,13009.283,18808.72,38892.848,-2291.1895,7504.434,-3120.3843,27701.8203125
266,24112.98,-4089.7288,29344.223,9899.632,-76.93107,4241.936,36308.42578125
267,-22926.393,-18993.0,-13200.58,-6406.252,-6822.5386,-373.7529,18302.67578125
268,-12660.88,-8320.816,-8369.272,13930.964,4458.357,859.9315,25742.8203125
269,20873.531,53785.348,22230.404,3786.223,284.95627,-924.11487,32957.30078125
270,-4285.933,-82.912796,118.41745,830.2216,3950.4863,780.9238,8322.767578125
271,-4810.2656,-1874.3895,8534.007,-126.59113,-445.7389,6189.3896,16219.791015625
272,-35495.54,-41634.656,-55936.676,659.7137,-381.22375,-384.49255,18226.998046875
273,-4405.0396,498.43927,-494.62637,9392.312,-7280.556,-2569.4062,21532.125
274,19972.805,12844.814,26521.113,78.72401,-1636.2745,-8151.2954,18647.962890625
275,7345.0093,-3053.8403,11844.944,-650.49194,2963.5417,4857.9277,16540.712890625
276,-67475.51,-59378.23,-81034.516,-2676.6113,4063.7544,-694.45526,20777.04296875
277,-11680.875,-10558.243,7379.3247,-2544.7935,-1449.9967,-1002.7439,19284.859375
278,9048.247,6330.9365,8161.173,1477.3136,3121.9907,5331.0947,11260.984375
279,-8034.1504,-27268.676,-14615.275,1833.8604,3171.254,-7882.478,22657.3046875
280,19062.92,51501.85,54467.48,3490.4473,-2406.1575,-3915.9353,35457.0625
281,47650.95,14318.644,41050.625,-14312.911,-3753.7446,-6.64007,39893.01953125
282,-1696.6741,-180.97339,-10166.953,-2726.3145,-767.6232,-640.13837,10591.35546875
283,5225.5854,-6706.06,-11155.037,-2870.5835,-97.8284,3265.3167,16491.740234375
284,-11325.814,-10226.928,-12656.617,8281.876,-1978.6394,-246.59427,14904.2568359375
285,-8521.112,2718.1123,-24887.885,6827.6504,-5920.307,4300.8584,29641.759765625
286,33815.742,25116.703,35615.766,-5409.0156,2800.619,1526.9657,14590.046875
287,-16724.55,-25561.412,-307.18945,-5129.413,-2228.5923,-2577.6619,24626.4765625
288,17048.607,13796.229,32424.457,8057.4126,-905.1877,-1469.3741,22376.41015625
289,-13572.016,16856.055,-7491.3975,-7345.7173,6837.0073,-3648.0173,33464.26171875
290,22388.455,35091.82,54641.195,-863.5158,-826.1441,-509.56763,28230.478515625
291,-3529.9956,-3915.8137,1783.5255,34.35375,-3875.4966,3396.092,10492.6015625
292,-14456.534,-2703.2026,-21786.266,3246.0647,122.356674,-3285.4143,18494.650390625
293,8432.528,-6483.7397,35589.78,-6616.086,-3255.4182,-4251.167,39779.703125
294,-6479.7837,-37966.617,-48021.977,1389.7572,4995.9595,2045.1202,38760.328125
295,-98687.64,-71942.28,-111622.79,-1287.0327,3040.4575,-5045.339,36573.984375
296,6267.776,-8226.5205,12226.353,-2471.8362,1133.9034,6579.923,22000.634765625
297,9383.227,7296.595,13383.972,-4501.6284,6128.407,4202.4307,15973.5859375
298,-10332.359,-3980.1553,1885.7217,-2307.7773,756.4182,-5667.655,15035.9970703125
299,-539.21655,-1549.9421,-10342.852,-404.3057,1106.936,-3075.5884,10943.8603515625
300,15243.413,12739.985,14260.367,-3714.7803,-260.57715,5486.485,11691.00390625
301,-14287.317,-8019.9897,1510.1633,5338.677,-4922.7734,-3922.4495,19854.322265625
302,24662.273,4165.4517,2050.2131,9383.574,-6891.6816,2077.0273,29791.474609375
303,7266.0415,8128.2495,3406.58,4381.402,-894.96674,-3495.592,10752.5322265625
304,9230.912,-1530.7393,-29190.969,8074.7397,-3133.8547,5359.447,38598.05078125
305,-13204.385,-5201.66,-595.31946,-7358.658,-4638.7275,-2440.281,19157.064453125
306,3500.0403,3312.0442,-1279.351,-1322.2512,-2078.8818,169.06152,6346.29443359375
307,18058.107,-7256.778,-11583.34,-15.226155,-7337.0723,687.6266,30528.7734375
308,37216.688,37647.797,52018.062,8934.207,-3020.3474,-3335.8147,22651.626953125
309,14596.791,-3475.7878,22010.195,-1879.2167,2699.0525,10775.361,29938.775390625
310,-15020.752,2652.9453,3310.238,-1400.2799,9679.446,-4228.1084,25787.525390625
311,63601.406,48570.582,35221.836,1154.5771,7838.8223,-689.5596,28187.30859375
312,-14396.278,-18208.732,-2739.5098,857.36694,-1279.7606,1849.4174,14568.3076171875
313,7225.632,-1099.7758,1623.8706,2785.368,4842.838,-825.38745,12236.5458984375
314,18443.314,20469.541,17674.783,7810.2627,7049.5225,-4246.688,19810.2109375
315,-60613.36,-46546.816,-58584.15,10729.803,16291.475,-1867.5946,36407.79296875
316,-29049.309,-7236.9473,-22041.477,-5653.902,251.93277,6991.2495,24794.240234375
317,-22708.537,-17334.715,-32395.2,1569.1499,-2834.6816,3743.3281,15757.35546875
318,-74.461914,-9376.656,-15407.066,3153.0767,3067.9077,-2187.6575,15855.9794921875
319,-34571.418,-47212.598,-50732.98,3400.937,3903.0583,6289.352,20390.263671875
320,27772.105,40052.98,63045.594,-5059.7856,-490.9996,-1315.2709,32319.759765625
321,-14229.668,-33182.527,-41770.297,772.194,13449.653,8587.564,36897.5703125
322,-45949.77,-32821.39,-23264.873,-8850.52,1311.8756,9938.798,30424.3359375
323,8876.231,8406.482,6629.993,1177.0061,-2764.0952,1707.338,6327.14697265625
324,10736.186,10026.459,22467.408,-2303.3945,2592.5273,-2312.5818,14091.693359375
325,21685.277,11308.018,18088.068,-7552.6177,-5951.147,4516.781,20539.63671875
326,-14715.594,-21694.914,-19300.1,6319.246,-1014.3876,214.36101,12678.9306640625
327,-60893.723,-35662.516,-21043.709,3997.0261,-6560.9995,-829.5338,37393.94140625
328,25520.238,-2166.9744,15264.542,-6824.435,1183.9313,-8683.716,30950.83203125
329,63772.18,31337.793,21505.295,-1079.153,2061.6768,-1570.7921,38616.39453125
330,-71009.13,-92908.96,-89080.72,-13869.393,-371.50592,-3911.4812,32152.966796875
331,-15521.735,-3752.1436,-36771.246,-15351.679,1904.5726,208.13399,39474.0078125
332,-10619.724,18540.555,-19924.012,-462.54663,4566.26,-8847.346,38810.15234375
333,109195.26,112665.42,114218.7,-8431.273,3769.6646,11988.129,26587.23046875
334,-21231.06,-17920.887,-33489.5,1747.3488,-763.48157,-14513.474,29062.609375
335,-34515.953,-52339.13,-61266.664,493.4246,4684.735,3112.4817,25536.576171875
336,-16078.898,-30361.426,-4417.791,4471.654,-4437.4805,4817.5376,26366.814453125
337,10844.735,-2196.8376,-1747.9141,4318.368,-2289.9363,-16635.184,32654.154296875
338,17787.473,44176.527,31561.06,6118.346,-6747.945,6002.5884,29658.419921875
339,39634.016,17683.795,46129.14,-5338.537,408.70358,223.3861,27435.724609375
340,19288.82,33510.25,40867.08,-1453.5131,-2667.9973,1755.2375,19948.23046875
341,-49093.105,-61120.848,-90537.42,-7887.7935,134.09436,2403.5198,39596.12109375
342,-7694.171,-6292.0166,-132.14893,1939.9972,146.75406,827.0748,7871.1259765625
343,52026.844,38911.723,48451.047,997.04315,4823.9756,-2806.3213,15307.4013671875
344,-2854.5732,-16220.712,-17304.928,-3548.6816,1322.0238,1536.499,15634.1328125
345,-23362.62,-18256.514,-30489.39,-4022.1895,2867.2207,6771.5396,18000.31640625
346,-22513.977,-20675.508,-23434.91,4987.189,-31.39841,2402.2917,9892.083984375
347,-12888.903,-16600.295,-12477.935,-6152.4536,1925.0894,-5183.3735,14857.5439453125
348,-5500.274,-1767.9902,2334.1533,7208.2466,-1052.6865,-1444.9852,14544.1650390625
349,-24778.1,732.54767,-17625.521,5999.9043,1447.9459,-677.5278,25202.162109375
350,3427.3982,-6273.0254,-2609.1726,-4450.3887,-10497.65,-1005.1312,21564.59765625
351,7269.3516,35483.598,33010.035,-5697.2397,11856.916,-5131.7236,36476.171875
352,10818.488,9657.5,9446.136,-607.4687,424.34103,-4631.8906,8224.8671875
353,1856.6396,-10967.152,-10744.338,-5929.74,5279.992,-613.92053,18758.814453125
354,12603.436,12083.318,13145.177,763.7448,-2365.238,-3786.5723,7898.9326171875
355,-15127.089,-30872.14,-8547.989,2567.7188,6230.4873,-3519.591,23836.494140625
356,46696.88,46144.727,22578.424,14068.668,4758.3364,-557.1236,35090.26171875
357,-58984.01,-83872.305,-56501.215,-16527.492,4732.41,-332.5356,39678.41796875
358,-12123.165,-31623.852,5266.7153,-7070.62,2169.339,2169.654,34641.31640625
359,2818.1846,16645.473,18646.346,6573.89,441.2567,1348.2546,18935.40625
360,-3395.1533,-1042.2737,932.1941,-327.27786,-282.52808,-154.71785,3835.73486328125
361,3359.9985,17167.715,4581.1484,-324.70416,-545.8251,820.29486,13360.826171875
362,-13444.952,-14704.975,-2328.6416,1821.5771,-3531.482,2811.539,14499.986328125
363,4640.1577,10481.879,3260.5596,-3839.6067,-883.7889,-596.7001,9577.4404296875
364,6699.2686,10943.5,-2427.2158,8288.117,5551.084,2160.467,21273.60546875
365,2588.0876,4644.7803,8096.8135,-3089.3262,404.02124,-661.714,7326.75830078125
366,-1765.5483,-10299.46,4527.1436,-1537.6764,1912.4828,652.1559,13618.6982421875
367,-3854.9302,-10487.868,7049.5425,-8212.164,-2645.5603,4158.9927,22592.91015625
368,-3709.21,-3945.5903,1721.8058,-5892.869,-1322.3948,452.5273,11869.0283203125
369,-772.2532,-6106.8037,3633.9768,4367.474,-2231.926,-636.59784,12031.7197265625
370,-2797.2805,-4575.2974,2012.8927,7187.0493,-1365.9537,3123.8123,14989.490234375
371,-7474.551,-16200.732,262.54883,7086.501,1311.4071,77.351,18956.716796875
372,4632.4004,7920.316,10357.931,1909.2291,1702.7666,1639.1028,7242.9765625
373,7462.3105,9194.324,-1218.6729,2572.853,269.71017,927.6611,10772.8154296875
374,7296.9307,2446.1228,-2569.4363,2622.9653,-129.47435,160.30241,9684.1572265625
375,599.1483,3682.645,-1710.8201,-5200.6113,-519.029,991.8833,10337.57421875
376,6702.032,4090.4834,2719.2188,-2534.015,-4453.1284,-7154.8755,15640.1142578125
377,-3246.4192,1021.33295,-56.029724,5541.438,-1319.421,-3867.3196,12529.5732421875
378,3341.848,3122.7727,-130.81592,-108.78614,-1455.6721,1701.8568,5140.81787109375
379,-2220.4685,6173.422,-395.18274,1072.4604,813.9002,-867.56866,8134.1044921875
380,-25984.379,-25499.754,-27824.361,108.64089,5924.478,-3032.528,11723.2470703125
381,-3534.4106,2209.3157,13645.484,3183.0105,-5326.7944,1408.8702,18733.291015625
382,-7281.668,-15589.884,-19371.01,1838.6575,-2116.1145,3374.8057,13133.2216796875
383,18975.22,10080.375,25118.168,-2289.0005,954.42175,-1343.7712,13977.236328125
384,17212.225,12945.984,16177.525,3499.156,-1519.1022,-200.0996,7657.18896484375
385,-13017.712,-13721.303,-24357.441,4443.179,871.401,1758.7075,13852.388671875
386,7200.632,3948.9773,704.6675,5441.5625,115.76634,-33.705105,10978.32421875
387,-174.87085,-4607.4595,-3699.8677,3093.4978,544.46875,620.4073,6870.3583984375
388,-9146.256,-1703.4126,-13376.361,-3286.658,1658.7996,-1450.3718,12318.5087890625
389,3215.061,1016.83386,2174.1436,-2457.8909,-206.98466,810.19183,4883.5419921875
390,-1833.7432,-16723.285,-11804.857,-1437.2191,-526.0158,6.252974,13404.59765625
391,-3540.919,-7244.5737,-15306.864,-6755.6904,-3316.2117,1612.985,16920.181640625
392,3281.1995,5428.835,-2607.254,-5025.097,575.41046,213.94186,11349.796875
393,2534.227,-8526.59,12512.605,-4491.6396,346.4731,-1298.2231,19955.4375
394,-7334.384,-7441.366,3030.0195,-4045.342,2169.7727,-2417.4941,13758.3447265625
395,-11476.144,-12809.869,-9570.758,6455.127,1682.3923,843.3637,11982.5576171875
396,970.87085,351.42517,-3985.0151,-902.7551,-138.19577,1275.3566,5408.919921875
397,2035.2952,-5103.745,8261.279,-5286.011,1300.3376,-968.9632,15029.6826171875
398,7566.111,-1357.2231,-4781.9033,-1690.6056,-779.82916,1830.3882,11931.6259765625
399,-19231.883,-20291.178,-24849.602,-6264.842,-3100.728,-890.5109,13255.087890625
400,7429.0586,-12860.548,-4737.596,-2160.2107,-6367.765,145.60164,21178.9375
401,-3524.8652,-4468.3164,15219.546,6968.7393,5047.3765,-168.22772,24333.73046875
402,3760.7617,-2470.1965,3767.5527,96.80865,-6561.854,-6263.075,16904.064453125
403,1222.1084,-4177.432,-9448.112,1024.4703,-2791.992,-3150.1143,11903.7099609375
404,-1022.88745,499.3854,567.8165,6234.244,2816.8057,4935.468,14693.646484375
405,7514.425,3533.466,7478.754,5758.9614,6810.243,1329.9528,16113.62109375
406,3866.774,999.89526,9731.825,-2848.3523,-963.3356,1221.8945,9541.208984375
407,-1597.6311,3450.621,-5950.3467,-1235.2617,-1555.9983,-1430.7954,9186.24609375
408,-6784.8057,-16703.928,-8038.795,-9729.154,2272.9019,182.52634,19674.615234375
409,-24568.584,-21430.227,828.4453,-5870.4277,-6146.933,1270.1599,28226.466796875
410,2891.3308,-6210.99,12168.489,-4036.2876,1198.9423,-2776.5898,18157.015625
411,-2773.2234,3387.9688,49.944565,1198.0979,904.49365,-2080.7612,6948.80078125
412,17804.838,19061.998,30731.996,-3.5267386,-805.56213,-180.65718,12429.2041015625
413,9626.684,19920.72,23619.45,-1950.7026,1491.8387,131.89825,13261.4970703125
414,2147.7112,1135.5334,1890.9324,4622.514,-1710.5205,2117.8394,9336.3173828125
415,-18267.732,-13395.54,1366.2285,-1501.1466,-7510.358,-11.347727,22125.71875
416,-12956.198,-20831.256,-8211.621,6278.9106,3274.0632,-1092.9198,16610.4609375
417,-20553.521,-10590.987,4311.0225,5036.107,-774.7404,-2469.3389,23790.0078125
418,-7298.1465,-16152.992,-24720.297,-1054.7141,4444.3003,-1268.2957,17178.11328125
419,-2582.4575,-10624.187,-14244.161,-576.22687,-544.60077,1638.2019,10808.3984375
420,-1411.2678,-1808.6248,-2661.3086,-4712.7446,-3526.7065,-9711.8,19700.857421875
421,16532.764,2750.502,14615.368,-63.67697,-2370.0469,1704.95,13884.7099609375
422,434.15588,-527.9005,-1373.882,-86.57331,2234.6716,1109.7705,4599.3095703125
423,-12935.323,9002.244,-1689.4587,-1066.6918,2916.879,4479.5786,21216.912109375
424,1813.7671,8329.523,9933.902,-1839.8441,-648.39954,288.02332,8194.392578125
425,-5024.6416,-2703.218,6086.789,4929.0464,234.4884,2834.4202,14149.623046875
426,-9122.744,-18663.646,-2021.7246,-1368.2225,4782.973,4334.336,18433.919921875
427,9188.757,-212.51025,3279.4717,-3676.2373,-234.18199,-1742.1042,10842.609375
428,-1783.3082,20.64975,2796.5513,2988.1748,-1426.2305,-1086.5166,7238.71728515625
429,-4304.689,-9689.041,-3886.636,-1401.0688,-1038.7971,636.0734,6461.96630859375
430,7138.073,2575.2373,8942.504,553.7744,704.1989,-704.16766,6016.9765625
431,5905.709,7535.275,7023.093,-100.54747,1123.4845,2407.682,4826.07080078125
432,112.21411,-1638.905,-6429.6245,123.17261,-126.73729,-714.61566,6002.6875
433,5168.6694,1988.3284,-8047.4854,9.44111,264.74203,2711.263,12845.7314453125
434,-13690.155,-17329.54,-437.63885,9480.292,-1892.101,-409.48416,22759.09375
435,-7774.362,-8051.577,-10492.407,1192.4615,1446.2854,532.97217,4254.93017578125
436,-6169.654,-17782.7,-12492.107,5613.524,4281.0757,657.2033,15881.650390625
437,1450.6694,-5720.257,-7491.7427,-3461.3196,-10.880511,411.5688,10184.01953125
438,-20260.488,-28332.785,-25784.014,-2544.256,-4400.485,-2617.0405,12212.4111328125
439,4927.8193,3545.3513,8168.8286,-2284.4126,11454.189,-669.313,20675.853515625
440,-9006.621,-9684.915,2774.9734,1919.3074,1715.0209,-661.3369,12978.623046875
441,-4444.7607,-6832.597,1694.1165,-3178.5508,2116.368,-33.48874,10089.4091796875
442,7029.66,7013.79,-531.5001,6861.4575,-242.88518,29.180307,14087.9287109375
443,1463.5138,-2823.6475,-2506.1406,1077.2396,-1074.0353,-496.07117,4979.92041015625
444,-3754.866,-912.7704,-2644.34,-164.16586,-307.16718,-362.6423,2629.25634765625
445,14893.878,9860.012,3922.6753,-515.1428,739.06195,-127.399155,9641.7314453125
446,-9691.055,-17024.26,-5720.756,325.46695,365.40756,-1375.9833,10249.513671875
447,11026.001,3831.5562,6091.46,-3906.0928,-628.03,675.13306,9430.3662109375
448,19525.594,10580.876,7008.4253,1201.9935,-3610.036,-287.72076,12977.0859375
449,6888.0693,5562.4863,1758.186,966.57886,31.134752,-316.33893,4937.482421875
450,3246.4587,210.89958,-842.4335,714.76105,-1893.5715,-1651.6073,5830.47998046875
451,4437.629,-2677.0586,-15126.841,1448.6735,-232.65218,-836.3314,17399.681640625
452,-955.71106,-7963.554,-4129.14,-1919.0907,-223.65085,2155.966,7879.40185546875
453,1185.9379,-588.97925,-118.533966,1814.837,-1002.386,-2415.8682,5739.43701171875
454,2526.2952,7292.656,6709.5005,-1831.207,-1414.3953,-515.94965,6094.1650390625
455,-4877.4897,-2698.617,-5486.874,-4774.0425,44.007336,938.9721,8801.810546875
456,-6938.6094,-12639.156,-16027.971,-5274.032,-755.04584,917.66016,12287.44140625
457,12385.781,5566.964,5228.7534,2464.931,-3578.8196,-844.8666,10378.3310546875
458,-2092.4229,-17477.912,4193.462,-1260.5894,-3084.7983,-925.93585,20219.40234375
459,-14319.752,-8390.106,-5577.138,1925.1648,1347.2227,-25.725637,8736.0849609375
460,-7902.259,-12524.466,-1223.77,6265.2227,-3675.921,2443.7546,16524.17578125
461,-4555.2446,-6877.9995,1915.1309,2890.9856,400.42822,190.48882,9378.3427734375
462,-4569.3774,-6142.8037,2617.3804,-401.99655,537.5579,148.45665,8176.2353515625
463,-5181.2007,23613.957,-6337.475,6304.3306,1895.6654,-91.272675,31525.111328125
464,-26475.125,-15759.369,7445.058,4910.9956,-5868.9346,2676.9,33152.828125
465,-3189.3274,-1790.7644,-6533.17,-1434.6937,-1072.8102,-672.00116,5366.22705078125
466,-6167.5576,2855.1804,-2288.9236,-2456.5981,-228.10786,-900.51794,9063.7314453125
467,-4887.6294,2220.2283,4897.649,-4658.8003,-870.76184,-915.4627,12108.802734375
468,-4591.96,-3773.1545,-9268.062,-2180.153,2399.46,3312.5725,9529.744140625
469,-11548.521,-15675.759,1492.0674,-4929.671,1223.2881,792.15265,17893.837890625
470,3113.349,-8984.357,226.7249,-238.57745,-6497.041,-1538.7145,15927.142578125
471,3019.857,-1260.8688,-1979.6315,-1722.0597,-204.03098,-1663.2904,6264.10546875
472,6897.52,8464.624,14696.746,366.60635,-478.84482,1148.6537,7490.716796875
473,-10000.546,-14704.4375,-2506.8706,-2183.7566,-17.115877,-839.76227,11399.740234375
474,11048.807,5566.911,7502.2207,415.06357,1993.2115,2660.4968,7540.4033203125
475,10958.92,8566.919,6958.3115,-5771.0874,-717.996,-2363.4875,11418.3271484375
476,3014.9998,-1456.4283,-1773.5054,396.36215,2753.2925,4969.0347,10899.4990234375
477,-1735.6471,-7102.951,2157.8643,1683.5364,-390.61172,-662.1092,8668.380859375
478,20254.293,2284.9734,9659.752,-3343.835,10245.644,5258.5747,26003.560546875
479,10132.966,-3176.077,-2377.949,-2546.7979,503.7467,-296.81665,13697.7890625
480,6.6491017,5230.217,1205.4507,-2337.7976,-611.80646,-761.80804,6459.15087890625
481,9446.902,7257.228,-2894.1702,-1405.0266,279.61978,75.14505,11672.5146484375
482,7057.3755,-6665.186,6971.835,-4727.8887,-254.09381,-1257.6316,16097.8134765625
483,-1059.1348,-18275.771,-7404.876,-601.2505,195.67902,270.56424,15127.712890625
484,989.9658,6181.261,7086.8696,-295.55603,1244.2319,149.65146,6119.1943359375
485,-10668.281,6300.446,-24266.484,-2237.4749,302.8703,275.94083,26816.328125
486,4304.1543,5093.9805,8165.2686,110.4701,-378.5882,534.11554,3715.48852539063
487,-2355.1982,12137.927,-6984.6943,-710.8216,973.6563,608.76654,17437.041015625
488,3159.7246,-1646.0327,4737.1934,-2135.9592,1948.0435,1411.5958,8013.3662109375
489,-8338.596,-13718.01,-6766.896,-2477.4211,-1080.5165,542.64374,7915.92919921875
490,-5388.237,-12367.129,1757.3729,-308.30896,919.7934,-312.59015,12359.185546875
491,-15646.595,-24693.576,-4920.4224,-8995.548,825.5212,325.8136,23217.6796875
492,-17799.053,-25178.707,-11686.719,-4271.145,-661.7614,879.97076,13974.6806640625
493,13127.061,9305.956,11587.124,-1544.0659,763.30676,918.3942,4745.3828125
494,-2140.0598,-10934.25,5639.434,458.163,-584.6861,42.839348,14419.8974609375
495,-13399.933,-31025.123,-10258.954,-348.10587,-307.41705,600.0888,19431.953125
496,6192.147,12658.459,7073.1357,730.4704,-1650.8467,-487.37463,6883.4462890625
497,-8968.352,4715.199,-1362.2051,-1102.6681,-1691.3593,-660.0261,12431.8359375
498,-15700.852,1083.4539,8170.414,-4721.875,-800.0371,104.74156,22797.56640625
499,13613.302,3456.7246,6940.2417,-4422.635,-600.1534,251.62373,11826.2392578125
500,-11571.248,-12869.794,5151.277,-3154.0413,8617.561,-5222.927,25248.998046875
501,6123.8125,-850.74976,3075.4868,-523.2213,-1057.4401,-567.79315,6466.765625
502,14591.447,11326.636,15593.588,-7418.6377,619.705,110.32266,13462.2529296875
503,-26076.322,-16455.568,-11645.977,469.44064,398.34607,1255.599,12954.9111328125
504,5507.8955,-5570.4585,-18642.762,-1439.1295,-73.4917,-2430.4487,21503.150390625
505,-14163.916,-5674.5874,4436.979,-1093.7505,-11.25843,-846.82166,16306.2392578125
506,12232.192,39193.363,6209.839,7154.769,-1071.2201,386.27377,32909.05078125
507,15085.136,26903.514,5844.0635,3891.29,-1875.9713,-98.09372,19755.98828125
508,12015.484,15483.498,25134.613,-940.81854,-5879.237,1160.0519,15780.6904296875
509,12061.284,3609.1643,-4583.258,-585.4636,327.6567,-0.3916029,14461.9443359375
510,10451.132,5564.4395,1040.0792,1987.9125,-902.74066,-188.23216,8992.51171875
511,-5280.78,-1532.0331,682.51404,2843.2031,-1947.2898,-803.0879,8051.15966796875
512,3408.9658,16295.994,-122.57655,-2388.4,-72.55274,-605.9203,15565.6337890625
513,-3745.8667,-3320.0833,-1896.994,-2043.3341,-225.72156,-17.780731,3935.96801757813
514,-197.6901,4065.8643,-1310.7167,3216.3203,829.20905,-1709.695,8125.77734375
515,-4782.6475,-4536.7812,-518.40356,-2305.4194,-223.92456,372.33212,5805.77197265625
516,9156.419,11910.146,5798.12,-526.5623,-2390.466,-1504.0116,7271.173828125
517,-32744.701,-27995.723,-18120.877,3421.5142,461.66486,173.33818,14241.1591796875
518,12428.9,2105.5823,-6302.1714,671.68994,-2801.9211,1618.3153,17228.45703125
519,31776.44,16100.346,16663.021,-11586.818,28.971313,655.7618,25323.734375
520,11474.08,11784.191,10034.541,3929.6553,-555.4367,269.47787,7077.0625
521,4101.576,4333.0244,-5956.5884,256.6391,-393.18286,-4169.885,12504.93359375
522,-4200.8994,-7534.5723,5034.7686,-12.607152,192.88605,-335.54312,11298.20703125
523,2880.3628,9259.518,-1587.7052,2317.011,-385.38205,1150.3773,10472.87109375
524,502.72565,4570.4307,-6470.0454,20.983822,-857.3462,-300.79193,9798.306640625
525,-7553.9946,-14594.308,-13651.334,1882.8654,-1879.9054,1736.6399,8608.2412109375
526,-14065.378,-19364.934,7370.948,555.4054,255.4489,818.1583,24583.201171875
527,-14746.3545,-22187.584,-433.36975,-1277.4121,368.3318,-736.33417,19330.5078125
528,16728.324,22845.459,23822.445,-5453.804,-656.9297,-1047.3602,11754.4755859375
529,-1298.498,490.68027,2200.8738,1955.8956,-282.45157,-270.16348,4595.720703125
530,16214.302,5537.22,3737.3772,-1566.9601,-25.74438,-952.2151,12105.5693359375
531,4172.1123,-3483.8892,912.7799,3282.7942,156.47728,-34.522213,8757.3623046875
532,-8451.354,-4682.24,-9497.861,493.25516,1285.6368,-864.0885,5212.8916015625
533,19571.494,-7299.5005,5044.6035,-1470.2445,83.79624,653.0791,23463.04296875
534,7104.901,-8859.043,-8268.552,-1243.5311,771.29706,997.34894,15974.27734375
535,11947.307,4905.4478,6922.504,1073.475,-1628.03,-417.93625,7168.3310546875
536,5215.0967,2786.9949,-377.92297,2689.374,184.56781,-342.42285,6763.8212890625
537,-30720.803,-9590.555,-946.4453,-2641.2026,95.23435,110.345634,26923.0703125
538,-21156.516,-5090.811,6188.8125,4811.955,-775.67255,10.597586,25255.13671875
539,-1663.7634,6568.135,-130.9044,1020.1609,153.60036,24.689909,7790.39501953125
540,4058.2285,8372.939,2122.5945,714.4678,76.1839,265.75317,5698.75341796875
541,-23159.105,-10881.542,-5193.504,-4174.5933,41.04798,114.815414,17471.515625
542,4531.617,1094.4437,20580.48,7009.9146,403.97818,-397.16864,21746.779296875
543,-12235.659,-16932.012,-9837.803,7672.201,561.785,-560.8977,14749.416015625
544,-3334.0962,-24652.797,-1146.1444,-1025.5304,-1309.7955,-588.7207,22699.33984375
545,-21066.523,-8684.735,-5027.1265,-4920.5786,-599.24603,572.08936,16931.330078125
546,-4178.359,-21886.68,605.87146,-1271.3937,311.554,-298.93057,20654.365234375
547,-7772.6567,-26474.682,-4166.0054,-6308.6245,-206.81847,226.28496,23450.021484375
548,-13448.843,-29472.291,2314.9705,-4885.4624,-415.74933,-622.1251,28829.189453125
549,6617.383,-2085.2566,-4600.732,96.05515,757.3465,-795.9276,10373.2216796875
550,6160.2656,4280.092,2827.8066,2756.1812,-415.71252,193.13133,5638.677734375
551,5971.266,7120.7334,7669.9233,4946.8267,557.23425,-692.2968,8833.84375
552,-9241.593,2060.9314,2710.6987,-1529.0391,1589.9559,202.87398,12257.0185546875
553,-1299.6691,-4260.5967,-4105.6196,-2430.7227,40.347244,-985.9347,5383.17333984375
554,-33892.332,-19934.646,-11914.69,-695.93494,654.178,688.9095,19371.04296875
555,10616.074,16482.736,2793.4885,-3554.6025,1549.0582,717.71545,13716.8779296875
556,13579.234,16165.147,11587.896,3607.529,49.47865,-1045.925,7624.5537109375
557,7353.0947,11354.669,3509.7766,1235.0824,1446.5112,648.058,7633.8994140625
558,6931.6895,7112.9688,-8034.8276,3019.472,-64.76409,622.6366,15977.1669921875
559,19115.055,19825.76,7733.515,7034.781,432.93735,355.22946,16956.96875
560,-16423.79,-17633.521,13610.067,-4367.685,-155.76305,78.54297,31577.6875
561,-26828.244,-21048.93,-3999.1077,-3417.1567,376.75504,661.2695,21433.658203125
562,2055.8386,-3914.0513,1726.816,-4429.237,2426.7812,1286.9586,10736.6015625
563,-7896.286,-9269.285,-2211.5002,-1495.0653,98.05261,106.555305,6983.95947265625
564,324.3583,-1529.7507,3851.2883,-3051.8894,944.9557,-512.20337,7336.50048828125
565,5760.4673,9406.057,831.5681,-803.89374,-889.74286,-719.41187,7837.05517578125
566,1744.9714,-3623.491,-4009.1858,3486.4873,538.2345,390.01028,8296.5009765625
567,4346.7,-2606.5295,5912.74,3623.2957,-145.11908,-155.11122,10060.2734375
568,17104.266,15053.754,4085.8186,-2793.6262,-63.095367,196.29845,13058.7392578125
569,-18053.861,-13404.04,-7576.623,-1379.9215,-797.5065,-66.305275,9503.150390625
570,2605.1292,7996.137,-4102.1216,-4267.183,-522.4688,276.26324,12879.5751953125
571,-23976.016,-15537.299,-3848.413,-3218.9846,806.50903,362.11682,18436.689453125
572,13855.653,14030.153,-528.6112,-5403.9395,-2331.7148,-342.82346,17712.1015625
573,-1558.5483,4002.307,-1971.3228,-2525.1394,2144.1885,701.95844,8233.3916015625
574,6180.0815,4409.118,8690.12,2883.2627,-1380.5356,-2514.4482,7969.08935546875
575,-8546.571,-6494.015,-32349.855,-3241.661,1677.8877,1034.9672,25745.90234375
576,2392.5405,4123.6543,1045.895,-1461.094,-308.506,1468.3073,4505.4521484375
577,7225.237,2402.3394,-8117.292,-4383.93,-402.96866,-1439.1421,15780.2138671875
578,4483.5615,-5446.709,17441.826,-5238.902,5926.951,-208.18648,24146.646484375
579,13146.982,-7412.6987,-7120.5874,-8567.43,-10349.344,2701.0132,31308.080078125
