Element Label,S11,S22,S33,S12,S13,S23,Mises
1,973.4796,2302.8872,-425.5806,370.78168,87.513084,-5.970515,2453.59643554688
2,2825.3767,3214.3892,351.1286,-510.35648,54.538883,-130.66678,2842.05615234375
3,2475.877,3192.1711,-704.48126,-73.666534,-237.60048,15.893632,3618.318359375
4,2631.3967,3475.953,499.5029,181.97983,28.067753,75.27236,2679.07861328125
5,1534.2208,2916.08,-503.94592,638.3927,212.5011,103.90373,3204.77954101563
6,2023.2446,3807.474,428.99612,-226.78772,521.3856,111.80086,3094.662109375
7,1961.8762,3871.7495,-335.25082,245.45708,-15.077166,21.40795,3673.47729492188
8,3202.962,4287.791,452.3145,-79.28017,-8.372979,-82.95112,3430.24877929688
9,2334.0146,3914.56,-115.19674,334.3195,-154.64407,196.39842,3590.35083007813
10,2058.7134,4049.1921,128.73366,16.411863,58.092842,164.28145,3408.857421875
11,2143.8533,3884.63,-245.79758,336.428,-42.579777,3.3853476,3639.45166015625
12,1870.7772,3892.9343,214.03662,443.3254,33.925114,-129.82718,3290.55151367188
13,3086.0144,3796.344,-300.27847,-221.3837,-139.45232,-8.497909,3818.70703125
14,2567.0498,3715.3086,-99.04836,-352.2174,-23.630653,44.761833,3444.96826171875
15,2226.4802,3223.045,148.6516,282.68152,186.40611,330.55743,2837.77661132813
16,-143.57886,4255.3486,-1049.7013,-334.04965,1024.1771,331.26862,5288.5146484375
17,4127.0576,977.5862,-4834.2554,61.71327,-1810.862,-3485.979,10407.0234375
18,1329.1388,3129.6216,-840.54034,567.43536,341.6659,-560.889,3757.08154296875
19,1138.1906,2251.7866,-3006.492,351.63498,111.15703,-570.3416,4941.44384765625
20,203.69,3307.794,-4853.337,1190.7252,897.4742,2125.3318,8433.7109375
21,2921.085,4006.5938,463.66843,80.430954,-144.43346,-23.910677,3157.28955078125
22,-14936.87,-16687.445,-12489.713,-1856.7794,3483.7266,-659.0847,7835.31396484375
23,-7594.2266,-2223.386,-773.88885,3335.118,2357.7673,2317.5715,10241.662109375
24,-4299.313,-3771.146,710.0197,-2060.8079,-3294.0872,-375.67377,8273.078125
25,1832.708,-2676.0671,1170.5731,2622.406,1689.5068,398.12534,6888.53466796875
26,1219.297,966.07294,-1143.6998,2191.1226,548.8849,-149.4591,4519.2255859375
27,1307.8162,1941.6522,259.40335,2043.5371,-635.70447,-56.913036,3989.44213867188
28,1135.4861,2120.732,-131.38849,399.21307,27.29829,77.28985,2078.97412109375
29,2220.459,1326.9149,287.83398,686.8136,46.747616,-728.75085,2412.77905273438
30,2690.8403,779.86255,-2762.0525,2799.9236,-321.54172,-485.53574,6892.14306640625
31,1061.3289,2682.8228,388.3109,-520.85724,-67.79842,-2503.3845,4878.72509765625
32,1479.0312,1625.2201,293.70828,254.30402,132.54839,479.79016,1592.78283691406
33,507.61328,407.0453,-279.03003,-535.1457,85.16592,1155.4065,2331.4384765625
34,4042.2664,1265.3527,1323.2585,306.3066,728.7137,-251.64462,3101.34155273438
35,2231.6096,3192.565,1113.7523,-858.78674,12.588421,-320.1431,2401.61303710938
36,2293.067,1804.3064,-2078.888,-279.73117,-191.58424,-251.35947,4213.12744140625
37,2358.3274,3125.8433,-684.5284,-1452.7382,-75.808495,-665.10754,4456.3642578125
38,3490.308,1786.43,1230.013,-352.3962,541.05316,4.254112,2326.30322265625
39,3111.7544,2033.45,-558.6011,-293.95923,23.159397,-237.30849,3332.60864257813
40,940.5469,403.37726,-7076.84,-3052.1497,-2014.0377,476.99036,10052.7998046875
41,5188.4155,-383.44806,1603.254,-1451.824,87.62566,-467.53314,5561.04248046875
42,5805.495,-2802.2585,-5022.6333,1220.2112,1055.032,5252.868,13737.533203125
43,-1585.4088,1058.3461,5656.5796,1555.8818,-1385.6155,-2868.0413,8831.130859375
44,1968.1737,4025.4294,2322.1853,-1045.6504,-410.77994,555.57385,2888.19921875
45,-585.18835,2690.7222,-1823.774,620.99603,798.34674,-210.36072,4418.70068359375
46,1444.1091,3443.1438,3312.4585,803.6642,-1212.9705,-1208.947,3806.33081054688
47,2428.795,2817.1611,160.95312,-50.843983,-327.3976,461.7804,2672.77661132813
48,185.9869,3459.1372,169.28647,198.77905,-2579.904,609.6102,5654.1650390625
49,-734.5458,4547.166,-749.579,2213.0332,-297.90997,-602.2447,6634.9833984375
50,2675.5945,6095.922,4882.8896,1307.3748,-1263.3307,-675.9152,4506.37353515625
51,2327.533,2198.7717,1775.8401,654.9195,323.67444,171.9213,1392.70703125
52,20.084517,3999.5728,-5823.745,1279.7849,-359.8912,1298.1316,9143.28515625
53,-496.52786,682.4351,-3345.8499,473.11792,-880.4005,147.21231,3991.20092773438
54,-1016.6623,274.78656,-1715.2146,1738.6882,-236.93677,724.0522,3724.0087890625
55,-21.626022,1393.4753,2054.4255,2284.0225,-366.26593,1023.8272,4751.00732421875
56,-361.2823,4561.414,-594.9469,3862.8386,-2415.3901,313.90643,9380.84765625
57,757.19324,-7153.199,-4574.524,1983.8207,1021.322,247.04292,7996.5341796875
58,3607.1963,-3367.4636,-2435.4739,2040.4146,-3316.762,2769.7175,10560.33984375
59,1094.403,-437.10315,-2191.6245,1341.4047,-758.8264,-1347.8746,4548.27099609375
60,1095.6956,2169.9592,-1333.5826,2402.5366,-2061.038,105.34824,6305.44189453125
61,1317.5156,716.96204,-1061.1622,1922.9368,-241.4739,1152.111,4454.24658203125
62,1104.4625,1908.1425,-1236.2449,1089.544,-709.5802,51.837337,3617.44165039063
63,2506.499,1881.0558,2049.6987,703.5678,1333.1124,562.2386,2842.37036132813
64,2035.9082,2696.8909,-876.6277,-90.309654,933.75055,-184.1127,3686.01806640625
65,1270.254,1374.8049,-569.0183,513.3049,868.7674,152.79886,2590.54248046875
66,1193.4008,2576.9302,-1278.2717,-328.50735,-1024.2097,29.069782,3862.15649414063
67,2003.3623,2842.161,989.38745,-182.68707,311.26416,167.52443,1748.49133300781
68,2687.4724,5381.2026,3203.0352,-665.5796,98.70367,188.25386,2756.39892578125
69,6480.7427,339.4396,6029.55,-711.93317,-1064.3759,-25.028347,6330.03759765625
70,2309.2063,128.5018,-3739.7249,192.18954,-92.877846,532.6396,5398.3251953125
71,1912.8007,3413.429,-853.53015,629.569,314.34924,83.10029,3944.8623046875
72,6198.0776,4029.7588,5654.4263,-2615.4607,887.9784,204.3754,5179.87255859375
73,3523.6191,4485.94,677.3624,-757.7034,-140.9216,-797.92786,3931.69653320313
74,578.1494,3019.9285,-6102.324,250.11116,1074.07,-868.98895,8533.30078125
75,6463.17,2660.171,4611.2075,-2119.4517,68.30865,1537.0997,5606.05078125
76,3905.675,2968.9363,168.40718,-1258.9962,-430.68466,610.94696,4216.0712890625
77,9204.072,-6544.902,16498.934,5539.486,-7379.3804,2020.8235,26149.693359375
78,247.68001,3454.2346,353.52136,-706.9869,-79.59002,569.27795,3527.681640625
79,-2258.1777,1440.5934,-4006.486,-1999.6907,1366.2659,-1043.5381,6638.3232421875
80,-2712.665,10017.046,4988.6,-2048.6665,-2946.322,1877.595,13135.0595703125
81,391.10074,3192.5452,-5381.8564,-2722.1963,1660.7778,246.66937,9382.744140625
82,4149.119,1082.4043,1559.3701,-325.80667,-1819.9,1691.0782,5196.47119140625
83,3009.946,3500.1702,2248.6914,-910.1242,-39.469,-525.3449,2123.82373046875
84,938.3922,3331.0688,-2639.2148,-238.29172,490.92093,-278.02542,5311.26025390625
85,1150.3231,2333.9268,-547.9368,-8.423872,420.92947,-184.3348,2632.25512695313
86,580.7132,3072.8281,1081.7109,113.691826,-848.3251,1300.4932,3533.3671875
87,1562.0735,2558.9702,-575.01996,1573.0491,-679.5085,392.2734,4118.46044921875
88,1881.7156,2050.6497,4003.6353,721.199,695.5823,1706.3578,3989.921875
89,2916.4019,2686.5886,3013.64,-962.9139,2100.8901,-108.5759,4017.8115234375
90,1381.7007,1736.7997,4153.0083,1439.4144,-268.81808,2525.0757,5690.58056640625
91,1295.6184,3885.4202,10962.025,892.1643,358.0272,732.49646,8915.96875
92,1625.8235,1249.9902,612.2948,-1092.9569,-1074.4285,116.082726,2806.216796875
93,1634.9122,2429.7012,41.935356,-1935.447,433.39484,-17.113068,4029.58837890625
94,2239.9355,2989.0154,121.494576,-816.5567,-150.5455,454.46503,3053.47265625
95,2587.6516,3695.5342,1202.8672,503.74695,44.401436,709.1734,2637.26904296875
96,3768.8215,2495.1091,2316.6536,449.46704,361.85168,218.55191,1738.86669921875
97,5105.4106,3536.6692,4221.3247,-2984.0994,-1574.1862,399.35898,6040.103515625
98,-541.9074,501.7193,-2336.9104,-794.5974,788.3263,1578.5092,4173.5009765625
99,1411.086,-140.60286,-754.05707,1863.7434,1239.054,-731.66504,4513.12939453125
100,1853.5748,3370.1316,440.2522,1216.5614,-174.73433,-524.4452,3434.76342773438
101,3747.4773,5481.696,3640.0928,189.04887,1341.87,985.587,3410.05615234375
102,1321.9414,-1007.1855,1863.36,617.8259,377.1596,-1197.154,3584.74633789063
103,2564.6394,3465.1445,-113.31831,1121.9775,242.43062,-695.3272,3974.56176757813
104,848.67523,736.26776,-997.7919,-506.53043,-430.93115,175.97408,2152.7294921875
105,3556.5474,1391.7837,-4178.0527,-723.83356,1151.4939,200.20021,7310.0283203125
106,6103.654,-3963.2327,-2172.923,-2486.9514,-1306.9882,509.43155,10534.826171875
107,2451.0146,2428.5874,-1774.3438,-2406.429,467.09332,-483.67575,6040.56689453125
108,-5323.5664,-5713.445,-599.4217,6778.295,537.10864,1200.0756,12935.734375
109,1938.4326,3298.7847,-94.81269,830.6479,-703.7714,-112.151924,3513.41967773438
110,2525.0366,2245.2896,1304.9766,1550.9197,4157.0166,-350.43918,7787.9609375
111,2110.6633,-176.00769,2282.6519,1167.6088,794.9463,-1511.607,4300.2724609375
112,1850.8782,2235.5862,-24.180178,846.95575,-1025.3424,611.59186,3288.35986328125
113,1763.9502,3276.605,588.05945,-141.89798,50.282722,41.263462,2350.03369140625
114,554.48303,1786.0472,-7162.6206,2193.6206,-913.97797,1025.4479,9522.140625
115,2562.287,4414.4307,-472.0072,-465.01926,-533.5368,120.412926,4450.11669921875
116,-1859.4572,60.75354,-8078.029,1519.8678,110.91028,-756.48724,7936.1533203125
117,2973.639,3961.807,3644.319,-607.7185,-1732.6056,-129.094,3305.64233398438
118,379.6841,3432.4424,-131.0613,-877.95264,914.9166,-752.6786,4202.6865234375
119,1777.4866,4012.9,402.71262,-629.6013,197.74278,982.3272,3763.19873046875
120,1758.3562,987.8535,-353.39755,702.14825,229.72292,319.7295,2317.34790039063
121,2393.6467,2220.255,-2817.0781,1707.0708,445.7666,-959.1001,6194.85546875
122,1835.4437,1900.203,3528.9995,134.05417,334.36386,362.14624,1882.92602539063
123,1685.0797,1955.2227,-331.21832,665.24774,-433.45026,45.682068,2565.28466796875
124,2760.602,4771.574,376.60666,159.52719,-203.4656,54.51949,3838.10473632813
125,-274.93146,4685.4683,-1132.1447,-1399.4467,-1189.0813,2823.0195,7976.083984375
126,611.41956,2943.6995,192.70345,-423.6682,400.65466,-725.5533,3031.62573242188
127,1171.996,3653.2793,223.54176,1331.2589,168.20409,-897.31635,4150.52685546875
128,-1593.3245,1669.1721,-1913.0842,-125.212845,-1231.1338,1075.1189,4455.45654296875
129,-2409.6572,2759.6494,570.5305,2618.7227,1992.6693,-746.0183,7372.427734375
130,4190.392,6419.4653,1818.2275,-537.5724,704.5799,338.0667,4310.77490234375
131,920.06494,1003.0531,-299.7562,-125.85157,-290.78027,590.102,1715.20190429688
132,-1292.0568,4002.7908,-2912.6865,859.2618,-1961.5139,-331.97592,7302.81201171875
133,6313.121,7184.938,6707.148,-963.1072,-176.47656,2160.9297,4178.13525390625
134,1376.6584,1978.3501,-2810.4148,386.9515,-1246.7137,578.14935,5150.513671875
135,399.35602,1934.2229,-360.0977,-387.88422,-383.6377,819.2067,2646.59057617188
136,1480.4792,601.2027,7298.6396,-2850.4634,3255.3506,520.0927,9834.568359375
137,-33.822964,4318.909,-2825.072,-1741.6365,1274.9413,-2871.295,8808.8720703125
138,-2665.211,2146.0222,650.1898,269.0357,-1197.0121,1275.1912,5251.9208984375
139,2943.5156,3598.1194,-504.3017,-604.28143,647.38214,-369.4389,4163.548828125
140,-426.43912,443.27597,-10219.631,175.14589,-921.62714,664.1593,10447.1923828125
141,2331.0261,2177.9565,-847.825,102.50919,340.43668,624.85626,3345.51806640625
142,2348.7678,4101.961,229.90231,227.8629,-380.1315,-317.23282,3488.44262695313
143,2713.655,1797.4872,2689.8103,291.12872,-223.1744,1016.56024,2078.93212890625
144,2067.8372,1149.6196,2860.8752,825.9618,895.7616,-554.3009,2752.41137695313
145,1588.4535,1679.8246,53.878754,885.82574,731.6126,-1222.6393,3308.75463867188
146,2209.7202,942.08246,-1965.2812,1702.6726,1063.1395,-569.0268,5177.31640625
147,1761.7179,1703.3676,-3249.2178,607.1388,-60.907272,14.630644,5092.947265625
148,1202.2002,1500.6608,-508.54153,1305.9437,1193.2465,590.2908,3736.25634765625
149,1488.5348,1778.0499,1274.2812,1265.0719,153.77028,-237.42455,2287.57958984375
150,447.07303,3620.5566,-56.474407,265.59613,504.59674,-1319.393,4256.8095703125
151,500.91815,2922.442,1806.227,240.65057,-544.1205,577.2738,2543.31420898438
152,1196.124,1911.2828,-1091.7301,3293.5803,434.57617,-2215.403,7430.71484375
153,-1124.6598,3039.0408,-315.0999,3217.1235,593.9392,-147.57834,6840.63623046875
154,1924.1674,531.4331,2888.054,1343.8499,-753.30426,672.33344,3561.95434570313
155,1907.6539,1067.7076,2742.4277,-219.46797,-1127.1393,-252.60362,2500.1552734375
156,4461.956,1803.5184,914.91956,-968.1228,-440.9675,-128.25069,3696.4404296875
157,241.22163,-427.7455,-7775.835,-1006.9336,-16.632113,322.2183,7919.06640625
158,3030.0398,3471.368,5386.279,-1135.1853,2018.76,-572.5777,4667.16259765625
159,1737.112,715.6051,922.27356,-2300.9004,1209.7905,844.9478,4825.98095703125
160,4507.8403,3502.6355,6549.479,232.24805,-224.3576,-859.5752,3124.16796875
161,-2445.6287,4226.695,-1113.3656,-893.17487,-340.5538,-832.27734,6498.06201171875
162,-303.2011,441.32462,-2110.4407,-1476.3892,-1303.177,-525.349,4198.56298828125
163,770.96136,8323.689,1973.5557,-2784.1702,-789.70105,950.10016,8788.6767578125
164,-116.393715,2590.9153,-782.185,-1783.1425,1104.8566,-349.20804,4810.619140625
165,-687.18335,2003.6132,612.86414,924.12994,233.99744,275.82492,2896.01391601563
166,1149.2894,3333.6768,-668.0959,233.82307,92.80717,-115.906494,3503.49438476563
167,2774.8345,3996.3555,80.07842,700.6489,-154.5334,-105.85497,3691.00390625
168,881.3016,4595.055,-7199.746,-823.46857,1051.9753,-612.0408,10751.0166015625
169,-893.7458,-1420.994,-3214.4019,4461.693,358.67188,-1123.4006,8266.318359375
170,-3812.2617,7461.5596,2121.1199,834.9222,-39.202465,1047.3489,10039.865234375
171,-648.1965,3883.2117,-3278.3271,-590.1867,-512.20416,-917.069,6612.451171875
172,2252.4873,3829.647,-1277.1207,597.2958,-58.556343,-699.7792,4802.28759765625
173,2045.043,2651.5286,-300.3326,535.32825,-331.06952,-118.23332,2919.1669921875
174,426.12814,5894.214,2617.3064,-3098.9255,-1292.3799,-382.67966,7548.494140625
175,1999.4265,2055.3525,804.35626,1339.5012,-714.8025,-408.37955,2985.64819335938
176,2382.1738,3769.1155,323.82523,195.1425,576.3158,-121.55703,3189.07592773438
177,2736.5251,4056.6938,5142.073,1194.6058,-8.675572,-487.8215,3057.64013671875
178,1033.3628,4025.8518,-1045.3748,1.338069,-219.97153,534.3816,4527.5380859375
179,-823.39325,4265.517,-287.37585,1008.511,-644.6314,62.464184,5269.36572265625
180,1376.1915,1914.2709,1933.9839,2579.7124,708.7217,-55.801823,4667.0625
181,2470.0315,1328.2903,4346.9814,-1849.5961,-1292.2146,-20.009165,4716.267578125
182,2561.1929,2825.4692,135.63124,-21.466005,-538.2067,4.851302,2732.1533203125
183,1400.9159,1086.9485,-1311.5084,340.05908,-892.91144,1067.0458,3571.94091796875
184,-13702.586,-11951.647,-1853.1239,-208.93802,2905.6338,-1030.8917,12303.4609375
185,-20514.734,-17156.562,2061.3481,-217.7345,-4169.1074,-133.4898,22304.31640625
186,3033.2378,3732.51,6943.964,2984.5874,4623.006,989.7551,10335.7041015625
187,2534.667,-1842.7665,878.6103,1987.3353,1782.5834,732.93054,6135.80029296875
188,-3565.468,-665.4687,-1571.6235,-1455.9149,636.52576,281.5976,3796.80346679688
189,-512.22125,-6624.8784,-2358.963,2397.8057,794.64734,1932.0131,7734.8154296875
190,1022.0655,-4891.742,-7.5617757,2855.9294,-365.7108,-513.64276,7456.93994140625
191,617.70935,-5721.1025,35.96719,2428.3413,827.1006,102.94511,7523.69677734375
192,2335.391,-6844.837,-681.498,132.16298,-1204.3263,-786.0341,8481.7236328125
193,1539.8632,-9050.577,-3306.1006,280.5474,427.78046,1846.0066,9763.6181640625
194,1560.1007,-5280.9634,1777.4312,1006.36487,-9.129829,199.1586,7175.77294921875
195,1011.6459,-4599.8037,-1415.1688,3056.0125,-143.17464,2345.4849,8266.9755859375
196,3037.5796,-1517.201,3282.231,1311.8625,1029.1152,-2170.2432,6662.60205078125
197,1039.4319,-5122.4,1681.0388,419.68018,-485.04202,-227.63478,6612.3330078125
198,423.6452,-8512.569,-2814.7595,1164.9288,383.87943,298.74866,8135.4248046875
199,1599.0715,-5711.351,-7043.6885,-603.756,717.1128,530.294,8272.6845703125
200,2097.7112,-4987.9766,-978.9582,-91.60172,-425.06647,143.77715,6204.98046875
201,1771.4238,-3537.842,-419.62875,-629.263,-87.377304,665.6605,4888.380859375
202,1247.0708,-3992.479,1615.1085,209.61046,-201.93343,-199.667,5467.2138671875
203,1910.3014,-4278.564,112.47869,-2063.7046,-19.564081,107.223564,6574.19287109375
204,1512.4875,-4910.2124,-3602.667,-869.35547,-211.29451,998.4689,6320.986328125
205,1333.057,-4321.2505,-1565.7771,-2236.7417,-268.97476,-94.96861,6263.91845703125
206,1531.1328,-3126.3965,3091.7366,-3081.6177,949.2524,-591.9787,7977.48583984375
207,1388.1383,-4288.4663,-438.5184,-2291.8452,-1368.6774,-425.49295,6863.8134765625
208,2717.7214,-2477.8176,5868.957,-1037.7253,732.4515,10.398627,7624.7412109375
209,1404.61,673.9467,-4259.804,-3591.9233,613.2587,680.21747,8348.818359375
210,1000.5574,-4558.984,-9453.223,-4848.439,594.52295,1107.4694,12543.2734375
211,2434.5515,-722.0428,-6350.88,3286.9092,-1608.4094,-3983.4648,12132.2744140625
212,-2279.8474,986.31226,-734.0838,-3949.4912,-2356.6553,5043.565,12156.3984375
213,-10978.934,-3910.649,-685.89276,5937.3115,2768.3735,1768.0875,14875.4248046875
214,-6711.5176,-6708.809,4315.987,13481.17,5872.377,1259.413,27839.083984375
215,-4486.272,10879.525,2097.1558,707.1179,92.35594,663.15607,13458.625
216,-199.4766,1751.9135,-764.11707,-294.28534,-387.46396,626.0703,2667.33276367188
217,-987.48315,5954.397,-1142.1287,-3333.2566,542.79584,-464.21304,9173.2939453125
218,-3934.988,-5006.6274,1234.8387,-388.756,-193.4162,-208.38788,5840.5146484375
219,-1812.4944,2258.9963,1935.4832,-2883.3535,-1695.2039,-409.25027,7030.59814453125
220,-1120.3889,3834.9187,-256.9404,-918.63696,336.1171,-122.29155,4892.58984375
221,334.3317,1598.851,-655.3362,-1553.8903,414.74246,-372.41098,3464.92919921875
222,-2396.4746,4666.523,-275.6213,-160.55424,-458.90637,-191.47835,6342.19873046875
223,-3439.1914,2962.6199,-2576.3728,-177.05992,324.13028,-250.00464,6066.36474609375
224,723.01166,3327.0974,2115.369,-564.95074,-1124.992,945.85,3540.10302734375
225,606.5793,2500.2058,1784.5887,-1316.8494,659.2739,-213.86693,3063.69677734375
226,916.94586,1731.871,-212.99902,403.36618,700.1803,-1649.8627,3603.70776367188
227,-375.8971,933.4826,-2054.7063,653.8308,-111.577255,701.0373,3086.30322265625
228,-209.2789,1570.1497,628.20734,1083.0292,748.95026,1500.5432,3786.03076171875
229,-561.14557,5043.5864,-1062.5828,1677.8804,1333.1917,-893.3445,7116.6796875
230,-2022.0426,1788.7761,2378.6516,3172.6814,456.2194,-2585.943,8246.310546875
231,943.7671,-1808.8671,-614.5308,1482.3119,-2185.5203,764.5332,5328.28662109375
232,-748.7546,-879.2972,-1063.4897,2311.609,1926.2823,-495.2325,5288.95751953125
233,2138.4092,-1231.1725,1448.4408,1469.4221,-193.22125,29.989105,4012.173828125
234,1805.2043,-1392.1827,1341.5499,1728.6119,226.90475,560.8003,4360.9658203125
235,2695.2595,-405.21982,465.11563,-87.655334,-300.9103,1174.471,3479.20043945313
236,1195.6753,-246.54916,-3074.7314,1674.5464,-486.57782,1010.6519,5132.67431640625
237,3268.249,176.5756,2874.7546,1108.7177,-317.76584,210.5645,3552.52416992188
238,-206.59282,-286.37347,-2907.7502,227.67929,-1275.6304,-1130.2809,3994.61303710938
239,5501.2495,398.04135,520.6867,-693.6395,-139.2442,479.90558,5255.89111328125
240,1993.6766,974.59393,-33.09527,699.5613,440.98578,-153.4756,2281.033203125
241,4511.8545,426.36478,3352.7878,305.33945,472.644,41.653687,3775.498046875
242,2874.9155,630.8009,-2588.008,-102.55193,-635.37665,40.467655,4885.46142578125
243,1827.1241,825.2191,446.30878,682.0474,376.75916,46.99488,1831.68041992188
244,2371.5803,1721.5199,1764.505,-334.36752,317.2309,130.19919,1041.46533203125
245,2861.1985,4246.734,5415.9404,320.77533,336.4464,-46.011204,2358.25341796875
246,2274.6782,1527.1718,-1937.8118,-512.31946,-282.27524,956.24695,4350.2470703125
247,2559.5693,3827.8904,9220.689,19.494564,395.51764,45.878017,6165.0205078125
248,3096.6584,1601.6016,-1040.5176,-1252.0605,784.2354,289.06876,4468.2021484375
249,2731.4636,3236.8833,3811.3765,-474.3358,1818.6438,256.08408,3416.13354492188
250,1618.2693,266.77686,-1936.7665,-1455.3551,543.58264,-641.4423,4258.54150390625
251,3775.5308,494.132,3845.5767,-1488.7577,-114.09429,1679.1707,5113.65087890625
252,2925.2522,89.6216,2027.6838,-1610.4244,1431.0034,-2470.4497,6207.60302734375
253,1987.0432,1091.1064,-1012.1817,-1237.069,-475.2656,1126.0126,4022.84741210938
254,-42.964874,-636.64246,216.57932,-1954.8293,-1019.68634,4210.6196,8267.1162109375
255,-2917.5435,-2432.6604,1205.6837,-1915.4104,764.0948,-1294.0999,5746.201171875
256,-2109.6863,2324.684,386.3199,-519.8188,1094.6254,-55.010788,4386.31982421875
257,-2443.6494,3747.828,-937.94995,80.51911,22.34705,896.65466,5806.1982421875
258,-205.27397,3415.7856,624.67834,-1009.0075,-1211.7877,-780.52026,4481.3837890625
259,-2755.877,2480.2898,-2380.7751,436.7778,1984.517,581.77045,6244.73095703125
260,-3377.3513,2131.8296,522.0203,492.1642,350.54425,-60.970345,5017.998046875
261,-1713.2272,3501.3655,994.8172,316.85025,484.45236,-202.52719,4640.30712890625
262,-4353.1953,2855.0522,-5395.7188,502.65182,-550.9911,-432.04114,7923.96240234375
263,-3250.1082,2069.929,-2640.5198,1333.9689,1028.5842,-375.66348,5862.3466796875
264,-1242.5878,2427.3743,2594.541,200.53381,-250.92108,1028.783,4194.6123046875
265,-2559.5193,2122.7332,-2518.85,697.1819,344.44113,812.72076,5052.7587890625
266,-4565.8833,3126.797,-2327.2693,1606.6447,182.13727,223.93709,7413.61376953125
267,-3666.8098,1755.931,-865.65314,1831.9352,-357.07773,322.26987,5729.2841796875
268,-3613.9717,2528.8066,580.8078,1952.3143,-123.185776,-655.1472,6506.15625
269,-5159.1035,-2820.8325,329.6854,2153.9424,-251.1724,-167.39368,6078.79638671875
270,-4380.4478,3689.9358,2229.0012,2841.7107,-226.1118,-219.2752,8944.19921875
271,-5381.3086,-627.48615,-444.2942,1415.1305,-558.08856,-77.90589,5519.38671875
272,-2262.9844,110.19845,52.58662,7467.4897,3102.138,-436.9198,14220.8046875
273,-15342.634,-17558.41,84.791794,275.7919,2467.308,-657.00195,17230.345703125
274,2073.5254,-8665.193,-1639.6865,3310.901,-822.6065,-185.73872,11146.8662109375
275,1104.6345,-4375.7275,1800.5391,-1403.3649,117.60782,69.00577,6347.95556640625
276,-2094.5554,4950.438,321.6508,341.02313,-179.5082,-557.4032,6310.74365234375
277,-3369.2769,51.701637,-2118.9622,2508.0745,-9.005066,74.54599,5279.896484375
278,786.79034,2026.3878,-856.6405,732.3746,-2259.4434,1289.2803,5309.0263671875
279,1653.6362,-1713.2512,-566.9469,1940.3604,-70.5798,610.679,4606.42919921875
280,-353.6465,-1799.0681,-878.5906,2004.5029,241.44,486.9814,3813.98364257813
281,2091.224,-1525.1285,-3536.6733,-183.41689,55.568497,531.2765,5035.447265625
282,265.30234,3167.1826,1795.1122,-1178.8569,-352.70123,-293.75272,3335.1279296875
283,759.6611,1429.3485,3284.7483,823.1199,22.80799,84.39308,2681.2373046875
284,256.89877,-4957.4263,1122.5006,3731.5498,17.366375,375.15875,8639.9365234375
285,180.39313,-6538.548,-78.788536,1884.9536,-1028.4489,567.2823,7633.3232421875
286,4095.197,-2261.979,10653.439,-3393.0496,-1270.1139,733.78186,12888.341796875
287,1132.555,-3361.1091,1124.0364,-989.6813,208.72668,629.0841,4940.7646484375
288,3517.4705,-4809.497,166.46426,151.28261,-52.16105,-950.89624,7446.7001953125
289,231.7217,-5733.138,-3007.8374,-325.79495,-19.01398,463.21634,5264.40869140625
290,1961.1273,-4862.3823,-503.9868,-1060.941,-590.5859,172.63115,6350.5048828125
291,1276.7299,-3448.472,4379.2407,26.660946,163.38885,-262.23743,6848.47607421875
292,1734.106,319.9656,64.61312,560.9082,723.81604,155.00502,2239.1435546875
293,3214.1494,1272.9154,-1001.34375,706.3843,-35.911247,-364.5978,3905.77954101563
294,1297.5747,1332.2091,-615.9696,-28.688475,20.810862,223.78967,1970.56823730469
295,1906.7113,-769.30695,-3770.97,244.78699,134.8858,307.34045,4972.0498046875
296,-12958.324,-10339.701,-1628.751,-2949.7751,-5685.856,-898.4539,15200.6767578125
297,864.9244,11459.866,494.48773,-1770.864,-252.38254,611.07275,11270.935546875
298,-3616.34,7221.6777,-515.77997,-1044.438,981.9038,-216.12047,9988.8564453125
299,-2844.4714,2267.373,-1890.2009,143.9944,447.77908,159.62393,4785.77734375
300,4.781163,-2328.1968,-307.8587,169.92104,-90.4213,706.451,2533.67602539063
301,-3996.6323,4778.452,3356.0251,1897.0134,-690.0616,-815.75775,8986.90234375
302,-1949.0955,4840.314,5408.3965,1045.4823,-616.4906,286.28265,7412.21240234375
303,-5286.5273,-1003.62415,2931.5374,1477.4254,-919.2179,276.45993,7745.6572265625
304,-5781.985,5167.3496,-1788.0533,2409.9436,118.23549,861.49713,10573.57421875
305,-3215.986,-2014.0416,1088.9968,4059.08,167.93597,386.21808,8047.5888671875
306,-1285.7573,4118.0176,1123.6614,-1384.5643,-1136.7188,921.51624,5844.75390625
307,1305.1381,4279.612,11247.826,772.90015,-775.2004,-546.48566,9089.6171875
308,-1096.4878,1674.3351,361.24005,-5.8752007,-1574.4911,78.11107,3635.7666015625
309,-2751.538,1649.1411,-919.31445,210.8823,-139.42953,-293.13608,3887.095703125
310,-2431.45,3358.7737,2326.1892,942.24445,711.02515,-467.42545,5783.5654296875
311,-2354.2578,107.95584,-1164.2908,-2878.4421,976.28564,-1825.4469,6500.84814453125
312,-3461.0615,-5343.2437,-318.7121,2419.1702,-779.0772,568.13916,6299.03369140625
313,5593.441,-10668.597,547.4217,3045.4407,-2080.2913,-1024.8423,15868.6943359375
314,2044.1289,-7643.9,643.0593,5917.041,-4.4722004,-1049.3378,13805.24609375
315,-799.8898,-8587.698,100.90323,342.99353,805.1639,1094.3372,8623.6376953125
316,2701.6824,-6067.981,-273.38724,69.8463,-199.17598,-807.6079,7858.626953125
317,1212.6198,-3918.071,-1495.6769,580.8396,-212.3801,-162.51482,4581.4951171875
318,2212.1335,-4183.1245,1140.9457,-687.02325,-37.176037,-406.59973,6091.9921875
319,5845.1133,-4473.5737,3444.4634,-5601.99,947.37195,389.20114,13592.671875
320,1222.5897,-1559.9069,-5077.918,-7346.6665,240.13881,-3414.0295,15065.4521484375
321,1955.2,-2164.9087,12087.188,-10187.726,-348.9298,-3487.9368,22574.521484375
322,-11176.465,-14817.477,-8321.692,568.1435,269.0594,-6008.354,11886.439453125
323,-12608.495,4490.3135,-5313.442,8902.152,-4584.218,1559.3606,22998.59375
324,-695.0766,8505.384,1325.0594,2496.2654,-1746.7621,-2394.413,10732.6806640625
325,-960.74695,2637.1843,1324.4329,-2324.0068,43.539536,1015.0931,5407.8818359375
326,1600.5498,286.304,-771.26953,1996.1603,-561.6443,351.5487,4184.09814453125
327,944.87274,888.1455,-1801.3086,164.49455,565.58765,20.052805,2903.61791992188
328,1802.2467,-73.63783,-300.67966,628.0467,-498.13202,171.28847,2451.96826171875
329,223.65913,-1868.6593,2069.4492,813.6445,-1601.9808,-1107.0845,5000.87060546875
330,205.48482,537.0878,-3223.9114,1233.0166,-1404.9742,-651.0418,4976.17626953125
331,2477.6782,2042.9957,3329.4768,807.8585,257.48813,-1010.5889,2550.578125
332,2101.0696,1189.6132,-3173.4849,93.01358,-197.529,250.12794,4916.79248046875
333,322.13794,1792.6879,-1427.8181,-59.722675,-1322.4744,-1995.3013,4999.94580078125
334,1581.0515,1088.3611,-1072.7965,-1815.3485,-1032.8253,173.5298,4376.65625
335,-1265.2487,1912.1786,1148.5173,-1322.2554,-1.9014262,-908.3681,3996.65234375
336,-3656.0266,3385.099,898.4418,-293.48294,1609.5214,403.01605,6838.81494140625
337,-2664.4841,4012.6035,212.89352,766.87354,-585.7828,241.83293,6051.4013671875
338,-2450.0107,-1846.1245,838.26184,3880.1238,-1485.1068,1345.9149,8149.16259765625
339,225.46548,1827.0681,1702.6682,-826.6339,1656.4429,1930.5175,4882.974609375
340,-2957.912,2676.3677,-8280.756,-260.8603,28.74174,-121.53139,9503.6357421875
341,-4614.683,-8365.293,-1680.5178,-181.80368,-2604.9373,-1584.1255,7852.76513671875
342,208.84285,-4115.1177,-471.5498,475.70242,1094.7473,1650.0696,5353.50927734375
343,-3201.0698,-1546.113,-1641.6528,191.95615,-1672.8419,-508.1279,3445.318359375
344,1900.6083,-1805.5675,-1670.4907,-2268.0386,-781.4959,-1221.3971,5915.48876953125
345,771.3213,-1232.7817,-900.7218,1449.0146,-366.61343,214.67441,3209.61254882813
346,-4235.2886,3125.2827,-1617.4149,467.37524,206.94023,-2.5927608,6522.732421875
347,-603.1464,2595.3862,1295.5029,1719.4932,344.0632,539.7872,4226.3232421875
348,-5132.417,-1057.4031,-388.88687,314.78217,-425.36975,1601.5969,5320.9287109375
349,1601.8835,-6682.2593,604.80536,4982.073,134.30719,-2313.0017,12325.92578125
350,-9839.652,-13099.526,-2154.8323,-5155.9785,2682.2234,-2112.2756,14472.568359375
351,-3124.344,3432.695,-2185.4302,-153.67877,-730.0207,-557.83044,6350.0390625
352,1103.0314,371.25607,-465.42422,3089.5493,760.9343,-469.62033,5734.3203125
353,2392.6594,-2934.9233,2043.0575,1931.0404,484.9852,-188.11836,6216.21875
354,-1471.7882,-2438.9443,-3215.0386,1312.079,-4395.8857,-1886.1603,8723.37109375
355,-7539.1914,-1943.2894,1042.419,4489.771,-157.64333,-1676.4277,11221.240234375
356,-313.09338,-1444.3516,-2815.467,4048.5898,-843.86707,-3718.0056,9873.755859375
357,-3366.4697,-1068.5448,566.6291,3093.1187,-951.9307,1304.3674,6945.25341796875
358,-2509.978,-3782.14,-88.79384,5681.3037,69.48232,-591.3658,10414.2177734375
359,-2079.367,-3309.4556,-78.74172,3968.8103,-648.63025,608.9772,7589.8388671875
360,2226.0427,252.49484,464.97766,588.3723,168.30373,-91.481224,2160.8623046875
361,2729.2483,3675.063,-404.7082,675.59576,-83.034836,131.1719,3888.69921875
362,-686.3644,-2946.5813,-229.1163,-1274.5148,582.6395,-278.62653,3532.08227539063
363,757.9568,-671.96747,-358.13333,-455.7867,-184.2059,19.359749,1555.81506347656
364,-2592.2617,1614.3088,309.807,-156.07416,139.16692,92.87588,3750.53857421875
365,-481.76398,3767.8254,992.89343,-784.445,-155.28983,14.6270075,3985.72265625
366,25.352892,-461.51227,-1457.0178,366.11838,78.01767,-127.611824,1477.15551757813
367,-49.943916,-1036.0499,-259.27124,-70.50166,928.7129,297.27924,1917.64526367188
368,1215.9584,-3735.2808,-1408.6658,-322.0578,-73.69495,7.143971,4328.4970703125
369,928.0757,-3709.7363,-548.8327,1417.1382,128.45508,205.06197,4800.14892578125
370,-873.054,-3018.2708,-283.2758,1396.0415,-100.373634,90.73037,3480.90673828125
371,873.64233,-722.9882,2966.5605,1353.0536,228.19429,-270.64337,4017.38427734375
372,81.760796,-306.49734,166.44977,309.85895,-175.7294,-427.86096,1058.61840820313
373,-1111.9973,2065.123,-214.65707,1286.5938,-238.37898,87.30768,3634.23559570313
374,-567.52454,-1198.1626,153.55096,1230.6743,111.45504,-11.4825325,2440.02709960938
375,-746.65936,-703.0636,-108.0151,-997.7421,-226.7139,-69.11274,1880.67016601563
376,212.11172,1118.9227,-166.87708,-759.583,184.60779,-16.543678,1773.01159667969
377,-1186.6132,-666.0307,-10.544693,1873.3397,86.81042,-18.93856,3404.9658203125
378,-605.7338,1124.4253,-814.8774,838.9338,209.61005,189.94669,2398.0244140625
379,2904.7332,1863.072,-59.87453,660.7625,98.70673,102.01385,2855.89038085938
380,-750.5521,-3010.6406,910.09143,-1672.1742,-533.84033,76.010765,4569.43408203125
381,1872.9879,-729.78424,280.041,393.09598,83.25936,-140.75894,2389.48388671875
382,614.1826,-1185.0635,-204.6857,1408.5476,-142.96318,-152.65338,2918.51489257813
383,1579.0223,-131.65515,84.51351,1270.199,-334.58765,-222.06221,2815.55493164063
384,1736.2288,-377.6857,2440.301,523.9543,-131.40907,76.4682,2710.28271484375
385,838.2489,908.4093,1926.8989,610.2013,-93.504745,156.50867,1526.58190917969
386,-3670.1248,-2782.627,-359.81232,-1078.8645,-151.4685,-103.20158,3521.44189453125
387,124.41682,412.9333,-2383.1567,1104.5677,-248.7448,-203.2869,3326.3271484375
388,0.60569394,2007.9772,-684.031,-1144.8607,-212.97015,458.38318,3251.32592773438
389,-733.82947,979.9097,-963.449,-3185.1604,-177.3838,73.97163,5824.91943359375
390,3766.935,-1750.776,1213.2065,-648.26587,306.03668,283.7536,4965.802734375
391,-355.9608,-871.35046,-241.06908,-562.76575,-298.02582,-333.19952,1373.92883300781
392,-896.7202,262.16733,-587.38226,-1268.6158,141.49144,-8.295038,2443.08129882813
393,703.31824,-2555.03,-883.0758,-380.48816,124.343636,-114.028725,2912.75830078125
394,1200.1194,81.06357,3217.0188,1068.3696,524.7636,-126.43118,3446.08740234375
395,1193.5084,-3219.6182,-2.1750073,729.17615,213.96214,68.11386,4168.33203125
396,-613.3198,2191.7585,-1001.1161,-679.783,-265.70068,-37.374817,3272.45263671875
397,-341.16336,-1296.9231,1661.8455,11.155092,-92.243454,189.37614,2640.720703125
398,555.95135,-1010.8628,-392.47104,768.5275,112.03705,91.80542,1924.38439941406
399,1800.5509,-79.043526,1999.9097,-271.35938,-180.86394,-273.60562,2119.18774414063
400,2006.0853,-2016.039,937.949,286.81998,14.503867,-59.20839,3644.1962890625
401,1762.5002,-992.8554,588.3512,844.7229,-48.304554,-23.947874,2807.9892578125
402,-1644.4585,2464.608,89.73175,407.36874,214.04224,-275.4712,3691.73168945313
403,-366.80072,574.5277,-1385.1067,1376.9222,-29.991877,161.89232,2941.20336914063
404,-1172.3112,2090.9539,1137.1208,1662.3074,262.69702,234.06514,4136.09375
405,-158.29839,-188.27719,505.3391,380.48645,1063.1571,45.292007,2071.8544921875
406,565.6273,293.6194,-422.42014,85.25855,-50.922176,102.26249,917.839050292969
407,1264.0753,558.55646,373.94632,92.35625,-160.80974,-350.0231,1064.3310546875
408,798.34265,-1274.6483,1194.0565,-1972.4253,-177.90791,-145.19467,4135.6708984375
409,735.9727,666.94214,1395.7502,397.63254,-872.6607,163.25912,1823.3271484375
410,-610.38715,1751.8866,-719.9362,-2161.5676,766.402,229.6002,4667.81689453125
411,-2978.4963,-2769.7046,-1356.2513,-875.5577,-565.6729,-704.4911,2661.8125
412,850.4661,753.3706,1527.9049,348.4624,-44.508526,-53.913074,955.546020507813
413,257.8161,-474.34213,-290.0939,-1623.9858,121.04772,152.10205,2908.6865234375
414,1250.5302,-31.278158,392.21887,-275.31558,218.35812,79.56346,1291.88549804688
415,-659.1575,207.1288,420.09592,-2067.32,-148.802,451.02075,3805.05200195313
416,-69.145615,-553.2774,-1642.1528,1207.4703,518.5522,-138.64763,2680.5791015625
417,-1168.3557,-1202.8971,-55.666225,912.4996,14.396849,-500.73706,2128.02856445313
418,375.63013,-74.69672,-2053.8013,718.3941,-206.38866,-158.32774,2600.41455078125
419,1191.447,473.47705,287.67303,1272.3024,-1.2495323,-362.4452,2435.93310546875
420,-2127.2727,-623.6542,-156.98701,-1108.5161,-164.2942,-267.58133,2676.29174804688
421,-852.74945,-668.826,19.560616,955.2758,371.7098,-263.41922,1998.66040039063
422,135.12936,-1.2650692,1017.0515,-200.12071,129.67343,172.4436,1084.65686035156
423,-2015.4564,-474.08774,220.16592,-1097.6813,-122.062096,132.97723,2764.12109375
424,835.61707,399.8004,-855.66943,-1017.02936,91.93986,334.68494,2403.693359375
425,412.99908,-1783.2893,285.31006,857.7896,333.4099,-39.471664,2665.5419921875
426,-280.70282,1170.6848,-354.18344,538.13745,11.57998,-124.15956,1770.31042480469
427,-336.10364,-26.287846,-474.42963,-49.88693,85.29295,95.74495,463.43017578125
428,-948.0547,644.2381,-457.25705,685.29144,138.16534,51.59071,1862.50158691406
429,1801.5013,380.7911,508.8342,-1150.9244,165.8063,64.13466,2433.43310546875
430,981.6084,977.4333,214.5497,1330.3826,-105.02225,-41.469627,2435.81518554688
431,317.45056,1812.042,514.70374,-396.51413,-88.96512,-309.5132,1661.53833007813
432,333.12125,-557.23987,-81.71129,103.47922,24.072983,-11.922049,793.57861328125
433,1227.8197,476.53204,-414.9621,-934.42194,-153.78464,-196.03474,2198.7802734375
434,330.54208,-1057.7378,-1634.4088,688.5781,-216.31755,-341.1311,2229.87939453125
435,2301.8167,-428.79373,-268.4097,89.23524,1419.2493,754.0882,3849.240234375
436,566.394,-1789.7145,-2693.974,929.6809,-36.056797,14.83432,3331.2080078125
437,94.119865,640.27856,-56.227028,-158.30408,146.11697,68.73403,745.929565429688
438,-303.5269,-601.5552,-616.98267,-767.62836,-260.24448,-238.94225,1495.28540039063
439,303.05322,-2653.3228,-3748.3154,49.643143,-216.23584,-79.23954,3652.791015625
440,-377.75482,536.733,1439.3624,-628.993,197.28276,63.297203,1947.34411621094
441,868.8858,-1027.1276,341.43842,-819.8004,-78.34063,15.890855,2215.49267578125
442,-2990.5994,2350.3147,260.5624,1563.3969,-67.65959,50.463158,5393.07373046875
443,1912.2465,413.8258,1678.6418,672.17395,-10.139081,-80.37329,1823.44152832031
444,-1102.9985,-827.089,290.24286,-1880.8114,-119.56271,-328.3806,3551.27856445313
445,790.7702,-334.1655,82.77313,-586.7514,-9.33705,-147.03944,1438.13903808594
446,-216.61154,-653.4561,-793.60284,-753.41095,-68.52863,321.24567,1516.00317382813
447,-2394.3716,-2290.0894,87.85069,-1180.6174,-56.750896,-50.944016,3180.01098632813
448,-206.45065,-365.10895,-260.97696,-896.4654,142.1903,-91.2405,1586.21362304688
449,-5861.334,-1818.5033,1259.796,177.31393,-34.721527,129.87651,6197.90234375
450,-330.87387,144.63533,700.6601,745.4646,349.72684,307.43372,1765.58581542969
451,-345.2979,-483.92084,-67.127,319.79532,210.60599,209.59032,840.721313476563
452,-512.6805,-1496.4116,-347.3866,669.6691,-160.17142,-331.35107,1705.68737792969
453,880.8907,12.52096,995.9935,285.25122,103.391815,90.71084,1080.79895019531
454,1492.9987,1562.2461,806.58905,-756.893,74.06805,-297.57776,1588.79272460938
455,1837.4028,59.265873,500.48547,-361.273,-6.366224,-97.6661,1729.79443359375
456,-1254.2219,-1802.1692,-2401.708,443.8849,-556.2884,-71.45294,1588.39453125
457,399.46976,-1340.4492,-1568.231,-205.55879,80.34619,-121.07228,1914.58337402344
458,774.91595,-96.74625,-388.6075,466.1544,-418.8722,-97.58677,1518.62219238281
459,-500.44937,-21.626816,-2324.2654,-909.96747,177.809,222.77356,2675.20385742188
460,551.0414,634.69324,-1338.1628,958.1153,-194.11353,517.5407,2721.15161132813
461,-148.02005,-621.5706,-261.08875,-1247.482,-146.1186,-232.52649,2253.52685546875
462,-1089.9033,-710.3318,-1141.6893,-653.56067,-100.14203,61.542267,1220.36267089844
463,500.70947,-1673.6462,-2391.4238,8.9979,-163.94865,-39.235348,2624.734375
464,-313.80606,636.38513,4465.228,706.37463,187.6572,-275.50977,4585.98876953125
465,238.56241,555.3815,77.20577,-1125.1552,-255.9347,92.848145,2048.85913085938
466,1344.8025,1972.4589,636.91205,191.39952,-18.877668,114.81907,1220.61218261719
467,-724.03284,471.36053,-608.82635,487.49335,258.8673,77.67258,1495.52868652344
468,-1380.0663,-468.7359,477.40778,191.35588,177.1726,104.462135,1680.69006347656
469,841.0564,-402.3598,368.855,-173.98402,114.482895,132.83215,1168.32299804688
470,-549.3939,-487.3808,296.05405,196.69113,413.9712,-160.80463,1172.15710449219
471,-214.67677,-719.99664,-494.25882,180.86867,-135.32498,94.04321,609.792846679688
472,-359.3508,1282.6897,325.39514,1334.6959,98.70609,152.98163,2735.7763671875
473,-1178.094,-1684.4308,342.38272,92.86598,280.17157,105.87863,1906.06689453125
474,539.605,-50.734753,-44.59303,766.22424,60.25391,43.377495,1456.96545410156
475,1794.3695,3446.887,777.84094,-967.4283,-270.46686,168.93399,2925.20092773438
476,609.40204,51.13772,351.16226,-222.48473,358.64954,100.49413,893.792358398438
477,1191.3677,309.5789,-212.77881,-617.29486,-89.89913,-218.51462,1679.7822265625
478,513.6367,-585.71185,-189.746,-47.584843,-511.54654,160.34299,1341.27319335938
479,846.14954,221.13765,784.2592,-733.9109,134.81189,78.75996,1429.96362304688
480,-2212.4282,1956.5045,246.42726,-563.1176,181.98085,52.08293,3772.79223632813
481,3640.649,4601.6377,-19.465014,1342.9167,-28.485607,445.86014,4883.27197265625
482,1921.0864,-954.0102,-390.5838,-919.56744,226.8828,-184.22394,3123.58447265625
483,2503.4673,-1910.984,236.38855,-89.5589,-85.98353,-13.9382515,3829.61376953125
484,296.38217,2383.8171,2315.7417,1205.813,-169.58514,-92.29129,2948.50830078125
485,-1848.9696,-4482.513,-2319.3887,1710.7946,-178.43655,152.31032,3855.32690429688
486,-576.35486,-151.55821,90.85469,93.658195,-791.4266,-674.4229,1900.55639648438
487,-4157.2393,-3811.0137,-962.024,505.7558,-33.730366,-140.45065,3170.64135742188
488,748.84076,-325.89352,-583.68353,-959.1077,-359.3936,-7.333751,2155.43041992188
489,942.6071,-165.93727,372.47864,-1165.1904,491.05353,344.69315,2464.701171875
490,519.2681,-312.8275,336.5976,-827.80493,-333.07864,-297.34363,1796.55200195313
491,-7761.618,-7619.2964,-977.0767,-2226.513,-328.37314,-261.15048,7777.19970703125
492,-5263.298,-4281.147,-689.3183,-1142.7107,298.58987,-7.7844524,4645.275390625
493,383.98178,-431.03195,-775.2345,868.96375,-364.4419,-208.17891,1963.92858886719
494,187.72482,-3216.0762,303.8818,-272.90048,-53.845203,-206.53722,3514.94287109375
495,239.3619,-4593.634,-482.04868,-1385.5403,-119.04302,-273.47812,5139.82080078125
496,358.20972,356.20898,1039.8942,-456.19504,-205.86606,-98.57275,1116.55517578125
497,-2756.626,-230.4238,63.56857,-35.433582,326.84192,-30.714928,2745.52124023438
498,-2284.484,570.5879,1002.72705,-828.7843,-239.29633,-445.85095,3521.470703125
499,1995.304,-587.1414,-265.4647,-886.0846,-112.63129,88.94769,2891.19653320313
500,-549.4113,294.0303,-337.14972,-469.3412,-114.70317,600.6752,1536.28271484375
501,1586.1985,154.05634,956.9422,705.9467,-119.489624,495.4026,1954.48120117188
502,456.58957,-1272.3296,2053.4648,738.208,60.452774,-140.53284,3163.08471679688
503,-3196.8982,4543.982,-680.7736,56.590233,148.85802,427.1875,6884.66650390625
504,691.91864,704.4393,-1116.9082,999.84766,0.53037405,-94.35427,2514.05126953125
505,-4263.5444,1370.8695,-295.43057,314.2546,-35.81776,-71.13577,5044.7841796875
506,-155.49974,239.64294,1777.969,183.58241,311.8361,423.63754,2015.36145019531
507,359.9321,2137.991,1641.485,-938.0953,29.378616,-191.72319,2297.41723632813
508,-868.3963,-1687.6896,2365.0278,-1082.255,37.194412,-758.82806,4361.2880859375
509,314.67874,1049.6364,344.78574,69.00856,-75.52621,-145.33012,783.392272949219
510,-1511.2676,660.0878,-247.04044,288.36215,26.249954,-479.79584,2123.70092773438
511,-199.13316,803.0459,1605.7771,530.6543,-56.602314,-42.05455,1820.14282226563
512,-1285.6511,1855.6083,1352.5997,368.03244,402.11392,427.3645,3159.08203125
513,-1585.904,2786.8772,-418.6969,-433.51233,170.30783,45.584244,4004.583984375
514,-527.3417,1105.8877,1008.6125,1777.477,-41.0628,206.86295,3482.77734375
515,-2976.1628,5268.177,-699.6742,940.6235,133.29045,-15.931714,7555.9091796875
516,1004.0397,868.184,606.34064,-474.8244,-5.1687784,46.184933,897.466186523438
517,-5078.1494,-3738.1594,-2502.3645,124.159935,-74.110344,395.27982,2347.37670898438
518,419.79816,-926.3362,-276.21545,-882.4381,189.54619,-77.337906,1954.84069824219
519,1131.4592,-85.27384,2052.954,846.07574,56.265152,66.97208,2370.92626953125
520,2145.1545,990.1828,1653.5009,-709.22656,157.04901,21.268637,1610.029296875
521,220.60577,197.92723,29.658796,-492.7672,-416.6279,-14.347314,1132.45629882813
522,-53.92352,1659.1642,-188.46597,84.729965,-151.25124,-216.73643,1847.79504394531
523,474.7979,-746.3969,-816.9842,-529.60034,-137.42604,-101.02408,1584.67822265625
524,-574.5733,-461.13855,-1098.6514,-307.2566,161.03328,284.8987,975.44384765625
525,-709.32684,317.6331,-691.19727,175.98114,99.615005,-85.27192,1086.66857910156
526,-4494.014,-3382.272,-0.28719032,-1342.6022,94.745476,-130.99174,4681.8623046875
527,-4878.179,-2350.3914,-33.449467,-19.66822,14.21316,-64.42919,4198.6767578125
528,57.439724,1344.9957,4.0852504,-133.419,11.5894575,-274.71686,1417.58837890625
529,738.1502,1916.519,471.63965,732.25824,210.71497,212.95639,1910.88696289063
530,1219.4116,950.53766,2516.0686,1001.04706,-244.49004,310.83185,2361.7177734375
531,906.98755,-1051.2836,550.0638,2047.5524,212.07283,-127.623436,4003.05712890625
532,889.1343,-189.15694,-113.355736,1161.4343,-369.19855,172.03995,2373.02075195313
533,-510.075,-3908.619,-272.97867,170.43106,-66.24629,46.901093,3538.22021484375
534,-511.9792,-1805.4142,-491.32587,40.550323,131.61601,143.75597,1348.70788574219
535,-1205.2393,-494.47162,499.18872,-133.2037,83.9445,258.6444,1572.85522460938
536,3044.1682,64.64431,386.5106,-142.36957,30.319315,524.7293,2985.25366210938
537,-4464.5386,6189.7524,663.2266,1646.1777,31.128447,-101.9882,9661.2109375
538,-3718.0583,-136.63701,1391.1383,2526.3694,-17.536612,-259.09164,6323.1494140625
539,593.3109,1904.5763,1258.961,557.31055,161.66045,-33.553093,1517.63891601563
540,449.92892,-498.36426,573.92773,914.8593,-271.17566,-335.22766,2025.05969238281
541,-953.3866,4753.941,-330.75293,-1149.4691,-338.59253,-35.535545,5806.8271484375
542,-2246.8984,-1297.4747,-2065.6226,3525.854,-43.998753,-32.632504,6169.77294921875
543,-3238.5608,-1219.5813,-1608.8939,2747.6514,120.5433,203.03793,5124.2421875
544,6338.491,-2601.5793,-903.4851,1230.9084,-103.80894,71.656456,8498.26171875
545,-3124.9683,-1307.0785,-561.84424,-1398.408,353.7905,375.73343,3446.8125
546,5561.5137,-1853.1682,-114.88555,-631.81464,393.12195,36.011036,6839.25537109375
547,3568.9282,-8732.564,247.71092,-2690.0662,28.715084,273.5384,11976.5439453125
548,1493.8396,-5813.0234,-242.24466,-2972.3135,-185.68181,113.11351,8388.365234375
549,941.29297,-526.21643,-872.6214,1064.361,-123.92163,-104.77298,2501.90478515625
550,2574.4177,981.4615,107.150406,-152.75847,52.59535,57.039062,2186.94604492188
551,3826.0327,-1380.3723,-91.00381,1431.1943,-212.98172,-151.49998,5329.73193359375
552,-4279.9644,-502.94485,-794.0011,-592.4511,-476.58432,-91.85156,3874.39892578125
553,3086.9387,3067.648,286.31058,-671.33374,225.89949,-218.339,3072.13891601563
554,-5845.972,-7465.159,-1926.7787,-1009.1246,66.93738,-184.81212,5243.916015625
555,1970.959,3789.6052,1381.8423,-1834.2974,90.02717,-194.24625,3867.47680664063
556,-627.80493,2219.262,1261.3671,969.6403,-342.83167,-315.57568,3125.4013671875
557,817.97614,1770.796,1048.9454,-489.20547,-30.840874,79.60899,1216.95227050781
558,4999.6587,4127.6313,1809.4701,-605.14453,-37.3662,-1.4126165,3042.79418945313
559,4566.76,3845.982,927.98914,145.71138,-42.861332,-96.005455,3351.75830078125
560,-1145.1997,-5129.2935,176.12346,-1460.6841,222.1443,-3.0602918,5425.13037109375
561,-1333.155,-2511.605,156.21762,-536.15594,-10.698429,232.97156,2527.38745117188
562,1239.1254,-2603.2935,-771.9477,-1516.1046,182.24712,43.858257,4252.333984375
563,892.47595,-2900.6934,-1196.4008,767.2773,15.617702,115.289375,3554.55029296875
564,2417.284,-2013.213,-990.95557,1261.8533,-125.59868,-28.421656,4579.4951171875
565,-2571.8376,2663.1494,156.5258,155.18515,-214.19945,-289.63184,4585.5927734375
566,5634.999,-457.13754,403.25568,2349.7551,111.65122,243.42311,7027.94287109375
567,1437.616,-2341.9854,152.35532,549.26447,104.44216,-3.9378755,3466.60546875
568,1693.6736,-3607.701,910.30383,-1604.7234,201.5378,-234.87422,5707.7197265625
569,1620.3004,535.70465,-2225.3433,2836.7002,-224.20743,141.64554,6012.15087890625
570,897.92773,3370.6948,905.28406,683.9077,46.478928,-52.418587,2741.23217773438
571,-2420.5134,3630.3992,-677.88007,-2275.1594,164.76584,-239.74336,6699.904296875
572,1357.265,3193.4504,285.43106,-1864.2291,-81.937225,-108.32203,4119.4521484375
573,-508.4668,-649.5801,-589.1697,334.8681,76.92473,288.94827,787.193237304688
574,1056.3789,953.04614,-545.4222,867.62866,158.19386,91.75197,2183.9404296875
575,347.59406,-102.39829,-755.65814,506.6179,-281.50928,208.18083,1435.60046386719
576,1011.1606,347.6001,104.39775,262.31595,-428.3513,-217.10976,1248.65234375
577,-286.39923,-777.1286,-98.30199,373.3797,-90.3877,-32.31298,902.43017578125
578,997.99615,-281.17963,1325.7915,-898.5856,-326.30988,-174.09583,2235.1240234375
579,-1784.2585,-2193.496,-5067.039,-236.44446,-14.697306,0.60111296,3125.54833984375
