Element Label,S11,S22,S33,S12,S13,S23,Mises
1,-7280.9575,8752.155,26490.984,-4286.401,-8507.623,7851.2266,36239.75
2,2979.868,15956.946,-10705.434,-16.981306,6978.1743,2081.695,26312.986328125
3,27676.662,43247.25,23139.494,-12849.299,1793.8322,6458.24,31044.62890625
4,34340.367,47313.934,32461.953,-4626.8813,888.0365,19833.312,37985.29296875
5,8296.92,6113.635,12408.473,-6353.128,9489.233,-18506.48,38070.2109375
6,5896.426,28502.412,8525.651,-7142.556,-1681.8798,-628.95776,24924.455078125
7,9731.569,16867.22,-11480.571,-1410.8645,-3894.3733,-1115.9348,26597.759765625
8,26928.857,24683.898,4219.6543,-4321.731,-19.065731,5809.587,25041.037109375
9,14189.987,14505.829,-20403.64,1074.438,6913.473,-229.93112,36806.99609375
10,11265.882,26492.703,-1804.5447,-6097.707,-4598.695,-2323.8362,28158.55078125
11,9078.597,29588.523,-7251.8784,-7986.1343,6636.5796,-3941.0703,37314.1015625
12,16413.725,34334.992,11563.906,-6022.3438,4608.1387,4399.651,25733.03125
13,14810.275,1625.3447,-9891.263,6568.237,-832.9051,-4477.3823,25494.4609375
14,24872.328,3811.2617,11705.104,-3320.9407,-1957.0245,16051.994,34017.69921875
15,-9477.615,-17904.357,-3634.7458,7429.919,-565.45154,-14329.603,30609.9375
16,43908.215,29343.748,60574.36,-48.281303,342.0383,9496.481,31678.462890625
17,-3766.7493,-18352.424,9937.727,1659.1504,4428.865,7322.966,28782.35546875
18,9889.4795,18866.443,48064.156,-290.34567,3964.021,1639.7542,35364.65625
19,27013.387,27933.305,28009.541,-5057.8545,8909.031,2677.388,18365.337890625
20,-2425.2646,-1924.9452,2425.0845,3246.8955,4328.963,-8996.522,18761.888671875
21,-11804.636,-8867.227,-3077.2385,-1233.7045,-17071.6,-525.98285,30641.05859375
22,-36558.75,-33127.613,-20487.934,1508.6808,-15432.199,104.908806,30597.75
23,22160.658,10293.649,35232.445,-8529.413,3242.2551,905.7153,26815.49609375
24,74.87887,-3345.321,10212.433,-4497.6484,-6144.5415,-5305.0503,20187.212890625
25,2772.394,6018.901,11145.033,3905.5276,-12475.099,113.14971,23793.720703125
26,-8824.045,1972.2299,6206.242,3442.093,-15491.634,3399.464,31150.974609375
27,12772.821,25200.666,39742.656,1772.0458,-4797.9097,-3184.7273,25603.791015625
28,-12468.617,-6230.133,3743.7683,4798.0425,2475.0457,-6853.5015,20711.640625
29,14348.062,19478.695,26857.451,2203.814,-15841.238,110.13307,29766.900390625
30,17425.781,26988.28,43708.965,-1445.814,-10940.413,1467.5417,30045.37109375
31,25666.146,29684.854,41502.266,-705.8098,-13972.517,1000.1329,28168.79296875
32,-3624.5828,314.36542,5743.1177,-1491.2645,-12986.316,2724.642,24520.3203125
33,11254.696,18580.674,22890.463,-1252.2219,-11681.473,1399.0714,22885.900390625
34,19842.066,24899.3,38693.11,1133.5101,-12399.806,-5436.753,28972.37109375
35,21388.215,31508.873,40722.96,-1561.4823,-15605.248,-539.0284,31927.064453125
36,11357.224,24364.725,33755.895,1889.2539,-13404.921,-865.1057,30521.689453125
37,2862.946,16237.942,29370.668,-879.54285,-10946.142,1166.325,29880.845703125
38,-4642.8433,4102.741,17326.086,-477.91943,-10801.534,-53.922207,26789.94921875
39,2849.0205,12718.3955,24499.115,-1282.2925,-11454.374,-496.4049,27417.84765625
40,-5712.0747,6581.312,23660.07,1556.4701,-9361.652,1300.4646,30463.587890625
41,4341.2085,18458.812,30599.793,-1431.194,-9434.397,-24.88094,28129.736328125
42,142.35323,16461.092,30877.77,2166.6804,-9103.737,-3853.2964,31885.1875
43,15506.84,20849.445,12205.449,110.19068,4776.764,-9326.141,19659.607421875
44,17015.604,14825.648,21442.635,-4342.9526,245.67946,-3605.3826,11395.203125
45,4864.155,6325.969,9391.244,1936.4321,2066.832,-5688.2266,11710.94140625
46,5561.574,1437.768,14127.491,913.53925,2588.1006,-9672.421,20711.603515625
47,982.2813,974.29926,5921.299,-5526.1514,5297.684,17259.312,33074.10546875
48,-5639.5117,-9085.345,-3330.1313,-2552.4414,2860.9001,-9487.91,18420.78125
49,17510.867,10624.936,29205.09,1378.9114,-905.07434,-7930.286,21483.16796875
50,14208.068,16303.427,17037.125,-1487.8986,1993.3525,-7955.056,14658.6787109375
51,6512.4106,-645.59564,23477.625,7114.46,3073.341,-15771.208,37240.68359375
52,-3668.0913,-13713.088,8116.6074,3443.9001,-6920.7544,-6519.014,25786.09765625
53,24955.818,18606.38,30092.072,-1715.0739,373.04803,-11823.551,22976.939453125
54,-125.71775,-5829.51,6442.055,-2959.1177,1230.9908,-11576.016,23365.736328125
55,18513.152,18821.488,33564.71,1038.7552,-659.01324,-10102.522,23080.865234375
56,11243.933,2215.1035,18285.63,-2591.8582,-7235.2744,-6610.9873,22427.65625
57,1404.8047,6607.9023,15615.925,-3885.046,-1348.9994,-7042.516,18831.29296875
58,13408.955,18197.94,38867.473,-3729.1658,2572.6096,7578.1147,27982.2890625
59,32297.082,24687.4,44627.703,3914.4883,-7197.168,13002.155,31816.9609375
60,10611.064,23605.11,37416.277,6666.305,-3268.156,-2737.0012,26960.923828125
61,-3529.0562,12199.515,24230.3,3126.3538,-1660.582,3057.6592,25436.14453125
62,1026.4722,13014.793,26136.012,-746.72754,2518.3032,5738.471,24344.939453125
63,11776.106,20810.64,34784.816,-993.021,9682.976,-2377.3013,26539.470703125
64,-5133.41,14121.237,30044.576,502.76828,9189.751,1773.4604,34560.68359375
65,402.14536,8165.269,14920.381,431.80573,12439.696,1590.622,25114.26171875
66,8266.842,16899.361,27232.451,-5595.518,4646.9995,3696.3818,21684.01953125
67,-2718.939,9488.805,12148.07,-894.6122,9612.844,-4364.44,22920.091796875
68,-1687.2726,15999.288,28638.303,2247.3464,11539.96,-8793.204,36643.2109375
69,6853.0625,-2333.998,-16098.832,-2654.2444,8092.761,-686.0305,24886.87109375
70,10027.399,13418.585,27741.95,-873.6666,11729.918,709.6379,26111.408203125
71,19479.504,28917.984,54074.75,2608.6968,9169.529,-148.38635,35101.45703125
72,15639.319,12358.991,9137.04,878.5772,8787.597,-4133.7163,17803.220703125
73,4674.83,-10362.94,21734.725,-9865.631,-4142.638,-8026.4585,36200.35546875
74,16460.43,16093.102,40176.785,1142.1305,6809.246,-986.6281,26781.3984375
75,12628.971,9567.354,24155.14,-1501.8248,8674.026,3355.2424,21065.859375
76,835.16864,5368.407,16135.6,1868.245,14028.324,-369.41867,28045.587890625
77,10350.236,9651.042,18543.094,2898.927,-11577.997,9895.603,28186.3515625
78,11589.85,5650.865,15190.799,53.633488,1946.6185,14089.626,26010.64453125
79,23298.906,13370.902,35519.484,-1215.4838,637.70514,12807.687,29444.802734375
80,19862.943,4390.764,29475.588,-950.52454,1340.7001,13552.195,32242.96484375
81,33782.457,11851.851,41972.45,1064.5403,2752.6362,7028.4243,30032.748046875
82,39281.0,26484.863,58112.45,3044.5823,2045.5448,6397.504,30372.3515625
83,17729.98,-15220.678,19449.838,2962.9673,625.91125,-7169.4287,36429.234375
84,10623.525,3948.5469,28599.438,4654.4233,-3681.0037,2163.1167,24644.576171875
85,1978.1716,-6198.99,21879.838,237.5215,184.63965,-6151.8438,27193.537109375
86,33264.336,24729.81,44534.945,1508.111,-33.301258,13720.003,29454.982421875
87,10586.485,-5045.8125,24081.27,1270.0089,-1793.0267,8614.759,29572.931640625
88,50650.52,35425.484,63050.367,7367.256,-563.00507,7416.477,30052.265625
89,29309.088,14104.589,44181.965,2434.2861,497.49615,9840.162,31424.83203125
90,13758.425,1126.4991,27312.951,941.04456,-6397.097,-3190.8386,25893.630859375
91,-9470.173,672.659,6131.5396,1337.172,-13425.41,-1144.2643,27167.294921875
92,-7807.249,7610.2275,13809.862,1515.5718,-10179.821,3123.5774,26809.77734375
93,4259.434,13206.925,22800.33,678.21796,-13627.96,-903.1315,28616.755859375
94,10875.312,20054.443,38329.324,1211.31,-10877.88,-592.2252,30763.84375
95,5108.5386,-5097.976,10867.911,6767.111,4569.8823,15584.091,33537.30859375
96,7273.77,12338.05,13360.566,563.22516,13855.742,-4906.7783,26095.912109375
97,-31789.043,-25769.17,-18500.771,-423.17636,12817.494,2085.8542,25283.93359375
98,10825.422,5577.5454,12040.833,1539.5336,-2326.102,-10341.35,19482.53125
99,-10336.252,3944.569,10313.3125,-171.80414,-10541.688,2077.6587,26112.712890625
100,6861.839,19299.336,33093.215,1772.3698,-7353.427,2431.2722,26568.771484375
101,-12987.314,-691.07837,7003.276,771.7506,-11911.147,130.18274,27064.294921875
102,618.95123,10579.215,18532.152,64.80088,-12253.63,1508.3547,26437.8828125
103,3884.0337,11866.589,18423.318,294.4527,-13824.138,2129.504,27317.322265625
104,-5846.7593,9855.606,15410.451,-1037.6771,-11741.112,-1006.8586,28008.525390625
105,2873.7031,16190.513,35095.85,2674.595,-9350.888,-130.90067,32716.0078125
106,8916.1455,26850.611,32980.547,99.897766,-11302.898,-2467.4175,29507.951171875
107,-4684.36,3205.174,12699.319,1515.0455,-14746.612,706.8874,29800.349609375
108,17023.387,11599.144,32944.46,2430.0078,-2337.645,12677.029,29757.2265625
109,29259.771,23418.357,20456.64,4450.9243,-19488.662,-7388.354,37720.203125
110,-2209.8652,12169.339,27795.098,-487.4872,3565.3838,1256.2566,26817.814453125
111,42469.97,33706.117,50304.38,9826.183,3346.1936,14727.044,34362.08203125
112,11153.899,25722.225,50558.867,718.0218,3798.8154,-2990.0981,35532.87109375
113,10849.391,15614.974,42269.277,386.75854,12788.595,-1359.4636,36835.0859375
114,-2555.4902,-2932.0308,-8035.2114,-162.46591,8813.453,6388.3438,19586.951171875
115,5396.1353,-1308.2719,5849.0186,-1985.5459,21505.855,1951.1392,38196.125
116,11244.65,13910.629,25587.191,-3155.6382,7903.736,-4826.1396,21488.0234375
117,-6371.4272,-6881.495,-1411.496,-550.1942,12124.768,520.7554,21682.7734375
118,21782.62,18396.838,23245.186,-1084.8179,10520.286,-13271.358,29706.919921875
119,34333.62,30863.53,31524.812,-3537.3938,7682.758,-5019.5737,17331.654296875
120,21595.885,27743.297,43232.82,691.4409,6491.3877,-5291.863,24182.56640625
121,14269.563,23772.436,39572.25,2452.9614,-10074.906,-1252.8734,28589.396484375
122,2129.117,10568.54,23630.799,595.8607,-10979.218,-2958.6526,27222.05078125
123,1296.7134,993.59674,1168.85,-188.35141,10369.313,324.38632,17973.857421875
124,783.49677,4012.395,22231.283,119.59578,13958.916,7996.5117,34316.32421875
125,-1533.9285,7064.7964,-1226.448,-3134.398,7574.966,-2862.161,17250.45703125
126,2407.586,-3219.0789,5758.0693,897.3501,-1451.6321,-9346.451,18235.76171875
127,12281.749,6980.0796,18925.979,271.89667,4455.833,-9518.183,20953.556640625
128,6529.766,6598.418,15737.719,6129.9927,-14544.681,-2563.682,29176.1875
129,17225.305,6470.773,24985.574,4295.948,-7031.8247,-4498.6953,22885.798828125
130,23510.428,7049.3677,37811.207,3773.1372,-865.8842,9980.431,32475.6953125
131,24378.271,19168.988,41555.207,3264.2476,-7426.792,8739.939,28952.73046875
132,11827.803,3054.1387,32138.52,-4361.0728,4342.9087,8940.734,31955.4609375
133,10019.943,-6644.4697,20357.424,-3555.2627,873.0248,10612.001,30575.875
134,11809.993,-2077.2363,25272.54,-1875.7437,-1744.8887,-6615.6255,26684.103515625
135,1976.6738,-163.67433,8034.377,-2402.9614,627.8069,-8541.368,17076.6640625
136,33218.9,44790.88,64497.12,832.75464,-8048.778,3165.974,31253.576171875
137,-14855.65,-13679.9795,-12962.614,-4636.2,-584.45233,-2082.2458,9014.169921875
138,2748.293,-6332.8447,2819.1333,3336.9536,2426.379,-1529.4454,11882.791015625
139,18664.623,24913.557,34006.676,2228.056,10631.483,3990.691,24089.6484375
140,19951.115,1233.8322,23067.166,923.1355,2595.5906,2272.335,21368.875
141,13018.834,22398.564,30502.613,-2529.043,11415.465,498.32678,25308.900390625
142,-4361.6206,-19699.525,-38866.965,1120.235,-14192.696,115.09872,38790.88671875
143,8673.747,23456.607,35728.05,2945.3213,3424.284,-537.5425,24750.69921875
144,17238.457,23863.854,36319.45,769.4141,8532.503,155.58012,22401.34765625
145,7381.451,11796.895,30932.492,3923.2727,-6938.6494,1853.1522,25905.072265625
146,15462.293,27064.094,41323.93,7539.8296,561.26196,-5088.276,27432.61328125
147,18312.543,31954.92,26560.49,-11186.562,-10431.839,12009.913,35724.26171875
148,-36652.99,-46981.24,-45361.836,-1670.9349,3021.7173,18189.545,33480.09375
149,6845.892,-1349.2731,37129.973,2708.9402,2013.9373,-3982.9866,36252.515625
150,10842.105,8102.287,13983.086,1271.6302,-1395.8478,-10975.746,19951.826171875
151,16991.125,14764.904,21603.164,1699.8383,2938.0674,-14110.535,25853.06640625
152,12740.854,-555.59686,22027.18,989.51904,-2481.7275,-5744.712,22515.01953125
153,-1478.7695,-16915.723,9786.863,4361.776,-4105.4106,-5721.2163,27293.890625
154,2734.778,7515.5654,13717.81,3549.728,-13175.635,3436.043,26172.28125
155,-20258.334,-11713.088,7484.985,142.353,-7230.16,-3753.6855,28368.93359375
156,4667.6855,12029.012,22762.783,1417.2817,-13891.762,331.20172,28874.140625
157,11293.057,28281.871,40461.67,1346.2751,-8700.674,-2932.3997,30037.09765625
158,-2166.6716,5875.877,15500.621,-15.828911,-16062.343,-657.6033,31780.818359375
159,-3331.9055,8542.777,15927.745,-5079.921,-13619.117,-1875.6815,30457.38671875
160,52784.816,48557.367,75807.75,-3956.191,-7228.3022,4115.946,29996.291015625
161,11712.12,-5495.9155,26531.355,2472.8845,-449.3969,6546.296,30302.6328125
162,22773.99,16276.702,38004.652,3261.478,765.2506,13101.732,30360.837890625
163,11664.543,13182.563,32289.426,-3003.0747,-6528.3247,13232.706,32811.69140625
164,3638.627,-12608.816,11244.296,240.70963,6002.6733,12221.611,31650.77734375
165,-4671.0527,-16558.688,2983.1392,2281.407,-4349.64,-9322.842,24980.220703125
166,8054.4243,1981.4268,31864.695,3730.1792,12655.36,-2751.5088,35963.03125
167,9946.408,11798.153,8395.681,-1942.0358,8851.208,-12154.068,26423.76953125
168,33158.035,26023.854,45583.11,1198.5443,-225.05208,12681.818,27944.029296875
169,13833.174,3472.9602,26739.812,904.43475,-7361.767,7534.545,27257.65625
170,7338.996,-4489.934,16446.383,-2473.9216,1723.9591,12563.859,28834.482421875
171,-2551.6775,-21857.994,9510.735,-1524.7234,4054.6309,-2660.0273,28786.07421875
172,7636.7144,-6962.8374,24321.26,-10745.693,926.69257,-7549.429,35427.04296875
173,-3473.3696,21617.703,28523.139,-3101.4475,11958.7705,1003.2292,36213.59765625
174,16212.024,4678.3027,24384.62,265.8597,6548.515,11923.308,29145.076171875
175,33405.65,39453.25,65485.71,-6793.595,4045.0151,3544.9287,33120.10546875
176,26774.178,9911.928,46047.97,-5735.645,481.16635,291.63055,32870.30078125
177,35494.305,29375.348,44682.234,-5495.2266,2343.5837,-14855.535,30776.7890625
178,-24465.47,-20867.334,-25716.191,1206.0425,-1267.8618,-11880.079,21251.0234375
179,2560.7527,-20609.316,13582.117,336.99146,-5615.012,7280.4614,34170.59375
180,36392.37,39921.74,53416.95,1613.9242,-12190.648,-11882.005,33457.4765625
181,24177.66,36822.74,50228.117,-4032.1748,-12558.074,-148.81198,32110.3046875
182,-4233.501,837.5715,26365.557,4649.569,-3938.1814,-3359.9663,30856.107421875
183,7485.0005,20179.262,38995.082,-4757.8794,14.452284,3467.5522,29291.927734375
184,-20853.69,-16394.121,-12382.34,1726.4116,13460.23,-6310.487,26940.9453125
185,10560.66,13053.088,42117.88,806.851,-2256.5764,279.08606,30673.75390625
186,15338.354,13231.881,32818.01,545.3825,7774.703,1262.3542,23104.265625
187,8638.727,11212.639,32228.031,4844.384,6901.548,-7915.6685,30060.525390625
188,6469.4185,6371.0894,2462.4526,8207.186,-2238.548,-4565.8335,17184.845703125
189,16507.623,38543.227,52299.93,4526.6646,1671.2623,-8235.321,35373.22265625
190,16735.455,26069.465,42678.12,1446.9458,-1798.6915,-11068.86,30025.6953125
191,25291.398,31647.102,59802.965,-6929.681,7380.9116,2374.3687,36558.25
192,39887.145,48246.824,75514.75,-7303.4077,-1927.9834,2293.687,35047.5234375
193,18032.307,56700.434,55287.875,-111.86719,-4402.284,-2226.1477,38931.265625
194,8634.582,-12828.176,-34501.98,-1824.4574,3863.2498,-3337.8618,38519.69921875
195,10892.385,27755.377,40890.227,-4233.9565,-12386.196,4593.729,35436.10546875
196,20171.842,8483.783,30833.816,7964.027,-5580.8813,13682.616,34932.27734375
197,6423.5957,-4384.934,-34378.727,683.37054,2973.0898,404.32425,37000.67578125
198,17483.27,14564.163,22185.56,1584.7015,20503.635,3587.4133,36765.45703125
199,22950.03,45469.4,66405.516,-310.54404,-1777.857,-1904.2684,37915.1875
200,28401.36,38729.7,67601.336,-9701.888,1476.8392,-450.25388,39089.296875
201,10209.354,20184.436,43066.223,261.29315,-11646.951,1551.6992,35576.80078125
202,-10327.731,3679.7532,-40125.67,2263.712,2875.4192,-1230.7872,39322.296875
203,7150.1997,20630.12,43095.355,-9973.111,-820.9362,-211.66293,35913.36328125
204,12001.529,30391.201,54161.87,2690.6724,-5505.735,1241.2566,38179.0546875
205,11298.065,9521.127,29237.887,6269.9224,-8478.701,-2982.6692,26779.890625
206,2276.201,32678.035,45201.758,-2475.144,-3226.7458,1722.2244,38991.94921875
207,-16624.973,-15460.547,-47830.543,1159.2584,6371.7993,786.69495,33751.5625
208,1874.1278,16484.22,35881.227,13563.999,-3402.6025,3704.1086,38741.85546875
209,8267.146,14355.708,783.04626,19270.016,3947.238,3833.1145,36653.3828125
210,17883.275,29192.826,-9131.809,-4820.706,-2760.0906,-4191.8135,36173.67578125
211,55485.832,56598.14,70649.375,2507.413,10633.002,7738.327,27422.48046875
212,-14533.866,-31033.4,-48180.46,-12459.996,3539.5325,-4698.115,37666.046875
213,41746.13,19705.883,50534.883,4258.235,6612.429,-11048.724,36173.390625
214,-3970.7993,-29691.025,-5706.8506,4450.5425,-5076.1147,719.9011,27534.8828125
215,-1762.6934,-16997.754,19894.564,-256.0848,4798.3145,7967.6465,35927.87109375
216,-9535.16,-4303.282,8291.604,9900.511,15377.104,7467.582,37717.625
217,-7267.5776,9955.042,2755.0754,-3715.0574,-4283.1343,20381.797,39587.23828125
218,-10276.296,-14942.216,-1170.2228,603.7978,-7147.269,17793.92,35375.0546875
219,14283.4,3273.3005,29087.748,7865.7207,-2780.905,14365.469,36486.94921875
220,8231.419,-2250.2485,23948.822,6254.3486,-10356.287,8902.088,34619.3125
221,-6358.692,3398.1455,-14412.587,-6703.6147,6198.578,-8935.169,26985.845703125
222,25498.89,21785.164,36075.703,-2590.5881,14676.07,11233.678,34782.484375
223,-4334.514,-18146.338,12809.909,-3964.898,1078.2632,11425.238,34113.79296875
224,13070.879,6978.8633,29239.334,1893.6954,-2435.9849,-10207.188,27168.92578125
225,19160.955,35333.23,42607.82,-16346.042,9539.938,-2675.473,39092.12109375
226,-4920.5684,-25962.037,3486.0015,-1689.661,-325.97787,7459.6777,29429.9921875
227,16259.8545,7766.172,28543.432,1006.74786,9109.561,11928.425,31720.91796875
228,-1812.1595,-10126.844,27749.33,-2340.2312,-4724.7783,6606.1826,37458.453125
229,-4961.1313,-17755.467,-2081.97,2642.7878,-1528.435,15392.254,30782.2578125
230,6725.1846,1125.4786,14285.295,-1612.901,63.606625,14109.35,27127.18359375
231,-6454.79,3771.0513,23630.78,5828.421,800.8,-6642.5674,30631.119140625
232,8601.865,9144.924,34594.293,1696.9852,-9488.345,2708.732,31024.552734375
233,8584.0,23407.639,42309.86,-978.6153,1037.8481,-1198.8816,29455.904296875
234,5645.436,4428.7812,35347.18,1530.925,-3960.5562,19.95612,31207.388671875
235,1896.0919,14817.748,24328.125,1127.3151,-6170.312,10072.872,28332.408203125
236,-21619.059,-6523.2056,608.26416,-6041.0386,-7659.9023,-6575.036,28312.4765625
237,19952.674,36833.945,55583.246,-840.0686,998.3981,3272.6653,31468.462890625
238,-8621.669,1167.6323,-2786.5764,-2474.506,11370.808,13712.415,32297.11328125
239,-1444.943,18683.303,29121.902,-152.62794,1246.4772,-350.84354,27005.955078125
240,-2081.047,-14055.163,-7988.7603,-883.4244,-1493.7312,-1718.0708,11199.607421875
241,-1348.7709,12764.729,25691.443,-170.20743,13810.276,-1299.1982,33556.7265625
242,-4535.266,6670.171,-3090.913,683.45135,15389.584,-5736.036,30365.91796875
243,13202.81,17398.572,35205.04,-5973.704,8835.665,11917.031,34302.99609375
244,13199.616,19247.957,28759.26,-7898.9106,11169.825,5731.629,29062.052734375
245,19943.277,28149.15,47758.195,-3509.4348,10264.997,3324.537,31606.595703125
246,7655.1514,9218.22,11873.286,-412.99936,14033.729,7715.3086,27992.30078125
247,-25307.303,-35106.473,-19986.729,8336.654,14016.73,2312.5222,31470.912109375
248,23882.285,22585.865,33694.523,-6465.2627,-3592.9993,-11815.362,26336.623046875
249,-5050.7715,11113.758,23243.994,-4665.378,-2265.108,-3847.4373,27011.330078125
250,6941.278,22321.312,36540.94,4062.085,66.56479,3730.705,27362.5859375
251,8098.007,12857.519,33781.76,-1774.5444,5747.8506,-6354.404,28102.701171875
252,5844.5264,6496.2236,12113.385,-3279.333,4153.03,-5423.6826,14418.4580078125
253,-563.49817,10664.637,20390.953,-2752.7888,13310.949,-2940.8953,30167.943359375
254,1905.3857,5495.3706,9267.004,130.07475,5484.1924,-5178.05,14538.5615234375
255,1263.1621,3380.0574,-351.86237,5119.15,-909.5338,687.59393,9644.9775390625
256,6993.2036,7119.3687,6024.3643,-1735.8834,1448.1954,-7908.5034,14284.3193359375
257,-228.62361,-7078.298,7784.2354,-3323.2166,-582.43677,1809.1167,14490.587890625
258,2984.3037,-5177.729,-686.8875,-8253.379,-9210.026,-5957.775,24808.1796875
259,20267.582,16994.055,34633.867,30.163149,-2849.8477,2082.1438,17363.990234375
260,-16027.563,-5981.0127,-19234.39,-14073.982,-43.34143,9015.538,31329.072265625
261,45950.176,51978.64,59997.96,7672.125,827.96576,-7369.2075,22148.427734375
262,6481.307,-9750.738,17034.447,-2825.732,425.71188,6426.3545,26354.111328125
263,7717.027,5770.2734,31184.07,-4606.7407,-5625.714,-8453.122,31195.423828125
264,10803.951,-18159.277,-2017.7847,-3320.6719,8048.135,-9262.201,33416.609375
265,29104.865,9810.673,44028.523,5878.126,2688.7083,-7214.5127,34123.5
266,-15742.804,-5759.513,-34704.105,-13751.723,2364.4065,-7622.726,37508.82421875
267,32685.695,20583.166,54117.28,5987.276,6890.0977,-4608.9536,34334.39453125
268,33878.176,18954.936,51019.258,-6361.6,-3801.0427,-8427.404,33913.67578125
269,29308.535,12715.94,48655.574,-4679.747,940.835,-5046.565,33397.5859375
270,16134.213,4395.6733,1695.953,6641.91,-15210.787,-12102.254,37981.7734375
271,15246.397,8972.811,27017.545,5969.886,1455.5364,-13274.944,29895.015625
272,40125.574,27402.928,53494.273,-11827.6875,-4943.275,-3893.8362,32390.576171875
273,23316.643,33433.836,61259.297,-4325.523,-991.8334,1478.381,34982.39453125
274,11788.197,32424.734,45250.332,3517.2146,-9643.742,8600.146,37323.50390625
275,-8866.155,-29508.598,-52749.918,382.12067,151.80917,2264.3843,38235.015625
276,-13613.932,-31034.81,-49983.63,957.5386,4582.4307,-4370.781,33402.2109375
277,-10892.07,-1642.178,-28360.303,7303.3613,2141.1816,-15651.068,38221.95703125
278,32052.219,47313.656,37683.266,-2035.9471,-12537.936,7491.048,28828.1875
279,7003.878,9185.376,17103.418,4195.7085,18118.135,4457.6377,34379.51953125
280,18648.363,21312.986,49312.3,6809.298,8062.7646,-4594.517,35540.43359375
281,4743.0024,27276.9,39335.863,19.196789,-6029.771,-356.61566,32161.8984375
282,21899.098,8852.047,-8203.149,929.5508,3428.3987,4603.8667,28019.029296875
283,14414.031,-432.6948,-16173.334,6351.4546,-5588.373,3180.3398,30772.4921875
284,4478.0684,-12367.321,-35893.277,7737.5146,5442.78,-3474.3223,39220.3203125
285,11214.674,24177.02,40248.63,9622.451,-4681.17,-9305.958,35184.68359375
286,7434.0356,5508.9087,-23746.55,8351.44,-2224.757,-3258.539,34232.30859375
287,21567.072,23381.66,17555.324,-1436.5896,-691.8576,-21070.162,36961.453125
288,-4884.4,20378.47,35726.406,4097.48,-3949.8145,2520.5608,37117.859375
289,13183.886,31434.814,51081.81,-508.7626,-3714.2834,-5360.3906,34728.1171875
290,-6801.566,28988.121,32844.33,314.89426,-4804.162,1383.9602,38846.72265625
291,4406.0645,-21347.947,-35258.7,-5323.749,2647.8303,-127.90546,36347.5546875
292,363.7227,17398.389,33151.348,8253.879,6489.7627,-7713.954,36275.71875
293,30731.936,16474.676,37998.332,498.80704,10011.535,-9177.679,30229.078125
294,-25803.69,-11218.206,-3005.606,8137.5957,9898.33,3412.8684,30454.935546875
295,-5446.1367,-8761.47,-15419.744,-3253.9097,12024.986,5587.63,25231.486328125
296,20932.504,42664.86,38079.11,382.22647,-12941.963,-560.2176,29958.775390625
297,-2542.895,3232.2305,617.25275,7574.8784,1455.3591,-2724.6372,15028.3017578125
298,-18.72624,4609.8535,24856.816,-4881.9976,-9264.951,13532.14,37462.69921875
299,7407.7886,-10580.609,20539.977,2023.8328,4568.591,10114.626,33377.90625
300,-15068.333,13789.034,-20724.986,1317.096,5818.6094,5571.4424,35041.08203125
301,48923.016,26851.344,56066.695,2127.05,-503.16476,-8487.969,30435.724609375
302,51046.93,33691.176,73303.445,4136.2334,275.9671,-3357.6614,35612.19921875
303,22454.705,3335.435,38929.707,-1902.8455,-541.5939,-6723.9946,33156.30859375
304,18262.924,-3901.2534,29614.506,-9334.016,-6826.784,-5728.571,37031.65625
305,6710.5186,15722.057,500.67245,-15799.252,11526.517,1296.2925,36444.51171875
306,8903.315,5081.49,-9056.952,10383.222,1032.2035,-1462.4415,24527.189453125
307,19318.89,8098.172,31940.488,2128.011,4184.6953,-11850.111,30236.208984375
308,5398.343,-1556.8075,13529.7705,-4976.8677,-1375.5973,-10199.181,23729.80859375
309,-907.9366,8457.545,25465.455,-2919.456,-2920.2617,4101.539,25256.48046875
310,46260.203,46031.914,72057.72,316.81644,7661.7676,9482.114,33430.43359375
311,-1844.197,-780.63635,-1018.8098,-2171.27,4008.2246,-5841.5596,12870.38671875
312,-15873.77,-1244.5059,-9238.734,11185.272,9795.863,3522.0847,29349.5546875
313,9940.147,37095.24,42163.76,2701.4365,-1581.3433,8901.882,34173.8359375
314,11556.896,4166.5225,-11096.99,4471.398,15658.851,4512.9634,35455.25390625
315,13796.868,1428.1984,4915.9507,4327.6313,16235.9795,-9839.204,35488.66796875
316,-12795.446,13811.06,18908.68,-3672.5732,-13217.646,840.34357,37897.5234375
317,37042.094,35461.08,48372.777,-1280.7223,-19961.936,3989.1316,37375.05859375
318,9182.18,14930.809,45369.902,5782.392,-3088.685,-4624.517,36437.0
319,-15749.26,14094.55,4476.32,-4714.123,-10694.278,-3761.7722,33887.2109375
320,450.61252,19559.02,28936.305,13076.394,-246.93541,22.509895,33843.91015625
321,32256.158,29492.979,55517.707,3393.7266,-14187.032,-3820.2297,35988.34375
322,-7783.734,-4095.6614,-638.2917,882.0326,-11887.083,-14434.762,33009.62890625
323,-19229.768,-22957.883,4470.947,6900.6074,-2843.441,1162.4749,28898.900390625
324,17238.73,16218.887,20861.342,442.86456,-5037.2,2123.2034,10396.654296875
325,1263.1532,1553.2932,22259.084,15032.95,3136.0317,8370.436,36776.171875
326,-1808.9027,3088.932,18818.941,-2490.7812,7394.827,11222.992,30149.52734375
327,26448.213,35153.33,54694.668,-1024.329,-12670.142,1161.6255,33414.7578125
328,-6361.5195,6093.8447,12887.395,7010.955,5588.5776,13094.322,32271.43359375
329,-36863.727,-20537.475,-1268.4951,-4307.3564,7795.024,2064.88,34686.71875
330,-17117.578,1673.467,16003.128,4674.666,2703.3757,-7028.698,32609.845703125
331,-2399.8074,25265.549,12172.431,3693.2944,-11667.766,-4765.3286,33045.9140625
332,16798.15,16702.861,16285.975,4263.9893,11135.966,-12569.851,30013.33203125
333,2372.9624,12644.573,27993.395,6739.3945,-292.06268,989.68915,25262.662109375
334,2795.5479,10022.725,18096.703,-2557.665,8512.772,996.05164,20390.59765625
335,3469.586,-1393.8822,11862.476,-2291.0015,3192.8252,-4307.353,15391.58203125
336,2081.165,-3967.8733,5631.279,2286.3638,-1242.6167,2536.9731,10502.0146484375
337,12739.193,-1211.8447,27905.549,5894.548,4886.693,-9928.713,33284.390625
338,-10501.146,19576.156,-14859.503,-4950.409,303.48297,-1479.212,33691.0546875
339,5152.4775,-13853.569,18380.83,-1003.018,-89.56645,-3212.8342,28664.384765625
340,16738.04,2765.839,33604.418,6479.6294,7184.3574,194.70154,31563.79296875
341,11921.044,23390.156,27704.873,-5773.631,2302.5989,7906.2124,22429.404296875
342,13659.926,6744.352,29271.682,-10763.918,15184.864,-1676.2194,38043.01953125
343,25384.95,14349.217,35977.11,138.80048,-43.26861,13906.605,30514.224609375
344,11939.524,7058.4507,24754.375,16832.857,-1012.2318,-297.03418,33226.03125
345,784.2357,14969.902,22950.719,-8960.671,-11863.484,-5126.268,33467.64453125
346,-29751.06,5556.946,-22395.727,-962.34424,-3387.409,8148.4165,35741.37890625
347,33860.195,21591.836,22270.184,10931.111,10792.976,-14639.687,38646.40234375
348,6343.403,5908.619,-21828.229,6936.833,-4398.819,-1704.876,31507.283203125
349,8925.271,16538.604,18417.434,-2566.7266,-6836.4727,-11092.813,24595.220703125
350,-12829.496,7329.4077,-32051.074,3025.1074,-4318.073,1723.91,35435.0546875
351,48381.004,47337.75,70307.17,2647.2761,-11631.568,8676.992,34021.97265625
352,19505.348,4749.3794,-13497.351,5487.523,9851.584,9336.511,38248.4140625
353,-7908.2065,12759.452,1003.94324,6595.4917,-12601.906,-1322.1376,30570.494140625
354,28743.736,49307.72,42965.36,221.25601,15294.757,5.4315386,32165.423828125
355,45962.93,23785.6,57934.44,-5306.4204,-45.813374,-8414.755,34605.6640625
356,-8712.692,3176.9817,-22286.914,-13595.862,-2251.0557,-5229.1787,33746.01953125
357,6960.1587,7627.915,21460.842,5152.7983,734.78644,12481.822,27380.544921875
358,7079.27,-2305.8994,11561.644,3775.464,-6818.33,1308.0502,18374.03515625
359,-29482.338,424.94653,-2731.431,11969.478,-4550.1074,-3664.5498,36636.2109375
360,639.57837,803.3459,-2121.744,-289.3131,320.21967,240.69037,2972.61840820313
361,2815.6404,10205.141,96.39403,3504.222,168.12914,17.357718,10909.505859375
362,22498.186,24536.695,2494.2932,8536.1045,1421.3684,-7836.809,29223.14453125
363,699.41547,-1567.1656,-230.4055,580.6409,-308.57242,-182.15692,2300.23217773438
364,-2869.0876,12654.965,18845.066,-9959.955,-9400.705,-4221.33,31489.517578125
365,-5744.891,2881.9192,-2295.6665,882.33594,-2170.8042,-1211.7927,8800.0703125
366,-3984.1443,-6257.8403,6112.9346,-5342.816,-1577.2384,6950.863,19186.50390625
367,5415.521,2364.2107,2148.729,-5152.061,5085.3735,-669.4032,12983.56640625
368,2739.0059,7352.931,-8943.111,-2582.683,-3164.7068,519.69775,16202.70703125
369,15758.503,4748.532,-7734.8438,1609.6475,37.085773,-877.56537,20605.4140625
370,49593.242,14541.008,16152.091,-5729.312,-4484.8804,2740.0938,36825.59375
371,12897.73,10479.486,1891.6027,-1009.68134,351.8831,-1367.8029,10459.9111328125
372,-15276.022,1373.1503,2883.6035,5802.3013,-1162.3184,-1261.5787,20358.09375
373,1599.6075,6773.3115,1129.4296,3266.2395,76.18522,-575.65204,7901.72998046875
374,200.42929,1182.7302,-1248.7975,3359.2676,-116.935234,83.8585,6197.1689453125
375,-2270.0085,-543.3076,-457.0165,-3808.178,243.97899,-93.50061,6844.66259765625
376,-61233.87,-41784.906,-21984.96,4482.8525,8180.44,3343.5764,38078.5234375
377,-61247.1,-24180.078,-22441.086,2686.931,1608.6005,4891.7354,39276.6640625
378,22176.865,10866.128,9399.877,18415.525,-2124.568,-1299.854,34390.0
379,643.95654,8098.476,3187.0964,2394.8586,-0.66177577,761.97546,7875.74755859375
380,16678.338,13908.252,7.303298,-1770.0032,849.96497,10302.939,23862.822265625
381,3545.5234,-4326.903,-1762.2186,1988.5024,4173.2324,834.84674,10703.4267578125
382,-2773.6692,-8009.6587,-740.18243,-9897.706,2481.6013,4980.4663,20711.876953125
383,2716.4924,-18677.658,-8155.64,-3714.6768,-839.3341,2219.1182,20039.8671875
384,-21611.887,-20669.35,-2513.4211,5110.3105,839.9683,-2923.3062,21301.13671875
385,-9230.433,-2131.524,-262.22223,6391.4927,1581.7906,453.1643,14065.3681640625
386,2713.7625,2610.6272,-446.0724,2061.8018,-105.53922,-47.706642,4739.47509765625
387,-10163.448,4223.9663,4874.3267,-3970.201,419.25385,1503.3948,16473.404296875
388,-6291.1753,5081.6045,-117.2764,65.40711,1096.0862,-88.05849,10044.056640625
389,-9886.254,6035.836,4696.349,279.50494,1712.6069,-652.2523,15629.7626953125
390,-14915.17,-5288.4043,103.516235,-3145.1953,-626.15704,-155.22287,14303.126953125
391,-386.90753,-1662.9103,-3940.9177,-7555.331,-3178.648,-564.4888,14568.482421875
392,1351.404,1963.7368,402.14648,-2476.599,-61.296234,358.87988,4544.841796875
393,11720.667,12347.083,20021.633,1137.8628,2460.5728,-828.4127,9391.7421875
394,10398.3125,13114.925,4745.1875,-772.17017,1703.1836,-826.3644,8199.697265625
395,12928.467,6337.3037,12220.7,-992.585,-298.2058,18.464369,6519.419921875
396,-11957.559,7397.6616,4907.0615,-159.35707,1370.1403,-345.79312,18403.486328125
397,-4130.279,1005.5174,2759.5261,-268.5786,174.66254,762.29877,6364.935546875
398,-2777.5293,4749.569,4942.301,5669.374,915.6622,189.06683,12537.6640625
399,9047.451,-6541.5293,15231.325,1206.4874,-1444.1844,614.1486,19733.533203125
400,12973.492,5262.793,-5307.762,14015.656,-7539.1455,6298.8706,33638.625
401,-3110.2837,-12274.489,-1620.3657,-2842.3748,187.02466,-4598.11,13697.681640625
402,-38693.145,-4362.807,-11164.974,-11874.648,5584.1724,1543.9719,38923.55859375
403,-29900.639,-26864.814,-20914.764,15521.322,4552.483,15.482765,29113.451171875
404,39308.863,39362.438,19669.738,-10714.985,-6574.0737,-4766.63,30479.51171875
405,3032.0068,6269.004,549.596,-1925.8108,2999.1096,-1930.3456,8600.2900390625
406,8831.369,13155.785,-1015.2863,-63.704613,-6077.6694,4778.0513,18372.640625
407,17390.393,7900.765,3057.2344,-432.39276,-195.67294,367.8087,12671.1376953125
408,-685.1713,-6212.5986,-13791.867,-3080.9124,-1621.023,-1102.727,13034.525390625
409,7698.3184,515.6829,4840.813,-5629.6226,-4444.0117,2122.4958,14389.990234375
410,581.7897,-3419.0786,13086.99,-3899.4998,2639.8071,3815.0823,18237.521484375
411,-11879.421,-13241.643,1774.0463,-8133.719,-2609.8652,245.02744,20638.7578125
412,-11389.947,9957.081,3456.9233,12186.817,535.52673,-4575.159,29468.640625
413,-41119.2,-14023.374,-14951.806,-13476.96,4392.6274,-1725.0714,36353.6484375
414,32815.16,13326.844,-3290.556,332.87555,1335.0128,3245.0388,31891.18359375
415,15607.608,4017.7566,4432.6587,9662.315,-5523.78,-159.81528,22391.56640625
416,7799.445,-1463.3727,-11045.931,578.7326,3311.4338,-2679.6553,17939.619140625
417,37129.273,15950.955,-3888.7502,3430.911,2047.6779,-745.4406,36219.69140625
418,4846.0166,6392.695,7591.593,282.24265,2801.396,-4685.9106,9764.19921875
419,3639.9019,-9135.766,13515.443,3879.599,-5650.2627,-736.34534,23010.162109375
420,43123.254,29573.842,5937.4404,-2664.7876,-5416.9214,553.87946,34245.8515625
421,-8860.447,-5999.821,-3519.3965,-2471.4253,1233.6532,-1578.7379,7197.08447265625
422,16010.014,8049.525,11752.344,-12821.499,-4366.269,-661.1637,24480.212890625
423,-22291.262,-18602.385,-34543.426,-13059.366,11069.509,-2721.5525,33322.421875
424,-37.724228,3714.677,4938.071,-1991.3884,-498.66455,404.98752,5770.85791015625
425,4449.9604,25231.04,36826.113,15610.634,-2357.2314,840.7334,39460.39453125
426,11191.316,30978.127,15941.144,15967.643,-7123.8174,3838.604,35797.2421875
427,-11222.776,2902.3477,-4078.8606,2659.4104,-1634.2487,-824.5922,13450.484375
428,1610.1644,5378.759,3339.798,3019.432,-70.047424,730.5362,6296.21484375
429,-1161.845,-2932.9983,-2106.69,-550.0808,-143.81944,-774.5047,2263.98828125
430,-6624.9136,-3716.5342,-9371.812,5291.35,2051.9062,-1259.9116,11197.3828125
431,-5697.6035,6392.509,-2088.1357,721.18976,-420.04382,309.98776,10859.9326171875
432,-2094.5383,-2834.3215,-8341.697,19282.066,1863.583,438.42087,34078.4765625
433,-29674.16,-12671.305,-20833.729,-18059.0,583.03143,-1935.625,34750.25
434,7199.763,6222.424,-6208.922,-694.5851,-184.94383,1487.873,13260.2587890625
435,20008.271,490.6843,-3983.5586,-1976.3184,6852.1777,-0.6620902,25315.1328125
436,8148.5728,-1258.1609,5162.5005,7698.7827,-2964.9104,-2739.18,17204.919921875
437,-28884.773,4141.6147,-843.46075,5788.5005,-356.01572,-4040.578,33178.80859375
438,-1316.1357,-275.08322,-13227.95,-6108.4385,-3285.1167,2343.0422,17780.90234375
439,20916.209,12806.574,-2259.026,4323.4585,5932.426,-8498.219,28164.375
440,8394.774,-1717.8489,-2292.1064,-6215.28,-839.6083,1555.1107,15285.9814453125
441,-5348.45,-15069.345,3312.205,9577.771,1369.2621,-3952.8298,24112.080078125
442,1134.6783,8068.6934,398.00403,5284.1567,700.15155,-115.09477,11790.1943359375
443,3442.4407,384.10892,-8744.218,-4757.997,4552.6094,1107.1697,15948.951171875
444,-7873.643,-20414.244,-1262.2462,-10454.118,2332.6992,-3268.189,25692.830078125
445,-3776.385,2131.5654,-6144.472,-5028.055,-1205.4678,278.60562,11616.3076171875
446,-5527.999,-5518.314,-1709.7285,-182.38913,216.98232,278.40137,3875.03125
447,4534.2495,4758.3193,7183.3735,-4257.5327,-380.7666,-19.48854,7828.8134765625
448,1095.7812,14248.931,27584.441,-13136.126,-9661.824,3072.3628,36773.48828125
449,-1370.9451,1193.0336,-4333.908,4155.7656,-1789.2268,-1056.8992,9365.7021484375
450,1794.7489,8735.187,3287.8472,-2439.4424,-1766.8502,2928.5466,9642.7861328125
451,-3355.9443,9320.633,-19070.049,5817.6914,4434.282,-1313.4219,27794.42578125
452,-7889.99,-4720.516,-1318.2047,3884.9084,279.56586,405.11557,8854.896484375
453,-28952.895,-24391.28,-13934.797,-8854.252,9004.816,-4505.5303,26780.546875
454,-6250.35,2577.109,-1872.6266,-1827.5873,505.50232,479.04675,8361.7939453125
455,2036.2765,-214.77388,-1777.9233,-401.45975,217.00128,73.109726,3416.16821289063
456,-3928.9854,-2384.7854,-5140.616,2676.919,930.37775,-1407.1554,5979.8291015625
457,55792.035,27570.008,20643.568,2979.7332,-5928.386,5474.872,35523.6953125
458,-21252.027,-8401.073,-3140.8254,-12853.524,546.15424,-6326.461,29614.572265625
459,36144.01,16926.371,-6653.4893,1417.2994,-1804.9686,-3239.4746,37759.23046875
460,12103.766,10130.187,7159.544,1792.2526,-3569.0337,1718.4219,8677.09375
461,2978.2007,-6907.6255,686.55206,-1838.9825,-2448.125,64.97253,10414.6318359375
462,5249.3906,-5442.6255,-1560.3958,2925.8901,-110.99874,-1020.17554,10803.87890625
463,-7603.927,-8878.734,-10830.176,-1502.6384,-2793.4795,-619.6124,6265.54736328125
464,11386.802,192.53346,6093.012,-4507.9487,-3125.0598,-1764.8398,13916.986328125
465,17525.057,5826.806,89.43852,7417.4546,1679.1919,4307.3545,21588.388671875
466,-2709.1438,1436.6587,-2165.2598,-1191.4147,-130.18518,-881.7689,4676.5859375
467,-2751.8972,1143.9908,886.68414,-911.8045,80.298065,-120.26615,4098.6103515625
468,-7123.6133,-13786.1875,-6029.037,-3627.4077,-3468.725,2457.6733,12106.6748046875
469,15464.522,-1371.6595,6915.8677,9382.034,-236.08313,-3123.0686,22496.78515625
470,28310.83,7140.4805,8329.547,-10966.646,-1886.4606,-7183.951,30833.916015625
471,-1486.2,2994.8352,2063.137,-1977.591,-43.81535,1162.171,5706.40380859375
472,-1164.4316,3876.3938,4500.2847,5316.6206,-2627.141,263.4811,11604.1943359375
473,20.629128,-813.71136,1514.2942,1005.87225,-535.55743,1214.0542,3534.25659179688
474,34586.12,22775.844,19264.117,-14024.407,-4603.9775,-2802.2583,29504.052734375
475,-5879.5806,-6281.1387,-1208.224,-12686.851,-3774.538,-3604.0017,24257.681640625
476,25800.553,-1755.6177,-8727.568,-7988.571,4119.2637,-3337.7317,35719.02734375
477,-4531.596,-5275.195,3889.181,1973.5496,282.68338,1354.2892,9754.5283203125
478,-7978.1157,-21841.227,-8175.4766,2320.0251,2886.4495,10490.409,23680.734375
479,-1300.1815,3882.3264,-3348.1433,-5566.7354,-1584.7288,-1125.4977,12081.6416015625
480,1028.328,5736.2856,891.67206,-791.7451,-1051.4075,-497.4902,5363.427734375
481,8197.567,9456.597,1302.5068,-180.43524,-22.60719,33.562397,7609.90673828125
482,5703.8164,-6718.1226,-9.896879,-1700.6027,-1452.5646,785.4872,11525.3046875
483,558.1301,-10747.304,-1161.3289,-3797.1692,-577.0747,-670.3186,12527.275390625
484,2282.6772,5760.2886,2427.3823,4720.457,-81.73849,1914.3096,9459.0390625
485,-7843.1836,-746.77563,-3489.217,7674.22,492.21762,-1497.0637,14918.1064453125
486,14424.133,1989.7023,8691.7,4305.301,-5421.122,-1304.7375,16281.150390625
487,-9623.991,-2564.532,2501.4219,8387.456,235.69246,-662.5157,17994.2890625
488,-7379.6685,4306.791,3114.0664,-791.1299,5332.5884,4736.695,16689.912109375
489,-2611.2378,-4453.6,-6075.8423,-1498.8936,409.0094,-1293.0088,4612.185546875
490,-1596.4736,-3797.5918,883.2463,2625.7952,-455.2733,-209.75613,6155.51025390625
491,-17604.266,-22072.205,-1036.5244,-2279.3477,-641.0642,296.99084,19635.681640625
492,-19327.12,-11234.329,-7026.4414,26.50949,-2686.899,-3856.1902,13547.107421875
493,-5702.3135,589.40936,-6282.0405,7307.1914,3368.8345,-1260.0333,15574.48828125
494,7265.2603,-11638.511,1545.5549,1445.5543,-985.9579,-263.5897,17068.603515625
495,14861.709,-12790.215,-265.9225,-586.8824,221.41568,-1211.3049,24098.716796875
496,3427.021,3842.3728,1854.2694,-10613.936,360.72507,768.4191,18531.80859375
497,6582.444,-2390.7788,-4861.6187,11468.436,-1855.414,-4701.4688,24083.3828125
498,-8241.33,8321.111,2339.7644,-2780.9866,-558.7333,1024.5366,15437.3740234375
499,13177.723,-4451.9956,3000.2107,-1409.3727,-1764.645,-1475.6813,16024.8515625
500,-3032.839,2245.2712,-5224.7363,-9388.067,1379.0518,3645.3958,18820.505859375
501,7243.833,-3369.969,5959.391,1008.0315,206.53351,-256.4995,10200.171875
502,9132.216,6014.1123,3481.7827,-3299.0925,-176.6905,417.80377,7569.72314453125
503,-15130.946,-931.46967,-718.0295,-2045.104,644.9707,-451.2422,14802.2841796875
504,-9544.863,-865.70465,-13634.036,-14423.533,-4341.0845,-7308.804,31119.857421875
505,2801.1887,9615.151,6283.021,-3173.285,2000.8885,3463.3848,10631.705078125
506,8004.466,22630.262,8332.718,874.58344,1466.2352,639.6339,14805.1455078125
507,1356.4109,2462.0144,5498.6416,4894.871,1897.8,1706.4525,10257.7255859375
508,-3737.2546,24244.545,4817.2554,5233.9937,-2527.272,555.5079,26815.318359375
509,2691.1672,-8172.25,-1826.9906,5623.7954,1053.4325,1407.4539,13910.3603515625
510,422.24258,-8307.861,-4823.4805,-6.769646,-252.17325,199.93256,7632.001953125
511,-1493.8711,2066.6953,236.29718,920.0075,2299.1653,-358.13666,5319.1396484375
512,-2331.8765,3295.0298,-1774.0682,8512.542,-433.92447,1315.5785,15873.9306640625
513,-3862.9412,-3158.9814,-572.4958,-662.21204,-511.41345,215.73862,3353.51806640625
514,3751.0994,6674.4746,-355.74945,5977.244,1266.0408,-1027.6082,12352.2080078125
515,-3462.9175,2947.002,-736.07654,1262.216,-746.03094,-68.90714,6124.328125
516,22145.521,3276.8748,4855.3765,-2563.8616,-1931.9923,3207.515,19761.470703125
517,-12163.8545,-22095.57,-4820.3936,-1103.0682,-221.51689,1686.0616,15421.55859375
518,10511.857,10280.032,10105.207,-8203.541,3318.4668,-464.2041,15352.5966796875
519,5809.275,-7959.2207,374.5966,2297.1245,4421.7314,4765.422,16937.91796875
520,-14663.653,12626.454,2893.052,3602.251,6537.747,-2750.8093,27635.474609375
521,17276.807,-3381.1338,-4043.3425,-15939.882,-7079.734,2006.5123,36953.41015625
522,-4028.6765,964.7547,4022.1702,2464.8394,381.38876,1196.9706,8515.2822265625
523,1044.6783,-5042.0854,-3680.6536,370.58102,635.30176,799.5458,5844.3232421875
524,664.7667,-278.07602,-2679.4768,-1251.3724,378.3275,371.1771,3802.67456054688
525,-13460.351,10172.26,920.4194,1347.8723,-2951.08,-2791.9878,21918.353515625
526,-12377.456,-6610.973,1536.1144,-8575.011,381.14328,1087.6896,19266.158203125
527,-15834.185,-19052.408,-4370.1675,-2035.8622,42.80225,-341.61993,13837.060546875
528,-7217.95,4093.6711,1396.5798,4818.534,-606.0693,-216.99893,13252.04296875
529,1559.2124,-1093.453,-2733.9482,4208.713,1664.9376,298.53036,8706.4775390625
530,-20674.422,7673.2617,8900.472,3065.9812,-186.1284,4941.667,30683.06640625
531,-12396.758,-6521.7104,-2882.9275,3797.7773,-1477.7264,-1317.2166,11142.732421875
532,-4836.7217,-993.9412,-2853.441,2064.2336,2227.4946,-1395.676,6677.66162109375
533,11576.163,-5540.073,854.3501,-406.50098,1411.5221,453.99747,15215.025390625
534,8709.527,-5901.991,-105.64249,-1323.6365,1199.9595,-465.6946,13138.7607421875
535,6065.441,-5743.4155,1426.6929,4863.8506,-1698.8234,-1298.8694,13815.8994140625
536,5058.1367,-4307.237,3926.9062,4325.4688,457.53244,143.54143,11628.1708984375
537,-21344.617,-5158.824,-1596.299,-3013.0034,-86.806404,-226.53291,18966.943359375
538,-11161.345,-15976.469,-1700.3352,-5367.615,2494.7148,2633.201,16856.986328125
539,-5952.6177,8171.1133,6217.758,2579.7966,-831.7673,-299.8833,14071.8876953125
540,2764.5366,4344.0654,2190.097,-33.257,-310.73932,-322.79834,2082.7451171875
541,-6531.991,8275.458,-901.22864,-6606.057,702.1534,672.029,17359.224609375
542,-7253.1655,-4369.3296,-551.63403,4476.2114,-2429.6975,281.5754,10581.04296875
543,-10526.856,-7276.349,-1355.582,5761.2734,2152.7832,282.82257,13363.64453125
544,5288.5923,-9141.994,-3826.7576,-1335.4807,1200.1033,48.238617,13018.05859375
545,-11009.434,-2987.2004,-1324.8793,-2999.3525,18.55215,-944.71423,10493.8984375
546,5123.809,-11858.434,-340.79434,-19.61631,-300.02405,-77.31141,15024.8583984375
547,1151.449,-21107.336,-819.0299,-5833.441,1055.575,-138.52258,23684.662109375
548,6460.4106,-13130.725,-2221.2227,-6902.9697,1817.1272,241.31026,21026.9765625
549,1058.5254,10610.527,9249.948,-8277.267,1676.9434,441.92807,17165.587890625
550,248.34335,2666.1519,954.4714,3524.3193,339.09793,135.41936,6503.8134765625
551,-2889.3848,1973.8203,-324.28934,2281.1294,-98.455826,201.99371,5789.47607421875
552,-27129.182,-7868.4023,-4221.7188,32.03594,2960.57,2348.1472,22301.419921875
553,3865.9302,445.3411,-2411.6963,-4125.3755,649.89746,-82.54631,9054.255859375
554,-23402.287,-16468.115,-6830.8364,-3584.8242,-239.40228,-860.91956,15771.328125
555,-4393.525,2170.485,-1857.1007,2012.1517,1356.085,3468.4402,9307.19921875
556,306.81955,3007.495,2347.439,1274.9258,-635.72644,145.79578,3478.39697265625
557,-5053.593,9388.403,3444.782,1716.8406,-1133.2948,336.65826,13080.361328125
558,9087.469,6778.0044,2213.208,2605.8186,-258.657,1348.0953,7920.662109375
559,4646.378,8761.519,-1048.3417,3283.7698,-827.7511,-304.95667,10367.3876953125
560,-11419.694,-17420.354,245.16142,-409.55402,241.00273,315.43677,15590.046875
561,-17057.867,-11053.28,-1465.4886,1098.843,-163.65388,-161.73195,13759.8232421875
562,-1490.6769,-6020.4463,314.607,-3732.166,1164.1298,3780.4233,10985.580078125
563,-4178.2476,-2991.1443,2875.1946,1814.0796,-777.98145,-3432.6453,9477.587890625
564,2576.0735,-2882.2224,1802.4067,-1041.0261,-219.32321,496.30112,5504.826171875
565,1376.7343,8017.413,156.3839,-845.16815,278.76944,231.99799,7498.62353515625
566,2585.5051,-1753.7307,1032.5762,1954.1595,-521.657,-37.783646,5174.83447265625
567,4862.6836,-1097.546,1111.8253,2571.7417,-116.705376,229.82234,6875.9130859375
568,8315.373,6250.282,-821.7065,-1653.2847,-31.78076,-208.99702,8787.265625
569,-4863.0195,6472.231,1220.4207,1959.9458,-951.0986,-4761.2544,13371.0654296875
570,3429.855,-1420.112,891.2527,391.17456,1186.952,1051.7767,5065.4580078125
571,-10493.494,6251.733,-2525.8914,-3679.5154,58.51189,228.64087,15850.85546875
572,-785.59357,7400.6816,2415.5005,-4361.141,1948.0933,4030.0696,12970.169921875
573,13917.695,-5528.972,-7894.039,9530.791,2441.87,209.99031,26838.171875
574,-7541.2944,-7314.2856,-2465.7798,-738.348,-5520.148,420.58762,10873.9345703125
575,-18141.275,3359.559,-573.8866,-7604.116,4848.017,2473.173,25602.984375
576,10818.253,-2556.576,-4808.509,747.43427,373.95172,906.5547,14786.3955078125
577,877.13586,-17011.139,-2162.6858,-13556.445,-3515.643,-3783.0645,30103.14453125
578,11385.076,9593.722,12749.014,-7957.9473,-4493.8677,-522.75867,16090.4853515625
579,-8536.694,4012.543,-8593.026,-5992.8145,3962.9897,37.681183,17693.361328125
