Element Label,S11,S22,S33,S12,S13,S23,Mises
1,-1316.2809,3380.4653,7258.9243,-3331.45,-1923.4985,-923.17163,10112.861328125
2,9694.299,-1242.3313,2147.188,-937.91064,1732.8864,-43.267002,10280.181640625
3,4742.597,-6468.9526,-3022.369,-21.57422,-3065.4197,653.89484,11331.84765625
4,185.94604,5987.7495,5379.556,-6963.933,4699.394,830.90155,15630.5927734375
5,18506.156,4148.341,4410.1084,-5035.856,-3792.944,1919.8384,18241.521484375
6,602.1418,-3058.1946,-1723.5276,2760.5022,1494.6185,2083.7673,7272.07666015625
7,-4880.8374,6065.8804,-7204.6963,-2561.481,63.97101,-1399.1792,13275.4853515625
8,20716.777,8456.899,15951.779,-6920.9204,-514.3381,-181.35872,16099.1064453125
9,-10637.234,953.59973,-12214.531,5068.9414,-794.6529,2514.5476,15907.9619140625
10,31587.035,-3373.02,-871.7572,-8526.489,-322.6841,-3408.0493,37340.0234375
11,137.87904,11382.658,11449.905,-827.9955,-497.58786,-2005.7523,11919.49609375
12,3024.1216,6125.2983,-6919.0474,2102.2734,-1787.4753,918.23724,12833.267578125
13,-6355.6797,10004.822,4423.328,-1491.2527,2736.8833,-3123.6248,16306.96875
14,20227.152,6016.3613,-19403.588,-8167.532,193.83713,2710.3428,37836.9453125
15,40839.477,21492.93,25555.28,-10112.186,-12679.76,-110.35851,33186.34375
16,11218.065,15790.79,12585.968,1495.4845,-10343.931,-7770.3364,22920.7421875
17,15758.698,8926.207,30967.113,3267.0513,6512.069,5379.0723,25058.640625
18,-75.543846,2370.7126,21295.615,5652.7026,-4754.5405,2195.2185,24260.345703125
19,-6255.4326,-5141.181,-4644.763,493.02606,377.38177,-443.73676,1946.3564453125
20,9157.735,-6735.003,27939.445,-6927.5522,3360.928,-6837.526,34956.26171875
21,-1379.7458,11317.065,-9777.579,1093.6234,6232.5107,-17.948809,21412.14453125
22,-6471.69,-5909.8584,-5909.3022,125.76206,-1060.2101,188.10161,1960.02514648438
23,15779.766,12267.051,27288.543,-1453.5858,-3345.7822,-5204.391,17504.19140625
24,-916.46783,259.48898,1283.1832,67.54026,34.970604,342.5124,2000.98547363281
25,-1527.6366,4853.4297,6969.6743,773.5041,-3189.8306,3310.7024,11131.15625
26,9682.674,-3162.3237,31510.873,-6019.1016,3967.3684,4986.303,33946.21875
27,6873.774,13033.35,22926.469,3678.0178,-12081.381,696.73627,26012.892578125
28,7706.0596,15220.702,22272.76,1743.6844,-8761.801,9697.266,26090.892578125
29,-338.4004,3602.643,26931.889,-6102.834,-105.81787,13934.486,36687.9296875
30,10587.921,-4076.8025,-15297.42,-7351.902,-9708.484,-732.27264,30854.947265625
31,23786.457,28809.672,40785.03,-4181.85,-13561.044,2179.7456,29107.04296875
32,23247.678,37243.74,53213.137,-9565.885,-11088.781,2318.7505,36523.30078125
33,2521.8687,9830.13,20552.904,904.50793,-8177.054,3313.2507,21971.193359375
34,327.0886,7635.853,11850.302,-807.44525,-10272.956,1577.1455,20688.18359375
35,9475.788,16811.371,25432.107,1303.3767,-10120.627,5099.293,24119.537109375
36,13396.048,11169.015,40068.035,2392.7883,-14263.782,7217.7173,39491.55859375
37,16517.938,24030.852,36650.47,-5686.0654,-8623.381,-1333.5951,25217.578125
38,15259.797,15755.388,46362.773,1429.9757,-10506.477,9175.408,39269.3671875
39,7742.221,15214.593,26374.482,2188.2842,-8152.094,6392.9097,24497.220703125
40,-107.483215,-633.26807,-29076.998,-7060.5903,3587.6702,-5962.96,33453.22265625
41,-3564.0496,-3694.1274,-38353.543,604.7276,5301.051,-5627.0635,37231.60546875
42,-5540.709,9094.282,22197.34,-7697.351,-13210.633,-1306.6038,35833.89453125
43,-4053.971,29657.705,25951.395,-4274.1777,-6579.5044,6074.5596,36340.66796875
44,10011.218,12555.291,34402.793,5089.3467,-11244.953,6380.264,33444.609375
45,20280.125,23728.709,30337.318,1235.0875,-7494.205,-5648.099,18631.3046875
46,-9909.445,-10780.836,-8663.16,-314.48843,19.521694,315.5333,1998.77111816406
47,1302.2422,-332.31497,1423.3687,18.91612,-143.1267,-593.26196,2000.71118164063
48,-1530.286,-895.1192,-1124.109,562.8754,752.55334,-476.50613,1908.16577148438
49,1935.4565,-9281.29,-2140.1401,-4388.4585,-2878.6936,-11026.258,23325.57421875
50,12664.067,-63.695274,6372.4883,6509.465,-9916.475,-15198.25,35165.19921875
51,2929.9045,1921.202,4215.927,603.6217,-362.69125,-3655.723,6749.01416015625
52,6985.4453,4179.1323,12239.314,-570.7028,-2127.9236,-11327.592,21206.763671875
53,10537.1045,84.21603,21531.814,1335.0338,-1523.4543,-16944.988,34911.0390625
54,16973.396,5523.5327,23696.854,2711.286,-1066.228,-16333.023,32848.953125
55,14855.659,388.0592,32554.39,6667.6465,-11098.939,-4286.9424,36560.63671875
56,7089.389,569.84534,12723.63,-1040.3011,163.33446,-15063.291,28196.041015625
57,15587.119,12459.221,33147.766,2638.1772,3236.9604,-11977.304,29253.53125
58,28378.895,19461.098,33511.957,262.3046,1405.1964,-12965.947,25731.859375
59,15730.816,12544.485,27978.412,-2563.3438,-3786.3237,-12009.501,26355.009765625
60,-1442.5588,-6318.063,10721.849,-140.7573,-4932.6113,-4826.2563,19338.578125
61,-5446.1196,-10055.633,-299.52042,3136.2146,772.2574,6779.739,15512.88671875
62,4483.53,13159.998,18424.02,1754.2638,9435.243,-4185.363,21852.224609375
63,10602.836,16385.45,27825.73,-128.9831,11331.569,-348.90582,24821.400390625
64,6393.035,12443.829,20416.158,1400.0437,10462.04,-2154.735,22284.095703125
65,4473.7827,8773.277,12148.44,-1093.1473,8137.9966,3637.9084,16922.111328125
66,10320.447,10657.655,14790.872,1276.0471,8256.779,-4255.036,16802.234375
67,970.5835,6388.4775,10851.5625,-844.42896,8981.25,-2765.925,18453.509765625
68,-6624.178,21744.14,24317.361,-5171.7026,1750.0503,-6008.003,32895.2421875
69,3203.705,5274.432,8158.8833,355.21658,8027.8364,2473.6565,15187.32421875
70,4867.664,5722.867,6598.529,84.008064,8748.426,564.0251,15258.68359375
71,7677.1245,13138.467,20042.88,39.954056,9179.285,-9399.598,25160.375
72,1192.6582,3913.6658,5987.2866,462.53027,10568.237,-1148.9738,18894.7421875
73,8220.365,10211.278,11690.614,-1019.63464,5285.291,1523.8218,10148.1708984375
74,1439.3475,18656.773,41861.69,-6041.5244,3619.0374,-1492.6741,37281.54296875
75,3112.1584,10066.343,18160.225,1149.7854,8023.3926,-4697.717,20819.560546875
76,4732.216,8284.002,11803.311,186.37755,8547.894,3354.887,17046.115234375
77,147.64449,-2075.6277,631.9109,9117.938,-2851.753,4740.276,18640.619140625
78,6204.9478,6669.7417,11979.0,-738.42346,10521.803,-5195.396,21109.45703125
79,2235.4023,6705.5693,10685.445,987.3803,8977.499,-1593.7145,17491.2421875
80,17255.762,12141.324,3026.2922,-6550.788,3578.584,9690.73,24591.615234375
81,-2178.446,620.8349,2185.2195,791.7463,5313.168,-559.26495,10107.947265625
82,4484.425,5320.5737,7629.563,182.76868,10467.174,567.24744,18376.94140625
83,8852.767,9461.275,9912.266,-170.01813,803.28845,366.9472,1809.58361816406
84,-985.0878,678.0037,785.43933,-217.39742,-512.1386,199.33945,2000.9853515625
85,17967.043,16332.439,40799.83,2099.8088,-2022.8151,815.82153,24265.822265625
86,7300.2026,-3341.2922,13430.557,410.23148,2362.334,-5752.07,18236.349609375
87,4125.766,-291.2435,18894.545,-579.7643,2709.5881,-224.09824,18056.724609375
88,18261.164,15786.173,34200.83,-1598.5798,11398.262,-9948.426,31527.607421875
89,9945.176,4760.6685,31549.559,-2708.761,6644.8228,-4811.148,28801.9296875
90,6093.201,9734.928,-24441.766,-3790.5574,-5413.0464,8753.698,37652.83984375
91,11686.119,11655.374,13543.3125,5850.93,-1315.0021,-6453.447,15373.2236328125
92,4710.0,5778.0117,32880.58,3701.7288,6787.9863,12231.941,37320.7109375
93,21844.967,3092.9067,28871.78,1732.4329,-3115.1597,7832.8076,27476.50390625
94,20415.553,1618.5297,11967.54,-1179.3624,909.63055,20766.926,39577.140625
95,24937.068,4606.387,43546.945,-3365.628,-3012.0264,4268.382,35410.05859375
96,-980.95667,8686.919,19112.156,250.72035,7167.188,-6447.469,24123.58203125
97,9277.884,10249.94,11163.202,243.38979,-427.32782,451.55878,2000.98522949219
98,-26767.254,6503.888,-3095.635,-10345.198,-7870.6997,2003.7985,37399.08203125
99,13226.172,20383.22,26702.918,-1160.289,-11366.736,-6499.4565,25588.435546875
100,-18422.143,694.49866,-38686.02,438.83688,5538.517,4331.639,36226.23828125
101,-2351.2817,97.09854,2317.535,531.84283,9602.951,-4995.083,19201.888671875
102,1271.3531,6224.8916,16079.148,381.57715,9805.104,-3064.4678,22079.11328125
103,25586.373,14000.8545,32804.574,3547.0999,323.6647,-16887.48,34111.20703125
104,2991.4307,4630.034,20044.08,5835.7847,-11668.227,2627.1406,28228.578125
105,10814.833,13261.858,22585.002,-3536.8384,-9115.122,-12511.928,29532.21875
106,4336.8223,27881.293,42760.95,2426.454,3187.1606,-2661.99,34575.6484375
107,10739.323,22343.95,34559.367,1714.8844,-8040.2944,-2172.2576,25348.703125
108,8102.6665,15896.262,24196.33,-3187.4133,-11223.082,-3829.4822,25429.607421875
109,11875.237,4941.354,25320.049,-1930.8303,-15577.287,-66.15264,32576.365234375
110,2109.7827,4026.7463,18048.484,1836.196,-10604.171,-2644.594,24405.015625
111,9088.442,10540.601,4900.9326,-7544.5664,-3309.102,5845.4453,18216.6015625
112,8238.565,-15054.209,-5239.081,-2948.772,1538.764,3946.034,22139.810546875
113,1732.6376,6929.3623,28904.26,-3267.7168,11096.361,-4.5978765,32023.759765625
114,1731.2039,21348.197,33307.07,-15.46448,-762.4254,-747.4002,27674.15234375
115,427.67963,1481.6792,2603.9382,296.5749,7458.941,1315.5883,13263.3642578125
116,2491.7246,4090.206,9655.869,-30.653852,7942.2007,3296.5667,16256.349609375
117,-6495.853,17135.447,16358.546,3458.3264,-1625.5743,6579.2036,26727.2890625
118,7459.625,10908.889,13505.015,-293.34592,6143.5977,2332.1624,12545.85546875
119,-4604.617,-4357.8154,-4101.255,-472.71683,7716.114,-711.973,13453.4892578125
120,-7319.589,-3943.8738,-2314.775,45.0158,4738.4185,-1978.7913,9932.7509765625
121,-10068.921,-18157.336,-44107.082,1201.9403,-7164.92,-7544.2183,35746.21484375
122,1902.8124,26758.193,37516.98,-1662.8275,-10778.706,-97.52061,36848.61328125
123,6068.059,16442.367,27925.672,-2007.9208,-7195.207,-801.0874,22977.322265625
124,7662.926,10930.1045,2211.9014,-2450.6516,173.17982,175.17487,8740.5205078125
125,10650.436,15307.938,21109.234,-940.6608,-12552.871,-3695.5803,24468.697265625
126,8344.495,-433.21213,10760.218,-4037.0906,9674.266,3316.5056,21604.501953125
127,21866.854,12570.299,38631.32,-4465.7295,-7179.369,-9641.324,31884.927734375
128,-5641.8877,-8149.4487,-1812.0383,729.2743,3030.7307,-14264.375,25886.828125
129,13332.634,-10.66882,20376.123,-1307.0662,4317.5522,-12085.113,28650.25
130,-4392.1064,-10827.2705,8210.0625,842.6978,1216.248,-10226.798,24528.625
131,9150.472,5495.4336,16958.45,-3050.9714,-1152.7133,-1642.2059,11952.5859375
132,526.5988,-17973.979,13420.018,188.42488,-803.27155,3544.862,28049.736328125
133,30187.559,14796.6455,35117.582,2191.1152,-10737.926,-10152.059,31726.453125
134,-10952.574,-32130.537,-8499.813,-8.044431,-515.5862,15342.043,34833.87890625
135,9358.981,13041.011,45936.91,-2675.6702,6014.112,-5555.0205,37939.19140625
136,19180.049,18541.93,40470.805,-8430.65,-421.90933,753.48114,26129.568359375
137,8733.619,-4051.5,14640.806,2402.6194,5453.2153,13115.094,29940.3671875
138,-18771.25,9464.206,15814.0625,-3355.2327,4081.652,-10132.066,37531.07421875
139,8593.176,4681.4805,22468.582,-3346.3757,2895.556,-4588.99,19596.646484375
140,7355.9043,5991.159,6835.8306,-52.99276,777.1795,374.91187,1914.51379394531
141,-20126.053,4175.625,-7041.148,3596.6438,-4215.508,1468.0588,23289.177734375
142,4295.5835,13560.063,6007.501,-370.6831,-2134.273,-5463.1416,13285.953125
143,-2819.235,4918.9116,-5542.1924,5681.7188,7920.2925,-9853.629,25781.484375
144,3060.6807,3903.4575,5821.07,53.485397,9095.259,-1057.4125,16047.9833984375
145,12289.051,16578.72,18806.428,813.7516,11110.027,-629.0929,20159.16796875
146,-241.95444,276.79736,6444.795,865.2825,10335.692,2208.1926,19464.5078125
147,4723.034,8386.01,13487.336,-1718.3868,10930.274,-4435.7427,22009.671875
148,4821.279,9865.982,12989.985,-53.232933,10723.178,-1647.2131,20101.64453125
149,10058.395,11712.905,13017.648,-45.858112,6765.5293,470.4396,12024.3876953125
150,-8926.702,6045.9995,-18870.867,-11538.888,-10166.039,-6108.04,35963.40625
151,16182.529,10641.373,38599.902,-3405.2297,12000.053,8743.689,36791.4140625
152,6390.18,-7651.478,22062.572,-1550.4047,-1549.1119,-10837.992,32088.240234375
153,-18965.975,-2738.6904,-21760.516,2353.2969,11286.232,-1856.2976,26936.419921875
154,-12472.607,-22433.145,-15297.893,-764.91473,3749.5063,-12060.704,23650.931640625
155,23738.883,16081.556,30850.748,-2218.181,-1072.4894,-9225.259,20909.306640625
156,10475.257,2406.3206,18913.977,720.1086,465.71646,-13278.523,27121.48828125
157,17912.51,14544.172,34092.824,-3009.0186,-9346.885,-3320.8162,25494.859375
158,3656.7993,14277.274,27703.986,-1665.6917,-8135.759,-2131.7283,25616.34765625
159,-11912.356,-1735.3665,5284.688,-1464.0963,-9734.484,604.0403,22717.861328125
160,7079.5435,13014.231,19743.547,1717.384,-11852.356,-2688.3403,23924.994140625
161,10084.317,21549.438,31475.424,1445.7052,-7615.1855,4464.0645,24162.03125
162,8111.769,19896.168,43830.258,2606.773,-10325.141,-1178.499,36580.58984375
163,7346.2656,12283.252,20242.713,1933.8861,-11324.527,1640.1401,23044.462890625
164,13344.874,19482.816,27457.389,4289.716,-12440.417,-8496.752,29770.73828125
165,18602.496,8217.081,37715.27,2328.5874,7474.091,-7828.7783,32239.283203125
166,7728.4297,7134.529,31289.33,1478.8213,-11968.739,11541.296,37488.3828125
167,12119.409,-12361.159,-5464.1777,-10229.699,1749.1476,15259.1,38725.4921875
168,-2536.9224,-12853.793,-4530.366,5724.2227,10475.162,8699.811,27283.564453125
169,19638.713,13771.112,28828.012,3421.1687,3847.2866,-11550.526,25545.119140625
170,22868.729,16202.515,28433.488,-148.29604,57.192513,-9629.899,19768.1953125
171,-6622.21,4619.748,4650.7305,10311.568,3353.4006,5027.847,23564.58984375
172,19116.896,12968.564,36544.84,5222.413,-9998.996,9246.987,32969.2109375
173,-4961.2827,-19580.793,6076.896,951.51654,-949.015,-4644.5396,23813.388671875
174,14312.853,10349.484,20367.875,1569.184,-178.57043,-11141.736,21360.416015625
175,3316.0457,-6037.2246,20073.695,5017.132,2572.7532,-6810.188,27559.921875
176,14787.79,476.7231,32899.68,-2901.3289,10963.633,-4642.0913,35249.84375
177,8949.215,24751.297,41499.293,-602.68274,-11391.164,4228.0894,35197.30078125
178,7010.5435,24681.979,46042.117,535.0654,9480.62,5681.71,38901.8046875
179,3712.7598,3899.2898,24820.768,6550.321,9788.606,-12834.5625,36769.47265625
180,-1837.5125,5339.7144,25905.598,6515.0103,4099.3887,8562.56,31933.955078125
181,-15764.042,-1454.5962,20464.102,4853.1865,7109.9644,-2416.9312,35194.796875
182,17676.38,10999.763,22298.758,1661.9089,3193.4463,-15207.609,28801.037109375
183,-9785.107,3736.8193,-4242.376,-3823.4927,-272.5278,-8412.419,19874.66796875
184,6333.9106,7739.0464,1094.3081,46.98833,-923.7884,-16924.248,29977.44921875
185,6621.1943,5637.557,21889.285,-3201.629,12830.537,2852.3,28251.134765625
186,637.66565,6724.257,15422.638,785.3879,12009.876,-464.3431,24512.458984375
187,-1089.7676,-2850.4568,-1498.8407,-494.92834,-85.32956,-378.76974,1932.41345214844
188,325.55554,235.09308,1687.5343,-793.99115,-106.33948,175.47508,2000.98522949219
189,5300.205,13526.516,26497.14,2767.4727,8311.057,-14353.542,34509.12890625
190,8673.67,13625.545,44254.688,6235.0703,8823.679,2059.6763,38435.1953125
191,-8636.401,-9238.816,12395.104,-526.08185,3781.84,268.77353,22345.26171875
192,418.32504,-211.97365,45.25775,-111.03979,-339.84067,-982.24384,1891.87353515625
193,7468.2007,17952.66,29742.145,1419.5178,-8778.284,6702.035,27285.416015625
194,15099.632,22804.43,28900.264,2694.7754,-12052.3125,-7705.498,27913.697265625
195,7069.964,14713.345,26016.812,-1868.0347,-11752.9,-8538.874,30268.533203125
196,1997.4484,11935.042,16145.107,-1239.7139,-16214.292,5105.2695,32090.966796875
197,989.58344,-12023.686,13679.953,-1098.3677,-6821.7,-6913.896,27967.2265625
198,9917.624,10253.056,28893.209,4329.621,7623.0625,11639.613,31477.486328125
199,-2346.062,15614.1455,23902.299,3216.1765,-4223.9155,-4449.8535,26154.900390625
200,-7625.544,9365.342,-9023.344,558.61566,-5905.3403,5334.7393,22479.490234375
201,-17075.94,4946.0156,1898.0355,9973.74,-1229.0638,-10115.627,32203.57421875
202,140.61433,13321.034,17027.463,-1758.2686,-15631.906,-4885.8633,32407.904296875
203,4437.468,13468.279,20945.24,-889.5019,-6102.5205,-13599.213,29561.71875
204,-1467.5077,10946.412,19283.852,632.6135,-2570.7349,-10989.015,26653.71484375
205,7435.5503,11701.867,19582.643,-6204.907,18269.959,-3009.1604,35467.8984375
206,8125.7944,12911.04,25124.049,2273.1338,-8806.935,11771.872,29906.8046875
207,14394.204,17262.352,24567.98,550.6937,-14159.434,-10518.501,31888.041015625
208,8686.401,12354.854,34417.414,3659.5088,-111.9739,7851.557,28395.4921875
209,5459.4688,10071.63,18448.719,-1888.0956,-11152.082,-6072.847,24990.478515625
210,12307.499,16247.927,29234.822,3228.402,-11266.062,-2770.2063,25892.521484375
211,-14285.033,-10277.475,20285.604,977.4602,7635.068,-727.7103,35383.37890625
212,-7468.6826,-310.42853,4827.4087,-296.10565,-9974.532,-2537.5354,20795.916015625
213,1967.2417,601.17847,7688.6587,-2490.412,-7510.283,-5262.5864,17700.86328125
214,7032.9087,6333.3896,21455.145,4997.0107,-14239.849,4126.7246,30869.056640625
215,10761.393,11251.919,12278.515,-415.63467,-278.87286,105.61686,1607.20837402344
216,-12867.787,-12223.651,-18525.584,-271.8116,-10508.092,11951.888,28215.146484375
217,-498.25644,-1176.3401,-163.25127,-849.3978,270.3794,523.1348,2000.9853515625
218,440.30933,-258.65408,709.4663,-992.557,35.67402,-313.84122,2000.98510742188
219,21896.812,12027.623,30685.84,9.273464,-1956.0508,7898.0576,21447.728515625
220,20579.703,7381.925,38332.816,-6074.203,-4868.6543,5372.424,31496.73046875
221,15007.925,4400.091,26071.848,2292.049,-3625.7158,8991.893,25496.296875
222,16421.328,7871.019,27950.879,1110.9827,-172.15974,5703.217,20149.2265625
223,17245.287,8413.071,25767.125,-275.17596,-1008.01227,7967.9883,20485.076171875
224,8794.084,9122.867,11416.91,1182.5607,-5020.1753,3899.4485,11469.2587890625
225,581.08,-7341.494,22028.494,7614.712,1633.5663,7895.1387,32582.728515625
226,7578.116,4615.478,11573.27,-1438.2645,5509.205,6239.028,15830.6943359375
227,8967.719,-2706.1187,12985.038,567.8814,6599.685,7430.644,22284.373046875
228,13366.6455,8594.234,18337.43,-350.52237,1361.3009,11462.768,21709.9140625
229,22308.695,-183.01317,22804.568,-4460.019,-4044.2585,13596.574,34360.1484375
230,8580.436,3934.6838,12750.776,-1308.7318,-2126.1765,9855.897,19195.455078125
231,11801.548,8593.309,12217.079,-78.74248,3804.5576,8516.819,16518.166015625
232,-3068.0706,-22409.912,10054.081,1995.5658,-1794.7925,5782.4863,30364.88671875
233,3323.1597,1092.716,6147.763,-988.7961,-1653.8868,7838.19,14652.7890625
234,-4149.4536,-3374.7104,-2162.141,-53.261684,-496.14557,207.30525,1971.26843261719
235,1101.3588,6270.024,-1374.4064,-7819.393,9533.503,10314.121,28650.931640625
236,15347.377,33631.74,54564.84,608.8247,9371.734,3512.1492,38168.92578125
237,11367.141,14888.669,26475.465,6121.237,16424.252,-3415.524,33825.02734375
238,9019.572,19741.225,43357.27,-11580.296,5263.9795,-2127.7683,37747.78125
239,7210.834,8927.046,27374.97,-2267.0469,16832.768,616.1478,35235.14453125
240,6249.5464,25947.717,21326.562,-5683.9897,13070.948,-2309.8838,30721.712890625
241,-4498.9844,24273.324,27567.404,-8241.001,-3920.4587,1857.3622,34549.625
242,-1047.6273,-9553.621,-28510.578,-1600.7769,15684.442,-3400.4675,37058.7109375
243,-3131.335,14921.61,29425.88,8666.935,4213.37,-7449.3784,35259.2109375
244,14046.663,36709.766,52534.05,3283.1252,-1128.7626,-6505.9434,35857.94921875
245,6978.381,-7909.178,-34380.19,3260.2842,-3697.5332,-1215.6405,37333.359375
246,9271.685,11675.317,-20028.447,6384.4214,225.31406,8526.52,35710.51953125
247,17127.252,35860.02,52634.17,-4.7387767,8783.344,3603.2493,34884.19140625
248,5008.625,14838.888,44486.324,2287.1348,9138.191,-2076.8738,39321.7421875
249,-764.0664,18571.93,15467.491,-2428.7092,6677.1157,-4848.077,23354.869140625
250,5200.887,27255.006,39545.55,-2469.1147,4574.0493,3005.6985,31885.056640625
251,23484.633,17410.66,44313.926,-169.37703,314.9404,6732.408,27085.58203125
252,-5399.5327,16753.715,1339.4667,5783.5024,8815.978,651.56805,26863.998046875
253,-640.55994,8683.688,31695.81,4000.686,4630.366,9331.74,34708.08984375
254,14868.708,17699.021,32856.902,-6160.5864,2010.0564,-5587.187,22367.453125
255,-1239.8523,23843.898,29302.842,4809.6367,5396.563,2582.5786,31188.154296875
256,-15998.169,-2256.7188,-28153.53,-2922.7632,-8575.072,1428.1965,27494.634765625
257,18236.195,16966.684,-14496.949,-3321.65,-3395.0942,-4364.13,34004.88671875
258,-17459.787,-4344.1064,15831.189,5465.392,3031.4993,1062.2888,31052.267578125
259,-2370.2527,-13614.923,11927.097,-4899.717,2237.5554,2388.2444,24408.576171875
260,739.88837,-427.25897,77.192566,802.3345,-295.53543,-24.767082,1795.27734375
261,-4477.5303,-6635.8477,-11146.85,-4336.889,-5103.4624,8816.76,20062.681640625
262,11378.6045,5504.664,15432.236,1512.5496,9867.611,5349.331,21437.458984375
263,21159.568,6502.43,12419.842,1873.9778,-12072.225,2997.9468,25255.283203125
264,-1680.9547,5857.9937,-12373.478,2550.3137,10894.191,924.73785,25097.890625
265,-2532.3174,4338.184,19228.742,-726.1141,-15988.968,6548.1895,35614.56640625
266,7469.45,-5779.5664,-5117.805,1114.9883,1234.143,8273.565,19515.66796875
267,-9802.648,10201.449,-21120.613,-5129.1694,-3821.5132,-1901.484,29803.51953125
268,-10922.85,-181.73108,-36829.668,2882.189,-8001.851,-7107.7114,37859.89453125
269,4721.312,2354.687,2741.227,-10171.251,-3174.3977,7230.2754,22411.1484375
270,5465.41,-1605.3552,27906.172,3103.2166,1887.4772,8371.514,31017.43359375
271,21773.947,16032.687,29725.633,7047.466,-18865.635,2818.013,37180.69921875
272,-15590.77,6158.8594,-26839.291,-2292.9424,-770.7141,8248.987,32648.4140625
273,10227.53,2521.1794,18412.656,2495.48,-11972.276,-16794.377,38526.66015625
274,19896.348,14022.956,20994.244,-1937.2803,9092.748,-1772.9808,17631.625
275,23100.35,245.20154,28608.684,5097.77,-12145.398,-6898.6,36631.3984375
276,-10599.661,209.47691,-24803.125,-1593.0122,-7141.61,5854.791,27121.201171875
277,16864.062,-69.95793,39049.387,-5551.973,6103.5815,2427.4207,37101.859375
278,18443.008,-3550.9136,14821.915,9892.008,1863.9075,-3651.1472,27589.37109375
279,-1289.8142,-6393.9385,-3531.4534,-1225.707,-12988.087,-2300.9458,23368.712890625
280,4025.1475,2850.4446,15440.594,983.3338,-18452.055,3744.6423,34806.6796875
281,-698.05176,-11299.342,-2762.6687,-8353.228,16979.883,-2143.343,34392.1875
282,5634.69,1010.93854,-26085.82,7087.038,3221.5051,-1611.5614,32718.58984375
283,-1646.3591,-14997.059,-45275.008,-2958.4043,240.50392,3018.4512,39408.0
284,1550.0225,-1876.2186,-28663.547,-4520.6855,-2120.3762,3061.0708,30397.173828125
285,4790.4536,6527.7573,-26425.67,-2034.8009,-3956.0054,-517.64014,33043.4765625
286,5700.8867,-267.2435,27886.115,-1646.664,3291.4421,9602.943,31264.87109375
287,22976.775,3756.6067,24095.41,5444.836,7054.6357,5303.319,26735.455078125
288,-2470.699,6064.185,38475.04,4156.113,1257.6515,-3516.645,38647.06640625
289,11041.976,12361.409,25867.703,3744.5647,-10087.699,9305.04,28444.38671875
290,-12815.158,-14120.923,5701.522,-2940.8606,-12057.929,-7871.3296,31886.537109375
291,15668.98,25871.137,28316.123,-9290.221,3370.8303,-10705.039,27781.5
292,5842.45,9469.456,20409.05,531.292,-7018.084,14808.362,31288.623046875
293,4726.6836,3463.2224,2368.7922,-7750.2344,-13065.068,7918.7485,29741.94140625
294,-6622.0874,174.5212,3132.8584,4736.8696,-13009.762,6195.622,27663.78515625
295,2321.924,-10940.746,26913.201,-2152.5667,-3144.6304,9509.874,37704.84375
296,5976.306,10252.567,44337.9,4238.094,2067.2144,6175.897,38819.88671875
297,-13995.846,17714.297,-8865.839,-3919.9795,12987.089,1856.2499,37836.5703125
298,14901.28,20947.93,48350.723,-3783.515,7123.769,-4851.2227,34913.640625
299,4892.2744,-4208.6304,-27286.4,2506.0671,2834.4163,824.23145,29502.87109375
300,-71.038345,-1403.2074,-1074.3022,425.43652,-187.80522,542.7149,1725.43188476563
301,-2812.973,-3848.0574,-295.93698,1948.8901,-431.79294,1499.9736,5358.71533203125
302,10177.317,-1021.49817,16983.508,-5646.233,-6999.7324,-1700.0377,22344.08203125
303,17825.969,12901.808,27665.746,-3549.4834,2139.1348,8267.624,20642.341796875
304,10921.464,-6361.3164,-15547.267,512.5961,-17987.69,1806.6515,39026.734375
305,24372.764,26368.44,48889.57,-1228.2257,17443.023,-791.7795,38409.796875
306,4659.201,4681.499,26115.904,-4945.2783,-2749.4985,-16462.209,36999.6171875
307,22369.074,-555.88385,26515.85,857.7683,-12432.959,4914.73,34296.07421875
308,18197.04,4820.7793,11871.117,-5948.6646,3343.1697,-7231.9194,20758.53125
309,-2352.5283,-864.4281,-18599.604,-8235.106,-564.6365,2096.7083,22537.859375
310,7575.4497,1299.2568,13290.297,603.05664,20.85209,11859.996,23043.185546875
311,3090.718,-13348.89,-11023.444,-11980.883,1387.7534,-11715.018,32947.9296875
312,-724.1002,1663.7838,8779.084,-2923.7507,-3215.14,-3769.5166,13137.8876953125
313,-569.2477,5410.9204,-5574.9272,5588.4717,-10953.484,-3344.2566,24040.29296875
314,-8536.327,-8077.361,9639.226,-2441.2368,-3298.2073,-7252.733,23033.4375
315,-12089.153,-14468.863,-43082.41,3953.7612,-1673.6307,-11983.692,37129.72265625
316,492.42532,816.3964,1182.0912,390.31332,-801.0577,207.48357,1693.64294433594
317,-6084.8657,-1580.2117,-12112.906,-3569.248,13032.902,-8942.31,29520.609375
318,-12129.0625,6814.9824,22688.893,5828.22,-4669.4126,8576.237,36049.19140625
319,13716.236,16566.34,28334.46,-1803.8636,-11184.449,-10547.938,29982.7734375
320,6485.713,20435.797,32073.197,-2666.704,-6061.2744,11234.013,31662.861328125
321,-1814.6337,3073.4963,8041.0737,1045.3136,-7318.452,1523.7563,15613.3134765625
322,16971.31,22051.93,26595.244,-1053.3475,-7790.3867,3193.6536,16897.767578125
323,7458.594,2970.7632,16052.015,116.331566,-9131.508,5459.532,21729.396484375
324,-5729.294,-4199.0327,-6143.643,170.9957,351.54883,-129.67288,1912.16381835938
325,2517.9644,662.6414,1829.3965,6.7890353,107.956085,372.90662,1758.15612792969
326,-10173.409,-10874.692,1852.92,-5077.786,-482.4466,6438.689,18867.390625
327,20856.668,13062.5,39213.37,-3733.396,5685.5005,-3250.4592,26669.810546875
328,10217.03,26881.469,45328.547,3045.7327,-2725.6206,10844.772,36446.56640625
329,2696.1575,2027.5511,-3020.44,-2554.321,3164.2258,-2962.552,10258.90625
330,4741.3574,-11709.304,-35034.17,7117.1567,-5577.688,-2618.4807,38265.46875
331,14266.239,31357.795,54697.133,-5433.266,-4185.292,6023.7217,38545.01953125
332,18963.713,10014.288,-13991.391,9165.277,8642.371,2011.9886,36870.37890625
333,8440.18,22605.438,44785.95,-5236.2017,4694.6665,1616.0499,34103.23046875
334,-29162.555,1842.4237,-16693.096,297.50284,-6200.7075,3178.91,29599.138671875
335,13970.376,12496.968,10466.667,-674.64294,4189.269,-40.83778,7956.43603515625
336,13757.534,15791.759,20442.488,5480.3325,18457.824,6427.7393,35656.015625
337,-3615.0498,2123.0752,-13913.827,-5478.797,3583.5037,1182.2606,18189.4453125
338,1749.6362,3380.5454,6597.4556,8951.299,-4915.2046,16116.125,33321.13671875
339,13082.919,8864.082,19673.607,1206.9869,1230.7488,10536.136,20760.201171875
340,16512.096,10522.8125,25553.715,-91.54792,2163.5952,11895.712,24705.619140625
341,9864.253,12109.4795,15785.236,2025.8871,-1027.6528,1109.4036,6780.732421875
342,-3120.455,2397.3596,-5923.8667,-23.37978,-9135.649,6655.1724,20905.26171875
343,8353.656,4508.2075,13119.013,658.5155,-140.47911,4665.7017,11067.40625
344,-2804.7976,-1259.8478,16014.572,2583.0466,14661.907,1041.9977,31554.220703125
345,850.8309,13553.696,18588.64,-2203.9688,-1671.6185,743.76337,16591.76171875
346,-3069.882,7511.908,6063.5444,3679.4739,1962.3958,-3713.767,13866.8857421875
347,14128.608,13560.276,27984.977,12250.59,4243.3213,6802.477,29039.046875
348,15817.341,19040.057,29185.852,9633.179,9248.532,-7018.6636,28788.98046875
349,1550.6664,427.13327,4278.7188,250.46745,-3980.5005,11734.532,21739.107421875
350,20673.93,11061.401,817.15674,-3890.5022,-3867.0864,-75.09035,19649.587890625
351,10107.345,7734.363,16249.458,-788.24023,-2705.2368,12248.585,23061.529296875
352,618.91504,-5750.377,-23878.006,-4319.9375,-14636.055,2686.2324,34711.875
353,6039.9995,2626.1028,32723.678,-4286.577,-717.8729,8380.216,32895.63671875
354,-21474.117,-4328.2637,-4417.4507,3339.521,3139.8848,820.45715,18907.99609375
355,709.33594,6386.2812,8845.837,4990.149,-412.11002,-225.14967,11296.29296875
356,4223.826,635.408,4726.6294,1309.9778,-549.63336,-74.58558,4583.11328125
357,-380.6686,-557.2326,2623.177,-1382.0344,-2618.8132,-947.42224,6211.4462890625
358,1325.9585,-411.5002,-374.30847,-742.2717,-12.827464,-299.11133,2208.466796875
359,-2370.2493,-4104.7036,-7327.726,-1500.3822,918.2046,663.759,5439.748046875
360,2785.2344,5465.7964,7322.355,2625.854,671.4242,420.95,6178.85107421875
361,216.0369,3984.9856,89.94823,1070.7032,973.98724,420.06375,4637.955078125
362,-81.41901,-13674.196,-32536.473,-4821.749,5661.062,-7481.8916,33626.87109375
363,31230.344,2314.2527,9845.35,2846.0913,-353.76205,44.409725,26453.1640625
364,14463.855,-1023.328,15609.85,4998.63,2105.2454,-1652.1606,18850.951171875
365,-3628.5098,-5352.3696,-22085.521,-3019.5652,-702.0601,3590.6355,19476.28515625
366,-5389.135,459.84048,-13348.193,-7734.898,3136.87,2327.8079,19219.03515625
367,3258.2554,6618.842,13517.995,1026.5187,219.62038,1488.7468,9593.3349609375
368,-543.70544,2874.9246,-168.6846,787.3847,111.792694,-167.07391,3539.31811523438
369,-1475.0581,-2702.7427,-656.34033,794.42395,86.67067,16.286655,2258.16186523438
370,-2272.0312,-1865.0637,-505.2409,-797.1668,91.40044,125.67713,2132.37329101563
371,-321.07788,252.17963,3022.112,100.84438,706.9356,-2665.7207,5695.3505859375
372,-7289.435,3156.656,12601.928,2685.2805,-1132.3406,2508.524,18475.849609375
373,2338.1165,-1285.67,-5970.1597,447.91037,-986.43024,559.0138,7517.3369140625
374,696.4975,1569.6609,-193.78033,1119.9847,-326.88412,263.01874,2573.6279296875
375,-3313.9326,-2166.6716,2103.5144,-1291.1353,1472.1908,1272.7177,6388.4482421875
376,1576.4503,-2651.3477,362.4875,236.94159,211.579,-405.5037,3874.48217773438
377,297.95584,4467.5483,-9756.3955,-175.57726,156.46043,-2069.8542,13168.7822265625
378,6825.246,4036.1382,12443.503,-1754.1042,-1682.3752,771.5674,8632.58984375
379,988.88824,-3447.0178,-12312.628,1239.2097,-927.4866,-48.998802,12033.2099609375
380,6960.796,-547.6499,-8632.799,578.85364,913.76105,585.0223,13674.43359375
381,765.908,-3148.582,-40.61695,723.3678,289.2544,209.49051,3843.04907226563
382,4286.588,3895.1675,8149.4224,-545.95844,-650.4797,-1851.8495,5388.72119140625
383,6756.646,1310.0288,-3718.4797,5664.88,363.352,6539.2075,17529.75390625
384,4055.5212,7561.83,-8479.205,2264.2712,948.01953,6623.2573,19053.70703125
385,15537.216,-2347.5298,5799.7,3181.0686,-11807.001,7469.774,29265.958984375
386,578.4917,-3311.1191,-550.2929,-915.20374,-232.22516,-66.15467,3834.11059570313
387,-20392.33,-3617.5564,-24386.121,-3871.3342,-28.91,-776.69965,20275.904296875
388,-6668.5933,-1116.8383,-7626.037,-4234.4873,5048.6973,-706.33044,12992.75
389,-20576.848,-2029.4116,-11604.812,1196.6537,1146.7203,-1718.4095,16589.0390625
390,-4320.2373,9193.181,12729.146,106.60854,-2895.463,189.99413,16376.5693359375
391,7172.371,5568.07,16587.014,-2753.9485,1733.7205,146.64188,11753.6279296875
392,8737.52,15118.484,13524.22,3789.5842,-194.65495,1376.2498,9053.4052734375
393,11070.656,644.8935,8253.711,683.08527,986.0694,1454.1405,9895.6201171875
394,3811.7644,-3248.2024,2332.9006,-3273.2874,-20.010412,829.3796,8706.1748046875
395,4028.4778,921.07513,-1747.4401,-1887.1823,-485.24982,-348.78552,6068.34423828125
396,9017.4375,4439.9478,7285.529,-375.60458,148.69696,1174.8436,4544.82861328125
397,-3376.9277,4911.34,7758.431,-1686.7184,-2140.364,712.679,11144.55078125
398,268.78366,2100.8047,-2155.2686,-618.9982,-466.06412,568.9568,4055.3056640625
399,-4337.277,-827.37775,-3340.0576,-836.53015,1787.6062,-1384.337,5220.04052734375
400,13819.76,7783.722,7148.126,868.76654,684.5638,4859.7026,10732.8701171875
401,5171.151,4815.494,2888.9814,581.8559,615.1213,632.20935,2805.8828125
402,-2314.421,1979.2133,-4891.995,4066.9253,164.02454,23.265223,9265.4375
403,16936.42,4067.0916,25852.238,12035.336,1016.6363,1497.028,28358.841796875
404,-15133.396,-157.8612,-501.30124,-4532.012,1598.0801,-2465.658,17514.53125
405,-13899.975,-4891.4136,-12841.201,-9353.541,-483.35602,170.12482,18330.05859375
406,-3076.293,2682.822,-14792.139,4987.147,-1226.1041,138.34898,17806.84375
407,1844.492,-14.555541,-3307.1926,1399.158,-173.01224,-2018.4681,6213.21630859375
408,-545.12787,1110.0603,-3199.2505,-3847.9158,2392.3948,-1564.3829,9116.4130859375
409,3661.115,1414.4512,3243.5244,-2779.3057,123.89326,673.01666,5372.35693359375
410,-6437.0884,-2548.7664,-1376.0516,2964.4556,-376.33072,1695.5459,7514.4990234375
411,16853.938,11100.427,26962.36,3428.2327,-775.3032,1964.9852,15559.1484375
412,5290.6577,1336.1348,7527.8096,1900.8903,712.4209,-4255.3174,9806.9326171875
413,5133.0396,-392.9405,-5263.0747,221.90337,2705.5708,-235.27243,10170.5966796875
414,-1452.5354,-3084.0793,-4444.7925,389.86813,-728.82056,-1362.2297,3788.14965820313
415,-2191.5093,-377.23776,-984.07043,601.27924,877.2868,-438.24734,2555.10400390625
416,8078.3716,18621.836,6106.0107,9623.621,3964.2036,-2109.47,21775.833984375
417,-222.22253,-5893.15,-4795.7866,2068.3513,465.0976,432.1046,6417.466796875
418,387.0339,-1011.21423,-1840.7736,-196.21759,-1198.1172,1371.3906,3723.88134765625
419,1417.1691,899.3224,1586.6029,-1268.663,-740.0457,-1183.81,3325.7109375
420,-7317.265,2211.017,2415.201,-5080.324,-4547.5757,-4395.386,17035.376953125
421,-490.92368,6632.8237,8955.729,-2839.3909,3303.0688,-9004.126,19308.845703125
422,2444.3477,-693.1549,-6221.392,520.593,148.65654,-2131.6555,8500.669921875
423,574.16327,2225.1895,-3061.4514,-67.633316,266.45718,589.6743,4818.29296875
424,-10792.059,-6651.3853,-22572.69,911.0011,256.50836,-509.18555,14428.20703125
425,-3801.7073,-9456.422,-8550.148,-3335.2087,-2089.689,1068.9003,8807.45703125
426,1937.6094,7919.6455,8347.161,-1764.4603,-1105.5416,-742.4398,7292.81982421875
427,-6680.9624,2142.8005,-17031.79,12821.472,6604.073,2488.1465,30313.626953125
428,5639.7935,-6496.5996,-9582.486,-1867.5739,-391.34625,472.20352,14347.7568359375
429,3035.329,1861.263,-10496.159,-1301.0599,397.61353,-561.4487,13232.1953125
430,-10648.973,2677.1438,4918.522,-451.10895,315.28955,1750.6426,14919.1474609375
431,-399.5007,-1130.3281,-2040.0604,-1196.0034,90.723434,-1413.2654,3512.05078125
432,6818.379,-6515.904,3769.1223,5645.5244,-3146.85,-3282.7258,17438.294921875
433,1514.7388,7292.6445,12545.387,302.4037,-844.3451,-1967.1318,10263.8818359375
434,2449.7935,-473.42938,-4812.363,-756.41956,535.6916,-129.4868,6533.21923828125
435,2281.092,-371.49844,-4746.9214,-1683.9197,-153.57994,486.4294,6861.05859375
436,13556.54,2990.943,31432.008,3472.617,-4729.092,2105.8804,27140.439453125
437,490.68253,-4090.84,-1070.4419,-2581.7542,-426.6713,89.43396,6069.7314453125
438,-9711.938,-6834.5464,-7358.2603,36.374783,694.2126,442.39453,3013.90673828125
439,-349.6304,3191.474,-236.39136,931.92035,-349.2916,-100.36702,3892.67456054688
440,5577.2974,3318.9436,8487.111,-1211.811,-367.35065,676.34064,5130.41650390625
441,-1097.5144,296.56573,-947.16534,-2529.5107,26.011477,-356.5592,4619.0009765625
442,-3022.2795,-7990.344,13522.5205,-6077.443,-4720.38,-3953.3787,24599.740234375
443,743.4191,-606.78577,-4105.1064,-3114.2693,-2271.948,1628.6892,8445.34765625
444,2479.6113,-1309.0283,1592.4537,-324.70563,198.105,2816.9375,6001.59716796875
445,-8410.331,-3047.3792,-745.3945,-637.553,73.67085,-81.76268,6903.73681640625
446,3499.5916,-1187.0461,2975.3965,-511.477,-835.0003,-34.90694,4760.5458984375
447,-3475.6184,2043.481,-856.55194,2556.2612,485.35806,-741.6543,6695.1748046875
448,-13687.287,-5978.1133,-11479.07,-4953.7705,-626.65576,-553.0393,11090.501953125
449,450.5083,-3203.3323,909.85223,-2299.0676,-156.67102,-521.4504,5655.654296875
450,8465.436,10705.865,18193.328,-6023.9756,-768.62524,-13.866239,13729.3310546875
451,572.0333,4804.2305,-16308.176,-897.1351,-1082.2659,429.46332,19513.4609375
452,3182.7368,2820.98,1354.0449,970.201,781.02167,-494.79172,2863.86987304688
453,-626.4546,3324.833,-2655.3394,-1633.1509,-586.51434,436.31683,6111.498046875
454,-2842.652,-11430.75,-5231.5312,-7074.4634,-1969.789,-4659.448,16907.451171875
455,700.4964,3858.8064,-4528.94,2360.9548,522.25305,408.46265,8478.16015625
456,4399.9795,-249.61128,3131.5383,-1006.3497,-274.3457,-561.74786,4641.185546875
457,13010.779,4078.767,14265.579,-2275.8281,-543.71405,-1154.5363,10629.54296875
458,19260.436,7261.9507,3071.3162,-767.7623,-801.68555,2074.8782,15113.5087890625
459,2963.9338,1044.4406,-483.93552,-2153.7607,-276.0114,-1313.1294,5317.10693359375
460,3051.773,1739.251,1527.8776,-2637.911,-4.5421896,-616.81464,4905.30224609375
461,6200.351,-3013.8298,-5436.05,-426.15497,-442.36206,-184.10281,10692.08203125
462,-5824.9004,805.0006,-13366.662,-381.12747,1898.613,1619.4337,13036.5849609375
463,-6693.7866,-662.3574,-2430.3794,-307.7142,-608.4188,-73.63865,5500.1083984375
464,-3139.5938,-655.3043,1200.1096,-927.9995,-171.08965,56.03468,4111.4990234375
465,-1087.3534,-1134.4155,1871.3217,1717.3219,-1528.6123,-416.35132,5027.20703125
466,15249.304,11412.755,-7654.3613,3903.1436,2445.9392,8974.873,27508.587890625
467,1160.1262,8114.0225,6535.4507,2370.7893,804.6857,349.26907,7683.865234375
468,3372.8057,1365.505,12534.697,2829.854,-34.422268,312.1558,11431.5478515625
469,846.80396,1294.1787,-5676.8325,1027.8583,495.65317,-816.0452,7181.9755859375
470,-275.99146,3370.7454,-1232.0879,-1865.1753,403.38586,-201.92879,5361.58203125
471,1692.6638,-463.87558,891.037,-55.02003,600.97375,-156.6923,2175.03466796875
472,13869.959,-6028.9663,24.945171,-5664.899,-4592.4844,-3149.1028,22393.017578125
473,-2481.8103,2495.5437,2117.1157,2029.2854,2768.871,1627.1826,8144.3720703125
474,-24160.201,-13320.207,985.61206,-8613.582,1121.8569,-11167.558,32828.90625
475,1423.4,3857.9214,1381.0057,147.29713,-359.8822,-157.45778,2561.23315429688
476,2190.0842,5014.2017,482.93903,546.9701,-1224.2053,-320.89047,4627.4873046875
477,5329.434,-2534.6455,245.36382,-3363.8953,395.72812,-1474.5983,9415.4384765625
478,2778.5825,-3720.0688,-1089.2533,-1910.39,137.90175,-539.8111,6628.49267578125
479,-1781.3141,910.45465,-2839.4055,4105.473,207.15302,371.63922,7894.37353515625
480,-1231.4387,-4168.417,3585.8943,1909.6666,-703.81964,176.08513,7648.5634765625
481,-3831.6504,-1814.1438,-12988.454,2019.0469,-740.8505,1747.8955,11376.8603515625
482,-5532.2793,-5325.596,-647.33246,692.3355,-338.49432,16.578648,4967.72900390625
483,-1207.1708,878.0592,-520.3112,-1465.3369,-543.7774,-125.75133,3280.83203125
484,2147.4702,-3576.7495,7710.18,-3104.6035,-3787.0571,-4590.797,15189.4677734375
485,-9510.3545,-5363.5674,-6137.7188,2614.9326,956.79724,168.74986,6158.76171875
486,-8505.972,-3413.702,-476.81985,416.3314,-149.49275,-2.806205,7078.060546875
487,1562.4747,2513.2427,1028.7076,-12.901832,615.4767,959.4844,2365.40063476563
488,-32.20412,-5175.9824,849.6353,2068.4685,447.30328,-348.70755,6750.7626953125
489,-37.90538,-3852.727,-1010.76996,332.06903,174.30673,-438.6658,3575.9287109375
490,244.85228,904.27496,-1409.9988,-1123.3884,380.73526,296.4563,2957.89770507813
491,-2340.3257,-209.00952,1798.692,-229.67099,-747.0524,-79.30302,3834.55322265625
492,-1298.0466,321.98782,-2823.3254,-115.19155,1877.2998,-245.79854,4267.99853515625
493,2411.4023,-2065.258,-210.08546,5.4073987,-83.06105,263.23297,3925.02685546875
494,-11494.757,3675.1433,10365.451,8529.402,9314.31,-13848.934,37819.01171875
495,-871.4824,-4121.605,2328.2766,1076.6155,-51.629772,95.307434,5891.8515625
496,-3397.853,-6015.105,-3223.263,-141.30562,1699.3368,473.89246,4090.75756835938
497,-5364.134,6299.603,5142.1294,1368.3887,-1997.147,-351.4442,11909.484375
498,-3359.8918,-10.7057705,-7201.611,583.8756,-309.38467,-222.00658,6348.24609375
499,-5750.804,-591.77264,-1924.541,628.27704,998.9438,-227.01419,5084.14697265625
500,-157.07216,-884.5597,-5897.833,-2400.174,-121.64415,-1053.011,7068.42529296875
501,848.78094,1788.2157,2877.4407,-2794.4949,-81.39109,-483.74255,5219.3583984375
502,1031.0535,1382.8341,-1262.8009,-3060.0452,961.7083,-984.90894,6322.09326171875
503,-1646.9402,-2357.2527,588.1299,511.83575,47.498005,-239.6352,2837.71923828125
504,123.55053,-1021.05023,-1815.1245,182.48814,-62.36139,424.81793,1871.50903320313
505,4730.778,1983.9918,7478.8667,486.6639,918.48157,805.0955,5275.521484375
506,-4348.9575,1222.6398,-4953.8857,1755.7574,567.20776,-1908.4604,7477.89697265625
507,-917.66205,1275.7429,-51.65806,-735.19635,-253.49512,95.36802,2345.86791992188
508,-2137.0762,-637.12445,-5.6815968,168.41685,-1021.64136,-735.5246,2904.31469726563
509,-1858.4187,1022.4786,-121.71603,61.333794,514.9312,45.90118,2669.36547851563
510,510.1586,1861.9147,-202.57709,-1509.0931,650.0974,-76.922905,3378.81640625
511,-3177.9695,-4881.22,61.005165,-1325.0325,-313.85175,754.4708,5116.55419921875
512,11727.489,-12268.559,-15827.3,-379.50974,-6048.772,12221.782,35102.4453125
513,-1454.5038,1016.84735,4208.754,1036.9865,-277.53845,259.03168,5276.60498046875
514,-29.347967,290.8686,1006.7569,-570.7273,-625.9044,164.17473,1754.306640625
515,1868.1405,5988.358,-72.396385,4340.048,-142.38693,1080.659,9423.88671875
516,-23246.998,-14831.74,-4149.584,-15960.863,4486.1055,1730.526,33293.01953125
517,1515.6549,-1221.6017,-3390.2815,-363.87906,659.43494,-78.52055,4455.587890625
518,-3306.6978,-1640.2472,-1208.8059,-1601.7362,-2805.229,-32.14059,5915.224609375
519,-1947.8147,1133.7947,1318.2802,442.89877,-2.7004385,-459.8444,3364.7783203125
520,-4129.1963,-1807.2076,1040.9326,-704.66016,-729.6917,-156.49153,4824.65966796875
521,-7877.9585,-4774.7217,-3.436641,-807.8411,2477.8992,329.87674,8240.50390625
522,951.46716,-354.77576,-1308.5183,1956.2346,302.53778,15.398319,3951.90771484375
523,167.70349,69.73138,4254.49,2167.5684,205.413,-660.65247,5713.39111328125
524,2874.0276,990.76874,4750.6064,1007.68005,-1204.7339,-552.12836,4349.3955078125
525,-1596.2869,-982.4259,-3421.164,1904.5311,209.55962,-533.14685,4085.75854492188
526,-10695.85,-3162.1426,-5798.6753,2060.1455,-1126.6653,-196.2987,7778.271484375
527,-714.5363,-4568.1816,214.59885,952.74384,4.663572,509.19687,4774.4638671875
528,-1278.676,-3373.2737,-1197.3196,2417.3171,-880.99243,894.08496,5178.92236328125
529,327.68826,-1974.8105,-97.70345,787.17584,-67.15098,190.08896,2546.3427734375
530,-376.63412,723.51294,1938.8564,321.87082,-21.532003,-403.70758,2196.71850585938
531,-4644.7715,797.24634,-943.26385,-512.02997,151.12547,-451.51074,4963.83642578125
532,-3002.669,532.04596,715.6764,1750.9696,-31.537096,-336.20578,4766.21240234375
533,1888.5052,1916.7355,3352.891,123.52681,-539.8063,-132.21324,1753.93078613281
534,1568.9775,-322.22162,1427.6481,1481.6637,2629.56,429.79236,5586.8798828125
535,1556.7358,5966.0957,445.35956,-1594.5795,97.7574,-157.3448,5771.400390625
536,-1706.8,-187.47377,4080.2378,3697.9932,289.12308,-307.86816,8280.4794921875
537,-1916.8116,-805.7308,3870.062,4497.0435,-597.0856,1814.9082,9995.7060546875
538,6278.328,-3273.391,-2830.8691,1762.7416,623.0585,91.11128,9885.1201171875
539,-7057.245,-5256.1934,829.6014,-3114.08,-2718.0,-1400.4319,10410.5810546875
540,4225.696,-441.818,-1211.3918,697.6744,-2002.3601,-186.15237,6289.87060546875
541,5284.154,-1492.8837,-284.9874,-2421.5422,-950.6787,41.226276,7714.23095703125
542,4277.2344,-2755.0923,-1113.3256,-2593.8118,411.51642,-142.23303,7833.0
543,-235.62566,-1218.1895,1483.7128,1688.6724,585.89667,-270.56885,3926.22021484375
544,1441.4584,700.31085,1112.5759,-105.73699,-47.251663,-32.717823,676.138549804688
545,2213.866,1250.3226,124.54438,240.40906,26.26941,-110.40377,1868.83801269531
546,-4999.2407,636.06665,-2367.1084,-669.3047,625.16833,396.0695,5180.63330078125
547,-3288.3284,-3722.1514,-1047.357,-1381.2363,-654.13666,1367.4159,4335.77490234375
548,1890.8906,4395.938,971.71954,-984.32196,0.92722994,130.52513,3518.591796875
549,-1706.4034,726.0257,858.0838,-509.80646,2077.453,191.12688,4482.42138671875
550,2280.0542,1747.3385,3419.3035,-1434.6888,-584.1763,67.257614,3066.09252929688
551,-2293.7776,563.7047,-3110.7405,1211.5437,538.3397,-10.392478,4054.6708984375
552,1075.3492,2197.0989,874.85126,528.0748,188.85466,-433.3815,1740.82629394531
553,-2273.8835,-7268.8086,526.27057,1222.8542,98.037834,133.871,7165.5712890625
554,-1861.0779,-4718.0815,-2297.7761,474.1026,-25.12615,421.90033,2883.70239257813
555,283.34775,-1860.3582,2174.9536,-2015.0254,-63.553165,593.3256,5047.5634765625
556,998.1543,-2314.9377,-617.2182,169.98706,-178.14206,238.41325,2930.2802734375
557,-1271.8705,898.7119,1610.2181,-333.1253,731.63135,-343.63187,3009.16455078125
558,4685.288,-635.3788,-91.464645,1089.7455,-26.92718,178.76404,5419.59716796875
559,-235.21346,5131.093,614.86926,-299.6727,1024.7131,289.2794,5350.57470703125
560,-1425.1017,-1561.7777,-328.20648,-112.91769,-182.11032,-7.6777587,1228.6982421875
561,1939.0903,-1266.1295,559.82947,-171.86661,135.52237,57.642212,2812.23071289063
562,126.95104,-1237.2915,-31.586538,-1179.7524,469.3499,130.21278,2560.701171875
563,-653.60095,1792.7936,-1707.5151,3271.9722,238.15318,-218.15039,6488.7744140625
564,-2299.3818,558.8466,693.1072,583.5525,300.43066,161.14452,3153.01806640625
565,-298.80292,6567.578,-681.72266,-1917.345,-193.35884,53.489597,7814.8876953125
566,65.70002,2956.9036,511.37784,-2912.3313,-239.5896,54.70952,5735.44677734375
567,-1061.1222,-1973.4039,-1347.2706,-1300.8536,893.9023,524.136,2991.83740234375
568,-448.18246,-2974.7922,-2628.0698,-281.7183,-392.80804,-874.6588,2936.66748046875
569,-6150.0063,2054.213,9284.49,219.50087,4247.7974,-3953.865,16735.587890625
570,2749.5896,4554.7705,8138.634,3436.1094,-422.85782,323.14087,7670.88671875
571,-2058.32,-757.1533,2042.5829,-876.0363,984.11743,670.48553,4441.94921875
572,4770.062,-10952.264,219.61855,-7047.4785,847.7815,-2548.4326,19157.115234375
573,15477.159,2876.761,-7446.952,-10946.9,4870.53,6759.227,31034.875
574,26.914015,-5931.6694,-6190.488,4237.4062,-3153.0825,2970.7012,12135.9677734375
