Element Label,S11,S22,S33,S12,S13,S23,Mises
1,1973.6178,1737.784,560.5025,251.6822,-161.92609,-197.47429,1450.83850097656
2,70.13673,2288.7766,-1514.0146,498.35016,-590.01825,238.97968,3592.67553710938
3,3147.3691,4276.0776,1743.233,333.83716,841.5184,-744.3959,2991.92553710938
4,447.25912,3441.364,-3576.432,-63.706757,-1356.4581,1213.3163,6866.63134765625
5,2062.139,3717.812,966.80835,990.4376,777.8716,-962.6211,3645.8994140625
6,-609.6359,1906.5635,-2885.1777,-119.41223,-246.72292,506.1044,4269.52978515625
7,5128.1416,2146.443,3285.39,1841.5454,1202.8026,-1035.2976,4951.90087890625
8,-3215.274,1198.1478,-2590.753,504.17853,-1604.258,789.0029,5240.52880859375
9,7092.146,3023.8516,3421.997,879.3397,2947.124,-175.3911,6599.8779296875
10,-4278.175,2688.0598,1094.361,1050.5753,-1990.871,60.081703,7428.2490234375
11,-233.07635,2385.963,-2609.4158,952.97375,221.90662,-22.917742,4647.99560546875
12,5795.799,1967.5044,2130.207,4.236531,-294.14688,-372.36777,3838.62353515625
13,-3341.8677,2225.5356,-2054.2231,1516.3656,528.94836,356.44055,5796.87646484375
14,6212.2646,1171.1384,477.5495,1291.2482,-1431.0947,-140.82838,6371.5029296875
15,554.28156,5350.774,-2777.2366,2000.7529,953.3824,897.7569,8199.9208984375
16,10251.582,1794.1678,10377.781,685.3512,-2612.5396,206.05367,9727.470703125
17,2522.6567,2440.4382,-1527.469,-920.2948,1085.3472,-150.32095,4713.79248046875
18,14470.938,-6846.6025,20814.012,-10352.229,-6596.9287,-6718.103,34890.59765625
19,-6518.379,2045.1733,-17566.951,1622.7299,1904.0706,-4101.0566,18953.9609375
20,1738.6205,-647.4524,-1767.3453,-1142.064,-815.40173,1243.1897,4490.41015625
21,-4983.6567,3539.183,2549.9497,-3880.0837,1724.5958,792.91595,11007.283203125
22,-646.7673,1666.9498,8732.034,1267.8657,2442.9377,-551.08527,9759.748046875
23,1365.8937,2856.963,-12159.849,-884.52295,-1037.3975,-1303.1962,14697.1943359375
24,1951.0938,363.60306,-13145.369,2362.9219,-2883.2715,-764.2605,15808.228515625
25,4190.731,-1190.1775,-8985.99,2227.1719,-467.5668,1353.8203,12357.6962890625
26,3565.2385,10916.708,25476.488,5775.061,20.635471,-524.6387,21770.34765625
27,1581.944,-4110.963,-7978.395,331.09402,133.74744,858.1766,8483.8134765625
28,-3215.2473,5104.0586,-972.7522,782.81616,146.73045,-858.5,7726.42822265625
29,1609.0912,1941.601,-1000.32806,2331.1145,-1859.1792,2099.7095,6905.47265625
30,1345.1355,1103.4846,3251.621,1187.4194,3256.2659,602.68665,6425.1982421875
31,-467.63437,-757.25433,437.00516,-1855.5833,-32.759964,-161.36546,3402.22827148438
32,-3825.04,-680.90283,3916.615,-1686.8611,3278.826,1627.2151,9706.1875
33,4084.3845,953.9026,2682.605,-209.42302,-1586.4949,-18.54945,3880.74243164063
34,2399.1372,1582.1028,740.47754,-151.96805,280.04535,-626.515,1882.986328125
35,933.7853,745.4721,-60.88744,-123.29082,-437.62714,-29.850409,1208.45080566406
36,2527.1067,1924.8921,389.78006,127.610214,1459.5906,-145.4706,3185.47509765625
37,3496.7878,534.7234,-953.0013,502.40543,31.994938,595.69025,4149.5458984375
38,251.18015,262.42343,1135.891,1475.9373,2230.0034,-1304.9669,5228.3486328125
39,890.67664,-1216.4548,-2491.0642,-1431.9373,1591.4429,4785.3013,9549.71875
40,-120.25313,-190.71185,-1190.6816,1105.4596,-1704.9937,-55.16663,3670.37084960938
41,1770.8715,4981.3013,5405.379,3493.0986,-2173.0698,-2273.5671,8838.970703125
42,-12919.02,-7782.135,-14168.693,-3213.2332,-7951.743,-18892.842,36412.25390625
43,14748.813,-677.7849,28942.08,6539.2114,2676.488,5823.058,30164.23828125
44,6311.241,1926.0428,10763.848,3274.5227,543.26154,10154.284,20024.05078125
45,-6466.3047,-1038.6843,-7473.4116,10479.514,-4625.267,132.90471,20727.576171875
46,7696.4126,10375.434,-5559.755,2344.7612,2441.5603,690.9716,15944.4765625
47,-1169.1049,-2791.8066,-22263.37,6188.195,-1209.3927,1518.8854,23228.466796875
48,7279.91,19231.922,10854.513,-2079.2866,-2988.7114,2586.604,13143.2001953125
49,2667.9497,14369.991,-1959.0947,-1783.2501,5347.6416,-8191.162,22563.474609375
50,-13033.941,-4059.0623,-34456.152,385.42957,225.91881,-6398.033,29242.513671875
51,6668.307,18804.797,-5312.516,1195.7776,-2655.5896,360.85364,21495.962890625
52,6643.576,1474.8733,6196.411,-411.2432,1920.2711,325.41443,6040.82421875
53,-3053.3926,14692.749,-5863.496,4194.8643,7770.989,-4812.213,26002.275390625
54,-5540.6577,-2603.0994,-12591.862,-1124.8213,-5104.2754,3275.73,13899.994140625
55,1310.733,-537.6948,7497.9043,-1871.8529,-290.65494,-1336.3904,8322.083984375
56,614.1354,-1916.0723,2634.8262,4196.0703,2175.998,257.60822,9100.7099609375
57,327.22293,7015.5137,-11850.913,739.15247,-810.11145,-1911.8177,17001.88671875
58,4682.713,4936.9956,2176.5518,3707.287,49.54709,270.4268,6959.99072265625
59,201.48819,3482.8687,-1739.0138,1638.8551,-725.0427,69.62395,5527.17578125
60,2332.054,3824.652,1328.8971,65.40747,-9.4727745,-304.1075,2240.98876953125
61,2139.0178,4780.016,-5041.0107,2430.2725,-1035.8506,-347.8047,9939.3486328125
62,1726.9019,3883.7783,2696.4265,1350.7938,-349.45575,460.43655,3158.677734375
63,1411.3613,1456.2645,-1133.9458,-180.57071,-56.41536,-232.77711,2620.07983398438
64,4450.0215,3249.6245,572.17664,1121.7683,-218.68533,-495.80222,4059.52001953125
65,2920.8538,2457.8445,-2208.3945,658.8822,-63.6036,433.67517,5101.70654296875
66,1844.2063,1824.7305,-2523.5886,384.76215,-727.891,-1270.2683,5085.98974609375
67,2298.8838,2953.4363,2580.0183,1019.95795,-538.6597,195.39716,2104.61474609375
68,263.91058,2854.8772,868.6205,894.0218,-89.40751,-867.61865,3192.50537109375
69,1821.7754,2449.0986,-125.5167,652.2038,-334.66995,239.64291,2681.69165039063
70,2804.8,4941.383,5321.3623,223.10728,559.6566,-373.3492,2651.10791015625
71,-1747.21,1834.4576,-3411.2346,2428.5972,14.390363,164.5877,6271.63818359375
72,-44.65262,1000.8151,-1717.1426,1296.4818,-66.34672,1308.8748,3979.1982421875
73,-230.68431,-5821.684,-2423.3513,-119.385666,3404.0398,-2743.2632,9010.525390625
74,-253.44917,2889.8164,1587.9958,-844.6633,-3062.1365,2898.3257,7934.36669921875
75,2961.5107,-4371.556,-11331.233,4403.9517,2675.5627,-4116.615,16844.779296875
76,60.43111,5831.8496,9208.674,1970.5167,1814.1237,-7988.269,16648.138671875
77,6535.4844,-6533.484,21282.621,2710.9758,-3379.9321,-1591.424,25395.34765625
78,131.14607,-7768.348,19756.58,108.54764,3933.049,-5243.0044,27046.255859375
79,-1703.3071,1643.2426,11475.827,-906.1768,-2985.4888,524.59,13069.5390625
80,4999.268,-5749.6055,-23069.15,-8247.416,-3467.4631,11872.519,35562.19921875
81,-1963.804,-1029.8663,338.42892,-3227.1345,-4953.949,-254.2346,10444.34375
82,-777.64465,-333.3814,-5684.1406,-2463.5535,-2776.2966,-126.26097,8235.8623046875
83,2480.4646,2768.6323,11731.962,1135.3129,5182.347,-5263.6562,15829.1650390625
84,4114.7607,-282.29724,1638.0127,-1019.97784,-3964.493,-1947.0293,8730.603515625
85,7352.0386,2386.3972,11983.641,253.67271,1840.0369,-379.47955,8938.1474609375
86,391.59293,4870.0635,-8531.699,-860.5966,-859.5409,3870.1013,13748.3056640625
87,4186.917,3080.2976,2311.9478,15.633637,310.11255,-340.64453,1817.30505371094
88,683.07837,2240.1587,3283.572,-567.4813,938.1979,845.723,3300.05786132813
89,3031.4136,2433.331,3125.623,-832.31055,-798.20917,-164.09265,2119.74951171875
90,-6662.077,-2669.4133,-24184.719,-489.57852,-1022.563,-577.8717,19945.02734375
91,-1259.9618,3161.2893,-76.471565,426.83472,60.692085,-397.78183,4092.4208984375
92,1269.4076,497.2587,-191.57312,-79.82988,400.7601,1368.4385,2778.74072265625
93,3905.4949,6615.1567,-172.4774,3002.1047,-299.21692,-442.6685,7931.986328125
94,3200.0984,3831.947,330.00476,2484.018,-113.25019,304.8269,5410.95263671875
95,-1000.82947,-2562.6892,-8500.8545,-2121.9011,6134.5723,-2881.756,14081.7490234375
96,2690.901,2.6776023,-4380.952,347.62253,270.859,320.5692,6254.42578125
97,-376.10303,3108.9792,-1707.8163,1345.4414,963.50354,-3884.223,8487.4970703125
98,-610.40063,1546.8201,2438.1606,-2516.8772,241.00749,86.19361,5154.75146484375
99,10256.606,910.3529,12863.364,-378.53027,-140.06639,616.9463,10960.9150390625
100,-984.73267,-9558.45,-2917.235,2618.0693,-2521.8035,-3404.6807,11622.880859375
101,-12281.635,-4404.6274,-38999.812,2098.2114,5055.7285,-7403.439,35223.4140625
102,1346.511,4025.9802,9621.905,127.15361,-760.78815,-1481.6615,7865.04345703125
103,7081.483,5670.7573,17982.883,-933.4985,1439.2948,-2.5581205,12043.1943359375
104,2248.712,2384.98,4823.7866,1457.6288,2340.297,953.7106,5642.02001953125
105,2206.1765,2268.666,2795.1206,1392.8624,-1500.874,-2722.3167,5926.638671875
106,3169.5286,-2064.5833,-16684.002,2385.9714,-2640.7463,1909.6111,19146.33203125
107,1652.6014,5665.286,7958.303,2107.591,260.40366,-1846.3751,7370.025390625
108,672.74133,5329.7886,-4604.4136,2112.369,1023.9442,1997.0966,10129.6240234375
109,-955.7283,2478.4534,-888.726,1529.0466,-1284.8198,1273.3184,5329.0009765625
110,806.21686,2091.6575,6386.404,-2642.3003,3008.7234,-1258.1196,8858.26953125
111,-601.73267,2320.6143,-4521.92,-428.3312,-782.413,586.057,6227.4736328125
112,2689.398,2941.7727,192.08687,514.4239,-550.5498,-138.2995,2948.06811523438
113,1333.8258,5104.814,3332.5513,1510.0393,111.68297,-1166.3307,4651.57421875
114,857.7783,1548.5642,-3141.9602,692.42413,-340.62033,-48.111027,4586.0029296875
115,1768.4741,2681.5479,-1351.8517,933.6736,262.57996,1631.7817,4922.34130859375
116,8397.0625,1267.2303,10509.439,-11.722768,-6355.123,6640.416,17994.61328125
117,1458.5243,788.7848,-2386.4053,-386.44922,428.61884,-3596.1992,7242.51708984375
118,-6917.0405,-13244.379,-24926.115,-3822.976,11280.604,-7180.136,28821.46875
119,907.85645,1507.5503,-1105.1964,207.23547,75.71035,-584.73254,2605.955078125
120,1803.5151,-1291.5294,2664.1794,-1802.892,-872.6417,-1557.4498,5683.005859375
121,4975.7656,3186.8875,3007.179,304.9545,-313.04608,2016.1653,4040.00122070313
122,1049.4185,3136.768,2344.133,-1296.8307,-33.60931,13.489268,2894.82934570313
123,3549.9321,5740.8716,13001.731,-364.8505,3577.457,234.51646,10601.2900390625
124,1425.1504,-1698.1107,-5070.3833,705.3104,-2111.5703,156.56767,6826.53564453125
125,-5578.146,1137.664,-24858.297,251.71729,-1238.8906,-273.13513,23480.345703125
126,109.55025,2592.6033,-504.63773,485.30313,-393.83542,92.024704,3043.8662109375
127,604.18256,3309.8186,-11050.859,-2543.186,-122.34251,1264.4744,14104.6005859375
128,474.244,837.0505,-1963.7379,1391.4617,1994.2021,-4238.9204,8865.904296875
129,-397.9801,1944.1157,-2943.2466,-83.46531,1941.02,706.1735,5544.78759765625
130,2148.9758,3206.6838,911.8402,2275.127,304.87518,77.36452,4447.830078125
131,3261.6116,-2199.8381,29377.643,5204.5073,-2037.1799,7363.7266,33330.0234375
132,-21251.773,-31743.852,-22006.996,-6632.5127,16459.031,-10937.09,37500.12890625
133,3759.1726,2651.0532,4905.642,58.603012,-659.94305,1325.444,3224.90747070313
134,-4063.8945,-7463.446,9190.591,-4206.701,16660.139,9966.125,37630.28125
135,-13500.434,-9468.744,-29989.773,6715.9023,5458.9375,9410.504,29069.150390625
136,4658.6006,-3643.9167,5761.1978,-1038.5701,828.26416,-1467.1407,9542.185546875
137,1650.2899,1883.5621,2105.5857,-697.0267,-1939.7301,-1672.192,4614.04150390625
138,2326.3171,1555.901,3180.7153,495.63452,244.80914,-808.224,2204.13525390625
139,3352.8337,3005.3523,892.2216,545.31024,-256.46518,-16.226696,2531.90454101563
140,-497.18665,1375.9526,354.0961,3323.1934,1356.0791,-375.69562,6458.31982421875
141,3175.533,2372.4365,-15.979259,399.56393,168.18112,-190.87047,2990.1044921875
142,1869.0513,657.7764,-385.85782,-623.23706,-614.87976,1038.0941,3058.2529296875
143,2995.0083,491.90863,-1724.8496,-402.45438,-40.62617,-69.829155,4151.35888671875
144,1563.3932,1765.7914,-4923.3784,-148.90385,376.74854,1032.2238,6864.46435546875
145,3119.6365,1929.3882,1097.4026,1834.8027,885.9788,1563.0376,4783.5966796875
146,365.4893,2178.2153,2716.6753,559.4097,-539.02734,1076.5742,3136.7978515625
147,2761.541,5572.18,2922.2178,1491.2671,-282.85193,-587.8767,3927.13012695313
148,2546.6746,11504.138,2071.246,6176.696,-7993.49,2103.559,20103.185546875
149,13980.6455,5932.2104,9149.877,509.2449,-278.5219,1879.3777,7800.02587890625
150,1297.4271,2512.3582,3194.0515,905.3838,2692.0095,169.80994,5201.47900390625
151,-918.8845,7860.589,-13161.765,4071.003,-4683.848,250.53465,21217.353515625
152,7259.539,2914.5835,7452.553,3264.021,1535.3253,-5269.77,11920.5341796875
153,901.00574,3056.2827,-315.6214,5314.1855,-3222.6396,1837.187,11608.2412109375
154,4054.8528,6225.4736,10227.497,1348.8065,-229.36287,-1273.32,6316.19775390625
155,2536.7266,2472.3228,1798.511,560.1395,1418.9878,2261.9731,4778.38671875
156,2911.9255,-1664.4564,-13375.081,-693.18445,-2468.7527,5874.566,18301.13671875
157,858.61615,2529.9883,-4719.8994,-1877.3015,-4586.6074,-4535.343,13365.20703125
158,1724.1862,784.3824,423.54395,704.70416,181.87967,-385.76486,1840.66870117188
159,-523.3016,7297.9126,-404.56583,-916.1748,2370.1436,-4312.8813,11637.462890625
160,6460.222,1012.1004,-9743.784,495.74625,-3292.3706,494.29437,15425.947265625
161,5125.1587,3594.7544,-1248.8752,-108.69337,2583.8394,1647.12,7837.01025390625
162,4715.7373,2053.388,11108.672,508.39536,-1327.2977,-2643.9163,9592.1513671875
163,9511.97,1963.027,27142.375,-878.4878,962.93835,-1503.0941,22644.72265625
164,536.4301,-741.9121,-4064.5513,613.9894,-993.51276,-1831.33,5574.4970703125
165,2182.858,5358.1294,3925.998,2634.0068,2306.1267,4382.2915,10097.9208984375
166,2896.5813,5376.3687,-354.17102,362.64713,-322.62878,759.33685,5216.75146484375
167,-9652.616,-2663.085,-25426.889,1731.4587,4316.3022,393.45602,21755.12890625
168,5285.625,1426.3022,11974.388,-5636.933,3220.3596,7203.5645,19171.833984375
169,6990.021,6676.088,-5701.8667,-1600.9114,-1624.8662,-4579.7515,15353.4970703125
170,-1108.3441,78.230064,-196.44044,-2688.2673,-1300.3176,1529.1775,5909.7763671875
171,15223.178,13307.289,27040.98,-6296.1577,-4291.575,7577.5537,22636.4375
172,8289.477,-11901.636,14025.66,9546.586,3052.0337,4678.6953,30388.0234375
173,2483.064,2179.2778,-1880.5249,27.419588,-465.02353,455.56744,4368.205078125
174,43.596973,2892.1292,3601.8726,1303.6982,1384.6622,-1453.4563,5275.22119140625
175,3681.2656,2610.9683,3336.3396,806.4165,515.574,-819.0188,2378.25244140625
176,837.7432,760.55975,-4457.4453,885.0725,-596.19055,-751.93,5722.662109375
177,-18.464188,3981.9329,-7087.365,1068.2654,-4961.13,2607.8174,13853.341796875
178,7218.5283,5447.235,5871.981,4324.1274,2490.593,-5582.1914,13067.1923828125
179,16289.119,351.86896,29967.922,-3868.911,2425.5576,-420.5815,26873.669921875
180,7061.929,2034.1382,10585.323,1488.5195,1008.1782,-121.484825,8071.46142578125
181,-1226.5592,1790.809,-7814.474,-849.05457,716.28186,401.8505,8750.40625
182,2124.2307,3112.6707,2417.6128,1273.5465,523.40857,-892.12213,2974.62158203125
183,2236.9426,-1134.7864,-7764.0293,850.8541,-267.07397,1198.9253,9185.072265625
184,2127.0334,-2468.678,3832.5618,-1845.1289,4562.8325,-108.022865,10226.1591796875
185,-3478.8354,-2792.0596,377.82758,571.72125,492.3847,-596.4989,3933.47241210938
186,2849.4033,284.46088,1401.6462,2299.572,340.2164,-226.7888,4618.1328125
187,1358.5597,-845.5995,-1341.3856,919.21515,428.52142,570.4637,3202.96118164063
188,-23909.428,-17611.844,-17055.072,5390.3364,-12374.185,17957.42,39464.05078125
189,6082.568,-1924.4236,-14081.415,3098.3723,-1081.1404,-362.72226,18491.791015625
190,-3658.3506,-6392.223,-27841.725,-3828.6985,-1232.3047,-115.05232,23974.3125
191,755.96356,-360.10242,-3540.6375,2011.4669,-609.2334,-1069.5725,5620.90234375
192,5156.449,-2774.0132,421.95996,719.5295,-2972.6611,-1436.5057,9056.20703125
193,2332.5808,-4109.001,-8308.671,506.37845,1715.203,2021.687,10394.248046875
194,2833.1223,-150.86156,3710.1228,316.87994,67.86436,-243.98067,3575.455078125
195,-8345.172,-7911.7656,-18309.979,575.79865,-608.02985,-10543.462,20961.90625
196,2673.346,-2837.5671,1215.3142,-1562.1487,-466.75485,2694.379,7363.04736328125
197,131.22607,-192.59782,3149.3809,1202.5848,-952.8834,1198.9894,4644.00537109375
198,2386.7803,-6378.8647,-4083.2468,3393.6758,-5355.357,4708.9893,15782.845703125
199,576.9664,-1315.8973,-1077.2441,-159.99838,357.95813,-63.538048,1913.49475097656
200,1361.7502,-687.72864,448.4592,-581.10443,520.49164,424.52832,2351.4140625
201,3443.0178,850.7303,2037.9293,-32.1332,-578.67865,-496.0312,2607.23608398438
202,2560.2292,118.26345,-4215.8716,570.0004,-420.0455,-40.89701,6069.6591796875
203,-3990.3542,-4374.954,-7159.182,669.64355,-5220.6104,-1061.9999,9770.556640625
204,-3153.3806,-1078.2806,-2947.7854,429.96463,-1310.7733,2023.1782,4680.8564453125
205,1642.4264,845.2959,-3128.761,-1140.7432,-3058.999,74.53039,7182.57373046875
206,4532.4814,894.4406,-1701.4056,-1451.4015,-676.5995,76.06807,6093.2724609375
207,2686.4238,900.3579,1566.8481,-2050.2732,-1185.6279,737.10004,4571.84814453125
208,2378.2285,3746.6396,3812.4563,1439.1125,-205.75471,-2237.4363,4829.642578125
209,-3740.789,-8782.653,-2446.2712,1876.2864,1033.419,-1077.5703,7132.43603515625
210,2522.4543,-3990.6091,-7927.963,-1279.206,865.79645,1439.4463,9845.857421875
211,828.98883,-6961.7153,-7506.093,-4603.161,-959.5362,-498.7704,11502.53125
212,1665.0375,76.90759,4540.462,-1207.4758,480.9002,-918.072,4790.94189453125
213,-6872.978,3092.9631,-2153.4163,-3312.3223,-2025.2155,412.06744,10967.5751953125
214,9416.5205,4207.898,7950.658,1355.6892,137.9262,-1228.3098,5633.8583984375
215,-688.2091,-288.1429,670.4076,-355.87347,-793.4247,-1037.0513,2637.66723632813
216,-1699.4094,1507.4165,-4112.8584,-2108.8362,1888.5035,3804.8396,9556.11328125
217,-3562.1013,442.7365,-1341.6423,135.92079,155.75963,344.4851,3544.12231445313
218,2563.609,1214.4473,9708.606,414.8224,1203.963,3019.4587,9732.7900390625
219,-2574.705,2578.4258,-14694.55,-163.66753,477.69427,-3034.121,16256.7890625
220,-3162.4983,250.5822,-6770.2046,-877.50635,1911.9281,1426.8186,7507.45947265625
221,-152.18929,104.13183,1551.206,365.59415,-949.07117,3236.8818,6088.1884765625
222,139.79726,2950.9053,1089.3756,-424.32715,-464.7945,0.46250093,2706.09008789063
223,-747.3636,2742.5747,-4238.137,-17.564325,1006.1517,-263.29108,6308.22216796875
224,-3181.8584,2291.6619,-16035.603,-1232.6235,5671.251,1091.1952,19239.357421875
225,-1726.9872,702.67456,-1615.978,4242.5044,3520.2305,-8025.6904,17030.958984375
226,501.22482,1014.56647,-3066.0698,423.885,-411.46237,-1046.0521,4376.0673828125
227,12380.029,2837.064,33812.96,4788.969,2664.4844,1526.4963,29190.13671875
228,1143.3375,3313.2358,7048.534,-2203.9316,227.74333,262.00833,6457.5244140625
229,91.729546,1105.3923,-392.9353,323.06207,-718.7338,-843.0312,2397.63354492188
230,1338.5758,1404.5812,-5171.6675,-59.23838,-692.42664,-369.665,6684.02490234375
231,-1859.326,3133.5654,-72.42635,1342.2501,-240.18037,-322.1482,5008.9404296875
232,219.12775,-83.29896,-760.3538,214.97078,567.3568,-828.69885,1979.68896484375
233,1430.2825,2496.904,1238.0509,646.1425,-412.3808,327.40298,1861.16235351563
234,1439.8823,939.3081,1439.9858,675.18,-63.516636,-708.8778,1771.39965820313
235,1281.8124,1243.7992,2624.4258,622.57794,1399.5149,367.42538,3049.39868164063
236,3788.058,1701.1567,4000.1084,550.2425,855.1504,-391.71823,2899.15966796875
237,3963.5422,174.2632,-3139.1345,1718.3425,-350.27798,586.93524,6939.185546875
238,4498.968,2873.8943,-605.21136,304.10474,563.35583,-793.3554,4849.39501953125
239,823.897,-149.11258,-3438.6895,849.21387,1690.1545,1064.9421,5394.8603515625
240,6333.429,-511.02014,-1940.1146,-638.78436,-783.7076,-117.951454,7859.9384765625
241,3688.5334,464.0528,1124.2782,480.36627,136.47253,-164.71991,3087.68798828125
242,4617.102,4403.7817,-1798.3412,1096.2604,434.82864,-1497.3757,7122.77099609375
243,4036.7832,-26.314367,3362.0156,782.6868,-182.4165,170.4505,4030.783203125
244,2617.4243,178.72978,-1209.2245,1909.5315,-458.8169,-287.53577,4803.8466796875
245,-832.48804,-892.17334,-266.21118,-1543.9082,41.294796,-1079.8434,3318.47680664063
246,2265.5598,-2115.8542,-1217.3988,687.9884,316.18665,750.355,4413.2197265625
247,6063.319,308.58716,-7727.8335,-1421.899,162.19817,850.88513,12339.5615234375
248,4920.809,-4848.2334,-296.32132,-1381.5472,2235.85,1069.527,9789.8427734375
249,3799.4272,-3592.2615,-7780.2373,-1994.2814,6038.293,-4060.1716,16549.98046875
250,2287.735,-2409.9429,-7901.273,-1952.9772,-3308.369,3624.6167,12716.5712890625
251,501.3756,-7327.4062,2063.366,-1578.3652,-927.34155,-6490.698,14573.921875
252,-2871.1306,-5341.2554,-17031.443,-6666.958,4341.0264,6039.631,21701.33984375
253,9883.071,3132.3162,18140.354,-15901.895,-9110.436,-5144.1826,35447.1015625
254,-4474.2495,-6927.1987,-12604.51,556.88,-3487.1733,2056.83,10113.263671875
255,-5603.664,-8754.747,-32116.965,6619.7563,-4562.9707,-5851.14,30429.787109375
256,-8471.259,7691.8037,20688.686,-1019.7793,-15053.1875,-2870.9934,36713.4296875
257,-29864.639,-21775.68,-25416.307,8622.396,14873.907,-13607.733,38619.73828125
258,-18485.617,-8089.3027,-35620.91,8818.302,10811.031,-5322.5796,35337.765625
259,-18134.14,-6306.934,-25622.512,4493.8027,8700.452,-18300.646,39710.734375
260,-22604.09,-17747.43,-50421.46,8660.115,-7145.5063,4054.1152,36877.7421875
261,414.8313,-5477.228,-13881.654,-1966.0494,-12303.254,-15566.648,36708.828125
262,-9273.153,9724.703,-4295.097,-7020.4507,-3558.84,-2857.62,22393.779296875
263,103.48155,14581.39,-22699.28,3337.3083,-1173.0408,2022.6387,33309.55078125
264,581.794,5364.589,2265.583,3129.062,2354.3186,3361.6116,9877.240234375
265,-5010.587,9905.361,2775.6672,-575.3021,-3513.5393,1249.7083,14480.50390625
266,2026.2867,-1795.4286,3130.942,-1970.9576,5089.3125,12487.044,24024.64453125
267,417.71677,3207.5566,-3220.7378,2767.7043,-2188.573,-2437.093,9291.966796875
268,-2169.7744,4284.5522,5524.4243,3815.3125,2813.4963,-2854.721,11960.91796875
269,621.3722,-1950.1045,4453.0557,70.53833,2503.6672,-7262.928,14429.751953125
270,-11765.325,-5923.1,-16169.994,-1891.6656,2954.7502,-5972.738,14940.328125
271,-1840.7981,-1496.7982,-8498.855,-1074.678,949.88995,-2104.4739,8136.1259765625
272,-3346.2588,4635.207,4840.91,572.0759,-661.0094,-475.60657,8267.958984375
273,-6560.3706,-3665.4507,-2603.5361,1869.317,-1577.1715,3161.5286,7779.0498046875
274,4790.0986,-2264.691,-13356.506,-156.4048,-725.1499,2007.3025,16272.2939453125
275,-188.9548,-371.2146,1398.7888,-1268.2942,-24.49886,-283.94608,2812.99096679688
276,-786.4827,4162.315,-12135.602,3813.0935,3863.2034,-4060.2883,18636.1875
277,1453.2463,-55.543106,-4915.2036,1354.0824,-1265.1353,3248.0208,8670.419921875
278,1551.2709,-182.81664,374.8152,1226.1858,-430.13925,592.0223,2910.00952148438
279,2670.4915,299.41257,-4138.516,1218.049,-786.10974,566.22345,6565.55908203125
280,4092.9185,2241.567,1008.8911,38.57915,-4156.1465,-1521.9653,8124.24609375
281,-700.5448,1777.6748,-1695.9764,175.13753,-109.681076,-62.937927,3120.79272460938
282,-2088.4875,194.1488,-5316.4766,663.5223,-228.09204,-347.27454,4983.70654296875
283,2534.5203,1888.0096,5981.1333,1197.7141,1704.8442,-244.18813,5265.67333984375
284,-5883.987,-5796.7607,-33439.117,-2028.7468,234.79767,-451.21857,27835.5859375
285,4545.551,-2205.2244,2548.3794,-2352.713,-1623.3644,-1123.4153,8023.53369140625
286,-797.08624,-460.1805,-5739.203,1688.448,3232.8325,-2905.358,9562.037109375
287,1765.2518,-1109.6501,1292.4921,-1157.0033,1090.1575,-753.72656,4051.54736328125
288,2640.5273,544.7745,2924.2363,797.36676,483.84705,-771.2128,3075.91748046875
289,2944.0212,1426.5043,3899.4155,-21.793633,493.2467,242.16832,2360.65698242188
290,3624.3164,1088.1162,1695.1693,577.34467,742.17975,193.89882,2833.10424804688
291,454.90033,1343.4545,1493.5312,-143.90355,-2.0233378,645.0573,1501.94421386719
292,1054.2452,1305.0106,-3434.1138,295.77612,268.88968,-1902.4504,5715.86279296875
293,-4809.673,-1914.2509,-7102.974,-708.7331,969.1464,2238.139,6295.650390625
294,-275.23404,-236.28587,1516.1351,-613.8506,-1069.1869,318.7973,2829.41064453125
295,4026.3699,4648.333,12023.16,-3119.4363,-2198.2986,614.56415,10207.1083984375
296,2902.2402,-215.66768,7493.6733,-1134.3782,1260.4945,3710.4841,9749.2734375
297,-4915.374,-3096.168,-1575.1554,87.328804,887.4804,1296.2057,3976.96069335938
298,83.53793,4626.6416,-9758.275,226.83331,91.12132,-3757.0044,14308.66796875
299,1219.8695,3133.4922,926.5906,416.6017,-192.30394,65.94741,2225.724609375
300,5613.1953,-324.55923,1184.7668,1972.1322,-5246.8096,4622.9785,13672.736328125
301,-4544.0063,4832.133,-4294.1265,-230.35968,102.5836,5974.658,13889.2734375
302,-7456.6455,-1928.0536,-126.03744,-3646.936,-4581.041,-5310.183,15206.1689453125
303,-8492.442,256.8556,-12525.978,-959.55975,-1259.0492,2837.8772,12640.7578125
304,-98.83578,1502.993,199.0928,853.4618,-256.388,15.476724,2135.53271484375
305,-26323.414,-33533.605,-53149.37,-2225.3262,14366.975,9678.007,38642.9296875
306,5241.4224,-3946.9177,-11408.451,2099.9414,-7442.116,677.7033,19733.767578125
307,-16883.832,-5878.254,-44206.855,4574.682,-6763.75,-289.74863,36995.3515625
308,-23922.998,-10653.389,-16484.047,-6387.461,3966.1072,-6061.8267,20310.951171875
309,3019.2761,10679.666,-3031.0059,2858.3987,-3338.3596,-1246.1504,14291.21875
310,3822.5857,-3952.698,-20966.352,3905.4995,-6022.1265,2301.4187,25547.052734375
311,-380.31046,2035.7325,3418.1802,2042.5856,580.22266,-1199.8748,5379.03515625
312,3182.8225,-3321.316,3886.4956,91.520645,1218.4615,517.36237,7256.5712890625
313,5497.9077,1524.7162,6381.9414,1319.9933,-384.63055,-436.05344,5130.4580078125
314,3048.4587,-2268.6729,705.5611,1208.425,-3080.0269,296.7415,7376.1982421875
315,3584.1887,-2986.744,745.3053,377.03882,-1183.7101,-902.91754,6297.46484375
316,-5279.2676,-3195.4355,553.9904,-374.20795,662.0498,-2449.5684,6778.63623046875
317,5414.5605,1122.6575,-276.31235,945.2447,-830.41125,-482.43423,5641.73974609375
318,5035.6733,2609.875,8632.879,457.596,-1914.7792,715.9996,6380.890625
319,-741.98,-7319.6646,-3389.167,2702.1208,-180.14476,1897.7452,8103.53076171875
320,-11511.757,-10131.604,-9382.408,604.5686,190.29767,4532.567,8144.79931640625
321,-46.087982,-4647.208,-1855.0563,-379.9932,-547.8877,220.64388,4195.13623046875
322,-2855.8313,1953.5785,-15571.67,-2540.4211,2266.4429,-1417.4468,16934.509765625
323,-3346.9275,3164.7795,-3633.2256,-538.0662,-4055.9985,2833.0635,10892.6240234375
324,-240.71666,-715.9351,-1889.2607,1077.7723,10.551108,-251.4997,2415.57080078125
325,2075.7717,909.4154,2703.43,531.0003,-118.847,85.0362,1842.92333984375
326,1412.7178,918.42676,-974.65015,167.43057,16.859245,-66.83522,2205.02758789063
327,2738.1086,2004.2626,-616.3238,209.27904,171.05173,-1159.3364,3685.16772460938
328,-315.18048,2084.778,2391.015,1738.0975,699.75903,46.57706,4138.47607421875
329,-535.0391,-116.349335,-1575.0126,-1867.8408,-910.908,-264.46207,3854.58666992188
330,-56.412132,-3112.195,-4175.3677,-2527.9985,977.98474,2688.838,7579.4599609375
331,-2022.7677,-5521.3467,-15350.835,801.973,3203.8267,-554.7192,13300.16015625
332,-5044.088,869.3785,17112.682,-4184.9824,1007.5559,-832.5786,21272.8828125
333,-1930.7451,11270.48,-602.5764,9212.514,-284.94986,4300.1875,21652.54296875
334,-3974.5454,16494.232,15952.954,1189.5006,2126.398,-4287.804,21935.126953125
335,2663.3972,11986.587,-3809.3948,-714.2361,-551.98395,561.5721,13876.4736328125
336,-3465.8152,6342.7456,752.58344,2721.922,1760.6897,1704.4562,10623.958984375
337,3601.483,4179.0967,6330.32,-1443.7588,-1972.0867,1491.7673,5549.8447265625
338,-4410.637,-4214.742,-20759.377,-4474.5337,652.6202,-4987.5557,20161.634765625
339,-887.6852,3776.366,-4529.329,2953.5881,-9.482633,36.422207,8841.666015625
340,1274.2639,2718.9485,-917.1345,1332.6243,59.142635,-14.0958,3923.51538085938
341,-874.1459,763.2203,2373.0957,207.3481,-421.66837,360.26877,2993.39208984375
342,1950.1481,-461.6024,216.30432,-3458.1086,-758.9078,767.0817,6633.98583984375
343,1459.0139,-1298.7734,-634.99207,1112.767,1402.9669,-594.4184,4110.36865234375
344,-22.26838,12067.263,1678.4822,-1106.0234,2296.3628,558.3926,12202.9970703125
345,-1461.181,-498.64,-2551.8167,-50.312435,540.70166,-1934.1111,3908.04028320313
346,1906.5726,-43.008785,-515.4993,1894.5771,-762.7729,-222.52747,4196.13671875
347,-3338.9954,456.51276,-5324.605,446.21368,-857.87885,523.5077,5432.52197265625
348,-4869.528,-917.11597,-5260.9927,3569.607,-586.36676,-385.72076,7551.56494140625
349,-151.72945,555.7406,458.1145,-1741.2435,369.18387,241.2918,3181.2451171875
350,1692.3218,-62.984554,992.0642,1187.4982,-27.161263,86.81039,2568.57373046875
351,982.5539,-59.767986,-1799.324,1022.2026,756.3956,353.7012,3339.47290039063
352,868.7771,2777.196,4950.524,1437.2415,-129.66292,483.77557,4411.6416015625
353,-384.9124,-347.8002,-110.50195,1225.8535,106.06801,195.27382,2173.19848632813
354,1299.0024,1405.8473,873.9507,-568.8864,-229.77794,509.3014,1464.5654296875
355,795.975,3303.152,2593.8887,1049.5116,-3349.3965,-934.0235,6677.4052734375
356,1134.6394,-314.3362,737.6007,-429.56534,-13.718003,-37.59263,1496.74780273438
357,-3782.9546,-3073.995,1865.4592,-6325.8765,-1389.657,-419.62137,12440.841796875
358,-1650.2366,1266.9172,-522.8205,-793.9897,-187.3072,-330.84192,2969.32421875
359,-1519.2219,-1179.6326,-1002.68744,86.685394,-490.0546,53.672775,978.961181640625
360,-538.4476,-1890.8301,-515.68884,-1022.9614,-83.05971,-45.67822,2241.99487304688
361,1435.2274,-1750.0201,92.77004,123.07163,-96.89239,-51.027153,2784.48388671875
362,851.5453,-617.532,300.60196,61.07384,-17.23161,416.3216,1477.9716796875
363,1624.2139,-1351.9358,503.53983,146.14754,-80.413216,-270.2797,2660.9609375
364,483.81445,-527.4435,-892.4445,263.5879,-197.53325,-89.169655,1369.06030273438
365,-486.70065,250.24484,-145.4275,-66.33437,250.99109,-13.360399,781.525573730469
366,-1904.2782,-461.82684,-321.01987,-116.40842,124.720184,196.38953,1583.23217773438
367,-1005.3712,-494.1791,136.10843,514.54425,-52.93323,-5.0572104,1335.48779296875
368,-605.98785,-727.8258,-325.75504,-275.3961,250.37436,124.14586,767.688354492188
369,996.5639,-551.6432,-2989.4275,-1114.3137,386.43063,787.57404,4260.02587890625
370,-351.0563,1191.295,-247.11943,1033.8584,-165.55042,1073.5524,2995.94702148438
371,-559.5247,269.21603,-562.499,601.3459,-112.18236,-153.64606,1372.11938476563
372,1277.0844,1672.1238,-266.1003,-549.0542,-33.05169,315.07684,2086.28198242188
373,-5129.8076,-4041.3516,-242.30045,-3024.111,321.81412,-386.06583,6924.31982421875
374,881.65247,-2673.5935,681.2238,298.98172,-410.01498,147.85185,3578.47192382813
375,2597.8518,-1577.2311,1935.5461,619.8279,-322.4623,-272.55542,4097.82275390625
376,1156.9684,-1100.2781,-1305.4684,949.52734,267.17862,118.18721,2925.96899414063
377,1719.6249,-1284.9253,227.7933,368.61148,-551.11926,-256.22284,2878.60571289063
378,-730.3263,263.99475,904.5159,993.03265,-99.344826,-24.571745,2241.78198242188
379,-536.2403,-832.65656,-38.21744,638.29156,45.93505,-246.89417,1376.57556152344
380,-75.715866,-75.21637,-119.90434,1074.4312,149.41737,-446.6304,2032.38647460938
381,-1305.6042,696.9348,318.55453,-522.48413,-139.02605,437.614,2201.60961914063
382,-1557.6282,12.4612875,-753.8093,-1064.6433,-116.42632,-114.92333,2308.66235351563
383,-1081.8368,-1153.595,-234.42847,-1007.25714,-109.96641,99.565704,1973.265625
384,-346.93964,-267.00745,-212.04623,-1220.76,-151.45848,92.23346,2139.83837890625
385,-808.36835,-1898.4899,453.09048,-396.23596,96.20804,-21.5596,2157.53515625
386,1011.62634,-1361.4983,880.95935,136.7169,-116.92066,123.00809,2341.19287109375
387,980.1624,-1550.3142,-649.62756,-598.53296,444.47043,-25.471573,2569.9638671875
388,468.1396,-1154.619,846.9014,265.8208,52.75473,74.94324,1904.89514160156
389,290.8196,-1809.2157,-1402.2297,670.15906,201.2886,-223.9775,2310.94995117188
390,-1105.7883,1363.5405,273.5807,-316.67978,84.66885,-78.576035,2221.48950195313
391,-2047.6257,-554.10114,-443.07452,300.75577,-306.33112,77.54194,1726.17492675781
392,-831.971,363.1196,281.00092,1129.2502,-58.962936,19.523352,2274.65112304688
393,-1299.7301,-1903.6295,-27.592327,-1577.5453,672.16144,12.38095,3401.92333984375
394,2082.5283,-2673.12,725.57245,-871.25165,-352.77075,-4.7646327,4544.7734375
395,890.61707,-2901.5754,-1551.0221,210.07643,121.16685,79.258125,3358.33984375
396,-3906.9636,4750.4946,282.55093,-1946.96,-396.18573,1187.4991,8503.3154296875
397,-2231.4126,1668.9358,-1799.0999,-31.124205,493.20276,93.69028,3804.26440429688
398,-747.1846,2430.3828,1107.6425,1521.5562,374.67184,-802.1178,4115.84716796875
399,1268.0901,-791.0774,9.617026,-46.441734,-185.29585,-227.17,1869.97619628906
400,1190.4637,-789.2287,509.60883,-216.78409,-4.297387,-162.87872,1804.29821777344
401,582.8702,-120.84823,796.96045,88.91295,178.97931,-36.806103,903.102905273438
402,-176.9528,-1144.2871,1386.7418,-1729.2561,15.706281,389.44962,3784.20727539063
403,2.9429085,-1219.1975,290.95657,-813.18097,-311.33337,-26.17772,2050.6591796875
404,-447.82245,-886.60834,-100.51453,-963.5251,211.28055,-389.2821,1959.39562988281
405,-50.735718,-368.93878,-284.12796,-776.6743,-24.704588,15.510683,1376.11071777344
406,34.074924,-63.353462,217.18144,555.5464,-413.8949,252.84595,1300.95178222656
407,2731.886,-2145.9456,1564.6298,-4093.198,1021.55566,1422.316,8883.9482421875
408,952.5911,-1376.2267,-521.9856,-1282.8666,-254.04665,-337.31403,3104.1826171875
409,-10193.3,-4044.9568,-6905.683,-4603.223,6061.456,13.333768,14219.3671875
410,-430.12433,-303.052,-383.0731,1101.7261,-20.468485,327.16956,1994.03100585938
411,1226.7947,-1298.1592,-819.0394,635.1666,493.7658,89.730095,2713.12939453125
412,1152.9741,-673.62115,1623.5983,1171.961,-178.38806,97.52926,2943.13745117188
413,-10803.967,-3341.402,-8210.128,2737.5305,3493.3499,40.640877,10107.365234375
414,-65.77962,154.11935,350.94058,398.35526,54.398193,-19.893719,785.175415039063
415,-945.76953,-1260.7194,-851.84247,-251.41194,-22.209888,117.52092,608.387390136719
416,-5.5180645,-637.53973,161.74614,-869.5595,-390.24982,-593.4297,2077.23510742188
417,-1074.399,-10509.009,3696.4722,3011.692,965.26416,-4021.7898,15339.9755859375
418,-1320.0885,-327.59988,-847.5704,-210.14374,76.57793,-336.682,1108.81750488281
419,723.93365,1269.3545,1424.2327,998.61566,563.5046,-964.6907,2672.478515625
420,-1722.1207,-207.82431,716.97705,-2219.3901,-208.97841,-485.27493,4490.361328125
421,-872.471,206.67754,718.657,247.4025,278.35535,267.46512,1615.50866699219
422,-2304.007,-52.08973,139.61215,300.61722,-8.301727,-381.5936,2499.54760742188
423,-447.37646,-268.0591,-3.4029021,-329.1676,-44.37402,199.53288,774.632995605469
424,-553.4016,-304.95758,-623.99255,1170.2719,140.26219,-265.4719,2112.65258789063
425,-1069.6372,1071.1521,-105.7444,-308.03458,341.68665,114.76305,2030.515625
426,129.399,-31.90551,798.6033,706.2517,-86.04216,330.63434,1558.31335449219
427,1444.3921,-246.2721,473.48926,30.710714,1255.953,-88.67989,2630.24755859375
428,438.06152,-1160.1837,61.85971,324.50415,-46.78489,21.261347,1555.14770507813
429,281.18564,-673.81824,-330.91623,-342.08383,186.67409,-0.4571494,1075.98693847656
430,1035.1965,-1956.0269,-539.7429,-422.43927,955.24664,153.19626,3171.7685546875
431,438.3909,-473.16602,194.62163,-117.20713,198.1647,13.02367,909.768676757813
432,131.52277,-537.1901,28.813263,-718.8379,-310.50903,-195.41469,1530.69750976563
433,-1205.6561,-3869.8228,-384.1971,-1198.166,369.58472,-327.30524,3872.86083984375
434,14.13363,-679.8043,506.6503,67.674934,-71.54705,-153.66844,1079.73937988281
435,-1737.8176,-503.6452,248.3204,-333.71466,173.24788,-93.25733,1861.966796875
436,176.15915,-1258.7094,-577.5111,712.4469,-344.67935,-20.595064,1850.91186523438
437,1045.3865,295.212,2611.7266,-779.10175,35.21357,-247.24908,2489.8447265625
438,-232.91248,-138.66733,563.3909,-205.98497,-48.741802,10.332561,838.254455566406
439,-729.6482,-1111.854,37.352806,-685.97174,172.77817,256.16827,1650.94494628906
440,1867.523,-1941.2323,-510.85553,-1225.4772,-1274.001,917.3996,4796.26123046875
441,-3430.202,-2847.5305,-1969.5911,-446.2798,109.30162,-58.257328,1505.10888671875
442,-690.7932,-39.939133,14.473097,823.3428,-52.285786,-42.138485,1584.04370117188
443,-287.29495,548.65967,-712.8704,732.75256,170.84999,90.014824,1719.98620605469
444,-979.81396,-867.9738,86.45825,1062.3123,-108.63837,46.775204,2111.32299804688
445,292.7389,-109.09507,-264.7221,228.17589,-418.33386,492.0082,1286.71875
446,-395.07196,651.7003,907.6606,-702.25073,-69.95035,-21.558311,1710.18176269531
447,0.3060021,149.95903,493.8025,159.92882,-230.01714,104.097786,678.266906738281
448,-981.54816,-804.3542,880.90247,261.4445,181.69478,12.900392,1864.05541992188
449,-192.2878,-347.17245,-775.5503,-650.9236,-165.48094,737.8434,1805.64135742188
450,-412.7383,1030.9683,-363.82468,-123.32108,-188.6565,176.04759,1503.80871582031
451,604.9794,-500.62045,-1252.6364,-93.67287,105.12955,67.3278,1640.84948730469
452,-28.544321,-497.20312,-750.50134,-441.84247,-21.26083,-121.18563,1016.66107177734
453,-182.69853,-820.3408,759.9328,-573.10876,-58.880093,-206.40791,1737.75073242188
454,-500.70605,-468.3926,203.94675,46.199795,-19.6762,-140.20566,735.763305664063
455,-1209.0084,-2505.5183,876.30786,-299.4816,-230.98018,100.93813,3031.96362304688
456,389.34897,-1322.2906,-369.43332,-703.9295,-348.17783,317.75186,2088.02099609375
457,-417.8737,-364.8799,166.7356,-1081.7478,-197.38379,-189.25494,2012.07946777344
458,-1014.203,559.7918,123.08659,17.3484,-29.81739,8.762502,1408.75817871094
459,-1007.60175,86.23248,26.954485,556.52814,-59.87721,200.31429,1481.70544433594
460,-17.076374,17.07859,361.66132,173.72571,923.6588,-307.25568,1750.67700195313
461,-608.53845,668.1276,-692.6318,1018.5392,-1269.3578,-225.98,3137.4482421875
462,-170.82854,-476.8005,-93.738075,-245.75577,59.289402,-43.12624,566.093933105469
463,-1512.9734,-553.2646,517.5817,1426.0071,26.6887,750.009,3299.33618164063
464,-3063.6753,-1820.2028,-316.17035,673.09106,237.24992,-334.54153,2746.33056640625
465,-612.0511,609.16595,249.12238,589.07306,-337.4142,-19.57568,1601.57019042969
466,-897.95276,2688.7515,-4266.3755,276.2684,-145.19102,157.32126,6054.64453125
467,3929.0176,-475.59976,1811.4216,1680.9946,-1862.5774,-49.94135,5783.59423828125
468,-59.231453,-32.78268,661.151,-159.22536,160.01271,-370.6668,1032.30285644531
469,884.63214,3490.156,2987.536,757.0105,213.33005,1139.7961,3388.94116210938
470,499.95877,-799.21924,268.66376,-384.46188,47.140953,-415.92664,1552.40209960938
471,65.347115,-796.09174,125.21078,-450.66068,-83.92914,156.2822,1225.1201171875
472,487.25842,722.2634,265.12732,-354.3781,-454.1244,-79.85896,1082.28564453125
473,1813.7363,3702.5608,266.5859,1425.9883,257.21942,-416.63312,3962.72509765625
474,2069.1401,-939.5658,511.00934,-629.49396,-220.54092,43.141327,2851.73852539063
475,1136.3739,-1535.1926,-979.8904,-177.74489,128.34398,-119.020615,2479.67651367188
476,-1443.4191,-470.34338,-410.72906,207.4699,233.65913,394.66992,1329.9072265625
477,-2273.0273,-1426.5963,-109.911285,875.6013,-3.7476811,1.3166742,2421.70776367188
478,38.942528,-980.389,-823.91296,24.362854,-56.1115,-30.539644,958.146423339844
479,-3000.1982,-1937.1136,-793.14075,322.81232,-380.98874,-110.21603,2107.0087890625
480,63.148907,-384.86206,565.45044,207.36292,721.97217,161.4426,1564.92114257813
481,-363.74753,565.1634,-635.26263,474.948,883.36597,165.80415,2070.99389648438
482,30.34344,-684.5606,334.22537,31.392067,-35.916832,380.246,1123.06103515625
483,-1261.1597,-779.88947,-822.2631,-405.29572,-124.17686,-4.165655,867.253662109375
484,-2830.7388,-1700.4504,-200.53775,-299.5735,615.33295,-35.223583,2575.16650390625
485,-5308.8823,-2515.2354,-1278.9596,201.40842,-47.75279,137.59573,3601.65161132813
486,113.10347,696.70105,-349.4982,698.2632,30.311268,157.43527,1537.65673828125
487,-478.77386,-1815.7507,30.883617,346.03,-55.039173,-28.449762,1760.5068359375
488,464.7995,-954.5593,242.89256,-588.108,-46.4881,154.22624,1692.42736816406
489,242.84413,-1304.5597,-906.88043,-670.9285,76.42497,183.1613,1845.49145507813
490,-616.9616,-971.1755,-1416.4358,289.0254,-42.2517,2.0948174,858.730102539063
491,-499.63168,-182.51746,-207.88448,-278.90143,-3.5461795,-50.169827,578.020263671875
492,-993.9443,-452.95114,-142.91818,-269.15924,78.672424,232.87904,977.305358886719
493,-1468.6372,-806.3482,-287.56955,-61.30791,-415.76733,7.4027023,1257.52429199219
494,-1489.5397,-868.5201,-274.5921,155.031,204.18253,-17.885004,1142.53735351563
495,991.93304,1986.3513,-1313.6697,387.3149,415.2526,-180.87265,3108.51928710938
496,-216.47949,-970.4589,489.4031,-459.0672,0.20592745,-113.1713,1506.52844238281
497,-60.814003,1603.647,486.87195,498.40182,21.303839,293.2526,1778.58215332031
498,-3872.3262,-1737.775,-995.0687,1509.3359,-317.7408,-315.04834,3758.7490234375
499,-595.7317,517.4652,676.70593,308.6587,-388.4386,118.694595,1490.82543945313
500,-471.5119,641.7706,-1432.9172,256.30304,232.59727,-53.63654,1897.89965820313
501,-719.6084,1785.5988,977.5673,335.31186,257.1151,-159.08104,2348.66723632813
502,-535.4489,-885.1182,-285.0115,-747.6762,2.820914,-67.06216,1401.11840820313
503,-951.6187,-1195.6283,-106.92285,-731.8005,116.44366,110.793755,1631.951171875
504,-2469.7188,-993.0509,752.12897,-2099.9878,439.23615,461.3235,4717.0263671875
505,-719.1652,2488.241,1210.9364,756.09186,-289.82098,-281.8865,3166.6259765625
506,-789.4293,932.7629,-680.01843,492.66797,-42.12577,-330.90622,1962.51770019531
507,377.81448,389.78937,487.63025,-224.0551,39.59792,-35.8438,412.369079589844
508,-1478.2057,761.428,175.90631,677.057,-159.61758,123.17044,2354.69873046875
509,-465.50995,2089.7869,167.24866,211.65152,120.09106,-73.06978,2346.63818359375
510,-1084.4797,1244.6445,1399.7563,1256.5305,-194.85802,453.33148,3358.15405273438
511,-95.37506,2506.6094,-436.841,-241.93729,-571.98987,-191.282,3007.041015625
512,109.543335,-1744.0165,-3160.9968,415.2273,336.99948,263.74536,3022.68212890625
513,-1370.1641,-2326.751,524.3385,559.5342,-102.74243,-174.79903,2716.43579101563
514,-44.52859,-1014.7665,-331.01132,-457.84457,285.2998,328.66675,1393.77038574219
515,-726.9867,-555.06287,747.6123,0.42019886,-8.9534445,-7.970186,1396.75085449219
516,-2375.4478,-805.25183,-1942.3865,-262.72842,-145.67026,24.478456,1498.53332519531
517,-966.38306,895.0797,141.44061,551.47034,221.10854,-59.767975,1923.50891113281
518,1757.3416,-1330.5674,-1057.8926,-310.69308,275.91595,94.377106,3051.59594726563
519,1996.0739,98.981384,-116.73876,-333.24213,516.8431,73.18139,2281.52001953125
520,-3008.4277,-1363.4529,299.42548,-139.01715,-583.43,35.254463,3047.84814453125
521,-3428.1113,-2329.2432,-204.29388,-371.56595,-104.06558,-113.98617,2922.94580078125
522,-1525.4025,-84.53675,-977.9697,19.77208,-14.458765,59.587784,1264.6943359375
523,-210.34294,258.72702,1402.9286,276.72397,-63.533466,191.16129,1554.79919433594
524,-234.5376,611.9161,2040.4794,-526.19135,278.1936,-210.17125,2271.96215820313
525,-773.44507,-961.9739,-1033.7141,1634.7161,61.082375,-149.26244,2854.66918945313
526,-1636.2584,-726.51105,-708.86346,1173.4254,-470.47897,-435.7523,2491.68212890625
527,-1097.1057,-1660.8164,523.7697,4.757292,17.345564,-55.0496,1966.919921875
528,-789.1202,-647.7446,-209.70856,138.50438,206.08493,-86.8787,693.828063964844
529,154.48279,1369.0189,-591.4202,325.53052,195.44472,571.2601,2085.4052734375
530,370.92728,1377.3358,454.4807,-404.48157,-33.016804,476.53912,1452.96435546875
531,-2049.4263,3503.8428,-421.01248,583.28314,62.12454,-430.6882,5102.56982421875
532,-1262.0381,1990.4371,1723.4658,1276.6506,-276.95325,-164.36168,3870.68676757813
533,1654.6732,972.4804,1224.6288,401.78934,-569.5339,-12.923614,1347.16882324219
534,1432.8673,-909.99744,21.419764,674.06854,-685.20953,70.1435,2638.32739257813
535,664.91486,4338.595,191.82286,-2737.8882,-44.59236,-449.44318,6209.49169921875
536,-2293.6824,-505.22876,-65.55221,2207.309,237.45906,-319.4486,4389.77978515625
537,-1845.2919,-318.0267,-1090.9897,2114.4895,-125.6375,-133.71835,3906.87670898438
538,1084.7692,509.9326,2083.6086,-662.6393,-907.1853,-382.079,2475.17041015625
539,4185.162,-232.4846,-396.33533,1245.5026,454.2139,83.548744,5055.6884765625
540,-1546.3876,-300.5957,15.275777,-665.4909,-75.34549,-214.11743,1878.42651367188
541,3383.9827,5.006896,301.58206,900.8903,627.40234,-0.23578987,3757.52905273438
542,4441.5005,-918.1686,276.89246,-2082.1726,407.5511,4.618138,6103.58740234375
543,4456.0815,-1148.3259,-18.123455,-2249.0234,-457.13028,-15.714731,6492.65673828125
544,-831.28705,-977.43317,-657.1081,451.617,-53.025745,-15.838619,835.592041015625
545,4080.3801,838.5798,355.9345,-430.54535,43.94395,-222.97928,3608.03491210938
546,4316.475,1385.887,-248.93237,20.118628,86.696144,116.37824,4014.51831054688
547,-1305.6702,218.9212,9.82853,-735.9537,789.1361,104.3786,2361.16357421875
548,-2429.6233,-2411.9773,-624.7003,-124.45975,-22.572594,-413.04596,1945.77209472656
549,1102.4937,2302.8777,-1092.6067,-234.71378,34.88273,-76.292206,3013.42553710938
550,1988.2146,-1099.5701,-354.1347,-901.2633,-284.91284,13.710273,3235.62377929688
551,1518.587,254.49712,534.1201,-743.1953,101.12503,-139.80676,1751.84985351563
552,1437.3386,1776.7295,-17.16998,-19.405762,29.05259,-100.5487,1660.84924316406
553,2736.2117,1118.3483,1164.3444,-226.81392,248.829,-234.7142,1746.57824707031
554,-2158.298,-3845.744,530.87396,-102.41747,-134.83473,-222.91954,3853.83447265625
555,-2029.101,-3268.1694,-271.80704,386.94867,287.1726,211.40686,2762.50805664063
556,1588.2683,-570.54407,2495.402,-79.47046,-209.5836,-190.23328,2775.064453125
557,-33.433792,-1845.4716,-1822.5471,767.7332,416.94666,410.21167,2457.04370117188
558,1269.2043,1038.2463,365.8316,-436.75754,-245.43987,629.0017,1612.67041015625
559,3396.919,401.98083,745.01385,782.57587,39.76675,451.03918,3242.26635742188
560,-1243.7616,2920.6306,-426.73123,163.24632,-367.1328,14.892283,3884.873046875
561,620.0377,-1090.6252,-608.62427,39.0292,-91.170296,430.29993,1708.54663085938
562,1011.04504,-1042.5145,-697.00494,817.72437,-72.847084,-33.39232,2377.44482421875
563,-403.65933,-1840.7753,-1137.7739,-280.25687,-118.63354,-94.96677,1361.66381835938
564,323.50568,2919.368,1239.5187,1050.6636,-186.23865,-389.34097,3011.68286132813
565,182.34988,1749.4656,-178.50674,1534.0319,269.14023,244.79538,3257.056640625
566,7.643388,4076.5735,220.8642,-2827.6382,-9.69394,-404.83496,6341.34375
567,448.5229,1249.33,-2359.5105,-1510.304,-186.11078,501.2454,4298.341796875
568,-130.0269,-163.78438,460.9506,710.46295,55.58499,-190.7097,1415.27258300781
569,258.48898,-409.9323,-423.4465,-163.13855,-723.77686,-215.86922,1499.06726074219
570,744.6912,-1536.7709,-1650.8903,-381.8813,663.8763,434.1581,2793.4970703125
571,-706.92145,-1028.9043,-357.95547,-971.5693,499.79922,182.06065,2004.61669921875
572,-119.48962,-1566.9291,-951.59955,-165.07419,173.24121,-199.51643,1369.03820800781
