Element Label,S11,S22,S33,S12,S13,S23,Mises
1,5499.674,13942.125,-5484.849,-5725.6265,-3527.3438,19674.514,39769.40234375
2,1962.4746,21927.816,3645.418,-1420.854,-6905.02,-17629.57,38070.28125
3,12918.452,11324.817,149.58008,6237.9375,492.9916,-7197.807,20448.1015625
4,37229.156,14726.707,12192.15,-5970.0566,428.9687,-3353.5127,26665.19921875
5,11101.272,8861.915,-13967.946,2326.076,-3795.0303,3911.7178,26128.236328125
6,-23206.088,-14682.991,-39067.082,-2480.947,4000.5356,18934.244,40017.421875
7,5353.4136,7682.8447,-5288.319,-18978.371,9869.396,-4962.307,39875.8828125
8,18759.17,16257.568,12532.321,-10310.659,443.43402,-13987.927,30593.458984375
9,1476.2902,5573.331,-4779.133,-3744.8083,7255.89,2207.744,17209.93359375
10,5590.7227,4670.246,3057.4456,-4507.4526,10196.341,-3088.163,20159.134765625
11,34392.598,72827.445,59211.266,2236.9558,-51.06691,10133.246,38240.9453125
12,3165.5645,3469.9375,-34824.81,833.95166,-231.47406,4683.1377,39025.20703125
13,9706.873,-19295.615,3730.6401,-10928.473,-3394.5928,-11312.937,38475.265625
14,2788.6768,-19589.553,-13353.717,-14764.9375,10796.652,-2376.3154,37693.20703125
15,19994.229,-7158.7915,9074.69,-14715.537,-8741.06,7583.4497,40142.37109375
16,24175.094,30454.229,28033.518,-68.98939,-6686.563,16531.795,31370.890625
17,160550.3,160652.88,159789.23,924.31586,365.22476,352.55692,2000.9853515625
18,-15225.135,-20494.04,-28798.822,-16383.015,-7874.486,631.16547,33658.8046875
19,-5094.8955,-6759.4346,-7216.229,-149.57083,141.28366,213.88533,2000.98522949219
20,-77.93859,7543.6074,20347.63,-1639.8722,6389.4897,-3343.427,21993.1171875
21,-1436.2151,12306.89,-2978.8057,-5814.001,-14551.915,-14856.408,40140.671875
22,33693.76,35540.33,35053.766,371.47223,4.731447,529.7214,2000.98400878906
23,6740.98,6582.608,8181.394,-492.37415,61.996193,558.9029,2000.98486328125
24,1345.0304,3612.0168,7038.366,-1517.0582,-1424.103,-950.2429,6351.6982421875
25,14545.891,13088.786,15403.063,-799.93134,-10912.492,659.4931,19093.947265625
26,3969.24,11424.383,14120.352,-2630.9316,-8571.379,-1023.845,18090.384765625
27,8667.922,19552.17,19076.564,-1847.7856,-10117.885,-1792.6891,20988.458984375
28,13265.489,9869.115,11547.228,-1358.8488,-7748.5757,3946.6536,15525.490234375
29,10376.368,5470.853,12260.674,-1474.5553,-11124.221,8447.746,25074.2734375
30,2866.7983,-1809.1099,5061.084,-2289.3838,-22060.63,-702.21234,38912.1640625
31,-2568.938,3631.8984,11173.769,-2804.0208,-7371.257,5312.1846,20330.958984375
32,9364.824,15269.497,19036.645,3100.242,-18427.154,-7079.5273,35625.46875
33,17536.979,11018.156,16024.488,1461.9998,-5749.686,-1450.6156,12117.130859375
34,3463.6572,4820.566,2976.957,-148.90405,-4911.501,69.71316,8671.107421875
35,5782.8364,4009.1138,4546.158,-1436.4944,-3827.6218,964.18195,7444.0244140625
36,-2876.035,-2406.1946,5947.2764,-10697.695,-14899.299,-4119.5684,33676.81640625
37,1531.6965,-186.29245,-168.9125,254.65527,-6633.0063,-1212.396,11811.7099609375
38,17371.857,15782.928,18853.254,1441.4302,-20817.838,-5508.9263,37476.6328125
39,10852.453,11346.568,10374.2705,-790.8427,-3192.9495,1382.2239,6237.1298828125
40,13894.058,1064.8525,5538.916,-2669.871,-3681.679,-4547.3965,15852.2060546875
41,235.48013,-364.62524,-11425.099,-866.63544,7004.34,20753.914,39635.11328125
42,-6401.9053,-4546.6943,-4575.677,55.845955,361.18604,-267.25943,2000.97082519531
43,10493.612,12652.064,11586.444,11.6765375,-340.17526,-232.38106,2000.98510742188
44,-65975.59,-66120.0,-66341.984,601.40704,-931.54095,265.86838,2000.65515136719
45,4226.5396,3974.495,2528.0974,468.3448,-322.7878,413.38434,2000.85620117188
46,-11223.701,-10556.187,-12053.608,791.4007,-26.61123,380.6038,2000.98596191406
47,-3155.3179,-17178.207,-1012.0291,7439.622,2258.8718,2517.693,20776.37890625
48,10096.203,12417.877,5884.488,-1407.0382,730.9776,2773.2615,7970.07763671875
49,-28742.16,-22043.943,-39572.836,4828.6245,6266.2065,5492.9585,22648.984375
50,5763.669,-15837.214,1282.6307,-2649.3281,15025.503,-11628.871,38651.3828125
51,10401.893,-23553.74,-4147.0107,546.60516,-1108.7748,641.77844,29605.041015625
52,-10633.09,-23543.652,120.255486,-5284.3247,5920.2954,-1528.3943,24841.0703125
53,26051.527,3452.2446,41733.305,-2419.8745,2174.024,-8209.889,36674.1875
54,-27480.352,-38192.586,-23180.852,4373.9775,1315.3472,-8198.121,21059.62890625
55,18617.182,-1650.9615,31205.576,-2292.2627,-2434.2825,-3722.8914,29992.1484375
56,843.89813,4722.785,10586.128,-5904.432,574.81335,-8586.226,19972.876953125
57,19891.87,14710.267,16263.662,-2389.765,14346.5205,-7071.358,28387.076171875
58,-4312.637,-13610.949,2644.5571,-5572.1025,3018.7017,-7082.684,21691.638671875
59,12572.187,4257.9604,20444.385,1549.8772,486.8444,-9708.145,22072.8515625
60,11986.34,1033.2809,28062.457,-4793.0654,-7405.6123,-2486.8193,28398.876953125
61,1976.3936,3410.248,3190.1274,-49.460094,138.70688,846.58264,2000.98352050781
62,96838.46,96742.13,98002.0,-815.0833,128.49446,226.99562,1916.34533691406
63,-720886.2,-721404.4,-720790.94,679.76575,-38.78278,-481.87183,1553.80383300781
64,90647.03,91272.15,90571.61,138.59053,-310.62653,612.30164,1383.99267578125
65,281923.97,283881.53,282841.5,442.22043,51.56062,11.3548565,1863.552734375
66,51057.47,50253.22,49266.06,670.38135,281.12607,-21.247831,2000.4775390625
67,134561.62,134369.73,134362.48,-476.2345,-820.8612,-647.3001,1999.27368164063
68,49302.426,47902.367,48864.094,-34.49948,-879.3344,217.61693,2000.98413085938
69,149195.67,140559.83,150106.66,-6543.4253,-14774.059,-7828.69,32409.9921875
70,-347350.6,-353978.6,-346120.25,-3099.695,-5358.2676,-1499.951,13240.3115234375
71,-115480.914,-141628.86,-138912.88,-4306.253,9495.275,-6114.3843,32532.193359375
72,34075.574,31739.773,55389.85,-7762.8604,9436.941,5278.526,32265.80859375
73,8076.213,17811.785,25490.959,4871.3013,5722.5103,3545.8435,20872.501953125
74,-10692.972,-9128.261,5971.007,-3748.909,9485.117,-7232.9014,26890.0
75,23316.688,36153.695,40744.484,-1.2178731,9641.118,4714.409,24296.63671875
76,-2610.3157,-11974.261,-12824.425,-15013.731,-1471.9515,897.6887,27955.697265625
77,-92499.66,-80488.15,-71207.87,7081.65,9023.398,10786.461,32948.8671875
78,78714.65,82187.18,103540.516,-3387.8994,-62.49118,9659.321,29266.470703125
79,970.4709,-20196.291,-23940.812,3890.0864,1998.2024,-15664.616,36535.328125
80,88177.71,104341.64,118080.17,2922.881,-745.5259,2956.6694,26937.173828125
81,-2994.8638,-25019.096,7393.46,50.367485,-6697.324,8156.19,33998.8125
82,-7832.3955,-18044.822,-533.7089,4162.1895,9744.471,-3209.106,24491.478515625
83,15440.252,28075.81,37531.098,-1432.154,1045.6464,7959.59,23833.404296875
84,7204.101,1880.3676,2733.8796,3837.572,2296.7346,2282.1855,10007.8828125
85,27814.488,29134.23,29892.742,-334.96274,19.148443,339.8739,2000.58544921875
86,8734.108,15567.065,-165.31747,-5447.493,-2252.2546,926.96606,17132.41796875
87,-2638.5125,223.78784,-2690.341,-11035.183,-6100.6035,10094.339,28124.876953125
88,73229.516,70438.13,55919.652,5321.8203,9024.075,-7011.786,27126.875
89,63404.656,84407.6,63691.63,-3178.818,2357.2598,181.73718,21960.4765625
90,13217.35,12787.747,16445.295,-1507.176,-4856.349,19222.732,34613.55859375
91,28564.469,22769.738,23034.996,-1527.2397,-2597.1008,15510.815,27948.17578125
92,-10259.993,-10091.012,-7870.3105,-7211.3096,-3463.5305,20416.158,38049.84765625
93,4535.181,19422.988,10525.917,-6156.1836,4838.2607,11416.284,27262.859375
94,3142.338,9018.752,6993.703,-4738.6445,514.9811,17905.955,32507.884765625
95,1941.5007,424.34552,-11679.118,5568.663,896.62476,12731.233,27365.181640625
96,266273.4,265583.03,273875.12,1067.968,-5792.146,-4147.0,14804.462890625
97,131564.34,130470.12,130790.67,56.506313,895.6025,460.92004,2000.63977050781
98,447136.53,446437.1,446356.6,179.01671,195.70197,-1039.3774,2000.98803710938
99,-584894.7,-584792.2,-583890.4,-921.02277,-366.02615,-194.45822,1994.09729003906
100,15953.937,11849.656,14626.627,-207.4071,-5895.4834,-746.3359,10919.2255859375
101,78901.33,87010.92,102856.14,-1960.6473,-777.79553,15764.278,34701.86328125
102,11684.518,13494.567,37576.586,6751.5864,3191.179,-4749.4014,29356.134765625
103,-8568.945,-10801.288,-9237.369,4925.846,12192.288,1996.5852,23122.3828125
104,7335.101,-1547.5248,11001.72,2477.7751,764.02234,-8416.803,18910.61328125
105,1987.8225,-7089.792,4486.6006,-511.83835,-17873.094,-3469.5425,33265.171875
106,23011.574,14821.195,22556.164,-2332.3567,-9263.301,-6875.83,21889.19140625
107,945.4379,678.3989,44.441807,-997.5056,-3235.0325,-222.2588,5930.603515625
108,-2707.5085,-27.450369,1391.9404,-373.0131,-19278.904,-1437.7021,33684.5390625
109,16014.422,15102.658,15122.942,-4250.882,-4350.9893,-105.58887,10575.9150390625
110,23848.182,24610.105,23174.947,-313.89847,-639.51263,-558.1715,2000.97924804688
111,8041.17,7356.819,7585.435,286.8818,-2913.261,-297.702,5132.07568359375
112,4482.962,5018.1836,3955.1177,107.15425,-688.7055,-752.5413,2000.9853515625
113,101457.55,89502.69,107733.73,669.1533,-11676.707,-4223.0444,26855.576171875
114,-54647148.0,-54648108.0,-54646630.0,659.49554,-457.2949,-360.63632,2001.38708496094
115,-18834.354,-17502.643,-6518.7026,-15577.19,11083.385,8174.5493,37868.0390625
116,-2081.1284,-6368.458,-16303.313,-18949.77,-9660.67,-1263.2949,39009.37109375
117,3095.6,22436.9,29311.998,-4166.24,5731.0923,5499.2646,28207.4609375
118,35397.09,51212.844,57959.29,3672.3518,9235.788,7630.427,29553.015625
119,7342.173,-15711.575,-2453.0654,5091.75,-1180.6167,-992.653,22057.20703125
120,18758.922,16684.299,31703.318,8780.757,1138.4402,5016.2036,22569.80859375
121,14123.704,10169.079,3902.2556,8317.379,-17435.512,-6216.2114,36264.94921875
122,5800.15,4792.366,8211.85,1781.8577,-7417.687,1669.0177,13864.001953125
123,18656.033,32675.217,22746.566,-3452.0198,-8474.58,-14987.326,32878.39453125
124,23276.266,19470.008,18565.863,-1387.5841,-5759.75,-2285.4272,11820.166015625
125,5861.1216,-4430.55,-29.42007,-13955.192,-11826.027,-11389.01,38378.7578125
126,16586.615,29021.377,42438.863,-2378.1765,5515.277,6887.663,27423.296875
127,-11522.216,-18045.932,-9628.59,2721.0054,129.20155,-10083.602,19641.71484375
128,7402.5674,-629.9692,15183.671,2843.182,2222.1267,-10154.869,23151.62890625
129,839.2602,-6074.553,5872.51,-8074.5957,-19542.762,-3084.5618,38442.58984375
130,-11538.588,-12728.697,8398.435,-1933.8335,-5446.5444,-1961.1477,23116.669921875
131,40902.766,42060.92,40612.9,-116.56317,733.07104,-443.4485,2000.98486328125
132,46639.4,36745.832,47005.594,-7005.6147,-1691.972,17224.064,33874.3125
133,34667.457,41468.52,39870.277,-10744.168,-4549.826,11803.526,29399.37109375
134,40012.89,45089.906,50354.824,-4185.493,-5909.376,14597.12,29610.310546875
135,24976.059,32689.953,30244.11,-8570.712,-5981.0884,15028.616,32432.8359375
136,95658.984,95120.41,95009.95,-1.5470655,295.7557,1055.7681,1992.01257324219
137,6505.477,14061.301,644.5561,-5700.9487,8332.823,-2977.4248,21636.3203125
138,6011.357,5335.594,5190.479,-116.99135,309.5275,1016.4758,2000.98205566406
139,-13439.821,-13960.365,-13899.149,-571.6295,-528.67084,804.6398,2000.9853515625
140,-17073.615,-730.24286,-14014.441,2212.2617,1725.9341,5105.884,18118.9453125
141,-4867.762,1684.6971,14651.241,7015.2866,11435.381,2293.244,29184.79296875
142,-7159.6533,-10354.714,15718.146,8070.845,3782.1948,-4399.736,30051.65234375
143,-9366.927,1676.6376,15253.449,1306.3505,9562.481,2438.1624,27450.013671875
144,-2044.7747,13886.45,14412.19,1089.1948,-4888.272,3231.1882,19209.955078125
145,62764.805,67714.664,83436.1,-18386.893,-2239.4563,-4825.1934,38060.609375
146,8461.547,-5979.291,15408.322,1697.2856,5989.988,-2264.696,22108.404296875
147,318725.34,314459.6,326570.06,5647.598,-11586.159,-176.9665,24732.51171875
148,192100.06,189943.45,190844.78,265.39484,44.11949,298.47223,2000.98571777344
149,146491.03,147362.16,147465.14,18.342356,734.48444,713.0598,2000.98754882813
150,128031.97,127627.33,128349.64,140.0175,-816.3958,-717.6247,1999.11706542969
151,511152.03,510799.9,509147.94,364.19055,-233.49776,50.81417,2000.97644042969
152,1430.8851,9954.906,11800.978,-7101.2705,7354.9873,920.078,20196.884765625
153,23069.293,17409.852,27438.904,-8824.605,8659.358,-5299.023,24872.9921875
154,-10757.237,-7125.558,1837.0093,-15632.08,6483.2183,-3097.3198,31843.80859375
155,5260.9443,-7270.2617,5605.4424,-961.0387,-4445.337,-3166.582,15924.896484375
156,734.84174,-9601.111,7073.621,694.60693,921.2159,-8645.715,20994.47265625
157,22188.0,11130.976,34029.098,272.185,2922.6572,-4725.9287,22051.029296875
158,15695.213,21681.523,25891.826,-1686.3418,-8691.6,5918.7446,20470.083984375
159,13887.601,11911.301,15233.193,-5556.744,-4488.311,-1749.3794,13062.30078125
160,22868.193,30401.207,37386.582,-2667.7666,-16178.346,2261.685,31306.1640625
161,14796.468,13954.819,14928.487,-5729.546,-5001.8677,-1979.6807,13643.0732421875
162,1225.79,2111.323,1882.1824,996.6041,-2947.0994,205.34897,5458.58154296875
163,8330.998,14006.453,6422.596,-14189.962,-15542.087,747.8741,37109.24609375
164,10859.435,10397.021,9838.537,-275.58887,-2641.4888,888.2962,4930.662109375
165,-41.70406,18247.924,24280.186,-6417.7207,-13951.568,6727.486,36393.734375
166,6092.9336,6302.9785,4554.294,-1635.9497,-2985.6575,220.8363,6136.16064453125
167,16263.78,-4724.1616,30037.479,5.8438234,-9667.952,-5947.2017,36135.93359375
168,39099.67,42835.105,41684.477,-3103.946,-7855.68,14686.278,29530.970703125
169,19842.953,15574.685,16102.878,-1939.25,-2679.7283,18788.398,33287.82421875
170,8178.386,6034.9233,11760.442,-2633.719,-4557.026,17203.201,31560.46484375
171,21145.146,35131.414,22992.166,7859.86,-4354.377,12673.083,29953.787109375
172,-83247.52,-77038.63,-96600.81,-4934.955,-236.96202,10190.998,26164.267578125
173,-835.6323,-14053.766,9829.4375,-6163.3,-15822.566,-4829.1704,36938.01953125
174,26213.428,8252.155,45784.27,3037.0957,4443.7505,-7419.9155,36183.15234375
175,27070.408,18987.492,37731.016,2837.9365,1886.7347,-11333.657,26179.13671875
176,2011.9832,-2710.7715,2958.739,-758.0973,10290.739,-7576.3423,22788.08984375
177,19022.908,19677.72,18276.21,-84.736206,671.0897,816.18677,2201.45190429688
178,16629.53,9060.481,27876.525,-11074.644,743.30804,-8767.615,29480.984375
179,-718.9089,-5866.794,-6003.895,1180.6619,14218.158,2540.2961,25636.5859375
180,12996.785,2597.9058,-3375.676,3099.8384,-15674.76,1605.0469,31298.380859375
181,49592.86,68157.98,50110.06,-3976.0942,-12898.111,-4780.4683,30828.552734375
182,99612.33,99700.21,101609.94,-112.43876,33.932922,-215.13338,2000.70983886719
183,1563.9249,-5228.3003,8860.511,-2298.8208,-1399.5231,-9330.555,20780.80859375
184,22259.285,1309.24,17209.404,-614.7338,16311.71,-6919.0938,36077.4375
185,-2411.3115,3542.5854,-10272.412,-10355.379,-4757.362,17293.434,37826.4140625
186,20359.742,25480.264,23365.348,-2114.6973,-8170.913,18349.25,35265.5
187,-550.2535,-13109.304,18344.988,1623.5599,-10188.618,1645.8531,32856.1171875
188,-9951138.0,-9951091.0,-9950098.0,433.33514,544.90283,-710.6906,2001.06713867188
189,11003.116,-2781.2502,22783.947,-12807.736,4257.8936,-4660.814,33209.34765625
190,29420.863,30464.373,29364.146,-8.007406,-316.08084,922.44543,2000.98571777344
191,14518.984,14688.115,15994.661,-678.05536,-230.41687,411.80396,2000.98608398438
192,261048.88,260038.45,260393.62,-352.5282,316.95477,-916.57776,1995.69030761719
193,220740.47,221551.47,221917.77,760.3393,286.72028,557.96747,2000.97900390625
194,-3156.409,7752.215,-7139.209,3548.857,-10625.349,3618.1343,24373.296875
195,11514.806,1647.5155,22152.621,14157.71,-9488.053,4153.481,35194.30078125
196,13261.755,10962.728,-11677.567,11238.54,-3872.8074,-2962.2769,31939.861328125
197,8731.145,10916.07,23177.898,70.20462,-8234.58,11088.758,27463.41015625
198,29175.498,6061.912,4625.1245,-3002.3318,-12388.297,-2940.1147,32907.38671875
199,11692.273,25993.52,5354.6807,-11487.865,-15531.968,-2471.8638,38383.53515625
200,15798.845,20437.541,314.20898,-4173.4985,2260.6301,4822.0044,21690.107421875
201,13643.154,25469.996,14253.96,-3995.2175,-14623.208,9676.792,33216.625
202,6594.0503,37947.965,37922.625,-2760.483,-4965.301,-10814.361,37814.6640625
203,2868.815,10582.288,-24097.283,-3801.0188,-5770.5254,-1229.2668,33800.0546875
204,-143.2725,20530.328,-5123.784,-3975.069,-5816.3154,13805.515,35718.86328125
205,30922.633,12347.65,30302.43,-6903.786,-7406.359,9226.371,29946.974609375
206,-434.8619,26764.932,24152.78,348.93674,5209.0044,647.2005,27543.1484375
207,2184.9194,6167.1763,28726.35,-6537.433,-15638.514,5581.83,39623.03515625
208,-6442.0312,5846.7715,-1243.278,-9468.328,-2569.83,5276.2056,22055.16015625
209,14056.289,-5282.575,23017.502,-11439.168,-6113.539,8029.6807,36410.32421875
210,24513.23,-4381.618,24090.22,-6589.2017,-10227.525,5115.585,36680.1796875
211,35369.66,675.3086,15203.842,-11273.749,-5201.246,330.95175,37060.734375
212,-2487.768,-5023.431,-4412.61,9084.457,2309.9575,-4348.696,18043.755859375
213,-24171.186,-12932.633,7009.29,-4574.99,-3343.683,-3119.0159,29557.076171875
214,-2555.2434,5770.108,6452.874,1777.381,-1053.2694,-1506.8601,9750.85546875
215,16533.096,-10746.757,-12434.401,-3752.935,-11796.033,2462.1428,35650.4765625
216,-5176.788,-1990.3481,-10062.261,3233.1846,-8774.684,-10208.478,24991.462890625
217,24865.623,31682.875,32830.758,-7345.137,-2405.5542,2991.147,16176.279296875
218,27863.502,29963.268,28616.914,238.57571,-375.54214,71.73375,2000.98596191406
219,86288.266,88078.7,86752.34,-32.144417,-659.2957,188.58882,2000.98522949219
220,31548.98,30767.44,29728.34,101.28009,-40.33728,-698.96423,2000.98486328125
221,35853.8,39515.664,13622.144,-3514.935,81.26126,-348.55106,25030.255859375
222,-30034.78,-37703.082,-40394.582,-10130.835,-4498.5317,17677.129,37319.44140625
223,3104.357,-8051.101,-18494.904,-14073.835,-3467.3838,4957.721,32466.080078125
224,30983.498,31995.86,32365.305,-6273.1523,-10408.104,14368.148,32617.626953125
225,9595.362,28467.027,15713.824,-13240.369,-8037.044,5003.002,32755.216796875
226,5709.5825,21810.982,-12395.598,-7963.4536,-8303.218,6553.883,37476.8125
227,5539.7393,25949.275,12853.463,914.7912,-18.779327,16660.32,33999.7109375
228,12891.027,23219.06,2989.092,-9709.256,6491.868,10034.644,31910.943359375
229,51420.418,41703.57,45738.016,4640.0483,8668.387,10881.6045,26771.86328125
230,12362.552,8615.152,-11152.472,-9863.826,3834.1538,13971.125,37422.5
231,7824.2007,19398.146,12680.842,2488.2637,6087.777,877.12665,15277.375
232,32354.842,24399.604,12901.055,1492.2395,-9386.317,8075.2217,27451.646484375
233,-8318.449,-18562.135,-10004.175,-1860.757,-10987.38,5356.241,23433.51171875
234,40850.016,35112.74,16842.89,2211.0642,7212.1567,8054.1724,28928.25390625
235,2518.1094,7882.781,11725.553,385.07535,1291.5116,2438.1904,9351.2021484375
236,124432.69,124944.15,126191.055,-518.929,-187.72688,460.53204,2000.99133300781
237,-700274.06,-700045.1,-698489.75,-228.83711,420.14435,-403.99274,2000.99499511719
238,374771.9,373676.56,372557.5,168.8497,-99.07643,187.75986,1974.48156738281
239,160638.55,161176.64,162542.66,-313.75305,-370.7699,-367.72424,2000.99609375
240,18232.266,17517.82,16420.625,584.94244,-100.89721,386.76987,2000.98522949219
241,191819.06,192437.05,193729.36,-157.57816,-193.60466,-567.57086,2000.98876953125
242,87762.88,87556.945,87835.18,668.4914,-744.1908,-559.39886,2000.85205078125
243,-62333.895,-63776.547,-62629.73,-682.489,-421.12735,329.55966,1999.3056640625
244,23121.965,22695.055,23070.096,-759.7942,291.33307,785.80273,2000.43579101563
245,-527.72754,10735.704,22916.697,4038.5178,-1271.5566,-6573.959,24410.48046875
246,4485.556,20491.754,25503.596,-2048.105,-104.51541,3390.2402,20214.73828125
247,-17235.36,-8176.978,-35775.38,7999.291,9407.311,8237.207,35422.33984375
248,-20512.896,-3090.9536,11379.883,-6729.674,3543.4114,-1355.3545,30725.93359375
249,26066.893,25612.506,47863.473,6750.24,7740.0273,8776.765,32135.923828125
250,25411.984,33922.77,44546.816,3476.623,6954.961,12054.235,29883.302734375
251,-1615.4979,-913.9705,13813.985,-580.69025,7572.833,12091.306,28972.244140625
252,8829.561,8092.296,25908.576,-4415.6665,7846.341,11485.368,30720.65625
253,9444.26,21351.174,35015.957,-113.76421,-1495.9404,4687.156,23745.880859375
254,16956.855,23246.848,47621.914,-6674.3237,7525.755,-4446.1665,33909.921875
255,-11504.097,-19268.398,8021.5054,5767.915,10161.565,7345.3623,34125.9140625
256,34216.484,20645.05,42021.863,6435.4067,11695.858,-4936.3066,30963.8828125
257,-55138.047,-37365.84,-21196.938,2760.6736,-1487.7455,3532.6184,30521.86328125
258,18511.875,39122.605,15316.097,-11827.534,5157.689,-217.61542,31630.705078125
259,6102.585,5454.803,4814.7153,1009.6639,-1693.4227,-706.8148,3795.26489257813
260,-13761.539,-19229.227,4306.5425,10068.885,-11299.301,5066.5117,34918.765625
261,8408.468,7259.5176,6460.7036,-78.03781,-587.4351,157.52739,2000.98522949219
262,14200.546,13195.445,12203.614,-545.52045,73.72886,186.20308,2000.986328125
263,-1448.3641,11151.6455,10500.822,6700.0474,107.62894,10121.843,24352.51953125
264,-13532.607,2197.967,-5450.955,-173.33664,1668.6398,11697.559,24588.14453125
265,-2504.6562,2067.6711,10843.77,-3212.7373,-1716.9417,2653.7559,14106.35546875
266,-27375.352,-8936.814,3017.137,-3690.6707,6268.385,8979.505,33225.375
267,-23123.096,4870.279,20356.266,-2805.6733,-3996.3435,3019.1416,39443.92578125
268,-20315.06,-5871.489,11578.225,-14517.682,2481.4832,4984.0977,38606.109375
269,-8528.979,23902.516,12807.036,2460.6372,7566.7446,10654.554,36681.84765625
270,-11742.367,6538.808,25107.814,-6492.4307,-5988.1772,10486.543,39779.45703125
271,-22352.955,306.0971,-28947.248,-4035.98,-5886.6963,-1731.909,29464.611328125
272,-2681.2375,822.95526,5390.609,3749.7527,-3034.5615,17896.934,32861.1796875
273,-14098.175,3196.7373,-20393.848,-8501.623,-94.584656,-9152.031,30261.712890625
274,9921.549,16982.09,25634.52,3041.3164,-2146.3962,-6423.1636,18738.931640625
275,6347.605,-5810.2407,12246.676,-11011.328,-13952.013,-7268.0903,36885.3828125
276,3407.5566,-12954.233,13135.902,16920.361,-1503.4237,-1477.3322,37332.91015625
277,-6932.889,-6243.632,-25636.957,6477.6367,5579.839,-2580.9536,24545.390625
278,-1432.7714,-44.54534,-5389.037,10206.07,-3631.3027,6706.213,22584.107421875
279,9270.726,7099.971,13439.605,964.23944,-441.56284,1145.1836,6200.79736328125
280,1740.3092,-899.5611,3299.4377,1464.714,3445.478,795.77814,7580.60693359375
281,10368.727,12498.167,4760.867,9234.875,-746.3442,9845.951,24418.6875
282,-2144.8267,-2770.2666,-25176.875,-3151.2124,-2742.4717,-1541.3181,23998.794921875
283,-8495.121,-9709.684,-12725.966,-3728.3794,-7189.9683,9543.333,22005.716796875
284,-15098.758,-8032.9766,-21874.37,5228.836,15775.263,-8464.261,34456.33984375
285,683759.0,684019.8,684300.44,-730.14813,650.0734,552.8287,2000.9892578125
286,8148.3413,8820.627,9290.291,403.0218,-103.92916,-912.1328,2000.98547363281
287,11330.085,3098.5198,-2142.399,10625.348,17381.707,1484.3903,37283.2734375
288,-99190.24,-77732.61,-101083.56,-8232.604,-6443.7456,2316.5725,29131.310546875
289,9454.824,29870.62,4015.9033,-11864.063,-2877.157,10117.325,36216.1484375
290,-8320.7705,-14656.549,-4236.2646,19380.684,5557.046,-9961.907,39998.71875
291,3520.0908,-9901.032,-20316.803,456.206,-1162.2184,-7952.227,24955.892578125
292,19779.309,18303.863,23218.092,-716.2587,-8314.965,7801.5874,20263.888671875
293,-33693.53,-53014.05,-20252.484,-3456.6743,-5767.267,9839.163,35209.22265625
294,-2256.928,33280.777,28443.031,3276.8293,-7752.4775,7882.024,38901.21484375
295,12753.134,19220.953,-53.15465,6870.6523,-16544.69,-6225.6597,36982.92578125
296,13166.672,19471.355,35141.023,-6216.0293,-8890.216,-15041.382,37627.57421875
297,-1037.3685,-5701.97,18320.084,1497.9586,-12632.69,13150.8125,38614.53125
298,3364.6846,-2184.4084,-7420.383,-2742.681,-5598.3774,-6854.7803,18569.30859375
299,-112.440994,-2443.4414,13680.633,3909.8413,4060.2864,-8644.939,23395.669921875
300,-14127.846,-9323.339,17556.22,2622.2246,6471.365,1183.9479,32018.83984375
301,42920.14,46695.06,55746.26,3449.0994,14578.606,7369.682,31089.783203125
302,-958.75604,-19752.467,1914.8495,11179.149,12566.542,7435.0645,37815.09765625
303,-64511.81,-64149.348,-64507.508,-622.1,407.19888,851.6222,1990.9990234375
304,-148033.1,-147062.73,-146127.2,-378.65134,412.40567,330.12845,1997.9833984375
305,40210.36,37025.227,36820.25,-4859.003,1446.0687,17982.703,32528.078125
306,11101.145,7900.163,6182.6978,-267.9179,-2083.4072,19404.0,34080.4375
307,6823.2397,23721.156,12164.644,-6194.1675,-441.84442,15104.143,31998.52734375
308,-8394.594,-710.85406,13459.482,921.9509,-7957.089,18138.854,39348.0546875
309,11606.581,11454.579,26268.773,1710.0627,6218.139,-80.981064,18493.78515625
310,9486.752,24265.88,29586.645,844.5735,-18396.145,2627.4011,36925.2421875
311,20311.451,-15198.174,15018.182,10130.895,-3016.387,2006.0276,38056.0546875
312,48541.188,62125.863,51079.55,5581.824,4605.204,-3395.5583,18659.77734375
313,-16122.662,9068.281,9368.19,4392.9663,1464.875,3243.2234,27168.291015625
314,14758.792,28594.805,5892.654,-6936.285,7399.0923,3943.3357,27348.513671875
315,-15288.505,-5689.886,-1737.5059,11366.3125,2930.655,12503.389,32063.091796875
316,-29648.967,4505.4736,-4267.317,6618.3296,-10080.001,1199.8948,37207.56640625
317,-21967.06,6187.14,9261.313,6931.8506,5298.204,11584.486,38982.3828125
318,8041.898,28801.244,42132.31,-1942.2117,976.0722,-3454.4565,30584.087890625
319,-17589.484,-38536.805,-17183.28,-3426.4148,-6188.72,-4244.8877,25527.30078125
320,-7353.8433,-9388.629,-11950.2295,2149.124,4915.933,550.92316,10157.775390625
321,-11453.379,-8399.935,-7753.6,-1718.7465,9985.322,-12927.62,28654.26953125
322,13426.983,11837.842,32389.518,7231.5396,-3416.4128,1957.3013,24405.560546875
323,6512.782,16890.117,18588.451,-6552.937,10022.6875,7869.6,27279.57421875
324,-2167.785,17153.037,1704.7532,7473.4526,-9638.394,16343.312,39509.93359375
325,20298.92,20979.432,25254.621,-2671.2595,-20733.719,9334.209,39926.18359375
326,18490.033,6497.698,11535.383,-5309.5703,-13139.275,6282.5923,28804.337890625
327,3782.1616,215.3425,729.11053,1505.3372,-1434.9335,-2996.7952,7146.412109375
328,10475.524,480.7963,2513.9119,-2851.1414,-3919.0737,7611.5728,18110.224609375
329,55935.957,47446.863,47842.14,1106.1855,-3829.0442,-15075.168,28254.259765625
330,5977.8174,4883.9517,5362.5103,-112.065384,669.59717,-756.9905,2000.9853515625
331,7621.375,5523.162,-14629.825,9263.169,10425.152,8495.603,35395.29296875
332,-7209.6265,-3241.0935,17395.67,-8864.066,9668.465,6954.905,34420.74609375
333,17582.203,16853.086,17653.266,-640.14545,462.286,717.6275,2000.98120117188
334,18629.42,33357.457,20916.889,1044.5885,5765.796,-844.325,17134.84765625
335,-15188.325,-21454.834,-13858.201,75.58608,6126.7812,4278.4478,14728.1513671875
336,-1258.1261,10925.744,20013.602,-5462.485,9446.481,1923.7588,26647.474609375
337,-30760.816,-39896.94,-8326.328,7855.3115,8944.51,-4021.17,35572.16796875
338,-18189.12,-15963.072,5502.4795,5384.373,6702.987,-7853.01,30336.154296875
339,21307.365,27709.352,32843.242,2440.9934,10696.829,-5308.354,23364.224609375
340,-18779.807,-2470.774,-23450.559,3229.5496,-5941.4204,6531.199,25082.603515625
341,4691.66,17337.834,5720.05,-3919.9807,11564.985,2286.6294,24718.607421875
342,-22219.441,950.1609,-7427.8857,-12386.806,7961.986,5890.1777,34168.21875
343,-7859.206,5378.113,33770.645,-2125.3486,-210.63481,7262.0464,39103.70703125
344,4054.038,-19854.705,-1446.4596,11586.051,-62.552246,232.367,29550.919921875
345,13011.336,34187.266,17992.342,-6333.9316,4998.196,10586.983,29988.458984375
346,-24235.596,16100.038,-8846.894,4846.033,-4921.0015,-595.45654,37245.49609375
347,52657.34,52662.402,52403.22,130.43823,-133.73389,1129.2251,1999.00842285156
348,120526.63,118283.305,118013.016,1526.14,-1031.5287,-1440.1982,4702.5419921875
349,10975.786,-9177.951,-22719.797,-10837.958,5718.65,7647.01,38579.74609375
350,75895.32,66636.516,67425.71,4489.8564,-11068.649,-1733.1399,22717.26171875
351,-26644.361,-4087.8037,-23458.691,-7362.6807,-1972.5908,6183.3604,27131.005859375
352,42029.086,63588.297,38589.51,-9350.677,-7212.533,5026.278,32325.5703125
353,21709.402,26747.87,39527.22,9150.899,-2978.4844,4401.7954,24270.2421875
354,-3418.1016,7423.055,23466.104,6772.0405,-6227.81,9270.187,32566.591796875
355,43182.652,43228.473,74868.63,-6878.9727,-3326.3535,-1937.6505,34481.44140625
356,8261.079,9871.56,26466.873,-3201.0803,-469.318,-5140.419,20381.30859375
357,4716.3887,13940.618,12679.99,1188.6362,-1777.3068,-2190.1401,10156.3984375
358,-8754.009,-7217.4316,-14973.764,80.64176,1399.5361,-2489.7932,8665.81640625
359,11103.079,8250.806,5486.7437,11049.339,-1776.7311,9519.554,25908.666015625
360,1573.6825,-752.8167,1170.5685,-607.6911,-63.709564,-1865.1177,4024.08862304688
361,-3995.728,21813.736,22759.146,-4846.177,-9373.729,13130.623,39277.46484375
362,15291.549,1565.68,-8282.248,-80.43119,-2384.9834,-99.54421,20920.470703125
363,3424.7925,708.05725,2430.9534,3784.6284,0.41535586,-3183.0916,8890.1533203125
364,6177.3774,14453.541,16843.81,-5050.4097,-3191.5503,-1258.7548,14346.4912109375
365,658.8242,9745.205,7210.1567,-5490.5864,-3568.4905,-297.529,13959.294921875
366,9120.482,-2523.3552,-1175.1128,316.19162,-2788.9749,2559.9639,12844.97265625
367,22.617188,-5324.2524,-1719.9248,3637.275,2321.438,1424.4406,9178.8857421875
368,3892.516,595.3562,-5150.648,-1156.049,2201.4429,2651.7014,10123.056640625
369,-3760.5315,-1648.1431,-1652.7206,1091.4757,-1924.6337,1166.71,4819.00146484375
370,87.618286,1776.2263,2153.3267,-555.6089,-319.06732,-257.77753,2249.71997070313
371,-1039.555,-1129.9149,-404.93323,77.22534,415.82584,178.91167,1049.24108886719
372,-2177.7234,-809.8094,-331.8352,-1777.5466,1016.6106,537.7397,4024.98120117188
373,6818.9067,-8676.317,8164.096,-14008.586,10121.414,-4320.6816,34854.13671875
374,-12070.833,-8859.393,-6988.9585,-6706.791,-4029.1694,-2634.8909,14976.392578125
375,2625.6672,2990.539,6249.0776,4124.55,-1845.5933,209.22678,8563.0517578125
376,-507.77832,1921.1979,3776.2498,331.9491,-2.3571057,347.2176,3813.04174804688
377,-11627.908,-24197.98,-15814.246,-1257.1616,-66.68384,-12579.603,24543.908203125
378,43535.867,11470.541,51936.664,2772.5415,1835.5786,912.2083,37467.29296875
379,244562.92,252644.66,273550.78,2331.081,6940.5215,-11255.542,34816.8671875
380,-45299.754,-46343.332,-18017.6,-2911.465,7290.033,1341.6914,31050.60546875
381,-40508.727,-49075.203,-80175.09,-8517.407,-567.5087,3478.2124,39520.91796875
382,21707.768,18394.477,-3343.8457,6595.4697,-2547.796,1489.9756,26686.935546875
383,-291.53558,1726.1575,292.29745,2241.4155,-823.3679,916.8877,4781.38427734375
384,-20144.482,-2468.0344,9328.15,-11500.604,-917.994,-1741.8593,32688.58203125
385,15716.85,21279.43,3522.9258,-2766.9978,1773.7579,-273.95825,16736.080078125
386,2588.4932,-4160.822,1501.1046,4113.055,-2888.9146,-6178.5225,15156.125
387,-21405.63,-6664.1943,-9508.897,-208.41199,-2447.2239,-4212.631,15962.5517578125
388,-13301.809,-3955.4812,6111.9106,-2116.2603,-113.75061,760.89,17262.986328125
389,-32.1604,-3391.8345,-291.83722,-882.65857,2001.4172,1723.7203,5809.50244140625
390,7917.6777,4664.5654,3717.6006,4434.492,-367.12756,-1645.3748,9059.8203125
391,2839.1968,-2273.9016,-5682.475,5764.48,-2058.0063,-1367.2142,13160.2509765625
392,-295.64258,-238.46045,-10159.47,1449.5277,-762.51965,-1954.0348,10833.505859375
393,5364.498,5349.983,-5646.2163,-5227.484,-526.3201,-3093.1711,15250.90625
394,6408.6943,8872.72,8343.849,1138.4244,2712.8008,1590.2644,6212.9453125
395,-1315.6903,4260.6714,-104.21655,2317.9746,-7517.1895,-714.9754,14594.0009765625
396,60846.492,51809.5,91762.88,3939.108,154.53702,2149.7117,37112.890625
397,-18368.652,-37514.582,-36795.727,6018.0576,7270.3467,-1300.5549,25012.384765625
398,-1625.3164,-32723.898,-13362.076,12477.428,-3935.1018,-3607.3928,35950.38671875
399,-59065.258,-44512.945,-80841.81,11767.083,-3694.409,6545.511,39846.671875
400,-12403.97,-7369.6587,-19890.727,-11583.325,3244.2258,-9739.639,28944.14453125
401,-6570.6562,249.67725,-70.784424,-4655.739,-588.9723,90.94968,10513.1904296875
402,-16313.764,9844.06,17097.03,-1492.2217,2918.867,10163.533,35618.6875
403,1819.2822,-4444.31,-7662.975,-2785.6125,211.61494,-1297.221,9910.3173828125
404,10903.084,4747.21,-15373.93,-1871.9846,-228.1251,-1387.1702,24146.63671875
405,5722.1885,2188.74,5359.341,1326.9573,-114.97591,-365.7306,4130.15673828125
406,23763.242,15603.696,2714.6455,-9876.949,307.28998,-2885.2732,25608.48828125
407,4417.4277,-4034.3076,-9884.755,1561.4613,2556.9565,-410.01837,13510.6962890625
408,-1528.4489,9274.332,-10624.354,-10995.615,-566.3453,304.84027,25722.525390625
409,-48688.62,-63423.88,-89194.125,1297.5825,1433.1577,-5529.661,36931.140625
410,31026.223,-644.3906,39575.51,-225.20769,-7791.2285,5192.652,40125.203125
411,33156.484,21290.377,56832.54,2942.5486,5903.4824,-6652.103,35292.8203125
412,-10956.513,-27981.234,-32275.586,-9885.52,14778.319,348.85754,36470.87109375
413,4453.2964,-1921.1625,-963.8329,2241.049,170.32565,-588.71783,7186.1982421875
414,53341.15,48993.562,85492.93,7282.958,-5526.624,3327.8843,38423.9609375
415,-258280.55,-255430.27,-243047.89,16933.459,-2364.1594,-6612.922,34712.0546875
416,-18186.367,-20729.312,-40736.703,571.94995,7402.5625,-14751.817,35719.23046875
417,-15409.56,-11450.144,-7348.661,-129.97379,245.59856,-4393.1353,10337.75390625
418,2881.903,2400.6526,-8439.145,7955.487,-430.0026,1208.3439,17825.6484375
419,7582.9937,5102.7744,-10280.742,6951.9453,-10080.741,2970.8508,27518.884765625
420,-26811.502,-22077.1,-45148.914,-4460.582,776.68536,-17100.588,37205.9453125
421,5542.7793,5916.003,5626.184,-4186.612,-2931.392,830.8032,8974.8623046875
422,-11670.698,5544.6025,24523.176,-2867.3057,1691.3219,3848.015,32572.111328125
423,-6061.7324,6978.9165,-3208.9795,871.923,-3369.7651,1789.2333,13672.810546875
424,-3309.1436,-8901.887,-28344.682,9755.59,-2527.2656,-4722.8276,29826.677734375
425,-5071.586,11491.597,-1145.4708,-3591.3877,-1028.23,-3438.476,17379.8671875
426,-4762.398,-5365.0576,-3933.5244,276.26672,-978.9543,2282.6113,4503.85693359375
427,192264.77,181581.33,222924.11,-2837.6611,193.33646,1722.9263,37614.53125
428,-6324.952,9886.447,-2654.4153,-3897.4722,4716.5664,-2223.3503,18544.984375
429,-2816.6328,-4410.241,-16825.324,4325.074,-280.21713,-4539.7637,17165.12109375
430,-16913.98,-6751.322,-20124.816,-892.9631,1920.7343,-3154.5505,13767.1025390625
431,13813.651,10269.614,9536.739,35.1033,-902.166,-271.70633,4285.03466796875
432,1611.4658,-6495.494,-7783.693,257.19186,-214.41069,-1190.6335,9078.2607421875
433,12600.315,6973.5034,6273.4375,603.0979,954.8902,-835.1266,6481.44921875
434,-2546.326,6579.659,7444.6143,400.16656,414.33658,363.25037,9660.0517578125
435,-6085.508,-5930.623,-11783.969,274.54782,1765.4437,7710.6104,14876.6962890625
436,14192.513,-7484.508,8242.107,1203.9047,-1078.5371,755.86444,19643.45703125
437,7681.3853,-426.17267,7093.728,2376.2483,1669.3146,686.0084,9382.1484375
438,-15909.11,-24606.242,-34452.047,2782.898,-566.59393,6347.6646,20081.96875
439,-1313.4779,1889.2904,3675.0156,2357.712,-7.192582,-1913.1405,6842.7109375
440,207927.05,221337.9,251204.03,1180.4568,-2948.3416,1329.9768,38832.1015625
441,-385.73706,-4803.5376,-770.76416,-604.61536,1023.3109,-147.62845,4718.8759765625
442,7420.9277,121.580055,5676.15,-522.9773,-1024.8728,-2804.4036,8435.3203125
443,1046.0089,474.59085,4658.4287,-2556.6262,766.6099,1224.7733,6427.4873046875
444,46053.195,11600.15,29022.475,653.2827,-5650.6865,4811.6665,32508.845703125
445,-2137.5688,-6864.104,-4899.111,159.35832,1191.6676,418.88766,4666.5322265625
446,-2499.682,-3408.788,2441.372,-581.6767,-1442.0399,-1288.3558,6478.078125
447,-5863.8394,134.32304,826.44525,-1432.0779,1600.3368,2240.9954,8337.2900390625
448,-14265.094,-7145.63,-37708.29,-5327.6606,3740.205,2061.8496,30117.20703125
449,-2643.4248,-4963.4277,3415.7178,-3353.1716,5944.911,-2671.6196,14741.8681640625
450,-1085.3645,6680.472,-4130.1274,-3893.5874,1279.0927,151.07286,11986.6884765625
451,-2753.6353,-6487.186,5443.496,-1837.5975,1334.5286,3251.0315,12606.2509765625
452,-11824.336,-5702.1377,-20975.732,2449.5674,-1657.2819,144.9762,14267.4453125
453,-3598.9753,-9015.418,-3558.884,-4879.8706,2476.9626,263.47125,10936.650390625
454,5973.478,-4825.8716,451.6412,5919.016,3655.4785,-1783.234,15563.2900390625
455,3208.9014,-8983.095,-4155.8237,-1709.3859,436.01663,293.52423,11076.4638671875
456,-1892.3257,-4930.467,-1204.2184,812.43774,-1255.2019,364.92694,4347.486328125
457,-4118.4062,-8669.726,-17981.227,-1831.2898,3147.609,-734.4426,13827.4931640625
458,5641.1216,2208.365,-3969.6096,-1668.5806,641.34937,132.91638,8988.7783203125
459,15801.194,2408.7363,4087.6094,1156.217,2001.1471,-897.9863,13346.7509765625
460,8880.655,8277.477,3421.3044,2751.1277,-1203.8534,-503.1932,7395.193359375
461,-3859.6936,-10915.791,-10570.89,2644.4426,243.35452,1847.6672,8881.009765625
462,-7783.706,-639.21655,-2792.8323,-1059.0381,-880.2199,-110.92696,6783.8974609375
463,-5565.543,-6374.5137,-15718.85,4337.28,-2606.957,-2029.1969,13590.7294921875
464,-1612.8223,249.71815,10285.645,1199.1353,662.5509,2720.5723,12276.662109375
465,107.15205,-5194.7065,4550.731,3637.1304,-4773.2983,3104.212,14434.75
466,-4085.3489,8907.902,4475.7817,441.78592,348.31134,742.41254,11553.51171875
467,-48988.836,-37255.375,-73464.99,2518.0505,6295.677,-1127.867,34142.21484375
468,1754.5714,5925.694,10415.383,7963.8076,104.184,-427.5309,15720.3759765625
469,-12660.093,-6963.8477,-12574.827,-3308.2625,1036.9369,-1217.9698,8513.439453125
470,5160.9404,2579.7837,-387.79102,996.23914,-1829.2252,-1802.3164,6774.16796875
471,16250.657,1011.9432,7354.6543,-596.85266,-5412.2505,5125.5522,18535.197265625
472,-3517.656,2838.3083,5073.049,5034.379,2838.395,1772.1129,13008.5283203125
473,7350.5723,4864.2505,19859.154,5104.334,-5123.004,3165.5608,19511.72265625
474,2777.7688,6809.7954,5025.3604,-2600.0432,-212.9813,-1721.6415,6446.3525390625
475,-11380.471,-4458.8394,-4737.1206,-2849.3572,-617.08044,1880.578,9064.7041015625
476,-2523.7778,-1869.3436,-1624.0033,-645.5712,-698.4523,-1.7174025,1833.80407714844
477,-167.8541,1239.4247,-1419.072,1382.1299,-818.5763,-1047.2295,4042.01806640625
478,1456.3834,-98.85479,2609.6138,-540.79065,-739.6129,-396.05466,2920.8349609375
479,4828.6724,-4170.3896,-419.13895,1416.5503,-1328.0586,-1452.7133,8884.787109375
480,8483.145,2707.7598,6287.478,-1624.9862,973.87115,-205.25534,6032.296875
481,9707.161,5931.9478,16307.403,695.658,5916.553,-1701.3164,14067.154296875
482,4519.5854,2230.1016,8731.932,2577.2212,2006.2551,479.40073,8082.11376953125
483,-3176.373,273.70853,5246.1343,3745.175,-12.745559,615.64636,9848.853515625
484,-5.564118,-2809.2224,37.62366,3056.2014,-1435.6382,-1827.0527,7225.10107421875
485,8838.578,190.91881,-8168.8784,-2842.2112,8874.909,1573.0161,22020.685546875
486,-3751.0513,-1880.4689,442.37253,600.898,-330.82297,413.42102,3894.10522460938
487,-4132.316,-6765.045,45.855465,-418.81116,-258.78973,3713.5186,8802.6220703125
488,-2624.8506,2659.3972,4924.547,547.6053,941.00525,-845.5005,7122.11279296875
489,-9782.904,-6074.5405,-5398.401,1406.7386,-542.5094,-1967.2793,5928.4697265625
490,34.607986,-1921.8434,2293.2095,-2583.3687,1753.8024,340.34717,6553.18115234375
491,-634.79785,-3257.8474,871.46564,2768.1943,74.634,-214.8681,6020.310546875
492,1770.4663,192.68411,6570.076,270.56558,646.97253,-133.01007,5884.4541015625
493,20247.479,20835.14,44364.312,-3064.825,733.5331,873.8744,24492.4296875
494,5157.5435,-173.06982,1.4141564,1932.0298,1558.5724,475.3438,6832.224609375
495,6667.4453,1193.9807,2860.7869,-2165.0864,-2292.217,-2083.942,8152.78271484375
496,-8012.0034,-4043.9373,-4240.5186,803.16046,1371.6,1247.7598,5220.52880859375
497,-7564.24,-2806.848,-5827.918,-450.63913,-396.88736,-694.62537,4462.7939453125
498,4557.4966,6522.42,4506.0024,883.52606,226.12653,-1234.7842,3321.759765625
499,5931.782,-1659.0458,319.69012,2673.0298,3733.3008,-574.6944,10523.9970703125
500,-1974.7869,-3655.308,-1178.4647,1200.4226,144.9505,173.15788,3045.0849609375
501,-10258.029,1187.9427,-21631.611,2178.1465,88.737465,671.9737,20153.451171875
502,259.90012,5570.2764,10493.408,241.87653,-365.82562,-929.561,9041.5849609375
503,-3121.7866,-10167.567,-8022.0767,-1990.9559,-3190.4624,144.8204,9034.4501953125
504,-3316.8298,2972.257,6167.4395,3108.5435,-182.13428,630.69586,10006.92578125
505,1217.6447,1010.23206,-116.09836,-2401.6467,-55.41287,-507.97885,4430.8369140625
506,7985.0176,-1180.1969,10048.598,1352.2518,-1868.3605,-330.13702,11111.15234375
507,22485.799,1575.1371,25358.734,6881.075,-1947.017,2823.3257,26132.705078125
508,-558.27576,163.2236,-1257.2346,-567.05676,-469.7969,1530.7295,3188.97924804688
509,-734.68805,-1382.3892,-1225.0299,533.128,822.65607,104.26803,1804.97583007813
510,3468.3657,-307.6169,4561.1235,-468.9041,-859.4051,-1310.1531,5253.87890625
511,-4063.3657,-1117.4117,-2822.1365,4141.2314,-607.65436,487.03677,7735.078125
512,-1703.3883,2147.9111,101.01579,149.02133,-67.32347,250.45992,3377.49755859375
513,9312.005,6428.971,-302.27945,-2596.5286,-3084.9778,747.96655,11112.3154296875
514,198.70976,4012.1943,2838.4758,140.74762,929.9322,779.54846,3990.1328125
515,5862.8667,-17350.248,-4636.9053,891.369,-2443.6863,-6675.3765,23650.41015625
516,4068.6702,-952.2554,360.85632,361.9123,585.08356,-339.19705,4701.701171875
517,4155.449,600.4551,-4675.651,-4890.2046,-2181.1807,1684.7725,12400.0859375
518,-1372.0756,-3207.1682,-626.3384,1849.4691,1191.2695,2192.1313,5850.42578125
519,-3897.476,2506.5022,-3666.1624,-1970.3479,-1853.0771,1141.3335,8089.470703125
520,-5555.885,-756.37915,-3434.2993,-1955.4243,93.97716,177.65654,5380.1533203125
521,-2130.088,733.25275,348.67413,-316.43713,-860.12506,48.445133,3126.07153320313
522,-3636.0823,-1630.8893,-3100.2795,-2403.5703,-5.7351375,316.62582,4567.91015625
523,-4.2380815,-246.15887,6481.946,469.60364,561.372,-1044.2172,6969.67822265625
524,-3526.7546,-2154.1677,-1497.0613,-1038.3478,89.01281,-511.5905,2694.65454101563
525,-28520.348,-28926.992,-48971.04,-775.0512,831.9003,-2540.3306,20816.29296875
526,-5593.7593,-5955.8306,-6108.629,3004.9128,961.575,1526.9479,6088.255859375
527,8323.665,3207.1687,13855.437,435.28012,2909.3704,-2378.229,11314.236328125
528,-2943.484,-2205.4727,-3244.7988,2038.4844,953.7093,-852.3872,4269.9482421875
529,22042.469,24458.818,37031.176,5560.0947,-1044.171,-2885.9873,17756.23046875
530,4817.4478,1146.3063,9514.294,33.89486,-904.84406,2213.883,8363.25
531,-2239.1938,-4410.508,1217.8284,2739.1768,290.46384,-136.55598,6854.93994140625
532,-5004.524,-4265.0913,-4823.9683,656.9598,7.6088223,-1000.341,2177.81103515625
533,290.3053,716.51654,2160.408,744.33356,998.8694,234.58699,2775.30029296875
534,-2673.5005,1481.9244,-1234.7798,1649.5168,-758.8544,-370.3037,4864.22119140625
535,1436.0873,1950.9893,-2924.8076,1940.4075,540.3858,277.4516,5824.98876953125
536,-2003.236,1284.5093,2916.762,451.044,-1388.0902,-136.62665,5028.58349609375
537,3083.879,3444.1553,4430.955,-592.2403,-574.42505,-752.89856,2280.74560546875
538,-2324.6155,813.7389,-1625.1481,-987.8122,-956.5127,1369.4767,4409.28759765625
539,-10140.383,-15222.683,-23580.273,5337.8325,-5014.507,-255.31075,17299.23828125
540,-2203.5703,2906.5278,4197.6846,2907.66,213.58582,-1671.1112,8261.7353515625
541,1249.7106,5200.8525,13961.926,2179.085,-3907.491,-2305.941,14247.349609375
542,1343.0044,-117.96023,-2214.238,-392.58316,960.05884,537.16016,3699.25830078125
543,-4988.6055,-265.60062,-3202.5952,-3023.4211,528.05426,-1267.8767,7081.21142578125
544,6568.7646,3395.4893,3777.2844,1033.9221,-2692.2341,-2015.3386,6792.6455078125
545,-382.47415,-3690.1355,-1385.0325,-2119.0996,1339.396,2534.1343,6837.3115234375
546,1666.8147,-2918.1804,-654.72095,-2016.5181,0.028803984,313.10526,5316.07177734375
547,-1843.8029,-1869.5403,-5793.0996,-557.36444,176.56815,16.734285,4064.76293945313
548,5703.099,5284.43,10349.252,1016.9421,-1102.7849,1408.1724,6033.8203125
549,-7727.9917,-5780.503,-6633.6265,-615.9723,3085.5022,-1047.5688,5987.53076171875
550,-6003.121,-7784.2754,-2797.8643,-501.6576,-478.59595,751.16516,4721.2421875
551,1534.364,447.3883,3157.2659,2106.1426,-638.57935,2584.6301,6336.49609375
552,-3743.873,-4668.5615,-238.64503,-1793.7684,-997.0074,1458.4315,5949.6953125
553,-2305.7944,400.32532,841.1369,124.11624,-154.66159,322.76645,3023.37524414063
554,-4035.4197,-5289.7617,-6543.282,1271.4584,264.56253,1648.293,4234.08056640625
555,-2767.3674,1076.4099,-770.26117,757.48755,640.6288,-125.20923,3753.16357421875
556,-1465.2657,-1836.9171,6786.9897,1357.3967,608.5961,-1710.4867,9312.4033203125
557,-5024.336,-5875.948,-156.24387,920.39825,-479.03937,633.57306,5744.85595703125
558,4494.077,-2599.3118,8415.329,2062.844,729.84375,1067.4071,10549.3798828125
559,154.37547,-199.02475,-1405.0237,2388.4338,650.97876,-0.3711569,4515.60546875
560,15.542211,351.04434,-153.06075,870.40546,15.2125635,228.88351,1621.18151855469
561,985.925,-1520.7771,128.6827,996.23584,-884.9643,-756.37445,3451.4951171875
562,-951.77783,1722.1776,-2825.159,636.958,-499.63486,-142.71742,4206.671875
563,-2946.054,-2470.7878,-7169.8223,2146.0046,-207.9394,1040.933,6104.90478515625
564,679.7866,-1463.8772,1741.0804,-967.6524,-460.3474,70.675545,3384.74438476563
565,-757.13654,-1805.1926,494.26544,-539.10443,787.98346,2032.6622,4371.0146484375
566,-327.2004,-1859.5143,-3722.958,3804.8486,-963.4389,-224.00275,7419.00146484375
567,1730.2057,399.92804,877.4273,924.83325,-586.8504,1132.4677,2967.99877929688
568,-683.8398,2814.288,-1083.136,-1263.8947,-44.025784,-283.88034,4339.69970703125
569,3429.3606,-1202.2101,-3376.4277,1375.9313,522.5688,-662.87067,6638.19970703125
570,-1127.2322,-3597.4846,-6251.44,1412.3801,1446.8982,1251.0375,6054.90283203125
571,-39.544125,-9351.348,-15206.53,-2810.0461,4819.231,-2077.208,16787.603515625
572,-1639.1255,-7050.006,-2049.497,357.5212,874.66437,1159.7188,5825.716796875
573,7749.1567,-3737.7417,16590.168,-4180.128,-1476.1881,1347.3193,19392.568359375
574,828.0384,9191.019,8157.6665,-6928.638,152.20999,-302.50964,14378.0205078125
575,3506.0105,-3019.401,2324.3564,451.4147,171.38496,2004.236,7001.20361328125
576,6942.1577,2300.145,2488.0283,-1209.1873,-3095.1943,623.82794,7416.6025390625
