Element Label,S11,S22,S33,S12,S13,S23,Mises
1,25753.531,26861.938,2672.959,-1113.3525,-3831.7036,1450.8058,24771.01171875
2,17749.705,27629.455,1226.1152,1839.1573,2149.3923,-2564.7034,24033.88671875
3,18043.455,19267.193,-5216.6494,7148.2476,-4241.9385,436.05978,27907.689453125
4,19089.936,30384.95,6550.55,-39.661766,8724.439,646.00684,25613.478515625
5,10565.544,25803.01,3850.2568,336.71683,-2142.7751,-3204.2517,20603.779296875
6,23174.629,18862.057,9432.262,6255.261,-2091.1824,-5007.026,18812.25390625
7,12747.464,21007.342,-11934.202,-228.0248,1334.0824,1896.6829,29959.39453125
8,31037.295,20017.457,13445.385,-2856.8635,2825.5586,2400.2415,17400.34375
9,6547.3994,5087.746,-18456.773,1888.6761,-4811.104,-52.48022,25903.505859375
10,13358.086,-288.53613,12724.991,-187.66805,-181.88234,5520.755,16420.494140625
11,20404.07,13254.073,-2717.9697,3487.614,2251.1848,565.16754,21750.419921875
12,14392.414,10279.374,3074.2256,1176.6649,151.61435,-1838.3129,10622.009765625
13,16769.11,8246.639,-230.49805,-4977.931,1310.5393,-2176.8628,17619.552734375
14,10420.725,4538.6714,-4414.62,-9872.64,-1576.5908,7282.0215,25027.408203125
15,103839.56,104178.08,91216.64,-4573.6504,2349.3333,-1607.0509,15836.2421875
16,44144.625,31404.438,47164.72,3145.827,-46.868176,18980.951,36337.78515625
17,3463.238,-3439.5176,11600.063,-2433.2542,2718.4893,17975.717,34341.44140625
18,8375.889,6712.0522,-4302.793,-4497.943,19523.004,-6979.0312,38635.21875
19,-179815260.0,-179814750.0,-179814340.0,882.26483,508.1503,-364.7855,2038.92651367188
20,17103.023,15247.567,17889.072,-2410.1655,4168.277,-17787.861,32004.58203125
21,18183.275,26400.537,10709.748,8177.1055,-6639.6147,-5234.686,24491.69921875
22,7905.4355,9066.641,8621.886,-1821.0493,-1652.2129,-1524.0204,5112.3134765625
23,-6213.124,-8511.804,-3199.0618,-2030.2465,16.39814,-10235.138,18653.08203125
24,-1414.2809,439.7598,-14523.2705,1737.4565,-13879.883,-2046.9712,28269.552734375
25,9257.043,-6702.6255,-6245.734,4780.697,-12584.471,11985.162,34960.4375
26,31559.982,18720.328,40482.14,-3092.1829,-17542.576,1706.1769,36327.1640625
27,33834.125,33516.727,36589.984,-178.56294,-22377.408,-1127.0718,38919.4296875
28,12865.614,-1237.1509,-23546.094,7179.365,883.1786,-9194.531,37706.53515625
29,7264.994,-1269.8076,1324.0339,-195.61,-17835.354,11956.862,37957.171875
30,4236.927,6824.5093,-31061.496,4214.8447,-1754.7732,-5517.608,38702.40625
31,24455.498,24647.889,26549.387,7301.0503,-20305.729,5106.565,38459.50390625
32,15389.573,16380.183,8242.225,3262.3423,-16400.15,-11925.466,36395.32421875
33,4597.3477,5649.08,4211.35,960.24207,-18897.244,10498.351,37501.87890625
34,18591.455,294.57812,-19483.674,3179.4595,-7633.0806,-3436.449,36446.96484375
35,17790.346,10356.697,9069.49,5557.643,4658.778,4003.553,16502.873046875
36,13344.511,-3223.099,-20135.625,-2660.073,-13952.682,-2695.5059,38311.57421875
37,1186.8788,-16857.682,-42506.5,-3163.5752,-3887.7925,-2828.088,39314.796875
38,25100.947,26632.63,34961.33,-2521.1672,-17434.691,-9353.183,35747.59375
39,27072.24,15580.464,-3767.7754,-2903.2014,-7743.156,1860.6122,30729.4921875
40,20093.787,4825.829,10880.835,-376.20074,-20039.633,4591.291,38023.03515625
41,21822.064,6435.5674,11201.4795,7165.771,-15377.423,11636.294,38154.65625
42,2118.718,6450.996,9266.805,-1672.9695,-15693.649,-4295.1665,29008.79296875
43,47532.87,47023.555,46536.977,-871.33704,-154.50806,550.95654,2000.986328125
44,-3139280.2,-3139254.8,-3139852.8,653.4397,667.5948,-589.61664,2000.98657226563
45,-60006.35,-60375.84,-60317.066,768.23615,826.971,-145.46404,2000.9853515625
46,135698.17,141511.9,143746.16,2815.4644,2828.0354,9589.786,19376.443359375
47,13087.739,9330.048,14310.237,295.47583,639.10913,-18453.467,32299.955078125
48,192496.8,198445.06,198191.98,1359.1592,128.46268,7389.4766,14259.912109375
49,-1206184.8,-1211532.1,-1213965.9,-412.8761,1620.7797,-3475.6753,9600.25390625
50,-11506.431,-5373.1045,-14425.358,-1830.7517,6195.648,-8694.204,20396.59765625
51,19051.562,14488.282,22485.848,-866.50226,2972.746,-16848.387,30473.888671875
52,14192.166,9920.687,16692.47,-1264.8381,929.3504,-12222.395,22152.388671875
53,20408.74,15555.923,20127.521,463.53323,1016.2799,-15722.002,27704.716796875
54,-1181.2166,23495.377,-13474.004,2551.7556,6198.638,-7938.522,37245.875
55,14177.617,8189.434,19301.572,-3143.4797,-398.78128,-16234.51,30225.748046875
56,38674.812,33296.863,46401.75,-2122.8135,1284.1077,-16469.723,31022.638671875
57,22277.264,17840.066,29555.803,1911.1499,5998.4995,-13629.315,27948.888671875
58,38005.42,28018.074,40361.207,-1901.295,3315.615,-13136.935,26275.2109375
59,11367.418,8515.183,18807.88,4293.1455,1085.8566,-1466.1133,12247.3134765625
60,-1441.1348,-609.205,-1112.7614,-401.222,775.0538,-241.0804,1728.05505371094
61,24400.158,14609.868,12206.674,-5111.89,-848.27423,-9087.75,21294.779296875
62,12392.672,17440.443,26553.21,-2452.8103,15428.194,4108.2124,30615.1953125
63,17666.23,25175.408,29308.307,-529.11115,15732.927,-7203.936,31679.775390625
64,33280.547,42985.49,53248.68,-248.86983,14584.089,-2801.903,30999.150390625
65,8803.419,-5038.7964,320.30908,-10125.001,4699.412,-766.96216,22840.974609375
66,20607.662,27502.045,36081.3,-2240.282,15297.894,2032.8848,30163.154296875
67,11072.662,16340.508,23956.146,-1776.4674,16445.432,-545.8049,30782.853515625
68,16232.89,25968.895,29409.182,-2778.5134,15920.892,-5257.346,31727.337890625
69,31888.094,36242.266,45231.29,-2698.9692,15240.409,-276.26843,29288.11328125
70,-1402.8477,-1748.3135,-19700.35,4123.7085,17140.89,-2667.713,35810.50390625
71,12270.172,25391.271,28794.107,2974.266,14876.892,-3407.753,30882.587890625
72,43423.05,45144.66,60328.406,-4851.95,14283.115,4617.2656,31721.51171875
73,5300.845,9124.83,15099.838,2386.9812,12553.246,-6346.4697,26150.525390625
74,18920.52,22798.074,32708.445,-2865.6921,16054.777,-4778.4946,31907.447265625
75,10870.581,18222.408,21152.373,-1406.2517,17094.15,-1664.1733,31225.720703125
76,51507.52,62616.348,52582.875,-301.77493,3301.4712,2632.3384,12898.7001953125
77,-6158.692,7906.4165,10433.107,-2437.0566,7371.9004,-717.07697,20546.16015625
78,4861.517,17136.219,25791.158,-3110.7869,7604.132,-4376.4146,24326.35546875
79,29393.223,27277.535,27689.004,-124.80594,-137.29407,-204.74156,2000.98388671875
80,1899.2133,-3178.818,2656.4402,7653.6714,-4255.687,5173.4126,18454.4375
81,28210.637,24126.137,30277.105,-970.0564,-51.454624,20612.295,36150.03515625
82,48006.06,32356.61,56655.082,2790.5256,2973.319,17236.246,37365.90625
83,23608.213,15397.965,31169.371,-1765.4115,6926.0703,16143.208,33492.2265625
84,17140.871,31532.059,8647.121,-935.043,3963.812,16417.83,35494.7734375
85,13219.295,4852.989,20046.066,4664.3174,1740.8376,18767.76,36121.46484375
86,19922.566,27780.707,6857.4434,7950.2876,11917.567,-449.6718,30845.236328125
87,5895.9517,10217.216,13372.706,1965.3104,-10183.548,18789.99,37738.02734375
88,12253.962,4316.822,-4130.154,1839.2548,16539.045,12364.998,38611.4296875
89,19504.832,26506.42,24103.242,1091.7277,6469.501,21102.602,38769.4453125
90,17634.975,12562.06,20947.754,-1530.7323,385.84665,21893.611,38716.6796875
91,14819.69,15420.069,32326.586,159.9465,-2183.2917,19284.828,37768.1328125
92,-1787.1113,-12043.8545,14199.37,-12707.05,1877.7944,1541.7148,32044.560546875
93,2623.2432,-9244.716,12459.447,-2955.0005,-12430.539,-3961.5745,29852.44140625
94,14985.914,33851.473,32015.318,-647.0927,-18895.523,155.9861,37377.6953125
95,4774.1387,7602.6084,19305.76,3401.7341,-17822.889,6002.0757,35690.6484375
96,9287.501,17544.87,28377.086,1650.5541,-19676.31,-1815.8958,38137.953125
97,25034.254,5298.8765,-9151.686,9131.31,5217.5522,-7684.435,37315.59765625
98,-755.1355,14268.604,-23412.172,8968.131,5188.0347,8005.4585,39921.65625
99,34922.008,41259.066,49151.4,-244.80473,16820.074,-5480.5547,33037.7890625
100,-21536.617,777.7383,4104.6396,-7979.9287,961.7802,-6789.4395,30254.564453125
101,18284.354,16419.09,25005.287,-4070.8843,4702.2407,-14474.847,28386.607421875
102,11929.168,-6492.6523,-27623.77,3633.7012,-1875.8268,2835.3652,35347.51171875
103,3669.7998,4928.5225,-8553.045,3574.8372,-12539.127,-16473.152,38606.85546875
104,20811.062,25594.324,26513.13,5375.261,-20068.715,-6273.175,37962.05078125
105,28594.111,34298.44,26096.883,4971.4697,-21684.307,3367.0518,39646.00390625
106,23697.291,3273.9336,-12455.871,881.89874,-11640.236,1178.2585,37400.25390625
107,12997.439,-2129.3884,-22296.416,1293.6545,-12814.444,2061.5955,38091.91796875
108,31668.803,24294.432,13541.699,-243.84494,-8262.727,-16955.049,36286.5625
109,48471.71,51727.89,59848.05,6890.073,-18115.566,-3026.5166,35459.84375
110,33476.977,17076.855,17015.963,51.47565,3183.0923,15643.438,32163.986328125
111,16729.975,-5482.1934,7373.5605,6642.0757,-2322.2654,-3655.5955,23700.5703125
112,6620.208,13647.954,14957.478,-1314.9133,15597.666,-1752.0651,28364.8515625
113,15283.085,-4761.8457,-10938.413,-5727.7607,14205.209,-6018.4844,37097.30859375
114,-17581.393,-18605.432,-34067.637,-5037.57,12125.938,13983.021,36875.2421875
115,19315.148,22507.059,28670.215,-976.2376,16519.453,2775.0852,30207.35546875
116,14059.604,21359.908,28956.107,-3639.0151,15946.408,1372.6798,31220.107421875
117,17559.098,-14762.678,-22100.297,-5153.224,1196.3768,709.2141,37698.4453125
118,-4467.57,2365.4124,14125.395,-7751.7886,7732.5464,-5030.0806,26474.42578125
119,-2790221.5,-2789400.8,-2789692.5,798.8739,706.77216,-154.21979,2000.9560546875
120,24857.607,31019.828,35044.75,-858.37805,14670.02,-3383.4138,27589.068359375
121,12719.989,13261.852,14399.061,3750.1267,-17552.357,-4541.239,32101.677734375
122,19564.037,20892.637,29969.514,-140.95518,-20454.469,-1370.2733,36838.33203125
123,20494.76,-4361.922,-7784.3213,-3491.4697,539.6836,5307.34,28923.787109375
124,47743.234,34791.184,59679.81,4364.2603,2896.8206,8964.593,28075.7421875
125,16183.278,13374.408,21722.326,-2599.1804,-3426.639,-16811.72,30943.884765625
126,37871.72,14457.485,37898.39,4346.5107,9129.323,14724.3,38806.91796875
127,-20430.512,-23711.805,-44514.793,-5604.538,-3931.3572,-4302.8774,26607.0546875
128,24681.492,19026.775,22749.043,3674.9287,-3284.8965,21051.273,37777.48046875
129,13806.54,32349.4,-2891.2095,-1076.7632,245.22194,14337.944,39403.875
130,2431.4238,2022.6978,11299.707,717.13416,828.4891,21379.771,38174.9140625
131,-30736.273,-21841.256,-36625.445,5430.5596,-1094.2917,18339.764,35599.07421875
132,22317.105,14641.527,39147.33,7181.0586,-949.8664,15076.855,36203.546875
133,23642.514,18342.314,25870.365,6141.3877,9509.799,18257.584,37806.6171875
134,-19994.955,-10799.325,-48312.81,-9468.973,6448.2983,-1309.0403,39315.7421875
135,58908.055,60735.61,59390.137,364.76334,507.8587,215.7797,2000.98193359375
136,9626.973,17326.203,-13316.683,-3488.8062,-8371.927,341.7982,31772.17578125
137,67990.08,69182.37,68754.2,-550.01544,-486.36502,656.3442,2000.98706054688
138,12204.309,11231.602,11493.381,-754.8126,-701.36896,140.12924,2000.98559570313
139,4049.2593,8893.302,23256.889,-4734.19,12303.494,-32.139206,28648.28125
140,39334.23,42351.383,55287.395,-5416.88,14577.623,-2774.0046,31050.0859375
141,18737.387,26126.848,34554.215,-1333.7058,17181.682,-669.57166,32866.55078125
142,-8334.934,-4970.162,-19163.57,6360.541,15490.249,-6141.931,33457.43359375
143,8636.837,17904.904,24727.414,-2612.5188,14231.223,-1516.5299,28820.71484375
144,-1400.9849,6042.921,8004.8154,-600.1236,19811.986,-3780.3938,35991.1640625
145,32237.11,36838.258,41882.613,-1675.2043,17485.74,-1717.8556,31691.5
146,27886.012,32248.053,39048.227,-1358.5464,16161.981,1219.8453,29808.763671875
147,5036.899,27130.998,-13949.366,-3326.102,-3559.2524,-7322.56,38731.96875
148,13626.155,18055.785,24593.912,-1218.4868,16392.262,-2678.7024,30387.98046875
149,62937.277,61487.652,81452.56,-4325.942,10566.697,8808.627,31553.759765625
150,26487.988,19730.307,30722.492,-3666.836,-160.92958,-15931.001,29900.130859375
151,18914.238,9488.382,16379.811,-2019.7054,1716.004,-17057.943,31070.451171875
152,-3693.485,20464.627,-21770.49,-284.5894,4434.6797,1475.8706,37588.23828125
153,16283.305,8141.7056,23209.34,-1037.3657,964.5862,-14587.305,28548.775390625
154,21613.273,23479.1,11337.994,-4700.313,11878.202,-14449.235,35272.22265625
155,34379.543,27329.596,42029.22,-826.2742,4643.084,-16099.826,31725.150390625
156,11313.11,14136.875,21978.36,7077.1797,-19758.578,-776.63293,37614.8671875
157,21516.57,21212.191,24228.44,2899.8142,-19025.672,-9389.473,37201.0
158,29373.65,41665.664,41932.97,-2453.6785,-19916.482,509.78864,36922.76953125
159,3275.0884,-5996.4155,-32895.336,-99.8315,-10187.095,-3446.9114,37495.46875
160,24343.023,33057.5,37737.113,5219.8013,-17002.322,-1883.5391,33139.7109375
161,11747.966,19638.629,23259.623,464.46442,-15031.936,-11962.528,34810.5859375
162,24369.693,23886.396,26408.682,161.16438,-20747.44,-1930.3998,36166.31640625
163,14769.637,-897.63367,-13580.963,3403.256,-16210.696,-3447.3118,38259.6640625
164,61235.574,64778.645,73287.914,3615.235,-317.15506,19588.586,36135.296875
165,4966.4805,5672.864,-8401.074,-633.86316,11754.588,17187.91,38608.57421875
166,1586.3204,11866.045,4218.9443,2705.4028,-16945.465,13296.847,38721.609375
167,28178.928,22035.977,36922.414,8324.596,-3751.9006,17816.768,37018.01953125
168,35430.484,26968.008,43017.684,1083.4017,2872.153,19597.045,37064.6328125
169,2935.3367,13364.9375,-10915.176,5066.839,-4891.9272,2596.7297,24781.22265625
170,37107.45,30209.986,38502.797,-735.00574,4847.224,-15750.31,29588.3515625
171,21042.348,20217.146,28795.947,-1622.7882,-5311.6953,-10832.438,22622.23046875
172,21006.408,12152.406,30460.027,-262.6999,7481.188,-15097.155,33216.71875
173,17323.943,14803.178,5448.7856,6485.5444,5130.954,19008.686,37504.6171875
174,9672.407,9895.291,12273.931,648.61334,1927.1283,-19344.86,33783.3125
175,16484.533,32377.564,-1057.7281,-7649.807,-7108.5044,5767.617,35581.828125
176,22067.979,-3380.201,1802.0116,650.4029,6247.422,-4752.058,26994.3203125
177,374.6438,13186.571,-18227.822,5007.4624,8985.269,11522.187,38265.41796875
178,13864.799,16119.299,-2516.8945,-4170.435,-7880.148,6827.1343,26242.564453125
179,16995.324,-6767.128,7036.078,1533.271,14522.868,-7266.594,35005.55078125
180,-5514.1265,-4867.6914,-24514.508,-11229.881,-5.870024,-12605.786,35053.71875
181,15835.886,28297.186,22911.207,-5148.033,9909.668,8159.131,26286.916015625
182,11688.241,23035.031,-6501.958,3278.682,9076.7295,6146.085,32538.697265625
183,-19638.639,9005.787,-33133.492,-1880.0105,-3107.9915,5768.2256,39096.87890625
184,1914.4335,-834.5008,-6605.674,-7816.0894,5569.6616,-19392.512,38226.60546875
185,-12527.95,14672.559,-14289.716,-4058.298,12148.578,-2206.4788,36023.203125
186,27362.625,28785.973,35812.08,-1563.6982,17835.41,2895.132,32375.59375
187,-4401.336,-4682.539,-3141.2004,324.905,-455.65894,529.0217,1949.494140625
188,-6038.8833,-5966.5386,-29778.666,8336.653,1690.3282,-6338.4233,30048.2578125
189,-5752.223,-11679.594,8308.3125,-2468.6162,-446.5062,-6564.268,21548.16796875
190,-8726.372,-5559.164,-5047.025,5208.5356,1915.2433,-689.81915,10282.7080078125
191,-22629.648,-17753.621,-7448.7866,-5651.3735,-2001.9124,-1668.1855,17216.197265625
192,1606.383,2510.9817,11195.039,10696.903,-12054.41,-10802.686,34833.58203125
193,59471.445,55039.465,74264.3,-3851.3772,-18489.424,3689.4001,37615.73046875
194,15758.788,14414.804,16090.285,-465.05807,-17605.867,-13442.013,38405.3828125
195,29878.166,48208.645,43931.598,152.35287,-17464.125,-2538.303,34789.14453125
196,6183.432,17344.92,23349.742,3558.6099,-17242.17,706.7625,34044.4765625
197,16911.725,11344.64,-15295.73,6939.1406,-11266.146,-2869.0715,37933.34765625
198,42554.324,47522.48,55111.137,2317.1577,-17234.734,7786.95,34772.078125
199,38909.01,47098.934,52439.895,6902.4653,-17391.363,-5587.552,35823.39453125
200,22086.852,12929.443,-13946.39,365.163,-5245.6987,-1763.3857,33831.37890625
201,-2671.7532,-10688.803,-36412.277,-926.5756,-11421.844,-2557.9077,36684.82421875
202,15658.892,19651.578,19164.879,3128.9346,-20180.316,-1457.5328,35661.109375
203,12157.968,11278.7,15636.304,3279.9963,-14224.824,-15113.88,36613.25390625
204,9121.791,10440.637,11432.339,-243.59152,-12292.664,-14232.465,32637.810546875
205,-10712.241,-11375.265,-25039.908,5277.0596,-17455.195,-5830.376,35997.16015625
206,13805.22,9379.687,7662.805,2804.5579,-18752.648,8972.749,36745.6640625
207,12770.911,17045.596,18996.887,303.87897,-18067.791,2341.789,32038.818359375
208,14052.159,3347.2195,-18805.959,2108.4043,-10056.255,8723.82,37249.74609375
209,20079.527,12012.667,18995.717,859.3306,-18718.816,-10044.167,37597.33203125
210,22851.402,19645.084,19012.701,-7004.5,-18462.244,3436.0046,34898.12109375
211,3118.5662,-3337.6475,-18222.988,5445.518,-5131.106,11261.538,30129.24609375
212,27120.258,25521.902,35705.97,1225.7599,-16410.105,8459.15,33422.23828125
213,5627.106,-206.87985,310.20685,-8815.393,-4518.6567,-15930.978,32970.62890625
214,24214.838,10169.043,2054.1438,8268.816,-9853.249,-5894.1006,31268.466796875
215,-13918.812,4587.3516,-5673.419,-7810.261,-889.8872,-2398.2092,21459.369140625
216,-10729.883,18957.459,10199.841,2866.6038,4902.8477,-971.36224,28242.52734375
217,8168.6533,5997.3433,27843.047,1013.95056,21.851862,-5424.7437,22932.1796875
218,49495.66,45111.12,59688.516,5257.467,-1028.1827,14736.519,30089.84375
219,19337.477,27109.428,34949.793,1722.7917,6229.896,19637.195,38275.40625
220,10191.07,-8424.384,-30415.385,-87.08541,6417.131,-274.0257,36922.87109375
221,14419.437,14163.924,5184.4707,4676.6797,-6367.2446,19845.91,38102.625
222,28696.174,23965.049,31200.066,7975.547,-7111.593,17398.1,35932.33984375
223,29315.764,24064.342,36679.65,-1092.4692,1676.3687,21273.492,38602.73046875
224,5649.3247,6559.921,6729.596,-1170.428,-10260.512,19622.377,38419.6484375
225,605.7123,12070.073,-13574.595,2753.4824,2694.9634,59.493416,23229.828125
226,12721.759,9499.874,6295.7944,862.85376,11524.242,18812.885,38644.5546875
227,219.50136,3141.6616,6499.391,2515.5984,8499.389,20383.934,38882.42578125
228,26494.78,7669.4087,34121.055,2271.541,1736.4344,15786.308,36445.4375
229,-2352.535,10722.514,-21804.43,-5970.8823,4839.8936,6659.4736,33375.76171875
230,7101.712,19827.8,-13689.706,210.73448,-1166.8601,-10239.969,34316.44921875
231,26586.99,25774.125,45974.805,4957.096,-1900.9768,16136.818,35469.11328125
232,24936.648,23234.291,31485.758,1280.7925,10017.525,19226.303,38364.875
233,5210.0474,29185.756,-6591.3237,5186.887,532.46106,-6466.7324,34699.7265625
234,20586.902,16153.952,30962.854,9059.708,-3638.7297,18107.156,37985.140625
235,257.30844,-1207.0417,13002.056,-101.63678,2203.996,12975.108,26512.2578125
236,23834.21,-2312.8516,13129.942,5475.464,3436.855,-2767.1355,25820.80859375
237,33218.14,3405.3738,22143.516,-7037.215,-1844.989,-409.9899,28992.52734375
238,10314.84,-8280.848,-10535.933,196.39899,8731.769,-11323.9375,31723.203125
239,-2288.4731,-2348.3818,-24652.203,1098.7743,6352.674,1741.53,25151.349609375
240,-8806.124,3187.1538,-17341.111,-8477.121,10862.831,5855.639,31488.10546875
241,-17096.764,-20716.387,-18427.934,9113.205,-1697.4862,-17108.14,33851.390625
242,-10331.415,-6510.2026,-33861.87,-13065.564,4026.5168,-1437.1368,35002.29296875
243,8155.432,-10216.821,7791.281,6088.7495,-5737.8804,365.06168,23267.365234375
244,500.25885,12583.163,-24751.791,5922.927,1015.5592,4118.81,35327.2109375
245,14142.501,7095.195,221.52295,3139.3987,-732.74084,4621.6606,15511.615234375
246,-10790.508,-30368.814,-48340.863,5219.192,-3187.3997,-1101.289,34263.73828125
247,7860.302,-4324.2817,-28360.885,903.9521,9663.2,7040.987,38084.23046875
248,18839.986,-1529.5684,924.31885,8121.2617,12393.687,-6136.6646,33802.46875
249,10581.933,1332.2556,-14560.296,-6794.403,8971.18,-10720.784,34783.24609375
250,19628.715,-11536.749,-6752.1016,-6598.3833,9994.069,-1763.5186,35842.0625
251,-1199.8818,149.23877,-23181.996,7323.3936,-3426.534,14188.476,36259.45703125
252,18478.285,-3813.1177,8356.421,1969.3087,18350.848,5474.5015,38542.625
253,13604.868,11828.887,-8618.112,-8868.674,93.09914,6272.8296,28488.21875
254,-562.0588,-18326.05,-36842.3,315.65298,3982.9556,-11130.319,37508.34765625
255,15502.692,20792.045,9533.993,352.22623,839.22784,-18585.67,33674.01953125
256,4884.77,9301.506,7770.259,-15345.159,12331.763,10632.492,38947.11328125
257,10133.957,6605.386,27512.668,-780.94415,-915.43115,-11399.39,27748.412109375
258,-121852.58,-118876.63,-135426.52,8574.995,2124.4658,-3123.9634,22291.533203125
259,-2237.4963,-13319.114,-12624.565,-14856.272,-1172.4149,31.431839,27961.421875
260,-1739658.4,-1738107.6,-1742251.1,2236.8254,3934.875,-4999.6025,12230.9384765625
261,-720023.4,-720237.8,-720232.6,643.8624,582.33344,-752.3369,2000.98559570313
262,15550.678,16003.523,27933.203,10790.501,5083.216,-5464.813,25774.77734375
263,4357.72,2465.7795,-1660.423,-10444.823,-7584.866,-1017.5875,23051.931640625
264,6908.5635,-4285.342,15776.032,12346.891,9131.986,6539.477,33749.19140625
265,-54779.492,-53098.918,-75151.484,-1012.30096,2223.7356,-17532.271,37311.2578125
266,88.83496,-2979.7173,22793.748,2347.0334,11357.875,10650.2705,36584.3515625
267,6196.8667,-5675.8213,10841.03,-19736.29,-5265.5225,5334.6436,39430.7421875
268,7324.7646,33505.01,2095.362,-4175.784,-4331.9263,-7810.2207,33782.62890625
269,-1957.6936,-642.48145,-11539.516,-10448.24,8141.7217,-1973.1483,25380.763671875
270,-8638.114,4102.6875,-9678.726,-2191.337,9368.638,-6927.153,24461.1015625
271,10176.878,6653.62,-5321.7744,-208.28291,1057.5901,-6320.6177,17926.294921875
272,-7276.6167,6782.5493,-5050.5786,-7197.29,-1098.7834,-253.69627,18180.681640625
273,-533.3286,16577.975,-2692.982,-4163.3657,1899.3578,-6900.3374,23239.6796875
274,7823.9893,21790.598,-6949.57,-16273.586,5620.8423,335.75168,38849.31640625
275,-3812.0447,-12523.24,-23807.352,-2804.6482,8157.246,-18514.121,39408.78515625
276,-11901.992,15040.406,18315.47,-1872.3108,43.771194,4967.8076,30156.53515625
277,-16642.912,-1914.1008,-13747.162,-7031.0034,-4994.8765,480.47852,20162.248046875
278,-31196.158,-21341.707,-11294.69,-3652.3093,14576.664,-3856.5728,31923.90234375
279,22291.203,3445.6016,21116.596,11267.526,-15784.205,-3799.5288,38807.2734375
280,12290.153,15441.28,1126.5873,9800.01,-18554.822,-4727.758,39468.375
281,-3644.9956,1037.6362,-15031.514,-9406.9795,3096.086,6125.224,24732.263671875
282,-7021.1836,7709.759,-6050.2725,4863.76,-91.65696,-1955.3322,16914.625
283,8877.306,-9214.444,-6652.005,735.11646,1848.8263,5398.0317,19667.49609375
284,8347.236,-4178.5493,-26530.727,-8817.597,311.14282,828.0692,34235.81640625
285,4623.944,-14980.924,7855.348,-7966.213,-7629.9507,-42.78523,28691.107421875
286,-7068.834,15097.123,-12708.2,4382.9204,7667.481,10972.816,35261.0703125
287,691.2771,14026.339,-4512.75,2609.7742,-1166.8796,3881.622,18547.78515625
288,13214.069,10174.651,-8126.1777,12200.861,-11448.764,-7801.4697,37711.7578125
289,-3715.946,-3581.605,-2530.4624,3171.6768,-13091.027,16980.697,37557.953125
290,5479.642,-24557.42,-26351.379,1412.333,5374.3906,6202.423,34166.87109375
291,14156.162,29292.662,19282.574,-867.59283,-20169.387,-2962.6033,37773.0
292,8155.8516,8649.444,4018.5398,2496.4475,-18381.615,9810.039,36612.31640625
293,36071.824,33525.098,40255.58,2080.4995,-18636.705,2677.4456,33333.4140625
294,46735.695,46732.39,52150.027,4164.7393,-19213.855,4182.5615,35233.02734375
295,19576.725,267.8744,-19217.545,-1250.7792,-8634.319,2229.159,37040.6484375
296,13548.099,-4892.7935,8083.7617,-8139.0376,7946.205,243.8845,25641.666015625
297,7750.067,429.8521,-21705.049,885.8065,7712.64,4541.5923,30793.80078125
298,21364.45,10976.456,-885.2136,-2119.332,18701.137,-4859.386,38798.734375
299,10380.08,-59.18164,-613.3611,-5073.926,1271.4541,314.21655,14051.7138671875
300,-214.01952,1590.1887,10307.682,-3744.5176,5210.271,9617.999,22271.07421875
301,17535.31,6658.8745,14960.054,7397.0776,-5538.0137,16382.548,34032.953125
302,17760.412,15608.518,9369.85,10137.768,-3423.9495,16616.945,35054.79296875
303,23926.56,21481.537,30759.455,2100.83,-1008.07355,21789.738,38859.23828125
304,4300.532,12942.766,19851.418,-5278.038,5535.977,-3328.764,19770.6875
305,9929.848,9321.344,6903.508,-9644.476,7434.4316,1618.9131,21457.171875
306,-712.92145,27966.64,-117.36315,-5193.2485,2150.9397,-5642.52,31560.96875
307,1023.4983,12425.523,-2472.4438,-1057.9899,458.5268,-8009.271,19455.658203125
308,-8676.593,914.2152,-10610.609,-4648.243,869.5009,2843.346,14339.2197265625
309,-9554.869,-3658.3936,-5272.8,58.85477,-8420.863,-695.6341,15557.966796875
310,42383.33,31586.514,59211.258,-785.87463,-4225.156,15070.199,36306.74609375
311,-31192.451,-28087.855,-46136.996,-3114.051,-1021.26587,-18407.98,36443.88671875
312,-19710.611,4547.414,-5016.0073,-10025.3,-2730.4714,-7101.1943,30382.3671875
313,-123.00781,-18844.092,-17340.29,9007.1,-4223.784,6260.6733,27186.03125
314,-101891.8,-70757.52,-70121.46,2432.671,-648.0809,2462.553,32043.05078125
315,-21062.193,-5814.2974,-7243.771,5638.602,6801.7334,-7474.465,24789.521484375
316,-15992.463,-4994.2896,-113.79331,11657.725,-11251.461,-3758.67,32067.619140625
317,16425.8,373.14,1793.3446,-301.25037,17039.045,-10413.489,37861.44140625
318,15385.481,-7213.007,-15278.619,-2158.7231,-11222.467,-8815.739,37188.43359375
319,17473.465,21026.416,25729.008,376.95972,-16466.23,-10791.755,34852.09375
320,8458.75,9501.886,8773.753,3753.4956,-16436.328,12647.105,36516.18359375
321,49712.027,46165.797,54195.47,-4262.822,-16878.607,-5797.284,32535.810546875
322,19622.379,12738.943,32908.758,1575.3525,-11403.188,3830.8684,27512.4609375
323,8818.649,-4661.9062,7368.9224,-9383.964,4713.9727,9283.39,27453.029296875
324,-15405.527,-15636.193,-16981.012,586.62164,167.59966,370.3046,1923.52990722656
325,40.269775,5820.954,-16583.996,-1040.4027,-3048.6199,12186.361,29707.47265625
326,-9092.61,14740.807,-19049.697,2727.5059,1120.1903,11280.85,36226.2578125
327,3852.4343,-1083.0007,-18080.16,4486.1953,16727.338,6593.9634,37780.69140625
328,6776.0054,17269.422,-5395.2,-5936.0835,2411.3845,-423.5823,22575.681640625
329,19906.85,-144.1215,6627.726,-6785.1055,6199.159,14912.12,35108.87109375
330,2060.705,-9277.213,-27062.441,-6623.2905,-11497.627,-6522.199,36087.63671875
331,4044.5518,-20834.94,-7786.288,5561.365,10306.022,-11211.587,35399.71875
332,14466.486,-571.2908,23129.475,-13221.149,1704.3618,-7145.882,33432.859375
333,13469.009,3239.3179,-18102.979,6548.014,-9503.225,5562.864,35649.19140625
334,-7327.673,-1897.7612,4925.602,-1905.0663,12366.999,-7551.948,27457.314453125
335,-127771.63,-123809.555,-111420.48,-11568.331,-13587.017,-3483.327,34784.6875
336,-37155.836,-26724.63,-46811.47,-8072.9917,7824.205,-6585.227,28496.15625
337,-20598.344,765.009,-30847.197,-9197.169,-2936.2686,-6142.009,34251.765625
338,-957.58887,18457.303,1891.6807,-6202.3833,3479.3643,6334.5664,24532.52734375
339,-18740.547,11515.473,-4481.9243,3940.5872,2113.4297,-8469.568,31024.36328125
340,29958.502,18036.11,35714.28,8261.869,8023.3623,16391.492,38050.44921875
341,-13290.599,9973.734,-26526.35,-5149.787,-811.79596,10145.512,37612.06640625
342,8544.215,-1047.4955,2891.9011,-1887.8895,7742.238,-2869.2463,16880.494140625
343,-17663.727,-13141.437,-31765.521,385.78418,9222.399,7345.497,26468.046875
344,1585.1289,-1018.94336,19445.418,7546.42,1625.2037,15677.966,35894.92578125
345,4729.3384,-4232.772,4467.249,-10591.138,-3296.0903,-10183.028,27535.98828125
346,4077.787,10001.974,22009.508,-6557.932,-3402.1516,3857.4658,21419.50390625
347,-6716.4473,7957.7485,-4575.9434,-5448.4385,-4296.2646,602.1257,18276.251953125
348,-11793.403,-699.1391,-37777.883,3663.2322,-4023.8293,6479.897,36074.2734375
349,6721.926,-308.84372,2218.72,-14590.94,-408.3943,-7643.0337,29197.3359375
350,10738.394,5901.2837,15006.759,6189.8115,8756.8955,15349.262,33377.44140625
351,4951.0137,6275.652,-13363.093,-7107.8525,-1289.5659,-825.9587,22803.96875
352,6293.5503,16457.982,5720.162,1836.5796,-9123.406,-12432.3125,28861.541015625
353,8113.4595,5973.5547,-4719.7764,2032.8229,10674.098,15218.217,34507.9375
354,8661.384,25557.693,25467.02,2310.4915,9096.876,9319.869,28439.689453125
355,-1031.3916,7999.8564,-5107.589,-19.330612,-7249.853,15055.231,31187.404296875
356,3078.539,-3550.6777,588.5294,4209.6245,-3942.1184,1244.0564,11750.173828125
357,-4829.494,4519.4634,-278.68683,1227.8646,-346.2827,1327.4075,8702.6591796875
358,275.77698,-290.1715,496.8003,2244.4492,-277.0396,187.34032,3992.79809570313
359,-3316.9548,-3642.9773,-2210.1704,-6826.066,-1011.4168,1862.3466,12447.9521484375
360,560.2775,305.16748,25.98526,-657.73315,67.1651,70.91963,1241.25219726563
361,846.599,-927.2762,1488.0358,-1106.0856,-2246.8477,1154.5033,5244.9775390625
362,-1896.3193,9934.399,9731.775,-6354.58,4074.793,-3188.045,18413.43359375
363,-4971.1943,-757.28723,-60.133545,-608.9994,-892.98364,-172.82912,4977.47802734375
364,-4073.93,-3797.9583,-2188.7358,-5526.093,-1776.2098,9191.368,18911.146484375
365,24222.838,6833.598,10571.678,1697.8047,-5369.4683,-2688.6333,19188.12109375
366,23627.826,4573.1177,4760.8257,2975.1409,-4770.462,-1588.8458,21492.791015625
367,7716.881,3295.1553,-6528.132,8541.668,4750.69,333.69547,21128.322265625
368,10670.209,3157.9675,-5167.2886,6759.632,-4494.475,-2210.0247,20015.404296875
369,-645.9722,1483.521,-2005.6848,5240.912,-619.0444,-396.83414,9659.328125
370,-1332.9634,-607.9648,-239.82166,286.5089,-72.81625,224.12532,1157.98132324219
371,-294.66583,-106.08183,187.61914,837.0142,267.69717,114.53148,1591.64306640625
372,-791.27075,-466.25504,53.139435,-298.3849,-212.94139,226.08415,1049.13879394531
373,-8725.898,3102.4956,493.66418,-5251.425,963.5955,-684.24304,14240.123046875
374,-10687.862,3887.7761,-2035.5808,23.253466,-634.24005,688.534,12799.5830078125
375,-4590.7275,4453.9443,-706.58704,3908.1243,798.77356,-709.60254,10535.98046875
376,-2256.8564,271.90955,37.860535,1309.6969,-178.49426,497.0916,3440.9853515625
377,5966.9336,-1942.5825,-698.2886,-5693.6562,-2576.8767,1032.1132,13215.0205078125
378,7207.7236,-3859.9302,1608.5712,-3924.9387,-1222.4628,-960.5177,12055.72265625
379,8354.16,81.19507,-1253.395,1897.8201,1115.8898,-1629.1266,10186.611328125
380,5616.4824,2894.3499,3035.874,-620.42316,-1074.2769,705.7392,3627.11694335938
381,4346.244,-4338.7876,-3805.7544,3043.0435,-49.83259,-1881.5602,10463.8935546875
382,-1002.1437,-3310.662,-342.37805,1569.0939,353.98532,887.98505,4173.16015625
383,-896.65234,-620.0724,-123.89212,340.3868,-108.6962,5.9900713,918.186584472656
384,-578.5969,-877.9359,1978.5492,1548.6989,-112.30681,312.131,3862.58642578125
385,774.5298,4068.877,-17298.135,828.8549,-2225.632,-757.893,20387.646484375
386,-11306.66,-1235.7513,-11429.694,-1092.8798,947.43097,-5416.4233,14034.470703125
387,5728.836,2405.7632,2212.9707,1542.9174,5567.723,-8102.5576,17573.142578125
388,526.1509,-2289.4912,544.1837,227.85861,50.453217,113.30395,2860.21826171875
389,16922.582,3669.4087,6308.8193,6180.6006,624.3865,2077.6562,16623.82421875
390,10677.283,-4534.265,-14440.338,1957.9653,6427.3306,6083.0713,26956.486328125
391,12401.512,-592.2573,678.01416,-1822.7142,568.12866,3176.569,13969.7158203125
392,14745.198,4562.9688,-6850.7383,2234.4238,3983.818,1086.1516,20403.359375
393,1778.519,14284.9375,10713.318,3184.6382,1626.5153,204.22064,12766.6103515625
394,843.60645,11326.477,3740.063,4461.695,1275.7925,-3009.1301,13404.646484375
395,-288.34888,1597.1869,8845.944,4266.2734,-2224.3137,-866.64954,11893.9794921875
396,6212.638,-1685.6191,1803.1477,-1989.9568,-65.02048,1555.171,8133.076171875
397,4515.6436,3218.723,1793.601,-4297.9165,1221.2269,-1096.6388,8310.20703125
398,5858.4673,346.1985,627.9835,-2493.6672,295.30103,-199.65619,6924.41748046875
399,9202.189,905.78906,-392.17383,-1792.5494,1042.6757,335.45438,9722.251953125
400,-5461.368,5628.6284,-76.725174,-6198.246,533.48895,-95.87066,14436.1669921875
401,-4496.6855,2772.2422,-2149.5496,384.9177,727.42285,-404.81897,6618.81787109375
402,-7287.503,8097.911,3404.395,-3891.4622,-742.93207,-639.3001,15324.515625
403,9921.66,385.07617,-1680.3103,-129.00777,-1631.1149,2642.7861,11995.560546875
404,5895.136,-753.291,1905.7656,966.6116,1966.6346,-179.271,6935.12841796875
405,6346.4507,4895.9873,4191.0195,4905.1846,-775.73846,1457.4025,9164.236328125
406,3531.998,-6519.3394,8687.519,4395.1895,-5208.5044,-7406.947,21985.35546875
407,14990.148,-429.37793,4119.257,1365.2883,595.4438,-1650.2743,14252.71875
408,-7905.7705,-4397.068,-13297.117,-2472.9512,-1589.8497,5017.963,12718.625
409,8302.322,-3771.9143,-2675.6152,-2762.009,1117.4095,1104.9951,12808.083984375
410,417.02576,-2606.357,-473.87817,1949.0591,-1441.5057,-21.987642,4987.2607421875
411,5337.1055,1911.0325,4041.1106,-3987.8403,2603.8784,-1157.7441,9002.6484375
412,6313.2812,-3301.851,-433.71985,-814.92865,-1041.3972,1398.9899,9176.9736328125
413,-1960.3691,-833.4147,5880.756,-451.94965,-2391.066,-981.0999,8635.3173828125
414,-5167.908,534.33374,8845.156,7081.3916,-2693.48,2003.7439,18254.408203125
415,1277.4695,-7614.371,-800.8976,2002.9153,831.9148,492.27405,8929.84765625
416,-6622.902,-12418.404,1447.8799,-3479.8855,-134.8365,272.00867,13494.6259765625
417,-5205.546,2061.226,1815.2773,1916.1421,-871.9443,271.46402,8037.16064453125
418,-2344.5688,1068.3336,6376.0146,-2964.9705,3393.289,-456.2295,10930.453125
419,-4443.2603,2398.1367,919.6362,-2671.4019,-729.22784,-573.4088,7928.84228515625
420,-1051.4016,7985.6436,-1506.8259,-3179.0503,2971.5876,-28.970642,11950.0576171875
421,-1890.3271,10892.576,11746.65,-2460.8318,3601.3462,75.610275,15236.2373046875
422,-4741.0293,7135.825,22413.734,-8.0848,4296.209,2681.4978,25156.935546875
423,-13833.258,2472.933,2588.6992,4620.3633,2757.8762,-549.2179,18856.267578125
424,-3177.1772,7653.618,-671.02734,789.5576,-473.56638,160.3588,9953.0625
425,1728.8944,7424.035,-4290.0195,2345.6023,-1178.7594,349.4194,11134.6650390625
426,1507.9573,17238.479,-13880.4,4606.338,-4676.6274,-3504.877,29873.697265625
427,-1033.8413,8816.271,6623.4927,-163.04405,-647.29004,-2355.5918,9910.4501953125
428,-14114.24,1393.9854,-3730.3196,-4463.8545,1454.5114,-322.71878,15928.96484375
429,-991.2771,-5393.5215,-3156.727,331.60846,384.4171,1296.1737,4511.04345703125
430,2862.1265,15396.923,-8972.353,2819.4824,-724.7231,4527.645,23074.697265625
431,-11207.565,-178.29346,-5559.725,1579.58,1830.7975,269.94305,10440.81640625
432,-2553.7866,704.9125,-928.3824,-3569.771,689.9481,66.35796,6901.84326171875
433,17224.01,4615.919,-1797.1724,178.08803,-1015.4667,-2078.5608,17236.54296875
434,7000.2983,83.10989,1436.5345,1729.6998,-1187.5778,911.60706,7484.45361328125
435,5001.231,-5173.8315,-693.08014,-2359.7024,-254.65074,-707.2857,9819.2158203125
436,4048.818,-2328.323,-1032.456,469.53247,-27.939297,85.37631,5896.5126953125
437,18766.877,1489.7883,6271.3086,-3302.816,139.9039,-6267.2515,19732.455078125
438,7192.967,-2487.1108,-5000.1006,-1967.7191,257.87448,2629.1443,12525.869140625
439,2305.1143,4839.656,-929.0391,7461.8667,1519.6921,-1546.25,14360.3681640625
440,-966.29926,-992.79565,405.7382,396.34256,-433.6379,11.194116,1719.10046386719
441,3940.2947,1268.0128,1921.6002,2322.2988,280.57755,416.3338,4770.43896484375
442,-1873.4393,-2772.1367,-1135.4304,-2774.9426,-711.68066,1084.6095,5492.27490234375
443,11384.787,7582.2256,7949.332,-4135.2954,1215.1537,3127.809,9913.6103515625
444,-6793.757,-3353.4622,53.585445,-3410.9045,-1027.0881,1104.7201,8768.900390625
445,-5274.7227,-4873.925,374.7807,-2879.086,-1748.6941,1133.568,8228.5693359375
446,-3554.1458,-2374.0618,-27.271133,-1602.9333,287.01944,118.81891,4203.2265625
447,-6374.689,-671.05634,-684.0813,1242.4509,1076.3774,153.72528,6374.56005859375
448,-4971.0195,2627.2776,3333.6785,-125.80374,-1719.4918,743.0008,8612.44140625
449,415.79535,-2540.828,-5786.401,5960.0537,706.58264,2045.8818,12226.720703125
450,-5212.231,3207.4897,-853.893,-1378.7745,187.50238,767.7341,7795.357421875
451,-1555.198,926.8479,-768.46387,-8488.151,-2200.319,147.96313,15348.0556640625
452,244.15933,3851.0825,-3651.12,3817.4426,-637.2662,1119.5796,9535.7421875
453,-5311.584,3076.5093,-579.3596,-314.12305,-604.41614,1257.5592,7693.89794921875
454,2194.1152,-1148.4049,-1627.3668,-3240.584,705.19446,235.65271,6794.51513671875
455,14791.581,3408.6455,-489.5545,8057.2466,1599.5947,-1147.7648,19887.8359375
456,4971.284,-3027.3206,-1113.7573,217.85602,-277.94998,-676.0401,7353.82958984375
457,2063.066,-2867.4905,578.2889,821.6237,-289.616,765.26587,4819.53271484375
458,5342.3125,-4681.7007,4070.6963,-5233.044,-2584.4827,-2342.1707,14422.2509765625
459,6562.896,-957.5946,-127.609344,-2258.8809,59.261017,-565.1397,8202.50390625
460,5227.266,-2439.4756,141.96802,-2167.2246,-642.9612,928.8907,7973.130859375
461,-1023.9642,6158.2363,-5986.4395,-139.89343,-2063.841,1281.7285,11384.9541015625
462,-4702.0503,3331.3022,-1900.9716,-1632.6625,1889.0917,-1535.2302,8697.8330078125
463,-2861.7488,-568.94,574.5993,-980.31256,193.4781,-130.72871,3497.59643554688
464,-3340.9695,-3042.164,18.936451,-534.3658,-2101.856,1037.2952,5264.2451171875
465,-6222.4844,-12201.358,-2179.496,-5969.474,-2364.0496,2042.0946,14575.517578125
466,2460.008,-2616.5442,1407.1215,2379.6113,-328.66467,-1821.6399,6985.82470703125
467,632.7237,2927.5159,4573.9517,4017.9282,-1492.0519,149.20914,8181.18212890625
468,-4786.451,-696.69086,-1520.9896,2560.7534,-504.2719,1065.5056,6154.3134765625
469,-209.00879,829.5734,50.421234,-2496.218,273.47263,-312.6708,4481.90625
470,-2842.8752,-1367.284,1112.7318,-2086.4656,-49.043934,-1060.7528,5331.994140625
471,-16343.294,-9643.168,4446.1274,298.62125,-2909.4482,-786.4137,19113.28125
472,-3642.3616,-1612.504,-1162.8184,-669.7801,3567.4727,-828.81964,6842.701171875
473,-5226.416,-668.40576,1892.3182,-332.68622,2096.345,-2496.976,8439.5068359375
474,-11137.247,-10165.089,2702.1843,4983.0137,-5.5913367,-2376.9187,16445.712890625
475,-78.19016,767.4101,5.2705913,640.46875,-437.9868,104.003,1577.96667480469
476,601.1635,1950.6345,848.1454,2050.7024,150.19115,282.263,3804.15673828125
477,4447.777,-5865.479,1223.077,-3633.7434,552.50214,134.00624,11139.4208984375
478,2469.7231,-4809.6943,-63.34005,-1129.3197,-74.17886,308.49545,6715.296875
479,682.6218,-1761.4858,425.99493,1451.0321,922.9492,-149.71548,3788.34130859375
480,-2889.4878,-3583.789,-623.5622,2514.5513,-591.88055,687.1802,5350.3486328125
481,1168.2076,-1669.3789,85.89755,4292.1807,-1290.178,849.3705,8281.216796875
482,-3364.8738,9.417899,368.47116,4035.9177,-155.71907,-115.21014,7855.23876953125
483,-4271.44,-2776.4988,215.83832,155.16292,670.09753,-100.22793,4136.6357421875
484,-1232.9312,-444.3511,-1071.3173,-1336.037,-513.1771,864.77094,2984.80419921875
485,-3926.877,-4996.949,565.862,2861.6624,2785.17,-620.87366,8667.9072265625
486,-1774.045,-6297.6997,-5328.521,-6367.4204,1486.9502,581.10114,12095.3203125
487,-7028.7695,-1279.61,-1138.3428,3064.6753,-342.68716,408.94522,7931.9404296875
488,-6792.0996,-1847.9385,-901.032,905.16315,888.39606,7.8492026,5903.29638671875
489,-2992.3965,-396.486,170.76413,1005.1719,-157.63211,61.56956,3413.2216796875
490,2263.0925,-5201.3438,1840.5913,3151.0051,180.91708,208.89465,9097.15234375
491,495.2662,-5202.648,-633.87836,1384.4403,-140.9467,300.57455,5778.2421875
492,1140.5311,-1367.3877,-233.59229,721.7004,-1166.928,343.15735,3276.07543945313
493,1692.8805,-2186.5303,-142.1727,-1476.7119,502.3152,-425.1908,4374.89208984375
494,-2350.898,1749.6217,-60.943497,-1025.6316,763.4218,-676.258,4352.5078125
495,-5109.0156,-864.2523,-623.66547,-931.8537,49.38687,458.79623,4726.625
496,-7163.259,826.7132,-546.85925,-2906.9922,-1273.7386,1246.9039,9467.5712890625
497,-156.60732,-2996.8933,-564.247,-166.66478,-330.68442,-256.6537,2772.10791015625
498,12.9548025,-5915.65,-2724.9373,-2432.0986,-2752.8125,2926.3904,9622.0087890625
499,-243.63663,-6600.013,1113.0345,-49.590763,-205.44873,-155.1602,7146.59521484375
500,-2946.6096,3254.702,-1181.9545,2870.4702,621.24396,-123.476875,7519.9384765625
501,-4873.5674,3262.099,1833.2878,938.0789,397.2228,-918.6709,7889.9580078125
502,-4137.8667,408.0425,-1551.1078,296.15363,1186.2062,1172.3146,4919.8359375
503,-5207.5034,818.66693,503.25372,283.60922,276.64175,-449.0763,5965.68359375
504,-16.247784,-1981.9838,-1255.0293,-6363.3486,671.38385,1532.71,11525.6259765625
505,1324.2002,-1075.2972,1233.2563,-2905.49,-450.91086,-447.41208,5664.251953125
506,4914.135,-421.0488,3334.1348,-5074.012,1151.8389,-3140.543,11547.1650390625
507,-593.20056,-2516.203,701.48846,450.95734,70.25256,485.76547,3032.59716796875
508,-307.53003,-5933.571,-481.38562,539.49286,157.60997,236.0863,5640.86279296875
509,5202.432,-1278.5298,2036.3015,-2573.6848,-606.155,-829.9215,7385.6494140625
510,-2285.6038,2682.2505,855.4269,4555.353,1168.0201,120.43545,9237.505859375
511,-783.2606,2560.774,2.7214084,228.03018,-97.30078,67.9836,3061.08544921875
512,-2594.0547,-2186.2786,350.58078,1856.765,-1945.2537,-1208.2299,5806.08544921875
513,-1892.964,1990.0024,-401.48462,775.4849,-126.98298,-57.88446,3656.92895507813
514,95.31407,-115.3992,1694.6912,-3930.1418,706.9752,-277.2091,7141.94921875
515,-996.9484,-4468.886,-394.29205,-1946.0635,-450.84357,191.10005,5156.62255859375
516,-291.64664,542.1274,-6922.114,-8062.084,-1596.1824,5709.044,18724.345703125
517,-3544.257,434.8556,-413.37543,1824.5916,-238.47774,291.82037,4857.0693359375
518,-2144.5244,-679.7136,1144.2345,-2251.5576,158.10663,44.094322,4840.82177734375
519,-5325.9863,-1075.4072,2641.026,-4739.3643,-1130.4082,205.29938,10909.6708984375
520,19.376171,-1314.789,-1700.2698,-497.39197,-87.827515,-105.13722,1800.38500976563
521,-2590.9463,1017.1175,-192.69035,-1274.0781,247.73622,-48.01627,3895.83862304688
522,-4243.368,4.825138,-682.7051,-911.773,-576.6636,24.319923,4369.4931640625
523,-3989.1523,-1936.2765,670.08844,235.29044,-598.9537,226.9713,4213.650390625
524,-6713.641,-5022.93,-2343.752,-355.564,340.94656,-490.95435,4002.16625976563
525,-1782.2811,-2770.9988,427.18753,1707.3057,415.53094,583.47125,4281.103515625
526,1821.5516,-894.0961,99.52303,3862.4758,1318.5052,-855.8727,7604.78662109375
527,-1496.8422,1893.7206,2298.7148,1547.7585,-913.69025,-1609.2075,5522.03759765625
528,-2901.326,-16.321192,778.81104,2629.7068,128.23175,-500.01358,5726.6826171875
529,-2552.6426,-2942.9373,-953.611,4926.615,-260.82672,-723.7507,8827.427734375
530,294.32953,-5810.677,-244.31569,843.01294,-477.9208,-190.63991,6099.10498046875
531,24.041561,-8511.841,-1896.9674,755.8168,-162.13907,467.87967,7912.2333984375
532,-415.25165,-1995.9307,-240.65977,771.59174,108.75058,12.586873,2151.05078125
533,-860.1301,-4836.14,235.85876,690.7959,-45.440098,-664.165,4912.09228515625
534,-1690.6399,1224.8805,-855.55084,-910.73395,274.18796,377.78854,3147.21020507813
535,-387.8794,-294.6198,744.9681,129.06287,-198.06784,-36.88664,1165.39184570313
536,1381.0858,-331.4443,1843.5496,523.3142,-370.05435,9.129217,2274.04028320313
537,-202.09383,-973.41736,-124.52689,-840.9473,73.30478,105.740295,1682.86267089844
538,1052.906,2105.058,150.24318,-856.5396,-168.22667,439.9064,2395.41162109375
539,371.59683,-2807.9114,-438.06702,2641.587,-308.15482,384.92532,5463.865234375
540,-5815.538,-270.6511,-2303.5703,4029.283,-263.27457,254.16702,8527.2109375
541,4089.927,785.05524,-1144.6265,388.0946,63.297695,12.294319,4635.4638671875
542,-4252.1885,-194.6053,1431.9531,-3648.27,1146.919,-525.3344,8391.2685546875
543,5282.6333,-1021.99817,343.1964,-928.8447,-282.5119,230.63156,5999.36279296875
544,-326.00888,-401.15723,139.93187,-614.81824,-354.9521,306.24478,1432.16540527344
545,1981.8292,-1612.1992,-499.64886,-1382.9401,-537.4996,589.2226,4219.25439453125
546,1616.46,819.43097,778.04034,1340.9724,-175.88399,176.2334,2500.11181640625
547,1820.0308,-1342.7905,-636.1247,311.45047,-204.28941,456.02762,3050.87670898438
548,-3695.5305,-731.4226,-358.40793,-2364.6914,-127.53494,612.72906,5289.71923828125
549,-2759.5962,-1179.7491,946.7973,-1538.4131,267.92975,-496.992,4293.51171875
550,-2854.2273,-6525.0566,-1652.4368,-5763.03,-470.22443,375.32593,10956.9306640625
551,776.4049,1327.041,496.03363,-340.63425,167.16083,1157.9711,2234.01098632813
552,-4814.832,189.99922,-75.70737,-810.65295,250.00116,-350.47943,5129.97119140625
553,507.73633,644.52563,1549.766,-490.84177,-317.15817,-133.9678,1428.42065429688
554,-921.7869,-1017.8189,454.22885,2434.4597,133.39897,191.72981,4469.70166015625
555,-1453.6359,668.50507,500.19916,1816.8925,123.97649,35.48176,3758.69970703125
556,-2495.4075,-4526.8037,799.2933,1283.9668,-0.7729282,-403.0855,5206.4970703125
557,-3294.5564,-6070.389,-1988.65,2398.8733,390.9043,-65.38482,5547.12890625
558,-750.34296,-71.30899,-675.17346,-2138.669,-168.8676,856.3857,4052.54833984375
559,381.15823,-1364.4417,-686.21893,0.18903694,-241.10225,-89.84053,1588.01904296875
560,2365.9744,803.2042,1129.4904,-723.80585,-120.101776,-394.22238,2029.77697753906
561,252.86269,3555.3865,-244.99942,1372.7417,-534.5336,-191.15164,4406.67529296875
562,-245.43541,-1373.5851,-29.864819,30.470715,-93.27037,-77.14603,1268.51342773438
563,-105.711,-2010.535,-583.01105,378.0425,258.3867,-113.92234,1901.30798339844
564,-2038.2144,-181.37082,-1559.623,620.3493,-149.61914,45.327076,2004.01330566406
565,-2775.0806,472.98584,-1022.9855,346.1802,-481.719,-465.23422,3103.84619140625
566,566.0648,2400.6238,64.09399,779.6398,-134.85477,558.7713,2711.68310546875
567,1305.4427,786.2306,559.7261,-674.7493,-67.93542,536.73315,1637.81640625
568,7.0913606,199.03601,1440.2511,-1838.9604,-568.3673,-158.53589,3606.32153320313
569,830.947,-1761.8625,-1857.3052,1619.6167,2543.3503,884.27454,6049.82861328125
570,-3429.9495,675.98004,1464.4222,1050.0809,-1489.5039,-376.14172,5577.26708984375
571,-2966.4866,255.16917,187.23022,-1716.4238,-863.5309,313.81992,4640.6513671875
572,7281.886,-1249.5743,-1102.7334,4785.3965,1113.451,-3334.0713,13316.2333984375
573,-2560.3408,-394.22595,680.1325,-1607.412,-929.17053,195.70538,4316.22265625
574,8272.058,4997.841,-3615.4685,-8760.045,-112.710976,-702.11334,18569.96484375
575,11835.239,3488.3142,4618.8022,-6642.207,-1276.7836,-1854.3882,14459.4814453125
576,16525.691,777.2054,-4860.4673,-3309.595,433.19666,-1647.01,20252.015625
