Element Label,S11,S22,S33,S12,S13,S23,Mises
1,16169.031,10800.645,23150.27,-14007.135,4167.88,-13034.544,35573.11328125
2,-151473.58,-152355.55,-189072.19,1244.648,3179.8923,5827.0034,38963.0234375
3,210605.78,205125.89,235725.02,8582.158,-5612.8105,-10425.505,37949.97265625
4,111805.4,98325.7,106451.29,-4723.9644,-4698.8516,-7128.981,20587.59765625
5,-754328.5,-755694.0,-755858.75,418.30884,335.05115,584.6649,2000.98046875
6,-136935.45,-122261.38,-163933.38,-4985.9766,-338.77057,1353.1705,37693.5390625
7,164614.72,128285.72,157392.42,11519.062,594.73865,-3715.6104,39371.61328125
8,340351.84,368790.62,379213.9,-8825.481,-5183.627,-354.55246,39095.89453125
9,-961100.6,-954816.2,-930701.75,6176.884,-2523.1438,5344.427,31492.779296875
10,859547.06,862259.3,864219.44,-1299.2278,-1831.5376,981.6195,5876.48193359375
11,-354274.28,-338389.75,-382775.4,921.527,642.00073,754.6481,39023.73828125
12,689464.06,653021.0,692846.0,-2803.177,-660.3771,-5305.668,39649.8984375
13,-296546.75,-257500.73,-264519.97,2112.1318,1911.4087,-5298.651,37528.10546875
14,130187.81,122701.2,134174.55,2771.259,2187.2268,1192.746,11977.05859375
15,535610.44,534648.06,533979.0,425.36432,-688.967,-80.53988,2000.99743652344
16,3254.781,-3511.4246,-10623.236,16668.088,-7782.098,-7141.9497,36230.65625
17,-1313.8711,18042.547,22093.668,-5237.153,5452.0327,-3544.0312,26050.6328125
18,68345.36,103400.06,94063.11,-11170.731,-7717.013,-2185.8591,39446.84375
19,207920.1,208410.12,207098.23,-708.0747,541.7572,315.7419,2000.50268554688
20,28157.785,26568.455,27078.025,192.18712,-278.542,386.534,1663.59448242188
21,-45693.754,-33537.715,-60770.03,-2609.6914,-15894.076,-4708.916,37458.63671875
22,24838.2,-2537.5881,-1035.6757,8673.928,-2986.704,-4750.423,32105.220703125
23,58604.586,58566.51,57586.52,888.00287,-461.1567,0.33295116,2000.69763183594
24,11587.0625,12125.576,10914.755,940.5184,-286.0244,15.778581,2000.9853515625
25,2981.091,1063.3813,2096.221,-118.17304,560.1463,292.73184,2000.98571777344
26,43618.867,44871.58,44158.74,579.86017,776.90424,3.8615363,2000.98522949219
27,46374.65,46253.32,47193.727,-341.30893,52.106525,976.61584,2000.98547363281
28,17023.084,17808.03,17055.557,808.15027,596.379,358.64627,2000.97729492188
29,15080.76,14774.145,15353.884,-347.17633,-751.83,-751.49835,2000.98522949219
30,7539.1245,5939.569,6789.985,344.78757,-282.3359,703.9574,2000.98522949219
31,48515.637,47677.273,48187.965,-964.0587,475.71857,-20.618921,2000.98510742188
32,-19914.557,-37022.746,-18543.684,13262.144,-11756.399,-3180.1504,35925.68359375
33,37726.566,38105.35,36443.754,-196.59416,-233.3334,2307.8015,4304.89501953125
34,8967.081,7269.7637,-17901.062,-13110.811,-4642.896,8323.226,38306.03125
35,-20993.299,-29856.791,-56587.547,-12029.117,-1160.2609,6503.1313,39937.859375
36,-6377.579,10150.399,14258.249,-20135.912,-3085.1765,73.147026,40035.96875
37,7159.963,17006.746,47336.88,9307.695,2394.7249,2550.6062,40151.59765625
38,-31216.98,-6686.514,12169.814,2762.498,-5876.321,-2839.8855,39630.0625
39,34491.043,26159.988,63413.297,6254.6006,-6051.234,-2265.6736,37275.57421875
40,2714.4658,-29833.023,11317.857,4891.737,3616.1355,4375.321,39772.13671875
41,623.7959,-12874.306,2840.1765,-1732.5836,-11523.329,8946.457,29402.58984375
42,12005.098,-327.34302,-15759.766,6920.514,57.90944,-7762.756,30083.880859375
43,674048.25,673155.25,675244.0,426.0628,-231.91582,27.676962,2000.828125
44,671251.1,672021.0,672340.5,896.6633,-51.153522,-463.1161,2001.01416015625
45,323240.8,325083.22,325007.72,-403.16443,210.76277,-200.23648,2000.5576171875
46,555589.0,554574.06,554982.94,489.6968,664.175,626.8605,2000.98742675781
47,95611.2,96773.14,96105.805,557.1056,654.8495,505.4112,2000.984375
48,-472610.9,-472526.06,-474542.34,119.65217,-140.19173,13.201959,2000.98815917969
49,514174.3,513132.44,512097.97,379.56577,-80.30995,-326.0234,2000.96228027344
50,78857.27,77579.19,77610.0,189.43867,504.26898,-716.0908,2000.98803710938
51,78369.11,78686.95,78575.8,779.17694,396.27286,-737.88965,2000.98474121094
52,-50628.008,-50931.383,-51027.15,379.19278,-405.0417,-991.656,2000.98547363281
53,96106.29,95509.83,96447.66,-669.6679,-69.488525,809.9755,2000.98522949219
54,7426.5513,5763.4077,7065.2246,399.9577,-212.8647,603.44556,2000.98413085938
55,69006.61,67979.53,68524.16,-139.91304,215.37688,-1002.31775,2000.98596191406
56,-243245.06,-243737.23,-243031.8,1007.17163,407.8648,-151.06737,2000.84680175781
57,-90288.9,-91670.2,-90823.1,192.61319,838.09717,-331.63474,2000.98559570313
58,-101048.04,-100878.94,-101407.97,454.68878,63.13793,152.52155,959.678466796875
59,10090.647,10891.241,22242.402,-1217.0643,1662.6986,2698.6301,13159.130859375
60,4119.5605,-15096.012,-39862.598,-951.58417,-638.442,1651.0696,38348.96875
61,-1986.1755,7696.327,-2519.2883,3048.576,-3043.1575,-2877.872,13405.4931640625
62,-9511.529,-11140.368,-44550.51,1489.7731,-8833.116,4019.6064,38242.80859375
63,854.31055,-30405.84,-33368.97,-215.35982,-8919.835,-1764.0398,36424.8515625
64,14847.061,10586.083,4539.2563,21210.48,-857.9614,794.90515,37871.3984375
65,29267.83,-5129.7827,-1489.0806,-6511.9023,-8312.906,-155.67816,37494.2578125
66,-18681.043,-27659.215,-58515.11,9466.168,-2118.7502,-1418.6125,39975.65625
67,14527.215,29648.871,12511.667,-15684.292,-2179.0505,3514.569,32442.220703125
68,21779.438,11545.182,13561.422,21996.176,-1633.8359,-4379.2876,40065.05078125
69,27634.945,7323.619,-3087.4617,15851.293,-6476.721,222.11461,40152.03125
70,60493.07,33166.28,21397.238,9637.468,-3973.553,-1087.4867,39197.34375
71,-203808.6,-226182.11,-220010.6,704.9252,-3651.9385,-17496.658,36884.73046875
72,-424482.47,-433270.66,-419148.3,-13785.373,-9684.588,-5347.9893,33012.86328125
73,-3515.2454,-7795.1978,16421.928,-17489.742,-3202.151,-1861.9253,38209.6015625
74,922595.06,922742.0,922428.25,-106.75264,-31.298927,1139.1337,2000.98266601563
75,-1214038.4,-1207072.6,-1211056.1,-7094.8096,-10737.285,-8893.956,27763.755859375
76,322067.12,304780.3,336248.7,-11144.629,203.30649,-2602.9373,33736.66796875
77,447133.25,447868.16,446314.22,170.31554,128.60397,-827.55505,2000.99780273438
78,934623.2,933786.8,934637.7,314.09558,-957.2646,283.298,1999.41711425781
79,-36029156.0,-36029170.0,-36030064.0,-805.03424,-452.16705,-458.81433,2000.72021484375
80,749174.44,751134.7,749159.6,-138.49283,-127.91517,-91.66674,2000.91772460938
81,15231.467,-19891.344,-3435.4517,9824.984,-3810.4702,-5901.78,36933.37109375
82,8979.262,-9938.022,-30099.303,-10193.928,-7142.919,651.886,40147.5390625
83,28189.383,43325.81,56455.832,-3803.7122,8116.391,5226.609,30384.78125
84,-2171.687,-7134.3965,-2959.2793,-7554.471,-4538.3433,394.94913,15962.7041015625
85,-15035.884,9751.779,10351.944,-12369.089,2944.466,-7838.964,36041.7265625
86,-17723.375,7195.2637,-35818.562,2920.9646,1823.203,-2493.1133,38124.75390625
87,-3573.9102,6530.0137,-35609.58,412.18283,1638.132,-898.7976,38249.7421875
88,63898.64,47041.477,88801.08,5810.9805,-1037.1265,-1969.9803,37950.6484375
89,73420.375,70973.96,102850.83,-12300.551,-235.60889,271.4241,37395.63671875
90,54175.164,41206.402,82121.72,4671.499,-1448.6624,-1214.0952,37253.421875
91,-53358.21,-37646.59,-80913.97,1828.7032,-31.352922,-2702.8413,38354.5546875
92,5962.1406,31832.912,-7504.9277,4943.386,952.2423,-6979.8794,37699.46875
93,-6590.3887,-4680.5396,-17822.86,13299.67,-903.69666,-3800.9136,26975.966796875
94,-4022.4526,8362.93,5942.4795,11042.701,375.3266,-5018.195,23897.09765625
95,8342.18,-12348.652,-16794.32,12008.051,1884.0695,673.2051,31375.908203125
96,-15770.432,16426.748,-21516.367,-8571.663,-5489.9263,358.56973,39571.46484375
97,-23196.521,-3536.484,11461.289,-14595.297,-2156.2915,-2795.446,39784.01171875
98,-18587.396,-3718.2412,-5426.3438,10244.399,6767.4194,-5282.666,27102.916015625
99,-1412.6353,-2873.025,6319.2266,21329.09,4791.5933,2465.4832,39052.65625
100,194180.67,174641.28,219724.31,-2023.4193,607.8517,816.60565,39354.33984375
101,71827.766,43099.47,26918.521,-1449.7543,-552.94495,305.04846,39490.390625
102,1604393.0,1605304.8,1604869.8,-93.575516,1056.1431,-10.0403805,1999.19665527344
103,292.12317,1362.8885,398.3718,-563.5433,-33.02637,817.2857,2000.98559570313
104,93478.21,92395.68,92816.78,693.0231,159.41104,728.81964,2000.98913574219
105,-217396.97,-217091.69,-216100.67,-913.68,171.40033,-105.71165,2000.98461914063
106,3569.632,2778.8547,2341.3186,440.3654,-620.36035,-606.87067,2000.98522949219
107,35051.49,33653.67,33677.383,186.26056,-580.72516,567.6939,2000.9853515625
108,13142.158,12022.445,13687.575,691.0554,-18.922352,-368.8931,2000.98486328125
109,96592.93,96933.35,98366.97,304.43707,-161.12071,-574.1141,2000.98132324219
110,-1535.529,-10420.822,972.7422,3959.0293,-7679.6606,4983.8066,20149.314453125
111,-15610.992,-16749.23,-4313.201,7338.215,5335.594,-5971.9204,22265.234375
112,-2157.7783,-22906.643,-3453.6191,9290.367,-3027.5005,4945.7812,27660.794921875
113,25772.916,20151.738,114.6582,17769.277,-1862.835,-216.62885,38775.0859375
114,8231.313,-4051.7715,8869.787,1752.0249,-5295.7515,-7448.064,20466.77734375
115,34252.93,27593.719,39848.844,20836.6,-5751.499,-529.55347,38929.37109375
116,-1392.9913,7725.289,-12083.307,-16725.9,-6367.3047,9277.887,38910.609375
117,-100328.22,-87813.86,-68961.46,-16364.235,-1781.4248,-1605.8844,39605.16796875
118,565756.44,600714.1,595969.4,-2179.147,-696.2371,7079.362,35280.8671875
119,-376763.38,-378469.9,-375159.6,288.5372,-636.95184,-1119.3965,3667.05541992188
120,691634.75,692067.8,693048.4,-50.777775,753.2208,-490.05887,2000.98071289063
121,1675250.8,1675917.5,1676928.8,-90.13772,-194.124,755.43585,1997.72619628906
122,845009.1,846257.44,845405.6,711.9,-641.4308,-97.97775,2001.01086425781
123,44486.312,12107.281,39859.57,6749.088,-9406.174,6789.5347,38214.80078125
124,5988.203,-17074.158,-25580.51,-9043.128,-6238.5806,8455.014,37107.453125
125,3405.989,-3398.1921,8868.54,-20000.512,-4191.8535,1765.4,37086.80078125
126,45973.613,13848.357,1367.9785,1147.6876,-599.1134,2190.9387,40101.82421875
127,580064.0,602052.8,577116.6,15672.29,-5986.861,-3744.4072,37992.83203125
128,65514.918,66403.26,65186.574,572.4597,350.53098,698.4634,2000.98413085938
129,162229.44,162536.1,162047.8,-607.849,353.8782,-882.57416,2000.91833496094
130,195147.66,193329.06,194656.05,11.156567,-655.83264,-139.37138,2000.97998046875
131,-735309.4,-733421.94,-734400.8,38.843506,-643.44476,167.62299,2000.98315429688
132,3765.1677,15817.064,-11961.76,-15537.753,-8888.388,3210.7852,39677.7890625
133,-15591.581,-13647.35,-5960.523,1551.9137,-6874.93,6356.2266,18655.736328125
134,-24062.303,-7376.8086,-52060.527,-2045.2133,320.08484,-136.0981,39273.171875
135,39316.438,27344.506,16292.793,-17008.367,-1253.3945,3782.0483,36238.875
136,3821.4805,16926.732,28266.88,-11394.541,4631.079,-7446.7246,32698.173828125
137,-6120.001,-5687.909,-43578.547,3191.999,-3485.9133,-2810.737,38861.76953125
138,630334.06,628612.06,628442.94,488.03644,5.020814,-36.769943,2000.94738769531
139,927.5387,-10941.839,11642.724,-2277.7488,-755.8812,8096.0957,24429.462890625
140,-88195.08,-87388.516,-86314.34,478.99176,83.10084,-454.12512,1999.6201171875
141,167293.03,168405.16,166976.33,-690.4443,-504.36835,-201.09952,2000.99011230469
142,161197.5,166154.34,173281.1,-3359.6736,-18.290777,-2054.811,12538.62109375
143,-263086.56,-292048.34,-303273.78,-9815.846,-611.9874,1208.6642,39805.30859375
144,23402.236,3687.7695,-19959.352,-6482.99,-4622.5005,581.47217,40065.46484375
145,-165966.84,-182688.22,-152695.95,-16095.46,-5434.8813,-4714.3394,40126.16015625
146,-33351.11,-17139.074,-27049.266,-20786.271,-1395.5697,2804.7383,39064.40234375
147,23293.285,27194.32,59362.523,-10290.632,-605.39484,-46.62366,38656.15234375
148,9120.154,-4840.7725,38193.15,-3935.5752,-25.624533,-1131.9847,38682.61328125
149,-1814.4648,24496.57,5167.8315,11995.641,-2646.8337,-9914.481,36123.48046875
150,13536.169,19310.117,-11838.932,15112.107,1080.5011,-358.523,38894.26953125
151,92818.45,92859.45,92600.48,-137.56218,196.1835,1121.542,2000.98364257813
152,29755.545,30633.314,29986.322,975.7386,102.48775,-406.17166,2000.95056152344
153,5914.46,7047.8125,7248.024,101.57431,74.25573,-304.37006,1370.0
154,70198.25,70924.86,70599.375,-1015.7186,13.108159,-412.70282,2000.98486328125
155,86336.8,85955.984,86000.9,672.5715,160.09001,901.8339,2000.94689941406
156,2103.7266,2817.8064,1723.7499,531.12946,-229.00787,831.60236,2000.98547363281
157,7030.7217,-11831.821,-33250.05,-3529.2188,-5906.5825,3749.7222,37453.2890625
158,-4057.4214,-6888.4443,21781.658,4888.9546,13834.624,-5892.7544,38715.546875
159,7107.6675,12567.431,6025.307,-13847.425,-7390.02,-10584.589,33347.8828125
160,-21576.1,-17534.969,-18854.295,4684.862,-3364.324,-3310.9912,12059.3359375
161,-9166.309,-26176.037,-33888.363,15685.135,4867.448,10374.387,40150.0390625
162,-29984.404,-11022.408,3646.5732,9567.415,4426.472,-10147.497,38667.7109375
163,970.93945,-17554.654,-29844.852,14213.121,1125.875,-1776.7054,36622.9609375
164,-3421.1802,-16623.574,1045.582,6446.097,459.60767,-2102.6787,19793.462890625
165,2561.998,8868.314,27330.033,2864.9148,-5629.4004,3392.9402,25519.79296875
166,-4679.2637,27469.488,22808.531,-11954.752,4849.837,216.73723,37481.66015625
167,26396.176,9603.391,17121.865,5888.751,-2078.7979,1927.8285,18450.3359375
168,9898.871,32045.244,43682.035,399.09802,-1112.1383,3677.0486,30468.671875
169,-15215.496,5261.251,-14702.133,-12089.019,2927.8152,2505.7769,29866.953125
170,-174939.6,-176052.8,-175875.86,-11.728412,569.5034,-807.6134,2000.92333984375
171,-181730.16,-183216.81,-182014.72,-22.698969,-754.649,376.69525,2000.95104980469
172,125860.79,124690.33,125613.0,110.18111,-267.6389,-932.96136,2000.97802734375
173,-13879.437,-26589.738,8272.033,-9453.315,-3253.7588,-1077.9735,35172.91015625
174,45977.152,46715.344,46175.277,331.45276,-938.2512,-445.52945,2000.98571777344
175,69899.34,69777.81,69778.516,-126.48689,-368.93347,-1085.192,2000.98547363281
176,-8967.921,-16579.55,-48470.324,6035.5913,-5297.4517,1540.3483,38965.2578125
177,24536.398,32535.584,61743.6,-6774.121,3061.8237,4108.956,36975.3515625
178,76318.81,91749.33,117626.41,-7615.082,594.3667,360.99802,38502.46484375
179,183904.25,183752.06,183889.25,659.2153,148.58238,933.2586,2000.9853515625
180,36446.598,36645.535,36482.24,468.72473,59.22953,-1048.8969,2000.98547363281
181,6824.259,8567.285,7952.1597,231.02257,678.14557,-199.8317,2000.97399902344
182,95528.92,94998.36,95159.54,1070.2572,-311.85983,-133.99823,2000.98645019531
183,104541.4,88657.43,131746.47,2619.4504,96.54174,1076.7444,38060.890625
184,-8125.22,7910.3955,-36417.21,-2842.4753,395.4901,-2420.6794,39415.02734375
185,2709.1858,-3047.2651,18501.957,-326.9541,5112.9224,-5105.127,23030.24609375
186,23882.035,5507.4546,-19290.035,6845.0957,-2887.631,1875.5908,39803.50390625
187,5748.7134,-2204.7588,-31900.5,-4682.5176,-4018.0525,-3469.7507,36491.21484375
188,25362.646,-1218.7324,17176.172,-6482.8535,6377.027,-4942.842,29620.212890625
189,8698.5625,7199.1304,-4179.0728,4248.6963,6697.6465,-925.3364,18441.015625
190,2514.505,16010.395,30521.924,12228.118,5160.8843,5534.8545,34770.07421875
191,-1332606.1,-1332775.8,-1331153.6,596.3277,-318.11798,286.81314,2000.52783203125
192,71845.234,72583.28,71636.17,1022.5214,-168.13808,115.129005,2000.98571777344
193,67144.87,68457.35,67584.375,-848.1263,231.60493,-339.6694,2000.984375
194,100208.48,99292.9,99499.72,877.43176,447.91965,365.4631,2000.98547363281
195,13661.9375,13283.583,14184.3125,1036.7489,-13.231224,-234.66446,2000.98547363281
196,10085.92,10654.835,10267.21,402.3942,-742.648,732.62164,2000.98388671875
197,4654.646,4701.0137,5182.8525,132.66658,-1007.2648,465.73752,2000.98559570313
198,-49667.094,-56726.367,-52470.457,1256.2732,-2583.4749,8592.304,16856.548828125
199,-17765.61,-22127.072,-36771.168,10974.686,-8068.0664,3295.5205,29774.740234375
200,-922.97253,-1867.5703,-6375.9062,17294.455,1168.1614,-791.3912,30475.287109375
201,-28777.7,-27526.209,-13260.954,-12689.398,-2794.1226,-1149.0916,27080.650390625
202,-12630.112,-8169.801,-37300.18,-13089.027,-5658.1304,397.97787,36729.1328125
203,3381.78,9123.469,36384.645,10628.451,-3089.5037,-7736.218,38467.36328125
204,-17567.014,-11664.5625,3441.2256,-3642.81,1056.819,-967.40625,19953.78125
205,-21793.107,-15669.293,12468.0,-9863.348,3997.3394,-2082.0989,36801.01171875
206,1720.5586,-2099.9482,37584.812,747.5758,-1967.311,-4.8673897,38093.9375
207,-22804.758,-10971.843,20511.498,5127.2207,1197.2258,1541.1365,39925.54296875
208,-7857.093,-4542.557,-245.2644,4756.852,-2255.01,3798.2573,13042.8076171875
209,-17825.77,-2454.5337,12940.482,11204.185,3704.4863,-836.43195,33612.37109375
210,2428.0127,-18590.648,-13994.55,5357.6265,-5101.197,3832.2722,23969.615234375
211,20055.006,-17852.854,-14105.131,8137.517,5317.4165,-2570.9036,40153.3828125
212,13610.156,-4387.927,25159.928,9352.994,5834.3022,-5006.1655,33240.63671875
213,23118.46,-11833.432,11281.046,13156.983,6129.0444,-3203.4973,40135.02734375
214,8531.356,-31723.232,-27063.742,-4435.2197,-705.15924,5449.552,40052.15625
215,6411.5645,-11664.061,-32306.324,1866.282,3061.955,2611.293,34423.62109375
216,1246.5696,3307.7266,9592.449,20627.693,1266.9528,-2114.8882,36761.921875
217,-20713.186,-5330.7563,11621.601,-15025.21,4711.925,4301.8984,39801.58984375
218,-21946.654,-17277.158,-12057.977,-6879.784,551.2036,4547.5117,16684.134765625
219,6738.3936,-16325.012,-25490.385,-8228.773,-397.1305,3765.2275,32763.568359375
220,7857.738,-23619.887,-2252.5742,3107.7178,2090.2131,-1316.8578,28672.17578125
221,8841.986,-16236.275,18476.436,13094.001,-2652.1602,-4471.88,39481.7734375
222,-11645.293,-2275.4053,-32777.582,5327.0854,-1740.0889,-5776.201,30441.5234375
223,9381.604,-245.18945,6436.415,-3611.9033,4694.9585,604.9395,13392.529296875
224,11228.127,-13365.986,17249.66,-6910.587,2615.3496,-8848.247,34465.734375
225,15009.898,-25763.594,-6507.846,2764.5588,-3776.1328,-91.78773,36247.32421875
226,-5801.1934,4834.4937,1422.9503,2347.2783,6154.61,1855.1362,15131.548828125
227,-13055.272,11847.822,-31634.89,-3575.726,3513.4573,-2470.3657,39009.6796875
228,2940.0615,6124.5596,-12142.125,17157.695,4649.8037,381.27863,35129.76171875
229,-5713.5244,5112.0,-10834.768,-3205.99,6384.736,6327.721,21728.072265625
230,14243.615,-6291.7764,24534.197,13546.534,7838.65,6682.2104,40096.5625
231,724.30493,-12364.684,1970.0522,-6537.688,404.11786,4377.267,19374.583984375
232,-1753.5449,12761.642,30910.225,3591.4407,-3659.497,8401.78,33077.67578125
233,-3417.0244,17065.84,-8308.741,1317.0144,2576.022,-4181.324,24924.580078125
234,-14431.763,4645.1904,-20986.387,-1326.0409,-6774.11,-3964.874,26870.74609375
235,-4194.3687,13101.261,10651.93,3553.2812,-62.56411,8965.064,23276.203125
236,25982.434,18799.18,13712.5,21124.328,-1143.452,3748.3857,38714.30859375
237,-14064.175,-361.99316,-30327.25,2665.1362,-5245.9995,-6019.9346,29793.728515625
238,1934.6208,6019.112,-1565.7822,1226.6554,1708.297,2909.4543,9049.69140625
239,27781.904,-10874.277,-1799.7856,10617.31,192.3446,-3677.6155,40059.06640625
240,12973.378,5310.76,13553.712,2923.2231,-5117.251,5376.143,15950.00390625
241,19172.508,-21262.266,-10641.163,6345.667,113.55203,-6539.282,39590.96875
242,16207.41,-3993.129,-19976.12,9731.917,-4703.817,6389.065,38201.4609375
243,9322.528,-475.4653,-30974.123,3929.1372,-2465.4978,-7870.6104,39691.11328125
244,57714.69,62255.637,37236.953,-18601.18,0.33916757,-2027.6316,39790.59765625
245,34221.81,32244.781,35694.938,22265.492,-1226.3989,3956.011,39340.94140625
246,-73403.52,-61421.414,-31657.123,-8135.7847,999.28955,-601.5895,39859.47265625
247,26162.53,20257.281,-3319.7734,-15504.866,-2489.2197,807.5512,38363.07421875
248,-116501.94,-109710.38,-79103.74,-8751.957,-400.0009,945.00507,37732.05078125
249,17665.56,3452.2717,47622.188,-1922.6912,343.58673,207.71486,39201.69921875
250,-831870.9,-822196.9,-800755.5,-697.3813,-1014.49817,5594.4775,29311.837890625
251,789241.06,813224.44,786801.25,-7011.566,5919.0205,2080.5627,30087.318359375
252,-3412181.2,-3412181.8,-3410724.2,-811.0961,-2150.9517,-2400.8103,5938.7421875
253,-26169276.0,-26169696.0,-26170998.0,-485.71573,-278.47598,-443.19388,1986.98583984375
254,585336.5,583921.06,577634.1,3063.0662,-1478.3142,-2578.7354,10250.892578125
255,120889.766,122803.2,122482.54,30.95726,-434.09253,207.34784,1961.54565429688
256,859792.0,860315.8,861430.56,620.04517,-475.82498,-153.19946,2000.99304199219
257,10846.536,10860.875,9963.733,-75.47683,-823.18036,622.2853,2000.97216796875
258,702768.8,701433.0,702917.56,-276.52554,613.39233,461.63098,2000.67053222656
259,38701.293,38588.32,36952.582,-580.3791,-79.72897,-178.33395,1999.54870605469
260,370634.94,370373.44,370588.7,-967.38165,193.396,584.53076,2000.78564453125
261,294589.94,293205.5,294261.0,-170.51114,-229.41876,-854.089,2000.74951171875
262,129953.72,129753.28,128584.76,383.85513,-388.74414,-699.67645,2000.96960449219
263,22187.48,22212.303,22319.541,58.26221,-1045.2671,483.40622,2000.93884277344
264,44433.613,47416.71,51860.62,1047.2671,893.09186,949.81885,7091.78662109375
265,132403.1,132370.47,132323.28,-6.7571254,929.5309,-684.80945,2000.9853515625
266,119302.58,119318.29,119636.336,-207.88591,-694.23755,879.7718,2000.98474121094
267,89347.98,89587.87,89568.17,276.82184,-1108.4528,-107.75057,2000.9833984375
268,61593.85,61257.875,62995.664,-73.2797,-166.7022,672.1951,2000.98779296875
269,6845.0967,5583.64,6971.7495,-117.73602,-225.97949,824.9834,2000.91455078125
270,-35478.26,-34151.434,-36333.234,1202.0863,-1128.3567,-46.848248,3433.22583007813
271,42162.594,41279.195,42300.9,185.51982,-836.85925,540.9789,2000.9814453125
272,3092.769,4025.5332,3842.5684,-786.5063,622.8987,-289.4224,2000.98547363281
273,-109896.664,-110195.53,-111145.56,-848.95374,-379.08713,-211.31322,2000.76550292969
274,-427115.1,-427659.2,-427135.0,764.1529,-809.61475,0.65889674,2000.95520019531
275,160233.83,159929.9,159404.6,-193.70808,-331.25174,1005.6876,2000.9873046875
276,-130283.766,-130715.97,-130485.33,38.785015,1047.164,254.72108,1905.02746582031
277,397569.62,395843.0,396040.78,-124.55629,-116.72448,642.17206,2000.85705566406
278,30320.834,28831.887,30013.256,-730.2135,-111.2855,413.7465,2000.98669433594
279,4808.585,-20683.443,-25643.156,11077.353,-2052.5967,-5498.073,35669.65625
280,-167665.97,-169509.64,-169137.0,610.016,-74.46153,81.56133,2000.97692871094
281,15940.168,16326.336,15542.267,789.2564,738.4959,-112.4418,2000.98547363281
282,-4518.0195,-9714.499,-28540.605,1719.0732,-11372.753,-614.5052,29618.78125
283,-5688.496,-12418.53,-44324.45,-4139.504,-5377.065,3655.3738,38160.703125
284,46804.45,68748.32,81845.24,6836.134,-5924.883,4029.9607,35138.19140625
285,-11398.816,7676.279,14737.679,-5278.9946,-3115.0732,-9070.139,30131.978515625
286,-4362.4355,820.60986,-917.4891,-2607.6235,-1461.7958,5544.262,11828.0380859375
287,34526.46,35200.574,36563.73,159.91788,396.71622,-272.96063,2000.98486328125
288,14393.07,15123.612,14503.274,-1027.9183,-253.395,242.29361,2000.98022460938
289,-15216.209,-17425.645,-13368.596,8734.14,7748.7744,-6932.542,23781.169921875
290,-48307.438,-35175.934,-22848.953,9153.042,-6295.626,-11684.749,35582.328125
291,-21466.424,418.57047,21414.271,-3300.8784,305.6239,-960.1255,37616.4375
292,1010.4747,11186.242,36802.523,-10394.258,4881.4834,-7526.397,39824.03515625
293,-16644.3,3070.3213,-19044.443,470.39774,-3821.1145,-5537.5024,24045.857421875
294,-9172.227,-5485.8345,25765.574,-10708.056,-2827.9792,5511.022,39554.25390625
295,31487.629,37513.785,69346.875,6391.2095,-138.23872,2990.5652,37295.0625
296,-6575.3706,-15661.967,-18811.893,-20683.916,-37.842552,1640.8938,37585.44140625
297,4145.719,25699.69,46163.207,8143.7896,-2601.855,1218.1813,39346.20703125
298,-187939.23,-222727.8,-213067.6,5271.0425,1263.5109,1808.3423,32641.23828125
299,-17841.078,-2992.765,-34770.336,4912.8394,813.8778,4914.0547,30087.90625
300,-7871.5283,-23631.777,15088.255,-3787.302,-8230.856,-1088.0011,37245.296875
301,8475.413,11562.166,3128.7236,5385.4106,-4968.9834,-1798.7632,15013.5283203125
302,-3508.481,8963.105,-2188.7314,-1380.3676,-472.05695,685.51196,12190.873046875
303,19983.94,18249.738,19620.168,581.5196,138.64125,-375.39517,2000.96337890625
304,49675.76,48167.555,49624.21,-685.9746,-282.20673,-226.35033,2000.97619628906
305,23444.46,22619.693,22650.572,-60.449093,-963.25934,429.13815,2000.69323730469
306,16607.219,17433.686,16834.635,-909.3379,-317.55377,473.96295,2000.98571777344
307,72739.79,74260.48,72985.48,-221.0922,68.20913,45.589893,1471.759765625
308,205882.73,206724.17,207278.95,-695.0049,-524.497,286.3703,2000.75573730469
309,-39474.688,-8469.802,-50483.637,7387.3667,1273.4216,-2558.3594,40150.35546875
310,92715.59,91394.97,93277.15,-82.17722,167.42754,605.1421,2000.98559570313
311,-235956.31,-235849.5,-236024.45,-634.1803,-908.8294,-314.1898,2000.9853515625
312,36152.39,36033.06,35803.758,-316.49188,1061.71,-275.30624,2000.93676757813
313,3607.0586,21469.494,48781.695,1845.3427,4026.9973,126.493095,40147.22265625
314,706599.7,707728.2,707830.6,64.478966,-424.57437,826.861,2000.99133300781
315,110180.83,111914.164,110169.22,514.0877,-55.177742,243.04568,2000.97900390625
316,23132.643,25244.05,23902.568,-375.54532,68.95652,-217.08047,2000.9853515625
317,-853659.2,-854423.2,-852760.3,-574.7994,-91.83652,-550.3189,2000.8623046875
318,87698.42,87185.1,87264.4,983.98785,-537.9871,24.999084,2000.98547363281
319,-16315.091,-18402.166,-16867.988,-43.84242,-92.061455,-393.74518,2000.98425292969
320,-13556.364,-6398.157,-10494.778,-1581.0604,-976.00146,1032.751,7228.7265625
321,-12714.216,-11869.886,938.4502,14105.373,-3636.1245,4124.8228,29379.79296875
322,4072.9888,6089.7373,-14059.2705,12335.651,5888.267,-10824.37,35797.140625
323,1850.1455,-6177.6836,-40112.293,-3463.6152,1770.1703,-2100.9902,39332.65625
324,-8197.089,521.4484,9245.741,-14973.516,8342.825,-242.74254,33313.55078125
325,-27927.055,-9409.138,-49694.79,-8220.29,1494.0713,1024.9185,37847.171875
326,-14951.367,13124.68,14310.793,4199.272,-1055.6226,-2957.718,30090.888671875
327,9371.18,-18778.256,-26223.74,-9371.069,3062.6912,-88.76542,36729.1015625
328,3262.1204,14865.356,3933.7605,-1523.1078,-5394.0176,-1074.1215,15000.001953125
329,10504.274,9160.093,-27946.965,-3960.8755,-4026.8115,-5411.8516,40152.14453125
330,8058.3203,-5443.3164,25049.586,14797.598,-1264.3435,-5342.129,38048.9765625
331,-255.01245,4031.2412,-11864.141,20558.174,2320.904,3721.9436,39096.51171875
332,59661.78,25499.104,59427.72,10123.137,-657.94885,2727.8364,38603.14453125
333,-37323.18,-80615.45,-55796.504,-7450.5635,22.057638,-1385.9574,39850.0859375
334,-165732.17,-169214.67,-163395.3,-19907.555,2298.632,3828.4128,35699.8671875
335,1510682.5,1510432.6,1512015.0,724.79175,-235.09973,174.35925,2000.98486328125
336,85219.47,84488.13,83040.23,163.8193,233.74886,-150.0249,2000.53466796875
337,168043.03,167097.23,168527.4,-181.99875,878.3545,30.566832,2000.99096679688
338,29383.883,29620.727,29703.51,315.53867,936.8798,-574.2796,2000.96752929688
339,21360.34,23161.291,22624.545,-669.4213,163.2193,-70.178734,2000.98461914063
340,-244662.33,-242959.34,-244302.53,-435.4715,-566.59863,-135.41304,2000.974609375
341,7064.4453,34559.652,25624.1,-3663.2769,6139.4873,4192.74,28217.3984375
342,-13563.38,-279.1421,18733.594,3210.6184,165.6706,-1180.6545,28735.224609375
343,2984.664,3696.506,-5263.6987,5066.694,578.3296,-1807.8741,12737.2099609375
344,10298.154,-10028.441,8755.692,7387.798,-2397.674,7226.046,26866.876953125
345,-755.0791,-13289.342,-3161.8142,7086.759,-2511.1233,-1557.9983,17595.431640625
346,5931.336,12071.981,13658.834,12606.954,6594.962,3057.333,26178.201171875
347,5356.0205,992.0244,28546.79,15459.624,-3132.732,-647.20825,37493.45703125
348,32980.125,39200.816,30467.123,-2289.1436,-1304.0613,-4013.8103,11392.939453125
349,2168.0,-7332.0215,13045.982,7765.7485,2351.4631,4490.5903,23873.140625
350,1526.3188,12886.999,2939.8413,10343.008,-8814.513,-2901.5725,26349.234375
351,3427.5942,7935.622,1494.9819,1872.5284,-2984.2922,-1764.953,8907.96484375
352,6439.555,6087.1904,-3610.551,13016.04,6827.564,6710.3125,29677.787109375
353,12786.371,-1267.0244,1484.367,1792.9586,4145.741,2796.4482,15845.1142578125
354,11379.716,11420.731,16870.15,8754.858,6433.9814,-1954.1698,19887.400390625
355,3257.902,3141.9807,3203.3862,-36.864864,50.160732,6734.13,11664.7861328125
356,-2192.68,-6009.6494,2969.5938,-668.4388,-3494.2957,-6844.3076,15473.427734375
357,-11974.941,-13883.454,-11285.871,934.4461,-1155.7783,-728.4123,3694.74365234375
358,206323.42,222801.69,212222.7,458.2234,-7831.2866,18527.568,37730.01953125
359,-4497.656,-2277.945,-3772.0762,111.22478,1373.441,-919.02954,3474.61987304688
360,24786.146,20968.547,30149.178,2429.0278,-13544.564,11916.584,32525.240234375
361,1980.0479,-6816.061,2511.6565,-2524.308,440.528,1824.3119,10583.626953125
362,-10208.791,-4325.925,-22607.543,1365.6384,-377.7315,-946.4079,16431.291015625
363,-27020.783,-21140.016,-10926.159,4439.037,-8886.85,525.3619,22267.533203125
364,30736.443,35090.953,42635.992,10125.407,9254.927,5181.7817,27455.95703125
365,61105.395,61956.465,47218.227,-11601.593,-123.91546,-2753.4062,25139.16015625
366,963.69055,903.5595,1892.5543,343.5498,951.8341,-56.689682,2000.9853515625
367,37961.797,62769.88,71044.336,-5471.2764,-1002.4887,-7376.861,33841.61328125
368,-30592.346,10639.955,-5144.507,9228.887,-2361.0757,-3032.251,39978.08203125
369,-5417.617,-5114.322,-7053.938,4451.0566,3133.4182,768.7924,9691.728515625
370,3764.8604,-163.66187,6216.3096,3907.1724,-1579.6449,-1978.2173,9802.923828125
371,1684.0614,-44.264038,2876.7231,-414.1968,-350.13318,630.4331,2923.294921875
372,107146.76,118528.64,141305.3,11154.639,6622.4995,-6746.8364,39357.01171875
373,78749.49,80047.336,73375.31,-5112.5845,4995.0356,-6038.9014,17326.6484375
374,-6967.1157,-17384.8,-41680.914,-4491.6816,4345.9854,11463.112,38253.5703125
375,755.8799,168.97095,-12233.342,-4315.383,3312.6646,-2029.5621,16204.537109375
376,26767.45,27708.656,65116.49,-1524.6207,5101.2812,3387.4312,39432.30859375
377,138976.02,107639.97,95914.586,551.467,-4779.5796,902.9922,39481.0234375
378,107398.86,97955.7,138686.22,-661.62134,1794.4285,-962.0149,37111.62890625
379,-43886.875,-38428.863,-73559.07,966.1785,739.2063,-1771.0841,32954.97265625
380,134631.77,128577.586,168246.78,-2220.2932,-929.4056,124.40191,37249.97265625
381,-6385.342,-4913.739,7321.902,96.62148,6171.9346,-1987.3822,17205.75390625
382,-2778.9526,-3090.0337,374.76294,1301.4084,426.09555,1573.1068,4906.466796875
383,-354.78693,-565.5738,3488.2212,6011.3066,-2525.966,-2808.8037,12916.666015625
384,-10980.223,-8231.595,-8432.349,-5203.749,1715.3301,-5334.3887,13508.318359375
385,16284.29,6830.023,14939.805,-3931.414,-36.519688,-4716.104,13841.1220703125
386,-22951.264,-25254.43,-31898.566,-6568.799,1929.9778,3531.318,15581.5302734375
387,-3727.4487,-17302.277,1905.6406,3658.8389,-2820.1655,-4714.6807,20571.3828125
388,-4392.6924,-1233.1045,1409.7472,-2071.2004,1345.0464,1062.3748,6855.72509765625
389,-113309.29,-88510.57,-91929.52,14510.493,-4424.4585,-1875.463,35253.69140625
390,-17831.441,-26989.61,-23822.531,13896.493,173.25507,-8569.435,29404.609375
391,-6470.8984,-9072.191,-33312.59,-15274.519,-1794.7203,-5678.5864,38259.046875
392,-51350.17,-22860.297,-60576.57,-3917.9517,4104.096,5216.4688,36576.97265625
393,-12621.329,-9172.22,-15394.551,-2336.415,-1841.7538,3470.1987,9582.8896484375
394,7755.0244,4422.041,25922.021,-3899.3447,-945.77716,-2526.2153,21659.693359375
395,-8107.0156,-13609.225,-36385.12,-2428.3416,2640.8992,6186.0747,28770.638671875
396,247040.14,246968.47,284169.8,1429.5664,1964.2346,3006.0505,37763.65234375
397,-83979.54,-106068.016,-124510.16,-5605.1846,5673.6343,36.894344,37765.07421875
398,-226191.75,-198769.11,-242273.16,72.640114,503.98813,-822.3138,38136.77734375
399,16194.691,-778.9227,-20131.275,-921.0198,8501.079,-8037.803,37473.52734375
400,-35362.71,-18667.727,-32341.777,10916.868,10576.75,8734.218,34050.12109375
401,12530.544,17652.768,20587.488,-5747.6255,2111.8704,-4514.4727,14950.2177734375
402,-11963.246,-15035.811,-4352.8174,17883.03,3892.3179,7177.883,35357.70703125
403,-8097.8594,1152.638,-2007.1079,-6429.7954,3975.2534,244.27827,15425.310546875
404,-2146.1187,18608.496,33126.46,9857.229,-185.20807,-2818.3928,35472.07421875
405,5221.6167,1199.1898,682.38513,-1415.0723,-1860.2301,8160.5396,15319.845703125
406,18107.922,8560.671,1234.5166,16575.98,69.79358,-307.70413,32239.033203125
407,3742.2344,-16741.496,-5735.123,-5309.3706,1246.0282,-2979.184,20763.537109375
408,-106.659485,1863.9883,-4242.9995,5981.3223,-2957.2378,788.006,12828.5341796875
409,7467.041,-2523.086,16277.255,-1309.9509,1322.5474,8618.726,22331.150390625
410,-2251644.5,-2251774.5,-2251678.0,59.507996,-359.83292,1094.1045,2000.98071289063
411,19000.154,17052.998,2686.5625,-1474.5834,-684.4525,-4908.346,17842.751953125
412,-3310579.2,-3310625.0,-3309293.8,-160.78125,472.21857,717.4818,2001.0693359375
413,16104.347,16094.659,17388.393,-354.62738,807.4111,56.621235,2000.98583984375
414,-8246.111,-14160.082,-42084.56,-660.9168,2435.607,1265.8094,31682.95703125
415,8574.838,9214.451,33679.74,3711.1045,-1475.0182,2973.1675,26248.25390625
416,-480271.06,-484012.3,-486553.25,976.9037,-8444.9795,7927.378,20863.978515625
417,13337.246,18158.238,46131.26,2006.0343,4356.2285,-5089.3145,32974.16796875
418,22610.621,12188.32,19200.646,1283.8387,-2392.445,2405.5476,11143.9931640625
419,1624.4004,-698.6826,25659.139,-2186.3423,892.7044,5433.607,27280.08984375
420,-129127.375,-132665.98,-136757.52,365.79813,-4259.313,4885.333,13044.80078125
421,-8418.96,-13355.423,-9195.581,-3528.0251,2496.9185,3740.5564,10915.9521484375
422,-154435.64,-153381.19,-154064.02,27.520674,455.74167,-916.5979,2000.98571777344
423,-35005.5,-34879.535,-56450.773,4632.753,11613.483,-3236.586,31033.041015625
424,12396.572,9792.814,16281.195,-987.6669,43.156178,-4207.045,9381.587890625
425,10114.607,-174.68799,10598.371,-767.806,-4114.825,-813.95605,12869.837890625
426,-5221.357,-8377.126,-8709.996,-212.25085,-6020.7026,-3676.4868,12670.8935546875
427,-5452.402,-9831.431,-7555.347,4610.524,384.05682,4230.575,11502.0
428,7168.298,1209.8267,-11936.004,-4195.41,-476.15155,1215.5872,18562.40234375
429,56070.277,56305.57,57301.79,-38.861034,950.3575,-50.529514,2000.986328125
430,148243.64,132410.19,169829.06,-3322.4104,1117.0303,-1496.4302,33196.0390625
431,53009.168,31385.48,68590.4,6950.8965,-2720.8398,-11347.4375,40009.11328125
432,39739.957,26626.45,-1659.7344,-7602.385,3871.1975,-3907.931,40089.48046875
433,-98094.13,-76851.53,-115699.03,9192.414,2920.505,1022.25757,37648.09375
434,-1647.731,119.83911,-2768.0308,-8043.0303,-3277.7383,-704.1101,15301.9150390625
435,6049.831,23458.322,16741.863,13298.868,-893.4173,-323.7635,27650.1640625
436,637355.6,639874.56,678483.94,746.1113,1741.1277,834.76697,40089.1328125
437,-34658.406,-26357.166,-30979.154,-18506.756,-2221.7427,5770.3774,34555.828125
438,-8197.977,-6705.9883,-7572.8276,-510.6976,653.87646,2057.29,4055.43481445313
439,1985.9255,-2890.9287,-5304.3447,-2478.3,-216.9974,6818.584,14121.77734375
440,93474.516,100536.664,133135.31,2319.9028,162.78848,284.20496,36867.734375
441,-399.36304,-7855.8706,3494.084,-2784.44,-2367.1482,2435.265,12555.9140625
442,-26210.17,-21015.799,-25324.25,-6902.4023,-501.25684,4813.8184,15374.2109375
443,-1347.0133,-6263.0024,3976.9966,-461.4906,-1052.0327,1519.5964,9464.2255859375
444,-134007.94,-106034.055,-118524.97,12502.885,6860.2583,-11701.687,40125.875
445,-27466.486,-15181.685,-44830.934,5992.0176,-735.8938,-1279.8054,27928.6640625
446,45117.234,40956.785,47726.273,-19011.86,-8858.481,8769.572,39817.80859375
447,-62480.2,-82661.19,-60085.605,3013.4197,3490.5603,-7858.4253,26653.1484375
448,-7365.7734,-6908.0977,-2556.818,-5051.029,-2203.3652,-2332.413,11338.3486328125
449,-22885.234,-26907.908,-53891.72,539.6372,3686.3792,4289.5845,30817.17578125
450,33927.715,30097.305,31542.328,-1725.5696,4650.045,-1619.591,9638.2490234375
451,-5044.2275,-5392.4575,951.9453,-4987.1147,-112.243515,792.56024,10709.7900390625
452,-11156.827,-9875.562,-9320.718,-3452.1501,2206.5276,2402.743,8386.7890625
453,-1865.6768,-7030.3364,-31769.512,9575.582,-12251.092,-399.00146,38630.17578125
454,58155.97,41162.227,54864.547,7711.003,-978.4554,-6100.176,23164.076171875
455,-71925.71,-82185.305,-111501.04,1602.2676,-1296.3824,1849.119,35894.8515625
456,-46355.457,-79195.76,-42211.07,-1628.3536,2756.727,-800.64417,35558.97265625
457,-26396.61,-16984.135,-8538.53,11546.42,-2336.6367,6.725958,25607.736328125
458,798.89307,-1213.2319,12320.278,-1247.2609,2114.3337,-2106.7202,13833.525390625
459,-4665.314,-3766.3657,24392.941,10975.816,-1564.762,-1921.0996,34625.01171875
460,18035.273,1225.4668,27022.586,-1104.3965,-2008.7013,617.9155,23050.5
461,-8070.917,-6137.5625,-7599.093,-5030.281,1597.1914,1801.4666,9815.7197265625
462,5599.102,9729.638,15512.93,-553.70667,3118.2407,-2531.7954,11122.7646484375
463,49272.176,36261.492,74805.62,6356.345,-2159.4912,-4753.165,36829.6015625
464,209487.33,208141.28,246662.61,-1947.3134,606.00525,-1747.7023,38150.94140625
465,-9257.985,-10959.954,-10653.031,3794.5679,-1068.064,-1941.102,7771.14404296875
466,20422.521,12397.016,29918.047,-4053.092,3720.4458,-1976.5281,18256.72265625
467,-7727.3,-15883.149,-10613.583,-1470.4015,-3702.827,1564.3112,10308.6689453125
468,-53828.695,-73255.38,-65691.17,8509.024,-9124.426,6164.5195,29472.796875
469,-50230.97,-51171.656,-85544.27,-1911.558,-441.41852,133.50307,35018.50390625
470,-119203.516,-88801.875,-78574.93,-2338.8096,1437.6129,-8700.597,39868.25
471,18461.81,957.89746,28491.086,1760.2742,-417.70993,1576.8423,24490.8828125
472,-342002.28,-343922.72,-324096.6,5859.6797,-11961.021,13877.808,38323.29296875
473,-11017.664,-17910.654,-15419.061,-2066.807,100.08434,-6166.175,12785.0341796875
474,-12499.741,-4803.26,-15615.916,550.4486,-2057.6726,1153.0292,10513.296875
475,-3778.6807,-5318.452,-13793.522,554.6041,-678.0802,-265.1277,9474.1962890625
476,25763.06,18012.172,31052.168,7001.5923,335.32626,1518.5005,16833.537109375
477,5494.4634,5369.341,8220.488,-2923.4268,70.74644,1876.8838,6634.02734375
478,-2876.418,-3344.3276,-1045.7692,-1826.2058,108.63035,-978.83704,4164.32958984375
479,-9882.454,-12228.951,-10737.635,-2729.3784,-4984.3047,1906.6454,10583.7138671875
480,28377.266,10281.777,36239.02,3365.7004,12327.283,6798.9263,34059.6796875
481,-5690.8657,188.06409,5845.2153,-5706.056,-1193.8553,-533.8807,14234.8642578125
482,-15386.096,-17602.438,-10741.595,6504.0884,-356.51404,5538.134,16002.529296875
483,143670.77,123325.91,156869.55,-1512.3427,-6190.677,-1304.3673,31362.19921875
484,-3853.6006,-7430.842,-9043.485,4403.5635,3162.0637,1179.441,10654.0791015625
485,6602.3115,747.53564,14872.78,-1712.5128,-869.2851,1640.082,13047.431640625
486,18150.422,28661.977,41123.195,-7834.685,2460.2366,6816.357,27174.525390625
487,11527.77,-4769.3506,-14166.922,1205.3976,-3347.7446,2923.847,23889.15234375
488,6898.485,-4209.852,-141.68237,1082.9535,215.3896,-5.846461,9920.29296875
489,-7837.9175,-8504.715,3910.872,4082.5774,1366.5278,-1464.745,14434.4609375
490,16176.305,12117.397,43753.89,143.98778,2328.4688,1383.0032,30182.75
491,-30767.002,-27054.607,-49992.844,-427.99857,360.3656,750.09174,21387.28125
492,-4480.0205,-21933.354,136.32617,-602.4119,-894.8147,841.1039,20300.572265625
493,-597.4419,-3712.5706,-6773.77,4873.587,-2101.9407,770.943,10719.33203125
494,-9636.503,-7901.7954,-7697.678,3250.336,-982.4722,-438.6033,6210.626953125
495,-2307.1646,3703.935,4251.9497,-5337.2974,-1075.499,-651.9271,11398.822265625
496,55293.945,39518.355,42999.496,-4598.592,6583.7295,2091.5408,20314.32421875
497,-6766.4062,6419.2075,-3776.5059,6541.6055,354.6069,-1267.1687,16641.767578125
498,-2925.67,-14084.406,-8198.323,-755.7158,961.41986,-2040.5719,10510.005859375
499,-8964.867,-5854.843,-6830.3564,-400.23398,545.0148,1987.7277,4562.33251953125
500,5694.051,1678.2207,40521.26,6671.204,535.88715,322.05643,38776.3984375
501,6710.931,450.1089,10346.37,-4204.859,-868.8163,4149.767,13496.0693359375
502,2724.5842,-3343.002,16706.477,2076.8782,-2864.3672,-44.560875,18833.62109375
503,24414.146,26824.465,58194.742,-516.30237,-259.80133,1467.0148,32756.294921875
504,37040.59,44551.754,54572.152,-11327.711,-3691.0422,-7505.001,28755.669921875
505,-16894.275,-10256.092,-23791.268,-3988.3313,-942.05676,1535.3145,13959.650390625
506,-8120.627,3319.947,-5956.1616,5265.1606,-201.05487,-426.8092,13951.4306640625
507,-8133.959,491.00635,-8124.8096,8205.175,-483.068,-329.83334,16652.697265625
508,-32623.336,-14392.758,-35245.406,-17276.93,-5763.611,733.01074,37199.16015625
509,10301.141,9913.637,5745.7334,-689.9607,-3131.3748,-1232.3096,7384.92236328125
510,-1228.8584,-7197.4795,-24876.873,-6128.408,2951.4001,1086.0675,24414.13671875
511,-2904.1072,-711.904,964.12946,-415.98605,438.98938,-1148.6217,4042.80981445313
512,-118634.75,-157222.67,-148814.4,-4018.3926,1942.6287,-6529.304,37721.72265625
513,-36923.098,-37374.76,-62470.82,-1382.6356,-334.56293,1763.1908,25627.103515625
514,-21072.344,-35310.117,-30418.46,3308.466,5644.6816,4685.3696,18742.44921875
515,-5906.4004,-18400.82,-30567.16,-15342.818,-2339.2642,-2799.3135,34673.80859375
516,-24107.336,-16609.408,-48686.613,5028.6113,1227.7177,-4046.3198,31211.443359375
517,-10787.09,-10483.292,-1766.5327,2133.8152,3576.3232,718.16974,11502.1474609375
518,8357.995,5452.8804,12250.073,-3103.0403,-2554.097,884.35425,9257.318359375
519,-4508.623,-11224.407,-24689.504,-1246.8678,735.38464,-1619.0521,18193.12109375
520,-7440.3105,-5053.6377,-10450.376,-413.89917,-800.58136,217.97816,4951.76904296875
521,-13663.776,-6928.791,-6908.934,2432.453,194.50397,-737.4955,8061.62744140625
522,-7961.332,-5501.344,-3568.7083,-222.74478,-139.66153,-795.8244,4080.22729492188
523,-15517.464,-5127.9883,-3118.8003,-2122.909,-835.74615,2490.16,12925.5859375
524,-20423.994,-11512.579,-14632.524,-1859.3793,-2001.0004,884.8997,9277.7841796875
525,3727.7964,-5388.2603,25165.338,9867.397,-12467.282,-3953.777,39285.99609375
526,1265.8569,16536.406,1840.5684,-4314.1694,3304.0925,1153.6943,17813.591796875
527,-8040.926,-15518.49,-7107.9346,-301.23367,2165.6638,-2146.7986,9587.998046875
528,-1503.1741,-3118.7644,13981.744,-2040.0942,3931.0103,-1208.3689,18183.373046875
529,20245.043,11058.15,13175.695,5446.58,-2439.637,-30.624548,13277.173828125
530,9278.69,5680.8467,18935.148,2859.206,-338.67035,-1151.3801,13029.98046875
531,-1323.0302,2976.1194,-535.1622,-930.9121,-1205.666,1057.3081,5102.02392578125
532,-4455.8774,-3322.9915,-1437.0822,3163.6777,-1104.0331,-2498.667,7706.48095703125
533,10268.495,14777.788,29644.23,-674.0808,1470.1023,-2439.0276,18277.7265625
534,-4146.713,-2558.5977,692.0239,6799.363,4507.2285,1411.4978,14962.1962890625
535,5392.562,2540.203,10951.874,455.63306,1184.2128,112.55311,7730.90869140625
536,-6351.3633,-9239.414,-12573.639,-1673.6304,-170.14821,-1134.9683,6437.52490234375
537,757.0349,-10860.16,5108.2617,-1433.5326,-1440.0641,2929.3,15574.6669921875
538,-11399.152,-12716.928,-30866.535,10152.342,2077.0593,120.24655,26024.1796875
539,-107796.11,-100247.695,-140463.89,1759.9512,-96.67245,-176.97028,37150.59375
540,3338.7146,-1399.167,7799.371,5985.073,1821.9886,90.01465,13450.8583984375
541,-8577.868,-7184.4805,-856.03955,1941.6403,460.1542,-2985.6501,9460.23828125
542,-2220.7488,-6045.0747,-2373.8682,336.03314,1350.2809,1872.4214,5512.68994140625
543,-208.2666,-3572.0166,-1937.9797,-1665.0571,272.57834,-2724.433,6268.6640625
544,-22227.568,-15226.997,-33171.633,-4317.4507,-3163.5002,-676.1884,18240.375
545,-1203.4868,-3985.121,-347.21362,739.4096,-463.4347,3390.627,6901.1650390625
546,4430.017,3794.5847,10043.662,-3832.6794,933.01276,-1380.4877,9374.484375
547,55212.598,57340.83,92436.27,1298.6528,-1704.5905,-400.18454,36402.8515625
548,5156.484,-1368.9033,15378.654,1225.2725,1220.2477,3546.304,16139.29296875
549,-24179.232,-33175.664,-40830.94,3984.4749,-446.9117,-2215.9836,16473.259765625
550,14109.518,8369.554,28537.305,495.7436,3845.461,252.31653,19214.947265625
551,289.2107,146.93604,6364.4883,-3754.38,-1065.982,695.32214,9216.2392578125
552,9846.793,11695.837,9073.376,-1496.2795,4175.817,-502.206,8076.67919921875
553,8357.119,2791.3496,14567.166,-3553.7751,-1655.478,839.70416,12342.2548828125
554,5275.1187,2563.0024,17829.629,-3217.9673,-1755.396,-1444.508,15671.3310546875
555,-13393.42,-17324.584,-14056.15,1380.532,1591.0527,24.401838,5157.68310546875
556,10429.325,5227.5776,7038.7915,-1307.2136,-99.48609,-554.3232,5195.68408203125
557,-13781.006,-2514.606,-1960.2397,3824.798,-1366.6571,5446.8354,16491.796875
558,7222.352,17290.672,19991.04,-1309.9519,-2675.8162,1222.2738,12921.337890625
559,6952.5303,456.51562,12771.613,1386.435,-105.8965,-753.22565,11016.4912109375
560,3126.7983,4713.952,6805.4077,-917.37494,-629.7049,-693.2792,3920.32250976563
561,4515.2456,2463.8518,7826.1763,-1334.4176,-942.17816,2.9404237,5474.2705078125
562,637.499,-1547.6691,-530.729,150.09283,1545.255,-820.69745,3583.0986328125
563,-2731.8494,-3004.8828,-6494.198,-379.0489,1327.4656,798.86676,4564.50048828125
564,193.36499,-683.50574,-6147.0493,3396.0327,-10.763866,-3739.6382,10581.3125
565,1505.852,7433.5117,12158.951,-117.8484,-1506.5474,997.6357,9762.9033203125
566,-4085.5059,-2202.2236,-6143.438,-1912.1198,-395.3444,177.55475,4815.5556640625
567,-16832.855,-22503.445,-46457.86,-5479.5215,-3863.521,-1442.8639,29713.744140625
568,-6932.448,-7615.4766,-41864.16,-2612.8276,2242.0518,-1158.4148,35162.7421875
569,17157.06,1755.877,1722.4453,-6322.7266,9014.334,-6831.032,27228.78515625
570,-107561.11,-100746.3,-140464.06,3947.5745,1258.5167,752.92535,37503.01171875
571,-13972.993,-15823.299,-9853.758,-3976.6655,4717.6216,4498.732,14245.6591796875
572,-63615.492,-33618.81,-25036.652,9200.703,-5868.0576,-2749.609,40135.1796875
573,110561.36,113601.16,149741.92,-1621.5741,1740.2146,-2653.7297,38253.83984375
574,-10959.494,-31990.305,-38510.035,-5730.4326,2923.9924,3859.918,28120.75390625
575,-19445.7,-26408.2,-8399.915,4809.876,3560.2258,-1447.6351,19002.876953125
