Element Label,S11,S22,S33,S12,S13,S23,Mises
1,-743.25385,5845.4995,-10979.656,2228.452,1552.5671,1109.6758,15539.1201171875
2,3078.218,1805.5646,7245.158,-2979.4673,-7255.192,371.73355,14465.3291015625
3,6461.8994,-1415.0138,-17683.248,-81.43202,4899.7583,336.0721,22961.408203125
4,-9708.888,1295.4174,2283.167,-951.01025,-5978.2236,-1140.9375,15709.099609375
5,14381.877,8643.68,2534.78,-4506.6504,3537.3289,1429.8823,14487.9638671875
6,1636.5043,-4357.653,19896.84,-1215.9462,369.08853,-3579.607,22849.728515625
7,-5333.3125,1080.5201,-15304.934,-439.84293,2192.3916,1301.1549,14986.8583984375
8,8274.209,-836.2728,23830.48,-4198.277,-2176.1199,-1536.3508,23256.994140625
9,-7093.047,-8082.4,-3764.5078,-2755.787,889.11115,4416.4194,9950.8798828125
10,10306.593,-18662.82,-1835.7212,-867.5743,1565.6049,-465.0144,25400.140625
11,7535.98,6368.8013,-12012.303,-1262.9714,-571.44666,3347.073,20001.373046875
12,-10455.108,317.286,9920.309,795.2129,1441.2883,-619.282,17916.18359375
13,13124.879,1687.3553,-14556.534,-2549.5164,177.24709,26.788599,24496.26953125
14,-15840.654,9892.155,-5087.9805,-5359.2134,2076.9001,-4996.425,25982.64453125
15,21967.553,25504.936,5567.572,-4830.415,-3358.6013,2850.1482,21626.25390625
16,24632.586,23380.754,28849.56,-725.1101,828.6252,3718.731,8351.826171875
17,-1020.7077,-927.72015,-847.9687,-54.10052,281.22192,1114.891,1999.35144042969
18,15160.241,17625.344,-12076.054,1782.9476,2510.9426,4412.508,30031.55859375
19,-5371.6973,-5205.934,-5686.6313,-43.445007,109.40653,-1123.0176,2000.9853515625
20,3257.5525,3376.1821,3466.0916,-75.127884,4.053073,-1029.9027,1797.74951171875
21,84.72718,10185.522,24944.258,-2901.5261,15523.373,677.8977,34906.7578125
22,3619.372,5453.72,4812.4473,63.00502,-554.4384,377.49518,1990.31872558594
23,5905.2085,-2891.9133,32478.791,222.25081,6256.424,4465.151,34564.50390625
24,-2821.1086,-3140.7073,-2739.347,-47.27351,-914.8926,-636.2414,1966.50915527344
25,-21.2403,270.40894,296.5696,373.98608,515.14844,838.7793,1849.25830078125
26,1521.0945,1351.1543,1680.4843,-70.69248,229.69704,-1117.9291,2000.98522949219
27,2811.1567,2396.7832,4060.6226,362.63525,-531.1858,413.2551,2000.98559570313
28,497.52673,1129.8842,1011.3841,223.75029,-940.0969,536.476,2000.98547363281
29,-856.3875,-4528.113,-5831.644,-1305.5831,1270.6554,-5402.615,10839.2373046875
30,2324.2195,8818.701,25910.043,-3269.673,-4662.322,519.36523,23310.6171875
31,4097.76,2052.3733,4573.6206,159.80974,-1378.9435,2643.6968,5668.4951171875
32,-2322.3828,-1566.1383,-1963.7621,-966.4615,-9271.582,-1167.2396,16285.130859375
33,4343.8975,2974.6343,5491.055,-693.0811,-2878.3337,536.7104,5649.892578125
34,6518.136,6353.3613,6416.948,-377.82904,-1488.3599,-285.4328,2709.06665039063
35,3752.2275,3768.99,3946.9724,-20.537622,-930.45184,653.8333,1978.86926269531
36,329.8785,14167.782,20920.068,3480.2983,4610.911,2236.7734,21110.34765625
37,-615.267,-648.3447,-391.82263,-29.422216,-857.989,-749.7535,1988.92822265625
38,-1792.7283,2062.9426,-362.0231,-6352.5503,14332.26,-4123.7397,28279.2890625
39,-273.76712,-64.59588,182.65205,-136.33113,-788.5196,710.3084,1895.06286621094
40,6810.772,11581.05,-5610.4663,3930.906,524.63165,-2415.873,17348.96484375
41,1468.0339,2222.7544,19993.527,74.05112,-12839.395,7140.0977,31261.662109375
42,-5373.711,-4977.958,-21909.387,-3227.6287,-5540.407,1471.9023,20247.7109375
43,-981.7536,-4601.3813,8548.402,114.63634,-5399.715,5216.213,17537.33203125
44,4957.204,4717.6177,5089.4917,91.07299,-941.2946,636.228,2000.98571777344
45,-676.7423,359.98624,-12.172282,603.25946,-790.1971,-106.32246,1956.1171875
46,-991.8705,-230.83119,-1657.4829,-88.0313,-301.0842,852.4399,2000.9853515625
47,-6494.38,-6569.49,-6478.88,-19.027998,120.30983,-1030.3579,1799.01843261719
48,-4112.6016,-6961.6553,-15954.462,3070.9036,9152.414,-2034.1213,20164.646484375
49,1722.23,-5136.7793,11589.278,-1739.1055,2474.385,-13113.234,27484.447265625
50,1346.1592,740.22217,4596.672,-370.5007,1201.8483,-5796.871,10883.880859375
51,2262.236,2049.0254,2667.621,-190.76514,-377.60025,-1028.0717,2000.98522949219
52,-939.86865,-108.31663,1945.166,279.27585,3516.824,-90.14199,6631.6181640625
53,15527.449,-1609.2593,16039.162,-1562.4525,-1921.9834,-9687.269,24548.5859375
54,-1261.2402,-1266.8157,-736.08264,352.8502,21.399164,-884.4172,1732.11267089844
55,-64.04697,131.98592,34.33025,-16.542593,146.52367,-1141.6205,2000.9853515625
56,2758.2104,3003.6787,3261.6199,-3.806885,-200.12184,-1064.0695,1925.36376953125
57,-31517.96,-4720.307,-8761.695,-1098.6532,-6524.475,-988.9888,27575.515625
58,1278.9088,721.5285,1314.5587,381.2241,-257.3454,-1006.22235,2000.98474121094
59,11243.825,10777.635,11596.321,-191.92137,286.4028,-1023.30255,2000.98547363281
60,-1054.7317,-2333.1143,-2436.2058,273.28568,-265.018,772.98236,2000.98583984375
61,-2370.4236,2232.9094,1449.3359,-567.82544,3716.8435,4762.4272,11342.478515625
62,-16113.46,-14069.472,-14441.903,-6487.149,-5898.522,-2936.454,16126.0849609375
63,6362.7354,6754.7476,6933.119,112.3962,878.04047,506.74832,1837.54174804688
64,-486.05344,-512.17126,-416.904,188.99846,1109.8698,94.76987,1958.77709960938
65,3992.9817,4038.2178,4381.6445,180.41997,1117.9467,-71.15906,1999.44555664063
66,-337.80264,-179.8734,-62.13233,-5.0390196,1059.3992,362.1688,1953.95861816406
67,963.38904,966.3442,1148.5112,108.966606,1073.7769,-398.16205,2000.9853515625
68,-2103.625,-2042.6582,-1903.7866,6.925248,1084.6066,-187.72917,1914.79858398438
69,-115.753494,28374.936,24822.81,839.8165,-9468.183,580.36273,31546.794921875
70,7382.4634,7735.5117,7822.0073,176.30798,1112.0963,112.17999,2000.98559570313
71,-1364.5007,-1303.3627,-1179.1692,9.074014,1147.1594,-98.34784,2000.98547363281
72,1836.2965,3283.9207,3974.44,-1035.7805,3283.4746,-312.25903,6279.06884765625
73,7637.236,6056.2246,9696.681,653.11206,3094.6956,-2119.0454,7312.9384765625
74,1330.6049,1493.6576,1943.7607,-255.57462,1069.3213,158.18976,2000.98486328125
75,253.43196,26472.742,13970.99,-2336.0564,-1408.2101,1025.3324,23268.720703125
76,533.38763,1298.7208,3110.4592,1120.1605,4680.7188,-2515.0444,9681.0498046875
77,2351.4392,2822.3152,3146.2822,11.500969,808.15173,601.7456,1877.56359863281
78,19018.438,4361.0693,864.4883,-5842.3716,5031.0303,8489.972,25940.080078125
79,2122.7559,2577.846,5202.334,940.7184,2520.359,-2734.6462,7241.25537109375
80,5826.0605,7126.568,8385.227,413.74295,1117.2898,-164.90366,3041.80444335938
81,-5107.592,-352.3946,7252.9956,-4543.9854,12936.076,-2656.9656,26490.884765625
82,96.40435,2912.83,4803.8945,869.7676,3009.358,-4585.6953,10457.4580078125
83,1277.4647,2004.9108,4724.6445,941.3932,5017.222,156.84789,9389.0693359375
84,12928.844,14286.261,14511.811,148.9488,445.20456,-617.2912,2000.9853515625
85,-1563.9037,-89.260315,-130.32544,670.58234,-347.39355,-222.264,1993.73913574219
86,15353.649,20477.246,24609.178,-267.44037,1214.6376,6981.159,14674.630859375
87,4289.453,1310.1779,7781.3604,-5246.531,27.212765,3762.2876,12510.705078125
88,6187.9,5725.293,6407.584,57.12005,30.666193,1079.4076,1967.70556640625
89,6596.124,6209.1875,8278.578,-5804.8643,2774.8423,4965.343,14205.0634765625
90,476.3612,420.25998,504.3196,70.26783,116.743164,1127.9553,1969.27563476563
91,22976.887,9337.161,39911.223,-2397.3318,3696.2952,9845.423,32447.1875
92,3104.6448,-4340.995,1826.8209,734.9746,8749.207,6191.3545,19844.9296875
93,5867.536,-647.0539,18429.076,627.381,6590.31,3783.872,21365.765625
94,16999.479,12532.927,23014.045,-502.46564,3268.6406,5995.851,14954.919921875
95,6074.1255,3035.2285,11476.254,1038.5255,-237.88042,6580.733,13717.06640625
96,1751.3799,1303.4304,2034.0875,224.05698,61.951298,1069.985,2000.98559570313
97,-138.66495,-275.75772,-146.14932,-58.52565,168.01747,1123.9637,1975.5185546875
98,13140.315,11486.573,10328.631,-6085.177,-5918.5747,-4490.4775,16812.51171875
99,-1545.8685,-2388.7769,-3282.6543,3404.695,-7681.7007,112.453674,14632.2353515625
100,6129.4717,6121.754,6305.4595,-50.229855,-1069.0188,-422.5243,2000.9853515625
101,-24979.627,756.0725,823.2808,1860.6252,4285.7124,6675.113,29380.59765625
102,-9730.187,-8620.841,-8429.641,-165.09482,1851.0541,-1257.728,4072.58178710938
103,-1577.8478,6361.4917,5567.614,2567.1387,7741.069,1229.1251,16168.9755859375
104,1370.9906,1423.9991,1324.0057,76.802956,-211.31271,-1065.6093,1888.31481933594
105,-2167.7456,-2298.2114,-1639.9916,-199.64702,928.132,558.47363,2000.98522949219
106,4457.8906,3459.3125,4035.6982,4.3054614,-480.22208,-870.1202,1927.96142578125
107,-4331.515,-4298.6323,6343.4775,586.1497,-9357.314,-6183.2637,22181.353515625
108,16.850723,185.22229,323.2045,-64.116135,-1077.4916,-144.46805,1904.8701171875
109,-4613.0996,-4302.169,-4406.079,46.66469,-1128.0068,-187.12251,2000.98522949219
110,578.05414,730.5623,539.2124,-72.53233,-634.7753,-854.56213,1856.37353515625
111,5582.2095,5845.472,6241.333,-270.1081,-1071.0175,-67.33996,2000.9853515625
112,2820.5222,2233.5881,2658.658,124.98138,-122.644745,1097.0311,1994.51904296875
113,2872.8345,-9611.902,15253.325,-1301.0048,-565.0377,-385.72015,21683.96484375
114,-4049.4233,5591.6387,6634.4014,-4118.139,9401.029,-9897.767,26720.841796875
115,-5095.8657,5578.707,2783.9817,4.941785,-14125.156,4613.1943,27465.05859375
116,-3163.7305,-3064.4548,-2858.7168,162.38113,1089.3456,312.09497,2000.9853515625
117,-339.80252,1562.5612,2107.3188,-575.8333,1445.4763,349.3755,3547.001953125
118,-1558.4313,13283.005,-1280.7557,8772.263,-4718.606,6251.96,25122.474609375
119,6498.862,7027.3423,7965.4507,240.54666,1234.9296,593.90894,2731.67260742188
120,-3111.8115,-746.34576,-757.58704,-257.3844,995.3795,1534.6158,3975.5732421875
121,7788.6265,11070.456,15894.218,1671.5195,3579.6116,-2940.139,11073.6572265625
122,-7709.6,-6881.6436,-36382.348,-7274.7915,31.482536,-9717.474,35897.22265625
123,-1688.9601,-629.95557,-2328.198,-758.0514,-8517.205,269.71765,14892.1982421875
124,1652.8813,2020.0842,2454.161,-673.29297,-5244.458,641.6608,9251.53125
125,455.5005,13138.758,9350.451,-2657.3796,-6106.3984,-461.1178,16151.0185546875
126,4928.641,4971.455,5230.706,-188.88055,-1098.8417,-254.56598,2000.98522949219
127,-417.95865,12996.527,39900.473,1175.0104,-3909.5586,6686.039,38062.82421875
128,1627.7284,-3952.3203,13236.302,1042.593,7391.679,548.6335,19968.65234375
129,919.735,90.46973,608.0307,-124.68056,-580.5789,-887.3497,1986.54833984375
130,-3754.4937,-3527.9165,-4392.5,-577.06195,-184.07814,875.08203,2000.22692871094
131,456.32025,354.44025,1370.7104,-37.202717,526.91797,-827.3099,1957.0517578125
132,2271.348,3213.7712,8402.704,2545.1575,-3190.1943,2634.1262,10172.744140625
133,18100.588,10575.494,36478.24,1923.1823,-3253.66,-2628.0664,24417.89453125
134,6565.0674,8554.271,14678.243,1214.0145,2717.5632,3468.8257,10785.03515625
135,-8572.008,-5665.13,16024.281,3780.46,835.80835,-3168.5366,24839.87109375
136,-6100.466,-6523.503,-6045.6514,-212.73956,-288.11404,1066.7686,2000.9853515625
137,-1637.4379,-808.1575,-1997.2677,81.003784,-2797.8281,4129.0547,8704.37109375
138,8228.172,-859.93677,26482.549,-1171.8895,5269.3276,9095.492,30287.2109375
139,-2948.7075,-4515.14,19474.312,699.02924,641.4146,-4658.931,24661.443359375
140,2206.8733,3009.9175,1336.7032,14.214194,0.08324663,668.60767,1855.41796875
141,12214.27,-914.4188,5255.4375,2227.9424,-3082.1843,6164.292,16935.576171875
142,15109.409,27197.652,8285.141,1218.2963,-2558.3772,2039.2328,17656.548828125
143,6823.234,-503.33447,-2928.6333,340.6842,14242.397,3453.1804,26869.853515625
144,6940.436,7334.4727,8093.711,674.66547,1872.448,-171.09137,3605.8837890625
145,6690.5747,7672.554,9751.681,46.391342,2827.1316,246.9402,5612.140625
146,11071.351,14524.23,20142.756,2889.7612,4331.7812,-70.967,12010.435546875
147,-2673.5679,1344.1426,4083.8748,1691.1846,6047.4897,-339.34708,12381.3466796875
148,-1547.2721,-1310.3225,-1046.7582,0.5355511,1107.7534,-211.75876,2000.98522949219
149,2932.1057,3029.3718,3224.6375,-17.172632,1139.5875,116.186295,2000.98571777344
150,267.9109,5364.053,34882.67,-2775.9526,5659.387,-5015.1636,35247.8359375
151,-4199.558,-2130.4167,13087.74,1413.857,-12439.113,9194.078,31482.48828125
152,6903.9,2021.725,11426.165,-1147.6206,2067.8335,-2901.2349,10411.3115234375
153,-8342.816,349.9696,21009.303,1639.9445,-1870.7665,3941.9316,27333.9296875
154,-2491.644,-901.6682,-2906.954,159.14925,409.29684,-146.68127,2000.98522949219
155,1535.004,2162.3623,2514.8384,789.9043,246.63628,-297.5724,1748.9794921875
156,-6272.968,-6488.231,-6365.774,-26.063728,-1110.6603,297.89957,2000.98547363281
157,-432.7962,-566.8365,-653.76166,123.804184,-594.7295,-976.3325,2000.98510742188
158,5231.169,5079.029,5206.5845,-254.4523,-1113.2726,-154.4515,2000.98522949219
159,1102.3691,986.5314,1053.5961,22.26015,-1074.0548,119.3244,1874.86804199219
160,-1202.1344,-1041.3705,-803.194,150.64706,-1094.213,43.253586,1945.88427734375
161,1752.2086,2199.1255,2331.9343,-116.174706,-1063.8348,311.71106,2000.9853515625
162,508.26575,-7624.5366,-18919.375,-1737.2798,-7826.4775,6731.816,24785.927734375
163,2257.428,2207.18,2218.4976,-84.131584,-1147.6549,-98.80818,2000.98547363281
164,1651.0383,1746.9861,2342.747,97.3827,-911.4972,1097.9094,2560.9462890625
165,2579.9104,1656.4397,3001.8318,244.89284,102.76377,2555.9075,4607.6064453125
166,4300.2715,5325.8296,5678.291,-2.5415316,1750.574,2839.8228,5909.72021484375
167,-329.07678,-215.53647,3172.5918,1236.3893,-2740.096,2119.643,7243.34228515625
168,-1173.2551,-4263.1367,168.71182,-60.23037,485.74008,4274.3726,8427.5888671875
169,5117.1113,8828.134,12310.219,2827.7192,-489.2757,-2163.7483,8807.3994140625
170,528.29675,-12010.571,341.94855,-2656.633,-5603.508,-6270.219,19703.7890625
171,-21.367477,2754.2432,5055.1973,-514.9923,-4420.786,2888.4873,10190.2275390625
172,-980.3215,865.5711,17931.236,-819.759,-247.86906,4899.5264,20009.048828125
173,9166.287,999.07605,16875.713,651.24493,-3722.9033,5439.481,17908.638671875
174,9243.388,2889.2974,14180.69,1211.3455,-1201.0809,-3659.212,12042.54296875
175,1737.9066,-2469.5295,12549.697,735.77734,-1657.0211,-6914.0684,18258.19140625
176,326.46423,-644.774,3139.3987,-543.2423,-1776.7822,-2306.0205,6156.08056640625
177,6742.106,5777.8994,10732.102,-866.8068,1274.9377,-5732.9277,11243.966796875
178,1189.1882,435.47372,7114.1475,-1104.8263,-8481.93,686.5712,16156.8681640625
179,-5888.2344,11137.019,8953.732,-10575.542,11889.848,8010.4014,34779.10546875
180,6615.3726,992.9015,-11629.772,234.46118,-3969.0269,-2051.0105,17943.216796875
181,-3761.5994,15201.775,25032.992,6885.1836,1291.0254,1792.1112,28276.27734375
182,-1132.7896,-5014.702,7650.082,3629.4727,8456.312,-4182.574,20804.591796875
183,1152.5671,2334.13,2219.4177,238.46474,538.8075,-750.2658,2000.98559570313
184,-6029.4175,-3997.4375,-9995.342,15448.881,4961.308,4586.7334,29679.587890625
185,487.30356,670.8257,18785.568,4900.6523,5333.055,-15692.848,35038.15234375
186,-2292.3267,-12374.082,-4851.315,-5232.306,-10335.259,3799.1328,22984.23828125
187,4124.471,6518.9053,3942.5217,-204.8051,-2779.2764,-4204.213,9084.4521484375
188,-2020.4714,-5707.491,-22401.4,4798.0728,-172.12465,8075.6885,24872.376953125
189,180.25706,602.37244,603.8405,254.01102,1976.7458,-920.89935,3826.10864257813
190,1884.2769,2847.8762,2760.1074,-82.69347,-417.23477,815.1944,1840.6650390625
191,-12187.89,8531.749,1090.3127,-1595.7441,-868.5014,-2368.573,18900.44921875
192,-16504.379,1580.0955,-7611.227,2586.6387,13816.776,1685.6892,29096.650390625
193,18414.934,290.5761,37840.69,1043.7577,-118.940575,654.9574,32596.462890625
194,13621.066,23049.076,9537.132,-9497.061,574.73267,-11490.944,28491.544921875
195,-8409.408,3478.139,18898.111,-3257.129,-1823.8838,10480.406,30556.80078125
196,3972.0396,-1454.9614,-10076.316,1038.9149,-8625.317,-2060.3855,19741.58203125
197,3067.2751,2616.703,-12847.922,-4346.348,-10347.766,4065.798,25958.017578125
198,-202.87836,-5844.2017,-1554.2474,2925.4956,-6472.8374,-9271.905,20863.8515625
199,-8143.968,-4892.6226,-273.17548,2727.8662,-13821.241,11963.193,32736.64453125
200,-1587.528,8612.385,-18067.785,-2189.8442,4488.2236,3714.2222,25689.28515625
201,11922.641,500.35815,16272.794,-408.8041,3874.0764,-886.46454,15715.12890625
202,-14418.168,11011.511,-12027.8125,4893.6196,-2165.1912,10230.021,31487.5078125
203,3595.135,-115.80935,-23333.492,7129.199,3975.035,3118.1123,29462.494140625
204,-9574.13,-7433.3267,10706.743,4824.8477,-12019.121,-12423.518,36588.60546875
205,-2505.3657,31383.627,1868.7709,1166.3949,1270.3169,7575.6436,34647.58984375
206,1120.7133,12524.502,33068.0,4521.8867,-4260.097,10859.511,35439.10546875
207,-4023.2136,21653.855,38989.29,-5866.019,-3363.7292,-119.944275,39270.46875
208,-8451.537,9239.917,-22934.213,467.35355,-5561.901,-5236.2456,30897.724609375
209,-57.212753,17277.459,21412.83,-1955.7147,-1587.4409,-75.82883,20207.154296875
210,423.7348,23235.086,43868.113,-3485.7837,-572.0414,-1597.7559,38234.00390625
211,1418.4388,13419.635,4207.481,-1094.1664,-4040.6863,449.69867,13096.3857421875
212,9854.375,14975.334,18833.773,-5922.127,-13723.173,-1212.2561,27119.560546875
213,-8060.0625,5830.7812,12748.153,-7036.7427,-3985.2764,4673.553,24466.599609375
214,-28716.584,-29865.025,-38939.055,2493.8694,-14406.039,-6890.269,29627.107421875
215,1107.9463,-55.503567,12655.676,-12553.852,2213.4773,-5143.37,26739.439453125
216,8722.869,35558.516,15388.443,-1828.7477,1547.5337,-5524.8457,26353.294921875
217,-24914.771,-15739.585,-20242.7,2165.9746,71.900185,-1721.2391,9280.248046875
218,8052.1035,-10035.396,-2585.407,-1907.0482,490.1003,2157.9014,16538.109375
219,-14334.977,-13216.602,-18832.611,3203.3325,-1292.9507,-1407.358,8261.396484375
220,7580.119,6249.3306,7378.906,-621.78485,-289.20123,-591.4582,2000.98522949219
221,2701.8289,2400.9512,5801.9946,-1495.2646,5212.5264,6397.7866,14887.8505859375
222,16956.465,-9494.161,24520.357,-10083.792,-2235.8684,-3895.531,36366.04296875
223,522.44916,4982.948,-11284.98,-10291.41,-1380.1371,11429.369,30451.98828125
224,9664.921,10612.173,12296.03,1112.2538,-16232.435,1743.8947,28436.56640625
225,11813.707,8788.353,22852.738,-2167.431,10732.455,11457.099,30296.126953125
226,-2188.3325,-14463.31,20264.404,1566.0719,4388.3354,2623.6028,31877.6953125
227,-2890.3909,-7140.151,-1514.531,5240.203,1271.2943,9269.746,19256.501953125
228,10336.059,16152.297,3064.826,7363.2354,13112.927,8829.784,32270.484375
229,6490.136,1663.6058,-6150.3433,6384.195,-1917.475,4197.699,17556.578125
230,1106.7096,666.8427,1222.0244,87.91083,-24.25557,1028.0029,1858.17749023438
231,57.475945,10039.943,3885.9475,3563.239,20259.293,3451.4338,37164.9453125
232,3223.3718,-2269.0186,14505.028,452.0449,-2652.6204,6753.99,19441.623046875
233,5831.2383,-197.16396,9190.078,1357.8657,7639.4556,10145.562,23606.873046875
234,9454.758,-2536.7188,20564.215,-8873.548,-2501.1677,-4116.2437,26575.3984375
235,9638.001,4756.7495,10871.356,2906.858,13050.256,5995.8413,25990.294921875
236,5497.7197,12448.94,-1948.7015,9755.049,2197.5037,4026.705,22453.138671875
237,11070.189,3614.6836,-3012.4443,-9678.525,-8235.305,-10911.438,31473.365234375
238,-27452.887,12234.547,10657.922,2626.5698,2290.3162,1590.0984,39484.484375
239,-6137.0596,11265.011,14624.6455,-4097.005,8132.583,-114.87653,24927.826171875
240,22398.25,6993.483,43600.02,-6488.8955,1582.1112,-4340.144,34695.3515625
241,-9721.961,-1940.7047,3440.3994,6269.8105,2860.7498,4900.5664,18598.544921875
242,5862.897,-1563.4333,-6146.288,-12375.522,-6083.6045,5938.235,28044.001953125
243,4954.8296,-1811.8993,6373.1514,13700.124,4334.9507,-3123.7698,26573.05078125
244,25491.06,34704.504,53054.805,-3598.397,-10914.863,-3984.942,32164.85546875
245,11733.512,16074.28,27083.758,-1335.4255,346.86246,-14955.012,29402.52734375
246,44.736042,18210.072,35109.63,5269.844,-1907.4794,-2250.603,32124.529296875
247,-4268.748,-259.76517,-18815.621,2885.335,-814.4587,450.86334,17708.103515625
248,-5367.632,-10301.034,-19110.9,-8137.756,13398.251,4652.6353,30782.53515625
249,3923.786,12954.841,9009.316,-3667.2847,-3278.7847,12577.975,24672.037109375
250,2236.5752,2220.9136,-1438.9114,-4307.8154,8925.894,3050.2627,18331.6875
251,9394.85,-1110.1437,32471.885,767.3794,-2752.0293,416.21326,30171.7734375
252,-11712.315,579.8543,-13997.373,659.39606,9772.297,-1357.5192,21857.1171875
253,359.05814,1985.0476,8250.436,-5218.56,5853.0176,4225.0327,17032.693359375
254,-13197.531,3596.7822,12240.768,7496.5127,-9010.714,426.67126,30243.26953125
255,5104.3057,-3473.6724,21710.797,-4205.6055,-198.62686,10680.48,29785.986328125
256,15016.321,12246.361,36708.91,2696.6714,-6583.8306,2581.5964,26649.1875
257,-9982.299,-12574.867,10445.625,-499.44196,2996.7175,359.39777,22473.517578125
258,1885.5905,13162.38,13721.585,-4484.2153,-875.23474,-2634.0605,14738.4609375
259,6907.3926,1008.20386,9660.278,-8960.348,2223.6948,-1206.155,17851.638671875
260,-5652.935,-21954.41,-1273.7261,1686.8348,-7185.9956,-4735.901,24228.93359375
261,-2604.8281,-2244.4785,-2784.2305,-1719.2031,-5068.75,-281.2306,9295.5693359375
262,11753.575,-15179.985,6436.0737,2989.513,-4409.177,9051.571,30682.24609375
263,11615.916,17369.982,-5154.659,-1329.3254,-12593.534,-11376.9795,35780.72265625
264,27231.906,15211.307,14695.763,-153.89984,-7071.582,14486.581,30506.2890625
265,-11702.733,2260.8494,-16093.326,-2293.602,13103.858,6438.9854,30510.06640625
266,8339.144,-1130.1714,28334.65,-4370.083,3973.828,4693.796,29147.794921875
267,-27046.115,-9143.169,-46867.047,-7823.0737,-3293.4956,-3337.2532,36301.41015625
268,23034.75,9948.098,2716.6467,8991.755,8308.403,13062.348,35773.0078125
269,19554.44,20083.693,52255.633,1056.9414,3943.9187,-5379.406,34484.33984375
270,1399.0659,512.92786,19139.707,-2874.5654,-798.2746,-5260.236,20998.751953125
271,-15894.692,-3363.6177,-32851.37,4580.219,-3499.5024,-5959.665,29381.453125
272,6569.0903,-15456.757,-12649.326,4449.9883,-1713.741,-10503.702,28816.3984375
273,-5970.523,-3639.6426,-29206.465,-5714.7217,318.29883,879.11725,26459.380859375
274,9583.677,-4123.861,35484.938,3159.0798,-603.163,3643.789,35842.38671875
275,7902.3647,6086.638,-3924.56,3143.1206,1307.01,-7725.201,18316.58203125
276,11082.894,7556.6084,30441.406,-6963.012,-3749.053,-12904.7295,33803.30078125
277,-3329.1343,-667.6811,-25577.64,6199.57,-10834.1875,-10964.479,37274.58984375
278,4185.8154,-25541.531,-7921.3726,-3322.3076,918.4902,-5376.999,28156.08203125
279,-17725.076,-1680.3046,-40930.754,-8223.073,-7301.7534,-2254.4255,39323.26171875
280,4009.0586,-638.7318,2422.2874,4537.6475,11268.909,-11540.311,29308.986328125
281,5865.086,3295.3657,1342.6498,569.2197,-4488.266,-4171.987,11360.3056640625
282,-231.69772,-15100.489,-44074.61,482.5096,-1856.513,1201.7804,38817.03125
283,-5291.5903,-3962.9895,-16322.983,557.8846,8540.684,-3952.5383,20118.259765625
284,4088.0042,5142.713,8068.2646,2282.4712,2767.4055,-509.73074,7220.8701171875
285,804.3295,-13316.066,10732.347,4734.3726,-3580.1433,9221.88,28265.93359375
286,-594.95123,-17475.92,-39944.29,1936.1285,1083.9694,-397.4254,34414.0546875
287,-9989.965,-7976.943,-24982.78,5714.3623,-3164.813,5954.087,22212.1796875
288,-5212.6426,-5610.2427,2311.0134,600.4514,6245.588,1311.9465,13528.5703125
289,7991.5205,302.71967,805.0397,5371.6953,-457.2474,-1628.9116,12274.3779296875
290,-7769.6606,1542.7332,-24286.184,-1456.1721,-6055.7656,1049.6758,25159.65625
291,-146.1179,-14529.699,6765.6895,1293.5077,2578.568,4667.111,21080.54296875
292,-310.3508,-3991.718,-2014.1296,4140.1323,7027.594,-10410.575,23128.048828125
293,690.25995,-3397.8286,-17736.123,415.43912,17224.328,-5025.5444,35316.1953125
294,20123.537,6207.9375,34096.973,-7958.9434,-539.1907,-6279.0244,29875.31640625
295,-2274.5793,9982.856,-117.79247,5479.7227,-13564.169,244.63556,27761.150390625
296,11303.828,27803.086,22291.72,-3979.2654,12253.451,-2728.604,27054.537109375
297,-2527.3577,31032.664,25817.832,608.64386,-6692.5156,9393.378,37130.13671875
298,-1929.0688,-22755.799,-16403.578,3396.527,847.884,-6823.6187,22765.294921875
299,-7236.55,-4433.2925,14016.17,5357.745,-9846.01,3216.5273,28424.384765625
300,21818.133,3576.3667,13195.733,3930.331,-4931.123,2406.4492,19659.181640625
301,-20021.648,-11853.399,-26817.861,5139.9194,3289.3606,-2702.914,17379.734375
302,443.82785,303.60974,27700.99,-493.49048,-499.8751,4314.536,28357.015625
303,-530.2486,-1152.982,-1192.009,-657.1536,-259.1065,797.11053,1953.64794921875
304,780.79626,-428.93762,5941.8887,-3274.3525,3631.4084,5599.2793,14146.5615234375
305,-14019.065,-21564.248,-42330.355,4340.9424,846.87274,10562.149,32221.1875
306,5252.8447,-15937.747,20278.625,-3791.8062,2579.7825,6105.204,34178.06640625
307,10038.392,8104.4976,30668.826,-5845.5137,-5713.752,5747.967,27727.607421875
308,12987.005,6368.127,40510.86,-3837.4888,-6731.508,5473.2397,35405.3203125
309,7935.5933,8683.166,-9122.443,4517.695,613.75037,3473.63,20070.9921875
310,12600.142,10940.729,43129.402,-6871.5234,1426.6611,-8089.1465,36462.48046875
311,-5347.66,269.4394,-32179.627,-1014.0364,-7912.462,-11602.297,38690.6953125
312,-14982.505,-1422.6686,-30356.938,9162.931,1461.0072,5137.803,31083.591796875
313,12866.259,3894.5588,-23288.182,-1228.3242,7234.0166,-5333.6914,36195.75
314,4084.0715,1133.0,9856.986,-248.83113,1701.5443,2653.2844,9437.3154296875
315,16346.702,12310.55,41444.598,7352.879,5806.538,2816.279,32165.66796875
316,-5255.76,3073.049,-11154.861,12338.658,-5055.9736,7861.8506,29532.068359375
317,2566.862,-16164.708,3338.7402,11284.92,1001.0998,10894.918,33272.7890625
318,9818.897,-4173.2085,-12939.64,7607.0737,8915.4795,-12103.735,35310.78515625
319,-4192.952,-635.2377,-9145.223,-2622.719,-2472.5835,-1379.0006,9974.115234375
320,693.76904,8306.603,-5274.7456,3161.0662,-2268.1892,5533.9595,16622.30078125
321,-822.08417,-8932.744,-28189.791,-1337.9,240.55426,-17011.67,38295.41015625
322,11785.631,1986.0887,-6234.517,8819.985,-11672.909,-5576.995,31298.931640625
323,9764.616,2491.6409,38733.152,-5590.2583,6781.8613,-3599.1265,37058.80078125
324,-594.3111,-650.4785,15314.656,2150.4482,-7993.436,-2004.6989,21716.509765625
325,13703.179,13754.099,51438.29,-654.7125,-4399.2993,-1472.6753,38572.96484375
326,-44882.914,-45018.074,-48456.668,-1718.0653,-11491.835,8883.593,25575.451171875
327,41461.74,37422.637,54087.824,3825.5884,6308.0776,-4132.1387,21005.595703125
328,-11764.532,5888.9414,18185.064,-4054.401,-4754.3633,-2583.391,28584.2109375
329,10180.0625,3246.323,11016.682,3002.6934,-1014.69434,1613.3839,9618.935546875
330,493.85385,57.67168,335.3757,333.90482,11.659095,-886.05255,1684.16076660156
331,-7648.977,4942.1143,14665.864,-4590.5347,4579.318,-11535.855,30014.611328125
332,15010.612,-6351.6807,24322.477,-5258.26,-2404.4902,-3297.6284,29578.654296875
333,2331.7224,10049.492,8821.88,4068.787,13548.035,15536.579,37095.35546875
334,12803.313,-5696.849,2265.5588,-3986.0493,3844.0598,-6054.35,21454.876953125
335,-5790.5312,-7769.5356,-1420.2178,-6811.1885,10038.213,-4441.385,23071.990234375
336,-9108.821,-4086.5386,24292.955,-2353.5364,2482.3032,993.00757,31799.525390625
337,-14383.741,839.6489,840.6797,-6595.7593,3744.6758,295.86816,20114.916015625
338,8968.232,-627.68524,1032.0385,6164.742,9036.2705,-1891.1653,21180.5078125
339,-7760.347,9181.111,20888.047,-1004.33545,1186.6272,6193.073,27289.388671875
340,-10157.497,550.8426,-9148.525,1669.4276,2896.8418,127.565056,11767.2001953125
341,21795.924,-8069.8354,12503.148,673.84015,2404.9438,-4317.546,27846.373046875
342,-2180.2837,-29095.496,-10656.497,-7552.791,3485.1143,8812.106,31759.52734375
343,3916.9573,10780.111,8548.53,865.34515,-1357.4426,-4374.519,10097.0703125
344,-9606.49,-11195.676,-8915.175,-6226.183,-8570.695,-10459.567,25864.576171875
345,9736.279,-1100.9822,6340.6753,996.08453,7118.162,3427.715,16804.947265625
346,2595.0808,3019.8318,2842.8005,-210.17941,-1754.204,8450.397,14957.5546875
347,15786.602,6598.3564,39687.977,-1771.5398,-1526.0321,-9969.462,34494.68359375
348,4796.0444,3637.2764,3036.9382,-146.79758,310.909,396.40265,1795.78637695313
349,25424.25,22210.848,43791.97,8216.632,12555.661,-2780.938,33247.4921875
350,8370.17,-16702.887,-8588.7,-5878.393,-3505.4934,8563.693,29182.0703125
351,-586.02515,-13498.558,-14087.103,-6245.4795,5614.568,189.39186,19656.431640625
352,216.80046,-12515.009,-5089.199,-2507.1467,-3335.5417,-974.40424,13333.44921875
353,-3649.925,706.9192,6737.021,-4119.5103,-1249.2118,1629.2676,12048.7607421875
354,9385.026,3086.361,44607.215,2662.361,-1944.1849,2307.99,39379.09375
355,-7698.048,-15380.58,-21549.059,-2731.2607,2245.1714,-2854.1897,14366.6943359375
356,-652.64374,991.4035,8097.2427,-163.7997,-1091.4098,6740.5864,14312.1875
357,-9470.054,1271.6741,-9620.102,-1792.1362,2075.119,7624.4316,17719.15625
358,11473.54,3706.3352,5996.4355,6580.886,-5468.5215,2230.9011,16803.4375
359,5843.345,-2813.9397,-13783.98,1290.8547,8125.4805,-15305.459,34584.703125
360,9526.419,1832.202,32841.133,6520.4897,8000.874,7701.451,35772.8203125
361,11634.1455,13613.768,-5967.8193,8767.33,2250.1401,9566.994,29478.177734375
362,7931.8184,7889.024,-14155.41,9098.137,-3012.0872,5402.7764,29155.078125
363,1402.0492,-4039.4707,82.66394,6709.1924,7032.4014,1266.621,17674.5078125
364,-3113.8132,-145.74036,-943.558,792.4722,93.48569,-190.781,3016.19580078125
365,555.85504,951.36993,-105.17614,674.58356,-5.852524,-98.61482,1499.76940917969
366,-112.434425,5995.0283,6489.416,2087.5295,-1544.6538,454.64838,7836.85498046875
367,704.1203,121.643486,-788.82605,194.4906,-173.96799,-167.43079,1409.58679199219
368,8030.9277,2554.577,3745.6936,2022.8237,330.40903,2187.7756,7200.57275390625
369,-7677.3877,-4980.2637,-2251.487,-1799.9213,-588.2175,-2300.5417,6979.6259765625
370,276.74677,2298.6238,-1419.1984,-154.50471,-266.36908,63.870358,3269.54418945313
371,-1468.5599,-949.58685,-1143.0164,1556.2228,-1988.3341,-1202.7086,4865.36669921875
372,-1106.6675,-4886.4688,166.66672,985.09717,706.96014,-298.45248,5039.74951171875
373,3598.1077,-1770.7899,800.9774,1836.2987,238.85625,741.0516,5793.6259765625
374,113.468864,4512.7725,4425.5356,741.8082,836.76733,-438.89734,4827.7294921875
375,2675.0583,2138.4895,-3528.794,-1527.0972,-498.9683,-891.8795,6751.0166015625
376,1210.2435,1095.0826,408.06073,245.05643,173.76143,57.20698,919.203063964844
377,-757.98914,-338.56827,-180.27556,438.20657,-36.010788,53.642406,925.180786132813
378,-1016.7762,-287.62915,102.167984,373.89005,-12.689247,-82.63777,1186.66247558594
379,-135.39197,-1244.5498,447.56882,-246.1933,73.95499,16.014622,1554.24597167969
380,-1704.6335,2200.432,-3850.8843,2057.948,-927.55334,-2652.3467,8039.1865234375
381,-2399.4934,-1224.9033,-1101.9757,-420.75406,-54.447266,-471.45255,1657.09399414063
382,1344.5671,1974.0953,-218.50874,264.395,-195.45346,401.10806,2151.85864257813
383,261.1407,371.6975,268.44662,1049.2976,-72.337,118.144844,1836.33264160156
384,3272.2583,1034.3876,-5149.2085,983.5282,-1958.9218,-6627.285,14256.9228515625
385,4086.626,-4112.429,-4407.8184,681.5611,1885.8293,-1102.965,9243.6953125
386,1696.8862,-474.03543,4586.5947,149.52843,-1480.5944,-266.39502,5117.919921875
387,-1803.9695,31.579762,-1998.6117,133.28262,1518.7737,349.39722,3332.25903320313
388,-2290.0176,267.91013,-2812.97,-2464.2136,183.38565,-349.57147,5180.60693359375
389,-406.126,990.47754,406.0305,505.75735,143.20279,142.39285,1538.03735351563
390,-1452.9678,36.905304,-84.651695,183.1049,-93.69989,24.1855,1477.18298339844
391,1261.569,271.243,-2348.4824,-89.167694,-579.2981,-70.15508,3388.72631835938
392,5039.4165,-62.03124,2478.5105,282.39563,642.96564,378.91043,4629.13134765625
393,-2511.6487,-1843.0605,-2197.942,626.2778,-680.42334,1975.2772,3821.83740234375
394,4393.3447,4066.7363,1512.8666,-849.97125,-1233.4314,-1517.1798,4593.46875
395,783.7642,-169.66797,964.9471,1265.2838,1023.23016,685.9478,3235.7392578125
396,-563.1423,-979.4495,134.97444,-460.82855,12.601392,-36.700756,1262.10766601563
397,-1840.984,-5364.104,5129.0723,-1212.5172,-1833.6104,403.2212,10026.720703125
398,-1456.2446,1378.1309,-714.6817,-1864.7433,-1136.7292,-180.61946,4570.32470703125
399,2031.8333,-1779.9242,-49.882618,-1236.794,-1256.3169,-2023.6691,5704.1845703125
400,-4497.136,1784.3474,2309.423,-310.27527,-794.69775,-797.5528,6864.5986328125
401,1238.1675,2251.4468,-619.4664,-1043.3575,419.7437,-948.7815,3585.35034179688
402,2442.3203,706.8857,452.00525,-895.6062,-452.57275,-848.79236,2949.7744140625
403,-1732.5912,-5962.2695,-10272.144,-107.043915,-2526.743,-3128.215,10160.6806640625
404,526.0272,4550.364,4284.86,394.56442,-1420.6676,1504.633,5339.568359375
405,-1234.8496,-5368.089,-837.9972,-466.6544,987.39044,-608.61707,4854.9775390625
406,3515.1516,3527.002,1331.3163,1438.8075,80.64722,-2627.3035,5633.2353515625
407,2991.879,386.3083,-3292.1477,1033.139,-1357.8998,-1433.1602,6693.29248046875
408,1240.5365,-1966.3003,1140.8679,-616.7218,1183.9496,1476.751,4675.76123046875
409,1501.4492,780.85223,6.2046494,-1777.6146,-165.30946,-833.9639,3650.44604492188
410,214.80362,2084.2522,1527.8307,-409.42487,137.64896,20.14269,1823.50939941406
411,1642.1823,-28.390821,-3029.878,-1280.3215,599.59186,92.3224,4778.6728515625
412,-531.58307,-733.18805,861.52875,-1374.5092,1997.7272,1366.1327,5049.92919921875
413,145.47064,931.28296,-144.48737,-598.4906,366.2055,-149.04819,1572.56726074219
414,3670.5466,2877.5032,-2049.1958,-2644.8953,-858.92395,-2005.588,8004.69775390625
415,616.14246,1132.9237,484.97284,-436.98404,-25.915369,277.3802,1075.98962402344
416,-281.6205,3405.865,874.8654,419.80167,279.5974,-934.93475,3749.13549804688
417,5017.2397,3080.3684,6858.6826,5765.396,2531.106,3911.155,13249.1240234375
418,3991.7297,5063.481,261.86893,480.16574,-407.47522,403.25925,4553.6396484375
419,544.45557,-10286.625,-12380.733,5266.161,-221.0369,3505.3157,16266.060546875
420,2823.614,-336.38336,-1633.22,-1089.9509,166.93109,-204.96536,4420.29150390625
421,395.83636,788.1672,-4842.798,-1465.5807,22.257816,87.86072,6010.06787109375
422,546.39966,2484.4478,125.00619,-1059.7465,-314.43088,379.86484,2974.720703125
423,2391.822,5113.2305,2860.8682,-940.77106,-1068.1735,-1956.4329,4889.84912109375
424,1530.7802,3937.4314,320.338,-1484.6553,-5191.589,-1983.8263,10461.7080078125
425,-267.50418,575.1039,2392.5771,1369.5919,-603.2736,1006.05286,3911.5478515625
426,2625.967,763.1187,2834.2002,-1363.2749,84.13997,-92.760574,3086.11059570313
427,3135.34,5137.68,-548.34406,-41.36327,2816.732,971.683,7182.92822265625
428,90.4824,100.510506,-1129.9852,-721.56866,-753.65967,621.7112,2434.63500976563
429,3031.7827,3657.1055,2256.3164,-1171.0177,418.078,171.5507,2490.74243164063
430,4607.873,4111.815,498.18576,2557.1902,1103.3485,2867.9917,7939.955078125
431,-386.14923,650.2463,1076.561,1103.959,-222.56259,1211.0459,3146.80249023438
432,1315.8037,590.1769,1301.7606,-240.72551,-382.11334,210.70529,1123.21398925781
433,479.78613,-564.3766,1177.9769,-352.03384,-846.21204,-44.148293,2198.32348632813
434,1465.7144,2756.898,341.90283,-402.8613,887.1067,750.31885,2986.27783203125
435,408.3837,-1811.1348,-2345.673,-2844.8335,481.63254,334.8866,5631.16357421875
436,4272.3726,-735.6933,2062.7869,9.4817295,202.47353,-91.062645,4364.1005859375
437,677.6311,401.65897,419.57428,213.64128,553.53925,583.90173,1466.46032714844
438,1301.4423,59.560596,881.91516,40.183598,321.53705,1614.2701,3054.48461914063
439,1473.4314,640.8609,-1042.8982,-995.6631,-188.63573,-80.493774,2833.77661132813
440,3366.2917,2664.8774,-925.6453,-107.15237,324.31317,819.83887,4274.1865234375
441,1288.9945,2511.7227,201.78046,635.09894,-435.0055,-268.15988,2449.47680664063
442,-2232.92,-1883.2014,-4713.339,-87.961395,2046.535,364.96945,4486.64306640625
443,5477.2686,10385.435,7996.706,3429.98,1725.3817,1398.1332,8255.984375
444,2053.2957,2428.6824,2774.897,269.85406,184.05408,-336.15836,1024.61840820313
445,1603.5575,2466.696,-1580.8373,1153.5176,535.0795,-2382.9573,5959.8779296875
446,-648.26855,-355.33698,223.73935,377.35605,123.18747,15.739887,1031.61499023438
447,48.89387,648.52563,-1248.999,-1620.3003,839.67505,1564.2697,4489.3701171875
448,-576.52985,554.59546,1742.93,-1901.1375,-439.80045,-252.17166,3955.97705078125
449,243.84608,-288.92267,-727.2926,-975.01447,17.129477,102.772896,1895.80773925781
450,-2443.9062,634.4986,-1781.9097,794.005,1314.9403,409.4141,3931.70678710938
451,-1048.7195,-1421.4756,308.59082,-1608.8284,-191.89478,-114.07129,3225.1630859375
452,-1117.6367,2263.0024,761.7868,-1801.7952,-1678.3232,1295.7539,5642.1572265625
453,-1337.8578,-2699.8862,-309.61664,-2075.044,82.85849,-275.4929,4180.74169921875
454,3109.9116,438.0775,437.37744,-199.46844,-125.026535,-422.59723,2800.462890625
455,-2307.1272,619.98334,-3342.222,-728.596,-538.2602,-180.09286,3902.34033203125
456,488.03683,659.2205,-672.7069,51.77648,-173.73222,774.41614,1863.62084960938
457,-2134.3933,1102.4421,-2050.6887,-437.84122,249.95953,-97.74373,3317.2861328125
458,1815.5457,172.31023,1627.5493,2126.7917,679.1497,-782.2492,4383.58837890625
459,-1914.9685,-273.47452,-82.33967,7.2764215,932.6274,-161.5346,2394.28540039063
460,-1253.2906,305.32797,737.3467,-539.03064,-121.39405,618.63446,2313.71606445313
461,-511.34644,1356.7717,-1211.0803,-209.76593,15.701184,-289.9734,2381.5283203125
462,648.5611,3190.778,920.5718,736.69214,-100.37345,327.0915,2797.263671875
463,3207.1265,2268.1794,3344.965,65.066826,-55.211994,-1639.6461,3019.4716796875
464,2141.1611,2045.5792,3032.3306,153.39966,-96.225204,471.61533,1286.13134765625
465,946.06055,502.1372,209.69249,-187.89014,121.56478,39.828293,753.270141601563
466,958.12695,-296.5456,280.45914,1409.0809,89.54946,-169.86409,2692.64404296875
467,648.6943,598.81384,-389.33005,-332.5001,-58.964554,-445.73627,1402.26513671875
468,591.4657,1533.8385,96.668335,-238.5038,-383.3806,315.69833,1584.22387695313
469,2439.4775,2177.2283,397.39578,-133.61844,-388.14722,1248.8701,2981.2587890625
470,-857.02686,253.73006,-1488.5787,12.319209,-358.65366,-310.2582,1734.72546386719
471,-904.76764,-55.160393,1227.5559,-433.16354,129.20746,147.55342,2033.54138183594
472,138.74945,1151.7249,1837.2411,-549.38025,-149.78468,57.208733,1781.30395507813
473,-1616.9825,1584.4055,680.2678,539.18994,375.67834,-248.90198,3106.97485351563
474,3587.6377,-1739.4564,-621.7051,-2321.9885,-1739.4362,497.77557,7047.55859375
475,-692.6446,240.72026,10.63014,-195.16882,178.46336,-96.53371,973.205932617188
476,-53.9362,1523.7622,508.34375,304.80978,-482.88782,-701.8008,2091.4169921875
477,-2784.682,-265.28357,156.05124,479.86682,27.066885,-350.80957,2940.85327148438
478,4606.286,1148.5735,1893.6469,-1043.5881,495.61755,987.1368,4106.3505859375
479,-1255.0026,-205.22661,-2073.3293,-1278.5679,460.35382,-8.746963,2858.48950195313
480,-154.38206,2634.1526,-1541.0376,-874.8039,3310.1016,-237.43526,6992.908203125
481,820.0039,783.6086,-1418.5627,-743.1277,336.7594,-107.98623,2638.74072265625
482,-2668.7292,-6540.785,3174.9265,2492.5437,4251.221,2099.4124,12563.744140625
483,2940.1348,1255.0399,-824.0862,-1006.9197,-266.39346,-309.4398,3769.30395507813
484,359.55692,958.8843,-694.787,363.9332,-189.4749,52.51186,1617.42028808594
485,853.4818,2098.2646,-258.57996,757.4468,-90.40346,44.99918,2433.55932617188
486,1381.7903,-376.08676,-142.2671,-745.2427,-192.65573,-60.355022,2126.5498046875
487,1269.9404,-3867.7708,-256.3098,-399.81387,36.281155,24.998775,4622.71142578125
488,-274.63678,-629.5889,34.09734,783.2421,131.05972,178.95245,1522.79357910156
489,-3507.447,-1288.0742,-665.1795,1830.4874,61.289814,-97.505104,4097.30322265625
490,1069.0137,1277.5566,955.8157,-1006.86536,620.761,-246.24443,2111.67846679688
491,-1240.528,-867.75854,-155.44917,1013.7651,-121.56815,159.76768,2028.77819824219
492,-493.47443,-1865.0284,680.77625,-1201.1125,41.816822,500.5771,3155.244140625
493,-724.9456,-80.059875,134.92719,-453.7213,-64.21732,159.2206,1143.13317871094
494,-1223.159,1002.66833,1121.114,-743.1577,-46.177635,-111.5154,2632.96997070313
495,-3424.1997,-921.74176,405.38297,288.82288,-286.11765,131.15993,3448.48999023438
496,-4393.33,-1085.61,-90.26766,1213.5071,92.85913,-59.918312,4436.04248046875
497,2471.2395,1180.8411,767.8061,900.01666,-143.34618,957.64685,2758.93139648438
498,923.10895,-1633.6274,108.86408,1203.9622,171.36887,-293.04413,3132.47314453125
499,660.5356,-2474.9443,-538.1848,2209.083,-151.20612,-60.77474,4714.80810546875
500,2232.1274,432.5311,-664.4859,-268.95367,63.226643,-350.30426,2648.267578125
501,-4531.863,-327.4598,-673.79645,-583.2383,65.98905,115.27605,4173.0380859375
502,-3373.5188,-1213.6836,-215.43265,324.7438,-54.45203,-83.81702,2857.23583984375
503,445.0766,-1292.312,961.59674,135.04333,65.138565,-31.890629,2062.32861328125
504,-461.94403,525.2885,-3416.7788,203.79657,467.65973,-66.76957,3662.90551757813
505,47.410564,-2555.3447,2143.5288,110.53175,50.941357,30.706541,4083.01293945313
506,-2352.1492,-588.1089,-410.98688,1234.6898,144.34363,-110.298805,2850.97192382813
507,-2142.279,295.71603,105.727264,51.258923,-96.26584,53.584614,2358.18188476563
508,8.053806,963.071,-773.0725,1386.2656,-395.75665,148.7404,2927.3955078125
509,-4078.6187,1209.3224,-338.9118,684.5163,-159.8623,187.06076,4874.39306640625
510,143.54904,-11.46981,-44.667995,-570.8039,-135.89647,325.23508,1174.93298339844
511,1371.7484,-54.289013,-1681.343,-1952.3623,79.245834,489.11472,4378.67822265625
512,4240.032,-1181.0264,-5603.366,-807.6213,-250.48901,3318.609,10397.2705078125
513,-395.69128,-966.5397,-879.3176,486.64777,-71.12017,-156.58124,1040.62023925781
514,78.71325,-779.67413,-1879.2924,-172.72948,197.31934,-149.4371,1778.53686523438
515,789.6723,486.89062,-66.14043,-1137.6349,100.31724,-134.01479,2128.77368164063
516,116.442505,25.242455,-461.5752,960.2324,342.25803,-329.96237,1932.32824707031
517,-1257.7335,1544.1191,122.71603,121.26495,48.49987,-190.46895,2459.31103515625
518,-1440.6334,-1.2109873,-804.1755,802.32837,8.111973,-175.84392,1893.41931152344
519,-567.3568,1687.6932,-237.16026,-66.46572,-85.34427,58.888073,2120.18334960938
520,758.74286,-2201.0176,-3887.291,-1481.796,779.7517,1834.5452,5924.73876953125
521,32.31443,-3127.119,1726.5776,-1469.1249,-332.67758,46.46744,5001.89404296875
522,282.38782,341.2478,2254.7803,746.4448,-166.62943,391.77847,2448.06225585938
523,-1376.3917,187.92969,384.9406,1257.6859,-313.34866,-212.84587,2823.1005859375
524,-2445.718,-955.51953,-455.203,-1755.7123,629.21545,504.07837,3796.6005859375
525,1022.61426,2454.6162,793.404,-1438.428,-1407.8468,-788.6693,4055.94848632813
526,-2916.1135,980.20984,-901.6757,-716.5867,263.9682,171.40681,3637.04028320313
527,-655.6917,477.46124,-802.51337,-351.57236,-64.904015,-86.90664,1370.42651367188
528,1126.5336,438.9291,-935.6333,-50.1733,93.13161,-245.79239,1876.75024414063
529,-3136.0193,1689.3658,-837.83655,-2189.072,5.7225194,-232.0328,5658.099609375
530,-2973.048,-2266.1587,79.09529,168.82155,-115.3998,75.367836,2792.89086914063
531,-2775.7627,-1679.4661,440.40436,241.00023,3.266462,-34.39463,2863.13623046875
532,-338.00037,648.5772,1091.6066,610.6403,220.15974,-100.699585,1703.28210449219
533,39.577553,-2194.6885,-321.64615,776.52203,-68.06207,18.868607,2477.75756835938
534,2651.783,1226.1986,1134.004,-573.912,137.82155,-544.69147,2026.67138671875
535,-1432.0586,-1002.94183,-681.1674,2048.4094,-11.807983,93.10805,3611.11157226563
536,-2309.1152,387.34204,-176.17885,1610.241,393.8433,28.051044,3783.55029296875
537,-356.37302,-3812.7734,307.9642,733.27246,-113.466446,249.43117,4064.80029296875
538,-887.96466,-3701.9045,81.81587,621.36676,-135.4579,-66.85278,3579.71801757813
539,-581.03827,-169.57295,899.0272,-21.246353,268.001,11.859103,1402.90832519531
540,-1020.6743,-737.331,1627.6014,-456.74738,-112.992355,128.8418,2656.54565429688
541,-1808.8414,2387.2097,-1082.2681,586.17224,51.13566,110.6465,4020.1220703125
542,-597.7285,-142.10323,-1356.7363,494.73477,-28.7273,-86.47116,1374.30187988281
543,-821.2586,-1214.6271,603.5735,622.9288,75.97348,-101.19301,1989.35314941406
544,698.5089,-790.1366,848.13696,1286.8375,49.867744,133.32332,2736.75659179688
545,1400.3927,1673.9691,-768.09143,-491.45255,3.3200917,-83.691536,2473.06201171875
546,-2564.5952,104.72358,-125.49156,2088.2625,16.964066,247.57182,4453.20166015625
547,-1148.8278,-368.3593,98.07719,2343.3745,-210.25009,573.69037,4334.15771484375
548,2214.0127,1448.1489,-273.79623,-652.3794,-93.69737,-74.893654,2488.04736328125
549,-1968.8824,-511.47922,-146.28467,-1577.9841,-233.1841,-53.9044,3229.79418945313
550,2310.2402,405.22968,-361.28046,-182.74487,-84.29457,-20.955738,2408.24291992188
551,2063.9116,-960.35236,-423.6877,-1223.7893,99.72666,-103.603004,3516.55859375
552,390.10083,-728.56323,-634.0546,-839.49817,68.12082,4.0606756,1811.86645507813
553,-1202.2136,46.4479,-367.3674,659.02466,176.9126,-644.22833,1963.57043457031
554,1368.5876,300.53314,-214.68434,451.6715,113.868675,139.78212,1632.791015625
555,1971.7794,404.3666,-143.22014,137.60858,88.31941,6.31086,1922.30529785156
556,-1667.9697,-207.94884,981.7367,-1870.9581,-504.60635,-31.676964,4068.45483398438
557,401.34424,323.16965,-37.121475,-816.83813,94.18302,107.87884,1492.4091796875
558,-1882.1229,-3639.8774,55.75194,-1621.3105,63.10043,-222.45358,4277.58251953125
559,-1153.4961,508.9447,335.71512,-820.0303,354.98608,45.21133,2215.23364257813
560,1041.1572,-544.8423,984.65015,-624.26965,45.402237,36.72197,1899.56176757813
561,-1051.0312,-508.59146,1054.5371,-506.98035,74.79725,-109.83464,2099.89916992188
562,-389.0403,603.9518,202.10956,782.79663,9.269595,-135.8119,1625.54248046875
563,482.3455,467.3772,239.07799,926.70746,144.26025,-335.60767,1741.39379882813
564,-2315.2683,-3360.4255,764.10046,-357.16333,-157.89447,3.4080172,3775.02514648438
565,-1342.3042,-4127.388,333.7496,0.26312658,-13.401564,-18.285112,3903.24780273438
566,-1375.7717,-2771.477,1556.0112,-574.739,838.01764,1235.6615,4723.72998046875
567,575.1474,-660.769,1274.5892,-174.20209,-135.24188,8.246791,1739.90637207031
568,2165.8296,18.32421,366.22516,528.9123,-48.25667,-22.91889,2198.52270507813
569,-607.3349,1449.7515,40.95261,65.4172,62.6677,-64.211365,1831.744140625
570,1019.69653,-898.6722,89.65763,-16.727222,8.063276,44.972504,1663.74743652344
571,643.1028,-1120.0406,368.3496,139.24805,5.198081,45.353874,1662.57543945313
572,-101.72047,-818.5534,-411.46893,-396.54645,41.17999,80.78538,940.302734375
573,401.3093,784.1629,-824.04614,295.83356,-295.32574,197.50877,1660.85461425781
574,-762.7459,588.8552,1105.5181,-91.55531,357.72046,-149.04486,1807.69750976563
575,1615.7928,1805.0927,-1252.6115,-272.36984,53.750042,-24.548223,3006.59228515625
576,-458.2991,1031.8013,-251.85442,-1229.5885,-641.2647,-560.9017,2944.24047851563
577,707.3094,771.24426,295.47852,-205.98643,-260.42984,-319.88058,915.289978027344
578,1975.4779,2810.0903,3156.2898,-545.0969,-625.91656,-741.7546,2196.06030273438
579,262.17096,676.6306,-2935.257,78.99592,401.19995,870.403,3807.22192382813
580,1266.2731,629.25806,570.6024,-109.57654,-494.66208,450.2905,1350.91467285156
581,-3240.554,-1781.4017,-1864.3777,1830.9958,-1291.1515,-3028.182,6677.08349609375
582,-1202.8499,2845.0425,5286.853,932.6531,-221.18225,100.00519,5917.63037109375
583,385.71692,902.93854,-255.5679,-820.63995,310.27045,-84.985344,1827.91442871094
