Element Label,S11,S22,S33,S12,S13,S23,Mises
1,8304.4795,24810.094,17784.78,360.31696,4569.441,-2431.7856,16929.34765625
2,5793.614,-683.45325,-3936.1309,1214.8553,-2449.6692,5192.6035,13301.119140625
3,31853.154,26585.666,31914.623,-4275.897,-973.1212,-966.65344,9411.05859375
4,7255.7676,-35638.04,-16585.457,1207.4424,-832.56116,1616.7576,37415.7265625
5,-54359.055,-86164.516,-61281.223,15237.491,-601.46185,-4015.0825,39816.23046875
6,1562.1162,17288.654,30466.174,-5400.7114,-7772.86,-1305.516,30034.580078125
7,-54192.254,-47208.12,-33328.43,1983.593,1968.0454,4353.5137,20460.80078125
8,-7563.196,13821.942,21964.617,7911.681,4411.7134,-8785.389,34285.30859375
9,-63495.91,-66102.34,-34168.637,7879.1274,728.18335,3308.6992,34117.40234375
10,34693.883,28590.229,62054.32,5022.6665,3489.7551,-11373.462,38119.94921875
11,-15613.225,-28477.588,-25642.025,20237.258,7053.0386,342.8115,38926.6328125
12,27104.006,6687.832,35695.73,17324.123,3262.528,1533.781,40067.609375
13,-3438.916,-202.95328,-4457.854,16615.607,-10560.549,-761.96533,34341.8046875
14,36313.44,17346.283,21938.574,13140.067,5041.757,-2404.5579,30088.65625
15,-89676.68,-96134.67,-82692.94,14148.443,-1896.6562,11957.792,34291.00390625
16,10805.931,23424.096,12722.122,11603.537,-2187.073,4382.575,24791.291015625
17,11059.383,22758.447,25275.955,-17626.145,684.9396,12117.768,39327.2109375
18,43514.9,39829.03,73999.31,-5048.4204,3699.1372,-11828.259,39905.890625
19,8868.994,8767.741,9509.206,4.159862,833.73456,-685.5826,1995.09619140625
20,-42576.695,-51074.42,-12596.954,-1413.4216,2822.1814,5159.6675,36544.62890625
21,5832.4834,1209.9182,-11891.831,-12446.177,8845.725,432.26376,30880.5859375
22,7559.465,15270.812,33291.49,1005.6301,-2653.548,11807.36,31073.66015625
23,-81411.49,-84733.7,-119976.51,5167.0215,5178.4946,2831.6907,39430.65625
24,136424.08,167563.3,143389.6,14456.941,-7230.627,812.96826,39838.5078125
25,-104392.94,-109416.78,-112252.96,-20545.28,-327.61362,-9384.248,39728.71875
26,23040.324,44086.742,56823.953,11171.36,3045.8643,9577.266,39378.45703125
27,-265426.72,-264975.72,-302324.8,-1524.8384,187.10103,2744.741,37523.2578125
28,111592.94,114877.555,149766.67,-5874.681,-5257.425,-3015.5903,39450.921875
29,41480.637,56803.145,80126.2,4099.1333,-6894.006,7358.0146,38620.25
30,53754.66,64795.367,75410.08,142.85135,7875.182,5790.1826,25267.73828125
31,-98416.51,-114786.41,-100431.98,749.8505,-6838.4634,10433.883,26601.146484375
32,-37756.09,-18079.75,-39677.87,-10207.173,-7225.477,-3547.4937,30587.595703125
33,-3262.522,-31523.344,-42223.883,4191.9136,1750.5565,9987.82,39708.44921875
34,-17043.393,-31666.373,-29193.195,-117.4664,6527.796,-1607.935,17872.2421875
35,-34249.207,-31678.785,-24149.342,-3063.0037,3972.6184,-7873.212,18550.119140625
36,-42439.426,-13322.359,-40140.598,-15681.536,4054.851,2896.267,39979.6875
37,17714.604,-14597.1455,3478.1736,2058.01,-2378.7795,7730.8623,31554.744140625
38,-9172.126,-15039.577,-9917.102,6172.8887,14371.817,-2002.6753,27867.6171875
39,26905.408,24789.113,9941.965,-3072.3567,-4421.632,-94.84548,18529.302734375
40,-439.08105,-1691.3594,-28152.807,-400.51483,522.91797,-3023.7734,27634.119140625
41,57236.6,49655.152,51020.2,2699.7698,-2440.5999,7488.5063,16030.025390625
42,22327.377,3962.2773,41271.02,-1525.0625,3293.7454,664.23114,32937.6328125
43,77629.93,77239.234,76078.18,-108.229126,131.85173,-808.7703,2000.98303222656
44,-3089749.5,-3089648.2,-3091521.8,6.713417,146.69514,-101.583725,1851.00329589844
45,456297.56,456469.6,443668.88,4838.5244,-7321.4824,-1288.0433,19942.650390625
46,95995.95,101474.26,134540.84,-5400.4067,-1990.7634,1606.8666,37572.44140625
47,47288.71,43619.383,44172.84,-3265.1902,-12058.48,-1105.0248,21991.087890625
48,304643.06,324632.22,301120.12,3389.1016,-3686.3933,16843.367,37532.94140625
49,2241.951,5331.988,41038.098,1656.3401,-53.159245,-6329.281,39028.52734375
50,185010.81,166758.53,206781.27,-689.08466,1596.7118,3318.8933,35306.8984375
51,86304.875,103721.05,90828.164,-2702.284,7382.144,8007.185,24954.859375
52,132434.06,125771.59,156235.84,7658.3394,497.39438,-5639.1772,32273.60546875
53,-61024.938,-31485.404,-47779.434,-7679.703,447.66583,-9838.576,33536.3828125
54,-169106.97,-156177.86,-197473.22,-7493.8506,-3916.9814,2141.1755,39582.9765625
55,163163.25,159994.78,190808.81,-650.00385,13834.93,563.5398,37925.5390625
56,32649.564,64326.57,70501.516,9346.947,1156.0084,5699.689,40009.13671875
57,-35127.85,-58593.535,-40950.668,-15704.16,2031.699,5151.377,35773.76953125
58,30849.686,37075.395,51362.523,-5006.2534,-15893.748,3755.117,34744.109375
59,58161.836,54460.004,89036.9,-5388.2896,898.1857,-4018.857,34917.6484375
60,2968.972,2418.545,-34628.402,-6965.9487,-4226.766,-198.84448,39905.6328125
61,-57070.418,-26385.014,-54906.562,-8052.5947,-3945.5203,12536.153,39907.10546875
62,-44632.07,-35018.93,-31632.031,2335.9207,-3817.933,9045.25,21023.58984375
63,29726.1,23879.137,-11288.592,-580.5475,-4167.851,-4675.438,39941.00390625
64,-84656.984,-55275.617,-69494.34,-12549.232,-7596.3057,-3758.413,36545.9921875
65,-38667.36,-25482.896,-4434.8594,-10763.405,10968.865,932.95953,40068.30078125
66,34429.664,39165.61,20138.549,5530.308,7090.1304,5328.624,24941.783203125
67,-88276.57,-87527.34,-122396.336,-3590.6157,-9897.854,4169.0415,39686.34375
68,-15062.127,-23963.738,-16082.234,-16498.285,5827.299,12994.637,38681.16796875
69,-16853.717,-3697.3262,22186.482,1636.2557,3095.3347,10.77219,34933.87109375
70,98652.33,111099.06,100631.055,-7030.286,-18402.826,-8207.884,38737.35546875
71,-203227.56,-206901.67,-206642.98,-1453.1248,4116.635,-10372.017,19812.28125
72,126926.28,100982.875,93471.17,-1400.9728,5504.4746,8666.79,35305.67578125
73,271372.8,264668.62,271108.56,7659.1504,-3647.2595,10533.6045,24331.2578125
74,-394483.5,-398345.0,-379173.12,-3468.1228,3456.967,-5375.2793,21611.482421875
75,-573050.5,-565426.3,-574443.5,-5815.4224,-2532.5454,-5040.798,16359.0
76,306488.3,301107.94,309795.5,-712.6788,4862.3213,7722.9297,17580.130859375
77,-32117.904,-39829.137,-47233.25,-9179.081,-1231.8575,4897.17,22375.08984375
78,-31297.36,-48745.78,-43871.875,-5607.472,1383.5244,-1225.6395,18647.8046875
79,102010.24,141166.38,139305.89,2233.0645,5761.0894,1486.1403,39811.69140625
80,-51994.85,-61253.26,-51252.895,-21524.795,1919.2032,-6238.124,40135.78125
81,162488.56,152214.55,186294.92,-13984.701,5069.3687,-1507.4828,39843.6171875
82,111507.4,90536.16,121121.45,14985.578,1775.3427,-7183.204,39645.87109375
83,-9403.658,24533.855,18330.234,-6430.21,6917.4385,8672.871,38379.109375
84,-31022.98,-31838.342,-58936.137,13031.363,8705.634,-552.9062,38662.38671875
85,10609.927,35135.285,9.071289,652.29376,-11710.601,5533.5483,38450.1328125
86,-4428.198,-18752.924,16062.16,-1405.959,-8827.151,1878.9932,34188.43359375
87,-26393.707,-60455.633,-64795.016,6807.7783,-5348.4185,-2405.8171,39611.5
88,1035.6318,28725.863,7161.5884,12335.002,6232.324,10314.236,39074.03125
89,-45888.9,-65273.47,-83528.695,6637.1035,7211.9497,-6448.794,38416.60546875
90,21768.402,20656.035,9966.377,18694.615,9108.511,6330.6094,39306.33203125
91,27723.795,22933.39,7882.279,-10120.438,-13082.285,11960.777,39641.8203125
92,23364.916,13869.804,30668.488,-2517.445,-3897.4993,1211.7318,16787.986328125
93,33.225792,2949.1738,-36175.637,-1737.7,4690.66,5470.7754,39875.07421875
94,-9383.177,-10501.793,-11284.105,-9086.416,-9215.393,-4988.0728,24079.873046875
95,27600.072,31282.287,58541.973,13985.721,3640.4055,777.7921,38540.87109375
96,13459.915,5227.5503,44859.688,358.83496,-3987.4507,-8220.874,39535.375
97,111081.69,115400.66,119917.22,4229.4507,4869.5557,-5075.9053,16144.8642578125
98,155139.8,146866.81,120430.02,7296.656,-1542.2137,10633.245,38627.890625
99,-42012.934,-57459.465,-86185.805,2205.42,1454.7174,-2251.2754,39289.50390625
100,-9898.629,-36023.816,-13314.39,5906.154,-987.61365,13051.364,34979.19140625
101,4767.115,22283.951,3247.2786,-9632.569,567.6794,-17379.877,39003.5703125
102,12536.199,15515.485,47774.254,-3481.3066,750.8543,-10557.481,38962.078125
103,605.1008,-7151.3267,-3549.1934,3202.3528,1245.4011,834.0827,9094.12890625
104,48925.902,64371.723,75645.03,-2851.2976,606.5041,-1825.3231,23984.892578125
105,-10175.197,-13243.039,-21038.127,-4861.274,1387.5361,4282.322,15025.8349609375
106,-3717.1602,-23567.0,-45576.55,-4462.073,-1376.4434,-419.30203,37165.359375
107,-32336.658,-37573.137,-48234.035,-10329.073,-3127.3188,-1715.9111,23561.48828125
108,7181.831,-15500.196,-14138.822,-4349.3125,3303.5427,5443.2344,25764.8046875
109,-3122.877,-18435.2,-26487.354,-19420.363,460.7673,1277.8774,39491.6328125
110,-80514.66,-84085.2,-93721.375,-3004.3752,-17927.14,-1785.612,33775.76171875
111,-4541.2173,3122.4146,19062.615,-13682.675,13961.215,1583.1605,39860.9296875
112,21661.287,13834.74,47456.004,-11251.671,2269.47,-1816.6835,36519.29296875
113,9023.238,19576.225,22423.904,-16437.527,5291.0425,3330.8691,32823.35546875
114,-47146.363,-44245.574,-70359.57,8665.779,-10825.126,7777.8447,37053.015625
115,126241.32,115852.95,144990.45,-4862.7793,-14996.473,-1515.9207,37506.5
116,195833.19,187674.11,187297.77,-3768.831,-3408.383,-4100.579,14060.2470703125
117,133320.06,128653.766,136213.83,-6544.767,7335.479,-5812.9507,20855.509765625
118,-238791.34,-239118.72,-225668.81,-621.57605,3655.3225,4406.2573,16616.03125
119,115514.8,115664.04,115567.75,130.39629,8.650427,-1143.6547,1998.06066894531
120,911.6252,28687.414,37314.21,-10259.585,-905.4913,-7358.49,39575.38671875
121,45178.9,54073.246,55684.52,8835.961,-9684.052,-8268.176,28577.79296875
122,46956.695,46204.69,82563.91,-2113.5574,8597.154,2934.8452,39448.57421875
123,-39027.38,-41411.875,-56151.805,-8307.688,5342.014,11432.051,30705.673828125
124,23592.254,35126.24,2289.5947,-3229.3325,12122.975,-569.4289,36134.453125
125,11298.136,11251.421,10064.163,-126.27357,-436.09763,799.6537,2000.9853515625
126,-42932.133,-31028.09,-63619.047,1297.8158,-7339.2734,-1051.8634,31398.71875
127,-37461.625,-20155.205,-59908.438,-10111.257,-1647.3662,2640.0244,39084.63671875
128,65506.004,80307.96,103329.55,-2621.2485,3930.4377,-322.1692,34016.54296875
129,-193516.0,-163271.08,-202615.66,-1645.4993,815.18005,-9725.434,39580.8828125
130,70235.26,78467.44,107737.586,-978.96643,-11170.667,4159.574,39932.4453125
131,-19315.541,2748.3672,-33170.797,8433.802,1208.0153,2827.254,35017.5703125
132,-62327.57,-38940.785,-31655.898,9349.878,-2113.781,13407.354,39816.046875
133,-247878.52,-231161.05,-274031.2,-5651.056,-3824.6316,3108.4058,39614.58984375
134,78048.6,46029.457,44035.203,-4383.119,4679.539,-9617.139,38650.4140625
135,-69822.586,-60336.086,-77428.81,198.35675,-10801.136,-4392.2827,25059.787109375
136,18986.818,-10319.249,-9103.687,-3477.2695,-1453.4043,1197.1431,29523.052734375
137,-9699733.0,-9699790.0,-9701686.0,161.38448,-234.30696,-131.96364,2000.30358886719
138,-1728523.2,-1728512.0,-1730517.9,-19.663065,-6.972227,-22.47872,2000.97888183594
139,-92252.016,-85719.35,-80634.766,-3317.1555,13984.377,13289.387,35373.25390625
140,-101141.195,-96228.734,-129660.23,10566.759,-1948.0908,-2651.1152,36674.3203125
141,-22449.902,-30917.75,-44564.902,-11180.154,-5411.0063,9955.551,33670.0859375
142,23520.96,4490.7305,33296.395,-9536.695,14414.46,2042.6217,39400.88671875
143,-58872.24,-64523.19,-24251.244,-2808.0173,4587.7886,-820.4984,38923.078125
144,12692.643,24988.193,-8280.835,-1920.9685,9659.402,-1580.2065,33873.61328125
145,-22423.77,-14140.405,-39083.67,1795.7683,-14200.772,-7800.7383,35796.38671875
146,-56117.4,-62243.16,-48538.92,-8464.563,-5928.1816,7897.588,25473.01171875
147,-33393.22,-55786.836,-71655.516,1532.9572,-5833.193,-1345.2574,34974.328125
148,16973.662,-4387.7344,36057.035,-718.3856,-4216.2837,-114.638214,35819.69921875
149,18225.285,23908.072,28707.57,-10120.658,-13361.803,-12111.635,36953.69140625
150,-363809.47,-369472.34,-389229.9,7125.0127,-6046.7944,11662.074,34703.234375
151,-13113.149,-10835.782,22710.348,-3397.23,3578.8254,4954.7705,36791.61328125
152,-109642.78,-137801.4,-137296.2,-4649.2583,-15191.248,3447.2246,39645.38671875
153,-77136.016,-72106.695,-68580.06,-14007.046,16503.08,-5555.5312,39417.0859375
154,-90905.21,-74925.08,-67375.14,18384.014,5382.8604,2210.1829,39351.12890625
155,-34362.36,-57992.51,-19527.621,-7598.9995,6314.704,6164.6323,39190.171875
156,20998.982,8953.882,6356.1416,3981.0457,-3025.954,-20785.307,39423.66015625
157,-25694.49,-806.73975,17556.686,7674.22,2619.4368,-158.11768,40137.015625
158,-81091.04,-91535.74,-123407.695,-470.6264,5498.4966,3507.1572,39825.515625
159,6166.4814,-24995.121,-34918.51,5747.1406,5808.596,-188.83705,39738.6875
160,-79836.766,-70490.3,-92751.305,9334.284,-12392.191,-6012.22,34718.48828125
161,-10487.843,-20573.73,22126.38,-3768.766,911.0784,730.9313,39256.3359375
162,5219.0806,7217.177,-4884.456,-8068.4097,6678.418,-1654.0347,21530.69140625
163,26812.883,44699.355,56611.625,14075.4,-9410.647,5109.6187,40165.31640625
164,-29295.902,-74308.54,-56455.664,-1488.3829,2574.3022,2060.105,39755.7109375
165,270055.03,261606.11,293887.06,593.635,7205.7197,-13396.656,39191.078125
166,-172749.38,-182898.75,-192763.45,-7512.231,18734.51,833.4099,39048.33984375
167,122646.61,147796.05,132050.56,-14933.814,-208.47626,7318.1104,36252.9375
168,51812.47,42321.434,66628.38,-973.2279,-16553.861,-7286.8857,37873.9765625
169,-25164.133,-46769.777,-50073.0,-13395.775,-8321.074,-4912.523,36980.30859375
170,30960.654,33863.734,68147.625,-5083.873,3507.7717,8044.007,39898.7578125
171,-241674.0,-231187.62,-233127.78,10500.411,-10339.953,-452.4013,27304.154296875
172,7431.2686,38588.59,16666.557,10966.981,-5204.922,-6499.619,36567.1328125
173,-13659.352,-9990.987,-9436.0625,-14453.858,-9940.026,-2436.0886,30931.513671875
174,-13751.582,18258.094,-10021.31,10226.098,-6635.751,-1094.2837,36993.7890625
175,63379.46,64351.367,86958.164,-415.17285,-2736.4963,-4907.7905,25084.359375
176,23556.775,23650.434,-3937.2766,1300.7451,-8052.346,-220.20297,30955.59375
177,-100384.22,-92232.5,-132597.81,932.1107,-2852.8184,-5098.9873,38363.83203125
178,-23523.168,-3075.6934,-47363.086,-1796.9105,-5483.559,-2722.357,39950.4140625
179,-46171.51,-37425.68,-77944.11,7988.5635,3703.181,1095.0714,40000.6875
180,155961.39,165309.94,196518.83,-865.1739,781.68823,6606.7524,38576.86328125
181,9826.506,16198.934,-3204.5566,-3309.8562,-1401.5752,2072.7148,18576.94921875
182,27964.648,19916.146,49109.652,-15525.74,-5440.3354,5288.788,39723.125
183,47682.484,77646.86,43874.79,-7048.2617,-4893.227,-4521.1094,36175.18359375
184,29068.168,46983.816,45074.84,-3208.5364,2451.0,-17664.277,35712.75
185,1974.7622,-2037.668,24082.518,-15706.525,2540.4932,-1049.4988,36828.11328125
186,23336.713,-2044.9529,22439.523,4301.0537,-3917.8862,-1161.6041,26978.814453125
187,53207.13,53014.047,80510.06,-3744.7957,-296.8088,990.1784,28214.09765625
188,-170778.25,-170641.94,-170844.02,-37.50931,-615.2616,968.9197,1997.03491210938
189,35078.688,7562.8213,52740.484,-103.99006,-200.51962,4385.536,40160.84375
190,-232121.2,-225156.34,-262180.66,-2321.188,-9815.925,5838.9526,39609.859375
191,52469.887,10100.512,33700.51,5333.1587,-2763.5337,3835.0232,38788.76171875
192,-73007.72,-73372.95,-45870.742,2530.5994,14801.248,-6499.9873,39365.625
193,-2032.85,-9626.312,15871.665,-1172.0875,4325.4214,761.14966,24003.681640625
194,-2628.0938,2639.4126,3685.9626,-677.0976,-2568.049,-655.35547,7536.7822265625
195,-57956.234,-100604.914,-90222.66,-4700.4717,-595.06226,-429.8098,39393.0390625
196,49726.234,63759.004,60255.906,-3054.363,17583.979,405.55646,33408.109375
197,9505.21,-1367.1963,9933.82,-1867.0729,3398.357,8349.961,19424.80078125
198,16324.864,15240.734,20976.023,-8370.04,-3085.2766,-11516.307,25777.0546875
199,-41858.73,-41628.88,-69475.766,-911.94965,750.2508,-5848.341,29595.5078125
200,-19225.768,-15651.622,-10972.842,-771.1266,-2392.4585,-1316.9036,8691.7392578125
201,-11728.725,-27174.805,6951.577,-270.88837,-5046.117,6067.145,32605.416015625
202,6741.1094,-2080.4802,-13008.053,-930.59845,-179.13948,2343.7534,17686.28515625
203,23606.375,10877.784,38666.707,3218.1396,388.74573,-6636.0107,27279.296875
204,-32951.88,-41577.055,-43694.547,2269.8506,6632.4995,2611.4585,16279.6533203125
205,8629.627,1379.7803,10207.338,-4768.3374,6255.1396,2393.6963,16409.400390625
206,-19319.664,-24488.537,-23695.258,-3665.8518,-929.8482,-7657.4746,15558.4765625
207,9016.447,10036.712,12994.888,-8223.379,3605.8628,-1420.873,16147.6044921875
208,36356.445,26395.994,65639.055,-854.012,-9201.534,-235.64615,38790.578125
209,39474.973,9443.991,25630.062,-1739.425,5341.8276,5463.0044,29359.505859375
210,-2442.5378,2310.079,1586.9622,-146.48883,-3066.6187,-7894.578,15327.2138671875
211,-30693.793,-44875.746,-58473.496,-985.54944,9757.942,6641.959,31619.3359375
212,-1127.1875,-11412.906,-6723.8813,-4760.1895,-4080.905,-5547.9316,17024.4296875
213,-152561.97,-153228.23,-189276.12,-595.8075,-4654.209,-2814.4194,37599.53125
214,-4850.4956,19445.463,38222.91,-5631.2793,4361.651,-2529.986,39629.66796875
215,7857.2197,8069.175,32492.43,-3446.2678,5815.435,-7664.8203,30249.8515625
216,26025.445,38123.07,-5635.2437,3323.4138,-3878.4412,-936.215,40157.96875
217,-15532.236,8706.136,-15273.77,-8824.713,-4739.153,4540.424,30727.0625
218,37626.547,30399.107,71595.49,-470.55417,5629.178,3963.3093,39930.99609375
219,53055.855,50174.95,85104.375,2310.1438,-1301.0825,-151.71307,33895.3359375
220,-17906.29,-22576.246,-48874.836,1847.1067,1309.0625,-560.59753,29198.57421875
221,-22781.332,-17561.77,-48061.652,1204.53,-2130.26,1512.5408,28690.080078125
222,42614.945,45291.703,82162.45,-2259.1604,-905.32294,-1579.1179,38607.8046875
223,39189.758,35932.094,76150.6,-2809.3523,1489.8754,250.52905,39085.125
224,-95954.26,-97696.58,-135672.36,3267.5222,1754.6871,-3196.8374,39790.546875
225,-8817.283,2681.474,-17836.264,-7600.937,969.6223,-6618.6963,24996.703125
226,-30388.555,-27825.383,7707.055,2969.4788,-6597.145,-1158.7152,39003.1796875
227,49602.16,47978.836,86684.86,6283.744,-1721.3044,-2593.1743,39818.0546875
228,-40511.195,-51307.26,-79615.5,-9747.787,-2224.9238,5257.8564,40079.5859375
229,-46024.758,-34802.5,-45170.39,12494.451,9999.615,-15046.529,39554.84765625
230,11760.231,-11041.2295,29098.758,-1789.5813,-8380.698,-6495.9556,39532.0546875
231,-15098.162,-20155.094,-23400.855,1935.8835,-2157.203,-7192.7676,15262.12109375
232,18220.447,5948.581,-1948.5967,-3346.365,-3207.9077,543.19855,19370.826171875
233,45359.805,21853.324,64822.016,2584.0923,983.8485,5280.5425,38670.51953125
234,19411.547,16149.684,30261.852,-13451.041,2657.154,4410.0474,28037.109375
235,26303.486,31776.258,46235.24,2795.025,6083.016,-19357.588,39708.1640625
236,-127365.23,-136916.06,-165462.69,4457.8286,8909.25,5315.9404,39513.17578125
237,61129.016,58261.594,84195.445,-17261.521,-230.3881,5258.0146,39792.0
238,18353.709,38958.49,63122.242,-4016.1094,2816.9282,1605.7224,39827.88671875
239,96701.37,72957.12,114951.0,1980.6708,-179.8813,8111.7407,39235.56640625
240,-3723.3145,-18513.469,-33022.27,-7839.3423,1800.3855,4291.9033,29886.330078125
241,-8994.363,-24932.746,-49245.926,494.8917,9325.374,4052.7664,39288.328125
242,-17821.816,-314.97342,20503.898,2179.736,1930.2725,-10936.503,38582.90625
243,84740.03,79977.17,119621.06,1019.17523,2913.1558,-848.43695,37897.75390625
244,-61962.57,-68704.3,-88914.94,-10127.697,350.9646,9760.419,34410.0703125
245,-42401.58,-54682.617,-38703.14,-11040.823,5584.53,-15689.107,37518.36328125
246,52623.758,45193.613,51677.1,-99.6732,17390.793,10936.888,36266.578125
247,60721.203,62804.996,37011.223,5187.1904,-15951.588,-1598.6096,38310.0390625
248,319.2966,13054.255,22285.572,-6060.336,6220.459,-2664.9895,24749.31640625
249,303835.3,293901.56,316998.2,904.5679,-3588.1987,-1238.1158,21174.90234375
250,-365434.12,-367058.62,-358908.62,-2266.421,11602.941,10075.0205,27921.939453125
251,339134.97,336757.3,320112.56,-2812.3582,457.3429,-13026.018,29251.7265625
252,212109.78,206649.84,214814.61,-5960.3667,-4006.1025,-8410.362,20465.1484375
253,-158421.95,-160949.69,-194870.36,903.55585,3030.9937,-1754.0927,35804.80859375
254,63741.594,64223.36,66125.86,464.35593,-639.6381,-2318.3242,4771.408203125
255,7145.935,7079.3716,7420.997,-164.59833,794.48206,802.21796,2000.98547363281
256,35410.902,35361.797,34370.383,-53.96997,-8.0861845,-993.0494,2000.34313964844
257,76479.016,76220.38,68586.125,-818.20404,411.14105,-10519.504,19870.04296875
258,44757.55,42145.805,63071.883,1611.356,6062.3784,-6828.7583,25456.056640625
259,45121.137,31710.121,68599.13,-3979.6038,-2521.9604,2486.4734,33631.46875
260,159824.0,175663.6,189631.81,6482.205,552.4737,13297.347,36396.234375
261,-290943.75,-294770.8,-277014.75,3047.433,-8587.306,5463.7544,24507.4375
262,-130316.414,-121130.27,-126831.875,-4756.796,12694.965,-4253.409,25887.4453125
263,-82661.125,-94891.266,-126318.52,3247.0112,1859.0089,-2669.9812,39811.95703125
264,-150302.5,-137807.53,-169800.9,6924.367,10310.423,-3132.0186,35666.8984375
265,-88256.48,-101628.75,-121696.516,-14885.434,-269.20358,3829.4355,39481.9453125
266,20283.795,39893.633,13403.303,2528.4304,-6996.5073,-6431.1084,29273.228515625
267,-62120.785,-52933.176,-68382.234,-850.00116,-9688.271,-7277.407,24975.646484375
268,13499.192,-7680.06,-1775.0039,7837.083,-13329.671,-5859.2183,34331.57421875
269,50924.055,67046.266,94032.97,-3939.8604,-4506.308,-5213.832,40153.87109375
270,-6431.906,-1245.9658,-11932.02,9504.589,-3713.859,-2137.3843,20291.958984375
271,19263.543,30520.168,8992.727,-5229.485,120.19832,1758.7683,20956.662109375
272,47017.85,28663.266,53306.33,2109.481,14254.013,-1629.956,33506.84765625
273,-46229.82,-56460.89,-66679.95,-7674.473,4019.0505,-992.6619,23275.8046875
274,29453.55,18468.72,-11900.508,3037.6816,940.298,6541.7314,39182.5859375
275,14015.209,10181.102,24755.215,-3350.4062,13388.381,-834.65765,27289.892578125
276,-8025.0845,-38250.926,-34938.71,-7441.245,-8116.976,542.3194,34483.51171875
277,-8536.344,-1996.0776,-14727.881,-1785.6045,4239.4155,-141.82628,13606.908203125
278,24545.531,22918.994,61404.664,-1776.5925,2880.748,5966.843,39526.80859375
279,-25859.04,-27912.27,-35149.508,-1484.4799,5910.1445,758.1185,13585.9404296875
280,-56521.57,-38542.125,-75401.766,-3303.6265,-2443.919,6201.342,34426.84375
281,-47304.867,-46048.453,-8847.427,-2769.5164,2027.5975,5281.9795,39386.25390625
282,-37106.957,-28489.977,-49628.258,3038.619,-798.6933,-822.8528,19250.34375
283,-11491.698,-3702.7952,-2633.4802,-1605.207,1353.8177,1685.4832,9585.9443359375
284,-9559.113,1306.3792,5816.3594,10680.632,9143.043,2544.863,28281.51953125
285,93802.07,100899.65,129986.97,498.29312,-10494.162,6670.419,39591.765625
286,15465.412,-2157.6035,8030.9595,-1427.2207,-7519.772,7811.924,24365.02734375
287,-69101.84,-47981.742,-87161.75,-5817.337,2946.4375,10279.9,39978.04296875
288,-23006.055,-45870.8,-42570.004,7234.0146,11678.229,-3290.9053,32509.169921875
289,30076.066,18596.025,29472.137,-2240.4458,-1372.7985,-12506.991,24803.42578125
290,-4728.5737,-14391.838,25030.596,8547.449,-5620.7915,1796.8658,39877.31640625
291,16313.1875,2499.4658,23688.328,4063.1816,2024.1425,996.67834,20295.064453125
292,-5229.211,-14125.699,-46522.074,1259.9779,-1800.2798,-1086.3236,37880.23828125
293,6963.9355,-1381.4725,2829.5364,-4604.3887,13958.138,6303.4785,28627.388671875
294,-31023.994,-37645.008,-70599.93,-2059.36,2802.6587,5359.8887,38347.5234375
295,12000.151,19227.691,45965.48,2765.074,-1261.9989,2065.874,31637.216796875
296,-44935.355,-62324.383,-87884.73,-83.42465,-5349.014,4388.6987,39291.4453125
297,-16514.734,1197.5605,-2055.7942,-505.99252,1301.4047,336.2878,16518.88671875
298,-108619.055,-100044.68,-92918.97,-2738.5134,-14121.022,5118.475,29743.88671875
299,-38479.727,-40440.22,-69167.62,2145.319,-5807.598,-4235.1694,32468.88671875
300,14516.601,17759.549,53907.438,615.82385,-3197.2332,-3502.431,38768.77734375
301,-31205.008,4360.483,-16626.787,9135.029,-6960.474,-8352.425,39546.515625
302,-31819.918,-44862.168,-58477.754,9592.162,2072.692,10978.751,34403.171875
303,-22029.865,-254.7998,-14234.449,-9878.155,-1405.0142,6980.7485,28460.935546875
304,7113.8267,2142.568,-1121.9333,-2853.198,2022.3723,-22532.059,40141.90234375
305,3613.294,20782.338,29150.025,8690.925,-3510.5933,-1857.9857,27971.1484375
306,45252.59,45298.727,45741.51,13.320852,455.86563,-1026.5405,2000.98608398438
307,228220.02,209570.61,248043.28,4004.815,5622.158,-10325.2295,39663.92578125
308,31012.105,23381.008,40036.15,-6197.744,16172.165,-1205.8225,33357.8359375
309,-80133.34,-77092.74,-73740.58,-177.60403,6447.1484,-11439.97,23411.224609375
310,-8068.0874,-6261.4253,-16938.785,-2016.144,1064.349,-12689.044,24425.564453125
311,-305485.94,-300482.34,-298954.97,-1115.889,-8833.171,-14401.786,29917.484375
312,23101.867,14533.183,25946.684,-4116.807,731.5043,-2863.5327,13525.5576171875
313,-11207.465,-11705.34,-34336.5,17883.025,-2827.6882,5848.78,40121.125
314,6047.559,22783.74,1972.6885,6794.6963,7867.953,-8884.245,30428.7578125
315,1819.3037,-1954.0488,-33626.75,-11429.536,-3412.13,3509.7747,40008.70703125
316,-22888.432,-31335.732,-53140.387,2732.7617,-8811.506,-3259.8186,31909.267578125
317,-14592.394,-12110.339,-8505.571,326.55014,-1888.5651,-4463.2354,9944.01953125
318,-9307.469,-5330.918,-26965.025,-8067.9756,-10137.633,2169.6514,30257.76171875
319,-28360.969,-36659.062,-28788.41,-2026.0873,-5326.7583,-3135.466,13871.759765625
320,-11479.178,-18393.957,-15551.679,-4739.738,6943.8364,-858.891,15827.12890625
321,-1260.1641,-15427.793,-26503.123,-6048.436,2002.645,-2320.786,24864.361328125
322,-5614.916,-22032.326,378.11035,-2077.5317,3840.7468,838.8126,21520.94140625
323,217325.33,229923.44,257000.6,8432.795,-4890.618,-1731.0332,39077.9453125
324,-31773.977,-18820.293,-50948.434,-3701.851,11618.94,2543.9111,35346.3203125
325,27979.328,24573.799,30321.174,-62.42179,6185.275,-5082.1807,14742.0263671875
326,-25637.658,-33339.883,-43394.055,-3705.2764,-1484.73,2848.9104,17606.802734375
327,78891.72,40425.812,42381.203,-2188.2808,5549.8003,4877.279,39829.18359375
328,-21046.926,1874.0527,5378.511,1180.6595,-2615.5361,-4698.2744,26625.2578125
329,-34122.453,-13661.181,-30977.457,-6089.6514,17570.242,8074.056,39964.5703125
330,-71653.195,-69367.414,-108733.22,5977.835,491.49728,-2071.077,39820.92578125
331,-39538.746,-43026.69,-79523.02,-1192.1292,4008.8499,-1050.0629,39079.78125
332,-2588.748,-23073.342,-27486.55,-5911.753,8357.578,-14231.5625,38098.60546875
333,92764.96,85548.92,69459.22,-1315.3715,-5634.9756,-2291.2493,23307.78125
334,-40880.848,-51617.28,-30190.898,-6091.7817,-2431.1057,-866.61896,21808.97265625
335,-301367.75,-299220.7,-286937.38,-2142.539,16702.025,-3484.096,32694.400390625
336,452525.0,426224.62,453020.03,2924.9001,128.56563,13219.925,35425.8125
337,-86108.17,-72931.11,-112720.38,1861.3094,4534.744,-2913.6318,36470.1015625
338,13374.014,-3614.1865,17158.328,2423.7485,12391.758,13512.955,37326.92578125
339,-18515.793,-19138.273,19659.25,-2009.6014,3976.6892,3255.0618,39658.90234375
340,-62820.02,-67846.54,-70149.734,-12826.873,4184.231,374.60184,24262.6875
341,-3900.4507,10641.602,2411.834,3923.1685,10262.558,-17688.105,38213.3984375
342,-6098.5317,-7250.036,-2638.3667,3797.0874,4623.868,12723.614,24705.228515625
343,408.9912,-11584.012,-2016.0205,-15239.311,-6614.7188,-13660.665,38838.6953125
344,2518.352,-3610.4265,-7664.0024,-3901.8894,-4041.2446,-8641.904,19938.74609375
345,12779.478,-570.48047,17069.42,-8304.864,-4657.639,-5168.389,24617.58203125
346,-40803.65,-46851.203,-29666.12,-9210.346,8937.801,13128.881,35202.54296875
347,30271.26,19262.375,34166.043,4325.842,-1933.0275,6975.5986,19813.31640625
348,-22471.887,-11273.345,-12658.455,6601.476,-345.04617,3971.3171,17035.97265625
349,-3317.7803,-17543.28,7317.9775,589.32434,1850.1676,-192.22282,21867.904296875
350,-14913.703,4641.301,-26638.295,-4964.5312,-6033.6973,-1654.2166,30667.640625
351,27738.814,28962.357,33251.973,8793.479,-5833.48,4815.6445,20707.05078125
352,6699.967,3974.1245,18760.52,305.41193,761.3801,595.6118,13742.1064453125
353,-19102.309,-17162.814,-8328.109,2145.7605,-1264.0631,-3156.8994,12143.021484375
354,-47434.39,-37785.492,-75656.69,-740.8941,1481.7098,-12096.828,40114.1640625
355,-37991.742,-52844.348,-61137.14,12481.054,10574.816,11152.969,39856.1953125
356,-40456.79,-42541.246,-63569.97,-1361.7101,-5456.0396,-14385.928,34729.21484375
357,6644.869,31795.646,8284.055,5045.819,-10313.891,-9461.596,35469.66015625
358,-17610.252,2839.2168,-33551.465,6348.406,-2192.5088,-11325.277,38966.73046875
359,-22579.6,-12684.482,-27137.297,7248.1704,194.24594,5807.755,20559.57421875
360,5881.121,5731.458,12126.044,-1411.2465,361.0512,-715.26373,6917.86279296875
361,-14333.717,-15224.824,-4353.7974,28.438892,364.89417,1042.0701,10627.5888671875
362,-9841.299,-12102.796,-14173.401,640.70844,-315.6802,3812.8425,7695.98828125
363,5094.6265,8971.191,4514.672,-5894.8447,-1061.4546,-791.44226,11274.7119140625
364,20530.55,17998.861,-3959.252,-2267.111,5248.3765,1094.5624,25412.77734375
365,-56.350098,11580.846,4959.851,-2395.7766,1132.185,-701.5955,11169.3134765625
366,-778.6709,-10669.7,12368.105,-1776.0945,559.0997,-2074.6301,20591.720703125
367,7379.917,9995.544,31923.742,-6974.2505,-5621.322,-5599.309,29661.732421875
368,6096.754,-7684.111,7509.522,-8725.578,-1604.2823,-10226.069,27590.271484375
369,14590.651,400.083,5526.1035,1952.7167,1049.9583,-2418.474,13682.1328125
370,3545.1865,-13097.783,-14320.355,1932.1661,-108.08088,-3491.7515,18618.330078125
371,-3340.897,-6611.6084,8529.561,2243.3164,3861.2214,-7013.553,19945.537109375
372,-1147.8597,-863.3064,-7132.363,4872.4585,-242.00175,175.52174,10444.5595703125
373,7405.099,12480.214,-2310.1904,7758.569,-1913.1932,228.3009,19004.560546875
374,9181.17,9685.713,2275.8643,5727.906,-92.883354,825.00354,12325.4345703125
375,4815.8315,11013.673,904.76514,-4856.822,-1515.6672,-1500.4567,12742.12890625
376,-21804.139,-20075.0,-35752.816,7585.945,-1754.7006,-1196.1854,20195.146484375
377,4027.4175,4560.9995,-766.7422,286.9665,-4864.342,-2358.0945,10664.947265625
378,-9948.717,-10712.837,-5979.4062,-2884.1213,2522.9392,3532.2395,10042.5400390625
379,-1288.8333,9053.506,-2305.5168,2268.8408,1268.5488,-169.09009,11784.2626953125
380,-42154.35,-37826.4,-44058.12,3165.778,-1093.5853,-7093.94,14670.4169921875
381,-34822.906,-19372.535,-29502.28,-371.50003,-219.09917,-2742.0818,14419.8642578125
382,-2485.1748,-8373.53,-6956.051,1719.7632,-1854.9136,-3239.068,8888.470703125
383,5922.957,-4888.755,-3591.671,207.28484,2719.2007,2492.499,12062.361328125
384,-16807.648,-21611.812,-37142.84,3068.1484,1246.7906,290.1459,19288.935546875
385,-771.50415,407.0205,8164.6313,6610.8633,-384.19476,-418.76944,14240.4853515625
386,6702.1523,3755.7422,4779.856,3722.1572,-329.77426,-1235.4386,7292.5458984375
387,-8789.217,-6859.92,-14232.154,5268.2246,1135.7639,3504.8262,12955.025390625
388,-3247.0396,4920.163,-1551.534,-3311.7344,408.1631,-1366.2904,9733.0986328125
389,-3767.8674,-7156.0703,2473.9624,-1281.5911,-631.4408,3748.8987,10948.755859375
390,-11403.1045,-17651.963,5720.338,1311.7489,381.71973,-2379.18,21490.537109375
391,406.17407,-2627.3633,-4718.402,-9671.216,-4077.6636,-11349.158,27144.197265625
392,5131.618,7065.253,4098.433,-4450.076,320.45758,523.70807,8206.3779296875
393,-7803.464,-18676.744,-22574.604,96.97613,2295.8953,1828.3805,14201.2177734375
394,419.20215,-9286.695,17093.322,-6295.249,394.01334,10113.471,30988.2421875
395,-1406.8379,-11293.738,-4272.896,3002.689,2235.2078,3237.4612,12292.640625
396,712.83716,7376.454,-2753.2336,-1887.6923,-978.25287,270.00046,9658.87109375
397,11264.689,-1842.3291,21138.82,-4550.463,-308.6709,-1407.2375,21611.564453125
398,-21163.457,-20730.951,10632.085,-209.21753,-2636.8572,-846.20715,31945.7421875
399,37587.67,37529.53,57975.7,-3859.4473,-1650.5098,7123.6064,24939.05078125
400,9202.019,-5243.393,627.0203,-496.24008,254.53233,1356.0089,12836.6865234375
401,2414.568,2676.0476,11980.824,-4676.978,974.42615,1951.5386,12999.1015625
402,5773.0283,-6784.769,-2319.1025,-1210.3213,-7723.3213,4968.699,19467.12890625
403,-2722.8643,-8105.342,-16975.791,4720.7915,-238.06888,-10613.264,23671.76953125
404,6699.4155,8209.362,19575.682,-1564.005,7802.359,1447.9264,18571.3203125
405,7373.452,8140.333,12636.65,9082.691,794.21094,16465.922,32969.8515625
406,8413.396,611.1942,-2414.712,-235.37267,3348.6013,1526.32,11594.5576171875
407,5192.573,9154.178,11949.58,-2453.2273,1530.1425,-2915.1345,9227.9931640625
408,-1141.9585,-13954.4375,-12714.705,-4743.461,697.4989,3635.5469,16075.599609375
409,-45662.453,-49182.523,-27609.096,-4559.89,542.3417,-15649.805,34639.18359375
410,5725.3916,-12980.92,-9147.575,-8729.588,1545.2711,1262.9677,23097.162109375
411,5727.0737,13901.191,6255.8525,1538.9583,-1757.3804,7932.2095,16367.763671875
412,5480.6465,4100.8555,-3789.878,3932.9006,-1174.6132,-463.28455,11235.7119140625
413,30271.645,33429.676,43301.555,264.71277,-1440.1871,-3973.693,13871.056640625
414,-3286.7148,-8983.9795,-8660.643,-1071.0221,-3197.3818,-2622.534,9244.7451171875
415,6876.0747,7005.7524,14580.895,-761.36786,-3654.7363,-14170.167,26506.09765625
416,3600.9263,-5.603516,14436.029,5514.8857,-1238.0111,12390.817,26942.9140625
417,-10500.254,-12602.922,-1945.4185,-218.85538,-2498.8103,42.582508,10699.3310546875
418,9143.848,6727.226,20025.154,884.85077,4795.316,325.79428,14906.0849609375
419,-9127.671,-7968.2227,11895.924,-728.6353,-1255.2859,-1364.2279,20757.248046875
420,4960.738,13892.0205,5037.8193,-650.9299,-2971.0928,-997.3461,10479.6337890625
421,-1155.8307,-6517.0566,697.05273,1838.7903,-1688.3855,395.3399,7827.765625
422,13531.287,9650.055,34431.734,6265.0806,4894.0493,-605.7813,26902.080078125
423,7171.816,13326.684,8742.183,-1907.7197,5847.6104,-5352.048,15169.64453125
424,5045.938,5853.7476,-2497.554,-3098.2651,-468.08478,1420.3586,9957.802734375
425,3788.3877,-1317.6494,14075.04,3459.6873,2717.328,2213.895,16036.669921875
426,23232.842,16663.77,7182.4307,6330.69,4236.3394,-4792.504,20935.83203125
427,-11349.625,-19962.346,-35711.117,-2049.1758,-294.22775,200.0286,21698.37890625
428,-5966.122,-1193.0212,-7702.2324,2163.69,1644.6685,2345.621,8529.271484375
429,-9239.287,-17403.453,-18240.59,595.8963,-1390.1204,143.95886,9006.3134765625
430,-21196.002,-21358.176,1369.445,-30.610395,-3649.2498,-2261.2302,23836.49609375
431,2217.2454,5464.589,3396.127,-294.91965,-4.698332,-140.9909,2902.99877929688
432,14373.594,5546.426,5921.88,-4401.007,-2426.0898,-5697.1265,15744.2607421875
433,2403.7861,13313.934,23890.441,3547.6047,4024.7932,-3050.842,21460.693359375
434,-18575.904,-21148.773,-10110.35,2094.3013,-1952.8152,-1539.7715,11479.4375
435,-891.13855,-2184.4387,-609.763,-987.53485,-762.102,-188.74158,2625.00366210938
436,7611.189,-293.9004,4059.2769,352.8915,3599.4634,-4411.3804,12027.1015625
437,5458.373,4022.4255,12132.373,-2391.7146,852.8769,2141.9607,9449.5927734375
438,-5340.8013,-8295.887,-11846.4795,3704.3997,2684.1267,-4185.85,12131.6484375
439,-45147.816,-48277.33,-63893.594,-550.2448,3750.5854,-4452.961,20127.802734375
440,-15334.389,-10062.584,-4689.557,-1539.9684,1825.661,-856.41486,10212.779296875
441,-1930.158,-1367.3306,6963.2637,-7181.5605,1474.5663,517.14777,15377.0625
442,-4902.907,-3311.6362,-3567.2258,2103.553,-37.31622,228.91986,3953.09423828125
443,-759.48395,2773.86,-3546.4,4060.6545,-3505.0884,1450.631,11078.5927734375
444,-7052.8057,-6940.0576,-9721.294,2806.3174,1093.1761,7663.1646,14519.57421875
445,11381.65,9554.942,-1179.3848,-1322.3712,2295.9192,688.0477,12674.8203125
446,-8649.657,-18082.527,-11444.571,2434.0955,1970.9164,-1074.518,10164.560546875
447,23254.148,16546.598,21103.121,-4264.033,530.5292,560.56146,9566.767578125
448,-41375.23,-22179.486,-37078.098,4633.366,-3579.559,6072.8564,22758.251953125
449,393.78003,4558.392,-9781.691,92.295044,-2087.8489,-502.77658,13308.732421875
450,16194.474,15972.088,14947.273,3391.4968,1315.8108,-970.64716,6622.30322265625
451,10541.824,3337.3154,-9575.081,2331.2983,1108.0836,311.87997,18219.29296875
452,-1326.773,-10410.107,-11155.766,-934.1977,2406.0237,1849.9719,10958.478515625
453,-2011.2456,-5301.3726,-22645.482,1047.439,-1103.6102,-2977.3618,20056.087890625
454,7342.514,4687.385,10737.692,-2908.2966,14.078781,1798.29,7916.330078125
455,7289.1016,508.3943,470.5498,-4822.7476,-62.67824,-1151.6326,10954.6005859375
456,-11609.437,-16321.602,-25139.629,-1677.8264,1163.8214,124.90285,12412.4794921875
457,-15664.296,-11293.611,-19261.287,4061.8157,-3829.8674,1096.651,12036.1611328125
458,-5302.0015,-16877.316,-8390.056,4810.3613,-646.98126,1989.4613,13795.91015625
459,-16236.775,-5059.0806,-3035.7534,2212.5107,2510.4058,-2649.6204,14363.2978515625
460,-10909.17,-11581.299,-18676.69,8175.2905,3355.2349,-16749.518,33637.52734375
461,-12219.933,-13450.745,-11746.814,1546.4985,563.8546,1832.5701,4530.4267578125
462,-2225.0273,-4321.0,-866.2666,2.590122,466.7569,-554.5557,3265.49536132813
463,-15147.678,-567.11914,-5977.358,757.80634,-206.09163,12456.862,25106.763671875
464,10851.842,24897.26,11708.481,420.41162,-3685.921,-16613.111,32484.6171875
465,-8068.1426,-2662.7769,-8270.029,-2834.0908,-759.68115,-2774.1477,8903.103515625
466,-752.0957,9232.154,2275.1323,-2786.3403,-354.55685,885.2039,10229.5517578125
467,-3671.3994,3063.391,2613.5657,-3694.9478,649.46277,-1102.3707,9402.087890625
468,3422.9229,2505.0327,22275.148,4294.2754,1888.0098,2674.0325,21471.392578125
469,-16025.809,-20136.088,-15085.944,-40.3887,591.8339,-975.25543,5054.69189453125
470,-1001.35205,-12099.277,-12644.551,-17.613726,1819.1191,-2268.6904,12445.162109375
471,-71.20117,-1266.3315,-11986.7,-1632.3907,-284.77206,-1445.3783,11986.3095703125
472,3115.6694,335.80383,-4199.335,1432.9451,-1059.2501,-862.80634,7256.82763671875
473,-8777.464,-10503.786,7421.289,52.852753,1024.9622,-858.8619,17283.431640625
474,15972.645,2335.5432,-14554.316,930.62573,2127.9683,-2809.7734,27229.28515625
475,6958.962,813.4127,-4028.965,-2550.5957,1250.6609,-2556.0417,11609.6767578125
476,-4802.258,2696.7139,-10961.101,-17.6855,2617.2146,2296.98,13293.9697265625
477,-6779.146,-12315.042,783.8364,2860.2195,-0.07313757,676.43976,12475.0947265625
478,-2859.2905,-8477.633,7263.388,-1792.2986,10613.189,6775.0854,26003.24609375
479,12403.072,7463.26,8077.075,-5330.4575,-1039.1355,4704.8145,13290.333984375
480,-543.78,9878.237,-5173.844,-525.80444,-454.50015,2147.068,13913.6396484375
481,12135.118,7179.3374,1940.7573,-2830.599,625.7264,-242.52536,10166.2021484375
482,-8759.437,-17174.494,2884.4414,-486.12683,1880.6202,1080.5563,17866.140625
483,-906.479,-17542.832,-7470.6826,-1616.5613,913.0231,1921.0951,15233.6826171875
484,2607.3281,8779.127,3596.6177,18.134226,1787.7244,-162.11906,6529.3037109375
485,-17244.346,-13670.646,3845.0918,614.0041,-981.4863,-660.1755,19684.939453125
486,-4378.468,-5014.594,-934.5718,-153.574,1847.4272,3298.2942,7576.396484375
487,-9847.214,1732.1582,-4819.188,502.696,179.88524,-3015.2168,11369.75390625
488,-47.282715,-6627.7256,-6801.13,-4297.9604,-1437.8026,126.98251,10302.4736328125
489,1595.8848,-3115.8835,-15204.754,-2893.441,-962.2096,996.51666,16005.4423828125
490,5387.768,-661.23926,22573.125,4395.0737,874.8989,1212.0134,22372.630859375
491,-34781.812,-34661.51,-8008.189,-5.924477,176.5016,-273.15335,26719.615234375
492,-34744.19,-39234.332,-16853.414,-6684.478,-526.02155,-1000.2994,23631.58984375
493,31335.148,25722.695,25502.105,201.6756,-3224.8354,2896.4548,9448.56640625
494,-5553.3193,-16858.258,-6358.257,-709.5919,705.7672,658.805,11120.10546875
495,-2666.0933,-21319.33,3509.1143,204.69388,50.619144,-1155.0981,22481.107421875
496,6069.286,11990.799,8314.005,-1319.209,373.0619,-563.6669,5779.49560546875
497,-14918.546,3714.9287,-12708.756,-3074.625,-3054.8074,-3532.2556,20117.14453125
498,-10220.413,8615.352,1504.3934,-1970.2692,-309.23264,332.7525,16842.6953125
499,19573.17,8043.214,15600.525,-5744.4907,223.6412,1628.8834,14492.2294921875
500,-21483.246,-27557.318,-29019.893,-7335.055,7114.7197,11282.885,27259.759765625
501,1279.892,-868.0733,-1843.7227,2374.0771,-1103.1862,45.35434,5312.93359375
502,2376.1782,-6509.0083,10029.809,327.40573,-227.09955,-22.126434,14352.919921875
503,-26020.47,-26034.984,-18535.01,277.68887,366.23846,-64.878395,7535.73681640625
504,14513.646,5926.3984,8020.0215,-2285.206,1282.0156,2039.6986,9655.25390625
505,-8562.594,2585.5208,17520.96,-3961.6519,-206.63287,-4123.222,24739.9453125
506,6054.0596,28707.104,1877.1904,4090.7927,-1491.684,-4779.394,27397.669921875
507,5460.052,15610.779,2784.2754,1652.483,1011.8646,3072.1382,13301.7265625
508,1377.6499,12930.972,6241.416,-3454.5798,-4192.912,4860.829,16135.9755859375
509,14146.25,7360.8145,-548.52734,-1645.6683,1042.7909,-673.7139,13229.388671875
510,4598.7544,967.5281,-1138.2816,2770.4226,-344.9134,-198.26123,6983.36962890625
511,-1461.142,6849.008,749.85913,3826.8594,-1788.1915,-5785.069,14474.1796875
512,-10339.476,-1741.8936,-5099.289,726.08075,-2317.1147,-497.4661,8646.1611328125
513,464.63977,2877.7104,3229.4531,-24.985542,-44.16051,95.60657,2613.53369140625
514,7588.778,9377.401,10629.803,5969.552,-4158.9443,-1357.7784,13089.5205078125
515,4154.681,866.3939,3122.7065,386.22986,-160.68588,-628.6718,3192.96752929688
516,9710.617,7823.668,-823.8335,466.7861,-1384.9996,-8264.866,17492.55859375
517,-57724.64,-56091.336,-30721.377,227.72527,1730.9039,1145.0428,26472.9375
518,21683.81,16656.906,9117.83,-3664.3975,-480.94244,-2904.7598,13649.025390625
519,12830.667,3413.7524,-2587.5474,-8719.371,-1742.3679,-1323.1548,20582.75
520,15007.364,16789.62,15077.403,5879.4854,-369.8323,-3695.5464,12171.404296875
521,1098.1167,9112.433,2637.6182,-2193.3474,3379.2354,-1130.5156,10333.7060546875
522,-13332.216,-10997.658,-19463.594,4325.58,-846.8724,-987.96796,10888.9736328125
523,7138.178,8260.646,-7461.4688,615.40283,-910.5045,-2242.5864,15795.8251953125
524,7841.9717,8647.414,204.95605,230.37578,-926.9457,35.00872,8237.9912109375
525,-1640.4136,-14065.518,4261.652,772.81146,-1238.7147,70.741,16400.041015625
526,-5466.236,-11959.26,15992.079,228.5928,1392.3114,-1056.7595,25520.00390625
527,-20372.18,-20581.225,-25368.549,-342.67163,392.01874,138.62836,4983.3623046875
528,3989.501,15341.334,7689.257,-3789.7188,1134.7189,1147.538,12306.603515625
529,-4400.6177,-3148.1597,11074.848,973.2698,39.138245,-432.62912,15002.8056640625
530,10476.024,2957.4717,3018.9192,2577.3928,-597.8655,-5067.6523,12414.3017578125
531,-5239.8574,-9470.825,-18385.37,3169.4788,11.783751,243.08635,12860.86328125
532,-7642.1426,-4251.033,-1195.2029,3038.2385,-1670.4099,-940.6561,8361.720703125
533,13780.915,-11605.638,-7314.4365,-965.1228,398.40295,-809.31134,23647.16015625
534,7560.9224,-4832.6353,9057.3955,-821.14716,-83.875534,-669.9692,13333.298828125
535,11338.767,2205.395,-3026.127,990.2288,601.9669,162.18158,12754.4658203125
536,2065.8848,1530.8215,68.08472,2809.774,43.74707,-634.16925,5301.4423828125
537,-26634.139,-6740.676,5469.9697,917.72345,-621.87756,867.6119,28172.802734375
538,-25639.543,-15798.53,1380.2953,1678.1825,58.314823,670.8459,23891.91796875
539,3116.5725,8770.556,4152.4346,174.86487,-86.65698,-3192.832,7607.9287109375
540,-1213.436,-1678.4701,774.88275,209.2111,526.274,-1326.3778,3366.65112304688
541,-22725.355,-12913.656,7527.8184,-5929.522,2082.4712,-394.7147,28872.89453125
542,-34585.836,-34075.438,-22626.055,3236.7356,-919.25507,-371.97366,13098.5556640625
543,-8524.047,-15963.521,-1183.0596,7503.685,3480.7776,3229.523,20010.041015625
544,-1520.3315,-22178.438,-968.79443,-1786.1163,-2591.0393,-810.2645,21682.6171875
545,-21709.229,-11236.704,-22033.416,-3717.601,724.3889,1342.959,12713.001953125
546,-21817.266,-23564.092,-21250.43,-90.93724,-244.97516,-238.34451,2176.72680664063
547,-14166.56,-15020.006,5499.884,757.42847,968.8561,-728.9184,20258.646484375
548,-6157.399,-28044.127,-2060.7812,-7564.024,1333.0256,392.63336,27620.814453125
549,3178.2197,-7707.5547,-26675.797,865.6151,-3768.7524,1216.2239,27093.8046875
550,-1328.8538,-629.4668,-4034.2725,6373.625,360.1027,-87.21967,11488.3291015625
551,-6847.805,778.8711,-5075.223,5309.532,-1590.9766,730.80725,11897.8388671875
552,-26757.996,-11962.027,-17007.588,-4108.6353,1286.7361,-565.3296,15043.0361328125
553,4164.5854,1120.4233,-1666.2489,-4823.111,-1126.6816,-585.25854,10006.92578125
554,-48686.074,-46897.176,-11831.104,-973.06134,1463.1725,1499.1179,36215.52734375
555,6857.178,15377.558,-1194.3701,-4847.9995,1504.7277,1329.8606,16989.232421875
556,5527.9473,4181.496,2785.6675,612.79663,313.54688,306.40265,2709.94921875
557,4474.7803,10856.741,5515.2764,511.29938,-3778.8848,-418.3452,8906.2275390625
558,15318.525,17510.193,10222.311,4367.6885,-848.00903,356.90747,10085.3173828125
559,22779.434,20131.275,12962.568,7579.6504,-427.93594,-811.5747,15882.87109375
560,-30498.914,-27523.414,-16612.148,-1673.2026,-1280.9286,-539.0731,13212.447265625
561,-24351.852,-12716.655,-1862.1084,-3974.2944,2253.1516,99.67427,21027.09375
562,-1658.9858,-1355.0244,3395.5105,-4585.8784,-589.90326,3741.127,11411.697265625
563,1731.9457,-3954.6326,1904.8706,240.23314,1478.1123,-247.05133,6345.16455078125
564,-8316.299,-5513.0713,-2359.3374,-350.23474,-978.5409,76.76825,5468.36865234375
565,2386.6743,3689.7097,-4995.898,-4784.6826,368.2151,-345.57156,11630.3310546875
566,6492.9326,1600.9457,-1838.083,4135.5146,-2294.6477,877.7255,11045.2255859375
567,812.82336,-4091.9688,594.9402,4529.5786,236.08005,-692.7214,9284.0625
568,15622.927,12683.705,2947.8262,1108.4164,-231.1366,-345.82916,11672.4931640625
569,-19107.352,-13068.218,-12564.335,-2090.0388,2795.498,-898.8135,8873.6044921875
570,6925.4355,12337.233,2497.273,-4045.228,415.37964,517.6093,11102.859375
571,-22708.232,-855.02686,-66.20215,-5454.1133,241.94458,448.2294,24195.94140625
572,16042.627,18459.354,6719.198,-3992.72,-2807.0515,-4490.227,15724.1708984375
573,-1101.91,2567.0442,892.49835,-2476.16,2885.4766,-568.33655,7379.87451171875
574,5403.5737,2470.505,10685.081,3820.198,-980.7367,-164.08601,9936.61328125
575,-1662.9152,6185.563,-1956.0431,-2028.3729,281.7442,295.523,8765.16796875
576,-185.59656,-1505.8169,-3907.9075,-1638.9701,-3652.0684,-5331.5537,12001.3408203125
577,7512.242,8551.315,1382.2637,-6688.6367,1845.4902,-4453.737,15778.599609375
578,-54355.824,-47851.918,-53968.2,-4.8700514,4479.4478,9387.194,19091.482421875
579,41668.055,34297.266,24326.217,6452.377,-3659.25,-13856.656,31118.08984375
