Element Label,S11,S22,S33,S12,S13,S23,Mises
1,2715.9502,1614.6462,1095.8849,-136.32782,267.95776,251.18839,1585.47924804688
2,-961.1228,1338.3019,-1683.1558,91.53161,-878.3343,-191.92506,3149.4443359375
3,1473.67,2297.5874,1872.565,-374.6943,1452.0391,-986.1535,3189.55102539063
4,1052.5781,2241.2512,-1839.9735,-1920.5288,-3414.6128,2093.3357,8509.306640625
5,3439.7812,2405.1226,4852.7075,1781.3948,2305.2715,-2881.4487,7409.4501953125
6,-1368.6852,1719.0043,-3398.3225,-1091.3727,-899.44147,71.65302,5092.7216796875
7,5452.1543,986.0927,3248.393,1024.8906,2036.9308,-202.15175,5539.06103515625
8,-6464.906,1614.9155,-3543.1765,-413.17358,-2966.9226,532.4622,8830.8291015625
9,6327.194,3686.2607,2817.119,374.9032,6994.836,-1055.6245,12671.74609375
10,-1685.9639,3158.2976,-1069.5604,-2168.5012,-4313.688,2226.9795,10279.5927734375
11,-1873.7357,1166.8284,-1957.6116,849.72705,805.1371,-234.63564,3712.56005859375
12,6245.4395,2393.5967,1631.1553,-859.5106,-1710.837,80.05257,5419.52099609375
13,-5097.5454,1993.2885,-787.67944,1802.4576,2149.488,363.65372,7892.94091796875
14,4399.8945,2116.0742,202.01385,363.13867,-5095.2393,-1008.8142,9725.427734375
15,-931.1031,6784.3545,-537.28143,886.1293,2988.3438,1586.3127,9661.2783203125
16,4597.7495,-505.4721,6299.786,-67.956245,-1607.6952,38.42586,6737.80419921875
17,-480.9004,237.7676,-4426.4272,-44.5392,347.44324,75.938324,4393.69873046875
18,475.02908,2774.7754,-5190.5522,-1139.4338,198.77368,1957.7874,8119.68603515625
19,-811.5643,-5627.702,2837.7976,-839.9679,-7079.4375,-6.841962,14372.228515625
20,-33717.234,-10217.899,-55858.35,2122.6343,1881.6896,2111.7751,40003.33984375
21,2330.2405,1664.5958,4302.6206,-714.1691,-955.68536,-1362.5114,3935.18701171875
22,495.39218,1932.9347,-1547.1759,-2472.4841,5305.401,2018.0624,11143.337890625
23,1819.7267,396.85986,3167.951,1699.9861,-586.83734,372.80698,3985.04077148438
24,-29.801785,-1019.3725,-19276.059,2440.9653,494.8543,-486.45117,19278.78515625
25,4119.5786,2236.6904,-8991.2705,4596.4595,-2435.2412,1121.4601,15352.5205078125
26,518.88074,6976.7437,14460.25,2159.8562,1785.0825,-2565.077,13759.6396484375
27,8221.8,10983.211,39216.42,3315.2876,56.23793,-4301.995,31164.201171875
28,-7209.0513,317.29123,-4124.3013,-660.004,-559.04034,-413.16345,6760.26171875
29,2154.4785,-9233.173,-15151.988,1190.8468,30.601133,3032.752,16246.9169921875
30,1698.4011,-1767.4423,-2795.4412,240.6377,917.6292,-1945.6156,5539.6611328125
31,264.29596,3909.054,5408.39,1555.7347,146.0076,-1163.1486,5690.39697265625
32,-912.0065,-518.6931,920.48474,2358.7075,287.3423,-275.4042,4467.40625
33,-1207.1229,-176.52899,-7635.838,888.44476,-27.931128,-347.5801,7193.65478515625
34,-2362.011,2090.6743,4719.325,-911.92145,1591.1152,1670.1136,7543.099609375
35,1413.5671,628.58875,1943.566,-674.16254,233.31624,-1843.9911,3611.20922851563
36,553.23645,2154.582,-735.5041,-1693.0787,965.0093,-1342.6522,4805.23681640625
37,19.227327,-179.05322,1782.7736,-336.39355,-417.62875,1315.4087,3090.74609375
38,402.5207,3487.386,2424.0432,549.02844,-194.6232,-587.8421,3069.4345703125
39,1835.5416,1620.3796,-489.0225,-712.1168,26.536726,-1006.3077,3084.01440429688
40,1012.36426,2255.5793,245.25601,-640.1533,-299.30533,225.44928,2176.77319335938
41,1488.6892,836.34344,873.7447,994.8237,-191.91145,517.2539,2069.95727539063
42,-95.22717,288.15247,-9824.294,-304.6793,-53.479614,280.47314,9952.623046875
43,2608.4836,2788.9211,1345.3175,208.92036,158.04716,-1465.4895,2916.32080078125
44,1787.3909,300.71884,-934.69763,-205.94058,668.1178,-52.191048,2654.74243164063
45,3022.3323,-834.2075,3789.2065,649.8335,-1614.3008,3859.0085,8495.826171875
46,2109.5637,-8126.793,-16620.404,-1978.1715,11472.776,-5550.9453,27621.013671875
47,5100.089,-5413.013,3153.6597,-2956.47,2516.5662,7092.0444,17028.318359375
48,-5783.4004,5943.5425,-11111.118,-9759.592,12411.214,-13729.437,39264.98828125
49,-3347.2424,-2577.502,-22963.217,-6026.1333,31.638906,-5789.566,24697.796875
50,2365.8308,12051.21,19.466898,-7339.631,-13037.299,-7473.0537,31001.62890625
51,13035.654,8370.551,-12593.468,1145.6431,3506.924,-3738.0232,25333.8515625
52,10832.424,12621.982,-5964.31,2060.0544,3187.7163,-4009.9075,20170.416015625
53,-11024.8955,14591.089,-26838.062,6802.987,3444.1406,-5824.452,39843.515625
54,-13032.884,-9538.488,-46208.926,-1692.2904,-3090.886,-5353.062,36769.671875
55,-6315.261,-65.42513,-31746.662,2617.2917,-14508.466,379.0661,38694.01953125
56,-1031.5221,-1166.6582,2600.0447,-230.70094,1763.3044,-743.41113,4984.2421875
57,-8133.3896,2960.382,7574.7036,377.5838,3903.0723,-2011.1327,15931.6533203125
58,-14935.523,-12623.967,-45706.746,5358.229,3230.672,-1683.5967,33901.1484375
59,-3121.482,-1095.1095,-4810.4805,1738.0486,-4678.4785,1775.9766,9724.744140625
60,215.78844,910.587,15682.826,-3543.9177,3709.0984,-2239.0767,17970.982421875
61,-2930.0417,773.8029,4811.3984,5230.0054,831.4959,1785.1848,11775.7783203125
62,-3890.3145,6882.794,-4848.013,1337.6332,-3839.2593,-595.6,13339.646484375
63,581.1868,1473.32,370.80762,3255.7588,425.06326,-727.4113,5912.4580078125
64,1904.9297,1304.6948,-2701.7734,1026.0433,1033.3025,-1165.4858,5408.64111328125
65,1007.0866,4175.37,-2229.3423,2776.4985,2049.668,-1098.3726,8373.525390625
66,18.368237,1460.9822,926.04425,-362.5023,-45.796867,69.39093,1417.93713378906
67,260.35327,3034.2305,904.46185,986.8723,-155.89737,393.03073,3127.40698242188
68,658.29584,317.22552,-968.2092,280.94177,-204.0739,245.04993,1658.00085449219
69,1641.0809,990.60626,-1357.3655,706.97705,297.1134,-781.2302,3325.451171875
70,2068.8591,192.05794,-3392.8733,1428.5404,-724.62213,1326.792,6006.73486328125
71,2794.4255,3605.8125,1333.8108,-617.3607,-609.8532,598.5693,2703.86547851563
72,1219.5111,3111.0361,843.0466,399.20294,-782.4191,-386.92285,2682.431640625
73,2183.7114,2279.921,111.68682,-278.95288,58.078682,552.5887,2379.39428710938
74,842.1771,2622.0376,4306.2534,-716.39795,1784.5874,-1115.4031,4881.4404296875
75,198.221,1757.3546,-4432.9854,-1656.9597,1384.7264,-59.47056,6715.59375
76,-1098.7343,2199.969,5010.175,2075.9026,-549.63043,1161.8055,6777.3525390625
77,-1023.84503,-2859.079,-9708.495,4600.4985,2105.5066,-5883.437,15604.185546875
78,-687.6901,1121.7877,-3798.7766,537.52167,270.07538,-968.3727,4741.451171875
79,729.1653,-8612.134,-18322.438,3525.7463,-1450.4417,18.211252,17772.498046875
80,-672.1974,7493.274,11908.925,4265.3413,1129.0515,2878.01,14334.6181640625
81,2167.214,-3771.692,25634.875,222.93538,-607.8742,-4524.9736,28072.365234375
82,9529.089,1848.1033,22097.887,-7997.2285,798.16144,2032.2548,22796.51953125
83,-4350.766,6519.835,-91.92654,-2753.305,4938.3193,-3677.2454,15049.28515625
84,-5080.5166,-12605.698,-45011.414,1849.4913,521.2145,3248.9766,37327.765625
85,4664.6587,1234.8362,3775.7139,-2601.2954,-1203.9542,-1994.1091,6788.45556640625
86,922.23694,-321.34396,1729.3953,-1481.2698,2484.9475,-3116.0667,7578.83544921875
87,6205.4575,3282.4106,9310.384,-1808.2644,-657.0044,6382.5254,12671.81640625
88,3749.9019,2829.8977,5864.7534,-335.9638,-1298.8541,-6168.872,11261.8515625
89,-3707.4216,-1411.0242,-12309.616,-617.7748,63.619286,105.90461,10010.79296875
90,-453.87213,1243.8865,-6830.154,1507.2909,477.34937,2408.7803,8903.4140625
91,2587.4014,612.3337,2296.7407,458.75082,-42.37325,1124.0547,2799.73950195313
92,-9.70389,1011.25385,1297.5092,-364.3899,447.25113,641.47766,1910.359375
93,2108.5127,635.90784,3641.234,-460.16086,-665.5337,-1483.8994,3917.24560546875
94,-5209.1133,-3119.9336,-16144.649,150.17636,701.28094,-398.1008,12198.9921875
95,925.5533,4369.583,1098.2,-418.18234,-660.0016,455.80258,3708.26806640625
96,1858.6273,397.04672,-156.78012,-1139.6418,67.304565,-244.75395,2709.62329101563
97,3986.0593,7120.1997,2518.1038,2778.741,944.75635,1076.4146,6774.68896484375
98,-748.47546,6324.353,2367.0972,2169.161,-1434.4701,968.4454,7797.32861328125
99,1624.4128,4149.9326,2607.124,-810.7131,179.3878,-419.3349,2730.92407226563
100,1408.098,2157.8877,-1951.872,-429.10104,-250.87637,-74.879944,3889.58520507813
101,7024.9497,134.10808,9831.543,426.23315,-972.35205,-120.535126,8838.861328125
102,-1071.8357,-4188.847,1418.3417,-801.92737,2037.4818,2675.9014,7716.42822265625
103,-7333.9766,9063.655,-4283.982,6592.971,15792.125,-485.83398,33278.45703125
104,3929.1538,-950.9344,-13813.841,687.5766,-81.25879,2494.5354,16496.908203125
105,2267.536,3511.207,12141.441,-1535.4453,-1486.94,-1699.3789,10446.54296875
106,-215.51587,227.9284,5303.247,502.30035,-345.19394,1721.9529,6181.8994140625
107,3104.2808,3577.6184,-1294.7919,1130.9006,-31.518293,5956.141,11485.8505859375
108,1640.0295,3128.098,303.13583,-716.53656,-729.65234,-2050.0117,4662.20068359375
109,306.09222,2333.0684,7716.6006,18.761208,1481.406,-49.657078,7113.0498046875
110,-171.26918,735.5324,-3404.5972,-1685.6368,592.70105,-902.62036,5121.6064453125
111,1941.2676,1636.5342,3065.6704,-265.90417,441.80362,1380.1802,2865.6875
112,-1426.0044,-1777.1923,-1555.4935,2051.0188,-148.02864,1413.6324,4333.06689453125
113,799.7387,2573.7517,-388.53476,836.0057,-49.788086,-528.13965,3099.68969726563
114,2573.9587,2857.9392,359.6326,126.08377,-611.233,252.08263,2640.42724609375
115,933.855,512.83875,1591.976,-136.2841,291.14566,676.0391,1602.67333984375
116,907.4228,2085.13,1969.406,1202.2163,455.78925,-489.7297,2634.92065429688
117,1457.5493,1523.2423,-1632.2572,-68.46896,-357.8786,-459.54123,3284.208984375
118,2262.657,5554.0117,-740.80536,2043.5608,-1291.662,3450.2476,9109.63671875
119,1610.6763,1473.475,-5955.243,4636.812,1541.4702,2657.4214,12208.11328125
120,328.36508,2457.6633,19298.787,1548.8075,-820.2692,-33.47934,18254.73828125
121,-217.21062,5905.982,24986.22,-533.219,-4518.3467,-1167.092,24177.8125
122,1989.0902,-6031.902,1364.7316,-2576.7024,-7137.6216,-2239.694,15732.8310546875
123,-312.17502,293.4863,-4937.0884,-1144.2861,424.2867,-940.92896,5628.68115234375
124,1743.6693,993.9148,3585.4358,-624.192,-972.46655,1469.1644,3976.97900390625
125,1083.3032,348.0598,-595.4908,-770.8791,-13.268984,1133.2324,2785.77612304688
126,-664.07764,680.44965,-89.78454,79.75005,-832.88275,1853.2122,3710.62817382813
127,2838.5676,2426.8726,-7684.372,1345.7994,-200.39597,-59.234795,10589.3369140625
128,13260.614,9820.209,-2901.4612,-111.06658,2811.3884,5124.332,17887.70703125
129,2318.4153,10503.117,27285.178,3312.1445,3497.0713,473.0181,23585.03125
130,-2757.099,359.39908,-4444.272,1179.0741,-607.1663,455.22092,4869.8525390625
131,-11258.772,-508.73108,-32642.863,-115.053894,-2646.6494,-1098.1661,28764.46484375
132,-1717.694,2315.6538,-1477.3123,772.1261,-281.543,507.44858,4260.8662109375
133,1096.9713,3520.4302,-370.3985,-286.0711,804.3361,-2604.106,5840.626953125
134,-682.9044,2591.8748,1048.5715,-2187.4404,707.92883,1666.2906,5678.00439453125
135,8778.034,2553.2861,36395.324,-1493.6431,-9974.952,3616.9265,36301.66796875
136,-3758.8838,-1170.9608,-6883.172,-3055.8616,-11098.278,8753.399,25533.119140625
137,5343.4346,3429.0334,157.80756,-3569.685,-804.3496,-2322.8022,8774.0185546875
138,3358.8613,-7718.001,3235.4785,79.10481,10021.768,-5215.135,22455.8359375
139,8222.996,11230.314,34520.914,-10711.701,-5914.654,11211.937,38050.38671875
140,1821.6504,-3084.0596,11235.453,-931.69257,808.95483,-4875.908,15321.810546875
141,5810.1074,1407.2162,2803.5955,2056.0325,-1249.6777,-1723.4589,6439.33544921875
142,1549.9885,2072.7336,126.195984,998.5905,-823.4658,-1212.4314,3532.78002929688
143,-741.1393,2186.6157,-2295.9958,703.18835,1037.2349,442.3614,4565.0419921875
144,3764.5493,5057.1543,9251.852,220.72319,374.16382,1184.0677,5427.76220703125
145,2395.7104,1883.5507,-628.2393,-160.43121,797.4163,-834.03815,3453.91455078125
146,-162.35913,198.43642,-816.7176,303.10788,-69.07862,-793.324,1724.0869140625
147,-1278.0607,-1283.8406,-2878.7302,-58.6021,-16.372765,-734.8033,2045.44348144531
148,1415.7518,2051.8843,-315.48734,-447.5068,238.57587,1727.6158,3772.08984375
149,2412.236,3170.1826,-269.56454,1498.4153,913.9386,-1336.4476,4939.54150390625
150,859.1332,5401.189,2348.098,2176.217,-351.7013,435.73886,5588.62890625
151,26620.72,4998.226,46312.25,5028.7427,7155.385,4116.716,39514.2265625
152,1126.9407,2133.543,1553.095,-126.18618,269.87393,428.9538,1258.6328125
153,-12662.342,-3762.3076,-24415.434,-2201.731,-6147.414,3068.8828,21865.904296875
154,1226.2313,-8562.284,-3132.572,-5032.966,9570.0205,-6333.8486,23307.703125
155,-3487.3628,1518.4332,-7899.4243,672.186,-6511.822,5075.681,16506.505859375
156,1927.9531,5756.2515,8608.85,-1423.9615,-2847.6218,-1495.1431,8416.0556640625
157,1478.4144,-534.56775,-5168.8936,-504.1631,-938.09045,-5443.5737,11276.43359375
158,4668.8193,3524.277,10601.19,-375.92737,1090.9254,130.92259,6880.3046875
159,4784.1406,234.9903,-3270.8044,-563.9945,-1681.3386,-1570.6765,8109.85791015625
160,2278.2244,-707.6646,-2890.1243,-69.02438,366.56915,331.42926,4576.26416015625
161,1584.5237,1557.1649,-518.00946,121.8245,143.15627,1712.613,3642.66479492188
162,702.75476,4982.035,5557.901,1494.7748,-1239.5428,80.20207,5695.60400390625
163,-366.67886,1466.4725,-878.0254,-1596.5991,-934.1748,109.73752,3854.97802734375
164,4746.918,983.27466,11916.219,11.036136,-2105.2957,-2126.4136,10927.4267578125
165,3933.8655,3257.284,10769.832,547.8314,-1603.6105,441.2884,7811.05322265625
166,7406.093,2194.2654,33307.797,672.5566,2553.0693,441.62878,29232.7421875
167,439.1224,1062.3713,482.03387,34.80616,-0.80098516,-46.000904,611.163391113281
168,-2039.3381,3010.8062,-5414.457,-2333.5298,1793.2668,5989.78,13695.1123046875
169,-6396.94,6367.345,-10114.831,2171.9968,-4303.0225,1493.7373,17337.830078125
170,7066.471,7555.9316,35715.91,-4559.163,3303.4224,9745.827,34453.5390625
171,6814.474,-2587.074,-25389.371,-2557.0952,-4139.6685,-3516.079,30509.44140625
172,-1208.2197,-382.79288,-1882.5634,546.83044,-139.16736,-503.2069,1845.94555664063
173,-1640.7776,2937.0952,-1074.3651,-1332.0171,41.789276,-313.44305,4930.2705078125
174,19686.895,4787.41,30295.969,5931.7803,-3745.195,12265.207,33038.76953125
175,15317.6455,5554.9023,-3559.6494,4201.2314,2690.4297,-5197.707,20569.005859375
176,6792.0415,10035.185,20716.236,2936.5486,-7088.753,-309.4175,18334.43359375
177,2588.2058,1571.7593,2203.2212,-554.6681,1125.7067,782.7242,2711.57690429688
178,882.7983,613.69696,-4015.4907,1049.4891,-300.1902,434.505,5185.41455078125
179,-1607.0568,1565.3698,908.20496,508.86023,-155.97667,395.66934,3119.42529296875
180,1598.3522,2745.7134,5393.439,94.66636,403.08804,-790.796,3708.79833984375
181,602.444,201.28465,-2043.4751,94.66355,-74.47357,-176.49153,2497.46899414063
182,6928.9717,-3932.5957,32884.04,-6961.5186,4247.449,5252.6357,36821.640625
183,9334.709,1285.4006,14167.12,1898.2686,1390.4967,-109.47351,11986.984375
184,-2007.0167,3610.4746,-7818.66,-231.64122,-282.7036,-1720.2146,10356.466796875
185,4236.0825,5291.0537,3212.2776,996.538,-1110.8677,1474.4105,4055.14868164063
186,851.78845,521.1089,1617.8596,70.439606,753.70416,-1727.3909,3408.85180664063
187,-2623.1235,-2150.4265,139.9327,5266.0947,2286.5098,53.71182,10268.404296875
188,-9074.165,-6928.143,-35.74226,1350.3213,-835.1401,-1185.9365,8870.380859375
189,-406.99786,-585.159,-3230.9421,2865.2256,-243.78212,-843.6327,5869.009765625
190,408.1634,-1625.2532,1506.1212,385.06107,-400.5504,-664.4716,3134.26318359375
191,-344.913,-1418.294,2053.173,-482.0791,-2628.2776,618.32904,5660.80810546875
192,-635.6528,-5891.28,-15526.48,3832.0796,330.62643,943.8962,14770.0029296875
193,3032.9856,-3360.0237,-3996.5918,-7322.8555,3136.0857,1446.8774,15556.4609375
194,-1545.6864,-3728.9307,-8198.302,2990.4336,896.7325,748.1228,8088.20703125
195,-4531.613,-2969.2483,-17107.756,4675.207,748.83844,-4777.665,17775.884765625
196,41.442883,-6662.376,-6139.6396,382.19278,-1333.7408,2128.0312,7814.759765625
197,659.92426,647.3321,1870.4727,1372.4047,656.6542,-1161.1785,3531.27490234375
198,-2364.373,-2138.771,-3663.613,-1051.6917,2954.8203,-1240.766,6013.4501953125
199,2904.1926,-7302.35,-1302.8976,205.62172,-387.84192,-999.9153,9083.5498046875
200,572.026,-482.46658,408.20398,526.6944,141.46254,-735.9121,1866.27941894531
201,2707.1377,-70.51818,7804.2666,-1602.0029,484.31317,1560.168,7972.41796875
202,37.029606,-1562.91,-3851.775,-47.94142,814.6773,-1972.7416,5013.36962890625
203,2207.814,-1352.8198,-1498.9694,-215.54607,-44.50061,454.99246,3739.81713867188
204,346.7316,-1936.783,-1901.5641,516.44257,-197.60417,589.2414,2663.48510742188
205,2369.2205,-1953.1531,201.3916,-164.15549,607.8521,-280.95062,3929.1630859375
206,1817.5485,-732.4453,148.59366,183.36295,-3.9039261,586.6707,2483.04516601563
207,1754.2288,-898.28046,655.26086,-777.0431,253.60866,509.50705,2848.09497070313
208,-1004.4586,-2937.1226,-4380.6978,-578.24316,634.3274,-549.2593,3424.07836914063
209,171.55798,-1600.2384,-1656.4028,-469.0999,-233.58333,501.80737,2195.72509765625
210,2080.499,-2942.2305,-893.4142,-2275.6172,-797.68335,-842.67535,6221.6806640625
211,4025.489,-1175.3262,5588.3823,-384.87094,-381.03326,817.3977,6364.25830078125
212,430.52347,-3973.877,-1622.4364,1248.3645,177.38501,67.63274,4399.396484375
213,13.017499,-3300.892,-120.6573,-503.52536,223.93234,279.40765,3420.83837890625
214,-1093.679,-3849.5798,-5913.2812,1455.7267,1402.245,-539.6485,5538.1552734375
215,990.4856,-4482.779,-2394.007,-1903.6742,-1886.0002,-1094.7405,6930.04150390625
216,-349.4261,381.12003,1587.9938,-2342.9192,7.6606555,2489.5605,6159.02880859375
217,-11873.766,1112.0856,1137.8124,-1873.5142,-3174.6492,764.8819,14542.6123046875
218,-1595.6681,409.9894,5017.5137,1687.7126,-3406.0652,-1330.6263,9118.8662109375
219,-1807.7933,2287.2292,1577.7734,-56.728832,-286.68204,11.125406,3824.11889648438
220,-1152.9843,407.1267,2174.7756,63.77529,-936.0826,398.3726,3381.318359375
221,-2323.788,1959.3544,-221.95255,-1343.9027,254.40897,-149.30055,4409.06201171875
222,-3504.335,-237.04613,-6066.054,535.05695,1080.075,-267.19742,5493.6494140625
223,-4901.2363,1648.6122,-14792.764,-765.44525,-690.4818,379.66574,14462.0634765625
224,-1640.5331,1128.4403,-1823.8373,251.31738,1060.4828,673.9243,3624.12109375
225,1999.2628,1064.0657,7468.7305,-207.42015,-244.60326,-471.2474,6072.84814453125
226,-1119.6404,1755.0564,-953.1264,-261.16342,-236.85753,-81.87902,2864.60595703125
227,-2234.5571,2185.7717,-5372.888,531.1108,1013.3884,-142.19655,6873.76513671875
228,-10165.066,403.21887,-9491.323,-2425.6838,95.83469,631.40295,11130.9326171875
229,1672.7269,711.30493,1427.8893,569.12366,-1096.1757,108.591446,2315.33374023438
230,7201.7427,1015.5661,20400.14,2048.1636,-1009.0546,402.21518,17613.6015625
231,-603.6511,5804.592,5116.67,-2937.2417,425.14948,-269.3175,7985.76611328125
232,-626.7464,2476.9517,1128.0853,427.6578,-35.920208,-1170.3798,3453.66748046875
233,-631.86646,-1621.8336,-3720.6418,595.85547,-457.79913,-394.5103,3102.18774414063
234,-1376.8524,3466.8892,-2046.1748,1357.5497,1047.3752,-643.1167,6100.201171875
235,-928.7166,-310.424,-2562.1553,-524.5772,163.73393,107.12259,2236.23486328125
236,150.32797,766.2088,-116.570465,1056.5796,446.88846,904.204,2648.75170898438
237,1643.8826,1495.4075,2309.9192,-769.7987,-82.01027,656.4271,1911.8515625
238,1033.3274,215.98198,1102.3641,787.82007,-703.8226,-70.083435,2022.88439941406
239,1177.2318,2061.504,3752.9304,891.7062,641.0687,70.35219,2961.70849609375
240,2050.6616,2129.2195,-30.149542,682.1866,-397.03082,168.17032,2540.33276367188
241,1283.201,320.74948,-2635.3125,722.3475,-503.68054,352.9098,3899.96899414063
242,1437.0399,-939.7763,-2191.4348,-298.0099,1276.3538,557.9628,4034.66235351563
243,3494.5898,202.80959,6104.4033,-1221.162,63.00201,2582.3289,7122.41259765625
244,1883.2495,224.73567,1412.0907,998.368,215.7516,-1.0327789,2306.75122070313
245,2818.9355,1833.3268,-912.397,362.4359,-49.45185,-1779.7705,4595.73681640625
246,3205.551,3694.7769,311.8708,27.651083,1438.6569,1395.5277,4699.18896484375
247,1440.867,1637.5479,-523.9795,859.26807,-333.96512,48.050953,2615.77954101563
248,755.21295,122.255775,218.15697,1068.2583,969.1769,-157.92087,2581.74072265625
249,1283.9713,3223.9048,1488.536,830.6555,59.39259,448.44406,2468.23852539063
250,-191.56023,-1809.4514,-3620.1277,201.52292,471.9208,589.9733,3264.9296875
251,2523.13,-4315.144,-4680.3677,-2097.2837,-251.57747,3685.652,10175.0009765625
252,-4835.735,-3179.3777,-17949.855,-1802.3059,-370.64822,310.01968,14383.6962890625
253,-1602.3925,-581.2306,-7345.836,720.5874,-219.36342,2282.4915,7564.806640625
254,296.89282,-13367.269,-26431.041,-6271.3223,2426.8535,1606.5721,26062.951171875
255,13008.11,5209.3457,41052.66,941.41895,2490.9363,-1033.0194,33022.79296875
256,-4816.944,1109.134,-3822.0593,-2772.5325,1771.8527,-2284.725,8851.6396484375
257,956.3898,-2814.18,-1845.7379,460.31857,3333.2983,-1978.0408,7563.71240234375
258,-2166.9182,-1309.0549,-11534.632,592.76514,34.475964,781.18604,9970.6884765625
259,-1044.3127,-1741.9011,-4489.146,-528.26666,1785.7792,9733.415,17452.01171875
260,938.1541,3987.6077,5216.413,-2455.0127,1576.0123,-259.61957,6347.537109375
261,-3570.9148,-158.63477,-9970.286,-8645.415,1027.0156,2435.981,17878.140625
262,-1423.7351,3791.5264,-4686.9385,-3132.0227,3770.086,-10100.919,20809.154296875
263,-1286.9681,-1307.4943,9538.282,-5375.1626,-5911.957,-4493.95,19223.06640625
264,-17197.676,557.1042,-34939.39,5303.312,-10415.408,-2892.851,37147.33203125
265,1650.5002,4085.6953,19598.51,-3284.4504,1269.0903,3269.9058,18804.94140625
266,2432.6228,19587.586,33917.617,-5091.7573,-2927.599,-11081.687,34890.91015625
267,-1633.3362,4333.1406,-27695.512,6660.1333,9961.51,2707.3076,36374.31640625
268,717.3876,9135.822,8548.363,2052.779,3815.2566,-2662.476,11993.5927734375
269,4327.164,708.8391,-2885.943,872.4067,-2206.5242,6044.069,12864.822265625
270,6480.2803,-331.1399,29505.607,1104.0146,-1293.4167,4325.8394,28252.615234375
271,-681.02954,-1029.5317,-1227.2,2814.9685,2046.6155,329.20004,6073.92626953125
272,-732.909,2181.9783,2980.6995,4881.194,1294.1891,1235.4786,9620.0244140625
273,2593.7856,925.7601,18637.03,-2443.1675,1311.328,-5441.77,19970.8046875
274,-1513.9323,-1170.3915,-8031.2554,4602.69,-2684.5886,-28.914248,11402.2060546875
275,2493.8289,5123.666,20356.248,2340.7773,1245.2083,-798.6782,17378.4296875
276,-102.200485,1222.8489,10181.683,-1124.8105,287.855,-1233.501,10124.0361328125
277,-1385.9962,-477.66367,3607.8965,907.73303,-324.98706,-45.664333,4901.322265625
278,2644.1777,-7727.1445,-8402.343,799.089,-826.4712,1864.3472,11376.0751953125
279,663.43896,-1550.2755,316.11008,-997.0901,27.914158,-654.6421,2919.39282226563
280,-1625.9218,-535.84894,-18131.46,2126.827,1554.7181,1274.0817,17813.052734375
281,-1234.1156,-2810.0168,-10392.078,773.92914,-2768.541,79.23137,9835.1357421875
282,-300.6969,-874.67114,-142.4022,1010.4909,718.5079,-77.75675,2252.89501953125
283,544.1249,320.81393,-885.71716,1096.0583,575.94434,-423.68118,2629.20166015625
284,309.84644,3096.871,6167.178,197.49367,533.1834,-2588.086,6842.20361328125
285,-1139.8865,1158.6998,-913.36163,-180.73683,-240.40738,-111.42884,2263.35131835938
286,-678.4109,728.06506,-1136.7845,-51.102825,-21.587368,80.47304,1691.63610839844
287,1748.9244,1919.6854,9816.874,1610.7517,259.51053,-1030.5355,8655.3388671875
288,-4510.639,-5722.579,-31501.127,-5338.9766,342.00974,3828.3608,28758.970703125
289,545.74414,-2681.7366,-4326.85,-974.66064,-394.9929,-571.5337,4767.65185546875
290,-2380.8923,-5394.4717,-4459.0664,1463.5642,-640.18854,-752.4588,4061.02099609375
291,1566.7502,-1439.7709,370.3182,-661.9324,-61.315056,360.2773,2930.64184570313
292,-416.37006,-847.3517,-329.89252,302.0552,-1256.2404,-329.20724,2358.76196289063
293,3267.4219,379.20724,2791.033,-449.73413,-66.57619,-354.33905,2861.74145507813
294,1048.5027,-999.96515,2072.4673,-1.9183146,-134.23859,803.39856,3054.94702148438
295,118.06165,-426.65335,-755.7515,622.9544,136.2114,376.5238,1493.14184570313
296,-376.66888,2240.1428,916.5693,-266.6205,-1408.642,-1781.887,4563.7099609375
297,1660.7915,2797.804,1565.3035,-1262.955,-2371.7168,2380.5095,6330.185546875
298,1945.3127,250.05396,-405.9847,-621.2358,113.24809,-152.29547,2383.75805664063
299,-3881.6155,-662.2986,-1612.0206,247.99734,-1012.6023,3341.6755,6705.93017578125
300,-227.55737,2452.4465,1258.0428,93.009575,-1158.0815,-353.49915,3135.65161132813
301,-3651.1726,1218.0474,2499.1064,322.80734,-71.07658,649.54315,5760.3525390625
302,-206.64542,1465.8374,2172.905,572.9756,186.21826,-85.485016,2364.4365234375
303,6494.281,-4024.0854,10297.878,3896.6123,-4932.556,-2535.0793,17404.94140625
304,341.5669,416.45825,234.53412,1380.9774,-3799.622,-1410.8882,7418.1923828125
305,-717.2023,-1788.5848,1035.6316,-3090.9917,4182.0244,376.56644,9362.388671875
306,-6038.693,-24.604866,-14003.628,-1127.2493,-361.75717,284.23215,12327.1376953125
307,95.80708,-170.36409,5878.618,-3931.9185,1175.1597,341.6595,9269.5263671875
308,-1795.9326,-3668.13,-43.740726,1218.3236,-922.76526,-363.8146,4154.54638671875
309,-12309.296,-1586.3564,-37052.598,-1557.8625,5259.286,-29.034136,32905.87890625
310,-4210.1826,-1527.6045,-1757.4264,-3138.3625,751.31036,-948.7362,6369.787109375
311,6480.915,3894.2432,23061.094,7036.273,-242.44516,-8680.649,26443.25
312,-1098.5322,-1768.5854,1610.5593,1439.4248,857.41974,-5887.898,11046.572265625
313,-2645.9475,-1244.3015,5029.3564,2290.06,-1116.6675,687.7602,8426.734375
314,2156.7153,-2235.9497,12235.127,-619.2078,515.40906,804.20074,13001.091796875
315,4662.37,-1470.4854,15.430185,-1408.2955,-239.61028,-428.47894,6113.9072265625
316,10702.54,-3095.9182,23043.938,-491.69104,-3047.0378,-793.65814,23312.40234375
317,-633.6145,-2684.8728,70.80855,1480.751,1544.7875,1120.8132,4863.5859375
318,2188.539,-3058.7192,-366.36432,-748.8114,-1492.9053,1164.7201,5752.66796875
319,1396.9102,-112.00648,8536.138,-2426.0044,-12.576592,1109.5585,9239.4931640625
320,441.38248,-1874.0078,4738.948,577.6825,-972.4138,1147.5573,6447.42041015625
321,175.56409,-1755.2283,668.01,-1740.16,513.3919,-1472.4125,4615.24169921875
322,-16.75977,-1064.2152,-417.67227,-3823.395,123.091835,-752.7183,6814.55908203125
323,-853.8997,-762.8773,-1582.5668,-165.43773,3360.222,2415.9817,7216.0830078125
324,-3628.1091,2780.453,-686.59106,-1058.8046,220.74069,-161.80203,5870.19677734375
325,-2322.3115,542.4988,-4614.3965,-54.77715,-805.14825,-38.377483,4688.8583984375
326,-589.77203,-1143.3628,-1180.2719,1629.2806,56.93939,761.5871,3168.86328125
327,2329.3154,1707.6241,2100.396,484.2458,427.87335,-207.22623,1295.42419433594
328,1126.663,1196.8079,-1141.5309,118.47661,11.327291,-62.989563,2315.84204101563
329,2086.8303,543.76935,922.83075,914.6449,-116.62859,315.57758,2188.40356445313
330,917.8827,1397.5411,-1368.4132,57.36855,-157.33817,643.2614,2807.01928710938
331,1654.996,1971.6538,169.48293,-417.69604,2539.9893,-1245.037,5225.49658203125
332,4068.6086,-12457.259,-15996.795,4668.9443,-1655.7557,3808.9995,21477.283203125
333,2651.4155,5072.4473,24472.102,-3341.1194,1197.7793,-370.364,21618.97265625
334,62.311768,-4523.3755,-839.06024,-2977.3105,2784.3591,4243.7563,11026.654296875
335,-9067.161,22998.182,-10756.874,-1494.6033,10265.865,2933.2866,37866.87890625
336,549.4929,5801.8555,8541.969,1908.6372,-2412.525,1463.2458,9181.5244140625
337,-3645.466,-3326.1975,-3914.989,1456.8075,-91.85841,-11.201994,2579.37573242188
338,-5568.766,627.14465,-6994.4775,1238.7819,1954.8073,-5.5301776,8082.2763671875
339,-2287.0254,1224.7872,-7192.9185,2054.5244,963.9254,-696.8028,8398.5986328125
340,-3264.8535,-3201.848,-13116.198,-4668.986,396.3349,-14.089616,12788.423828125
341,-1559.9779,976.01904,1668.343,3823.1963,-430.46326,546.3156,7346.2978515625
342,460.22424,1768.9551,-1843.4629,1437.6681,-32.141865,707.6046,4211.9521484375
343,-848.54315,1216.3209,3406.2341,1204.0994,-182.29083,727.999,4429.49853515625
344,364.83545,-2758.8494,1388.3341,-911.37976,22.692007,116.31828,4066.4501953125
345,1116.6432,581.4511,472.0931,918.5717,91.93337,-260.51822,1765.56042480469
346,-6445.14,4980.5703,-14607.081,2563.6836,867.85754,224.43294,17679.03125
347,-2211.7427,-1881.5002,-1253.2489,-637.9376,40.140305,525.2728,1662.73767089844
348,2951.9775,320.09195,1503.4403,470.57193,-289.53598,722.8258,2774.15502929688
349,507.8772,-2890.4263,-380.64722,-1499.4054,1700.2861,-388.22055,5018.78271484375
350,-320.11472,1394.3469,832.85034,777.3735,100.08036,137.29059,2047.31909179688
351,2142.8435,3489.293,17953.65,2585.6462,1638.0824,1810.4202,16384.30859375
352,1058.8185,-17.476072,1046.6946,787.15015,257.74298,-238.92805,1837.08422851563
353,-383.75406,-219.53976,-2153.6294,675.51764,-105.508766,-165.42455,2221.3798828125
354,1964.011,2708.3582,2425.8667,365.19595,-338.98294,-508.5001,1394.3212890625
355,-3965.655,1989.5559,2757.281,-894.1913,2562.9722,-212.44247,7928.84033203125
356,-4801.7197,-1091.3008,-7450.6,1105.1661,-433.1599,359.38733,5935.21435546875
357,-630.929,-421.437,195.56177,1094.7344,75.77978,-41.844456,2042.45971679688
358,1784.4642,1736.9963,277.06433,-1075.9786,33.237324,114.772316,2391.43823242188
359,1131.1433,-1019.55005,148.42043,5.972379,-716.1662,-369.30963,2329.30224609375
360,-192.77939,-1254.9097,108.10808,-24.137472,98.27406,-66.19717,1257.81689453125
361,-1405.1732,541.9261,298.01346,-1119.741,-361.14032,-29.100233,2744.27294921875
362,-704.1046,954.0492,978.21936,-664.3068,55.91935,149.065,2046.97058105469
363,-1673.1123,-171.98064,271.7886,76.89218,-333.4301,82.622894,1867.67956542969
364,36.428173,-659.9183,-48.141018,-1308.6838,171.46191,440.04703,2498.0478515625
365,1134.3154,-1685.4452,1113.1035,-204.65027,-210.9517,-257.29846,2889.5400390625
366,649.50226,-2147.7788,634.38074,269.29587,-158.2169,-143.65305,2852.59155273438
367,38.454132,-2821.6138,-860.42523,467.94882,208.43723,160.1947,2698.4013671875
368,588.63904,-1541.9966,666.6309,569.1803,27.840103,5.331633,2384.56958007813
369,-408.27872,-587.75183,24.63855,120.69483,77.44972,14.845563,599.735961914063
370,-1203.6005,98.63311,-28.426687,-181.97769,-28.915304,60.202522,1288.10876464844
371,-840.46454,-737.13556,62.362907,624.5752,-88.62484,104.873024,1399.75952148438
372,-1128.0793,-474.32083,-71.534744,-185.61972,-76.704094,65.75828,993.452941894531
373,-188.77002,641.7078,116.36451,-371.2572,-22.651663,26.40761,972.892700195313
374,-373.37274,-369.59592,-1166.4492,1174.3235,311.98633,146.10664,2263.8759765625
375,-488.82025,26.785625,4.0747447,423.90536,19.77572,-52.084423,896.132934570313
376,1955.3986,1273.516,344.77042,-599.2407,291.50616,-107.86601,1824.26123046875
377,-1628.9417,-2820.3665,-185.59631,-575.14484,1034.0276,22.538227,3069.83935546875
378,557.7294,-615.02814,-1231.0155,398.51154,-238.07323,635.571,2082.19262695313
379,1042.1704,-750.83765,-555.0509,573.1214,-266.4296,-59.915062,2027.63195800781
380,733.752,-512.4865,225.67032,828.733,119.9447,24.472225,1812.0205078125
381,527.3373,-615.0384,-326.02286,482.1418,330.75644,15.357571,1443.84106445313
382,-880.20825,-124.29889,-8.18115,981.9708,-206.4204,-21.610624,1922.15661621094
383,-241.15659,-1211.2245,-41.8772,496.71805,37.57618,-58.168873,1388.75183105469
384,-586.1761,-31.769815,-132.23022,843.9864,180.4138,-55.38753,1582.89367675781
385,-835.5087,-31.847668,-495.6218,-668.7718,-77.179955,-239.87813,1421.44372558594
386,-1537.1449,-1651.3391,-596.48865,-937.05524,-386.24213,-52.347897,2023.6796875
387,-110.106926,-95.50074,670.40753,-1566.2975,-168.53276,-156.78227,2849.00512695313
388,-462.52957,-1538.187,246.51112,-662.0733,76.06245,-3.3352914,1937.75012207031
389,194.46504,-2097.2654,-1434.4686,-719.283,201.99217,215.60762,2446.70043945313
390,-82.95513,-1576.5839,-217.57167,98.59245,105.73357,-13.757995,1453.01379394531
391,276.65604,-2040.0988,-1151.8757,500.26276,138.31392,18.625551,2215.33715820313
392,-782.14404,1270.9596,453.77466,-307.26886,-62.989567,31.48924,1871.73193359375
393,-1728.9258,-552.9303,82.85006,113.65327,-106.8209,118.49792,1627.87133789063
394,-571.9972,180.0191,294.8256,785.1192,-2.5508993,31.166433,1586.57360839844
395,1271.8737,-293.00046,660.27313,535.59406,-383.74503,-34.4568,1780.93627929688
396,-76.983665,-265.42587,860.1928,-321.1997,103.40562,32.058884,1197.94946289063
397,686.7074,-2003.6625,980.80524,21.724407,-289.88043,-87.548645,2896.94970703125
398,1458.5236,-959.2429,447.08792,465.49524,115.369736,-303.48022,2321.52319335938
399,-1363.2142,2392.5762,812.2038,19.686918,-16.936062,-69.80994,3268.73583984375
400,-716.573,326.4108,-918.27185,633.00116,288.64807,-37.16732,1671.83581542969
401,7.640752,1167.2452,1303.7397,1460.5828,-369.1824,-177.60207,2902.58740234375
402,1191.778,-300.5553,73.703804,-238.26222,-113.26398,174.92941,1452.30944824219
403,462.41846,-791.2056,158.56073,8.206562,196.01,87.653534,1192.26281738281
404,270.0134,-239.22115,59.25244,-64.08816,20.461294,-60.43664,470.052001953125
405,952.72595,-2122.1694,1369.5337,-1232.2184,-335.62906,-177.18175,3987.17407226563
406,-685.2413,-1884.4418,141.09804,-214.85588,-324.54858,172.68471,1912.01708984375
407,-1165.9285,-2485.926,-1583.3079,-1205.1545,362.33676,-109.8344,2480.50512695313
408,-225.5737,-519.5982,74.72769,364.36148,36.807835,148.36685,856.333923339844
409,30.434591,123.429855,348.49762,-1041.3971,259.6542,291.12662,1946.86474609375
410,703.221,-1116.1389,-285.92606,-131.87498,-89.14365,-240.64578,1654.87524414063
411,-413.52695,-835.4582,-678.7549,-1187.3413,-76.627655,293.97592,2154.68872070313
412,190.96007,-763.0709,-350.50314,330.7351,-99.24609,-127.32578,1045.52709960938
413,-292.88354,-1041.3505,48.09095,801.68445,-114.360756,20.451412,1703.01440429688
414,-297.3291,-663.51935,-156.9954,791.1419,-244.93329,105.050186,1515.24841308594
415,212.92104,-494.48572,861.0597,-162.50104,445.39883,177.52757,1465.57629394531
416,-1769.5515,-1764.4418,42.80685,7.6167717,85.4246,-44.067604,1817.49841308594
417,-216.58603,491.5014,519.0592,-121.57672,-123.942795,198.08357,854.283325195313
418,-435.31873,-651.3239,-1415.9248,-894.24506,354.33704,-184.68542,1916.8837890625
419,-524.82745,178.50119,505.44687,-343.5088,37.00253,124.60869,1111.84497070313
420,-1074.7556,860.1712,671.7544,-1184.2012,50.412544,202.65144,2784.36596679688
421,1354.4073,63.055508,3942.338,689.3514,187.11177,-210.01778,3656.48388671875
422,-492.45218,613.0436,-997.86676,15.135864,226.49332,100.07855,1490.27880859375
423,-368.5999,-101.333954,-52.85463,-53.250877,50.33321,39.579792,327.940795898438
424,-1774.9144,796.186,-1279.2643,-677.9393,79.28568,-68.72722,2644.55932617188
425,-1785.0258,160.14008,367.2903,180.02028,-38.22565,-86.819626,2086.56201171875
426,-360.53314,-797.5292,-824.5921,-186.70471,-133.10713,-41.22635,605.269897460938
427,-106.38999,-444.1443,-181.45168,873.1601,277.73062,-61.060966,1619.93017578125
428,-1197.8566,323.48245,-409.35162,-496.76077,-33.54993,-61.089314,1578.45349121094
429,-542.718,-1722.9484,-727.1818,-262.14413,-24.48414,-5.7861757,1190.51184082031
430,-205.55148,245.95148,-931.5144,-472.96457,285.68048,-123.57489,1421.404296875
431,152.28767,-1503.478,103.87903,391.9021,35.683273,13.369941,1768.86059570313
432,344.84094,-538.449,-530.54425,-75.27837,189.40132,5.2706156,947.620056152344
433,975.7311,-1033.2341,-460.99197,124.40532,533.0086,0.5951983,2027.93322753906
434,43.315235,-276.35373,-184.63992,-170.01509,-217.59033,119.90557,594.277465820313
435,84.63209,-696.8318,331.5392,-796.5325,100.21181,-144.64919,1691.41577148438
436,-814.29724,-2583.6643,-1089.5481,-280.71582,-1.8541167,-371.86096,1835.93542480469
437,-84.719284,-711.604,746.3961,-327.79214,122.67687,63.428486,1408.65625
438,-1805.1797,-287.4754,477.40216,-235.75343,-58.306335,20.118574,2056.08227539063
439,2.633476,-321.73584,231.5567,695.67236,-153.65929,-114.1852,1339.29284667969
440,92.91834,-1966.0332,-1125.1969,-1033.0378,32.847836,-72.26545,2536.81909179688
441,42.660095,-654.3304,700.78845,-654.81976,397.77075,176.43088,1797.79113769531
442,-708.69147,-1275.6302,433.38638,-385.60394,30.474173,7.906307,1649.93774414063
443,-23.439196,206.57745,697.69135,-261.3525,-455.10263,143.06215,1137.86462402344
444,-3250.6238,-2101.0454,-371.12738,-798.53613,19.30684,138.64188,2876.55810546875
445,181.20973,-268.4668,1404.768,756.23004,196.59807,-29.454853,2020.82055664063
446,-211.82568,-580.75836,-1840.4618,896.39557,-211.45805,82.13953,2180.06176757813
447,-1066.8484,-1194.3154,-365.8878,620.5858,-15.960609,-8.151958,1324.11743164063
448,-451.6307,489.4535,564.58813,-253.36253,-229.49469,-301.6384,1259.1787109375
449,334.2506,-241.8711,449.78427,-133.69429,90.460556,-153.44809,748.756591796875
450,-1519.9589,-1357.2672,-127.95798,1.0297985,128.04422,-15.672806,1337.00939941406
451,-31.417572,235.56924,129.64018,53.144356,-164.7446,29.999573,383.166412353516
452,-156.08453,-116.346214,-379.76312,-50.404472,-229.43962,67.87495,489.765563964844
453,864.2267,-1320.6047,-181.24469,-552.4703,-183.71095,187.80255,2169.11254882813
454,517.0181,-609.4527,-394.6744,-75.733116,116.24543,-60.359806,1068.55053710938
455,175.57703,-246.86276,-104.41306,-327.21588,-10.470892,-27.276426,679.957702636719
456,-87.048454,-692.4235,470.56326,-632.3939,96.62443,-153.21513,1520.912109375
457,-150.00172,-1098.0067,-127.88685,272.44626,-40.750362,47.108494,1074.47094726563
458,-877.90063,-1480.4103,489.01108,-212.3526,100.89758,95.11527,1802.22253417969
459,-210.90335,-1206.9698,-565.3845,213.2928,-55.544674,-250.33221,1048.07165527344
460,-64.22365,-309.41098,301.62878,-844.4033,138.63783,-175.14902,1603.87377929688
461,-579.0881,0.8165575,-234.94958,531.9921,-85.27717,24.904463,1062.015625
462,-620.0641,431.63797,-67.29716,519.56165,179.48015,59.290554,1321.85510253906
463,-98.48357,-772.23895,96.732445,254.15408,-829.2839,240.58986,1747.61328125
464,-843.0369,-420.17883,-225.95499,75.427414,47.958534,-76.67736,583.324279785156
465,-1162.2184,-18.138954,338.35147,1349.4055,-139.97745,203.31189,2736.6640625
466,-2614.1602,-1724.6996,401.122,609.9659,-84.687004,-91.32443,2892.02416992188
467,494.73145,116.88257,386.8338,645.96893,-253.22046,-52.087578,1251.38781738281
468,969.8587,4430.8086,633.245,326.2559,-34.255074,-192.19624,3700.02075195313
469,-63.23665,-358.29022,-224.12657,-108.06281,-69.8525,-46.393353,348.710327148438
470,47.266323,-657.54144,-115.000626,241.66853,-64.65878,71.57063,782.20068359375
471,300.0967,-591.8201,-942.66705,71.12392,729.92865,-176.88489,1714.34057617188
472,114.16786,271.8528,717.98,-386.9336,-270.81787,181.59753,1030.70568847656
473,274.78513,1394.8087,586.78705,-26.600182,50.684853,-149.46523,1038.84436035156
474,1728.9288,2802.3105,196.67418,1294.5775,287.8295,46.509468,3229.15893554688
475,1011.49164,-951.24585,-579.7465,-175.0609,-243.19238,293.9668,1946.74365234375
476,1794.7472,-690.83813,469.28418,-236.68016,126.953865,-198.41402,2230.4580078125
477,-1401.8242,-520.41174,-89.0338,198.01859,-101.54596,214.19482,1276.48107910156
478,-2096.4468,-1411.869,128.44086,904.7305,226.79683,-168.6514,2567.27783203125
479,190.50632,-701.64594,337.25922,-69.13728,-89.493454,11.415732,993.557312011719
480,-2474.0522,-1691.2833,-520.705,182.09555,8.3698435,-36.68441,1732.91577148438
481,173.4345,-698.1531,-129.96907,255.98352,382.46735,-119.64151,1125.00866699219
482,-5.5360894,-587.0132,-224.64297,337.3889,50.996635,67.910164,788.573974609375
483,-2933.1667,-1582.5583,-73.07883,31.418459,-70.88871,36.67001,2482.63134765625
484,-4954.0234,-2821.4944,-1034.9194,-16.780916,-221.55975,72.892975,3422.49975585938
485,-82.72359,-446.18536,-762.68744,846.15344,114.08626,131.96492,1608.27001953125
486,-64.81686,-994.01514,-671.49133,5.764949,-103.29056,62.3317,843.507385253906
487,-199.05971,-1817.6135,-342.77887,-311.31775,-18.045141,-56.32158,1645.90515136719
488,-228.12233,-505.85434,-788.44965,-189.19649,-117.010345,266.24402,772.398071289063
489,-259.27426,-207.50046,-788.7661,-21.631577,157.5809,132.25842,662.44384765625
490,-1965.352,-737.66766,-606.37805,370.973,-519.86316,-286.2794,1776.26904296875
491,-767.7498,-901.7123,67.19023,41.92762,-188.05296,-85.83108,979.993835449219
492,1367.8075,1637.9149,-516.2825,475.19904,132.41663,-21.393515,2205.23852539063
493,-446.28,-1156.9453,-639.8735,-694.11115,65.59439,-206.33705,1411.00915527344
494,189.30159,1646.8331,1104.5022,-42.653202,134.5667,-233.5261,1360.67724609375
495,-3402.381,-1848.6698,-352.634,1333.0366,-188.35487,-7.5537806,3523.36669921875
496,-177.71048,35.010475,109.24578,521.3126,155.54988,19.140852,977.516967773438
497,-596.4383,-381.99744,-1179.764,540.8789,227.35925,-140.9372,1266.35668945313
498,-1497.3525,1340.495,617.7956,786.871,313.45108,225.00075,2971.34497070313
499,-216.15143,80.98111,355.11118,-191.41089,12.890132,10.719339,596.360229492188
500,-10.543317,-427.6569,1050.8818,-861.52106,117.77947,-205.01393,2034.13513183594
501,-1550.162,-1841.8276,274.12225,-1027.3115,-42.150776,15.184075,2667.8251953125
502,-1213.13,2385.8723,460.90912,858.56396,-195.80971,-12.7733755,3472.35717773438
503,-398.3324,1700.8632,-728.79816,94.11331,-100.03821,126.64068,2305.26586914063
504,-82.870674,283.0984,236.8527,67.31668,103.86114,-32.691753,410.255767822266
505,-1530.291,253.74643,680.7565,614.24615,90.16307,-27.972374,2299.03442382813
506,-751.36554,1821.4442,206.93912,-212.59105,157.51747,-29.532356,2298.86889648438
507,-1654.5148,571.94104,232.5645,934.6856,119.20993,201.17741,2664.8896484375
508,-155.25206,2430.4546,-802.1615,158.65756,-61.506367,-53.30059,2978.67041015625
509,512.2785,-359.43466,239.4583,-41.921124,-188.44572,178.30782,896.483276367188
510,-2062.0005,-1995.2208,-579.961,511.29474,-68.35514,229.50075,1748.77856445313
511,294.57614,-731.21625,-291.45935,-236.33064,194.64711,53.828346,1041.36853027344
512,95.92472,-964.5628,28.816975,673.6199,-325.89597,86.860756,1661.4814453125
513,-1592.9508,204.69656,-981.3906,-113.15186,-354.02313,55.566597,1711.67834472656
514,-365.56772,20.114128,198.53835,93.64939,293.24182,190.9064,801.884887695313
515,-950.98865,1131.3821,-153.35579,388.35266,39.386307,62.905277,1944.34997558594
516,-749.0474,-201.31924,463.28082,-462.17462,-180.32426,-160.31738,1386.07043457031
517,2101.8813,-394.91064,-788.21185,-396.85486,109.592804,333.4989,2865.802734375
518,1737.0272,-225.18562,-137.1164,-199.53888,145.3658,-12.783412,1966.86450195313
519,-2746.5332,-1947.3434,1226.1786,272.51517,-129.27274,-97.79769,3680.73559570313
520,-3271.8281,-1835.5399,-32.331005,-60.80334,-239.81125,-71.72941,2846.6591796875
521,-1119.8744,680.44794,-162.27274,-84.06149,29.502449,43.51638,1569.60534667969
522,-315.4872,-37.568012,224.73007,228.4437,8.009417,72.15469,625.546142578125
523,512.43085,145.91266,1666.3212,164.11295,-85.87531,-14.782279,1411.48803710938
524,-66.30835,-974.3723,-350.92462,1699.2338,-44.33839,31.08558,3052.5595703125
525,-1756.9127,-592.1174,-277.0362,1167.4822,241.13414,-155.29187,2481.70458984375
526,-1334.2178,-1702.0614,-222.82173,252.6964,18.59054,116.43201,1418.66223144531
527,-371.40518,-826.52124,499.88287,-22.183754,177.7695,-210.71564,1261.86218261719
528,680.7958,1822.5558,32.45394,-29.149025,209.79303,74.204895,1617.19543457031
529,347.02206,1467.546,678.73016,-186.48705,32.196377,-29.023314,1050.66003417969
530,-2543.6104,2494.2947,-902.97064,604.37756,-45.956257,75.10262,4574.48046875
531,-809.4242,2471.2224,531.22974,1315.9109,-133.07321,-45.560688,3662.78588867188
532,1031.4795,173.27357,1172.3407,468.3035,-202.23953,-295.7387,1385.73388671875
533,1812.16,-83.31756,123.744225,976.6831,-210.01373,3.86011,2497.46264648438
534,358.46896,4036.276,154.66504,-2535.1084,-87.540016,13.052876,5798.376953125
535,-2203.604,42.61129,-158.17726,1855.5446,-17.045607,-88.48518,3871.47021484375
536,-1781.7072,-1008.54034,-849.1012,1828.2701,-38.87744,90.06039,3286.80126953125
537,369.1594,437.0675,950.67017,-476.26035,-230.11465,-279.20343,1173.23083496094
538,3909.9084,-787.0752,-1425.4231,724.6672,147.65106,167.32588,5214.62158203125
539,-1385.7054,-548.71497,-47.336735,-969.29926,180.83675,153.41402,2087.80224609375
540,3592.3923,-356.91586,-38.593132,565.7876,234.48734,-27.066896,3945.72021484375
541,4803.9434,-581.4624,582.7185,-2139.2603,78.92354,2.3217983,6151.125
542,4091.3047,-1117.2147,-405.64487,-1785.0049,15.631943,112.807655,5790.2001953125
543,3231.01,822.36945,-363.30624,-344.47815,-38.5095,-51.269493,3229.79467773438
544,4008.2427,945.72437,-126.53286,-153.06233,249.42159,-32.92413,3751.36401367188
545,-1191.1965,-43.213917,-37.86526,-670.5208,618.3487,278.3174,2013.02612304688
546,-2364.6584,-1501.2034,93.9598,-142.34663,149.3926,-106.641464,2197.5693359375
547,1418.2246,1878.1718,421.9247,82.017586,-204.86186,213.49219,1394.71606445313
548,1919.684,-535.7821,-9.735753,-1182.7069,-91.68327,11.853406,3039.140625
549,2435.3508,-77.80792,832.3061,-351.40292,-190.46327,-282.70633,2361.36889648438
550,1417.8347,1282.7211,16.326351,-351.75186,-196.37529,42.048622,1511.72106933594
551,2380.196,1315.0004,391.73547,-232.70332,-6.174588,44.993626,1771.76684570313
552,-1621.2771,-3688.1062,293.0834,-134.55862,-156.0799,85.41586,3470.23095703125
553,-1999.0043,-2931.5232,695.53986,-53.67278,128.49945,12.057051,3271.31298828125
554,1614.4526,-1534.444,65.69235,100.82589,-92.134094,-11.334793,2737.45703125
555,903.42737,-1407.2826,-634.8284,-217.89853,135.45842,-97.0188,2092.09765625
556,989.3873,935.8118,-553.96405,-546.76465,-49.680386,-6.697351,1790.67358398438
557,2758.0627,734.44525,1203.9403,1199.7698,-47.89531,18.367046,2773.37548828125
558,-854.96533,2457.8782,-63.377888,548.3527,-222.09314,31.253155,3167.3515625
559,140.64839,-987.5019,-439.58926,213.31046,-72.96528,-57.900887,1057.04162597656
560,1288.2465,-651.2239,-167.17273,298.49103,-63.419243,-211.89877,1863.09094238281
561,-41.672894,-1231.0217,-963.2855,29.47807,-73.511604,-1.2530917,1089.32312011719
562,-1416.7446,1976.5371,-552.7233,2699.0645,165.50664,-282.51196,5612.97509765625
563,46.99884,3043.5127,-402.25977,174.60184,43.430763,100.88389,3264.1669921875
564,-83.37956,3834.856,-234.13191,-2396.1218,-73.19941,95.951225,5764.8828125
565,1745.8412,1072.3396,434.62552,-1370.2339,82.14471,202.5278,2658.13916015625
566,-661.4944,-365.94016,-579.4826,-311.22272,11.665552,-23.793058,602.100219726563
567,-349.51843,-121.6911,-34.721745,427.3525,-111.66101,-71.586006,824.591857910156
568,-19.974518,-727.3372,-106.6358,-194.06723,-94.35354,-37.17301,768.381896972656
569,-368.22635,-772.27966,1184.7771,104.467316,178.2262,-166.0294,1847.51354980469
570,-436.84506,-275.4119,-69.0683,211.54123,-43.497692,-329.63193,753.555480957031
571,111.97039,-154.36858,-286.0616,-73.071266,-163.46585,250.41708,638.484252929688
572,-964.00287,513.2917,-693.80023,-152.36993,50.46723,-31.629232,1391.59326171875
573,168.27507,-457.00555,176.86758,-89.15709,-63.494133,79.43788,671.784973144531
574,360.23065,-1039.0399,644.8452,-145.28773,93.12227,193.89125,1624.60412597656
575,504.4452,-267.98584,575.4026,-658.79767,32.89449,-240.07411,1461.05798339844
576,-514.0909,-343.31845,-352.61172,-538.1808,-263.45605,74.811966,1059.05432128906
