Element Label,S11,S22,S33,S12,S13,S23,Mises
1,8204.07,7476.588,-297.22336,4398.9937,3424.0198,-810.58075,12720.572265625
2,10494.901,6224.7,3080.2078,2707.127,-6228.799,767.3255,13479.4599609375
3,15183.627,14082.446,-3042.117,-749.4495,6086.9683,-2580.7,21122.005859375
4,15281.005,13973.081,3398.5667,838.35345,3597.1428,6355.101,17013.2421875
5,932.2977,18743.143,6173.4194,1713.808,-3979.1704,-3898.48,18795.052734375
6,13333.828,11330.657,1473.9856,3438.4553,-2399.8306,-2856.2073,14075.919921875
7,11202.368,18219.594,-2854.5254,3617.89,5155.1606,-2476.461,21974.328125
8,14790.242,17459.86,4096.1514,5214.496,-3798.2341,2607.6543,17184.056640625
9,15729.161,16851.338,-6465.4644,-822.01227,-1405.1831,-6574.6787,25620.244140625
10,21651.852,17546.346,-6737.411,3186.4583,6540.182,864.4552,29449.57421875
11,12332.899,12556.915,1001.0046,3731.9883,1583.223,385.73083,13444.326171875
12,9631.209,21478.238,-2018.3251,6236.5156,-3087.035,-499.14944,23666.33203125
13,6510.679,15856.713,848.5178,3947.0876,3782.6765,1866.8971,16505.984375
14,7751.5806,18373.764,2239.1426,3512.4558,-1462.9989,-801.34393,15720.4150390625
15,7393.7383,2887.2405,26.208216,-6309.79,-4408.6265,-28.008282,14803.3076171875
16,24745.94,19541.455,32645.592,37.613445,-13484.193,-429.4551,26012.1640625
17,23024.705,30727.0,15564.293,464.27515,-10759.601,3094.8882,23433.609375
18,12558.661,1760.7722,-11208.16,-5312.216,9916.168,944.378,28410.390625
19,-22443.82,-26590.768,-19907.393,4664.743,9029.882,-13316.815,29598.26953125
20,9628.992,-10582.593,1779.0288,-6579.185,2643.9165,-235.1232,21504.96875
21,23332.94,15127.794,2104.6082,1149.2623,-4847.6187,-464.2251,20466.853515625
22,-8191.0527,2180.3416,-4171.4526,-9348.745,-5471.4814,10291.457,27418.6953125
23,5513.591,-530.4894,14749.403,-4932.1094,-1008.4818,-2720.432,16609.744140625
24,-27123.912,-34301.652,-33295.574,-3156.5215,-4756.709,-3727.6868,13592.9189453125
25,22339.19,17030.244,13826.375,2857.4607,-7731.766,-5928.6445,19098.197265625
26,26659.762,16957.979,2530.5623,-2750.6382,7238.198,7278.83,27947.509765625
27,31313.236,32161.307,23078.898,294.6428,-17085.588,-12168.533,37359.58984375
28,19444.84,2496.2405,8878.393,4290.7075,-17379.914,3293.4915,34839.26171875
29,20627.104,-5463.354,-19676.352,365.15802,-8239.432,3846.4402,38755.578125
30,27652.082,16770.555,-13567.785,-3319.4072,-667.5358,99.480034,37461.60546875
31,9769.873,-5878.2246,15640.047,-6283.808,-10884.415,981.0715,29119.353515625
32,15793.039,20330.29,12919.097,-7561.2144,-16271.918,-7383.969,34224.21484375
33,1354.1572,7228.1416,-1140.6493,888.3261,-17326.979,10793.741,36165.40625
34,17985.572,3729.7239,-5683.257,2442.0024,-10040.768,10821.68,33131.41796875
35,16576.89,-4628.7515,-7400.1597,9774.594,-4836.9937,-978.9383,29594.291015625
36,26047.717,11417.994,17525.99,-6545.2124,-16897.688,-4149.3374,34622.8828125
37,7098.382,15028.018,-1462.3037,5223.1743,9993.239,4357.073,25346.37890625
38,20793.809,22658.838,5906.5635,8679.235,-16714.496,9411.356,39783.22265625
39,7179.337,-5157.7974,4602.0425,-84.60603,845.9115,2721.0786,12305.765625
40,10382.376,10475.213,19299.758,90.94885,9476.534,-10573.837,26144.931640625
41,4282.1104,-3867.8215,861.78436,-942.5393,-10858.475,-1244.3938,20279.908203125
42,1036.9773,-2595.7114,-5750.199,-15457.906,-4018.518,-8336.172,31754.806640625
43,-22537.39,-50742.207,-31473.627,-500.63104,-6026.961,4176.4414,28024.5546875
44,10996.378,1046.2501,1284.4694,-3550.809,-3908.8074,6853.8413,17924.228515625
45,-6383.2837,-11415.194,-7906.553,-5856.7437,-6891.136,40.733116,16289.5087890625
46,110.28421,5899.3555,-3295.3687,924.2898,4128.802,4086.262,12985.5283203125
47,-5632.806,6525.233,-3388.77,-5983.5557,-825.03345,-15459.974,30855.3671875
48,22069.227,8107.8267,16864.486,-5206.4272,-4889.7314,-5060.192,19473.322265625
49,5899.2104,2805.2954,-5003.815,2131.7349,-5285.8813,-11381.831,24099.95703125
50,24654.02,18157.168,1751.4475,290.32547,-13880.442,-4873.4644,32671.810546875
51,10772.708,11793.726,9758.029,-3180.0635,1794.1359,-14705.478,26303.1640625
52,11656.39,15597.16,1459.6431,8856.559,1474.1395,-12474.605,29468.09765625
53,18664.852,33364.12,-504.5544,-2779.7776,-8892.738,-12666.12,40087.734375
54,-4942.4297,12919.062,3285.5686,-2514.8318,-657.723,-14265.186,29504.677734375
55,10708.018,29517.514,17002.457,3536.7866,1371.8125,271.56763,17844.1953125
56,-30227.838,-25701.795,-5960.46,8041.2397,-4673.591,-6293.518,29629.251953125
57,6764.0986,25902.906,15872.595,-4217.3667,15840.399,-4206.5356,33676.86328125
58,14776.526,32279.727,29943.592,2932.0068,12710.598,-1650.8197,28099.345703125
59,12513.84,21572.33,-5174.8467,2147.2935,1631.4875,-9511.722,29127.56640625
60,10085.498,7561.712,25923.111,1473.1932,12440.601,-3562.462,28391.19921875
61,15707.345,24955.457,20554.855,7230.5293,14707.235,603.9246,29513.3828125
62,12883.357,8558.253,25872.209,-4902.294,16913.736,11142.007,39323.640625
63,12573.751,7869.468,20585.508,-3223.6748,20922.643,3208.095,38721.19140625
64,1593.5266,5343.922,4610.29,2733.5984,7334.983,12401.209,25632.904296875
65,7128.0293,12025.103,23022.336,-4723.4043,18795.264,5723.2593,37732.734375
66,10341.153,21538.164,10703.695,-6768.544,1385.6038,3969.8628,17661.36328125
67,14927.365,19806.514,9890.806,-605.0563,13509.447,1592.1394,25099.1171875
68,9873.506,-10059.367,-10100.359,805.69965,-6101.0713,11434.354,30066.396484375
69,9832.858,22419.824,14762.186,-2261.5989,8202.911,9330.177,24475.478515625
70,3956.6602,21309.152,21369.324,-376.75577,9924.042,5611.175,26315.361328125
71,12759.239,-14040.844,-7131.904,-4472.098,459.66888,10061.655,30743.474609375
72,-1862.1465,8272.515,12291.439,-3561.6892,11105.544,-4884.0796,25282.650390625
73,-1424.9941,4664.117,9374.594,82.124306,8807.909,-731.6096,17953.056640625
74,-7750.5693,-5799.472,96.17327,4307.644,8125.195,7734.696,21983.375
75,4518.8486,2154.1963,9715.533,4746.668,147.2563,10192.203,20595.779296875
76,17338.629,2518.79,23236.865,-758.4916,-917.75824,16631.994,34292.1328125
77,5439.177,-4731.7646,-10191.835,-6745.906,8717.282,-1439.6401,23653.8984375
78,-3181.6477,10959.772,-2910.7253,4736.8916,-10946.648,-5710.8076,26848.904296875
79,14495.865,9967.107,-12204.699,1633.4493,8791.71,7111.001,31687.46484375
80,24915.473,25867.605,-570.7557,-4425.378,-178.57451,6241.601,29162.3203125
81,19182.168,23656.773,-6851.008,9520.965,-8410.911,-3081.9353,36426.74609375
82,48547.57,32702.182,24855.02,318.44406,-938.77905,13494.151,31404.142578125
83,9863.673,20314.088,-4014.743,11183.298,-6605.6626,11783.165,37006.6015625
84,12094.665,19637.768,-4790.8896,880.68097,-8718.215,12684.57,34386.52734375
85,11336.514,23352.01,-3950.9421,3868.4824,13751.081,5093.7466,35380.44140625
86,9161.987,37667.29,2161.6257,-3356.7703,510.05008,8172.584,36000.86328125
87,3753.931,25920.71,-8232.425,258.69476,-3613.161,13521.195,38582.01171875
88,14830.059,14650.982,-622.1688,275.8565,-5691.3125,12893.632,28847.443359375
89,14437.484,24501.781,2217.7295,-67.40903,-1552.6189,-4706.8047,21149.544921875
90,10129.914,-2344.213,-16150.177,-133.47438,9771.4795,14200.807,37548.8125
91,36400.42,25834.861,-1137.2672,2536.6274,-3838.6177,7754.5317,36986.609375
92,19863.572,10994.395,8667.022,-1668.9343,-21156.781,-673.4327,38174.1484375
93,16320.223,34756.04,18994.941,3727.8748,-6239.912,-12445.045,30345.689453125
94,7027.7075,-3110.4194,-5955.7397,8888.388,-4399.808,657.0552,20883.10546875
95,5115.881,16873.098,6925.4883,-722.23694,6018.4697,11728.78,25360.4921875
96,20278.057,22528.445,13392.62,-178.82764,-1993.7622,-3728.1438,11031.1728515625
97,457.8751,7267.1553,-7218.118,10582.091,13298.122,6749.527,34068.8359375
98,8866.836,15851.289,-6593.7373,10.493842,12458.466,-15028.408,39230.03125
99,17363.303,8595.865,5591.622,10887.124,-2581.892,18088.559,38332.85546875
100,34076.39,18449.848,19360.281,-5752.481,-7238.3306,-5344.023,23935.74609375
101,-6751.0435,5529.0854,8771.178,-169.74315,-14260.247,705.1006,28509.083984375
102,36355.227,32536.953,34301.918,-8289.532,-12892.351,-14679.559,36908.140625
103,7033.0884,-3452.7805,-11013.631,-5127.838,-5659.4155,5130.3105,22368.1328125
104,30501.479,3515.8276,7372.2075,-1686.0452,-14074.57,-10692.058,39809.5390625
105,18319.326,10823.774,1666.9803,3764.4844,-12781.924,-374.31766,27234.767578125
106,12753.166,13183.858,11884.467,5488.38,-4304.495,-7126.347,17309.5859375
107,17276.656,13496.505,10586.959,-861.9113,-13223.713,-10667.092,30032.357421875
108,15821.14,-3326.8193,21960.414,-9956.493,8254.304,10144.188,36502.04296875
109,24220.69,14690.542,-175.54097,1102.2155,8102.697,-1679.7241,25740.439453125
110,-2029.6577,4241.394,17861.06,-397.07675,13425.137,-2098.4165,29404.369140625
111,13846.27,8658.14,2747.5076,-7132.7153,9081.352,5036.5767,23846.55859375
112,25610.143,5005.724,-8454.698,1864.2367,1330.5225,-5244.5015,31326.037109375
113,7221.986,-5919.954,-15353.888,1796.3048,-3020.1467,3670.1262,21520.765625
114,4822.3486,24496.883,28835.68,-2916.3489,8994.745,4326.2095,28559.693359375
115,3414.153,-5850.293,-13062.931,-2522.4248,-3198.9668,-5853.8027,18901.3828125
116,-9181.731,7069.3047,18771.438,-2085.632,12355.437,4043.2007,33335.71875
117,8850.847,614.7592,24782.607,2960.3699,9142.282,-3963.5205,27875.318359375
118,-19150.498,-8659.874,-13485.05,-5459.0464,8632.792,-5680.8228,22192.578125
119,9599.603,8835.225,21946.197,10261.874,8679.743,360.76385,26547.740234375
120,19276.002,21521.17,15262.633,-6593.928,5170.8984,-5695.6543,18388.427734375
121,28954.152,24962.943,29706.895,-6257.264,-16407.193,-8510.387,34085.609375
122,17171.709,-1074.0153,-1843.1729,5715.086,-13493.42,11885.429,37623.4765625
123,12171.674,13771.6045,24239.2,11174.463,11391.349,-3409.5789,30457.310546875
124,14632.116,12416.498,1207.5812,1215.6548,771.1951,-3194.332,13864.0693359375
125,10972.68,19239.865,25970.684,-3811.242,-12460.787,-5040.307,27475.435546875
126,-12879.241,10538.972,25273.234,-8343.445,-1854.9128,-5935.9634,37887.0625
127,7371.3145,22890.639,8213.672,8281.961,-6072.3066,-16619.053,37060.171875
128,21476.771,2669.4736,-18497.139,1232.2395,1591.757,843.45264,34844.1875
129,25322.37,19839.684,17386.96,1913.1359,-256.71725,-4804.119,11399.1162109375
130,7209.522,27726.396,803.6384,-10982.548,8808.21,-4015.4587,35162.20703125
131,14101.821,23286.41,-3889.7373,3470.3164,-15967.132,8232.995,39719.28515625
132,20719.115,26664.564,-7980.5693,4489.8936,8509.618,-8774.251,39221.59375
133,13448.806,16625.861,1920.2623,6609.7656,-10301.591,10135.091,30614.103515625
134,1148.7484,11975.927,-11081.984,10842.317,27.280472,15866.208,38821.67578125
135,162.0714,25173.824,19190.285,-2758.9963,2717.6582,5166.791,25235.13671875
136,13531.455,8891.0,11590.763,-5269.7437,-3764.9407,-443.67416,11946.54296875
137,11924.094,-3618.9746,6506.3135,-7946.7363,-11481.23,-9056.238,31901.16796875
138,-1383.7764,5566.74,2580.0984,1292.7578,-1443.279,-8384.76,16082.48828125
139,5982.2036,3481.9185,10934.352,3273.2021,16004.942,4876.1904,30250.69921875
140,10954.668,16988.717,22406.102,-9038.419,18241.89,888.04694,36663.21484375
141,10991.999,4352.023,6009.1733,7271.91,15517.783,9304.714,34301.77734375
142,10121.141,9976.39,4817.286,4994.122,48.737846,6180.3657,14724.3251953125
143,225.63434,29310.746,10873.866,-9021.063,8396.46,-5006.9067,34357.98828125
144,26064.088,33332.137,36823.445,-5776.772,18577.521,4983.731,36060.890625
145,26577.973,18294.436,29645.264,13155.256,10299.547,-11834.095,36891.6640625
146,13965.835,16539.973,18040.176,240.20268,6452.9233,788.4631,11819.361328125
147,21403.129,35986.465,-877.0375,10858.623,-5599.3706,-5457.4253,39637.57421875
148,10431.697,19036.168,-8391.416,8334.988,5361.6763,1537.7552,29867.41015625
149,9133.588,4963.683,-20718.533,-481.57785,4206.254,-3332.2126,29515.099609375
150,1749.5662,1627.171,1037.9421,-6769.951,4354.481,-12770.864,26155.314453125
151,11256.709,9380.21,-10326.756,5533.6436,5576.2983,-10735.826,30980.455078125
152,17430.928,2864.1814,5189.71,1645.1416,-3679.3462,-5436.3896,17919.765625
153,-8474.512,-8728.982,-858.3726,-4437.61,-2341.3315,-12749.156,24963.052734375
154,7981.3823,3942.485,14611.99,2021.5245,-15590.425,-9287.461,32973.81640625
155,8722.627,-2662.658,-3836.8179,-5138.47,-16314.428,-7844.4185,34737.1484375
156,17654.91,19546.21,13121.62,2489.055,-16726.486,2947.0737,30276.55078125
157,4038.3804,-5319.329,4101.9067,2880.612,-17314.229,11021.688,37105.78515625
158,-7050.367,9884.42,14039.511,5350.3833,-9636.639,7280.4976,29965.123046875
159,8682.838,9799.996,16479.959,5824.571,3342.4062,-2719.5085,14519.353515625
160,12819.998,578.83136,7005.6333,4694.6484,16620.266,11714.763,37669.671875
161,-452.53738,26820.338,-3484.0308,-13255.788,1761.7178,8486.215,39852.01953125
162,-527.73157,7790.526,-11090.414,-1776.75,15522.541,11723.057,37593.0234375
163,9294.567,20085.807,25980.93,2204.2275,6049.489,-6982.3315,22032.763671875
164,-6032.4824,-2322.1816,15151.662,3859.5596,-2595.4146,-11208.629,28735.55078125
165,13423.827,20527.555,-2889.9104,-4054.1426,-3419.5728,-10240.758,28835.6953125
166,5912.6265,18807.998,12650.472,7470.051,9088.125,-11504.33,30611.076171875
167,12629.833,10901.075,9588.876,-2464.7402,1697.6726,-14508.827,25794.734375
168,-17497.732,18004.371,15380.289,602.6873,3375.5723,6530.99,36569.92578125
169,-7431.8877,-7079.971,1314.0688,-1563.505,-3500.7942,8999.638,18989.95703125
170,-303.51443,-8383.1455,16444.193,-143.56361,12961.5,14367.542,40055.25390625
171,14832.774,-1707.5009,-4904.0264,532.6038,3258.0908,-18980.52,38080.79296875
172,14972.795,20126.055,9635.052,-1894.5771,7431.032,2470.666,16652.205078125
173,23074.516,14402.569,-1466.8333,2682.608,7823.7056,-8757.494,29999.341796875
174,-862.0854,15104.666,-19266.361,7902.307,-887.7903,6662.716,34790.6640625
175,22831.066,353.93744,-16617.764,3019.9797,893.64435,2851.3574,35055.41796875
176,9209.635,12254.122,-1315.0159,-13764.674,-4483.3896,-287.37756,27946.880859375
177,20025.424,16515.562,10968.441,330.14075,560.86914,-2244.785,8885.22265625
178,9679.421,15453.741,3862.1648,-3747.1736,-1569.4741,8711.358,19440.958984375
179,3945.2559,21629.209,-21167.096,-6109.376,-2847.3357,-3897.3699,39614.4140625
180,28045.387,9936.891,6793.577,2452.9624,973.9045,-6696.2026,23454.90625
181,8148.8003,-2171.8066,-11897.927,-6671.3433,-14190.331,12543.854,38873.55859375
182,6643.3022,16421.691,19042.738,4421.6367,16644.666,-1172.6155,31969.185546875
183,61.922817,17286.162,11429.948,-1372.757,17632.188,-3907.5278,34845.984375
184,580.3521,1517.7346,-27.038158,-256.8578,507.18625,636.88043,2000.86413574219
185,-22449.746,-30760.352,-35924.27,941.557,2041.3011,16958.982,31884.62109375
186,11633.766,3425.03,-8826.14,4298.265,323.5248,-4903.7993,21116.8671875
187,303.83273,932.95496,-14435.1,-6063.556,-3800.0847,-8403.287,24338.69921875
188,5777.581,1203.4631,8125.8047,-11134.044,3389.7625,3747.3105,22038.08203125
189,15100.965,8338.234,2884.6724,6736.7666,-3597.971,7304.02,21151.625
190,17711.055,14027.31,-912.57587,868.3731,-2166.592,-10494.526,25269.640625
191,6262.669,-4300.1577,-1952.8422,213.31854,1714.7622,-6789.548,15477.09765625
192,-4187.8994,-7178.417,-20043.547,-1882.591,-2481.5393,-20709.113,39097.78515625
193,9724.611,-11206.041,-16731.463,8072.2764,-10637.0625,-3106.892,33884.4765625
194,15873.045,11612.029,5912.399,5751.777,344.6572,-3129.345,14279.76953125
195,52439.6,20688.695,21932.432,2633.1836,1807.3265,2782.22,31999.994140625
196,33972.273,14607.834,-5398.147,9573.838,3195.2073,-2203.6082,38507.09375
197,17312.055,2465.3064,7616.074,4562.1934,-5904.7637,979.59784,18450.001953125
198,22648.016,-3627.0686,-3577.6672,-5115.2036,-4582.8594,2573.0354,29162.47265625
199,22501.135,12502.697,3793.928,-7801.231,-2359.028,-1427.6812,21639.615234375
200,16554.97,6610.5703,841.9557,1686.8038,2132.8474,5044.4,16972.1640625
201,24641.291,12171.793,14947.01,-7538.1113,-5091.6177,-3875.909,20540.1015625
202,21752.523,12820.331,4681.5127,-1982.2776,-2745.0164,-4996.29,18110.888671875
203,12188.949,-679.47186,7416.6094,1822.0194,-14834.477,-8173.106,31583.26171875
204,19956.857,2594.6228,-68.25695,-7083.518,-8336.145,2456.6023,27053.26171875
205,17938.42,-2158.7358,-1031.6179,7702.004,-2850.584,5197.169,25804.767578125
206,4754.321,2971.212,-12009.21,8654.159,-9950.837,7652.363,30849.978515625
207,5151.996,-267.23077,26726.238,11239.649,-3456.6084,900.47217,32077.99609375
208,9835.164,6341.4287,612.1641,5395.2256,-5685.035,-9983.251,23416.390625
209,1067.4589,-10507.74,-12721.091,3258.3176,-2346.4229,-18503.71,35214.10546875
210,8695.878,878.59607,-6528.2915,11593.786,8890.931,-4630.4766,29641.037109375
211,-361.86008,6304.757,18272.865,3396.1248,-1102.8608,-2537.1138,18028.50390625
212,-9046.867,4586.158,-12420.703,3940.8152,1882.6539,-6902.6934,21057.125
213,4115.0957,4665.2954,3682.7024,-772.3041,170.69333,682.7807,2000.73083496094
214,6640.8364,5497.7354,7100.113,317.5631,166.70154,725.0479,2001.40075683594
215,-783.6801,13388.849,-6704.819,4378.318,11061.792,9286.808,31672.875
216,-4948.712,-11260.642,-25266.568,-8987.594,-13960.292,-6266.6216,35626.1484375
217,5669.6772,14364.313,12434.354,-2350.8271,9185.7705,2656.4949,18799.63671875
218,25103.508,22594.979,32044.69,5509.8965,495.68774,7281.399,17965.388671875
219,13124.581,12126.934,14811.016,3292.2156,-268.29553,10456.077,19137.462890625
220,7998.732,5217.061,-3073.923,-2985.814,-12584.977,15272.604,36071.98828125
221,10347.13,12115.577,-2343.977,-6989.6514,-4139.5776,6820.0938,22894.326171875
222,22504.084,13764.694,-117.07242,781.2479,10847.946,7992.5156,30608.892578125
223,5800.7285,18070.1,16657.209,2509.743,11226.093,10133.854,28987.15625
224,25155.258,22257.61,18976.31,-8584.924,-12190.393,7237.3784,29201.54296875
225,8075.0737,25021.457,-8945.903,274.1435,8022.3237,-3201.6562,33005.87890625
226,9652.218,15318.628,26194.303,-389.87872,12537.873,17106.91,39522.19921875
227,8441.639,28938.498,29061.232,-5568.988,3918.5176,12836.431,32497.37109375
228,-8888.507,5364.1113,-11583.588,4962.308,12005.35,5252.9287,28945.65625
229,4707.1353,10247.616,-2620.8738,3629.7112,-7394.6465,11543.927,26987.9765625
230,17645.52,-1168.3618,35600.914,-133.38258,6321.4443,8471.431,36734.17578125
231,7730.4033,7075.591,-4343.553,-4109.136,2730.4172,494.41638,14562.173828125
232,33357.863,11952.843,-7904.73,-4691.938,7775.871,4038.7075,39672.64453125
233,21516.344,10018.307,-12139.767,9519.36,4528.4946,3905.5195,35455.53515625
234,26783.703,9633.6875,-12600.657,1552.1306,-1573.4656,4520.26,35295.34375
235,44131.797,13353.241,6311.4536,1186.8633,7225.5063,-634.9208,37090.44921875
236,11249.353,924.74493,-7353.0986,2873.3704,6250.514,6778.4956,23246.619140625
237,20123.723,10841.574,-4551.87,-5979.2705,13214.759,-1535.1769,33229.73828125
238,5005.314,17371.766,3670.2646,-6253.773,15529.6875,-3508.5298,32388.166015625
239,11373.64,30938.387,2337.846,-8370.46,-5234.101,-5671.9277,32095.1953125
240,20802.057,13479.391,18512.756,-2114.9468,-7127.3276,-4834.7866,16674.513671875
241,15338.255,-1650.6561,-26730.514,-5792.554,1855.352,3049.6978,38504.4375
242,9761.844,136.20537,-1367.4587,-1961.0435,456.48886,-3311.1067,12427.39453125
243,-513.2954,-5741.6313,-22219.73,6910.8296,4252.3506,9032.531,28762.86328125
244,16987.035,-488.92563,-11479.777,230.26907,4645.553,1644.9098,26292.650390625
245,6210.5845,-6564.0977,-3342.8962,3671.5132,11852.642,-6325.6987,26727.46875
246,7347.0,-6242.434,-1663.8983,-472.88687,9042.169,-1584.583,19922.400390625
247,16120.296,-349.14545,-972.6953,-4161.8706,1816.4929,-7033.103,22184.609375
248,-7938.518,5710.6636,-9651.917,-975.947,638.767,-5873.5522,17894.125
249,-53.82631,11323.666,6044.908,-7543.978,-9965.009,-8493.213,27969.56640625
250,-5120.7188,3967.1362,968.17474,-2179.873,-217.32416,-12888.261,24021.818359375
251,5094.4614,-3513.4485,-13499.212,385.16736,2975.8245,-8534.154,22478.326171875
252,-25974.607,-16921.334,-39846.156,-7373.5195,-3395.5198,2686.8591,24886.083984375
253,5181.0923,-564.5804,-3221.55,-5431.4307,1068.3306,-2160.2327,12698.955078125
254,-43000.61,-43092.79,-44032.96,753.15497,654.20294,-114.77689,2001.06909179688
255,9.866254,-6048.2607,5071.374,5663.1816,7637.649,414.636,19097.505859375
256,-11497.394,3105.115,-20709.291,-3117.1199,-112.15624,7396.1675,25018.11328125
257,-15612.064,-2243.5793,-571.52563,2051.1448,-10489.175,2923.7734,23920.708984375
258,-6060.637,-12565.132,-1948.3032,5546.3096,-5342.094,-13368.709,28284.873046875
259,-15864.584,-5099.836,-6201.455,-3785.2114,-9860.456,-4776.4717,22546.57421875
260,-4881.8193,-9857.69,8825.129,3036.4941,-857.5511,7994.0825,22414.880859375
261,-11372.992,-2377.2573,6435.1914,5436.582,-621.356,-5195.1514,20215.173828125
262,-7331.7817,2775.0781,5371.881,-4862.349,511.3273,-3946.7568,15924.19140625
263,10322.647,11441.237,-4724.5713,2566.9705,-4786.9707,1474.1729,18426.462890625
264,4220.727,4623.035,4420.8447,2753.287,-12274.451,-5140.438,23539.79296875
265,16281.441,21892.88,-9991.199,-1931.2861,3641.1602,6927.1147,32620.328125
266,11973.101,13891.3545,-3904.1426,4909.275,-4163.7915,-4879.1533,21953.49609375
267,10109.754,5295.0674,-8772.653,7013.795,10714.946,3422.8816,28565.2265625
268,4667.634,12380.522,-3252.2554,4422.723,-985.085,3336.065,16681.69921875
269,7764.4946,12021.968,815.36945,10617.677,7382.479,-1164.1626,24531.125
270,232.566,18253.473,7835.379,7487.544,5064.5537,1981.3956,22415.689453125
271,-3826.2078,14467.83,-5908.1787,9283.265,-3597.4463,3818.726,26799.328125
272,-21556.072,-15398.189,-19589.01,18145.797,-1868.3921,4385.6377,32949.3515625
273,-2446.8677,-13507.171,-4673.8413,-9143.14,-5927.5254,-1903.6556,21673.2109375
274,-2075.0256,6251.0176,14590.411,-716.6944,-1167.6442,-3094.8186,15577.787109375
275,24022.639,-9251.983,6409.275,-884.22034,-4535.547,-6374.5127,31895.3828125
276,20863.975,22491.762,3922.1914,-1243.7288,-5627.479,-6283.4673,23137.48828125
277,-861.723,21195.057,-10772.517,4562.2593,-1224.5135,-7.5012965,29500.283203125
278,-7125.0474,11210.693,-23856.68,1179.1578,6723.2593,-6385.767,34424.4921875
279,20209.035,5795.812,11463.0625,10301.926,-2730.4856,1653.6926,22519.662109375
280,16766.793,3563.5027,-2586.7043,100.732346,11713.538,-6272.7666,28688.83203125
281,5499.698,5174.287,-3747.4146,-5668.0425,6657.6895,-2920.3723,18372.431640625
282,-6325.93,16588.559,-5800.204,967.8528,-5582.1,7601.9116,27981.427734375
283,9312.625,27386.836,7953.3335,-2978.7932,5483.8477,3740.0571,22625.08203125
284,20564.074,-7389.239,-10214.92,-4967.5337,-1354.8209,2688.0864,31137.958984375
285,12676.173,17989.94,-4086.2239,248.81938,1734.7703,-1474.8093,20347.59765625
286,7428.7036,25623.564,14836.124,4956.0063,-3577.4834,-11808.562,27956.275390625
287,18146.447,2984.2034,-15677.012,3015.4753,8706.942,-4320.13,34231.3125
288,3961.7708,5351.6577,-13879.28,6302.251,-8601.996,-11353.019,32754.28515625
289,22866.01,15727.688,-2466.8909,-15950.063,-3635.917,-5360.3877,37429.2890625
290,31333.176,4015.565,7520.865,-4546.713,-16437.65,-2146.3323,39360.0
291,11692.269,9642.565,14688.766,-5022.1025,-9345.922,2024.2777,19217.6640625
292,17425.502,5087.483,-21883.9,-4780.3623,5011.057,-549.34265,36840.85546875
293,16103.965,4064.747,11429.391,-1554.5834,3053.5212,-3012.4414,13151.53125
294,-93.757996,-3642.7764,-5584.0195,-4541.522,2480.3066,-658.2525,10241.3564453125
295,15608.398,-4047.9365,6286.445,8712.147,7359.2734,2716.4211,26501.94140625
296,16788.238,18189.11,14163.797,6634.4316,7005.8784,6883.775,20832.181640625
297,-381.15894,12503.696,9350.46,3721.86,-6650.616,14461.377,30610.072265625
298,7817.263,15751.693,27506.934,1288.7709,-6479.5425,14589.566,32617.703125
299,12372.732,17736.729,10693.746,8929.062,2812.9326,17485.12,34938.62890625
300,11393.638,940.33044,25440.822,29.183474,5490.829,8949.23,28002.6953125
301,5981.149,13405.65,-6337.787,579.4918,-2552.978,11057.007,26185.37890625
302,7758.5815,20864.936,-5571.131,5375.261,-4610.152,-333.396,25979.52734375
303,6805.1245,18904.12,14068.365,2979.71,5986.883,-8248.521,21202.3828125
304,-10416.055,11675.585,-311.88553,6079.701,-2421.7024,-4528.468,23599.16015625
305,2227.1313,17027.32,-4725.7163,10276.647,-6730.9985,18.344067,28688.666015625
306,-6835.798,-2098.012,-3795.9868,-9200.717,3827.8496,655.74133,17790.220703125
307,15829.225,21659.953,8848.325,-5156.0103,-9452.456,15694.637,34787.9140625
308,-19373.863,-24493.6,-17215.156,-3103.0027,-5938.685,-4185.974,15138.71484375
309,-1791.5588,-15725.259,4724.0234,4489.7617,-341.9748,-826.5656,19755.033203125
310,12936.829,797.4789,182.51314,-315.683,-4458.5527,6941.645,18965.80078125
311,3906.4763,-4525.676,-11740.41,3093.8901,4355.2837,-7639.0527,21087.357421875
312,9051.2295,-1433.8887,-8583.042,-4290.776,12656.498,5356.7134,29289.658203125
313,-6271.924,8203.972,-4299.15,-5865.576,-15179.468,1315.2206,31377.361328125
314,2805.5474,5347.887,-2.8511407,-1973.8129,4859.2134,-917.76556,10321.8720703125
315,18777.771,6112.809,-10550.285,3733.3389,673.5501,-1494.7827,26438.13671875
316,12959.397,3715.6296,-12643.876,5536.295,-7923.665,-4752.865,29195.521484375
317,4481.671,-11124.306,-28450.715,-1737.4828,-579.18536,-376.7805,28716.462890625
318,18703.352,471.25848,-9851.067,3383.4685,-9842.694,-3848.989,31568.66796875
319,3198.1716,11486.404,-12349.957,3760.4397,-15553.96,184.90388,34750.65234375
320,28400.332,6387.8936,11527.493,8760.65,-4921.1895,-2169.2166,26736.595703125
321,10203.238,14999.518,9374.398,19486.7,-2784.1091,7950.512,37144.94140625
322,4167.0986,6394.164,-15233.9,6033.804,117.58732,2330.6995,23454.7265625
323,6550.81,4783.5356,6280.7573,-423.5844,-109.52469,485.75043,2000.26208496094
324,7535.449,16175.05,4021.6404,-5923.994,-9845.025,8681.198,27193.59765625
325,599.50165,1810.9589,-16789.545,-10608.617,11127.95,3069.815,32593.037109375
326,12822.311,3788.0627,-17930.121,2123.586,-8906.45,5080.7373,32839.7578125
327,25669.018,6648.4375,5246.7905,-3473.0725,12984.365,-3207.6313,31036.138671875
328,35432.363,5183.7383,-1451.4575,4357.8535,-1567.8173,5658.941,36333.5703125
329,17862.654,-11789.449,-5744.3364,-2034.9585,12499.134,-6738.7383,36795.11328125
330,21158.104,22730.732,-5273.3184,1489.6339,5248.105,-9665.501,33349.8203125
331,9328.673,2876.451,-5147.925,-6643.891,1717.2953,-1116.6223,17401.39453125
332,8836.144,111.409035,9690.239,-3433.906,16494.576,-6731.077,32738.548828125
333,-11955.83,-13820.702,3102.4878,4458.9585,-2373.9497,-1168.1277,18410.865234375
334,14407.67,-19473.51,-1610.7102,485.61243,6929.1177,-1997.0896,31914.130859375
335,-17770.04,-1418.3502,2232.6787,1749.545,-1494.9314,-233.51051,18880.12109375
336,-15130.925,4114.608,-1005.4609,5251.3467,11523.799,-10790.227,33592.82421875
337,13252.424,15499.586,-6243.0923,3572.9177,1168.5632,-1299.2921,21826.423828125
338,11144.11,3339.3418,32139.408,1205.0212,-726.82855,22.790468,25913.76171875
339,16999.955,26866.28,11877.777,-9379.739,6023.544,8687.831,27809.01171875
340,10814.794,26712.775,-1115.8009,-1433.9941,-2873.861,17685.578,39421.34765625
341,8555.932,-6899.7817,22827.59,-961.0056,5471.931,11064.319,33511.07421875
342,2307.3755,10183.45,-19517.121,9413.477,-689.0211,7615.939,33933.83203125
343,14330.676,299.04013,27618.352,2792.8286,-2065.4478,9581.069,29520.93359375
344,-447.2002,-2330.2427,-9424.184,3884.0986,2949.2822,3875.4126,13551.30859375
345,20554.586,2157.942,5847.055,3854.453,3003.258,-1572.815,19058.5703125
346,-1559.1193,1099.0038,-5939.218,192.41908,-1229.3429,-2600.5996,7926.41162109375
347,313.67517,8839.584,-24943.383,378.18204,-2582.1172,2130.2966,30983.787109375
348,2559.0723,-1915.5283,924.1281,-10756.73,7888.4365,6336.358,25877.244140625
349,19327.918,2648.0483,-8296.213,-2482.481,2047.6627,-2416.458,25082.43359375
350,-2647.7664,-767.38635,-1456.2458,11132.493,1507.754,3816.605,20616.294921875
351,16914.426,25530.371,-1781.2213,-3538.5642,-3917.8728,9330.649,30489.98046875
352,9820.799,-10438.565,15066.218,958.3747,7242.5283,3714.3252,27308.091796875
353,-7215.622,-3617.7363,-22776.197,-6666.7646,3022.84,-2554.571,22167.29296875
354,2973.976,18890.412,14868.252,5322.677,-4565.5073,-4321.161,20224.583984375
355,-2521.11,16897.893,7616.7573,19192.053,-291.14072,-3588.75,37774.37109375
356,13317.959,-10266.825,3073.9727,12719.981,2964.3958,-1811.0391,30678.58203125
357,3448.0974,8156.1255,2355.694,6358.505,8996.302,-652.8256,19846.22265625
358,17601.45,-11167.982,9401.644,-106.56746,221.99245,-1947.6844,25895.47265625
359,7845.5454,1870.0558,4601.3506,3535.347,-5639.9355,6059.4136,16429.173828125
360,-139.63129,6905.8086,6383.021,2879.018,-1227.9492,2566.2847,9766.0390625
361,157.5178,-1296.6989,-3760.1294,2198.4155,231.38824,-366.71875,5179.6484375
362,-6431.748,-8165.82,-6251.8335,-3415.9204,1044.4558,-694.2857,6563.205078125
363,-1641.0272,-2756.889,-3166.0732,364.26233,1588.6395,1819.3203,4446.16015625
364,-2362.3464,7756.3477,2488.1116,-7240.533,-2727.1863,-433.80658,16030.837890625
365,6022.8086,15317.184,-2344.594,-2426.4255,2214.1528,236.21756,16331.1376953125
366,-8645.06,-608.9164,-4045.8782,1094.274,3516.002,4686.9663,12464.126953125
367,-20817.557,-22678.027,-9177.225,2452.9822,369.0362,-12933.641,26094.294921875
368,14875.976,3728.1604,4022.6387,5746.8213,4390.5293,1527.6711,16881.5625
369,14251.804,8424.667,7076.7383,4702.8213,2236.2786,1374.764,11430.1943359375
370,-2203.136,-15761.372,25.098406,5905.746,-1707.5707,946.2517,18304.884765625
371,-2971.2778,-23973.113,-14866.869,-396.26373,8112.539,1604.2631,23203.123046875
372,-2722.0098,-1556.9368,-2308.2864,3884.4226,1478.1815,-977.6529,7465.60400390625
373,-1126.9496,1358.1555,-1611.077,1558.5587,-948.6568,-2412.8735,5921.6787109375
374,-506.72684,-948.32166,134.97723,910.8949,-573.8298,-1769.0012,3708.8125
375,84.98944,-805.56665,1316.9264,-1046.9288,249.46367,483.87643,2754.11572265625
376,-7498.9043,3428.21,441.7708,-4550.573,71.961464,-1997.6958,13030.6767578125
377,-11386.439,2658.5708,-9235.889,4895.2544,-3584.4172,-3492.401,17852.392578125
378,3056.6255,786.1114,3785.2224,3126.9885,-2021.8744,-3374.1428,9115.5361328125
379,490.9736,1333.4396,-1892.1835,1548.2338,-357.4686,1065.4586,4401.92626953125
380,12583.443,12638.255,6254.7573,-627.53613,878.26276,-4405.4897,10105.5732421875
381,6418.762,-3371.3066,-157.99153,2222.921,-3568.0942,-1247.7913,11506.5732421875
382,5455.857,-1188.648,-5235.5156,-154.23212,-3948.9155,-7413.733,17296.228515625
383,9862.349,-1679.2635,5983.73,2591.9602,-339.18228,2036.6365,11680.349609375
384,3107.5002,-17081.32,-4330.2695,-311.30762,3504.8682,-3671.5159,19756.826171875
385,-7083.3228,-4684.8228,-3604.9644,2836.5493,-586.28064,4332.9067,9539.412109375
386,676.7672,-601.8602,2372.2014,256.6207,-495.22812,-1045.564,3300.021484375
387,-3488.1284,1842.6135,293.40698,4581.1777,6799.299,2109.6877,15413.103515625
388,9488.403,10784.415,12134.966,1404.4686,-2329.3044,1448.5895,5808.9384765625
389,-7925.5713,11852.607,3151.9116,-7587.033,-4946.2627,-7691.0938,26801.84765625
390,-7261.1694,-10034.425,-9627.806,-8774.902,5344.7734,775.07745,18034.0625
391,27082.512,18282.64,27668.725,435.56903,-2573.7175,10197.152,20379.572265625
392,954.76514,839.19653,-210.67366,-1615.6255,-514.6038,-759.0427,3404.48828125
393,-935.84186,-27698.516,-2921.2937,1823.404,-4507.797,-495.3934,27179.3671875
394,22833.215,1462.58,-7.2661414,-1338.3424,-3274.8767,-6090.146,25280.30078125
395,11599.254,3640.7778,-3981.5466,-718.4467,-3755.1978,-3483.7666,16197.59765625
396,-4638.9106,14739.083,-2638.5967,3135.267,120.87184,-1404.0444,19395.705078125
397,-9964.923,3427.3752,-3989.6216,3727.2632,-4402.1694,-5038.965,17635.84765625
398,-5296.5933,-8857.82,-1089.13,3795.757,1871.5125,1229.2246,10180.01953125
399,2510.188,-4342.871,620.1529,-4141.4194,-5931.1357,-4148.8887,15691.181640625
400,11565.049,8923.572,7461.396,-2925.442,3976.9385,1129.1882,9482.9111328125
401,9398.135,2830.0115,121.090416,598.9993,-634.90826,-598.60126,8463.552734375
402,-7090.0024,5845.7485,-6684.47,-2489.0776,527.0472,3974.4775,15134.7783203125
403,-3429.8792,7126.737,346.43393,-892.0206,-277.75668,283.34253,9417.908203125
404,1393.4602,17046.914,10771.38,-1325.2745,-864.7648,-1750.5748,14243.7783203125
405,9989.754,8293.265,10716.472,-7516.05,6858.5835,4807.8613,19610.689453125
406,5706.274,-1499.3114,-281.86075,2426.7322,361.06192,-265.11548,7930.904296875
407,-7147.0483,-12743.397,-20196.12,-2066.555,1777.2921,-7360.5146,17702.82421875
408,18406.79,-1671.625,10938.151,-14177.888,-689.3937,2824.873,30616.462890625
409,13979.857,-5633.3003,-7611.337,-2238.3662,-3409.2932,-5954.4556,24158.87890625
410,-7214.6484,-759.42145,-22808.318,-4245.0454,3334.6038,-1255.6589,21855.048828125
411,1943.0928,-4947.2764,4043.2227,-4697.2173,-2264.7642,-333.9208,12176.6962890625
412,11034.503,-642.9022,7186.7812,5498.272,-4170.506,-4886.801,17909.5
413,-1974.9982,457.78394,3468.0315,-5085.743,-4383.357,5130.606,15378.8310546875
414,10820.997,-6189.7183,-3122.952,-1297.0963,-8530.699,-2360.2046,22060.806640625
415,-11752.818,-8531.771,-2053.3198,-3141.9453,-1252.9274,-5746.123,14373.294921875
416,1276.5326,12180.7,5875.518,-7678.819,-3763.6404,-4070.729,18947.392578125
417,-9061.581,4476.668,-9149.154,8081.1865,-4026.2146,-6942.6836,23950.53125
418,14473.171,2902.8933,3877.4563,5553.0254,-2746.8403,-559.11597,15479.87890625
419,443.1214,-9844.637,-6934.8633,6542.9927,1780.3722,-1598.2705,15164.9111328125
420,-8595.736,-2305.8352,-796.4696,-2526.064,-205.75288,2912.149,9800.3388671875
421,-1966.9973,-9670.456,-17846.936,1103.5311,-979.1396,3218.6648,15059.6865234375
422,-2630.157,-2670.6226,970.49976,-2257.9482,-48.068176,1517.1674,5943.01123046875
423,-2377.6865,-3140.0544,1787.8904,-5507.533,-151.99588,2696.0151,11575.0810546875
424,4240.0513,16641.88,7108.4077,-5690.2964,-1515.6735,-1136.441,15308.9736328125
425,12187.405,441.44922,17718.127,8118.9326,3300.433,957.7767,21603.28125
426,-4449.0986,3282.6538,-3991.0024,-2699.6077,-761.5526,1281.735,9218.4609375
427,752.2708,4029.8394,-198.91832,4712.1157,-1591.2504,-1511.5477,9789.150390625
428,-1399.2826,5518.126,452.90988,3180.4504,933.61255,2626.0977,9597.845703125
429,-8818.032,-3871.3271,-7513.0015,-5610.434,2037.9755,2992.2703,12388.275390625
430,-1842.0597,-2731.981,4663.7812,2068.3655,-4182.772,1139.8243,10868.595703125
431,1199.0184,9175.397,3903.0977,-3084.3894,2622.212,-686.26245,9997.3564453125
432,-7260.9067,-3608.6885,-6005.37,462.19742,3390.7686,3056.4006,8572.4638671875
433,789.4577,3265.2742,9998.016,-3329.4058,-3224.6719,-1788.8464,11923.875
434,25997.303,-3391.0693,1213.3872,2955.619,-2555.215,1700.3435,28355.38671875
435,-9589.903,-3498.292,-14395.561,4001.77,5628.422,1067.3444,15361.439453125
436,1817.346,-403.4575,2272.175,-2122.8806,2636.9614,7620.386,14654.0224609375
437,2759.1292,-4229.682,-2057.027,-184.13257,4007.2524,1740.632,9784.935546875
438,-7578.716,12363.244,-6016.9707,-8711.37,1397.6847,3720.4666,25377.6796875
439,-1001.5316,-20017.035,-14406.8545,-2396.8796,2194.6394,3626.6704,18908.3515625
440,13478.365,11353.773,13014.918,3730.797,6986.2437,10425.405,22759.40625
441,6450.1084,837.9526,-791.1845,-1793.4319,-126.89304,-1155.7921,7549.7294921875
442,-3063.9717,341.21658,-4351.274,2022.9047,279.91364,-14.829403,5490.72900390625
443,-3925.849,-5655.8745,-1648.7979,5294.2188,-1098.3817,-2241.183,10718.75
444,706.82367,-2225.472,1302.6517,-3520.6487,-993.12286,-2092.5579,7998.79296875
445,-4309.228,-5509.9575,507.50055,-1405.1882,3449.795,711.899,8577.5009765625
446,11635.438,11061.3545,10977.404,-6882.451,-7222.0454,-1453.5181,17472.87109375
447,-2720.147,-4717.25,-216.96353,-3580.5732,170.04803,1988.7917,8103.55517578125
448,-2078.113,-3764.1277,-6667.7476,-6100.8965,-1533.3287,-738.658,11684.2685546875
449,-4607.7676,-496.74857,6119.376,-944.144,-57.22025,744.3024,9603.0517578125
450,-187.8536,-1583.7347,4572.6816,1888.333,-2652.2024,-4917.4653,11644.76953125
451,-1236.1798,-4453.7646,-8298.771,6558.0293,2781.7725,2955.5012,14695.291015625
452,-3176.177,-1214.1971,-1093.3063,8206.166,1358.1141,-128.3253,14550.169921875
453,-1146.544,88.99092,-4795.757,-3639.9165,-1083.2144,686.84546,8002.14599609375
454,-9867.803,1568.537,-7195.945,422.88513,3906.657,4376.9077,14531.5791015625
455,-4157.3286,918.7178,3528.8098,2832.2705,1263.8435,-1152.5209,8869.603515625
456,223.46083,4174.5356,4989.3613,3189.2478,-270.10898,-1662.6616,7649.8681640625
457,-5627.792,-2404.3354,-3157.1487,-1893.394,-1303.644,-2174.658,6210.5908203125
458,-1089.5377,6026.6133,3962.917,-3557.7083,-40.45276,1296.6378,9123.2373046875
459,799.6102,-2879.49,-4735.558,-3538.6172,2626.358,2577.1316,10099.15625
460,1093.0905,-11397.43,1398.91,7987.36,-6856.917,-2171.6753,22506.013671875
461,7925.316,5925.783,5667.7197,54.06806,-1160.8414,-710.9367,3185.6640625
462,4172.5244,-902.463,3570.1072,-131.44807,-2814.7278,-1061.793,7089.65966796875
463,3445.7717,-5488.896,-1892.3716,-6259.2915,1824.3162,6575.497,17828.671875
464,8490.735,8107.918,18685.188,-327.2305,2862.0493,-3245.0918,12824.3173828125
465,5173.968,-1392.2944,563.856,-2596.2542,-2413.4648,-1825.68,9043.953125
466,-13287.905,3943.8418,-9771.59,-1611.8005,-1151.8711,708.7299,16185.9931640625
467,-3606.5947,1096.9113,-3273.5957,869.46893,2416.021,-1558.6989,6909.09716796875
468,1337.9629,5461.806,9591.07,-1316.8488,1188.1694,1682.5076,8307.5478515625
469,-4145.034,-499.6389,-3270.5635,-360.1496,-198.61447,-1410.7643,4164.61865234375
470,-6638.503,-6714.12,-5331.8306,2372.3987,718.33405,-867.36316,4743.59716796875
471,3428.5598,-5210.767,3686.6477,-3950.624,-1126.7183,609.51636,11343.7021484375
472,-4050.1045,-4345.641,-5379.241,4060.2576,1055.5973,-2178.2021,8276.15625
473,1612.8943,4882.695,6288.788,342.07755,-1338.5087,75.24198,4796.78955078125
474,1968.7036,11541.472,9348.988,6103.3438,1975.9019,348.5062,14116.8720703125
475,348.07645,2567.0857,-533.5986,-3262.2666,-969.9514,781.30255,6651.21533203125
476,-4409.742,-9641.174,-3751.822,-2637.1792,-1147.5167,-2177.7285,8383.5927734375
477,5982.891,2566.4011,15899.637,-4519.575,-1091.1108,-9468.199,21856.037109375
478,797.69196,4986.895,12382.415,1757.5024,1706.3762,5257.15,14287.720703125
479,-20368.053,-5038.683,-8387.272,-3191.8657,4405.869,2320.281,17315.341796875
480,-418.12762,2036.8365,-2012.8658,342.6877,-1582.2439,-2305.7273,6024.6982421875
481,5366.725,5077.549,2867.1428,27.69263,2818.3198,1334.6611,5897.77587890625
482,5449.907,-3113.4292,1232.3489,-2092.2766,2565.5583,2467.317,10302.6328125
483,3569.7896,-4893.1655,-2989.2864,-1054.1195,614.903,-66.21751,7975.89501953125
484,131.74432,-1543.1936,-3253.652,3845.1892,190.16895,2601.5964,8565.3857421875
485,-443.22385,-3824.3076,402.25775,3458.9924,-1327.5946,394.32928,7526.82568359375
486,5725.304,-10395.669,8533.757,8154.936,1731.5343,3867.528,23799.685546875
487,-5087.952,-5287.772,-2628.7456,3029.0342,168.40114,-2354.4028,7128.736328125
488,1773.7623,-217.67686,-629.37103,-2386.942,-2264.9941,-2491.6033,7487.490234375
489,1906.4097,335.79,-3043.4717,-5944.1997,-337.59396,163.77174,11207.8857421875
490,-9094.772,-5471.6826,-9283.56,-4337.584,2565.3945,4810.685,12627.83203125
491,-3187.5254,-1914.5399,4823.001,-190.73854,-1097.537,-941.73914,7872.43701171875
492,-5935.6924,-188.69186,5210.512,-104.31909,1048.3735,353.09088,9844.41796875
493,-2648.868,-3590.8525,440.50037,5914.2446,2648.6824,2181.7122,12393.6552734375
494,454.11337,-3682.9597,2445.5876,1180.7474,-2116.9072,-2030.6521,7701.7685546875
495,424.8469,-4044.588,3939.6316,223.07161,811.26105,-303.26782,7101.9921875
496,2366.7898,-1570.1162,1206.9951,-1012.91113,-232.62732,-917.1735,4247.62109375
497,-5866.8667,-2116.7625,785.52875,-1253.3926,1697.4666,3310.134,8921.8046875
498,-2474.7122,3723.4038,359.10828,-653.53906,-1088.0901,1107.5098,6115.20458984375
499,3825.8157,-437.80917,2933.6853,-276.96387,41.112667,1704.1555,4911.04052734375
500,-8387.713,-11168.407,-14329.363,-7240.9287,779.40625,-11217.4,23730.13671875
501,3858.014,-149.82642,3570.5176,-406.47345,-669.9763,309.14322,4137.89501953125
502,-9100.557,-7785.51,-10393.179,5876.432,-1035.2805,580.8249,10626.6142578125
503,-7765.3545,513.0897,-3924.069,74.315,283.2742,869.1597,7349.2763671875
504,3056.9443,4470.798,4037.1472,1034.6776,-2214.1318,-1638.621,5248.61572265625
505,-7564.461,-1594.2002,-4294.9062,868.04236,-1231.1791,-1045.7975,6074.7744140625
506,-3956.1755,-2878.0398,-698.4551,-3643.1838,-1096.3156,-432.42203,7228.271484375
507,638.9956,-3011.4192,438.23248,-2489.6704,-155.11893,662.0098,5710.98046875
508,-4486.142,-8389.347,7174.682,-8991.946,37.02055,1558.406,21132.43359375
509,-474.18036,-2308.9565,-1359.4868,1573.5966,731.0635,372.54077,3460.37158203125
510,-2668.0906,-6797.845,-3850.577,406.7569,-1078.9985,-1597.6713,5021.6025390625
511,1209.6168,-1717.0116,-104.91565,-923.0965,-2188.8516,-2521.8325,6515.70849609375
512,-2308.6938,2505.124,541.5338,5287.616,4724.6553,4769.138,15383.5615234375
513,-313.31125,3557.064,1820.4033,-114.24658,3257.1643,1477.7485,7049.25537109375
514,-7444.495,-4882.691,-4966.6523,2751.8936,-672.5813,-692.3516,5645.23681640625
515,746.5733,5597.9346,3529.872,54.398796,-1751.3768,-609.06647,5301.263671875
516,3992.2415,2172.7556,4146.8394,-3448.7905,-635.6525,549.6707,6435.58544921875
517,-3021.9358,-6819.512,-1985.504,-1458.6714,-393.7049,655.1036,5250.46337890625
518,-9000.642,-4118.1265,6882.9766,-5864.159,-2156.713,-2263.5933,18195.251953125
519,-1799.3441,2299.905,1003.0109,1559.6869,-397.96664,-3150.1636,7121.3115234375
520,-5213.133,-4511.8696,-8057.775,-2662.7947,2877.6409,4798.0195,11214.07421875
521,-1182.497,1232.9703,3374.6008,-3126.124,3566.6423,4484.2656,11975.005859375
522,303.0541,2902.2097,7295.127,-2971.9922,-227.29877,-1173.1908,8261.5703125
523,-3595.5894,-4471.268,-3444.4448,-2192.199,2255.9666,1778.5736,6332.24658203125
524,-8062.399,-4240.792,-4972.77,-1187.0702,-446.3669,-3022.582,6676.54736328125
525,533.0453,3155.6335,4138.481,-639.2387,-2802.0356,-2005.0157,6874.73046875
526,-7441.748,-4846.1455,-6088.412,-2072.7996,2018.3777,2074.5945,6563.4453125
527,-7224.143,-7355.7974,-3897.6255,-769.6524,-1655.123,-1941.5085,5729.28955078125
528,4232.4126,489.18243,3787.0156,3128.1516,584.9189,-269.17786,6568.3095703125
529,-1426.5469,-8253.543,-3607.9905,3616.0159,-316.3361,-2227.4077,9533.353515625
530,-6425.646,2640.911,-5047.265,1375.1998,-2412.192,-5930.5176,14150.896484375
531,-3776.7244,-453.6428,-1648.9939,3629.594,3082.3623,922.7039,8892.6015625
532,-877.3204,-634.4832,1302.7434,3316.3184,-471.57422,-1071.5679,6433.35595703125
533,-152.79176,-6344.539,160.64308,380.75528,937.91675,-674.74194,6694.5126953125
534,-2247.2278,-7006.21,-3971.6445,-304.87845,63.53348,1440.4305,4891.884765625
535,-1891.4218,-3362.1516,-2355.2244,665.4983,-2616.4907,-3789.4849,8163.5380859375
536,231.77776,-1981.4822,2526.309,-1120.5798,3563.451,205.3332,7565.0458984375
537,-5631.1323,2519.7617,-3152.557,245.79506,3135.023,944.0282,9204.22265625
538,-3085.2534,-423.80432,-347.61646,987.6615,779.5299,-329.15308,3516.58032226563
539,356.80283,569.2591,1664.4349,-251.06277,-3969.1602,-2186.676,7954.47509765625
540,1510.2283,643.34845,5298.158,6.765021,1148.6963,406.57852,4778.9267578125
541,774.0958,5878.8604,2865.7988,-1145.7526,993.5521,2404.4417,6633.24169921875
542,-1759.9402,-464.4464,7416.126,2759.9,-3384.6094,-6685.64,16288.099609375
543,-11428.51,-2294.3557,-1258.2288,4539.1206,1727.6654,2939.3865,13807.81640625
544,7269.946,-1304.2521,1538.7792,909.2027,3338.0383,2966.2363,10932.7998046875
545,-3408.8442,255.99397,146.97198,-2014.3207,-2510.4294,-1247.4658,6985.064453125
546,2108.839,-4032.5203,-3870.0352,-68.757126,1331.4778,1942.7972,7307.5908203125
547,-1947.6876,-8851.815,-5122.2295,-2007.4504,1645.1724,-804.80304,7614.44189453125
548,-1035.421,-4247.7607,-3914.9048,-2425.7505,-2195.9382,-643.17755,6536.12548828125
549,-4842.8267,-1725.9011,-727.25696,3851.2244,3286.493,4224.973,12011.46484375
550,592.1204,-785.5728,-825.5887,272.61557,829.61414,665.0517,2359.955078125
551,2734.1155,-115.32421,1960.125,319.8936,21.89651,-499.73117,2751.46459960938
552,-3823.6458,695.98785,1098.8607,-692.80176,-1694.4241,-2147.1392,6803.96875
553,-379.90393,68.35972,-102.60358,-2009.5598,-501.18253,526.1665,3721.912109375
554,-4828.1416,-4702.1655,480.08725,-2749.1453,-1565.7891,-3746.8162,9983.427734375
555,3944.4907,4118.69,3588.9185,-1369.114,-1306.3137,-3138.7031,6365.2080078125
556,-1301.9474,1825.6641,4802.2183,-569.58,552.7132,-466.91492,5522.23681640625
557,2256.584,3297.3926,4449.063,-2126.7046,448.51224,1057.7739,4597.505859375
558,420.84592,1608.5426,-937.9591,1245.3646,620.93964,435.54333,3354.0146484375
559,1862.818,3288.6426,2532.551,1783.7765,-1871.5771,-5036.9077,9883.9208984375
560,-4869.62,-9349.392,-2988.0251,-37.557182,353.34048,-2492.3845,7145.109375
561,-279.04678,-5190.371,2377.1475,-0.07047171,2612.4375,2875.2935,9460.35546875
562,2003.186,-2811.872,1169.9448,-2357.0813,1930.8369,2072.2485,7784.6962890625
563,1289.3252,-2889.3184,617.0255,-649.0017,717.02747,2158.77,5647.1767578125
564,1959.9108,1046.4485,2210.7244,1962.7255,-1927.8517,61.984077,4883.10009765625
565,1485.6311,4445.603,1987.8228,1649.0531,-749.81915,-475.18912,4248.45703125
566,1104.8643,-2589.0012,-305.6692,206.02203,-815.0032,-2768.3718,5961.17431640625
567,4749.1685,398.05325,2204.6055,820.23285,1316.2827,837.3359,4863.6259765625
568,-1628.1644,-2510.4106,-3756.7192,-928.6334,-102.57686,-1625.3557,3738.33984375
569,-1109.3414,439.73108,-4277.9746,3067.3755,-1502.5082,-1040.2517,7456.11474609375
570,569.06354,3454.5554,4591.5654,-913.4305,-1584.6835,-888.4471,5030.35107421875
571,-3313.1196,1370.113,-3360.6028,-146.83125,-2619.577,-586.1565,6621.12255859375
572,-2509.5508,-690.36957,-3200.8699,-2092.391,2223.742,1285.5054,6162.13720703125
573,4158.2573,7286.5996,-149.46887,4846.807,-4002.0286,-5932.412,16307.142578125
574,5510.4995,3272.621,-1135.7941,1954.8585,-3104.173,-2781.0154,9893.53125
575,-2839.0413,-6101.1255,-3077.443,2440.9785,-683.0639,1021.4214,5685.51708984375
576,17504.227,-8867.854,7764.3945,-3922.705,-3124.169,673.16833,24704.146484375
577,-4876.942,-6261.409,-6387.586,-2317.2454,379.35214,3607.1006,7594.83251953125
578,18364.674,-7024.4326,8772.042,7598.734,3035.7834,9031.73,30637.619140625
579,6899.22,2961.7937,-12149.8,-399.28784,-2539.3152,3773.5215,19128.654296875
