Element Label,S11,S22,S33,S12,S13,S23,Mises
1,9912.719,9981.054,5934.6255,-1891.9507,-2653.2954,-4303.9487,10175.068359375
2,2512.1282,2377.7102,1291.9429,-2273.837,2302.1309,-2513.748,7190.974609375
3,11848.861,3206.5447,-2450.0894,-2315.134,-3999.314,4261.773,16556.712890625
4,3184.2495,1232.4708,8656.851,3052.1582,2573.7163,3248.9478,11132.212890625
5,17197.812,9265.671,4634.954,850.36005,-61.78215,2383.2097,11845.4111328125
6,-3816.858,342.99783,-3663.769,-514.88727,-2212.4272,-428.27112,5720.23486328125
7,9928.332,9497.935,-2947.058,-2785.189,3877.656,1729.5128,15419.90625
8,8452.736,13660.547,2475.1455,2616.4424,-4798.1587,-872.9531,13633.5419921875
9,5169.4043,12101.963,-6386.589,-4100.463,4157.6177,168.11699,19081.337890625
10,18079.14,-2591.2603,-9450.893,1775.0765,-4791.156,-7737.0137,29563.724609375
11,10430.866,19304.068,12517.722,219.68163,820.85565,-807.628,8288.21875
12,-2951.4822,14508.108,-9309.293,3954.7632,-3415.5583,-773.15607,23237.376953125
13,25475.42,12511.893,11710.412,-2334.603,5765.0366,1089.0553,17282.986328125
14,-17717.4,17564.326,-9626.471,3287.9915,-4895.194,5598.539,34973.61328125
15,39277.516,31236.355,21385.926,-13532.276,-1115.6948,-2813.275,28596.25
16,20700.393,8571.301,31777.617,1699.9116,-7965.9956,11518.721,31642.685546875
17,15726.816,9287.224,12522.494,647.9448,-3751.5508,15765.229,28639.322265625
18,-2539.6743,-1065.9266,-908.0878,482.14746,263.57172,-469.85254,1999.38818359375
19,22515.182,12352.075,22959.97,295.71402,2833.1482,-17586.23,32560.34375
20,-824.9614,-4279.95,-1891.9478,216.34178,-16274.731,-3640.8113,29049.8984375
21,-687.50024,70.45238,309.6499,428.76593,-461.61343,479.78937,1641.45751953125
22,-1158.9192,3238.3723,2578.5374,-1076.3136,-13005.215,-11671.568,30601.123046875
23,-27238.498,-22519.062,-11950.645,-3236.3213,-11713.73,-2348.603,25366.21875
24,9394.712,4504.7124,-2699.996,-3934.1045,-13238.122,5802.646,28004.25390625
25,26356.424,10033.346,14563.206,-4658.864,-16397.717,728.233,32960.3203125
26,24611.264,28152.281,34674.406,4581.212,-13752.894,-893.8801,26663.791015625
27,5976.5264,-1277.5162,-2214.6982,-44.096344,-19874.365,-838.52435,35318.328125
28,24738.342,26170.064,37316.97,2105.7998,-9875.257,8136.307,25430.814453125
29,-4920.7285,-6031.047,-12578.826,-6722.461,-16073.281,-8175.5054,34095.7265625
30,24527.959,28012.637,42456.625,5345.2676,-8274.732,5665.128,25661.541015625
31,12467.371,18002.965,31023.953,-6083.222,-7464.5625,-10074.837,29239.5390625
32,34076.336,35913.43,45518.27,3037.1672,-7578.413,10031.681,24802.154296875
33,17214.244,23937.256,27774.396,713.90564,-14449.985,794.9077,26749.775390625
34,9102.979,9086.814,-2581.7905,1503.9674,1082.5442,5059.5894,14948.0771484375
35,9938.67,14584.092,21097.484,-318.86447,-15149.577,-2526.1367,28323.837890625
36,3654.5005,10204.894,17721.879,-4925.42,-15934.907,-535.32983,31369.646484375
37,2569.3276,11349.881,13085.706,-2725.1338,-11830.457,-4953.873,24721.115234375
38,-6449.1943,-12240.738,-34953.742,-6413.8013,-6019.4956,6204.5605,32071.314453125
39,6973.071,18309.24,15605.08,-47.362682,-14686.147,-1395.3516,27532.943359375
40,34845.23,32177.361,39110.113,3157.5867,-10536.89,10629.142,27177.380859375
41,2481.5544,4072.7566,3246.174,587.1269,-490.16852,-202.23677,1943.59252929688
42,-10396.61,-10037.115,-8838.824,50.584732,494.69855,-12.327783,1654.75988769531
43,10807.622,5766.665,13324.395,2285.0698,649.5186,-9160.576,17694.943359375
44,681.802,157.7263,1304.4791,-103.020325,-153.86823,-937.27765,1930.55590820313
45,10274.947,11902.284,33147.844,1838.2388,348.66187,-10794.073,29131.3203125
46,30001.383,33012.715,46572.477,4199.2935,3511.867,-14111.172,30348.732421875
47,8887.737,9033.526,8643.809,409.73914,-1306.926,-5972.7207,10619.0537109375
48,8249.626,11134.043,25995.357,-518.5926,-2586.711,-16810.617,33774.4765625
49,8377.955,6204.4473,21962.35,11.889865,3037.4888,-16251.587,32230.53515625
50,40032.027,36094.812,52903.594,2601.6733,-236.10953,-13012.46,27573.5859375
51,35219.523,28366.078,42590.992,1665.107,2658.2747,-14308.44,28205.3125
52,19666.701,9882.292,-372.82675,-54.15306,1298.1562,-18184.191,36031.94921875
53,28248.63,18858.6,35179.16,-1122.1399,-3751.083,-12922.271,27353.75
54,26270.121,15735.481,33395.926,1850.4755,-2062.2964,-10513.649,24320.07421875
55,20929.281,10162.386,25798.354,2066.686,2934.132,-11181.34,24612.330078125
56,-75.891624,-1842.681,4441.1987,2908.82,4875.8574,-8826.958,19025.18359375
57,-1610.6617,2615.6565,1164.9187,-1948.4652,-4061.7578,-7037.011,14942.453125
58,-1858.2784,-1666.0183,10094.832,-3830.816,4876.0586,5692.538,18793.189453125
59,26103.88,29307.72,42826.293,181.51726,11885.424,-1267.1367,25788.240234375
60,12626.809,20933.78,26329.83,764.34485,14555.465,-904.7141,27977.505859375
61,-381.73572,4453.945,-15272.84,7247.6084,15380.489,-519.66113,34426.87109375
62,-13419.506,-20035.895,-19877.791,13024.653,7627.3223,-6773.821,29391.537109375
63,8230.741,24108.451,32196.055,-2969.4177,10137.612,5435.644,29484.37109375
64,35155.605,41958.67,62408.152,-938.2859,8325.792,-2475.3904,28854.158203125
65,1307.912,11424.474,20740.627,-72.93207,11682.488,1566.7858,26461.38671875
66,9384.212,18831.941,27744.861,3724.4597,10916.954,-4290.417,26594.814453125
67,-8557.698,-16640.86,-13705.574,8277.853,7129.426,2132.6726,20540.8515625
68,23005.438,28001.936,44546.684,3749.7883,13781.72,-2307.229,31769.7890625
69,9809.089,-3786.4602,-6333.1113,658.6113,4806.7505,2770.4204,17877.0546875
70,14585.053,20995.018,37050.72,-1385.6349,12675.434,5071.8335,31092.12109375
71,4441.496,11405.581,31381.736,933.4908,11499.043,-2543.481,31707.521484375
72,-1243.717,-14378.503,2631.7397,14038.836,7442.6465,2308.2202,31809.974609375
73,3526.8435,5683.733,21254.84,7262.9067,12705.611,6898.6665,32649.939453125
74,16596.625,25285.873,39843.938,-1821.2816,11750.707,-2657.5989,29314.091796875
75,-12268.699,-24667.379,-38434.863,8642.883,2638.7468,-9071.31,31714.708984375
76,14299.397,27166.861,38823.363,2576.1357,10252.207,1380.9227,28149.40234375
77,-8761.766,-30272.666,-38372.562,2484.1182,10764.747,-2051.2776,32883.70703125
78,-11938.984,-10135.5,6556.8677,4149.4883,10449.659,9360.368,30888.2265625
79,24451.82,31811.828,43067.234,1072.8727,13903.327,338.00766,29110.087890625
80,16226.659,15069.843,41611.51,-149.98149,6304.4604,-1336.4246,28280.0078125
81,5513.6655,8344.656,5932.4717,-570.49506,-1965.6669,455.0583,4493.7109375
82,40894.062,28714.404,48274.215,1068.1097,5905.214,15388.981,33334.63671875
83,16197.077,9418.734,29297.443,5388.777,-4631.068,12508.018,30449.513671875
84,27606.082,33578.742,43287.85,841.1606,-350.60437,14304.435,28359.666015625
85,4545.301,-9146.939,-10462.184,4657.0215,-2832.2239,10031.327,24458.671875
86,33817.05,19734.438,47340.957,-15317.198,-2260.1587,-5118.3657,37005.88671875
87,-3612.008,1088.347,-21034.906,-7792.311,-4284.143,15604.579,37084.703125
88,17551.95,4397.537,23623.832,2976.1865,-627.0038,12563.086,28125.15234375
89,11948.766,13939.958,20027.064,-2258.7734,-3169.4668,17637.72,32122.400390625
90,6445.163,10993.993,-4789.6143,-338.5653,14991.5205,9350.967,33688.5703125
91,27164.44,21738.416,39054.777,958.2549,5067.7515,15675.377,32439.05859375
92,10480.256,8287.984,23336.053,-2442.8723,-5441.459,15435.505,31933.62890625
93,18559.648,12633.288,24888.332,-419.81403,-4872.289,16803.508,32116.974609375
94,20188.45,18013.752,39195.344,-4671.965,-14254.204,6395.2246,34713.84765625
95,20876.666,19712.236,21688.023,-665.92316,-4565.5063,13921.322,25460.37109375
96,10472.987,16481.87,31115.762,-3439.9202,-13737.608,-1614.6204,30784.35546875
97,19195.984,26124.29,32229.734,753.36536,-13123.667,-3404.7205,26091.171875
98,25101.188,30359.852,41758.824,-1495.3859,-11485.637,-2840.0059,25381.06640625
99,19002.0,3188.0903,3789.912,3343.6135,-10639.605,1927.9606,25004.373046875
100,-18257.77,10030.326,-14299.315,721.9125,-5481.5254,12529.782,35589.3203125
101,-1065.0552,11520.546,25402.014,-274.4596,12833.553,-1328.0012,32022.119140625
102,3942.3213,-4079.9958,11802.15,-1166.5457,-4414.447,-14098.915,29121.6640625
103,13990.341,22869.229,37693.266,4309.6895,-7488.0596,6906.3345,28235.322265625
104,17898.89,22849.809,43306.707,5854.4946,-8683.134,-406.63364,29559.9140625
105,24235.947,31490.27,35390.098,-681.7689,-8513.09,-10612.364,25550.025390625
106,39396.01,44433.953,43645.1,-6163.405,-11792.665,-5310.1846,25254.4375
107,41163.38,44875.74,55106.066,1896.6951,-13558.941,-2161.2002,27069.52734375
108,-7505.888,-12471.174,3322.6855,-3711.8135,-19601.467,5960.0757,38681.15625
109,11351.078,21738.156,34777.863,394.78305,-11018.558,6059.678,29803.05859375
110,13854.52,14942.322,14975.946,-2526.3584,-7800.3564,-10649.036,23304.744140625
111,13963.969,19778.521,23678.654,-348.45346,-13922.457,2965.858,26075.951171875
112,10289.603,-5750.288,11554.696,7303.1245,-858.40173,-14468.56,32701.767578125
113,9184.63,-1990.0425,-28689.762,-1155.0215,-5655.48,584.9984,35172.3046875
114,26541.688,34449.152,45127.445,-358.58734,13684.075,6429.5083,30775.890625
115,16580.771,-6417.081,-25516.967,-479.98276,-3236.4204,-3947.9062,37574.3984375
116,26194.352,36407.758,49918.254,-2267.1506,10089.259,7137.8774,29974.69921875
117,12745.941,19873.2,29694.352,-1533.5714,13099.436,4492.612,28277.951171875
118,22061.094,23978.553,43728.11,4697.416,6084.7983,-1061.6068,24743.546875
119,21726.791,29645.785,37957.953,-3209.4646,-10190.489,7885.2256,26955.466796875
120,16264.854,29855.012,38959.3,-4888.927,-11922.434,3646.5356,30485.060546875
121,25308.95,40081.59,48458.348,-1746.843,12142.884,5692.673,30997.9140625
122,30662.975,39956.16,48791.855,-354.17673,13298.779,6929.04,30356.68359375
123,2812.4368,-530.022,1954.4198,-3816.8564,-12369.375,3292.353,23329.564453125
124,19170.371,23068.957,30887.285,-5336.8994,4895.6235,14579.1045,30030.07421875
125,-7641.9775,-9700.778,-29581.318,304.0041,-11152.007,12700.852,36023.859375
126,51041.492,41679.637,64783.074,-1905.4055,-1489.7502,14754.702,32799.01953125
127,5139.0137,-5273.3086,-18721.79,-6126.6147,5912.548,13625.181,34694.75
128,12795.466,17620.193,38281.816,6145.554,-1619.7292,11897.555,33101.3125
129,-14947.016,-4727.899,-38745.49,7231.6714,-2267.4963,6636.5894,34906.2421875
130,12197.63,1466.1041,15932.073,138.34978,-4133.325,-13646.174,27913.306640625
131,18846.68,15823.475,23154.223,223.6217,-493.672,-6775.076,13390.4228515625
132,9428.675,28539.025,9843.541,-8530.598,-4077.8137,-3658.3096,25803.0625
133,2475.3147,-2087.414,401.94913,217.88269,-3039.531,-4477.9204,10181.9013671875
134,-9169.531,1112.5576,16286.313,-13079.341,2419.171,-331.69287,31985.572265625
135,15041.678,25058.182,35220.906,2772.1587,14908.271,1504.197,31654.673828125
136,6132.0156,13521.84,22837.375,3146.583,12892.974,-9168.315,31476.8515625
137,12566.384,22685.268,34400.664,1692.5977,14038.161,-2992.063,31382.333984375
138,11012.886,-723.25653,-1198.0515,-1476.0977,15541.747,-3601.9526,30226.333984375
139,515.06305,-173.64465,-20802.947,-5539.278,16396.994,4869.247,37550.1484375
140,502.34656,14053.406,21219.93,338.4622,14049.793,476.80038,30419.072265625
141,10262.469,9760.322,18335.668,-6699.4775,18080.719,5001.8086,35495.39453125
142,22787.691,28907.004,37914.605,3671.8547,14551.864,-6325.9004,31136.345703125
143,14150.64,2605.6272,-17037.424,-2486.5176,-4802.4014,12191.971,35771.30078125
144,3220.7317,8075.495,-14769.64,4308.941,1305.8175,-1619.8085,22433.208984375
145,18885.783,26983.23,36723.0,1011.4009,14148.77,-2155.5403,29272.33984375
146,10563.331,19667.041,32595.936,3242.972,14454.577,-1871.2147,32196.181640625
147,23097.875,18096.873,31777.293,-4418.66,11449.685,-14339.489,34820.546875
148,-1119.6034,-4534.3496,973.28973,1649.8743,5655.1025,-16273.825,30361.263671875
149,-18798.375,12554.474,-7349.6265,1403.8179,-5969.474,7411.4966,32136.130859375
150,-2161.0547,-1867.8658,-1210.4197,750.28107,337.8333,-5520.379,9703.9091796875
151,26328.072,9321.516,19242.395,5108.0527,10334.579,-7067.639,27703.22265625
152,25489.379,4071.7888,7194.2017,-1737.154,-6120.731,-13134.878,32258.4296875
153,15004.134,19370.264,40932.93,1495.8746,-7816.975,-6991.278,30245.9765625
154,32670.559,36889.832,35251.504,-2588.564,-14389.387,-4075.879,26545.76171875
155,21593.887,25845.203,28986.941,-307.31195,-14750.1455,7365.2524,29274.994140625
156,22215.613,28561.416,36156.637,995.6351,-15746.69,1051.9487,29938.650390625
157,14478.517,19268.922,26806.287,-40.016056,-11384.08,1934.569,22713.23828125
158,14350.133,19790.496,24834.469,-558.13043,-11066.894,-1406.0646,21372.27734375
159,13409.939,23104.715,24856.11,4268.2773,-9672.823,2170.296,21529.30859375
160,7426.022,8651.387,9858.276,1015.28455,-15720.644,4505.716,28457.859375
161,23744.047,12724.207,32753.47,1209.2318,-7131.531,12731.948,30743.4453125
162,39732.812,30685.354,54305.85,3550.0234,-3869.2783,10976.474,29499.99609375
163,8559.059,5780.7163,13754.772,-4449.2554,13366.679,12474.727,33337.640625
164,24625.438,21907.799,28511.227,-1237.0833,-13512.436,12704.466,32704.806640625
165,4718.374,-4935.194,10230.099,3401.3123,1998.4255,16639.76,32467.07421875
166,35466.375,12416.599,37493.066,-7834.586,933.50665,8877.379,31706.380859375
167,20177.848,11566.683,24203.793,-195.17271,-2866.4858,-12411.589,24737.33203125
168,26014.418,14452.243,32601.803,-1769.4064,-2552.4832,-16772.178,33557.3828125
169,-2400.14,-14627.686,-28449.033,1193.9724,11189.117,2402.2488,30111.822265625
170,4073.9666,-15209.866,5531.3247,4467.7495,-434.87903,16974.615,36427.40625
171,11627.234,4520.1377,21207.248,2375.1824,3002.94,-14205.599,29321.462890625
172,11233.107,-7754.6694,14032.198,-1386.5192,624.7218,-14881.934,33058.6328125
173,-4273.978,7262.122,18362.543,-8081.437,11921.417,-10228.01,36338.4453125
174,6818.544,-5762.547,-11253.589,7397.4497,11424.826,13412.726,36782.7265625
175,-6251.1196,10021.377,11858.504,7153.2314,15097.506,6257.044,35395.28125
176,25805.816,35430.64,45361.418,1575.804,14418.427,1298.5599,30381.2578125
177,22702.541,17144.217,32342.732,1455.9626,1239.838,-12997.245,26366.03515625
178,10196.505,585.4787,5898.886,816.1762,4158.4175,-16837.863,31208.228515625
179,30093.08,24548.219,36762.855,554.3273,-849.4212,-16459.803,30464.341796875
180,21088.268,1412.6233,-10001.604,-11361.328,-265.54,898.4172,33643.27734375
181,-2340.2456,22353.32,-3519.6333,-70.842384,7601.1094,1912.7633,28715.98828125
182,11801.852,4543.831,3040.3835,-4319.2393,2026.1033,-607.7532,11629.365234375
183,9348.904,-8060.7583,-20724.89,7207.844,7435.781,359.79694,31718.681640625
184,-20675.469,-21320.432,-20450.809,988.03986,239.69029,311.6787,2000.94982910156
185,1249.8706,-16148.316,-9741.289,-6664.177,-2909.1567,5269.134,21775.923828125
186,-1454.9137,868.2703,4793.16,-2395.6755,5048.8433,9688.862,20130.390625
187,12607.45,16543.07,14300.1875,1420.842,18186.807,-5979.3774,33425.8515625
188,-14288.243,-19866.1,5962.468,-8303.787,66.61836,1835.1976,27769.3203125
189,-10703.91,-4172.9287,-3107.7476,12498.542,-9577.679,-3324.3955,28770.404296875
190,2405.411,-2142.4453,-886.2999,3853.3894,2746.595,20728.793,37050.9609375
191,6968.4673,-11809.316,-7931.1143,7605.8247,-12268.009,-5620.5312,31853.578125
192,8639.841,-5855.4375,-1780.305,-1545.6997,-430.52228,-19327.986,36001.19921875
193,-9604.884,-21178.688,-31495.924,-1932.6097,-16900.438,7140.4995,37159.7578125
194,-611.4303,-6626.034,14437.766,-1776.4174,5382.6562,220.88033,21206.154296875
195,-29321.262,-32929.26,-37251.797,3724.1938,-4077.472,17727.953,32888.06640625
196,8381.545,7267.4897,16582.836,-8372.858,-13822.287,-7602.3887,32163.78515625
197,9037.628,-7183.023,19353.025,5963.638,13535.658,-6666.547,36421.21484375
198,11970.1455,-15012.721,-793.66266,5747.8223,-4164.6484,-13182.474,34915.09375
199,1048.3306,5307.037,6457.2324,-650.40546,-18328.672,399.46466,32154.7265625
200,1577.7617,-7815.913,-2967.1106,7722.469,-13748.109,6597.2925,30703.708984375
201,18568.021,3595.2563,-12015.819,-5189.9326,8838.622,-5079.838,33078.9140625
202,-1567.6023,7116.2783,-9458.353,3332.5015,-14351.333,10145.8,34149.76953125
203,26831.822,11992.375,23036.785,-14399.99,-12296.69,1045.6843,35458.15234375
204,-12616.158,-12183.609,4660.108,7808.127,-11591.295,-786.6655,29648.1875
205,8729.555,-8801.406,-11439.633,1742.7987,-10161.336,-4049.2395,26992.6796875
206,9454.929,786.8235,29870.283,-9669.929,-2568.0642,5453.3105,32533.189453125
207,11162.184,-9116.598,-8844.908,5633.1533,8245.14,-1421.599,26664.587890625
208,-7815.214,-3063.0488,-11429.441,5013.9277,-14665.286,-10570.257,33296.28125
209,22552.256,3582.7214,-5636.913,-11168.267,2074.6008,1541.4364,31842.857421875
210,4578.381,5185.56,-20171.617,-7208.1636,-345.9378,12000.501,34874.44140625
211,5037.396,31709.566,18220.605,6799.589,5068.471,-366.92163,27381.603515625
212,-19309.002,-25735.516,-12330.054,-9675.841,1953.9033,-2606.2642,21155.4453125
213,26089.969,45534.67,31148.092,5284.0933,-1000.35394,-8394.574,24566.259765625
214,36896.113,43181.508,43049.71,1855.063,-493.19897,790.3612,7184.89306640625
215,-7130.1904,10450.35,-26565.203,-1739.1301,-4346.403,7809.6807,35737.84765625
216,-45542.54,-22047.365,-44332.105,-3969.4048,-1211.2998,15276.078,35732.26953125
217,10590.896,6039.9487,-229.23326,2686.6174,-1862.1068,19403.205,35356.09765625
218,56901.324,42316.535,62132.344,-1847.0215,6460.54,14188.562,32492.599609375
219,5377.2573,11953.961,24731.543,-1157.7087,3.437018,17496.623,34827.72265625
220,19809.416,15019.576,22596.764,1518.3501,-11269.289,14830.837,33042.86328125
221,-2333.161,3030.0955,-31761.479,-7872.399,-1186.3566,5630.5425,36577.00390625
222,14799.771,8564.177,20361.14,952.9192,12402.246,13618.045,33541.23828125
223,20361.812,10401.892,33893.297,-1359.2872,-2445.1323,14049.458,32135.875
224,37791.0,25965.236,46183.605,-2660.8933,-306.2034,11155.072,26539.833984375
225,8200.858,2816.75,21137.988,-3760.0186,3442.0793,15703.391,32920.5
226,-6227.6313,10205.514,-2202.1897,4804.9683,-14192.365,5652.4473,31456.08203125
227,14044.813,5569.371,26298.66,590.47125,-2944.9038,13025.225,29357.783203125
228,28305.203,22814.25,45174.723,-878.5765,4521.445,14419.725,33087.6484375
229,-8541.896,-11684.857,-35488.87,11064.894,-1967.1571,-4125.126,32882.80859375
230,36341.586,26789.662,46834.24,2438.496,-3379.735,14328.576,31138.25390625
231,1245.709,-5058.084,5792.0454,-93.369385,2243.9988,11150.02,21844.16796875
232,11223.203,12832.583,6871.8384,3243.613,19137.635,-3856.1768,34690.75
233,24127.627,19993.023,26787.143,3186.0188,12165.637,-13363.335,32332.03515625
234,18949.328,15725.994,20645.223,2008.7512,16416.174,6704.9565,31211.84375
235,10657.082,9880.85,20052.178,-1910.13,16601.586,-9132.1875,34411.296875
236,7132.614,15941.62,21815.986,6111.0747,15002.685,-4444.9463,31786.853515625
237,-7874.0645,-6548.5527,17108.055,203.54372,13767.575,3967.4421,34766.84765625
238,14394.685,19444.402,6410.665,-15218.813,-8289.972,-7973.914,34947.375
239,-9407.048,-275.21393,5830.6206,3547.0752,18086.49,3668.978,35155.6796875
240,41340.773,55598.83,59699.45,319.55136,15836.474,-52.071465,32113.396484375
241,4244.2124,8091.6016,-17047.12,10182.889,12493.806,6493.868,38156.3828125
242,9732.865,-19089.104,-2383.3958,5012.886,-4692.1724,1240.6559,27827.1328125
243,45893.72,47138.137,66273.9,-917.1068,14097.042,-3332.9824,31993.251953125
244,20843.24,10580.144,19202.105,1313.9684,15806.461,9936.617,33795.0078125
245,10040.306,9964.377,6220.236,-615.92566,17883.484,2313.2434,31479.470703125
246,15822.543,16776.516,22927.945,586.0864,18971.47,2236.896,33769.95703125
247,11585.198,9557.691,18058.73,-2599.8792,17444.389,8088.6074,34476.33203125
248,19588.098,20767.568,21311.158,1618.4907,16331.846,8803.217,32293.400390625
249,-2724.0315,-3222.2869,-1329.9077,-6621.8853,10482.815,-16350.517,35582.59375
250,31324.33,15744.565,23258.172,-7192.1196,15324.89,-3022.416,32699.611328125
251,18739.812,-389.1595,14359.932,5499.038,11176.294,-13052.423,35747.19921875
252,9828.237,20095.588,28284.23,-4555.4624,14255.429,6718.979,32617.333984375
253,-24388.828,-20859.11,-20345.678,-1145.5753,6653.4775,-10058.794,21326.41796875
254,-10555.406,-31452.22,-17592.66,-14488.059,10738.694,-4747.5454,37181.0625
255,-53069.24,-51655.145,-51995.938,229.011,252.5386,-820.85266,2000.9873046875
256,-13040.1875,-24210.428,6595.798,-7076.6455,-7334.849,7913.069,35059.54296875
257,10359.198,5895.7363,-5181.192,4437.06,10438.894,-13666.896,33740.01171875
258,2168.7197,12243.589,39772.4,311.773,5133.932,3850.036,35503.7890625
259,179.12607,13866.709,-4531.245,6754.7134,-2920.4272,12027.996,29504.142578125
260,2231.3528,26037.3,20778.953,2960.8318,-6176.5254,-6706.716,27292.517578125
261,-4007.4448,13799.236,996.0273,-3105.4585,7540.715,1838.9266,21510.0234375
262,-1204.6205,15909.728,-9721.39,-560.787,-1485.5526,-13214.361,32289.583984375
263,-843.4056,15092.995,4814.81,-4077.1277,-15555.784,-7194.3525,33569.40625
264,-748.29846,15876.386,1893.5463,-9124.86,-1641.6953,4291.1597,23506.51953125
265,-8152.698,1669.995,-9930.454,395.60443,13194.251,3154.939,25878.626953125
266,2547.459,-9763.507,19808.645,-225.93742,-11127.428,-6995.4565,34357.41015625
267,-15731.903,-542.37524,7368.0127,-3395.269,-831.6552,3327.643,21984.748046875
268,2981.635,9211.137,-11944.868,10331.106,-10785.875,-10647.095,36930.66796875
269,2480.6404,10144.891,-9772.837,-1280.3232,8047.399,330.18927,22412.693359375
270,2691.4211,-12190.859,-206.94699,548.85114,3861.354,-18164.594,34960.546875
271,4432.442,513.68945,-29232.69,-7581.3955,1168.5952,8112.6104,37292.69921875
272,11914.081,4888.965,19134.82,4176.9956,-3276.9624,-4485.561,17237.6328125
273,10098.391,17790.49,7926.944,3218.6433,4137.6304,12632.456,25333.029296875
274,12860.277,-12158.961,7161.0894,6103.366,691.9066,-3107.1907,25651.6484375
275,5476.389,-1546.1597,-22374.906,8188.5635,-7771.646,-2733.3916,32158.845703125
276,-14968.343,-13909.568,-35474.9,6421.7007,13165.135,-8832.976,36346.84375
277,1713.0605,5600.692,-6271.037,2107.5403,-1923.96,496.1388,11621.8427734375
278,16951.508,7009.9453,-9231.81,1171.9829,16064.857,-2693.7734,36389.921875
279,-12644.483,-22945.977,-21768.168,254.05577,15251.408,-13768.645,36906.796875
280,7774.0527,-7417.7456,-14730.07,5129.4736,16253.501,1846.2057,35735.65234375
281,-5076.539,9675.224,-17392.885,-1058.486,5990.906,10646.648,31655.6796875
282,-5755.981,6912.8228,-32444.445,-5177.894,6948.121,129.38431,37897.16015625
283,13335.87,2144.6194,87.82132,3107.3616,-6066.5537,1913.2244,17402.59375
284,-24072.117,-18882.31,-35175.22,8095.2886,-17151.959,-5617.2104,37170.7578125
285,15781.351,-13037.001,2032.8221,1254.4729,-8922.217,-2348.4116,29721.939453125
286,-21744.78,-18677.293,-38778.715,-2787.027,-14403.236,6752.545,33678.90625
287,15339.79,-5032.3774,-3283.8723,-60.401638,988.7301,-5841.4272,22085.564453125
288,20442.564,-8871.874,24535.814,-3302.7004,4356.909,5821.164,34458.83984375
289,-4608.3584,-14469.361,-12881.107,-7184.841,-10331.01,-1380.8901,23767.115234375
290,7925.9937,-14829.022,-16444.02,2585.8137,-1041.1213,-2195.2266,24390.91015625
291,5840.0425,2257.186,-382.42175,3200.885,7580.609,-2953.0364,16079.7041015625
292,2839.808,4956.583,12543.593,1891.4323,16250.589,-8559.409,33179.3828125
293,21487.56,29658.54,34264.72,-1307.0582,16975.334,1362.1184,31635.359375
294,10406.648,-20721.316,-22066.715,5992.054,-2914.0615,2879.395,34215.51953125
295,28206.527,28677.654,29296.988,-14.708742,489.51822,-141.98692,1295.11938476563
296,-10021.984,-24690.67,-8252.263,-2105.993,-5219.098,10688.385,26115.302734375
297,17742.135,21688.584,26733.064,-4821.818,1020.2382,18284.504,33716.03125
298,69264.91,54605.812,72412.62,5921.235,-567.5731,13027.927,29770.28515625
299,22134.445,13272.681,23912.723,814.68634,-6103.9224,17079.826,32960.24609375
300,20272.273,3548.7534,993.0088,-10729.41,2453.0896,-1081.2351,26379.345703125
301,6933.7993,7320.605,-1598.9656,3284.6602,-860.6212,-10767.197,21415.994140625
302,5335.6504,10355.867,14202.672,1619.8951,-631.3869,-17487.428,31397.625
303,16755.902,9932.955,27679.1,9430.536,-2416.9849,-4673.4995,24295.11328125
304,-11173.072,12286.839,-3763.627,-4606.2417,-2493.4373,-675.5339,22696.15625
305,-20479.791,-510.7372,2528.046,-8624.026,-8084.905,-2505.1765,30111.876953125
306,21909.438,11490.243,29654.746,-1978.0355,1646.6326,11054.08,25213.080078125
307,-1771.6848,11391.949,-21861.773,-4111.032,4265.688,-9140.787,34602.0703125
308,-19318.1,6054.2163,1857.3389,-9026.209,-3929.3853,-3379.8564,29662.966796875
309,-928.0562,1425.5458,-20172.91,3558.614,-12761.346,271.4501,30789.068359375
310,-6736.7676,-17429.67,-32265.418,-3392.365,-12933.498,-174.77992,32086.087890625
311,-5980.2754,9267.342,1301.7877,8255.361,-2164.2231,-1400.526,19971.80859375
312,18996.549,14634.737,7100.9556,99.430954,6617.947,-17663.01,34293.0234375
313,19020.943,4.3065896,-6325.849,-7852.6685,11606.676,-1776.4991,33476.671875
314,-1858.1973,-14005.138,-27804.342,3546.6816,-15348.186,-5567.129,36646.96875
315,3037.108,-10992.233,-5826.2793,-8388.59,-18422.29,812.36194,37178.78515625
316,-26112.49,-27101.629,-36749.83,2464.4312,-18603.744,-5578.047,35404.3984375
317,18880.574,-7444.1855,22244.268,2566.3188,6504.1436,2145.936,30876.212890625
318,-30845.254,-33197.633,-26923.283,5340.884,-11343.476,15184.339,34546.08984375
319,37297.29,25716.984,40865.594,724.1039,-13924.972,6424.4473,29921.001953125
320,-8395.022,12714.593,-18975.25,10509.663,4544.8413,-1655.1743,34386.71484375
321,-41738.992,-39854.445,-40742.566,444.4751,-428.47772,-254.24333,2000.98559570313
322,-44392.977,-30074.434,-31953.037,-6637.855,-7531.029,-795.0579,22042.68359375
323,10411.437,7084.253,26706.223,-1167.4081,3763.3638,16833.186,35035.00390625
324,9346.043,15698.982,25218.523,-1313.1039,15547.118,3129.543,30840.75390625
325,19875.275,27578.53,25665.44,-5769.976,9906.22,-8125.313,25310.12890625
326,18901.625,1687.4331,9740.506,-7316.371,15000.715,3456.1182,33076.26953125
327,-8191.102,-13671.388,-3705.4402,863.77203,20141.979,2582.1807,36250.1953125
328,-1910.6469,2587.7092,3798.0376,1011.2009,15293.772,10704.406,32797.30859375
329,-30347.725,-32286.705,-40273.14,-8963.6875,17843.482,2695.3037,36069.86328125
330,685.95026,9721.935,10363.271,-1375.9213,16160.418,-8740.154,33259.33203125
331,3353.6396,2064.0557,21643.025,-6652.805,12867.393,-1065.8276,31506.302734375
332,-12016.8,-20428.49,-2479.4373,-4202.0776,13511.522,1307.2656,29115.736328125
333,-10410.481,2133.137,-33123.816,-10150.302,-1192.6061,-2037.3951,35832.265625
334,-11411.542,-190.91106,-12893.856,-7701.1025,9513.832,-9763.897,29668.052734375
335,99.636246,16652.246,1257.048,-863.6044,2164.6975,-4640.122,18359.1328125
336,10083.074,3748.908,-3792.9158,4032.455,-7178.2637,17538.18,35649.6796875
337,31697.895,19222.855,48536.41,-2617.137,3029.2532,7744.399,29618.033203125
338,12033.815,-4364.6104,6778.98,2635.3083,-8137.918,10797.247,27921.388671875
339,-14174.787,-12473.894,-11043.378,-415.63873,7356.3003,6554.9844,17295.65625
340,4906.6274,8208.569,5595.4805,-4389.0176,-4905.9004,8704.95,19142.23828125
341,23516.598,13610.544,32791.35,821.47174,1171.1538,15340.267,31434.658203125
342,10157.992,-11622.164,-16406.873,-750.3439,463.294,-1240.7682,24666.412109375
343,7769.6797,7378.031,-26454.592,-1215.2416,-491.96976,2743.5737,34435.27734375
344,-2347.2996,7590.006,4127.246,177.85913,-6103.9814,2895.9712,14606.876953125
345,-14350.19,-5461.226,-21174.236,-3274.2295,-10677.62,6865.1743,26492.04296875
346,16906.408,27625.068,33286.27,-7239.0293,-2832.536,-7205.3096,23337.72265625
347,4616.226,716.8876,-2511.0398,3141.9807,-2337.747,-4025.6555,11525.630859375
348,34032.76,16398.162,2793.9595,-1872.5892,2559.0752,-12711.031,35367.15234375
349,-20516.846,-4683.047,-32692.176,-10150.854,4434.214,397.97064,30988.88671875
350,7463.052,19503.799,-5815.861,6030.7407,-1331.1451,-8073.426,28127.62109375
351,1790.6792,1309.8276,1139.0673,-665.7564,-4139.1626,6526.8867,13448.8271484375
352,11361.515,4925.493,-3690.9028,-6791.557,6820.788,-1442.3816,21337.9140625
353,-3694.2476,990.8928,-1274.4849,1566.5824,425.37872,-508.958,5015.11328125
354,-337.46063,355.04193,-354.38086,853.3717,54.69339,-143.19395,1657.34155273438
355,-1553.9668,-2249.208,-5781.488,-1964.4604,-698.28,1749.1409,6134.71533203125
356,604.53564,-214.53676,59.107964,-146.1547,-203.52687,-34.45553,844.713500976563
357,-3823.3137,2603.8682,17.615963,-6848.4326,309.5368,765.2511,13195.544921875
358,3379.2341,9062.543,10464.405,-900.11475,917.1321,-3121.975,8742.232421875
359,-3245.2664,1090.0999,1079.9099,281.06955,27.025023,-104.285675,4361.552734375
360,1686.5383,-1851.7101,-29.859184,-3994.5557,287.70255,-1904.562,8269.9453125
361,7346.334,2355.1406,1730.8165,1999.9576,-2368.7236,-575.06805,7631.6494140625
362,-460.7222,-1373.164,-849.66266,1510.1986,482.18024,-343.16342,2919.21484375
363,6767.6523,1182.5917,3432.7686,-482.68323,376.98413,264.5765,5002.412109375
364,605.79156,-2616.5835,-4958.8135,23.080347,1150.3282,802.1748,5414.71142578125
365,811.6207,379.5582,-934.34906,1999.4655,-245.19289,454.79062,3908.34619140625
366,-793.8285,-129.51051,-360.6273,422.3277,-173.42964,-171.5537,1027.03747558594
367,-1005.8148,-429.48462,0.68836844,354.70612,-454.61673,-238.57762,1390.45434570313
368,-165.77834,-1048.472,-227.0327,-298.937,-280.27994,64.781715,1115.87719726563
369,1115.5002,1442.3661,-574.31445,-507.3876,-67.78047,-316.9219,2145.2470703125
370,-7245.5137,2127.9482,348.72653,2043.1836,40.032265,541.62506,9367.95703125
371,882.9302,1750.0114,-7.939569,1866.2247,410.65073,-85.86444,3646.14038085938
372,-114.26592,685.14435,762.03723,837.9448,-15.400599,19.92975,1677.7353515625
373,-2399.192,-1544.8337,-7824.7456,880.4595,3068.6711,-894.4086,8232.7197265625
374,11467.096,5895.589,10415.488,998.09186,-2277.9731,468.9964,6745.69873046875
375,15417.944,11036.821,8662.125,937.0377,-847.88965,1544.9045,6869.37548828125
376,10069.812,2617.5896,-290.7848,-1325.6506,-842.57166,-392.01877,9671.140625
377,10325.938,-2534.628,-8315.954,-2770.2534,45.004646,-462.186,17229.01171875
378,-1944.0033,715.1788,534.06836,2178.3442,-195.03253,-277.96597,4604.76953125
379,-1513.2511,-302.69528,-88.60168,283.39258,-67.36996,165.66537,1451.66760253906
380,884.83154,607.98566,-532.86664,3293.1401,-62.494713,61.020115,5852.455078125
381,-4457.7227,3649.7295,-7364.563,-2512.1995,-96.432785,683.00507,10867.76953125
382,-1188.1339,2243.4895,3115.7112,-4178.4033,-163.67104,-2514.4873,9324.98828125
383,5954.01,1466.0977,5900.4985,-4012.9666,-1149.2336,500.12448,8539.810546875
384,-958.80774,-2966.8672,-6502.523,-2160.498,-1018.6487,1914.222,7193.18408203125
385,-470.02405,-1100.4398,35.487904,-325.23135,-157.7822,47.841618,1170.6953125
386,5614.9062,3799.8796,1225.7505,891.32745,-1034.1658,-437.2487,4556.09765625
387,9932.384,-1500.6996,4393.1924,962.1306,916.2313,-833.30023,10268.724609375
388,7652.1694,-2788.8345,-456.32236,-362.82648,25.967894,432.13565,9542.4619140625
389,5926.952,-587.44696,-420.98004,1857.8591,854.1265,828.60144,7482.2412109375
390,911.39795,6786.47,-2358.4548,-783.31256,-1847.5889,111.65835,8748.595703125
391,-2275.2593,2101.3706,-6571.816,1651.7482,-352.9559,538.7525,8114.7421875
392,-4686.0464,79.456055,461.68475,1282.173,-1174.365,-511.20343,5876.30078125
393,634.7362,-9221.775,-2667.928,-5793.302,-1645.071,1203.6195,13735.267578125
394,3973.5327,-5993.234,-5726.987,-4981.162,-66.72218,256.87463,13092.017578125
395,4746.752,4026.0393,91.52771,-1027.4635,-1980.564,-2061.6118,6820.64013671875
396,-6390.0654,5916.561,-1376.8958,-1523.0258,419.24832,-431.4681,11087.576171875
397,-3908.013,3148.3347,-1399.0745,1078.7786,-281.93152,853.5605,6655.69775390625
398,-3472.8513,4996.7954,426.23672,445.85312,148.35905,-353.122,7412.85205078125
399,4025.8186,-283.74048,-2005.6055,218.87216,261.24783,461.3211,5472.158203125
400,6269.6577,-780.4149,-1434.7103,-255.37286,584.8456,2014.7393,8254.923828125
401,4143.4277,1077.2579,-278.79727,208.8968,595.60394,1179.6033,4557.1611328125
402,227.70921,-3101.804,-312.1287,-6051.113,137.62485,3591.7983,12577.259765625
403,4727.6504,-158.19012,3164.7556,-812.9757,375.66806,687.38916,4743.59619140625
404,-6803.8716,-1640.5839,6452.28,-263.25195,1566.3215,-2668.8718,12762.3037109375
405,2423.2888,-951.6497,543.1416,-1126.2982,316.5175,-699.2339,3762.01538085938
406,5431.8496,-35.79088,4663.9463,2796.5613,674.4967,2276.195,8164.33984375
407,-3816.2378,1627.399,6206.741,-4759.795,-5685.8506,-199.97719,15511.4609375
408,833.7815,2403.036,-1956.7886,-2565.515,602.7472,-546.5386,6029.97314453125
409,-1776.6456,4275.4927,10315.748,-494.35867,11.121954,-1379.2214,10775.4267578125
410,4743.148,-452.49048,-1433.8165,3568.2832,-550.96027,653.86194,8570.1513671875
411,9866.734,-2410.0063,-965.48193,4238.225,217.28143,-1344.57,13947.1806640625
412,5188.4355,-2993.728,3803.354,5873.627,-678.71954,2843.4036,13662.6708984375
413,-1964.8806,-782.7684,-3733.9316,606.58527,806.8358,748.42804,3369.77294921875
414,-1842.2426,860.3669,803.9127,2135.707,-101.587296,-265.64377,4591.41650390625
415,536.4982,-4027.5115,2041.6166,62.00369,784.72644,-118.180046,5644.9765625
416,-3614.835,964.56067,-1469.8911,-1460.9321,1039.7021,-472.0082,5105.2314453125
417,1987.3774,-3237.7888,-4516.7456,-1037.3473,1103.299,308.91812,6541.19384765625
418,-373.54312,2440.3215,4502.4565,-2352.2014,-1266.486,-150.92989,6281.0556640625
419,-3496.8047,3400.355,2299.7664,3136.7666,2893.7764,-1945.5054,10353.0615234375
420,-288.3684,2793.7236,2268.7666,-1378.4121,111.363976,487.11844,3821.78271484375
421,-717.78656,5468.661,9168.369,754.5739,1113.3811,-1412.1677,9287.5009765625
422,-3515.5696,2219.5103,-141.46915,-225.91652,-729.8216,534.8408,5247.30029296875
423,144.13431,57.881504,3045.504,-3495.1482,-251.81795,181.19412,6753.70654296875
424,-4375.3164,350.9904,-1487.9932,2804.1624,342.1746,-714.4535,6519.263671875
425,-1681.7654,6651.0947,211.9005,692.53613,1031.1917,-477.76157,7909.2685546875
426,-1719.0079,1002.38434,-84.287254,3421.0486,550.1539,-138.54874,6458.00927734375
427,-1948.6395,817.249,-2815.6333,-943.5681,526.5304,-220.34023,3801.07104492188
428,2740.936,-802.43134,27.838943,1915.515,673.22906,-1082.3794,5117.107421875
429,2977.508,-1034.4415,-1066.3514,-62.055607,12.440235,458.9255,4107.14453125
430,8484.992,362.2504,-3178.269,-387.71658,-961.8739,1150.5433,10699.1005859375
431,4204.588,-114.1303,369.81097,635.18945,118.2347,-314.7117,4283.1044921875
432,4265.1235,-5926.684,-5587.946,-2424.7615,760.863,321.68893,10964.5302734375
433,1259.2466,2461.4248,-801.8759,-3362.972,-177.58476,-69.1571,6496.8447265625
434,2592.0955,924.7569,1422.9241,1752.2094,-252.01431,22.232948,3405.921875
435,-824.1749,-563.75745,-99.40886,418.58786,-65.18253,30.468082,972.388732910156
436,3464.166,276.5219,-2080.8384,2135.8987,-134.55035,-2405.5405,7371.09375
437,-1000.0061,-2562.1865,-3090.7615,-3033.2734,-296.77954,410.16846,5649.48876953125
438,-3953.878,1059.5151,-2911.9226,-2195.9526,418.33563,-618.5488,6093.8896484375
439,-1442.5116,-2185.2703,805.0609,-2006.7762,4.828194,-148.43185,4406.8466796875
440,554.5892,1939.1105,4741.5654,-2737.8813,-1373.3317,-784.11774,6606.1591796875
441,-2476.838,-2768.8787,-884.4828,-1493.4564,550.6666,110.286804,3274.65161132813
442,-671.83215,1710.8904,543.3623,1479.8615,443.67886,-172.08778,3392.33813476563
443,-3681.282,1433.7491,-1854.3746,1980.2145,-1028.6003,529.908,5994.71875
444,-994.4192,231.57718,-533.822,2427.0361,21.44648,119.49235,4343.5302734375
445,-1028.9613,906.8755,2010.524,-156.82472,-259.16092,124.62185,2724.67504882813
446,-1046.2888,3407.8267,-4794.7407,-2214.3372,392.89374,-151.7718,8113.45458984375
447,-4636.5093,-587.25116,-5689.6104,-1469.2397,532.1139,496.47763,5462.1142578125
448,-1998.1448,1945.0098,5963.998,1730.1506,-2.4687202,368.09164,7545.52734375
449,-2670.23,1727.7446,-379.09732,208.55507,923.4344,396.164,4204.1220703125
450,63.310966,437.9602,-519.7309,-2553.852,-363.23996,-55.537205,4546.46044921875
451,3565.423,386.03745,3206.5425,3219.5186,223.59589,475.39722,6404.69873046875
452,2201.481,-1193.965,960.43634,-97.89118,-154.54012,-496.63867,3113.79028320313
453,2131.5764,-3379.6135,-194.31615,348.1608,-320.1862,331.3286,4895.416015625
454,1161.5137,-588.7219,-642.68054,-1838.2787,-369.5089,179.23288,3715.43603515625
455,2637.6626,-475.8652,-4037.0178,-1193.2028,-1102.591,14.060045,6432.9248046875
456,11054.928,-1514.5541,9173.062,-497.57474,984.94104,-401.4923,11917.041015625
457,3295.683,-2085.149,-1919.4159,-2247.9421,-88.891396,-317.19543,6601.08447265625
458,-835.92065,3773.5046,4765.3794,-233.59604,242.16823,-59.16434,5210.82763671875
459,-5005.661,1700.8048,-993.2923,-1077.8973,-213.50745,369.47028,6180.52099609375
460,-2730.867,-56.267235,-2732.9275,-861.33734,138.0407,163.42006,3085.77221679688
461,-2243.486,-1532.579,-1034.6935,-1143.5833,-162.16342,188.32777,2283.82788085938
462,-1099.2638,-1231.0245,1296.0848,-741.85535,474.5824,-203.58186,2919.20166015625
463,-1617.2266,21.753836,628.47577,1250.1171,-399.87674,-255.76651,3068.07836914063
464,-2781.8726,-983.9543,-627.3551,1934.8906,-233.06468,86.03097,3926.49682617188
465,106.72691,1844.1062,49.68948,1069.9769,-639.87976,-25.793169,2790.29052734375
466,-282.12497,1233.1086,1119.0288,-1613.7388,-390.84598,-478.23312,3330.60815429688
467,1179.316,-611.991,2862.6777,-742.2233,-1208.3743,-21.800287,3884.90942382813
468,-254.48444,-2170.0027,-2907.5085,-2752.8894,-559.9875,-388.69946,5454.81884765625
469,-466.31058,114.2898,1735.6676,-561.0943,-316.3703,-241.56516,2308.06127929688
470,-1982.8815,-1426.9338,-1675.886,-1740.689,-80.23524,365.63864,3121.38305664063
471,-1942.8372,-1317.8342,-1492.1993,-1271.8464,-642.0477,723.1489,2823.17944335938
472,547.1433,1255.8798,455.8543,388.67822,-188.8314,155.03607,1098.923828125
473,-1.6887699,1745.278,-242.33229,517.36743,-125.073814,-63.946854,2095.80615234375
474,1617.124,-1508.1675,129.2095,-1490.7355,-336.1828,-43.110752,3787.1728515625
475,1758.1335,-3740.0068,-711.45764,-798.4416,-108.8464,-116.546425,4973.84033203125
476,1064.625,-3649.6558,224.3502,2082.987,-20.1187,-22.36383,5655.83154296875
477,-3160.449,-1815.071,-559.0461,2167.2554,-194.02336,-361.55853,4435.4892578125
478,1600.3312,-507.65198,670.10596,751.1713,-1.2600224,-125.042366,2255.5927734375
479,-1955.3961,-1080.2428,378.53445,1675.4973,2.8589716,-6.548109,3548.60595703125
480,-1820.3534,-1433.824,1435.8157,-923.4566,50.81348,94.21795,3476.51123046875
481,-2597.6963,583.3089,-3100.8857,-2116.76,-175.40854,-112.61257,5054.20703125
482,-1902.5074,-1457.592,-382.2362,-1901.1716,-9.735582,-50.190056,3561.4580078125
483,-2688.291,-455.34833,1517.0957,-2014.9076,376.70673,87.295296,5090.0947265625
484,-4061.124,-602.1436,1407.3893,1116.1472,-70.0027,-43.654564,5168.314453125
485,-3993.1973,-1355.743,-314.4493,449.7176,97.0903,-187.85976,3395.24877929688
486,-1379.6821,2053.1619,386.37048,917.4473,-148.44789,344.32425,3433.32104492188
487,848.4175,-2808.582,-214.27957,1714.6653,98.907776,-120.573006,4416.9990234375
488,3468.0642,336.21243,317.54984,693.4548,335.74713,74.05504,3415.34204101563
489,1144.4889,-2913.1182,-85.13973,2018.539,-226.6176,-197.14351,5047.8681640625
490,3369.6697,-1480.7888,-2074.6663,1809.9413,593.57733,-810.65576,6294.1533203125
491,1343.9663,-1517.0652,1219.3855,-1905.3378,-407.38367,-181.23369,4396.81103515625
492,-1945.3672,1268.6847,1.6294663,-584.68604,564.1489,412.05164,3217.59252929688
493,-3836.2039,-1040.318,37.11077,-298.98685,32.87957,-3.987221,3501.66650390625
494,-3642.6172,-618.59235,1360.527,-354.45758,-232.50397,-151.76454,4433.3662109375
495,249.19266,-2021.3298,492.2633,25.312096,100.02421,457.4429,2534.94604492188
496,1238.8038,-391.68643,1418.0516,-3090.8154,1237.21,-752.68915,6159.05810546875
497,-260.2402,-3758.6465,1376.2738,239.15572,-307.27634,-89.200516,4595.75146484375
498,-5799.9736,-207.43274,-2648.6863,2126.4912,119.150665,-217.09262,6110.09765625
499,-3629.5776,541.5571,-145.5753,235.38185,104.13116,-416.39377,3965.26025390625
500,-2460.1018,1483.5491,-461.9594,477.64407,-441.48584,-16.406345,3596.51904296875
501,-3494.7456,1426.6014,270.25308,-335.211,-174.66423,187.82372,4516.68701171875
502,254.75099,-1980.9122,217.298,-1833.0673,243.8569,258.82858,3921.1787109375
503,232.72018,-1670.2711,385.729,-2513.5593,-549.3652,-278.6424,4901.8603515625
504,2647.5532,635.8598,7491.3936,-3769.9246,-61.7332,214.39935,8946.52734375
505,112.11336,-1416.9469,-376.24722,369.93915,262.98584,127.5755,1580.08386230469
506,374.40402,-2439.27,-1128.6332,96.36047,29.689842,-45.946274,2446.15185546875
507,1061.614,-2052.207,-911.8177,-1682.9852,-185.39078,13.555263,4005.79321289063
508,-2400.0608,-658.54504,90.61868,2803.305,119.89311,-16.334986,5340.2509765625
509,-2076.0933,1699.6578,492.5278,81.93356,60.907948,-184.1798,3359.86181640625
510,-565.2975,-261.05554,1497.2362,3183.6147,186.84528,-202.0316,5861.10009765625
511,-1197.0239,1808.8868,420.33792,222.2091,47.448097,174.3923,2652.51513671875
512,133.17691,1015.81757,4049.9321,-1353.1533,-256.13376,-805.60803,4505.53369140625
513,-899.01154,-2244.9797,80.315346,-1169.6526,-167.03142,259.8401,2911.93481445313
514,1060.5059,262.18732,3379.1038,-1395.654,160.11032,-271.78293,3742.49169921875
515,-2977.6934,463.34534,-556.2537,261.21884,-146.93257,-242.16687,3133.25024414063
516,-3036.9456,501.9314,-1294.9569,-1486.1027,37.328712,58.42259,4004.17456054688
517,-2725.5225,145.4156,-790.95636,-1525.9597,-271.5163,202.55719,3709.54467773438
518,5.111128,-30.779995,-1407.7439,-730.38635,-177.95851,199.85709,1939.57922363281
519,-823.53577,770.99274,-1117.9736,-300.40536,-50.530804,82.35594,1843.21508789063
520,-2921.5442,-2017.8082,710.9199,201.0932,64.80574,105.349045,3300.90234375
521,-2870.2124,-2037.6288,201.0543,-382.51434,334.51187,125.25354,2896.63598632813
522,-451.3602,-197.96295,588.7166,2246.2935,-545.3792,150.63158,4120.716796875
523,92.5279,-2824.8062,-347.74838,2301.1448,-128.7961,-277.12247,4856.5634765625
524,-735.57513,1448.9762,402.4338,196.88203,347.33365,-1.9627246,2014.82275390625
525,-1569.5339,208.78368,-879.0377,2599.5273,-462.0614,-78.56111,4831.451171875
526,-3016.5747,-47.555546,746.68604,3158.433,446.34323,19.324692,6506.14306640625
527,-224.18604,-4472.3887,133.9577,203.95374,-7.525447,43.66038,4452.82373046875
528,-462.90952,-4571.0244,-232.23026,876.9873,-480.51984,-387.57492,4618.23974609375
529,-800.44385,-1485.7292,459.07074,-106.966774,380.88913,-153.5488,1859.94812011719
530,-785.57874,-1833.7285,1289.8938,-308.90192,-11.20453,31.73755,2805.57836914063
531,-1200.4598,1699.7533,-978.0112,271.68625,33.423275,313.96075,2887.2265625
532,-641.0088,-962.46716,-328.38843,480.42505,60.734875,151.03726,1036.09313964844
533,151.01698,-878.41034,1662.8881,523.88885,-174.1206,-74.68781,2415.140625
534,-279.17392,-821.4043,263.57324,522.2566,118.5294,123.487625,1337.54748535156
535,1690.7092,992.58777,-600.6274,-257.2123,153.08778,-317.07907,2169.876953125
536,-3979.289,-1035.1952,-1653.4065,3003.1436,37.860622,-143.09427,5861.06982421875
537,-2100.4587,-1087.3757,-513.30316,3019.9434,355.1618,82.1266,5449.43212890625
538,-2126.7256,318.06537,2357.7,-1534.2802,-898.72516,125.18424,4965.4580078125
539,2440.113,1050.605,-1170.1005,-16.402563,-35.098625,-150.42957,3165.49243164063
540,-2944.0806,130.2414,1175.1263,-2151.657,-284.84964,101.39346,5283.814453125
541,1853.4689,-12.932147,-407.78293,-339.44095,-193.1919,-103.13445,2205.8671875
542,730.6588,-1005.0705,-1028.8181,-813.4061,401.60428,-189.36354,2372.94384765625
543,-158.90292,-1492.304,-904.05853,-1074.5964,137.94873,191.64676,2229.6123046875
544,-852.51434,754.3952,512.3352,1063.9916,-214.29677,-93.68431,2410.83325195313
545,1124.743,225.27419,70.194534,799.76984,289.11005,101.90943,1781.40087890625
546,1388.4904,-18.384909,-212.56306,659.97076,228.15903,-43.86381,1938.76599121094
547,-2448.2932,-152.63297,-633.4973,-1496.6676,-132.79045,-31.046944,3342.63671875
548,-1647.5895,-4498.3223,381.00458,-2627.1155,-28.657671,-281.56262,6242.6240234375
549,-806.64496,1444.7318,-322.2331,-741.27856,527.6443,-322.05865,2647.19311523438
550,-977.6263,-356.1659,935.4484,-451.95627,-203.2129,-50.82549,1897.78747558594
551,-921.5728,131.8415,1251.0337,-50.066814,314.50897,49.466743,1962.86901855469
552,-724.55786,749.89154,443.9496,1765.2391,-110.57331,222.94533,3369.05126953125
553,977.94,1168.8329,-176.88835,1200.1383,81.7427,-10.159563,2435.54272460938
554,-2355.5867,-3819.433,455.02682,326.6683,-182.71878,197.34163,3833.25268554688
555,-1583.9293,-4602.2573,-54.969387,481.68134,283.81744,226.06706,4141.73291015625
556,-354.98132,-1639.6544,755.4529,-2015.6285,-183.19598,-22.821842,4074.373046875
557,742.239,-1374.1708,101.3239,-158.5846,112.50629,-98.618095,1917.32116699219
558,-337.22513,102.865486,-439.20773,-645.89636,325.0469,36.706657,1349.6357421875
559,2037.8606,-902.3561,401.67065,-25.487778,-120.00701,45.614285,2561.76391601563
560,-293.84903,1590.3959,235.78336,-54.98896,-234.98868,-211.47803,1772.52124023438
561,770.6671,-1191.3286,158.15045,123.360634,-27.238745,72.09047,1756.79235839844
562,953.4888,-1426.8116,76.61852,361.05896,-10.630635,83.18986,2181.67553710938
563,-448.50732,-1174.3423,-164.60345,-275.634,-171.52617,108.70906,1079.41845703125
564,-1002.96783,1570.0521,-48.318756,-45.939465,249.58351,216.14394,2325.68627929688
565,-660.2528,1120.3778,136.38281,316.6685,137.87495,-184.43745,1687.20983886719
566,887.65845,1324.5851,-650.8871,-179.49313,475.57993,234.85289,2042.28039550781
567,-151.32626,200.78827,190.71054,-1516.2158,389.89276,42.761463,2734.740234375
568,71.4552,629.7347,-1315.329,2589.9458,-481.49265,241.34929,4899.26220703125
569,-2103.8884,667.76306,1912.008,-1384.7118,-665.4027,-233.1932,4463.4638671875
570,-862.11475,-1746.9023,-672.70416,-1459.1493,273.0218,1030.4258,3283.68969726563
571,3859.8499,-506.00418,6192.4053,-1449.541,-1659.2576,612.52057,7097.4326171875
572,2977.3657,-2386.8264,-1067.3494,-365.46188,-638.9535,-1870.0719,5962.77001953125
