Element Label,S11,S22,S33,S12,S13,S23,Mises
1,773.49194,716.1165,488.3814,150.43825,617.1752,245.03162,1207.87158203125
2,227.98521,1029.5837,-925.35657,575.242,-222.37447,-18.292173,2009.81079101563
3,1187.3394,881.93304,1079.9364,295.6092,138.71281,-319.58987,835.642272949219
4,-140.35493,1290.8052,-740.5947,895.5917,-583.96564,531.27734,2746.56396484375
5,1044.1522,5212.157,2380.3257,393.59964,578.3893,-893.6598,4177.64208984375
6,243.0776,738.0672,-1985.3502,-722.42505,-181.4007,-746.4103,3106.40502929688
7,3267.8594,-15.140142,3096.8564,714.0872,432.89288,295.39456,3549.59838867188
8,-1920.4691,216.46756,-2931.847,439.69907,-655.8184,213.82266,3123.79467773438
9,5403.3174,1218.3967,2389.6106,299.87204,1626.8838,-381.61978,4757.18310546875
10,-4517.02,-1670.2797,-3196.2722,1200.5941,-1369.2015,712.8685,4190.63720703125
11,260.48495,352.7409,-1861.4025,-21.57891,286.4907,1.390006,2225.82739257813
12,3612.3623,936.329,1319.6328,-328.45123,-457.62958,-194.40027,2710.65161132813
13,-905.00854,435.60672,-1210.0544,839.3103,432.48138,117.77633,2239.48901367188
14,4660.7153,348.0839,548.94055,-640.4823,-973.66437,-224.65015,4690.31298828125
15,-2430.314,357.18994,1680.9763,-1214.8713,636.3572,35.052525,4342.68603515625
16,2376.7007,-420.49402,1046.8936,702.21545,-1192.5071,1884.0219,4718.8037109375
17,1050.1946,1929.165,677.5515,-197.07933,-636.4565,-493.2214,1816.74084472656
18,1914.2245,1569.9122,-226.38507,53.39057,554.9253,251.5755,2255.20947265625
19,-3804.7632,2041.8704,-4579.5474,-41.56092,-164.74123,-352.6121,6306.57568359375
20,311.05685,9568.658,-11468.808,-3203.2712,-1123.4119,-156.21901,19187.59765625
21,-1112.1774,3279.061,-772.3971,-104.62987,501.45096,-733.26086,4506.28271484375
22,-421.6822,-587.22235,1379.9847,2755.0283,-7209.4663,606.5743,13541.6103515625
23,-1277.6802,978.32306,2450.168,1010.9757,202.90837,-65.26266,3711.99047851563
24,575.10657,-621.6789,-5243.826,1472.86,-1734.2296,1421.3053,7065.3515625
25,1060.4011,1829.5914,-4476.241,1898.8977,-504.18698,1351.686,7250.2421875
26,1918.3964,3279.1199,4704.0117,827.92975,-1050.3177,782.8226,3609.03149414063
27,1095.6527,4155.89,17098.904,1903.0897,-3.3512483,-1527.4368,15308.8154296875
28,-2019.6537,-454.403,-1644.0935,-1019.99994,259.3814,-253.3691,2349.2197265625
29,986.134,-3878.7502,-7392.188,273.83228,-392.0983,635.74756,7416.36767578125
30,487.46796,1753.394,-990.3261,-1143.8608,468.3704,2.988079,3200.09594726563
31,-1014.7386,3407.5835,4277.577,-343.78317,1939.9309,-271.60684,6002.25634765625
32,524.3195,3679.0125,6279.724,54.034874,341.05634,364.86646,5067.28076171875
33,-1078.3807,1152.3257,-4846.606,-803.9483,1334.1028,129.77257,5908.50146484375
34,801.5404,2231.2861,1661.8951,506.00284,1228.102,-2004.6696,4347.78271484375
35,-1327.6328,1403.1508,1113.6648,248.812,-103.49322,-329.93402,2700.90380859375
36,1856.772,2529.1685,-374.23514,-351.92563,-533.6361,652.85645,3071.50659179688
37,3006.707,53.01676,1372.1421,-28.805391,203.76747,437.87668,2696.35888671875
38,384.83496,1824.6368,-49.615524,399.1588,-734.1881,-373.11594,2323.79541015625
39,1514.8265,1546.6464,128.54669,-69.65479,-717.73584,260.0755,1931.26989746094
40,748.49384,2331.3625,-321.86932,398.17178,200.8201,-476.78513,2573.70849609375
41,672.2367,1629.9294,-183.12091,144.59251,-786.9544,378.99536,2195.33764648438
42,-849.6368,2245.037,1369.778,1266.5781,237.40205,1340.2317,4243.2119140625
43,1227.0729,3406.2693,505.8914,-297.6321,-273.33237,-260.28708,2744.76416015625
44,189.57527,1034.9829,-962.35333,-410.9809,669.73676,368.43365,2296.75659179688
45,3302.949,-101.62492,1416.545,-134.21251,2624.1729,865.54584,5629.17724609375
46,620.8596,2041.252,5052.2607,-2851.8896,1062.496,30.772635,6568.85498046875
47,1040.6471,6602.906,11274.425,2134.9502,-1807.5331,88.392525,10111.6279296875
48,-9958.202,6079.54,-5121.676,2053.6687,620.171,-767.0334,14785.3203125
49,-4311.3496,-1021.0362,-1855.9471,1660.169,-701.73895,2307.0405,5872.75244140625
50,-63.906445,-11330.08,-1484.6788,-31.517244,2354.2288,1492.2117,11672.5673828125
51,-3083.3743,-2509.7307,-10928.504,-203.90588,2282.4363,434.74374,9093.71875
52,-8202.498,-3813.981,-5514.2515,1735.7622,-3128.7961,688.37274,7383.53662109375
53,1083.2563,-2859.531,-13186.832,-981.6052,-3568.0076,223.98352,14288.115234375
54,-3372.6003,4811.173,-11274.682,-911.2895,-3692.243,-2520.6082,16016.7275390625
55,-268.27896,2204.6396,-5047.68,-4057.6746,-1359.7837,-985.09174,9931.23828125
56,1243.4688,2867.1409,1793.3274,-916.8127,952.31256,-1383.0583,3609.25903320313
57,-2231.2769,664.49207,-4099.3213,-1396.756,710.8806,2600.7363,6704.08935546875
58,-2915.4626,785.3147,-8704.239,1040.2927,812.2729,-1348.9155,8905.8056640625
59,-836.8827,1710.9208,-3622.3193,652.57776,-791.5002,643.5244,5074.05859375
60,1015.82,2135.2734,4932.7524,-654.8096,959.312,-237.60962,4053.0546875
61,1290.4968,1991.7311,-1308.3562,2037.7664,-700.14124,540.7574,4886.05126953125
62,-1066.9916,1342.5205,-4529.006,1964.2657,-1616.3553,1866.5873,7483.20361328125
63,785.9501,1502.9923,1459.4772,975.30646,1209.3807,380.82086,2856.814453125
64,997.43066,594.06116,557.0112,-145.47592,-628.1414,651.02985,1642.47338867188
65,1300.052,2822.6165,-2871.2393,-518.26843,-427.18942,-439.73526,5291.72119140625
66,713.4134,1544.9542,2150.1199,-183.00584,-627.39,422.8365,1838.09851074219
67,534.84467,3148.6309,2197.461,370.11652,383.12228,-291.07962,2521.09838867188
68,702.8551,447.07166,-1635.3422,-30.44818,561.56805,481.10068,2564.71264648438
69,1800.7726,1495.3137,2715.3904,0.33862865,241.82904,-228.4038,1241.43383789063
70,-3.860391,768.6007,-2225.4033,560.2791,259.46133,-224.22052,2922.76025390625
71,889.73474,1616.306,900.43475,741.398,797.04755,-97.57066,2025.75256347656
72,428.84518,1403.4613,1453.1848,-110.27167,93.80881,2.7987647,1031.36499023438
73,1206.9929,1291.4574,920.7684,-167.97148,203.53328,418.05508,920.035522460938
74,1454.5471,1031.5809,-3.4151113,29.324097,1095.6852,-817.2279,2701.0419921875
75,1780.0065,1192.1727,661.5057,-726.32184,594.9042,-1069.6345,2648.73876953125
76,266.32336,-572.1678,-1440.7172,-461.34885,-18.614809,189.71497,1712.67614746094
77,1070.275,-451.212,-4162.7056,-51.436268,1086.6296,-1909.2948,6018.60009765625
78,-191.43588,474.1481,1825.8119,-1155.8756,-215.06696,-711.09564,2972.12377929688
79,676.7389,-5814.656,-11665.597,1425.3146,-227.03987,575.9745,11027.099609375
80,1586.6567,1574.8285,-1630.119,-120.222015,75.082275,359.49118,3279.89477539063
81,-67.58364,3182.03,1704.2706,-1510.7725,-745.74225,-416.79813,4120.494140625
82,-548.3182,4229.255,2297.0657,-608.3295,1109.601,1721.1879,5569.4423828125
83,5265.8965,6371.871,9829.494,-2376.566,-2551.6514,263.76498,7327.2138671875
84,-1365.7014,-6412.6,-16437.707,3353.4548,708.86346,-1797.307,14883.0458984375
85,1899.3042,3713.6333,2318.1555,908.986,1610.2067,2195.74,5237.19189453125
86,1470.4391,1345.3033,419.96506,466.46994,-533.5543,2138.4158,4026.5361328125
87,-1501.0808,8817.318,1886.5073,-2233.5227,-1562.6532,-4618.034,13010.0302734375
88,-1763.462,-2833.7026,-7435.3267,-780.95264,-1241.2521,-153.84885,5811.0234375
89,853.4422,-300.86588,-4432.005,-1154.4291,646.0157,762.41376,5491.93017578125
90,1052.5338,86.17897,-3416.4492,-771.8819,-561.40356,1425.141,5041.13427734375
91,2879.0225,904.2136,923.22906,-1519.0431,-40.34918,162.13422,3296.8017578125
92,118.565155,1520.1858,772.1519,-1106.1357,42.793594,491.81097,2424.3291015625
93,1474.4998,57.114456,2648.6418,-496.04382,-883.9962,-281.69806,2893.50805664063
94,-2474.2754,-1424.8403,-12051.622,-951.9594,278.59198,-440.9784,10315.6484375
95,1491.1812,1088.2434,-193.20174,-1002.5107,-234.28726,-363.207,2428.23315429688
96,2046.0177,1883.443,-502.35458,-671.93005,-401.03207,-558.84625,2979.9677734375
97,2285.5713,3410.7747,-148.5652,711.333,132.48688,634.9985,3565.15258789063
98,899.97253,2689.0283,-765.361,785.4216,152.5251,351.90326,3353.4150390625
99,1483.1602,2205.4824,2404.3105,-600.70044,175.67374,-592.4896,1712.64086914063
100,562.3778,1796.5162,-608.997,267.57806,-344.16214,947.9144,2758.00952148438
101,4776.541,481.95563,7466.4346,-560.00854,-388.83008,520.57733,6279.9970703125
102,2283.9495,820.87274,-1179.2484,-4068.595,1953.097,339.9996,8397.521484375
103,-5856.642,2398.6602,-23146.107,-1512.1318,8131.7295,21.034052,26740.2578125
104,3728.293,-743.5927,-4414.6387,1424.4089,414.0653,500.89337,7566.02197265625
105,2373.0457,949.2471,6628.031,-249.30746,1059.5587,-1727.2539,6220.53173828125
106,47.497665,1042.7949,832.8418,-1107.0502,-319.73346,-341.01968,2271.11938476563
107,2236.9668,1253.3876,-1562.0358,-150.75195,390.86365,-1149.7208,4019.36596679688
108,1747.1577,1187.9928,790.61633,-251.45052,1225.8187,-628.0803,2563.94311523438
109,2465.357,1099.6763,732.6906,635.78845,282.47342,1287.9889,2988.26831054688
110,-808.7521,1128.211,614.6298,-148.14117,-1034.5842,233.83278,2542.00073242188
111,-1101.6309,782.56006,-2427.3425,-184.05812,175.68025,1151.8733,3461.24829101563
112,1585.5975,658.0701,-227.63991,444.93893,321.0587,-2434.1235,4598.29638671875
113,1240.0757,2100.3335,203.19199,345.45465,-453.78897,-559.46857,2149.87524414063
114,894.04065,1908.3293,-910.0023,-572.38696,-48.89521,3.1356921,2665.19311523438
115,1211.3167,1071.71,-814.96783,-788.49945,97.066376,607.2575,2615.75634765625
116,1052.493,1366.2273,496.0279,-141.13277,-76.79852,-370.9372,1035.8076171875
117,313.53238,1322.182,-576.2259,302.93903,-259.73413,123.6307,1797.23498535156
118,1543.0625,1050.4279,6732.5044,-250.67549,-2529.5657,2309.1978,8069.1572265625
119,1705.5621,-1072.821,521.2131,-163.35468,-93.66394,892.98303,2886.19995117188
120,2807.0398,4757.54,21775.994,-1448.7808,-2852.1267,-3223.1636,19710.24609375
121,-5302.7046,2891.3726,2984.6445,37.466976,1474.8074,-840.6175,8750.15234375
122,2762.2297,1851.1635,12280.058,-1485.9065,1954.6257,2187.873,11512.439453125
123,-650.33435,3726.4954,1674.5771,-864.37115,712.6127,783.5246,4471.3203125
124,-2505.3572,733.6206,-2961.8767,170.09401,-157.3045,-263.7423,3542.28100585938
125,-71.20357,2515.7107,-348.11148,1359.4296,-110.474945,-347.95502,3664.576171875
126,-1844.0454,614.4352,-617.6588,755.6638,-446.94742,-758.3621,2927.59497070313
127,2590.1238,1605.5872,-1038.0713,922.73395,-1526.1769,-241.32834,4503.07666015625
128,-757.3251,-6788.114,4260.9487,2163.7136,1320.1924,3845.9148,12468.541015625
129,870.10254,3912.717,6357.983,357.369,2097.578,-1567.5151,6605.35986328125
130,-844.5497,-1466.8472,-3744.0042,499.86823,-1836.1035,1585.2583,5039.080078125
131,829.41705,294.1244,-11756.317,-881.28815,-1517.2921,-1086.2758,12834.5908203125
132,2305.0823,2126.3274,740.3487,-307.6658,-423.53885,859.7545,2289.17114257813
133,2099.4866,4291.3506,2471.5967,-3645.686,1588.2887,-2801.873,8667.16015625
134,1376.9592,78.357956,-130.10435,108.23551,1119.4287,-28.406893,2407.79125976563
135,-1545.8477,-1226.5807,15911.981,1587.2218,-2625.6033,-1271.1447,18231.583984375
136,-8066.108,-4168.491,-18406.16,222.31544,921.264,1666.8092,13169.619140625
137,-756.67474,1031.234,-1645.6606,1410.7434,942.6982,669.36523,3944.25146484375
138,-3660.4026,6522.705,1672.8328,1928.9484,2445.3674,3354.4236,11861.2236328125
139,3267.2087,7916.671,6985.918,49.18615,-705.06177,-54.215744,4434.37841796875
140,3512.659,-305.42722,-1212.0701,-1057.96,1131.6407,-166.81042,5113.17626953125
141,2312.9456,-31.881628,6358.281,628.8574,-3288.6208,-628.0992,8134.0986328125
142,391.1077,840.3654,1541.3822,-705.13885,-136.76852,-516.7726,1832.24877929688
143,1301.1486,-4.2607617,-1154.1788,121.949554,-277.24503,-745.4511,2543.58422851563
144,3231.3806,1358.6859,1713.1265,118.807686,536.08246,462.06924,2124.5888671875
145,1848.2527,1816.5725,-672.02924,93.32331,94.410736,-89.619865,2519.90966796875
146,1488.4381,146.19106,-495.8043,-544.31647,-470.899,563.10187,2362.37841796875
147,390.74664,1303.3334,-2742.3367,121.72292,-675.39056,615.1854,4007.05639648438
148,1746.9127,1284.6707,-879.1971,187.08026,-1214.2885,-1140.6898,3785.2646484375
149,2447.6672,4298.6733,1939.709,-293.8828,49.67994,-469.0932,2356.08349609375
150,-389.4103,3178.61,2077.3035,267.49078,-125.20174,497.46347,3319.37524414063
151,1120.4215,4937.4966,24817.994,-1941.2969,2985.1,40.560375,22885.2109375
152,2602.578,2089.8228,505.7962,-1231.7092,443.6793,-321.05795,3005.89208984375
153,-2021.9475,2575.2542,-6130.594,951.11707,-2567.3682,-733.70734,9000.361328125
154,2453.6033,1204.3602,5873.26,-1008.38916,2773.0312,-1075.4531,6864.1162109375
155,-2004.7448,2068.2878,-4302.9214,1613.0771,-3089.3857,1117.2577,8450.7705078125
156,130.70139,1791.8121,3873.8755,-1571.1678,-353.4994,-978.6451,4605.06689453125
157,1836.8475,4447.8237,-3050.4575,-327.44272,-634.76227,-630.2739,6796.009765625
158,2532.5144,1782.1558,2633.6067,-64.41217,1037.2576,892.02374,2505.27221679688
159,1735.2871,2611.1655,-2887.03,254.95667,-332.43375,-1440.9594,5739.09423828125
160,1199.4547,800.60205,-2082.9485,245.0497,-321.18683,1015.74054,3634.40161132813
161,1449.6702,2386.1262,-248.8229,11.778467,-122.08824,861.91296,2761.55883789063
162,-1352.1079,926.3006,2445.398,1928.4473,-1337.9491,-1069.7582,5560.58642578125
163,2291.7483,1854.6324,2728.0847,-1220.1165,-1052.4528,-305.65094,2939.63940429688
164,4634.7065,-633.0388,6876.872,409.37927,-1696.7211,-934.6032,7506.49169921875
165,5447.6113,2406.766,6721.0156,-1417.138,167.85962,-2029.9225,5762.955078125
166,4314.9346,2207.7595,11194.765,-932.8129,2020.0848,-910.0313,9143.65234375
167,567.6082,-1736.0331,-3551.0222,-278.16302,-290.4554,216.81113,3661.73046875
168,1188.3914,7995.271,8147.713,-311.50537,2696.9604,-1982.32,9016.3828125
169,-2659.5151,3494.3203,-3751.563,-2085.8826,-1497.0587,-257.7128,8109.13427734375
170,3071.0166,4880.716,6504.196,-2229.409,1091.7899,2301.9712,6575.16015625
171,135.70697,1289.9998,2532.002,-1705.0292,-1497.8605,-1151.509,4872.23193359375
172,2067.6174,-511.8695,-953.78516,-1296.2719,-528.7284,1146.5735,4220.482421875
173,2481.3464,1795.2357,1093.1473,-1812.1047,692.64233,-1955.0883,4919.64697265625
174,6204.603,3878.5164,22497.07,-6413.9863,-2274.3228,4499.899,22548.513671875
175,-2475.7246,-2802.0833,-4175.494,1180.9824,1407.8292,802.11383,3808.0517578125
176,3175.0015,-2443.791,16367.196,-637.165,2234.3381,904.5124,17273.626953125
177,568.7501,3655.393,2064.038,1495.6241,16.170227,1104.1726,4185.3173828125
178,1152.2736,1348.5007,-2015.6613,25.2299,416.8724,-135.42259,3357.71166992188
179,533.7827,2236.6023,4021.8716,-46.502026,-133.34262,-200.90382,3050.85034179688
180,453.38647,1938.8746,2739.032,290.92798,516.54083,-1097.4489,2950.1005859375
181,-33.675957,730.94836,-2188.1895,-284.8699,-658.67456,-14.976263,2901.6640625
182,2745.9995,5559.1094,1840.0748,-3746.946,2619.89,-1507.4325,8989.443359375
183,2485.3062,791.6173,6081.362,-607.8521,1671.5065,-453.94165,5656.787109375
184,1578.6025,1927.8422,-3038.196,-1006.0193,222.62302,-2.4036176,5121.9228515625
185,1689.898,1634.7295,514.1288,390.21417,-186.97809,636.54456,1760.07434082031
186,2281.3503,604.6508,-377.27826,612.49194,124.93468,-1082.1993,3179.2509765625
187,-12162.299,1577.9973,1173.8613,-1296.1487,-1652.8561,2520.713,14686.861328125
188,-3492.2769,-6257.3506,2231.369,-1516.216,1796.8776,1815.905,9094.3740234375
189,167.2012,-596.5042,-942.5548,41.910362,-470.36044,356.9296,1420.72521972656
190,330.9566,-620.27094,-405.3819,-154.71332,-286.84793,86.38928,1042.90258789063
191,-2407.0793,-466.9906,684.3678,0.3338941,-965.72363,486.668,3291.15673828125
192,1125.0856,-1706.2856,-7371.185,1911.4487,238.77977,2187.745,9035.365234375
193,568.37115,759.6589,218.33751,-1750.1428,898.7113,383.86334,3504.30737304688
194,-1108.8981,-937.03107,-4400.528,1368.1974,415.12173,127.48649,4196.63134765625
195,-2124.4033,-1298.1334,-7634.0596,1674.8262,-1413.0408,-904.17554,7242.18701171875
196,898.20105,-2687.2703,278.42908,-116.87877,-640.5396,393.6837,3571.3251953125
197,572.3108,96.72512,997.7922,127.82212,182.1707,662.37915,1440.27124023438
198,-3419.9526,-1115.1987,-433.50903,-549.967,924.4665,723.98926,3520.15698242188
199,2725.8867,-1173.581,-2590.5994,-679.86224,105.63142,336.08322,4949.58349609375
200,-227.06487,-416.94937,-377.11774,-743.8108,785.93866,-189.31557,1910.61828613281
201,2326.5706,146.81833,2996.4397,-170.48828,15.580565,1609.4058,3810.3388671875
202,-1073.0098,-1637.8563,-1714.4965,722.6783,72.53796,-568.15533,1708.56481933594
203,392.22134,-2235.9285,-818.9658,-362.63364,259.73215,406.61258,2506.76245117188
204,1043.3969,-683.14905,35.70467,260.79907,-496.5953,-29.866985,1789.72705078125
205,982.8201,-373.78433,280.62802,554.64307,-883.6795,748.17004,2515.09106445313
206,2071.6677,-630.90784,843.9095,16.868057,-149.81648,-64.75974,2360.9248046875
207,766.69244,-1190.2333,-1032.1309,71.90861,663.5798,-751.4057,2564.27734375
208,-2406.7522,-3452.9812,-3245.6543,259.28235,845.03687,-97.43455,1814.68798828125
209,1114.8463,-1740.0016,1124.2272,-703.80383,-829.85834,-234.06636,3448.68090820313
210,-908.0715,-4013.5962,-529.74713,104.13094,594.18225,-70.732155,3474.04760742188
211,1241.0944,-3301.4055,3773.5068,201.78438,-1201.2526,249.08327,6571.77294921875
212,3276.1746,-3435.885,-446.92596,-1222.3682,-2379.9902,1593.9235,7938.57275390625
213,2518.7002,-2883.8064,1615.3938,-930.6077,-803.45795,1047.0435,5739.90869140625
214,2057.9607,-2741.7322,-1901.8616,-458.02927,-665.39496,-162.764,4663.51953125
215,4247.023,-3160.6965,5432.3604,-3223.4067,-1556.1875,2206.9387,10867.74609375
216,-3769.7239,-2368.9126,492.41043,-5164.2617,525.4438,-844.22986,9855.6005859375
217,3152.8545,4720.7417,-1615.8778,137.73888,1769.3728,-735.7705,6614.29833984375
218,-5913.77,1614.3364,-561.4866,-974.953,-1657.6082,-2021.8585,8269.5283203125
219,-6152.1367,152.65192,-2169.2317,236.14003,542.0906,-1574.299,6243.92822265625
220,-903.2547,2759.7515,-504.07648,-3188.2559,1077.4729,-227.63356,6800.5869140625
221,-3547.2346,-344.9544,-3473.7466,-1966.8412,459.9715,35.329,4718.9541015625
222,-1701.5536,274.28882,2064.5054,-1464.2031,310.3336,-951.9583,4481.66064453125
223,-4720.4,2026.4598,-4382.9814,-2427.5076,470.47437,1123.5791,8092.41357421875
224,-2598.0713,496.22427,-2914.494,-1232.9875,414.5471,-76.895004,3968.369140625
225,958.3197,774.5589,3336.4963,-1153.8057,273.96307,778.291,3487.50463867188
226,-1514.8724,2358.6453,551.03845,-635.2032,586.06195,14.577107,3675.76879882813
227,-4056.5898,-783.023,-4113.4873,-282.62878,1005.38226,-76.19384,3767.64770507813
228,-3795.6462,3853.1665,-5341.6357,-1405.4806,-95.699425,1011.75543,9041.236328125
229,1155.3733,2819.152,1903.6965,-2028.564,-1534.4531,774.6458,4826.19775390625
230,3976.6033,-1102.8286,15016.697,-391.71362,1064.1104,244.45135,14415.2109375
231,-1247.7733,1642.9954,2822.0413,-1268.355,48.696297,-214.61893,4257.5244140625
232,-30.475302,1590.8582,1793.7233,-345.28583,-657.386,-896.44867,2657.7783203125
233,-2101.8237,421.79086,-3053.5913,-938.7818,-1188.4025,-841.53656,4322.24169921875
234,-580.95233,1180.3773,-197.33011,-223.63417,-468.54254,-117.73627,1850.400390625
235,983.0578,-275.26392,20.906214,-378.44757,351.4012,124.57483,1464.61120605469
236,914.71716,1504.7233,974.8978,328.6668,695.7556,-456.73315,1648.73608398438
237,347.19415,-90.72809,653.7437,-214.86275,142.30717,-62.029697,794.221923828125
238,961.22986,329.5187,1607.7473,222.3723,452.28394,197.82582,1450.82458496094
239,1335.9003,1636.8965,1900.7949,111.76665,-159.79779,175.78127,668.170654296875
240,1254.9929,345.2165,-2193.4167,28.282618,-72.533356,499.4576,3216.908203125
241,1044.012,699.93646,-306.18842,-788.77734,-249.22095,-510.44943,2076.38549804688
242,2244.9058,254.20918,249.798,865.6923,729.76373,306.29553,2845.884765625
243,457.77335,-60.185112,-1184.1666,-101.540764,-214.935,1964.2102,3722.59033203125
244,795.14856,16.112827,58.443428,457.20148,-155.63791,-362.9652,1292.56018066406
245,-461.57465,1106.2994,-102.40735,163.00545,301.94968,137.09572,1560.03845214844
246,1991.2369,-375.2168,-762.46747,-257.39822,-1318.0608,640.4149,3647.94262695313
247,1152.9054,907.8216,-297.1591,392.6449,-88.78818,38.214153,1515.88488769531
248,2046.6272,452.53284,-1477.3268,-84.10931,1369.5298,-364.62204,3922.853515625
249,64.57663,369.98407,-1827.057,-253.51543,-1222.7933,19.718626,2988.12939453125
250,1121.2931,305.64734,-560.881,-211.53532,-604.29645,812.2276,2309.07641601563
251,3131.0142,-265.54184,-1592.781,-938.7096,1160.5599,877.53284,5176.93115234375
252,678.04254,-2264.6416,-14557.052,-701.47845,1899.5006,995.4679,14533.0244140625
253,2163.1257,955.4407,-2125.4512,-749.4198,-13.38923,68.62566,4046.072265625
254,1197.879,-297.49118,-6823.323,-1420.2711,263.46335,603.0189,7869.67529296875
255,1602.2869,-2318.3599,15025.111,89.25864,-2076.3015,82.14238,16160.0458984375
256,1438.676,453.72754,4697.752,-1501.1042,236.51833,-2147.688,5963.822265625
257,-3467.3545,-3088.2803,-10805.162,388.9342,-1000.3356,-2600.9143,8973.2255859375
258,181.30193,-1890.3591,-8161.326,136.78851,131.83,950.376,7708.82861328125
259,-210.92883,-2802.277,-898.41486,-2054.1274,-1146.491,1858.8655,5689.81494140625
260,-2234.2522,-4292.965,-2542.9255,977.5315,753.60144,-1508.4396,3885.193359375
261,-3748.3623,5859.28,1626.1045,-2237.4595,-2379.3318,1140.9171,10269.5244140625
262,-3499.8748,5691.7534,-4255.9556,2606.3882,-612.96124,158.1906,10657.8291015625
263,-2551.018,478.7081,-37.124695,2320.2861,-992.9298,-2571.9612,6843.70947265625
264,-9464.751,-3682.9248,-16476.354,1701.0438,-4265.358,2147.6357,14150.24609375
265,-540.00037,-701.6072,4290.589,-1327.0157,343.504,1600.8531,6120.98486328125
266,2954.3235,-58.446255,15397.796,-1066.7876,2846.399,-1227.752,15285.5576171875
267,-4696.6333,-5338.6353,-13642.687,-1592.9819,-1729.426,-2380.327,10405.9619140625
268,-1031.0221,2676.4592,2303.5498,-2684.5042,-571.6818,-73.89825,5926.08251953125
269,2120.9385,-2852.8892,4661.2173,-3433.2532,2588.3108,-1486.9591,10291.7333984375
270,167.30193,3487.756,10566.011,-336.4008,563.8879,3096.7424,10709.48046875
271,-3709.8833,2164.2263,-1740.4697,-439.44232,-303.8467,-582.7331,5356.32666015625
272,-2308.3386,3248.859,2081.137,183.34673,1197.6594,979.5328,5747.9755859375
273,-1646.2754,1447.9799,3552.8208,-1399.5385,193.76137,-257.8274,5167.77197265625
274,-1842.3551,277.4289,-2407.894,658.4702,-1369.971,-1301.3079,4245.416015625
275,-1580.8593,2554.826,3696.6477,1556.9235,898.61163,-140.49739,5734.42431640625
276,-602.6925,1453.7228,4012.492,1428.2452,380.17075,-694.78906,4903.0068359375
277,-1838.2488,-1319.5942,539.10345,1117.0687,1249.642,-818.2377,3889.0439453125
278,1659.6648,-3705.7603,-5054.0254,-104.624,-9.130168,-234.60622,6167.48193359375
279,812.14276,-1621.3673,-227.64655,-718.17096,-726.1375,755.3038,3051.78344726563
280,-2997.7056,489.06717,-4070.6772,-1317.1979,162.02686,-1926.9661,5785.62353515625
281,-3871.647,561.554,-3952.2168,328.8821,-481.9313,-625.0756,4712.78759765625
282,446.65662,-198.77032,-234.85463,-77.263794,257.44824,265.8047,932.669372558594
283,151.10995,-133.21596,-2266.0261,64.80474,137.7527,878.8109,2760.90307617188
284,2296.1865,957.7803,1900.4115,-450.8793,-473.84976,-1348.941,2856.6875
285,2038.2054,718.3839,3130.5637,-1407.9114,-306.37326,-80.71742,3259.5517578125
286,-442.55814,93.38018,-1628.9081,-416.85287,336.2548,-96.90556,1794.19604492188
287,872.0087,1939.6514,5150.8647,634.2144,248.76701,-86.17973,4036.68188476563
288,-4473.35,-1543.4973,-11542.885,-1903.7886,-319.00516,790.8323,9608.841796875
289,326.417,-3636.5732,-3219.0095,-258.26175,1058.826,829.5939,4455.66650390625
290,-2400.6416,-1430.186,1997.3484,1964.664,-422.81067,788.82806,5477.1171875
291,-856.68585,-2132.587,-758.16077,-143.96913,917.121,204.24712,2115.18408203125
292,2741.4353,-1308.1532,285.60022,401.06128,-288.15417,63.9586,3637.18188476563
293,1258.8832,-1186.8859,-1087.3418,391.29474,554.25073,-711.88043,2940.99829101563
294,682.3126,-1335.1445,1146.6453,1353.0872,389.48413,-491.35333,3448.8291015625
295,802.1168,146.62135,-690.7036,-18.479265,-239.32884,1062.5253,2288.97119140625
296,1848.9623,422.84088,-15.245408,-331.74084,690.1058,-693.4343,2460.07177734375
297,-365.29764,-668.62476,-1746.5013,-1022.16315,2094.7932,1077.8644,4622.2373046875
298,850.76483,726.9744,422.6349,-247.18344,30.638285,-51.422222,582.811096191406
299,-7090.061,5792.458,-4253.1147,574.5598,-1992.5298,311.56195,12274.0634765625
300,-6223.432,-146.15916,-671.6013,-1971.6523,-1757.1154,2252.0266,8375.8916015625
301,-4459.1455,1095.1487,-2405.6199,680.9101,-423.0618,73.93582,5060.1904296875
302,-3480.6003,-893.43195,-3596.7012,-730.6024,117.247955,-506.19385,3068.96899414063
303,1358.6461,3231.039,3520.3618,-2955.4966,-1757.1166,-2222.699,7376.97216796875
304,-901.4496,2637.3384,1605.4622,-1123.7612,605.70886,-986.32355,4212.3466796875
305,-933.50714,2176.3066,4204.1904,-495.04037,603.9661,-141.99232,4688.24072265625
306,-2734.9297,2657.9187,-2345.0928,912.5014,398.23148,795.2711,5657.1689453125
307,-703.6477,-1062.7913,3673.8333,261.77707,-3.8217115,278.58325,4615.400390625
308,-128.05632,618.64606,-3515.2876,-139.12688,315.94543,-259.64505,3888.43603515625
309,-6345.9824,-1748.1104,-14045.031,2673.1401,1855.4534,-2174.0542,12718.4794921875
310,-1734.3706,1690.3983,-373.3699,2192.1006,155.8984,275.42987,4861.75537109375
311,-620.2142,526.0876,6395.1274,-3668.6196,1031.312,2450.111,10201.15625
312,-1266.9528,-280.1934,5751.558,-822.77856,666.478,-198.5733,6840.27587890625
313,-2625.992,210.58539,496.3064,1927.0629,-1296.2269,-706.55695,5159.19287109375
314,1269.5674,-414.4746,3098.7605,493.1381,-178.19121,1130.165,3730.8193359375
315,2446.7222,-884.5341,1860.9061,-22.691383,1110.7872,-1507.7716,4473.4951171875
316,2838.023,-1795.4316,7452.0874,-1338.7925,-2059.5076,-621.71906,9132.3037109375
317,-994.0083,-1929.6361,-3380.7935,742.99207,802.02997,420.26016,2907.70092773438
318,1472.8857,-417.69922,1863.5944,-1160.0526,-931.6822,243.14397,3359.20385742188
319,-420.7767,-1983.2244,1894.4564,-930.3899,941.7691,350.39517,4128.5556640625
320,1719.1119,-1296.9764,1026.8744,136.09938,-1147.8884,189.3166,3406.48901367188
321,-516.50073,-2903.526,-4024.5132,1563.8755,1354.6792,-726.72766,4904.8251953125
322,-8137.05,-16652.791,-4430.595,3587.7786,2928.4146,-2332.0095,14088.185546875
323,-7408.883,4477.611,3338.5017,-1309.2136,607.7577,-2499.843,12411.4521484375
324,1619.2542,1858.4556,4540.5254,365.9972,-553.5024,-1327.6172,3808.00854492188
325,-3262.4575,4475.4526,3177.0088,-1299.5072,659.83105,187.8541,7615.255859375
326,157.19386,-481.77045,59.300713,-130.48836,268.09885,379.47617,1026.65832519531
327,807.46674,655.45123,712.2049,187.34154,902.06866,-58.00792,1604.45361328125
328,-59.044907,72.24443,-1566.4266,-91.10683,241.32513,-373.83585,1762.44555664063
329,1530.3136,74.3714,2588.8457,-213.92987,-55.063442,-368.92776,2310.0078125
330,724.4107,791.4833,2017.3733,-547.1736,-417.9052,1212.1178,2723.84790039063
331,533.483,99.5852,767.0188,-1060.1334,-223.6743,-234.85347,2007.82080078125
332,-397.16498,-450.4542,-5083.183,48.02403,416.72455,114.427055,4720.07080078125
333,-1.4342661,1489.1945,12542.428,-1052.5328,-2210.935,2161.401,13148.20703125
334,-2456.819,-1040.8724,2103.289,2140.646,2874.5898,-370.0593,7435.748046875
335,-11382.847,-1689.2849,-15143.472,-1348.9547,-2641.4011,-323.01657,13086.80078125
336,-1244.2712,2390.289,930.81134,-1911.4373,199.32082,218.73825,4610.75341796875
337,-2377.3118,-336.6227,-1277.1293,943.96564,64.40962,1495.6837,3539.28686523438
338,-192.43056,313.57285,-867.3939,1746.217,234.19185,-1616.8792,4267.13037109375
339,-1829.7539,826.98096,-3092.1213,1332.2449,-2130.1028,-219.9117,5575.60009765625
340,131.31276,-1032.5061,-5991.7734,-2888.0376,-74.76962,85.98004,7535.365234375
341,976.1183,2076.7207,-770.5879,1194.8083,539.7413,1016.88153,3800.46630859375
342,-516.4361,842.54706,-1027.3455,175.89828,-436.75766,-983.7992,2524.05541992188
343,-1027.2588,2229.6992,166.35017,-336.97015,165.08052,239.39479,2956.22631835938
344,1207.3977,-3326.5654,224.67162,-414.70578,294.62903,579.7232,4341.83447265625
345,626.9878,196.63329,55.929207,-198.0705,-148.263,-577.36414,1203.84582519531
346,-2018.4568,-619.5355,-4765.05,-1965.0026,-1557.8582,584.846,5764.861328125
347,428.5147,720.4113,790.98694,-589.15906,258.94507,597.76965,1557.32263183594
348,385.59705,-300.3116,191.59908,633.13416,464.66324,-69.66262,1496.63354492188
349,-3153.4905,-2267.3086,-1531.1229,-1703.346,-2017.6807,1532.9833,5472.39111328125
350,-643.61536,258.8716,86.39921,780.41376,-142.89178,243.44783,1659.74914550781
351,1182.0867,5541.57,10017.201,-437.97757,167.83328,566.304,7756.9248046875
352,-438.95508,-1150.4357,-196.38939,236.64597,513.4565,48.894806,1305.26330566406
353,-1112.4158,-179.09798,-587.3357,508.68973,-423.7922,477.79123,1629.93041992188
354,-176.86565,725.21313,1529.4646,775.26953,512.43353,154.01028,2201.84375
355,-910.0083,1667.3127,1399.6847,1307.1143,2132.6013,562.1609,5073.669921875
356,-3288.5105,669.32153,-2141.7021,1844.615,-84.20461,310.2621,4791.513671875
357,-602.99493,-701.62164,400.012,550.01166,146.1223,291.6322,1530.16833496094
358,2249.5413,1635.3519,413.13916,-1004.5924,84.853485,25.271488,2381.77172851563
359,-561.52313,-1154.8943,212.51175,-385.05008,-270.7856,219.53705,1489.9208984375
360,180.33693,-1600.4955,-356.6436,-882.8572,-59.16684,55.358986,2204.86865234375
361,-1416.659,1488.8966,953.49164,227.9632,-473.08688,-20.728634,2828.7607421875
362,-812.4512,749.8677,567.15533,-1416.1357,-59.61146,136.0118,2875.97802734375
363,-431.56726,-755.5741,69.93902,-41.275093,-157.49144,-34.873302,775.983520507813
364,179.59337,-1085.6545,309.0101,-498.0944,241.34492,240.81137,1695.39123535156
365,556.26483,-1683.3807,579.01587,219.7502,130.90881,42.79055,2295.48657226563
366,-348.73602,-505.24243,354.84888,-608.7556,-124.03869,90.16217,1346.08178710938
367,-565.99524,-819.2949,-467.30276,-140.84738,239.46147,-230.17978,699.562194824219
368,71.16426,-262.54477,827.0681,-737.79486,-193.40913,-90.70232,1644.66723632813
369,216.89264,371.02194,1113.7373,654.8497,95.35984,-244.4009,1477.43566894531
370,195.38483,1040.421,207.1919,193.06927,-80.981804,-62.826096,920.647033691406
371,294.1938,721.35156,198.30914,126.87663,63.121727,-46.595734,547.151794433594
372,-351.43683,-1706.0182,373.522,-1090.5123,1.8176938,-0.013819877,2628.71313476563
373,-450.91995,-346.69937,-217.94371,-590.9977,32.19996,-35.171036,1046.66870117188
374,-1569.6676,932.65234,-778.631,728.8722,199.15695,-21.15413,2573.32763671875
375,-768.32684,548.1449,-564.6461,187.52003,234.42744,-0.45439407,1332.96826171875
376,2793.913,2431.0208,373.2909,-144.06485,98.047104,40.84431,2282.27661132813
377,-596.2902,-2954.8665,-579.2238,-799.03406,384.06143,-55.238224,2823.19946289063
378,976.076,-771.03455,-50.22265,13.369246,27.8748,37.190468,1523.03759765625
379,614.82086,-465.25244,449.50854,-77.813576,-391.62183,163.47362,1254.50219726563
380,54.65177,-527.53265,-426.97412,-315.67023,318.0642,55.187046,949.779724121094
381,-426.1615,11.25856,-499.37115,-231.21791,444.14514,10.039212,990.556213378906
382,602.09973,-138.28915,369.0121,1134.7239,-137.228,101.62583,2092.89331054688
383,-1260.4458,-493.06128,-7.365787,-24.43234,35.508694,-216.65341,1159.26000976563
384,-584.64044,237.53212,-638.6573,127.08194,20.954489,38.154026,881.720275878906
385,-451.74628,8.623137,420.49655,-808.53815,-280.02026,-35.844475,1664.77746582031
386,-995.83923,-1640.1313,-269.21762,-478.02432,-119.25547,-375.7701,1600.95129394531
387,-1286.5166,32.297394,-320.91254,-316.77457,35.130886,-172.45076,1338.71887207031
388,-273.43265,-556.1709,149.96881,-233.42868,83.23265,42.668797,754.077758789063
389,401.7663,-2417.2388,-828.009,-353.04254,170.89275,392.6788,2629.9267578125
390,-146.57346,-1916.8672,454.25662,-320.96063,-1.432547,241.47083,2245.56469726563
391,-69.39904,-894.3355,-328.19174,-356.33075,171.17644,59.474255,1006.69598388672
392,-1476.2352,1233.9908,-137.33914,-838.3728,-297.86813,80.78337,2811.33740234375
393,-1681.2794,-212.87001,515.3064,260.05652,206.59964,3.208437,2021.55822753906
394,-855.89905,284.44406,177.52412,440.09732,95.41493,242.35057,1405.15454101563
395,498.39398,-159.58185,477.19336,-430.02054,100.349976,189.01962,1054.31530761719
396,1135.5936,-273.69858,130.32947,-594.1696,151.87238,-99.45689,1654.67004394531
397,200.30833,-842.92004,800.6734,-533.2237,-52.27917,-92.56067,1721.03625488281
398,70.341484,-440.00742,-32.724377,-207.14548,35.849094,-38.408413,596.22802734375
399,-1084.3727,282.95438,-408.01782,-926.4519,224.61581,242.12012,2074.70556640625
400,-799.0023,62.28601,-805.1662,-157.392,111.546745,124.26288,951.384765625
401,-1117.7471,1264.3733,1301.9658,-385.20792,81.90566,-293.74762,2547.47021484375
402,786.7718,-149.067,207.3407,-727.7718,298.9939,-114.343636,1601.76501464844
403,-359.89282,237.38937,-221.67317,-258.50128,-21.992128,27.369371,705.309509277344
404,-98.58721,-76.40066,-326.58475,-178.61534,106.60378,-99.05908,465.591156005859
405,-31.467787,-2414.152,849.0462,-1629.2603,-20.87167,-217.80646,4081.36865234375
406,-291.1661,-1643.8212,-5.72045,-281.7936,-66.12295,43.900333,1598.24462890625
407,-2054.6719,-391.7293,-525.9086,-860.59155,-238.88194,-283.7896,2279.23364257813
408,-436.81406,512.9127,572.32623,-21.751753,-109.451904,6.626242,999.713806152344
409,824.2118,-407.82623,1507.3876,-2092.3262,-95.76426,241.6166,4020.2587890625
410,168.59572,-320.13187,454.19348,-492.9125,-98.00553,234.39091,1175.80651855469
411,-2493.726,-1917.8734,-798.87946,-1507.2681,-367.30307,39.12221,3074.57739257813
412,-289.2536,142.38957,-880.1367,-77.388115,232.65092,124.01551,1008.46166992188
413,-332.4508,61.017,-124.067665,269.83795,364.7521,69.987206,865.166381835938
414,-674.19415,-278.0299,526.49194,-155.91467,40.49422,45.52597,1098.63073730469
415,-1915.1033,-1901.5305,41.678017,-371.37033,-206.99008,399.2554,2196.1591796875
416,-551.7506,-523.303,-194.77243,340.14062,98.251076,113.16333,729.761657714844
417,706.8179,-625.7725,-306.18344,-148.55157,-28.597181,-82.27203,1241.37634277344
418,-3103.795,-1798.7777,-1578.1855,-317.6685,316.5129,68.306885,1629.99572753906
419,-712.20135,374.1721,-298.30875,-418.27695,408.51096,5.6836987,1388.33703613281
420,-1777.0718,799.3837,-302.44458,-1001.1398,366.4812,333.12274,2959.05688476563
421,-342.98816,1162.6088,2079.0828,863.4158,253.59958,-181.65898,2648.58203125
422,-449.66208,276.9982,-4.1845827,-340.4088,-300.76685,-183.08932,1059.41320800781
423,-1112.6975,384.69315,-259.28458,-203.52557,-66.64491,-29.499586,1353.810546875
424,-1296.4742,1534.4315,-692.36255,-1125.5623,0.091933124,383.94577,3303.28759765625
425,-1724.8698,93.97753,52.3813,430.24747,28.416824,-129.37965,1960.16760253906
426,-293.72208,-307.68674,-560.04047,-335.18967,82.94102,328.5236,865.377746582031
427,-636.23236,-256.75668,-390.06033,69.54283,-46.408707,-45.292244,371.900848388672
428,-902.1256,1262.2413,89.83435,-576.98895,-40.75558,-43.98601,2128.62377929688
429,-394.08566,-23.764544,-428.3298,31.259443,-128.01535,-68.947266,466.206085205078
430,494.92517,-62.51625,-324.63272,40.758007,87.18368,14.533516,744.298950195313
431,-901.90955,-1028.4286,-563.70233,-339.90906,162.12938,-29.440073,775.405212402344
432,1542.6865,-101.58908,-251.94974,-730.6816,195.34027,-125.623344,2176.46240234375
433,-194.85469,-573.2067,-900.85736,-272.52664,507.43988,398.1289,1358.41467285156
434,-532.661,890.70483,118.97523,-261.65607,-162.55577,-20.86687,1345.01098632813
435,-276.50296,-1979.4009,-385.1044,-649.2692,138.94583,226.63792,2050.21508789063
436,-322.9407,-2567.9763,-998.7584,-621.5653,197.30515,51.81587,2294.24340820313
437,-353.93982,302.3558,1142.92,-322.7467,303.61426,277.6704,1584.06896972656
438,196.82115,-517.8067,239.03258,-176.85443,68.6269,-4.018827,806.628845214844
439,-412.18436,412.41196,400.40723,-480.01978,-135.84213,-109.02287,1205.18811035156
440,697.1522,-1636.8391,-682.9186,-613.24585,51.293365,52.57655,2296.83154296875
441,-116.84068,-316.2533,309.30154,-376.02905,319.9894,160.77678,1056.05944824219
442,-630.2783,-1256.7333,-53.8741,-1382.5103,152.52663,-3.5495932,2624.80737304688
443,552.8943,-774.90027,1018.70917,-357.45032,-372.67502,-69.94983,1847.47924804688
444,-2247.8477,-2456.8977,-496.62518,-62.192783,-123.99554,28.303848,1880.61340332031
445,-267.60114,561.8789,442.8631,879.13885,-47.08473,220.93327,1753.63098144531
446,-685.0062,531.094,-1030.5059,516.5272,289.46246,-59.040802,1755.1796875
447,-914.56323,-1221.5525,-359.69742,901.9862,87.38561,110.68466,1752.95629882813
448,636.6342,-524.51135,18.19164,-16.617964,226.8199,-133.80713,1105.22021484375
449,317.016,175.5039,889.0617,-359.43665,-158.6612,169.3399,988.60791015625
450,-1757.6619,-1353.4843,-842.09717,839.8091,140.96321,56.0223,1678.22314453125
451,54.03646,-296.09158,281.37756,-413.67755,165.57677,56.3284,926.836120605469
452,-709.51086,-25.018297,-269.26016,-169.75397,-109.679016,-42.87585,699.324768066406
453,-521.59735,-1314.3767,-593.69183,-830.59265,-66.44843,80.92225,1636.79125976563
454,-122.27908,-112.334465,-33.519703,-856.5042,7.067232,-315.7121,1583.37133789063
455,875.93445,986.4899,-69.01049,-495.027,304.23743,3.0204718,1422.13793945313
456,97.25652,131.88507,223.85396,-527.19495,80.1816,119.534424,953.309143066406
457,760.56824,-1348.4991,-326.0685,334.739,62.797295,218.14098,1956.49987792969
458,-928.3612,-2528.4753,580.78516,-317.1368,-71.37484,-146.48273,2762.98315429688
459,151.17818,-1232.5211,-259.23758,-803.065,-112.158,195.89474,1898.09790039063
460,-924.93286,-116.980194,147.76779,-906.80597,157.19957,274.33267,1924.46984863281
461,-481.5483,-441.94437,-217.55762,-316.0474,135.84047,-116.028465,675.431762695313
462,-767.7053,-425.89822,-557.6767,186.81519,257.9652,150.97041,679.609375
463,-224.90771,-589.1086,-447.85577,518.954,-464.0888,37.875355,1248.81091308594
464,-560.1508,8.975815,-469.93143,399.4319,-171.44637,-203.05559,985.5009765625
465,-246.97112,-164.04153,580.8892,1229.2656,-106.46358,89.94915,2283.66674804688
466,-2091.4575,-1258.0248,478.3673,583.94916,-143.03377,-22.749447,2498.55004882813
467,-260.54022,396.2199,333.1383,574.98865,122.97666,45.947746,1198.92565917969
468,749.34406,3357.4053,480.3395,-80.0682,-224.90895,157.20726,2796.61474609375
469,435.08276,-693.7821,692.3139,310.42538,98.96385,31.393112,1397.25183105469
470,-118.28156,-581.83954,3.4305243,-228.49094,1.0412452,231.52975,776.895202636719
471,-656.39954,194.16792,-23.98801,370.40326,262.5622,-280.5971,1200.04895019531
472,-359.97476,1046.2773,735.9878,244.34958,-2.5858252,308.1613,1449.65832519531
473,47.014713,1186.331,-502.8864,-112.92246,-237.16394,67.89558,1564.53454589844
474,507.74265,2611.2615,100.83405,816.3648,161.33583,421.5407,2838.45678710938
475,759.00287,813.19635,-205.91101,-1348.6462,130.86357,-121.106834,2556.9912109375
476,1418.0933,-786.62823,633.47406,-793.8207,-193.56036,196.5006,2421.82690429688
477,20.256939,-1171.1646,-76.46476,-483.20145,-140.72328,-7.2138405,1440.00695800781
478,-1700.0518,-127.37874,-93.92536,-128.07861,72.544914,113.30677,1621.89611816406
479,323.9293,153.81642,103.1657,-221.81227,29.080378,-5.721123,436.299743652344
480,-2800.78,35.854824,76.84949,559.2765,-48.91158,-80.17948,3021.47290039063
481,-478.50153,-537.7239,690.55536,346.53864,94.29791,-95.7454,1361.57287597656
482,-71.43537,-21.309832,147.23196,183.54117,-42.80162,81.72201,407.382659912109
483,-2620.1194,-1756.7632,-628.24066,-1213.2572,-45.812843,40.76644,2724.06396484375
484,-1825.0596,-1262.8175,-266.76352,-419.17355,307.8028,111.149315,1648.23315429688
485,43.543583,25.122044,46.370327,1098.1613,247.57347,-36.010857,1950.90795898438
486,630.27295,-1765.4307,-115.266106,664.4589,33.196163,-20.85305,2416.24926757813
487,427.38443,-336.27194,107.024864,80.26343,112.25837,353.9639,934.965454101563
488,-1019.90234,-761.79236,-651.67896,-856.8137,-215.06009,94.99207,1573.33386230469
489,-297.3942,-720.2701,204.11076,-321.5968,-128.51843,130.12944,1026.17309570313
490,-1132.2709,-905.3752,-52.52205,-160.66495,257.39368,14.022312,1117.64611816406
491,-771.0314,-1444.82,-205.22757,-1121.9789,42.269093,215.11497,2253.00903320313
492,961.10547,2396.9402,-219.99828,-592.8952,196.01292,-77.70051,2518.0244140625
493,276.16064,-1347.7345,147.6195,0.69317925,-23.617802,-216.28767,1608.36462402344
494,-1141.2238,131.28197,21.283892,1016.31244,-133.61429,185.94131,2178.84155273438
495,-1847.4625,-1195.1816,313.56464,430.7009,116.002716,41.273525,2070.72509765625
496,-631.2882,667.735,238.31546,35.020184,-233.52321,-272.854,1305.62744140625
497,87.89883,-130.19524,-773.98926,383.65924,97.96147,123.123276,1057.49426269531
498,-969.00555,1135.9288,493.90762,59.037327,-291.27374,97.69103,1945.54235839844
499,308.8445,-208.73172,237.51877,534.89844,-271.27707,-61.15114,1151.69323730469
500,-877.1701,-1181.6056,814.01935,-887.84125,138.79803,170.9537,2444.97802734375
501,-631.0431,-1761.7314,970.4512,-891.4562,33.2808,164.42119,2850.0068359375
502,-1047.7241,1436.7925,112.59596,448.52963,-6.760338,128.00803,2299.81811523438
503,69.64015,1290.3168,349.45688,58.828304,203.20522,-49.16803,1169.74145507813
504,45.12118,-526.2792,137.1833,-674.28705,-132.41507,-2.3213336,1343.19934082031
505,-1469.0558,169.35146,-333.45096,962.7058,95.8472,-92.3017,2224.16723632813
506,83.415054,2960.5303,-499.42838,-798.6309,55.739998,37.113605,3495.896484375
507,240.20885,484.9401,364.1158,1855.8219,-17.493366,108.97043,3227.02490234375
508,250.78712,3196.4949,-124.56535,-1290.7518,82.81969,67.28294,3867.30419921875
509,324.0149,-402.8074,31.085625,401.34903,-326.98727,-39.85321,1099.97302246094
510,-1759.6409,-2139.0708,-664.1009,880.27594,-97.20835,-0.039892633,2028.01904296875
511,393.10782,-1160.2908,-438.10437,391.05313,50.257397,5.3361344,1509.69775390625
512,256.6374,-243.82198,325.73413,1204.7395,109.77362,-100.84442,2170.40673828125
513,-1832.7668,1021.2429,-345.59183,-880.8054,-64.32997,144.69208,2918.10327148438
514,-537.67944,-109.00764,-1174.0802,-443.32986,-256.01962,178.70033,1320.46813964844
515,276.00916,1054.4813,-517.5598,-93.55815,257.5285,-38.15686,1443.30590820313
516,-317.57852,-631.55853,396.64957,-929.9655,-133.35007,11.702002,1865.8037109375
517,1408.9851,-943.36005,-1436.8701,-565.95593,110.29849,106.69193,2823.03930664063
518,2028.3048,207.93803,-1035.5413,-405.17633,-102.658646,-227.31433,2793.33129882813
519,-2828.3813,-2136.4675,360.68765,593.50085,165.02396,225.58978,3119.84716796875
520,-2143.5706,-1863.9926,352.82333,276.0396,-340.57748,-31.278702,2488.31616210938
521,-74.46144,734.5674,78.13177,254.32469,-96.246506,-22.695276,881.894897460938
522,-362.4661,-653.84015,121.100136,772.226,-118.48484,148.06873,1535.0966796875
523,-441.42627,-371.08768,389.89456,402.96143,-61.51481,-5.415672,1065.89953613281
524,429.3291,739.90356,-540.22473,1241.8231,19.888515,88.142395,2447.13671875
525,-1289.7687,-272.8381,-466.2346,914.6252,52.899647,111.41124,1852.06091308594
526,-799.926,-1551.3635,-283.07373,25.853155,-77.90744,-121.83789,1133.544921875
527,-734.4477,-549.93225,94.634,530.39124,-1.5523642,40.67232,1190.52868652344
528,-381.0561,1570.0958,-61.829254,-8.424373,19.724392,17.755909,1813.38513183594
529,-416.5141,517.9004,-307.72827,69.843346,56.335384,111.29559,919.037048339844
530,-781.22437,3531.435,118.13074,678.6024,1.2332255,-214.11687,4128.95947265625
531,-1243.5271,1558.2977,163.76762,1560.1483,-79.08728,195.29214,3650.07885742188
532,1007.8795,-211.25839,1508.2979,121.66865,-88.88485,-1.6755947,1553.99951171875
533,1421.9579,-722.84814,998.9369,803.43854,104.7696,162.57283,2433.22875976563
534,740.8901,2713.1504,242.49124,-2177.1409,12.02017,24.941093,4398.10302734375
535,-724.59283,67.34788,-512.1487,2332.546,146.5143,30.504591,4110.177734375
536,-866.992,-422.06235,-833.1462,1744.8419,145.7014,-55.91785,3064.39819335938
537,439.35364,-526.0772,744.43,-439.00195,-190.8034,155.41515,1442.04919433594
538,3466.5369,-631.2614,-719.7524,377.21075,-55.41151,-130.16277,4201.10693359375
539,-1008.45807,16.82328,-163.3541,-1358.8403,107.96784,-20.746134,2544.51098632813
540,3672.9421,704.2117,-183.92918,204.49425,176.11209,27.56234,3529.81372070313
541,3738.6277,-1701.8386,-654.6116,-2657.2651,-2.3927238,-234.681,6807.81689453125
542,3210.5254,-1185.5988,-370.05792,-1883.9283,-15.233724,66.09823,5202.61083984375
543,3388.7834,1767.1182,-133.23187,-55.92776,-76.979965,-29.531713,3058.20825195313
544,2880.0376,841.33453,125.54692,-823.9463,203.10114,126.05257,2887.216796875
545,-1412.7194,-269.34598,-423.45493,-1853.4843,-311.17496,70.16734,3430.20703125
546,-1464.1945,-4175.742,154.78108,-100.741646,-73.35341,106.447845,3800.53735351563
547,121.86173,1307.7098,29.53013,-367.2654,-283.8912,-131.13832,1490.73083496094
548,1887.3912,-489.05566,1113.9747,-779.3183,109.43668,248.20326,2539.7724609375
549,2750.4883,507.9223,1034.2849,-749.4522,-11.671543,-215.86841,2439.466796875
550,1372.8191,1621.7787,119.399734,507.0513,-18.018597,32.901283,1649.42907714844
551,1415.4882,1904.8894,485.78613,527.00916,123.478,-1.8407414,1561.35302734375
552,-1791.265,-3098.188,-42.120663,-935.9296,-241.41722,-254.26532,3170.2119140625
553,-1544.4436,-3250.5078,-104.47383,-757.2027,160.69955,162.00844,3052.3974609375
554,1076.9244,-1053.3296,-32.943264,164.59323,89.525894,-96.24594,1881.11560058594
555,796.4382,-2158.086,28.174847,556.6913,293.05344,17.967098,2870.17651367188
556,621.8345,1290.2391,-272.036,303.39795,-146.48785,82.24465,1484.60632324219
557,855.3174,-1334.9839,-364.29062,-527.74194,65.27615,-15.479366,2112.484375
558,-242.66403,1630.3317,-604.0361,793.54865,-108.451904,-84.00775,2502.232421875
559,869.6341,-1558.6625,-352.16144,-242.69826,-115.569855,156.2298,2170.83544921875
560,723.9391,312.16586,-524.98126,323.13135,-21.896578,-18.63535,1237.25866699219
561,-381.8724,-1493.4657,185.9521,272.90497,-164.01219,128.68698,1594.69958496094
562,-1203.4504,1661.4196,-295.83905,1675.0265,132.32712,294.37598,3893.673828125
563,868.7364,1378.6354,498.47894,1303.1388,31.669622,-49.492218,2385.52954101563
564,1482.7844,2619.6162,511.8952,-1550.3845,27.50983,-126.68577,3255.8017578125
565,759.805,1614.082,417.71268,-580.6006,-248.33295,-110.9498,1540.22277832031
566,-984.7616,1131.1288,-94.78441,-153.52382,308.7508,83.30427,1939.96557617188
567,-679.4944,759.79114,-104.49776,444.90552,164.10118,60.3537,1503.36877441406
568,-78.82012,-321.34863,256.4208,-533.3646,-2.4415662,-172.23734,1093.14245605469
569,-488.9096,-502.86316,234.30696,754.8204,147.86221,175.79663,1549.4814453125
570,-415.40475,557.4356,-455.34467,-168.22493,267.09033,162.59079,1168.36926269531
571,520.2042,-15.480728,580.4642,-299.41476,-194.42468,58.32306,845.828125
572,-685.8841,148.41458,-505.2825,-617.51715,94.42168,180.17105,1358.71594238281
573,782.67255,302.0211,196.92744,-307.32294,-104.48991,199.48187,853.264038085938
574,-106.22114,17.422104,355.74316,111.513916,176.48271,-72.19282,563.879272460938
575,676.5906,-490.19772,82.45827,-1224.288,-4.771124,-244.40935,2386.85571289063
576,-277.3339,8.995871,-181.74915,-745.1545,183.9988,33.664543,1354.43151855469
