Element Label,S11,S22,S33,S12,S13,S23,Mises
1,26619.52,20638.857,39266.906,460.6106,3372.2683,-1578.9854,17708.673828125
2,35861.074,37831.64,40830.19,-366.95065,666.9017,-224.63118,4546.7451171875
3,-85216.66,-85599.19,-115673.766,7485.653,1716.565,-4363.2573,33914.44921875
4,6232.414,29717.225,1201.0078,-8332.186,-5086.186,2004.1089,31511.048828125
5,61412.83,25390.168,48890.51,-3922.2637,-2172.8223,-6209.8247,34341.73828125
6,53172.06,52849.152,70988.0,-3804.5679,-2462.3257,716.49023,19657.52734375
7,-75678.73,-77200.56,-110003.32,4114.6626,2771.1445,-1514.0242,34770.1484375
8,86838.92,70806.625,87434.72,-4424.6025,-2216.0376,3867.5598,19628.533203125
9,1099.9668,5941.303,23128.098,-7260.345,-12277.612,-11644.817,37672.19140625
10,-124188.97,-128613.65,-107135.07,2553.7756,-7647.2793,16935.352,37964.42578125
11,21738.75,39175.887,29027.11,-2000.569,-3099.9182,468.16333,16479.642578125
12,-24444.486,-57080.637,-58746.895,21.967615,5591.9746,-6974.1606,36905.33203125
13,9516.026,42209.754,20819.178,-5350.6724,-13030.992,880.5405,37745.65234375
14,-90305.74,-90852.97,-107242.516,-4998.434,-7922.565,17890.219,38746.86328125
15,89387.31,90482.24,88527.34,-55.91288,-605.9917,-65.470116,2000.98425292969
16,10554.973,7519.238,17252.346,-267.1774,-915.77295,-8922.252,17775.03125
17,-3612.6758,-2371.199,-21868.717,-9924.775,8850.395,6369.051,31775.384765625
18,-4336.9453,12156.975,-21142.283,7998.408,9428.546,-9446.256,39471.078125
19,432935.34,434835.16,433596.25,325.06772,-444.60214,318.01483,2000.9765625
20,59695.395,55344.414,39790.246,2659.8267,-5666.258,-18064.814,37750.43359375
21,54383.86,30415.854,28209.54,-15574.948,-1515.1096,2097.4941,37148.83984375
22,20070.01,12706.226,33595.855,5017.827,-5638.5615,8564.54,26976.751953125
23,-39554.76,-35869.363,-60590.8,8993.66,-133.25528,5272.395,29321.130859375
24,-42772.668,-48332.496,-26007.197,-7724.5776,7995.335,9594.243,32436.671875
25,3369.3022,19299.014,11171.564,11549.02,550.2767,13903.76,34224.76953125
26,-26693.03,-30978.322,-35017.082,3107.807,21795.037,4626.1274,39626.15234375
27,52703.438,36761.758,26406.049,-5702.753,-10963.303,8069.6797,34350.69921875
28,2581.7688,-17676.104,-29874.525,-812.6974,-14850.967,1133.9683,38389.96875
29,-111708.55,-71654.27,-107490.336,4022.4048,4499.167,-1629.9839,39628.5
30,-12005.685,-23890.795,-28639.303,3577.9338,19834.604,7589.4526,40145.7265625
31,-7842.865,19070.531,23671.785,2407.8894,2.5909698,14234.389,38659.86328125
32,35701.152,13498.044,13753.033,-11937.63,-14672.104,-2073.8643,39668.84375
33,22383.521,11107.722,21471.812,9503.014,-14828.63,13333.317,39769.50390625
34,24424.607,38628.047,62429.723,9638.157,8498.016,-533.4714,40031.3359375
35,34306.227,45795.848,72035.31,4444.352,-1021.91895,3797.3699,35037.8671875
36,7748.449,-14891.836,-879.89294,12511.193,-2641.9526,-4079.1467,30530.814453125
37,28429.598,19568.125,9848.962,4617.2705,2663.7158,9616.1045,24935.236328125
38,5656.644,-16436.348,-7332.262,-1428.5409,-19115.938,-3446.8696,38831.3046875
39,-5010.4434,-17560.885,-19247.848,12934.863,689.9555,-3352.4023,26806.85546875
40,13635.624,465.77686,-9912.396,11236.677,-5223.938,-1976.1553,29836.2734375
41,3295.1523,-13640.433,-18077.863,-8000.4937,-13129.382,3829.1348,33686.91015625
42,11244.981,-7399.1816,28282.227,-1056.2617,-9393.783,1458.5859,35071.0234375
43,327220.44,327760.56,326817.53,-177.08954,-66.05381,-518.6816,1259.345703125
44,265411.8,266259.06,265641.97,-900.17053,341.90628,-464.22745,2000.98645019531
45,50472.926,49882.19,48456.285,-125.68891,312.55838,382.51782,2000.98449707031
46,-136617.69,-120342.34,-139915.5,9749.193,-7155.4224,-14087.318,36926.0546875
47,-842808.2,-843925.44,-841933.4,247.56964,-120.13682,-446.59933,1953.57421875
48,67722.93,61892.18,34174.66,1417.5477,-4185.0776,-11942.722,38083.21484375
49,-29524.56,-24056.637,-43388.81,6323.8506,-2573.8699,-18547.545,38338.05078125
50,-28711.55,-25401.92,-47879.1,17940.637,-1918.7684,-5092.629,38681.19921875
51,-17837.658,-61447.527,-47900.08,2466.4973,1028.4003,-3859.7747,39505.30078125
52,-27663.383,-8227.608,-16962.916,1765.5374,1893.0132,-19557.682,38103.6484375
53,-9848.346,8843.943,-18687.617,4448.2847,-10353.145,-14017.325,39536.58203125
54,27535.729,29658.92,15133.052,19603.057,5228.387,-7328.1626,39757.02734375
55,-22461.562,-30956.963,-31209.686,14164.661,-17086.174,-1244.428,39455.71484375
56,-29449.34,-56799.74,-22786.426,-9615.747,5081.265,1113.1844,36513.4921875
57,4375.8774,2327.712,15088.749,-13108.368,1482.7504,-15489.742,37185.78125
58,-3934.0664,-7994.7515,9125.564,-8298.66,11393.532,-13693.686,37398.74609375
59,6273.7754,-9003.408,-15692.181,-7896.819,-6625.638,296.98056,26445.390625
60,5898.5107,-1742.6727,283.9292,-2362.1443,15575.274,-3779.9028,28885.615234375
61,18716.855,-9.132445,-10324.518,7009.793,14933.596,-2178.9565,38482.8203125
62,2028.4594,-6041.9585,-5299.433,-3763.2566,15845.064,-74.80596,29247.08203125
63,-9116.295,13114.155,12102.342,-671.0053,7141.506,-5863.785,27022.76171875
64,-1769.6299,-25545.885,-20648.107,-10240.121,-7538.406,2926.653,31362.50390625
65,-4275.8823,5341.0034,32421.398,-11389.854,2337.7778,1485.8125,38710.02734375
66,-26555.293,-14535.653,-234.21407,-11036.631,-12699.474,-186.13042,37016.9765625
67,8385.435,22758.707,-9799.295,14671.126,3024.6372,1626.1023,38467.55859375
68,-9733.825,-4781.0435,-1545.9124,-14256.298,-6644.323,15413.592,38806.21875
69,25605.66,29553.691,45695.68,-11343.861,-12329.953,8767.016,37584.49609375
70,-2894.2363,-4251.6646,-1637.5477,-14134.114,10785.461,-13984.395,39244.30859375
71,58013.664,44532.44,36349.566,10165.348,-9289.698,7361.257,33022.42578125
72,16916.996,9326.318,9777.262,-18087.52,8508.473,421.97144,35406.078125
73,30578.799,30276.393,30368.908,635.97266,737.6659,599.0214,1998.58654785156
74,138305.42,142938.12,140704.81,-9784.099,992.3719,-13371.129,29027.654296875
75,1267.1489,-16146.635,5163.1436,14264.354,-122.83845,4636.2334,32576.17578125
76,220955.05,220077.6,220619.75,-5.601122,812.06836,1807.51,3516.79931640625
77,-5208.5566,11863.597,9735.714,5958.247,-1882.8467,-1571.5175,19601.15234375
78,-29283.135,-12519.66,-40271.777,2667.301,-5275.352,1658.3805,26439.63671875
79,18369.38,12143.755,27503.445,5561.497,-3408.6277,1219.5013,17639.822265625
80,7730.695,7421.8027,6351.3833,-5543.9087,-10230.643,-394.74118,20205.005859375
81,-6197.0137,13517.468,-10561.0205,12676.073,-383.653,-3688.6345,31891.18359375
82,24293.371,19968.258,-2501.3506,-383.47293,-9801.219,-2868.1555,30562.80859375
83,-2331.943,-581.40955,-3779.5034,1708.7406,13635.055,5910.0225,26057.291015625
84,-15504.714,-4209.6016,-18095.578,-7196.3657,-6393.33,5560.6562,23115.060546875
85,-6668.647,1403.6255,-6664.957,1348.0342,11455.104,-7321.5713,25001.158203125
86,-31567.416,-12554.291,-56124.93,-42.747074,-1599.0531,4012.4756,38567.625
87,-16057.436,289.10352,-41162.01,5045.04,5556.3447,3092.6394,38800.6640625
88,203.70166,15166.449,-10241.602,-11115.498,665.6405,-886.83563,29387.5859375
89,16196.014,-6030.018,-2660.5645,-12633.721,-3839.8994,2663.0095,31221.822265625
90,-922.48364,-20941.016,-13717.364,-13307.621,-7007.9907,1888.2317,31585.22265625
91,-2780.2664,5459.327,-10105.669,1205.0824,-9722.381,3755.3464,22630.716796875
92,110.68555,-6581.8135,-21598.201,8259.782,-17385.178,-3609.6162,39003.484375
93,26658.49,19515.283,2544.6816,2675.7427,-8670.197,23.603203,26594.146484375
94,-1629.6248,-4572.4126,-6243.0225,14272.888,9760.715,-12972.07,37658.35546875
95,15470.828,-7887.704,32652.074,-6070.0527,2547.0417,-1078.9506,37089.5703125
96,37024.812,1382.6313,15458.477,136.43105,6318.01,-12454.519,39394.83984375
97,8852.153,15082.518,-1289.9615,13772.05,-9634.326,4265.4106,33270.390625
98,-8680.517,760.396,-20948.627,9877.6045,-4585.411,-16056.102,38530.94921875
99,13524.824,-7298.119,4235.9766,11787.3125,-4021.183,14970.248,38263.734375
100,-14345.682,-19481.273,-36492.234,-9474.482,-4709.2725,-15931.528,38734.71875
101,18950.623,14219.752,26253.785,1621.0848,-13542.474,-5426.729,27508.095703125
102,59791.312,59097.254,98393.09,2728.7139,1829.3817,-1992.1788,39517.78125
103,-39625.18,-70769.81,-80248.52,3760.0784,-590.5966,-5543.2607,38609.4453125
104,18214.861,6653.3,4202.7153,-3459.8467,-20604.26,3598.6938,38940.6953125
105,10529.016,-16085.524,-34487.86,3146.2917,2693.679,-1468.1118,39933.453125
106,-7435.497,-10653.622,-37319.96,-11006.457,-7710.9434,-8239.326,39404.66015625
107,11964.105,4360.4697,-3070.7373,1543.6658,-11899.622,1681.1382,24697.625
108,12983.29,5376.251,-17710.22,-9488.278,3070.4158,-1714.0028,32766.59765625
109,33297.96,25388.691,14669.087,14446.773,4445.895,5956.8623,32467.353515625
110,5962.053,16629.97,9159.215,-12072.495,11936.334,-8496.543,34222.1640625
111,12436.279,2707.837,-27510.135,0.41534087,-1582.7555,3048.3738,36566.859375
112,-231.95752,-4695.8574,-18221.76,-13876.287,14603.469,-3119.9795,38857.375
113,3174.3955,18833.889,32167.086,-12782.516,-1849.362,-4099.6274,34389.59765625
114,-26836.84,-16538.736,-18191.541,-17713.418,-8768.098,-6145.7065,37108.0234375
115,166405.81,131984.88,128502.34,-1143.1184,-6130.623,4849.6133,38781.8359375
116,21772.99,25316.14,39846.17,1929.6011,-15897.63,-7845.73,35059.921875
117,-86454.195,-71269.89,-50225.6,2283.4294,-7840.579,6911.894,36556.21875
118,290617.3,291130.94,292124.5,200.55243,734.8552,-399.66998,1995.29541015625
119,17956.283,18122.05,18972.06,845.93164,-112.53487,556.25256,2000.98571777344
120,-11981.046,10484.196,18524.027,11098.643,-1733.5896,9355.482,37297.09765625
121,33494.633,16678.568,52668.773,10065.515,-4556.5034,-8571.003,39490.20703125
122,-8591.389,-7184.9185,-9919.887,9737.578,-8923.023,-5863.933,25141.419921875
123,28115.846,15500.816,7772.68,8798.129,14248.824,9580.308,37855.10546875
124,-48511.76,-19680.045,-52951.84,11769.47,5494.819,-1577.993,38634.28125
125,-1346571.8,-1346953.4,-1345923.1,946.8794,152.1265,-318.21054,1968.9658203125
126,116409.55,119280.61,119538.22,6317.8105,9816.392,-7432.679,24158.060546875
127,-39416.285,-13776.655,-29649.732,12689.079,-5718.317,-11760.639,38709.67578125
128,-11097.857,-29097.637,3725.707,-10014.156,7538.33,6548.3403,37556.92578125
129,19093.744,-19649.617,2697.388,-5080.1978,929.33453,2249.4197,35068.99609375
130,-2227.0059,-9685.731,-36247.3,9994.512,-5193.939,3905.8577,37224.1015625
131,-9667.823,-10439.431,-33604.92,-4207.127,-4917.1836,12978.714,34439.61328125
132,-3891.3994,5839.1978,-24715.691,-3810.1365,-6959.7593,-1517.4143,30442.443359375
133,-3660.3616,11489.661,-4927.3237,909.2604,5123.9507,3499.896,19191.548828125
134,-7591.0264,-10733.078,-46518.17,751.16736,-1981.0461,5333.6514,38751.6953125
135,284758.8,288216.38,287067.66,311.1604,2157.7158,31.578497,4854.193359375
136,-23745.318,-26774.355,-58636.613,6206.3145,5394.8145,7238.0605,38482.8046875
137,326168.66,326650.03,326462.38,317.09622,-562.8349,926.5257,2000.98791503906
138,233775.56,234025.69,235263.72,-397.34232,411.27808,-610.4325,2000.98010253906
139,-78989.33,-51280.43,-39895.477,351.23047,-8172.267,-1506.1312,37688.16796875
140,21555.654,13992.273,21655.146,20326.033,6736.092,483.18427,37871.296875
141,14260.01,1175.3873,-11577.288,46.268795,18933.285,-3325.3088,40115.94921875
142,18116.773,-19766.363,11268.794,-4177.066,-1996.9934,-1329.0735,35947.3359375
143,-2320.6711,17694.832,20137.549,15551.692,-7932.2583,2642.883,37292.91796875
144,-4112.7734,13034.478,33893.02,-4348.7104,-7824.584,-6249.0405,38004.359375
145,34160.61,25266.623,19130.922,5198.722,20436.652,-3070.6,39161.9296875
146,19248.332,11469.624,-1061.7092,5825.667,18977.607,-446.09775,38702.46875
147,6479.5757,-8457.15,9309.642,3746.798,-6271.068,-10163.265,27264.578125
148,-1833.2648,11813.026,-4095.7188,-9395.365,-7777.322,-8418.595,29683.515625
149,2187.6582,3095.2952,7899.3984,-11305.527,-7596.3853,-7227.3276,27230.982421875
150,-43849.44,-43113.324,-40383.85,-4507.6045,-12340.156,-14116.164,33549.859375
151,66156.23,61472.613,40818.516,94.25938,-5742.521,-14074.397,35192.12890625
152,14079.849,-7389.8174,-1796.0477,-11750.484,15444.919,1346.1798,38825.703125
153,-7282.696,-46412.656,-23863.041,-1388.5327,-7941.09,-6475.241,38445.109375
154,-3826.8184,5209.6704,3532.745,-4586.6035,-16936.225,-12194.541,37934.87890625
155,1160.8188,-18257.227,-19407.705,6669.0815,-17674.803,-4410.565,39111.5
156,15329.737,21407.705,23517.738,8200.873,-12976.346,-5338.286,29096.91015625
157,-2629.9128,4521.418,2850.9226,12852.63,-1703.5422,-4795.7197,24804.41796875
158,19060.17,-18124.502,1494.7266,-8716.074,-8949.451,5034.4785,39778.19921875
159,3151.7275,3168.4175,-28294.041,-1734.9376,-12682.44,4575.5586,39290.34765625
160,5827.2944,11340.442,-880.7263,4830.79,4162.9824,-11715.999,25419.861328125
161,-4496.6924,-6112.9453,-23152.38,1668.5616,9066.829,-110.622345,23989.703125
162,-7824.1875,-14044.329,-35049.87,11523.562,6410.4478,9332.013,37329.59765625
163,8607.908,69.84969,-20909.389,10061.22,5997.6006,8005.243,35999.98046875
164,4052.5334,12189.464,14988.728,7910.899,478.55634,6948.711,20739.111328125
165,698.0431,-3385.5964,-15101.166,19613.697,-4235.7544,-5408.385,38696.78125
166,-54135.59,-77788.016,-96656.28,115.029755,-6260.8867,-5117.238,39470.53515625
167,66242.96,95228.34,104220.21,-2743.191,-6521.721,6796.4287,38345.625
168,15462.352,1163.906,-21534.398,-4702.024,-3127.8584,4018.6462,34472.23828125
169,2628.602,1428.5035,-11346.2295,630.8431,3615.092,12463.052,26198.25390625
170,13622.2705,16608.852,-19561.98,-1920.4954,6748.6274,5905.844,38230.296875
171,-35371.29,-28381.807,-37609.0,14048.85,-11049.611,120.51024,32061.44921875
172,147935.03,165478.2,151139.61,-4620.5083,-8335.984,16428.18,36660.36328125
173,11840.277,-10700.839,-11499.256,-7809.348,-1789.7289,4103.952,27745.830078125
174,8223.834,11186.337,436.37024,-3730.5469,-3621.953,815.6983,13251.1904296875
175,25768.668,13061.027,41071.61,-7685.9355,5273.8486,7999.9727,32292.234375
176,122111.414,132308.47,112148.25,208.57271,-9774.2705,3206.2637,24948.3359375
177,-3823.1309,-16612.822,-6599.1094,12752.369,-10246.854,-11792.218,36821.328125
178,7670.518,-17775.814,12465.378,8964.11,1682.7601,6500.7373,34188.5625
179,-3407.6072,14400.393,-12572.08,3385.458,-873.7044,80.158745,24515.4375
180,477.9392,-38507.645,-8716.935,6174.8203,2819.8606,8669.165,40120.53125
181,-5784.2007,-23682.059,-50412.176,4066.3357,2311.7083,-1232.9597,39792.48828125
182,1944.9551,27100.715,-4068.51,15256.515,-2899.5676,2960.5332,39623.828125
183,-23359.945,12576.979,1793.988,-9019.249,-10058.48,-1036.8524,39636.00390625
184,2782.1287,2879.1316,4016.2827,10.282991,57.699894,85.31347,1202.06884765625
185,-2081.2,-3220.2173,-4833.526,1629.9794,-269.56033,846.8544,4009.69873046875
186,5199.231,3805.6443,-19552.18,-4706.413,5227.994,-2576.3774,27357.650390625
187,8333.157,-3354.4639,-942.5205,11525.494,213.30162,-7164.579,25823.810546875
188,-203773.4,-203115.17,-203890.33,-796.6694,-181.06981,-498.11813,1808.50073242188
189,-19144.475,-29365.57,-42708.625,-9849.034,7657.4233,14362.172,38789.4765625
190,33186.363,17848.643,20812.945,11405.546,-1026.5424,-18387.916,40079.1015625
191,751.5578,17971.146,2396.0742,-10546.162,14386.965,-2127.2258,35200.77734375
192,40320.797,22270.404,34352.336,-20904.375,-636.6794,-3097.8145,39933.57421875
193,-13070.652,7145.312,26000.7,5053.2617,-3970.256,629.56195,35643.72265625
194,13212.127,-4149.1294,786.97943,-2834.3293,-8506.805,-11685.844,29848.880859375
195,28029.586,42519.883,37214.645,12798.599,17586.084,1599.4336,39851.4453125
196,14032.527,15615.355,16732.277,19169.713,11694.246,-2806.6934,39266.4375
197,-12919.598,2390.5325,-1666.742,1227.79,-4212.2856,4870.5737,17823.1328125
198,390.7513,195.00102,-13160.765,-2093.233,14480.26,-131.72423,28692.505859375
199,5114.3306,-5453.3394,-809.34015,10933.809,1445.7065,-2248.555,21546.43359375
200,1539.596,4432.2363,6269.9663,14133.412,-16492.908,-3925.3474,38452.48828125
201,3213.0522,-5739.6587,-11154.998,6529.406,-15091.877,-13221.492,38646.8125
202,258.21762,-17524.373,-9936.394,13281.698,1185.1401,-2148.8115,28038.1953125
203,9947.705,10847.753,8769.507,-5112.937,-7744.1553,-549.59924,16202.068359375
204,1275.6926,-2646.9387,-21538.984,5162.342,-3105.8386,10551.88,29821.427734375
205,7592.381,4311.9116,-3111.5388,-238.19052,-9955.267,16297.4795,34417.10546875
206,4639.031,16592.416,11561.162,5920.14,-17715.996,12039.258,39869.8046875
207,-9019.238,-29087.205,-23206.217,-11127.721,5292.1587,3890.9253,28639.2578125
208,-3930.9934,-18313.062,1764.8818,1540.2711,-20113.658,1194.7572,39322.80078125
209,-2239.0789,-4543.3247,18320.812,2648.2822,-3651.1702,-356.82123,23169.138671875
210,5925.925,-12729.236,-20104.361,-5341.2227,4718.9136,2898.093,26787.662109375
211,-808.9443,-1636.59,2956.5518,1997.5369,-3491.121,-3115.1348,9778.900390625
212,-6565.5283,-544.6102,-15589.307,-42.119114,-7994.049,-4286.0757,20465.64453125
213,-11010.189,-10388.738,-12212.105,1151.2164,3069.1958,-3448.4658,8395.7890625
214,17130.791,13811.595,20174.469,4766.0264,6432.7227,5599.263,17796.73046875
215,2656.842,20330.68,5396.29,988.80084,-379.6145,3788.2942,17828.953125
216,17104.008,9685.512,-4396.3896,11598.161,4863.9014,173.53154,28851.611328125
217,-14714.299,4046.7407,-21823.27,-12931.09,5897.407,8984.52,37202.52734375
218,12552.419,1007.5766,5504.2085,-2494.4788,-12382.921,16873.582,37873.75
219,20325.562,10273.134,32326.88,-1726.471,-1870.409,17501.207,36111.48828125
220,7325.7563,6986.167,2028.5552,3350.1455,-14051.139,17191.844,39230.4609375
221,8039.941,17135.844,-15411.43,-834.7272,-1117.2048,-13234.69,37112.25390625
222,4342.032,7869.9365,-4727.9775,2492.887,13538.565,17473.932,40140.32421875
223,7830.3384,13304.913,10264.285,-2370.2637,6075.547,9053.367,19901.052734375
224,-219.93878,5685.5356,-6383.049,-6039.451,-3290.8716,19762.693,37720.83203125
225,-316.2813,3801.9146,-21840.65,6698.994,-7975.0557,12716.271,37140.87109375
226,13885.387,-4630.544,-8.264359,5754.2188,-7787.3804,-5117.6343,25267.625
227,18651.877,10549.137,27318.578,10834.587,-4093.5625,16270.697,37518.44140625
228,12131.847,22845.633,42402.426,-2792.5571,10698.399,11516.309,38359.08203125
229,-13834.136,-15135.159,-12482.013,-2120.1445,-2422.7253,-9840.556,18079.919921875
230,10648.898,-1201.9404,15416.464,366.81326,-8473.055,16697.664,35663.55859375
231,-22709.926,-20885.943,-23080.172,-13500.845,-4770.1323,9945.645,30264.958984375
232,-7893.206,-12366.129,20245.05,-2606.2065,8156.3853,-9303.684,37646.52734375
233,2985.5515,-15467.383,24039.152,5985.596,2815.48,-1627.6499,36214.30859375
234,10437.136,-31.4296,-13774.592,1771.6764,3822.0928,-3920.991,23274.46484375
235,4294.238,-13793.091,-14715.428,3831.1055,10801.68,1340.4716,27278.861328125
236,18233.898,6873.6855,-12015.718,-7.93413,3552.143,-1202.3538,27251.458984375
237,7410.366,11081.889,1212.174,1723.3043,-1.2705431,200.58728,9147.923828125
238,6855.0435,10772.954,7688.043,1439.1218,-10346.106,-12336.191,28225.23828125
239,13448.021,-11648.092,-17747.19,5369.972,-2349.236,-2885.3123,30791.54296875
240,-5495.185,-3231.9666,34890.746,2587.1743,-3956.8704,241.34016,40149.33203125
241,-29998.768,-30289.729,-24892.252,13870.106,-8813.693,4266.8916,29873.888671875
242,-225.62323,-7101.1665,-10612.557,-246.04417,5517.319,1221.0991,13406.0791015625
243,-9727.447,6599.0596,24583.406,8453.65,-9366.7,-4473.5083,37699.44140625
244,8537.133,4151.144,8116.058,-19201.594,-10189.257,-7548.0933,40075.6171875
245,-8.589652,-7737.524,6982.611,3895.6692,5743.119,3251.5288,18407.71875
246,3153.806,11915.463,44336.44,7773.886,-1840.5175,-1675.2809,40147.6015625
247,20524.268,9621.014,-20124.508,-4005.4004,758.5099,8819.23,40139.65625
248,77367.54,84927.17,47255.58,-3743.0461,6098.935,1412.4493,36757.59375
249,-25770.725,-950.32324,16263.077,6188.5737,-4481.965,-1884.5831,39056.51171875
250,2143.6743,-26711.035,-22852.805,-11000.672,955.78015,-9138.698,36776.140625
251,-252464.58,-281550.62,-241962.11,-1375.1235,-822.79083,-5857.9067,37046.24609375
252,45988.535,21621.69,36188.51,-11465.445,-2164.7656,-10538.874,34534.32421875
253,-220461.31,-223897.27,-237704.75,-1562.2118,-6168.4775,-11730.904,28003.72265625
254,-459225.53,-459361.8,-460317.2,-236.23845,-590.45325,746.2419,1986.32214355469
255,-651866.7,-644032.06,-631049.56,-8101.9185,-11722.422,3504.8745,31267.5703125
256,-3324349.0,-3323812.8,-3324699.2,250.59833,726.8247,-664.179,1922.15576171875
257,-3828341.0,-3827772.8,-3829540.8,478.17734,-502.6003,29.967081,1972.44567871094
258,1299.766,1605.6803,1272.1445,-147.87439,-1030.6611,295.2324,1901.75451660156
259,-88929.6,-86827.06,-93578.836,-2542.826,-1269.2722,-3819.8794,10189.0498046875
260,232340.28,218185.14,220302.47,1000.80865,-462.89734,2792.3936,14209.8583984375
261,298967.1,313113.03,310147.06,-3700.4915,15457.545,4016.7505,31196.77734375
262,-171616.36,-152995.22,-164812.08,-17418.693,1991.8451,-4118.1133,35204.44921875
263,-173070.94,-182988.28,-189267.8,18987.076,472.99084,418.66168,35816.00390625
264,39498.88,59246.72,26711.4,9173.599,-4468.771,-11187.394,38650.609375
265,8770.275,35045.555,15083.837,17702.752,-5179.767,-2584.3132,40063.0625
266,-67514.055,-95964.664,-102407.305,-11976.094,2412.5896,2093.4858,38666.94140625
267,-13677.526,-26384.123,5886.276,13013.221,-721.37146,10074.029,40085.4140625
268,-32159.814,10657.835,-10476.147,7709.5615,-1527.6686,-1213.694,39557.82421875
269,224.24686,21634.453,-5579.4463,13279.653,501.61093,-11989.796,39716.57421875
270,-2699.2185,39805.41,9064.309,3304.8816,-594.4765,-3366.3762,38895.296875
271,-9816.791,9163.648,-33542.945,6558.6626,2612.5825,-4695.7485,39864.71484375
272,-1169.3679,642.70325,-25414.469,13364.534,10729.4375,3714.2944,39466.7578125
273,-3620.4001,-27442.207,4602.404,14010.485,-4286.1167,4123.9277,39063.91015625
274,1338.1503,-5972.723,-13054.466,12961.272,-8001.718,9029.939,33106.78515625
275,-28560.56,-47127.062,-51021.117,14873.362,6509.831,8253.86,37780.1640625
276,-10248.979,547.52954,5548.3696,8951.755,8760.439,2280.9016,26111.486328125
277,-1188.1705,9912.464,-12363.909,4474.0376,5222.559,-440.31534,22685.61328125
278,-21046.363,22406.756,5377.244,6046.9673,-2467.8694,-1613.3466,39673.2890625
279,-4264.415,5088.433,-21706.156,4127.633,-1409.8959,-2409.9976,25086.248046875
280,-7402.7373,-11901.91,-6601.0215,12653.87,6597.784,1921.4902,25426.802734375
281,14384.618,11238.012,-1376.4617,4541.876,-6039.865,-4185.0664,20798.7734375
282,60173.855,66079.44,42957.457,-17564.955,1532.7192,-1622.9783,37060.5703125
283,-389.9126,17389.268,159.04218,-717.23627,5327.6855,3314.3042,20646.802734375
284,8870.563,16692.137,-4276.42,6642.7314,6491.424,6397.6577,26803.615234375
285,-11995.536,7159.4077,-13834.505,-9044.896,3646.8835,-7116.3037,29030.572265625
286,9677.503,25598.137,35898.305,-8706.819,14469.577,-3709.6401,37687.68359375
287,-7507.995,-17501.771,3521.8997,3986.5977,-4316.038,4932.247,22545.7109375
288,9961.1455,-14473.594,-13693.701,11033.977,11564.27,-8404.671,39458.4140625
289,9207.412,-5701.269,4048.0225,16925.217,-9752.147,-2500.3013,36543.46875
290,21147.646,7045.7104,6599.936,17518.354,7133.5566,-1443.9308,35846.13671875
291,3945.66,-2314.8342,-2380.8972,19880.664,-2314.7559,-10728.014,39833.140625
292,12857.709,-9830.997,-14548.9375,3907.033,78.85063,-3061.0784,26795.6015625
293,1908.0931,-6940.5405,2548.4453,-4666.702,-4719.1885,-1415.2292,14917.431640625
294,7625.168,-9351.043,-15114.867,5058.8315,163.1085,-5352.1294,24125.759765625
295,597.9963,21369.217,13517.572,-18908.184,-6928.095,-3234.5142,39723.3359375
296,-13878.0205,4494.3936,28383.52,8083.118,-3612.0857,773.35565,39800.5390625
297,-17635.773,2543.0154,-8471.543,2701.5847,769.60254,-382.40237,18175.6640625
298,-3416.1667,13898.965,19619.738,2817.5618,4132.895,-1468.1527,22652.193359375
299,19631.754,-7572.9062,5699.2046,5454.017,1277.8811,11158.8545,31982.44921875
300,8179.2886,1067.1788,2242.145,4545.621,4329.556,13620.775,26803.095703125
301,19298.312,24434.441,41483.004,585.2366,-3703.4167,-2160.8347,21465.73828125
302,-13738.183,-4926.378,18713.803,15112.462,2283.8818,2713.5896,39594.41015625
303,-18207.787,5780.7666,24029.672,-8692.312,3408.9429,-626.1944,40111.66796875
304,6626.4077,40955.05,37258.047,7238.136,-5401.4976,8764.203,39247.22265625
305,26606.537,16601.002,22865.723,21686.22,-5998.8145,-2242.1262,40132.16796875
306,-2026.8613,-21363.352,-28267.852,16104.162,-2654.3943,-1256.0713,36864.39453125
307,118512.445,119691.88,120024.625,720.39716,346.41483,-234.37369,1993.98034667969
308,2925.7976,13196.646,-3427.934,15352.662,-7043.18,10671.585,37532.6328125
309,-238620.2,-210783.0,-216996.31,-96.778496,-4316.2554,5646.6694,28144.748046875
310,-463.23642,-441.22705,5863.073,8867.877,4682.761,-2648.189,19042.705078125
311,-54156.957,-18230.807,-47202.445,8446.143,-3249.1973,-9028.236,39741.86328125
312,-1785411.9,-1786625.8,-1785432.1,-449.11658,-452.62415,-666.4161,2000.34387207031
313,-21143.408,-12808.342,-6543.757,21142.36,3226.8352,-835.60767,39182.44921875
314,-42755.215,-22260.486,-43413.29,8117.941,-5114.5,-4186.3276,27617.15625
315,-37075.605,4307.4653,-5475.836,4832.716,5005.3545,1684.9822,39460.765625
316,-11546.592,13397.231,-19799.53,-1594.985,-4748.7646,-11930.325,37395.8203125
317,5702.8784,3868.645,-13081.328,10129.25,-893.8163,2271.0122,25444.65625
318,-7912.091,-8452.346,2966.266,-4016.4272,13776.805,6574.4297,29529.19140625
319,25144.926,17743.32,5782.032,10354.719,-12886.648,503.9353,33271.73828125
320,-7585.2896,-6935.428,1808.2545,3470.9302,-18964.186,-5291.28,35799.61328125
321,2773.3367,5472.52,-1795.6044,-676.9423,-7800.701,4571.099,16944.193359375
322,19575.297,786.40735,30128.207,152.58156,1877.8262,2660.9026,26354.3828125
323,-6907.4565,-8863.695,-9570.958,377.0806,-25.695648,1837.875,4033.92724609375
324,2933.756,3914.3179,4567.0054,809.0353,6.771599,-64.736206,2000.95654296875
325,1073.8044,7810.642,-7859.48,7310.6865,2636.866,9279.738,24998.17578125
326,-1650.7802,340.07858,10090.946,-1172.2711,12026.233,2641.2324,24029.095703125
327,-6841.621,-16451.309,-24532.643,-4701.8447,6322.5493,-3265.217,21296.572265625
328,992.2417,-55.40088,-19771.688,572.15045,-7352.502,4013.7236,24939.42578125
329,1550.5947,4485.675,35879.13,-8880.179,-5893.1343,-2294.1057,37984.92578125
330,5680.9624,-10325.502,-18960.238,15435.747,-5950.638,-824.9015,35944.8984375
331,-22921.234,-724.9414,-42519.633,5638.3384,-3527.1567,-2922.0537,38341.8125
332,7253.9165,34389.043,50699.96,4300.197,-4464.95,-954.5023,39534.48828125
333,55465.85,28309.102,59425.004,586.1843,-1034.2684,-8513.237,32899.046875
334,-176996.47,-193842.67,-174396.75,-3149.8013,3622.8672,7717.0107,24127.669921875
335,283307.66,306122.97,287200.12,-2711.8843,7878.335,-1284.4988,25692.39453125
336,-213325.17,-235849.34,-241576.33,-11269.445,7334.876,-3191.3315,35243.2734375
337,-141.41296,2023.9353,-6384.4087,22256.479,1356.6041,-4139.792,40002.1171875
338,261.64258,-8035.009,17453.37,16291.242,-8067.7812,4715.0527,39562.60546875
339,8032.0557,-794.29083,4703.7295,-7266.1294,-1000.28357,19058.883,36203.8671875
340,5996.0312,8411.7,-3079.1543,-101.91218,3411.6357,10345.919,21591.205078125
341,-28755.805,-18445.453,-5635.318,-3663.1462,7465.407,-14400.721,35100.92578125
342,12552.388,13519.625,26868.557,8128.793,11046.85,4445.4604,28559.7265625
343,-7544.582,-13842.566,16587.074,9346.048,360.90704,-6940.883,34364.90234375
344,12674.427,6455.0146,81.21533,-4858.475,-7519.3867,5020.0786,20856.392578125
345,20694.9,47933.027,16133.08,12349.543,1043.0697,-2259.0774,36920.0390625
346,-3192.1567,22200.146,-13527.579,8640.328,-10970.442,2085.4585,40150.90625
347,-34372.92,-10908.213,-26469.201,-4126.6323,807.98035,12366.697,30650.517578125
348,-20547.129,-7938.9653,22219.43,4407.537,4916.276,-263.8869,39745.8671875
349,6150.5547,-15021.077,-5584.542,7877.8794,5190.094,18201.459,39979.65625
350,-6535.605,-20957.1,-2830.4868,-3177.2288,1910.8911,-1791.9755,18055.833984375
351,-20900.7,13637.706,-6286.8477,9890.8,7232.641,7750.8804,39145.53125
352,-12295.799,-32046.75,-45646.992,736.5767,-4778.756,-6037.282,31986.994140625
353,4905.334,-17834.436,-8186.0015,19398.018,3714.069,-3058.624,39863.31640625
354,-3104.3257,-663.3198,-20136.662,17749.514,-9420.9375,-489.91483,39366.90234375
355,-11263.697,-19158.447,-16868.867,22759.562,-115.526184,-496.10062,40053.27734375
356,-14406.47,-1084.0305,5179.8223,20343.975,601.227,-1887.2177,39415.40625
357,-31954.602,-12298.995,-9580.481,19477.148,1259.3807,-248.0058,39877.16015625
358,-4688.69,2340.7234,6926.715,-1122.9746,904.1485,-798.64136,10527.580078125
359,4509.244,4521.1777,11032.263,644.7206,-106.94294,1056.9258,6863.28271484375
360,334208.7,347073.4,373023.94,2077.7302,5182.5146,5250.1577,36728.68359375
361,-2933.2285,-12461.657,-17001.07,1013.641,-1155.8041,-2246.7827,13299.806640625
362,42837.06,68219.805,66883.22,-11649.513,-4574.937,-1035.4067,32943.64453125
363,-20581.928,-21269.873,-56511.902,3566.8638,-1456.6971,1161.3887,36267.04296875
364,-54984.86,-60184.715,-42842.836,1781.6942,697.7434,-413.4692,15782.9248046875
365,-53021.04,-24668.371,-48417.473,-15088.184,4228.874,7275.835,39874.3828125
366,10987.469,-26158.215,-3296.5725,-13.896861,1179.5286,677.97046,32539.185546875
367,-17206.537,-26174.36,-6415.8,6169.7197,1150.9037,-20.791039,20292.919921875
368,5391.2666,6834.149,1490.6257,5952.3774,-60.44857,1842.7548,11807.44140625
369,53691.047,37831.207,21111.994,12102.546,2898.9473,64.637634,35508.7265625
370,289.09033,12795.115,8888.711,6720.105,726.7225,208.71545,16124.5634765625
371,-1926.822,-2423.1057,-2639.6262,556.66516,227.74805,631.9486,1638.27563476563
372,5846.79,5963.787,10111.355,-71.98545,-119.25177,-112.41263,4218.6943359375
373,-4482.027,-4089.8315,-3301.3723,-1201.7965,613.6989,929.06415,3022.75024414063
374,-33258.76,-25855.264,-4565.105,-15447.265,-5945.022,-3121.7695,38946.4296875
375,10880.065,24500.242,20822.951,6030.844,-3990.918,3594.5066,18563.494140625
376,-17160.537,-26213.2,-25589.623,-5013.401,-1544.3336,-590.45807,12660.880859375
377,4253.53,-473.0288,8450.619,-898.10016,1054.0403,529.75183,8147.90576171875
378,-125724.03,-107286.47,-95690.83,-15153.734,6596.994,3597.5195,39325.46875
379,167963.19,152446.72,196743.73,1102.6953,-2512.7354,-512.2432,39230.46875
380,29132.277,2022.4121,22635.32,4474.1787,-3779.2776,2053.5117,26768.974609375
381,13147.375,16056.338,2757.6846,4277.6963,-2137.828,-5070.99,17099.203125
382,12197.533,1574.6836,43129.26,-1107.51,-777.4883,-546.9228,37477.8671875
383,-20384.578,-17677.588,-19767.229,-6720.405,-1449.2377,-739.8247,12225.880859375
384,-376.48083,-579.08826,-419.72577,562.8465,415.174,-225.73706,1286.28405761719
385,-6763.041,10358.975,13146.498,4589.422,17.357866,-3471.651,21166.201171875
386,11158.42,27398.627,31968.23,-9352.489,-2116.1946,-1436.4738,25315.396484375
387,-11494.379,11240.972,33540.113,-2770.9224,2881.9893,-1504.4702,39697.2109375
388,-2832.884,5546.2964,18223.363,-8022.831,-8442.445,3977.3496,28134.00390625
389,30091.88,21383.693,49976.723,1392.4034,12750.46,-12431.22,40019.30859375
390,-428.20053,-1877.9814,-350.56293,-988.44824,-276.42868,-148.20964,2333.8115234375
391,19447.613,20951.646,19264.537,3363.9734,7046.7686,2676.891,14387.0771484375
392,11362.545,-10234.647,-8051.8867,-4307.596,347.1899,-866.3483,21962.265625
393,-2879.993,10321.729,-2225.202,-2278.6272,-928.2189,-47.18872,13573.4189453125
394,8897.582,32903.8,39272.41,3883.3123,-1541.5753,-308.97855,28677.51953125
395,-9595.018,4251.991,-7972.421,3780.3645,-1388.3292,-467.1937,14873.298828125
396,-4454.881,-2368.7183,14367.286,4815.4795,-2233.4016,-458.6897,20112.73046875
397,-279414.28,-248677.5,-290546.2,-1114.2657,1821.5332,-899.71484,37774.796875
398,-11161.355,-34558.957,6787.879,-5066.226,-642.46655,-1285.4845,37051.14453125
399,-59051.773,-47947.95,-89599.39,-128.12253,1438.4413,1190.0442,37498.69921875
400,-53051.184,-13643.34,-36428.582,-10682.522,350.07047,-584.81085,38961.140625
401,2646.6436,7196.9004,34847.062,-14039.245,210.83495,204.55684,38763.53515625
402,-23012.787,7673.5986,15519.546,9734.956,2192.276,2573.203,39529.32421875
403,-17763.482,-31857.375,-27081.883,-2498.5005,1252.0775,-137.99649,13327.625
404,-10751.384,-6742.2754,-17663.805,6207.507,-248.5491,272.84647,14407.4716796875
405,21006.98,21155.06,11742.643,16593.744,-1445.7408,669.1938,30346.21484375
406,18955.146,-3700.0195,2404.2937,-3719.7095,-469.32602,-7453.5425,24921.083984375
407,2674.6567,-884.92993,-12992.875,-2463.91,-2106.5747,-1203.6742,15435.1640625
408,-19681.28,-34936.43,-19162.291,-7045.975,-3654.6318,11663.539,28948.6953125
409,-952.17017,-5956.584,-5458.9604,-1538.4381,-1267.9431,2713.8616,7537.90576171875
410,-23949.275,2052.1523,-10725.551,4511.7715,-1110.1453,331.4808,23920.71484375
411,212086.5,184551.0,207417.3,-2314.4656,3186.0747,13123.907,34852.125
412,-24762.902,-31631.137,-41206.316,-12512.0205,55.93573,3084.7285,26510.9296875
413,-2065796.0,-2065944.9,-2066378.4,-375.67484,-618.9971,-845.4797,1997.99841308594
414,-12336.805,-31895.97,6831.504,-3926.55,719.1341,311.1255,34249.03515625
415,-739.766,11785.066,-14026.105,-1669.1912,-1075.7836,-1355.1661,22740.873046875
416,26618.98,25242.477,44669.043,7691.7104,-1047.8693,-1323.5532,23207.373046875
417,-25827.605,-27234.473,-45410.23,142.22577,-682.20374,3703.0193,20012.552734375
418,-1015118.25,-1014457.94,-1015886.4,-96.96709,-641.87445,-630.1115,1997.14025878906
419,-25331.09,1302.3374,-21503.486,-13546.15,1307.6863,-3756.789,34928.68359375
420,8024.419,-2923.2246,37442.77,-9149.854,-2490.2764,-760.2648,39734.7421875
421,-4083240.0,-4083037.8,-4084847.5,425.43155,-31.624231,-399.77707,1993.87060546875
422,-36318.582,-10729.397,-6300.879,11798.513,414.53043,4880.259,35739.6328125
423,-44136.066,-31444.664,-12955.783,13538.464,3304.0276,-1176.34,36391.36328125
424,20939.46,-5539.1055,938.84766,-10895.136,1364.5609,-4094.4546,31361.4921875
425,-103.458984,-3156.6587,-22738.332,2687.9998,441.20874,-348.52676,21798.51171875
426,-4877.3037,9976.857,7110.481,-192.22359,-1273.4174,-291.61075,13838.9072265625
427,-3516.666,-4237.3765,-17328.219,6777.5776,-3690.5537,-356.4533,18983.486328125
428,28210.387,29920.469,31094.484,979.27997,-19.218042,-105.66185,3036.76220703125
429,-10027.836,7057.673,-3603.607,1858.7668,387.66214,754.1442,15360.541015625
430,-8105.078,-19311.11,15520.036,5742.5903,874.80914,-587.02795,32414.9140625
431,-3042.1567,21923.453,-5281.7026,15903.937,2686.4263,2087.7751,38441.40234375
432,35363.88,22782.082,16323.622,5206.7627,2089.1885,961.86206,19454.38671875
433,-6085.032,-13400.149,1739.1968,5679.3086,-823.7159,197.6268,16458.462890625
434,-10802.78,-4334.073,-44825.562,-799.3723,-223.14328,190.3484,37704.8046875
435,10402.327,8774.164,7574.8906,198.69472,2565.3445,-651.63116,5213.1630859375
436,-20669.217,-17579.74,405.11914,11486.778,-5141.034,4226.47,30286.662109375
437,63306.418,105647.16,92579.875,7395.3677,-808.5193,-1415.0002,39777.578125
438,11598.898,23511.268,7135.034,12523.353,-1767.5146,1030.0037,26420.900390625
439,38684.2,14361.649,35682.01,16357.055,962.272,-3050.5845,36890.84765625
440,-898.73175,-1007.9372,-947.95355,658.00494,-135.85817,-126.80348,1188.06335449219
441,-6951.086,-2480.2295,-12078.069,4599.265,-1500.2169,-1629.2206,12139.6572265625
442,91216.63,96993.89,130332.305,3649.185,-1906.6594,-1062.1036,37305.10546875
443,162.18848,7235.6187,19967.916,1434.143,-1828.3895,-2477.482,18352.626953125
444,51225.17,17244.602,33447.617,919.66833,3587.4897,-1744.0464,30280.38671875
445,-9513.675,-8939.799,-19557.92,-3186.0493,476.1705,844.3183,11842.7998046875
446,42306.164,5579.2456,10334.921,-852.82263,-699.9077,-3777.358,35260.15234375
447,-7427.3643,3481.3516,7879.3438,12157.286,-2097.133,-1029.781,25418.357421875
448,-1423.6826,6000.7085,-2121.71,-557.95465,380.89166,909.89136,8040.15771484375
449,-2307.7754,7711.522,17907.537,5920.634,-1434.6321,-1864.5012,20694.619140625
450,5655.181,4931.1094,8374.734,4074.7463,964.88654,778.2524,8019.359375
451,-7105.8276,3166.1775,11574.672,-20646.166,-2275.0786,662.8505,39474.390625
452,-33438.52,-34636.848,-40898.582,-12318.877,2843.0247,-4576.5757,24300.134765625
453,10252.492,18657.664,27948.928,-17610.867,1511.2736,647.5138,34257.9453125
454,-8683.822,-4597.2886,-5736.9473,1319.9669,929.57086,236.14069,4618.20947265625
455,104863.79,88429.96,131206.1,-7771.2515,-2226.9138,-1342.6576,39979.43359375
456,-15096.586,-19602.955,-8417.912,-13660.167,681.8563,-1004.81067,25675.529296875
457,2351.896,19999.443,-964.66895,-14516.353,2131.5715,-1738.91,32184.4765625
458,-45241.848,-34260.082,-14680.9375,-14729.026,-304.22607,-197.16321,37015.9765625
459,-11317.306,-19920.8,-21536.906,-930.19775,308.90433,-1001.98206,9819.880859375
460,-10926.466,-11013.168,-13659.547,3334.9019,-2781.6846,-191.77817,7995.53857421875
461,2875.047,3186.362,10473.775,-4922.6553,2047.8961,-2594.3726,12686.3525390625
462,26138.768,26650.486,45569.47,-3896.8186,-2180.5027,911.30475,20740.82421875
463,-23703.588,-31334.738,-12041.732,-10274.845,2229.7317,1493.3499,24930.892578125
464,5303.983,-7578.9116,-6715.243,-7386.9155,1210.3624,-993.61755,18073.3125
465,-3199.942,-4207.131,-17017.348,4388.8857,-1092.5715,628.97473,15510.4267578125
466,-53473.734,-77094.72,-86353.01,-6156.9717,3555.0454,-1883.1938,32009.935546875
467,26244.166,29050.248,35414.355,-4992.3823,-1051.6848,-645.24084,12065.361328125
468,-133792.58,-106355.24,-120090.84,17808.717,4206.1675,-2675.0208,39882.32421875
469,17392.27,2053.4165,3945.645,-7927.6553,5593.2144,1749.077,22392.173828125
470,-14833.429,-18945.367,-7613.764,-873.9927,804.68646,2192.3164,10833.8046875
471,5043.986,1439.8176,5457.7656,2341.9058,-544.8805,-729.71075,5796.05517578125
472,-33055.207,-7822.256,-27752.379,-17787.02,-1120.8695,223.9698,38523.625
473,-31168.652,-30693.178,-66167.586,-2045.4487,2299.0571,523.6331,35651.41796875
474,101352.836,78549.2,65555.664,-5618.3643,2603.1963,-3587.6833,33745.8125
475,-42739.54,-32374.266,-42044.047,8452.125,1201.7393,2647.2224,18449.51953125
476,345650.16,350481.72,381254.44,3971.9714,4829.986,-2431.9585,35412.48046875
477,12935.631,17985.225,28450.867,1469.971,-2410.565,-3669.3245,15880.2412109375
478,6253.407,8666.254,17203.922,-581.00287,271.0209,-290.7322,10039.935546875
479,7634.4023,9500.821,15935.449,-197.9228,210.57542,760.0797,7673.42041015625
480,-4802.5537,-5221.0464,-9350.397,-2783.737,167.2881,-546.02423,6571.20556640625
481,-9292.831,-7875.3066,-15272.641,0.5403889,2894.1238,514.6988,8495.09375
482,-2883.62,-682.5055,-3006.4543,-1334.1886,-1046.817,-783.0841,3949.39038085938
483,6364.7197,6748.1904,14369.721,1612.681,700.233,183.63762,8398.3203125
484,-14163.217,-5941.789,-26638.674,-6658.0327,-1707.3015,-1276.488,21735.134765625
485,-18531.104,-20281.25,-22860.959,836.55646,1041.5741,-243.14278,4445.69970703125
486,126874.17,130466.17,158859.02,-11613.821,3509.679,3871.855,37518.16796875
487,8654.568,13687.887,21123.086,3938.0935,-2283.0369,2649.5645,14186.7294921875
488,-6562.0176,-4256.6777,-3633.9219,-9626.218,859.68555,-2080.472,17330.10546875
489,-7762.3975,-3630.0044,-6078.333,1639.0454,-178.58185,-611.802,4715.03125
490,-17121.822,-15035.217,-17869.824,-2369.102,-474.414,274.8707,4920.77392578125
491,-26825.396,-405.73242,-15553.94,-556.39014,2159.808,392.5694,23294.669921875
492,8787.592,5746.038,15128.268,895.6989,-110.97786,-85.81,8438.400390625
493,2469.308,1829.1521,9158.701,1782.1566,-237.86282,82.06529,7691.4384765625
494,19403.639,16685.24,31579.139,2277.373,-2880.0767,943.54944,15226.458984375
495,-36046.906,-14029.96,-33117.418,1579.0062,-320.26398,525.3563,20915.18359375
496,-7926.133,-5712.2305,-9660.458,-1163.9268,458.14185,-1239.3262,4588.0849609375
497,17902.031,19814.562,31076.074,1012.6902,-785.7715,-566.84845,12566.236328125
498,-34864.734,-41044.465,-50968.73,7757.1724,-3809.64,569.6569,20568.037109375
499,11150.884,7016.1577,19520.727,-660.1929,-67.899475,238.49974,11101.76953125
500,-1396.7026,3075.8052,-1574.9797,640.2456,718.30365,-288.47778,4884.64306640625
501,381.41016,5287.422,8004.5264,974.91486,-11.573274,-304.34134,6921.806640625
502,22484.379,-11857.225,21928.746,-8811.056,-429.86612,-694.10925,37356.08203125
503,20429.674,3855.9375,25221.535,-3390.7961,-1388.7811,327.71463,20436.990234375
504,-5589.0107,-5569.4365,-9609.516,-3327.2754,-803.97577,1736.9049,7774.6689453125
505,-13838.026,-513.0832,11081.733,-1352.474,-3577.7754,-496.89053,22608.046875
506,36381.973,5652.541,13085.167,2271.017,-3130.7695,1762.0421,28728.619140625
507,-18339.945,-21855.225,-38642.15,-135.4097,-1043.3568,145.27678,18882.607421875
508,2248.9875,-551.9145,907.2812,405.33282,-79.961266,-745.747,2840.37353515625
509,21939.121,16812.79,20711.818,-3147.3896,260.2491,-455.2566,7213.67724609375
510,23067.27,33300.24,32928.387,356.4268,-160.75584,-362.33316,10094.517578125
511,3519.749,4976.4653,3691.168,-171.34218,-763.33734,-397.28012,2052.14965820313
512,-1250.0562,-7652.4204,-16587.336,1517.8168,-209.78346,120.85414,13605.6875
513,-2634.8464,1049.7277,-2668.68,609.3512,56.669125,-755.3824,4066.60327148438
514,-166027.05,-177371.67,-209791.61,2658.7715,-1294.4956,-133.65668,39671.5625
515,-1157.2832,-3488.6216,-16460.008,-784.43024,3677.1182,804.7125,15757.060546875
516,-23151.248,-15759.836,-39361.234,-6167.402,7571.8755,6387.0205,29080.98828125
517,6501.862,29170.656,-3346.8965,-3050.9036,105.358,3615.8843,30021.875
518,77023.98,54256.59,99588.67,1660.43,-1949.8424,-1444.0175,39587.76171875
519,-122422.8,-93786.56,-133120.05,4007.5525,3385.806,3974.7832,37023.8203125
520,-5060.0137,2427.164,5547.5586,-952.4679,2261.5667,1495.6615,10674.0009765625
521,-6251.833,-8977.785,2266.2637,-2403.5566,355.86798,-120.23202,10998.330078125
522,-2535.486,-770.04517,-2503.19,352.09457,133.26683,-90.0643,1873.58862304688
523,-70211.19,-47930.79,-63739.133,-14399.295,-581.5678,-670.6714,31913.740234375
524,935.7777,-8109.658,5651.9927,2653.5361,33.33083,-68.71272,12956.2373046875
525,-13274.522,-10586.662,-17378.678,-39.711826,-2147.1084,-1005.45905,7208.875
526,-22527.84,-10528.568,-11504.537,2037.8552,808.47363,824.2253,12234.443359375
527,15016.063,13436.189,19147.44,1760.9457,940.5447,413.34537,6209.7138671875
528,-15399.76,22933.404,740.8418,-5394.134,1056.9635,1138.6907,34724.07421875
529,11011.543,9239.147,12042.578,-4791.011,-544.70245,-1073.7206,8901.79296875
530,-14266.659,-7010.14,-15237.546,3409.996,1079.6195,-126.845566,9953.6005859375
531,2641.9004,-309.33057,8105.9463,429.20483,494.90048,-251.12494,7494.52099609375
532,-3337.96,-6748.71,-2301.8735,277.26154,521.4622,175.1914,4168.8115234375
533,11068.416,13140.68,24998.867,-939.0764,-168.02237,142.59776,13125.375
534,-13796.869,-16259.809,-25781.924,30.987759,-437.74277,-250.72441,10997.9755859375
535,-7093.909,-2715.5024,-12142.543,550.58966,-14.375392,-149.80122,8230.5234375
536,-9383.637,-3707.6555,-4517.6567,-283.16736,-1374.1312,-670.03064,5960.486328125
537,14078.074,14271.341,22747.162,-436.56247,65.40496,39.60154,8608.384765625
538,1433.0098,1568.9666,3079.5903,510.53073,374.44043,-573.6192,2166.91186523438
539,-7733.75,-5691.3057,-15319.279,-529.46063,352.23752,24.890017,8855.501953125
540,19687.643,23498.05,21703.207,5004.2354,-338.58368,-1019.70593,9460.0224609375
541,-30990.254,-32151.01,-34583.66,2516.3052,-159.79146,-429.7947,5451.146484375
542,-9493.477,-8910.38,-16153.54,-864.382,-117.608574,1276.3577,7466.6015625
543,3894.9282,206.32617,6722.783,-93.42909,-350.5076,1599.6697,6332.84814453125
544,1668.9688,-381.02518,-2057.4,-222.17537,667.90283,-109.636,3460.013671875
545,2019.8688,-938.39954,-490.31952,-1021.50867,-374.81583,253.7442,3372.18701171875
546,-1110.8314,418.09253,-8757.163,-1611.5221,-907.9628,-661.57544,9169.0732421875
547,-44632.004,-41362.78,-7870.1133,8478.673,76.01133,-2849.2622,38496.4609375
548,-244.41626,-2748.1523,-5892.85,818.43146,-353.87695,188.81653,5150.091796875
549,3296.8562,2757.661,-80.77466,191.3581,98.459816,-110.0989,3170.68139648438
550,1380.9072,781.2705,-33723.953,8881.35,658.93036,-529.08014,38084.6171875
551,8018.121,8420.676,15547.666,572.3784,-969.25665,110.67485,7593.61669921875
552,-5888.66,-7104.8643,-5650.7104,-3074.0112,-89.85896,160.67886,5502.31591796875
553,30873.07,35314.625,68289.35,-2999.4197,301.82645,1445.8662,35875.52734375
554,354.16486,-485.30518,1550.7002,-832.78174,-393.47824,915.80774,2863.91796875
555,11693.401,4359.6885,7149.454,-657.6798,950.20807,1127.27,6994.6640625
556,-4472.7153,141.17432,-3351.735,-205.18523,-556.51544,595.6325,4415.00390625
557,8109.9346,5894.535,10224.576,84.541336,40.9069,584.1715,3887.76416015625
558,-9678.757,-6324.089,-11129.512,604.91315,92.35715,-93.71428,4401.70263671875
559,598.87305,-3896.9294,3395.6677,1033.8025,221.6473,182.49823,6637.8974609375
560,96415.29,96624.04,134251.48,-1420.8599,-1644.6895,381.74286,37925.34375
561,13077.014,11573.916,16294.502,6611.247,-602.64453,319.16925,12246.1689453125
562,650.527,-380.05185,1027.7144,-87.5899,419.22638,-713.20917,1915.55603027344
563,1553.2859,3278.8406,2788.6033,355.20578,189.48296,-527.9454,1922.06762695313
564,5619.8657,6268.844,7820.2505,-281.63434,-135.68944,450.98547,2176.74438476563
565,-11078.603,-12684.487,-20271.385,143.82243,19.513725,-241.35771,8518.3046875
566,-4399.998,-5321.8564,-9884.606,26.385233,-148.09517,206.21281,5105.89599609375
567,-25119.623,-27702.363,-57892.492,8713.66,863.13745,-188.92801,35017.33203125
568,-591.8562,-5632.114,-2923.9985,-3128.647,205.55751,517.9424,7027.4697265625
569,15639.738,17244.51,25885.576,-820.7326,67.714455,-177.70178,9656.0625
570,-71796.09,-67624.27,-105494.984,-629.8354,1614.0118,-417.4408,36098.93359375
571,-11834.411,-21729.568,-6632.076,755.8205,162.12009,776.0646,13418.48828125
572,5237.0674,498.83203,18824.729,4695.7866,2786.4333,1693.9302,19222.6171875
573,29053.934,8509.393,14666.509,4130.4937,135.6143,-1741.5422,19845.154296875
574,34453.594,28304.871,36202.375,-2928.2424,-815.26794,163.92264,8911.5771484375
575,-203854.47,-223680.16,-239030.02,-14458.428,-1419.9635,2527.7188,39816.4921875
576,58833.266,44612.668,40176.363,-13259.884,3616.112,-1477.7451,29295.845703125
577,4760.839,-7639.4834,-1799.8804,-7012.7314,1735.4099,1414.6719,16674.232421875
