Element Label,S11,S22,S33,S12,S13,S23,Mises
1,6992.0884,9146.07,4963.953,7986.0386,1650.3474,-4896.114,16868.275390625
2,-1017.155,6049.65,-2478.8716,2021.5592,-1216.378,1418.7289,9227.30859375
3,1260.9357,5825.8545,-10957.91,-2095.4968,219.40884,-489.31424,15490.408203125
4,-3878.2324,13013.862,16575.104,-3748.0974,2927.7024,6138.491,23218.189453125
5,-4870.4614,8411.172,-279.0481,-1523.7068,33.495045,-5466.576,15268.2734375
6,1154.352,2797.4614,-2689.5806,3655.132,-6112.5566,4412.091,15308.86328125
7,-1245.3037,-4403.8516,-4111.473,2491.5754,2682.6406,-1776.4806,7669.39306640625
8,4672.566,210.03125,13189.829,474.29187,-2103.067,1535.1926,12307.7431640625
9,-435.18115,-7480.2324,-9760.152,-5063.2085,-1623.6,-2388.826,13146.439453125
10,4438.5034,-4814.8667,-1799.5406,-606.068,2032.9749,-1711.3141,9439.3759765625
11,7565.996,1426.6742,1046.3208,165.39148,1154.4795,-2741.8525,8173.42333984375
12,8335.995,1174.2598,7766.3647,-2168.422,1609.8624,-167.13107,8336.685546875
13,5068.4062,-10562.993,-18823.68,-3848.588,1288.3054,15.698344,22161.23828125
14,6422.1333,-595.0449,11267.367,3494.4568,4332.9683,1479.2251,14361.0166015625
15,12347.67,11785.95,-5023.8145,-1380.8864,-3055.7192,1209.1769,18178.15234375
16,13415.547,10290.225,21526.748,-3352.1055,-6969.6675,10689.741,24963.166015625
17,3726.6367,6606.9614,10458.998,411.04745,3616.3433,6008.489,13500.9658203125
18,10527.697,24385.672,49511.45,-2496.6362,-2088.5054,-661.93085,34707.92578125
19,10877.156,4689.8774,19015.51,1922.018,5865.251,4977.95,18533.62890625
20,4191.322,4070.3896,4886.014,-572.20624,-1206.9515,-6412.6143,11370.9521484375
21,6757.9243,9744.539,27903.625,-3021.2698,-14776.436,5870.758,34332.44921875
22,-2739.2292,-3297.3564,-3716.0378,347.07288,-957.3123,-239.94002,2000.97729492188
23,750.078,913.4591,1084.7092,-1133.9684,103.27539,-100.48778,2000.98522949219
24,5383.807,3780.1228,4965.562,171.99213,-417.07013,662.66034,2000.98522949219
25,11332.857,-3570.9807,21015.662,-8316.428,-9980.384,-6123.6523,32848.17578125
26,-19311.764,-5147.487,-41947.727,6286.4136,-1222.0933,-1508.9236,34110.16796875
27,7183.2363,4817.2466,5608.7964,-599.3296,-1501.7787,324.887,3537.21923828125
28,-1868.8147,-1949.6033,-2873.4292,-678.12756,-717.176,-221.14139,2000.98010253906
29,2201.571,-1113.7094,20912.758,3933.6113,3133.3672,-3393.0156,23098.572265625
30,-26154.494,-29156.62,-27986.182,1435.075,-9610.855,-11212.857,25832.873046875
31,-2097.1873,2253.4214,1278.9169,-364.7859,2466.588,-1188.4066,6206.9375
32,5534.735,3662.9612,3788.3745,-289.44922,-5480.153,-4618.8057,12555.166015625
33,3162.0815,5428.1978,4416.9673,-95.13894,-191.89095,1.495745,2000.98254394531
34,6865.8647,8199.984,15016.668,744.0457,-16844.012,-11962.269,36598.5234375
35,2213.4795,8843.57,9774.475,5264.825,4466.3896,280.9159,13936.802734375
36,11911.967,14442.728,17206.81,-1036.1747,-19853.838,6619.513,36581.95703125
37,-1360.407,287.715,3067.0156,-4132.0913,1167.8577,9125.525,17893.052734375
38,1430.8762,-1193.1863,1686.7509,-109.77356,1150.2906,-1773.643,4589.73779296875
39,1443.0527,16220.82,14530.683,-763.1419,-20653.682,2953.4788,38780.18359375
40,-611.1478,5559.505,8262.615,1169.3579,1062.9009,18851.416,33699.89453125
41,6104.512,7545.0957,10078.552,508.57596,667.07996,1699.442,4787.33544921875
42,7561.914,8687.524,8933.383,8.723272,1643.8025,-320.38922,3165.220703125
43,118.4635,1429.6243,1588.3162,638.2079,447.51904,276.16336,2000.9853515625
44,4968.9937,-29.052229,-1838.8844,3685.6301,3255.7395,-4318.932,12876.8095703125
45,347.64798,-86.67192,1618.0071,-270.92548,245.95782,-236.12585,1709.71997070313
46,9826.83,4789.969,17890.078,1106.4552,-501.97757,-5537.84,15080.818359375
47,-1267.9695,-820.337,-1921.0764,805.46826,996.34125,-6021.281,10705.6611328125
48,10643.601,9177.869,14991.64,526.3619,-335.41666,-4436.7915,9362.2060546875
49,11971.242,296.0112,16366.934,5060.604,-686.94507,-12001.72,26782.876953125
50,4964.605,-822.4646,-2206.3354,3916.7463,17089.139,-1251.6017,31148.8671875
51,2007.3695,-491.17093,1358.4606,-93.023476,-881.09814,-2770.5315,5515.88232421875
52,2097.2947,1933.034,2517.3381,-243.20213,-113.64624,-1080.6384,1997.98425292969
53,3259.5388,2965.8225,3519.5466,285.631,298.62482,-1042.6594,2000.98559570313
54,5520.8984,6528.1406,10682.516,3572.951,-903.8238,-1742.5486,8503.875
55,-125.3326,-116.81065,-114.538506,59.072796,-10.063192,-4067.2148,7045.39404296875
56,6010.8984,6380.4966,6177.9946,597.5311,-218.54124,-946.3554,2000.98522949219
57,3893.7144,6450.257,72.86943,3909.541,-1957.7081,-11449.453,21943.66015625
58,-4564.1445,-4074.7415,-3271.9302,-671.154,634.87,235.57967,2000.98364257813
59,342.82095,2264.9644,1105.344,-194.38974,421.23907,389.5984,1977.73815917969
60,2969.6938,2772.1406,4314.8354,113.99155,632.8612,-465.2065,2000.98571777344
61,651.4861,12059.403,21234.81,-8266.173,6744.272,1526.7985,25834.8359375
62,2924.3318,5223.334,27599.57,-8864.107,593.9654,3053.6597,28673.5859375
63,4242.1396,6579.398,6872.0903,2251.3848,4571.828,1572.9489,9569.0166015625
64,166.58727,5181.8315,7399.4126,-1066.5876,5654.123,3341.983,13191.6171875
65,745.3839,7340.408,13046.036,1779.1523,5900.3247,-3271.7039,16116.05078125
66,1116.9568,17439.16,29307.533,4487.445,7729.8125,-6231.2007,30937.609375
67,2325.4253,6779.7983,9429.247,-930.77563,6334.1357,-1087.4124,12851.9609375
68,-3482.8606,-2956.4507,-1325.3148,290.73355,3241.1252,539.6955,6036.4248046875
69,-3879.2664,6145.1704,8506.922,218.13387,9412.341,-5070.386,21743.69140625
70,8074.765,4564.8384,14914.821,-204.90883,8757.062,-1742.0321,17955.568359375
71,825.6315,4045.3481,30091.11,2631.1553,6091.552,-3144.8936,30567.453125
72,-1008.41785,7709.962,15558.717,3364.2375,10951.571,-1359.919,24603.95703125
73,10607.839,13061.276,18057.85,-403.61667,7310.6616,2564.215,14959.796875
74,-5926.353,6704.4907,26131.504,2628.8328,-4100.275,-5230.935,30587.3125
75,9360.8955,6474.3247,16654.742,41.259647,9776.112,-481.50784,19235.5
76,-2323.5344,1533.5745,2674.056,1099.624,2561.737,279.29108,6642.73779296875
77,-2165.5686,-16496.648,-36186.605,2819.996,12285.44,1296.016,36836.73046875
78,9967.969,1309.3053,16384.701,-1543.1355,9974.811,-4475.817,23182.759765625
79,-6816.157,-1755.9016,2762.2954,-655.9999,8275.638,1947.0261,16941.24609375
80,14251.527,19902.99,37094.312,-2869.628,6495.6084,4455.841,25208.794921875
81,-1787.909,-1388.5469,-1933.245,-176.38506,-370.82822,110.77482,883.936279296875
82,-3019134.5,-3004220.2,-3006129.0,3490.2117,-2095.3203,257.58514,15732.9423828125
83,-12494.971,-17466.752,3326.7087,-1233.3243,-128.86526,210.92686,18932.845703125
84,-26480602.0,-26480738.0,-26479560.0,-717.7053,15.134244,259.4026,1730.27429199219
85,-997858.1,-1001887.44,-995390.25,-3433.3933,938.1672,1395.4275,8724.4658203125
86,28654.71,4788.6206,-11557.473,-3870.0867,-1678.7881,1459.3578,35870.3125
87,7053.6733,-6558.407,12229.515,-2359.7078,-1446.6299,10715.148,25494.275390625
88,-2731.1033,-6106.1763,-42836.848,-2420.2712,-2728.5703,2817.066,39347.40234375
89,13991.917,16107.73,13980.679,4198.9224,154.46017,18296.58,32584.65234375
90,-4329.473,-3181.869,3632.3208,-2754.6138,17127.11,-10541.515,35940.48046875
91,-3471.1997,-338.65192,-2150.6406,955.71356,-4470.8975,18404.553,32959.2109375
92,30103.576,24143.807,35392.37,-2265.502,5689.4634,13483.225,27439.201171875
93,11542.064,7288.796,17660.643,239.0937,-1624.7245,13561.042,25324.83984375
94,-1930.0955,-833.65967,-1422.0132,-120.629326,637.43005,782.74805,2000.98181152344
95,-257.1161,389.53183,649.1474,-241.40404,579.30646,850.2575,2000.96557617188
96,1900.64,1384.4255,1619.7526,843.3628,660.2511,-206.68689,1941.677734375
97,4124.7466,4320.7646,4473.1987,-12.753195,911.6177,-687.6906,2000.98034667969
98,6657.992,4404.0967,5447.4517,-645.1599,-865.9204,50.448174,2706.06811523438
99,3000.0579,8237.593,-6992.022,709.85645,5840.9478,-1024.8002,16929.845703125
100,3544.3887,-10963.34,-28063.242,377.82428,9286.347,-13577.596,39536.71484375
101,-2530.7888,-10731.158,-6110.274,4669.9272,8129.104,-4496.875,19366.025390625
102,-2282.1357,11250.533,12874.852,473.1647,11781.615,7384.295,28078.94921875
103,154.24675,433.28677,216.91304,-391.99673,-179.59479,-1061.7426,2000.98547363281
104,3435.54,4387.71,3600.7598,-202.65894,-893.2861,507.49344,2016.51892089844
105,6490.559,6617.595,7771.062,1394.8539,-4082.7034,-363.7942,7598.18701171875
106,-8840.541,-6209.325,-10681.187,4720.862,-2175.1646,-865.94366,9922.5810546875
107,51833.08,43731.918,46653.38,-156.98381,680.88794,1669.7106,7766.92138671875
108,11561.973,6428.701,7917.255,984.89185,-2606.3945,-35.381165,6649.720703125
109,-6416.8984,-7586.776,518.426,-11243.603,-2997.0374,14350.465,32887.546875
110,3158.6963,3186.1448,3893.291,-250.86134,319.2826,998.1733,2000.97155761719
111,228.07896,764.08673,587.6709,-841.31165,-579.2703,465.4741,2000.98559570313
112,476.44113,-2735.676,-1549.0228,3709.3694,-4140.1177,3372.4136,11607.4833984375
113,8366.195,-5541.723,-15238.537,-7969.6846,-11314.75,-540.124,31588.201171875
114,16713.691,17956.121,19810.197,2024.0916,5009.7554,0.51932496,9740.0498046875
115,4272.8965,37014.23,33116.652,-5055.5977,7639.2134,175.84329,34805.4140625
116,6780.426,8013.697,10778.528,-763.73926,4972.085,524.4175,9450.654296875
117,-1033.5056,18057.99,34685.004,1161.9355,-5020.3066,12974.203,39281.39453125
118,5130.6606,5412.4395,10987.788,-1359.5084,4701.2295,-643.87024,10287.2783203125
119,11131.81,15596.426,202.4248,-4122.1787,-8666.089,-483.6895,21567.61328125
120,14163.889,17167.621,19271.805,874.8122,6971.3823,785.22217,13027.529296875
121,2566.255,6910.2363,12388.358,-2682.8604,5082.904,-133.97108,13108.4580078125
122,1737.006,-3253.202,11600.204,6824.662,3454.2334,-10735.658,26319.015625
123,-1747.4447,-1657.4714,-650.65106,-513.34015,3410.1377,-828.7548,6233.0205078125
124,5358.73,8247.165,8750.58,-1706.4731,283.65396,7730.5864,14082.400390625
125,5478.1704,5708.869,5931.651,-42.658398,1102.925,254.88734,2000.98522949219
126,15067.686,18749.533,19492.01,2905.3665,2964.158,3027.1191,9798.646484375
127,6532.3975,30417.535,13560.854,760.81305,-17479.562,2775.958,37329.38671875
128,19046.332,16000.705,23780.963,1208.6129,165.8047,-6531.5537,13362.6640625
129,-7020.448,-4569.8945,-6725.0483,-1377.0942,-2108.469,-2324.5007,6372.17236328125
130,6702.5005,2625.0715,10707.893,1759.1144,-8446.254,726.0045,16549.3984375
131,-14029.281,-10032.759,-1563.0657,-4350.282,-6946.5625,-7917.346,22608.61328125
132,-6700943.0,-6702884.5,-6701600.0,546.5972,42.824654,65.814644,1959.67041015625
133,8018.12,1846.2991,14941.076,4413.867,-4330.7896,12043.054,26049.283203125
134,-29509.436,-25859.023,-56127.24,10242.265,5409.7715,6065.4155,36494.87109375
135,30679.469,12706.849,19265.912,3383.1846,-10662.8955,4315.221,26066.185546875
136,14600.935,11459.104,30404.8,970.2643,-189.85399,9077.945,23652.611328125
137,18941.666,35352.137,37380.62,-7144.807,-1090.75,15848.205,34884.34375
138,-522.57526,530.5706,847.186,211.08553,467.99323,-746.19366,2000.98547363281
139,10957.133,11670.691,20856.822,-1682.0232,-5256.58,-7839.8926,19163.0703125
140,3356.16,3687.451,4950.341,254.07663,-395.86865,20.921316,1669.77319335938
141,-604.942,-1957.0897,-827.3146,333.10736,-290.19598,-783.44244,2000.98498535156
142,-6998.042,-3120.0955,-1689.6093,2227.023,7261.6523,-1342.237,14181.3466796875
143,-4335.9805,-1675.105,-2535.878,2043.477,9816.94,-1785.2213,17797.083984375
144,4449.94,5610.6636,7344.482,113.9812,3368.0842,-852.58966,6528.212890625
145,-2996.9707,-16970.684,-41124.19,-3576.86,5693.491,-6533.4136,37146.421875
146,5301.268,1485.2964,6951.76,5619.428,6896.738,-3240.7375,17103.216796875
147,2380.5945,4869.974,34290.79,5158.784,6332.5547,4335.265,34663.34375
148,-26835.525,-7713.936,-47128.94,4380.0005,7251.9893,-6907.6196,39038.09765625
149,8666.687,6745.239,13370.982,1473.2572,6942.1177,-3144.9597,14684.1474609375
150,21.330643,2767.5688,8393.113,72.51185,8200.557,-523.6291,16038.1845703125
151,4782.7534,4393.606,4558.589,167.80687,-51.447113,-1125.0293,2000.98547363281
152,1594.5266,185.25508,-425.70956,893.54,-1475.2322,-7289.4575,13097.828125
153,15119.286,15239.609,16812.047,-926.7651,-2627.1985,336.10922,5128.19091796875
154,444.26358,1090.593,744.3167,204.69577,491.37888,-972.97473,2000.98486328125
155,2185.5183,1913.155,2194.382,-236.61653,199.20985,-1101.5522,2000.9853515625
156,11092.804,10450.553,10860.337,-526.52985,-767.5887,-605.7203,2004.29406738281
157,1844.7931,2185.6228,2397.115,133.84775,1057.0049,-348.99023,2000.97045898438
158,-2585.5718,-3429.9321,-3459.7969,-208.49873,-939.0255,-403.79486,2000.98120117188
159,-6275.243,1039.5983,10779.179,-7516.5435,8981.799,11080.748,31614.4296875
160,-1675.49,-970.3368,-1696.0591,31.797121,-1032.4192,311.48627,2000.98498535156
161,-736.0151,6144.2983,11784.22,42.75709,-1698.0945,7626.2915,17351.912109375
162,-2373.6973,-1367.2583,-2158.793,349.34216,-835.04297,-484.11984,2000.98510742188
163,161.97604,200.14307,-269.71725,-1005.3102,-501.47913,-66.47948,2000.98486328125
164,3388.3916,3643.4526,2532.412,-823.87134,-1001.8999,-306.88242,2519.18969726563
165,10420.479,5982.7334,21727.824,-5899.5957,962.0108,13766.921,29555.12109375
166,29916.17,5439.3774,36671.594,3406.5117,11202.646,6655.4907,36800.78515625
167,16852.83,21287.816,23531.129,-3997.0183,2290.4487,13296.922,25074.7265625
168,16261.868,8622.455,14337.782,1000.11633,6508.8325,11018.6,23274.189453125
169,1201200.8,1215058.6,1197590.0,13824.331,1352.9131,2422.0652,29181.197265625
170,8258.768,8434.598,10860.965,-605.1831,-1854.9476,-3776.6287,7781.69677734375
171,-2134.3025,-2577.6873,-2528.377,-493.03293,340.3696,-957.42456,2000.9853515625
172,3789.1248,3813.8193,31821.805,-3931.899,-7838.957,-1589.2877,31991.31640625
173,24649.504,38107.52,34798.9,-8367.62,-1993.8132,919.9513,19288.693359375
174,7235.245,-6695.1465,-8049.6416,-443.70154,5239.428,-10251.433,24758.435546875
175,18999.535,4744.3535,-2903.091,-4249.3823,-7819.7627,4788.9146,26021.689453125
176,-1484.0397,30748.88,3160.6804,4761.1274,9186.754,-1046.4786,35146.85546875
177,259020.42,268427.62,249666.5,-17076.963,-10965.47,1420.9994,38802.5234375
178,-886.213,12187.877,37184.137,80.53668,-1186.0448,-3827.7449,34216.1171875
179,7669.183,1968.1183,-19148.213,-3980.5872,-52.59467,-6482.833,27792.30078125
180,12079.61,1027.3638,22332.492,-898.7815,4864.2314,-5580.7285,22526.216796875
181,6206.6807,13750.001,-2036.5294,730.16406,-6113.654,13901.545,29673.58984375
182,14855.148,1317.272,4235.6357,-2587.3672,-208.22716,-2485.008,13821.0625
183,21423.021,1979.0361,11691.68,616.2936,158.54199,-19238.428,37351.2734375
184,9869.065,15565.953,19986.43,-5964.115,10545.398,17305.283,37628.77734375
185,-8694.878,-2574.3484,4817.679,-8727.784,12857.594,-1174.5579,29427.208984375
186,-1359.2778,8397.761,11349.81,1670.1992,13634.349,-747.26166,26465.9765625
187,-4112.252,-3155.6897,-3393.48,-121.81791,209.43787,676.1652,1513.87060546875
188,1262.1058,-376.91092,-15402.734,27.795282,-1536.6849,4945.3936,18263.2578125
189,645.95917,-104.09574,-419.29797,730.71185,208.78183,676.51044,2000.98522949219
190,1157.9635,-5441.813,26295.26,3269.2478,8032.852,-5153.3125,33862.296875
191,2348.1038,4788.005,3145.1794,2177.097,724.25134,1987.5212,5682.1875
192,1956.4578,746.28345,23921.115,685.027,-8303.086,-41.561996,26809.111328125
193,1749.8597,13114.009,8517.775,-12331.579,-9770.538,-8611.851,32605.560546875
194,16740.48,9936.824,922.44855,-7563.369,-7869.017,8659.104,27770.443359375
195,3837.0298,16647.713,14835.307,4904.17,-12133.856,11562.12,32543.388671875
196,-40490.78,-36712.195,-17957.262,16272.174,-205.74022,5248.918,36249.46484375
197,-18814.23,22222.97,8380.609,2085.454,474.9773,-4884.612,37321.7578125
198,10978.687,-890.92163,11004.633,722.8878,5179.969,16757.398,32644.9296875
199,8631.632,19121.094,26669.285,-5824.606,11077.965,-11198.435,33050.52734375
200,6425.798,11153.958,-15965.419,-433.79172,2861.4158,2969.8162,26099.39453125
201,7078.254,-18058.568,-8922.595,-2626.0034,-4331.57,-16774.91,37507.92578125
202,634.5083,4735.014,18912.377,-1688.8972,-8328.446,5767.869,24339.2109375
203,6535.4844,1243.9893,24327.533,367.87726,-10962.666,2399.0435,28581.740234375
204,14648.746,17519.627,49896.03,1614.7185,6575.8584,-8515.602,38788.09765625
205,3019.1934,6201.3467,21699.416,10129.516,-225.77174,14980.605,35789.15234375
206,1471.7866,19676.887,3020.958,-4944.8003,4232.2085,-5865.7783,23150.22265625
207,5445.667,19718.303,-13592.008,-330.71927,-3799.1624,567.61523,29706.13671875
208,4789.97,14466.574,-7547.842,-2762.777,2177.4177,-3140.5156,20783.580078125
209,-412.5481,12992.762,29419.807,2756.3303,-6066.862,5197.7354,29732.5
210,-7299.084,9987.869,-11964.556,-4215.5864,-2004.731,-469.6917,21616.875
211,-12206.609,459.61758,-13582.785,-6145.6475,-16536.748,-8241.034,36293.265625
212,10006.342,10947.701,36655.61,-7057.4136,-15395.876,-139.44981,39326.34765625
213,7395.589,21024.041,26941.645,6518.4673,-6368.212,17714.225,38625.3203125
214,9712.112,23502.629,31896.72,-9656.662,-3469.4375,-11851.36,33371.04296875
215,-3120.1357,-2040.9489,3629.2078,-2301.7285,-7850.2896,-5028.6587,17778.40625
216,8554.992,9858.162,13802.008,575.2061,-1308.6681,-9063.283,16581.658203125
217,-2902.3696,1641.8612,1994.188,3200.5933,2104.8828,4628.984,11431.5654296875
218,-387890.97,-370792.03,-368593.53,13677.252,-5892.9937,1344.9982,31711.353515625
219,24671.078,8219.324,26215.264,2288.094,7483.029,-11987.278,30219.646484375
220,-1667251.9,-1678541.4,-1661700.6,15314.959,-5521.1357,7019.6494,34115.3828125
221,10602.598,3304.1257,8106.623,2317.0916,-13551.546,4642.141,25941.6484375
222,19832.928,9332.295,30893.395,-460.12714,928.7435,724.6077,18802.58203125
223,13428.697,11490.593,17274.11,1219.4481,-14482.46,-314.8732,25690.072265625
224,1571.8053,-4139.907,-28260.389,4095.9604,-3463.1824,13433.992,37147.25390625
225,8373.112,5509.479,15297.211,-1045.8014,-990.62604,13327.335,24800.20703125
226,10205.451,11452.547,23797.457,-166.01337,1004.3,8309.809,19483.701171875
227,5541.2354,2208.7104,5596.2783,579.59686,-983.98553,1351.5331,4548.03125
228,6977.3037,-4331.66,22135.111,-7819.4575,-8639.774,-10161.184,35301.3984375
229,12710.247,1905.4437,15195.237,8057.878,7019.4253,12525.83,31033.259765625
230,17174.89,17216.496,22749.506,1563.3678,-5533.951,3016.289,12543.77734375
231,-7246.1226,-15820.352,-5129.6265,-2311.5159,8328.29,2172.673,18287.0546875
232,26798.117,2738.5615,29628.781,5128.1494,-12482.797,7436.1064,36975.94921875
233,14404.21,11063.037,26265.967,-406.74863,-5478.6704,7468.0923,21198.064453125
234,-545.98334,-1831.2979,-84.41496,244.45015,-437.72214,-297.1398,1864.74792480469
235,-14086.913,7749.666,-17475.918,-1247.1648,12840.432,37.862167,32582.609375
236,-4880.4907,-95.67403,24477.207,-6321.945,5143.392,-3247.4412,31228.1875
237,16152.409,11827.412,38406.516,-10433.36,880.50806,-4759.4604,31734.021484375
238,-13855.181,-2483.4138,-21423.184,-1271.5406,2782.6543,12733.701,28056.634765625
239,4150.5303,-2052.2156,13157.875,-3039.0742,10978.373,8671.953,28113.462890625
240,-6784.6885,2707.297,15902.622,-1398.4913,9582.157,-5187.508,27413.783203125
241,10398.172,13836.238,40018.22,5500.683,-13459.2295,-118.3571,37704.09765625
242,21498.025,14740.143,24769.238,-6915.78,4417.0596,-5777.58,19509.814453125
243,-3676.0527,-2078.4224,12129.512,3249.616,12690.893,-3669.8438,27970.9921875
244,-1420.9463,-18139.428,-29480.314,1168.3401,7726.477,1758.8744,28110.443359375
245,-3025.2349,33963.906,23644.742,2377.658,1314.8466,10748.271,38232.27734375
246,-2351.7268,9832.46,17989.855,-7014.457,13553.761,703.4698,31852.69921875
247,4930.744,7196.0747,32456.025,-3694.109,8187.238,3067.9685,31155.87109375
248,-12233.066,-1871.7389,11498.137,1462.6014,14000.195,1636.0059,32048.4609375
249,-1047.2169,-7385.8413,-3047.7532,2217.2498,13251.442,-8107.1074,27752.9453125
250,1391.8817,14802.246,-2640.389,4625.3696,4541.296,7808.298,23645.974609375
251,-134.45691,5631.0254,3357.3772,2482.4722,14878.547,1700.9906,26769.0703125
252,-21302.844,7989.295,13960.543,-934.0211,-1466.8745,1891.7522,32990.97265625
253,-15188.452,19093.441,6472.909,2894.0984,3227.2046,5926.7217,32613.193359375
254,13812.844,9088.552,-14122.746,3166.0396,3165.1702,-2371.3716,27344.77734375
255,32906.047,39876.395,62915.7,2610.308,3673.7832,7014.3335,30798.0703125
256,5238.5674,5529.431,5752.4604,-173.43396,-989.21515,-509.52512,2000.98486328125
257,-6042.2334,-35177.27,-16752.805,-7513.1514,11742.475,204.34464,35137.421875
258,1204.0466,230.29546,-359.115,370.42554,-471.2211,-593.46686,2000.98413085938
259,2403.035,1809.0496,930.04913,219.72192,-47.83817,-857.25726,2000.9853515625
260,912.03046,-16461.408,-20383.086,4003.8743,-6168.65,-4995.9937,24949.51953125
261,-2541.8257,5307.808,18816.562,-7103.6997,-10482.896,-5645.4404,30443.65234375
262,19265.426,12550.273,1021.3144,-655.8267,17120.682,-1729.2325,33838.484375
263,-23053.62,-22028.152,-32946.44,11283.444,4739.472,-12962.254,32595.40625
264,1673.3802,9156.638,6624.913,-5202.4624,6487.5664,13713.988,28550.76171875
265,8716.586,15846.18,19306.203,-18085.205,-10980.961,-1027.955,37863.04296875
266,12251.742,18233.553,20663.19,-6079.663,-4033.3232,-4609.963,16723.16015625
267,5450.256,-6744.3633,-827.43506,-1444.142,-1926.0424,-13063.412,25316.158203125
268,16776.143,-2536.0195,34593.29,3990.2007,-3522.4062,-6429.539,35263.32421875
269,5144.6416,-3991.8108,-1016.09875,4878.0244,2703.306,-10327.494,21872.873046875
270,-16099.67,2817.9746,-28696.533,4164.2017,-2210.8071,-5351.6187,30124.166015625
271,-8354.09,-1498.145,19243.213,708.2187,11768.9,8135.453,35142.453125
272,423.67188,9863.664,11033.669,-2126.5725,-3048.319,-5052.4272,14817.28515625
273,-3918.336,5378.8115,13157.499,7823.1875,-1888.6162,-6997.504,23674.185546875
274,-3207.2244,15506.639,-5592.6777,4943.9297,-6383.4355,-6539.203,26914.599609375
275,-12778.502,20593.824,29734.773,-3061.0334,461.15573,-2327.372,39336.0078125
276,-7025.3506,-6288.7397,-7144.9956,702.7251,222.43889,-759.1651,2000.98522949219
277,-5911.8423,-7058.339,-8105.8535,137.37898,155.81837,295.39426,2000.98571777344
278,-8019.1,-3778.6367,760.8961,-4369.5903,-10202.935,4025.7874,21818.3203125
279,-3238.643,8771.082,7406.126,-2462.6055,1101.3512,418.9036,12331.3623046875
280,-2165.6702,-6523.4053,7935.667,4043.7102,-2801.6343,1964.5203,15786.8955078125
281,-3874.2676,862.7124,-21261.748,1899.5875,464.66425,-2093.0112,20778.419921875
282,-2667.538,-6879.09,-14627.772,3159.479,4931.417,-556.4937,14637.138671875
283,12640.283,-6230.188,-3689.4812,8681.338,10091.315,12472.753,36234.171875
284,-122.99631,-1792.4402,-17202.59,5802.1694,-7223.5635,1296.0123,22990.4375
285,14408.461,2599.6973,29279.334,-1833.831,7182.435,3350.8438,27105.935546875
286,6460.937,1061.3411,1922.9993,152.36632,-8586.05,-8077.646,21029.05078125
287,2407.3018,13831.669,1376.73,4523.8755,-4411.8574,-6087.678,19347.380859375
288,-3884.5747,-2507.0303,32423.06,-5244.4253,-2798.83,-3745.9597,37659.46875
289,19519.244,17579.504,34729.402,-32.099476,14986.005,-14435.265,39540.98828125
290,-1238.4471,-6982.4688,9376.221,6754.301,-3513.0864,-7682.4146,23613.162109375
291,-576.71484,4275.7876,-26680.922,-1133.0259,7383.4575,426.56488,31616.302734375
292,-13531.013,-2114.743,-18912.908,-1824.4457,-16315.791,-12533.415,38737.546875
293,3675.0085,15146.315,16450.658,-5362.6104,2300.8198,19331.7,37034.4765625
294,1723.385,3814.3125,-770.0332,3513.2317,-573.3555,736.15936,7446.01025390625
295,-4758.1255,5893.3745,5650.9307,-1187.592,-9581.865,-8613.927,24762.826171875
296,-24150.42,-9477.252,-14517.439,-5807.379,8996.194,14714.792,34063.125
297,25559.445,21263.885,13930.742,302.41714,6207.6177,8749.3,21195.646484375
298,3988.5034,1584.8031,15581.016,-1444.0327,721.8399,8500.556,19814.798828125
299,6089.0654,5711.6323,5713.137,893.30255,-1490.1537,1370.6907,3851.48168945313
300,-19855.408,-19686.295,-6031.132,-5989.32,-7783.8413,-9019.112,26874.056640625
301,-416425.12,-441058.53,-415559.75,-9800.253,-890.61115,1610.6504,30449.4296875
302,8129.518,2854.9382,11874.98,-1323.2598,-2451.6995,8759.758,17750.8046875
303,9357.702,7843.8643,7586.661,-2773.3323,536.36395,11540.989,20646.251953125
304,10075.927,9442.451,42777.887,-4433.3105,-1589.1332,3068.8184,34428.58203125
305,-9080.758,-2048.865,20701.797,-3800.8574,3080.1272,2726.8015,28655.328125
306,-7360.1426,-1289.5991,-9611.737,-3764.9373,5020.9546,-20.387993,13181.23828125
307,-16149.021,-17555.338,-14005.889,7408.8965,7074.1436,-176.2574,18013.4296875
308,1479.4393,-2794.1157,14760.036,1827.1757,1681.6323,-613.8143,16462.763671875
309,-2970.8667,-3468.7542,4885.691,1578.2109,2677.4712,1800.1576,10226.708984375
310,-5441.126,-6256.2197,-2033.8452,3180.3782,4281.9053,-19384.652,35038.46484375
311,-2779.3,1703.3342,-16653.193,-2285.865,882.3402,5472.5107,19560.845703125
312,8352.512,-12114.322,-15279.244,6099.5215,-1684.141,-8820.15,29106.5390625
313,-1474.3362,9442.434,18298.104,-10352.425,6115.4478,12038.428,34099.2578125
314,-1494.3269,19533.078,6761.3276,-1688.0839,8455.701,-6238.256,26009.720703125
315,-10934.846,-1018.7741,3048.6216,1035.0992,-669.9205,-896.6329,12734.884765625
316,-73.56525,-2056.2288,3836.487,989.76965,-5141.3545,6084.498,14841.65234375
317,8261.217,-636.2953,-13552.496,-4638.806,-3491.329,-4614.4854,22932.94921875
318,-3661.0076,-3899.4712,35444.48,891.4644,-1787.9089,-3158.2625,39755.7421875
319,10045.482,-4676.639,18512.398,1679.2244,-13484.424,10367.494,35909.3828125
320,1430.0935,648.03143,21834.979,3151.8318,-4350.1733,-3144.6243,23434.353515625
321,-12982.344,21166.3,-4212.2534,3462.5073,-6139.4175,-7561.727,35554.76171875
322,5824.558,11773.15,23050.902,1059.954,1377.945,16102.046,31883.453125
323,25380.031,29460.139,42576.695,3127.4446,11391.196,-12531.903,33644.8359375
324,6517.5044,13447.215,-23224.914,-214.081,2160.6458,-10706.664,38688.23046875
325,-56543.453,-44245.555,-45628.332,-14304.31,-6036.71,-860.0674,29351.826171875
326,-17814.965,-9899.336,-20977.05,4345.343,-7867.6333,-7564.1216,22620.314453125
327,247300.36,220083.9,234956.27,-12330.734,-1574.3528,7830.652,34708.5546875
328,5886.1987,-2675.8384,21478.154,2036.655,-4674.215,1039.6726,23046.6484375
329,10735.78,16652.854,40453.53,8170.3096,233.5585,-6418.967,32655.00390625
330,-279.6658,1492.7045,6427.454,-2235.2075,-2281.3057,10760.882,20352.65234375
331,-5391.8906,-160.81381,26717.9,-1063.7854,8773.32,6614.3384,35439.9609375
332,8980.736,15311.393,9279.521,2475.4675,-8410.375,3118.8887,17263.962890625
333,13428.528,-10317.139,22704.06,9772.694,-1128.7759,-682.42993,34086.390625
334,16059.267,4842.1216,7404.063,2013.2878,1510.1227,2507.9883,11896.2861328125
335,-4394.8726,23323.785,22866.783,-651.2172,1606.2844,9222.621,31938.1953125
336,-1829.9774,-2698.7822,8198.942,-3392.9634,3186.874,7890.3613,19021.716796875
337,-2368.9768,-9352.873,-1688.3856,-3626.5144,-2432.5906,-11045.929,21845.736328125
338,20482.914,6151.2935,19228.068,10121.561,-8621.422,-11034.439,32933.07421875
339,5988.6826,7612.2266,40731.727,2363.4521,543.002,7398.283,36539.76171875
340,-9259.952,19500.34,2029.6569,38.758507,9017.967,1383.9496,29658.70703125
341,-3849.607,-7099.9087,2680.701,2187.846,-2170.626,4937.8354,13269.376953125
342,-685.1664,-4175.286,24027.016,1799.0068,4434.394,881.0301,27931.181640625
343,-779.23456,-611.0108,-1433.4076,684.9906,449.27536,335.95248,1708.23376464844
344,10694.126,-5228.205,2981.8147,-3965.0217,-3858.799,13618.663,28955.85546875
345,-2758.4897,-1435.7058,10225.587,1635.3302,10945.597,1035.3322,22887.064453125
346,9379.549,-7008.172,-25971.871,-3084.7805,-3066.7622,5330.8657,32878.08203125
347,-132.4336,-18202.055,-35116.332,7590.7295,8917.26,-4574.1807,37315.12109375
348,-13710.011,-2548.0898,-33542.484,135.48483,2341.373,-5932.724,29349.220703125
349,13622.496,5274.8794,43684.95,3529.9756,-3331.3174,1042.6924,36032.21484375
350,5573.4243,17826.312,25671.527,2223.9456,-13514.506,-6107.398,31344.400390625
351,-20812.648,2979.8486,-436.13754,2745.344,1406.8533,7936.8105,26720.859375
352,5865.3794,2914.0178,10668.902,3967.6106,8206.067,-2789.7007,17848.0546875
353,3897.7222,-9457.398,-12008.386,-3841.1514,1047.0455,-6213.4614,19552.7265625
354,1986.1907,7665.9834,-4779.639,1338.2748,10361.699,5423.6313,23069.01953125
355,15385.21,-127.87533,840.76495,-4138.95,6834.98,4495.1997,21879.935546875
356,-2623.1604,-1565.3374,-804.62787,639.45917,42.551273,128.19035,1945.2041015625
357,1181.4126,1108.1888,896.08923,516.92303,322.0826,-58.52006,1090.40930175781
358,-8770.922,2667.1636,125.076416,-743.1905,3023.6555,10614.957,21802.10546875
359,585.7888,548.7327,-1150.9846,347.05432,-502.37985,-468.95425,2175.23510742188
360,-6616.609,3916.6306,16689.809,-5473.7036,-6741.618,3131.9656,25774.138671875
361,-4662.9204,-1777.5684,5983.8477,-3289.491,518.37726,-2090.9238,11719.3662109375
362,907.44885,5175.786,1654.7241,1.8985094,121.38269,316.97415,3991.63256835938
363,-419.6881,-3339.2725,-3238.977,1051.425,-216.17764,148.36496,3429.85864257813
364,769.0774,-2964.887,-4948.9336,-532.35535,-1457.6497,-889.98804,5906.60302734375
365,-7636.8955,-4801.7515,-9276.626,1506.9004,432.04767,-696.10394,4919.5078125
366,-1293.2047,-1716.1411,2784.596,-3644.0405,-1491.5964,-1287.7188,8367.6943359375
367,-2063.0325,-1192.1218,-1739.4299,-121.009224,-1225.0858,484.2384,2414.80249023438
368,-1974.358,-1458.2699,-3389.4194,823.5646,606.18677,-183.75891,2497.50024414063
369,-205.58066,99.591675,-234.8686,111.030815,-67.155556,50.08422,401.203460693359
370,-1032.0593,-366.9075,7.1746826,210.70871,41.580738,35.616863,986.5966796875
371,-126.140686,-920.18506,536.43616,-159.1859,258.3435,52.217636,1371.15075683594
372,3779.745,467.0205,-23312.176,4806.6646,11261.808,1764.2072,33381.62109375
373,-944.3552,-1535.4231,-6372.7026,344.04935,-2285.1091,-4016.9246,9541.232421875
374,229.41077,1891.9183,3406.8538,1339.6516,-1030.3888,41.66876,4018.93798828125
375,256.66394,257.1797,1587.3479,907.7043,-377.35464,-531.3013,2348.58422851563
376,-8327.907,-14690.17,-14444.24,911.12976,-7075.718,-6784.913,18159.4921875
377,12379.387,874.6323,11886.877,4021.0425,4666.764,-1736.2555,15805.755859375
378,4525.233,2795.8774,21630.268,-1258.4711,-2942.225,-2537.7405,19369.95703125
379,-662.89185,1638.1875,-11249.682,619.0494,681.11536,2459.0522,12744.3466796875
380,-740.6094,413.11182,-14819.13,-438.57114,1052.2234,1906.098,15184.7509765625
381,-589.4343,1089.1382,-1440.3253,2017.5029,173.07938,551.6773,4264.2431640625
382,-1589.1799,-198.42563,-104.81415,503.12668,-149.433,-25.1221,1703.36267089844
383,3979.8296,3931.2463,929.9082,1900.862,-1082.8309,-86.83905,4851.4150390625
384,443.5774,-2460.311,-2854.9062,215.6037,-700.71106,392.3693,3436.3408203125
385,-245.40971,-2500.372,2197.077,26.059736,1757.5638,-321.1097,5112.41357421875
386,4460.6655,5996.7817,-1143.522,-2116.098,-623.3265,-378.64514,7576.58203125
387,2771.9578,1219.2144,3802.4219,155.04877,270.5731,1145.6915,3049.99853515625
388,-511.77087,-817.0172,-4.2237244,-545.57697,-106.09297,-80.21571,1204.88171386719
389,-878.7803,1435.9594,7182.0283,-1673.1729,48.542274,1172.4291,8012.82373046875
390,-2410.0708,-6994.8066,-1292.3423,-5.1274076,-943.9557,1647.4082,6181.3193359375
391,-835.265,-1171.0697,2404.943,-214.91887,1102.5629,743.6362,4140.56494140625
392,753.4831,-3188.1611,7096.0464,1440.957,144.22336,-411.93637,9357.6357421875
393,-4630.897,1525.8069,-473.87836,2175.5232,-746.099,1910.9357,7511.05810546875
394,948.218,1998.1099,4661.1826,-655.93945,-568.79913,27.241743,3640.57153320313
395,1840.5098,4037.5967,-1960.5657,447.15912,-1455.4619,1180.323,6225.841796875
396,-12003.807,-5922.253,-20424.03,-911.5124,-9711.264,-2907.009,21676.34765625
397,-1332.3527,-3782.743,-1970.3774,-2721.131,-4105.2725,-1196.1678,9050.6337890625
398,-7449.116,936.5381,-15975.304,2416.1455,615.77795,-336.3204,15280.8017578125
399,-5403.0293,6214.6787,-6982.7812,2662.3188,4260.9487,-1942.518,15584.314453125
400,2030.5309,-306.35486,-7508.7246,191.7235,4179.9985,4960.5146,14160.291015625
401,-2670.175,-545.76733,10712.224,-2545.136,-208.22014,2578.0918,13952.595703125
402,1123.0376,-608.4177,2399.0938,-540.5186,-369.31766,-290.6717,2893.9296875
403,2833.7393,2325.2866,-526.84924,-2282.2896,671.77405,1317.046,5659.2919921875
404,888.7272,-2036.8654,-251.80414,-1235.0165,-1261.0776,-841.7686,4242.12744140625
405,2550.8318,1428.555,3435.425,-2436.172,406.56018,417.53418,4675.30224609375
406,1636.4146,1459.1315,17.747986,-20.872604,125.395294,-143.8281,1573.24096679688
407,-48.27289,1870.9226,-4957.397,-1067.2603,-1523.6467,-858.1129,7056.5634765625
408,2202.4663,99.08429,-213.12573,145.86694,428.56454,-41.77869,2407.99877929688
409,856.5964,2058.5935,1206.9049,-751.01465,-2491.0427,-337.4303,4668.61572265625
410,2750.0605,12006.313,22181.451,-10.526954,5144.1807,5102.4697,20997.357421875
411,6602.8286,663.82227,7808.792,-273.57996,-387.53964,-2547.31,8001.8642578125
412,-2852.2495,-3543.1875,1782.0043,-3233.945,-7468.0034,-9424.893,22143.39453125
413,-743.7053,-3506.779,-2628.6028,1471.7329,-917.4519,-96.96217,3876.93920898438
414,4330.156,2789.272,3684.324,-1615.2133,-171.80469,-1924.905,4563.6982421875
415,8279.63,4705.5503,8141.4277,-1222.7607,88.58843,230.4718,4119.16552734375
416,56.27381,11566.918,-11369.349,-3505.2761,1489.0905,-3596.467,21837.41796875
417,-673.90027,-998.4159,1149.1569,-503.68936,392.61002,-130.68053,2301.13598632813
418,2910.754,836.80505,-1000.3821,-67.50602,1362.1841,-501.0722,4221.4072265625
419,2292.0142,3878.665,14092.057,817.6385,-8215.895,-3488.6406,19080.255859375
420,-5408.087,-11842.198,-9022.795,-448.46915,-307.6184,638.07245,5771.92626953125
421,-600.4779,282.30884,300.0665,-57.738785,739.4053,170.9724,1591.59057617188
422,5303.7583,10016.238,7550.778,697.8232,-1349.367,3713.5984,8059.97607421875
423,-800.2329,1518.4939,9320.235,-4456.74,-8329.589,-4743.6025,20483.4765625
424,-884.25684,-1135.7584,-4193.9097,692.51483,1301.9991,-602.40125,4218.728515625
425,-1728.3678,-502.81805,563.0419,-364.13434,-375.37775,272.67154,2233.34936523438
426,-325.5588,548.5279,-635.29956,-763.94635,49.08702,-61.557503,1702.9814453125
427,119.1438,704.4669,-5212.2603,781.83044,-195.56262,347.21066,5847.8408203125
428,748.4512,-1596.5872,-465.13446,-2023.5964,276.11868,-219.03683,4096.77587890625
429,-3895.4722,-6851.0103,-6115.9614,-690.691,176.42851,-2243.3918,4870.93408203125
430,-966.2959,974.79517,-9582.518,-1651.645,8580.699,1227.4391,18119.623046875
431,-846.199,-2019.2588,-4325.895,-124.69222,-539.50714,272.0307,3247.20068359375
432,-270.1535,791.01526,-2137.153,29.753748,-1018.23413,-130.75726,3123.6708984375
433,4839.3843,280.01624,6718.809,2707.9858,109.67981,2675.0017,8740.2294921875
434,1856.4053,-235.77061,2302.843,173.30267,1695.4185,47.822872,3772.376953125
435,-392.18445,1643.6178,2374.3774,-705.50964,-182.12154,-1028.234,3306.1630859375
436,4829.757,3193.6807,10311.849,6393.9478,7537.7505,6131.2847,21156.037109375
437,-1111.7025,-650.50574,2344.831,684.7898,1583.3389,426.64438,4476.60107421875
438,-345.33246,-661.8301,322.93198,436.8958,164.62492,24.060911,1189.08666992188
439,1749.4707,1728.492,-3186.1382,-518.93414,1537.722,75.45828,5672.376953125
440,-2405.9702,1525.329,416.52032,-176.76332,618.71765,4090.4302,7985.14501953125
441,798.88043,-136.00829,-129.31618,-864.17377,125.62563,207.95647,1812.53344726563
442,-2608.6697,1086.5287,1248.2823,1008.33417,299.70554,100.57228,4198.6181640625
443,-497.11905,-1869.8605,47.07252,-1898.4104,-177.04965,41.2611,3720.03100585938
444,3028.967,2272.3367,14468.287,-2509.6648,-5949.6636,-1566.5369,16508.74609375
445,-783.63367,-4918.153,-645.01404,-917.0289,-883.92535,2538.165,6471.494140625
446,2580.8267,1338.8909,-870.0538,551.61597,84.09622,191.13191,3195.13061523438
447,-4222.9424,381.23383,1356.9082,3399.723,1821.3187,1410.0645,8788.2509765625
448,-154.12787,-82.14407,684.57513,1053.6707,632.4779,-288.6455,2330.00659179688
449,-1251.5063,25.742508,-10102.522,-524.69104,4202.395,2562.3916,12836.6904296875
450,441.36673,894.60016,-574.83057,860.1496,-1354.9393,-96.38713,3074.68334960938
451,-2051.7483,-17.508097,92.04451,26.145063,-195.92935,143.3216,2133.501953125
452,-3898.149,-1187.1869,-4744.4766,454.98114,308.92065,-191.84912,3373.08276367188
453,3971.3088,-2222.2175,-4032.4797,833.14954,5111.4487,4616.906,14044.9033203125
454,-1374.5201,3304.0928,4532.0464,995.0855,5573.0967,884.29236,11297.66015625
455,-1486.1897,2487.872,-8649.348,573.117,1637.8129,285.73795,10239.5537109375
456,-892.4281,-3006.7737,-4755.0913,353.5709,954.1233,-643.6236,3946.1962890625
457,604.1504,102.67075,1161.4723,491.64136,555.9481,58.45475,1582.46459960938
458,695.90674,-2398.4639,-280.46118,105.95971,16.693386,-625.05817,2951.9130859375
459,551.6664,284.41986,878.5253,256.8402,-408.56238,210.58612,1047.53002929688
460,1405.3427,3142.664,5091.7725,1158.4825,932.8632,100.67174,4107.41845703125
461,2018.7754,-134.95302,-1421.4318,-2952.835,-3539.8855,-61.56498,8533.7998046875
462,-2664.7002,-290.98572,-1524.4927,-216.13443,-558.60254,20.839598,2303.3935546875
463,3099.2715,-2212.982,379.13986,471.26132,-847.5853,-1537.3262,5575.0068359375
464,-1068.3442,4163.5986,-5304.4497,-461.46622,-9847.593,4220.7334,20309.8203125
465,829.10754,107.36639,-126.58845,-1156.7504,-105.273636,-268.1102,2237.76928710938
466,1271.3198,2619.4553,4308.447,1309.0433,605.29315,-186.77419,3645.7822265625
467,-2689.73,561.59247,-492.91238,779.2056,-250.93483,-345.91226,3259.43212890625
468,-3440.3484,2685.5095,2130.8552,-673.0166,-1625.189,-2789.958,8189.64013671875
469,-135.61484,-1839.2162,-3015.9194,-89.04812,-580.76086,-1917.3022,4284.30908203125
470,-45.89341,-3210.0269,9701.035,2610.9893,8571.959,529.61945,19431.51171875
471,260.10358,2707.7786,249.28697,-2009.1185,-347.20944,-52.15413,4300.83740234375
472,11307.664,804.5016,13337.0625,5752.574,4958.8887,1685.4193,17813.4765625
473,2278.6016,1294.3743,796.7452,-906.00684,-529.39484,574.59155,2449.470703125
474,841.92816,-192.22557,-743.5049,437.91934,33.89799,-58.66184,1591.40856933594
475,582.0255,1918.4962,158.4106,241.81714,-116.36458,64.96921,1661.46447753906
476,1576.365,-268.32413,-408.09335,-280.0036,-147.35277,1.6295905,1995.14318847656
477,939.13617,-3111.0085,-1373.6995,-1048.7173,-585.4092,-125.65522,4093.95458984375
478,283.3694,-2197.5542,-85.65966,308.7213,-273.65985,477.01605,2562.97875976563
479,-2302.2976,-1852.7408,-316.94504,1289.987,607.8207,-461.58508,3160.84130859375
480,-12.56699,1482.4279,2487.936,15.710787,332.5279,-107.93055,2262.01196289063
481,-2253.8716,-1425.1877,1887.8468,878.4855,-454.1502,-410.76974,4224.7529296875
482,448.32364,2153.162,3779.6853,-1053.9833,3186.914,-4848.3433,10613.4921875
483,2021.2372,107.165855,-8158.615,-824.009,-7801.7646,2161.535,16925.2578125
484,-521.5063,1554.2727,114.34805,-1092.2324,68.27756,98.06703,2648.58959960938
485,-3972.309,-1107.0258,-917.323,-3.0976632,-301.67917,216.47702,3033.650390625
486,-4017.5833,-2235.7114,-2882.7012,1261.967,-143.96776,1232.3749,3440.48217773438
487,1383.1333,347.0157,-248.65654,235.37619,372.3941,2234.6885,4196.34228515625
488,938.9804,-1347.2891,480.64804,1611.4705,392.25418,-30.2367,3555.85009765625
489,640.16956,-2035.7524,-1118.5564,1156.4587,-216.16347,-3.2256007,3114.46044921875
490,552.18176,-2036.7797,-2952.0862,565.64825,-471.3902,-640.998,3573.42065429688
491,1349.6588,-472.22876,-40.11185,-382.9375,479.0406,812.1761,2413.70751953125
492,-1955.8928,3308.599,3803.072,2009.3381,-1457.859,-1949.3175,7774.98681640625
493,-4447.194,-1300.21,-3913.0195,-226.47636,459.28622,1996.1268,4609.564453125
494,-2664.3535,-1555.8054,904.21765,656.8752,0.08691059,128.7933,3369.25268554688
495,118.79409,687.61884,910.8145,244.34212,236.82755,-33.26289,922.511474609375
496,1242.6089,162.00436,-4958.027,847.9545,-257.78098,-527.33246,6008.8125
497,454.99927,-2559.711,2296.178,463.23535,-30.54907,-125.89841,4327.025390625
498,-2042.2701,-22.82783,3644.6682,444.90393,368.25412,-57.570606,5093.67919921875
499,-2555.651,193.66762,176.04938,-60.741753,35.098698,-147.83702,2755.1689453125
500,58.130367,-706.03,-4677.802,-1379.3885,-498.0011,2410.7178,6578.8154296875
501,-1654.0902,1755.4905,3248.3599,903.67456,-569.1787,-1442.7205,5348.83740234375
502,661.6045,-625.3831,-161.42912,-232.78355,210.03185,-259.61557,1331.01184082031
503,840.0998,-1536.8795,-1623.8428,-2379.6785,-841.396,-1496.8721,5630.15380859375
504,-552.3398,-3457.684,5436.135,-6866.5786,-3238.363,-1971.5706,15693.1005859375
505,-450.99002,-16.996037,-991.39087,59.760887,-190.8005,57.24586,919.061706542969
506,-164.08846,-60.467957,-1895.4526,31.411827,275.64566,9.342965,1849.0341796875
507,970.9283,-606.914,245.48244,-454.17886,-401.52466,192.77362,1756.47521972656
508,811.7296,1859.5613,-780.8793,132.38278,341.8712,452.50992,2514.08813476563
509,-431.02725,1415.9851,88.37205,-49.516605,76.71663,9.004661,1657.45251464844
510,1095.7365,-452.2595,-676.6719,2356.2227,-600.40546,-147.0529,4538.251953125
511,-1464.6985,2106.382,-422.1157,-89.818085,-154.94078,21.36516,3195.94116210938
512,-419.46155,-6125.864,-1538.271,1786.8774,-5783.9023,-4496.1924,14071.8505859375
513,-856.9823,-1462.5415,2193.599,-458.09,666.4244,401.40674,3737.02319335938
514,1057.302,-1003.26184,-124.22807,-197.15517,337.429,-688.0634,2255.17138671875
515,833.09827,602.39087,2125.2383,282.26233,-564.2984,-1108.6569,2627.2861328125
516,-1390.7177,564.89557,-3497.34,-1534.9076,-1183.5934,3330.5518,7545.2138671875
517,-2400.5876,1788.4365,260.22546,-552.38806,62.21663,206.55927,3812.69580078125
518,-1810.38,1156.6841,-333.28888,-919.4622,175.36752,-199.48341,3057.86157226563
519,19.766663,-1064.9934,-370.33017,-174.77344,-147.5061,-117.83253,1050.84899902344
520,515.15247,658.3763,-1604.7784,97.38929,-82.55991,-64.02322,2208.9462890625
521,-2058.696,-1498.3575,1108.1776,-122.06807,349.75543,-1117.6272,3567.56298828125
522,-2603.4126,-1367.6898,-160.09152,-80.29086,78.30401,-55.437725,2127.0908203125
523,56.478237,137.83667,461.96887,363.2718,-431.74115,388.26465,1243.14135742188
524,-138.5673,-1890.2843,-1383.8027,1249.6035,-81.738,354.8968,2742.30737304688
525,-1836.7662,848.749,3752.4944,-1124.7528,-2100.926,-4206.1826,9672.361328125
526,-968.15344,-162.5384,121.19221,1804.184,39.21892,84.78082,3278.64501953125
527,-2940.1091,511.19278,-2795.477,2317.802,-451.55432,281.33365,5329.0712890625
528,-349.4373,-2413.3909,1259.0784,115.5675,406.94244,285.36606,3308.822265625
529,-1248.9962,-3379.127,-352.0923,1149.8904,-207.95436,-187.7615,3384.47314453125
530,-463.70224,102.30755,876.90875,-299.22488,189.57878,40.937332,1319.18933105469
531,-395.9781,201.57803,1741.4457,-334.71793,-312.86972,138.50491,2082.2451171875
532,-1791.5393,2549.637,-1444.01,690.0058,-28.570778,228.91362,4364.15869140625
533,-376.4083,1094.1473,-1038.9089,398.01102,-345.3968,-119.08758,2109.82592773438
534,-1358.2175,-959.60736,1262.0029,522.9784,228.81241,-165.54701,2653.26220703125
535,41.192856,-675.35236,964.4404,1278.6016,3.353182,-63.44297,2635.13696289063
536,1543.3368,1259.0858,-858.8607,-435.77148,-66.36323,-88.69257,2403.12841796875
537,-1738.1143,290.32642,978.24805,2187.5732,194.15448,-111.366135,4526.58154296875
538,-2517.9814,-2407.953,-1310.9847,1965.2379,-164.4221,-386.49963,3667.6796875
539,-766.1937,3031.2231,4858.079,-275.8542,3574.0684,-1209.2557,8223.87890625
540,2040.0518,2510.239,-726.0833,-884.60205,17.56666,136.48038,3402.57983398438
541,-2088.1191,320.585,-34.064423,-1105.2378,142.947,-257.1002,2999.60693359375
542,1472.0139,388.8241,-547.2224,-255.26096,129.48555,-90.439095,1825.84533691406
543,1736.3777,-1100.624,-324.7289,-1398.3582,200.03493,-70.83109,3528.55297851563
544,1063.732,-1502.6663,-124.3618,-767.05786,64.6652,-94.58148,2598.72265625
545,1356.0486,195.97556,254.51433,-84.51492,-4.867498,-112.963295,1158.04504394531
546,1188.7455,541.7766,-569.39825,238.95607,-10.941643,-127.21506,1610.08825683594
547,-516.7646,972.28394,224.95795,-1258.4784,-778.30414,-1550.842,3930.25
548,827.5678,487.37766,-101.09175,-635.4027,2.3354764,127.159225,1386.3447265625
549,-1641.9846,-4798.0107,165.67871,-1486.5654,26.628735,-170.27931,5064.77294921875
550,-960.05426,1035.9766,1810.4246,461.9209,796.45337,1568.5314,4006.71069335938
551,889.0628,-691.3839,1501.9991,-483.64627,-60.142593,-9.380359,2134.26171875
552,-901.5687,719.20013,716.18207,158.40381,260.17606,239.13808,1752.689453125
553,103.15403,948.1636,106.318695,1271.1412,-37.61241,224.4071,2390.41772460938
554,302.9669,278.26184,-892.7995,383.53647,310.85364,292.65314,1545.65649414063
555,-1278.2897,-3316.3418,1342.095,-502.74182,-267.69427,227.05096,4181.91796875
556,-2223.206,-3763.4968,-746.16724,-214.96904,-15.937621,105.169586,2646.08911132813
557,-331.38257,-219.77866,5667.109,929.1573,1461.154,2114.0276,7597.8388671875
558,1189.5563,1079.8325,1180.6108,-551.5921,120.44251,231.78844,1062.35400390625
559,2315.3489,-579.90314,692.25,340.57678,-23.836702,-107.68685,2588.84643554688
560,-809.3947,1018.428,272.6967,-147.87863,39.651867,-20.14762,1614.16394042969
561,1075.9034,-1544.5424,158.87184,-114.078094,44.33113,108.49565,2320.53930664063
562,857.13165,-500.43863,95.99575,9.347232,57.64063,-53.80881,1186.56860351563
563,-143.98495,-1117.3589,-538.56775,-452.4949,30.068295,-8.587156,1155.96899414063
564,667.92584,589.0556,-1880.846,446.20212,640.0271,-893.96704,3244.25024414063
565,-1001.0851,-171.07571,1258.6617,-51.50712,-66.879616,375.81955,2089.224609375
566,707.4488,2786.9634,-933.81573,-556.42224,188.80795,-19.823343,3386.458984375
567,-1594.603,-1458.2562,-2439.4158,-1838.4532,-1657.3081,-1920.0415,5503.3544921875
568,258.704,-604.2927,2622.4011,506.49622,2420.221,919.55273,5408.3681640625
569,512.9407,-1572.7695,-653.4281,-485.38153,1112.7367,-613.7997,2971.4443359375
570,518.031,-2994.9185,6373.104,-875.153,-4622.2974,-552.28046,11597.451171875
571,-380.23297,-658.3056,2016.3834,165.73586,409.15952,-483.42603,2788.05834960938
572,1326.4895,94.80147,522.49316,1174.0023,766.11523,789.7721,2989.99243164063
573,129.0385,-7980.7915,-9475.597,-3630.6377,3793.7322,-6778.657,17340.66796875
574,1033.7168,-1522.2229,584.73737,1030.5973,-452.5258,311.5935,3111.0849609375
575,-452.25726,-1980.8624,-3733.0137,519.38477,-840.6937,75.96704,3321.431640625
