Element Label,S11,S22,S33,S12,S13,S23,Mises
1,-1544.0027,7556.643,-1352.8623,7110.779,-170.8506,-965.62506,15352.3017578125
2,8354.882,451.16373,713.0495,4739.4927,456.92523,-1590.9366,11665.13671875
3,11117.445,498.37802,-1213.1212,-5.9563565,42.720047,643.93304,11624.0224609375
4,8499.535,1076.5061,192.98483,-4106.587,677.19696,1041.7461,10847.3056640625
5,1404.8582,1115.8047,-4606.0605,-6600.713,484.901,1470.2134,13129.181640625
6,-3194.5046,11048.076,-546.0123,1944.0865,-260.8836,-967.3025,13656.275390625
7,5559.806,5461.7607,844.74,1299.477,303.38705,396.05475,5252.7900390625
8,6134.4316,3817.8333,2006.6732,-675.6877,-478.36487,-1420.2749,4577.15673828125
9,5297.749,7210.417,-1168.986,-3127.2056,305.6186,-365.91855,9373.6767578125
10,3704.596,13170.795,4665.075,-2692.1682,1131.6002,52.58662,10345.6513671875
11,-1426.3453,8966.997,-3504.7058,-4089.9617,-2773.788,-1525.6243,14635.228515625
12,7124.89,5297.3623,2222.6917,-1777.0458,1485.481,-732.28674,6009.56494140625
13,3192.6362,5408.18,-6427.0283,-627.84265,-2501.7734,588.64966,11821.931640625
14,5681.586,7482.053,5150.75,-98.65697,-152.3583,-888.9924,2636.09252929688
15,6790.113,9818.649,-7338.19,2279.797,-5701.1636,6235.7646,21939.1328125
16,18483.654,14197.647,18111.342,-4319.553,-1147.8622,21595.723,38418.3125
17,-46112.242,-32004.105,-29874.836,-2866.9436,8520.316,6060.0205,24212.193359375
18,10009.626,1035.9869,-24439.818,-4020.6897,-8380.003,-762.9971,34915.19921875
19,-8932.002,-8490.8545,-8131.4375,-175.20325,907.8907,73.23986,1750.23559570313
20,-10640.587,9249.174,-16196.826,6326.224,-8340.029,-14298.145,38458.1484375
21,9195.58,2078.917,-449.08798,-3166.368,-2254.7751,-3592.6887,12612.71484375
22,-38010.34,-9668.779,-22569.055,5819.8013,-9107.401,6237.2305,32729.205078125
23,-85846.89,-48709.145,-67646.85,-4018.19,-8160.544,6769.0576,37685.89453125
24,-27972.127,-16981.818,-15516.292,-20426.12,-2147.1296,-1419.8232,37557.93359375
25,-10727.598,-32645.209,-4510.0464,-15396.619,6345.269,-3031.8613,38921.01171875
26,4860.498,-17610.28,4710.743,-12447.396,8334.199,5199.8496,35438.65234375
27,15955.907,-16228.932,-12820.12,-1239.0472,-1922.1078,6558.548,32901.44140625
28,-3347.6106,-8866.912,-9660.642,-9161.375,-2437.788,85.142334,17467.572265625
29,7045.7935,-7610.4346,7637.0073,-10429.269,-563.42065,-2803.065,23971.90625
30,17747.057,-4465.6523,26185.25,-728.9661,-999.7286,-5092.782,28886.751953125
31,15333.742,-3724.2683,-27184.752,-2222.681,-548.3172,212.93385,37102.171875
32,9700.75,-477.0831,2911.2754,1263.3618,4420.621,-2073.8164,12525.9404296875
33,7570.6777,-652.4097,-6784.2437,1875.055,-4410.1514,572.7469,15017.359375
34,9712.133,6153.077,16931.338,-2254.7092,-249.1577,5363.9214,13864.69140625
35,18609.885,-2824.134,-10988.86,4983.524,-3266.9094,2306.786,28697.931640625
36,19707.85,6162.845,20952.152,-267.05344,3606.8464,-5374.91,18104.708984375
37,16540.871,11096.482,2883.613,9519.258,290.27274,7408.768,24053.642578125
38,10534.949,676.4101,-20447.264,7497.9395,-4055.923,-10215.2,35814.92578125
39,-8494.162,-4429.1724,11125.142,17260.18,-1734.1863,-240.167,34994.6484375
40,3001.3872,-1129.6882,33423.17,1834.8484,-703.8815,-8805.114,36227.08984375
41,-11621.74,-18721.924,-19531.164,14404.891,3560.8696,3186.2385,27346.14453125
42,-23235.814,-15891.357,-8253.241,9727.965,4745.7524,-6449.4424,25389.60546875
43,1555.5099,473.70334,-414.86987,-461.18524,77.16814,377.2134,2000.9853515625
44,1408.4972,1332.1484,1166.2446,-352.0289,-225.54236,-1034.9187,1945.14038085938
45,1483.8545,1208.8127,950.30756,-107.06368,-163.03325,866.3287,1606.01257324219
46,-328.57135,13962.977,-18620.867,10086.747,-9235.929,-1439.046,36981.46484375
47,18603.717,14274.396,1870.4932,11558.842,-366.91357,-7629.707,28322.462890625
48,6685.698,10356.618,-8348.534,6097.124,5708.778,-17349.873,37510.56640625
49,-11435.666,16777.293,-21757.861,4308.819,-2773.287,-4294.335,36439.44921875
50,-6462.909,18824.004,-8181.889,-7801.175,-10687.834,-8118.203,37534.390625
51,-8362.584,8187.0854,6527.527,-8539.349,-2873.16,-795.7197,22239.751953125
52,-5861.756,15995.126,-22152.84,-6269.617,-3486.4578,-5006.9775,36452.640625
53,-23129.814,14016.312,-13841.05,2468.0469,3410.1594,-6387.8936,36009.04296875
54,-31144.768,6679.844,-21821.21,-4849.885,4533.1885,4355.5894,36798.05859375
55,-34362.6,-6881.1787,-15430.509,-15363.084,-1897.5518,-340.26822,36229.74609375
56,-30023.082,6952.6733,1651.6277,-6243.5776,-6645.0337,2602.2505,38327.91015625
57,-32393.842,-34848.844,-40173.05,4404.269,6136.9526,-7500.026,19681.859375
58,10531.988,3362.913,11611.698,609.0727,4008.3499,4322.8643,12871.5546875
59,6888.883,-3327.5247,-18419.424,-2459.762,-3850.742,6416.899,25932.43359375
60,-33994.848,-27390.71,-27534.285,-6356.3857,20127.191,4108.6235,37813.3828125
61,-19582.928,-10767.277,-5546.834,-774.2483,20617.111,6188.93,39279.6796875
62,-7377.1743,-8382.09,-5089.428,-402.18747,20550.543,5603.3643,37016.15234375
63,83.23997,3755.849,1105.6685,-1573.2125,19408.209,-2217.059,34102.5703125
64,-19487.21,-14390.537,-15666.222,-1636.5155,21773.697,-1133.9803,38148.07421875
65,7846.7017,6534.546,15675.423,-842.19916,18585.785,2517.196,33626.09375
66,9132.262,-3198.1392,-25047.06,-585.31226,-1873.3326,-9859.491,34669.94140625
67,-5867.285,-2414.8298,3064.6057,-878.56616,19402.43,10441.273,38982.046875
68,2332.8562,-2152.3184,-20377.406,1960.2711,-17315.975,5934.8516,38088.55078125
69,-17561.781,-15243.5205,-14121.8545,870.6658,14750.367,-9754.017,30816.3828125
70,-12931.705,-8220.752,-8399.571,-772.226,14508.098,12406.712,33412.66015625
71,17030.846,7720.874,-8256.746,8272.137,-5361.0493,-371.74548,27975.578125
72,-3724.299,-18647.75,-39616.223,10651.296,39.09152,-2349.2449,36499.58984375
73,9764.225,-11682.557,3423.487,6294.412,14578.472,6271.5435,35194.20703125
74,8645.856,-957.613,3181.8047,-1518.3177,19419.984,6878.0513,36740.3671875
75,11163.041,-12057.005,-23758.625,6820.933,1287.4823,-1745.092,33188.7734375
76,21340.299,10198.669,22960.773,-11820.473,12721.687,-11113.258,37683.21484375
77,-76830.33,-46489.613,-56798.984,-2967.964,-14100.29,3728.2712,37129.8984375
78,-19707.043,16170.085,400.59305,8375.932,2171.3428,-502.63474,34575.30859375
79,11702.097,5212.981,10434.616,-3208.5693,55.848225,20553.89,36520.83984375
80,6749.147,7857.288,7278.54,1474.2053,-5491.387,20997.752,37691.16796875
81,-6343.221,8524.249,-32321.213,-2539.585,7197.8926,2792.7356,38474.671875
82,2756.6526,416.10843,4503.6675,-4574.7637,2751.741,20366.912,36640.87890625
83,-3347.9233,12511.375,6822.161,1879.7891,619.5428,441.99796,14352.5595703125
84,-1782.6329,3030.0925,-5885.452,-3825.2322,-9436.012,19564.994,38975.89453125
85,-9872.004,2917.3481,-4745.286,-3413.835,15856.393,13794.907,38528.171875
86,-2951.4116,17113.982,-6594.645,-9456.627,4295.403,14164.174,37609.87109375
87,3369.5364,-326.9667,-7930.2095,-9017.889,-7708.6304,18911.889,39934.86328125
88,-9220.158,9844.596,4909.79,-2551.7678,-1721.3472,19150.707,37714.83203125
89,-21286.588,-20374.863,-18048.92,-3139.1675,2322.8872,3204.928,9215.58984375
90,-5801.9644,-5253.2583,-3201.0698,-666.1881,-1042.1483,-1938.8287,4637.39306640625
91,14146.649,-84.80919,-25897.877,-5559.839,-2380.8018,-6806.0938,38534.6015625
92,27828.936,7819.709,-3356.2983,4617.752,-12055.847,-9804.0,39207.8046875
93,6362.722,7447.945,-21300.822,-434.3561,-12052.421,-710.97186,35133.11328125
94,19050.256,1812.2418,9392.686,4182.2783,2764.4082,-3923.99,18588.5390625
95,-6332.4375,15713.938,10847.413,-4506.385,2599.627,7802.7856,25812.46875
96,-15594.737,-9266.556,-6316.964,3323.879,19862.834,-9654.357,39544.5625
97,-16517.86,-12967.8125,-11992.478,1548.2434,20409.482,-5759.441,37058.90234375
98,-20788.104,-25536.86,-44834.117,5173.9946,8299.404,-14295.97,37237.72265625
99,6503.0044,-21718.664,-9286.799,-6271.4375,-6129.7324,-9131.501,32879.05859375
100,23985.355,-5361.7856,-12881.3955,1258.606,4670.499,-187.77615,34767.47265625
101,14239.623,-3610.0735,-25381.146,3429.2375,-5755.787,2456.634,36523.55078125
102,17201.158,-9075.268,-19912.47,6796.6167,3104.9873,3403.5994,35984.94921875
103,11600.044,1009.97253,9270.226,780.76263,-2075.45,-1071.5956,10540.4423828125
104,34047.207,1935.7667,4453.67,7001.964,4257.664,-10570.174,38643.01171875
105,19628.344,-3613.298,4037.0955,-1273.8129,4185.264,-3050.0984,22499.359375
106,-9420.8545,-6274.0283,2746.4045,14519.347,-2160.2979,-3365.7698,28285.625
107,26318.414,6599.7173,18781.215,-3039.6223,5950.633,3840.5574,21799.318359375
108,-38643.312,-8159.3447,-1126.4724,-3053.9207,4724.1816,8757.068,38962.99609375
109,2980.2212,7310.782,2860.2122,-8958.332,2604.5361,6109.0845,19807.9921875
110,-15402.94,-8205.042,-2037.0458,-600.52826,17035.967,8286.522,34813.8515625
111,-2401.6216,8031.0356,17778.156,-3863.26,-10193.849,-9389.787,30439.404296875
112,16612.258,-1662.7622,-13178.175,-4969.3125,4328.9863,-11403.274,34603.9296875
113,7180.0664,-5402.1167,-12466.096,-7554.9966,4125.5425,-5112.01,24449.61328125
114,-34962.684,-33524.723,-36292.375,3662.2612,14452.9795,-12025.038,33263.4140625
115,2633.1414,-4736.9795,3117.2031,-4282.9805,16507.832,-4202.776,31363.48046875
116,-19721.027,-16428.158,-23377.975,2582.8503,18518.05,-11777.82,38745.02734375
117,-2384.81,-2943.8188,1474.3903,2803.9146,18536.758,11700.3955,38503.0
118,-8765.389,-15785.969,-14734.142,5694.169,17351.406,-4053.424,33057.30859375
119,101.0928,1256.8738,772.06744,-200.27904,85.63263,705.44916,1626.60571289063
120,-5444.8203,-11806.363,-43126.984,6713.674,7163.9233,-1045.3264,38899.37890625
121,-767.2943,-4893.0957,-15336.287,-2281.346,-5123.8833,2281.7664,16708.21875
122,25351.72,4222.455,-10337.632,-3028.6995,-104.40707,11818.564,37585.54296875
123,-16982.652,-7695.5923,-4032.4734,1020.64777,21464.121,1465.5426,39056.1328125
124,3702.3347,-3601.409,8654.549,-2426.2693,2959.7751,-853.2869,12655.6025390625
125,988.40216,152.67125,606.50775,-341.49112,954.2539,-101.984055,1907.34912109375
126,-12647.73,20439.195,4954.6064,5265.5835,-7811.6797,-8890.556,36408.12890625
127,4896.347,22918.02,-1346.0508,9770.079,-6334.9946,-2646.9497,30067.015625
128,-23275.484,-9301.938,9480.189,-14312.219,1888.735,1852.8143,38026.31640625
129,-31860.992,-17441.414,4072.2532,-11826.91,-997.48676,5910.019,38837.83203125
130,9254.758,24182.342,-17545.44,-738.3355,3212.0295,325.83936,37068.19140625
131,9394.888,8128.7725,4947.652,123.88273,-14004.674,18275.43,40076.9609375
132,-4422.56,18370.354,-18469.49,1879.1263,7174.785,-8239.144,37492.3984375
133,13977.659,13005.542,16824.307,-3772.074,-3335.5127,20803.574,37232.30078125
134,-8133.2017,5878.27,3237.6135,-261.86993,13801.382,16627.424,39589.7578125
135,-8082.5864,15505.897,584.04095,10761.115,-4438.389,-9245.769,33015.90234375
136,-4946.8423,-2986.1526,25750.402,9250.724,-3507.6387,1108.0977,34399.1171875
137,838.2473,697.3321,-817.21747,429.93793,-189.43303,-521.0908,2000.98522949219
138,-353.1113,-1045.508,-1068.3247,-168.12628,9.456888,554.63916,1226.24365234375
139,23800.846,20026.14,26932.504,771.47375,18363.574,-11338.054,37881.12109375
140,5298.7593,-3408.017,1614.6161,1526.1759,13689.567,15429.6,36615.87109375
141,5158.5444,2717.0552,15815.618,-1583.4266,18664.117,-8089.3813,37342.16015625
142,8263.229,15537.484,22312.53,1497.1132,-207.2036,-1833.1031,12846.5205078125
143,15116.701,-4188.9536,-16673.15,-3743.129,-4788.2803,10293.592,34616.0234375
144,-14868.182,-14371.038,-15239.842,-1211.4048,17091.229,-10618.155,34921.890625
145,-3957.834,1143.2118,7185.0474,1468.5088,19795.521,-10082.424,39753.8359375
146,-22659.12,-14238.085,-8632.294,-2253.2559,20544.29,-1939.4359,37977.15625
147,-4672.522,7664.719,-5864.463,4076.1548,3649.6118,-10869.965,24750.87890625
148,9164.393,-2874.7437,2645.9033,-13753.374,2188.2463,-11510.453,32988.74609375
149,-21098.318,-15009.084,-11684.727,1583.2296,-8846.638,-12907.402,28469.015625
150,-6807.5645,17244.477,-10739.533,1035.9392,5771.3296,-10695.363,33687.52734375
151,15740.323,12784.579,18376.113,13732.356,-8072.7646,232.2062,28015.669921875
152,-29457.168,-11567.131,11770.013,-291.6757,-6307.805,2344.3462,37660.140625
153,-26267.61,1438.5869,14680.252,-4421.6323,-2371.8972,-79.48817,37220.96484375
154,9198.539,-26512.994,-11120.429,-8685.529,2299.3806,-1415.4675,34795.6875
155,12368.394,-2059.1692,-13284.324,3298.6812,-375.6572,-11282.087,30183.33984375
156,-2665.8008,-5848.1724,-17446.785,6677.8867,-11941.985,13205.049,35585.13671875
157,16491.635,12567.112,-768.2236,-4453.9487,6652.426,-151.45312,20926.39453125
158,12380.661,1534.6969,-23834.395,-6632.5938,-2338.6323,-8703.215,37576.5546875
159,-10151.028,21772.074,11418.425,7042.307,4719.553,-12763.085,38730.55078125
160,-1725.4329,-3212.7415,-559.7582,-4189.383,1586.7113,21273.547,37725.34765625
161,2932.4138,-1769.429,3398.4197,-5053.982,722.66907,21900.207,39262.8046875
162,-12013.5205,-7349.248,-3276.9216,-3938.3225,15069.1,16195.801,39648.58203125
163,-1047.3597,862.1216,2932.9065,-2066.732,8684.377,20253.031,38490.43359375
164,-4786.41,12010.568,-27351.656,-5730.5156,6536.173,-6284.275,38929.60546875
165,-18292.646,5343.776,-17281.273,-3008.8057,-3009.8525,-1058.3188,24361.744140625
166,-1150.2926,14893.167,7399.353,-1469.9332,6481.28,6590.0415,21356.78125
167,549.3326,9496.543,-3846.1653,1488.2273,-3383.868,-6966.3936,18035.755859375
168,6369.2915,11072.543,15339.197,-4857.8096,-10875.677,18840.035,39381.0703125
169,-34326.668,-3982.305,-2465.7283,-572.37775,-6029.8574,8724.667,36159.64453125
170,-20497.389,-3403.1865,-2155.7466,-6490.074,81.99195,19573.104,39884.76171875
171,2201.7673,17711.254,19488.227,-6791.2124,2360.871,9444.755,26343.01953125
172,3047.656,6145.488,-7713.109,-843.42554,7081.421,-10387.957,25199.767578125
173,12126.17,-15128.389,-26027.027,802.0607,2966.483,1276.1586,34523.10546875
174,-9874.95,16977.848,-20347.934,799.51404,-1557.8601,-7250.702,35761.73046875
175,-523.13306,-10610.011,-8444.713,-10275.76,-8870.928,2288.3845,25556.92578125
176,22737.895,19713.375,9955.789,5934.717,-2374.108,4759.0854,18010.79296875
177,12829.726,2016.04,28100.393,6288.422,1570.0264,-362.15878,25331.451171875
178,-3972.9062,19279.9,5302.232,-5706.1426,2663.687,1206.3175,23116.654296875
179,-4850.2,17295.967,-20881.31,-2477.556,-5653.2817,5626.4106,36217.94921875
180,-20519.76,-3586.4546,10575.27,-9416.484,-1553.5244,78.18446,31628.55078125
181,-7772.663,-26752.473,-34695.887,8823.605,-919.2634,13434.447,36764.81640625
182,-10196.5205,-5361.9653,-1596.7091,704.88,21368.69,-2891.632,38107.62890625
183,-10950.798,-6513.066,-4541.9478,-590.2178,22094.986,1656.8202,38809.42578125
184,1261.6805,-16918.668,11560.468,-10643.377,-3249.9568,-13256.681,39020.19140625
185,-26482.084,-26683.162,2575.2515,-12974.858,62.76881,-9254.235,40152.05078125
186,-18296.812,-7966.258,-32190.24,-3542.6997,6829.22,-7435.6143,28048.2890625
187,-21657.88,-10312.62,-3005.3738,-4347.9917,-9275.757,-5100.45,25649.390625
188,1814.5946,1191.8165,1530.9358,605.6846,-422.16025,-832.07855,2000.98522949219
189,-7507.378,-25891.424,7301.269,-6752.6455,-8974.79,-8415.791,37688.5078125
190,-555.39514,1983.1367,2152.8606,-2091.5154,-21529.086,5956.0713,38948.12109375
191,6437.663,860.9488,497.51123,-2634.4204,-20817.13,-8348.672,39537.81640625
192,12209.4375,12332.148,14953.93,-4014.1328,-20224.207,-4967.8403,36832.65234375
193,7778.459,5578.8047,2752.9502,-3151.3296,-22176.402,-804.0728,39065.9765625
194,20973.34,-2510.9766,-22556.736,12.2823105,-1508.3842,-760.27325,37850.5859375
195,-11864.457,-8122.8,-11124.388,-2239.895,-17676.701,-13092.61,38450.96484375
196,15854.394,-13349.929,-21670.316,-2295.9568,-5472.333,-3797.5176,36249.546875
197,14610.927,-6607.9214,-28436.145,-1742.8468,1615.4393,-2049.316,37675.203125
198,-3497.3538,778.2887,40.480263,-1965.6205,-21630.08,954.6334,37862.60546875
199,2623.2869,1136.6681,-6531.7773,-2044.859,-20512.92,-5797.2773,38054.2265625
200,-2562.3345,-4726.274,-4197.516,-2444.2197,-19166.08,-12261.785,39683.8828125
201,13865.791,12004.646,10185.415,-3836.9934,-20383.72,-3393.512,36542.6171875
202,20068.857,5823.408,2639.3455,-1572.7092,-16871.332,-4645.3013,34416.73828125
203,-913.508,-1056.4109,-1094.4045,-3234.248,-19267.83,-11143.32,38957.37109375
204,-921.5808,-3995.1501,-14321.103,522.7707,-21617.19,1716.634,39488.96875
205,17256.896,2314.5574,-3240.4067,-1750.386,-17890.371,5636.7275,37441.16796875
206,-3981.9668,3311.7512,-19430.84,-85.00941,-8303.203,2002.9152,24968.619140625
207,-20423.94,-16548.064,-35283.316,1157.4956,-1205.3055,-4741.89,19215.900390625
208,676.94165,858.49316,1557.8566,-711.09155,104.935104,-775.65326,2000.98522949219
209,-14823.372,-15925.728,-14267.187,-138.27821,-105.461815,-769.32275,2000.98608398438
210,4849.3125,4830.8066,4764.6685,0.110232145,4.899866,-1154.4011,2000.98449707031
211,-180329.6,-183216.58,-202207.77,7204.3447,-5714.6606,6276.5493,28208.015625
212,-51965.215,-47647.82,-69553.49,-4513.109,-11555.775,13322.61,37391.3203125
213,-26110.832,-22888.0,5664.3125,-12262.147,-950.7875,-7912.0117,39487.125
214,-21141.652,9365.739,6666.7104,-14352.243,5111.136,-3030.2373,39743.2265625
215,-29568.459,6074.6455,-13379.112,-12607.102,549.48706,4055.2407,38503.83203125
216,-6398.9927,17329.42,18132.256,-10381.619,6950.2886,-5605.0137,33841.3125
217,-20314.598,10935.42,-14274.264,-9507.723,6671.221,2435.246,35309.85546875
218,63.511227,13316.39,-25760.326,-3278.0771,-1189.4191,-6385.1914,36654.375
219,-11027.458,23026.398,-7064.455,-7350.8193,8423.421,-1309.4545,37689.84765625
220,-16397.799,10852.54,-21041.514,-3480.796,-1788.4746,1378.5295,30697.435546875
221,-10809.568,13918.407,11609.04,-1590.6836,-3801.3892,384.91544,24720.171875
222,-14271.08,8646.83,-14568.071,1503.1387,8476.847,-4005.2278,28330.193359375
223,-10745.88,12760.651,-17864.656,-890.8263,1191.6094,7767.002,30954.6640625
224,5367.2007,30351.686,-8962.586,-4399.9004,-9817.832,-3126.323,39549.4375
225,-710.01794,19148.117,-36.049908,-7760.0083,799.0805,-2783.3167,24232.732421875
226,-7198.665,26805.154,-10896.663,-3002.5486,-3873.7874,-4701.133,37868.8203125
227,-23064.355,20284.094,-11223.052,2430.4915,28.282925,3869.1921,39606.04296875
228,-49377.637,-31049.926,-27312.256,17698.068,-766.8438,5028.7544,37890.265625
229,-28369.584,1908.9084,-310.9231,5111.629,-7488.6753,-5535.3975,34540.5625
230,-70031.12,-50725.65,-55780.902,-947.50867,-11597.415,9262.12,31051.83984375
231,-13535.311,-3150.1172,2156.4055,5329.711,3950.981,2550.3145,18511.650390625
232,15668.244,-7938.892,-5424.7783,-534.6657,-1752.25,-2128.247,22976.587890625
233,-2897.1973,-3323.2986,-1199.4479,3650.6516,-11072.998,5146.966,22160.251953125
234,3069.8381,-5039.4473,-19486.238,3740.7063,-14758.91,-1923.3584,33138.7421875
235,18142.723,2203.5906,-21981.793,4188.2983,1204.3708,8703.072,38841.859375
236,12295.101,-9938.969,-29336.643,3218.5923,1310.5396,-1339.7335,36654.16796875
237,13573.445,-553.1572,-2014.763,-3233.7625,-7374.917,-1645.4103,20615.689453125
238,12696.907,3610.5803,18541.865,-4005.5403,-10322.74,2925.529,23734.3671875
239,4626.8433,3693.473,2074.68,-2518.9712,-522.70404,-6261.5415,11936.44140625
240,5871.261,-1212.6057,-55.580334,-1795.3193,3457.9429,-1319.1798,9699.79296875
241,11258.766,3758.1096,-19163.615,738.8614,-9.432115,4712.56,28668.03125
242,21582.941,-2044.9459,-10768.346,5454.7603,-1024.3016,11433.244,36401.34765625
243,-3485.924,-4510.8022,-2254.351,877.0011,-2200.9937,8475.035,15367.1259765625
244,-6095.0312,6697.8384,6573.9673,3269.5256,-5254.076,470.02838,16662.421875
245,3661.2832,-5803.708,-15564.882,-9772.433,-382.47235,1426.5997,23880.990234375
246,12183.254,-12793.445,-21311.48,1991.1982,-2362.0183,8549.276,34015.3984375
247,24672.705,-8977.412,-2934.4236,9871.103,1914.5469,4350.8657,36408.8359375
248,1554.4438,-4050.012,-18748.166,-180.12126,-17435.965,-5231.6543,36387.734375
249,7102.2607,5439.4946,-17321.262,-1554.5867,-10317.866,-3964.2786,30535.7890625
250,8850.585,-2078.8481,18249.219,3780.1292,3660.3555,-10026.039,26365.423828125
251,20697.992,-18383.799,-8665.6455,2658.1394,-5913.4824,-1059.0654,37033.71484375
252,-5316.263,-1275.3148,-4989.959,-3577.1782,993.6627,4786.5356,11189.3095703125
253,7461.3447,5965.1187,11620.618,-4334.003,3785.7073,-35.77464,11185.29296875
254,-1652.5254,-1275.2246,-1303.6716,-562.51483,-382.84387,722.017,1756.51220703125
255,-5618.5117,-5012.39,-5231.802,25.683825,1080.8097,267.69366,2000.98522949219
256,-891.4832,179.95584,1280.1152,118.806786,-289.09445,-212.65651,1991.43823242188
257,1099.6508,-143.31723,-908.10864,234.56097,378.73624,330.69458,2000.98559570313
258,-2867.561,-9423.451,-18391.285,2377.425,5309.627,-2829.646,17542.732421875
259,14432.514,31717.584,28269.393,2904.4832,-5077.9824,-16146.868,33702.984375
260,9550.126,34088.215,1021.36633,11421.653,-363.56082,4927.8154,36725.27734375
261,-3018.7227,23734.736,-16174.573,3041.1848,4519.31,931.527,36502.19921875
262,-11767.026,-7544.7144,-17464.428,6096.08,-2845.192,-19778.686,37198.1953125
263,4059.3499,-2633.021,-10688.345,3929.8706,-16649.285,-11631.465,38044.5234375
264,-10344.229,11512.748,-30610.613,-729.83,1303.3302,1982.6685,36741.01953125
265,1205.4525,7618.342,10003.364,9522.157,10237.227,-17555.85,39662.9375
266,-3405.3699,18755.252,-13102.162,10240.905,-1354.9431,2251.1677,33694.9140625
267,-9610.883,-5721.571,-9414.791,7780.0776,10220.025,-17865.328,38299.44921875
268,622.192,2389.7783,-2066.9182,5351.1514,-11513.177,-18989.01,39754.50390625
269,-2597.0903,3642.603,12666.066,1560.4636,-9180.137,-18457.963,38195.27734375
270,-19720.803,-960.9403,-25015.72,11101.044,5498.8003,12122.569,37156.1640625
271,-40707.04,-35765.39,-29077.682,6516.2793,14803.094,-14900.06,39408.23828125
272,-48370.145,-41133.867,-23406.154,15285.869,-5203.17,-5283.546,36889.80859375
273,-146919.36,-140249.34,-163951.88,-7089.0933,-12049.616,-3136.25,32619.87890625
274,-5796.584,-26386.023,-12438.447,759.6646,-19500.72,1131.1923,38440.75390625
275,17573.19,2632.8364,-23703.354,-1028.8413,7176.725,-922.7749,38347.453125
276,4601.288,11315.353,-16141.02,7067.8164,-1426.4686,12931.412,35668.1640625
277,-12615.691,12708.163,-9729.118,16342.359,1604.3115,-1529.5275,37316.0625
278,-10851.681,-47911.89,-32785.36,4360.3896,-6414.561,7765.5146,37457.53515625
279,-8343.557,-11289.032,-2746.3467,5162.172,-708.61554,-2607.2334,12583.103515625
280,15620.239,4042.8572,11147.037,8491.953,1038.6132,-4990.4663,19913.501953125
281,11155.249,-3343.216,7770.2686,583.2374,5530.747,-2164.3398,16716.08984375
282,104.728004,16646.934,18148.916,-6246.5405,-966.535,2504.0261,20962.287109375
283,-9946.515,14906.061,3306.5588,14454.637,-845.5266,-4004.0469,33778.2890625
284,9744.467,-13679.323,-8281.567,18532.088,2473.446,2978.6697,39072.4921875
285,3034.1816,-4220.751,-2485.19,2546.4124,-16204.038,15553.667,39698.484375
286,11437.114,11124.041,11837.125,128.87253,430.78708,1002.35236,2000.98571777344
287,-11523.588,-9388.808,-11684.442,1435.3751,-15747.656,15922.729,38931.6484375
288,3983.076,1042.915,-2433.7634,-702.0144,-16635.719,15490.193,39780.80078125
289,28134.025,16251.993,12452.008,-96.681114,-15688.623,6725.4316,32785.59375
290,26366.008,14248.692,7235.914,3316.0164,-14714.98,-437.55573,31050.58203125
291,28200.738,11503.72,-13524.904,2246.345,-2871.7935,-9100.675,40143.1484375
292,2198.9873,780.4229,-2137.382,3428.9114,-9533.117,-6898.0996,21571.5
293,-7268.8716,-2908.2112,-18371.605,3550.8699,-10857.032,-8833.707,28570.193359375
294,16497.252,-3678.0662,-18430.049,601.4212,-9139.489,3659.2678,34844.46875
295,4277.407,5701.9546,4010.4363,773.7159,-259.05948,677.0507,2419.37158203125
296,-19762.217,-135.24274,2616.03,-18001.139,-6979.729,-3827.4636,40112.44140625
297,-10929.171,8335.906,15847.827,-12560.382,-3257.0747,-3141.3008,33271.734375
298,-14702.217,11027.84,-12111.282,4223.4155,1769.1102,1621.1442,25939.72265625
299,-12961.383,13559.599,-14327.742,1242.7544,-3177.4563,-2414.148,28175.751953125
300,-13543.125,-39836.938,1070.4656,-5178.1533,-1537.5491,6946.6313,39005.99609375
301,5761.311,1594.1447,-3555.7207,7531.4,-3099.7673,-20193.107,38569.71875
302,-632.2893,8480.592,6254.156,5439.348,3304.9265,-19348.22,36225.6875
303,1278.5084,7905.544,10876.385,11412.046,-1951.9471,-18815.139,39199.41796875
304,-22224.186,-23519.053,-13528.315,5315.448,6271.1343,-19997.04,38612.73046875
305,-30340.852,-33261.863,-17715.045,5173.275,-19567.068,-3726.5718,38410.73046875
306,-896.9928,273.51126,828.93524,271.29312,-177.3504,-356.74484,1739.44287109375
307,4722.523,34559.832,-5780.8047,-4426.61,-3892.1604,-1303.5585,37726.71484375
308,493.7116,14742.298,1439.9188,5352.5713,-5334.1465,-15898.341,33466.6484375
309,-13331.39,-1507.4174,-8975.795,-490.06677,-3111.8552,5379.1265,14961.7353515625
310,1471.428,15779.066,6793.275,9500.39,13286.848,-14318.572,39652.80859375
311,-2573.0403,-1912.058,-966.64514,213.95761,109.91364,-117.25735,1473.23754882813
312,-59679.78,-101780.305,-68771.45,2272.0205,4116.483,-4049.3647,39848.0
313,-67129.27,-56739.19,-60965.2,-14029.434,-14274.899,-97.10733,35829.12109375
314,-14484.928,-49503.6,-27474.77,3092.5356,12818.372,-2720.9587,38522.59765625
315,13195.269,-413.5058,-25887.7,-4517.451,9083.037,4336.5938,39318.58203125
316,5000.615,1617.7649,3544.0222,-2021.1791,-20837.531,-9140.814,39675.75
317,9834.6,4134.6216,3751.036,2678.4282,-18640.555,12529.7705,39619.96484375
318,3402.7927,-4025.745,-4478.8228,-30.523561,-18550.129,12855.569,39835.609375
319,3387.093,3335.8796,3294.5115,12.37378,1128.1837,-244.01859,2000.98547363281
320,12771.612,12605.061,13007.554,166.12471,-1059.7867,-378.15512,2000.98571777344
321,-21882.346,-38177.375,-26982.49,-1700.0134,-12305.193,790.8105,25946.716796875
322,-45068.76,-43094.22,-64806.53,3778.3608,2655.87,17382.668,37455.46484375
323,-41664.777,-30966.602,-20077.854,-17084.65,-8748.0625,-5855.031,39466.33203125
324,-20632.79,7040.374,-929.3127,-16458.13,5155.636,-6054.923,40138.65234375
325,-13090.075,-565.4167,-13251.681,189.71706,-1851.3035,4216.415,14921.1806640625
326,4091.9336,-13343.268,-4011.3433,2282.1418,3070.694,878.7587,16570.9296875
327,20431.795,-3550.1104,-16621.154,-127.171875,-8205.428,-2921.0552,35875.9765625
328,656.54663,-4208.6655,-11052.222,-4732.868,-2630.0747,9697.1045,21768.173828125
329,16459.496,-2848.24,23660.654,843.1298,-2164.7905,6004.327,26230.341796875
330,13900.802,6003.64,22947.469,4443.805,-9346.314,381.77036,23181.685546875
331,16604.412,1644.7043,18019.402,8903.913,2925.8303,-9618.145,28071.505859375
332,1982.3322,1720.1113,817.02344,9429.802,-8093.337,-2761.827,22074.283203125
333,7108.0767,663.4289,3401.821,-196.8564,-7492.2456,5152.2573,16719.421875
334,4528.4727,-10495.29,-31517.027,-2205.6938,-5729.5474,8821.407,36468.92578125
335,-12641.927,-13366.245,-21332.523,-1723.0005,-3361.8723,-6253.4546,15161.998046875
336,6375.208,10171.584,9165.812,9070.488,7032.0127,-18447.406,37784.8515625
337,-5975.67,-1891.9004,-4563.7744,4687.0664,12732.976,-17072.05,37941.55078125
338,-23362.213,-31950.482,-1013.1486,3032.9614,990.36395,15512.233,38956.46484375
339,-3534.468,9750.047,-12431.291,-1766.1443,-11824.806,1688.4198,28481.748046875
340,-13035.001,27460.291,4031.6094,1002.29114,2853.8472,-2553.3062,35875.140625
341,-44101.105,-46056.53,-55077.457,-1133.6655,-2896.5793,15239.227,28784.87109375
342,-71250.08,-64148.062,-65773.94,12742.453,-9539.747,14596.448,37958.328125
343,-1960.179,13491.857,31503.846,1060.63,7725.401,-7444.041,34498.99609375
344,-1872.4121,-12762.273,10540.402,4076.181,4294.4272,-1821.7552,22868.521484375
345,7997.686,-6190.833,-7076.8394,-2269.804,1835.5256,-3048.51,16374.1845703125
346,6872.0786,18542.646,-1270.9146,6242.4443,-2454.436,1050.5035,20876.580078125
347,-24297.18,8719.59,-1988.8134,11123.56,3721.6328,-2858.9736,35895.59375
348,-92461.06,-88191.95,-117968.05,-909.50464,-11333.544,-9976.274,38263.96484375
349,-34896.992,-49631.055,-19299.785,13145.996,-3503.4802,-7797.729,37787.08984375
350,-28433.508,-28275.023,-7859.0615,-17482.85,151.59627,-5526.4385,37798.35546875
351,-7507.38,26807.295,2381.9458,-5583.661,-311.69983,-5028.1597,33250.8203125
352,-7600.5586,-3742.4065,3698.0813,2790.204,1675.3853,-157.94171,11436.958984375
353,-29821.627,-16341.451,10098.212,4514.137,-2761.4941,-7793.349,38773.71484375
354,22812.297,-15161.87,3624.8591,-4379.63,-6742.8022,8680.041,38749.671875
355,-66477.99,-51990.605,-39415.395,8568.737,-3881.9578,-14206.364,37698.05078125
356,-10622.375,-29034.443,3628.686,11183.919,1780.5422,10712.021,39159.69921875
357,-20392.445,-31332.094,12551.583,2007.5275,466.50534,3020.5867,40068.64453125
358,-17814.408,-25029.752,4976.943,15583.095,929.9194,4832.82,39206.06640625
359,-28447.924,-45371.445,-10416.958,13520.249,1773.1573,5624.7817,39615.73828125
360,-708.10834,-885.5408,-18.61696,1487.5432,78.127464,-69.984726,2701.95825195313
361,1418.5432,704.9856,-360.3532,-553.1888,-150.88657,-15.056698,1841.55529785156
362,-2891.498,15317.961,4200.117,-3123.1477,-2559.7285,2786.336,18026.388671875
363,-51.850544,-987.2587,-119.46632,-554.0477,-3.9723125,28.007013,1318.9462890625
364,-20433.06,-44.00757,-199.27574,1105.1862,3363.781,-1220.9868,21322.607421875
365,-3258.4944,10391.187,3879.9326,-5090.4927,220.19852,-1088.2787,14875.1982421875
366,-2365.2307,4217.8027,-389.78073,3811.2788,1502.7264,-394.48602,9222.4306640625
367,-6517.452,2398.0269,-8144.2334,-8793.441,169.96754,-1510.7128,18317.83203125
368,14800.723,1642.8033,1646.2415,-2174.7363,4183.385,1923.3213,15838.9921875
369,22376.023,1557.35,3309.733,418.5728,2954.0159,-2729.9238,21191.2109375
370,-19125.797,-6574.806,6827.239,16599.0,2921.0676,862.86115,36874.96484375
371,5308.2803,-3476.0178,-3816.7114,11792.01,-1374.673,3252.105,23126.28125
372,-4634.0522,-2845.3184,508.71658,-3040.2903,-207.10063,161.80998,6955.998046875
373,-176.2961,1076.5372,632.4579,-417.1922,-140.68182,-6.380639,1338.68762207031
374,-674.4079,-513.2967,-81.88383,330.6031,116.66089,0.33744022,806.414428710938
375,-360.52542,87.5357,248.60606,-413.20407,101.502914,-40.614845,920.29443359375
376,28379.893,-1811.2468,6735.704,-7544.4077,-2437.9924,666.99994,30272.65234375
377,7948.925,-8577.15,-4455.535,11051.362,-4468.5566,2764.7793,25907.88671875
378,-6903.8926,2368.465,496.91833,-1004.283,905.2398,50.08273,8810.068359375
379,2997.5913,-228.9666,1319.3248,-221.63092,-250.42273,285.74847,2897.0126953125
380,3572.324,-6414.1675,-1695.2883,-2848.793,4646.0654,-714.161,12864.9716796875
381,5781.2866,2160.3345,2266.2139,1624.0455,-3557.9275,2114.4211,8487.671875
382,3614.2285,1311.6097,2041.9536,2686.3342,-640.6119,1195.5074,5596.58740234375
383,-3625.0532,3110.7515,-436.5946,3970.1868,667.5032,504.81073,9135.033203125
384,1612.8728,2580.4973,299.29608,3474.7156,1119.0642,-646.3717,6720.42236328125
385,-2788.5054,649.07605,-151.19449,-562.3266,85.71989,-112.42361,3273.37719726563
386,-1361.6724,-490.24673,110.78928,686.3744,0.97676945,-132.42763,1763.61242675781
387,-3852.009,3116.3638,153.39098,327.37076,-210.41371,355.459,6125.66064453125
388,-2931.4758,2627.2039,-1788.5347,-3688.941,-7.2618856,353.70813,8188.548828125
389,-3181.8127,-4926.5654,-7098.853,-10832.737,-689.53503,668.0392,19140.609375
390,13546.524,-5467.622,6398.196,-405.3554,3003.7002,65.90971,17443.8984375
391,-10258.914,1610.205,-12806.698,566.2608,-1275.0852,2262.9407,14099.9755859375
392,327.09167,-1427.8783,280.42554,-578.3756,77.066185,-17.082968,2005.60400390625
393,21098.623,4480.6206,5708.9883,-4286.5723,1284.1069,3242.8076,18678.12109375
394,11303.676,-2078.8281,-4602.1196,-650.6602,-1603.8124,-2173.189,15568.6005859375
395,14476.247,5113.949,7389.389,2585.8733,1979.5979,-348.65875,10183.7236328125
396,-6522.1377,9370.877,-4633.475,-149.53706,-4.2921205,255.3205,15046.6318359375
397,-9.526824,-2460.5974,303.7609,700.8557,50.425762,118.904564,2897.8310546875
398,957.1437,-10564.837,-1550.5242,-652.5441,331.99182,-163.68678,10575.4248046875
399,1374.7223,1913.8833,-6393.977,-312.76123,4186.048,-2247.9365,11526.2333984375
400,2938.0454,1614.8778,313.0495,-240.92995,2572.6855,-762.8891,5190.7939453125
401,3631.1147,3703.9614,-2048.692,1701.7063,1444.8088,-1181.6892,7198.490234375
402,9657.019,12705.959,-805.1473,10601.346,-5189.6245,1099.3843,23921.529296875
403,2867.18,4299.544,-2752.9495,9397.715,-1474.5127,-659.1784,17733.15625
404,7118.082,12611.803,7768.3213,8520.004,3151.4578,2905.4753,17318.294921875
405,3471.0122,-902.0807,-4544.265,2488.3945,-47.190292,-1263.8596,8467.1181640625
406,456.9319,1813.5151,529.9872,1743.8951,389.114,316.77893,3409.5947265625
407,768.6027,6763.8433,11969.553,5771.7847,-626.9697,1422.1011,14192.9091796875
408,-20275.676,-8823.814,2571.8823,-14457.6875,2566.7058,418.60025,32231.548828125
409,9064.776,-964.60364,12125.129,-2313.8606,680.3363,-130.4288,12575.7353515625
410,-21256.764,3138.32,14830.83,6862.096,953.3626,-3424.923,34586.9453125
411,2479.3057,-2598.0342,-1621.8158,-776.5513,17.418716,-69.130844,4857.99658203125
412,85.87102,2331.768,2510.9966,1560.1324,341.6959,-600.18945,3769.84008789063
413,6326.475,3088.0215,4987.183,844.0368,-6452.931,-535.77924,11656.044921875
414,618.6211,539.5785,280.6971,755.72424,-406.89145,0.9476303,1517.81811523438
415,6572.3853,-15546.44,-7935.086,4832.365,-35.27653,591.51263,21211.544921875
416,-4360.7183,2764.2173,-12016.977,5180.628,-1741.2146,-252.6066,15929.123046875
417,-15877.004,13996.435,23766.574,-5588.9927,485.87708,1430.0426,37152.3828125
418,-559.4003,2573.796,-1713.6306,2704.9849,-238.29109,-14.569207,6073.5009765625
419,-5973.691,3542.672,1721.9932,-1025.8542,-921.29504,-125.57344,9071.966796875
420,11238.952,9546.046,4643.704,-12888.218,3702.7734,-2185.38,24268.82421875
421,2449.949,-3367.5427,2339.4526,4415.783,-876.0034,85.82584,9697.126953125
422,-5840.8623,9590.972,-5050.264,8486.306,2406.6526,-871.73535,21500.55859375
423,-7353.755,-4262.6934,-1049.345,-3561.6296,5231.0312,-736.73224,12312.10546875
424,-2052.4382,849.7609,-3382.3162,-1783.2762,-230.01527,497.7449,4949.05029296875
425,19556.982,-10036.823,18485.705,-6222.678,5245.932,1639.8407,32435.005859375
426,-15861.49,7626.264,-4606.5635,-4485.7344,2761.22,-288.69476,22304.337890625
427,-3527.0579,-1606.9891,1181.1741,9000.779,-209.77238,-331.50418,16134.3662109375
428,-2638.7175,265.58902,-1932.6122,189.55205,356.39874,99.02537,2720.49682617188
429,1774.7758,250.764,2941.4756,-1971.443,1046.9006,-183.71423,4528.89404296875
430,-3172.9526,-759.6055,-802.0812,-3046.1035,917.59955,-260.9135,6024.1162109375
431,-2322.4111,2187.737,2396.118,1982.3444,68.15311,-84.88587,5757.54345703125
432,-13717.886,-14943.725,-4545.301,-14097.537,-789.22296,-250.89001,26365.9296875
433,-10708.988,2609.5405,-1081.3561,-10639.158,7017.9043,-1461.8662,25210.8671875
434,12199.364,-2484.4253,-4706.6978,-741.7653,-32.76188,976.0809,16052.900390625
435,2672.5337,1366.8712,5714.0576,1624.885,-250.581,375.95203,4843.5498046875
436,4987.561,442.91772,-471.7108,1402.945,-1680.397,650.77893,6426.00146484375
437,286.31317,-326.854,-1142.3108,1536.1106,-1002.818,-108.46182,3416.44360351563
438,6227.447,-4653.2637,-3634.1484,-11696.585,-347.05014,-2129.5896,23081.091796875
439,6755.8027,2655.2913,3393.9822,4156.2134,-2722.9617,1648.6044,9826.0078125
440,-7831.1147,-4164.327,-17397.469,-380.7863,-652.04645,-761.8809,11978.736328125
441,2962.312,270.52078,-152.09654,1285.4825,346.09637,438.44366,3802.02392578125
442,-828.0314,-351.9791,234.11436,-772.43365,-72.56614,-41.615486,1630.98034667969
443,159.32715,2495.1965,-545.06226,1849.2472,253.7809,-352.55518,4292.208984375
444,220.5638,1233.8666,1783.8505,-1281.8717,445.62625,330.67255,2782.0732421875
445,-2166.4946,-8.251297,-2381.8438,-152.07983,-185.55472,-116.84051,2320.08544921875
446,-1661.1188,-831.867,-3825.6519,-294.75952,-931.59424,-105.25154,3172.58447265625
447,-577.6214,-1125.1597,1115.3688,-563.279,285.65283,62.028427,2302.42822265625
448,12050.785,2997.9363,-1210.0153,14153.459,-7511.2383,1889.2009,30309.7265625
449,-1532.7378,226.67177,850.77716,-2678.3506,1297.2996,-290.6206,5604.11572265625
450,6000.8945,-3924.1375,5442.589,-2394.2527,-210.12592,-32.46436,10517.1162109375
451,-521.8157,-9019.7295,-7442.7725,4512.0176,-463.47784,-171.22278,11095.39453125
452,14.9017935,-2454.3757,526.4544,741.36566,-133.55948,340.82596,3110.1533203125
453,492.4492,2194.1836,3841.93,-3159.255,-3738.1313,632.9234,9026.64453125
454,4788.8965,1745.433,4338.018,-1110.7932,416.82037,-178.29848,3523.05297851563
455,101.65243,-380.1762,-550.8717,409.75137,-355.44995,105.52179,1122.34973144531
456,-1526.7764,-499.38928,66.6864,1200.5933,-414.39816,262.68988,2646.50952148438
457,5188.1143,18.68728,2327.6855,-947.561,-4713.746,1232.5715,9696.791015625
458,10340.573,1005.7611,2384.515,1655.7986,-1632.9127,404.40714,9637.6416015625
459,1581.0431,1311.0756,-763.1567,705.7572,-1938.3308,692.93176,4375.0908203125
460,4951.2188,2293.2178,15746.73,5155.1753,2268.649,-1575.9541,15966.2529296875
461,1512.481,-2015.0236,-3030.174,169.34637,126.86785,-294.17688,4177.1650390625
462,-309.7493,-510.662,53.948467,1032.9897,-124.76542,211.45029,1904.66528320313
463,-391.7467,-5.8233867,1146.2158,-1927.0371,752.5206,1345.4066,4493.369140625
464,-4283.658,-2415.1003,-16960.262,-2198.7598,-1872.9609,-1793.8799,14918.322265625
465,942.09717,699.88696,865.16583,-94.46267,1318.8605,-193.45792,2324.4736328125
466,-300.76248,1796.6708,1359.3936,1018.4223,-158.8934,-154.22473,2632.85546875
467,-2212.9812,533.6626,684.75134,296.34818,159.3669,-20.917843,2884.93310546875
468,-1256.1088,887.51056,-4107.5234,1660.7897,4790.983,-1523.0521,10145.5556640625
469,812.6014,957.39777,1039.1075,436.43246,-2288.4836,561.5289,4155.515625
470,13466.279,-1410.1194,5388.5337,-10314.189,3544.4077,-188.07625,22876.44140625
471,366.05887,-157.42569,2752.0808,1323.9323,-301.41083,24.937971,3570.57177734375
472,-1473.3094,-1294.6929,1083.7188,-628.3995,-367.06912,-263.86792,2812.70776367188
473,-3592.3115,-3148.6277,-1191.3586,813.10815,20.026545,18.089651,2623.31567382813
474,6391.205,-2941.1572,-1458.3397,1391.4081,1423.8408,-1111.4255,9541.978515625
475,48.686302,348.36975,-1081.6674,-1481.2202,-254.20026,-405.50098,2995.90454101563
476,-32473.11,-2044.0438,-4676.368,5704.0137,-6295.3433,1133.1997,32758.384765625
477,1602.2594,-1004.92053,-3110.3467,-446.23212,-151.19304,82.51252,4172.0263671875
478,481.43945,-7764.765,-5831.789,9048.878,-3175.2087,-744.7156,18257.951171875
479,-5557.3413,1004.3024,-3425.2656,2669.459,1039.141,200.16806,7638.6298828125
480,-1171.7354,-97.230316,-453.7898,-172.0964,-332.7544,43.11735,1151.16296386719
481,3067.51,3710.7046,285.0254,1476.348,156.14258,-93.057724,4072.2880859375
482,1075.9628,-1203.3103,-1646.7479,-788.91486,140.54303,-303.3684,2933.419921875
483,1292.1587,-2045.3689,260.8605,512.08234,174.9734,-606.2182,3277.45532226563
484,-165.81223,-30.830866,1358.0514,1776.4509,294.807,83.800095,3447.2919921875
485,-3750.7847,-2198.7964,-1642.3213,444.88626,-505.5543,228.19551,2258.03491210938
486,-183.45978,141.60622,836.2175,1734.6619,603.94977,-604.4771,3468.65185546875
487,-3516.3154,-1040.641,-214.5349,166.6504,154.73094,-18.811172,3002.130859375
488,-6931.5806,87.319145,-2437.75,3997.7651,-2037.5829,41.07748,9915.8662109375
489,-168.45494,-713.07153,-1429.617,372.23865,443.60336,-323.31528,1587.42626953125
490,-436.11295,259.1303,1993.7281,-198.8741,-110.08614,200.70737,2230.25122070313
491,-2250.706,-2277.9148,522.97235,-505.67245,-343.78036,210.26524,3003.96459960938
492,-2324.352,-1603.4258,-1287.3275,1077.0165,408.0392,-411.00818,2309.48071289063
493,2079.6326,-2215.311,-458.49323,4351.266,-479.02655,315.5988,8472.0283203125
494,-899.0603,-1730.8928,-1547.7084,943.38446,-273.5864,-312.67075,1939.29968261719
495,305.44638,-900.8394,-499.3847,959.49365,43.28008,-562.801,2202.21728515625
496,1113.7648,-947.6028,306.13992,933.17816,267.81723,112.03313,2470.21850585938
497,-2282.855,927.2949,2093.8887,-771.6016,-968.82086,18.803907,4473.69580078125
498,-297.83414,-1060.3688,1321.7307,960.5594,-342.43552,-195.01155,2770.076171875
499,-160.25526,-558.5031,41.67445,412.57974,-491.76688,224.76378,1291.32543945313
500,-753.1478,4332.769,9902.014,-6733.3975,286.58652,-2305.3198,15408.23046875
501,819.446,1248.4158,1203.1562,327.7207,-155.6791,-8.1883,749.506652832031
502,-2792.9678,-1478.5194,1275.9155,1296.0144,63.145573,41.495842,4241.61962890625
503,-690.08,1422.2826,-1294.3538,870.67316,451.84857,40.283085,2999.20874023438
504,2339.7683,-855.0212,-5705.056,2850.1191,-184.95528,635.8696,8655.0283203125
505,-1755.6088,1248.1604,-810.9695,1141.3433,337.48743,84.15591,3368.74267578125
506,-1020.48615,-588.3435,-349.0247,-896.323,-315.1766,-597.101,2031.06457519531
507,1938.4813,-40.766296,-328.84338,-1125.6586,228.25632,-19.509136,2920.50561523438
508,3032.9978,40.393616,-1296.2657,-4304.354,-811.2413,-1233.3962,8767.15234375
509,375.6792,1392.6035,122.47358,345.70453,349.06787,-264.46793,1513.15856933594
510,-965.077,814.8866,-1679.0687,277.98685,-39.922935,-5.908516,2277.20239257813
511,1351.8462,159.24744,698.55743,-747.8711,-123.24242,437.6642,1835.24279785156
512,-5134.49,912.0619,-1315.5355,-192.40677,-452.9475,264.06342,5384.18359375
513,-47.74775,68.74659,-1098.9691,-21.912527,345.12668,-65.0151,1269.86511230469
514,-2834.4414,1409.0459,1095.1151,1896.3318,239.99821,31.91611,5266.65478515625
515,196.67567,2680.311,-946.7123,-366.63358,81.80098,24.995657,3277.30834960938
516,2873.6409,-3242.6804,-388.20187,-2677.4678,2037.2074,-1848.2924,8503.189453125
517,-511.9886,-3060.6965,8.964335,-53.193546,-255.96483,524.84454,3021.00805664063
518,-2630.0369,2541.8289,4123.323,-854.2213,-179.12991,129.6533,6305.8994140625
519,936.75824,212.82716,3580.207,2022.7756,589.3471,9.050009,4768.927734375
520,-2306.7883,1369.1077,-1408.8113,-1345.6498,-3516.8923,154.76738,7323.07861328125
521,11681.139,-5851.0615,2500.3096,1266.3475,4737.468,-42.905045,17402.6640625
522,-950.172,1245.5704,-475.2775,-184.09317,37.528683,-161.37215,2046.48059082031
523,-503.87955,-976.42816,-729.1804,101.48538,44.953556,220.96324,592.479248046875
524,1459.7316,834.51465,-691.0609,-257.49863,-4.3961163,28.366034,1968.1162109375
525,1192.3121,60.475056,2339.01,-1604.3846,762.0801,185.92815,3669.06005859375
526,-4540.835,-1652.0293,-320.01068,977.31067,-710.39905,67.172424,4284.89892578125
527,-4095.096,-2523.1292,39.928253,-20.64559,-260.68964,-10.390755,3643.46875
528,-1920.5686,759.0357,379.35226,533.637,-25.777037,-103.917076,2682.486328125
529,-891.96014,513.15784,-57.477486,1716.4498,-193.72078,88.91782,3236.212890625
530,-7.7522416,2334.522,4146.449,563.7875,-115.33063,-188.6136,3756.80151367188
531,-569.20166,-3752.328,-3998.1216,1938.0833,128.07466,232.7428,4738.7041015625
532,-2710.7925,-1279.786,-276.93387,569.4229,405.3847,-182.39432,2460.51220703125
533,-1229.4755,-2644.392,-553.58887,942.6617,-274.2816,236.02864,2544.36401367188
534,113.19581,-702.00775,3111.8152,882.631,134.37099,73.89765,3808.9921875
535,-870.41815,1260.7881,448.54767,-651.9514,-109.969185,407.53748,2297.90869140625
536,1378.2607,2117.2214,1200.8226,505.34277,-106.56413,265.967,1311.89331054688
537,-2035.1427,2399.824,-957.3078,746.9186,-84.22135,-85.88641,4215.1591796875
538,-606.51135,-321.36697,-61.39079,943.4969,400.32803,-233.78868,1881.04858398438
539,-318.3161,1246.5558,386.4652,-155.03316,-266.31137,-231.85742,1512.87573242188
540,1293.2913,-928.5316,502.8017,1589.8284,-117.132866,76.710434,3383.2705078125
541,536.68756,4207.8276,-377.14197,-1007.36884,106.70345,-308.75476,4586.02978515625
542,-2588.9177,-446.09033,-866.19354,1382.2612,-40.906338,336.42752,3153.48950195313
543,-1195.0857,-3092.098,488.63913,-206.89943,556.5027,-21.637445,3269.02783203125
544,3336.5144,-1144.8738,-134.32765,-80.66881,57.24864,-50.235714,4075.8212890625
545,-1027.088,-12.330609,-934.8493,-1366.7253,79.90348,233.18893,2594.36694335938
546,4183.4277,-951.8943,8.772685,203.56897,234.82292,-80.25539,4761.31787109375
547,4097.717,-1707.6573,820.6444,-1299.7546,61.57232,-135.59598,5527.3466796875
548,2325.055,-1753.4128,878.8621,-188.50824,-551.1223,179.52722,3733.8486328125
549,1068.2561,-988.2913,1098.1226,1464.5386,-102.089905,-235.95035,3305.23901367188
550,1821.7869,489.4974,-871.3431,-642.8119,108.57345,243.02382,2625.27758789063
551,1912.1925,435.67853,-432.27124,775.6672,-19.246674,-191.48404,2476.09741210938
552,-457.11978,-487.31375,-834.7921,-77.608925,1864.1075,161.17145,3263.86791992188
553,599.95703,1228.2825,-553.682,269.00925,-26.730536,-93.05664,1641.8759765625
554,-1648.4604,-1278.5181,1202.5963,-618.4983,59.569504,365.05978,2961.20361328125
555,400.89267,1494.6337,-432.07513,-57.74843,75.05038,-131.8372,1697.11560058594
556,2728.0017,-1022.17755,481.61795,-429.44498,-111.138054,265.31024,3389.2822265625
557,316.0821,81.15292,280.1383,498.4054,297.2983,-245.90176,1113.47436523438
558,1545.9058,1986.4777,1145.3248,-337.4261,181.14578,-32.903744,987.072326660156
559,2093.8938,181.74916,501.10144,-959.41156,-23.047995,-80.510185,2435.1767578125
560,-2181.5251,-3989.3035,638.9851,-1023.6725,11.82966,120.927536,4417.03564453125
561,-1551.2423,-2578.344,1406.6722,16.959341,-12.854599,19.74605,3583.96484375
562,1214.4923,-2563.9033,-1819.131,-605.49493,-1317.1008,65.01384,4281.79052734375
563,1262.4258,-1570.9745,332.97125,199.18477,-200.98991,231.38242,2580.57250976563
564,2876.6567,311.60196,904.3701,659.8975,45.114647,8.100276,2592.89282226563
565,-2085.5366,3324.3772,-249.47034,211.87366,-240.21524,-87.53076,4799.59521484375
566,1473.7147,-389.71643,-123.35943,-224.36526,-193.18083,169.66527,1842.91027832031
567,497.1403,193.67247,45.361736,-189.19395,-113.18394,-64.24056,563.286560058594
568,-1406.0068,-1631.2205,-911.6568,70.1822,-69.035576,66.37769,669.873046875
569,-1715.5604,463.4953,-732.514,454.5514,-545.70166,162.3931,2272.63891601563
570,1028.0022,2293.4841,392.29144,38.876827,360.55255,-6.3394184,1790.16821289063
571,-177.92506,4575.29,-622.01337,-2150.9893,-0.85167384,-94.40543,6229.6162109375
572,1813.8322,805.6719,1612.0754,-1396.4753,569.25507,115.62554,2777.83764648438
573,-3665.6704,881.95306,1033.1228,1202.1376,-120.08577,-621.0453,5189.11865234375
574,-1400.0137,1077.7734,-1828.6583,1541.3932,-911.79083,-62.72029,4125.3876953125
575,-597.25433,-694.5214,-675.1203,1777.7515,564.00836,359.59256,3291.107421875
576,1594.4496,-4948.091,-11143.825,943.7721,-181.27342,405.08102,11179.927734375
577,-4219.4517,5026.387,598.95184,2392.4622,125.44855,839.1817,9136.951171875
578,1449.4017,3414.3884,11338.732,-6122.4517,953.03766,2469.4182,14686.7216796875
579,3580.6821,-995.5924,-25.802532,-1990.6666,1132.5792,2620.3508,7333.48095703125
