Element Label,S11,S22,S33,S12,S13,S23,Mises
1,-122.32445,-2266.7195,-378.20618,584.7417,817.4843,384.76404,2754.9833984375
2,755.7935,2800.1829,-1547.3263,1317.7482,-572.73645,-238.37723,4533.90478515625
3,1481.5139,4410.893,2520.3677,1757.35,-1514.0862,474.38687,4840.931640625
4,-2764.8672,3469.776,-9513.896,3513.7427,1023.7444,-1392.085,13133.7353515625
5,2338.2417,6775.536,-1898.9685,4233.0938,147.46736,-228.41495,10508.2958984375
6,3251.788,3692.354,287.42996,343.27377,-644.23816,-137.87445,3455.890625
7,575.158,3881.4258,1153.2985,1501.2333,415.56808,9.195205,4078.43286132813
8,628.46387,2529.9402,-2342.2498,1926.0883,1050.8519,170.66225,5711.32080078125
9,356.57977,8026.8555,10711.5625,3437.242,-1213.4591,760.6558,11323.884765625
10,-103.96747,1578.8485,-1252.207,3194.2937,275.38272,287.52286,6096.60986328125
11,4173.176,3076.139,-1503.8065,514.99896,33.125835,465.05734,5352.71533203125
12,157.30562,5461.0264,1506.675,1211.2593,894.6447,-140.70457,5445.69384765625
13,5874.9414,3794.6616,-960.72815,154.07584,-1854.1106,46.87419,6872.0322265625
14,-5602.149,-2009.3911,-5508.1577,1198.3019,2955.3728,70.16053,6565.3857421875
15,307.5673,-380.78394,-3227.0618,734.5454,-2166.3289,-1407.0731,5671.99609375
16,10282.83,2042.906,3781.9922,-2674.0671,1412.8203,399.71307,9192.9443359375
17,-12748.612,-4346.6255,-12553.3955,-5201.998,-5466.1777,14454.134,29437.6796875
18,7614.692,3849.4421,2975.9373,974.8757,-1695.886,-1665.4172,6166.77880859375
19,-4111.6685,11963.724,1509.0328,2436.8447,-6915.203,1450.4387,19163.548828125
20,15071.793,-15228.445,-4579.244,5069.858,5031.5806,-2562.9734,29691.81640625
21,9502.997,-7124.116,5873.3433,-3364.7566,4787.406,-5323.8584,20421.49609375
22,-9174.402,-3292.8462,-8829.914,1831.8297,1367.0139,6508.5312,13245.4208984375
23,1691.2935,-1202.7822,584.3336,4254.4736,2380.299,-563.09644,8868.3564453125
24,15320.219,9233.706,13975.821,12102.087,-1147.9476,-7085.223,24992.126953125
25,5024.5674,4953.305,-8671.464,2991.15,-631.2501,789.20197,14714.45703125
26,11105.422,-3008.5203,-10256.338,12253.061,-168.4285,1050.9485,28422.537109375
27,-12424.394,10349.32,-1333.9946,16812.09,677.1797,-814.3587,35218.9375
28,-12957.385,16202.343,8320.592,538.98706,-4422.3784,-2406.3323,27558.9765625
29,-1415.1383,2806.8894,2474.9893,-7762.5083,832.0902,-599.2368,14158.33203125
30,14132.407,44780.594,20493.988,-4969.531,260.25885,-1360.7445,29405.048828125
31,-32531.861,-39528.89,-26993.89,-4832.7456,4160.468,2777.2922,16233.04296875
32,-19408.992,5221.8506,-5173.5713,4041.578,-4419.5557,7632.2983,27222.263671875
33,24159.8,34663.26,19374.727,10816.83,2436.413,3506.4116,24273.11328125
34,-1442.0782,-12043.709,732.3191,-6041.026,-7005.9346,-6283.521,22701.408203125
35,-2727.2312,-8169.786,-9803.546,3014.9734,2750.4363,3896.6445,11691.8271484375
36,3961.055,-4174.8086,-10601.381,-9243.08,457.80334,-974.58856,20483.177734375
37,15377.558,13315.602,18975.084,10954.463,-5027.3623,-9001.128,26523.509765625
38,-5928.1655,21379.2,19521.104,5732.504,8351.115,361.78253,31727.052734375
39,-5952.4746,10413.541,3322.7302,686.30524,-3280.0413,-5544.0186,18110.0859375
40,8964.947,2948.4094,19176.918,858.50354,5131.8784,-14398.381,30084.60546875
41,-13607.653,818.2309,-11984.432,5033.5474,1283.0814,9413.472,23110.896484375
42,8035.7495,-12872.21,-7665.3833,8594.814,-779.58386,4512.0996,25296.296875
43,14698.928,15166.977,-9580.568,8473.557,8724.426,2433.7083,32597.486328125
44,12749.198,16403.283,22221.352,-12702.736,-1790.9583,-5834.596,25773.8359375
45,-2279.485,13161.368,2453.8955,-7203.9897,4014.507,-10553.355,26942.50390625
46,3628.5203,-24070.176,-4389.215,-3217.922,-362.31912,5563.8135,27087.783203125
47,16482.041,-2438.7275,3728.1406,-1928.1917,1528.5947,898.9864,17318.54296875
48,3621.3726,19945.584,37439.805,3223.2866,-2262.8765,7850.7705,33008.19921875
49,18451.523,11179.958,45888.066,9665.076,-720.1645,2718.0166,36181.5703125
50,-6678.1265,-7604.5005,-19807.48,-14705.872,6297.332,-452.87695,30486.84765625
51,8151.076,12677.264,2189.3472,2570.74,-793.97437,-61.77289,10234.31640625
52,6820.1343,-25512.04,-13430.447,4997.8325,-6660.712,2109.101,31970.068359375
53,-8406.816,11955.483,-12189.776,2148.6812,1074.0994,2397.4397,23249.0546875
54,1841.108,12757.047,1852.1033,-1835.1372,-2197.2026,-2084.1108,12516.17578125
55,2117.195,2987.6804,62.511284,7019.9434,2275.7627,2585.8428,13791.443359375
56,2947.7402,9395.988,8165.1675,-383.50253,472.5674,719.80994,6150.1015625
57,-12670.838,4184.0938,-7752.622,4101.573,-100.51707,-4278.0903,18187.5390625
58,7557.576,4110.1094,-822.80365,4302.7,-2464.6504,11530.521,22931.34765625
59,8758.871,1737.7666,-8768.06,-14.412901,-1763.2854,-4851.722,17702.4453125
60,19802.758,9247.2295,11373.144,2994.5703,-3538.0637,1530.2164,12844.42578125
61,19306.355,6791.998,8781.873,270.21103,-5908.019,4006.3132,16992.689453125
62,2624.7576,6576.6636,-7231.4546,1331.186,-6830.7905,3287.9316,18150.482421875
63,10389.526,4467.401,7573.1636,5677.748,5094.5605,-8401.918,20314.4140625
64,-2492.3945,-1560.7645,17296.918,3417.3782,-4135.4434,1654.9897,21647.322265625
65,-10894.288,-11261.252,-10602.007,58.79677,-6869.037,4272.6987,14023.4296875
66,11281.991,-5552.1904,28108.809,-3926.2778,-1565.1428,12655.132,37200.13671875
67,17775.502,-2288.8103,5538.26,2287.5955,1477.2882,-2153.1707,18518.90234375
68,-2207.3848,1444.3777,12502.241,3624.854,-4862.3564,-789.57104,16976.716796875
69,-2838.6055,-9916.558,12791.604,-4254.348,16104.017,969.0874,35215.96875
70,23036.85,17090.479,929.9058,2140.7212,10406.836,-1935.2462,27249.044921875
71,-3709.1094,-4490.39,-17060.01,10055.513,4689.268,-2454.9668,23575.716796875
72,-194.74745,6702.8506,36646.406,-4282.508,-4068.6318,-7017.5146,37458.63671875
73,64.930504,16928.648,15926.789,-10596.854,-6544.637,3212.134,27655.447265625
74,-13559.677,2797.8572,2169.5337,683.6664,4176.9585,7491.93,21904.705078125
75,-12049.17,1849.3809,7351.397,5427.419,-10944.073,-8992.562,31467.431640625
76,-13817.306,-402.26205,-10233.174,-1540.0107,1820.1808,-7505.7236,18187.62890625
77,1273.8221,7753.539,-14246.564,-433.5135,4973.194,3861.985,22426.400390625
78,6876.0635,5843.6333,-2102.1155,-108.72105,292.48315,-430.0885,8558.697265625
79,5337.674,9194.345,5792.2827,-995.78485,-2711.802,929.90576,6399.83203125
80,-2472.0327,434.9008,-2141.677,-1563.4921,3065.1138,-1594.4873,7123.51953125
81,3879.097,3543.5632,-4110.8145,-689.5134,1323.2081,-1841.5436,8838.73046875
82,2837.8574,5275.2124,2254.5894,-632.38025,-1043.379,-1482.0732,4331.0263671875
83,7282.023,8917.684,1158.6725,1436.5586,-1617.6897,676.0368,8099.35009765625
84,4153.4043,6771.0835,-3838.8076,-3548.7068,-76.95428,-751.3893,11451.6474609375
85,7685.8745,6319.398,-1777.4546,-544.66296,34.123604,462.63785,8945.7255859375
86,-2771.0886,-9725.092,-5117.7524,-3980.1606,-184.86755,435.84744,9259.791015625
87,218.4211,-1964.7103,-4657.5146,1100.5607,2317.654,-1689.27,6797.43798828125
88,-5103.768,8997.82,3770.5098,-8710.409,1754.2275,-1672.8882,19942.603515625
89,5333.28,-6549.3975,18017.045,3987.9214,4012.8953,-7387.8296,26693.701171875
90,-18797.094,-12779.228,-38.588688,3821.6118,-684.1834,-3194.8098,18736.30078125
91,12456.99,-5840.4673,4965.9277,-5068.385,-4848.6885,-8873.165,25251.52734375
92,22490.615,28950.605,28449.328,4042.2498,-6603.24,-3313.8965,15859.31640625
93,-2460.409,4939.285,7635.2686,-3796.3906,-7939.7183,463.20816,17747.453125
94,-7796.4463,-12822.241,-13502.521,-12349.311,1774.9954,11196.967,29533.453125
95,12353.969,-416.63684,6613.541,-3186.0876,1064.9052,-473.48608,12540.3447265625
96,7016.1655,7757.1675,7807.403,1053.2167,4466.4683,1038.0293,8185.17919921875
97,-24419.371,-16765.768,-14349.1455,-6408.714,-3127.8914,3063.9705,16237.095703125
98,7229.3726,-7199.4585,22606.617,8291.105,-7574.877,2960.369,32728.908203125
99,4279.294,14174.019,21452.63,4229.0923,-4486.188,-992.72754,18436.19921875
100,21912.195,15385.988,19818.863,15321.507,-7637.3823,9533.065,34426.5078125
101,-11122.587,-32499.24,-32135.99,10269.462,6056.0615,-6937.107,31939.1875
102,-9168.517,-25898.793,-3767.1152,6860.2437,406.72437,-10907.531,29967.517578125
103,-5219.3994,-16096.017,4665.268,-17585.832,512.63226,1796.4918,35521.4609375
104,-10593.966,-3278.8154,-30775.084,1983.288,1324.2063,12830.299,33456.3515625
105,2958.7197,-15261.798,7510.4116,5069.1997,5039.2705,-6881.3467,27036.48046875
106,12510.062,10330.017,5816.5728,3943.894,-7767.98,-3737.145,17451.345703125
107,10347.958,8077.377,1808.8589,-415.95868,5894.4277,13094.241,26034.830078125
108,4212.102,-4451.869,3968.2114,-2988.0671,-2316.3264,-289.39392,10777.0029296875
109,8199.823,8182.485,1676.8717,3064.5059,-171.86487,-864.12213,8540.3994140625
110,11005.689,2664.9995,-10578.231,9317.529,4535.2544,1069.4393,26095.85546875
111,17640.03,6116.826,5655.5776,-1343.5546,565.54315,47.233864,12028.8671875
112,-2171.784,-8903.826,6725.177,9586.883,2189.8523,3701.04,22706.287109375
113,-5120.416,8739.973,-4533.8677,-4818.2803,1526.5587,-708.64014,16200.9189453125
114,-24824.062,-21047.248,-41388.35,-3173.7654,-14717.979,10452.045,36864.765625
115,-3246.1504,16694.053,12665.113,225.84839,-2134.0508,-378.3474,18648.087890625
116,-12279.431,-748.5777,23943.654,-2284.569,5388.1167,4006.4795,34326.34765625
117,2539.809,11595.403,26801.215,426.49158,-7243.6685,1489.4717,24809.91015625
118,-2298.642,20360.36,-9723.983,-11699.707,8190.208,277.02954,36727.8515625
119,327.86102,12471.296,-10255.439,-9029.763,1847.8634,-5720.424,27221.50390625
120,13604.341,8218.89,8269.478,-2209.1636,3383.541,2977.6077,10213.6142578125
121,13891.256,15055.9795,-5489.4526,-38.235947,-503.65076,-8772.258,25122.986328125
122,-19510.63,6591.9155,-4334.6636,-667.0216,7852.592,7543.2607,29538.927734375
123,11097.505,3181.2654,-1346.699,4418.319,109.542694,1425.2456,13553.90625
124,7858.64,7214.365,1991.7931,2072.0083,2368.5132,1180.9974,8059.06982421875
125,14169.993,-4409.537,-9061.578,-8226.835,87.86587,-1741.4967,25796.0703125
126,-8167.9204,-23146.865,-18410.26,2079.758,3264.593,8822.846,21315.0546875
127,-3699.0454,6597.253,-20565.453,2796.3628,6920.756,2660.012,27432.234375
128,2314.8894,12245.232,5142.546,3024.9604,2457.5825,-1924.4839,11627.939453125
129,-5090.0386,-82.033745,-10639.858,5692.406,-5241.208,4321.5796,17869.625
130,-1797.4817,-811.1688,-5873.1367,-4543.8804,181.07024,425.91028,9175.333984375
131,6986.3325,2405.9114,675.051,-397.7063,169.4855,827.226,5875.18505859375
132,4745.4814,6024.449,4998.4995,-210.84412,2348.6995,1042.5477,4617.29638671875
133,-3582.5708,-253.1679,1282.3726,377.28366,-1159.7881,1340.8784,5330.23974609375
134,5528.218,9866.888,-763.09125,-2099.9102,1018.7244,-1389.8838,10384.5146484375
135,3829.9763,1581.8616,-3339.0745,-4352.722,928.40234,4963.8877,13178.6708984375
136,-2540.8184,-3120.849,14875.464,2048.2134,5128.404,-5961.9497,22624.91796875
137,-2076.895,-7220.758,9155.073,180.29828,1233.193,-3202.1372,15678.4248046875
138,6806.3096,12340.587,-5597.613,-3081.4895,1748.6418,-9065.806,23181.0
139,4290.966,-12935.077,-25206.41,-2774.8418,7697.7505,2670.9568,29681.240234375
140,-11613.452,-24458.29,-47343.11,-1070.1304,-1362.3829,273.94293,31494.21484375
141,-3115.4238,5648.393,-9221.598,-297.2844,-4246.6055,775.8595,14959.1181640625
142,-4105.9546,2474.2637,-3579.4568,1883.0917,-854.5351,627.6193,7356.80029296875
143,-33475.44,-30959.303,-15599.636,-1508.813,-5944.8174,-7037.3394,23287.806640625
144,-8854.626,2427.4407,-17759.34,5573.4097,7583.3667,-10691.162,30259.81640625
145,903.24365,942.9195,-6134.727,1133.2032,5117.977,-1586.4731,11823.623046875
146,10472.804,5219.163,-10223.809,1754.2437,1035.2958,-1052.5385,19052.271484375
147,5739.1147,-3596.5015,-4111.3784,-2333.6814,-3758.416,1385.7585,12518.0576171875
148,15251.038,7365.497,4901.4766,-5433.771,-503.09344,155.97145,13307.63671875
149,13587.043,7235.8154,-3210.03,5030.6743,2196.4224,-415.8145,17513.203125
150,-2301.4343,-8954.359,-14013.606,2585.5774,-8796.75,7243.8174,22652.5703125
151,16162.282,5002.5654,2670.5583,11922.191,-12513.315,978.67303,32481.388671875
152,6208.377,5134.211,16364.693,5276.3076,7974.0654,-5255.4,21733.55078125
153,-7296.4263,12860.676,-14719.657,-1875.1993,-3380.8347,-290.16776,25615.146484375
154,4817.3403,4209.6333,5777.443,-3186.6755,2208.5925,-1713.8463,7468.9169921875
155,-187.19745,-957.1282,-7976.952,12119.888,7473.2637,-1107.3389,25829.791015625
156,9778.941,6087.4497,-10826.883,-5629.059,-3579.6309,-4201.0073,23422.349609375
157,9598.214,18775.58,23910.75,8550.241,1988.0713,8142.755,24244.83203125
158,-13119.637,-6004.774,-23138.896,-2578.3044,-1989.1116,2178.3965,16381.1298828125
159,-4877.923,-4222.934,-28513.469,9150.54,-2201.0928,-658.9988,29010.056640625
160,5270.8667,5842.591,-4936.8286,-3522.922,-2243.4917,1027.531,12878.6669921875
161,13146.477,2945.513,5643.9165,1372.117,327.01895,-599.9979,9532.2431640625
162,4387.196,5625.9316,-738.94745,1746.5847,-205.48872,267.37524,6607.16064453125
163,-3285.716,-3492.8574,-3513.6284,-1582.8364,1703.3175,698.1167,4210.66845703125
164,3027.5771,4532.2295,-629.7227,-3987.6255,807.8463,1054.0029,8610.27734375
165,14522.503,19006.477,8983.582,4715.801,-5023.622,-10129.236,22931.484375
166,-5588.254,4028.7158,15012.656,3061.0256,1398.8573,2194.6606,19162.330078125
167,9572.823,-5637.5063,8347.736,-260.73135,-1578.6599,-182.51672,14899.7109375
168,2823.7908,5911.854,-6491.3193,-4252.659,-77.07782,1992.1342,13829.388671875
169,785.99677,977.3344,-1460.7833,-3586.6023,169.2036,376.0022,6679.498046875
170,-3873.5142,1880.429,3604.4966,-2736.705,30.546915,609.3965,8341.8232421875
171,-5393.3945,-21856.342,5757.8936,-405.4921,-153.39268,7422.1807,27290.8984375
172,7861.3833,274.93384,-5740.478,7112.215,4408.2153,1818.1212,18956.25390625
173,-3855.3865,13318.135,2131.3381,-2916.3777,855.7477,161.70468,15992.1455078125
174,3997.82,5166.0806,3543.2458,-438.71976,-960.0545,-629.1525,2575.37744140625
175,14056.557,87.780045,540.25867,6596.2817,1093.633,-1942.2,18287.92578125
176,-1852.7872,2947.6018,20914.324,455.1937,5312.0386,-9673.435,28250.57421875
177,-18877.182,9509.384,-24441.434,969.13556,3623.5354,-7818.014,34932.50390625
178,2380.4783,3751.5322,1798.1627,-1679.0374,906.36194,-518.69836,3840.10229492188
179,1619.1147,3448.4937,-1955.6615,-4941.6807,-1468.8656,-539.3705,10162.2509765625
180,2482.2903,4343.2446,5957.0024,4335.888,735.384,-894.96704,8336.3984375
181,6172.967,36125.902,18208.273,-6922.005,5551.666,4427.719,31249.859375
182,-10056.44,-13563.201,-4462.6963,-7340.9736,-3538.623,4513.7104,17987.75390625
183,-18691.318,-4496.215,-7470.9014,5318.867,8339.426,-5197.405,23295.318359375
184,-4628.1094,9167.103,-2779.9827,-7672.9517,-7442.7583,1980.9955,22864.98828125
185,1866.8297,410.24527,-763.83954,-7673.903,2773.045,1523.0262,14556.94921875
186,-898.9662,-1174.6598,1996.1792,-2355.9475,-1240.175,1057.7753,5820.50537109375
187,11684.399,-1290.5802,628.48425,4857.8223,-2141.9705,341.90268,15232.96484375
188,-1609.3518,10396.645,2423.875,7731.3877,-3884.6624,-5512.794,20682.251953125
189,-7722.8745,-19472.72,-9899.558,-626.06226,1583.5746,5899.277,15176.447265625
190,-959.48334,-17529.564,-14688.431,10707.339,11122.916,7598.309,33524.078125
191,3960.4387,-11404.411,-3730.1648,-5422.3906,801.92267,3833.365,17643.109375
192,-26894.377,-42980.69,-21935.137,-4626.5356,6957.358,-6818.0366,26683.802734375
193,108.70857,21752.947,-3586.5269,10397.673,-4142.702,2295.9456,30882.734375
194,-6901.667,7654.8013,-8149.7554,1213.1947,798.3589,6315.5713,18910.400390625
195,-5842.287,-5748.173,-31417.652,12713.02,-2143.2961,798.74396,34015.7734375
196,22580.162,10480.6045,7316.4844,-3889.4167,7270.484,3849.9226,21050.501953125
197,-6349.309,-1937.612,10707.728,753.73047,8753.865,1975.3976,21873.6484375
198,-20878.621,-15772.976,-22643.934,-10516.441,-2956.8958,-3702.136,20912.453125
199,17382.654,1887.105,30947.691,5797.5723,-6119.8237,11602.868,35375.01953125
200,19543.195,8879.259,19631.617,-10035.275,-696.7586,8027.1006,24729.53515625
201,24351.92,-1738.9591,27698.393,183.85625,-3677.802,-1275.8054,28719.4765625
202,3013.8586,-9627.767,-2508.54,594.59796,4541.275,7703.923,19012.546875
203,-1700.5671,10574.489,16672.729,-11152.805,444.12796,-3775.4792,26062.068359375
204,6513.6655,15901.717,-23.361649,2010.4536,7752.197,9847.207,25991.4609375
205,9616.687,-533.6503,1827.4445,-5730.814,-6831.209,-6664.1577,21363.3828125
206,-2241.7334,-5676.1143,-14479.942,1184.1097,863.72815,1506.6714,11523.5693359375
207,16742.682,-2958.3406,-3673.8381,4279.7163,4798.2456,568.62225,22972.279296875
208,12980.037,13609.735,9000.255,-1714.208,-15895.764,1081.389,28090.76171875
209,312.27438,-11821.031,7101.1475,14180.935,5451.501,1348.6528,31202.359375
210,-6409.2554,-32116.373,4915.8643,686.5102,7439.1465,4129.774,36039.58984375
211,-4622.8467,-6239.132,10300.291,704.0098,184.6566,-3855.4587,17193.46875
212,-13087.572,-13941.754,-2798.8857,1432.2103,518.6998,3698.1472,12781.4248046875
213,-14192.831,-6242.2246,-32.201633,874.83075,-307.57187,-2557.5864,13166.3779296875
214,-11451.41,-11591.216,-1663.157,4325.1797,-392.72778,3349.1028,13690.56640625
215,-1472.9735,5326.1455,1633.0331,-6795.558,-139.31999,-323.61026,13178.3310546875
216,-4265.5195,-967.67755,-1369.6796,776.5333,634.26324,637.5827,3734.57421875
217,304.81656,1323.5425,1596.357,-4071.204,-1098.8671,-412.92776,7432.92138671875
218,1877.7506,192.79797,-1138.3872,-862.48157,-1013.238,-25.575468,3488.21484375
219,-5497.745,6885.2407,-4552.8003,-2161.4297,481.02756,-916.79,12639.6611328125
220,1158.8115,2805.5876,-1045.0718,-2471.8462,-411.5874,661.3876,5599.00537109375
221,5698.013,4962.408,3317.329,-2769.571,-168.25095,310.9963,5276.7587890625
222,4223.534,1912.6488,-946.7309,-3261.5852,83.12382,-210.77618,7224.38720703125
223,4473.5327,7428.361,-42.976547,-3454.0723,357.19766,-1344.152,9168.9814453125
224,6294.0464,8128.186,2468.6714,-628.31445,342.65405,-2161.0784,6368.7666015625
225,3058.0977,3805.1877,-172.6965,-553.10645,643.16754,596.53674,4078.75122070313
226,8797.865,-13063.375,1452.675,1160.8873,54.299118,-1036.0747,19456.69140625
227,521.3914,1432.8761,3158.3403,-3783.941,-4257.7563,1997.4142,10709.3349609375
228,6458.1724,1059.8325,10585.1045,578.5779,-4224.9053,5101.6074,14180.44921875
229,4968.4473,6426.367,6567.4897,3942.2385,-373.0691,2794.1648,8533.1435546875
230,-1813.8198,-3372.2024,-2665.365,-2770.311,-3422.7908,3927.9624,10309.3974609375
231,14311.684,-3478.4143,-1600.8496,3606.654,1830.6499,-1903.8805,18616.1953125
232,3942.5781,893.3453,-1366.2078,3561.2302,-2206.9053,-5081.544,12305.2001953125
233,10463.488,1005.10754,-1142.2155,3793.2253,378.67386,-53.66385,12569.2744140625
234,10765.609,4430.637,1684.7123,-1974.2379,2621.4395,164.34343,9872.033203125
235,14647.8545,-6323.299,-8192.565,-379.23938,15.209295,4265.327,23183.9453125
236,-10693.472,-13332.083,-4047.3135,5257.0596,-612.38055,-1661.2341,12687.96484375
237,-317.208,-5260.5723,16344.155,-1607.4955,-54.815094,831.6911,19855.41015625
238,-2861.1638,-16954.838,-1481.1038,726.93616,-250.17198,6819.1772,19006.91796875
239,-7499.2515,-6609.5015,-13699.484,3922.114,4481.282,1081.1042,12435.9228515625
240,1243.9885,11954.004,76.488396,4592.5806,1951.2432,9.68092,14257.2490234375
241,-3969.152,5647.915,-13693.599,14582.968,-4860.612,-5633.4146,32933.94921875
242,3633.9822,-327.24548,-6503.0864,-5270.9927,-4880.083,-3877.6504,16679.34375
243,8340.566,6346.3745,-3734.0144,6648.5654,794.87744,-75.40606,16131.2158203125
244,-3734.55,10006.003,-55.43765,-9039.335,4956.141,-252.49413,21697.82421875
245,5696.445,-7345.7056,-3541.7437,-2575.9553,-9584.444,844.80927,20798.759765625
246,2209.716,13343.937,14914.779,1865.9229,666.3791,-1823.5618,12871.74609375
247,5302.8477,18048.398,23946.613,-9308.793,-11584.907,6689.632,32699.521484375
248,-3632.525,-5234.0234,-32058.285,-965.7438,-2722.1064,1501.4961,28228.634765625
249,-2573.1267,-13441.7,20596.65,-6676.3936,6340.5723,-4850.993,35095.7890625
250,-11719.884,-1469.1107,19399.342,-5892.7803,-4180.5176,-596.851,30202.01953125
251,-17272.346,386.90494,-5208.55,10776.699,5427.245,4276.5923,27129.158203125
252,30453.39,3063.9656,4644.332,-1497.4558,-8536.471,52.46788,30573.5546875
253,-7076.5664,12673.461,880.7631,4343.94,-3511.042,-2597.0942,20249.73046875
254,1352.987,-23010.252,17057.736,2270.3528,7954.8647,4519.228,38592.7265625
255,10454.012,2555.8613,-1720.6046,1612.2937,3589.7039,-6479.779,16937.0625
256,9248.166,9587.061,-3845.11,-5755.275,7939.4556,1945.8331,21813.28125
257,31491.82,5590.5444,16496.566,-876.1994,-2424.503,-8030.9272,26847.025390625
258,2410.8333,6069.9067,-19410.576,-3487.6846,-5415.8657,5204.3896,27841.560546875
259,14439.327,11509.379,17859.852,-719.9079,-3831.2917,13260.56,24564.7109375
260,9983.807,9653.039,18777.021,2003.9684,-7082.678,-207.76045,15588.736328125
261,-40986.7,-25202.385,-43366.176,4078.3328,-1869.706,-4660.2173,20442.689453125
262,-1269.4691,10025.727,29956.752,-4607.9556,-9526.352,-1405.553,33042.890625
263,-12190.73,1971.2942,-23453.299,12916.734,2885.9739,-3882.6848,32521.494140625
264,-10256.559,1564.5088,13640.42,-2140.1194,934.1791,3013.7734,21723.7734375
265,-10541.189,7763.972,19060.088,5765.416,11781.025,-5982.8003,35957.4453125
266,-7037.8896,-3635.319,-1186.2819,-729.5802,-201.76157,2411.4211,6713.578125
267,3155.807,26878.977,30691.516,160.29686,-3363.1155,-1173.5128,26568.96484375
268,-5513.34,-1995.7561,-23410.842,-23.310585,4025.2546,2698.652,21589.529296875
269,-3233.6333,-11857.446,-31786.857,-2183.4387,1738.1077,2269.6892,26119.701171875
270,-7729.652,4220.942,341.7009,-5762.471,4551.1343,1095.4694,16639.1953125
271,1165.0027,4888.172,-15476.802,536.7037,-933.2927,1855.0653,19146.095703125
272,-2095.8135,2412.8845,-8019.49,2936.7769,-1717.2584,-1487.8645,11112.5380859375
273,3842.4492,12068.395,1620.7264,1864.9731,-3941.9841,7612.5693,17938.330078125
274,14453.445,17232.66,3701.2417,12082.106,-4084.064,-4526.3716,26507.572265625
275,-6106.105,-12312.252,3871.868,5121.522,740.1591,-2155.8462,17154.517578125
276,-4045.9653,13159.939,13422.33,-17748.973,1793.5934,-5637.852,36752.03125
277,-15689.466,12534.899,-2976.8787,2202.9497,-1509.7429,849.6461,24959.619140625
278,-812.3035,751.96686,3001.582,-286.3889,-5818.7183,1403.032,10897.28125
279,11955.364,470.6424,925.5777,5442.5894,-418.57935,831.8722,14776.6025390625
280,7591.156,1470.3735,2469.7952,-4968.187,-236.26547,3042.6765,11590.3115234375
281,4037.7397,-24434.898,-21185.588,5742.996,2148.7183,-1769.1367,29170.517578125
282,4073.1555,5357.046,690.3474,-2503.6267,-372.27664,-317.31635,6079.2431640625
283,5321.0654,-1093.1204,6829.7266,1824.1702,-134.66661,-243.45827,7956.73779296875
284,4394.824,-1759.742,-8319.476,-4826.4653,822.06805,-1211.38,14056.853515625
285,-12339.248,-22936.326,-14553.959,-5865.8345,499.06796,-1350.1075,14253.8828125
286,-3580.6963,2559.6921,28143.742,-5474.025,-9510.216,-8825.316,38003.02734375
287,-7016.703,-29757.035,-23262.164,-2165.348,-16411.549,-3493.1484,35641.265625
288,-9018.192,-12473.187,-26177.293,14190.008,2233.345,-6504.8843,31512.85546875
289,-11125.52,5375.077,-22897.342,-641.7999,-182.25725,-14006.336,34568.125
290,-18768.908,-4195.1807,-7259.1274,-7583.107,-903.4827,-5730.617,21227.517578125
291,-4732.086,-3686.0269,-2185.281,1557.9797,941.88007,-2938.3052,6384.40087890625
292,1577.3999,2121.2605,4537.011,-409.78104,-817.44086,-641.55743,3344.943359375
293,-2652.954,6389.0186,-2771.2117,-2756.8237,-797.51404,558.4405,10415.5849609375
294,14413.611,5169.4624,89.95272,3549.3584,7447.2007,-3521.2852,19989.6484375
295,474.2155,1242.1381,-125.63989,-1067.3641,545.0084,-541.0182,2568.4970703125
296,-10264.756,-19449.027,3084.943,-2406.8518,-353.81677,3017.664,20742.369140625
297,3549.6501,2222.9111,-2230.9758,-4595.9844,1341.0394,922.0107,9940.8837890625
298,5876.743,5321.9893,5124.8066,-3384.1367,-714.62115,-878.5941,6217.796875
299,4723.8013,6859.48,242.26025,-2898.5522,295.64566,801.20935,7849.15966796875
300,3076.9097,-3151.1543,-7035.909,-476.78668,-523.6533,-1063.0973,9108.7734375
301,-17211.791,-16294.14,-43381.91,5417.902,-7018.673,6393.9316,32683.720703125
302,-36836.836,-14812.339,-20170.105,-696.7873,-2420.8113,-274.18158,20372.654296875
303,12799.426,28943.848,34261.48,5584.843,-1753.5714,-5769.4146,24029.66015625
304,3136.5234,17090.049,26565.242,7031.61,-5634.0156,-3821.375,26534.095703125
305,657.50995,14485.037,9375.033,3585.1243,739.1907,-2214.549,14197.365234375
306,6811.1187,12107.73,3759.534,-3725.9277,-2963.1514,4289.4976,13293.498046875
307,9891.958,8184.9785,21327.25,1884.3882,779.0187,3563.1711,14274.501953125
308,-13454.87,-25836.08,-12360.835,3645.9382,9333.424,10810.994,28633.662109375
309,14347.275,-16168.222,-511.28165,-924.9676,-107.97032,-2396.7466,26802.814453125
310,-12727.246,-31668.988,-48634.832,-3319.6804,5086.695,5952.408,34423.390625
311,13002.951,6746.4043,-11473.958,-4513.0347,1176.9951,-1400.0499,23585.1953125
312,4068.6824,-756.2912,2994.4253,1653.7585,3065.0225,1848.9264,8117.54638671875
313,9393.0,-3881.1194,-13609.427,2115.3633,478.7781,-1351.3467,20483.341796875
314,-6313.875,16964.178,14116.007,-4023.8015,3161.6384,1622.6654,23877.6015625
315,10628.337,-12097.389,23269.645,-590.56464,-4559.906,-8253.456,35090.2734375
316,1596.9581,-5874.82,21920.156,-4536.675,2374.3364,3258.9148,27041.23828125
317,2785.2622,6430.1855,4074.1025,8421.32,-8829.179,-8737.571,26189.7578125
318,-8012.8945,-15704.296,-31273.512,-6470.1045,-1913.6245,-6430.041,26113.5234375
319,6018.2437,3494.3103,15536.738,2949.363,6447.2876,936.8862,16565.869140625
320,-39810.117,-60263.406,-44569.676,-3629.9995,1889.7943,6125.3086,22504.32421875
321,7196.901,-5498.076,-3999.416,-189.53284,-1068.6516,-1300.7461,12369.0185546875
322,-11874.154,-10006.914,5327.712,-2470.1494,-1243.8976,-1861.9241,17338.333984375
323,-9506.798,-7352.933,-60.068035,-1444.3341,6223.8647,-7747.1924,19392.205078125
324,-3306.619,10080.865,-1825.3297,-3993.8533,347.90054,-3080.3064,15435.95703125
325,-446.1639,-626.10156,-2620.6653,-2880.8936,660.0126,-110.25346,5532.76806640625
326,1610.656,310.05142,2406.9675,8348.51,1742.5999,-3591.045,16132.2958984375
327,-9095.763,-14067.3,-3292.6077,-5099.815,334.6502,2322.3125,13482.6962890625
328,-17061.988,-8549.14,2579.8572,11492.897,82.49975,1446.1359,26336.611328125
329,-13607.697,6432.7974,146.1177,-2316.3723,639.99396,-5052.1147,20225.05078125
330,5908.477,5134.0244,21497.088,12544.661,-4742.5645,975.573,28250.908203125
331,1175.7456,13141.468,6273.3228,-113.999146,2536.1426,4915.5854,14141.837890625
332,-11188.011,-5936.2793,4976.2124,-3993.2617,5875.002,-3242.2517,19669.63671875
333,-10627.264,-10798.108,-29541.006,2143.6453,-2064.9622,1970.2506,19817.947265625
334,92.380486,-4398.965,6895.617,2070.643,-4928.105,1578.0461,13791.4443359375
335,21595.398,3465.252,20443.15,-1183.6942,6911.4194,-7143.361,24692.6875
336,22582.158,-1452.4512,-972.42316,-818.6506,-2372.324,786.7926,24230.29296875
337,-16763.307,-7511.9155,21493.705,-3490.1707,-3758.4243,-1163.7618,35752.4921875
338,9294.254,1664.7377,15811.041,-755.6026,5645.6577,-741.8407,15791.8369140625
339,7840.8667,6557.47,4659.0728,-2084.8762,-121.8219,2705.333,6536.70751953125
340,-617.35614,-3234.5693,-12771.879,1120.2352,-706.3959,750.0251,11389.4970703125
341,1272.229,257.8906,6242.346,-4548.6553,6550.4727,-16.965393,14885.2294921875
342,3568.8374,-4969.8647,3603.1194,-2425.733,4285.0273,-640.51074,12131.40625
343,-2870.244,-6786.328,-4468.793,4476.2334,1691.1985,-10386.173,20098.23828125
344,-1534.2003,-4924.0005,-11980.101,-1603.2113,-609.30334,1199.2648,9916.5205078125
345,2287.913,-9754.001,-3755.01,-3362.2175,123.473595,151.59001,11949.2451171875
346,-16638.02,-7116.295,-6937.539,11256.711,3790.467,-1115.6195,22789.79296875
347,-1526.9528,-713.54236,-6428.8945,-940.8215,3273.698,-1588.4054,8429.3408203125
348,3988.3594,2399.173,-1147.6265,5444.5317,-210.58371,-4322.552,12878.548828125
349,-800.3754,2443.6133,-1979.2078,3881.69,-4209.1514,-282.8885,10692.5546875
350,8121.4033,-2189.8428,2321.0442,-4005.3833,-2098.6619,255.9586,11903.61328125
351,3280.205,6815.37,-5606.75,-18.157095,-554.3788,-1224.0903,11327.41796875
352,4680.0894,1268.0057,730.2124,2429.7053,-1114.4554,1357.2516,6381.9560546875
353,6042.6416,-4234.044,5264.062,576.2715,2213.3162,26.226599,10672.8564453125
354,-2197.0237,-4347.553,-7875.8022,1781.0375,199.39304,-657.1129,5965.89208984375
355,2365.3882,1271.2539,-5359.769,2164.6868,-3589.2168,1836.8525,10735.453125
356,-4663.6875,-5126.356,-17074.691,1943.8699,-3368.9023,2214.4133,14442.9970703125
357,6626.5664,12623.747,9684.763,267.35803,4171.2217,1321.483,9199.3935546875
358,-8380.945,-2060.2124,-18533.234,3476.2761,-5238.052,-2547.3083,18580.1484375
359,2972.454,1088.5195,9954.344,1368.5127,1517.9686,185.5491,8836.5078125
360,-1926.0463,-2550.942,1255.8431,1783.9663,675.15845,-236.75017,4856.59765625
361,4262.482,11381.101,732.19434,628.76764,196.6432,-229.52705,9472.5146484375
362,3905.0728,-8482.575,2271.3188,-784.54425,-3704.284,-1812.4178,13738.6640625
363,-333.45413,1067.772,58.571785,-1316.4098,135.73581,619.45807,2823.66137695313
364,-42426.594,-51567.074,-14319.017,-4566.653,2584.6992,-182.31778,34831.1015625
365,3625.9211,4138.4404,1628.3094,-2278.9077,-215.19794,-120.61474,4586.9140625
366,4109.022,-1685.9908,-884.76746,-72.0674,425.81857,-1452.5181,6039.0400390625
367,-5111.7397,73.13033,3054.587,-6220.3477,-410.6123,1533.8932,13223.951171875
368,3581.4849,1049.2773,5599.294,-2148.5752,-2334.329,99.381294,6768.986328125
369,773.5198,-3586.311,4978.4087,1062.9927,-1172.2605,-1793.2144,8495.947265625
370,749.4594,-4114.323,-1315.4283,28.661064,1676.3616,1981.3766,6171.5126953125
371,2470.9036,-4351.0938,7399.799,3569.8145,-236.22064,1180.0879,12125.779296875
372,6562.368,1420.6157,3246.5225,324.70007,441.58252,86.80002,4615.95849609375
373,-1321.0083,2463.4092,1240.7036,1733.4095,41.779198,218.06941,4511.27734375
374,4827.489,3154.1716,-288.26492,2730.1584,-60.68906,-122.15595,6544.2919921875
375,1421.3126,3130.3784,-842.28107,-4381.0923,105.005486,-279.1861,8352.3779296875
376,24208.436,11664.1045,9847.213,-1150.6456,-1375.6075,2954.4365,14808.3740234375
377,5790.94,18691.787,10212.512,5168.0664,-2230.881,-1849.1559,15305.4072265625
378,-967.6381,-2487.2544,-7335.701,-670.6431,242.83894,318.1092,5917.2822265625
379,-12676.91,-6025.1826,-5990.208,1338.3428,585.68317,5.3505497,7133.16162109375
380,-19866.004,-15648.925,-558.4429,3117.5342,5503.6035,442.0945,20730.568359375
381,-9476.496,42.11673,3701.0522,2826.3364,-4611.9854,-1614.4385,15310.6103515625
382,4076.4512,125.44536,3375.4526,2072.8403,-4080.8008,-263.32486,8740.0810546875
383,6113.698,-1824.982,-2946.4565,1498.6837,3009.8787,-57.30467,10349.37109375
384,6300.834,1312.7255,2466.4224,1450.0088,-789.52875,2016.9946,6390.61181640625
385,3237.2659,2801.3623,4230.4526,4364.9897,-771.9721,402.19293,7812.93017578125
386,511.1051,504.9972,-131.88438,2311.907,-199.64044,21.337181,4070.03979492188
387,2756.674,113.44789,-4831.6113,3086.5186,1300.9304,-701.09814,8924.283203125
388,2095.6384,1435.5306,-1777.5818,-1483.9655,281.12003,494.88144,4523.173828125
389,2862.3713,20.641356,-1495.0647,-1809.9047,63.51858,-65.610596,4953.00927734375
390,5018.026,-5139.528,1421.2767,-1635.2045,-321.17673,-71.032875,9376.8125
391,2303.9734,4226.941,-3771.2488,-6180.695,-1473.8698,956.7807,13272.3291015625
392,-733.43243,976.2091,-154.51482,-3444.7,41.062645,-4.651839,6153.96435546875
393,-5403.6914,-409.953,-6711.653,25.329897,1985.55,1533.3043,7215.40185546875
394,-1845.5022,4160.939,4427.197,-1308.3096,1494.9552,-132.2355,7045.54052734375
395,-2368.5024,-282.19125,-8606.192,2443.9475,647.3004,482.9422,8726.4287109375
396,1937.8784,3452.6865,-1927.227,-1261.1984,237.70326,229.60628,5309.24755859375
397,725.60284,-5401.3647,636.9892,-524.13074,312.77682,175.59404,6181.810546875
398,3806.775,-3636.2168,-917.99835,814.81384,629.70123,325.7488,6786.37109375
399,9546.364,8155.228,2199.2058,1185.328,3123.6152,2562.5312,9943.87890625
400,244.96161,-8210.188,949.74854,2636.2751,-3237.5742,3725.3965,13110.171875
401,-918.173,-4335.008,-3254.3828,6340.2866,4119.025,720.56537,13498.3203125
402,12259.853,29712.96,12844.463,6766.5073,-3479.8396,1051.8275,21719.880859375
403,2105.8,7098.6597,3494.2334,-503.5475,-1989.5254,416.09778,5751.42333984375
404,2121.026,7773.174,-8852.305,2882.7866,2983.4265,956.4081,16393.953125
405,5346.9395,-177.88889,-3219.6946,2193.1584,1004.8927,-524.1469,8652.46875
406,4712.272,4869.3633,-121.55476,-943.0289,369.83322,-461.05402,5278.8125
407,3413.8337,5262.094,1187.0955,-1181.4594,-1001.7885,-406.10562,4492.556640625
408,121.466896,-2961.0508,5301.8535,-6316.963,-1441.823,-492.1679,13378.4248046875
409,-13890.845,-6189.352,4146.853,-2570.484,-584.96106,1781.2305,16616.900390625
410,-2214.0903,-6863.628,-2472.928,-1662.47,1683.1228,-1013.8633,6352.60595703125
411,-3209.1028,5871.8975,-2563.3325,-2181.5417,411.77112,-1360.2698,9866.83203125
412,3118.3179,3606.8074,-804.48645,2441.7385,137.05872,510.7029,6022.3193359375
413,5805.5728,387.47153,3663.5017,-5349.1787,-2708.9604,-1386.5483,11660.29296875
414,1409.6157,102.68853,502.03946,-481.12735,-1594.4071,1022.27545,3577.93383789063
415,-6013.911,-3500.795,-3204.562,-4388.7183,243.05855,3165.7573,9755.7060546875
416,-1914.2666,-6667.0757,-11636.912,2685.453,-103.14738,-1446.6721,9942.56640625
417,-6485.6826,-6975.141,3660.678,511.59848,-2357.6765,-1441.3792,11482.51953125
418,4791.606,1253.8398,-2397.1055,1205.8904,983.40485,-1362.831,7183.1103515625
419,5960.8267,198.75467,1987.2555,2773.9602,-2107.6658,-9.8619,7906.09619140625
420,-4897.621,-417.9956,-9466.946,-4179.63,7145.8213,7607.206,20990.94140625
421,6390.275,-3896.6484,-227.57906,592.28455,-908.30975,199.05788,9229.6142578125
422,13070.537,-489.38715,922.8813,2375.8174,820.31604,-347.05417,13639.259765625
423,-1887.5675,-1619.8381,12670.0205,5877.0327,-6879.4155,-6614.2095,24185.501953125
424,1656.9124,1847.688,1445.2511,-2487.2278,237.17813,-267.56903,4366.236328125
425,-8462.348,-7484.2734,-14228.17,1880.4653,1517.6838,1731.4891,8145.7626953125
426,-11324.151,-8465.855,-9431.242,-3441.466,2734.376,-2221.9695,8894.6845703125
427,3038.3396,-3098.1567,207.50111,-1607.5635,-287.98676,10.195881,6025.0068359375
428,-212.3988,-631.59467,538.9198,1431.0018,83.12084,15.047208,2686.97973632813
429,2260.7341,-448.7378,-1904.7755,-533.1709,-653.5985,354.4823,3989.7041015625
430,4021.042,1757.0839,-229.83775,2345.5796,1085.7684,-281.45477,5818.18115234375
431,3862.3618,4168.0347,2044.26,39.64745,-79.592476,-453.22708,2143.51098632813
432,1648.3818,-1730.3357,2951.1501,-4116.0635,139.67702,-1046.5286,8466.6845703125
433,6652.096,7716.5854,2300.535,-4069.5024,-2331.7292,-2408.8923,10397.265625
434,-4934.3657,-3452.923,-1497.0177,6216.094,-155.11134,-512.5321,11211.4912109375
435,245.21454,4181.5317,2594.9612,-1688.0519,-1037.0112,-89.01847,4854.3857421875
436,950.6462,-2404.7742,-2654.7595,3063.717,2396.8042,-3072.613,9266.935546875
437,-40.210728,1922.625,1664.0254,-1965.4841,-960.68774,-65.97347,4217.0146484375
438,-4055.042,-51.278343,-2379.1226,-876.6823,-953.1255,-2171.8328,5595.57666015625
439,-8231.518,-6774.675,-9529.486,1699.5074,4614.903,-5081.414,12478.6748046875
440,4722.038,1187.177,4788.2573,-691.3041,1347.7179,1212.5026,4901.7265625
441,-752.2377,-949.33234,415.53494,-3880.2356,2874.0518,-1764.6798,8995.787109375
442,1696.2562,4507.8506,-132.58223,6653.9126,362.55164,99.934875,12232.7275390625
443,6352.489,2258.3457,3412.0984,2224.481,-1228.6324,1143.9886,6055.5107421875
444,-306.3859,3942.2473,4822.6665,-2430.596,-1024.7786,-1052.899,6838.58837890625
445,2662.867,4792.7637,949.7504,-1306.0542,166.15811,-990.59424,4389.07470703125
446,1778.0267,-4400.7,-1155.9451,-937.6761,818.3747,303.26767,5794.7802734375
447,-992.6217,-1479.6621,1683.4749,-3245.6658,-76.69473,176.21368,6357.3505859375
448,-1253.2747,-10179.903,-9947.642,274.35873,6030.807,3386.9873,14880.1240234375
449,5599.67,2471.5112,4846.4756,-2115.8142,422.9454,417.70773,4742.0107421875
450,1623.1998,-963.339,-3450.984,-259.74344,-309.97327,136.05492,4456.35888671875
451,15527.516,9438.541,8721.568,880.54663,-340.0249,632.27246,6769.603515625
452,-261.42197,-5320.496,463.16592,630.2682,-652.9443,-597.2499,5772.8544921875
453,8187.1816,3220.71,2183.9353,193.26149,-432.20877,1261.3042,6027.8505859375
454,3887.4292,3235.7512,1684.9924,-2258.742,-315.08795,-377.67874,4457.76171875
455,4461.158,2455.313,1010.00507,-637.4007,511.82217,-195.70625,3336.31860351563
456,708.3393,-2975.2285,-3952.2793,1751.7627,-495.0771,282.77924,5320.10791015625
457,1630.4908,-885.3708,-5509.114,-1117.5752,1484.8936,284.16562,7067.1884765625
458,7887.414,-895.66876,-1077.5825,-2187.6462,-730.22284,379.60028,9755.1396484375
459,-1805.6871,9477.566,-4428.6553,871.4695,338.88907,-748.1959,12964.94140625
460,2767.2148,751.64233,2830.9238,2374.5623,-118.78315,589.4955,4711.20849609375
461,-4498.111,-4275.4336,-4595.846,212.567,849.9967,492.85223,1764.26989746094
462,-4054.1494,-2953.1438,-1818.8617,-663.811,499.6073,-592.158,2621.13916015625
463,-7077.5625,5984.048,-4257.82,1908.5419,1077.7991,-899.6146,12592.3271484375
464,-15640.428,-21199.918,3972.1597,3679.799,-1409.6079,2138.7666,24184.79296875
465,201.32457,3694.4407,-2028.1384,-3858.767,-20.594204,733.91486,8440.826171875
466,-343.33417,397.33838,-502.86273,-801.4273,-209.24489,166.18893,1683.23132324219
467,-4299.1284,-1567.4668,-1540.832,674.45264,-496.39264,104.9607,3110.04321289063
468,-1720.3833,1080.2842,3480.685,-3251.36,-92.70156,-735.67694,7327.47314453125
469,-327.71045,-3759.2131,-5125.728,-1279.3873,81.58787,893.59204,5065.3486328125
470,-1144.529,-5051.4287,-6375.296,3741.106,1085.7183,756.1153,8332.3349609375
471,4632.816,2377.2646,-2991.4846,-924.69714,185.93326,234.13972,6989.55224609375
472,826.71014,553.8246,617.8056,1484.1248,-651.35114,574.8387,2988.82446289063
473,-2724.1985,-3171.1577,1158.4297,2504.1016,632.7419,-101.53085,6087.16162109375
474,1850.8407,812.75604,-6332.223,-118.50744,1378.974,238.44785,8090.91162109375
475,10723.547,2974.4077,-509.31305,-1264.4395,558.7604,637.91473,10302.1923828125
476,5590.589,2422.5352,7665.6875,5250.3823,-5259.167,-3345.9822,14838.4453125
477,1355.4075,-3935.158,193.78673,1535.9769,264.6501,-348.22134,5553.86181640625
478,14100.761,8014.7876,8675.641,-1841.9674,-2327.4355,-5661.061,12491.041015625
479,10199.12,4024.861,4358.7686,-2568.2021,308.35406,37.745594,7499.8564453125
480,-2081.9087,4761.0483,879.90674,-725.1489,-427.48047,-18.183147,6120.2587890625
481,6307.0293,4659.2495,-2679.575,-2547.4326,177.77324,-64.37914,9393.708984375
482,2853.691,-8190.688,854.0322,-176.14426,-10.416997,-764.89233,10283.0224609375
483,10004.564,-4155.205,741.3168,-4239.5176,-461.06625,31.205088,14481.1103515625
484,-441.40115,6898.2383,594.8409,196.19952,-217.60617,900.77747,7073.203125
485,-4302.606,4072.5151,-1243.6881,400.60132,394.68903,-362.5549,7431.28125
486,806.9511,2911.0776,-3436.9346,-58.48492,509.88416,82.6678,5672.59130859375
487,-5066.967,604.21533,-5498.3047,1182.8018,585.8187,-123.36943,6329.83642578125
488,581.74817,-5177.193,1051.7797,2098.3367,-65.80064,-385.2438,7054.11181640625
489,2290.6458,-785.31635,-468.8973,-1499.4343,-307.66406,423.71924,4019.43603515625
490,3692.596,-1802.4746,2466.5913,1805.5071,-249.41464,-327.19342,5937.109375
491,-9129.49,-13011.639,-2206.266,-4014.692,-604.6339,207.97717,11809.2705078125
492,-29434.748,-23306.63,-7343.1294,-3770.3389,-152.73595,145.70526,20808.494140625
493,4918.654,3855.6938,1.9003006,-1841.2212,28.732904,-680.623,5624.99267578125
494,7318.807,-8410.302,-944.4462,-233.92834,-136.18651,-232.54922,13641.6513671875
495,3481.0308,-13653.48,3670.1167,-5290.097,-172.97685,-252.17352,19521.859375
496,-599.9274,2628.714,2266.795,-483.58142,286.20764,-28.602703,3215.02026367188
497,-11078.531,4620.4307,-2220.6826,-5597.2827,-243.61295,244.31291,16739.345703125
498,-10382.703,2563.3706,566.09326,-73.909706,-115.89661,-93.111496,12075.4189453125
499,8154.1157,-2502.37,744.91736,390.91776,98.60062,-775.2194,9580.7822265625
500,131.22667,198.93564,1933.9436,-7456.2505,2449.1514,-3439.4468,14946.6962890625
501,5168.124,-432.39017,3310.973,568.05096,15.568533,228.05264,5053.5693359375
502,-3385.0771,-4192.3027,1843.0457,1683.32,-267.01364,-203.31223,6406.53955078125
503,-15944.22,-7497.8687,417.41455,-1245.0541,70.301155,130.19003,14337.5009765625
504,4097.357,5379.3604,-3463.46,653.57135,395.9772,452.08212,8418.2822265625
505,-12957.256,9523.471,5499.4673,-6314.9907,746.03265,-733.37085,23537.919921875
506,6082.4043,24205.309,3356.5068,4059.876,-363.4527,691.53436,20893.78125
507,8844.63,27856.21,4630.832,3265.4832,-191.45558,666.13635,22197.716796875
508,-6456.319,-8247.471,9551.853,-7368.7,-5404.947,2761.086,23696.986328125
509,7672.0903,2102.233,389.70605,1450.9575,-37.440994,597.8132,7133.49609375
510,876.33813,-2006.2219,-2781.7156,-324.45065,111.70595,-263.7706,3421.68286132813
511,-2431.549,4065.742,3941.6006,1735.5406,-544.90906,418.79538,7202.56005859375
512,4129.5356,10664.874,2165.9294,3197.5996,-199.98161,475.24042,9532.6123046875
513,-1000.2501,1155.2631,-1094.1863,-3651.7275,-271.69733,-308.25122,6735.68115234375
514,1953.0903,5966.7847,-1389.6626,5409.226,69.71568,670.10205,11394.796875
515,-2856.71,364.68427,-273.40192,-901.26996,-318.2564,-33.600105,3387.19921875
516,1974.6572,5296.967,-4908.659,2043.9429,2071.9382,867.56177,10438.20703125
517,-23243.732,-21248.947,-8174.9463,1985.2173,147.35422,-163.20564,14593.0390625
518,7853.945,-225.81282,-2181.3318,-752.82855,-975.3064,1546.3792,9830.2822265625
519,17607.443,12076.73,9257.347,-4257.633,-874.38763,99.56947,10527.8974609375
520,6023.486,9872.034,4199.7974,-834.9476,-1192.3866,-340.6947,5644.52880859375
521,-230.45161,-3405.1162,-1815.0776,1469.5039,1922.3789,1817.1017,5918.56396484375
522,-606.9531,2694.2107,-908.9171,4370.014,420.0033,-13.155457,8355.0283203125
523,1906.6757,4159.6816,-2115.3525,2575.9287,662.8109,39.540764,7179.3642578125
524,3275.2717,2610.348,-3247.1218,578.6546,356.18155,182.53842,6334.9765625
525,-3019.0435,365.14594,-3138.0867,3586.9675,268.25613,-280.60092,7135.88671875
526,-13602.036,-19741.762,-394.07324,-583.7408,-494.56415,-4.773593,17175.443359375
527,-10971.252,-13757.648,-37.42188,-452.77234,-13.094783,-102.334175,12586.72265625
528,1002.4995,9822.191,838.40234,1362.8262,-36.610798,-300.31448,9225.380859375
529,5355.448,4616.069,5140.809,1393.7041,-453.67538,-317.78113,2679.8701171875
530,8936.775,6724.4756,6395.533,-837.9886,-275.21927,811.23615,3168.34594726563
531,9383.3955,2561.0884,9648.382,1274.5332,232.1383,263.4635,7325.6484375
532,-8300.472,-3797.3176,-1509.7505,2824.8203,331.61017,-37.969852,7751.4951171875
533,7414.9062,-7537.406,-1467.2202,-2479.2217,-7.186225,149.98222,13717.2421875
534,8922.2705,-2062.838,94.7122,-744.0625,-181.5204,242.02875,10176.5498046875
535,5756.009,-3607.5034,-1708.6925,4909.596,120.990654,-680.26294,12134.4912109375
536,3973.3188,-1543.6163,2519.852,1373.8573,19.221642,617.6481,5598.07861328125
537,-20954.072,-3262.4326,-1441.4902,-703.4251,-165.50253,176.8962,18713.25390625
538,-15800.013,-8265.789,2532.7715,3045.263,132.76721,510.39954,16834.115234375
539,797.7757,2677.5603,2903.3699,254.88034,-559.8023,19.376352,2268.30493164063
540,1545.7936,4634.9478,2273.429,1103.9862,-142.29228,-155.88673,3408.01245117188
541,-14634.569,4354.3804,1111.1997,-4972.6226,-0.27255714,478.3993,19605.646484375
542,-3656.597,-2027.2911,-2093.6636,7760.6504,396.19165,-769.0939,13619.08203125
543,-8502.168,-16980.475,-10249.035,4818.2734,-347.8477,-584.747,11452.458984375
544,928.71,-13314.794,-2158.0793,289.89008,606.8539,187.54448,13034.6240234375
545,-9731.817,723.2019,46.271255,-2160.4546,-78.83162,131.53793,10805.626953125
546,8427.666,-13172.325,-789.8722,-184.45825,107.71204,114.98233,18777.658203125
547,995.2154,-15842.236,-1895.1288,-5807.202,680.07025,75.49003,18594.708984375
548,4675.8354,-8826.017,2070.9397,-1649.4962,171.71284,207.93123,12739.515625
549,3380.4988,-870.2462,-6151.7354,-229.16211,-285.1033,-443.8861,8331.009765625
550,148.14568,3796.1707,-609.25116,6110.4907,39.54102,-297.82327,11354.7265625
551,4231.8413,5663.2656,1165.2649,6339.814,68.29617,-158.80696,11683.8271484375
552,-7813.535,2954.6882,-365.24234,-6307.4795,279.6199,32.31248,14519.552734375
553,6169.3794,3880.5693,1607.3115,-2088.1804,-195.21527,-130.2547,5371.7900390625
554,-22359.307,-15025.544,-5668.042,-401.93607,461.45895,-7.305231,14529.15234375
555,4366.9033,8282.601,1157.4532,-3899.7773,-260.55176,-666.2729,9239.0859375
556,6061.206,11939.108,3445.6196,320.4136,-534.4006,-233.23814,7621.88525390625
557,-1036.8915,815.17975,2270.112,5468.4683,-645.9406,154.40602,9963.80078125
558,9550.47,9831.393,1753.6632,1850.8495,-403.2099,580.8827,8650.80078125
559,25335.902,18845.236,8759.436,7138.7188,-337.4027,180.0428,19043.06640625
560,-21460.752,-19811.184,-2883.4014,-5745.379,-38.250412,-203.40817,20404.681640625
561,-13842.086,-7125.2812,-293.5414,-3390.0818,-76.002235,529.07635,13153.3515625
562,2472.1367,-1.3632228,-2450.8162,-5152.187,-1028.1611,-2065.5085,10666.8720703125
563,-445.15582,-7235.7695,22.573511,-27.821095,-296.85803,-483.1341,7104.5283203125
564,4497.134,-565.58276,431.71436,268.15485,37.98343,-104.997955,4672.236328125
565,2547.2346,8553.112,678.6487,-1501.5793,-148.25874,-34.243156,7590.67529296875
566,5909.223,-2709.9668,-33.132805,952.9735,-36.397232,-35.987713,7817.67626953125
567,4621.427,-1456.1188,-720.0694,5848.9663,-38.61493,228.55904,11653.212890625
568,10291.506,5582.321,907.8091,-1857.488,-36.787823,87.57735,8741.7666015625
569,-6187.294,-2238.601,-4709.2646,891.57886,-59.33867,-132.30022,3793.18798828125
570,2112.7686,7617.132,1232.7966,-1176.8767,88.77939,-185.08324,6340.15625
571,-16230.705,-2581.4968,324.58682,-4550.9717,150.20709,-584.60297,17252.21484375
572,10673.584,6780.251,1262.1006,-2200.57,692.6419,1702.7269,9578.96875
573,2206.2476,5449.5044,2475.6365,-264.72165,-427.55804,-581.438,3389.75634765625
574,4936.145,4829.541,2668.027,3727.2354,-754.96124,-710.70856,7058.04541015625
575,2182.3936,6954.9155,-1481.3456,449.14722,627.93176,209.27213,7456.85595703125
576,3124.6772,5221.7354,355.2441,-2297.594,230.5648,376.03702,5856.24267578125
577,1902.6133,-925.25037,-215.3111,-2553.7644,1075.5831,3618.605,8295.2939453125
578,-12178.272,108.89691,695.7857,-1306.1052,1322.6012,412.19595,13015.5849609375
579,1767.9294,-10914.261,-5384.3315,-6206.823,-2079.2114,335.2375,15816.666015625
