Element Label,S11,S22,S33,S12,S13,S23,Mises
1,88797.69,87613.78,116846.836,1911.7562,-1168.6609,1525.295,29041.439453125
2,-24271.299,-40964.906,-11676.376,13321.157,-3773.3774,-8126.5728,37692.9921875
3,20200.523,15637.625,39443.934,236.59792,-1921.8252,3141.608,22798.943359375
4,-22593.395,-39044.312,-49886.242,-2319.7324,-3536.0051,-4524.4995,26107.595703125
5,885.28613,15562.783,3772.379,-465.12872,1083.3544,-2748.0127,14429.609375
6,-42577.113,-28028.43,-66094.914,-1179.3928,6450.968,-5614.286,36475.78125
7,6582.533,27947.139,44031.742,8120.424,1600.7693,646.56885,35574.81640625
8,8912.278,-7335.3057,8411.069,1295.5079,1567.1538,4738.149,18326.0703125
9,-7188.7393,-23655.365,-38115.64,1313.8455,4006.4832,-5018.037,29107.34765625
10,29111.594,7484.283,22868.633,5212.807,-3345.5034,-592.0354,22087.22265625
11,38073.74,16612.691,37145.81,-4865.423,-4946.9087,13111.544,33191.7734375
12,14469.219,15053.781,12495.746,-8043.2505,-1829.8527,-7484.561,19431.228515625
13,-28753.576,-37501.926,-43969.79,3179.414,6507.0195,-504.50653,18250.02734375
14,10989.25,-6033.764,-19547.67,2132.803,-4290.5615,-7324.893,30533.44921875
15,13624.277,2351.7827,27457.717,6137.881,5962.138,6249.3696,28481.509765625
16,-10761.884,-19245.098,-23010.838,-8045.13,-9573.117,-9025.261,28836.83984375
17,4491.1284,-1480.9227,-4465.592,38.877728,-7381.0605,191.97867,15031.75
18,20978.49,18963.51,19896.89,-348.4782,-383.109,-222.56062,2000.95739746094
19,-30308.041,-31810.338,-24370.316,-4063.515,-5307.4946,12497.738,25476.63671875
20,16346.834,6896.1826,-1605.835,11909.232,-1880.421,-3028.5466,26562.42578125
21,-16985374.0,-16986716.0,-16985850.0,133.90216,696.1988,-607.3024,2000.77038574219
22,-13219.426,-12909.224,-11676.211,12.769466,-350.93655,738.2311,2000.9853515625
23,-16504.31,-5997.4688,-12987.189,-3861.6787,99.27221,-198.01825,11432.1875
24,-10864.846,10415.1045,-7846.2217,6612.5947,-919.80634,-3748.4927,23949.595703125
25,-4408.4355,-1000.1707,-14773.75,5677.1626,12403.011,-5618.185,28412.50390625
26,-25776.871,3364.259,-7066.4014,4161.899,4558.154,4661.4727,28870.83984375
27,17803.377,9787.102,6372.513,8359.189,-6021.958,-2034.6125,20835.8203125
28,-6637.007,15350.905,12171.981,-2473.46,-536.2207,-2159.4258,21374.796875
29,15322.756,-2120.7944,-8186.2725,5942.216,-8853.755,-12166.194,35100.09375
30,5880.9653,23559.92,45092.82,-576.4533,3836.9,-1982.016,34840.17578125
31,10351.425,18712.178,12534.394,2379.719,9335.749,-8976.362,24012.482421875
32,4580.107,7389.6216,35767.086,3775.103,6090.7144,-1637.4789,32480.599609375
33,18279.943,17105.38,38380.816,-9688.301,-7749.3325,-1288.1365,29929.22265625
34,14746.045,21438.139,31010.91,1659.6798,-8988.452,12727.346,30611.76953125
35,-20481.666,-50964.383,-19512.58,-7555.636,-11286.881,4735.7983,39754.28125
36,7375.0386,1473.3564,17093.383,-7068.9385,-13259.228,-5961.9634,31154.400390625
37,43777.953,27502.215,15629.657,-10214.174,6029.1177,-11292.657,37466.02734375
38,2562.1436,-12226.364,9727.386,3593.3179,-960.2898,12565.074,29852.126953125
39,26610.342,-12242.402,24633.379,1478.5455,6178.0205,786.41766,39491.15234375
40,72220.24,70460.734,93166.48,-643.9723,4827.063,3237.6753,24109.935546875
41,134510.19,126875.09,128850.76,6405.4556,4617.924,-1683.9657,15578.3818359375
42,81332.125,80393.305,82626.58,-240.64456,-16.446287,23.397343,1987.06689453125
43,431134.56,432011.66,432195.47,-13.600797,-33.92625,883.79395,1819.77600097656
44,268066.8,267684.6,269428.03,-245.04257,-307.91092,583.1251,2000.98999023438
45,15367.3955,15196.058,14112.98,-493.9387,613.12933,501.6201,2000.64038085938
46,-11150.654,-7535.0796,-8969.906,6532.764,3252.3813,2851.99,13932.3330078125
47,20095.037,21658.414,20060.621,516.9785,320.60336,362.6933,2000.98388671875
48,25593.697,23088.137,6484.763,3562.1865,6667.3955,-1272.9275,22357.138671875
49,2808.981,6987.196,14983.421,-8177.5703,9030.262,6945.556,26547.76953125
50,1998.1703,25507.74,9856.88,4815.774,4126.8726,-3929.0293,24427.125
51,-1824.2194,8298.352,-1274.8228,589.4453,-5229.483,-4416.997,15453.845703125
52,-3890.401,2181.0552,-3008.8652,6186.4517,2339.5222,-7646.545,18410.134765625
53,28557.998,31391.486,27054.986,821.2839,10944.594,5612.7324,21689.4140625
54,-32080.617,-24066.242,-30826.889,112.65123,-3698.6382,-5564.906,13774.4892578125
55,-9210.235,-10283.939,-9263.203,1069.5967,1156.232,-3260.6729,6359.0458984375
56,16680.074,3708.5393,32350.332,9747.161,-1449.5787,15110.728,39917.5703125
57,2118.151,3352.0464,10872.758,2402.2324,-573.9416,7090.599,15378.3466796875
58,-9764.846,-5572.1846,-18894.49,3005.8174,-3163.803,-11933.336,24971.056640625
59,-6221.93,-9098.377,-12393.16,3136.2207,-5437.6504,-2768.4568,13031.1787109375
60,1943.127,3162.1714,3260.0078,-639.5506,58.16028,-619.5856,2000.947265625
61,-868.1021,884.57837,563.17004,186.13326,-262.56976,600.36426,2000.98547363281
62,-3811.1943,-2528.5537,-1059.0353,-2443.0352,2778.1838,-312.90933,6858.8212890625
63,6348.859,11674.7705,24320.074,-5533.3022,8369.029,1164.1785,23699.302734375
64,890.6874,7464.6987,10726.562,-6786.9624,-1520.5254,7267.4844,19464.697265625
65,9336.205,9706.745,5583.3057,342.8248,-302.76587,410.8847,4092.21435546875
66,1234.5905,11704.491,13097.693,352.60068,2882.4053,-3757.5776,13921.294921875
67,-9831.802,11174.487,21037.98,6162.8276,-3640.0706,9904.561,34550.5546875
68,6128.0405,6758.239,16263.031,525.628,230.87674,-1954.1616,10448.595703125
69,5582.9194,-4269.995,11063.828,-512.42865,1181.109,-5447.824,16587.115234375
70,11804.717,-13822.581,9697.3125,-5370.5845,4080.058,-11144.681,33410.69140625
71,8646.218,8918.292,3036.8975,-1166.4072,7925.832,791.8032,15082.5546875
72,10449.786,5739.0737,22742.77,-1432.4385,13593.605,-6746.3384,30467.52734375
73,26209.605,26530.02,21822.146,4240.1216,13283.283,8638.415,28773.2109375
74,-7903.078,-3555.3486,-11035.192,7753.3423,3800.025,-2570.0598,16905.904296875
75,-3963.5378,5911.791,4669.0327,15758.944,12759.198,10.467637,36334.8125
76,219.90958,-3034.1445,-6459.561,-1302.5283,5044.8125,384.0238,10740.1767578125
77,-25383.605,-28438.27,-2724.4653,-4975.398,6103.011,-853.281,27931.55859375
78,5231.4136,-5608.7295,6259.16,-8599.624,468.64835,582.54565,18794.7734375
79,-14604.272,-8275.531,-7624.0137,3948.3691,-1772.1077,-4242.0684,12440.904296875
80,3106.8298,9598.455,10026.01,4723.559,7153.688,-1391.5608,16473.33203125
81,20775.504,19934.25,20641.97,484.47012,-6.489213,-925.32056,1971.32397460938
82,71041.336,85106.125,66847.18,-8494.867,-6470.9194,5209.2354,26418.06640625
83,-2503.553,-5395.952,4746.485,15258.819,7254.8853,-5473.686,32065.208984375
84,6369.057,22628.908,10478.745,10709.408,9030.941,4658.3887,29466.916015625
85,5301.966,27121.752,4469.9365,4503.271,4387.5913,5958.3813,26833.71484375
86,-13659.915,-10289.269,-40554.484,-12315.562,554.3682,7914.506,38330.01953125
87,-16395.617,-1597.5199,18070.383,-4565.8115,-5735.929,-2663.2207,32853.89453125
88,840.1515,6388.1333,36402.777,-8848.999,-8491.179,-361.387,39367.32421875
89,-23730.91,10198.576,-14181.021,8887.438,-4073.116,8036.332,37401.41796875
90,-8827.618,-8696.989,-3677.3757,2132.293,-5982.5117,-4023.684,13980.3701171875
91,-7223.5723,4414.4717,-13337.12,5046.582,-6376.337,-11069.327,28459.37890625
92,5230.2935,14376.623,-3990.1472,4618.6367,18079.38,4451.6567,36838.08203125
93,4962.903,2535.6653,-5710.806,-1861.3049,-7451.5044,5174.7827,18740.734375
94,-1810.8784,8163.9214,13096.991,991.0765,4165.7163,-7891.4805,20368.37890625
95,2167.733,-16209.758,-9768.415,-217.48065,3404.7358,67.85716,17198.248046875
96,-36094.184,-35190.62,-19007.416,-13770.236,-141.47554,-4177.4087,29976.751953125
97,-685.9082,-26203.832,-997.0752,469.30634,5720.698,1715.6268,27404.21484375
98,6946.992,5427.4253,8023.021,-2148.7642,7940.391,32.989662,14425.8896484375
99,15675.959,9473.587,4998.8306,2818.494,10871.852,-831.30786,21604.24609375
100,-2950.6924,-11921.377,-8696.772,-5220.3096,-9181.374,-6520.589,22894.2421875
101,-6669.065,5176.012,8887.474,-2935.5457,19627.88,3453.748,37622.359375
102,16398.393,10148.247,4465.6025,4783.432,-7324.94,-1450.9985,18514.810546875
103,34833.055,24100.293,28747.402,-6106.386,-14285.865,4036.8086,29324.404296875
104,-78646.664,-55166.176,-64360.29,12726.829,4966.436,-5806.6265,32879.2734375
105,-96798.484,-124324.84,-96492.94,1157.6837,-19.204042,-2013.5724,27971.228515625
106,187223.5,188708.72,187574.27,36.07942,53.91756,772.77234,1900.55383300781
107,29723.018,28480.953,28153.71,8069.854,3409.695,-7143.3423,19631.19921875
108,34896.29,34800.848,36646.05,-151.58688,-312.5037,367.08728,2000.98608398438
109,-32301.033,-3862.5742,-44943.49,1090.9586,-100.51915,7047.2656,38479.89453125
110,10040.292,12377.811,13507.641,-576.685,-2198.1372,-3337.6494,7635.07275390625
111,3539.7393,3217.6763,-9470.685,3049.5742,8435.317,-1947.6971,20443.3046875
112,-10951.985,-3665.0574,-13400.599,-791.9997,17256.703,3802.0876,31867.98828125
113,-927.9529,7545.7354,10718.996,-2999.5403,1097.414,2743.548,12725.880859375
114,13743.202,-17618.547,10062.035,7610.639,13073.538,-1081.4397,39644.52734375
115,19879.535,1363.1505,7035.89,-3767.175,9970.128,-7739.809,28115.77734375
116,11329.143,-1247.684,9946.045,-6187.275,6481.25,594.87164,19611.810546875
117,-24947.775,-34216.617,-30482.12,-6230.935,3197.669,449.56625,14594.474609375
118,5741.46,-936.1332,3271.9927,169.47644,5708.01,-5530.235,14959.251953125
119,8200.218,-15018.473,748.8519,8380.895,-2777.7515,-16684.293,38608.05859375
120,-4191.124,5454.183,25889.102,-3602.5718,-9235.159,-110.36824,31663.158203125
121,-28065.898,-18967.098,-27888.752,8619.318,-9396.182,-1699.374,24033.6015625
122,-4127.5327,-3144.7822,-1790.7424,6926.181,-16824.373,-3966.2507,32317.453125
123,11095.398,-5615.8325,33703.67,191.67197,37.98321,-1523.6262,34282.5078125
124,23586.451,-650.18866,41126.41,2220.244,1608.715,-5082.95,37686.01953125
125,2949.0193,-12098.469,12969.675,7250.0786,3453.5886,598.13275,25926.283203125
126,6178.727,10440.099,-2067.431,7627.1396,-7554.5,-8736.181,26381.662109375
127,-13508.387,6227.354,5005.8423,-6530.8623,7892.943,4865.418,27436.34765625
128,5423.5444,16218.792,8699.804,9974.793,-5529.308,-323.59644,21964.2109375
129,19322.555,19788.547,23102.74,-2.2527616,-958.8167,-1934.4132,5170.03662109375
130,21922.477,14330.186,49367.414,-10379.917,3663.5557,3560.1135,37692.88671875
131,17045.549,-1625.56,-19699.166,1032.3138,-9736.952,-4278.5728,36813.85546875
132,33510.605,7686.3115,26171.129,-4848.065,-5030.6294,10820.657,32076.75390625
133,-15417.6,1359.6313,-22517.967,-16461.092,3871.2065,6164.0527,37720.859375
134,-1409.8021,-12205.52,4063.0393,886.3567,7203.675,-3431.6045,19973.63671875
135,-97640.516,-97325.836,-97121.9,317.32007,-660.4613,852.62177,1999.09582519531
136,-58993.816,-57661.434,-59002.645,-330.77197,-788.7962,-82.37851,2000.56774902344
137,-111040.43,-98339.94,-113748.57,4379.851,390.95108,5916.4067,19132.451171875
138,18528.176,24644.234,22824.393,-5342.96,11212.734,4453.2266,23492.537109375
139,23353.861,23546.703,39859.297,-2497.1172,3634.33,5343.546,20329.189453125
140,7486.4624,5655.5225,6839.0,6222.1133,11999.523,1202.5414,23559.1640625
141,13669.575,8284.816,11755.228,-1604.9344,388.3759,3747.2556,8523.953125
142,5012.568,4927.6104,6579.3374,-1660.2369,9196.245,996.7704,16357.1904296875
143,9670.432,8809.785,5781.4775,-866.0946,6586.861,-2935.469,13068.25
144,-1908.8125,-28267.953,-41144.207,4114.0,-3955.3572,-9890.314,39889.51953125
145,7180.3115,7749.9346,14473.511,-1618.8611,82.01437,-7636.719,15238.1630859375
146,5827.498,16022.087,18218.166,839.7589,-1297.6364,2144.1782,12332.890625
147,10773.947,-9656.903,-210.91821,3117.9407,4765.152,2382.3633,20687.3984375
148,6087.7593,140.12308,4008.3445,4430.485,2839.5842,-8.265019,10507.533203125
149,-117.23329,-22883.18,-2255.2322,446.67023,5888.7837,1098.3795,24133.73046875
150,-11601.578,-481.86902,6680.503,5491.797,5220.145,-1999.945,20948.01953125
151,-3633.9153,-6021.929,19108.15,-3395.5398,-343.2385,1654.4028,24907.150390625
152,24044.354,23174.059,39835.133,-1136.5157,-5899.457,4453.6587,20775.94140625
153,-222166.8,-226184.33,-221020.06,1070.9316,-176.77425,-14887.102,26276.87890625
154,11776.788,8237.327,19575.543,-2561.0645,-8451.422,3735.076,19410.328125
155,2839.1953,-4610.2593,4485.6816,8079.162,-7963.634,4402.733,22686.998046875
156,554.603,10532.599,612.5784,8067.6167,-7068.728,-4726.839,22609.166015625
157,-7284.044,14910.002,-13612.451,5391.7036,4444.1025,-7287.2085,31286.56640625
158,17888.984,35521.47,27936.959,-1054.444,6789.3516,-9241.905,25150.654296875
159,-21063.521,4964.5757,17842.701,3614.2688,-1174.6833,-1688.9216,35076.87109375
160,7744.2485,26652.24,32122.322,6755.746,5393.668,7637.419,29833.671875
161,30651.768,20544.541,49408.316,-7952.8286,-6955.045,581.84125,31295.63671875
162,-9373.86,-14216.152,-22659.154,-11605.148,-15180.23,8060.267,37760.76953125
163,28311.377,38967.816,40008.37,-908.0713,-8946.446,12692.378,29182.375
164,-8351.452,-24128.428,7314.34,1060.2938,-12777.943,8848.861,38335.30859375
165,70300.78,69726.89,75190.98,11228.731,6751.4854,1308.4087,23392.017578125
166,194655.1,183157.05,188436.03,-693.3328,13645.499,-7784.936,29003.990234375
167,11178.99,8019.865,-12901.395,-11987.887,-5718.804,7569.0137,34855.19140625
168,12350.951,-7488.999,6526.977,-7954.318,-6987.0576,14568.047,35846.19140625
169,-11233.1,-6100.1978,10429.385,-12114.972,-3146.7466,-6875.902,31563.84375
170,27735.81,12842.967,14784.136,16301.736,8859.888,-1241.9529,35128.5546875
171,27365.143,34303.508,28642.615,15802.342,6761.451,-6970.003,32755.849609375
172,6948.4253,7903.9233,7901.125,5616.054,-10840.548,-5730.016,23379.09765625
173,10840.842,-2394.174,8130.856,4698.512,-8148.3877,-3217.9033,21050.51953125
174,4820.0317,5255.6895,8976.531,8993.638,-11597.206,-5583.393,27483.09375
175,-17650.352,-13358.43,-2366.8555,3528.1826,-9237.886,31.072538,21903.720703125
176,124295.81,153580.05,140466.06,1120.8754,429.37643,1397.7473,25606.5078125
177,11788.368,12322.895,6512.5093,2647.4822,-457.93137,-12710.492,23179.01953125
178,-33346.773,-26694.65,-9787.091,-1831.1165,-6954.4824,-12599.723,32771.9375
179,-22269.527,-29185.025,-44214.152,9636.596,-10564.284,-12973.787,38678.0859375
180,-8443.913,-5936.4976,-2168.4014,4175.014,11881.06,-9824.5205,28200.50390625
181,135658.25,153230.31,119740.49,9373.343,3540.0393,3050.728,34219.2265625
182,-18222.65,-13144.462,-15924.262,8758.942,15440.776,-2432.626,31345.841796875
183,-6629.245,-3161.3518,-11484.892,-1337.4226,-3350.6277,-7921.907,16725.982421875
184,13386.206,5526.1533,26247.246,5159.262,997.52057,-1885.447,20537.259765625
185,18816.82,19284.129,17765.97,959.6127,-264.43784,-5604.9326,9951.4775390625
186,13740.762,46713.637,7687.7705,-199.06033,3034.6257,-4576.2427,37603.265625
187,23371.732,32572.047,14462.775,-7728.8403,-17912.385,-138.00513,37253.23046875
188,12253.557,-11084.014,13925.055,5243.3105,-4030.222,-4020.9583,27679.48828125
189,15696.139,-19186.564,-11243.751,-5808.9834,10162.57,-3066.053,37974.8984375
190,7164.065,-7220.97,28385.975,233.02621,5661.186,5778.0273,34044.7265625
191,80021.45,79994.66,80967.7,625.9657,-224.0001,765.17017,2000.98645019531
192,-1417.5337,187.06734,-1201.0972,308.99985,-530.6929,444.79865,1999.79504394531
193,32.269226,1636.7793,1367.3486,714.4462,73.79488,283.76297,2000.9853515625
194,3643.0354,-10072.443,8575.109,7352.8647,4261.7275,-3135.3545,22940.3046875
195,19812.314,32191.205,17415.15,-7075.4507,8617.801,4934.81,25193.255859375
196,-1898.7826,-19811.354,-8706.478,7653.667,4928.208,-13423.727,32162.84375
197,40369.414,37707.227,48528.39,5893.418,5719.973,-6022.5117,20162.841796875
198,-3567.6023,-828.7046,-7773.786,5358.46,5502.2974,-8763.803,21073.482421875
199,38746.902,28280.922,48474.855,5828.0195,3116.144,-601.89825,20930.78515625
200,-874.6296,-928.7373,10698.642,-2336.4595,-9874.562,-4939.022,22729.92578125
201,-2332.8057,-19835.453,-8123.5244,13215.063,-8337.56,-2571.661,31477.30859375
202,25207.203,5120.5557,8756.12,8996.347,-9458.449,8417.957,32671.69921875
203,40240.664,45242.613,44242.523,-1909.1884,-3726.2463,1009.5118,8755.818359375
204,2449.9976,-6361.339,-24237.457,-3238.6328,-6599.315,-2991.5125,27270.392578125
205,-9279.866,-27630.709,858.7271,-10359.892,-11693.984,-1421.4777,36930.8515625
206,11023.96,8282.218,23435.775,-3176.331,8513.908,2343.2073,21442.931640625
207,1331.6956,-7471.085,2058.5298,-8110.0234,-6302.175,-3905.1863,21133.775390625
208,-18331.162,-14381.07,10448.192,-5575.324,-4761.0557,7489.381,32553.05859375
209,-9032.707,-22086.863,14328.11,1017.37103,-10508.957,1646.1366,36927.54296875
210,-84806.87,-95615.94,-77748.34,-13403.342,2115.4717,2682.9458,28581.876953125
211,3102.1348,-11401.923,10542.224,-12223.911,6573.0527,7066.3677,33186.16796875
212,-95470.28,-115303.35,-101375.78,-6368.443,5901.856,3188.5547,23827.90234375
213,-92451.734,-103954.734,-96505.63,4638.2417,-2523.4392,-1268.4298,13805.4677734375
214,6827.518,-18720.604,-16671.098,-1669.915,-1576.3308,3740.341,25735.904296875
215,-105112.87,-106137.48,-105509.6,387.6763,-569.377,770.23126,2000.9853515625
216,11808.505,9914.808,10993.446,457.5526,-462.52893,-95.12031,2000.98510742188
217,134734.66,134459.0,131800.1,1066.8623,-3287.3865,-4687.467,10470.484375
218,209489.8,208550.02,207887.75,-674.392,-342.40598,-338.45288,2000.98974609375
219,35099.695,36442.89,35121.645,121.598625,-524.3375,672.49066,2000.26318359375
220,17163.182,15570.241,15691.879,-505.7904,150.70047,-480.7543,1971.66711425781
221,57041.645,57796.02,56487.832,438.96152,818.0789,186.43599,1995.91296386719
222,22687.041,23510.44,24650.22,46.93189,56.273228,-754.03925,2153.46557617188
223,-5832.663,-2285.3728,3599.9753,3737.494,-14691.205,-3589.8545,28216.306640625
224,2528.9827,15528.034,13802.09,574.24506,1130.1853,1005.29767,12544.7880859375
225,3808.2656,-12825.741,2860.2007,4207.435,3888.4817,-9453.094,25067.314453125
226,11319.723,12351.35,2638.0522,5211.527,4639.5166,-5726.546,18161.146484375
227,-17853.607,2455.2659,-19333.666,-5585.5015,8764.079,6983.1123,30249.158203125
228,60.500572,-16095.289,-10416.961,-4490.949,-485.81247,-6662.9683,19897.599609375
229,21625.428,2456.8096,-560.16724,-3907.8975,261.05426,3063.4646,22550.904296875
230,12575.756,13102.014,8600.188,2791.2349,-2772.1287,1017.81995,8228.5595703125
231,4432.8145,1034.673,6875.959,11329.7705,-679.6263,6530.1406,23242.70703125
232,5911.291,5748.0923,4441.0312,1495.3157,3488.6436,2955.6587,8448.4267578125
233,1627.7659,5339.578,8740.096,4664.6113,6491.044,-5561.2524,17956.126953125
234,5406.715,-2370.241,-3818.1853,-5706.9883,-5054.155,5604.254,18504.154296875
235,1719.8225,2136.8723,3648.852,611.608,-802.6228,-9517.92,16670.865234375
236,1492.0875,1226.3146,6754.0127,-1939.2367,-1274.6252,-1613.5594,7288.5947265625
237,-8932.914,-3083.6604,-13041.331,911.9683,-541.252,2424.8423,9804.974609375
238,17685.959,11654.958,20927.96,2024.0314,1587.705,-1889.4841,9848.8095703125
239,14508.534,-6785.79,24114.857,2605.4033,6011.2124,-6083.935,31465.87109375
240,9366.467,-5215.212,22335.096,5192.896,11140.813,3605.332,32590.828125
241,-12319.841,-10150.2,-2546.431,50.195557,-1285.8896,3880.1907,11364.7626953125
242,-14410.534,-18973.21,-11200.496,6806.56,9070.33,-4599.005,22249.083984375
243,-2885.8257,9367.13,1812.3356,-6063.8193,2523.9934,6743.587,19506.166015625
244,3948.0261,392.7223,4608.0156,5323.999,8298.021,5953.7246,20331.48046875
245,12544.073,3318.7334,12110.618,6916.2705,8337.144,-7648.2725,24674.125
246,2023.7422,-15010.951,-15527.133,537.0566,3775.4395,-1315.8701,18656.41796875
247,3.2248816,-9722.354,-19543.95,33.0882,-6511.3804,-4364.6406,21700.671875
248,3083.24,15778.541,20663.041,4388.027,5990.823,5597.331,22504.75
249,12148.875,818.874,15547.365,-6791.6665,9728.859,-562.0101,24529.64453125
250,8915.746,50.31543,21412.107,-4684.464,3166.4753,-1506.3513,21172.154296875
251,2003.2942,-452.2705,16382.583,-2139.12,-9221.286,14327.244,33656.15234375
252,13364.093,10766.759,4304.8545,5415.5176,13807.614,3604.143,27643.98046875
253,4099.4243,843.3356,17799.938,8300.226,2764.0,6892.834,24800.203125
254,4230.079,11170.307,14699.715,-12352.926,4879.281,-4706.0786,26091.5
255,24792.994,8258.199,23717.3,-139.86798,282.1766,3828.5264,17350.521484375
256,18564.678,-10299.99,-15215.056,-10453.552,7151.788,5262.5083,39541.8125
257,4532.7583,-13482.466,1636.4852,-15206.701,9643.619,10496.703,39799.890625
258,-4210.1973,-24558.541,7027.1553,-202.08032,-10284.731,-5678.3804,34397.33203125
259,-16614.52,-9493.7705,-32607.191,-11749.089,8834.507,-748.6651,32715.451171875
260,-36212.76,-44469.336,-39495.992,-14490.723,-805.4202,-1905.7709,26355.787109375
261,18733.633,17122.133,18413.982,-714.5997,-187.56879,246.60614,2000.98474121094
262,20460.234,27595.275,7143.6577,-7899.72,-11485.643,-8191.125,33279.33984375
263,-4961.1865,12090.903,-1088.285,7514.0996,-10887.897,-13651.434,36384.625
264,21930.713,12145.688,4021.2507,-19329.023,4583.7915,-1064.3257,37795.71484375
265,13866.052,-761.92523,2685.4338,-6375.5986,-10188.22,11234.098,31422.814453125
266,-29167.855,-3148.2769,8895.054,-383.37213,-5933.0815,-4360.0103,36034.6640625
267,-35151.797,-36253.08,-44053.207,-3088.6448,-810.6501,-1429.4553,10361.7392578125
268,-9306.424,-25639.637,5179.688,-922.2388,2545.586,12304.307,34487.7578125
269,1565.8706,8817.533,17967.809,-9574.28,-1525.974,-556.7357,22035.994140625
270,-20309.852,616.3369,-10186.643,-6304.9575,-1185.3433,-1549.7058,21429.462890625
271,4367.9023,-1059.4216,26042.996,-1119.7526,-14865.313,5075.907,36890.26953125
272,717.63086,24148.334,7541.3105,4589.8965,5345.336,-128.89903,24179.455078125
273,-2546.7803,5203.88,12562.114,11957.153,-7203.8364,-630.69275,27514.490234375
274,-1209.7981,7692.065,9761.897,-3550.5002,-12875.375,-669.08405,25267.365234375
275,1662.3744,12531.179,8182.164,3850.5938,-3930.4236,-143.49034,13441.1279296875
276,4466.8354,10947.217,-17490.416,-7283.206,3633.3,-8833.571,33154.8125
277,7582.194,7448.612,-17404.156,-3392.2783,-2905.2498,2326.701,26402.3203125
278,2081.5288,1120.0786,578.31396,535.7018,-180.28076,-659.9626,2000.96472167969
279,6836.0605,5671.1045,4355.2505,845.4983,-129.31976,-765.3127,2928.03515625
280,-11785.845,3634.969,-13164.9375,3496.3743,8323.661,-6957.4194,25509.0390625
281,14545.697,25608.707,15983.985,-16433.17,4916.7715,11786.983,37523.55859375
282,3032.5137,9060.1875,12212.012,-2114.813,2056.1492,-5264.7397,13210.5263671875
283,-9320.033,1012.2041,-23266.527,-3169.3438,11291.251,-9394.852,33507.6015625
284,349.73926,-15363.85,-13976.825,5433.2837,9222.539,7253.4985,26992.826171875
285,6148.8125,-8281.408,-14226.589,-3406.2827,-1840.3335,2060.9468,19674.298828125
286,25325.156,4113.951,13268.149,-3176.9985,5086.901,-1629.0826,21340.439453125
287,87847.05,86415.62,87598.84,-580.12286,-358.80896,-533.1609,2000.98767089844
288,-11238.818,-16565.479,-13257.918,-1117.585,504.87524,14893.41,26299.1953125
289,1422.1914,5564.917,11471.814,-3638.8298,13391.303,-2889.4424,26062.908203125
290,-8468.007,2271.2163,7909.7974,9427.3545,490.20404,331.89615,21802.634765625
291,7173.0146,5483.748,-6397.749,8322.968,4432.942,-5989.5283,23205.306640625
292,79205.66,79637.55,79197.21,82.30033,508.88702,-1000.44934,1997.53930664063
293,1812.2343,8404.291,4611.8955,5606.609,-1478.9603,-69.15533,11563.576171875
294,1108.8898,-4457.6265,5746.222,-7958.588,-2145.0222,10930.553,25309.21484375
295,23885.145,-2029.0879,6538.486,3866.768,-6598.5405,5099.708,27864.451171875
296,16965.877,-2829.1401,16189.682,-7646.828,-6489.5825,6291.2383,28241.5546875
297,7495.571,-21312.273,8740.05,-3803.6804,-14274.131,3872.1082,39584.43359375
298,-8200.939,-6518.216,5203.6484,-2692.39,1871.7228,304.9243,13874.2275390625
299,18312.146,3999.7283,21752.14,5997.6836,-1056.0342,-6001.7373,22028.126953125
300,17943.602,6513.608,13606.723,2080.97,1532.1871,-3682.0547,12672.3896484375
301,222.22119,-1526.5195,-16691.625,3400.6077,868.78723,-3290.9072,18138.50390625
302,47584.03,46931.27,47561.715,-373.94217,-881.76886,529.1088,2000.98583984375
303,1546.4004,2315.6328,2702.7876,581.8188,502.1592,-630.39233,2000.908203125
304,-3732.226,4962.87,14511.503,1979.1364,2202.6772,-9052.981,22846.94921875
305,3347.3435,-12729.134,5795.846,6198.352,8714.276,-6195.6533,27605.154296875
306,23449.514,3212.239,13798.829,-169.13274,-4942.335,-8751.048,24708.05078125
307,1211.8717,3803.4514,-303.35553,1566.5101,4029.5269,1636.117,8777.40234375
308,-3139.0288,4661.8857,32032.451,-3929.3882,-5774.261,-150.9187,34204.2734375
309,-6418.512,-23311.674,17297.469,4393.5493,-8147.6934,2581.116,39057.8515625
310,16485.205,11734.12,15158.751,3472.1511,-18465.172,12077.766,38919.1796875
311,3111.0618,8069.609,8618.57,-189.38594,-10399.115,-4952.9595,20633.4296875
312,-6760.2793,-7319.8804,8747.768,11967.733,-13528.198,-6058.7954,36583.25
313,160848.56,178132.97,180902.67,5355.6895,-5800.255,-6055.699,25520.34765625
314,4752.2134,5027.5723,6590.8623,-4564.4194,2055.0525,-1484.2869,9204.943359375
315,-9271.218,-11555.237,17476.482,10320.329,-758.3581,4387.4043,34069.7734375
316,79175.13,48893.215,49027.727,8571.744,9223.879,7419.157,39417.44921875
317,5277.1953,363.4003,14277.329,-5720.7104,2384.8396,-4624.0713,18131.7578125
318,-852.28564,-1402.9142,-1038.8837,276.76035,804.1842,-729.015,1999.89477539063
319,21378.271,4734.804,26505.744,-10509.125,-14079.802,3073.1548,36647.171875
320,-3801.7444,-15716.21,-1990.8461,11063.927,6235.847,11707.893,32587.15625
321,-6034.193,-25828.516,-9817.095,1706.4552,-7817.0566,-1411.7032,23006.072265625
322,12056.542,11029.359,33391.38,13412.085,-353.4834,-3072.8428,32349.638671875
323,-30783.19,-37973.867,-42361.52,9771.9795,-6880.7905,-6273.072,25476.900390625
324,-956.7033,1694.4928,9577.095,-1631.7721,-6309.1475,-13095.94,27055.083984375
325,-613.0622,5078.633,6074.03,-2376.4966,-14710.324,-735.80365,26585.7109375
326,-5732.4854,-13478.756,16557.324,-6134.8774,-3316.2844,9548.858,33896.14453125
327,115397.305,117000.305,116174.72,-199.56708,541.9432,-597.216,1999.59399414063
328,222783.02,222345.05,222329.72,-869.36176,-117.028824,706.33307,2000.98498535156
329,174193.73,174599.72,176199.83,426.35245,-147.8085,-77.99372,2000.97802734375
330,11640.861,11618.275,13098.449,-371.76447,-661.08307,-176.79672,1994.36291503906
331,30752.686,38855.305,34730.18,-2621.1353,-46.917908,-1812.3948,8928.423828125
332,814.8577,8279.523,4833.8403,9717.411,8608.484,2541.3774,23808.634765625
333,-9231.308,-7081.5796,-4961.646,-2977.1528,1698.3912,-6781.018,13669.7939453125
334,-14068.596,-8166.1904,-15752.172,2588.583,-3836.8528,5241.9165,13939.4990234375
335,12809.107,-1011.12555,6703.475,355.34216,2696.3953,13016.277,25968.388671875
336,8557.864,-3643.7378,-19566.996,-7658.8237,3403.6873,-6983.869,30883.1640625
337,-2607.0999,-11978.64,-2598.9922,-194.45982,3692.4492,1851.3567,11798.3203125
338,5306.941,8006.775,21159.418,-15079.32,-2931.5127,4486.0522,31370.43359375
339,-9081.858,-9988.54,-15598.746,-4184.072,-2267.4844,4312.2197,12693.017578125
340,10736.828,-2106.8188,10823.085,6493.2837,-2678.988,115.40696,17723.81640625
341,5445.175,-302.21146,30590.04,-13650.034,5381.5884,-1681.8347,38264.26953125
342,-12736.144,-47970.383,-21770.242,-11817.861,-290.5501,-4672.196,38593.83203125
343,18951.26,34160.555,22787.23,5498.5264,-1236.7002,-19537.312,37790.26953125
344,5272.578,-1609.2378,13568.928,1252.3171,-1557.3392,15890.029,30704.115234375
345,-4635.4688,13160.863,-12093.3955,-2300.122,1469.6307,2449.2998,23353.84765625
346,-2337.646,-9936.343,-20300.57,8454.016,-4879.3267,-5197.2617,24713.98828125
347,9011.76,-8443.446,1896.2977,-1604.7762,-1277.2717,-5595.6953,18375.73828125
348,44.317253,-6321.318,-8590.504,5767.3066,3565.563,9020.339,21027.126953125
349,-1727.0958,-2992.8105,-1482.7891,684.46564,-429.49063,-157.19803,2000.9853515625
350,-180963.3,-173931.22,-175919.83,-3838.5112,10502.192,-1428.7314,20509.390625
351,1335.2949,1243.3408,17996.676,-6328.841,-2223.8823,-3257.0417,21117.92578125
352,-27533.238,-2906.7842,-17649.21,695.7567,2005.2355,3069.2703,22417.048828125
353,-33.044003,2297.7952,10299.446,-4358.791,2836.0125,12856.312,25789.341796875
354,-5278.1436,-4704.275,-8922.377,-379.68192,-2456.4902,431.7922,5898.80615234375
355,-4033.6143,1363.6995,-6684.4443,-1863.9558,-5422.875,9399.365,20350.802734375
356,13048.88,16694.861,5085.5605,1828.1027,-3738.76,8884.095,19861.62109375
357,-10659.948,-20445.738,259.6615,5040.775,-9630.086,-5451.6284,27666.970703125
358,-32830.875,-12979.182,-19792.438,-1489.8436,-3083.2568,-8296.911,23386.962890625
359,612.8121,1429.8292,189.51091,481.1852,836.4501,77.10051,2000.9853515625
360,2212.7947,-1661.7112,8209.732,-469.80157,604.19977,-587.71564,8775.1787109375
361,-17493.781,-14164.602,-26462.574,-620.6403,2097.8076,-826.84766,11738.416015625
362,-4539.251,-4118.3228,1511.8257,-4978.435,-1631.8945,335.82602,10813.3095703125
363,-4508.796,-6673.9355,-11993.567,1460.2024,-418.0183,-185.15631,7178.27978515625
364,-3343.2175,-22026.672,4506.0117,-11487.557,1705.5687,-2565.39,31332.013671875
365,-11132.251,-11379.699,-17435.268,-1347.2008,-1546.0386,-5971.971,12563.376953125
366,15234.13,11629.565,29073.408,2083.7979,-808.4836,1039.4003,16511.5625
367,-53868.133,-53938.598,-20175.045,-9856.053,-1475.5476,6203.2705,39382.76171875
368,22075.9,-9101.6455,23792.123,-5211.2397,3530.8655,-5974.147,35418.015625
369,-1962.1375,-18093.344,6948.9565,8137.3193,4230.1514,-102.6321,27124.3828125
370,3519.8438,-3164.5803,-8233.121,5783.7183,3439.5605,91.1982,15495.8955078125
371,16991.309,3280.4023,39478.645,6487.2637,6896.7603,4328.027,36429.87890625
372,-7649.5234,-5955.02,-12401.632,-605.85486,1965.7086,-2219.286,7808.66455078125
373,-1523.5524,-4007.0332,-4706.516,3246.3962,539.3057,2472.2087,7695.41259765625
374,669.8737,-688.34143,-158.48743,2211.4521,-672.7915,1197.4706,4662.31201171875
375,9736.972,5046.5864,14349.119,649.51404,86.91684,-61.09653,8136.57373046875
376,-7918.2554,-9217.169,-11129.282,1713.3835,-1351.5397,-12.842359,4702.61083984375
377,9404.527,12600.445,24752.941,3946.5044,3092.8904,-3174.6885,17389.48046875
378,-2771.8594,-10577.216,-19824.701,1784.4534,585.4025,-373.9927,15153.21875
379,-428.09064,-498.42636,757.3688,1563.572,405.82196,-639.3675,3247.82397460938
380,-3491.9956,-6112.5215,-5628.3516,1145.2594,-1792.4916,1208.2715,4877.1396484375
381,12418.028,8383.681,11118.795,1097.7391,-288.1099,-1638.4485,4963.8759765625
382,-2416.5322,-7179.0835,-12022.261,-1859.338,1917.3744,-2240.01,10278.9814453125
383,8331.48,1064.48,7488.428,-861.57086,935.6744,3600.3904,9546.4853515625
384,-7838.8413,-17327.656,-18155.662,3590.094,-1038.1538,-1872.0072,12287.9140625
385,-2037.7715,-940.02856,10935.394,5050.2144,-3631.9102,-3306.6106,17440.017578125
386,-2798.5034,-2550.7378,-2183.3474,-404.42044,-113.55589,-21.292488,904.490356445313
387,-1143.6865,1007.7435,-5142.7925,1136.3248,336.12936,-3351.529,8193.6669921875
388,-7338.5215,-5215.7007,8882.522,-7525.1016,1045.0234,875.8174,20215.169921875
389,8994.035,1676.5194,30706.879,-9752.252,2581.6006,8826.241,34969.96484375
390,-59058.496,-48831.65,-55621.75,1656.8289,-16324.832,2430.777,30111.6953125
391,14601.405,48576.652,51695.64,2652.2654,57.21414,4660.9307,36827.9765625
392,16474.219,18768.322,30877.281,-895.32184,-96.439224,-899.3116,13584.107421875
393,1424.8369,-15153.598,-19716.158,-4356.936,-549.3597,-3119.7998,21409.228515625
394,-57856.176,-18551.7,-46526.957,-6021.771,-2363.8552,5238.2095,37891.546875
395,-20511.484,2423.961,-1205.3999,-6871.012,-2299.1448,898.8621,24816.9375
396,-8234.276,-9069.038,-13011.14,-5298.507,2124.8013,3209.413,12173.560546875
397,-310.69482,-2906.3232,9708.7,-356.69928,-2116.1357,1483.3132,12391.474609375
398,-6719.5674,-15037.779,-16269.232,-6733.542,1105.4553,72.67928,14854.505859375
399,-8813.513,-18539.516,-21606.133,3307.18,1534.0227,2083.698,13664.6474609375
400,10162.269,-3506.556,1055.6849,-724.6692,1257.892,-1594.8408,12619.16015625
401,9247.919,5432.0537,11326.74,-924.7826,582.652,1979.3177,6492.46044921875
402,9815.906,2317.7007,4519.522,1133.5005,-1935.3585,-813.46497,7850.9794921875
403,-11423.321,2467.589,1760.1848,-2718.4937,-2139.2366,-1970.1243,15204.4443359375
404,1387.283,3349.171,3571.5408,3494.5269,-3642.7903,-123.20841,8990.2822265625
405,-7369.1426,-6628.5166,-17629.602,127.76354,-3763.5466,1355.1913,12707.3271484375
406,6330.0654,-12216.068,12672.996,-418.17535,4303.838,4281.2964,24757.037109375
407,-736.2258,-4985.4067,-4011.6064,1657.1868,-2197.85,370.8994,6165.15283203125
408,1277.0298,-3926.7815,8434.152,5672.829,-3936.2832,1180.5688,16209.736328125
409,55550.766,56635.312,54422.926,168.52345,15647.112,-11166.203,33351.2421875
410,-18214.547,5822.8125,-20758.723,-1526.3383,-2803.3179,1202.4824,26083.05078125
411,-71519.27,-77648.36,-77334.266,4057.874,7771.682,-4356.8945,17980.072265625
412,-8295.708,-8024.8677,-17381.889,2622.8386,-5156.352,832.25903,13695.716796875
413,-3952.0103,-2456.7175,-3836.4976,4484.1143,-2694.1184,1998.8683,9806.1005859375
414,-10315.2295,16199.638,-4811.125,-8790.3,1423.4253,-4505.325,29768.66015625
415,8251.434,3717.907,11454.892,1216.6057,2517.6948,1336.3102,8611.1494140625
416,1503.6758,20705.488,13598.658,11774.797,1069.959,-1900.443,26701.3046875
417,-891.8969,-4292.496,877.2551,4225.96,2242.0376,1618.4652,9860.2666015625
418,-6133.954,-5993.1875,-5657.003,3389.9976,2789.876,-3661.5598,9910.98828125
419,-2129.8992,1343.7087,9749.7295,3458.5002,496.34497,2568.7502,12974.765625
420,7504.0537,-7696.487,4343.394,7625.3306,162.3296,-6075.995,21869.423828125
421,55392.812,46158.895,34972.453,-6966.353,-6549.3184,-2693.4075,24692.724609375
422,-2044.5786,3027.0237,6443.5273,2962.827,867.6587,2129.5593,9844.7646484375
423,-5335.986,-2623.4587,-6114.6567,-15.997117,-3601.5103,2704.0896,8421.7568359375
424,8361.693,-15427.664,4288.1987,9447.322,-1074.0183,-6475.8643,29709.38671875
425,1989.8464,5088.8936,10744.708,-1657.1313,11120.394,2276.628,21304.853515625
426,14039.976,10047.015,6464.084,-1585.575,-1957.9291,-4510.77,11098.259765625
427,-12101.104,-15269.984,-16241.597,-2111.0205,-74.017845,4340.426,9163.421875
428,-13434.338,7671.9053,10951.005,207.60641,-67.687164,-2478.4731,23323.958984375
429,-7791.6255,72.5918,-1134.9504,2297.571,929.4516,4577.3696,11622.94140625
430,-91.95303,-1416.1697,3044.0757,506.10843,-7676.4565,2215.5076,14422.8564453125
431,-8336.383,-638.3028,11192.344,3468.258,-1352.1542,-4326.2837,19698.2109375
432,-405.88525,5496.085,9226.635,6876.652,-3175.1873,-2931.7104,16390.9453125
433,-14379.083,-11103.779,-15902.955,2186.7246,-3081.5217,496.38336,7849.37890625
434,-3379.122,-12501.528,-16839.738,-256.50845,-2170.2249,1703.342,12831.3837890625
435,6547.793,-3446.519,3381.8428,345.18173,-3491.837,1760.3433,11157.9873046875
436,-4507.492,3940.0698,16281.369,4020.1636,6946.464,-763.95154,22867.419921875
437,-306.35938,-5491.4355,-4275.4575,2654.8704,-426.43915,1826.0105,7331.587890625
438,442.67993,-4366.788,1841.0773,3633.409,-232.41432,2658.8894,9632.6611328125
439,21541.145,8282.429,16640.928,20536.193,295.5205,-5091.8916,38445.8671875
440,-2807.1426,-1416.2097,-7626.0176,298.20038,-3688.3044,-1781.0568,9080.3642578125
441,-1247.1884,-7368.232,1824.3708,2275.6345,4081.1506,1746.453,11847.1943359375
442,5751.266,5736.592,14446.93,-2336.437,-709.269,485.44894,9712.6396484375
443,-4621.4727,691.0176,753.5294,2247.7642,878.0588,551.3445,6851.33447265625
444,6117.7163,508.1289,9196.821,-975.369,-1487.3286,-2531.4502,9323.951171875
445,34990.695,14801.725,24985.666,14034.741,10391.147,-1817.4592,35077.95703125
446,20066.125,17716.396,39087.902,1106.6727,356.27365,718.65173,20436.4765625
447,-7055.159,2707.1597,12846.492,2990.2969,4763.195,-2783.7227,20377.177734375
448,-295.1377,1351.7179,4215.4004,146.39467,1876.3344,1987.5898,6173.05517578125
449,-3254.9634,-5305.6616,-6695.067,-1471.5857,-1203.2458,-1989.8843,5630.63720703125
450,12929.188,12358.906,8910.079,-13.25752,6717.3784,1340.5287,12447.7919921875
451,-4717.6313,124.27649,441.10547,833.28284,-3611.4631,520.72046,8191.64453125
452,-1066.1514,5936.2344,8750.494,4005.424,2264.0835,-2057.5752,12364.0341796875
453,-19703.332,-35564.55,-24259.729,-7316.3154,-8339.74,-13113.244,32942.06640625
454,19104.82,11186.1455,37986.188,-14132.454,7015.836,-2499.7231,36528.30859375
455,-5620.5635,-14181.334,-11863.811,3497.7454,-62.726776,-1133.7205,9969.37109375
456,3319.1094,5298.301,-2081.251,4036.9595,-816.42413,566.48334,9778.697265625
457,2855.0173,-2830.8682,4588.96,-333.52188,-806.70795,572.19305,6961.544921875
458,-5596.0615,-15775.486,-28575.426,-7994.258,271.35162,-500.67276,24299.23046875
459,-847.5077,2726.9277,-7530.342,3436.2239,-800.7144,310.64273,10906.880859375
460,-2239.8494,-4117.0527,-1744.9336,3275.8713,1130.165,2742.591,7955.4462890625
461,-20767.717,-2646.2634,9463.876,2576.584,3620.4675,-937.3442,27502.20703125
462,-2290.879,23566.068,28276.727,-9329.008,3510.5095,-1781.7812,33468.81640625
463,2229.4246,-6897.3794,-3871.5415,538.69293,-890.37115,1008.7313,8434.4228515625
464,7.5012207,-4645.869,-1995.4465,1692.9398,-294.73126,-1582.1779,5719.59716796875
465,-14329.732,-2936.0225,-9132.633,-24.68861,-3748.4116,6369.0146,16169.6904296875
466,3233.7905,6000.222,22475.64,330.2159,3025.6177,-131.7937,18775.330078125
467,4136.1807,3399.8848,7491.292,1500.3889,-2933.8088,603.8487,6923.75341796875
468,-6370.081,-6947.34,-14263.172,4176.754,67.229256,-1189.1495,10708.3779296875
469,24028.342,5336.3384,9829.802,2266.2285,-156.32762,-768.3465,17402.359375
470,-7177.8384,-7688.81,-6366.217,256.87766,258.3303,70.87059,1322.03149414063
471,3675.4287,-977.6289,13740.031,3606.9028,2593.7275,-1202.3313,15275.0341796875
472,4836.2456,8682.284,2569.9019,453.25964,1859.461,2902.5664,8056.58544921875
473,4930.625,3790.6597,10956.302,507.3034,-512.1202,-405.24304,6821.20947265625
474,-937.2759,5247.3013,9628.705,-1130.6403,1366.5858,4205.204,12125.6650390625
475,-35520.297,-29259.686,-40726.36,2407.861,1485.8646,1664.1746,11454.984375
476,-5055.9883,6419.0283,2101.1787,3594.4746,-3176.806,-508.21027,13060.7919921875
477,-44132.695,-46865.207,-31553.34,18154.408,7211.4805,6286.077,38254.2578125
478,-179.0835,-1614.96,-8690.326,1216.4077,-163.95522,-1185.423,8427.16796875
479,-3836.6086,4157.9688,-1697.0823,-1882.2319,-2588.7378,515.7123,9105.8876953125
480,151.92786,-1861.1102,-2415.0176,5488.314,-834.9,1723.5005,10336.4150390625
481,-1623.5513,-6144.5776,-3376.288,1198.2786,61.9446,17.419977,4461.796875
482,-2985.9324,-4762.6553,-3166.1929,3810.3071,2022.2404,-326.50778,7681.9580078125
483,-2662.2166,2408.5952,2450.9368,4769.67,-416.23053,768.7615,9821.99609375
484,-4135.8696,-7495.855,-15864.125,2579.3423,-2832.299,290.59985,12398.09765625
485,-4611.8774,-5205.0493,-1519.6736,3352.799,-792.4932,-1894.5282,7623.8720703125
486,-11706.9375,-7405.5293,-14871.059,3858.818,-2103.6125,426.66656,10030.8056640625
487,11189.159,934.53125,40864.27,-808.6719,2779.0806,396.4619,36272.3046875
488,22861.36,30361.668,30637.988,-5203.2964,-5416.386,-2630.6514,15760.6806640625
489,-38419.375,-36018.83,-59913.633,-635.0859,-1341.9636,-3955.4172,23935.5859375
490,-17782.92,-19981.709,-22530.701,1015.3271,380.86304,3315.8875,7310.943359375
491,11064.205,8150.982,20460.428,40.731937,825.7528,2886.037,12295.8271484375
492,3327.3284,-2046.1497,-68.8324,2546.7078,330.17877,-369.94547,6507.9775390625
493,-2713.2603,-6434.223,-895.0652,2115.3643,-382.71347,278.41156,6165.47509765625
494,-1542.3325,-2459.343,-4012.603,2891.4456,296.0133,-1869.3875,6364.4287109375
495,-3077.9387,-7666.2285,-6553.6733,2412.3916,1877.4507,30.018335,6724.69482421875
496,1230.0579,2335.8943,8192.912,1249.012,2706.1829,501.69495,8331.2607421875
497,9654.427,13274.28,25065.793,-4250.821,-4808.213,257.92056,17849.12890625
498,371.24658,-1497.572,841.02594,691.0227,-59.117386,-1060.8633,3067.64111328125
499,-25646.053,-22748.67,-39227.207,17518.215,-7588.1445,-3508.0989,36912.2734375
500,-1917.6594,-5030.7305,-992.2351,3592.3997,-657.91675,-278.62396,7326.39013671875
501,2492.7896,3595.76,14417.439,1339.415,633.12006,-3543.0974,13210.0908203125
502,-18351.125,-11731.423,-26322.098,1187.7966,-163.92258,-2245.9402,13400.30859375
503,-881.6266,691.2176,-2811.0488,5604.6226,2116.8118,-461.01965,10841.9033203125
504,-14496.645,-13347.299,-20278.213,1810.7616,-4378.2134,-473.6228,10459.84375
505,-2924.667,-662.1362,-8801.339,3901.418,774.3563,-458.51544,10052.0263671875
506,2188.1028,-4190.8184,2746.7446,112.895515,2302.668,995.08655,7967.55419921875
507,7101.0874,-1983.1152,5038.2886,631.92145,597.91766,1807.5582,8950.490234375
508,724.1453,-1799.6641,3013.9048,146.61812,-881.7651,1012.1131,4781.3876953125
509,3996.5781,949.3729,2512.4312,1155.0677,1105.2267,1703.9379,4831.4580078125
510,-4524.2812,135.02881,12203.619,-2044.2264,393.35938,3933.717,16823.03515625
511,5182.295,4117.3096,8337.784,4826.1963,-2961.2751,-241.516,10526.6708984375
512,1832.9023,1947.6697,5946.9556,1461.83,2597.2395,598.15515,6647.376953125
513,-4386.544,-1255.209,-6450.059,2586.2517,2465.4468,3031.8513,9295.302734375
514,-34411.066,-32442.533,-52528.633,149.13556,3273.8262,-731.4831,20040.26171875
515,-1004.37933,-2567.9817,-1500.3673,-650.45966,-3019.6223,-2074.1785,6591.330078125
516,-2649.8987,-6767.107,-676.1763,1234.6589,1053.2025,1872.9364,6884.6015625
517,20914.555,21504.416,11123.051,3714.0984,-786.5084,-6622.0513,16637.04296875
518,-133.63312,5570.75,-2773.0076,780.8708,-984.2453,-2741.803,9047.1123046875
519,3117.052,5401.6694,10551.779,2372.1492,1396.218,-80.3748,8139.90576171875
520,-18009.492,-620.0244,-12050.498,-3593.275,5712.701,-8176.972,23906.23046875
521,-3411.5483,-7665.455,-13250.257,923.688,1403.5052,-128.44524,9031.142578125
522,35145.48,35887.125,58612.266,-829.31476,-1427.8359,-945.4432,23338.74609375
523,7211.258,7165.676,14063.494,2285.7544,1122.9236,502.84155,8214.8037109375
524,-47754.805,-44083.863,-67960.96,780.20807,248.50859,-5660.765,24373.845703125
525,-642.401,737.3153,3156.4858,5392.733,46.147015,-2717.979,10977.572265625
526,-2684.2393,-1629.675,3576.109,3289.8801,574.85284,2196.465,9035.30859375
527,4640.045,3271.2417,13080.706,1783.3291,1865.3339,1487.0631,10549.1826171875
528,-1920.0532,-2295.095,-7729.933,1573.5907,428.1315,1534.8153,6838.2626953125
529,4814.949,1997.3625,11262.556,1841.6567,-740.0413,117.19454,8918.318359375
530,-2271.1978,-4449.1343,605.6846,1771.224,191.03992,253.94672,5385.18212890625
531,-2235.4377,-2351.916,-395.42358,2557.6255,425.16467,-1890.3817,5873.73876953125
532,1309.0046,-4251.295,700.9315,461.1002,-54.576042,-603.55304,5444.7421875
533,-99.066895,1421.1327,255.49213,1421.6455,-147.95908,376.83264,2907.3408203125
534,-1902.3877,840.1778,-1387.6588,3282.9905,-517.3333,1339.646,6700.43798828125
535,-2084.534,-5021.6006,-844.48987,2065.089,937.50714,370.08,5444.958984375
536,-818.38525,-4024.041,-9271.981,2431.014,424.21793,-749.9137,8636.9365234375
537,-23652.662,-21899.633,-28090.008,369.87796,9775.568,1350.457,17975.2265625
538,-9.5147705,-818.60864,-759.0502,-2662.6519,-172.34671,1161.6598,5100.64794921875
539,-6909.8115,-3670.754,405.5061,1913.4783,-1714.9633,32.40847,7753.791015625
540,8213.29,910.0322,9993.298,4836.6177,2700.5415,-1332.8734,12918.7041015625
541,8602.659,6675.7515,10091.108,2798.2646,-875.9412,1858.577,6704.63671875
542,1412.6353,-4016.1846,-10587.701,256.11124,-783.71246,-86.649635,10506.875
543,-5863.962,-8020.2383,-11000.494,1303.187,6798.746,1135.5728,12945.65625
544,-107339.98,-106983.21,-137968.27,-172.4512,3488.5442,674.9205,31418.33984375
545,-87048.39,-87461.74,-123810.8,-253.23114,38.059086,990.6072,36600.4140625
546,8073.372,3276.8184,14436.537,-544.96594,-2211.1934,114.96815,10469.8037109375
547,2483.724,-488.70154,-388.6988,1220.588,-679.7545,-2799.946,6158.154296875
548,1790.7422,-1445.1362,3435.4133,-3128.89,-331.7655,-1281.8007,7288.82080078125
549,11757.658,11416.447,18511.22,1447.3055,-1525.1843,1967.2301,8538.38671875
550,6028.829,10915.123,22081.637,-1297.5704,-466.52475,368.0918,14465.138671875
551,-6659.599,-7931.2637,-4976.95,-1844.7659,-1963.0616,1098.8333,5655.15869140625
552,-4994.9604,-3215.362,-7378.942,169.4232,852.4552,-55.8445,3920.251953125
553,-41238.957,-37589.816,-59749.945,-928.63916,-2341.322,-906.36,21095.474609375
554,2926.2427,832.166,5083.7344,-16.267345,-1308.96,-519.5646,4416.859375
555,-1352.1521,3931.3594,5710.307,1799.4302,138.53745,-243.63441,7101.31982421875
556,5230.8247,1800.9446,4254.5044,2360.545,380.44354,-755.91705,5313.52783203125
557,-2750.1357,-5508.505,2290.2708,-1064.2222,-1180.3431,-610.6739,7457.4599609375
558,-4462.898,-6856.9243,-4786.249,2174.6265,-102.92393,1156.1345,4826.0263671875
559,1351.6221,328.76453,4328.6377,-193.74988,-224.46832,104.670235,3640.13256835938
560,-2228.495,-8860.045,-7622.1084,1673.6656,-1494.2142,-1393.8906,7630.91015625
561,-195.2785,-853.7472,-369.4167,-205.93022,920.33887,-2150.1616,4109.39404296875
562,-22727.59,-18985.184,-28803.693,329.93582,-5655.921,-797.80865,13109.853515625
563,-1371.5198,-4036.8994,-2128.7349,-1512.121,185.782,-1756.6523,4677.59716796875
564,1615.1011,295.83252,1590.519,-661.9267,-657.5952,-1184.0154,2919.94091796875
565,6650.33,8914.833,13032.166,-796.2141,443.50565,2742.67,7514.1728515625
566,2788.417,4586.914,3417.6282,2324.398,-107.17792,-937.92786,4623.95166015625
567,1191.1766,2555.1223,-1037.801,3071.0237,-689.0775,-547.8759,6362.97412109375
568,751.77045,1741.6042,1774.4103,33.75736,-198.93515,-101.94616,1080.11254882813
569,4275.213,3896.2466,8396.427,-576.0993,417.4259,1153.881,4919.6083984375
570,7145.423,3095.9087,21251.924,5098.089,1461.6218,-1232.3678,19011.919921875
571,1630.7236,3341.7256,1303.876,1393.7236,891.05597,464.21988,3528.37548828125
572,-30126.906,-4154.416,-13015.317,3704.058,2621.4478,-2227.2383,24486.8125
573,-11882.631,-13407.557,-17987.674,2806.0283,4098.948,3701.1155,12058.5029296875
574,-5035.7266,870.0891,-4357.1367,8635.307,-967.8703,841.48773,16123.638671875
575,-313.7829,-1345.1046,-1590.991,-2898.712,-727.3007,-22.035458,5307.8828125
576,-4880.8926,-6653.7915,-3002.627,-4321.9604,220.08456,2271.774,9036.9921875
577,-9174.662,-6223.0693,-11106.055,-1855.146,-1971.8071,270.27463,6352.2265625
578,-22187.588,7759.6987,3918.1453,-12463.684,7843.935,567.8304,38054.33984375
579,7125.903,-2978.0398,4596.6177,-2788.644,-1561.5796,471.60153,10688.48046875
