Element Label,S11,S22,S33,S12,S13,S23,Mises
1,2067.031,1864.2218,41.01039,24.864267,236.70932,34.915676,1977.01831054688
2,655.75323,2424.958,-277.05405,-78.13729,-158.88553,99.27786,2402.94799804688
3,1203.5115,1974.8881,447.03766,-198.1487,238.47894,-232.84666,1483.8662109375
4,74.56918,2218.195,-1030.4114,619.1652,-452.28223,620.8096,3332.38159179688
5,758.30035,3878.5034,902.79364,710.46124,344.3559,-509.17657,3457.38159179688
6,1013.5868,1505.41,-1168.5734,-130.02185,-50.09585,36.42049,2477.73583984375
7,1953.7498,1552.8259,1337.3608,-167.03062,375.71335,112.45401,915.787719726563
8,-551.6456,1285.1007,-1285.4713,-234.31949,-548.1279,-70.01672,2518.08374023438
9,3367.7014,1650.5701,1606.1143,429.65326,1019.9738,-369.26358,2666.60180664063
10,-2028.2933,412.18372,-1137.6481,858.0635,-546.15875,441.04166,2874.51171875
11,1391.5385,1896.3486,-659.15436,89.69964,304.2432,196.91895,2431.7783203125
12,1775.105,1763.9525,1147.1804,-550.78564,-356.22162,41.174,1297.40991210938
13,334.3927,1663.6882,-1439.922,-106.5031,544.1802,73.30496,2865.72021484375
14,2408.602,1672.1932,899.7329,-461.33542,-865.3374,-107.98895,2151.21875
15,-1623.8295,1474.0441,54.793743,-887.5528,433.70862,319.8438,3232.47485351563
16,1593.9294,643.35986,1823.6831,160.98137,-378.3896,-528.62054,1587.56616210938
17,520.51746,470.79486,-314.2099,321.8621,105.78323,-374.45694,1192.78967285156
18,1016.2424,1518.2236,552.4464,-37.36159,-21.09895,-130.97153,869.995727539063
19,-1179.768,1954.2394,-6301.8823,-687.1899,993.68396,-817.7441,7648.2568359375
20,-3571.3037,535.41736,2092.5144,-1828.8994,-2497.4185,1648.7947,7911.1162109375
21,884.4644,2071.2166,-195.77412,147.65675,-80.35847,184.40257,2010.98571777344
22,1922.1733,-46.015575,-620.88916,-1947.3533,820.05634,-423.64127,4389.55078125
23,1196.4974,31.87146,-381.9736,2576.65,75.88843,932.2309,4954.93798828125
24,-1315.1647,-497.5973,-4489.0615,1996.3478,179.91551,-172.37045,5047.70947265625
25,1977.3007,4174.742,-2165.7598,1474.6466,-515.73456,2106.8997,7192.81591796875
26,-393.49265,3155.6526,2439.3523,138.965,-1081.9596,-495.7766,3856.74633789063
27,1806.6072,2502.4905,6046.4453,718.2972,-39.713696,-406.4911,4190.26708984375
28,339.03668,1260.7838,-1627.3585,108.76335,-75.414345,528.5373,2723.8671875
29,-781.05597,2080.7622,-1069.5481,45.968742,-487.62585,305.46857,3177.80639648438
30,2826.1855,1106.8878,278.93982,728.45624,534.7488,1379.794,3636.79541015625
31,2012.3412,2532.9753,-719.35065,-610.48505,1748.0476,-1193.3727,4869.5908203125
32,-389.0896,1842.0585,593.6672,-497.96524,211.29347,414.7484,2268.26977539063
33,-2885.6646,2226.7078,26.292675,-1472.1086,653.16846,688.939,5379.0283203125
34,1852.7494,1825.7538,-1085.3268,12.313228,-44.04852,-444.78485,3025.47216796875
35,1326.3265,1959.0292,152.76831,-78.33777,-128.2253,125.38843,1623.25817871094
36,657.7463,2360.658,529.90674,213.61388,-210.3512,654.97754,2165.77294921875
37,1740.449,2332.3303,269.27036,-276.39523,310.83636,-346.14212,2064.93017578125
38,1433.9508,1576.9913,-1256.7485,313.06683,-354.85382,-306.86884,2932.49096679688
39,1520.0466,1620.5232,-246.9881,-94.037476,-279.57254,-137.62193,1904.70043945313
40,1209.5975,1155.7006,-713.18353,-997.52466,233.06558,479.13803,2726.39038085938
41,1947.3925,975.2683,109.73249,-313.76154,-89.55599,-156.08919,1711.16247558594
42,2030.2155,343.09573,828.768,-708.6745,-810.1108,827.50995,2791.53686523438
43,2708.1482,2933.0383,4003.2397,-2887.4944,605.43317,-34.320557,5249.060546875
44,4619.916,7105.557,15073.137,680.38885,-1319.4933,-141.54579,9804.9658203125
45,-1515.5643,5946.7397,-73.41866,1976.8561,-934.8088,-886.7823,7981.77099609375
46,-1644.392,6010.773,8737.934,3803.7356,-1252.5999,-432.87094,11644.3193359375
47,-1001.2712,-2292.7607,-7812.861,1511.857,5359.5723,-1711.3258,11877.9921875
48,2251.5974,-4143.499,4020.5652,636.8831,-985.9361,-311.48492,7730.6767578125
49,-1127.3782,-1056.4545,-8968.418,-1019.1872,976.05426,572.4669,8306.65234375
50,500.5042,-1886.3256,-7637.829,-1767.1449,911.13293,1514.5381,8440.673828125
51,-807.9786,2235.3179,-2089.0952,-54.04834,-1670.8834,-178.12482,4825.06298828125
52,-384.52164,4160.172,-1378.5093,-1930.9581,-2666.6228,-2480.979,8783.1552734375
53,1287.1014,3178.763,1593.6316,3.4056163,401.04037,255.71039,1941.95544433594
54,834.3611,1902.0144,-1612.0974,-814.8752,174.66615,1151.7107,3974.91064453125
55,-1004.29034,1397.1294,-3887.7112,869.5556,1692.0833,425.27704,5692.5947265625
56,569.74176,2560.429,-1057.456,1016.59985,-907.4288,-193.10718,3941.1201171875
57,1513.5038,2965.7834,439.24188,1151.3221,212.83627,116.10451,2996.0390625
58,-573.8844,2817.691,-2919.3938,2590.816,-1140.7794,1314.4568,7360.9560546875
59,1105.3151,34.356724,296.09192,1632.2502,1266.3629,380.13788,3764.62646484375
60,1010.1158,255.50916,588.2055,1087.9938,684.909,287.1738,2373.80737304688
61,1234.5181,1386.7747,171.14944,822.1657,-435.78534,296.07553,2043.62854003906
62,1340.2896,1627.5223,-1134.5492,480.59875,255.79678,80.90878,2797.68530273438
63,1614.9397,1252.3145,-325.9748,62.996113,452.56485,814.56934,2410.75537109375
64,1438.1626,403.6055,-656.05994,-114.03287,-12.020304,-487.3925,2010.36853027344
65,1708.0553,1496.0292,461.10403,66.072525,-69.29071,384.57016,1344.11291503906
66,1624.6732,1657.9382,346.33133,-184.64656,25.538965,296.91263,1430.55920410156
67,1528.7872,1209.6296,-269.9817,-38.92585,404.4395,-44.924145,1806.83544921875
68,1290.8335,1869.7595,-31.483896,-975.1366,65.35578,35.64708,2391.33911132813
69,1195.2493,1159.7612,-1138.3077,-434.97876,-1093.2719,1107.5004,3632.76123046875
70,1270.5603,1217.8787,-995.5117,-208.36684,-571.51404,12.4778,2475.69775390625
71,1086.4231,946.7812,-535.6144,-574.02466,497.29556,789.7299,2454.677734375
72,1442.7092,1656.1887,-1500.6488,-294.92935,114.53992,-85.75962,3107.99755859375
73,1614.6362,1319.7574,729.6612,126.93604,-469.97095,-514.85126,1454.4228515625
74,959.9512,1631.5449,1432.8104,-536.384,-401.13263,-599.37067,1667.52685546875
75,-1123.8148,-3462.9849,-6802.9893,198.93802,-552.2216,552.38947,5137.0380859375
76,1199.545,403.97586,1702.8206,-1173.3828,-1260.0897,-532.55396,3321.3564453125
77,373.29712,322.43185,-2041.0336,-1171.0566,1177.8896,-2066.8726,5176.97314453125
78,-3188.6904,2159.5337,1458.0227,-1234.679,237.02647,-20.16305,5485.1474609375
79,-6225.344,1199.4703,3468.3848,301.13092,494.16864,355.80743,8860.392578125
80,1770.2479,5603.9824,5300.4463,-4530.1978,562.8703,-1517.698,9113.4375
81,-4126.8926,-3119.2832,-11433.227,2755.802,798.8404,-1480.0055,9645.140625
82,-196.56784,-1867.3174,-1723.2166,-1079.876,-1044.635,524.92126,3189.07861328125
83,1790.8354,1623.441,817.83246,-1070.2802,-696.0852,917.1232,2867.98315429688
84,1979.0488,1384.86,636.4248,337.84473,449.43176,-1234.624,2622.82299804688
85,2280.156,1742.0339,1743.6753,-86.75816,53.031593,-196.03816,659.549621582031
86,1824.0801,1161.9185,1502.4982,-5.3584046,-1000.78906,-768.90295,2259.95385742188
87,1707.6383,1450.485,60.174618,-416.3167,-654.26917,681.6313,2356.82861328125
88,1974.352,1291.5388,178.64934,-32.505547,135.53609,66.67499,1592.56689453125
89,1143.8218,2316.8804,-14.593323,-76.69442,80.53162,378.68478,2131.71044921875
90,1691.7776,1128.6215,1031.6644,-227.9072,391.81076,-193.17772,1053.31494140625
91,-105.83435,337.7925,-2311.82,-185.14177,891.3674,171.39848,2935.36791992188
92,615.36993,2202.1213,-733.72003,-175.77536,280.62564,206.23282,2633.4453125
93,946.1686,1471.8335,534.7825,-70.60152,-80.65284,-660.7014,1416.2841796875
94,1848.575,2152.6213,-217.74669,1226.1426,940.0342,517.45013,3599.29443359375
95,547.4164,1873.8547,510.74063,1124.2133,329.7814,-453.4267,2558.134765625
96,793.96857,1864.0824,-560.8391,-249.02689,97.079216,-494.19916,2318.93505859375
97,1033.0378,1651.568,21.392471,191.87038,340.10245,654.16205,1942.41467285156
98,1558.916,1319.0835,-1417.0287,-296.9076,-388.60117,-230.12415,3012.70703125
99,1298.297,2406.3286,984.387,-540.2439,292.5185,590.3236,1962.60876464844
100,2745.939,1622.1359,1306.8666,-66.69256,134.81952,-24.525475,1336.52758789063
101,308.01733,387.15964,-182.39514,-139.97351,334.00293,281.75928,957.703918457031
102,1022.02594,1183.539,3088.736,-1760.2382,-3545.6646,342.7365,7164.251953125
103,-3663.338,-436.75522,-8999.808,331.04904,732.1229,615.98956,7693.01171875
104,860.60315,2513.2124,-938.272,1337.2059,1170.7211,1578.5149,5088.33544921875
105,3175.1204,2109.4385,5129.0435,117.12774,1317.6846,-262.57803,3534.49145507813
106,479.9622,2036.5546,2455.8599,530.5117,86.980804,1332.4076,3073.1806640625
107,2966.8552,3504.7634,291.62415,291.01083,-933.69495,-1403.1312,4202.498046875
108,508.89673,-306.21808,-1892.9215,1909.3832,-505.44412,1037.6216,4405.56591796875
109,847.80255,4113.5537,1929.2582,92.85383,67.53354,-1076.5571,3437.93334960938
110,878.1442,1116.5703,-663.56134,-550.9198,755.54846,-148.06876,2343.1083984375
111,1052.1454,942.53815,-982.3021,-522.9805,501.62607,-233.14171,2380.43627929688
112,705.12054,1763.3464,510.65506,-827.3485,1175.6464,-444.89935,2856.08203125
113,1194.3959,1124.3712,1259.6459,-482.86685,570.2173,878.4205,2000.88037109375
114,1727.5094,1512.7445,-90.88528,157.13493,250.66711,27.179949,1796.37084960938
115,1220.9197,1677.1802,965.0212,403.55157,-789.2858,-232.66942,1705.95935058594
116,1579.3994,1242.1671,-191.06952,-112.97005,422.5681,354.4191,1897.90515136719
117,1603.0182,1484.2976,1455.9017,-348.08853,213.72533,333.927,923.756591796875
118,2228.8157,1636.4686,480.97412,-510.56265,-2668.159,345.543,4986.77587890625
119,1809.1355,931.4536,1437.8466,-129.21507,-94.14753,-276.23346,942.286071777344
120,-4471.222,5529.19,1439.8394,-216.68022,-168.48814,-1384.1444,9044.85546875
121,3775.018,2112.49,10243.412,-578.5018,-1231.0869,1789.9427,8397.642578125
122,1386.2375,1155.7771,1535.078,-310.86124,-633.1531,-977.1571,2113.43994140625
123,1210.8662,1253.2646,827.5811,424.29865,152.20338,394.05356,1113.7216796875
124,1162.5865,1624.6893,-659.16754,-283.35983,774.5664,-740.29425,2838.83935546875
125,686.1979,1909.3843,442.54034,-342.586,-147.95706,-754.04126,1994.26599121094
126,527.3268,-4527.849,-7275.7944,1362.8091,-526.3218,-16.864677,7307.59912109375
127,-50.608067,2131.833,-5582.763,1681.0149,-2260.416,457.81577,8477.974609375
128,1757.8949,5822.578,7342.5127,1264.228,1463.2699,-485.78653,6077.5126953125
129,498.36584,254.18849,-1539.1495,306.4203,-79.08039,575.15686,2237.50610351563
130,857.5649,636.8514,-4979.8623,-202.0922,-348.87708,1021.4682,6037.6923828125
131,1986.3551,2006.2994,332.61133,231.36255,-229.85974,232.34763,1802.58081054688
132,1211.8723,1690.548,-169.47511,-781.1771,-601.0694,1730.7253,3833.96215820313
133,1234.4884,1032.7823,-876.0276,78.142365,-819.7833,-735.26013,2779.484375
134,484.99167,767.68506,51.893753,-266.76724,56.678177,-57.841354,789.361572265625
135,1854.0287,1628.5049,608.5261,598.5534,743.81573,-352.38998,2104.36865234375
136,-6144.654,-3278.7456,-21006.826,-2122.6172,808.1802,1370.6597,17111.498046875
137,3057.5935,1285.2554,550.3804,-749.32166,-379.59332,76.844154,2667.97827148438
138,-6036.8276,7071.712,4263.7305,-3079.8318,3264.6553,-564.42004,14293.2060546875
139,-2376.0496,1607.428,-8974.541,111.29529,1261.0326,1944.1531,10091.583984375
140,929.60486,4458.048,9805.903,-1985.9037,-1423.6903,-1751.7677,9329.376953125
141,936.7135,574.3357,-2584.4358,-1799.0454,923.5175,-15.029683,4850.0361328125
142,419.70056,874.08997,-963.0336,-81.39112,150.65616,350.63992,1789.841796875
143,632.89685,2052.404,-242.94623,81.122734,-737.38556,222.45578,2413.45849609375
144,1574.3549,1153.0765,-833.79236,-125.43276,14.936968,279.1116,2289.91870117188
145,1275.1635,1828.2832,-1144.3506,764.2496,198.92058,614.8313,3240.8740234375
146,1559.1968,767.66437,-1278.8765,269.93204,445.81915,116.03348,2700.00024414063
147,1840.0366,1892.2416,-5.1896505,375.46902,-18.595781,123.389305,1993.37866210938
148,1383.0305,1674.9766,282.84604,702.6469,80.610115,-373.876,1880.64208984375
149,1650.3992,1664.532,82.741135,580.6015,-409.82355,74.21558,2002.89562988281
150,6994.341,7440.0366,18826.15,-3454.9343,2237.2373,834.25366,13705.12109375
151,1004.1548,-1837.3422,6786.0425,-589.0485,1749.026,-307.30283,8272.548828125
152,2172.956,1584.0409,266.5213,28.062157,462.41733,333.13037,1958.40893554688
153,-1123.7457,3378.9612,-5598.1875,1025.4996,-1480.0663,-1109.421,8594.2578125
154,2347.4739,2924.02,3084.3638,-787.36945,2433.2412,-699.6963,4641.24169921875
155,1160.4258,2226.1875,2825.3855,352.7467,1865.342,658.67346,3774.498046875
156,-1403.9081,1477.8712,826.53235,-1983.5956,-1220.7323,-1170.6823,5218.9931640625
157,2021.677,3088.1785,2056.8662,1266.6467,815.68567,256.8164,2847.49169921875
158,1012.0624,1614.14,-275.02414,-241.80864,-1103.2797,4.367347,2573.16235351563
159,854.03326,2531.8774,145.74496,-304.3996,170.94406,-420.07675,2323.84765625
160,1341.2351,1877.2681,48.17997,-240.00499,-395.4339,-213.7704,1852.41674804688
161,1127.8547,2035.9797,234.36346,-745.24316,798.81464,5.8655,2452.54956054688
162,2208.5156,819.682,-402.17084,-781.453,103.40775,-772.7727,2962.1533203125
163,2079.0437,1558.0045,237.43248,-791.5945,-53.47698,141.95964,2156.93408203125
164,1333.1775,1510.6182,-182.09064,187.86201,-67.98132,-230.4612,1695.72119140625
165,2119.9482,1366.544,2912.7654,626.9928,-289.91873,-305.26413,1872.04858398438
166,1509.2579,1180.8297,554.05536,526.9314,462.8264,681.1231,1890.4873046875
167,161.332,404.9824,-975.7297,361.25613,338.376,576.1801,1833.10778808594
168,445.68423,1549.9707,-458.1701,-543.30505,515.5163,646.95703,2443.9697265625
169,-1195.4612,2706.0818,-1534.3901,-808.6125,-664.34174,695.5075,4625.58740234375
170,2871.2092,3543.9678,1447.9358,-896.1883,-116.90399,1819.1748,3976.74267578125
171,604.40985,910.9613,3259.589,-831.6188,-656.1913,-428.4307,3201.12329101563
172,1340.8027,365.3387,-980.21747,-232.9636,258.79297,-456.67938,2250.3330078125
173,5233.3135,4159.4995,5036.85,-3025.7744,-216.84274,715.6738,5488.55810546875
174,4160.168,2021.6873,-835.15497,-756.64624,1648.1833,-1206.6356,5751.42822265625
175,784.7945,-2121.197,95.85312,566.5331,-418.59662,633.227,3099.81396484375
176,2038.0449,1570.6161,113.78414,189.95038,-517.4045,239.36232,2026.09545898438
177,958.27936,1814.1321,1463.0684,-514.45355,222.95612,-540.72864,1541.28161621094
178,1624.664,2101.538,1133.4099,462.05585,-367.8041,419.13446,1508.75891113281
179,-4600.4688,3771.3801,-1228.2756,905.61664,-1851.2085,-574.02734,8182.78125
180,2851.9636,1153.1261,3272.8772,54.72602,7.571805,-380.3955,2054.638671875
181,948.18835,989.7983,-1561.5961,158.38579,148.293,113.94418,2566.19604492188
182,1524.596,1072.3458,-715.87256,-431.98297,289.3485,301.3739,2300.96752929688
183,288.4093,191.93636,-722.09576,-374.59277,-1337.6217,887.3895,3013.96362304688
184,-1323.75,-1448.8004,582.31464,-1369.1465,-158.6339,98.450424,3100.85986328125
185,-791.7987,-2058.7292,516.8429,-454.10965,-522.2118,924.4791,2996.0576171875
186,945.12885,384.76245,-17.201408,1235.8556,386.73297,-295.30057,2448.08984375
187,1232.7949,-627.91077,-358.28674,1271.9635,291.16528,-111.516884,2859.81567382813
188,-716.6842,1815.1318,767.9475,-822.1868,-115.505646,-179.63582,2649.56884765625
189,1687.5603,-4969.677,-2661.8596,2162.0232,-805.1156,493.2559,7139.93798828125
190,197.61287,-3618.252,-8452.855,-1526.4093,2182.1465,-2033.2638,9489.9931640625
191,-841.17194,-1560.2621,-3350.5435,1504.7966,683.1559,363.2902,3687.66259765625
192,3276.8176,-3080.0488,-130.02528,1693.6327,-1422.3053,-2332.18,7832.66943359375
193,-363.35773,-3367.2473,-6629.856,908.3088,1334.2222,1502.3594,6637.4130859375
194,1495.6046,928.92975,1177.8732,-449.3619,-489.24396,-48.455116,1254.16284179688
195,-3622.515,-6129.249,-4387.7593,-151.12915,1122.6476,-237.91093,2995.06079101563
196,2596.3884,-2646.2378,1248.8657,-2336.6558,-943.39777,1328.1427,6824.8193359375
197,906.46045,149.04938,1586.7322,478.9675,-258.02356,190.36497,1596.35864257813
198,3061.3513,-1586.3231,4443.6973,2353.9507,442.91,722.5695,6979.57958984375
199,1144.1691,-434.57913,269.5699,89.25468,257.8255,-182.76723,1483.28369140625
200,1531.8745,-1109.431,-1157.1736,203.38728,641.5396,-362.11676,2976.08471679688
201,1206.5975,-433.44354,703.50134,-309.28116,161.89185,-544.5901,1836.59155273438
202,1069.3281,-933.30835,118.63055,-169.23619,-272.93362,-122.74083,1834.41381835938
203,1188.2535,-898.2597,259.7665,-370.79453,47.17852,-157.254,1942.07495117188
204,1305.5161,-586.0437,470.10904,-573.6953,471.97076,193.41765,2112.71411132813
205,1466.0746,-1510.956,-551.16846,-705.7772,-117.2412,177.03769,2925.10083007813
206,1068.9645,-1567.8973,41.809795,-773.4023,0.33146846,-45.35383,2664.62890625
207,1810.0509,-807.4278,842.2205,-761.8438,656.39197,161.44739,2892.50415039063
208,1784.6381,-1806.8259,-110.95179,-652.8857,-270.8973,-391.6254,3412.18090820313
209,1982.9869,-356.47794,1085.9141,-23.00832,472.21826,819.39667,2619.91528320313
210,920.42365,-1897.7358,-750.0952,-1079.2798,458.65988,235.0391,3211.89013671875
211,998.12103,-2038.5497,-2247.9985,-976.1303,184.9031,966.0442,3957.53076171875
212,999.97235,-1493.8174,-1697.0686,-2055.2617,1530.8513,-180.83563,5154.423828125
213,477.8777,-1120.7096,846.0568,-1428.1329,-126.03268,-65.09943,3075.49365234375
214,-551.1835,146.21388,-623.4704,-1547.115,360.83685,-15.39308,2848.51123046875
215,-1846.981,1820.4979,-97.12184,-627.95496,-872.5477,1503.834,4510.69677734375
216,-707.62976,555.3019,150.21391,-534.5922,-233.7225,544.2636,1776.90966796875
217,-1071.0723,738.58997,25.799963,-79.716545,-584.53784,155.82988,1900.00109863281
218,-948.0558,212.44751,-524.7285,-537.7039,-402.84366,57.83364,1548.85791015625
219,265.09146,1169.8279,-1048.9027,-26.854288,-215.19727,-29.83111,1969.19006347656
220,-950.22015,1758.0898,-1603.6743,181.08871,-776.09625,-118.52,3388.0966796875
221,-160.16629,1347.7037,-280.92038,201.94139,-246.65366,126.85408,1680.31726074219
222,24.779848,1145.3766,1075.3021,-235.17607,-147.18596,270.8267,1277.91943359375
223,-109.42068,1103.6246,-44.35605,-315.57428,-39.45929,218.28883,1357.63342285156
224,176.38553,1262.8787,8.76826,-55.387535,359.21558,255.01546,1407.8662109375
225,-1081.0465,1997.1401,-1373.1423,-598.9563,-258.288,-294.72195,3463.61743164063
226,226.33481,1977.7444,2403.5952,365.9341,-289.95197,386.93314,2257.81201171875
227,-375.36282,1183.5103,-188.74367,-173.38478,-78.6924,510.82977,1750.88598632813
228,1287.8114,1455.5562,2974.161,516.7118,228.7143,-506.96045,2077.97192382813
229,109.92225,2135.4326,660.823,-720.0288,238.57425,332.20322,2312.46240234375
230,-748.2243,230.377,106.20223,391.24026,-763.057,238.52478,1796.724609375
231,-251.34755,991.0048,-170.99335,274.37952,-46.820667,735.4287,1817.98327636719
232,-393.29245,536.5106,-264.55078,731.69977,340.04294,443.6501,1817.94421386719
233,1025.3049,-535.2518,443.06247,952.89417,-269.04086,27.765839,2192.98999023438
234,1173.4203,819.2029,560.2897,932.0362,457.08398,964.4622,2511.49975585938
235,1127.4338,-962.68494,252.45853,471.2419,-233.72533,72.756615,2037.48522949219
236,1751.6598,-399.80206,815.39636,471.7285,-13.815678,141.39699,2054.06372070313
237,2105.1218,128.69818,937.03076,96.11716,697.2154,101.140144,2116.31176757813
238,1232.7933,-204.48882,-1529.585,177.54218,353.26892,1334.1503,3396.32568359375
239,1904.9785,-163.97113,466.09073,-112.91057,-179.85956,1010.62695,2563.8564453125
240,1254.8773,13.380294,-228.23462,-189.49089,-320.0083,28.398655,1522.17358398438
241,796.5578,290.09583,-575.3756,-432.28732,-860.7317,-21.278301,2056.3134765625
242,828.3993,-1046.572,-2.0903456,-206.42665,-114.432785,84.164795,1684.1787109375
243,805.703,223.12244,1185.1353,-117.34064,-221.46915,-415.06076,1187.30676269531
244,693.7664,928.27124,1485.0034,57.193928,-747.31134,-271.54184,1549.81958007813
245,1241.9341,-22.49658,202.90016,-674.67773,-418.74252,-110.68426,1814.64855957031
246,1223.3256,-95.499596,-346.8436,-717.5988,635.5781,-245.97002,2252.14990234375
247,325.98245,-491.4821,-795.96405,-190.5521,-829.42505,946.75275,2423.14892578125
248,784.1203,354.8116,-10.441046,-636.118,-1229.5387,453.96185,2615.7216796875
249,63.696823,945.24176,125.3157,-1165.7545,14.790748,563.2096,2399.12915039063
250,-1802.4119,-294.9113,-6680.557,-741.3436,-450.2408,-354.80423,6004.7685546875
251,518.9831,2273.3457,906.03546,-1409.7395,-369.62335,442.2707,3083.39721679688
252,-185.44785,-483.21692,-3311.544,-3520.8176,264.02582,1272.5997,7154.46875
253,1593.5857,1821.4698,8558.557,17.480093,197.45265,39.429203,6862.80517578125
254,-3524.1875,4113.2456,3058.8555,-84.42076,-342.41473,451.96225,7237.07275390625
255,-2758.0125,-1192.4113,-7513.994,-255.3466,440.6138,-345.7629,5801.13134765625
256,-1826.6802,-372.76575,-4178.6724,169.82735,259.75217,-116.28703,3375.62377929688
257,360.35974,-408.16034,4899.962,-1314.6647,269.01187,1063.1907,5786.24609375
258,-173.01546,-831.54175,-2619.2544,24.95183,112.840454,586.4238,2424.5771484375
259,-1036.5752,563.88214,849.983,-3717.874,-545.7997,864.1478,6906.72998046875
260,-2035.7891,6168.0845,-1765.5736,1221.5365,-212.378,-154.3293,8357.2099609375
261,1365.9419,1183.4037,1464.8796,26.24524,-705.497,-915.30615,2017.36694335938
262,-2638.355,688.4352,-4391.547,-1685.3936,-1992.0564,1453.1467,6836.310546875
263,757.807,1475.3857,2076.3909,-1686.712,-49.224262,69.719826,3140.73852539063
264,1382.4153,2059.8699,6945.7295,-1089.079,1779.7596,-1453.8408,6858.74560546875
265,-474.2005,2995.3306,-5553.678,882.88525,-3762.5928,2334.784,10799.33203125
266,-709.1297,1173.9161,418.85284,-326.7385,1088.4956,504.51855,2707.86303710938
267,222.48373,1910.1925,1706.6401,-1071.0957,1252.4484,-831.2886,3573.09350585938
268,-300.36975,2221.2969,3450.8196,-709.44904,-34.055775,-450.69797,3618.53466796875
269,-1489.2819,1405.5062,79.716484,246.77504,-61.128914,-29.326576,2548.74877929688
270,-1361.7135,2135.9023,1061.479,850.5024,900.50244,321.45612,3813.47094726563
271,-1380.7802,1903.7465,1394.1901,38.35149,-527.10535,217.06041,3217.66821289063
272,-1387.8448,1852.3801,-2980.2046,883.81165,-660.4759,309.77823,4704.701171875
273,-1197.2288,2257.191,2010.6659,1390.2589,-538.431,48.25191,4221.06103515625
274,-526.275,2020.8479,1554.7732,1741.258,216.01042,277.30676,3870.98559570313
275,726.2879,-1011.01447,2392.2817,687.22754,-398.2939,-619.0585,3424.98901367188
276,-1081.5826,-4768.096,-5720.1504,-255.3658,1057.0558,1371.867,5215.39453125
277,985.80725,-2064.9744,-184.36978,-933.9781,-243.23721,-8.358808,3146.62915039063
278,-1414.1384,1587.1016,-531.0254,-243.3986,10.772911,-227.8079,2733.25146484375
279,-1774.837,1507.5432,-1182.5276,839.7077,-94.43879,-146.76286,3374.51733398438
280,758.332,-1646.236,-309.69885,842.9416,207.25845,23.955667,2572.2998046875
281,736.58105,-1488.2117,-1119.9362,229.29141,404.78275,920.56946,2730.8623046875
282,16.282158,1013.8005,-237.54623,-417.78598,270.3188,-534.4146,1706.55187988281
283,-218.6211,973.6558,750.99585,-273.224,41.49706,140.05548,1222.12768554688
284,-617.7895,1443.9697,36.295715,199.85747,235.3343,-113.643585,1911.76171875
285,222.32385,1664.8943,4489.187,689.8984,-1305.66,-953.5553,4837.54150390625
286,329.7889,-567.36285,-4090.3389,-1684.3616,137.32071,1439.8109,5582.45849609375
287,1548.1525,-2103.0515,577.99286,-1083.0084,-427.50473,224.5026,3866.32348632813
288,273.25952,772.8629,-3683.4312,1517.4521,683.7541,195.72137,5129.05908203125
289,715.2945,-1071.3245,1.2134863,318.1596,366.31662,-213.80328,1808.17700195313
290,1218.3453,331.35416,-50.50298,105.45947,-510.31003,-162.86555,1471.55078125
291,1341.4266,418.70514,-172.63199,-134.24509,-215.06677,-109.39992,1405.51245117188
292,1031.6958,-1510.3312,-107.62922,220.89319,241.16493,-77.30044,2280.91137695313
293,1446.4484,-463.46188,-439.14618,-112.33078,-38.062862,529.1156,2117.54516601563
294,1254.3682,230.78558,-198.33084,-267.80695,-472.20825,206.80437,1638.14099121094
295,-26.623037,522.9259,553.78827,-75.66559,332.26813,-116.67293,842.102600097656
296,207.57452,287.2313,556.20483,-404.5318,-107.725426,358.37442,1005.56768798828
297,-2549.2693,99.35535,-632.8699,-1783.5525,275.43488,-2064.8552,5307.8837890625
298,-734.3825,649.72424,-156.14987,-608.23206,705.6007,366.16135,2110.79296875
299,-940.14386,879.7388,427.7654,-515.5681,1040.5693,380.50845,2678.40625
300,508.68604,567.8084,491.6012,46.05852,1094.555,-385.5516,2012.77514648438
301,-169.97356,1148.146,-617.5386,-223.059,79.047386,293.7709,1718.89892578125
302,382.1296,1632.5125,1350.5034,-931.2536,-546.37524,331.8274,2262.29370117188
303,-1742.3002,1951.0609,-884.5371,131.22237,-936.647,50.81507,3728.26684570313
304,-1567.763,2528.1501,1098.1079,378.34796,-484.13702,894.6908,4061.80004882813
305,-1852.0319,2476.83,233.84717,962.61835,-729.9914,431.62958,4358.66162109375
306,-261.43073,1405.594,1992.0049,1831.877,1139.3108,-671.15533,4406.03759765625
307,1638.6234,334.69742,3311.9878,-866.04175,52.512123,109.54738,2996.10986328125
308,537.816,1537.7188,-291.30884,659.27405,248.81093,30.627878,2002.18859863281
309,-3185.6584,-3756.004,-3728.386,2524.7627,372.66208,-181.12712,4466.3896484375
310,-1851.5598,97.581375,-996.3694,1120.0448,-26.757345,-522.587,2729.20434570313
311,1740.6613,-1612.2694,1831.8402,-417.8501,815.56573,-425.5202,3823.4296875
312,310.2749,-172.03683,786.30914,-292.02228,270.18002,-302.54434,1199.271484375
313,-452.41284,325.9021,1109.9924,1955.0385,-723.4302,-246.25204,3879.34790039063
314,-665.4262,-2380.9736,12.661671,952.10846,-1117.1613,-613.678,3487.0732421875
315,1249.1802,282.40787,1788.9938,-709.8453,-438.6903,670.9781,2277.61889648438
316,4806.9883,1830.8796,8772.302,425.89493,-839.981,1743.8286,6940.15966796875
317,2965.1194,-1932.243,3345.3726,-320.3479,314.863,-531.6571,5238.72607421875
318,-3725.3418,-1067.0847,-2871.7449,-633.92944,624.1137,268.24872,2848.84252929688
319,1745.423,-703.7049,1553.1299,-980.8674,-15.26144,516.85815,3041.822265625
320,1458.6685,-1427.8082,1121.4004,-922.6409,-64.20803,-286.17676,3206.84252929688
321,634.0779,-1829.8582,815.1817,-1245.53,-693.8479,1256.0454,4169.0849609375
322,209.24554,-1013.7529,-160.28787,-1580.9203,-212.6197,1311.1035,3737.76220703125
323,-710.58344,212.69778,304.4323,-1663.9762,739.5868,774.6112,3562.72973632813
324,-580.3849,1188.0078,-177.8643,120.54377,591.259,406.81036,2041.1416015625
325,841.6924,-267.34244,-456.8464,1173.2491,311.64667,228.28456,2460.34326171875
326,1574.6696,130.70232,144.84889,-72.44025,366.72855,-300.07724,1659.56799316406
327,1301.0632,-523.35834,-685.99884,-169.45697,-614.5653,366.58847,2296.53442382813
328,1291.4799,-1032.3455,782.42883,24.004238,-742.2716,375.12253,2559.90869140625
329,1144.1183,593.51337,-974.0881,-413.47464,-245.53151,882.0943,2579.08520507813
330,526.0035,-354.758,-502.73755,-458.06293,686.2056,-110.486755,1733.982421875
331,-1557.9752,800.7149,-5394.098,-11.217442,900.6538,636.48566,5742.537109375
332,388.0579,2840.4192,5813.867,-979.5844,-625.1011,752.29376,5281.693359375
333,1042.4445,-243.61407,-2742.4058,905.7242,1951.3264,1233.2833,5436.7724609375
334,-5199.681,2779.6758,-10978.245,-1734.9022,-4266.7173,-3934.3079,15913.88671875
335,-615.5629,670.96185,584.26025,-1291.7133,-311.06378,230.97127,2647.07641601563
336,-759.761,-400.82306,-1566.201,856.3963,-270.0202,269.9318,1925.15197753906
337,436.17657,828.4798,-1119.0336,-258.42148,-168.10231,591.9936,2125.83715820313
338,-768.9432,1242.3956,-1461.2281,-322.7546,-232.18333,629.8462,2753.45581054688
339,271.5881,526.0177,-974.9827,1507.6857,-405.19232,-86.79548,3044.72143554688
340,-403.84912,469.7344,340.24585,909.7917,407.66818,-501.8599,2098.60180664063
341,-416.15073,781.69025,-160.40019,529.11237,29.05708,605.9194,1771.3583984375
342,1098.5269,-1753.6472,410.96198,-995.7406,-687.2495,318.73557,3367.9072265625
343,1213.064,-910.2706,218.0188,307.7173,-154.7737,223.49446,1972.72265625
344,-375.82867,1030.1068,-1890.129,-109.58933,-637.9527,88.63256,2771.15795898438
345,-1001.1262,732.6877,-266.00507,250.0244,-135.971,226.25371,1633.56164550781
346,-67.82227,322.59598,128.48994,758.9096,-610.9607,-94.84994,1728.86108398438
347,-409.23465,783.7276,-2260.2,1574.5387,173.86769,-900.3002,4125.18994140625
348,137.08229,-776.77356,-202.79034,-1264.2819,22.242094,262.03668,2375.44750976563
349,-1379.8335,579.4812,-1760.7676,1669.6807,-137.17221,147.4031,3635.31665039063
350,-254.37411,257.285,-81.39011,534.2924,92.68705,106.584724,1058.04931640625
351,753.8975,-391.54144,-134.59819,1140.955,487.73636,209.11067,2415.349609375
352,189.26662,44.651447,-530.0755,831.81854,799.98047,500.1785,2276.08129882813
353,812.70526,441.3923,949.8154,1581.0757,1218.7754,424.65466,3564.2978515625
354,-729.8918,-228.5388,429.3277,-85.34874,-96.84993,48.66946,1034.92297363281
355,3277.3972,942.944,155.80013,-784.35266,29.703318,39.69066,3124.07080078125
356,-23.229324,-936.9392,-214.60976,-381.61444,-257.28485,19.607826,1154.66650390625
357,529.0816,-681.47534,-349.57895,-424.92316,-13.503123,47.321655,1312.54260253906
358,-434.21494,699.40546,6.1199503,-453.7488,23.152689,-34.558052,1265.96691894531
359,-518.5238,767.5957,69.6679,-772.7896,-110.24121,-68.37321,1756.611328125
360,-527.9049,-667.50977,542.9066,353.11978,-11.014409,-122.56093,1317.24169921875
361,534.7242,-912.4895,-97.66999,-771.1612,56.421116,268.30768,1894.39331054688
362,1318.289,-1394.3583,170.20575,-392.215,20.683796,291.25623,2505.88842773438
363,772.4089,-965.12946,-265.67957,147.21329,-92.60159,-102.27422,1554.04919433594
364,847.2704,-1137.1562,-585.65625,-29.555351,-74.35371,112.3664,1790.18859863281
365,933.84686,-360.8553,152.8355,176.08403,-77.00576,38.200012,1179.08422851563
366,-154.4132,-384.56226,-192.6926,599.00104,54.93311,57.80105,1068.22583007813
367,-442.27222,-1008.8106,-119.34585,530.3491,-69.32903,19.976751,1211.45556640625
368,-907.9166,-293.31552,93.65581,321.57492,165.90082,-70.38705,1083.041015625
369,-671.7164,-1048.1929,208.10938,-432.67136,41.730114,-0.55498123,1346.81103515625
370,120.42627,705.9249,145.71869,116.285835,-140.86655,-92.63056,674.150085449219
371,-278.24918,1023.8295,-61.333755,1343.3771,-226.87462,-59.098648,2653.0927734375
372,-52.249393,-497.01727,-357.27728,926.43665,94.49839,62.466457,1663.89440917969
373,1814.9794,527.3191,261.4852,244.39357,-47.806206,116.70425,1515.89611816406
374,-854.2616,-1672.8771,-433.58633,-304.66367,534.97253,45.086205,1527.94470214844
375,370.41617,-629.9578,-59.870407,-62.941967,-16.726833,154.35938,916.325256347656
376,833.6405,-1585.4822,235.98586,512.4484,-15.910098,233.41705,2390.72485351563
377,836.7997,-844.1559,-190.50723,618.6643,557.8968,-105.5338,2066.27905273438
378,804.2981,-709.5383,-24.810553,201.44237,200.10757,-102.62753,1413.31188964844
379,180.73964,295.71298,60.846485,909.6337,88.714485,17.066711,1596.29650878906
380,-1251.9644,330.72797,-29.78736,-128.18068,58.313652,-69.80596,1462.3310546875
381,213.81673,-354.3035,-103.82255,987.4596,96.22276,101.66144,1796.44348144531
382,-193.19391,713.5074,61.0368,-1002.60474,-64.39759,262.39236,1972.5283203125
383,-407.88516,373.84808,-114.09084,-973.19055,-23.775333,219.13748,1858.71252441406
384,122.16251,-153.65158,70.44862,-408.15616,54.963478,275.5868,895.078674316406
385,1142.5962,-338.1142,267.82327,-215.79985,-21.223257,179.25955,1378.37133789063
386,-651.1758,-94.94896,207.46284,-376.67816,-78.41789,45.85077,1009.68560791016
387,1545.2809,-600.83795,960.3149,60.727287,34.660656,61.018562,1928.326171875
388,724.066,-1367.0566,-317.95844,-616.4735,82.444466,194.42351,2133.89770507813
389,561.67535,-426.5597,237.53607,-131.02208,-43.302425,40.4436,907.40380859375
390,638.48834,-707.1622,-216.45474,114.38468,-48.580147,-33.069473,1200.35864257813
391,-287.6666,942.6857,-367.8009,-650.61145,-61.492237,289.91846,1775.43493652344
392,-16.082716,-593.43494,-27.231483,-289.6494,53.76418,114.88632,791.821838378906
393,-164.40846,86.99089,-138.20026,738.71466,96.326454,173.11406,1346.15747070313
394,-746.9381,-75.028625,170.90758,-496.53784,267.7321,109.488335,1291.45178222656
395,304.03088,-1472.8398,159.12932,-168.32294,359.71765,99.08138,1850.25244140625
396,799.43524,-1157.286,-38.272827,30.184744,175.1764,94.77598,1735.82629394531
397,-539.24664,984.86005,217.09657,31.14971,0.49838907,-48.758266,1323.72668457031
398,805.2176,431.48056,132.27412,851.2477,94.64757,-46.33545,1596.31188964844
399,-480.39734,1083.9471,-23.873085,612.5412,-4.6151996,-36.44073,1752.45397949219
400,1352.0966,-795.24774,423.6446,-59.332474,16.258198,77.07971,1873.12097167969
401,188.62373,-78.04799,-36.60889,-455.3891,27.944563,-84.6905,841.295593261719
402,1292.7068,-1115.7018,328.97528,72.60584,84.837,54.314293,2110.54663085938
403,1066.6378,-1430.7964,360.0257,-845.9268,-145.45872,85.022545,2683.970703125
404,520.4988,-1063.3828,-140.92609,-353.33255,126.954994,22.929522,1524.14135742188
405,610.2045,-849.9632,-464.33087,-575.2741,-105.50331,124.65025,1670.4912109375
406,908.96844,-18.688683,22.323467,-158.37984,75.155876,165.95137,999.500793457031
407,165.16068,-62.699593,351.20697,125.30817,162.54764,-33.12004,508.515991210938
408,-499.1872,113.24331,552.8755,-917.60016,107.65581,6.444209,1843.48999023438
409,127.41936,-1222.8458,-230.53183,-891.0414,3.8132129,-12.51461,1962.24206542969
410,-706.22327,199.61073,232.91983,-341.58292,105.61541,31.437881,1112.78161621094
411,93.25937,-715.2545,-67.817375,602.9935,-91.04655,10.746953,1290.51379394531
412,443.71417,-761.8391,-142.38676,186.76642,89.617775,-163.91618,1140.01831054688
413,635.46826,-377.4468,435.47742,1072.1786,-62.0207,2.7050843,2079.3466796875
414,-170.17384,390.81354,98.45088,-312.89047,66.98441,159.04575,786.905151367188
415,-323.5883,74.02223,-0.6951478,361.2316,28.64384,-2.6035025,726.577514648438
416,982.5765,-503.27194,172.05855,-126.157715,-38.634285,245.235,1375.87194824219
417,389.61673,366.67972,-146.4126,-182.35547,-14.984199,-239.81325,740.6240234375
418,-793.5248,635.4222,-416.93704,-270.62595,170.92078,-130.97751,1415.7705078125
419,-62.003212,1055.4663,43.507553,-84.9957,-127.42788,70.16258,1107.75463867188
420,367.90994,52.700233,861.7668,1193.7753,-122.73993,-109.42126,2203.48193359375
421,239.24892,444.36688,-276.80847,365.64258,-29.014109,-191.89742,963.495727539063
422,-171.62376,157.91183,188.96075,-22.579935,-67.24809,11.300672,367.789428710938
423,-728.74896,74.62419,-346.8868,-265.49033,-76.21592,87.39374,858.046752929688
424,-228.03325,-186.38092,-178.75375,-244.08449,-134.10255,206.65402,602.420654296875
425,258.59915,-194.93324,-208.05153,1184.5171,261.24277,-88.39409,2156.20947265625
426,-174.01413,482.2101,262.4955,-658.88995,-9.805916,222.29367,1336.28686523438
427,543.25543,-588.93463,127.7986,755.22955,39.65871,74.413025,1648.18933105469
428,239.65839,477.55234,-299.85672,-240.36931,56.561264,52.172527,816.769897460938
429,988.31854,-891.32697,-304.0838,261.43732,173.76294,173.72794,1777.71923828125
430,1425.811,-954.5642,-61.21874,-729.84296,58.289513,-53.793705,2440.21337890625
431,0.8531718,-1158.8418,-141.45181,145.42561,1.7156934,104.90417,1138.67553710938
432,-3.168678,-806.6158,-16.375034,-510.31976,-95.60522,-8.264063,1201.66369628906
433,998.43146,-905.77545,-19.730667,-639.452,-24.864117,112.17984,1997.54125976563
434,-1070.7798,-2144.794,-288.3431,-249.72762,-59.029175,69.17764,1678.67895507813
435,887.04803,-663.4527,403.6775,111.6657,-74.616776,230.4612,1449.71752929688
436,-404.36902,-1503.1434,463.68225,-182.1755,124.91845,-26.75256,1750.181640625
437,434.87292,-546.8877,-111.81961,311.99072,8.069211,-23.969305,1009.92028808594
438,538.02014,-1569.8422,-424.4743,-991.3134,21.375792,83.71428,2512.20532226563
439,10.096223,275.77887,180.98322,-569.4735,-146.67625,87.87554,1055.93395996094
440,920.27893,-1222.6827,202.58174,-701.227,-36.475964,-0.46071663,2246.892578125
441,190.03152,759.1177,305.06598,-369.51965,7.0962977,-79.49465,836.881774902344
442,-1247.9379,-2655.2007,-8.487049,-1005.5434,181.5194,-207.5372,2919.29370117188
443,-117.26227,332.466,789.4197,358.06396,27.680134,-122.956474,1024.1337890625
444,587.4342,-340.39255,-769.0807,544.6836,62.313976,-25.527199,1531.67517089844
445,-45.79037,-988.4636,76.536064,379.19574,181.20627,81.60615,1252.50329589844
446,387.53452,698.87274,1005.03076,-279.33957,8.25751,-55.182877,727.60888671875
447,-214.15208,847.96075,-92.36339,-777.83875,-91.77421,69.75055,1693.67211914063
448,-255.21155,99.89983,157.4408,-457.18597,-55.148354,103.71899,904.600769042969
449,-483.23334,-953.89594,-77.4702,-200.97841,-124.92874,161.96654,907.65771484375
450,498.65958,132.39372,169.15732,66.65044,89.72346,21.272888,401.088928222656
451,-204.45547,-335.60986,-167.86638,-306.71295,-30.759274,44.797592,560.728515625
452,1425.6656,-997.2919,-1085.6029,-94.61961,172.65613,94.884834,2497.1572265625
453,725.04785,399.04434,103.75176,-790.4512,13.558451,40.20753,1472.95043945313
454,115.121414,-584.0059,62.271225,-921.1602,37.5248,-0.13693383,1733.33666992188
455,759.9183,101.05477,78.936615,12.391202,103.44038,-12.142048,694.381591796875
456,858.52026,-105.2181,453.4194,-558.7258,-87.448654,-33.24131,1290.45251464844
457,336.71762,-1046.198,226.58516,-520.3787,83.79133,62.210316,1617.818359375
458,-33.579746,-181.89673,27.957306,-311.80148,72.47572,8.461665,585.273620605469
459,275.1519,377.34088,-226.91168,3.654866,7.4911137,222.83739,680.436401367188
460,477.43137,-218.36336,-549.5337,-108.69961,10.808891,-92.50881,941.117248535156
461,-8.328303,-905.9648,67.08259,-212.04916,-13.7706585,13.810045,1007.55401611328
462,731.7737,124.98812,236.7195,-13.0511875,-107.09671,114.54648,622.220581054688
463,-24.520624,83.079216,256.16223,987.26996,-113.69135,149.28036,1757.81005859375
464,-782.21313,-1388.0815,26.542673,-127.73632,-123.27048,12.741683,1267.35375976563
465,1138.5719,143.03806,19.335077,847.8125,-152.2235,-98.703964,1839.73974609375
466,948.8116,2171.2163,-720.9385,-319.6201,-187.03348,-96.742676,2600.56567382813
467,-398.49707,401.9203,27.840317,388.93427,62.959736,11.134901,973.271240234375
468,-254.63129,-236.28342,-398.7557,115.95822,-38.54497,72.131905,290.099945068359
469,-249.88731,-266.07492,-191.78217,-348.63004,273.69754,12.205614,770.964050292969
470,784.22375,434.7312,-44.186825,188.98512,3.3361123,94.98974,808.167358398438
471,-480.2215,1224.984,-341.80142,66.57502,104.99026,6.9820914,1654.49792480469
472,2143.207,2746.6235,367.89645,783.5072,-63.11218,48.210793,2539.22509765625
473,1391.5101,1396.9686,-33.97533,-193.67062,-72.22288,-121.79815,1487.44665527344
474,995.6534,-1688.1495,-659.33344,72.25568,57.540535,12.636793,2350.7861328125
475,-600.4915,-1272.8561,-36.756695,-979.66864,17.803652,58.876125,2009.85278320313
476,-2041.5894,372.53802,-226.92607,24.209408,262.49692,-4.878821,2224.57397460938
477,793.42737,-191.9063,270.70383,-198.94865,113.83451,33.503532,943.424194335938
478,-2211.8992,-466.8466,-241.57774,245.60385,16.126211,72.62106,1920.05883789063
479,-17.033323,772.317,-10.195795,-552.79865,-28.6166,-188.85007,1282.1591796875
480,-79.335594,-688.72406,-232.87157,673.97314,66.64567,128.99104,1314.27734375
481,-148.49046,754.81067,382.7889,-272.56873,40.165367,123.65728,944.404418945313
482,-2443.609,-1765.9995,216.98079,-186.13728,-295.75177,51.450996,2471.70825195313
483,-1843.658,-1454.8859,540.07,-236.93227,169.12267,-115.17682,2280.48046875
484,665.7507,-149.40167,-214.37425,450.46704,-89.50165,127.79198,1184.67004394531
485,502.76202,-313.36566,175.70236,325.79745,194.18681,-240.48842,1054.12121582031
486,350.24603,164.81467,-679.8206,113.609436,-49.42263,-3.671306,974.9384765625
487,-251.45552,-625.8193,-106.362,-600.1018,-99.93772,92.602356,1162.57165527344
488,371.50397,-597.1515,-873.1467,-515.06085,136.89294,-112.673584,1473.76354980469
489,-1479.0184,-1801.3064,641.1706,-100.60156,119.16023,60.10131,2316.50146484375
490,-1381.7438,-1300.1581,374.74118,4.7556458,-146.15794,133.30469,1751.01574707031
491,829.9877,1449.4113,508.8949,347.2502,13.291681,184.37668,1072.35302734375
492,832.22205,244.68954,-604.3251,-130.26631,324.80804,-37.122158,1391.54125976563
493,-364.40085,-1428.7897,1740.5961,936.35767,121.5005,237.46689,3263.162109375
494,-1273.3052,-1313.7773,38.566048,120.29793,154.13652,124.51925,1391.74072265625
495,-467.66574,569.6725,-566.4092,286.07886,-20.30175,-4.4107904,1197.94372558594
496,510.0116,-43.525593,819.6612,174.10286,157.52037,-92.70772,874.554992675781
497,-253.1595,802.4872,-706.25635,-234.33914,-79.30234,50.643944,1410.42626953125
498,177.35371,273.3205,67.030594,-170.57893,-19.666115,198.75694,488.807647705078
499,122.43138,-49.52994,276.20963,-762.80585,19.938736,-37.76298,1353.05261230469
500,-811.80914,-618.37555,404.57504,-587.54584,21.81476,113.69288,1535.43273925781
501,-426.3179,2187.7783,-437.1918,487.3633,-78.72759,62.296783,2757.68896484375
502,358.67474,623.1315,-1555.9077,-487.9067,47.4475,-93.576355,2233.62255859375
503,681.1503,-112.47399,-105.68296,-1021.25446,172.6293,45.74776,1961.90209960938
504,-1269.4305,332.3964,469.28854,1537.9783,3.12727,37.058125,3147.08544921875
505,-810.01526,2155.5776,214.24858,374.10947,133.0659,-69.039764,2700.66674804688
506,-511.50455,855.9618,-2.5127368,1119.638,124.81596,40.885536,2290.3115234375
507,569.3093,2232.41,-766.6535,-905.4468,8.918687,-88.49194,3042.33032226563
508,12.209742,-452.12808,323.4779,-117.27704,121.410355,-38.23727,739.527221679688
509,-771.2839,-2096.0874,651.45544,210.53172,92.18876,266.25952,2456.68286132813
510,1074.7849,234.24007,214.48378,222.86115,-121.97009,70.200836,965.364074707031
511,-786.0453,-1042.758,-397.2146,281.54974,-196.31361,-117.48705,843.650451660156
512,-541.823,1714.186,-272.36685,-1244.1631,54.662083,-22.930876,3034.57641601563
513,-510.61777,1073.0917,-88.02849,-394.35,-75.76609,39.963047,1583.03735351563
514,2212.7148,-141.878,-1685.6504,-57.123634,-17.724714,-90.44403,3405.52026367188
515,2074.173,744.73865,-955.20135,-109.59485,-59.0505,89.18307,2643.38891601563
516,-2677.6035,-2026.9241,232.1037,607.3588,65.960266,-24.619019,2849.21337890625
517,-2329.6902,-2419.616,65.45989,332.1963,97.29023,95.43056,2519.32470703125
518,-774.5015,613.57556,192.1623,87.02938,-195.72147,35.530468,1288.72937011719
519,-458.75262,-1625.4781,-279.34616,291.63663,-58.870174,90.81928,1375.88171386719
520,455.9661,156.44101,-26.594095,176.55302,-180.62515,-208.43336,706.939453125
521,468.13306,-394.59814,-333.4011,996.13495,-71.29136,-128.78569,1933.16137695313
522,-120.243805,-87.20168,-293.57724,809.65765,208.13785,27.44121,1461.41137695313
523,-443.07654,-1662.1543,621.7868,-324.96347,23.420763,76.27438,2062.55639648438
524,-1142.2092,-2664.1738,18.069767,383.26727,-220.83832,282.18326,2500.87963867188
525,-575.58124,1711.7053,428.80634,-935.0787,235.9299,79.82275,2598.53247070313
526,-1395.5128,-281.0872,1339.7517,-819.98895,-69.24478,319.64984,2830.79956054688
527,-1626.1829,2912.3157,-1164.016,879.89813,69.03716,137.82,4594.3408203125
528,-517.24884,730.8507,-292.23944,1030.2065,-149.85446,85.45467,2144.94775390625
529,1070.7992,-832.2752,1307.1521,850.9843,81.118484,6.356269,2513.90869140625
530,1053.9083,-732.15796,798.1541,1505.0072,-44.387135,104.66724,3103.63745117188
531,1028.1198,2153.1477,-399.94724,-585.68207,-30.120138,-69.54434,2440.8974609375
532,-715.82855,575.1138,-19.212952,1547.739,2.355517,-61.505745,2906.95166015625
533,-489.30188,-625.5882,-457.4398,1916.968,57.562695,131.98936,3333.23193359375
534,-139.88492,164.59015,554.3474,-1058.676,4.8429914,-6.9218082,1930.25537109375
535,3226.5361,1390.7941,-692.32837,-531.9237,-0.25824034,34.249023,3519.34252929688
536,410.68814,403.06073,-169.92023,-879.62665,-57.070404,37.480057,1633.38610839844
537,3053.3765,346.70953,-283.74554,-23.05152,-88.81226,-25.560932,3075.25073242188
538,4030.5369,-1138.1943,-79.51801,-2226.0125,89.97637,84.72859,6105.3896484375
539,1914.0167,-1169.575,-1085.2306,-1126.553,-108.93543,-96.75444,3623.06762695313
540,83.63799,-918.848,-361.1837,299.8834,63.953056,11.511095,1019.49731445313
541,1856.8337,485.83066,-92.61426,129.98631,224.2577,-75.50931,1796.09765625
542,2359.7327,561.7103,-115.728745,93.803986,238.12096,-53.026928,2261.59155273438
543,378.2475,435.11453,-427.78598,-1213.8734,-121.127335,-26.106133,2272.72680664063
544,-1324.7979,-3022.3848,79.4733,-1167.8872,-42.47792,78.07835,3369.4560546875
545,-262.4335,2034.6346,327.68558,-940.2819,3.8622708,-88.536476,2635.369140625
546,1685.1545,-1379.7812,1161.244,-1244.571,-102.73544,42.74113,3570.23486328125
547,755.5639,-407.05038,1803.5065,-1117.6461,46.470936,-89.655174,2728.7724609375
548,1891.5812,1449.8789,55.90295,171.95326,-45.839226,46.96394,1689.85693359375
549,1869.0415,1646.0726,110.381035,979.7983,-42.997543,-90.00683,2379.14672851563
550,-2339.6667,-2040.3145,751.8533,-581.52563,-136.76924,39.45863,3130.00927734375
551,-2065.8855,-2738.8345,288.35727,-379.89017,-49.684685,186.4107,2850.29956054688
552,186.03772,-1063.1887,64.8585,-239.05414,54.65632,-56.330044,1270.35131835938
553,803.6241,-2137.8813,24.006079,384.23004,185.4099,36.47903,2741.71997070313
554,946.7396,972.91095,-179.90839,121.37947,144.89949,120.0709,1204.13623046875
555,2688.805,-353.06287,601.1189,472.75266,-49.444553,117.415276,2824.90844726563
556,-429.72278,891.461,-270.9564,152.07716,-31.87097,17.165936,1278.392578125
557,1044.2384,-946.7621,-190.86531,103.13258,84.302025,54.909378,1758.62060546875
558,1336.4235,-1198.6814,-22.275915,-69.627625,-51.91725,46.028233,2203.94213867188
559,387.11017,-266.1454,-620.42926,-527.21796,34.26095,70.64534,1279.08862304688
560,-1276.9016,2220.3438,-1164.19,731.7034,27.49156,105.88189,3673.05297851563
561,876.0752,1542.2483,838.0647,434.43375,84.204506,-28.801811,1029.81103515625
562,583.0485,2315.0332,-886.1047,-419.58063,64.168106,-230.38144,2898.69897460938
563,1314.4232,1316.6069,1111.673,-767.6154,-5.2338758,100.37985,1356.30603027344
564,-107.39536,306.1996,-9.197616,477.6545,0.47707337,-72.59153,916.711669921875
565,-1112.7106,-1061.5686,-135.88707,237.28253,113.202995,260.6731,1148.06274414063
566,57.049828,442.72186,-289.19345,-140.05333,69.86076,100.64409,711.36328125
567,-180.71634,-117.11233,-260.25903,59.27636,164.0808,-82.654,356.70068359375
568,459.10886,-196.95259,-422.7348,-693.84607,64.72546,-34.957672,1445.69104003906
569,-826.36584,709.9096,57.727566,-218.16792,-30.739126,267.75854,1464.330078125
570,1395.8722,-739.23285,-204.44974,13.599454,55.6022,94.283875,1933.73889160156
571,-167.87845,-1337.1328,64.762276,-570.0873,104.12757,124.59956,1657.52685546875
572,999.28326,-335.3425,104.52285,-62.328297,84.50157,132.16411,1213.72570800781
573,276.52985,-175.64221,-262.86862,-443.2016,166.92117,291.03033,1085.57653808594
