Element Label,S11,S22,S33,S12,S13,S23,Mises
1,-820.0002,-814.37115,-1354.1754,123.82987,-1220.8506,814.9201,2607.31591796875
2,293.85037,409.24765,389.19983,18.947474,-374.05765,-270.8452,807.657531738281
3,183.56546,179.40933,698.4296,-69.31285,-286.328,-468.97546,1089.68811035156
4,-602.3948,-675.25244,-1338.3397,77.75042,-747.02216,-67.71035,1483.01037597656
5,130.90851,-459.6092,1261.0923,-31.099619,-924.85535,990.1073,2793.4443359375
6,-622.9782,-611.17267,-848.31647,-106.27778,1219.6626,-66.95489,2136.26806640625
7,-676.2106,-791.4593,-1499.481,-98.5073,409.81274,-78.36759,1071.23779296875
8,784.92377,929.4487,1636.6919,65.91074,577.3706,-441.83893,1490.65844726563
9,1615.3068,1494.8802,3489.8066,36.108902,324.4233,615.35535,2282.4638671875
10,-1541.2606,-1860.9586,-2845.9797,-25.177477,529.0428,-132.62335,1510.53295898438
11,426.82477,328.0135,464.01236,63.37044,-302.29877,711.737,1349.34460449219
12,-674.2015,-755.4733,-1079.3683,46.39434,90.20125,138.2762,475.461486816406
13,1474.1133,1574.9333,3090.755,-31.4071,-111.15485,-1052.1573,2412.84814453125
14,-2739.713,-2867.0796,-5198.679,-58.229565,-69.56799,585.1277,2607.94189453125
15,-2619.0396,-2834.2344,-5167.234,234.12212,-62.01982,36.77867,2484.20654296875
16,-6202.8467,-326.08463,-968.8567,-75.71242,1753.7815,-1794.3833,7076.43603515625
17,-5632.365,-5119.594,-13019.606,-4.893937,1748.9716,-964.0344,8401.6123046875
18,1274.1783,-276.584,2786.2327,-944.69403,98.92266,668.97345,3329.45678710938
19,-110991.086,-120050.336,-99504.195,2129.118,1368.3969,20571.95,40086.32421875
20,3667.8875,7662.9995,16053.445,-760.6858,-1805.1469,1004.85583,11594.052734375
21,853.37415,304.0488,1275.056,-386.07965,494.50336,-549.08844,1672.2685546875
22,-4771.5107,-5728.161,-8213.116,-239.07364,-5138.2383,-1738.9401,9895.205078125
23,-5529.754,-6869.591,-9403.18,-1134.9811,-4969.431,-642.9706,9528.869140625
24,-3589.9773,-1609.7887,1162.0557,1007.0884,2580.8096,345.39264,6362.02392578125
25,-2467.1035,-430.3174,184.42924,376.8565,2163.308,-897.4514,4760.3095703125
26,-1452.1276,-521.6194,-794.5235,1090.6387,-417.8122,1812.3195,3825.1884765625
27,-103.01978,-145.32869,351.2586,459.93433,-24.284683,-807.06116,1678.63342285156
28,-1305.2301,-1783.3208,-2095.4692,-127.91983,-587.58514,-2021.291,3717.1162109375
29,2784.2014,2481.291,7706.37,-6.1697707,-328.39273,295.5777,5137.724609375
30,-776.61163,-2159.1743,3198.9185,-1447.8419,474.05008,1129.5544,5831.2373046875
31,-3963.1,-5347.619,-8875.624,-793.9352,271.5754,-899.6366,4877.35595703125
32,-1850.9534,-1422.0974,-3789.0913,-330.78894,729.185,2173.5369,4568.11328125
33,1139.3512,1105.7606,2835.861,-24.420933,126.70444,1635.7421,3318.609375
34,-2723.3184,127.33984,-224.60963,-171.77646,941.6404,-1552.0449,4149.93310546875
35,-1207.2224,-1535.771,-3352.0752,-350.49838,-1512.6614,699.7836,3564.50830078125
36,667.0096,468.3852,1939.8652,-333.35498,339.2867,-5.7611685,1609.73791503906
37,90.38256,1332.5051,5702.855,382.95148,853.1912,-849.9748,5555.39990234375
38,1559.1853,-1999.5442,-3206.0486,-1111.9695,146.32426,766.13226,4893.70654296875
39,-345.18222,-408.6471,-626.9247,199.2591,-1262.5314,1727.6996,3731.1435546875
40,-722.8639,8.613078,-2996.2761,-833.7859,-417.81485,-1309.5642,3888.52026367188
41,739.15924,1276.341,2008.3959,185.33643,1749.8887,-2141.5242,4925.99951171875
42,-3325.4778,-4931.4453,-8982.885,-397.1256,-660.0686,2382.9272,6656.951171875
43,2020177.1,2020219.5,2034866.0,-4568.179,2106.4932,-22799.965,43018.30078125
44,-32041.72,-25319.832,-59017.637,3370.7395,1587.3158,2034.1322,31753.2734375
45,-9730.431,-5008.338,-12075.176,578.5534,-4115.847,2191.5662,10251.9140625
46,-5480.4126,-3678.4763,-5465.938,-894.5442,-3060.426,-2649.8892,7401.76220703125
47,-10412.325,-11172.6045,-17696.633,-523.4654,349.06363,-1746.0013,7644.2265625
48,9285.148,9144.518,12148.245,-2097.2444,959.91364,-5935.602,11413.740234375
49,5238.066,5851.3516,221.9564,255.10077,4406.431,-1878.3794,9881.490234375
50,-2467.4712,-3441.704,862.49414,52.500137,-4570.893,683.9369,8909.1376953125
51,2608.0164,4177.187,-544.0441,-25.855768,1109.9303,-5628.29,10773.796875
52,3005.8816,7642.982,10610.928,-2552.371,-494.12766,-4163.926,10787.26953125
53,-7210.174,-9360.089,-7032.458,-1277.7102,322.6465,4641.326,8652.8291015625
54,4713.0693,3456.9854,10350.235,-2092.463,2790.982,4795.9946,12080.759765625
55,-11842.88,1799.2396,-4138.736,-2477.759,-9211.16,-1090.407,20417.6796875
56,1353.5693,-1654.3217,4401.5674,-3544.6887,-1404.7362,-407.28745,8462.724609375
57,-2528.222,-9089.068,-15331.902,2196.1338,871.1898,318.72498,11833.28515625
58,-1579.1466,-7204.192,-6485.691,-94.388985,2630.943,-2342.2573,8084.96142578125
59,1896.1631,-523.0281,-3747.5068,1189.2212,-961.8192,332.56628,5603.5888671875
60,621.9483,296.71292,4857.933,-829.4611,-235.13748,-1092.8224,5023.91357421875
61,2529.1033,297.29312,1614.5713,385.28647,-649.7121,1582.1765,3605.25244140625
62,1750.6552,724.7671,302.96478,1253.2349,-1131.4045,-936.01135,3583.77709960938
63,373.08142,374.62476,-685.7735,311.89368,656.89923,281.2056,1716.5146484375
64,-1940.7546,-1146.331,800.4092,-360.83453,554.0215,2657.3247,5335.07177734375
65,306.6009,-189.70053,-2179.5127,-654.76953,-801.37134,-239.0349,2928.71728515625
66,237.68124,-1433.6638,-1365.4353,-1161.6926,4698.74,-1247.0415,8810.9267578125
67,4959.639,4931.97,7021.4106,-280.87192,3975.2964,-1313.4318,7558.41455078125
68,-1668.9023,1166.9011,4871.8496,-1204.6439,1648.9342,383.57495,6725.08544921875
69,2918.4307,-679.21027,5780.7593,-2958.825,381.79422,1064.3184,7844.3056640625
70,4394.885,3386.304,1905.6777,651.1926,-1148.4625,19.878576,3151.67578125
71,-3322.4016,-3946.3389,-5268.017,-532.906,1732.5522,-718.88745,3790.56079101563
72,4658.34,438.36273,2079.7842,-252.17964,2545.0447,22.972986,5761.9296875
73,-720.2149,-1507.2155,-1973.7777,61.50558,605.45764,-54.757004,1524.57067871094
74,298.0306,-2306.0232,-105.425674,366.13208,-412.7385,-1171.1327,3304.71240234375
75,2018.436,2311.9395,3123.3704,2226.413,1929.2544,-2646.2776,6930.2158203125
76,-2179.48,-3558.9502,-4751.469,-54.319805,1974.68,53.165718,4084.78881835938
77,-10339.138,-9676.312,-17549.254,-1115.9926,-2714.6096,2242.3538,9906.1728515625
78,655.46704,85.97005,3595.0842,-111.711334,-1203.196,370.2897,3928.30810546875
79,-8547.061,-1788.3157,-10627.978,-955.4125,500.19604,1107.2534,8440.515625
80,501.94922,1943.4421,-2979.8767,-3838.36,1431.7819,-1528.3534,8750.80859375
81,-1682.7574,-10394.753,-365.96005,592.92786,505.908,675.1153,9607.0087890625
82,616.9941,10083.266,-3427.7522,348.39038,263.50278,-1493.9637,12309.6357421875
83,670.975,-254.6181,-1115.7557,-390.5531,-472.99976,-967.2664,2516.13549804688
84,-1076.649,402.7615,-1349.9692,65.14765,661.1693,527.922,2197.267578125
85,-399.99628,-767.473,-525.6625,469.1835,-1609.9371,1909.4645,4413.49169921875
86,-1268.9097,-1010.901,-6315.059,56.945404,813.2595,1129.2953,5714.1904296875
87,-2449.1406,-354.36435,-5807.841,-87.77264,43.365105,-1506.1284,5434.95166015625
88,-404.60315,-749.6689,-4602.7964,73.532,-212.91252,-878.8914,4331.8369140625
89,-4375.773,-3010.9075,1586.8608,-1169.6066,-3692.2134,-2172.9976,9404.5029296875
90,-8973.481,-1417.552,-7890.9243,-983.03784,-1878.3745,1718.8226,8510.6572265625
91,495.92474,741.4094,-1256.9312,-1488.7449,718.5106,584.72595,3575.84057617188
92,-1538.1863,-1881.87,-4021.7437,-408.9528,168.089,-937.10565,2941.70141601563
93,-342.78928,-74.21408,-5109.694,-1104.7186,456.36127,1859.3522,6223.61328125
94,1509.9846,2083.4243,1715.8044,-702.9012,734.1531,-2766.923,5130.29345703125
95,1516.0342,-398.82397,3013.5488,-476.92554,19.606764,-1264.116,3775.48071289063
96,455.40222,-906.7238,-1130.0972,-50.180176,207.15877,1510.5531,3031.69189453125
97,6440.6494,5971.001,10199.084,-1361.1053,-3639.92,380.30905,7864.49755859375
98,-852.4193,1560.2678,1634.4293,-1.2508097,3756.3984,920.0205,7132.76904296875
99,-1907.7943,-561.14276,-2103.7595,406.42178,-1032.7365,351.30777,2486.2001953125
100,-2797.417,-991.7887,-7105.3516,744.8708,-1610.648,-581.39685,6329.158203125
101,1988.3756,-1150.925,3095.9783,872.0808,-81.49176,214.47906,4122.9345703125
102,235.77118,237.92822,1102.4851,627.4294,293.52988,-1316.2155,2717.734375
103,1239.7299,1482.7678,3186.938,259.44055,-1396.1704,-403.07867,3148.75561523438
104,-758.49133,-1499.4084,-3610.1174,470.91516,-1186.7023,1909.6927,4732.73291015625
105,-838.57623,-1574.6442,2814.7102,598.47485,172.33383,-2251.3005,5739.8642578125
106,-1435.803,-2569.2307,-1495.7981,245.15422,804.3997,1069.2886,2602.28173828125
107,-891.73987,-3735.9507,-7001.109,-947.1481,781.11066,-113.23498,5709.4423828125
108,-5433.6816,-4563.1685,-8602.669,756.34143,3806.3406,1436.3984,8057.88330078125
109,-1092.77,-959.07635,-2641.0176,345.19974,1238.3696,670.8107,2988.32104492188
110,-1192.4991,-954.06134,5524.69,-577.75665,1318.4525,2282.1633,8088.07861328125
111,1614.5323,-5832.7124,-4361.127,1087.787,30.138594,1447.8828,7517.27490234375
112,-895.09,2007.5338,3920.6855,580.77637,656.11096,421.71884,4524.9775390625
113,-303.2614,-824.46954,-3155.6223,613.30225,-643.4986,753.37695,3315.77563476563
114,4629.9116,-332.871,-4088.69,-750.3831,-579.0727,368.81293,7776.75830078125
115,-157.50609,-54.302757,-1227.844,118.91683,-806.34674,-42.11129,1806.94921875
116,2793.9949,2142.1953,-166.16254,1782.1176,-630.0389,156.60004,4248.5517578125
117,2118.315,1510.9832,2374.7974,548.99445,-1491.9097,-845.57446,3212.0029296875
118,2412.0222,1488.5238,4820.9707,-446.6113,223.50253,-1810.3049,4411.39453125
119,23616.324,25086.277,47898.297,-4168.6494,-3427.8665,475.18134,25379.966796875
120,2989.7551,-1030.3403,2862.9084,-523.53156,1939.5559,137.95023,5275.63232421875
121,-1596.0305,-3853.6956,-3533.9946,273.78876,-846.92926,807.8392,2968.50854492188
122,271.95377,-1079.7952,-1255.5831,-6.061584,2128.9885,-2212.169,5511.32568359375
123,863.7367,770.0758,1267.1567,-5.3629513,2003.0151,-656.4642,3679.46142578125
124,657.2659,1045.9237,2582.5288,548.88727,564.5871,-235.41728,2266.22924804688
125,-4387.783,4840.8423,21609.887,-130932.336,-6941.606,-296400.9,561832.75
126,3023.2302,5661.0996,11005.681,1034.7731,-497.85278,633.04016,7401.3017578125
127,-4997.718,-15267.962,-2955.9487,844.48895,-3132.552,-2430.5193,13413.2998046875
128,1742.896,3323.8457,996.35834,-1567.6078,-1891.7279,-212.28207,4741.33251953125
129,3142.0217,1977.6019,671.16785,-285.4561,-2669.1165,4827.796,9804.2705078125
130,1578.4252,-464.86026,6870.217,-280.7137,-660.7928,385.22424,6706.880859375
131,-2471.8699,-3831.3362,-5541.3027,-256.24692,2446.8887,-68.17994,5026.8779296875
132,4375.5693,-1761.6199,4291.2007,-93.81759,289.72546,391.94836,6155.771484375
133,3468.6582,3697.3098,-1682.9524,1217.4115,-999.9438,-1817.072,6717.17822265625
134,-1701.7578,-1827.8314,-542.83154,703.4568,2766.312,1904.0549,6068.22802734375
135,-2737.458,-2338.4739,-7550.1406,143.2297,764.15076,53.058186,5202.21630859375
136,3688.8257,2989.2861,8429.202,-296.87296,100.21149,-3893.8623,8488.67578125
137,-10481.25,-7727.6904,-22158.436,6341.5493,-3194.2947,-3782.1301,19242.203125
138,15162.398,9494.902,25667.113,718.19,1665.3921,-310.3536,14565.779296875
139,3897.4795,3910.2505,6734.3857,369.48325,-731.6881,-870.77026,3507.47045898438
140,2736.9749,436.53955,3373.3372,-1009.4721,-603.044,-2666.7878,5713.5126953125
141,703.20374,277.19998,-1023.89667,-513.4985,-1805.7749,127.04104,3612.55224609375
142,-757.4627,-632.6163,-1509.8485,-16.67438,-1384.824,-813.47156,2900.83740234375
143,3282.3625,3918.6067,-1179.63,645.43427,2448.3162,205.38264,6520.134765625
144,1022.14014,1075.6919,-830.3032,1039.2576,1995.322,342.5737,4366.896484375
145,563.22626,853.6901,1325.0831,79.32455,165.16905,-341.3135,945.361083984375
146,5382.3257,4798.4956,3429.8794,1417.4075,-875.00165,-319.93622,3412.34545898438
147,-3111.9922,-3847.8096,-1178.7887,380.62836,247.0633,-348.22003,2585.09448242188
148,4233.5693,6229.5874,10257.457,905.26587,-783.9614,-802.7739,5872.23681640625
149,-1158.898,-3044.6309,-1757.073,386.26404,-274.00592,1070.3365,2625.92895507813
150,-2953.2754,-10236.023,-7983.6606,821.97003,-557.0852,883.4918,6856.2216796875
151,-3086.0996,-169.94385,-11251.584,904.10236,2978.5874,-2955.148,12420.0556640625
152,9493.512,25.456299,-2397.1436,-1540.3995,10214.661,-3157.0432,21644.572265625
153,-6523.7725,-7906.9004,-2004.0759,-1022.7956,5997.85,-2511.3096,12592.5771484375
154,-717.2285,1281.5955,6775.4653,815.7886,325.09958,-1219.4181,7206.505859375
155,4661.083,6789.287,10755.288,723.607,3550.4048,-1224.7037,8519.712890625
156,8963.603,5629.668,14145.5625,-672.7238,1575.2273,3808.1968,10370.7724609375
157,-5137.1167,-4853.357,-7347.657,-737.3491,-2216.302,787.8111,4880.90625
158,2571.2844,1189.2462,325.25452,1014.35864,-666.59076,389.06363,2953.72534179688
159,-3007.1294,-4748.396,-9149.151,-62.255947,1106.0388,604.1923,5902.396484375
160,-1782.2651,1237.0476,-7958.468,271.23972,173.95076,-362.855,8161.869140625
161,-1811.7722,-793.22156,-5052.908,-108.624794,591.7594,1317.8234,4597.77978515625
162,545.8412,-625.03625,-4524.8096,917.1721,711.24445,1524.6283,5670.98193359375
163,1292.8472,3941.4226,-2538.6033,1586.64,-958.05884,1005.1981,6721.609375
164,-1241.4722,3884.3838,13065.779,-717.217,-1149.8468,-189.16356,12777.0078125
165,-5483.9863,-7551.1606,8843.968,243.04791,2599.8135,1960.4741,16467.134765625
166,-643.72736,1674.827,-2527.1843,1232.0693,-1842.5663,4739.4946,9768.19140625
167,2914.9941,2061.8818,5982.361,39.74192,1573.7811,-1875.0997,5544.0458984375
168,-2734.7002,-3109.4856,-12100.805,283.38574,2385.4062,-751.0545,10166.5009765625
169,-2681.7131,-3208.4531,-4814.4272,-866.4499,1436.0078,-1674.219,4533.224609375
170,-2018.7542,19.788452,-2734.0027,-636.3939,478.67175,-1655.899,4031.5849609375
171,651.5199,2448.1392,-3487.8599,-1668.7527,-3900.542,-1803.747,9568.521484375
172,1438.9215,1702.2892,4190.7734,-489.4037,-539.63934,2315.356,4959.04248046875
173,171.61902,2096.3718,3348.3767,55.060715,909.0571,-298.35895,3230.67993164063
174,-97.55078,-149.69946,5310.4644,-302.8237,-1067.7638,-148.59497,5770.01513671875
175,-16.452637,640.13586,2182.9338,-130.4498,-1660.9381,-811.6663,3758.712890625
176,9280.348,10670.727,15555.218,284.7637,-1169.2327,1570.0594,6657.51806640625
177,-3972.881,-7687.8013,-5374.927,268.71863,2759.6384,-158.72006,5804.90234375
178,652.7931,2121.1099,2313.0945,-197.2568,636.32184,-113.78845,1960.86633300781
179,-5908.501,-1496.1003,-5554.716,-2555.938,-454.83276,1401.2295,6644.00537109375
180,-3620.7385,-2853.8643,-5381.891,84.003044,92.08351,-2358.44,4666.2255859375
181,-95.88965,685.8373,3127.1555,802.2817,-2213.961,523.65735,5092.94287109375
182,-4824.5605,-2759.9575,-2490.4119,221.25696,-997.7938,-677.7951,3066.52978515625
183,-789.67615,1055.1223,-3618.0977,-376.2249,472.74396,31.048544,4209.40673828125
184,-20918.197,-19671.928,-34176.59,-187.89662,446.354,-836.4502,14023.703125
185,-19344.225,-19627.004,-30127.549,25.69374,660.05524,319.86194,10720.3857421875
186,-27628.125,-24625.168,-36994.832,3376.4646,-893.0832,292.7025,12717.39453125
187,-4390.794,-4932.887,-5914.476,1384.5823,456.14676,1424.2659,3774.98461914063
188,234249.4,233650.08,234910.1,-75.31344,28.799662,964.8371,2000.9765625
189,-4343.3555,-7782.218,-10477.551,-675.6988,-3552.4766,1566.1156,8657.228515625
190,-13257.383,-14446.217,-25910.969,305.6065,2876.3645,1709.3285,13429.4287109375
191,-3404.3167,-3558.926,-5277.852,-456.37912,563.5239,1112.9963,2922.01611328125
192,-14947.886,-15172.874,-26163.473,-1018.53015,2217.3276,879.3923,11979.083984375
193,-15953.695,-16147.176,-26414.314,44.453167,966.61847,-521.38245,10538.623046875
194,-19481.787,-18812.998,-28873.145,93.65018,-17.217916,-179.33348,9749.328125
195,-4372.31,-6949.268,-9778.65,-369.30374,923.81366,2762.7432,6914.1171875
196,-11869.029,-12581.482,-23390.969,728.30597,2338.1946,-1193.1923,12137.451171875
197,-17961.832,-18194.344,-28187.07,-10.66963,-59.750244,-176.6836,10116.1640625
198,-16926.736,-16806.043,-27720.84,-368.2584,-1008.4782,-85.73377,11014.0810546875
199,-17829.047,-18492.205,-28706.1,11.567982,499.07297,-243.26665,10604.810546875
200,-3772.0847,-3980.572,-5333.0654,959.4593,-1343.7675,-2181.859,4961.35302734375
201,-16822.625,-16475.68,-28112.312,186.8039,631.00543,-99.32278,11524.890625
202,-19248.746,-19050.262,-30267.314,155.03911,-1356.0208,38.683083,11367.859375
203,-17614.768,-17359.64,-28223.467,162.62656,-212.61499,-378.0175,10768.4638671875
204,-17608.71,-18140.205,-29197.348,-205.61028,26.695541,-341.92215,11353.38671875
205,-17991.979,-18195.467,-28915.98,-13.267043,374.3822,-441.25372,10870.025390625
206,-17167.832,-18593.932,-29300.818,-163.11568,609.50226,-551.06055,11577.8056640625
207,-21321.002,-21688.723,-32222.59,138.57697,-299.246,182.47856,10742.3115234375
208,-14773.0,-14757.744,-27466.16,61.64865,433.94977,852.3605,12808.828125
209,-19440.861,-20338.959,-30810.021,57.04365,622.194,457.9937,11029.6953125
210,-19951.707,-19855.887,-31680.035,883.8871,804.0129,-563.1763,11996.71875
211,-19761.91,-20653.361,-31888.61,4.315571,317.57648,-476.02536,11748.34375
212,-19454.771,-19769.23,-30453.145,-34.871296,-380.27194,-27.152195,10864.81640625
213,-20641.049,-21661.61,-32629.34,346.12283,-264.3481,-536.09375,11573.984375
214,-15296.172,-15296.601,-29588.32,-523.093,-3512.5872,-1181.7212,15693.453125
215,-19905.287,-19480.346,-30989.832,134.4655,-66.035034,-77.41474,11306.78125
216,-20517.178,-20230.398,-32262.605,-76.152504,274.28772,1303.74,12113.9580078125
217,-20190.617,-19842.666,-30627.121,5.017288,-141.48965,277.74054,10628.4814453125
218,-18531.86,-18021.273,-31671.32,364.59637,-392.971,-2182.0244,13955.669921875
219,-19384.719,-18986.133,-30499.764,-257.3548,-26.265322,-1245.2775,11531.96875
220,-18691.031,-18859.271,-30222.129,-158.56604,187.88692,-321.90802,11469.3818359375
221,-21003.885,-20842.3,-32063.3,198.49316,-46.634235,394.4457,11167.6005859375
222,-20957.748,-20693.084,-32011.396,292.94296,-255.98735,-385.9672,11228.51953125
223,-18341.955,-17600.37,-29155.12,194.35448,292.77487,-467.02213,11248.029296875
224,-20336.15,-20832.482,-33277.56,263.01303,288.43506,-1227.3522,12894.9384765625
225,-22055.203,-22493.258,-33364.285,174.13335,649.5345,-272.95163,11167.515625
226,-23288.168,-20564.455,-33534.55,954.04614,581.6145,55.978584,12002.9169921875
227,-19153.428,-18271.54,-31926.035,-149.08359,-332.9416,328.81906,13262.9130859375
228,-19297.66,-19413.342,-31211.412,417.88202,-489.23682,-271.39957,11917.8671875
229,-17876.691,-17911.828,-30090.861,-69.329704,-57.51438,-145.41783,12200.2373046875
230,-19846.766,-17654.443,-31084.953,-615.4401,369.65472,-957.3393,12650.556640625
231,-2206.1262,-720.3958,-1857.1316,-1489.0491,1594.7738,-3024.5244,6598.154296875
232,-6642.387,-7139.703,-8861.123,-268.19373,-458.79822,-445.4471,2347.17700195313
233,-15395.009,-15064.796,-21786.754,-6.5032945,-1379.8533,115.816574,6987.591796875
234,-10561.197,-10599.589,-15394.903,-86.56249,-1059.7483,-271.1575,5176.18310546875
235,-3677.1482,-4123.081,-5821.6616,953.7755,-858.7904,1160.4463,3580.92431640625
236,-1595.3663,-3857.843,-4801.447,-23.68291,-1562.6808,246.34555,3956.47900390625
237,-2695.0674,-3257.6633,-3697.2913,26.955141,502.22156,706.33636,1735.71655273438
238,1492.1442,-615.7899,1655.5568,-90.82011,-2603.6626,588.4274,5120.07958984375
239,6137.963,1425.1416,4071.5706,938.1597,-3944.9954,371.90588,8153.92333984375
240,-6242.7734,-6288.2163,-4668.9854,-84.34104,-76.89954,803.38434,2127.38134765625
241,-4163.769,-4842.411,-2427.834,105.54187,-357.13495,1483.8652,3416.68359375
242,-694.3254,-228.89624,2670.0579,699.07324,-1909.7377,916.4392,4989.669921875
243,-1108.1067,-1159.3114,2125.5107,86.2852,-1566.4257,256.58524,4266.77783203125
244,1840.18,1793.8842,7028.288,389.43747,-881.36285,-0.4255723,5472.1279296875
245,2151.2122,1317.0889,4064.0762,752.07465,-1081.604,933.6861,3711.08276367188
246,2091.5754,806.63513,4818.589,331.49527,-292.7149,-526.4934,3742.99658203125
247,1492.2999,-112.56091,3104.7346,309.90414,-1077.4346,1057.3604,3858.498046875
248,304.83093,-313.13184,4298.526,-788.60474,641.3564,540.79694,4772.4755859375
249,2922.0747,1587.8096,3960.67,-471.9454,-1494.4287,360.57898,3464.52099609375
250,2506.1855,3353.9272,8879.408,339.1748,314.88272,608.33435,6138.93896484375
251,4971.789,3546.5188,11529.02,-276.1304,-223.6024,354.17526,7424.927734375
252,-5709.2007,-6127.7466,-4626.293,-3403.498,-1170.654,1628.3447,6972.68408203125
253,-2836.1548,-2930.7273,1148.0736,-14.951209,-725.65283,582.69507,4342.67236328125
254,-879165.7,-882978.1,-909866.6,-2642.525,1843.0829,14942.024,39255.17578125
255,1659393.1,1662022.5,1638236.2,7035.274,-9325.045,-7113.0723,32730.6953125
256,-3098.2185,-2618.4502,-4018.0623,-1641.1803,-183.2072,20833.03,36218.0078125
257,-4747.0645,-10505.12,-4008.348,-1397.9005,1263.6046,914.00336,7149.34619140625
258,-1515.6414,1019.58276,-3835.5002,251.86287,62.67248,11496.694,20357.171875
259,-4384.234,-3081.9548,-1091.4899,-2636.5586,-1985.2283,-1362.0662,6818.60791015625
260,-9980.301,-8695.379,-16023.486,318.0408,39.770267,2693.816,8247.076171875
261,4798.591,8209.688,5442.9688,938.3443,859.13916,3334.1511,6932.4091796875
262,-1153.3116,-788.1383,4431.8765,69.59315,1563.8552,-2904.4363,7870.63037109375
263,-9221.421,-4948.1943,-4726.201,-1101.2128,-2430.9153,-1135.3451,6670.19140625
264,1113.449,3168.325,494.36157,-713.8696,-206.14195,2926.9412,5764.998046875
265,8486.046,2999.8372,403.86914,1286.0884,4707.348,2675.021,11999.42578125
266,-16775.574,-15404.789,-28086.861,-524.97296,416.27194,889.65533,12208.6328125
267,-6405.0205,-3199.043,-8192.28,578.1006,-1760.9441,4084.248,8919.1435546875
268,-10968.019,-4465.3193,-3192.1436,1301.7633,617.00183,-1454.7915,8047.37548828125
269,3111.7188,1640.48,13474.048,-2263.9705,4385.0547,-6442.872,17955.01171875
270,-5032.9697,-3351.2642,-14280.552,-653.54944,-823.54535,1216.8857,10566.7451171875
271,-2970.496,-1129.3875,-1720.1437,1266.9592,4242.709,2402.855,8876.3427734375
272,-4758.749,-11015.024,-18353.342,4132.7534,-5311.2715,812.85065,16635.876953125
273,-438.41357,-1865.6605,-6832.0874,-224.93352,-342.55637,-3078.978,7920.53564453125
274,3771.7512,472.34033,1649.4634,-151.6729,-1545.3602,-177.11264,3964.27221679688
275,-19816.947,-19485.33,-31228.586,95.20797,-594.3721,453.94598,11654.3974609375
276,-1547.2148,-2982.0837,-12328.457,1812.4458,1391.9391,2419.4453,11664.1708984375
277,-16359.324,-15901.096,-28907.938,826.61664,-2070.2712,2271.3877,13921.6865234375
278,-18599.857,-19841.824,-33079.105,243.94482,409.80023,970.3506,14025.5283203125
279,-17870.48,-18207.262,-28820.816,-21.988098,-722.13165,-209.69554,10864.30859375
280,-11988.268,-11972.005,-15326.801,13.6441965,-907.1942,40.48698,3697.95092773438
281,-3352.8398,-2449.1824,1712.852,33.45092,720.0212,1012.1869,5150.96044921875
282,-21036.021,-21236.506,-32694.844,49.358788,10.996614,785.2766,11639.9560546875
283,-21013.61,-21460.771,-33023.246,184.4707,160.06035,-538.6049,11836.8203125
284,-15985.964,-16745.807,-26070.848,98.52521,37.219547,107.75053,9730.74609375
285,-13117.035,-11744.79,-22029.004,-195.87039,736.7134,139.2675,9764.076171875
286,-15337.033,-15906.988,-27216.17,459.19162,439.99078,346.70242,11672.2802734375
287,-16277.457,-15973.367,-27471.164,-8.930513,898.92114,-16.547686,11455.1591796875
288,-3071.5752,-3438.9226,-3315.1682,-498.8556,-536.2011,3166.1301,5638.0
289,-18340.389,-17752.662,-29177.613,-45.277885,1445.799,263.36667,11430.0234375
290,-17630.967,-18034.533,-28847.521,481.0502,755.90765,385.03815,11149.0146484375
291,-19052.857,-19022.201,-29553.693,86.841064,-550.47595,-177.04085,10564.853515625
292,-3116.6558,-3139.9622,-1545.0939,-51.71669,-1212.9648,457.15155,2748.7841796875
293,222.33466,-330.24,3008.7732,388.07788,-1244.4446,1262.0833,4414.24951171875
294,-1234.8998,-383.15488,1432.8091,988.8656,-1901.6792,211.16106,4414.34228515625
295,-2427.943,-2668.3755,-696.3822,92.6312,657.0804,1351.0852,3204.642578125
296,-15007.664,-14258.189,-28082.203,652.61426,-328.10745,-1659.0496,13826.146484375
297,-20111.275,-20006.332,-30622.78,58.42966,58.6828,322.9333,10580.1357421875
298,-18862.814,-18240.732,-30018.494,15.890423,-159.67587,-887.7275,11585.220703125
299,-18071.578,-17733.145,-29565.941,-93.91546,-500.23898,91.57718,11701.595703125
300,-21010.861,-21263.266,-32405.373,-7.4341683,130.94096,202.54088,11278.1767578125
301,-582.7477,-2333.4136,4530.98,-1819.6869,-3657.0542,-4115.881,11791.7265625
302,4048.6562,9746.522,10847.225,-1742.367,767.9522,3268.9348,9104.0361328125
303,-590.23627,85.996765,-1423.215,572.333,-4918.6294,-3606.7917,10691.2451171875
304,-6452.1777,-4017.8914,-3772.422,4189.24,-3698.0244,-3036.6902,11310.3212890625
305,2522.9973,2434.8877,3975.243,1842.4336,-3822.0635,-310.84326,7519.49462890625
306,31123.646,29802.736,31944.035,-34.944195,407.00854,-1.1146321,2000.53381347656
307,-11812.409,-14378.957,-27865.32,1427.7156,-471.70895,-2160.2825,15616.19921875
308,15587.77,15489.518,24930.557,-989.63873,-197.27281,-921.8451,9686.0498046875
309,-43444.797,-41063.28,-65943.3,-1207.5747,1020.54224,5400.4355,25698.79296875
310,-1951.4775,1100.9604,10962.898,1716.638,645.8135,-20.800358,12114.9169921875
311,-8620.896,-16761.906,-48295.086,5546.945,-575.35815,-6481.6333,39200.29296875
312,-17021.904,-16424.037,-25990.049,373.37296,550.2101,-303.53586,9367.4775390625
313,6459.5728,4641.8765,7911.6587,-101.16394,-3028.682,4606.66,9963.203125
314,-13209.895,-14379.357,-24565.463,447.0896,-934.59515,-19.41836,10966.21484375
315,-17201.6,-16441.17,-27818.477,300.79092,-783.78204,141.09465,11115.0263671875
316,-15933.892,-16675.58,-26754.773,416.62903,154.35324,40.935978,10498.2431640625
317,-8168.9795,-9056.356,-14304.299,204.09149,-1731.1857,-1129.2996,6776.9580078125
318,-18042.666,-18304.756,-28859.553,-4.186661,636.2222,-493.72394,10778.88671875
319,-8794.671,-11342.033,-18263.816,1452.6193,-2791.0352,645.76666,10148.07421875
320,-8419.589,-9570.424,-17376.363,-872.861,-1526.7329,2572.199,10018.357421875
321,-19053.742,-18804.0,-30206.24,-94.08576,785.0422,-194.50496,11367.2666015625
322,-22184.152,-21346.797,-32846.42,-230.50194,1036.6388,158.68661,11259.310546875
323,-25146.768,-21609.541,-38011.906,-1160.9929,-1685.7018,-1535.6283,15594.025390625
324,-16801.533,-17212.043,-30433.73,164.24188,-494.1462,-553.9697,13496.046875
325,-19352.045,-19156.133,-30645.451,328.19824,-106.995926,108.54183,11409.853515625
326,-18196.607,-17999.996,-27990.191,93.45887,-1618.2532,-465.9887,10315.6357421875
327,-328.62372,-891.5354,-1968.9985,-727.4489,-1429.4644,-373.34897,3196.89404296875
328,-6362.4106,-5722.2534,-5008.52,-375.26016,-842.4712,730.82306,2351.62890625
329,-6960.271,-5967.5005,-6117.9507,157.41017,676.0992,664.6333,1905.18823242188
330,1705.5463,985.5066,3378.133,793.77386,-2096.7542,409.65005,4483.65234375
331,-95.87625,-1083.9651,2113.5535,394.34036,2090.5042,1528.959,5350.82177734375
332,1432.0222,1218.6797,7068.917,-238.1953,-889.06714,698.61554,6085.09716796875
333,3782.4668,3433.1118,8275.99,-44.751167,-530.2976,-691.28516,4915.98583984375
334,-1465.7739,-2304.9233,-169.23254,339.39996,-916.848,134.47568,2528.80249023438
335,4580.8877,4725.8438,14049.696,649.50696,587.8574,-154.87888,9522.66015625
336,-4730.492,-6553.7876,-14815.518,900.75574,-741.88074,1384.9641,9822.6162109375
337,1314.7397,1141.7007,-2610.0496,589.6748,768.4405,2555.1868,6095.60205078125
338,-3325.2666,-3070.0984,-6894.913,840.05676,-1449.9995,2420.409,6302.22705078125
339,-18445.15,-17032.58,-30146.965,540.6261,702.69,-518.4263,12594.5185546875
340,-15029.909,-18281.36,-29857.564,-1680.6074,618.42426,388.83923,13867.0166015625
341,-3347.9907,3398.4346,-16169.938,-1328.7307,1552.3413,-1797.857,17850.53515625
342,-19401.547,-19706.51,-31045.002,49.261173,90.11551,192.36925,11500.2119140625
343,-18957.246,-18649.98,-30664.203,35.02325,12.810986,482.94733,11893.203125
344,-19902.824,-20158.389,-30801.834,-142.01701,158.54532,298.8995,10792.2314453125
345,-9670.924,-9646.16,-13941.202,54.093285,-985.2431,253.65782,4632.01416015625
346,-18734.19,-18438.412,-29494.283,-56.845375,-404.64606,1642.6671,11298.0380859375
347,-20103.758,-19760.297,-31484.637,97.43263,287.59473,-711.6943,11633.890625
348,-18100.648,-18326.404,-29232.244,-35.699986,74.282974,-328.1779,11036.0244140625
349,-16183.818,-18132.086,-25532.84,1965.123,916.87335,-868.2475,9452.7353515625
350,-18991.484,-19063.492,-30305.951,207.56813,-58.54973,98.689125,11286.11328125
351,-19654.998,-17984.906,-30836.398,35.498844,-309.8046,531.45056,12150.1416015625
352,-19066.383,-19542.916,-30707.639,-63.950024,-588.8139,-29.308054,11456.5888671875
353,-22363.514,-22826.521,-34709.285,-57.396698,853.5943,416.0513,12232.3876953125
354,-21999.893,-20976.037,-34421.316,-19.109426,-611.983,372.23895,13022.9853515625
355,-3482.867,1452.1416,1704.7867,4807.201,-929.47955,-251.20255,9888.0537109375
356,-6991.8867,-6235.3486,-11703.133,-143.43286,-748.8752,2221.831,6548.7548828125
357,-10043.902,-9508.471,-18829.332,1017.04974,-346.93332,954.7086,9400.6982421875
358,-4522.665,-4033.042,-8874.916,667.0187,-340.22113,166.93721,4803.99609375
359,-16738.328,-16898.9,-26990.676,219.93263,-171.7055,1021.60223,10337.056640625
360,-19836.758,-19882.248,-29299.84,7.8561172,-31.249931,-73.493706,9441.4423828125
361,-6633.07,-6607.0938,-10759.418,84.25461,39.144024,-170.19717,4152.99951171875
362,-18698.684,-18781.506,-27848.09,20.337742,-40.101444,-46.455395,9108.9658203125
363,-16.909538,-19.116158,180.20114,-82.43372,-11.515981,478.28372,863.911010742188
364,-56672.086,-57469.56,-82413.26,-284.0371,1086.875,-5727.4287,27293.08203125
365,-20708.793,-20648.666,-30598.387,-33.742317,-53.35439,-34.543694,9920.5771484375
366,-27503.2,-27452.818,-40350.06,34.46999,44.875004,-36.249466,12872.650390625
367,-20111.469,-20189.986,-30612.893,50.307964,49.53377,-75.84371,10463.92578125
368,-19559.564,-19645.611,-29092.254,9.061487,42.642025,-50.73535,9490.6650390625
369,-18099.002,-18083.945,-27391.387,-16.095991,66.36226,-90.58257,9301.9970703125
370,-18527.33,-18549.395,-27625.627,9.379036,61.082912,-66.07101,9088.6357421875
371,-19515.373,-19513.28,-29328.139,-23.062458,42.115112,54.553036,9814.6201171875
372,-21471.684,-21478.38,-31812.023,-36.150505,9.574747,-28.757193,10337.3154296875
373,1561.9656,1684.7944,3537.686,21.882122,138.28618,24.640373,1933.00537109375
374,256.7798,171.09383,235.67966,42.78524,-82.10837,-97.26059,245.102569580078
375,462.67334,639.48303,839.2209,-64.46696,-50.928467,-272.7663,591.545349121094
376,-31049.852,-31062.137,-45034.133,2.2261245,29.787193,-18.02857,13978.2734375
377,-26281.844,-26276.523,-38727.67,8.733712,-19.705353,168.94548,12451.984375
378,-19669.254,-19672.436,-29403.738,9.522182,8.9683075,-9.751888,9732.9345703125
379,-9904.709,-9904.902,-15435.31,76.69324,-186.84254,252.95712,5558.849609375
380,-18091.617,-18117.1,-27406.355,81.9324,-170.81125,-122.8237,9310.240234375
381,-11307.085,-11155.521,-15675.94,91.9592,-391.6432,426.3384,4561.013671875
382,-15964.147,-16059.801,-23880.057,-6.6025534,-113.260635,-2.2918365,7870.97265625
383,-19540.117,-19575.965,-29217.85,-6.030208,-11.920505,-7.0898843,9659.8935546875
384,-18994.086,-19005.71,-29230.873,-53.247528,103.02247,220.27663,10240.0615234375
385,-18715.672,-18723.355,-27941.209,28.559158,33.031864,33.1557,9222.1865234375
386,29.733612,-31.939379,-167.11234,4.2233396,272.5603,56.214527,512.652770996094
387,-19041.629,-19021.86,-28087.42,29.750721,39.182777,95.66826,9057.6083984375
388,-20454.863,-20420.92,-30206.129,-57.04445,-41.27201,-50.41892,9769.4326171875
389,-20255.693,-20267.56,-30182.607,-1.1416334,56.37282,-79.316765,9922.4169921875
390,-19540.754,-19597.402,-29522.932,19.658125,-50.72967,-77.88778,9955.333984375
391,-20200.637,-20214.281,-30137.1,-0.6646703,-48.268013,22.211845,9930.07421875
392,669.6875,585.1664,1414.9424,180.32063,46.90055,247.45474,955.712036132813
393,-19714.656,-19641.23,-29416.35,26.24084,-27.090229,-58.42592,9739.3583984375
394,-20583.996,-20625.81,-30311.914,19.742085,-22.463444,21.085203,9707.28515625
395,-19043.545,-19135.803,-28432.098,4.8351374,-23.367966,-21.716597,9342.9326171875
396,-20441.385,-20439.037,-30477.28,14.318564,-9.2678175,-58.99749,10037.6328125
397,-20291.238,-20371.104,-30554.906,12.702317,119.86072,68.76135,10226.7939453125
398,-20684.059,-20623.266,-30584.482,-59.294537,-7.2825446,35.45201,9931.6884765625
399,-9308.0205,-9103.797,-11965.908,-32.54293,-571.49896,1.4892325,2938.00854492188
400,-17069.547,-17028.82,-26243.627,56.970406,0.67544204,-35.08408,9195.2412109375
401,-12482.591,-12617.105,-17144.084,13.484101,-307.5718,239.23659,4645.064453125
402,-32862.168,-32869.72,-47717.09,13.546701,16.110563,12.512796,14851.2080078125
403,-29392.484,-29392.11,-42851.633,-1.7326165,-73.1423,71.18522,13460.4970703125
404,-29832.477,-29815.23,-43416.35,13.546018,-2.9252546,134.75313,13594.53125
405,-20200.977,-20156.754,-29906.188,19.543549,-63.121082,-42.598896,9728.3505859375
406,-17719.293,-17819.777,-26697.014,-45.60415,-61.814934,-135.9557,8931.998046875
407,-19459.068,-19525.635,-28951.057,-14.621544,-40.81152,33.50873,9459.3564453125
408,-20665.768,-20651.45,-30471.357,83.205536,-43.63221,44.78708,9814.412109375
409,-21114.33,-21039.318,-30975.0,39.092358,-129.21614,14.468243,9901.181640625
410,-20584.941,-20590.242,-30420.637,-18.187445,-31.521833,-10.1503,9833.263671875
411,-20470.115,-20563.2,-30719.705,14.042773,27.22354,-39.020123,10203.728515625
412,-17629.121,-17636.941,-26685.703,0.9886207,-60.684834,-22.316713,9053.3671875
413,-12245.824,-12223.118,-18366.412,105.928986,-341.8388,-205.3663,6173.478515625
414,-18237.324,-18191.633,-27136.172,-102.342964,-50.975254,117.92694,8926.31640625
415,-62833.625,-58795.953,-79039.91,1590.5266,-474.32922,-18267.139,36792.81640625
416,-18857.871,-18797.127,-28354.78,-42.567253,-59.887466,1.2003404,9528.275390625
417,-19392.016,-19332.924,-28756.7,-2.3896809,-24.113495,-21.034237,9394.533203125
418,-19047.27,-18995.21,-28184.285,50.002026,-118.4365,-133.64125,9168.783203125
419,-20006.293,-20079.68,-29592.168,43.59043,-10.2117815,-77.37311,9550.6484375
420,-86404.83,-88852.28,-103170.62,1414.3094,-576.487,-19200.396,36864.77734375
421,-20125.52,-20055.496,-29855.434,-18.167553,11.344882,-40.230312,9765.43359375
422,-28454.54,-28475.072,-41368.547,10.355268,4.874132,86.66137,12904.6416015625
423,-117045.516,-119346.69,-139008.25,-1090.8959,-795.7588,-17601.5,37040.859375
424,-19740.125,-19763.324,-29461.967,14.686274,-110.80044,70.60165,9712.962890625
425,-23557.143,-23570.969,-34816.508,21.960482,-90.4419,87.15536,11254.6259765625
426,-31975.133,-32009.223,-46477.0,-0.14309402,42.90453,2.9284725,14485.04296875
427,-20248.275,-20289.896,-30867.244,82.041565,100.97547,-10.6209345,10600.630859375
428,-19558.467,-19514.928,-29234.057,51.983673,-48.777702,7.189101,9698.2265625
429,-19857.209,-19808.879,-29509.848,0.8056767,-43.25145,-11.522894,9677.205078125
430,-19908.049,-19914.395,-29656.188,21.45627,29.109537,74.38456,9746.0205078125
431,-20132.482,-20186.826,-30017.244,-20.567327,-91.46645,49.67161,9859.4150390625
432,-21648.408,-21604.695,-31863.064,16.69661,-62.99608,-50.290474,10237.5751953125
433,-24867.504,-24871.115,-36238.918,-20.276274,38.41102,17.865725,11369.8994140625
434,-20158.527,-20164.035,-29790.893,-9.2037735,4.017402,31.103714,9629.779296875
435,-19385.729,-19467.355,-29193.914,-4.2332025,31.589428,18.926552,9767.8388671875
436,-18396.729,-18519.807,-27993.516,-43.85727,-69.91171,-81.35895,9537.9560546875
437,-17557.227,-17536.434,-26232.879,-18.107122,52.291763,-48.71435,8687.005859375
438,-19976.787,-19908.266,-30665.566,-13.905923,-52.737083,-42.460068,10723.8720703125
439,-17226.334,-17200.531,-26358.355,17.668406,-112.207985,-78.46733,9148.076171875
440,-19281.082,-19301.521,-28628.588,-28.33763,-48.486874,21.707087,9337.8857421875
441,-18046.14,-17857.354,-26684.771,13.821338,61.79269,15.230068,8735.283203125
442,3227.2546,3331.2263,5512.1177,-15.649923,-462.49927,89.022415,2379.09130859375
443,-18925.242,-18911.752,-28270.92,54.57397,-115.92406,-136.23262,9358.0380859375
444,-17958.244,-17943.527,-26562.586,-2.7347927,-108.96312,72.45164,8614.6923828125
445,-21083.08,-21091.68,-31328.725,14.510456,-3.5136096,-166.45447,10245.4375
446,-20005.951,-20057.297,-29797.477,32.32463,-81.10448,67.93069,9767.8330078125
447,-20471.791,-20462.057,-30421.428,14.042818,8.884657,52.190945,9954.9599609375
448,-26453.533,-26453.844,-38581.746,18.084143,6.7183747,32.69921,12128.2353515625
449,-18533.447,-18522.502,-27652.3,-3.5585966,102.645805,-20.781641,9126.1357421875
450,-23873.535,-23884.36,-35220.984,-19.02456,-96.724236,19.38756,11343.3759765625
451,-23872.89,-23827.865,-35802.145,-24.230797,-18.664124,30.293638,11952.0625
452,-20350.936,-20269.217,-30029.998,-73.17271,66.69713,-97.51243,9723.1591796875
453,-25730.152,-25717.666,-37742.08,43.102444,-9.76337,-67.227554,12018.9814453125
454,-19967.77,-20022.504,-30191.312,26.384052,60.445496,-33.35163,10197.08984375
455,-19555.941,-19627.297,-29510.725,-0.07939056,-6.1066732,-17.782658,9919.3515625
456,-19389.602,-19315.316,-29176.145,46.202724,-71.45636,131.95436,9827.6591796875
457,-22981.053,-22961.146,-33925.73,-14.090373,-32.391205,-78.63275,10955.662109375
458,-30069.404,-30084.889,-43792.098,-6.69782,41.018906,32.919815,13715.265625
459,-17048.572,-16983.23,-25726.33,29.67117,22.336575,-26.591543,8710.9716796875
460,-19783.611,-19692.861,-29314.277,52.81671,-57.73527,10.086964,9577.337890625
461,-20047.941,-19996.588,-29679.193,-9.418115,27.556885,42.24462,9657.4404296875
462,-17642.709,-17532.562,-26106.705,-13.030468,-0.8087157,-21.363304,8519.7138671875
463,-21245.736,-21270.982,-31741.521,-18.594812,12.756972,21.263521,10483.3232421875
464,-21298.78,-21195.63,-31329.332,20.787802,-113.638725,28.303772,10084.6279296875
465,-17278.451,-17274.94,-25955.422,-14.755247,56.594894,1.9477985,8679.3193359375
466,-20077.385,-20082.906,-29669.373,4.9261727,11.308621,73.706245,9590.1025390625
467,-19631.1,-19668.19,-29075.29,-27.958282,-73.386566,7.931186,9426.6904296875
468,-23133.719,-23086.758,-34223.44,2.1850455,7.474856,-17.042866,11113.3251953125
469,-25595.805,-25604.092,-37517.87,-18.87825,-3.4055767,-111.081085,11919.5244140625
470,-19360.043,-19400.705,-28719.271,3.5110404,-98.67696,-30.512918,9340.6787109375
471,-19837.477,-19856.576,-29511.367,-10.7483835,35.525074,-68.07687,9665.2880859375
472,-19431.002,-19437.078,-28766.746,43.76716,-15.3652115,-20.97147,9333.1240234375
473,-19569.84,-19477.188,-29044.387,-69.66036,37.59835,-15.486582,9522.236328125
474,-26569.598,-26567.309,-38967.707,-15.392562,37.98588,-49.376034,12399.751953125
475,-6683.5156,-6795.3438,-10688.636,-105.44682,20.412123,-24.640198,3955.00146484375
476,-22011.057,-22062.867,-32555.887,46.395126,-24.53237,-43.491966,10519.6826171875
477,-19937.309,-19910.96,-29607.434,45.94218,29.529654,20.096886,9683.849609375
478,-18906.555,-18854.215,-28179.543,-10.122407,-51.691517,-1.4069065,9299.7158203125
479,-20068.465,-20086.932,-29845.334,-36.117676,-80.08089,-15.5487795,9768.87109375
480,-1302.3779,-1150.0106,-2998.1348,13.89921,456.59167,-138.15012,1959.70629882813
481,1367.5598,1381.8687,2100.453,-28.1403,-130.26678,-628.17847,1328.14111328125
482,-26432.475,-26462.277,-38766.914,25.70749,-28.279919,78.54783,12320.494140625
483,-22038.295,-22103.84,-32738.686,-13.005873,16.817362,15.295897,10667.865234375
484,-17617.184,-17526.186,-26067.516,12.384415,15.130555,36.55561,8496.5
485,-17034.713,-16894.553,-25604.61,-2.958619,162.4704,43.38232,8645.73828125
486,-19406.654,-19463.924,-28918.213,33.864616,-29.545004,53.44462,9483.82421875
487,-19442.668,-19464.998,-29052.41,-16.973204,18.504372,-15.197999,9598.7314453125
488,-19068.559,-19086.166,-28530.28,-14.109357,-51.182228,-17.310127,9453.423828125
489,-19570.582,-19584.666,-29214.682,16.699648,-3.7177162,42.524586,9637.392578125
490,-19711.754,-19697.945,-29385.299,7.312298,157.90718,-34.4871,9684.51171875
491,-30694.014,-30662.475,-44913.105,1.3274417,-32.61701,-20.720888,14235.044921875
492,-37345.06,-37378.996,-54294.15,-10.933362,-50.10253,76.75386,16932.900390625
493,-26119.748,-26130.666,-38249.92,-23.569357,10.081651,-22.420147,12124.8623046875
494,-21007.088,-21027.225,-31116.207,5.5095406,-18.947966,-53.06189,10099.5419921875
495,-18009.79,-18017.928,-26991.434,2.3473396,-72.949165,32.31327,8978.642578125
496,-17787.557,-17702.143,-26234.713,-4.955613,-0.7093284,18.091413,8490.248046875
497,-21337.227,-21304.469,-31655.94,22.107056,-0.3427295,132.86343,10337.763671875
498,-18856.498,-18776.764,-28105.166,-18.571907,-21.645523,61.657692,9289.537109375
499,-5588.2954,-5633.0977,-9159.093,-53.725216,-115.22244,-107.1911,3560.27783203125
500,-20970.746,-20892.064,-30904.629,-7.798227,-85.94813,-36.680393,9974.779296875
501,-3866.887,-3905.4036,-6056.062,172.69041,71.39014,228.41171,2229.556640625
502,-19511.365,-19608.635,-29925.146,-63.911392,71.55064,55.57573,10367.267578125
503,-23259.48,-23176.842,-34409.637,19.045708,-40.885124,94.61429,11193.1767578125
504,-26697.494,-26670.57,-39603.31,24.844498,-57.974487,118.10968,12921.37890625
505,-27744.928,-27724.838,-40634.996,3.0607066,33.277267,11.600859,12900.2705078125
506,-22365.309,-22301.26,-32855.92,-11.611719,25.180067,-61.318474,10523.4296875
507,-17221.887,-17063.816,-25745.81,67.85222,20.761774,56.902794,8605.490234375
508,-17620.254,-17443.615,-26412.035,42.017063,32.025204,-98.05477,8883.5126953125
509,2993.233,2880.9421,4858.315,-83.072945,-17.619995,96.858635,1936.58227539063
510,1077.5206,973.4107,518.0818,41.956165,-166.17215,83.3099,611.971984863281
511,-21262.455,-21239.06,-31322.412,24.942575,11.672404,-5.744328,10071.79296875
512,-19753.006,-19760.613,-30086.848,-42.175766,-63.481136,-119.980576,10332.9736328125
513,-3009.3213,-2832.0764,-5101.33,20.892591,-457.4889,-2.8302214,2325.4970703125
514,-17712.629,-17767.77,-27077.488,54.927013,-14.629816,-86.79436,9339.140625
515,-5485.2393,-5578.782,-9082.198,135.35367,271.4435,5.612473,3589.77661132813
516,-17755.883,-17752.172,-26420.73,32.830463,-9.346664,-10.201872,8666.923828125
517,-28088.773,-28067.578,-41709.426,28.154736,84.322235,93.62034,13633.0966796875
518,-20525.72,-20546.516,-30660.963,-13.395995,-104.25818,-4.3827257,10126.5
519,-25799.438,-25851.209,-38529.133,-66.355034,-80.56903,-88.84902,12706.107421875
520,-21247.781,-21229.18,-31348.627,-8.289104,-18.262997,17.176683,10110.2626953125
521,-21555.121,-21565.787,-31817.752,-0.90200543,-17.377113,13.06256,10257.37109375
522,-21649.102,-21608.408,-32156.523,-3.7774653,-127.394035,57.50717,10530.61328125
523,911.5669,985.1728,1065.6198,16.612349,-147.56541,111.58467,348.308624267578
524,1500.8304,1653.4666,2329.1768,73.80519,72.2648,55.799847,790.170166015625
525,-21621.695,-21625.348,-32070.65,-25.518066,48.817513,5.5671563,10447.5693359375
526,-19541.248,-19580.22,-29066.459,-8.966475,-121.85217,270.40436,9519.66796875
527,-20654.385,-20645.031,-30848.676,-12.12224,146.77585,-149.59892,10205.4501953125
528,-17077.744,-17137.59,-25845.389,-19.496595,-193.60104,-29.498009,8744.521484375
529,-19548.586,-19569.484,-28956.451,1.9699862,30.315258,6.565455,9397.587890625
530,-28499.28,-28531.65,-41661.023,-12.41798,-106.18252,-26.679869,13146.9736328125
531,-23365.822,-23363.807,-34265.83,-4.4336367,-58.953865,-20.75022,10901.5537109375
532,-18676.012,-18668.256,-27824.145,36.780468,-93.09488,-31.579943,9153.818359375
533,-16928.572,-16964.945,-25458.615,-21.401697,-64.77824,7.5025463,8512.744140625
534,-19674.172,-19681.955,-29343.297,6.096885,22.348623,7.4743643,9665.328125
535,-4265.814,-4300.168,-7485.901,17.627792,61.13163,184.14427,3220.7744140625
536,-1156.6534,-1314.9949,-1233.4489,-19.75323,-329.27145,-16.577934,588.271850585938
537,-32011.63,-31898.19,-46678.934,-37.413116,3.0815933,6.6867137,14724.5
538,-22093.617,-21929.41,-33092.457,62.116783,40.44715,101.755,11084.0009765625
539,-3117.5625,-2996.4255,-5718.5215,31.44791,406.64972,-206.06056,2778.70043945313
540,-3353.3943,-3293.5588,-5931.3574,92.6312,-764.3241,77.4955,2932.5859375
541,-9672.442,-9670.083,-15322.012,-85.38957,175.80975,-358.1977,5694.77685546875
542,-17846.15,-17850.594,-26761.742,38.991264,-150.68037,-63.997925,8918.1357421875
543,-21699.287,-21728.938,-32113.59,-20.264086,22.18727,-20.926105,10399.703125
544,-14891.878,-14847.075,-22688.795,34.47601,-592.66235,-344.52078,7909.27587890625
545,-21223.428,-21215.639,-31562.799,-9.471037,20.512272,-62.05135,10343.900390625
546,-13781.413,-13820.91,-21097.098,74.28594,553.84485,113.529205,7362.5615234375
547,-26124.33,-26210.104,-38561.062,-7.945582,-180.45871,-17.459272,12398.052734375
548,-29343.455,-29437.588,-43322.22,-52.746567,-184.50017,87.17051,13936.716796875
549,-25091.73,-24988.88,-37101.324,-42.934536,33.815956,82.89881,12062.5732421875
550,552.17816,607.23157,1422.0441,10.98534,80.31463,114.9992,878.177856445313
551,1734.4446,1702.594,4026.7322,-109.54537,-601.2683,-239.62764,2573.21655273438
552,-22210.846,-22166.068,-32916.145,1.3083181,-30.169394,63.76328,10728.453125
553,-5769.949,-5718.4014,-8995.849,-22.589888,125.215385,253.14435,3288.79711914063
554,-35874.39,-35828.258,-51910.94,-18.2802,16.911646,-120.320274,16061.0771484375
555,6578.12,6524.0645,10729.382,-75.22463,29.375187,-86.96467,4183.6044921875
556,-5514.718,-5350.233,-8876.66,72.31203,-62.32509,-20.888899,3451.2822265625
557,-2590.2751,-2521.3484,-4780.222,-79.763,151.01556,181.57594,2266.71069335938
558,1057.2576,1162.857,2396.863,130.9081,397.40454,246.48358,1540.03149414063
559,1333.8698,1132.0527,2140.051,51.292553,178.47179,0.49679628,978.166381835938
560,-16026.942,-15951.615,-24273.447,-37.965588,-54.081345,-112.98309,8287.5263671875
561,-23164.822,-23097.871,-34201.844,-8.82843,-8.556481,39.39486,11070.8798828125
562,-18073.88,-18051.562,-26955.283,-4.1221046,-112.16716,82.34395,8895.8505859375
563,-4448.1523,-4556.37,-7613.663,-8.682954,-209.25949,-769.40955,3405.46215820313
564,-4032.2712,-4090.5483,-7066.8447,-30.945417,-148.40053,528.7966,3153.25317382813
565,-1658.7239,-1683.3813,-3330.2659,180.9186,-323.94495,209.97185,1816.23913574219
566,-1702.8308,-1992.8188,-3486.1956,-108.34362,368.07584,620.8794,2084.57592773438
567,-870.8824,-1104.5372,-2167.7095,-8.372415,18.719194,-183.48439,1239.19580078125
568,1564.6494,1510.6975,2859.5115,20.905268,-115.837875,-452.845,1551.19653320313
569,-10600.194,-10680.418,-16605.467,-17.847494,196.98367,-325.56677,6001.9423828125
570,205.35567,38.433468,175.65611,-10.851816,352.83255,510.076,1085.42431640625
571,-12433.0,-12449.566,-19380.092,-50.700912,-168.26862,172.10957,6951.89111328125
572,351.21808,310.32727,413.89072,-189.6085,432.0363,471.5714,1158.93127441406
573,-18979.492,-19020.436,-28441.32,12.194208,-16.826092,-5.786816,9441.4970703125
574,-18159.445,-18148.09,-27063.207,-38.045757,54.237534,183.50722,8915.8505859375
575,-17573.686,-17509.285,-26329.896,-36.246925,70.91553,151.58229,8793.5908203125
576,-19938.678,-19946.648,-29497.533,18.572134,-11.456568,49.34907,9555.330078125
577,-17969.764,-17979.596,-26826.941,14.668499,65.55624,71.76475,8853.9033203125
578,-20960.348,-20859.662,-30886.666,-17.244888,3.213563,-38.594055,9977.3125
579,-20627.86,-20649.201,-31147.887,3.529798,127.52593,15.128387,10511.728515625
