Element Label,S11,S22,S33,S12,S13,S23,Mises
1,18467.303,-216.66211,-13437.485,-9250.793,-4331.613,4843.6655,33975.01171875
2,36779.715,12375.947,19106.385,-12495.221,5812.54,-8152.522,35294.95703125
3,19636.297,-24366.033,1812.5455,-578.7763,4535.512,-1171.7535,39197.4609375
4,-39797.383,-66569.83,-51629.27,-8051.7764,-6815.6646,11071.552,35236.05859375
5,20012.33,11760.584,37050.887,-1631.8752,5505.453,-2747.0996,24911.048828125
6,6733.968,-9323.821,-8935.798,4254.913,1657.474,-802.7747,17783.705078125
7,17281.555,16576.664,30635.805,7120.1074,-362.23065,-8960.788,24116.689453125
8,-79545.305,-85326.48,-76626.14,9289.969,-18346.154,-88.90488,36434.84765625
9,98652.88,84587.11,111057.09,7820.6353,2882.5708,4597.4272,28249.05078125
10,-52810.33,-51597.457,-50003.22,-2145.2341,-2775.2302,-2942.621,8296.693359375
11,21743.082,13202.578,28352.484,6641.318,-2795.8213,-4910.527,20029.552734375
12,-28310.805,-43364.652,-34085.598,8756.618,-3937.3306,-1764.3702,21422.314453125
13,52426.793,31962.98,46347.516,3817.2476,6363.3853,-1178.6135,22375.87109375
14,-65323.23,-65533.066,-66214.99,-350.14594,-296.24866,952.31,2000.98120117188
15,48318.85,48953.297,49830.99,45.858677,161.38124,-854.3584,2000.98364257813
16,-10805.331,-44162.895,-37974.176,7303.7305,5868.835,3107.7761,35169.94140625
17,4079.0732,4841.018,3691.4382,-414.96103,837.9313,343.34415,2000.69921875
18,-10029.204,4742.68,7159.5996,-8728.91,-4497.003,-15792.369,36016.6640625
19,120519.83,120655.586,121301.33,604.2759,795.6707,396.7393,1997.50036621094
20,8514.65,8264.193,8982.6,-563.5142,-528.3624,-777.79407,2000.9853515625
21,36205.133,25103.645,57505.887,-9809.715,2288.385,-267.18698,33437.26953125
22,27278.2,28553.787,3519.5894,-11212.882,7049.066,-7430.642,35892.9296875
23,18710.834,16454.547,29562.117,7912.5605,3669.9397,-2777.0457,19967.271484375
24,-9309.394,-7909.9365,-8043.0664,591.8925,426.73996,-453.39893,2000.98400878906
25,2681.6707,1954.1709,3141.4697,485.53317,677.6401,-530.3937,2000.9853515625
26,6684.1064,5632.651,4504.055,1.9800364,-245.34859,292.91113,2000.98608398438
27,15025.677,14544.927,14299.251,-505.7573,-970.2892,29.440887,2000.98486328125
28,2574.125,1170.9967,1151.0269,-351.66336,-530.05066,514.09863,2000.98547363281
29,-14665.868,-12686.513,-9311.908,4071.3452,1610.2257,-8129.345,16665.837890625
30,12822.945,3592.301,-5161.538,6308.448,-13663.921,5323.4688,31735.6875
31,21843.701,12373.548,35764.816,-5971.9062,1926.1687,-2058.5525,23369.865234375
32,-7514.3516,8536.821,-12957.52,-10725.698,-12173.814,-7359.3057,36425.8515625
33,40496.758,40486.88,38085.26,-19585.648,2557.4336,-7675.849,36782.62890625
34,4123.0957,-8840.841,-33845.516,-3542.596,3892.6,-597.6732,34664.60546875
35,-10997.437,-21893.486,-42553.133,-10708.971,4929.1113,2946.872,34837.33984375
36,-353.7747,2789.9194,1821.7675,-6909.087,-2757.5393,-468.03165,13208.037109375
37,1778.4059,10785.639,4689.1895,-10252.745,3617.1274,-2953.661,21075.205078125
38,8100.1616,11115.9,34377.31,-9321.181,10550.927,348.9964,34861.48046875
39,14454.631,4860.151,8426.353,-12123.214,17349.562,1305.3324,37677.66796875
40,9628.727,-10106.484,-7353.611,-8014.54,97.22339,-3545.011,23940.6875
41,6967.4033,10112.976,580.06396,-18910.977,3765.5671,-3449.834,34955.71484375
42,25806.469,-3654.697,7531.83,-4878.045,13256.045,-5867.417,36950.8359375
43,102358.16,102827.94,101351.95,235.69678,-824.12213,-176.93556,2000.98571777344
44,262108.45,260825.75,262253.6,-825.4137,-154.18936,109.77498,2000.99060058594
45,824508.06,822716.3,823828.1,-333.52728,543.8043,-330.98022,2000.98461914063
46,34624.74,35256.688,35369.426,253.41327,-786.53375,688.2973,1988.24914550781
47,-1310711.9,-1311894.9,-1310929.5,-163.46515,-719.2612,-624.9615,1998.32495117188
48,49515.25,49598.164,49358.027,529.3606,991.0802,235.84146,1999.72021484375
49,250.50711,219.59558,-47.137054,-99.00185,-1113.1696,-242.7294,2000.98559570313
50,11926.807,11420.69,11535.68,59.341785,1020.7276,-467.81226,2000.98522949219
51,233.55214,-6414.723,17022.582,6304.852,3623.5276,-3040.5,24981.322265625
52,-69437.65,-68585.28,-70302.03,-171.22565,592.9988,-465.5393,2000.88403320313
53,7859.2046,4244.897,16824.684,8883.671,-799.3856,-787.5545,19141.150390625
54,37909.223,26446.963,33932.94,9914.154,-7790.0728,2032.1427,24309.111328125
55,-9511.172,-13330.011,-21608.676,-3186.2007,3866.893,-6457.597,17752.482421875
56,13261.926,803.5063,-1200.2378,-501.85852,4384.1616,-2720.235,16272.919921875
57,-255.67632,-306.17358,-1078.7206,-468.34155,942.2859,-120.847664,2000.98522949219
58,-357787.62,-359103.28,-359467.12,521.69073,-522.0769,-57.555363,1996.53234863281
59,25531.783,25622.174,26445.041,-947.5623,-168.58287,393.868,2000.98486328125
60,42.997066,904.6766,-374.17917,413.635,424.2145,-747.16876,2000.98449707031
61,18472.803,-18911.295,463.70538,-6743.9795,171.49841,4331.959,35234.55859375
62,24525.062,12148.552,16286.8545,-10098.45,5956.997,8697.393,27539.302734375
63,-3419.8916,19675.209,14229.096,-14526.313,7315.812,-1717.4409,35209.640625
64,8283.789,18299.475,14237.218,7665.117,-1367.932,-303.33548,16071.1357421875
65,-7403.931,-1034.9982,27158.795,-6541.122,3991.8616,-383.66013,34519.89453125
66,-22171.387,-19296.676,1156.598,-6292.8613,8151.898,9772.722,33016.30859375
67,-7910.8716,-4516.8613,-22686.3,2689.75,-4279.424,15202.931,32403.8984375
68,-22529.54,-45550.363,-37356.06,-6810.941,7762.9336,5136.203,28417.65625
69,30223.2,28374.316,14615.504,3071.9944,932.78784,2903.4688,16564.234375
70,21308.139,21398.955,20695.877,749.5738,-165.06964,774.14484,2000.98547363281
71,42394.684,52950.523,63274.285,-4118.2217,-4902.088,-1090.4321,21295.998046875
72,57970.164,56697.258,57795.113,629.31946,-152.81573,662.7322,2000.98449707031
73,1314.5822,1755.8749,1039.2401,905.7644,-591.95325,182.05286,2000.98522949219
74,31425.87,31274.986,32092.885,489.08047,-174.7145,935.6719,2000.98400878906
75,114096.305,114281.65,113641.76,-126.03285,-1033.4216,-370.21265,1996.97729492188
76,18565.412,18197.809,18983.555,-570.1287,-507.73224,-764.08606,1990.90063476563
77,18605.094,17336.383,18927.521,-10.31635,-703.49194,363.44022,2000.98559570313
78,7200.8306,5301.0513,5427.171,266.73892,358.9588,19.489443,1996.64978027344
79,-30134.479,-34451.633,-47924.016,478.61295,-548.97437,-4935.925,18247.921875
80,29576.396,31624.943,27516.453,-5707.252,1883.8898,2275.5522,11685.8681640625
81,9833.101,5406.353,16340.327,-9452.267,4487.717,1744.9855,20696.271484375
82,-36507.273,-38848.883,-15737.084,-7134.2524,8891.394,-6338.2207,31557.9140625
83,-4525.4834,-21357.684,7673.6973,-2071.021,4769.9697,11437.134,33332.13671875
84,-21315.723,-9804.724,-40205.53,9646.126,-2820.7295,1567.3761,31892.80859375
85,-27858.99,-45422.18,-15231.48,11449.988,-5950.8857,-74.85053,34485.671875
86,-23809.95,-33926.97,-10932.843,2259.6711,-2482.3613,7481.4204,24498.3984375
87,8783.169,4721.185,13039.001,7043.3813,2979.627,8553.584,21138.88671875
88,8337.384,10621.134,2394.4055,12267.062,639.24115,2113.104,22807.251953125
89,17907.26,16856.41,17694.39,209.25793,846.6994,515.09595,2000.9853515625
90,9625.349,10417.544,10953.879,-86.61697,937.69336,-34.23656,2000.98498535156
91,74918.67,73709.695,74845.32,30.740023,-934.8893,15.579273,2000.98510742188
92,5930.396,4756.391,5781.775,210.91948,-933.14496,-103.777176,2000.9853515625
93,26491.254,15743.389,14497.901,-10636.303,6925.4067,-5683.831,26657.9921875
94,19210.717,-5077.8164,-13286.055,-8054.526,10186.864,-3898.1604,37526.04296875
95,53643.887,45532.2,20002.559,-4967.806,4821.2754,5057.631,33840.22265625
96,-14937.26,-14338.006,-22468.146,-19894.807,-2032.2101,2849.6194,35857.3125
97,-22780.61,-40572.86,-28233.713,6962.8555,3494.337,-506.21875,20787.533203125
98,28332.605,8927.352,10520.394,575.02277,-10031.368,-699.1047,25544.6953125
99,5748.1543,4445.079,5798.293,710.5498,124.42974,-475.0435,2000.98571777344
100,-40192.64,-40369.895,-40585.125,171.63487,141.6768,1113.4918,1996.01550292969
101,-47962.99,-47958.4,-49070.133,-317.72812,286.33234,-861.0571,2000.98522949219
102,20343.572,-1526.0304,7441.0903,-2307.3145,-3964.1106,-11849.293,29101.7578125
103,22248.26,22094.559,31669.643,-12540.674,-244.78143,-2042.9275,23973.736328125
104,18275.752,14197.665,41438.477,6604.272,6477.303,762.47687,30100.86328125
105,-4615.788,3003.7664,8329.792,-13828.531,-8509.329,-2717.8955,30660.6875
106,7860.77,7494.68,4534.599,-13680.821,8672.142,-5916.444,30035.0703125
107,17410.117,-2121.8252,30154.877,-6702.2324,-9990.426,-7004.1484,37070.41015625
108,-6270.102,-3865.896,-6516.9707,-4443.1963,21004.084,-6370.702,38870.71875
109,23657.846,29527.6,42724.45,1616.0786,-3877.934,5658.344,20858.42578125
110,21736.56,7306.6606,24596.795,-8845.625,15941.891,5280.1206,36585.265625
111,12245.543,12192.961,-23.328327,1927.2872,-732.77216,-243.15457,12759.8740234375
112,5257.1987,4035.0654,3865.0486,-334.1705,85.4303,799.30774,2000.97033691406
113,-64919.11,-65700.39,-65911.48,-655.145,510.37225,609.63416,2000.98010253906
114,-20576.62,-16591.42,-51908.082,-3885.1038,1880.7286,2673.8647,34637.359375
115,15924.513,30529.494,37908.23,852.4038,11873.187,-1875.8527,28481.0703125
116,7767.6895,17347.062,35786.34,-5579.2285,9476.244,-6604.4473,33197.06640625
117,12360.871,13575.451,14230.616,1597.5223,-20.290928,333.269,3269.689453125
118,25187.566,25696.059,26075.42,-802.5114,458.25348,531.1676,2000.96508789063
119,21962.346,20748.451,21423.225,777.1003,476.00247,366.42322,2000.98559570313
120,264730.5,264288.88,263531.47,426.21265,-676.8598,571.93176,2000.97314453125
121,80671.52,81916.805,82369.875,497.08786,351.85342,436.29443,2000.98681640625
122,-838689.25,-837315.44,-837211.4,-687.03986,237.38623,-332.53564,1989.47729492188
123,-32502.742,-5452.1655,-134.64386,-958.86896,-7381.3794,3713.6277,33338.23046875
124,28721.615,38515.86,15974.03,-16655.924,2902.7136,-5218.4985,36366.4140625
125,67445.17,38352.63,33132.457,-5944.544,5820.4233,-2819.9275,35454.125
126,-16465.984,-22842.83,-45502.867,-1137.241,-1250.9497,6762.6123,29058.806640625
127,-53953.117,-67165.06,-77459.55,-8604.634,-10719.433,1185.8628,31426.083984375
128,197851.12,196252.53,196041.86,-350.05048,-121.155136,-465.1503,1999.34973144531
129,116790.68,114967.61,115182.62,-423.8697,-328.00845,234.04544,2000.98388671875
130,11429.818,11559.615,12251.258,1570.1925,363.47318,-1112.4132,3477.10083007813
131,-42198.66,-43443.508,-42453.555,-41.858044,122.03155,-941.0464,2000.98693847656
132,-27047.178,-27857.066,-28300.14,-632.0709,727.84375,-41.030903,2000.98388671875
133,-4475.953,982.74866,-12753.061,38.429985,2493.2856,-4795.125,15202.75390625
134,-5138.734,-1678.9767,-3972.8274,4292.7515,3632.6938,-16464.096,30288.072265625
135,-14144.217,15845.98,5931.4575,9787.67,844.9476,-7534.3545,34061.82421875
136,-8361.777,-17941.785,9568.987,7498.2617,-1736.2921,-11141.192,33692.13671875
137,-24849.984,-7241.345,-2870.9612,14864.376,4267.221,-6939.541,35609.9609375
138,157886.34,158512.42,158136.44,-534.4223,-501.43167,834.15625,1999.12854003906
139,-4922.867,-9789.398,8451.993,-558.92474,-9637.138,4561.1685,24690.736328125
140,175962.19,176848.4,176499.22,1046.2644,-58.45003,53.984116,1975.05920410156
141,545698.1,543822.8,543753.7,309.49005,-125.52962,77.694786,2000.98498535156
142,23275.31,24977.352,23249.67,76.69101,-532.4954,254.56009,2000.98571777344
143,-2340.0562,-381.45963,19459.295,-13488.603,1891.7635,5234.4966,32788.9453125
144,-3646.5593,-4402.121,13394.127,-8994.009,-5925.003,213.40602,25533.533203125
145,-13965.808,13052.467,2421.6494,12543.071,345.79703,-2397.9185,32332.177734375
146,-64095.625,-43422.562,-58360.84,-451.05994,3614.7568,-2592.5493,20041.990234375
147,-17174.635,-22696.195,-27948.312,-1669.9869,-13.201738,2432.0706,10638.80859375
148,-6817.7344,-2172.3215,-21738.838,-1858.7202,689.2587,8137.938,22891.083984375
149,1602.836,2992.1838,2410.1223,137.39342,-117.203094,902.9036,2000.98522949219
150,-2975.3494,-6295.113,-10262.663,3794.6848,-3463.7493,-2351.3188,11649.5185546875
151,26501.98,26181.104,25288.594,-960.3777,-66.05741,-87.19109,1997.19677734375
152,25675.707,25425.346,25052.354,533.3125,768.5994,600.9031,2000.98522949219
153,-19457.064,-15375.033,-15983.384,5259.755,-1484.604,7694.462,16786.04296875
154,-1166.873,-2294.65,2147.0688,1462.8446,-2560.2734,3358.6687,8713.103515625
155,7093.817,7208.8228,6527.7886,-1047.6611,-320.2377,39.828266,2000.97668457031
156,-2551.5735,2624.5825,27419.84,-5649.1133,9535.025,-2230.0308,33960.98046875
157,35967.082,7923.428,15240.698,-14226.652,-54.613026,971.55536,35282.0
158,22906.934,5333.255,-2313.262,-5500.2764,-13169.708,-4656.891,34319.43359375
159,-2815.798,-28976.047,-44309.227,535.2211,3673.735,-2635.1296,37185.546875
160,6281.598,25949.959,12133.6,-16045.728,2243.6553,5731.4663,34525.90625
161,-18942.273,-15365.055,-32001.896,5968.4307,-782.1988,-3224.1765,19234.22265625
162,147.37476,10948.106,22314.982,-645.42444,15827.066,-378.25522,33493.2734375
163,10843.856,23719.816,8187.961,-2921.2163,-138.81444,-10401.297,23606.3671875
164,-10459.467,-3518.1875,6822.2656,-6935.956,5648.613,-3676.8423,22527.37890625
165,20256.16,-2955.649,14231.371,5185.137,-6887.802,-2762.476,26098.203125
166,3593.4543,1702.2684,2796.814,-305.98688,-578.36523,70.50777,2000.98522949219
167,12085.664,11705.26,11995.895,-1097.0393,-253.05666,166.05833,2000.98522949219
168,10555.01,-5703.592,29549.283,2454.8657,-622.79224,-9790.471,35224.24609375
169,5041.9624,-10960.476,-15701.021,6034.803,-1346.9707,-304.1607,21665.369140625
170,-27706.27,-52897.875,-14096.448,-5891.004,-3646.4236,-4719.9062,37061.1796875
171,21358.053,21166.771,21060.107,-451.41223,-658.3422,-817.6716,1996.41955566406
172,15549.547,16542.934,14803.969,-204.27191,232.42133,-691.21796,2000.98425292969
173,6891.2627,6560.746,7111.9517,-369.02725,843.2248,-640.68414,2000.9853515625
174,-16491.574,-19999.74,-4830.544,-12624.124,-6846.8457,314.0705,28429.474609375
175,24401.904,16712.672,6316.987,-5413.473,3192.4824,13810.923,30624.2890625
176,45882.57,44910.316,43939.645,-143.36852,-277.64413,541.542,2000.98645019531
177,117201.375,117921.53,116742.305,-942.0013,241.30812,189.03235,2000.98999023438
178,1013.83575,-2924.772,-1045.2975,7296.738,-5065.8105,8414.6875,21465.736328125
179,25788.898,28135.266,28918.695,1906.9977,-5406.117,-5347.238,13868.111328125
180,7949.967,-2892.3867,7545.8877,4814.4673,-6621.608,-203.11703,17735.1875
181,32291.62,31806.37,32490.96,66.90848,-423.76828,-1013.2191,2000.98559570313
182,-8550.314,7192.5376,-19856.717,-12437.04,-1596.696,-1237.3584,32092.810546875
183,-12812.812,5729.848,-4110.962,-9787.55,-5606.854,-1877.7283,25504.37890625
184,21404.707,26572.05,52055.637,-1311.9701,-2496.134,-11427.3125,34977.18359375
185,10663.767,736.41284,262.29517,-7849.6987,3000.2456,4254.3833,19226.048828125
186,14440.496,15006.41,15911.065,-531.3589,98.706024,47.000065,1591.69714355469
187,6771.914,8769.588,7838.4214,-18.381706,-426.64893,-391.2532,2000.98571777344
188,-1926653.4,-1924947.6,-1925552.9,-6.3605914,-440.15598,623.70123,1997.9609375
189,19112.412,29119.799,11950.377,-1139.6115,-1298.1637,3711.2568,16534.4453125
190,8219.18,11439.218,19587.219,-1298.5437,936.60504,-3858.578,12464.0146484375
191,1269.8861,1456.1954,1011.10516,1010.0235,-20.74386,513.91235,2000.98547363281
192,-2396.592,9631.64,11607.627,-1136.2633,7817.0923,6533.77,22082.0078125
193,-11031.178,-18905.533,-34965.684,1799.5616,-9711.981,11180.063,33377.5625
194,7473.692,-8296.841,-2416.835,20790.219,-2310.767,-2809.1455,39076.15234375
195,-36256.805,-22398.62,-46833.03,-13404.964,4564.535,-2426.2917,32706.54296875
196,24459.707,30625.877,48526.727,-10454.984,5366.637,188.06393,29719.86328125
197,3727.0227,-4133.612,11496.4,-613.9005,-12480.303,-3107.1345,26088.166015625
198,54927.785,30470.182,40194.715,-11479.462,5047.8765,-1715.3356,30586.05078125
199,-3253.0042,2935.263,-2089.903,-3429.5054,-5462.172,7123.5713,17591.93359375
200,15781.239,-6260.0576,-23248.236,-9578.914,-2885.3223,4692.096,38924.8984375
201,15064.963,-4060.3599,-7544.952,2775.4058,-10848.369,-5906.5737,30420.33984375
202,570.16095,-10698.52,26318.164,-7394.469,-7760.71,5058.5923,38750.19140625
203,11444.945,10433.201,-19262.883,-8946.148,-8331.73,8601.49,39789.90625
204,-52158.918,-38823.277,-34133.965,-10797.979,-13792.821,5285.3877,35590.515625
205,12544.841,2080.6296,-8431.842,-4063.6646,-674.7155,-2485.7446,19986.47265625
206,185.33887,12738.342,5238.001,-7049.2656,-3554.0693,-4064.0786,18873.31640625
207,-39374.348,2234.1555,-19746.293,-3776.0295,-4202.9917,5488.056,38548.1640625
208,22260.643,46017.91,13239.427,-15067.546,2309.6768,776.7387,39484.37890625
209,6516.1606,4291.167,31680.04,1998.43,-7135.387,13294.573,37270.90234375
210,3919.1816,12653.425,6818.0405,-962.6649,-11555.265,2936.5466,22104.15234375
211,-7241.759,-10173.659,-10698.21,-18218.588,652.70807,11639.998,37601.94921875
212,-24278.486,-3960.0947,14971.4,1478.2014,1115.8502,4362.7266,34975.515625
213,23488.553,4212.373,1426.4404,-8944.514,-12229.01,-5545.374,34841.74609375
214,-6458.3755,-4691.5215,-6196.881,-4300.4614,6897.7427,-6946.7793,18593.54296875
215,3767.3945,14765.052,12249.856,-6496.9487,-10082.6455,9738.143,28560.77734375
216,-71.27478,20189.316,-17168.479,2397.282,7071.0156,5555.6724,36180.6640625
217,10627.585,-3004.289,1405.5913,52.213192,4776.452,3320.1863,15706.134765625
218,480.03958,4393.8223,10661.915,-11218.939,-5258.938,210.56476,23234.34375
219,3516.9092,-10066.867,10035.751,3859.2634,-5747.627,5445.4023,23416.005859375
220,-38124.566,-58090.484,-23765.44,6495.173,260.95056,10618.52,36831.2421875
221,22826.14,-6602.275,-9474.388,13698.723,276.15182,-1533.3483,39103.0625
222,1891.5048,17728.35,26623.285,-5394.045,-4006.514,-1815.9203,24821.95703125
223,11456.548,-9507.309,11425.166,4082.4363,-12926.676,-2825.127,31844.404296875
224,4952.8994,-6377.963,-12397.512,8447.082,-10816.027,5083.5312,29586.751953125
225,-45278.78,-25085.223,-25176.451,10069.216,-3781.5586,-5571.2563,29088.322265625
226,8625.761,9357.059,17839.188,839.45667,-1675.8176,2562.983,10436.95703125
227,-6998.0103,-5652.554,4768.584,5740.6133,1691.4661,562.57495,15258.70703125
228,-19626.074,-20490.102,-19195.072,-653.43365,611.42035,-314.53146,2000.98083496094
229,-52612.914,-51113.887,-50523.625,-264.3225,-80.03622,309.8029,1999.26489257813
230,504.21368,1020.09436,2103.4412,570.26886,-580.9355,75.74879,2000.9853515625
231,12274.43,13132.377,13218.584,-328.26816,976.69135,21.737164,2000.98522949219
232,17158.984,15571.713,15429.798,-234.85384,-560.15533,210.01848,2000.9853515625
233,-1626.2299,-3107.7637,-2208.0042,-439.47662,-237.7796,726.50323,2000.98547363281
234,3654.7607,-255.35199,24530.762,1455.0658,-5832.6807,8497.976,29287.9296875
235,-32747.287,-34794.82,-29973.76,-1533.1409,-1808.4602,84.52346,5869.2685546875
236,-19061.78,-15009.454,-8134.0537,2174.5276,-11237.785,6810.264,24974.828125
237,-2071.2354,-4232.761,6039.1895,6391.79,-6627.011,-14570.657,31292.345703125
238,5317.609,29312.486,17571.072,-6784.2935,7855.8853,4653.5186,28636.890625
239,-15561.1875,-1581.5001,-3201.8623,-4942.3545,5902.6143,-4094.599,20087.4453125
240,-23087.166,-16102.863,-5876.135,4901.4067,-6515.7,-2167.668,20936.18359375
241,-29990.895,-21582.3,-6579.318,-2369.7927,-3545.817,-4011.8975,22908.515625
242,13359.176,-12445.033,-1974.1359,-13383.907,3053.759,-3941.7188,33425.71484375
243,24357.594,4760.13,16600.973,-13656.874,4057.5564,-2592.7305,30352.99609375
244,1904.4829,-8620.941,-13979.901,2518.2356,3992.243,-10221.003,24003.19921875
245,-16118.081,-12942.956,8246.834,-11366.7705,9163.515,-3668.9663,34731.4453125
246,12519.002,4208.1143,-2127.8442,564.4764,-1305.1824,4483.437,15107.703125
247,-23126.41,-31182.504,-36165.43,1689.9316,-1089.5272,-28.127491,11916.5556640625
248,34176.562,32254.15,33920.38,-94.9679,-479.84763,-75.972244,2000.98498535156
249,16549.512,15702.209,16808.967,-213.00255,-824.95685,-523.16113,2000.98486328125
250,28892.457,29596.303,30027.592,-863.45557,-32.138428,509.6428,2000.9853515625
251,59556.273,57843.555,58255.047,444.45294,331.47787,477.40338,2000.98742675781
252,23574.123,24246.14,24160.432,-166.96997,691.0154,-833.9548,2000.98498535156
253,17598.21,17000.705,17562.82,620.2762,-509.25183,754.8005,1994.62548828125
254,-290455.5,-292386.6,-291498.84,-81.939316,596.221,-91.70832,1978.56176757813
255,-1551798.1,-1550240.5,-1550888.6,-636.3369,-421.51163,-105.87518,1902.14208984375
256,115528.45,115698.914,116924.305,-234.3407,834.73474,55.812706,2000.9892578125
257,27275.857,26217.66,27480.805,-740.2976,-101.70232,-558.7386,1997.59301757813
258,28421.822,27544.11,27922.629,697.39246,705.89606,395.21512,2000.98645019531
259,-505638.66,-505287.97,-505510.56,269.03186,-690.1502,657.6683,1743.01684570313
260,-1657519.1,-1658142.9,-1657965.2,-181.86076,949.7364,-417.23758,1907.17077636719
261,62227.66,61420.04,62193.49,-793.1343,-701.2031,-67.31984,2000.41516113281
262,80682.39,81649.74,82171.21,256.4275,-431.4513,715.5608,2000.98474121094
263,-2819281.0,-2819505.5,-2819089.8,338.19354,424.0608,-996.06036,1997.23022460938
264,5355.1,5113.2827,6724.16,-2.0256233,-255.57982,-717.427,2000.98571777344
265,6640.7485,4872.8647,5310.029,334.51086,529.46423,307.4531,2000.98522949219
266,14361.241,14020.441,12758.439,-165.8008,761.6411,-118.74118,2000.98547363281
267,13790.383,14299.092,15406.614,-45.936916,-29.0367,-799.8837,1994.2666015625
268,12381.536,12334.725,13135.136,22.236156,-1047.3481,188.20552,2000.98547363281
269,14237.582,4335.886,9382.551,-15395.754,-74.99491,-3280.4233,28581.98828125
270,15880.709,18140.455,9804.657,-9688.85,-6752.8804,-8715.04,26495.97265625
271,-8985.497,11674.542,1399.1925,11062.534,-11272.686,-1157.9366,32749.240234375
272,-20218.94,-41433.22,-34258.39,7799.771,-6837.7925,9164.334,30398.119140625
273,-17634.41,-9839.017,1425.1108,10696.207,-9718.496,8682.329,33588.38671875
274,21115.232,33180.438,20996.543,6480.805,-4751.7603,8956.917,24112.955078125
275,-23037.043,-36051.438,-50905.95,-5756.105,-9338.929,980.214,30777.9296875
276,63286.64,63565.86,70661.59,164.79546,-1876.1886,687.57294,8029.23828125
277,36800.266,34204.934,35486.027,-6304.8184,5066.342,-1238.663,14349.5859375
278,9804.645,10265.371,10627.302,-532.66724,836.21936,426.19955,2000.98571777344
279,-39631.555,-8343.906,-7264.0205,6808.24,-611.3048,-6639.112,35864.7578125
280,-4402.2993,-4427.287,-5642.085,522.0818,-249.73016,-705.3193,2000.98547363281
281,-12363.784,3977.189,-16661.6,-5970.8965,12786.817,-5581.458,32351.97265625
282,12270.573,13413.5,13654.01,-450.31433,-725.0518,-244.59586,2000.9853515625
283,3615.704,218.456,15655.947,5356.4736,347.45767,-14037.669,29580.7109375
284,10086.361,5944.785,-5750.419,-22.880644,14152.683,7566.756,31225.490234375
285,-12420.445,-31613.387,-22275.135,-4766.576,9439.744,-8906.833,29151.767578125
286,-54175.58,-60379.22,-61517.992,2779.247,-999.8217,2929.8057,9938.27734375
287,931.1184,16094.517,16577.35,-4659.259,-5986.341,1727.2501,20471.15625
288,28236.252,14467.464,4990.4556,-14072.603,8344.481,3006.0127,35213.546875
289,12661.788,-4306.105,2264.076,-11235.457,-16889.762,6707.966,39863.3125
290,-27979.945,-35565.953,-30865.117,-10665.037,-11229.258,-4369.8184,28649.40625
291,-1100.4756,-11753.131,-237.24365,-3075.8994,-10439.0205,11749.008,29880.435546875
292,27835.643,-1923.6973,-839.71094,-10927.724,-9614.877,68.23263,38602.22265625
293,7367.2065,4164.3213,3747.5166,-11190.247,6156.2915,-3641.4714,23257.533203125
294,-14604.303,-5060.366,5924.9194,-9319.334,-6428.385,-9917.376,31562.5
295,37652.7,27926.453,17673.459,1140.8732,-4017.7046,882.1332,18817.86328125
296,37904.35,46010.637,61305.863,-10199.991,-82.73297,-969.93823,27177.30078125
297,11853.627,10392.399,20296.756,-3725.8113,-5414.1006,15229.305,30185.0390625
298,-27698.012,-34223.938,-16159.603,5926.266,1853.1644,1571.3357,19341.490234375
299,-20528.77,-32535.139,-25163.945,8908.558,369.1996,-74.46112,18668.125
300,-2988.9775,-19553.207,5320.1064,15834.513,7191.383,440.1521,37268.921875
301,50966.62,50979.805,49878.344,-447.08078,774.77167,-363.13657,1998.73217773438
302,35703.363,34142.613,34023.258,-641.98773,-199.54507,-62.09685,2000.98425292969
303,6288.259,6272.429,5024.818,284.7379,-847.8896,95.62114,2000.98498535156
304,-65019.844,-64995.348,-64739.5,-300.6823,-889.26514,-655.23615,2000.98364257813
305,-12779.529,5185.484,-16372.262,8813.082,8410.703,107.30787,29076.767578125
306,-843.82794,2170.6387,8321.437,12334.908,5338.009,8396.78,28616.626953125
307,314594.72,314996.12,315834.6,694.058,424.04813,522.3614,2000.9765625
308,38640.0,27001.104,14590.957,1458.034,-2445.27,206.82735,21409.34375
309,-3013274.5,-3013586.8,-3013061.2,291.5584,379.59265,-1012.3423,1992.82824707031
310,-39416344.0,-39415690.0,-39415530.0,-633.5068,861.5835,-58.655384,2000.54907226563
311,-68585.555,-70712.86,-69578.88,-25.502533,429.0782,-129.94322,2000.98608398438
312,297373.25,296545.97,296980.3,352.83984,991.8855,229.6294,1999.22766113281
313,-26499.56,-26454.373,-21872.389,3299.7834,-8235.941,-738.38837,16093.3896484375
314,60650.89,53608.527,42137.082,-2929.358,-7387.0337,-4293.003,22510.283203125
315,-67012.35,-38300.816,-62183.664,5108.616,-4898.6064,3647.621,29987.126953125
316,56577.605,52118.805,40354.586,-3435.6606,-0.8782015,-3348.9143,16726.89453125
317,31837.688,20594.408,20984.018,12918.831,-8152.0303,-4192.6562,29579.943359375
318,-26171.955,-28901.45,-62139.23,-6979.706,-1167.8942,-680.779,36804.265625
319,6247.833,5589.494,6133.586,-7424.3457,5543.576,-3798.351,17355.40625
320,-344.84644,16626.098,-15810.193,4002.0767,5170.167,547.5653,30311.59375
321,-10902.285,-9215.403,-1949.2839,-9457.075,-10835.951,5812.969,28103.97265625
322,20351.867,9783.78,7891.771,6699.214,3350.469,-701.6849,17465.72265625
323,-65000.66,-49304.344,-61716.56,-5489.431,7275.5225,3513.1584,22177.455078125
324,57805.125,39072.395,50940.53,37.587635,9729.314,-15005.95,35056.578125
325,-4907.7,1828.9806,6209.698,-1979.2656,-1473.638,3500.6392,12211.296875
326,11418.844,12455.4375,12356.73,650.71906,603.1908,-465.50488,1998.4638671875
327,-23119.258,-29559.412,-44397.906,-1809.4052,-5707.4814,-10189.561,27861.2265625
328,-1377.4216,-19895.938,2232.337,-14563.336,1951.4963,-7674.1367,35315.54296875
329,-1822.6755,3555.6711,9377.463,-2428.0615,2296.2373,11666.487,23150.7421875
330,15659.803,23192.582,15429.094,-13255.21,8811.867,12320.515,35692.6875
331,-6452.9937,-26346.31,-6894.1367,771.96063,3234.8953,-1370.1218,20639.185546875
332,110823.62,111472.83,111349.016,-747.2115,727.69116,-345.0705,1994.29772949219
333,-518182.53,-516919.97,-518141.03,67.47077,-880.2028,-202.17467,2000.98522949219
334,499023.03,501187.03,499441.34,92.0874,7.024503,40.244713,1995.77062988281
335,-491405.44,-492823.06,-491279.03,596.6,101.64144,-482.9026,2000.8017578125
336,-111878.59,-111651.31,-113174.484,-443.8973,517.92725,440.6533,2000.98156738281
337,-9068.618,28314.49,25148.908,-6840.9375,2574.6592,-2239.318,38268.83984375
338,15527.607,14216.449,23604.83,5760.82,-11169.89,-11236.579,30499.078125
339,1202.0122,-8141.374,-4748.9985,-10358.072,1780.4327,1412.6198,20111.591796875
340,9322.753,9947.28,9920.394,962.11505,-441.4961,237.1575,1975.96789550781
341,-564.12354,2507.8213,-8536.841,4711.5537,-12891.797,-5618.9985,27520.96875
342,15316.755,13342.425,26670.3,-11445.918,6085.5444,-3165.402,26256.515625
343,46395.95,46401.28,47968.934,75.17864,69.71219,708.6362,2000.98767089844
344,5405.331,4567.7197,5163.746,-890.3872,327.94846,-498.43683,2000.984375
345,8858.05,7624.3174,7642.51,-883.8164,225.91864,49.831165,2000.98571777344
346,6739.9243,-6506.5503,4214.9263,8696.981,9860.303,1936.9055,26043.06640625
347,-9008.416,-25880.406,-8273.052,-8300.086,5424.9575,-1996.3761,24587.255859375
348,-51350.14,-35980.977,-37567.008,5829.4575,4001.5205,15706.576,33232.8828125
349,6752.609,5928.2817,5860.064,-797.6463,663.1601,-108.74733,2000.98571777344
350,-13299.42,-10648.747,16264.719,1427.7098,-6857.736,236.60368,30823.17578125
351,11807.629,22569.914,4432.653,11264.761,-1412.1642,-1174.6439,25306.029296875
352,2607.889,-2317.9397,2252.552,-106.65694,-5425.7886,1858.9672,11016.291015625
353,13593.278,15011.211,9172.665,-2743.5303,1802.4314,-1126.679,7997.24072265625
354,-17915.246,3653.8477,18943.49,7671.1416,-606.5036,429.8638,34741.6171875
355,6435.8936,-6617.3125,-11057.21,-5068.66,-2840.9526,-421.23453,18704.89453125
356,-6695203.5,-6694891.0,-6695973.5,-104.26179,-1006.6632,-8.25296,2001.02722167969
357,-11429.418,8119.425,-4794.6846,8305.567,1495.2546,9793.948,28247.025390625
358,153.24182,-20108.473,18274.55,8351.342,1710.1802,-930.49664,36423.8125
359,18348.129,19432.277,40534.117,-688.5929,-1509.4454,-987.71277,21920.880859375
360,-505.46338,-10606.841,-8788.37,-4139.067,-1610.9644,925.84064,12195.4248046875
361,15380.346,17688.379,21007.656,-66.82657,2967.211,333.8511,7125.05517578125
362,-28615.379,-12140.033,-16373.434,63.993183,-8033.6655,2212.34,20686.396484375
363,1435.1978,-7225.722,-10279.051,7097.9985,-2586.7312,-1685.1326,17044.5390625
364,32751.492,37456.586,31684.227,2463.8555,-319.81824,10167.249,18892.75
365,2661.008,6333.4604,2709.8801,-1283.76,1506.762,1005.0132,5300.4794921875
366,6306.723,260.5421,-3895.043,16.40677,1433.7177,-1228.1766,9468.015625
367,12455.84,-102.25586,6681.046,-7822.521,253.51666,-1641.0398,17617.6328125
368,1595566.9,1595314.1,1630443.9,-4.2280107,768.7807,1160.9027,35087.0390625
369,6205.689,29165.441,40249.93,-10556.824,-891.9501,-8527.89,38202.28125
370,1887.276,11726.952,-2527.4949,-561.53564,-418.11963,-158.08286,12700.1865234375
371,-108.05406,-1444.3335,2161.6045,682.90826,853.44916,-1001.9422,4070.10717773438
372,-23625.16,8535.062,1414.7578,3702.632,5815.1265,-2499.7761,31895.30078125
373,16667.217,22494.6,5455.11,-13556.7705,-108.857216,6011.4956,29745.837890625
374,-1179.0673,-2254.2095,6804.225,-7761.58,-2905.8857,-1394.3464,16892.70703125
375,-23615.357,-23860.033,-25365.582,147.43477,280.62357,-540.70154,1968.10803222656
376,-6478.2637,5241.7173,30428.467,-5488.6836,5004.4453,819.27875,35134.63671875
377,-27666.99,-46812.562,-41761.715,656.0753,-5390.483,1197.2214,19700.91015625
378,-3009.0098,-784.3941,1922.7976,3256.7046,1528.7621,-2303.9329,8547.1806640625
379,12524.661,21500.098,8948.697,-4183.5845,12197.428,-8960.512,29413.482421875
380,-2623.22,-1019.5737,-12578.854,13085.826,-3073.3535,-3003.1785,26206.14453125
381,-18261.14,-10353.905,-9592.0,3564.3052,915.77435,-7092.6914,16145.494140625
382,17359.775,11768.687,33105.875,-4244.3574,4795.7925,3166.5725,22811.443359375
383,-5650.342,6742.917,6346.5176,-4488.12,-974.1589,2462.1611,15175.6591796875
384,-6692.9883,2596.9055,-311.80188,-4484.9136,-1174.0555,548.00397,11537.791015625
385,1281.8167,3592.6392,-8903.442,-3795.7395,-5430.0117,-2643.822,16889.732421875
386,4838.1123,-4085.045,6977.127,-538.923,-98.92741,-4055.7068,12390.796875
387,17058.303,20728.148,13205.352,-6894.571,1436.4543,1002.1905,13937.76953125
388,-13183.151,-13519.408,3569.7095,15413.749,-12210.719,-3059.3809,38399.73828125
389,2018.7437,-6122.682,-3415.907,4325.0376,-7203.041,-8325.346,21708.888671875
390,-32025.615,-31252.518,-32933.008,-452.51538,118.41938,4.2988896,1667.02722167969
391,6350.5747,8213.167,9496.027,-109.60805,900.1966,-695.2493,3379.59252929688
392,-30079.404,-11074.456,-13461.019,-15979.452,10371.503,-1186.7772,37609.64453125
393,-11464.871,-30252.184,-5766.163,-5850.7637,-9342.103,-1998.9304,29478.94140625
394,862779.75,863372.1,894154.4,2.5686104,830.9011,-1332.3375,31201.427734375
395,-40498.004,-46633.688,-41708.5,8196.421,3618.726,475.38956,16528.525390625
396,-64547.848,-70724.11,-102721.18,-8041.2544,-569.9845,2940.5808,38477.03125
397,16820.809,15747.557,14788.318,-660.6395,2174.225,4129.335,8351.45703125
398,-11121.28,-9820.953,-17463.152,-5488.391,-9618.032,1209.0533,20553.080078125
399,13148.477,7691.6475,27978.463,1396.1471,-3174.7478,-996.84814,19227.482421875
400,2016.1636,9694.817,3702.6284,-2320.787,8544.276,1458.1099,17041.318359375
401,-26619.46,-18649.498,-22459.283,-3610.2039,2697.0505,-3795.889,12321.5341796875
402,-13968.407,-14044.416,-15368.398,1567.1051,5295.429,-682.26544,9733.8564453125
403,-9745.398,-3431.1455,-11305.662,-3445.0107,-850.79785,2094.483,10153.4501953125
404,-17317.377,-10448.207,-37097.18,-6682.97,-5386.3223,7160.012,30807.759765625
405,5430.667,5479.647,4818.003,421.46646,827.4476,-580.0196,2000.98559570313
406,-2104.3096,-5191.1978,7374.8677,-3795.3733,1652.3982,-7065.763,18161.103515625
407,24163.035,24145.025,26151.223,-31.08645,30.783258,-55.293587,2000.9833984375
408,12655.064,15923.176,279.05078,1590.834,-1408.4503,1669.0498,15039.716796875
409,-17986.941,12765.757,20188.068,6233.979,692.54565,-1282.4244,36770.03515625
410,-18562.225,-8962.375,-19527.139,-6433.7793,5765.2896,1920.6802,18366.123046875
411,406.09454,757.4924,1027.6392,496.724,-229.61292,-967.20276,1999.05053710938
412,52509.67,52561.375,54487.92,-1.0309485,8.339401,251.57254,2000.98547363281
413,-25252.123,-26802.504,-28376.059,3673.1418,-4581.475,1647.163,10904.33203125
414,-88159.85,-95543.8,-131034.33,137.36774,-2122.3713,-1418.5597,39947.05859375
415,-6747050.0,-6747246.5,-6748398.0,-127.88332,-879.9586,78.73919,1995.3642578125
416,4495.8174,1900.5505,9238.932,645.23065,954.0246,4179.0723,9895.23046875
417,-53487.316,-29853.734,-46790.766,-18891.215,3767.7795,2585.7952,39729.18359375
418,588918.4,589033.56,627120.56,-254.03224,795.0966,140.99065,38172.890625
419,20835.064,11249.24,1222.6552,3823.1821,10594.542,12527.454,33762.8203125
420,2508.747,-5698.508,-15006.698,-923.15125,376.03793,1175.8488,15411.8408203125
421,3450.4666,-10593.5625,2156.3833,-1840.32,2047.1595,-1174.6168,14408.5869140625
422,-38877.41,-38723.57,-39732.98,-96.07044,-858.8626,-478.8128,1953.380859375
423,31096.275,23032.979,24367.453,10203.173,917.71893,-1310.1975,19391.44140625
424,7490.298,23041.568,31673.824,-14089.113,6371.3784,-3097.2036,34592.93359375
425,-45121.062,-58103.04,-87530.69,-6448.9497,2022.8896,-397.78738,39421.6328125
426,-5902.0586,1749.2227,-20104.93,-1786.5884,-3440.4436,1298.1852,20471.330078125
427,11985.8545,8496.3125,23289.89,-789.6101,1709.2762,-1455.2501,14014.015625
428,-47902.01,-38462.56,-22244.455,-11588.912,-98.51806,-1.703046,30135.658203125
429,-18070.453,7669.4688,10916.222,-6809.232,5687.784,-1098.8701,31566.251953125
430,11099.451,7058.787,-374.1294,-4777.261,317.06818,-451.4353,13076.2685546875
431,-1062.7786,16068.6875,-17588.443,-9020.166,-5672.5903,1474.702,34595.4140625
432,-12512.713,-18829.83,-21448.168,10175.975,-3337.3682,-1027.5256,20261.66015625
433,-23009.918,-5374.924,18622.105,-8699.919,-527.19104,3603.71,39710.171875
434,-3792.507,2643.628,4082.997,-874.48346,-918.23883,543.9896,7646.63427734375
435,34302.46,57982.99,54114.5,4018.6997,8313.427,1645.3414,27350.232421875
436,-40483.734,-11102.162,-20597.941,-2609.6807,-883.72906,-1199.9846,26486.595703125
437,-6641.1895,2771.335,-1638.2665,-3439.4773,373.70944,2946.1228,11335.017578125
438,-12777.709,-5293.174,-13359.525,2961.0576,4019.3208,5923.266,15515.638671875
439,5798.3853,772.5679,10115.826,-11360.9375,1287.5515,292.152,21401.8671875
440,1431882.2,1431599.0,1465236.0,-18.784552,-2597.855,1351.6719,33878.1484375
441,-8081.586,-1406.659,314.83496,11171.651,2263.7708,700.95337,21219.669921875
442,-10387.368,-323.99023,-25692.02,-5823.6006,1291.2867,-2426.0562,24777.466796875
443,1637.1484,-5212.3877,-14817.508,-13966.007,-528.4363,1435.4691,28233.537109375
444,41214.75,24944.047,37095.727,3695.8914,880.056,-7360.886,20506.900390625
445,48672.664,26354.13,61804.65,3523.3408,-4125.7295,4153.3877,33222.1484375
446,16432.771,20466.404,7748.915,2997.563,3168.4119,-1102.3845,13690.341796875
447,4889.664,-2266.6455,-10667.455,-2853.6604,3463.1462,-1045.0251,15671.365234375
448,-491.3064,-1029.4456,-6106.067,11830.043,-1254.7576,4772.0493,22840.40234375
449,33975.113,14112.717,-6367.6094,-4193.7007,9111.178,1865.589,39153.421875
450,-39753.895,-25322.336,-38999.336,-3869.9392,2130.6257,-1123.8678,16133.4130859375
451,-18644.762,11321.87,1267.1494,-13777.822,-3678.716,-1066.0618,36211.65234375
452,-8609.096,6138.3877,3492.2773,8273.9,8371.95,561.9304,24536.806640625
453,-7677.2734,-12922.927,-11313.976,-3604.9224,4826.494,-781.4551,11505.1796875
454,-6370.9487,9851.435,9360.8545,-10087.323,2067.6243,-1950.1013,24185.619140625
455,11354.507,16368.313,20250.71,-2140.1084,877.10376,-148.89323,8705.8310546875
456,11405.209,6202.6284,21525.438,-590.48956,-4063.542,1611.5326,15508.431640625
457,-25429.326,-16644.48,-26088.197,-8797.86,-738.79474,-633.7699,17845.033203125
458,25964.617,10609.172,8349.043,269.94092,2362.207,1241.948,17239.173828125
459,9398.186,1626.741,-3866.3525,-2297.0696,5379.525,447.04205,15378.7412109375
460,-3343.7676,-30639.686,-36063.188,-3413.81,-1938.5673,-5083.3867,32346.25
461,-191.12598,-26559.31,-21879.559,-2217.8757,-1852.0582,-5417.601,26587.2734375
462,-48568.316,-46168.855,-24781.36,6940.8096,1774.456,-544.26935,25871.99609375
463,553.2998,9720.676,11676.39,-1447.0128,2755.7964,-277.09995,11622.80078125
464,46892.273,28993.023,40290.18,5813.663,5233.5986,6623.73,23685.171875
465,2690.098,-9650.956,-19872.346,-4442.06,-2035.6581,7681.564,25131.01171875
466,6989.0947,-686.7842,30581.43,5754.509,1533.2864,-1593.6625,30176.556640625
467,-25748.762,7292.5044,2337.459,782.3979,-2720.5364,-5016.4194,32435.9453125
468,634853.5,634789.94,672773.3,441.77777,-277.44202,703.2369,37981.92578125
469,1543.3907,-2492.4636,-826.3114,244.74939,-4622.4536,-2518.768,9780.2529296875
470,60949.582,52796.87,62213.89,13932.505,-10792.328,6100.079,33492.875
471,-8012.7617,7931.9653,23233.92,-2343.357,3492.0603,-1838.0471,28205.712890625
472,3978.3252,-6840.2666,-7113.1885,3988.3108,-129.62057,840.05865,13036.7333984375
473,6898.6826,675.46533,6305.5547,-1552.813,3867.5823,458.33392,9387.626953125
474,5191.131,-8897.62,9769.514,-1956.6503,3667.6208,-1055.5813,18415.7734375
475,4102.386,-6675.2793,-8547.12,-840.68005,-44.885986,-1619.1692,12240.3984375
476,4871.7666,20694.143,-2320.9976,5099.7505,973.41486,-1478.5706,22434.650390625
477,-997.6632,4880.468,-4264.221,-7395.626,4482.004,2957.6057,17748.7265625
478,1350.3992,-4595.3047,1905.6172,579.56146,-4880.6807,352.3297,10573.7431640625
479,10294.028,15955.553,9210.053,-3722.8022,4132.8853,-7645.989,17537.623046875
480,-48985.26,-28426.137,-27308.055,7438.4004,2383.5322,-2378.0413,25434.48046875
481,-11061.707,-19550.926,-20135.346,-10274.862,2900.0884,-32.50466,20477.37109375
482,9654.141,5736.9526,2529.185,-8119.143,-4302.0996,-3676.5955,18221.890625
483,2493.6074,-5396.471,-8870.846,-3046.631,-1108.444,2835.7747,12545.6923828125
484,2673.0942,-16627.438,1321.6143,4461.41,247.94205,-1065.4363,20286.822265625
485,-18375.557,9237.491,-9914.614,-9878.594,1806.6654,922.3788,30092.189453125
486,3460.6978,-7150.036,193.14868,-8206.496,-2840.5273,2496.7966,18263.103515625
487,2205.4668,15968.941,8052.5635,2846.9336,-1273.5226,-1452.7467,13366.2822265625
488,-14316.628,-1736.2782,6984.25,-2816.1929,-3798.6113,-887.6341,20333.837890625
489,19557.527,9301.229,13627.944,14224.039,-1319.0227,45.528282,26300.791015625
490,14091.392,15891.7705,12315.504,-4141.6753,3870.8853,-4291.5083,12698.630859375
491,-8928.636,-8841.815,-9575.799,732.4858,-541.40845,-2616.5608,4848.7822265625
492,2364.1611,3004.5322,-9191.447,-5256.245,-1400.6323,5879.0464,18270.228515625
493,-3874.4893,-16983.467,-3595.1177,-687.49194,-2022.0934,-886.743,13843.0146484375
494,15680.33,-849.1172,21939.293,-427.99277,9017.179,-6790.168,28260.42578125
495,-4605.783,-4826.7573,-6193.3374,-1945.666,2387.2605,2518.2222,7049.5791015625
496,-15098.2,-33482.125,-23902.988,-859.6717,5287.26,3636.2336,19477.564453125
497,14005.612,-3277.2207,7100.1533,8265.948,2318.5327,3626.1326,22081.3671875
498,1542.9829,11909.67,3272.662,-2452.8262,728.8956,624.0912,10646.142578125
499,-29466.457,4403.0757,1169.186,-7885.4824,3393.332,1713.0046,35748.60546875
500,-23900.07,8647.651,14421.47,-3791.701,4085.458,3340.8777,37514.0546875
501,6001.141,10867.478,16221.635,504.2094,873.9624,1140.2113,9238.923828125
502,-7079.993,-21912.648,-6213.5024,3111.7961,785.77686,1952.4307,16611.7109375
503,-4382.381,-2744.7158,-3761.8384,-9073.16,627.0109,-332.05817,15828.06640625
504,-22509.068,3887.7646,-16336.172,1702.9674,3249.2449,-5022.804,26229.970703125
505,-224.37433,2162.0127,-2784.9133,-2002.9714,633.0055,-3243.8894,7947.82177734375
506,48802.74,39134.715,39664.094,-10579.21,3398.5813,-3191.3708,22126.849609375
507,5434.6445,2115.7146,-4958.6255,-5585.3926,-410.39807,-1611.0092,13653.6435546875
508,-27654.479,2476.7024,14976.55,-5869.7075,-459.43417,-3118.487,39672.88671875
509,-24642.25,4952.9297,11549.349,-6115.1763,-2981.6648,4451.2866,36234.078125
510,-17968.748,-8881.142,-30704.16,-5528.558,3013.6785,1953.4498,22156.24609375
511,-2440.9717,-20743.861,-6587.71,1648.6444,-2344.4736,-2015.8951,17695.455078125
512,23421.73,8587.683,21966.414,4824.6895,1440.1606,-1504.9062,16835.318359375
513,-45064.22,-73187.78,-79507.555,7679.313,-9834.515,908.00995,38446.7265625
514,11410.23,3610.9604,14495.135,-4588.7637,340.58902,-1824.5524,12958.02734375
515,-1470.4912,-11294.264,-19994.309,4736.488,-774.08765,-1160.0111,18187.962890625
516,6261.496,11519.875,15423.49,-131.09644,425.48932,-1388.2335,8354.142578125
517,-19317.75,-11782.318,1481.7559,8705.57,-2712.3525,-2913.2063,24648.74609375
518,2697.108,-2853.9312,5134.129,10047.705,-1083.7664,-108.27874,18886.744140625
519,-14112.277,-14910.251,-8773.061,-5156.259,-163.86867,909.35974,10757.6455078125
520,-18931.707,-3367.748,-28741.84,-2909.655,-4907.33,1120.0356,24342.70703125
521,9563.799,5753.195,9097.611,-6972.64,610.44196,1588.2949,12942.205078125
522,-287.40918,17411.62,-4681.4707,545.3488,-4108.7173,2468.183,21912.25
523,-1098.9205,5307.6274,-452.6504,-2735.8909,1181.3137,-4634.994,11331.9228515625
524,-27278.504,-17806.479,-31211.469,-5283.038,-5206.4214,498.26236,17556.689453125
525,-2985.916,-9517.537,-11996.552,119.38988,1568.1783,284.69696,8524.26171875
526,-5931.113,-21611.295,-3907.1958,-1650.1082,-3480.525,-982.2535,18141.25
527,-2251.732,19306.914,-12610.197,1920.0986,1264.39,-2435.1216,28792.939453125
528,9694.055,4302.816,12717.279,-1543.5265,-357.48505,-824.76416,8004.7353515625
529,-5493.8706,7112.5503,7151.0537,497.4077,-1570.8173,347.04318,12958.1904296875
530,-27680.94,3008.6797,6680.4033,-2196.8892,-990.0438,7695.4717,35540.09375
531,17956.676,8460.272,6637.889,-1474.3534,-802.84094,-93.54463,10921.9921875
532,-1270.404,-1708.2908,-9253.861,-1251.6437,2212.73,1332.1671,9227.3427734375
533,-5128.0195,20203.625,-140.2959,-11605.88,2049.2212,4283.1367,31811.08984375
534,26010.285,30073.668,24991.252,-8758.459,5308.2363,-1468.9738,18515.609375
535,-1563.3684,7518.0537,4996.0283,713.76917,-4611.722,-2663.5496,12350.9150390625
536,254.22119,-14124.255,-8052.2812,7614.5664,-838.97345,-659.658,18266.517578125
537,6139.9224,2504.9868,-7349.6997,-2466.7944,-402.38626,1652.5913,13156.09765625
538,-788.786,-876.86487,7292.8916,-4522.851,-1538.4274,-1271.2837,11804.677734375
539,14765.684,-1998.3984,13149.131,-1903.5808,-1074.0352,971.38324,16544.181640625
540,17445.48,-6671.914,-3975.986,2005.3674,-1249.3848,-308.31473,23257.9140625
541,2514.749,8531.551,35084.6,-2649.4897,-3997.5889,917.0445,31185.81640625
542,6269.187,3288.9873,5812.132,-2725.3625,-1320.5413,813.00555,6101.2783203125
543,-10082.934,3845.4019,-9839.577,-4288.182,-3592.2773,-1790.1926,17151.134765625
544,13811.668,-7573.4634,7384.099,11018.514,-2793.8948,1441.7377,27478.34375
545,2153.7559,-7672.212,-7628.005,-5840.1924,-2378.0813,496.6549,14701.9248046875
546,-5271.607,-6168.5195,-4093.588,1465.9873,138.45221,977.8216,3552.74951171875
547,22283.697,2782.2344,8648.644,6090.396,-309.0036,1067.9935,20379.041015625
548,803.2129,-11733.156,-15862.305,4211.0054,-2020.6313,-2236.5356,17505.078125
549,20133.41,9655.5625,9744.16,5039.0293,-1423.015,-133.53485,13826.376953125
550,2306.2402,13760.395,-3924.6333,-6565.788,-649.1729,779.95807,19334.13671875
551,1380.1982,-1776.4559,-10001.64,-867.21704,-4.162456,4767.552,13191.931640625
552,16172.63,26398.11,19017.93,-14008.627,-1983.4039,-533.85,26171.41796875
553,898.2926,8029.0986,-1968.7158,-6308.016,3081.0828,-1270.8441,15238.4306640625
554,27327.6,18323.553,27218.275,20730.248,-1838.0631,994.11743,37181.046875
555,-12587.1045,7932.877,-10268.561,3949.383,-2262.4941,-4811.05,22593.29296875
556,2511.6318,-5161.9473,-3299.696,-5476.5806,-396.5286,25.952898,11769.205078125
557,1649.8859,713.6073,-4459.113,2231.7542,26.563543,1349.8468,7272.3662109375
558,1036.1992,12149.794,-2381.9678,-1067.5006,2822.8218,158.98564,14162.748046875
559,13278.216,5394.943,5694.645,-1560.0436,-773.18604,2703.4368,9533.8115234375
560,-1477.8314,-6460.548,3033.416,-5351.657,-1794.8282,1851.8546,13173.0830078125
561,5509.618,-5345.9937,-9610.07,4066.8713,-1092.034,409.24152,15362.75390625
562,13265.997,8472.564,15010.613,2630.8938,-2491.654,-1575.5911,9012.2509765625
563,-527.7445,15099.201,-13371.855,-2217.0264,1481.5044,-749.85455,25157.580078125
564,-8610.993,-21298.139,-237.76758,18407.695,-413.1746,-2048.6523,36972.1484375
565,-22740.598,-12399.592,-22667.742,4798.7944,6718.894,-1453.4308,17805.662109375
566,-11867.029,-4691.322,-19491.426,-485.33322,-4371.0293,-1038.0524,15019.6416015625
567,49438.45,41854.18,22957.217,-6786.369,2723.3547,-276.33392,26806.33203125
568,-2968.3281,-14791.538,-18107.67,-841.5922,-4358.1367,-1827.9722,16097.2568359375
569,-49436.69,-56545.715,-50354.91,22216.064,3309.3518,-2752.7861,39763.0859375
570,-25747.664,-29953.336,-45554.227,-450.4382,1793.0891,6792.0767,21802.265625
571,14653.925,8226.699,21476.469,-3394.6404,-3658.8018,-493.9439,14393.384765625
