Element Label,S11,S22,S33,S12,S13,S23,Mises
1,9720.743,14306.189,35134.18,3959.4644,8555.38,-14208.336,37717.1484375
2,6332.6533,-8152.115,3888.5457,10271.473,4460.0537,1119.0597,23671.130859375
3,-16654.996,-31903.379,-11534.541,9365.179,4182.0605,919.8125,25591.751953125
4,10052.918,-17786.451,16333.425,12497.986,4443.5986,-4779.0176,39820.51171875
5,-5861.6787,-13644.335,10859.878,15813.194,3554.0598,-5973.458,36951.73046875
6,9824.914,-18985.48,2667.0002,11157.255,3762.5623,1548.1134,33138.5859375
7,-9955.966,-24556.164,-32129.395,9184.747,66.23541,8204.361,28915.68359375
8,-35203.215,-40096.613,-15091.859,17959.666,844.91864,-3340.1414,39116.30078125
9,-12485.263,4577.211,25756.64,9129.451,-1012.4991,-7045.648,38769.953125
10,-26535.303,-38098.82,-39561.266,16512.967,2157.9026,6398.5894,33280.54296875
11,6392.241,-7765.369,11104.724,-18866.227,2043.2303,1031.1147,37052.3984375
12,-10773.309,-19373.32,-15529.546,-21351.441,-47.909313,2832.8557,38044.875
13,22330.42,21243.662,43428.395,-17593.254,1342.0576,-5113.2314,38492.0859375
14,-20463.637,-9860.672,-164.28015,13397.439,14190.611,-4724.087,38971.76953125
15,-15660.681,-16630.598,-12741.962,15939.645,-1965.1978,-2270.4246,28311.798828125
16,3473.165,-27794.285,-8050.2676,9985.355,71.433,-13225.865,39674.203125
17,-10985.791,6708.2363,18048.291,-9460.053,10480.975,-10387.002,39547.7734375
18,-18579.752,9798.732,-16115.611,3683.0466,-5188.489,-12856.936,36862.4453125
19,50649.957,51007.375,51727.08,355.14832,489.76282,817.1068,2000.98461914063
20,42157.785,39503.406,34251.438,-7427.3506,7136.4136,-1511.4689,19331.451171875
21,27069.766,1847.6982,2235.5396,10282.629,-4145.39,-6835.989,33696.63671875
22,379859.53,380571.72,379602.47,874.2915,-164.6708,-539.46094,2000.98217773438
23,-26473.344,5946.5957,14489.075,1365.9032,-2151.064,3461.7073,38162.828125
24,-22255.123,16221.436,-6722.9614,-8246.555,-2652.5625,8858.324,39807.08984375
25,-7463.9375,7805.536,27741.344,-9708.235,4581.264,6508.415,37520.5859375
26,-20068.59,-3782.4385,10611.763,8847.958,8004.1895,-2476.6763,33945.8359375
27,3964.7888,4320.88,1632.5564,-441.78796,1643.5171,-1403.3876,4581.927734375
28,-24016.773,-23168.008,-29582.77,-2033.3906,1967.798,-3056.8318,9406.2919921875
29,-35587.176,-36778.598,-16249.602,12850.544,4026.4329,3164.505,31184.75
30,-32821.0,-11087.025,-4979.7744,5120.857,-775.4498,16337.574,39033.59375
31,-24376.568,-29954.725,-10419.718,19936.598,-4500.045,-2391.226,39674.57421875
32,-31256.61,-43573.79,-45831.914,8225.449,12922.772,8288.4795,33086.109375
33,2593.2783,16001.952,20384.787,17769.652,-4299.322,-7727.4595,37942.65234375
34,-56900.96,-37530.164,-66010.445,-11640.538,-5021.421,-7816.509,36057.0703125
35,53098.418,40480.99,72252.27,-1997.8967,7275.2197,8493.297,33983.9921875
36,79842.984,78349.1,81339.88,9141.482,-17995.035,-8797.709,38223.96484375
37,-44750.695,-61649.58,-18765.607,6463.02,-789.8955,-2743.6646,39366.01171875
38,28270.441,31949.482,36103.76,265.3662,-13301.813,-16167.211,36894.9765625
39,113136.695,104569.26,128786.805,1118.5795,11416.465,-15458.341,39548.0703125
40,43935.742,69468.02,88828.67,2738.1445,4.9063554,461.4554,39296.1171875
41,-242057.97,-219490.94,-218516.94,7006.626,8425.328,-13878.224,38343.86328125
42,447062.28,446275.44,447288.62,143.02184,205.32283,988.47455,1991.86743164063
43,-53836.715,-54114.24,-54197.535,-270.91385,-1086.4485,127.67183,1979.20922851563
44,12646.036,12616.569,12240.825,-158.57097,-873.21124,689.1298,1985.13256835938
45,-81703.15,-81978.58,-81636.61,101.43479,711.6746,881.9725,1995.63305664063
46,15514.933,14587.833,15994.264,452.8224,901.3245,-19.261215,2141.74560546875
47,16600.914,15304.314,16511.05,584.91815,167.5225,-663.4845,2000.98571777344
48,11147.463,16501.783,4833.5996,-3150.377,-3604.4927,-9513.684,21038.591796875
49,6064.8574,11056.677,-5917.644,-13731.52,4331.731,-10264.151,34151.53125
50,21033.896,26252.361,21503.248,-12470.557,-6957.5474,-3674.9958,26024.736328125
51,-4312.913,21880.377,8698.385,-11511.118,3978.9639,-12154.857,37454.09375
52,43593.94,63840.773,44254.996,-12606.121,3866.4338,-10575.638,35413.41796875
53,20157.83,42526.254,17544.16,-16901.676,2062.258,180.62018,37887.96484375
54,-26498.559,7560.2183,-26378.168,-10635.6045,-1267.0734,-1274.2294,38793.68359375
55,6190.805,34479.445,-1217.209,-13155.0625,342.9582,542.5628,39813.20703125
56,19840.941,21651.434,11805.807,-8834.214,-206.24352,1100.3568,17896.333984375
57,-10385.555,3124.3884,226.91206,2563.0022,-5587.8325,12640.282,27285.123046875
58,6471.764,9092.438,17060.084,8967.429,9340.411,-9085.01,29014.103515625
59,-4252.1772,19152.256,7528.1533,4010.879,-2833.6614,3604.5464,22850.830078125
60,3319.3672,30782.047,5580.085,8547.786,14059.797,-2275.781,39051.109375
61,-21029.398,-9748.514,-16001.2,2137.007,-2495.7554,6952.979,16529.88671875
62,8588.454,-11877.267,-26122.895,-5806.825,2377.6416,3681.252,32742.978515625
63,51108.566,28935.775,18073.326,5652.664,-2473.6438,5842.4697,32666.408203125
64,61240.28,53531.75,38989.492,-1829.2689,-17151.24,-2118.191,35902.5390625
65,64267.91,50311.402,42129.19,4303.034,1585.4209,321.32516,20960.1171875
66,-38233.406,-11761.522,-11152.976,10759.096,-504.67197,2137.196,32847.85546875
67,14273.244,-710.8737,-14448.951,6315.6953,15725.422,1613.4481,38580.45703125
68,17406.646,21273.021,-13673.642,11328.861,831.66223,-1171.7842,38630.6171875
69,6607.598,2326.2969,-7900.7217,8008.097,-13413.336,5479.2837,31447.029296875
70,61471.03,41791.266,24399.504,9976.193,-7831.3145,1932.6697,39061.48828125
71,47026.766,47971.242,30969.053,8476.776,7941.9624,4925.7524,27413.298828125
72,-10705.168,-14083.868,-26515.04,4299.309,4012.5642,12196.989,27531.8828125
73,-30146.12,-42756.195,-14144.69,3061.924,1701.4357,-2779.57,26015.9140625
74,8179.171,2404.7466,9793.91,5752.5156,11164.954,781.921,22811.240234375
75,12687.303,-9177.67,-11349.463,-2315.53,6188.4614,6071.0366,27781.802734375
76,16320.192,16417.055,16239.174,-4536.6626,-3014.91,-274.17374,9447.8720703125
77,247586.73,249263.36,248201.8,-688.6184,-162.20923,-338.75735,2000.98352050781
78,87784.34,100781.914,127719.06,5588.452,7919.2583,-4148.22,39725.60546875
79,-48384.418,-5591.0757,-16010.499,5047.7324,3751.5696,239.53746,40159.5078125
80,103512.1,100577.03,136164.58,-11748.46,888.5452,-120.24002,39838.76171875
81,-12050.438,-9639.368,-20324.156,17639.852,5814.595,-8067.6562,36392.29296875
82,-30199.852,-16852.227,-19840.262,161.18146,6392.8535,-9575.509,23344.359375
83,-7408.3086,-42634.336,-16992.6,11633.254,-1.0405724,2275.6316,37638.390625
84,-13419.829,-19501.621,-2808.5684,-13199.195,1918.466,7985.653,30645.265625
85,6192.7783,-30942.05,6050.509,3155.062,-3439.6287,-1.0326107,37935.328125
86,-34344.74,-16198.998,-52705.71,-6280.43,3717.2515,8242.886,36921.3671875
87,-19941.344,10927.846,-10999.367,-9407.747,3501.5864,-6872.4365,34652.93359375
88,-17963.627,1995.4498,-2807.8135,-2128.0469,-12016.951,-15628.177,38795.54296875
89,-9515.182,17685.129,9260.318,2020.6886,-5729.792,-1236.4244,26400.837890625
90,-24833.213,-6710.3657,-13584.76,10863.226,11109.347,2343.9634,31494.056640625
91,14488.747,-1136.6652,1820.8947,-9814.779,2816.8506,-11638.99,30428.267578125
92,171763.17,177627.47,202576.48,6780.9897,-6388.7563,9913.882,36856.4921875
93,30081.244,43246.414,29708.783,-7002.212,-6730.8145,-19001.291,39300.32421875
94,42528.24,53459.49,82689.69,-4724.0293,3109.6443,8281.474,39939.0390625
95,-2438.2498,-20828.713,9401.13,-7121.7095,4617.741,-11548.756,36226.5078125
96,66842.12,44842.71,28778.62,10035.3545,1613.7277,6875.1514,39334.08203125
97,18476.166,16340.813,1423.0219,7667.4194,8728.193,4561.992,26949.998046875
98,-5671.8716,-4158.0312,-15670.044,-11329.039,-1486.698,-9528.659,27954.41015625
99,-3922.2886,-2261.4243,-22029.383,4779.1396,6216.273,-7540.928,26753.359375
100,-39809.617,-34961.402,-47431.24,-1695.488,-3642.3613,12789.635,25645.548828125
101,-20473.115,-29488.896,-4954.813,12606.04,-6850.2637,10879.948,37876.7265625
102,17358.855,24327.324,58312.914,6046.403,-1148.2432,-3560.6765,39900.81640625
103,-66160.3,-68927.18,-61245.574,18430.143,13365.687,-1488.726,40087.3125
104,203591.12,213442.61,208370.78,-3486.1702,-16927.445,10233.813,35820.08203125
105,-2139.3806,-24518.912,-18646.775,19582.791,-1892.1885,2307.2837,39762.78125
106,-1092678.4,-1091331.8,-1097967.2,97.842545,9195.059,-12418.097,27444.693359375
107,-12781.796,19052.115,18842.686,13891.934,-1222.5453,-544.0612,39888.64453125
108,3390.7341,4732.2354,5537.9165,5.9752645,335.43802,-205.92859,1998.61267089844
109,14572.346,12013.001,19526.922,-2854.9133,-2262.8174,-444.07556,9175.1162109375
110,-12345.141,10979.885,-4620.433,-1491.4716,-1823.7552,-5545.201,23074.841796875
111,-22078.164,12049.771,-14148.541,-4590.3843,-1798.8125,1567.9586,32206.689453125
112,-69741.26,-40875.305,-74955.52,2484.4194,-3455.5059,1880.935,32800.8984375
113,-30978.568,-10540.959,-50108.566,-5319.0176,6789.8364,-1745.2532,37509.2421875
114,52690.46,22234.678,16613.836,-5762.5205,-4335.0576,1501.3236,35959.640625
115,22741.354,-4853.3574,-15843.56,3880.9597,4258.376,1946.8458,36006.6875
116,18022.162,10548.076,-2652.3364,7957.23,-3914.5618,-9804.272,29207.345703125
117,22089.568,26256.953,36243.902,1316.3959,1595.679,-13521.331,26833.6015625
118,70029.71,70366.84,70110.836,-1029.7021,-319.09882,376.21817,2000.96020507813
119,5838.9688,6615.4976,5974.2275,-170.78574,-593.0636,884.1203,2000.98522949219
120,3147.8894,28746.52,12058.81,-4486.192,15440.152,9157.407,39162.91796875
121,-15825.767,2794.4067,19733.982,5038.427,-7701.1484,9829.409,38639.48828125
122,-24726.748,-5547.648,3479.472,-7693.209,3467.6292,8308.522,32298.34765625
123,50259.37,18117.37,11963.251,7079.2983,6246.861,3400.595,39634.5625
124,-2686.1074,-1182.6123,-30375.043,5096.761,14923.816,-321.40488,39458.453125
125,59486.47,59640.406,58710.242,142.20683,1013.0829,-189.64049,1998.32043457031
126,8291.015,8912.852,7550.4985,259.86597,-383.17218,-809.39606,2000.98608398438
127,47076.65,57607.44,55922.938,-17435.998,6288.896,-10182.637,37917.6328125
128,-37763.387,-8344.616,-16168.83,-14308.889,282.83194,1251.2738,36272.21484375
129,-23958.422,1510.2299,2897.0417,-16695.604,-1299.184,2011.6052,39234.27734375
130,29719.355,60911.05,34525.547,2632.7095,-343.9959,-1765.8167,29607.6171875
131,-4346.5913,772.3485,299.42212,14758.924,8667.611,-1442.0402,30151.365234375
132,-9187.527,-15619.445,-4994.604,3465.7659,-9615.634,704.4304,20020.5703125
133,1745.7949,20668.758,-737.7466,9568.775,-6834.341,-6504.896,30870.578125
134,-21398.516,-44637.562,-17654.29,13818.776,3937.243,4492.7817,36345.859375
135,27172.127,26876.092,28035.914,-515.1398,542.81323,-641.4628,2000.98608398438
136,516068.3,516378.6,517408.8,2450.5828,-1143.8168,321.6004,4871.19921875
137,10797.18,9606.191,10378.492,97.76165,554.36334,-807.92175,2000.98510742188
138,10051.764,10538.357,11362.526,-192.04945,923.00195,11.109035,1995.96606445313
139,18778.852,13455.265,357.25803,10597.004,978.46405,-1563.8503,24833.953125
140,29546.79,29281.428,24377.309,-8539.404,-6210.3813,-7692.309,23182.056640625
141,-453.87695,-21249.865,-37892.906,2973.685,-11697.364,4570.3345,39436.65625
142,8559.463,21277.32,13598.271,3640.952,-7644.9243,3328.877,19271.71875
143,13469.852,-2575.916,-3605.1567,-2779.5417,-9627.655,-3793.0654,24888.869140625
144,15736.249,34017.574,37987.707,-3131.1887,14595.057,12697.394,39682.234375
145,-22649.047,8714.056,-5714.223,-7859.6846,5712.578,6033.311,33641.2109375
146,-44298.25,-15573.883,-10612.832,-3059.3801,-730.36835,-1343.8074,32051.544921875
147,-10882.977,-6180.6147,-10498.867,-4409.143,-17320.854,-12554.478,38100.6015625
148,5170.218,12322.926,14851.525,-2105.313,-12859.245,-1485.0193,24323.544921875
149,-11866.208,5191.9277,-8341.528,-6042.3076,-19008.967,2664.392,38185.42578125
150,30849.586,29803.256,29609.559,648.1514,-632.1051,264.02737,2000.77478027344
151,10507.602,5376.9136,15348.133,-3282.738,-1860.2474,-547.6685,10872.0029296875
152,-19008.879,4449.9473,-38342.258,-7572.7383,1274.7361,-2928.848,39752.7734375
153,-5575.373,18843.5,19214.318,-17706.521,-1130.6355,574.26385,39380.97265625
154,19501.15,36737.215,1302.2804,7636.0986,-5207.9004,-1312.1672,34690.33984375
155,-2959.5679,-25280.844,-45963.734,200.74236,-4986.603,4406.2627,38995.57421875
156,47368.15,20019.29,21240.896,6970.053,1854.8861,11962.757,36075.3671875
157,-109366.484,-92681.6,-100856.836,1903.8811,-16033.373,12141.596,37857.01171875
158,-52659.82,-12652.817,-21042.559,-384.00882,-8941.554,-1797.9625,39815.75390625
159,248187.38,240226.34,282847.16,-1031.5912,-722.552,-1216.9016,39367.59375
160,2188.1436,-27077.832,1707.1328,1578.7566,7387.6587,-5704.875,33339.140625
161,-49187.625,-60913.625,-20776.736,-5926.447,-7523.3022,-3218.7524,39800.41796875
162,-14498.365,-28374.336,-40461.48,16625.207,2642.4114,997.2188,36871.19921875
163,-53193.008,-32359.455,-70911.86,10792.689,303.906,890.3336,38330.703125
164,-43252.62,-15953.003,-7141.1504,-12822.649,3170.1204,-837.3911,39862.16015625
165,19315.564,31016.955,21061.648,-20405.36,2280.825,-217.06612,37207.84375
166,-38067.37,-835.14575,-11012.7,-4524.4263,4637.552,-6155.024,36748.78515625
167,24916.768,17694.346,28125.46,8580.791,15905.528,-1349.8833,32725.3359375
168,-95494.305,-80639.83,-52582.902,-6040.7017,-262.52512,-36.78079,39170.125
169,-557657.8,-546289.56,-527314.25,2980.4539,2471.6787,168.11256,27387.541015625
170,12864.343,25240.398,50325.895,-2419.0623,8561.55,2203.9788,36673.3828125
171,-26371.61,-23762.426,-23410.742,-3688.539,13274.108,-6786.3013,26747.572265625
172,7946.341,8142.2554,4939.4937,-1336.3236,2980.6782,3890.0325,9331.466796875
173,-50067.086,-30611.285,-63810.46,9680.164,-10296.817,-2671.2236,38149.6171875
174,118847.73,116262.03,156832.7,-3198.9678,345.16824,2607.7214,39990.25
175,-22883.92,3927.103,1078.002,5196.342,-11619.33,-8457.205,36758.21484375
176,-22709.488,-22230.15,-23940.83,120.127396,162.98921,-717.0072,2000.37060546875
177,-21422.646,-38453.945,-37722.395,-3580.6746,13808.306,-7087.1035,32238.080078125
178,-6416.0957,-36229.76,-5150.0596,7301.8,1986.1769,8724.664,36446.47265625
179,-2839.6826,-19352.742,-33297.273,627.4813,14224.003,-7388.1978,38331.48046875
180,-11458.068,26751.81,2259.672,-9343.367,2639.5938,-2535.6545,37763.80078125
181,-64121.832,-52474.43,-26982.51,12778.778,-704.05347,943.73535,39704.72265625
182,46503.004,16014.928,17969.396,11502.179,-10126.09,-775.8445,39750.14453125
183,1924.2837,424.07077,19855.602,15185.321,-2554.934,-13542.13,40152.41796875
184,383405.25,382369.62,383621.94,179.57591,-360.5575,847.6338,1996.51611328125
185,167190.22,167439.4,166504.97,-23.890425,337.3891,-973.6048,1972.14184570313
186,7675.8403,15008.904,12683.7295,8002.5806,-8658.207,3397.2905,22220.978515625
187,-19840.688,-2555.2812,-17332.8,-9056.977,10628.873,-9453.04,33388.7734375
188,4864.4746,4913.2593,5571.6196,153.06949,992.48224,-411.96747,2000.6103515625
189,-2893.9983,-8045.9287,24600.479,-11834.454,1521.2162,4699.507,37649.6953125
190,2328.834,735.4753,1236.0609,-87.59911,-708.06085,-402.0735,2000.95629882813
191,-10768.637,-11675.333,-30454.594,5966.9116,5074.615,-2537.7087,23956.146484375
192,-14510.127,-2381.859,-21153.33,536.4051,-7807.001,10917.882,28515.06640625
193,1373.481,-520.71045,33746.86,10375.646,1038.0731,-2241.364,38134.1171875
194,-3001.798,2053.7078,5475.7617,6693.6978,14460.222,3757.5632,29302.515625
195,43108.63,36257.39,76677.15,3025.2134,-5943.449,-3827.4475,39763.65625
196,44881.676,37439.797,60327.145,16363.294,3444.5579,-9371.592,38874.6015625
197,-30607.266,-40694.703,-16266.082,15456.891,-3149.501,-959.3654,34660.60546875
198,-31076.021,-52565.01,-49262.875,-17161.193,-9300.26,-3145.167,39678.73046875
199,45080.938,26240.293,15623.112,829.78796,9115.354,-4864.346,31465.048828125
200,38209.887,47030.406,47150.285,4493.545,20048.928,8545.739,39552.70703125
201,158688.2,164206.88,159441.94,-3219.3455,11973.935,14472.901,33413.72265625
202,105455.72,93974.59,65393.484,6598.5493,-1803.8097,3930.0483,38256.48828125
203,-69010.56,-74951.16,-110459.97,3656.296,698.2324,4369.522,40074.37890625
204,-4471.126,8518.627,-7075.3135,-1586.5267,11103.874,-17845.998,39271.125
205,-187576.78,-171559.75,-213338.42,-9389.357,1987.6453,594.20013,40127.59375
206,272291.6,261959.39,289516.75,-18174.756,769.2741,-462.40207,39683.95703125
207,-546513.5,-550449.56,-583255.9,-9555.639,-416.5236,1500.4442,38756.671875
208,-139130.52,-124697.37,-167555.4,-5115.968,-496.6248,2411.5618,39028.92578125
209,-1220581.9,-1220825.5,-1223342.6,1046.7783,-9284.982,-10336.869,24279.23046875
210,260348.94,246619.95,221203.7,3289.922,4461.431,4731.036,36643.4453125
211,593865.25,595071.94,593994.94,-855.19934,-173.34448,-366.59143,2000.95776367188
212,279531.5,279118.53,280224.75,166.9703,992.7547,-93.418755,2000.98315429688
213,860843.25,859345.25,850725.1,-1498.879,-5001.3135,-6658.5474,17442.80859375
214,789105.56,764700.1,777568.44,-282.98035,-2367.4465,-7219.6377,24911.568359375
215,-306798.47,-300380.38,-291471.38,-19184.266,-9590.79,2127.457,39640.6015625
216,-17122.55,-23639.645,13069.391,-2227.2002,-6465.2812,4866.5293,36906.90625
217,-15432.127,-42938.605,547.3496,-698.27747,-2475.6628,-237.28616,38360.234375
218,-1591.0122,-398.78564,-19751.234,-3253.145,-4086.6301,2281.3423,21220.986328125
219,-21477.738,-20949.82,-19449.725,-129.12433,-6957.6235,-1108.3228,12340.2451171875
220,10190.245,2498.7952,820.09717,-1728.3271,1203.8569,-421.46786,9419.666015625
221,3348.8516,-4871.952,20740.414,-301.2546,-3760.365,2734.407,24044.642578125
222,-7648.036,-21751.715,-20813.281,3304.272,-7190.778,-113.79009,19351.33984375
223,-8787.856,-15117.924,8502.4375,3401.3782,6612.757,-8178.2856,28548.546875
224,-36460.836,-39016.902,-34956.992,-1534.5107,-434.38092,-22662.74,39510.36328125
225,-915.06067,-16325.883,11352.776,-4671.314,-5680.4443,1521.3586,27317.763671875
226,-18726.973,-405.75708,26269.697,3384.8647,2672.3367,329.20334,39901.0625
227,-14576.062,-12618.351,-4952.5317,-13568.078,-4739.956,-3199.5842,26981.4140625
228,-28466.508,-32503.945,-23695.35,5082.0225,14383.74,-6733.714,29874.966796875
229,-13824.466,-16908.904,7402.034,-5671.7065,137.61359,17381.096,39095.0
230,-23398.81,-8767.374,-18372.02,-2516.6086,-786.9162,-7492.995,18843.857421875
231,-4551.937,5852.7705,-10909.312,-2229.1487,-4614.3667,9678.664,23971.54296875
232,14814.868,30933.951,2327.421,5878.8457,16765.61,313.30637,39550.99609375
233,3530.7246,20858.28,4140.176,-326.02884,20212.734,3761.2437,39477.57421875
234,-8160.7207,14238.4375,30519.746,-11194.112,-850.4008,-4561.99,39648.7109375
235,-14314.829,4464.887,6250.1626,-4520.4033,18749.627,-566.1331,38811.09375
236,-11912.226,992.34564,25307.342,-7450.6387,-5527.391,7585.6294,38760.01953125
237,-24783.527,-249.67351,-40560.81,5334.8413,193.71738,-3555.105,36896.078125
238,8660.918,5604.2944,-26182.791,6092.032,10717.118,-1989.9742,39808.43359375
239,11121.596,-3126.8984,1505.5671,508.34146,-2047.3508,-4490.521,15241.9873046875
240,17138.229,7922.4907,-17178.713,5883.249,-4074.6443,-652.159,33185.0625
241,15365.703,8997.23,17095.31,8029.332,-5672.3247,5728.33,21046.17578125
242,18746.908,16849.236,-9553.879,15739.606,1649.1295,2713.6165,39042.1015625
243,33217.76,14862.87,12051.638,12504.817,6086.6924,6013.595,32941.61328125
244,25139.535,-16118.951,4886.3164,38.411144,5166.204,1162.5461,36891.27734375
245,71643.19,54258.51,29175.842,-1050.3555,6644.8315,-510.0156,38781.0859375
246,26836.094,17285.096,8912.272,-5472.8735,7567.712,-3499.6465,23231.55078125
247,17723.537,-5745.5264,-28.711433,4779.2246,5780.839,6074.7476,26996.212890625
248,833.0934,-6925.5947,1452.3179,-10905.097,-7625.234,911.6639,24475.998046875
249,20090.871,32810.04,31626.914,3380.7932,-9260.726,10951.963,28276.095703125
250,3653.3777,-6835.919,-15913.833,-12138.03,-3833.6562,-11323.966,34035.828125
251,61013.2,37249.184,57509.492,10427.523,-3052.239,173.45946,29120.109375
252,-39853.46,-40343.254,-40824.586,-661.08636,-749.38367,-316.6386,2000.98571777344
253,5464.856,-1923.5812,15357.24,-17724.193,-2455.968,-5510.2397,35737.40625
254,57915.57,57398.945,59070.695,-400.27255,-512.3423,423.40753,2000.98522949219
255,89685.13,89785.16,89750.18,-151.42351,1142.5206,-61.550545,2000.9853515625
256,-146614.25,-147360.44,-146403.9,-913.82886,479.24338,128.6201,2000.47436523438
257,30450.826,32255.85,30863.957,-342.24817,-133.06622,-552.67505,2000.986328125
258,16463.89,17505.07,15930.971,226.34961,-668.15924,442.72192,2000.98608398438
259,22374.783,4883.259,7957.884,1733.0582,5349.7554,-1437.1339,19044.501953125
260,-39586.953,-31103.06,-47076.19,3199.5708,1590.1985,-14836.261,29836.970703125
261,-65034.684,-70821.85,-93741.5,1225.194,-3016.5488,-4079.025,27805.732421875
262,-29521.898,-28196.717,-37957.535,5101.0356,11406.246,-2677.7615,23957.77734375
263,17049.318,12870.946,-19727.873,-8021.2446,6152.1353,2066.7388,39188.4375
264,33019.27,39809.05,30935.932,16064.854,-2719.1006,4880.864,30536.4453125
265,-2749.3274,33254.35,19417.834,-13061.857,4888.1396,1321.2943,39727.875
266,31906.97,50753.17,15319.701,-8225.485,151.19205,916.5152,33889.3515625
267,-6585.592,17635.16,-23160.057,-1112.9078,9165.533,2796.8113,39268.39453125
268,-17601.963,13554.41,-21253.744,-9169.101,6400.0693,-3117.2207,38756.7109375
269,-30197.45,3319.1123,-11806.627,12866.624,-6506.302,-3377.5684,38769.25390625
270,10706.0625,51842.723,30376.72,-3249.2327,3416.6711,-5573.0234,37813.2734375
271,7735.0874,30903.467,5707.0303,5527.342,-6211.411,-589.0263,28219.033203125
272,-25527.65,-15480.71,-31355.244,-4418.1313,12314.995,3176.9546,27152.66796875
273,-9701.881,-4908.7656,15310.396,-10591.294,12909.639,-2011.4291,37112.5546875
274,-14895.726,10279.587,12095.211,-500.37936,13824.054,-1404.5822,35535.68359375
275,-176108.95,-182701.16,-211134.69,-13360.653,-2001.33,-1765.9913,39953.16796875
276,3267.9482,35373.895,12576.936,-12056.865,-10259.014,-2976.1206,39962.3984375
277,-17871.438,3098.0837,14937.176,-6640.1245,6658.229,2848.799,33432.94140625
278,-15332.613,-9100.68,-5191.7476,9581.066,-271.51556,1160.2551,18924.248046875
279,-24069.766,-5348.627,-12436.804,-7115.1533,3025.9766,291.99597,21157.177734375
280,-15773.246,21067.09,6020.9893,4246.604,-9008.647,-5977.2295,37868.74609375
281,14273.699,21229.5,10164.777,1250.0095,4203.433,-10266.482,21627.375
282,-815.5537,-21265.01,-4434.782,-7549.964,986.5914,3800.2368,23969.12890625
283,-12204.397,-19779.87,-6026.5176,-6570.2886,609.18243,5282.359,18886.0703125
284,-20240.258,-8622.774,-46.76758,5302.339,-4056.4055,-514.6989,21039.197265625
285,20670.023,14771.837,15831.507,1099.325,-2036.767,-2811.813,8333.73046875
286,-149347.5,-144551.72,-164165.45,-4858.8813,6009.338,16001.064,35509.1484375
287,57319.637,56198.324,69549.664,2001.5048,13118.782,16171.101,38436.74609375
288,39301.402,44544.113,56110.086,1999.1897,19578.867,1449.7821,37285.20703125
289,-30163.39,-24169.93,-49252.867,-12455.046,2470.962,3221.3328,32086.978515625
290,121355.26,111257.836,108825.88,-1833.7715,15864.589,11221.608,35711.98828125
291,68997.63,74951.54,69376.67,-16618.842,11777.843,9188.3125,39132.10546875
292,2081.2607,-6414.5654,-26537.492,-9297.508,4495.837,-10572.78,36102.51953125
293,24918.768,7276.3853,21345.748,8411.955,1633.7319,3412.081,22720.05078125
294,112526.34,87338.11,95226.055,11995.229,10464.649,-9188.0625,38877.08984375
295,6950.3496,-9480.612,-14686.4,8138.949,-1064.1226,6270.319,26508.265625
296,324911.53,341992.03,334338.88,-5631.853,-10420.686,-4053.2964,26264.1875
297,-247307.2,-237595.97,-254613.3,10497.582,16615.264,-6114.901,38595.50390625
298,-65684.88,-26136.672,-34117.52,1187.5978,-25.128672,-6789.862,38140.08984375
299,17786.105,1658.9209,25973.508,3374.5146,-1236.8182,-7173.635,25540.041015625
300,-10166.13,-9839.336,-5472.3184,-5777.811,-1306.575,9487.746,19897.92578125
301,11443.128,34243.773,-2099.2603,-6373.8438,11884.652,671.18976,39484.234375
302,-21497.748,3016.8225,-21805.592,-16437.182,7757.9336,674.53,40013.37109375
303,-4801.1514,25781.844,-15960.32,-3665.5574,-24.952417,-7045.15,39879.07421875
304,-649.6035,-14745.688,10113.421,-5948.558,6889.819,3554.823,27435.998046875
305,-23686.365,8576.527,7923.7188,-2629.713,5109.6304,-4457.319,34335.59375
306,2033.8887,2239.3672,2430.9346,-194.96663,-1055.994,376.94104,2000.98522949219
307,-7056.5,-7441.3477,-34062.33,3412.3113,-1919.2509,-15663.163,38743.4609375
308,32604.34,31331.986,40134.832,-1876.259,-1464.6134,-2845.502,10449.669921875
309,34848.758,39010.72,33193.625,2282.4182,-1803.533,-6494.7036,13374.6025390625
310,33020.547,23091.66,22257.068,-13336.723,-5658.9473,3730.3047,27910.337890625
311,122639.41,122509.164,121589.45,133.37848,-971.2483,-214.4694,2000.98645019531
312,21176.615,13269.699,12328.205,-5956.992,-967.3449,1175.2303,13574.169921875
313,-25093.79,-12603.171,-41949.535,-5126.477,13652.915,10226.248,40030.58203125
314,-36569.82,-21723.037,-63963.914,-1969.5352,-2280.4456,6927.751,39354.76171875
315,18064.34,29974.99,19205.398,3191.9785,-13646.499,-10817.232,32708.705078125
316,-24717.348,11235.193,-1660.6418,8212.085,592.1692,11344.58,39808.484375
317,18388.926,32176.074,17097.096,9312.8545,-1822.5876,117.516426,21903.416015625
318,66010.09,60116.8,67661.96,3400.278,11548.373,-16452.988,35973.2890625
319,51108.902,17424.78,20892.074,6493.03,3204.979,6820.311,36423.80078125
320,-891289.25,-891440.3,-898682.2,234.54228,-10859.401,-12588.0,29713.291015625
321,-412299.62,-412965.0,-411782.4,-746.6268,-512.3454,-369.6284,1980.93591308594
322,-16670266.0,-16668732.0,-16669622.0,696.09644,-477.9271,166.85176,2000.60192871094
323,41657.1,32173.137,40841.16,692.7575,-1400.172,3896.3533,11650.703125
324,-236012.56,-235301.23,-227323.72,16807.719,6492.7217,7723.384,34967.66796875
325,20727.957,34572.5,61899.86,5177.2563,-268.46637,1844.0255,37518.265625
326,-23479.648,-7239.9795,360.81998,4932.2583,7998.7397,10161.335,31931.375
327,-1823.0133,15978.886,38076.867,91.67464,5657.7944,1242.6484,36045.86328125
328,4508.7295,1076.21,-18818.188,-331.5846,9241.776,15918.455,38634.30859375
329,-2810.8413,2858.0776,-14488.682,-6894.1157,-189.4826,-11002.107,27212.9140625
330,234.60313,-11757.432,-16035.7295,-678.1171,252.2689,-1204.747,14810.23046875
331,19138.33,-361.10095,-19746.256,3570.7744,7891.1016,4841.926,37807.4609375
332,14321.359,3316.999,-7908.965,-3184.3767,45.422398,12331.745,29279.609375
333,-33653.277,-47795.9,-38647.98,265.90253,-10885.682,-9272.746,27712.458984375
334,-50758.434,-49640.098,-58461.812,-7113.8687,-8117.9316,2536.9536,20929.404296875
335,43037.133,42013.49,42929.24,-64.63313,313.90012,-956.7786,2000.86279296875
336,15054.919,8376.109,15898.533,1463.723,6214.823,-1289.336,13350.6259765625
337,11289.529,27548.613,-11564.081,2851.4045,6470.8135,-5585.0747,37440.7421875
338,-7029.0728,5817.4653,14742.127,-12645.886,898.00885,-7768.192,31977.2265625
339,1494.418,-33360.434,1276.248,-6260.2383,-4605.6494,-8386.712,39994.03125
340,-2367.8467,-17912.68,1752.0498,-17267.777,8321.231,1665.2744,37858.08984375
341,-6153.5776,-3158.388,14478.389,-88.30275,-9909.462,-8188.3447,29472.279296875
342,-4412.7437,-18682.023,-3384.085,-6797.238,-6429.306,-5023.025,23614.748046875
343,-35547.656,-15572.549,217.6362,-13229.403,2151.3875,4532.0947,39551.2578125
344,-16694.217,8877.623,-22552.281,3515.1262,5562.6494,2830.8801,31495.66015625
345,-3625.7578,30298.504,13249.042,-2429.3293,-6633.319,-9482.116,35813.24609375
346,-47343.65,-26895.812,-14294.199,-12144.077,-2116.0225,8073.6865,38548.828125
347,-5636.6997,-8299.111,5904.2773,-13357.612,-8115.0576,11.74459,30064.095703125
348,-18493.02,-22778.238,-37324.52,1166.0562,-5110.4463,-2785.13,19949.71875
349,3528.1597,-948.5083,7874.2744,-20570.832,-4311.4404,2582.3586,37465.10546875
350,151048.42,150223.17,151879.23,340.56964,560.9261,-466.81592,2000.63586425781
351,64.26953,-18292.387,-16137.156,-8154.994,3582.5242,15143.917,35043.95703125
352,-11977.426,7329.0044,4436.9766,-447.57452,2516.9487,-7082.3145,22256.482421875
353,-468.9702,-5527.1523,19146.484,-4245.479,1422.9036,5858.988,25936.447265625
354,-16405.152,-17675.186,-23029.393,4032.7183,-3888.4001,1909.1864,11923.2099609375
355,-19517.664,433.56348,-5809.002,-8348.915,799.17926,5283.0073,24642.1171875
356,-35766.324,-28104.264,-28893.947,-3851.5627,8273.929,-14839.033,31044.294921875
357,-19400.814,-7653.5625,-11321.1455,-8379.678,7415.824,-5857.0947,24226.474609375
358,2092.6006,4554.0776,29230.703,3365.8435,-937.335,2517.4373,27043.86328125
359,1067.4131,-1843.5784,-12082.754,-3164.1226,2560.192,-1603.3274,14160.9130859375
360,796.7388,1554.0269,12869.052,-2044.706,78.14762,-714.5844,12298.970703125
361,-11284.597,-16152.668,-21629.783,5045.6694,-1448.4851,649.4816,12817.8017578125
362,-18094.453,-5855.69,16827.674,-4576.4326,-9823.836,-2848.2913,36312.96484375
363,546.3939,-6866.6914,1205.8458,-2365.623,-1271.8325,1512.7828,9422.5263671875
364,-19313.758,-10315.06,-14435.941,-1895.3265,3667.0408,5122.4585,13809.87890625
365,8959.732,5699.1157,26270.707,-3256.4163,-7405.884,-1638.1393,23898.755859375
366,-6306.032,-8021.348,-24860.008,209.68796,-3103.4546,-2597.08,19095.2109375
367,-51100.812,-52273.04,-84427.82,-4174.388,899.0988,-638.29443,33599.4140625
368,10525.176,36733.535,49282.332,-5835.4873,561.21454,1379.4989,35805.67578125
369,-13051.309,-211.71289,-20825.598,3102.5796,-348.60336,1453.7792,18992.01171875
370,13160.769,12739.019,41409.844,-177.25366,-2137.4849,3334.6548,29279.048828125
371,2568.649,9570.029,11737.757,5735.5693,-1460.6178,-821.6286,13266.919921875
372,-5369.509,-3364.096,874.94434,2457.886,-414.12097,1988.8328,7810.0341796875
373,-6042.7524,3439.9087,2321.2788,5056.989,1296.8485,919.8543,12840.087890625
374,5692.9585,5975.0186,3184.2207,-1072.6006,-664.18304,-225.0538,3465.21557617188
375,939.3623,6496.676,5873.078,-767.96106,1284.7054,-1076.429,6164.72802734375
376,20691.076,3129.1748,1050.7036,-5187.0034,-623.21466,-2517.9355,21216.5625
377,-11944.722,11349.739,11396.28,4940.0044,-2465.5947,5780.9365,27118.70703125
378,10131.275,8682.753,24725.154,1594.4745,2278.0361,283.87036,16113.8525390625
379,-6697.199,-15517.786,-23756.738,4519.9927,1149.4674,-40.065983,16840.876953125
380,-21431.625,-13336.959,-2108.3467,-8259.632,-4518.2554,3283.893,24098.912109375
381,25140.293,5473.5176,6075.0513,-1202.8693,4997.2256,104.30993,21321.439453125
382,12455.92,26736.348,4653.045,3740.0234,-2398.8176,463.2665,20883.34375
383,4073.2527,9576.604,1484.5693,-257.88782,2373.3245,554.8831,8322.0068359375
384,5135.2363,16109.334,-3038.7974,4725.494,1584.8945,-1548.7039,18938.59375
385,-6043.299,-891.9982,5747.511,2864.285,-2620.4392,1932.9513,12698.12890625
386,11585.285,4575.0796,-1688.3105,-557.58185,277.5978,842.2094,11643.5615234375
387,-14974.309,-13944.471,-17423.527,2712.6545,5310.563,-1699.0624,11176.9267578125
388,-11216.055,-17141.84,-18905.906,2397.3918,973.6918,-1607.2147,8747.3671875
389,-55600.895,-49938.637,-45724.76,-2259.5017,21566.834,-1089.0901,38573.7890625
390,-2666834.5,-2666985.0,-2668470.5,560.5057,450.29367,-12.568939,2001.04858398438
391,11364.641,12337.745,-28191.559,-757.43896,-317.06198,-424.12274,40083.59375
392,-7664.654,-4969.8823,-14117.547,1968.0168,701.5547,206.09804,8917.05859375
393,-154643.88,-154930.36,-193067.42,1016.34204,870.59106,238.28381,38353.4375
394,33031.69,22988.94,50062.625,1608.6376,-1163.0249,1507.1775,24095.28515625
395,6669.6143,-4401.041,13860.308,4287.0596,-2787.0593,-2721.4917,18828.978515625
396,-8733.803,-15127.527,-15261.479,-3241.2212,5389.4517,2571.3813,13425.5439453125
397,712.3401,-3706.1006,5817.2363,-2222.3005,-1451.3622,-756.71826,9538.9384765625
398,-9172.539,-3739.9675,-6904.718,-2130.2178,1494.1504,-1453.8531,6999.125
399,-13974.602,-15984.945,-9420.519,-5017.5605,1855.49,-2274.1714,11632.2080078125
400,7184.415,-3844.4482,-1399.5481,-3613.3206,-938.18787,3035.1792,13042.03515625
401,20479.762,7627.3105,440.73438,6686.6836,-3926.8215,1697.984,22321.333984375
402,5289.547,24849.816,22705.43,-15469.957,1511.5396,890.4006,32748.26953125
403,9649.515,9095.144,16747.729,959.51825,2460.3418,-309.48465,8708.3994140625
404,4079.732,4914.016,-6660.254,-7480.8066,-1241.9204,-4600.836,19000.5546875
405,-1365.2872,-3680.4917,-2826.619,358.2094,557.7778,-651.7008,2589.365234375
406,985.1021,985.675,1250.8003,2203.3586,-1686.862,1943.511,5873.927734375
407,-6040.7637,-10308.602,-16238.773,1399.8585,-3276.5676,-1115.5114,10977.7041015625
408,180698.92,179129.52,149794.36,-213.53944,-495.341,669.92267,30187.2890625
409,-35860.543,-40702.1,-72167.73,796.859,-1548.7681,-3331.4614,34760.1171875
410,-1717165.9,-1717207.9,-1715507.2,-55.425545,339.98135,523.93567,2000.49157714844
411,-4837.785,-6824.3003,-4508.416,-840.4123,563.83466,109.351494,2795.97998046875
412,3611.3892,1902.1982,9717.784,1655.2004,-2109.4922,-1547.681,8910.7392578125
413,10470.425,19588.617,11010.858,1785.2664,-5694.1816,-1058.1046,13736.70703125
414,4420.8394,3140.67,2213.3223,2397.143,366.38586,-1176.7742,5047.96630859375
415,-51615.816,-45867.637,-26650.428,-11904.724,10591.072,-9753.735,39495.47265625
416,-24231.312,-23524.797,-30480.54,1657.6771,-6250.935,2190.492,13558.3251953125
417,-17022.03,-14886.025,-17383.48,1599.7152,-2150.1587,1017.0261,5487.71875
418,-779.5808,8758.492,304.91357,1326.6256,-2478.929,3275.2686,11734.7431640625
419,-3560.8672,1271.323,-2327.7449,1431.394,291.5089,-3588.6758,7996.833984375
420,-20400.213,3416.5015,8468.04,7862.6313,12661.047,1977.2256,37298.2890625
421,-747835.5,-747698.56,-746170.0,-24.183283,308.5327,619.49915,2000.81030273438
422,4284.8643,7594.758,6361.7715,-1058.7607,-679.9973,3372.2812,6874.70361328125
423,-3379.0933,-3711.7295,4693.014,-2384.1414,5893.974,5148.2046,16393.166015625
424,-6862.9907,5451.5273,-3716.4795,2773.434,1049.0703,-2001.7579,12696.404296875
425,9079.889,1809.657,-14164.438,2290.8088,3644.3958,-1265.3708,22012.61328125
426,-14005.086,-12282.868,-36681.2,-1990.6622,-4233.601,-4332.999,26042.43359375
427,2494.3555,1381.9573,8160.255,-4808.528,-5436.156,-312.78732,14069.728515625
428,-624.16064,-3150.8833,10145.521,-627.4297,-1205.9685,1167.7343,12618.1337890625
429,-39494.633,-27720.822,-60890.113,2813.7163,1398.0798,999.24316,29680.05859375
430,-3016.7126,691.43243,2688.4382,242.15614,637.5706,3363.571,7776.87548828125
431,-5264.0713,-7051.4526,-819.4995,550.03973,1294.9154,-31.200352,6069.107421875
432,-12344.164,-12389.643,-25394.035,3900.7102,-7458.856,4398.102,20983.037109375
433,4607.3125,8444.709,2055.1968,1135.5217,-2093.7766,1926.1174,7692.990234375
434,-16523.45,-22940.383,-36935.02,4332.517,846.9404,-3003.8916,20306.740234375
435,1705.2975,-11.802124,4620.5923,101.519516,2298.42,1110.5446,6002.68896484375
436,7610.7783,4689.602,9860.274,461.66248,1700.5399,-521.6258,5504.16796875
437,192.21886,-5024.6807,349.7245,-389.0034,-394.32806,-30.614197,5383.84716796875
438,-14223.9375,4510.237,-10091.747,-3213.818,1347.9396,1958.7834,18400.49609375
439,-5734.807,-9137.139,-5974.5845,-8124.5806,-574.6808,3678.6653,15825.0576171875
440,-4165.7046,-3186.659,-1542.2574,1016.78876,2586.6035,-2171.3435,6526.0908203125
441,-14289.28,-8784.813,-15544.716,-3254.7393,1172.6995,2610.1985,9753.50390625
442,-2704.3823,6312.472,12091.07,2052.2444,940.7987,-676.36884,13544.8701171875
443,-2639.3748,518.0635,-4500.0923,2311.4563,2691.2205,-1518.0786,7998.560546875
444,-12929.806,-970.76605,5631.473,1385.6256,3591.3018,2476.32,18122.177734375
445,-17051.93,-18264.549,-20206.627,-1149.812,-429.80807,-438.27924,3562.833984375
446,39557.227,31374.146,69377.85,604.2373,426.97076,-1223.7827,34733.15625
447,12770.987,11129.93,24967.344,-2102.878,-1525.033,1633.4282,14131.7666015625
448,13679.111,-3521.6248,13177.321,-2308.706,-2116.3145,-1522.9702,17996.416015625
449,-377.59372,-4726.473,6157.51,3325.739,2720.4812,-238.40808,12066.3125
450,2668.4048,825.5764,-4718.714,3615.489,632.16016,1195.4319,9436.826171875
451,-280.79044,-14502.626,-1840.0726,2404.5234,128.27377,-1678.6132,14434.814453125
452,-4698.794,-6533.649,4261.4746,-1304.9674,417.2633,-403.89127,10306.0380859375
453,-3424.235,-15833.082,-6588.9507,-2263.207,-1012.9992,2723.8455,12861.8525390625
454,16228.452,14684.357,44006.195,4468.634,-4403.5337,-719.15765,30602.447265625
455,18325.287,19413.365,41601.797,584.8596,-2798.304,545.583,23303.73046875
456,268.81247,-1848.6985,5935.656,-2007.7874,558.41296,-103.72421,7852.25732421875
457,-10339.55,-8654.895,-7337.059,-9465.741,-398.9904,3183.678,17506.587890625
458,11067.136,9015.282,10403.371,727.0794,-3248.0073,7077.0015,13666.5712890625
459,-9094.895,3888.695,423.0809,-2835.7012,-263.8813,-1002.8182,12764.6943359375
460,14984.6875,13683.815,32904.555,-11.491516,1105.9795,57.063107,18703.076171875
461,2370.3982,-758.82745,3779.1836,-35.046825,45.36331,-282.5594,4053.95068359375
462,-6123.969,-7817.1113,3695.9172,447.23428,-1731.1708,73.562035,11204.0400390625
463,55443.28,54990.516,91432.01,882.30884,981.7018,69.58944,36289.515625
464,77841.45,78932.05,115191.33,408.3212,345.71255,453.32108,36836.72265625
465,-4360.2207,-6428.222,-854.07794,-2509.113,340.68115,108.57816,6564.3642578125
466,-5569.1074,-7589.9883,-6602.3203,-811.239,-909.83276,-761.32666,3043.0341796875
467,-21401.697,-22617.826,-34602.77,-121.19348,-1156.6178,2260.0356,13381.8427734375
468,9945.085,29052.467,20929.29,1465.1542,1107.9797,583.82587,16941.39453125
469,6857.763,10928.963,9489.569,-596.2215,-3689.236,-1675.8606,7944.1689453125
470,-19785.652,-19446.844,-11014.163,7447.0996,-3715.9517,452.3593,16807.6953125
471,-6722.6,-4487.5825,-27615.379,-1349.9963,2213.3342,697.6154,22579.265625
472,-3338.0945,-2426.5725,7832.2207,-454.98608,-3396.841,2414.3962,12967.2421875
473,-6864.1855,-5239.1094,-5290.5195,-1103.6809,-1137.5046,-1419.7651,4017.86669921875
474,5558.613,6206.7896,9484.668,4157.013,1593.0393,776.6189,8634.4814453125
475,-10313.976,-1026.5197,-12211.244,-2696.759,962.6664,1485.0182,11776.7060546875
476,-5773.741,-20428.43,-408.00317,6238.001,-4407.161,-5700.389,24385.953125
477,71512.15,64045.086,71978.54,1648.48,159.37573,-369.478,8251.98828125
478,1439.0724,9555.035,16436.992,6498.2373,-6410.2705,-4635.1147,21988.46875
479,53762.742,54203.45,14079.788,-717.6693,101.30453,289.30328,39928.015625
480,-5403.621,-637.69025,-13324.426,76.69341,-2170.3352,473.4684,11748.3818359375
481,-7672.297,-9085.874,-6753.69,-5509.512,468.99622,-1518.5348,10138.16796875
482,-30275.248,-34219.242,-43937.85,4188.533,-1581.4506,1299.9448,14613.0263671875
483,-12468.892,-18383.238,-14425.898,-272.8104,659.5995,-1045.7684,5660.7724609375
484,-11996.3545,-10539.724,-13724.767,69.247734,-562.5062,409.0375,3015.36083984375
485,-20780.031,-16562.668,-34387.637,150.39838,-438.74854,942.1127,16237.2841796875
486,608.047,-3273.1982,1236.9143,-1370.4288,-103.325874,-1098.558,5214.1220703125
487,-9736.298,-10127.893,-19102.115,-219.08347,782.3435,-915.87024,9418.1162109375
488,-5796.6387,-7039.3447,1234.1564,4802.156,2038.8704,813.5047,11972.9716796875
489,-11134.279,-4955.348,-4445.899,-1899.7388,-512.0574,-17.600943,7293.9111328125
490,-37539.727,-30553.01,-59180.395,-3310.7117,-1017.6834,-118.62961,26539.8125
491,-32385.59,-41660.77,-61635.5,-32.179634,-1410.7872,277.98386,26009.49609375
492,-31893.326,-46559.99,-70992.72,-1678.315,710.0831,32.487232,34356.6875
493,3675.9214,2278.243,3646.6216,5083.1646,235.63875,-1555.4506,9319.546875
494,-30321.486,-35069.637,-51363.17,-2058.383,-265.04514,1413.5248,19603.67578125
495,-37668.082,-39745.44,-61052.58,-1956.7465,106.309395,389.06207,22683.62109375
496,-15832.339,-12301.4795,-2408.7654,610.6218,-703.74207,1088.7322,12305.400390625
497,-8966.925,3077.3438,4580.481,-1046.2426,27.24064,497.96332,13017.6044921875
498,-13491.738,-9333.036,-12821.034,-829.6751,1010.7824,90.174416,4484.4072265625
499,-1057.8276,-6129.782,-6167.8315,3284.4766,96.36224,-1622.3263,8136.71923828125
500,-88030.76,-87762.82,-116401.63,1206.5602,631.72375,-2528.0974,28936.455078125
501,-2064.6301,-9185.234,-5264.472,5945.8433,-1237.7994,1500.534,12472.673828125
502,-9397.227,-11478.353,-13165.468,-1902.0479,-1157.5972,-2903.6665,7131.32763671875
503,-20674.596,-17169.502,-21551.566,-2352.8257,-680.5868,-1327.6508,6278.021484375
504,978.16205,-7774.101,-18043.572,4269.124,-2231.6003,-3705.017,19563.8203125
505,-19984.791,-9069.506,-14409.487,-3394.7773,-2626.2266,-1486.0697,12298.8369140625
506,23232.486,25295.643,42132.375,-172.3821,-607.12396,-89.350426,17991.328125
507,-8198.488,10904.9375,10297.329,-308.90506,3021.4578,1502.3965,19701.474609375
508,-7240.7974,7970.0034,13149.601,-3959.1099,3500.126,1205.822,20618.458984375
509,11532.633,1944.7427,-452.99966,-1249.0305,-1002.3722,-318.9918,11343.0966796875
510,8908.313,-677.8404,933.6912,1372.7277,471.34824,-376.9536,9262.23046875
511,-3175.9075,-5519.6836,-2790.2463,481.5187,-1737.7169,-196.34984,4051.68408203125
512,192.14624,852.56384,-726.7973,217.53249,1352.36,-1763.2338,4104.03076171875
513,1407.7096,-375.23645,-8335.499,1697.2206,-1131.758,988.89984,9805.8896484375
514,-2845.117,2345.2383,4198.1084,2229.5515,387.7239,112.89749,7442.5732421875
515,-7748.6216,-5136.59,-13356.998,465.66916,336.28915,-166.49698,7348.39013671875
516,-24875.688,-13913.361,-14684.137,1971.4137,-1298.4269,-2393.7102,12092.306640625
517,-29259.164,-11525.285,-27896.227,-479.12228,-1016.0086,195.52611,17206.919921875
518,-81905.4,-86100.47,-113934.125,277.80887,219.3609,-23.812935,30157.134765625
519,21276.451,12016.725,11634.248,-4633.7285,-3432.243,-455.79434,13777.115234375
520,-108.25552,-4593.9595,7646.6216,496.51718,3811.6975,2605.9197,13406.8974609375
521,-13040.155,-10102.262,-12340.031,3575.6165,2677.4521,1524.0946,8596.1875
522,36516.547,35837.277,65729.93,736.94336,326.348,257.89523,29595.189453125
523,3618.2483,12212.4795,18797.418,419.61093,615.62067,1451.5115,13483.34375
524,1283.4105,8118.3306,5342.6255,-628.8049,-902.04,-636.1648,6347.46240234375
525,-8846.972,-15784.436,-9561.817,755.6217,-738.7406,-460.56735,6904.10498046875
526,-31658.145,-39509.223,-52750.516,-48.803864,569.14276,-1614.3301,18700.984375
527,-1430.6045,-12594.047,-7130.1704,-3850.8147,-1561.8761,-627.2335,12102.30078125
528,-3789.7312,348.9861,-221.26608,-444.04016,1252.2319,33.539482,4515.88330078125
529,-304.91513,-5988.5933,901.7188,-2014.5746,-528.37805,1079.1438,7558.109375
530,16431.275,10304.386,20386.053,4795.702,3914.481,425.29953,13889.490234375
531,15521.481,4451.1636,17823.494,3821.6948,-458.74603,1585.9655,14329.287109375
532,-14575.467,-12063.699,-18870.928,3331.093,-1203.8987,-1016.38947,8734.1259765625
533,-14114.09,-20831.385,-28834.113,-1277.1145,274.3473,549.0315,12997.90625
534,-16231.711,-19771.467,-30534.037,727.6396,-165.13327,-78.28826,12967.1982421875
535,8291.407,-5633.0195,-5649.5566,-6269.975,160.2989,423.95914,17682.59765625
536,1727.4536,-9514.097,-12154.909,-4429.896,-704.48816,1232.0116,15097.9326171875
537,-61720.215,-48573.332,-89880.77,1251.4373,-835.77686,771.6354,36669.62109375
538,-29925.783,-22129.805,-36477.453,4927.8105,1105.4374,982.8098,15303.3330078125
539,-10209.162,-4850.772,-20163.682,-1085.34,-731.66254,-719.406,13705.3828125
540,-6277.1377,973.3911,-9043.358,2528.676,-360.64783,-420.31186,10019.056640625
541,-35156.42,-38465.082,-72096.61,-4477.483,2491.5496,-1376.9961,36575.3671875
542,-12204.16,-7277.846,-7349.1,4864.101,-263.67325,-106.45945,9754.16015625
543,-9565.098,-16003.348,-6435.4043,6451.123,360.99313,657.26965,14068.8916015625
544,-30194.992,-30341.809,-62666.38,563.5348,145.08119,-574.83044,32429.189453125
545,-9961.992,-4091.0583,-4638.8247,1245.5177,2115.9998,337.17688,7069.60986328125
546,8664.679,1231.2067,-9676.452,1379.1129,-559.44165,653.2809,16224.6845703125
547,-26029.314,-36845.113,-60113.453,-4988.9937,916.282,-138.5458,31421.478515625
548,-35784.254,-47863.97,-75797.4,385.7085,-1988.5023,140.02557,35721.0234375
549,-3747.5493,-7190.6904,2632.8694,6026.874,-2725.5637,-609.1445,14384.107421875
550,-11218.405,-6419.2676,-4509.1084,5808.924,1291.1204,476.35294,11948.2236328125
551,-15991.043,-8448.144,-6640.37,4022.635,-705.24,-157.7218,11131.5185546875
552,-16006.509,-10786.931,-15603.089,-446.191,-493.09708,3606.4646,8102.3154296875
553,-17393.408,-14906.119,-21631.984,-6840.133,1091.1848,522.9693,13395.8759765625
554,-62170.81,-49262.145,-84582.086,-2388.4954,-28.44058,-1032.3239,31281.189453125
555,12106.35,4559.125,17850.031,-3056.135,-360.00006,942.8989,12820.888671875
556,-7259.6143,-1987.2461,-7977.647,-4490.883,154.46643,-356.82614,9646.595703125
557,-17469.408,-1663.3457,-10257.343,-367.42957,-804.7835,1675.7987,14093.40625
558,5450.824,4459.808,6107.7686,4613.942,-412.1027,-79.07345,8152.19921875
559,13789.775,11148.079,23015.947,5866.111,6.0873,-329.17773,14833.4921875
560,-65529.617,-57964.15,-92924.84,-1034.8312,1059.9436,-1386.4819,32052.18359375
561,-54002.625,-47422.87,-77731.61,-670.8939,-667.14343,1773.959,27831.908203125
562,-6853.3286,-7662.296,6530.849,4369.5713,3843.1184,1496.5885,17289.4609375
563,-5567.2485,3343.3137,-12589.746,2678.2407,-976.135,1754.3712,14996.62890625
564,-10295.021,-9782.653,-17603.854,-1273.3652,44.131706,-121.882935,7895.64111328125
565,-84.51104,6820.7485,6182.3877,581.12115,46.702118,563.753,6756.86083984375
566,9347.6045,-376.99692,-6372.7485,816.2348,1178.0707,1668.5201,14259.640625
567,3626.0422,-3044.3313,-9632.434,1554.0792,-33.958687,-205.13998,11799.037109375
568,16964.627,8902.258,28924.246,-1611.851,113.17388,-1045.2842,17764.22265625
569,-18120.182,-23519.578,-28699.527,-1954.918,-1178.1703,-805.6841,10076.244140625
570,-5367.6704,-11601.459,-8081.056,-3995.9585,661.4232,719.8429,8948.626953125
571,-31945.72,-33072.89,-64547.125,-5442.7954,-2290.7393,1898.2587,33805.31640625
572,-5747.28,-5897.6787,-3815.4595,-4684.3413,1387.9132,964.4737,8856.8505859375
573,-8445.462,-11969.74,-15789.801,-197.24391,731.5867,1357.5968,6908.541015625
574,2061.533,2775.9104,7171.491,-142.15436,107.99992,-4599.9995,9303.0732421875
575,-5344.518,-7114.4653,-6088.105,1355.1536,-1676.5392,-829.1748,4286.46630859375
576,10275.251,3806.8372,14663.235,-618.14557,171.78833,-103.73631,9526.0283203125
577,-21109.525,-18937.594,-20589.574,7994.735,1223.3231,-1624.7183,14422.7041015625
578,-6382.9395,-9224.836,1699.9528,8328.897,1489.3407,-3854.6704,18860.5859375
579,27545.617,26987.031,48091.33,1551.8265,1809.7274,-2176.7517,21568.017578125
