Element Label,S11,S22,S33,S12,S13,S23,Mises
1,214232.11,216351.92,234773.97,3675.6394,10823.928,-7304.8726,30577.82421875
2,-320571.2,-319509.47,-357337.16,324.37897,3180.9644,-2499.6777,37964.66015625
3,565386.9,567826.7,599716.56,-1223.8353,9594.754,3607.5784,37688.6875
4,426151.03,426367.06,456349.16,-1761.3333,10199.505,2092.4778,35213.375
5,-98993.41,-107118.66,-130214.836,-2814.9832,-2269.6306,-2646.8098,29109.419921875
6,-133288.16,-139669.28,-157437.81,1306.3217,9191.472,-16009.76,38695.33203125
7,9446.334,25198.496,45562.082,6465.1074,8926.3545,6863.355,38591.78515625
8,-116208.32,-119891.72,-155230.42,2953.778,-1986.9062,2605.9636,38091.3203125
9,-106651.64,-108723.79,-136579.12,427.00186,331.88434,11270.967,34927.2890625
10,3253.9158,2791.1313,14287.448,70.584984,-8486.216,-3748.8542,19628.638671875
11,28026.79,18933.463,56413.18,2931.4104,-8094.2144,7219.574,39055.05859375
12,17994.357,30813.979,17637.574,-1952.515,-14088.125,-5771.038,29594.27734375
13,19918.72,-9519.195,20092.346,-8718.574,3780.516,-7841.6055,36429.6875
14,20341.08,18647.598,24198.414,2114.0015,-389.2618,4310.058,9688.6845703125
15,46624.39,48094.945,48166.332,97.13917,-664.6191,-354.9063,2000.98583984375
16,5634.1113,3827.6777,4775.747,46.379227,-101.03937,-734.069,2025.6025390625
17,-5187.609,-2262.0352,6965.1797,2841.4905,17763.78,1521.8927,33143.953125
18,-9790.751,-28721.295,-24051.541,14651.105,-11403.453,3423.091,36891.796875
19,-228101.12,-228837.9,-227882.4,401.7322,392.44992,-876.71936,2000.98974609375
20,-406732.62,-407109.12,-407234.66,254.95398,-326.26004,1046.395,2000.98522949219
21,2378527.0,2375314.5,2410814.8,-5346.9297,2136.6897,4724.93,36372.83984375
22,608501.06,608896.5,609559.5,-142.86607,691.9359,658.53046,1912.23950195313
23,4904.5845,5892.2217,5933.0083,16.896286,830.62317,552.542,2000.98522949219
24,13003.593,13706.67,13213.21,-175.7702,-393.77502,-1006.29205,1996.650390625
25,4391.4287,3892.436,4320.998,9.181004,385.47244,1055.006,2000.9853515625
26,3464.6418,4439.6875,4361.5327,327.85287,934.1512,246.94612,2000.9853515625
27,11366.244,12083.254,10831.835,-240.10956,-926.9835,152.98747,2000.98522949219
28,8574.776,9230.687,7336.0327,216.12761,-411.7151,438.96613,2000.98571777344
29,-63651.496,-64174.5,-65463.44,-149.85802,-501.96188,436.5189,2000.98486328125
30,-337421.0,-328918.06,-362638.62,1926.3612,-4939.0703,4174.7705,32546.189453125
31,-463473.47,-448941.1,-484874.03,2340.3154,-4076.6353,3126.5837,32799.23046875
32,-5143786.0,-5116353.0,-5142081.0,406.24405,3548.5056,6784.266,29749.837890625
33,-2338765.8,-2320113.5,-2340923.8,-9388.248,-3877.3252,1984.2593,26723.498046875
34,1064054.1,1060596.5,1086179.0,14078.962,1225.5555,5056.0483,35409.22265625
35,-415556.7,-413362.38,-453348.03,-1389.5948,-669.3974,-174.1071,39027.6171875
36,-178502.31,-179257.53,-213657.6,-6144.0635,-953.998,-485.51703,36422.52734375
37,-27894.402,-19041.697,8866.266,2418.429,-5658.4863,-3673.9834,35473.6796875
38,158575.28,146436.94,174082.36,6172.7695,-5417.975,-3050.877,28396.041015625
39,337747.06,332282.56,346089.7,-145.24113,-3763.3455,-10503.551,22772.21484375
40,48792.934,47381.03,48749.574,-603.5929,76.95393,565.3563,2000.93762207031
41,468160.9,469766.0,470169.06,309.8055,198.85281,265.5618,2000.96813964844
42,-6891026.0,-6891349.0,-6889897.5,-408.1341,-239.06903,-728.1003,2000.97961425781
43,35712.773,36241.21,35636.457,-413.5772,-433.6909,930.55493,2000.1494140625
44,3802.3118,4685.7007,3412.4878,796.21564,-272.16174,-448.3837,2000.9853515625
45,-24517.803,-23448.09,-23468.338,-40.7865,222.39873,953.50824,2000.98571777344
46,-386129.06,-385739.25,-385675.22,-70.23865,339.66568,1074.2448,2000.98425292969
47,3311.839,2598.5168,2845.7202,554.0697,-375.92233,-868.839,2000.79455566406
48,-64441.688,-65331.453,-65543.945,-911.81714,196.42076,-350.26978,2000.98608398438
49,22093.81,20745.71,22676.389,-344.04865,-182.0159,449.92734,2000.98596191406
50,129182.77,129873.88,129428.555,-551.12555,-850.7287,429.46896,2000.98608398438
51,-23278.012,-21850.955,-23417.33,-314.27487,563.6912,408.11633,2000.98522949219
52,-56400.14,-54869.098,-54871.348,-629.99243,92.898155,384.34814,2000.09619140625
53,3285.2773,1335.5353,3351.3125,-4.729349,99.02947,-115.251495,2000.9853515625
54,-14584.386,-16235.22,-14725.75,-404.43,-481.4864,-319.3195,2000.98498535156
55,15045.748,14101.197,14560.418,486.64655,-441.94296,824.2628,2000.98608398438
56,16507.363,15116.911,15364.971,831.65076,-99.56325,-286.72583,2000.31958007813
57,75254.11,52810.08,75247.766,10925.515,9128.849,-8207.016,36245.90625
58,66054.65,39799.867,29323.33,1503.6411,473.43246,-3906.2007,33576.19921875
59,16980.877,33637.844,15434.448,-11647.958,-2940.174,-10874.585,33065.58984375
60,-15822.959,-2229.021,5795.2,8455.559,3419.409,9127.615,29287.720703125
61,-53114.965,-53238.3,-74751.51,7517.6143,13328.987,-785.57635,34203.32421875
62,258.27795,8856.345,6586.244,11496.702,7820.877,13620.244,34584.90625
63,47455.586,46360.223,27787.826,8054.917,-4993.2,-12261.774,32969.25390625
64,-17596.85,13400.127,12757.033,5584.927,-4410.655,10086.8955,37396.046875
65,-16114.669,-21499.773,-42431.902,9282.763,-1899.0479,13147.636,36983.56640625
66,-15743.919,-8654.753,-6062.1724,-3307.9011,-19264.398,-2494.6387,35216.5390625
67,30305.379,16829.74,17232.877,-702.5209,-4260.2046,261.13464,15246.509765625
68,379.2635,2582.432,7460.1567,6563.325,-2470.7163,1318.7201,13861.9873046875
69,-5769.424,-828.844,20180.809,5802.03,14261.352,1101.1396,35838.54296875
70,23859.863,17190.537,29404.432,594.18896,3790.16,729.9612,12567.98828125
71,2020.5132,759.09546,2709.8638,-31.592667,-257.60162,537.2455,2000.97631835938
72,12767.851,10895.614,12583.421,-468.64368,-208.2515,83.59659,2000.98461914063
73,-49121.098,-48805.79,-49676.207,353.56372,-1004.7626,-76.15638,2000.91516113281
74,7015.4414,6860.745,5871.027,915.7882,-328.22488,52.076927,2000.97827148438
75,30521.33,29895.146,30139.793,687.3738,-318.6103,813.0584,2000.98522949219
76,35744.098,37604.12,35556.297,109.24915,-131.97339,-154.50296,2000.98486328125
77,47319.78,47218.34,48113.812,-838.32324,-320.02823,-536.3396,1999.97900390625
78,33253.59,35226.582,33614.457,-206.05754,-139.34341,411.24445,2000.98229980469
79,605179.4,604888.25,605714.4,880.7584,-13.927463,-618.98615,2000.9873046875
80,89019.84,88369.63,90311.836,-211.31685,210.93628,517.7448,2000.92761230469
81,-90246.914,-89788.28,-89613.91,1044.3528,-356.97287,-82.18225,1998.82299804688
82,14496.877,16021.973,15700.935,144.74745,-630.64685,-518.65186,2000.59240722656
83,4925.1733,5707.6714,3989.706,217.64351,376.2454,-637.1155,2000.98461914063
84,3489.157,3285.8433,4112.722,64.26872,690.92596,-816.9999,2000.98559570313
85,17397.42,17978.477,22732.066,-1081.3516,1410.4242,3018.9023,7906.54833984375
86,46679.17,36583.66,45296.625,10296.171,1972.1594,9597.504,26380.12890625
87,15121.835,13337.325,17303.816,-787.6039,-6145.3975,3971.3884,13202.79296875
88,-71709.29,-64217.465,-82916.97,4470.558,-7804.724,1303.4556,22660.56640625
89,13568.176,20707.01,1021.15857,857.78625,6278.6284,6865.132,23660.572265625
90,8498.196,34363.01,24270.857,-8045.692,5802.613,3792.175,29123.19921875
91,-43509.492,-19594.285,-47889.69,7122.2485,10140.452,8410.768,36996.828125
92,12797.166,8849.943,42623.312,-3910.9424,-121.61809,-1834.7329,32847.21484375
93,89068.56,106202.086,124254.34,9630.127,1377.1372,-1162.5507,34881.265625
94,130715.586,122161.664,144786.73,-14755.965,-4078.798,582.1651,33100.94140625
95,171198.55,176169.0,195896.78,-2207.1504,4844.702,-5555.962,26259.87109375
96,-36318.797,-27291.715,-54186.562,4735.27,-4796.2837,-7039.427,29102.9375
97,59836.777,54387.562,75246.91,5004.8486,-11129.862,8168.4326,31592.341796875
98,17207.28,4783.9585,6890.099,14293.2295,1855.2556,3932.3047,28323.376953125
99,23356.404,23961.648,23639.541,-1022.4857,419.513,-134.49818,1998.44787597656
100,-214240.97,-215700.75,-215177.42,-262.36258,437.957,-725.6553,2000.63415527344
101,13441.393,13283.848,14139.257,330.99353,613.97534,-800.54065,2000.98559570313
102,-72660.34,-69817.84,-77399.45,3444.8552,-2934.0928,108.3312,10269.9990234375
103,32914.72,30446.957,46862.69,14443.128,-1243.5894,-4117.942,30271.763671875
104,2344820.2,2332884.5,2359723.5,-3059.6492,1326.5461,-11009.178,30649.95703125
105,1139141.0,1134990.1,1163167.4,5158.335,7929.4443,-8387.774,34259.95703125
106,-91561.06,-90924.73,-78412.3,853.4529,-15337.303,-2606.5107,29886.33984375
107,-206044.56,-225672.47,-234710.02,-2767.2578,-772.08734,-2960.2993,26369.900390625
108,147209.77,147300.55,146956.1,98.73324,-902.2306,-692.1031,2000.98583984375
109,167087.48,158518.47,177351.52,7157.111,-343.80063,2757.294,21061.013671875
110,366731.6,367301.78,366753.47,-176.52333,474.714,-986.7696,2000.95068359375
111,17010.314,-5861.4546,-6261.2427,2403.4485,8985.496,-15264.136,38612.82421875
112,6817.5347,31490.9,-2596.5413,7766.0586,3821.3079,3218.4485,34431.0078125
113,7925.7427,9819.451,-1019.25385,2139.976,14089.535,11877.209,33660.453125
114,-60497.414,-32250.697,-23672.135,4733.9414,-8775.997,-1268.3276,37641.6796875
115,-9036.506,-15812.584,10772.628,14720.547,-10171.231,-1776.0084,39274.078125
116,-44663.062,-45845.355,-45095.69,-597.9578,332.93234,713.02734,2000.97644042969
117,798.0061,53.105007,-792.21906,-760.8222,-257.73376,237.33116,2000.9853515625
118,31296.756,32534.816,32117.416,-535.7175,-357.88806,-723.0633,2000.98559570313
119,-150252.05,-150811.77,-151017.81,1055.1746,166.30821,191.24086,2000.98559570313
120,26795.545,27472.62,27247.29,-1074.4377,235.13055,-77.87917,2000.98522949219
121,77316.164,76600.26,76904.56,625.41156,-188.31053,-882.5123,2000.88854980469
122,-15358.185,265.0279,-10004.614,12407.037,2634.2756,10301.417,31465.6171875
123,2678851.2,2672344.0,2697056.5,8967.42,-2026.4636,11328.692,33627.7109375
124,-21087.434,-26199.176,-24358.453,-16158.548,7179.3687,-7153.7607,33340.12109375
125,-2631.7751,11974.225,24333.799,7506.1816,3106.0283,9976.8,32298.58203125
126,21648.092,-6602.257,19517.557,514.88715,10358.408,-747.3009,32661.806640625
127,84716.8,82904.13,84651.21,-257.41333,252.65964,-384.04874,2000.98559570313
128,29509.652,29202.348,29258.371,-976.6056,-407.1501,433.76392,2000.85009765625
129,21275.2,22435.814,22604.205,-6.0374675,-125.8069,891.72754,2000.98608398438
130,12354.0,10293.625,11396.587,493.72336,163.27806,1.7919426,2000.10791015625
131,22354.188,22686.088,22517.256,-284.28,-320.80655,-1059.2148,1999.90783691406
132,36472.5,46323.016,59617.562,-5163.1206,-1137.3474,-379.44876,22113.837890625
133,-44507.42,-46196.613,-69717.945,917.4263,3835.1755,-1094.3704,25418.146484375
134,-18835.2,-19429.576,-20305.297,-78.49587,-782.9025,-410.67798,2000.98522949219
135,-25897.629,-25197.457,-26375.104,511.17337,848.7338,-46.379093,2000.98278808594
136,434.34705,1293.6001,1351.5143,-445.78595,325.71066,-875.22784,2000.98522949219
137,68063.66,66338.734,67734.164,98.76846,493.2551,493.02106,2000.98706054688
138,576921.2,577118.5,576408.44,-3.1097393,-998.3592,-451.1846,2000.97766113281
139,2042.3312,3108.8645,1864.6871,-916.6487,-178.08273,-99.25426,2000.98559570313
140,14497.915,14029.233,14703.395,-373.16333,82.86483,-1033.2612,1999.85681152344
141,40448.273,38880.227,39310.51,-417.79727,365.7681,-608.1985,2000.98669433594
142,949.82007,62.53997,211.95145,539.0865,305.19992,851.5944,2000.9853515625
143,-41890.02,-51455.965,-60074.56,8980.92,-2710.3945,207.41655,22635.61328125
144,-40367.098,-41253.223,-43218.754,7079.1655,-13670.162,8720.95,30749.291015625
145,5225.9214,10287.352,6877.022,2786.5217,6430.2285,-3855.863,14557.7451171875
146,17079.027,19734.229,-2486.7373,-1820.6312,9127.884,10739.532,32368.685546875
147,-30676.36,-33292.28,-41083.105,-7792.087,-5829.1255,13787.705,30697.046875
148,-4025.4724,5372.5884,-7361.105,4609.53,10710.252,11968.278,31118.953125
149,18723.955,19385.783,26720.55,10305.802,5838.6772,-7182.1787,25194.076171875
150,1333.2559,15693.372,19057.604,14002.547,-474.40036,6325.379,31221.1796875
151,-6289.4775,2979.9333,-3789.4785,-556.60126,11852.281,-2457.3298,22571.5078125
152,147918.14,147443.05,147403.73,189.86794,113.53194,-1096.9895,2000.72802734375
153,-358169.0,-358123.22,-358192.56,-172.47464,-169.82104,-1070.7766,1902.41357421875
154,15955.121,16563.814,16293.904,695.7804,-273.1215,826.29785,2000.87182617188
155,13518.534,12238.547,11920.095,-449.12555,-617.62463,188.881,2000.98571777344
156,6862.904,6393.0376,6993.91,-416.08423,662.8066,788.9062,2000.98156738281
157,3472.651,1936.7467,2411.578,-284.44696,632.0643,-484.59006,2000.22497558594
158,-430743.16,-428081.2,-462369.16,-6775.934,-1876.1655,1150.8479,35266.84765625
159,89927.64,65251.52,53046.45,-8064.0425,-661.87805,1452.9565,35521.57421875
160,-283815.25,-290898.56,-320947.78,-8160.028,-926.3971,1639.6018,37099.51953125
161,226047.14,226691.2,250296.73,-61.456585,-1347.5731,-4570.054,25317.083984375
162,63018.996,65015.465,64232.848,538.6678,69.099556,166.40335,2000.947265625
163,-4244.3555,-2295.2478,-3778.107,458.49142,-97.031,-281.28934,2000.97448730469
164,-32974.484,-38320.28,-25913.107,-5456.463,1770.6569,3241.8696,15698.505859375
165,-235800.42,-233855.9,-234099.61,242.32066,385.9705,-67.8131,2000.88000488281
166,22713.717,24448.156,23772.969,687.3677,252.16245,-185.00136,2000.98571777344
167,46152.098,44925.125,46035.137,-367.89835,-542.18195,-666.82776,1999.38562011719
168,15354.672,15063.099,13528.784,88.04078,70.16327,-599.7515,2000.90710449219
169,12642.652,12879.871,13536.961,-193.64761,211.42761,1018.72906,2000.98571777344
170,46386.81,46230.707,46251.004,581.09894,-393.04254,913.93726,2000.982421875
171,40570.082,40204.395,39133.055,517.1387,595.1794,393.98148,2000.98693847656
172,268946.25,269107.06,269073.4,-142.65991,482.87482,-1036.2465,2000.89013671875
173,192343.08,191940.17,193399.23,472.64703,-703.1762,221.0253,2000.86071777344
174,142325.11,143698.95,143607.8,157.35782,-835.11005,149.36235,2000.98974609375
175,24503.475,25764.252,24321.525,279.04013,7.9517083,799.60364,2000.98486328125
176,-146311.06,-148488.78,-147801.73,113.41791,182.58406,221.38448,2000.98291015625
177,-1628.2965,10020.665,30866.248,363.38922,4873.1797,-13022.005,37328.58984375
178,575.1915,918.1067,680.45044,178.25961,-627.2401,-937.3273,2000.98547363281
179,210003.92,210766.05,209945.78,-387.4091,336.28656,-927.7581,2000.06335449219
180,-20561.459,-10470.844,-33898.043,-417.94647,12089.576,-10803.345,34689.96484375
181,-408.59445,-743.1659,1209.1831,209.63358,258.90643,365.4207,2000.98425292969
182,-77703.42,-82985.49,-89270.62,-889.754,-448.4044,-3205.5093,11593.3427734375
183,-10065.811,-16246.021,-43303.207,2646.731,13791.36,2179.4053,39285.8125
184,443985.06,444736.56,444178.28,529.29065,-193.29118,929.96857,2000.98400878906
185,-56636.117,-56372.8,-55313.184,66.19323,-588.84735,-702.24255,2000.98486328125
186,-28043.47,-29503.965,-62984.492,-3894.549,3093.0852,3672.0505,35869.6640625
187,21326.791,8552.193,-4033.3184,10244.694,149.41888,3302.704,28809.931640625
188,-65227.066,-66732.445,-66223.35,276.42935,-200.08653,-794.90735,2000.98461914063
189,45468.504,45131.43,45589.66,-154.09262,237.30373,-1091.3159,1995.55017089844
190,34721.492,33521.668,33358.867,-750.5391,217.93059,-412.36044,2000.986328125
191,3891.0662,3168.4731,2394.143,873.2355,-22.384323,105.76598,2000.98388671875
192,-20095.021,-18848.535,-20087.455,547.4495,-451.30872,-562.5645,2000.98278808594
193,37757.125,36312.348,66381.836,-2182.4302,-1331.9916,-2875.7192,30120.404296875
194,27698.88,15935.883,-5858.7583,-6324.3325,-1884.0562,-5207.9453,32890.01953125
195,-4350714.5,-4346631.0,-4364963.0,8254.025,5146.376,-3081.5374,24294.20703125
196,-5932634.5,-5926660.5,-5946997.5,-8131.4487,-541.8981,513.9832,22974.41796875
197,69625.52,83537.63,83955.336,-4389.9565,-13244.764,-15572.784,38873.55859375
198,966294.5,979909.8,972452.6,6511.9497,-15369.747,2922.144,31638.189453125
199,-23379.088,-44651.344,-66808.79,-814.0266,-1429.1138,1582.6539,37821.01953125
200,-293015.3,-284821.72,-324594.44,-7041.3936,-2229.49,847.7087,38586.70703125
201,48505.375,51493.242,43626.758,-9792.764,-14351.924,419.85016,30878.173828125
202,39231.367,42431.625,12774.864,929.6524,-9024.545,-6281.149,34060.7421875
203,68413.055,43546.883,71479.8,-9168.028,3169.4531,-6284.508,33238.0703125
204,-123745.49,-115895.984,-138011.97,-11680.052,-326.0316,-3617.4458,28739.859375
205,-156012.75,-163608.64,-138413.8,-9825.192,3491.2656,999.20667,28814.33203125
206,156406.0,155236.53,155576.78,933.68097,316.03937,-33.884388,2000.97045898438
207,-1665925.4,-1662695.8,-1663254.4,-4137.74,-6466.6904,-4438.959,15648.2705078125
208,537941.9,536994.94,536583.06,525.86523,111.85104,748.4146,2000.96472167969
209,-1067914.6,-1068012.2,-1067161.4,-245.79982,494.33234,745.97644,1798.39953613281
210,308583.25,307562.06,306383.47,265.2655,88.817215,198.80153,1997.19836425781
211,662448.9,663356.6,661428.2,20.215382,-534.05304,-309.94788,1984.29064941406
212,424792.44,424787.94,422951.5,59.222004,-158.62129,423.15146,2000.99035644531
213,63438.156,63599.04,61674.723,-0.6930037,441.29224,7.144834,2000.91442871094
214,379198.2,379512.4,379365.94,9.814208,698.7942,905.17804,1999.35852050781
215,36005.84,36637.227,35753.35,44.425053,269.22098,1026.0823,2000.92785644531
216,41716.875,45092.004,51801.703,-6715.044,-706.5737,847.94635,14764.412109375
217,-59453.73,-57222.33,-58250.47,-127.260605,167.39519,-207.33426,2000.91137695313
218,-168251.23,-168115.95,-166833.67,-660.0293,-441.46884,-303.01343,2000.76647949219
219,104655.125,96355.93,112007.695,5234.809,972.38153,6733.432,20125.130859375
220,40250.54,30643.47,32303.379,-5329.2676,-2708.0105,-6596.07,17799.76953125
221,-95357.39,-83961.336,-94337.98,12296.646,-8276.257,8314.319,31397.25390625
222,12162.993,22464.402,24163.764,3780.0127,1494.7238,-6275.0767,17152.56640625
223,5471.65,5388.517,6073.5713,-47.730152,-491.19522,-975.3678,2000.98461914063
224,11891.014,10915.004,15224.648,1460.1235,-1149.2467,568.5169,5162.09228515625
225,12297.217,20728.248,10240.178,-7406.1123,-6450.9873,4228.406,20873.23828125
226,-89472.79,-93076.84,-120870.914,1830.7872,-2062.432,-2594.1782,30474.193359375
227,5680.823,13209.643,5681.5234,-3816.5312,-689.9756,1208.3639,10304.572265625
228,17613.582,14828.399,9290.541,1941.3275,-439.48807,8284.873,16481.873046875
229,22290.135,10652.791,54.069954,-4059.6274,-15528.625,8470.784,36867.60546875
230,-3811.153,-4051.0784,-13486.142,-9085.939,706.64075,6602.889,21709.376953125
231,51724.41,68855.7,47351.74,-11048.495,-2249.1877,3124.4226,28252.1015625
232,-30788.316,-10659.588,-33913.305,-15299.734,4733.9194,-2805.0405,35649.875
233,23581.537,12214.705,13308.958,4134.5063,12075.443,-3684.0083,25444.27734375
234,33266.57,32741.545,6422.1016,-2484.8997,-8939.056,-5562.633,32525.068359375
235,5894.7256,16057.569,29193.527,-772.1277,14933.803,4913.188,33949.9296875
236,7328.381,12649.15,17197.68,10087.867,7606.843,1017.03754,23562.509765625
237,-16478.143,3960.179,17732.307,2539.8018,-7826.333,1746.1902,33183.26953125
238,-39955.57,-35085.22,-4663.933,885.9268,-319.509,-3168.4856,33617.1953125
239,-37975.344,-11133.695,-41243.55,11658.343,-3234.9229,522.0693,35480.1640625
240,-5994.3687,-354.363,-17042.508,14429.514,3438.5342,6981.285,31976.56640625
241,5718.5273,-18264.355,-4976.352,-1221.7814,-11622.132,5470.979,30537.845703125
242,-9506.544,-12930.035,-9199.209,14684.483,16729.75,-5194.812,39754.00390625
243,15019.963,5036.8447,11711.532,9730.564,6444.0386,15164.959,34294.84375
244,4683.6445,9023.906,8937.183,13578.254,5812.0146,-1652.373,26097.998046875
245,-20443.432,-8051.3516,-6737.791,19297.275,2214.3955,7625.607,38443.2265625
246,8138.4277,7611.9746,9157.51,-11.601492,-817.5163,-220.87097,2000.98327636719
247,6813.733,6287.956,5475.979,-896.91144,8.352872,275.50986,2000.98559570313
248,-31438.453,-32449.943,-31467.072,92.9663,557.01843,827.0879,2000.98559570313
249,22439.977,20871.03,21635.379,487.93356,412.99,-557.1947,2000.97961425781
250,29600.98,31156.238,29575.09,-640.7182,-68.99876,314.67126,2000.66479492188
251,22161.564,21871.795,21498.023,1098.6023,51.373493,110.79192,1999.37561035156
252,17971.006,17573.52,16886.607,306.59036,-839.55273,484.60318,2000.98522949219
253,-43869.277,-45014.207,-45400.83,709.17773,304.18036,323.8148,2000.98425292969
254,8062.5557,7607.516,8263.624,-912.5537,93.66228,-616.5437,2000.9853515625
255,14130.596,12844.459,13078.433,-148.30197,-839.5333,372.14926,2000.97058105469
256,127484.61,127977.49,126281.78,7.515054,317.6893,687.5107,2000.8857421875
257,63976.02,62749.215,63845.312,494.24255,-609.1412,-515.16205,2000.98571777344
258,-72773.96,-73050.41,-73094.4,-1025.0648,372.73553,-338.7919,2000.98168945313
259,82101.4,83372.84,82198.04,27.728687,-598.2335,-689.1896,2000.98547363281
260,-91194.45,-90963.09,-90736.61,-627.2377,243.01883,910.8584,2000.91638183594
261,104424.88,106513.94,105519.336,-282.50836,374.784,-149.01697,2000.76123046875
262,4302.7754,5243.253,3036.564,196.62662,186.27357,187.14554,2000.94555664063
263,51704.324,51870.52,50692.16,736.48584,538.15436,307.16327,1999.8564453125
264,-8462.888,-8540.645,-9574.686,-252.66788,-182.91527,-913.91437,1988.29223632813
265,31197.752,30791.357,29599.07,160.32242,-721.53046,-312.2989,2000.69079589844
266,75160.69,74880.88,73694.25,-26.87517,-310.74124,-794.49347,2000.97985839844
267,31507.502,33349.332,31360.611,303.59677,9.21164,-21.41296,1990.62939453125
268,42701.855,42293.805,43706.09,-200.09927,129.67694,865.757,2000.98571777344
269,5470.4634,3815.824,5254.827,-340.8659,541.3001,340.9512,2000.96472167969
270,-23565.113,-22683.367,-21924.475,-612.297,392.38013,362.76123,2000.98498535156
271,35538.086,34868.867,36495.188,-496.60928,-25.059734,647.5054,2000.98559570313
272,16566.75,15425.895,16697.969,-711.2304,-103.77555,-573.1838,2000.98583984375
273,-67817.6,-69508.69,-67774.43,-495.9868,-179.78595,-279.48376,2000.98815917969
274,926.35016,-100.505806,-282.21323,-735.7986,-447.5175,-410.23077,2000.97985839844
275,12464.245,13423.8955,13045.085,537.97473,18.583443,-900.6953,2000.98559570313
276,-16651.436,-16474.078,-16997.127,307.07877,157.66408,980.8316,1858.98547363281
277,10317.458,18349.31,-10930.793,-12814.445,-153.59592,3451.2488,34858.22265625
278,9588.039,9515.521,8620.673,-64.38919,-845.4416,-570.402,2000.93286132813
279,2258.0266,2617.3447,486.78836,-156.72401,73.27397,-61.417088,2000.98559570313
280,6253.191,4444.0586,16254.456,15072.851,7522.842,-164.7265,31190.146484375
281,13470.813,22414.492,35861.36,4906.05,8790.684,-11031.049,32406.1796875
282,34349.188,33489.355,32330.938,3.8599749,-555.725,-6.3964443,2000.986328125
283,8782.007,8576.116,12514.673,16881.652,4625.94,-5135.9434,31828.3828125
284,60387.742,23732.82,50867.08,1109.9972,8683.13,7722.8926,38653.109375
285,40143.168,39010.395,28421.06,121.363716,-527.2648,513.1191,11273.001953125
286,4162.131,5527.4736,4582.9043,147.33806,-740.60736,-524.8992,2000.97277832031
287,446962.03,446988.03,448127.16,-280.48862,-736.95514,519.8516,2000.99133300781
288,1491775.8,1479036.2,1499045.1,4560.207,-8659.225,13262.589,33507.73828125
289,-30785.717,-38254.957,-35480.66,-22102.248,-1326.4786,-3955.643,39503.3203125
290,-18030.797,-51093.8,-45683.43,-8211.632,-170.12363,-2986.983,34244.66015625
291,-58024.246,-55577.52,-81416.17,-2259.5635,-6281.622,-7395.026,30135.60546875
292,-8475.988,26690.076,-14200.232,-124.225525,3470.0952,-17.886784,38818.68359375
293,-23504.666,-24457.14,-10627.733,17806.568,430.12958,-10940.284,38598.36328125
294,-12764.249,-4673.8193,3171.938,3771.649,1378.5718,8368.57,21188.7421875
295,33735.438,41348.043,36905.312,6188.701,286.09412,-6639.354,17066.26953125
296,-47992.555,-21200.828,-25722.326,-6060.1245,-3537.6047,-416.51956,27664.806640625
297,501596.75,503089.0,502235.4,196.97238,-821.23663,-246.73659,2000.99401855469
298,371669.1,356903.4,355831.7,2860.4233,2074.5745,-5419.4688,18988.63671875
299,22406.732,20452.4,20680.934,295.58725,163.61324,280.4162,2000.83349609375
300,-44833.082,-43656.69,-44873.023,-304.04993,-175.81775,-856.6193,2000.98522949219
301,-49776.965,-45045.527,-85508.0,-704.2846,2795.2368,4975.2256,39589.63671875
302,-38040.113,-37484.465,-37246.547,-349.56,969.07184,327.87936,2000.98498535156
303,48774.043,47842.312,47132.43,808.42487,57.115654,-2.75378,2000.98376464844
304,18578.127,19893.506,18833.63,244.29803,-881.4506,-107.412186,2000.98522949219
305,7426.9355,7126.299,6055.9395,-103.6982,787.94696,-428.65854,2000.9814453125
306,8212.643,6913.419,4996.016,344.95993,-776.23285,-946.95844,3565.1572265625
307,-98780.516,-98552.32,-99482.85,923.53754,473.196,149.47182,2000.78796386719
308,45144.996,53657.637,60225.11,-1520.6218,-1161.1948,135.7847,13510.7578125
309,172366.9,170125.16,171512.08,-85.00447,-40.45059,-213.11295,2000.67504882813
310,29941.594,29740.133,29267.639,14.685764,-218.13953,-1080.357,2000.98522949219
311,100739.15,100384.38,99697.37,597.40326,819.0531,-162.42645,2000.98522949219
312,70109.12,70632.586,69995.27,527.2942,662.74066,616.7558,1907.75524902344
313,133206.12,126013.54,160727.72,-2120.4722,-2442.5173,-1420.5687,32319.712890625
314,-118408.72,-117313.0,-117514.22,166.91045,-248.16278,951.2924,2000.95300292969
315,-289051.12,-290289.44,-291130.06,-173.91443,-408.1138,-209.96968,2000.92370605469
316,12056.886,11954.378,12750.883,751.8939,80.734795,-758.30396,2000.9853515625
317,14655.79,26259.396,-8656.672,6453.621,-5157.7,-746.0765,33985.97265625
318,1549016.6,1545093.4,1573023.9,-7154.9463,-2937.305,-11043.176,35089.09375
319,50427.086,38426.67,51743.54,1331.3883,-15348.635,5642.343,31130.5078125
320,716486.3,718077.0,718158.5,149.44533,-578.4134,-298.18082,2000.998046875
321,156419.52,156485.02,156750.08,272.13104,576.5046,-922.4485,1965.67590332031
322,604811.7,604541.1,605291.44,-210.36757,495.59598,885.65735,1912.05200195313
323,320480.78,319934.72,321410.47,-42.350624,861.0003,186.56314,2000.98303222656
324,247611.16,246251.44,247143.19,-862.37805,-337.22723,-7.2223687,2000.98352050781
325,212327.23,210541.53,210572.53,378.8444,109.90734,-366.4321,2000.99108886719
326,8831.969,9024.031,9797.212,598.76764,-756.8409,377.1627,2000.98547363281
327,9268.537,31169.723,46295.043,-488.62637,-7050.6055,-2290.497,34717.26171875
328,-9367.041,4448.463,-7170.465,14294.478,4837.7227,14036.117,37941.94140625
329,4598.558,-5287.355,-31514.443,8414.227,5269.6636,-1533.6892,36710.11328125
330,-2525.8574,-24462.016,-455.0889,2539.7615,-1554.3156,-3865.577,24542.509765625
331,-29804.53,-37875.52,-36120.035,14087.549,-980.8145,7177.5405,28405.4296875
332,5532.6274,6282.772,5973.2754,979.28723,-224.06676,-428.15997,2000.98205566406
333,-50311.555,-49742.312,-49541.977,575.1329,761.8552,513.5782,2000.775390625
334,94951.17,94013.5,94408.48,-956.7234,279.8624,-342.03506,1999.19189453125
335,156563.27,155139.33,156247.6,875.0999,12.256693,-97.22501,2000.9892578125
336,44915.74,44996.19,44428.586,-679.451,-493.10495,-730.49817,1999.57104492188
337,23188.133,23475.805,22327.654,23.01454,-669.94086,-726.55444,2000.60217285156
338,-50253.055,-34203.45,-49039.906,-3163.6772,989.1509,657.61127,16548.419921875
339,13054.448,12879.675,12420.978,-978.7887,106.86907,-508.09454,2000.98522949219
340,-36077.723,-32228.553,-52303.414,-8834.133,169.6495,1544.1367,24122.806640625
341,-24485.275,-43153.44,-41971.004,-12406.675,11029.684,10102.41,38219.6171875
342,1622.3704,35378.42,10245.0625,7607.7305,-2490.1616,5041.7256,34514.4375
343,144356.2,148155.56,136627.77,6053.6216,2799.9695,1387.6799,15580.8359375
344,-27075.75,5869.768,-5809.9897,15469.067,-2079.492,1831.0941,39723.2421875
345,43546.41,43513.633,49824.656,1506.1025,4723.5054,-8937.747,18788.6328125
346,-8075.763,-1024.5449,-31907.818,-8305.858,-4787.414,5824.765,34106.23046875
347,19868.47,25165.678,-12164.66,-9863.119,-996.2076,-5372.336,40065.87890625
348,-511550.28,-516055.38,-540450.6,-2736.4128,-3583.995,866.95404,28081.6796875
349,-15797.388,-67.35235,-485.60892,2490.5996,-1219.4698,-2957.7874,17039.537109375
350,65670.45,65529.29,63913.895,-62.143803,419.84106,449.48584,2000.98974609375
351,27630.473,23390.215,47561.4,-8913.934,-9024.854,5213.3223,32618.83984375
352,33983.207,23721.15,17386.94,2551.7754,-4694.451,-5486.6226,19656.841796875
353,2783.753,3178.0693,3360.1914,-326.95627,-94.00985,-179.87314,839.491149902344
354,25040.879,21427.777,18498.97,3205.1748,342.8667,-45.39606,7961.95849609375
355,-131453.11,-134371.64,-155533.25,1033.8995,2529.2622,396.39133,23258.591796875
356,-18169.61,-2773.0461,-17023.457,-3485.8677,10174.265,9031.4375,28503.0234375
357,114396.81,112343.81,147085.11,948.0598,4055.3418,-2810.4504,34865.14453125
358,18253.928,45483.14,47377.562,9224.901,-81.7554,628.9064,32451.5859375
359,16266.553,14029.512,29684.336,920.68945,907.02527,2866.149,15643.3017578125
360,-42755.844,-16600.76,-19107.3,3251.7861,393.97867,-837.3897,25673.021484375
361,7129.7036,-5881.335,15747.706,-11073.01,-1922.328,-1907.5555,27304.271484375
362,16428.504,16518.367,14631.491,-71.19388,-325.29797,-301.36713,2000.98571777344
363,-68454.44,-77039.32,-84806.77,-21446.693,2290.3752,1439.9617,40031.94140625
364,84512.92,77076.22,115302.5,-6810.7637,1093.8629,-261.26022,37084.0859375
365,-184320.23,-181194.77,-219144.83,-3366.7158,-1014.6006,-1975.5623,37150.57421875
366,-2077.8777,7583.9062,39663.395,1292.9154,609.83374,62.121086,37927.97265625
367,-373482.66,-337566.6,-368323.94,-578.7312,9387.856,-5105.8384,38404.48046875
368,479558.8,465601.38,506906.7,-1194.5507,4534.9463,-4736.905,38180.0390625
369,76540.5,97638.49,115173.13,11634.177,-3900.2703,515.1089,39686.63671875
370,-82007.39,-83578.3,-120257.586,-473.44196,-101.149376,962.2159,37535.828125
371,13308.526,11374.544,19665.176,2301.2297,223.69536,2105.6704,9261.7265625
372,-12057.475,-12716.672,-19796.455,1834.8436,-1511.4568,-933.3951,8648.236328125
373,-1284.4177,-3164.0713,-9134.523,-7443.6436,1495.7156,-841.0776,15015.291015625
374,8016.79,-9668.205,-25947.545,-2606.4365,6374.2407,286.83044,31752.103515625
375,73643.91,75147.164,47302.15,5895.466,8402.226,2581.0256,32738.25390625
376,337477.2,331566.84,373332.56,-2157.2678,459.39893,1782.4818,39453.56640625
377,-42726.023,-52765.652,-82658.48,1736.7527,1148.1814,18.988062,36159.26953125
378,-31901.12,-19720.658,-7010.241,-12523.994,4050.6902,2591.373,31696.34375
379,7524.7563,14537.803,19570.629,851.9821,-5207.917,6451.8706,17839.068359375
380,22369.592,36751.406,26012.355,-4298.5986,3309.4126,5031.7417,18219.837890625
381,-10823.206,-13187.643,-38121.363,4118.512,-4249.542,-3847.8403,28908.736328125
382,-7800.609,-1127.2798,-2919.0784,-805.2527,9505.273,15155.424,31588.654296875
383,-29902.309,-36177.14,-38558.285,-2386.1184,-441.4555,2601.1047,9896.828125
384,1277.9592,-237.15454,-13246.102,-1123.945,-706.1325,255.4691,14025.6806640625
385,39504.793,43235.652,36072.04,-1714.4683,364.5102,234.22429,6920.37744140625
386,47120.715,16940.314,29721.115,5826.351,-543.4179,-1721.4393,28285.876953125
387,78882.53,45831.12,59520.73,2983.0142,-8679.914,-5616.4165,34273.7578125
388,-2037372.4,-2036925.6,-2038228.4,654.3482,684.1103,-15.325841,2000.99462890625
389,-329457.78,-326669.78,-321608.62,8931.179,12312.664,11112.344,33347.4765625
390,-16792.104,-15370.584,-39665.152,-3313.8286,-1151.8928,896.6481,24434.57421875
391,-53278.535,-52486.117,-86566.46,5160.917,-3445.304,-2829.5076,35701.90234375
392,-29976.79,-28216.041,-66863.445,5925.037,3225.1587,338.45444,39566.9140625
393,111664.93,101465.84,68981.15,1065.6608,2121.557,84.58137,38826.82421875
394,37761.74,64496.195,81266.25,-4119.2363,-1367.9203,-3310.2231,39162.41796875
395,-27608.047,-48568.402,-69164.53,-3461.7947,878.69543,2218.5076,36718.8359375
396,9515.186,26088.342,9041.148,11596.879,-6773.7075,5702.91,30355.1015625
397,-14754.323,-28116.846,-30082.938,-6468.2983,-13031.456,-8610.708,32651.1953125
398,11136.825,-19967.459,9999.023,13971.67,2224.6628,-4080.1426,39796.90234375
399,-17072.645,-22448.39,-804.83203,-659.5781,-13302.817,-377.12726,30226.123046875
400,48806.5,49213.01,80307.945,1582.2249,-767.9327,7109.4863,33772.984375
401,-94813.13,-89028.664,-130065.83,-1336.6382,-733.4472,-1775.5956,38685.4296875
402,-28202.648,-66457.53,-56291.55,9858.536,-3300.751,2414.6616,38982.48046875
403,-142034.84,-137710.1,-100001.14,1022.81433,-421.371,573.6628,40104.97265625
404,33189.68,40507.45,66157.61,1540.408,-848.04785,4460.031,31114.85546875
405,35553.484,42799.305,3769.7852,2184.6982,6052.3696,-397.66196,37652.23828125
406,168141.88,168566.7,141988.92,787.01306,2934.43,2226.9976,27163.162109375
407,-17266.553,-28681.512,-50667.113,-3854.9932,3813.916,-5289.0366,32198.9921875
408,152971.56,152898.17,151708.9,-43.020626,593.16907,691.81036,2000.98120117188
409,234098.22,226753.78,235184.33,1063.8461,957.74506,263.04062,8333.7841796875
410,-63477.227,-73722.125,-103935.24,-2706.07,2958.9338,-288.9433,37091.8515625
411,17893.666,16625.812,29067.926,-1846.3933,-4968.2715,-1267.0123,15156.9619140625
412,-53294.45,-37334.21,-71590.5,-2510.1677,1021.1163,2620.965,30399.396484375
413,1566.7266,2475.0022,2777.1501,-105.144,-930.8794,245.27203,2000.98522949219
414,-279219.84,-293333.06,-319519.6,-7547.0186,-3425.6748,-1268.2506,38280.5078125
415,-278086.78,-270527.16,-313815.3,708.42084,1358.2573,527.57446,40145.3046875
416,417.2351,6452.5806,-7362.4956,9784.183,1651.1125,4809.2983,22553.49609375
417,42097.844,22406.914,41371.457,-1386.65,-1544.0161,-71.609314,19669.591796875
418,6221.725,6442.1934,4846.916,139.7983,-683.97766,316.24124,2000.98486328125
419,130482.61,130728.32,129816.8,-78.60516,784.90717,699.9704,2000.98156738281
420,-9766.522,-11047.066,-40577.297,-1688.8315,21.041574,6359.655,32270.458984375
421,-63012.51,-63643.96,-64173.06,168.95381,-930.04193,-321.76813,2000.98608398438
422,-4864.1504,28967.95,32147.676,-9180.842,-1294.6934,-392.916,38995.5625
423,10924.298,3471.1384,46264.855,-1885.741,1767.5393,-1404.8851,39923.2421875
424,42060.926,25459.955,65259.566,-3580.4617,4668.4478,-8924.657,39264.23046875
425,17333.111,7478.766,1623.417,13145.208,5371.5127,43.94873,28178.869140625
426,-36233.44,-28823.87,-15713.728,-3191.4844,1041.2845,-835.6817,18968.994140625
427,-78598.12,-38609.9,-77480.586,2568.7185,-1781.0734,-2617.1213,40068.41796875
428,-7132.5757,-2207.5981,3310.17,-1317.9131,-636.3201,-4486.711,12193.9814453125
429,-29400.195,-34789.914,-38559.71,-8651.197,1296.5022,-991.49506,17207.5625
430,24332.268,33747.305,8696.808,11608.712,2674.624,-1643.709,30235.2734375
431,-37610.266,-50036.2,-56918.52,2339.587,-5184.537,4445.089,21062.41015625
432,12589.217,-28095.035,600.0508,-5038.278,-5961.552,-4625.84,39473.36328125
433,-154550.36,-162195.36,-157712.89,5405.045,2108.8027,-5918.2554,15821.884765625
434,833.6561,1915.1506,-6304.366,7215.1694,4773.6714,2722.1914,17510.326171875
435,1259.9263,9971.81,5841.492,7294.2607,-2513.5952,294.75934,15356.0224609375
436,54449.03,64198.35,80141.445,16631.492,-1814.8073,-5529.7017,37895.89453125
437,-24389.682,-14846.14,-17584.975,-6580.114,9966.432,8408.966,26691.89453125
438,-63585.305,-60924.926,-22371.916,906.36005,356.65576,-698.9052,40003.61328125
439,2444.1455,-3450.6113,32946.117,7013.245,355.40192,-5906.8335,37383.5234375
440,2161.6438,4063.0088,9490.732,1635.9783,616.3882,-1236.0276,7559.6181640625
441,-21419.352,-26101.057,-41663.188,-34.96312,799.71423,1411.8286,18570.34375
442,-5838.5874,2111.183,-11708.003,-10273.733,-68.13669,387.1323,21480.73046875
443,-28784.266,-34775.81,-6038.133,6583.4106,5456.3555,-918.5312,30190.064453125
444,119007.52,105631.766,141555.2,9927.603,993.00195,-979.9193,35922.30078125
445,16035.162,10115.736,9101.288,-5897.8843,314.65637,-1024.9148,12242.4326171875
446,4721.056,-6072.4175,10365.944,3664.395,3917.823,-1985.4425,17534.2265625
447,19776.592,22994.586,34570.285,2312.161,13.961098,1230.732,14219.205078125
448,-75963.016,-80126.78,-114706.664,1809.7448,265.02713,-1043.9763,37018.828125
449,-36856.594,-16109.517,-40497.047,-14292.98,4830.5215,8069.389,37382.31640625
450,31375.07,37484.652,62536.406,-4026.5994,-376.2846,516.8406,29459.12109375
451,-39911.555,-41914.117,-75390.125,5538.7354,4961.9204,-3820.436,37434.91796875
452,-10406.243,-538.15735,30894.148,5364.8003,-3793.44,1450.2548,39132.7109375
453,69657.35,33602.633,63300.49,-11055.967,1366.1959,4681.897,39360.140625
454,20072.457,477.1953,32055.195,694.95,1920.3339,633.27484,27858.216796875
455,15917.981,24368.178,20483.074,4103.1396,-1146.4816,-2133.1306,11035.0
456,47978.684,33912.547,77146.62,1324.6187,96.21888,737.64545,38286.140625
457,-15686.25,-25590.996,-10777.632,5094.742,-2221.4573,-553.09796,16260.6494140625
458,236755.31,262365.94,249931.44,-10074.616,5307.083,3045.7937,30147.72265625
459,-54172.824,-59592.43,-43496.383,-9367.222,257.91284,-452.38867,21570.087890625
460,-10600.948,-3433.4136,-16509.762,10335.884,-1317.9337,-3776.236,22296.22265625
461,-69563.22,-106672.586,-88486.5,5236.546,3075.0386,8927.1,37184.34765625
462,-187419.8,-170803.47,-147196.6,6610.7153,3628.5862,5472.2915,38549.82421875
463,2115.0981,-6839.8965,-6186.8125,8765.273,2454.9868,-1311.6079,18124.623046875
464,5288.0127,-16245.555,-35950.934,5513.1675,-1656.7971,-3837.5518,37681.875
465,-14011.615,-35459.035,-5263.502,929.5955,-410.8464,3187.4375,27526.78515625
466,10718.168,5072.4795,19778.77,2312.4458,2230.402,2389.1133,14601.763671875
467,7367.121,-16450.006,3973.9756,-4362.4434,-2140.1035,-7377.123,27056.47265625
468,12916.058,8978.887,-11177.313,-2767.4604,4290.7554,897.14734,24119.59765625
469,24491.299,-7142.543,26384.184,11092.181,-6402.3975,-1785.246,39570.25390625
470,-37596.11,-30123.229,-66151.2,-1915.8839,-2499.0806,2627.318,33690.98828125
471,1145.2356,191.58838,-12516.877,5364.9565,589.139,316.86026,16193.3515625
472,38812.38,34282.42,69123.12,-257.20032,1790.9441,-1505.1077,33063.34375
473,-5699.6484,-4154.2266,-18664.244,-11181.953,4321.047,1501.0281,25067.642578125
474,13094.367,1454.5973,42571.973,1172.1631,396.88257,-4458.2856,37573.25390625
475,-14751.175,-46267.035,-47234.06,-10113.974,-2240.284,-962.5609,36733.8359375
476,-35421.74,-34846.797,-8589.411,7370.901,2230.4844,6381.001,31700.859375
477,-139915.61,-142373.72,-122646.26,-3727.636,1745.6375,16098.186,34278.34765625
478,4600.503,12590.11,14561.242,3601.415,-516.58966,2848.791,12146.0185546875
479,-48850.45,-47090.07,-44426.74,435.88208,1683.8594,-922.2151,5148.62255859375
480,27132.14,26974.05,54273.484,-3144.8376,3710.6208,-1641.9004,28636.201171875
481,29848.457,17933.172,33947.58,538.4049,211.97942,5558.1416,17358.060546875
482,21443.854,32387.24,56937.418,9459.691,-1177.9526,4804.5254,36510.29296875
483,-34364.3,-33389.254,-59590.707,5904.2227,-73.00076,-2167.147,27939.296875
484,91504.2,86976.6,107226.55,-7327.448,326.00146,1074.2262,22443.951171875
485,-30379.207,-29953.574,-41214.355,-1015.90814,1549.4062,-241.71085,11518.1103515625
486,-37709.586,-23449.262,-45299.88,6484.261,824.27374,111.88051,22302.962890625
487,-18023.018,19244.693,18183.002,-3461.0793,2693.6309,-681.17645,37543.82421875
488,-11352.965,1832.3936,-29023.705,-16577.854,1581.6857,-3896.1277,39957.77734375
489,-42724.13,-44239.44,-74329.24,2289.3042,814.4306,167.91577,31162.236328125
490,23631.117,15703.9375,51522.15,-9842.06,256.54105,1802.0708,36910.5
491,71276.94,65338.35,92190.48,-3815.6704,4995.9897,-2332.31,27050.259765625
492,-60590.17,-60327.87,-97201.14,-140.86089,189.77911,283.63727,36748.38671875
493,-10334.54,-14900.62,-10112.558,3248.2996,2275.5103,1792.656,8873.6123046875
494,3392.9941,-6363.2563,-1079.2026,11351.665,-86.33066,487.02594,21421.203125
495,6366.9453,-983.65845,-1263.1387,-1208.1636,568.2412,2507.712,8965.341796875
496,-476.20703,986.083,-27937.96,724.38574,-1323.873,-1715.3119,28497.408203125
497,664.1538,-6763.4526,-13804.293,-527.43774,1559.7045,2366.076,13489.51171875
498,53485.145,62010.39,22505.047,889.8369,-2651.5288,-3850.7869,36939.3046875
499,-9437.591,-1299.752,-24244.947,-1770.8466,-147.16618,467.07294,20398.755859375
500,-4594.7363,-7435.6094,-32587.838,1486.0432,-3809.1658,-3406.9473,28233.587890625
501,24231.875,31574.965,62999.812,-2392.8352,2011.232,-989.3152,36117.11328125
502,-100791.09,-98500.445,-133479.1,499.81122,-1944.4962,-788.2563,34096.7109375
503,-35298.492,-31664.645,-51480.566,-7233.9346,2143.7383,-2230.7878,22794.146484375
504,-48494.58,-54607.42,-71704.67,5653.678,-4037.615,2707.8845,24515.154296875
505,20627.416,8202.028,21997.482,4455.5493,-2332.9622,-3904.6145,17173.02734375
506,25574.693,2283.3428,9022.456,3694.6802,-7633.546,1126.7494,25505.1640625
507,8907.364,14755.344,7808.662,-8514.83,-400.19067,-649.4681,16158.095703125
508,7111.8003,2650.2686,13622.702,-3730.6958,429.36423,-338.403,11575.689453125
509,-25375.365,-19531.652,-59849.73,-1245.7833,1387.5804,-1265.9974,37938.49609375
510,4241.757,9973.18,35180.965,8760.526,-2592.418,-4876.635,33682.41796875
511,26962.57,8150.385,25834.19,6858.875,242.16196,677.8895,21831.88671875
512,39037.23,40744.465,72930.85,-6600.8145,406.48956,3480.0767,35515.75
513,-3628.6694,1155.3042,3470.9163,-195.17297,-882.66406,-191.22194,6472.0595703125
514,9994.504,3258.7722,5359.073,637.7501,-407.34402,-66.03432,6112.71826171875
515,-13350.403,-15546.226,-14262.758,-4484.1714,-1909.7546,-2916.0283,10021.236328125
516,289404.84,272477.47,249213.45,-7966.271,1331.4827,-4762.244,38539.4453125
517,-2397.3535,-26595.281,-12291.755,-10023.503,-7082.3037,-4917.4814,31119.90625
518,-19708.635,2445.6318,-7613.649,-2514.078,1754.7343,1105.0973,20025.169921875
519,22481.408,19754.426,48194.438,2916.8677,-6354.8975,-3920.437,30520.5390625
520,38818.65,42063.125,78801.18,424.38992,-3925.2053,2921.0505,39392.46875
521,34311.2,23826.781,34960.664,-6304.5493,-2048.1667,-1439.3295,15974.857421875
522,-34525.312,-21846.363,-50525.773,-5336.1045,-1921.1051,-779.8386,26794.736328125
523,-8439.499,4394.9365,-23349.002,3406.5881,117.5554,1449.6577,24890.392578125
524,1611.8174,6139.3335,15221.494,2163.175,-3712.5847,-2384.2727,14715.4951171875
525,-31096.89,-32869.89,-70035.16,-870.2593,676.6137,2487.611,38373.2265625
526,-6981.5586,6065.714,-2016.4558,8450.809,8355.264,891.992,23583.240234375
527,82550.24,85579.625,117095.45,-1236.6665,1087.8455,2149.037,33464.77734375
528,-82899.69,-77705.766,-96998.234,520.58307,1550.2189,1962.2408,17847.8671875
529,71201.94,69492.664,107404.14,697.354,331.11038,-1103.0459,37159.63671875
530,30371.553,20941.23,60678.133,3245.9187,639.0934,-657.1769,36432.80859375
531,-18461.354,-11112.934,-30800.137,-4045.651,2287.0547,-7036.4834,22588.61328125
532,3797.5981,-3708.2754,14681.019,-2469.1716,-2954.8262,1220.5115,17476.525390625
533,15691.021,9574.549,20468.912,2389.3384,-2006.0007,4803.022,13706.5419921875
534,8636.102,7413.9155,23501.941,-1238.1808,-1704.2346,-762.87006,15991.06640625
535,-31470.36,-18707.045,-37640.312,-6207.1177,-348.77042,-451.9959,19906.841796875
536,-7946.0957,-2401.88,6893.1045,-7853.103,-2182.459,-2443.6091,19643.9609375
537,-20834.023,-6486.336,-25949.348,4191.7603,3726.722,-1296.373,20120.521484375
538,9936.463,13727.631,18804.664,5489.952,562.3,199.70277,12283.4853515625
539,-15022.6455,-9032.922,-9200.303,-2101.9685,-1416.0901,-2521.9014,8558.7939453125
540,-8254.409,-15583.492,-28814.55,821.4628,-3689.496,-2526.6646,19691.662109375
541,18694.842,24846.441,34451.742,10892.263,-1240.0687,1453.7668,23581.130859375
542,-4974.1016,-16017.876,2617.669,2439.5825,-1208.5452,-659.5979,16940.583984375
543,-30220.2,-34215.79,-33776.062,914.2158,2696.1023,-576.49493,6301.78076171875
544,2484.3943,-1232.8438,4911.1655,-5876.9136,-1271.66,474.63095,11741.7841796875
545,-21065.37,-18852.426,-15124.346,1698.3151,-89.940475,-2444.83,7324.91650390625
546,852.958,-24113.018,-14597.883,-4615.9155,2056.8662,25.862999,23513.767578125
547,16742.457,12558.775,14021.899,-1008.12,-2380.8079,626.5184,5895.24462890625
548,-24728.24,-27022.88,-57308.156,2874.196,339.8996,1211.1936,31960.720703125
549,16087.811,16343.715,37360.04,4439.608,341.4104,789.2637,22549.46484375
550,-606.2988,14451.175,26602.049,-2960.5684,714.8891,-2589.9785,24602.53515625
551,51360.78,54976.625,77245.52,-149.94148,-490.87277,2381.4937,24643.53515625
552,-2043.4473,8747.995,22531.758,-8305.161,298.88376,-374.4309,25745.08984375
553,-6962.388,1294.8928,3123.964,-13765.962,-1174.5253,-161.37057,25677.873046875
554,39871.637,25605.873,52907.254,-2952.8276,322.13507,1014.6655,24268.49609375
555,2165.4902,-8335.716,-5474.477,-2263.4119,1277.1997,1252.146,10648.09765625
556,-19314.986,-13198.132,-23490.479,2677.058,3113.3325,221.76636,11450.6552734375
557,19249.344,21719.947,21906.764,-46.38775,1055.5817,1277.2611,3852.75659179688
558,-10103.471,-9134.327,7267.0024,3426.7942,364.90198,1343.5632,18079.873046875
559,6447.5205,3051.7803,32210.463,-373.22025,-1139.8997,5.7982416,27695.859375
560,-7983.552,-9879.307,-3116.8545,-4757.551,-298.71048,-4694.8145,13069.0126953125
561,-2727.6504,7518.5195,696.318,-14143.3545,-486.31158,4660.185,27342.08984375
562,-7666.4346,-9253.77,-22830.611,1088.4531,1484.69,-540.8328,14813.705078125
563,26859.654,29631.818,61093.047,1945.301,-1465.3054,-1460.343,33300.16796875
564,-3958.8384,-11400.753,-18516.307,1430.2556,1980.6079,-2044.6743,13762.7734375
565,7722.724,8119.07,29682.355,3163.6785,-71.81941,-2077.2075,22730.2734375
566,16031.283,12631.347,38503.17,-1987.1187,-109.80288,-485.5074,24607.673828125
567,-13247.095,-3065.2783,-24827.732,153.74542,-1787.6958,530.16547,19136.201171875
568,-17859.89,-17254.375,-31826.86,-2228.6245,31.33535,1494.9193,15016.9140625
569,-13996.77,-9632.219,3120.9146,355.29245,-2207.0046,-657.2756,15926.1025390625
570,15926.186,8730.475,18729.947,-3700.7412,488.87323,-1530.2131,11342.0673828125
571,-222080.92,-219631.78,-259827.3,49.14244,338.61414,1754.1345,39151.1875
572,67576.445,71492.28,79935.08,-4992.228,2217.2576,-4449.521,16388.58203125
573,-32450.54,-24136.723,-49381.79,13390.911,1560.0815,-8991.129,35837.4453125
574,15807.317,13366.71,19920.219,2575.464,-2138.9053,-158.38548,8161.46728515625
575,1045.0098,21303.537,31383.926,3007.0813,-5266.579,-2623.1401,29106.98828125
576,203474.84,202464.3,238858.7,-5156.2437,-1583.3298,-3038.7322,37467.03515625
577,78073.516,96606.945,52888.062,1197.4149,4360.656,3896.097,39388.5
