Element Label,S11,S22,S33,S12,S13,S23,Mises
1,-8232.824,3111.248,-2990.9053,4231.7427,3633.533,-5093.0933,16366.13671875
2,-1873.7783,3674.9736,-3838.024,-4605.567,-7243.2197,5738.3965,19114.392578125
3,38554.848,37511.113,29282.295,-13311.103,3425.8408,-13080.924,34021.88671875
4,-46186.508,-14786.197,-55530.082,-1413.3047,-1933.7683,-2803.171,37516.08984375
5,-24008.773,-55902.68,-62842.46,-8412.338,-4274.503,4291.3193,40113.35546875
6,-14394.955,-14438.422,-27169.824,-300.37097,8170.5273,-2981.765,19744.869140625
7,46145.92,67931.79,63364.977,-3224.0024,10635.636,2923.7913,28145.44921875
8,-46691.617,-74794.81,-77023.24,12143.34,6946.4683,-6290.902,39537.95703125
9,47848.074,54902.875,43735.312,7612.727,-8571.094,19134.336,39853.734375
10,108276.55,96242.71,121386.43,-4491.8496,11468.35,-698.6561,30512.423828125
11,11208.065,12195.601,30272.648,1226.6487,-386.72382,-6425.3296,21781.2734375
12,-15936.354,-18999.52,-34610.39,5877.3,-16463.783,2795.8845,35229.93359375
13,-2454.2073,12524.391,-2298.2444,-7872.134,-15916.8955,11225.464,39319.63671875
14,51027.29,47294.395,45145.797,-12448.354,11576.41,-1438.2709,29995.02734375
15,3400.6775,2644.446,4211.799,100.117775,834.3283,118.74464,2000.97033691406
16,6643.431,4708.053,11375.381,-117.00589,-5908.5093,3068.3557,12973.515625
17,-21011.596,-2267.872,-26085.86,901.0017,4068.7197,10892.984,29669.109375
18,12418.914,39436.867,-901.3086,8329.346,6094.4575,-2519.4077,40073.51953125
19,-53508.434,-52371.3,-54524.125,-222.82344,-267.12732,201.12524,1990.99267578125
20,135642.86,135340.95,131654.58,-19775.361,-1505.1315,-1955.5157,34731.203125
21,-19365.451,-17030.795,4788.677,-2308.0183,13011.033,-6301.794,34284.98828125
22,18530.11,8086.333,-17457.908,6549.2324,-10893.998,3001.699,39244.1640625
23,-5556.842,1795.3525,30369.133,-9580.044,-2869.8833,5142.957,38209.765625
24,-4840.341,-16424.396,-21299.15,4601.054,-12067.879,-1200.1226,26817.046875
25,25777.668,19867.809,58190.008,-7158.7866,5383.452,-3432.4363,39409.04296875
26,12106.048,-11980.973,-25257.668,10615.821,-6586.2666,-2707.5461,39578.62109375
27,-47421.027,-18136.064,-18344.531,-10651.184,-6355.9673,-6224.08,37806.125
28,16449.746,-1523.3994,10744.998,-11544.67,4931.191,1018.9939,26999.056640625
29,12790.612,34756.37,53728.676,-3810.8545,-3199.0771,5568.179,37768.609375
30,22204.406,317.1543,28090.562,-6586.092,-3077.0938,-1283.8651,28390.326171875
31,-9244.425,-577.21436,5246.3755,-8564.979,8709.9,541.91895,24658.74609375
32,5290.706,421.63837,-3139.7568,-2512.92,6600.5566,12829.788,26404.33203125
33,4754.3555,-3722.6162,22811.785,9940.537,11967.18,10509.638,40105.39453125
34,15658.424,4219.692,-524.34,-16649.502,-1172.2572,-5316.7266,33588.08203125
35,2007.4868,25978.672,-10343.3125,-4549.24,1634.5288,4181.2544,33849.28125
36,1625.5801,14557.339,18088.414,-3818.2617,-4618.255,396.11823,18263.484375
37,7546.6255,632.69006,14019.153,523.0374,122.972565,2909.6694,12677.1982421875
38,-17797.807,-10802.442,13555.499,-11106.319,-4948.3984,-235.27884,35444.5234375
39,3653.3672,10716.439,25264.438,-245.66277,-5808.4023,13462.189,31770.5859375
40,-4671.618,-24732.793,-15115.548,-7940.8843,13027.578,858.30493,31662.99609375
41,-9962.717,16998.219,1802.7081,-2894.8574,-2965.273,-1412.6266,24609.267578125
42,-4148.134,-79.98926,31961.172,-8684.68,-6784.7837,4950.861,40142.71875
43,-19192.12,-17170.268,-18214.014,298.99994,-2748.2092,12396.287,22068.0078125
44,-9900.0,10479.964,6202.26,-967.53375,-3526.8984,6939.302,23044.509765625
45,15444.432,-195.35333,-18461.486,-7994.3794,-1686.2527,-5708.8193,34087.61328125
46,140732.42,140303.25,142082.88,38.48797,614.78357,-286.49124,1992.99792480469
47,135995.77,136645.52,135430.44,942.68646,87.28841,-262.06036,2000.98742675781
48,539370.75,540420.2,541020.44,300.9802,-548.7026,-495.7769,2000.97961425781
49,8679.558,8876.102,8952.4,957.52405,-566.9866,-273.46564,1999.69396972656
50,-254676.27,-231977.69,-221229.73,3877.89,-278.21487,-1656.6815,30467.806640625
51,31913.73,31610.111,32269.959,-597.68713,791.5079,-491.60574,2000.85327148438
52,41403.547,42474.355,41151.45,-298.47305,-307.26126,-811.008,2000.955078125
53,142079.77,167671.06,154051.9,874.6602,-8791.0,12191.136,34232.66796875
54,-78787.49,-65084.848,-99907.555,8961.532,-6163.9463,-393.70862,35757.44921875
55,-61983.67,-69742.08,-86198.41,-12518.388,-6177.729,8619.944,35583.87109375
56,5995.106,-14024.137,-25160.354,14619.661,-1214.3937,6302.3335,38891.00390625
57,137797.95,131201.97,129040.46,1367.3989,6451.415,-17421.914,33218.62890625
58,-27789.59,-18873.996,-16189.167,-1552.1625,-2372.6467,-21472.12,38960.296875
59,8849.818,5700.071,16371.286,-15913.416,-5737.864,-14283.504,39505.9375
60,-16373.004,-10253.016,-42084.164,9827.548,-5169.3965,-10211.901,39225.359375
61,17435.9,-5658.451,20912.9,6218.8228,2535.8794,-10074.74,32642.796875
62,-7570.911,1908.7429,12923.829,3955.7136,-3427.4116,-1505.7196,20114.701171875
63,-2077.4297,6334.265,24054.428,-8880.137,8376.063,-8267.859,34437.4140625
64,10194.97,-12611.209,20753.223,6295.095,774.0538,-645.9629,31532.93359375
65,-2785.257,-1914.3716,-15786.191,5821.708,163.74037,-447.9472,16836.3984375
66,2238.2598,13883.3,7241.1763,-19861.945,1283.0878,2850.2214,36265.37890625
67,5807.558,-417.5337,-23895.234,14647.034,5456.8164,-5271.262,39400.51953125
68,3558.46,14380.92,33276.758,12102.848,3420.0168,-1287.0131,34031.9453125
69,-5344.1855,-4733.678,-25893.666,17191.852,5743.762,-448.12582,37702.171875
70,-19426.771,3132.5815,-5648.495,-958.0679,5990.399,-12481.698,31076.083984375
71,-6923.5625,5439.5986,14383.621,18609.682,4714.9316,7010.5005,39956.39453125
72,14767.096,20010.453,6691.6494,14156.52,16632.273,592.08746,39588.109375
73,-1492.649,27883.1,17950.178,14229.465,-3120.8372,-9667.221,39835.0078125
74,19670.646,34339.402,14548.844,16008.327,10981.846,6673.789,39758.73046875
75,-21991.05,-26441.97,-21052.154,17715.066,-3269.3645,12414.946,38220.42578125
76,-37547.582,-7764.4565,-11220.018,-12416.646,-5639.838,-1441.4227,36881.34765625
77,13494.307,-20630.195,-11414.033,1047.444,7827.5874,-11177.329,38688.828125
78,9294.858,9246.472,8113.44,-194.18019,18.43191,-921.7163,2000.93627929688
79,-7323.827,-12451.505,24692.084,8435.338,-1231.1501,597.74115,37875.62109375
80,-37676.375,-69288.414,-66736.45,11711.743,2408.9446,2114.345,36979.3984375
81,100775.65,99551.375,100446.055,243.05719,342.4616,869.9725,2000.89758300781
82,-1031423.6,-1031824.3,-1032497.8,-211.9272,742.4244,665.3486,2000.10070800781
83,62752.07,62825.902,61743.285,240.69379,924.58734,-236.62654,2000.98510742188
84,280390.22,279764.88,281125.94,1.1522627,8.311527,-932.96936,2000.97998046875
85,-213.72266,24907.441,-16638.934,-4101.8335,2289.9558,5133.092,38193.37109375
86,8468.583,-8473.27,279.98422,-7354.995,-6770.8667,166.12025,22699.20703125
87,11677.303,20742.736,1478.5166,-14336.67,-8615.747,2556.8645,33728.03125
88,-13566.862,16870.465,-16071.067,-3325.2493,-7760.5923,11165.856,39960.0390625
89,-26830.951,10167.443,-28441.701,5972.107,-2263.8396,-70.96974,39413.9453125
90,21135.285,7111.2046,9450.361,-14783.909,3568.4172,-458.21982,29391.572265625
91,-23604.703,9093.0,-2011.615,3849.4045,687.60156,-5476.436,31067.716796875
92,-11986.377,11215.654,-14591.213,3688.7368,-4762.574,-1650.512,26881.1484375
93,-12039.401,6030.4463,-12543.088,6323.0635,-8253.938,-1573.6324,25838.529296875
94,11769.186,8553.821,-6454.451,4194.9985,-394.14307,1751.234,18609.255859375
95,-4557.4316,-18598.377,-15544.454,10803.47,1832.0973,114.94368,22887.74609375
96,22626.46,-6851.8906,29679.275,2526.0022,388.6422,5158.0293,35014.734375
97,-1687.5264,-5528.39,-428.77783,17649.611,-6732.25,-3031.5977,33455.03125
98,-803.2676,-8089.5522,-11564.241,-7945.5176,-2340.4688,-3358.9253,18170.173828125
99,1500.5271,5450.5747,4975.054,-1138.3633,-5332.3687,-8142.865,17379.859375
100,1069.168,-11141.596,-41822.53,460.44772,-4068.8208,-4227.723,39610.390625
101,1166.9038,-22960.656,968.07227,6483.84,-6621.15,11635.317,35230.140625
102,14969.484,8921.151,28191.447,7180.0693,1820.007,-7100.15,24641.576171875
103,112677.164,113563.5,113334.52,-691.72797,373.381,-710.5653,2000.87072753906
104,-319171.56,-324202.2,-332196.56,-5335.768,-12964.954,-12058.309,33990.0546875
105,-22547.967,7850.1035,19047.518,324.11877,-84.347496,-7160.523,39293.26171875
106,-22484.057,-29442.924,-19566.45,4563.5464,-14259.19,3207.08,27938.306640625
107,-8794.2295,-25433.344,1751.9365,-14003.291,-900.01306,1696.2715,34101.30859375
108,-591.6332,5470.63,12348.23,-4224.164,-2782.3508,2944.1116,15116.373046875
109,-1191.1069,13859.233,3174.4797,-3897.3005,5525.5474,6542.413,21105.423828125
110,-15537.231,-16477.082,-52153.586,9292.415,-2177.8533,-2689.3313,40027.49609375
111,-19766.326,1318.1641,-11012.286,-9654.113,-7294.5786,-314.4796,27859.458984375
112,-1210.0898,-85.99805,34879.03,-10315.177,-339.8519,1479.1265,39865.26171875
113,3711.337,7096.5894,5198.201,1506.5947,-4436.563,6128.203,13680.66796875
114,-8354.273,-10594.517,192.15967,-11515.553,-4415.852,2765.658,24009.9140625
115,-4534.674,12319.978,9752.109,15681.585,1976.3026,3872.6028,32277.5078125
116,6758.701,-10536.703,-15679.353,-14781.692,5477.6606,-11882.845,39794.9453125
117,-10537.322,-7259.139,25678.256,-3101.5137,1291.7062,2126.0198,35369.71484375
118,-5437.5137,31952.95,13977.887,2854.073,12156.569,-305.1897,38950.18359375
119,-18634.848,-52285.395,-38996.047,-13237.627,2016.9753,-2176.7266,37601.8046875
120,15692.708,4772.6772,6890.1816,3103.1553,-12620.617,-12182.868,32443.84765625
121,90283.74,90009.61,104335.79,-8011.046,-8595.227,-3396.8843,25498.392578125
122,73689.96,73097.83,73335.83,-104.508804,-921.0761,621.53754,2000.79333496094
123,124222.164,123047.23,124884.766,7.306308,145.53159,-665.27167,1997.37133789063
124,6444.6704,12258.261,16583.168,2701.4695,15573.66,14599.339,38295.93359375
125,15263.114,-4174.379,13246.082,-4282.1865,-7084.485,523.51135,23432.49609375
126,14578.068,-3673.244,-1046.3767,149.89581,7248.1597,-2379.7441,21603.96875
127,136.30176,25163.701,10566.984,-9829.114,5766.227,-4784.4277,30534.763671875
128,-8234.156,-7078.269,-22997.416,-4690.44,7640.639,5728.144,23998.505859375
129,-3066.9224,9996.865,-24967.709,12202.901,-1909.5089,5269.157,38436.66796875
130,86988.64,87286.33,86324.86,-943.90247,-424.20053,146.54286,2000.98498535156
131,-148532.47,-140684.61,-112931.984,-6160.932,-825.2295,4468.517,35005.8984375
132,17817.838,53743.99,41902.496,-5565.1035,-6123.5605,-7852.701,37361.609375
133,35096.598,16067.259,43458.895,-14506.233,6427.3955,-7354.659,38841.6328125
134,-18222.902,-2111.0093,-31157.7,13436.697,-3652.5325,-6207.7656,36504.41796875
135,1564.4982,-13748.489,15005.231,672.98944,-3883.5112,6107.0493,27918.642578125
136,3988.0308,9190.474,39798.223,9404.863,7861.0444,694.0455,39690.328125
137,11133.451,11612.167,-11118.904,2180.7085,-7037.2944,13003.97,34295.7109375
138,12901.561,8329.622,-872.1885,11944.572,-2573.6963,-2736.4858,24859.630859375
139,-1797.3157,10800.381,-4939.3613,7232.8696,-3960.2803,-9988.997,26673.8046875
140,1958.1504,26528.652,29598.605,8654.383,-1472.5734,-4996.5996,31538.27734375
141,-2948.149,5486.0547,-34988.094,-2018.8901,-2386.2888,-799.86255,37405.28515625
142,55905.457,56248.89,55474.58,-297.68594,-621.21124,842.3771,2000.98486328125
143,137566.16,138348.39,137820.28,-364.36902,-182.20766,-1004.7156,2000.98425292969
144,4145.476,-5462.014,23666.578,5846.816,-8400.463,10902.613,36493.64453125
145,150911.95,149141.44,149812.88,-569.0933,-278.96094,-363.77774,1999.70629882813
146,127810.45,128372.22,127200.85,974.39233,-188.19502,72.21203,1999.96630859375
147,-60868.96,-30376.438,-30275.996,2485.4094,4049.0486,7164.388,33978.9375
148,20428.236,5613.9326,-4848.9224,13451.122,13552.51,3343.4001,40140.74609375
149,756.50464,-2241.8347,-2067.6228,15430.875,4832.4883,-7378.168,30922.55859375
150,7132.4146,5433.9287,-13170.824,15965.742,6300.2583,6711.211,37410.38671875
151,16254.273,15911.246,33709.074,9268.415,1843.5436,4495.111,25284.37890625
152,13764.764,21198.664,30608.29,5257.58,993.9504,-8648.887,22892.228515625
153,10156.116,12450.86,2935.0312,-2612.158,9406.42,-4984.4463,20842.91015625
154,-5696.4336,-25314.668,-15008.579,5655.643,1392.7023,-9504.997,25723.841796875
155,-27593.895,-328.6201,-5193.037,6978.908,-9115.136,-2021.5112,32280.95703125
156,8174.6084,27293.24,5332.033,-2295.2253,8275.925,77.06441,25480.251953125
157,-8937.938,-5326.807,-16757.648,-1003.1965,-552.23517,-17911.465,32692.841796875
158,14190.645,7993.3125,-14137.309,8638.2,-14118.018,-3680.9404,39086.8359375
159,7958.739,-13941.498,-16701.168,-11352.513,-13319.039,3668.087,38818.38671875
160,-10530.8,12663.57,6547.078,-8719.508,16922.877,3520.873,39470.90625
161,-2271.2673,1304.6268,5743.3745,-11133.739,19407.781,-2214.861,39559.390625
162,14712.55,15262.473,16724.016,-612.8172,-5617.0747,3397.777,11561.0615234375
163,-3883.0813,-89.53871,4629.4844,1112.7491,-551.8912,1811.5662,8308.76953125
164,5331.5713,-1843.8822,-13281.027,2100.0718,-6571.9873,7636.429,24126.98046875
165,6021.083,-18090.568,25268.203,7858.6553,554.39136,854.56793,40053.609375
166,-10034.766,-17778.803,-10627.995,-6944.329,891.78265,3613.1577,15554.732421875
167,-10835.98,4389.5205,3026.5483,9116.08,-899.6897,-3664.1106,22470.77734375
168,-9559.551,15285.142,-28180.043,-6208.5103,-1017.71674,-1226.4916,39368.24609375
169,-4485.3164,19771.398,5192.078,-9242.564,-10862.506,4619.4487,33489.8984375
170,-5173.3843,8923.262,8350.573,-7789.843,4671.157,-966.6565,21006.61328125
171,-37188.363,-62763.184,-59162.68,13566.196,-8059.1636,2213.2664,36559.8671875
172,61596.62,29388.088,57435.754,3899.9226,7789.9062,-882.9866,33922.0
173,-8947.73,12511.784,-13854.968,10986.329,-5793.106,9920.397,36714.03125
174,-7073.9023,-9571.404,3763.2334,-8346.345,913.64,8598.664,24167.052734375
175,91995.92,120533.58,121980.6,5038.0854,283.6848,-3807.495,31267.646484375
176,226196.61,220092.2,222683.42,524.1322,-1372.4746,2697.0977,7513.89013671875
177,6557.0435,12823.827,-29225.264,309.1863,3752.7178,2639.2236,40091.37109375
178,-13715.966,5052.3623,17378.88,1454.3153,3726.5876,8301.017,31468.546875
179,7335.485,14945.664,-2339.8643,-11878.584,-4345.1636,-4405.1294,27628.19921875
180,1949.1953,-18604.312,-37595.598,5333.4976,-4496.5737,7023.533,38307.171875
181,41463.254,44135.78,42792.695,-1677.4,11015.905,-17900.21,36593.73046875
182,-261614.58,-278220.88,-295222.62,4383.4976,-9941.73,-5717.4375,36047.06640625
183,-26455.057,14289.096,-18635.508,4619.4395,-5172.0635,2322.5684,39535.828125
184,-8453.6455,28311.682,27266.744,5149.6284,689.78406,3634.13,37880.96875
185,8184.768,6275.7153,12878.445,10922.242,4985.4614,-539.8427,21632.392578125
186,-12857.833,-7345.465,-28451.107,15389.573,13216.788,1458.7804,40005.546875
187,19188.074,1966.3475,25802.27,-5416.5625,-1525.02,-189.32208,23438.1171875
188,-22003.771,350.63525,336.67334,1076.1865,-2821.755,-733.4367,22986.578125
189,3766.0828,8496.119,-17303.83,937.3126,1958.1638,-6908.3877,26894.09375
190,-19623.26,-192.4336,-15093.987,-1520.5597,-5627.7554,315.8159,20305.521484375
191,27805.768,27602.348,27895.898,333.08646,-300.02737,1047.7638,1991.01818847656
192,-3691.3164,12407.51,9683.341,12123.565,-10091.233,4430.5083,32063.484375
193,-1002.5822,-3556.7107,18420.24,-11216.697,12301.914,8523.866,38507.15625
194,-7003.8975,25146.488,6112.0674,5295.183,1419.2502,-3234.2737,30092.08984375
195,11152.214,5247.8506,41536.766,-5482.962,8587.394,-6221.5835,39560.421875
196,-3048.8823,-678.3999,26284.602,5931.1997,-513.38055,-6663.9136,32188.33984375
197,13709.038,-17582.123,-18672.064,543.96716,9212.638,6294.079,37266.37109375
198,4207.742,-9472.2295,-32953.043,-7016.251,2841.0952,4959.408,36130.22265625
199,24740.729,-2260.1729,-18638.479,207.031,4069.4194,5480.869,39742.36328125
200,15720.582,-819.43945,7481.8584,1853.81,12991.36,1651.8668,27018.5546875
201,25229.76,-16670.156,2204.6614,8198.987,3544.1418,-2288.825,39699.84375
202,10084.048,19420.244,21394.004,6609.736,815.14966,-112.71466,15575.1416015625
203,20245.277,-1707.6602,-12882.882,2855.3032,-2588.193,991.3349,29994.142578125
204,-6679.6367,4729.7656,12914.238,-4675.341,-9375.773,-7948.096,28449.05078125
205,-9893.548,-7246.46,-34215.52,5857.56,-10754.105,-4982.057,34457.16015625
206,-10622.494,4105.659,9170.912,9627.722,-7980.098,6057.9473,29939.91015625
207,5291.488,11050.788,16083.947,5675.455,-2698.584,12150.436,25472.896484375
208,11149.725,7187.6123,-1533.5786,1193.4425,-5043.2534,4097.6587,16039.33984375
209,11793.131,-15783.426,-29883.707,-3274.8333,-2571.876,4177.356,38111.546875
210,1105.6455,22288.852,-4679.3525,-6379.6416,-3099.0361,12331.622,34811.74609375
211,3606.1533,5877.62,35552.82,-13279.519,-1000.7414,-6143.7793,39980.77734375
212,8186.836,3847.978,-9296.894,-15574.377,-5862.051,338.03452,32859.76953125
213,-6810.7817,-13337.4,-24143.695,-18006.135,-7052.639,-3492.0334,37260.78515625
214,2050.85,11534.492,-6527.174,612.356,5300.234,129.03546,18174.8515625
215,-8758.662,-8066.3853,-6096.5913,-2422.3167,-6452.42,-12101.166,24239.259765625
216,3365.9336,14345.705,-22852.836,2519.503,5801.431,-783.1029,34895.68359375
217,-6743.174,2326.4187,1617.7078,-15798.865,-1354.0543,7681.6187,31743.765625
218,-4472.5996,11080.723,-28151.486,1661.8314,6595.025,-2990.8813,36557.96875
219,13616.695,9925.727,-11256.002,-7070.6245,5984.7764,-1123.6168,28314.154296875
220,10264.641,27264.512,2221.5488,2792.9565,1228.6536,6933.0586,25740.06640625
221,-918.999,4672.974,27844.473,11156.063,4102.215,-4470.0044,34373.875
222,6539.561,1166.3379,28861.059,5054.5522,-2789.878,-12927.958,35333.4296875
223,-2711.7856,8175.338,-11985.487,-1300.4985,2022.8013,-3652.8035,19049.22265625
224,-12717.988,11361.722,-4219.4146,12455.415,-564.11786,-414.0168,30237.326171875
225,8151.001,-997.68115,10511.8125,7085.9946,-1903.2526,2710.6848,17158.515625
226,-4094.5796,5590.5723,9666.674,400.9158,2723.1863,-11736.804,24204.990234375
227,7471.537,1638.435,-13529.464,3117.134,13021.016,-4888.181,31016.7578125
228,-10164.305,-824.4087,24412.23,-4751.6587,-3786.2908,-4802.183,33760.25390625
229,-4668.845,2717.5728,-4124.737,2029.9454,-2820.4458,5111.863,12862.986328125
230,-1120.8768,-8653.409,11931.843,18332.262,4202.2046,-445.14374,37245.375
231,18581.584,9064.445,-8512.194,3515.6287,-7962.9136,-1803.2542,28352.27734375
232,-4534.479,2063.3328,18321.047,-7098.5825,-6546.4307,-13010.385,34679.34375
233,-16717.979,-15889.5,-7371.2676,-1922.3754,171.35995,797.2753,9663.615234375
234,-4387.795,-13058.761,-10949.778,6871.2285,6094.6895,-1203.3348,17854.06640625
235,-10374.46,-30403.64,-17815.365,-13116.8125,-4931.7104,-428.3884,29952.763671875
236,-12529.669,-3723.4216,8907.703,-6350.3384,3298.2449,3879.5635,23390.099609375
237,2211.1313,-2801.933,15845.984,-11030.723,2175.8118,4014.8044,26589.12109375
238,-16636.754,-7118.8574,-18527.93,-18102.451,2988.3425,1593.6566,33610.60546875
239,-3269.1401,8786.203,18798.111,-10700.735,3078.103,1245.3011,27255.462890625
240,3264.47,-10743.603,-37896.535,-8285.723,-87.08628,-4900.1323,39898.42578125
241,16968.504,-221.95915,14232.633,-20996.596,-318.5906,-1976.085,39881.78125
242,1100.8962,7186.586,-18274.555,10505.756,-6494.1504,2267.5554,31676.75390625
243,-11085.197,-4503.3975,-18729.904,16785.584,851.5103,2807.7837,31987.046875
244,-4541.0605,-8117.0776,-31522.984,10724.239,-1776.5972,4347.468,32488.806640625
245,4008.062,6626.2896,37100.91,12179.984,-6911.159,-1696.7444,40153.859375
246,5686.2466,23018.52,44256.51,-1714.6376,-273.94193,11398.978,38966.8828125
247,-27056.559,-14412.357,-52938.965,5847.8403,6338.5176,6739.8857,38941.4609375
248,-18005.633,-33582.395,7740.4175,8624.471,1405.9303,1833.5659,39315.328125
249,-14555.027,-17979.518,-54667.15,-1381.4865,756.39484,-540.48096,38622.06640625
250,114917.87,105573.38,76763.54,-851.1407,5989.0854,1601.9479,36111.203125
251,-34239.92,-45624.676,-72832.85,-5696.369,6961.53,-2723.6875,38008.49609375
252,-4277.8506,-21426.395,-30356.967,5424.42,9775.3955,3556.2495,30657.18359375
253,16746.95,17103.516,16268.951,-142.612,1494.4583,1504.1914,3751.67529296875
254,111533.82,109970.43,104888.12,-4428.7505,-1173.0863,3247.2725,11437.830078125
255,463731.3,463925.78,464849.9,-4.8851476,978.9378,-134.85591,2000.28149414063
256,551957.44,552378.5,550389.94,-435.29614,-166.02287,139.6289,2000.99792480469
257,166950.67,166863.31,168896.88,40.1682,-105.0049,15.125836,2000.990234375
258,-354197.16,-353790.22,-353974.62,398.50604,295.29834,-1023.28864,2000.98608398438
259,-664966.44,-665903.3,-663873.44,89.2463,221.84004,-495.34894,2001.00817871094
260,559493.8,560488.4,561219.8,-107.6392,648.3825,-378.6316,1994.40710449219
261,-601843.94,-602224.06,-603684.56,-373.43243,-135.95692,-456.26028,1982.68920898438
262,311267.03,311839.12,312641.66,-106.10075,-112.80849,913.137,2000.96923828125
263,384058.9,385200.1,385462.47,-75.87517,878.44965,-18.808252,2000.98034667969
264,452307.88,452284.78,453756.28,87.5383,289.64407,625.6666,1892.3291015625
265,146167.72,146473.72,145396.4,339.40292,-838.45087,-456.0231,2000.75854492188
266,321454.97,318507.8,314424.84,-15930.7,2339.639,-3055.748,29037.66015625
267,4100.492,26285.99,15137.293,19334.785,548.8948,-3773.3755,39169.7734375
268,-617368.8,-616795.94,-627770.6,11061.9795,-2759.4138,-2401.1018,22841.322265625
269,13172.346,20543.322,-736.1282,-27.395142,-15664.456,3102.6367,33396.1484375
270,-6952.6294,-45917.56,-9004.071,3099.6033,-1454.2114,25.328457,38440.9765625
271,-63265.766,-39367.38,-61930.992,-16190.906,7068.7407,3049.6533,38797.609375
272,4443.8916,-27259.762,-32394.812,-11577.3955,-870.3701,-927.7274,40015.6640625
273,2107.5632,-35375.73,-15347.237,-6456.6475,-5129.6904,9952.964,39453.69921875
274,28296.184,-12324.674,16008.805,6177.779,-507.16724,-8020.846,40127.02734375
275,4553.3755,3781.9814,20998.291,-6933.2007,7191.3203,7471.6055,27396.05078125
276,-7213.883,15583.752,-11058.325,-1539.2175,4023.3132,5532.06,27742.310546875
277,-7224.3213,-11103.201,-817.43506,-3283.3396,2825.3928,-6492.922,16239.12109375
278,-7362.3433,-419.18457,29259.404,3362.0166,4983.3584,8706.006,38352.10546875
279,-22007.455,11226.3125,10060.531,2980.7126,-4950.3926,-4881.72,35196.10546875
280,-229364.34,-206883.44,-215307.48,15972.752,-4920.8345,9275.408,38511.109375
281,14493.544,30794.854,-12234.029,-2511.6033,-3719.7288,-6662.2236,40117.07421875
282,-18004.014,16903.89,9447.869,-5184.625,6841.1157,3261.6304,35592.671875
283,-21659.338,-15147.863,-8718.14,-15640.461,4097.5166,-4168.395,31015.724609375
284,148124.86,160024.45,141318.23,-16560.375,9839.395,-769.8682,37200.58984375
285,6421.847,-1748.8286,2537.971,4578.3115,163.73787,2311.7156,11362.4765625
286,-15743.48,570.8059,4799.9297,6014.413,5972.018,1893.3387,24068.759765625
287,5162.1787,1081.6665,-23251.832,-6592.373,513.0915,-1837.232,29143.732421875
288,23749.895,16555.691,-5479.8096,-2480.2893,7508.841,15308.261,39830.640625
289,9480.745,-11315.79,27868.963,-6545.614,5001.6147,-6445.478,38487.0078125
290,25574.29,10269.073,9858.216,-7829.4854,-1310.1202,-11362.68,28584.78515625
291,17286.92,-2936.4185,-4994.285,9971.702,5773.1475,-11424.665,35280.25390625
292,22008.48,2979.7234,-6863.612,9773.576,3168.8066,134.20157,31032.849609375
293,-2627.2236,15237.909,2881.8235,-4025.7957,-147.86404,6948.919,21086.533203125
294,3448.0388,-9463.201,-19873.021,-7894.6865,-3941.7468,1566.3812,25503.31640625
295,26891.86,-317.3903,37579.344,8795.362,1592.1375,-4731.28,38107.7265625
296,-31708.318,-29853.615,-67842.52,3932.911,6816.7456,3160.4844,39898.77734375
297,6464.5894,14606.056,42019.58,-9568.174,6977.6255,-957.7061,38267.92578125
298,-42348.69,-31551.584,-17352.496,9046.199,10192.488,-4084.8467,32843.87890625
299,5471.282,21031.203,-13090.285,-14207.456,4885.586,886.2771,39433.2109375
300,5913.654,1801.7571,36151.53,-281.27234,921.569,-685.54926,32554.064453125
301,-9530.177,7934.676,-9514.602,-6588.517,66.61719,-165.4691,20858.341796875
302,-13499.826,-550.7795,-19763.188,-10966.373,-137.95915,-1693.3069,25640.88671875
303,152313.98,178505.89,148177.1,4344.737,-10462.298,-7063.4736,36690.1875
304,337191.75,340459.28,315094.44,2112.755,7643.3716,11899.216,34418.0234375
305,5453.2925,-2053.918,39543.33,1943.813,2943.1833,1763.1609,39000.74609375
306,-4172.0264,-23114.234,-40087.793,6676.337,4004.7195,-5755.184,35350.046875
307,-11772.988,-10786.889,-39377.625,-11750.589,-8675.801,-7016.23,39723.16015625
308,10756.589,-4838.6675,-11390.779,-5367.196,-2091.8594,-2467.4783,22497.498046875
309,332973.97,332925.72,333847.5,918.02924,-330.62335,-327.3973,1996.33874511719
310,-3747.3862,13751.743,21454.387,10165.963,12841.411,-9709.567,39848.625
311,14781.721,14815.809,13813.524,341.0629,-897.3419,-309.11316,2005.70739746094
312,409727.88,409722.62,410011.56,145.91508,1123.0671,-145.41397,1998.28540039063
313,-138036.0,-154929.0,-177060.5,270.49484,75.61287,-2924.9722,34277.50390625
314,88600.63,87759.28,88505.47,382.7838,-40.798832,986.8707,2000.79174804688
315,2315.815,-22507.482,-6406.1084,-6958.9937,1446.8733,1773.3103,25234.06640625
316,-6580.939,-11576.993,22888.564,4682.3203,2632.1355,1062.272,33624.1796875
317,-15244.516,-39487.785,-17945.604,9415.576,5637.5454,9053.795,33715.98046875
318,25252.379,-6778.9756,20229.316,4427.8154,1417.7809,5751.046,32471.740234375
319,10414.086,6816.3027,8647.278,-2375.7422,-15248.193,-272.88446,26914.44140625
320,8454.437,-3705.3188,-2417.2332,-6746.4443,-7258.943,-333.0132,20707.703125
321,-7848.9424,-5807.3022,-13745.943,-8080.6323,-4929.131,-6920.8813,21528.0546875
322,-9334.211,-10628.302,-227.28004,-9309.153,3314.7937,-19835.836,39619.71484375
323,26766.852,-3185.6619,1564.9485,-13869.883,-7718.9385,-1787.1556,39279.48046875
324,11830.831,18468.395,27405.273,-8166.666,1891.8229,4647.0615,21420.783203125
325,-2330.1829,4655.0566,22289.254,-10838.029,3854.633,-2500.6235,29977.66015625
326,32496.252,10131.058,14791.541,-6158.453,-3419.7207,15318.701,35644.640625
327,23106.312,7370.4385,12011.889,2585.1912,8705.185,103.44587,21060.53125
328,1526.281,29887.014,1585.2516,-9665.811,5850.887,-1949.5372,34598.359375
329,-13869.058,15869.754,-20862.342,3248.3525,-4475.628,2189.7668,35318.6796875
330,-15089.975,-7929.817,-49038.37,4542.7515,-3619.9583,-3164.1042,39725.234375
331,26751.54,870.8761,27885.805,1402.127,6440.7686,6807.988,31142.337890625
332,-6129.5107,16715.416,30195.258,-3781.219,-10047.768,778.137,36866.3125
333,24202.9,15391.74,36541.79,17042.223,1608.0737,-5187.2856,36033.29296875
334,-41313.434,-51733.266,-82503.37,-188.8376,3086.2654,-6981.4814,39381.42578125
335,-15264.314,455.93073,24269.754,826.0377,2821.8447,-1522.5001,34949.578125
336,236074.69,234889.25,233930.94,-400.79352,113.024506,93.00243,2001.45520019531
337,330871.56,330746.3,330643.6,158.34857,-414.97522,1058.1791,1997.54089355469
338,198925.05,199865.7,200020.34,-16.685507,414.52768,896.7584,1995.76391601563
339,-163776.45,-170686.84,-177102.52,-981.15985,-2543.5986,-91.44332,12472.8486328125
340,3292.2288,-33778.297,-20065.148,-8703.815,-1331.4833,-4873.3716,36847.76171875
341,-155.09393,-4223.0493,26473.488,-7392.502,4500.115,-13105.282,39672.3984375
342,-8074.9927,8570.409,-10530.152,14719.174,1706.808,810.923,31378.95703125
343,4840.1006,-9634.462,12273.288,-5787.693,-10731.473,3779.3083,29346.08203125
344,-7840.9473,-4526.073,9697.418,-5507.4907,2881.0862,1603.3163,19597.35546875
345,-2480.4526,-15129.326,-1136.9608,-12685.996,-9571.921,2365.3103,30874.66796875
346,-3041.4673,-16475.498,24575.396,1673.6467,-4160.294,2493.0552,37324.83984375
347,5598.5737,5268.0186,10151.535,-4764.6636,-2738.4612,-8601.013,18299.71484375
348,15445.255,-12822.511,15409.043,-5394.3594,5389.116,2113.9307,31398.65234375
349,75466.72,69509.414,58725.277,-10944.346,-1401.1582,5537.3755,25946.962890625
350,-21054.99,-17884.992,-7680.102,-13012.548,-2152.4187,6989.875,28548.048828125
351,-14109.847,-3249.404,-6098.1523,-1644.011,2425.6973,-5597.688,14659.078125
352,12424.041,-16177.803,16117.298,1576.1151,-841.36786,-1115.454,30832.5859375
353,-14415.895,11621.494,-7254.0776,-1100.1393,3956.1504,-9599.5205,29492.35546875
354,-12574.281,1377.8684,-18755.293,4649.2114,3373.435,-3359.8398,21259.28125
355,-21544.41,-6056.7964,7181.4556,2857.8716,-834.37244,-3437.5198,26118.705078125
356,-13940.202,-3908.0222,11029.913,-2335.309,4710.7925,6577.4233,26198.66015625
357,15422.983,-10285.191,26420.555,9501.08,2046.5764,490.47916,36724.41796875
358,-9049.845,2777.8752,-30815.95,-476.2433,-10590.966,3464.7744,35274.66015625
359,-9091.083,-3286.1619,11213.778,5543.4644,-11500.088,-8136.0884,31869.267578125
360,-5640.0806,-8449.542,-43916.094,-4919.217,-5167.3896,5401.373,40070.41015625
361,13191.807,10651.964,1183.4662,1432.9719,1750.86,-1643.2288,11983.701171875
362,5854.922,-22951.652,19715.904,-1832.486,6912.2114,-1485.7141,39765.125
363,-5431.2095,-3642.7976,-11609.914,698.61127,-332.3328,-2109.0156,8219.74609375
364,8155.759,6930.2583,16466.908,76.19373,-605.78925,386.3716,9073.509765625
365,162934.1,172469.64,133990.44,3981.7493,740.6755,28.664497,35409.98046875
366,16862.145,12546.803,31125.615,-2493.6384,-1374.0981,1525.3583,17745.98046875
367,128916.664,138377.89,113573.47,3424.9478,-1048.1896,6106.5786,24908.869140625
368,-23369.336,-9724.418,-9559.621,-1692.7532,863.9811,3000.316,15043.30078125
369,5180.5376,30048.98,11979.635,4380.0303,-2198.1326,-1751.2083,24017.36328125
370,-28545.354,-27853.762,-3405.4717,-9075.571,749.2022,5115.7524,30698.537109375
371,8891.772,157.62234,11585.79,-3553.2512,-3269.372,10881.252,23069.919921875
372,-17364.957,-49303.38,-30174.54,-3531.172,-1000.7991,-412.73145,28564.904296875
373,25610.684,25208.688,20904.436,110.47675,3805.9634,-260.16605,8007.1357421875
374,-5603.6323,-19404.383,9900.242,-3129.2576,6475.794,-5053.9395,29607.5546875
375,-8616.386,-14934.207,-17702.264,2846.3745,2349.3032,-932.25085,10418.041015625
376,-2750.9846,746.92554,-1981.4586,3000.5464,-1441.2852,-939.7229,6784.30517578125
377,-6037.216,-130.53076,-5376.3906,3405.5613,1725.591,-455.6164,8704.689453125
378,-11852.002,-6307.429,-16348.312,491.3978,1433.369,-262.2014,9109.5283203125
379,-103948.66,-118793.9,-143397.58,2888.1277,-6368.9365,-7056.1377,38562.30078125
380,-76802.25,-90104.24,-120260.57,2682.097,-1183.8241,512.4073,38910.9140625
381,16660.256,6097.798,9593.686,1586.2606,5514.9497,1360.821,13827.861328125
382,-8618.039,-13135.555,-20089.994,3336.018,739.10236,-2953.6868,12703.84375
383,-136078.38,-150956.7,-176537.58,3896.72,646.9425,-1416.5154,36182.51953125
384,231653.06,217930.84,262994.97,573.4632,-947.4417,416.34732,40061.1328125
385,-49649.434,-37712.535,-32106.037,-9700.099,-7702.391,-4936.859,27824.818359375
386,30824.611,59656.617,39775.02,12842.321,938.382,8894.391,37257.0
387,27672.2,49224.188,29760.969,8761.448,318.07693,3274.661,26202.990234375
388,23835.312,29483.85,3733.373,-2454.5535,-2363.3838,4478.8096,25388.0078125
389,2159.7961,630.48773,2240.703,1081.7045,-73.27278,1791.7793,3953.07983398438
390,26875.432,38859.7,45580.156,7540.8105,4441.0366,-3089.4722,22972.1875
391,-3471.8308,-7972.9536,-21308.84,1101.6029,2538.1677,-3033.764,17570.17578125
392,-8259.896,7999.5435,21085.43,-2218.4973,-1209.4387,-315.10278,25842.412109375
393,81.108284,9571.013,2569.7012,-6669.897,2837.13,5358.8364,17787.544921875
394,1152.9142,1795.9764,-1151.8893,1756.7266,205.66333,579.74347,4195.3837890625
395,14839.211,9042.663,-7609.9907,-10596.901,-367.07617,-7646.2363,30333.4921875
396,18356.043,5749.862,12742.819,-5138.6675,3930.8367,3505.9954,16796.158203125
397,19535.486,15603.047,19093.076,-1073.6963,-8767.992,3729.474,17021.70703125
398,29790.244,19671.908,20370.99,-349.09937,2437.2214,4087.9968,12810.8076171875
399,-43549.758,-22660.762,-34554.055,2232.4365,-921.2323,-5379.6816,20825.03125
400,26391.209,11758.556,19818.637,181.5944,4538.414,-401.71548,14950.3759765625
401,111119.51,108381.01,147485.16,-2692.5864,453.657,3751.739,38654.12109375
402,-272113.97,-238634.48,-273401.72,-7233.323,-4619.0996,279.6093,37240.4765625
403,108906.21,96670.55,138861.06,2813.4429,441.61685,295.32666,37922.48828125
404,-69284.22,-68246.71,-108103.914,-847.53735,277.08215,250.58743,39381.3984375
405,-319598.16,-332648.12,-356612.97,-1800.3419,7839.5415,2744.9307,35693.9609375
406,74751.336,85278.05,116518.3,175.99905,1059.3893,-1671.7009,37781.81640625
407,160266.02,167349.98,200567.98,7647.2954,-823.36554,1157.2585,39628.62890625
408,13986.029,3514.4731,2211.9504,-72.23837,-4825.933,788.2364,14026.33203125
409,-43704.91,-33699.344,-65277.31,-803.7847,1621.7313,-2824.2966,28549.640625
410,20330.768,12265.386,32229.742,-2017.4692,-297.49472,2121.36,18126.83984375
411,13492.128,7638.8276,6195.47,2020.5249,3348.2744,670.44617,9592.7939453125
412,4314.2334,-11663.228,-10088.212,-1902.3491,-6596.846,-1146.7452,19440.9921875
413,-1045.0809,-1669.959,-10985.924,1437.707,-1967.7551,5456.2637,14146.68359375
414,-1623.7822,-4007.6194,-1439.0002,-1859.2731,-2449.0898,-110.224434,5878.65380859375
415,38718.812,13850.191,53411.863,2634.8125,852.56,2061.326,35149.4609375
416,267846.3,264001.9,249892.73,-80.76075,-1104.5398,1173.9148,16610.33984375
417,161701.61,146232.66,178802.1,287.23343,-1688.1968,382.79074,28380.958984375
418,-4450771.0,-4451061.0,-4449164.0,-73.76446,446.08774,-292.82632,2000.78161621094
419,23534.852,50755.535,50604.117,1138.0721,5066.6216,-4904.5566,29831.66796875
420,-876.098,-36312.047,-14562.83,-3263.784,-3260.547,3574.6777,32560.9609375
421,-22480.492,-34503.56,-30957.377,714.0379,-1230.3761,-8574.858,18470.224609375
422,-364395.22,-363988.56,-357599.88,-584.08057,1678.8937,-2642.4531,8602.6669921875
423,158.07266,-3470.3928,1054.6866,-2401.6274,-133.36475,-2928.2236,7765.51953125
424,8864.515,5780.7524,-6684.494,-1366.2151,-632.4691,-5310.648,17168.005859375
425,3849.1436,-10492.611,-5383.8433,-2649.3376,1167.3871,-4063.5884,15270.8984375
426,24859.555,55364.168,50657.76,15368.646,4839.765,1983.1658,39997.1171875
427,-170837.12,-170111.55,-167386.69,176.30173,-297.0153,-1073.2466,3707.00634765625
428,13263.427,20663.514,13614.342,-2137.3635,4746.359,389.18137,11577.1640625
429,23165.299,11879.583,5424.18,661.51324,4389.2935,-1132.6927,17460.037109375
430,83841.11,74537.94,113513.016,7789.6084,3336.718,486.39703,38198.9375
431,37537.473,5922.593,431.59546,-2047.9386,4600.488,5641.573,37078.3828125
432,-39014.56,-18145.389,-19561.69,2130.2556,3887.1182,-6576.282,24426.556640625
433,-27706.234,-9266.17,-12024.191,-1768.455,1653.784,1051.7473,17823.87109375
434,1016.1073,-48.191284,-5758.473,-1898.5571,-49.953026,-1534.6534,7596.31640625
435,-4916.5073,5046.9146,-8482.936,1379.9901,-1653.8542,944.42224,12810.8408203125
436,-22594.07,-13221.191,-15253.408,1761.2126,-1069.2422,5145.8896,12849.4755859375
437,29406.633,20757.418,21975.285,-1694.3477,1854.043,2569.5444,10222.0869140625
438,-24570.098,-22438.781,-55770.83,-3239.4387,-3262.4016,4102.8496,34035.83984375
439,-297020.97,-262997.62,-263319.38,10713.25,1699.9253,583.9151,38739.6171875
440,-8893.738,-5488.1143,-23514.121,-5710.2485,5772.7036,-6481.0264,24473.447265625
441,2694.6948,-5888.1094,-12375.919,-2053.723,-257.48413,-3293.6853,14725.390625
442,-134971.73,-130370.32,-169903.4,-2453.875,-1030.6881,-3233.1382,38141.0625
443,-22114.084,-19550.594,-41346.2,-5313.9995,-5604.7065,725.7202,24622.775390625
444,-27774.463,-4733.0645,-16489.115,2660.8796,-2545.5608,4748.4,22506.828125
445,-43920.465,-7765.6123,-1131.0547,1968.1348,1483.7854,519.8316,40126.03125
446,-23339.297,-35068.6,-25952.969,-2219.029,787.2432,-4705.076,14028.40234375
447,-4807.211,-3178.4775,-7521.38,-375.7145,1200.493,1074.811,4759.49951171875
448,-42496.062,-57250.383,-23535.213,-10967.141,3591.8918,-5184.4526,36566.8359375
449,378807.2,387938.25,421217.72,1528.21,445.3901,-788.5985,38784.57421875
450,-13085.669,-4662.0596,1771.6006,-2974.1428,-490.9433,-7434.7573,18963.921875
451,-3495.2278,-1165.4592,-7988.508,-3111.6526,-466.6866,-1659.439,8605.08203125
452,172479.2,157969.67,132959.27,-485.80252,-1831.1886,-2163.6746,34982.11328125
453,28279.121,28621.848,48227.4,3882.6208,524.71747,2445.5735,21335.583984375
454,-3734.9712,-4174.802,5823.1035,-29.94446,784.29254,3821.6658,11891.9130859375
455,-6735.4214,-12225.775,9225.947,13536.8,-2068.0818,-5670.4775,32118.0859375
456,37346.875,32217.861,38604.457,870.50024,-2470.5652,1605.3864,7915.46826171875
457,95041.414,72447.26,111681.45,-10248.811,-724.0194,2010.725,38628.625
458,-2399.7039,-3145.1345,-4020.1824,-1949.7473,2936.651,2586.0444,7701.48291015625
459,-11123.392,380.6714,2747.0264,418.75082,263.74628,-2658.7075,13678.6962890625
460,16538.678,7365.341,39734.5,-2928.906,-1921.4996,3500.9072,30142.3359375
461,59366.91,48567.523,89513.58,-1223.8877,234.18294,1661.4435,36931.73828125
462,-641.1865,-14342.138,-25684.5,2379.187,-1467.9175,7455.014,25728.2734375
463,423.32605,-2499.9077,-346.2379,261.08792,-593.3184,-2360.0835,4985.8271484375
464,-10365.57,-11855.726,-24036.88,560.4748,1432.0272,508.8667,13290.005859375
465,1580.9529,-3436.2646,-3026.045,120.412,3324.417,-1045.0723,7730.3212890625
466,26298.36,21603.496,16280.152,-7452.514,5405.964,-1099.9215,18256.36328125
467,-115481.69,-111090.17,-150113.92,5059.0576,-127.548035,-58.280434,38047.421875
468,10305.11,5156.919,28043.06,-4314.2773,940.1086,-601.32416,22181.80078125
469,-8799.698,3796.9634,6940.0464,-1435.8313,-1961.5769,1252.2323,15184.8486328125
470,4319.0713,9516.299,13257.154,-1825.219,-2504.218,-2189.8374,10180.4228515625
471,-238124.0,-237537.78,-277455.12,2037.5386,981.84894,87.74178,39820.9453125
472,-20302.855,-8517.982,-15350.455,2843.1038,-611.48145,-316.52914,11433.2021484375
473,-137098.31,-129477.695,-124588.484,-20558.838,6771.621,-3334.881,39473.578125
474,20082.795,20879.78,30086.799,-1881.22,388.3353,6705.989,15450.646484375
475,-29167.209,-16157.258,-28299.629,4412.272,-482.87103,3530.3516,15975.556640625
476,5396.43,2666.664,5826.253,2094.8728,-360.68842,-973.94434,5021.07080078125
477,2471.9277,-19780.316,-28852.816,8780.831,6706.2197,5878.2017,35344.66015625
478,-177161.95,-179816.84,-215674.6,-407.72308,36.245377,117.09195,37263.50390625
479,129481.766,113087.35,87861.67,-3543.1853,1831.8679,-738.7826,36987.01171875
480,-131.27075,85.85596,-7976.179,-4219.2183,1021.2643,-3502.9324,12515.55078125
481,105814.94,131597.7,92020.24,5123.9365,2977.7769,-1390.7902,36357.6484375
482,-4615.551,-5201.6606,-3539.2256,-4634.7173,1361.2333,-2672.4148,9672.5859375
483,9979.31,11694.596,18475.252,1020.1517,-2104.6936,175.62465,8778.048828125
484,-4259.9053,-5370.8755,-20778.982,-1160.8047,1339.6062,-502.54797,16307.83984375
485,5784.4487,1285.1943,3976.0305,-1862.9097,-851.11017,-1197.7863,5680.2880859375
486,-3261.1504,-12226.404,-18604.672,367.45886,-2194.1875,-1226.8052,14057.1865234375
487,4027.3223,6492.445,17125.93,-890.5513,-892.1586,-1220.2742,12433.6220703125
488,-8733.817,-19.302246,-2473.8398,-646.18555,240.86296,4326.8813,10870.595703125
489,12014.062,5730.173,6133.1973,-644.83295,2927.5667,-3134.115,9671.841796875
490,11317.484,5551.34,14912.385,-1659.079,1007.88196,110.63698,8845.4658203125
491,-328306.47,-291660.47,-285514.53,613.34204,-1014.4367,-325.5294,40130.53125
492,-828.50146,-2996.3604,-13213.865,-1787.3066,262.4304,521.61615,11910.2216796875
493,-4483.94,-2155.6655,-2755.3447,-1370.1826,-790.42053,2078.3325,4984.892578125
494,8666.258,7978.2627,15997.203,2375.4966,-4977.457,-2263.113,12879.4013671875
495,-1640.1196,-241.33594,-23246.5,5759.8203,-1683.031,561.9062,24657.3828125
496,-11165.916,-14133.803,-18937.162,-4357.646,-2341.4834,-1484.1635,11232.076171875
497,-2159.7764,-5285.639,-7465.983,872.6618,-631.5801,-811.43256,5176.57568359375
498,-21099.078,-26881.373,-35671.543,-519.22485,666.0574,2438.0295,13472.2314453125
499,-18414.412,-5127.8906,-32398.262,3234.528,8125.759,1889.0837,28249.828125
500,-1179.9478,-3849.2305,-6468.6045,-204.21112,-1147.4531,-786.9872,5187.5947265625
501,-10029.113,-15059.777,-17704.75,103.335556,-1358.1536,-3237.4624,9089.482421875
502,1766.507,1556.0907,-7053.0063,-853.60443,1932.7976,-6664.6904,14920.4443359375
503,1683.0427,-538.90515,-2784.6226,2403.8904,-1559.7208,-5716.1343,11731.453125
504,-3867.8726,-563.22864,-2778.5662,198.07454,2399.2593,1209.4586,5502.98974609375
505,-2507.5815,-1363.9833,-457.71906,2074.4553,-1196.7206,469.05795,4586.076171875
506,-22107.363,2003.3286,404.396,6658.359,-2754.1868,-349.18744,26484.982421875
507,34447.43,44662.734,72869.22,1368.9575,-442.92792,954.5293,34598.265625
508,10002.408,6603.336,9541.964,-23.085869,-2518.6418,213.70831,5419.400390625
509,44362.547,57786.492,78502.516,-3021.901,-576.10516,-653.24786,30283.9609375
510,-18194.65,-9061.509,23521.984,6944.704,1707.5227,76.654205,39951.7109375
511,10980.098,13401.373,21997.04,1393.9305,-46.11609,731.5139,10392.37109375
512,-2088.069,-8758.467,-2607.0967,-1277.8967,-3122.2214,2060.7449,9390.705078125
513,5846.737,4178.9067,6611.04,-554.1238,-2444.1702,328.174,4879.2109375
514,-1295.145,-8315.783,-7834.52,-3347.4043,-2343.3875,-2107.1782,10466.734375
515,-865.3943,4820.1763,5776.7925,2103.778,1518.8329,2914.4734,9184.7919921875
516,-33976.164,-39432.47,-47655.836,3718.8625,-4423.474,-2694.1963,16255.19921875
517,4897.2446,5228.4424,9918.079,1221.4589,-2042.7283,800.95496,6524.896484375
518,-246166.05,-270672.56,-225043.9,-2282.7449,996.9915,210.53593,39788.0859375
519,-67209.516,-72547.56,-105608.375,1040.4521,-442.79297,-194.45422,36082.42578125
520,11037.749,1340.6484,-3094.1687,-0.8510201,1259.2651,-1728.7957,13054.8720703125
521,-20377.865,-14908.914,-31597.248,6096.158,-903.9677,2429.9631,18676.115234375
522,373458.2,360579.84,404288.6,604.1545,-1110.8986,-841.0572,38991.40625
523,5918.3,6338.497,12769.609,-1094.9777,631.89233,-1708.0105,7601.63134765625
524,2930.2915,2464.3945,-2312.5027,-5370.426,-2395.0251,-597.8857,11404.6748046875
525,21892.898,27264.752,48648.742,412.4655,-1142.3783,-659.51556,24631.966796875
526,8713.861,7490.9893,15010.85,-1257.3148,-2471.8523,-1461.3622,8850.271484375
527,72825.37,59333.17,79812.63,-193.63878,-1012.7044,1424.3939,18286.8984375
528,-19309.201,-19770.973,-25365.871,-2765.1086,3159.1836,-743.8492,9414.7978515625
529,1114.5931,374.99786,2006.1948,-2071.4277,18.316896,-243.11176,3879.70825195313
530,17592.414,12594.53,19820.586,506.08664,4179.2554,-553.8229,9755.3466796875
531,-1807.1969,-2633.4294,-5159.709,1424.5642,-3070.8896,-161.78531,6603.77197265625
532,-41952.062,-36626.004,-69310.57,9568.436,-7121.601,-1907.2349,36882.203125
533,-14503.592,-19100.854,-33563.566,4432.9453,-801.98596,2633.8994,19454.783203125
534,-10112.114,-8092.992,-5490.943,1069.1553,766.8258,-2334.7178,6135.75048828125
535,16306.432,17851.41,35100.805,3483.2375,325.47473,-526.503,19082.10546875
536,9206.225,1964.1455,11261.168,-4873.592,105.15962,-1371.0564,12185.2705078125
537,-15238.395,-12898.6,-26044.271,-1065.8192,665.31866,1704.7484,12687.7705078125
538,5706.0576,7241.059,13715.401,-1118.0778,374.04413,2539.917,8816.7470703125
539,2817.294,12403.101,6064.8203,2868.6606,-762.2002,639.78314,9947.9853515625
540,32670.707,27701.879,65558.51,862.69836,-2132.2722,1392.922,35936.10546875
541,4468.027,10043.168,19586.766,-1676.4642,-159.14604,-1739.5286,13890.818359375
542,-10512.342,-10792.551,-21318.67,2402.9402,719.8526,-2321.5579,12201.353515625
543,4904.9204,11881.956,9328.165,-305.12912,126.495995,-1604.3925,6740.365234375
544,20994.855,22610.38,32413.998,3792.8706,2600.5195,1549.491,13609.0888671875
545,21707.342,18264.967,32233.342,4904.6606,2298.8547,3150.462,16633.658203125
546,5338.0137,794.07446,2452.5984,2078.1887,-736.0645,1699.8484,6253.9814453125
547,-1859.7026,4065.7864,1305.0331,-570.4097,-1954.2771,283.46323,6248.92919921875
548,19941.74,11193.02,18022.031,-671.90643,-2494.1533,2027.0388,9786.4111328125
549,-3397.7715,-10523.528,-15918.117,-2533.5476,380.3088,-1547.6561,12049.677734375
550,6865.7993,392.45532,-83.39282,155.61009,2314.3325,1022.43536,8030.44921875
551,27134.477,13883.855,51725.023,1697.2041,833.2908,712.80817,33441.93359375
552,1755.1108,2882.3914,1675.988,2247.654,366.6635,-392.03455,4169.70751953125
553,-2722.8694,-7210.085,-5099.9897,-646.89514,1784.5917,-3150.9297,7464.177734375
554,-201530.55,-198342.88,-237284.34,145.06244,607.46484,-92.30611,37465.48046875
555,-11077.768,-8067.651,-17730.838,7.2776427,-1428.1656,207.60953,8921.8330078125
556,40515.965,37555.26,69407.664,29.998838,863.6821,-2108.6763,30734.603515625
557,4925.2695,2073.7407,6526.967,-107.092445,-913.79755,-114.31421,4224.05322265625
558,-25190.943,-20319.535,-36275.75,135.38905,-3237.2202,1881.697,15579.419921875
559,-10286.112,-8848.089,-16797.668,1472.9056,674.6534,-335.5291,7876.77587890625
560,3124.0706,-1161.8208,6876.153,461.88712,1792.5443,674.3435,7757.05419921875
561,7584.6475,5144.0205,9728.3125,2896.7766,1305.3956,-1526.1874,7284.072265625
562,-4653.9634,-6396.805,-4814.2607,-1730.0392,1575.7833,-3752.3918,7839.23095703125
563,389331.66,392440.72,428964.16,3307.004,359.61273,-858.71484,38634.05859375
564,19837.32,11851.033,37849.76,-1306.1085,-1235.5417,-2.2051647,23276.142578125
565,14647.822,17331.252,26229.125,-2522.9014,3081.9385,-3561.5693,13996.2216796875
566,-5450.342,-4076.4985,-13636.308,-743.53613,-1027.2786,898.30005,9348.2080078125
567,356.6543,2968.6436,-7113.123,-860.19763,-76.42188,2091.27,9873.6318359375
568,4024.6123,-1361.7651,2446.8962,1127.8618,921.9503,-1341.416,5896.478515625
569,7040.63,8391.746,13703.25,4898.047,-1382.2178,1110.298,10891.1201171875
570,10334.043,7976.899,15529.36,-738.57837,400.1439,-1837.6503,7552.5673828125
571,-68904.47,-70374.11,-104688.305,1829.9884,-1535.5094,354.57367,35320.6796875
572,-20883.922,-26331.453,-40624.715,737.03174,2068.8494,-1836.0868,18341.74609375
573,-6433.1807,6788.418,-11784.54,-507.40707,2293.9338,-2613.2646,17642.20703125
574,-183102.3,-183511.97,-220579.19,-1203.2263,-220.05441,71.944534,37334.11328125
575,98201.85,106777.89,139147.78,-2057.983,-134.13986,-324.09076,37577.1015625
576,-402899.84,-423637.62,-378514.3,-5063.4,608.0581,-614.9239,40119.4375
577,-3147.4404,-3724.15,-12612.609,-3060.5251,-1633.703,675.78174,11042.681640625
578,-14674.502,-6922.4824,12668.705,-622.93726,-259.6855,-207.49684,24439.216796875
579,408509.47,404581.62,445135.75,-5863.643,-1135.8651,-253.67009,40099.69140625
580,-8981.353,2158.177,11854.953,-5040.1543,2466.755,2101.349,20828.951171875
581,50025.31,21907.238,21040.254,5283.569,1374.4612,-4259.5083,30977.43359375
582,-21192.059,-16666.516,-5029.454,5773.716,7090.198,767.14716,21474.435546875
