Element Label,S11,S22,S33,S12,S13,S23,Mises
1,1916.1053,1069.8107,364.36658,279.48166,-107.62672,-323.03314,1546.93615722656
2,694.84204,1450.7736,-748.20465,148.76076,22.075472,195.27951,1981.64416503906
3,2069.856,1306.4911,714.7815,-132.22397,137.7414,-343.60184,1359.44506835938
4,-662.67426,875.99475,-1008.4703,702.7765,-319.47818,316.17264,2259.84985351563
5,2846.3096,5917.534,2927.0217,1151.4927,320.23392,-1000.30115,4059.34887695313
6,-164.14511,1289.1808,-2460.2534,-258.32416,-264.42108,293.3979,3374.82739257813
7,3892.1382,512.65173,2733.042,687.4923,871.3098,-389.7643,3605.3447265625
8,-3195.9485,1489.4554,-2733.9797,-334.09247,-1165.1182,356.34875,4978.97802734375
9,7223.8438,1639.0764,2874.3938,952.0486,1533.289,-316.79,5990.814453125
10,-5012.2495,-3019.3652,-3672.6484,1280.3066,-1504.3041,1393.4879,4541.830078125
11,-94.95445,971.0358,-2393.467,530.2366,245.68452,-16.740246,3145.64208984375
12,4310.743,1804.9819,2426.4465,-192.46475,-780.4878,44.93071,2655.6513671875
13,-3184.728,1318.753,-2156.323,1004.5506,767.4417,-65.16142,4638.37890625
14,5755.818,935.7349,735.91785,-914.2252,-407.99365,-423.54495,5270.79052734375
15,-3410.1138,1216.812,1673.2578,-1894.8086,634.0554,-944.9203,6195.5087890625
16,3555.8884,-474.42865,3328.634,818.14545,-14.6806135,-395.28827,4225.71728515625
17,1572.2352,2087.8542,-721.74994,-67.81733,411.1101,-165.11893,2704.38134765625
18,1063.7118,601.9434,-101.748184,-829.72784,-72.71926,571.07916,2023.10595703125
19,-4038.1902,7468.7407,-3950.4688,-4594.9194,1284.832,1464.5767,14357.400390625
20,-19434.928,-4419.3794,-41528.92,-952.9205,-875.1136,-4177.9863,33207.7265625
21,1237.7091,3675.0503,1731.4419,497.93454,358.27402,118.57267,2480.33959960938
22,2438.9668,2181.2344,-3108.4482,-3036.5544,3336.933,-809.9638,9614.8828125
23,28.761858,173.8146,7441.0347,3113.9277,3193.267,98.75158,10658.208984375
24,-1210.2865,-2691.3186,-11685.265,635.99335,-4419.4927,355.70844,12513.73828125
25,1621.4039,-92.61261,13084.578,-471.05704,2840.032,-1721.9081,13702.125
26,3863.6384,-560.12213,-4590.4907,98.48322,1804.9038,-109.48559,7967.4970703125
27,3380.687,6652.855,22115.676,1423.5082,1680.4177,-2282.1736,18181.814453125
28,-1633.8824,1512.1758,-2877.4683,47.794186,-936.30536,129.1761,4247.763671875
29,329.37906,-5291.05,-8810.074,-653.132,-375.20334,2145.4846,8902.953125
30,305.99652,2460.788,-2325.8696,-717.47424,145.24007,-133.22693,4347.62109375
31,1186.5348,2436.639,-2298.385,273.98074,-1765.7045,-2249.706,6544.142578125
32,2476.796,1146.0435,3937.8345,-783.2495,393.547,-276.1483,2895.45629882813
33,751.2045,1965.3285,1071.6927,-3013.337,899.6435,555.9804,5637.7041015625
34,5609.1655,5559.1997,6635.3076,1076.1389,-878.379,145.05522,2637.94116210938
35,-426.0179,2033.6865,3233.265,1899.3575,1.3925498,414.84836,4666.76806640625
36,446.0464,1435.2299,-1549.8304,-40.253883,210.29472,283.8369,2704.72192382813
37,1489.2117,-101.085106,5229.2935,-106.06094,21.117603,402.24106,4794.32763671875
38,2642.412,4968.501,1652.4734,-1567.9078,654.36584,113.90316,4170.35546875
39,-921.0212,2504.8557,1686.6715,-1176.7773,2627.6843,-527.6561,5941.9619140625
40,1178.0381,2944.9497,445.95334,-1018.7511,-87.847145,45.753685,2845.07397460938
41,2466.758,1214.1439,31.33064,1745.1965,-20.477022,251.63959,3711.88037109375
42,9097.385,4260.7544,1322.6742,-1346.2673,-697.47003,143.36679,7293.4267578125
43,200.60794,1473.3323,-3184.3262,-1799.3291,639.91565,-647.53296,5439.193359375
44,1825.7361,372.2076,857.8641,-284.07333,-179.5669,25.031761,1408.33142089844
45,2832.7322,790.18805,3763.2349,-475.67435,-1251.3374,473.97482,3603.98461914063
46,5822.1772,4352.223,14763.329,-1925.4219,-4627.245,-88.745834,13062.4501953125
47,-7434.277,731.8013,2038.2566,6706.3525,4448.5615,-1291.3787,16684.05859375
48,-3398.0088,3820.964,-4641.201,-1056.5151,-4724.4478,-1987.3005,12032.939453125
49,-3805.4912,348.14844,574.5877,350.36697,-2192.2273,3691.4036,8597.0791015625
50,-3408.2078,1306.8512,-1475.9064,-145.6455,1267.5464,3425.743,7546.2216796875
51,3041.546,-1313.5443,-5263.953,4629.8267,-1476.4243,-127.57397,11075.7001953125
52,-660.5117,-1433.9939,-8348.09,2526.8328,60.178158,-2107.2314,9286.4267578125
53,411.42047,280.36102,17290.938,-7244.069,-348.66287,2651.5847,21587.830078125
54,-849.24274,2957.9568,-8721.017,830.41766,1835.0758,2100.4087,11481.9619140625
55,-5729.3394,-2741.9475,-22557.93,-4471.9185,-2558.565,-1333.8783,20672.93359375
56,-2521.1172,889.1863,-10471.979,-4920.9624,-755.172,-2554.3918,13996.228515625
57,-682.37195,4605.2764,5157.396,-602.1437,361.31616,-755.84357,5863.1689453125
58,2384.1565,3140.4597,11159.484,-589.3141,-140.12518,1863.8307,9080.9658203125
59,969.47675,2675.0032,-4623.838,-97.794365,-1475.5271,-946.959,7279.00830078125
60,42.731335,4663.283,2888.0657,1800.89,1373.7258,-959.86115,5869.701171875
61,-175.25708,3986.8022,-5739.666,4060.0884,-2191.4236,756.57306,11705.6376953125
62,1143.6312,2471.844,-1335.7993,1186.8984,-22.93012,-423.98044,3996.49536132813
63,2374.132,1915.9543,-1233.69,551.90314,822.35754,-269.9548,3838.556640625
64,1267.6079,2383.7944,-762.74384,1141.559,-470.5853,426.5024,3571.2724609375
65,1480.2245,1873.6986,2581.0618,-60.285225,295.74927,-297.4384,1213.35412597656
66,1328.8856,870.9346,-453.02713,753.83624,359.4586,-119.034676,2168.83618164063
67,3233.139,1438.9326,312.29156,145.12105,203.81853,-115.86968,2595.76684570313
68,2034.5575,2215.7559,1188.6896,-352.9382,-510.0797,-246.22334,1495.89880371094
69,774.1445,1238.0519,-3843.2002,760.74884,-143.57976,70.67237,5048.77685546875
70,1348.7261,2449.0615,332.36374,410.63965,324.31552,484.38028,2210.7373046875
71,1577.1005,1451.5542,349.23914,920.3661,-534.70026,817.0573,2602.10180664063
72,459.81082,1725.2162,-1625.2908,-819.9002,681.4463,-645.59753,3639.7255859375
73,724.69904,987.908,-1244.1484,-205.60652,-491.30676,-152.48557,2320.47021484375
74,283.99167,-2310.8652,-2945.054,1667.3539,2021.6908,-3532.124,8173.78271484375
75,9269.407,3620.2625,-5489.8022,1340.9753,2984.446,-869.9746,14168.8447265625
76,-367.46396,1937.9132,3668.2266,-1014.7231,-154.78462,3128.1658,6694.39306640625
77,-3658.6318,-2254.5232,-10345.556,-3511.0217,6241.9297,5125.3066,16992.611328125
78,-149.54372,1682.6869,4677.3525,-821.8467,-6242.944,4148.1167,13725.23046875
79,5225.629,1558.9989,-1577.4447,-899.93335,4120.712,-3703.313,11370.8251953125
80,6853.0444,3595.5894,-6334.987,3306.7402,-1194.941,743.53766,13428.3857421875
81,5424.216,17554.508,-2081.4263,5906.5483,10739.247,-2718.8538,27701.208984375
82,17155.82,17466.06,39158.617,-5294.369,-6425.633,-1263.3595,26270.4921875
83,3063.8054,1932.1976,-13265.922,4329.6016,2756.89,-10888.634,26156.95703125
84,652.53394,-3733.6501,932.9026,-292.55344,-2017.3926,-1406.5752,6240.8896484375
85,321.90756,1298.5979,1475.5275,-121.30253,-541.2099,-373.55957,1580.99377441406
86,2775.5413,2537.4028,6341.585,259.53003,-43.93706,411.90845,3786.7470703125
87,685.6602,885.91766,1671.7047,1687.5134,-762.35675,-181.18059,3346.65063476563
88,4224.494,1082.2117,7326.5894,115.52699,49.672348,-848.994,5608.4228515625
89,1056.2477,-592.8892,-6139.216,16.010773,-88.50188,313.36636,6553.38818359375
90,3126.1406,1486.3622,2318.3228,589.21313,78.79937,-93.402824,1761.56677246094
91,369.60513,2196.3938,129.55829,-998.0699,282.99164,159.42372,2671.74584960938
92,3118.6528,1023.35,2644.5784,-337.67996,-296.19336,-504.50018,2233.95336914063
93,-3733.6885,-3804.2068,-12570.968,-445.6771,588.04846,309.16104,8910.6298828125
94,594.14856,3406.6414,-20.39634,355.46317,228.29788,-281.66962,3284.75537109375
95,1200.8378,565.51276,-1329.8193,439.51294,253.53114,-63.000263,2446.28881835938
96,1536.2231,2608.5767,887.16626,1202.2561,-247.43799,-73.26722,2608.30883789063
97,2601.523,1840.8186,710.25775,931.6696,-407.5992,-54.92955,2414.19750976563
98,-1808.4114,2167.5168,1093.4165,-690.491,143.95737,-406.12866,3831.25024414063
99,-2194.6062,3747.4932,-3365.9377,-167.31781,-2811.689,321.1525,8231.0947265625
100,6725.726,920.26276,8945.407,-270.30765,-477.74625,44.805855,7240.62255859375
101,-1257.3081,1815.3654,1178.1263,-365.77893,899.8586,-922.06946,3642.88671875
102,7498.741,20458.506,5861.768,1849.0481,1506.7136,5786.028,17588.400390625
103,-7421.4,1181.512,-13563.0625,3449.9949,5456.2964,1200.3849,17143.802734375
104,-2068.891,4099.6147,1573.4606,-3417.7034,-1980.3068,-1363.5334,9012.986328125
105,2409.8896,2209.4902,4373.6255,-815.46484,856.80774,713.80884,3164.77905273438
106,-357.08252,3232.6433,-1415.0027,-409.21933,-866.9699,789.3578,4735.9814453125
107,3479.6985,3160.406,1324.5879,1362.4872,-1350.6831,52.028606,3886.9794921875
108,2508.9067,7452.987,4727.776,787.38776,3908.8298,-1117.8455,8357.1865234375
109,-1908.3246,206.28818,-4219.1245,-1324.5795,613.62695,-218.03152,4607.9921875
110,2426.2327,5829.2188,2246.6863,-956.84863,-91.28407,52.117184,3873.41845703125
111,-2295.4998,-2531.1963,-371.73584,2583.85,-73.44064,1214.1442,5355.1201171875
112,1913.0887,1644.9934,-1153.6259,768.9265,43.88648,-450.62042,3323.1220703125
113,1076.3145,1896.9006,-2356.8867,1516.6715,29.02315,-32.542393,4709.9951171875
114,2467.4192,866.59766,-365.10623,-321.49942,7.623704,624.575,2744.44970703125
115,46.792793,1822.0225,4191.4805,-295.15756,70.00675,-211.08777,3658.11889648438
116,2343.9321,1313.6456,4890.83,4579.716,-4624.403,2455.1763,12463.2490234375
117,3277.4417,1011.1929,3261.8245,-720.35724,-5500.288,660.6723,9936.1181640625
118,1256.1508,8462.779,27428.959,-2124.8533,-3452.1843,-10357.789,30322.974609375
119,-13900.257,19318.87,8500.145,6122.364,-3627.2012,-2534.5479,32130.33203125
120,-187.87367,1660.873,20767.11,-8831.02,-111.62662,7198.27,28164.376953125
121,1232.3444,288.80646,-133.62209,135.8853,186.61244,466.16815,1509.66625976563
122,2865.653,-2389.6628,-3152.9736,-1664.3615,-410.5704,14.290602,6405.3916015625
123,946.4334,1811.4595,-2567.0898,-302.49973,218.33228,-655.0658,4223.41845703125
124,794.47253,745.99384,1330.7606,1387.7812,-217.07312,-399.21423,2590.99267578125
125,-1641.8247,1379.3702,778.80743,893.11633,-441.16528,240.4683,3290.01586914063
126,-618.15015,-313.3447,-180.93411,70.17197,221.44081,461.51035,975.527648925781
127,4062.336,-225.51292,9215.525,4748.5137,3177.2114,6039.5303,16564.84375
128,-1409.0442,-677.0945,-16972.93,-17.520996,-2362.39,1851.7462,16768.802734375
129,778.58606,2643.0012,-9779.126,2063.3394,-2259.16,942.00653,12859.662109375
130,3171.9246,6577.109,13020.339,2434.799,3768.325,20.00769,11637.767578125
131,1626.9918,2068.4102,-329.8766,124.66065,330.7715,-585.92847,2508.5390625
132,-6434.009,-932.8813,-21144.777,-24.23281,-1820.7122,-923.75696,18441.845703125
133,7381.669,2309.4055,20341.58,498.1503,1840.3535,193.15167,16445.0703125
134,-529.9437,1250.6829,-9040.433,-166.72314,-62.87089,263.52353,9542.3603515625
135,724.7067,2257.8704,-61.222614,-1535.8109,1632.0475,-104.06335,4390.05712890625
136,1267.9563,1524.8004,-7.7673063,-1620.7635,801.49304,404.4763,3509.94311523438
137,1388.9232,1591.311,-66.521164,1016.8293,-311.91385,632.3477,2654.64331054688
138,377.40326,-1628.3817,16234.483,3305.7803,-1755.7373,-606.4797,18177.236328125
139,-9222.332,-4317.588,-18664.922,2298.5527,-278.01828,-2926.4414,14188.255859375
140,5008.769,690.72156,1946.3518,-2562.9045,-378.31467,220.07674,5922.869140625
141,-46.94531,4766.069,1362.5205,1986.4059,1105.4602,3654.0334,8598.1015625
142,3303.2793,3985.347,15529.223,986.02136,-1250.2505,-3518.3647,13650.7412109375
143,-2151.0396,-724.8899,-3674.1226,-1060.2179,5728.2856,2430.2788,11227.4912109375
144,543.6097,901.8122,-10.476934,-48.107323,-696.3505,-217.46255,1495.76782226563
145,1775.9495,3555.3923,6624.641,-772.7432,-453.88675,114.24382,4527.3447265625
146,604.95593,1762.866,269.25555,-523.0145,317.18454,232.23976,1768.16796875
147,1148.4906,1370.1577,-3967.66,-41.537346,-93.04351,-43.77669,5234.03369140625
148,723.82666,650.4599,-3504.877,206.47295,-35.52794,-148.2346,4216.001953125
149,2044.4095,1352.5632,279.88788,807.9457,283.13623,-424.51077,2260.72216796875
150,2440.4404,2251.6902,2558.791,426.47922,123.29458,307.8668,973.435302734375
151,12339.183,-1425.2773,34915.13,4240.6836,4378.478,2236.9521,33709.86328125
152,1091.4911,1690.0387,443.3146,232.93317,-29.369368,76.57061,1161.5966796875
153,-5591.711,2017.0156,-14870.359,2066.0527,-1924.4581,841.36285,15512.0849609375
154,6661.6836,3143.338,7886.897,-764.5794,1628.3911,-2333.6733,6651.12353515625
155,602.6164,-259.33347,338.74026,-949.92163,-174.30574,1938.4048,3828.26049804688
156,20.633835,4338.742,8749.136,1480.3395,-1882.9926,1443.871,8978.177734375
157,-1530.9701,391.0452,1211.6132,-1067.2506,3096.9834,967.0858,6398.544921875
158,483.96313,3865.8225,-2427.3513,765.49084,-3221.5574,911.3955,8071.154296875
159,2365.6604,2566.446,3559.708,1632.9027,1090.253,244.17986,3601.42431640625
160,-1.730063,3292.1504,-4069.0225,3011.4456,1081.4275,121.800766,8458.66796875
161,3185.813,4163.457,1056.3125,1515.3713,-104.06168,-64.26751,3808.72436523438
162,6306.4575,5152.5454,-4344.3745,-5331.9653,-1600.7281,1388.4047,14185.94921875
163,3596.218,5447.974,1509.3152,1104.6272,461.89978,-250.90376,4017.22729492188
164,5384.851,3286.1963,8729.503,621.6551,-631.5054,-946.21704,5258.5224609375
165,427.04684,148.97095,-36.82582,401.06458,109.218735,57.895702,831.812805175781
166,83.6957,2633.1755,146.35315,891.5218,-299.39645,235.16042,3027.0908203125
167,-1111.911,1712.6505,-7727.6562,73.169975,-615.2398,903.50775,8604.267578125
168,7519.911,-3799.9316,8678.814,-6982.681,-1748.4097,-15.102747,17263.994140625
169,-723.4073,7666.3076,7841.354,-3189.7263,3964.0525,928.5454,12334.396484375
170,-8296.572,-2311.6462,-36368.137,-3618.9404,1042.2225,-1809.7659,32314.283203125
171,917.65967,-1365.5181,-4197.293,-980.2727,3233.9705,116.448814,7348.22900390625
172,723.2411,1197.7378,-14.241729,368.83185,545.65735,-1050.9789,2394.5703125
173,175.10622,1800.7466,-616.0932,22.49695,-519.4166,597.854,2537.34033203125
174,5474.163,-1402.0239,11789.434,-588.3377,-1192.5167,-914.5474,11764.5009765625
175,-202.52061,-2831.21,-5875.5645,-1832.2317,-2120.8748,-1438.335,7345.25244140625
176,5949.405,4191.9272,17097.783,-2510.5305,-2582.659,2401.8672,14254.6005859375
177,7387.7188,444.51532,16152.433,-155.13785,1849.96,-1636.689,14291.919921875
178,545.2948,1111.9149,-3674.1555,1529.2444,-94.10428,-323.933,5279.46728515625
179,562.46924,533.4925,154.38979,215.50928,290.30844,-573.8413,1239.19128417969
180,747.67676,1462.4523,1811.5316,51.752846,508.89706,-162.68452,1321.60375976563
181,2232.772,1021.0856,2979.6956,-157.31854,-153.85556,-39.536102,1755.296875
182,1460.825,2454.495,3053.153,22.934492,-196.38512,334.1281,1546.88220214844
183,310.66138,6135.8755,11845.066,-2083.7185,-3182.1182,-1779.3615,12356.654296875
184,6313.319,850.5093,9346.355,1330.9496,1632.7766,149.93806,8306.0283203125
185,358.95407,1421.8732,-5665.036,-801.70764,-427.26926,597.62604,6882.486328125
186,-600.69446,2801.014,-4738.939,4532.694,-1363.0155,1579.8154,10838.3857421875
187,2391.3135,2397.6704,1730.1174,479.74835,-244.97778,-658.1866,1616.03540039063
188,1646.627,-602.85376,-5092.2617,-1339.5436,157.00388,-54.803356,6385.91259765625
189,1899.7601,945.6185,111.9911,-175.02385,118.216286,-515.6998,1825.48181152344
190,-2605.6387,-3005.254,-1067.7205,5390.527,3124.76,353.31464,10953.5234375
191,-8646.415,-7217.506,1018.02454,2710.59,-1340.0769,-45.220135,10443.611328125
192,1119.9525,37.621075,207.9016,718.7731,18.515703,17.677927,1602.50024414063
193,1057.6458,-619.7313,-502.03067,50.507782,-181.0644,-15.877231,1654.32202148438
194,-4825.385,-1252.5415,-176.17926,-609.8386,628.3134,-673.1141,4629.11767578125
195,3544.1846,-4180.657,-2589.4888,3315.5474,-3171.3472,-174.47128,10637.4658203125
196,-64.79459,-1952.1694,-6587.751,-3456.67,2469.5247,-950.1733,9521.0146484375
197,-3075.2559,-3046.7805,-4640.6313,3047.5093,405.53986,-57.733887,5555.27783203125
198,-735.1781,-3625.7585,-9219.61,4176.29,-1927.7793,-1164.9733,11106.7900390625
199,1134.5857,-1497.9194,-2026.4998,-1091.3147,1187.6304,754.7013,4256.0537109375
200,1016.30615,-1783.8406,-1697.211,592.9162,255.1264,-386.32193,3050.14794921875
201,-2726.4512,1000.1291,2047.0438,-2540.297,1133.8268,-293.04758,6508.34033203125
202,11938.454,-526.34906,-2587.1475,-1809.1697,-1313.9523,878.3839,14234.431640625
203,3129.9185,-165.71536,1728.484,206.5518,368.17978,357.75162,3020.79858398438
204,12298.561,4103.2705,3002.7097,-1314.05,-644.49304,-695.5971,9234.2451171875
205,-480.44952,-3093.752,-7062.3413,857.48083,195.79875,497.5489,6001.13916015625
206,1477.9097,133.58864,-1331.8092,-771.5251,-587.82733,261.17938,2991.91821289063
207,-680.78265,-3853.5662,-4029.1873,117.86211,-27.367119,371.44385,3333.53247070313
208,-981.1576,-4258.2246,2048.0195,514.5621,254.76112,557.65515,5635.9443359375
209,186.14398,-5868.2363,-861.3878,2461.3694,-694.4325,1033.2545,7364.45947265625
210,773.92944,-4643.7803,-2023.8098,820.17065,1107.4569,-1230.7565,5680.078125
211,6422.5664,-636.14575,914.30133,-1347.0787,1000.74146,-741.2306,7168.10498046875
212,4674.465,1190.6769,-747.6777,-879.05786,-1666.2334,14.814065,5770.15625
213,-855.0316,-2399.723,-840.8332,-2937.6587,77.980965,-250.25714,5338.89990234375
214,-839.69604,-2021.7545,-2752.9504,-3034.959,1510.4248,-32.91458,6105.45263671875
215,-328.18332,-1779.6307,1444.8237,-1131.6462,432.48654,-36.340637,3497.23413085938
216,1332.813,1053.825,6088.9956,-1283.9025,-47.77928,-307.73117,5409.45361328125
217,1626.2845,-2328.798,-2244.289,-2592.3298,-389.11444,-329.5143,6021.30126953125
218,-515.6975,792.3519,2237.1323,-1811.9746,-158.42932,688.70807,4127.498046875
219,-10949.155,1713.7467,258.85526,-2550.7139,-2862.113,449.60928,13738.361328125
220,-7372.8926,149.28786,815.52246,-845.6698,-847.56335,-1555.8052,8579.0888671875
221,-4551.588,1791.6709,251.81322,-17.792496,131.57858,173.41438,5743.125
222,-3216.6235,890.2097,-896.35394,53.15631,-35.15154,279.89453,3601.10766601563
223,-2725.3696,1551.734,-704.5141,-596.6065,59.89484,-93.80705,3852.14794921875
224,-480.6099,-1180.4899,-2442.0999,31.522444,56.913963,-1637.6404,3320.0546875
225,-3920.1123,1937.9032,-8881.738,-397.0041,-693.262,676.6783,9554.4599609375
226,-1119.2732,1618.8665,-1582.258,112.75457,-48.608707,-292.65814,3046.5810546875
227,114.57751,1075.1324,5051.735,-669.94806,349.2358,-9.421378,4718.94384765625
228,-61.895428,1285.0011,1026.8682,-233.07884,-260.0584,456.04303,1588.35717773438
229,-944.7956,2312.942,-1779.7426,118.9455,370.06378,259.17297,3832.07861328125
230,-4686.9517,2093.3433,-4481.594,-1901.19,326.99966,-257.3,7482.32275390625
231,-43.154167,1523.7236,1122.8019,-14.099638,-107.36791,222.30315,1473.46032714844
232,6277.1,-1552.7615,15901.962,1337.0359,-1033.7211,-687.55707,15469.0966796875
233,-275.38953,1212.3463,3174.282,-1623.5911,235.43408,177.15622,4141.2529296875
234,141.4694,609.7388,2076.2812,243.2104,-21.157108,-284.83426,1865.19384765625
235,1486.9917,2065.863,483.19727,802.0791,-384.80862,-71.69115,2076.87451171875
236,17.800074,1868.022,-259.44186,679.231,-230.6373,216.33257,2386.87817382813
237,1272.0667,-588.05365,1068.2217,1361.5729,221.6253,446.7925,3070.87768554688
238,929.9376,-163.08174,-668.3999,244.12589,134.07422,111.38266,1507.41455078125
239,1330.592,1343.7854,-628.8434,899.1944,-300.14343,99.18992,2567.2626953125
240,1696.0537,628.4777,1211.8014,231.73306,-287.62943,169.6365,1163.12719726563
241,3038.295,990.07996,2612.3828,757.356,469.54178,94.879906,2431.74951171875
242,2216.4956,2007.9647,1738.2108,-631.25323,-6.1839614,-88.5428,1179.65270996094
243,1150.3615,-152.20691,-3536.2954,990.5984,582.6056,-84.583046,4641.15869140625
244,2803.2617,1342.2795,1516.7196,-1010.38245,-166.52182,232.49529,2284.29711914063
245,1491.6646,206.21812,-2266.5317,-281.9031,-304.56616,-475.14694,3484.16918945313
246,799.20996,-689.9737,1079.9779,490.5194,319.4989,-938.9351,2527.34594726563
247,846.8275,1246.0894,835.79974,191.62167,-70.037704,19.097626,538.424743652344
248,467.0663,-294.55112,976.1687,-418.2728,774.40533,201.37042,1916.40417480469
249,118.33182,71.851715,-1262.8367,-86.65204,-1123.373,558.83746,2567.27758789063
250,1202.3737,1174.4552,712.65393,-147.08076,-172.17265,189.88197,699.23291015625
251,2338.4446,306.43466,-192.60153,-873.64844,1724.4554,-694.6661,4248.6298828125
252,557.91235,903.584,-3943.8953,1135.2112,-860.33,-3667.364,8269.05078125
253,-26.733952,2126.8945,310.07983,-46.46955,-928.7937,-1492.3113,3647.13842773438
254,-3390.3928,-1304.742,1041.0123,-969.75024,3488.3716,372.24265,7381.60400390625
255,-584.7261,-3172.156,-22269.656,3128.9463,-1632.5186,3698.8787,22343.546875
256,6643.5093,-9989.69,-13631.279,-3484.4058,4210.192,4311.873,22268.205078125
257,16096.378,2996.7036,33671.91,5265.694,-3118.0208,-4393.8525,29681.662109375
258,3915.9446,-9069.626,10841.545,-1349.5648,-1206.6501,-988.7293,17868.591796875
259,-286.0454,-1295.4828,-15236.806,625.41626,-662.7666,-7227.2393,19200.06640625
260,-2993.0322,-3959.926,-13963.032,-3047.3599,2141.5693,-1721.583,12695.6162109375
261,4676.8975,-7846.606,-9833.174,-3416.2488,-3608.7542,181.23416,16119.6611328125
262,-4150.0024,-9089.648,-6491.3447,2035.2834,-281.01117,2702.3726,7272.48779296875
263,-4626.8423,601.1769,1817.5217,-1915.643,-1322.4528,-28.709766,7171.39697265625
264,-4683.909,7792.1724,-9534.044,3804.7158,2132.9438,25.826553,17226.869140625
265,797.3925,1878.0106,4224.8145,2041.6692,-1403.8789,-1602.6954,5944.32421875
266,-8250.645,4436.9253,-19179.318,3395.252,-4142.2993,3955.2732,23495.96484375
267,1070.0402,1013.4952,10520.079,-2215.3977,485.51685,1517.1703,10591.380859375
268,7308.3164,5915.402,26674.105,-286.1323,826.1841,-2137.519,20492.662109375
269,3406.4526,-2034.6605,-4805.0596,2023.1023,-4192.891,756.74243,10912.9599609375
270,1693.4822,-1642.7134,-1503.3083,898.1378,122.73132,-1281.7919,4251.90185546875
271,5387.08,-2948.4673,-9880.105,-1894.7655,2001.5024,852.482,14151.91015625
272,980.0002,594.45715,-51.399662,-2767.3242,354.50494,-375.69113,4958.77880859375
273,-2220.6367,1834.1882,-1723.9313,684.2935,-462.8004,247.0549,4111.53271484375
274,-3750.9846,2413.76,777.97296,-1200.342,342.49857,844.65186,6116.400390625
275,-3146.4626,-673.60425,-1445.0237,-1460.9904,541.76605,-1130.9211,3990.42138671875
276,-5299.0825,-1958.1139,-1625.6866,1163.6117,-1539.4681,-1884.7968,5849.140625
277,-383.35403,2151.789,-595.6446,1082.129,956.7696,229.60965,3664.369140625
278,-2244.5093,3959.7888,5030.1406,1460.1045,423.17688,-64.61289,7295.5615234375
279,-467.0581,3239.0713,-6020.951,3288.2136,-886.415,336.41934,10014.90625
280,-1607.9218,-4398.1206,154.17729,441.06146,-1258.7279,-212.29697,4612.896484375
281,-1177.6708,-7322.513,-12517.589,440.3562,1678.7223,880.2927,10393.826171875
282,1609.955,-2487.5662,2482.479,551.5499,154.73163,531.40015,4791.4267578125
283,922.72076,3746.0417,-3881.005,70.01347,1139.765,-405.48447,7001.0380859375
284,-2921.2542,-58.82874,-3172.8704,-84.38002,-1439.8896,17.513372,3901.1728515625
285,1270.8337,78.63573,60.2628,769.0797,4.0705566,-240.31694,1841.55773925781
286,13.404371,150.78412,-1825.7413,270.3135,-127.00635,-267.66852,2033.84619140625
287,-507.63672,833.7348,-134.87038,1260.9388,-504.71472,-1120.6864,3277.21508789063
288,-236.20183,1333.8483,-338.90875,-167.76764,67.168144,-161.41556,1677.19958496094
289,-769.9124,235.65962,268.4596,18.600477,-84.0361,-70.985504,1040.46850585938
290,-461.84555,2302.1206,8649.686,1651.052,-401.2,-501.9213,8654.0244140625
291,295.86786,-2163.0718,-14115.245,-3944.829,-1387.4556,2118.9202,15627.54296875
292,1989.0895,416.23352,-671.20483,-3286.332,-461.54153,630.3735,6292.685546875
293,-373.91898,-880.8229,-4268.3867,4284.4673,1439.9308,-248.71768,8655.9501953125
294,-972.54706,-1554.8812,-899.1923,-871.7039,-103.895294,7.610136,1642.97619628906
295,2235.4456,-1619.2786,-5817.6655,2383.5447,-413.6317,-1070.288,8346.4150390625
296,544.5882,-1942.2767,5447.7466,1613.1213,-431.5606,-610.5634,7204.3408203125
297,811.814,-42.381485,4859.3804,220.96196,71.871025,-416.21466,4609.93798828125
298,795.9808,10.735654,-637.93646,136.98,155.0868,125.42825,1312.40051269531
299,-1259.563,1560.6683,512.8548,-578.62695,905.539,-180.80505,3107.90014648438
300,746.3315,709.43555,13.044757,-1285.2006,1845.8824,1086.7698,4385.46337890625
301,634.63354,1917.9784,1392.3643,-705.33966,-46.56575,1566.3383,3179.30249023438
302,-5916.7925,-682.3109,-1469.412,-2146.061,-300.5353,2114.171,7169.1083984375
303,-2752.9417,1877.0887,-203.63712,-11.266165,-231.51721,162.39334,4046.365234375
304,-558.02313,2110.7693,1378.1978,224.51114,527.23114,693.8229,2851.90063476563
305,-730.9053,855.7877,-69.94167,-787.8824,-160.5698,-366.01028,2060.88232421875
306,3457.6702,2826.3477,11874.408,-1099.6047,-1584.0682,2504.1348,10320.9013671875
307,-521.3504,405.7387,5601.4014,-2225.0803,1060.7675,-344.7589,7159.361328125
308,-3569.21,2890.0898,8941.028,609.94165,2824.7048,1089.508,12084.505859375
309,-6801.1196,2749.4585,-2068.9656,894.3223,-579.57684,1128.1707,8696.9814453125
310,-2706.545,855.27844,-14.328125,1938.6302,660.6925,-984.9668,5083.3359375
311,-221.43248,511.835,161.76161,992.6456,-189.64081,34.152218,1863.05163574219
312,-193.63808,-1097.0566,2690.0962,882.6343,668.55286,655.7668,4087.22607421875
313,2881.678,-473.71515,2623.1038,2419.7576,-701.2048,259.59537,5449.845703125
314,-6124.8257,-6177.194,-25018.727,2323.9263,-553.79944,-2078.3123,19648.73828125
315,-1363.6783,328.12054,-668.10754,1649.1117,39.16885,-538.9216,3347.21630859375
316,8551.907,-498.21622,15195.674,2269.5881,-718.104,1651.8334,14538.1240234375
317,43.05921,5360.8022,13297.689,-2958.8926,2701.2349,33.88145,13477.2958984375
318,-2296.67,-1195.2828,279.83368,1558.875,-79.233055,271.53394,3541.75048828125
319,-2274.2239,-4345.8604,-3552.9097,278.3066,2415.0454,-1021.7961,4913.2109375
320,2529.5947,-1020.56445,2683.666,1136.7863,602.35944,1398.6798,4899.859375
321,6919.5464,-907.8985,17264.848,-921.557,-879.146,66.52499,15942.12109375
322,119.08196,-668.0634,3458.8633,56.673347,-487.5886,389.58066,3947.25366210938
323,-2234.6665,-1293.6313,-3739.1882,119.64327,-266.68268,-696.02496,2504.91430664063
324,115.10171,-4012.2227,-817.1882,-371.7531,-589.3803,197.54288,3953.46508789063
325,2584.9893,248.7674,-2877.486,-3072.5728,-679.2576,414.2852,7263.345703125
326,101.910286,-571.0321,-1934.458,-366.57425,338.47784,-114.83874,2003.91723632813
327,554.4154,-1434.1664,1414.8967,-1595.7874,-332.87024,-191.12679,3806.26196289063
328,-639.51746,1397.5912,-353.91943,-3350.908,402.73282,-808.1812,6307.2490234375
329,460.92386,-1963.1622,1175.8354,-229.23723,2357.056,848.7246,5206.3505859375
330,-2884.533,1818.411,452.9743,-1181.7505,-20.073896,16.642567,4663.921875
331,-2192.3394,1479.0299,-1076.0044,-237.57916,51.09202,-151.36821,3297.35913085938
332,1746.1637,-628.11066,-794.6131,-324.17133,84.484985,-420.67578,2632.07202148438
333,1148.4541,497.70038,-1502.1592,-460.95148,-136.2568,82.67719,2537.31518554688
334,1608.3074,1428.4885,2689.5657,-111.95884,69.21347,466.3499,1449.24377441406
335,924.2479,-787.6682,-4978.0024,-753.681,79.14449,398.83286,5464.7197265625
336,-115.99622,2226.0032,630.11865,-211.25,-597.36285,-71.763214,2348.21313476563
337,4045.6648,-1596.5515,-1659.5814,-532.26886,-1889.0759,1336.5544,7007.7880859375
338,5739.1206,-6438.3335,-26098.578,9591.945,190.49458,7171.675,34708.0859375
339,-3381.0881,-4055.1804,10526.17,-6451.514,-5307.9233,8433.897,25020.416015625
340,-2796.2605,-2699.5251,-146.54092,1130.8391,2833.6875,207.30289,5901.5859375
341,-9171.843,2719.5725,-20532.516,575.9775,71.44239,-2301.9473,20554.13671875
342,2682.0874,1906.6239,4704.46,-1130.138,118.76217,-224.96443,3207.08374023438
343,-209.13994,-2262.5273,-2412.5952,2141.158,441.70514,-56.543922,4346.91162109375
344,-1624.1691,2357.3777,8452.987,2251.343,399.36926,-440.85825,9671.9345703125
345,-118.60859,1354.1399,-6703.8784,1061.9917,-269.2506,-31.202429,7670.53466796875
346,-2738.249,-1935.7704,-9577.452,-2256.501,513.6853,552.21173,8359.9521484375
347,1788.038,928.81256,547.9424,1374.0548,-170.26071,-519.4845,2787.69116210938
348,527.37244,1291.293,-2100.338,1056.5535,238.56963,-66.25358,3609.51904296875
349,483.12103,789.6776,734.5913,-17.869347,-16.533648,93.622185,328.934234619141
350,1247.5616,-3507.5642,-819.7344,-1944.2377,75.14488,-70.117386,5331.65576171875
351,1234.1361,-442.7954,-367.25586,-173.77089,96.53162,-275.34152,1742.73168945313
352,-1768.501,275.83594,-6909.1743,20.200361,-546.3073,99.28048,6483.9228515625
353,-1427.5446,351.25967,-2437.392,-1026.0593,277.9791,277.77362,3098.7001953125
354,-176.95845,116.43562,760.7524,831.04865,19.373636,159.49838,1685.12121582031
355,-2213.0227,-972.70526,335.7439,644.0174,35.106182,82.54648,2478.251953125
356,318.5233,-2210.543,-265.57864,-843.9172,1895.5748,-389.56616,4316.43408203125
357,1172.2024,3500.0435,9727.054,1386.2118,116.51533,-510.05298,8079.35205078125
358,869.0368,-78.22059,-908.8894,1071.1259,-10.139007,-19.597216,2411.96118164063
359,-1856.406,-732.4806,-5525.9653,1115.6637,-500.235,73.72694,4832.6298828125
360,-2472.983,1302.3141,3687.4854,950.33484,580.9335,533.5695,5789.86962890625
361,-2395.156,152.69936,-378.78616,1041.4927,517.1618,342.47424,3135.00439453125
362,-2891.0688,30.52987,-4602.4355,2689.0903,-497.8913,-471.58817,6290.384765625
363,-1263.6313,-434.91,2185.3618,1776.0466,76.89208,124.28608,4387.6171875
364,584.11896,-657.49585,282.7148,767.0741,-31.037464,-56.295532,1742.36315917969
365,1476.0045,1284.7408,282.85522,-177.42673,23.273342,-64.905174,1157.87939453125
366,1248.1698,-486.3343,96.69705,-299.44806,-691.1928,77.717064,2014.3310546875
367,428.2235,-877.18744,-200.46194,-65.481804,-58.801403,-71.52607,1147.70849609375
368,-1317.6693,243.77937,680.4354,-745.79285,-126.20395,259.51877,2286.7138671875
369,-646.5464,1048.6677,854.68964,-760.5821,120.85247,243.53517,2130.66723632813
370,-518.41156,-432.63098,-364.1285,96.916725,214.85065,90.48384,457.329223632813
371,11.396543,-842.3886,-147.51219,-1295.5394,-6.6633496,339.0165,2449.22924804688
372,962.6283,-1478.8773,0.1930482,-303.82465,-82.4895,0.49739948,2198.81396484375
373,811.9753,-1912.8201,1018.94073,610.05414,-81.476166,100.33709,3032.80395507813
374,-680.81366,-2980.558,-1843.8071,225.37425,150.29707,50.673153,2048.08251953125
375,832.18054,-1299.6478,680.1949,383.57745,18.45047,-27.757866,2165.29711914063
376,-898.5747,211.02327,-49.28854,-360.72983,19.160192,-29.810112,1185.02062988281
377,-1206.0574,344.06723,235.43492,-94.35063,73.02653,55.57766,1516.00305175781
378,-1225.9814,-888.6032,35.266567,577.09894,-27.227762,-12.104383,1510.24694824219
379,-1437.4799,-648.72754,-13.223781,-572.3398,33.193344,60.088535,1588.74353027344
380,470.35336,-60.08609,-376.62888,-380.3598,49.929184,-127.7408,1019.76702880859
381,-612.6758,602.9585,-427.66507,608.2951,164.85896,-79.16016,1580.34606933594
382,-608.8973,199.8269,-565.1856,213.87259,-72.86499,77.31995,889.765258789063
383,2045.839,1567.025,-58.180386,-12.708481,-5.7321596,110.37277,1919.8583984375
384,-1875.6035,-2828.8247,-674.3989,-684.1038,1168.6276,-305.952,3046.05029296875
385,203.26843,-544.28925,-1150.1542,547.38806,-23.116226,-327.08237,1612.54040527344
386,1314.6469,-846.5616,-133.25558,13.15716,-70.0038,50.069046,1913.31274414063
387,1107.5367,-776.8101,16.878725,393.6409,120.673874,35.756104,1788.15588378906
388,538.25903,-433.37842,-564.7811,378.99887,100.31188,-96.23901,1256.15100097656
389,-232.83913,529.4524,14.285862,684.92,-57.724228,31.204107,1368.95629882813
390,-1455.5498,-750.18616,187.3855,636.0627,88.53097,-130.54942,1823.80847167969
391,-632.5743,-496.82303,-603.1462,874.739,89.18323,-40.033714,1529.53369140625
392,-428.70264,114.20069,-351.04507,-926.647,-68.99481,-229.97047,1734.23706054688
393,-1679.0709,-1542.6321,-364.03308,-985.31195,-502.21695,-51.983616,2290.373046875
394,-64.71182,212.9926,988.3734,-1563.4106,14.611796,-204.7982,2890.13623046875
395,-653.7492,-2154.5955,212.08952,-931.52673,-107.284645,72.37146,2637.26684570313
396,250.27617,-1733.8052,-1466.009,-240.59842,37.301132,-111.29897,1921.4482421875
397,557.3743,-1125.4122,1137.5594,72.857056,-16.580896,34.6405,2040.84838867188
398,888.64417,-1873.4054,-1019.4974,192.15286,13.347311,-41.45983,2473.0546875
399,-982.08563,966.92554,79.342606,-521.5335,50.52869,136.52768,1932.90173339844
400,-1319.525,-887.21454,682.8468,-27.698273,64.71499,63.46783,1832.39978027344
401,-566.8066,-214.87442,141.03838,694.03424,66.33162,50.99096,1357.14331054688
402,1225.5352,-383.55347,517.8516,-43.374256,-134.38774,-57.304703,1421.59497070313
403,478.66122,648.48364,1352.7795,-308.81442,-37.503468,106.11006,984.161682128906
404,1314.3379,-1139.1461,1331.5172,124.12288,-172.62901,337.63705,2557.27319335938
405,867.2589,-1106.0879,374.94272,-38.4327,99.3319,-111.31117,1798.93432617188
406,-718.54877,851.6899,-309.97156,-65.38823,87.847664,-81.88184,1430.77368164063
407,-523.74884,222.85759,-1437.4822,229.4983,30.490334,-41.05904,1496.79125976563
408,-87.80767,701.96936,1594.151,76.566574,45.61766,113.07762,1478.69885253906
409,1065.8258,-247.04718,643.6269,14.978639,77.10935,10.96584,1168.95910644531
410,777.6735,-596.7043,-126.20295,-125.949295,-8.233864,75.3686,1236.314453125
411,27.871113,104.34308,-373.16205,-45.023556,-28.575598,13.699145,454.353820800781
412,1125.3365,-2219.2002,1349.6606,-1141.8629,-190.53728,-166.82773,4011.29272460938
413,-275.6933,-752.4999,-518.595,-571.9472,-32.851112,48.720314,1078.08068847656
414,-718.45435,-2524.2717,-1728.2332,-1495.253,118.64488,212.86154,3056.576171875
415,-79.86162,-10.881929,-570.54645,-535.50323,-19.721386,-34.61569,1069.7802734375
416,-232.21191,-14.055361,572.0987,290.24344,107.959335,-154.6041,937.250671386719
417,624.2967,738.35345,1161.1558,-1796.3729,261.08755,301.3345,3224.55712890625
418,624.389,-1085.6724,-870.63354,-773.7538,5.7446146,-253.92566,2142.998046875
419,-1395.4999,-468.06836,-368.02695,-1509.3234,-627.74164,-22.746424,2996.8017578125
420,-105.909996,-123.35914,685.5876,740.8292,-6.365435,9.251216,1512.43041992188
421,-778.68805,-1237.5323,-191.54745,724.7701,-119.4632,-22.819181,1563.62707519531
422,406.79584,-519.42523,309.08902,802.7052,-76.911224,-12.357916,1651.70971679688
423,-243.40848,-279.4369,-86.63057,369.4071,401.13727,80.20331,971.051818847656
424,-461.50723,-59.473057,125.68692,194.47536,104.23106,-124.830124,680.557373046875
425,-2264.31,-2025.3479,-698.72766,230.36467,440.39792,-161.60657,1718.55773925781
426,-667.30133,-424.4556,201.7966,815.4198,-35.347095,45.203403,1614.88562011719
427,-125.423706,466.46536,913.39484,-34.157547,33.59546,76.69043,916.046813964844
428,-976.8428,-1479.0906,-951.6966,-229.14514,-130.76898,-187.99568,761.817565917969
429,-205.3082,-39.834885,-179.59021,-523.98706,-93.26741,-17.417973,935.136901855469
430,-957.1317,809.43384,273.52133,-1129.5958,82.386826,160.89435,2527.29418945313
431,-240.87067,-393.1941,77.20745,740.90265,4.8036923,54.32499,1352.24255371094
432,-241.3854,370.50922,140.31448,-310.4101,-24.892326,88.37288,775.178161621094
433,-303.834,-150.53142,-191.65503,-113.32352,12.649722,-69.12003,268.752532958984
434,-1155.9796,1159.9528,-827.16626,-757.17896,-80.12836,-154.47734,2553.61767578125
435,-1975.3806,-112.41588,-0.98292565,265.03137,125.36222,-47.840122,1988.81591796875
436,157.09737,-92.97406,-442.19177,-245.42761,-182.04329,68.51858,752.346923828125
437,-205.18552,-334.69864,-146.39606,912.16327,114.992775,-55.727604,1604.04370117188
438,-463.71518,365.5311,-329.99872,-574.07245,-62.035023,-144.9754,1287.60314941406
439,-178.70973,-736.79834,-229.75046,125.562065,64.54443,-52.028805,594.558044433594
440,-152.42764,-90.14906,-1176.8804,-162.77197,-62.58826,-62.970577,1104.67883300781
441,435.75986,-1452.3712,-255.24345,429.26077,9.292031,21.172054,1814.44702148438
442,593.42645,-53.912556,-56.54616,-323.5139,-29.584593,-18.07107,859.272155761719
443,771.196,-331.2584,-807.71564,-121.0834,136.73357,11.981408,1438.12097167969
444,422.4905,-55.489464,146.7536,-197.7025,-14.673715,-71.25657,553.024658203125
445,-89.348564,-988.8403,186.10056,-565.13403,56.583508,170.49297,1479.07397460938
446,-1099.4585,-2783.3374,-1969.4978,-246.37233,-386.54327,-208.63184,1699.50061035156
447,-620.00287,-99.38883,1201.947,-349.61478,103.49818,34.06154,1744.79663085938
448,-1836.7922,-255.1699,133.59416,-301.3151,3.9633546,103.615265,1890.01928710938
449,580.16174,-501.35266,276.25256,458.10324,-20.729898,75.478386,1257.50061035156
450,337.9946,-908.70483,-567.8478,-961.2283,116.55332,61.587257,2017.30249023438
451,356.0873,-635.99963,797.9047,-690.17676,466.3957,208.45692,1956.96960449219
452,-966.9932,-1799.5645,-168.45375,-584.6859,-45.532726,-68.14009,1743.9619140625
453,706.9097,21.904741,705.3759,-70.555374,24.637802,111.47097,722.645202636719
454,-3091.9407,-1859.4218,61.61161,-683.15826,296.25165,-22.205389,3040.07763671875
455,-623.31384,-53.123592,300.67947,838.88806,-26.993973,21.895758,1663.38586425781
456,124.04097,-355.64233,316.823,237.83273,26.754585,50.68162,734.358093261719
457,-517.26495,-1357.6423,-533.3219,551.3326,-52.000214,-74.29737,1276.54748535156
458,190.07446,401.59723,661.9957,-5.0743794,-221.3488,-103.35562,588.846130371094
459,571.1766,187.14635,667.95905,69.28246,238.64484,-48.77546,621.61474609375
460,-1294.788,-1245.4666,-461.05905,-45.93615,-147.66116,96.331,869.480712890625
461,165.50401,-290.93683,-823.9762,-204.56496,-79.78002,6.49618,938.366577148438
462,-276.74225,317.44894,-716.0081,-135.2412,-70.865845,12.593868,936.716552734375
463,-7.765511,-440.85022,-1533.8934,-277.73978,-75.22074,51.652985,1453.30065917969
464,277.2042,204.0621,225.28078,-224.172,30.611084,61.98848,411.516845703125
465,-23.227644,-272.73685,44.735836,-484.34302,-14.424098,-112.78318,909.054504394531
466,-385.12878,-134.63042,188.458,-12.358359,-75.5273,-170.6669,594.156127929688
467,-486.15262,-1555.793,2195.5483,-220.46988,12.463195,277.74167,3403.20654296875
468,878.92334,-743.05273,357.70953,17.585579,86.77292,-25.142275,1443.08239746094
469,-66.152725,-240.86015,210.13121,-722.79285,-11.965632,110.58238,1326.47192382813
470,-319.69644,655.18884,-254.00471,-249.82921,-10.491648,-11.562313,1038.58081054688
471,-863.9913,13.55173,-315.21725,280.27478,-87.2944,92.59516,934.829528808594
472,-1161.9073,130.04967,-166.60052,371.47324,168.25154,-49.43656,1371.17822265625
473,-739.3901,-651.7674,-119.791275,261.2775,-217.1685,45.974438,830.611022949219
474,-165.63977,-561.3475,-94.001015,307.68506,-615.83746,64.42568,1274.47802734375
475,-861.6622,-579.1848,-628.8363,282.59244,269.30292,60.0634,732.259338378906
476,-893.77246,-136.44507,510.24045,1395.506,-14.858485,16.833513,2706.53344726563
477,-2538.9302,-2174.1165,299.58,469.60583,89.230255,-41.480286,2800.953125
478,78.87214,190.3668,164.56561,469.9929,-113.654045,18.81771,844.223937988281
479,577.3194,4116.322,-151.82695,67.77929,236.50471,-182.10077,3989.70043945313
480,369.45786,-408.5248,403.39853,284.3876,-303.50165,-1.8302772,1073.21618652344
481,645.76154,-349.52246,382.97125,413.3621,-453.32294,-70.407,1393.58508300781
482,104.53437,-152.9256,-87.83074,153.10507,598.1433,-186.28175,1140.84008789063
483,420.1226,721.1504,1408.3131,-442.20602,-383.93292,228.88055,1398.45495605469
484,504.69406,742.69324,261.8051,-17.715534,-206.72917,-59.64572,559.706359863281
485,1574.9008,3436.202,360.8642,1240.5261,-71.97084,-134.93745,3447.447265625
486,1369.8523,-1286.82,-5.7936063,-621.64526,-278.83435,20.312414,2586.40307617188
487,2138.6653,-891.03375,107.58696,223.66806,39.728203,3.7771804,2702.89819335938
488,-1195.1843,-123.79738,294.40958,206.47127,-39.270443,143.21945,1401.74230957031
489,-2737.9287,-1246.4324,-365.2915,659.05273,-49.64048,-38.67085,2372.787109375
490,-227.7327,-328.58508,-292.5661,-265.6596,45.74218,51.045593,483.378784179688
491,-2514.9856,-1934.9856,-182.33206,236.85895,-49.77765,20.77328,2145.17333984375
492,-419.45523,84.99666,-7.187993,174.64372,406.11566,-35.402008,898.0634765625
493,193.39235,-194.06609,514.0885,274.31955,-93.7354,86.04269,807.185974121094
494,-2540.8704,-2785.3503,-397.07953,-699.22534,-239.93181,47.82232,2612.66821289063
495,-3839.8416,-2515.244,-958.957,-807.82135,-58.955193,-123.73637,2872.65161132813
496,-39.549862,-661.5424,-830.4673,595.5567,60.890057,28.214552,1264.14184570313
497,220.0679,-787.24097,-103.88437,206.8428,6.143844,-134.32208,987.870727539063
498,-222.29466,-1369.1323,-425.14862,-73.59195,86.268005,-67.55904,1084.44104003906
499,-153.68529,188.52405,-425.6858,-439.52896,144.43932,85.22925,973.709411621094
500,-1527.9141,-709.76416,-320.3165,824.5663,-417.3337,-106.20113,1932.80432128906
501,-391.72314,-806.7108,-73.63689,852.0341,-27.091614,-84.778656,1614.63500976563
502,1649.2759,1427.8995,-412.31882,-101.1684,181.49596,-192.35411,2020.72253417969
503,-628.6762,-861.73956,-930.0564,-316.5953,170.93112,-13.694294,681.043701171875
504,363.95587,1343.8069,274.9702,791.78625,172.36179,9.675091,1739.36828613281
505,-2811.1526,-2083.1309,103.959526,1525.5548,108.85352,-38.673492,3731.97216796875
506,-1995.0559,968.56,202.6635,41.89673,256.14398,61.573524,2704.3046875
507,-539.40717,-397.88205,-1093.3187,452.27023,-31.950947,-38.91179,1013.15832519531
508,-2408.4036,1327.4601,633.9808,216.69955,344.27942,212.10863,3532.46044921875
509,-155.22275,487.1395,143.61246,-353.914,-56.008064,240.77385,932.235717773438
510,-10.191891,-845.81793,1031.0873,-825.06506,-12.002397,-142.02914,2180.77954101563
511,-1450.7896,-1185.0825,1740.7766,-1107.813,-56.798885,233.04778,3641.84497070313
512,-1182.1642,2265.8179,386.63474,972.71606,-77.63824,93.808945,3438.53637695313
513,-586.2761,1605.739,50.228935,527.6533,-1.1951845,-55.48586,2158.54931640625
514,-59.415707,769.6538,234.99773,-18.009775,114.5257,-0.44301352,755.161193847656
515,-1572.4574,738.64685,544.10114,682.53204,-8.367886,106.32169,2522.12377929688
516,-563.7573,1473.4597,-359.94257,-378.18057,54.95189,6.0754447,2053.00024414063
517,-1298.5458,1073.8716,457.33728,1318.0485,58.23922,-42.455677,3126.2021484375
518,-143.99811,2947.6245,-426.39755,-657.24835,-5.722649,-101.28593,3440.603515625
519,759.27686,-566.4139,153.194,-117.122856,64.395744,-45.44246,1175.20324707031
520,-2211.5774,-1500.7892,-450.7848,379.75833,-208.82863,143.17264,1725.98742675781
521,338.63678,-827.207,-1131.0737,-263.59518,119.24158,-62.987995,1438.32995605469
522,-1193.8385,-982.0945,1240.096,710.8804,-46.194656,-6.9944806,2641.23120117188
523,710.78485,443.85904,1376.0734,-270.94305,-573.1617,10.277319,1377.50903320313
524,-490.98422,1301.4518,-54.697937,466.50677,-45.1697,-49.212273,1813.12707519531
525,-535.79175,-440.35773,-350.2356,-600.1162,162.33705,-58.117756,1093.36254882813
526,2014.329,-1003.89703,-146.62161,-890.8555,313.37863,1.2038281,3151.61108398438
527,1048.0051,-82.850266,-1113.266,-245.71703,45.734837,145.03471,1938.13122558594
528,-1694.546,-224.5445,-1030.9811,-313.88354,-50.342983,-130.8741,1407.24462890625
529,-3102.4216,-1400.7401,1115.0464,-39.560555,-625.97363,103.1296,3836.41748046875
530,-3415.3684,-1829.4008,-132.63422,51.644634,87.19169,134.23563,2858.35498046875
531,-1322.5238,603.0767,-4.068378,-101.35869,73.29388,-128.54465,1733.19116210938
532,-686.6996,-277.40952,44.222073,339.71014,-28.54312,-38.234604,869.278198242188
533,297.7517,160.82951,2125.3997,231.06456,-34.917053,10.552107,1942.5380859375
534,-68.701904,-403.75732,445.69537,1317.9312,32.45023,4.9842954,2400.68310546875
535,-1179.7766,-793.5741,-234.42627,1166.5787,50.20003,47.663887,2185.13989257813
536,-1323.5333,-1968.5741,86.165855,76.77083,-48.11635,-1.0683104,1826.82055664063
537,-1017.56036,-1570.6791,-208.23906,23.93729,-4.589061,68.933,1193.57849121094
538,711.513,1330.554,-163.46945,-180.11885,84.459465,-22.554087,1345.62634277344
539,-390.09308,1171.1721,29.260885,-131.15144,-22.568443,151.0626,1442.3154296875
540,-2060.435,4547.0405,175.673,891.08124,-69.90324,182.4056,6031.61962890625
541,-1920.9059,2095.4534,905.0137,1800.7992,-93.88732,59.893272,4746.88232421875
542,1081.7386,609.7302,762.1132,659.06573,-359.8906,-48.60294,1368.51733398438
543,815.4035,-464.4431,895.81274,1088.187,22.513788,-88.64167,2307.5810546875
544,1101.8053,4117.545,343.29318,-2694.5964,-91.983055,88.299446,5812.8154296875
545,-1887.1006,-218.57713,-516.4579,2082.0837,63.79767,-99.96952,3927.22436523438
546,-2062.8892,-881.29425,-887.53876,1833.8413,-90.337036,144.78687,3400.7529296875
547,4235.7046,-104.47526,-937.59753,1251.4641,393.12646,-8.563986,5320.66796875
548,-585.9835,-313.1641,-66.87648,-892.3137,-113.714516,32.87028,1622.64770507813
549,3801.0088,-344.33356,-413.6735,620.4501,-64.401245,-32.12664,4318.162109375
550,3740.9065,-2287.183,-22.604097,-2018.204,262.8827,87.77542,6345.46875
551,3526.4028,-862.63635,557.1653,-1584.5023,-2.523955,3.429405,4751.83447265625
552,-471.5775,-1069.6193,-257.8266,730.13,69.29032,30.361643,1465.47387695313
553,3399.5356,996.82733,-175.37875,-519.1177,-161.9257,-49.467915,3295.14721679688
554,3823.145,877.35333,-24.831772,117.42496,-90.11755,-145.3268,3504.0498046875
555,-1372.1694,-467.3676,-392.66208,-791.7002,658.6838,170.3737,2039.82421875
556,-2300.5393,-3907.4155,-220.85524,-115.77413,136.18497,-292.28784,3255.9296875
557,2121.876,2742.1853,949.05035,-354.1555,-184.18503,194.89879,1754.94311523438
558,2509.0774,190.80904,947.5161,8.31026,-225.24585,-145.94115,2099.77026367188
559,2903.7397,331.6641,-10.326819,-398.37015,-217.36293,16.105072,2868.93212890625
560,2101.0515,2360.5295,260.69254,-232.46231,4.4190288,101.012115,2030.90319824219
561,2196.8376,1255.8798,411.99283,-351.14914,130.95032,-152.1643,1697.77270507813
562,-1352.7379,-3983.6743,361.35513,-43.237503,228.83104,-52.04684,3813.1923828125
563,-2385.9595,-3754.7073,51.425446,388.24207,52.438812,251.07341,3435.11865234375
564,1412.9409,-1540.8918,149.18648,-120.58118,-373.04156,-80.709175,2658.93310546875
565,980.3919,-1677.6523,-928.6645,55.274136,53.50167,-31.493195,2378.24877929688
566,2215.6023,1565.0917,-172.2851,-351.86252,-33.947136,189.49539,2248.20556640625
567,2787.0823,663.3519,48.63153,1067.2408,-18.499462,-115.950806,3106.763671875
568,-1872.2168,3370.187,-67.88449,193.30632,116.878235,34.1279,4629.8974609375
569,920.3902,-1171.8873,-661.4465,345.5439,102.09931,14.419998,1990.04748535156
570,1534.4182,-1060.1934,-420.58163,490.52155,38.82434,165.13835,2507.9345703125
571,-204.35733,-1848.5713,-397.56982,-484.0533,43.2245,37.699604,1770.84155273438
572,-1310.3368,984.21497,-1133.1497,2719.018,191.12482,-121.468414,5217.5498046875
573,-228.30823,2369.0105,-74.10775,734.1235,137.71483,103.296936,2841.66381835938
574,677.45886,4638.957,346.7013,-2782.2336,33.32866,-242.11572,6365.1259765625
575,1668.0745,2060.2627,643.9689,-1912.0941,-31.40826,125.23791,3552.82568359375
576,142.31801,-832.05096,-275.9888,127.029205,270.20438,42.716904,994.839233398438
577,344.4935,-929.8843,117.23852,-91.186325,120.23375,83.42032,1214.60485839844
578,467.6555,-335.2251,334.10513,-319.20508,-21.613646,-43.40569,931.642211914063
579,-637.31934,-349.73965,-538.6708,-49.2894,30.190397,114.80703,337.088958740234
580,196.86682,-294.66718,-487.47482,-156.34505,125.6672,148.0725,748.355834960938
581,418.48306,-14.32972,573.9538,-392.93356,-43.998657,-10.774902,864.947387695313
582,-457.15237,-1098.6024,-20.485216,-709.1502,-61.96184,-292.37988,1630.61169433594
583,-432.88727,-1508.626,-1412.8143,-185.6105,-36.912918,-62.98037,1087.50463867188
