Element Label,S11,S22,S33,S12,S13,S23,Mises
1,-1233982.9,-1239743.8,-1233060.6,4432.292,11746.223,-16288.231,36168.046875
2,718240.6,744042.9,707597.3,166.52339,5170.795,7369.2363,36012.0703125
3,495831.62,506087.34,506486.38,2968.3894,-13339.081,5438.2793,27538.759765625
4,145298.44,156864.16,154096.47,-268.47125,-14412.654,-3959.9548,27925.78515625
5,342675.6,343952.12,309965.2,-1740.3684,1054.1526,-3086.6685,33975.859375
6,321801.84,325276.12,314536.0,-2936.754,-2246.5845,-15904.749,29832.947265625
7,-52258.58,-60187.344,-35519.77,1803.5198,-6161.494,2322.6748,24811.40234375
8,66808.0,66091.39,67905.05,463.50552,-384.8092,370.56107,2000.9716796875
9,108921.75,109262.02,110375.65,476.2947,-727.33856,-21.88235,2000.98815917969
10,480520.56,469338.5,496632.9,-1793.1902,-5829.276,-1322.6147,26108.451171875
11,23305.568,23071.115,21471.926,220.39256,-12.135321,-538.66296,2000.98571777344
12,-242991.4,-245624.11,-234921.25,-212.39967,-1683.7932,331.30084,10113.1083984375
13,438847.2,439115.53,440522.47,-649.2216,-321.46323,-10.514121,2000.95922851563
14,248364.83,247875.61,249725.53,439.09445,-62.201527,-468.07443,2000.95703125
15,-445488.75,-449132.94,-435360.6,1690.8231,-1928.3738,-2270.205,13709.9443359375
16,30622.133,30834.0,30774.389,-151.23212,1061.0652,417.08588,2000.97094726563
17,-925483.94,-925253.5,-926143.94,24.61956,459.87082,-900.2208,1925.68041992188
18,88149.51,85560.14,90184.195,1041.3701,3024.5593,1316.085,7211.57421875
19,134587.27,135013.52,133885.86,553.76483,772.7371,287.41534,1982.87451171875
20,155636.17,158144.0,157881.61,-2136.3965,4883.34,4697.22,12534.9609375
21,-895876.44,-916446.94,-930358.0,1169.4141,-6833.264,1578.9491,32472.8046875
22,-145821.45,-145499.58,-147281.5,-2989.7979,-9127.555,1806.1366,17007.20703125
23,-98.03471,535.1755,-57.02744,973.0649,-436.9297,267.07297,2000.98547363281
24,8670.6045,8386.716,8808.582,879.01526,610.54724,377.96634,2000.92077636719
25,9892.945,10841.69,10569.437,-515.8064,-910.2505,36.764114,2000.95764160156
26,839653.8,826968.4,832413.8,-12444.411,5574.793,1405.69,26177.248046875
27,851945.3,857779.6,865799.0,818.6823,9473.528,-2086.879,20723.326171875
28,53313.246,45071.438,52252.152,8657.975,5891.5376,-4891.0977,21472.978515625
29,-1436837.4,-1469243.5,-1459581.6,-800.4251,249.42496,-667.88873,28876.4921875
30,40872.008,22086.203,27577.508,377.8122,-9088.735,-4824.4453,24453.4609375
31,475980.97,478351.4,480522.3,-1567.2662,-971.7821,2634.2634,6818.93603515625
32,219366.78,234100.3,210410.08,-1791.5463,-5903.2017,2558.9536,23729.30078125
33,192949.66,181020.31,193117.0,-1671.0951,4731.545,-2069.6785,15255.310546875
34,69292.07,62238.63,93358.336,-1450.5792,7131.2646,1608.4148,31069.671875
35,-717130.56,-748883.0,-748922.2,-2669.6797,-6483.913,1590.3634,34125.58984375
36,616886.75,638666.3,646015.0,-4984.872,8496.824,1873.4824,31465.35546875
37,194040.72,204427.67,223569.53,9552.089,8398.9375,-1368.3192,34118.84765625
38,-38268.33,-18814.582,-19049.043,1906.9943,6710.1694,-87.57585,22802.5
39,1028456.6,998321.1,1032578.0,-7316.7666,-3254.9155,3996.859,35911.65625
40,-142630.22,-120663.85,-124191.266,-5340.0825,3378.4177,5294.0107,24926.88671875
41,69813.76,71773.55,85715.9,7037.95,5040.4214,-5506.6665,23266.712890625
42,-180582.0,-192002.66,-194422.8,-3321.3809,-6508.398,-5506.5103,20373.15625
43,568466.6,569292.5,568293.1,838.5295,492.29953,-317.34985,1998.51574707031
44,133825.5,134139.61,135170.42,-314.8889,-708.0501,-482.05722,1995.90441894531
45,140945.94,141396.97,141418.53,-336.5582,-1002.56067,-379.93045,2000.46459960938
46,9444.259,-8379.898,18137.158,937.55774,1356.8947,-5934.995,25730.2109375
47,24031.08,31882.041,16667.236,3048.327,108.3803,717.1408,14252.439453125
48,62435.605,61330.457,61899.633,-205.82466,-138.98497,-983.6326,2000.98266601563
49,252385.98,251081.48,252918.11,-242.34492,42.285553,617.35034,2000.98876953125
50,-102347.61,-100623.766,-101052.375,210.2972,404.05276,-566.86285,2000.73461914063
51,-1003593.5,-969741.06,-990182.8,2253.1877,2302.4124,-4985.2993,31265.685546875
52,-494058.03,-495975.53,-490322.34,-2651.7815,-3101.1453,9991.702,19345.408203125
53,368830.9,362914.6,370843.25,1259.0221,-1894.1229,8462.244,16772.154296875
54,46499.09,47602.965,48742.406,63.43768,264.69296,-48.07564,2000.96508789063
55,-31470.545,-29398.832,-29945.537,211.11195,-257.5432,-262.93936,1999.59167480469
56,83926.95,85549.9,83955.05,682.0161,-47.356705,64.84209,2000.98120117188
57,230969.23,231056.6,230450.47,-162.82043,874.1064,-650.8295,1991.11096191406
58,276955.75,276936.38,277421.84,-72.866516,-129.56374,-1104.5468,1988.21740722656
59,480702.44,480542.44,481879.94,-1.5588924,-217.32034,-868.27826,2000.97961425781
60,672470.06,674154.56,673605.4,755.0066,72.083885,146.35878,2000.99890136719
61,350878.88,352202.28,352732.38,406.88107,397.05026,-312.01776,1998.90014648438
62,127725.39,128868.09,129044.555,680.4079,-515.8643,304.18036,2000.83508300781
63,104845.01,107301.51,106935.234,949.3987,-3133.3364,3026.2258,8056.078125
64,-292314.3,-313988.12,-292517.66,6728.466,1489.0701,3201.0913,25270.49609375
65,161372.34,157266.75,154519.8,4592.616,-7002.13,-3390.4458,16749.052734375
66,197154.42,191372.97,193193.48,10763.664,-3395.48,11464.919,28332.041015625
67,-3307174.5,-3302110.2,-3317465.2,-775.5124,1848.5151,-4949.7544,16407.8203125
68,263913.6,263432.44,264763.44,-354.81226,323.02856,806.10986,2000.70251464844
69,332338.88,334932.3,329193.75,493.78195,116.563835,-454.6455,5115.34375
70,299204.22,300659.94,299912.53,-842.0919,231.13614,197.8163,1998.68518066406
71,693757.2,692904.6,692953.94,979.32245,123.537994,105.91455,1908.90234375
72,722526.1,721210.8,723195.25,-281.81787,153.73471,-460.82614,2001.03295898438
73,357653.56,356881.75,356718.1,-401.6784,-615.7444,731.7749,1994.17492675781
74,108306.66,109109.03,108850.54,-1063.6428,21.000559,187.4302,2000.98413085938
75,461716.1,460763.25,460288.66,-299.13736,116.02622,-838.59357,2000.97924804688
76,861782.1,863500.5,861699.8,172.28195,211.62602,-474.66394,2000.08728027344
77,99264.09,99502.53,99856.234,-595.69354,-760.706,289.5152,1821.626953125
78,832951.44,834027.94,833325.94,566.4555,362.87787,763.8294,2000.97875976563
79,570.0557,-73.70871,892.0709,-448.44864,293.27295,897.61646,2000.97973632813
80,825791.2,845685.6,862570.3,-3078.8403,2493.7986,3187.307,33081.17578125
81,26782.246,36521.145,25386.506,11141.973,-2672.2263,-4273.0527,23643.544921875
82,-6306.0996,10891.71,-2601.629,-8906.5,3080.772,2586.4326,23071.59765625
83,9489.803,10934.573,10630.322,-18.864378,613.65546,614.48126,2000.97619628906
84,4410.98,2274.4187,4042.1797,82.99787,34.859695,147.99876,2000.74133300781
85,-7196.864,-7543.5347,-6614.2197,-151.51376,-202.48781,-1024.6611,2000.82604980469
86,2423.8806,2517.1636,2020.6466,1075.2706,-121.028534,-306.84393,2000.984375
87,71663.84,70500.42,72654.734,226.74347,-41.575695,-344.60037,2000.97729492188
88,223472.33,225216.3,224457.88,-623.77106,383.71933,183.46191,2000.98327636719
89,445835.62,446942.44,446513.34,242.27252,-973.0771,-132.90704,2000.98645019531
90,289027.56,288917.6,288025.75,241.32465,142.60594,976.8409,2000.98217773438
91,6522.3306,6892.0303,8239.134,-221.89734,45.134716,-677.8405,1995.39953613281
92,537458.1,538322.8,539260.56,-385.46783,-371.99304,484.82947,2000.99780273438
93,78862.055,74478.21,68858.91,5595.854,-10672.8125,1674.6132,22792.748046875
94,44644.125,55884.934,61578.617,-8278.792,4594.0234,3237.2307,22872.359375
95,-134294.6,-145887.4,-135070.81,12733.903,3774.0388,-329.10184,25602.9140625
96,317732.03,283024.6,311474.38,-10261.135,-940.11115,4400.471,37459.2265625
97,192485.36,193011.86,191479.95,558.22797,504.4351,403.45718,2000.98559570313
98,160647.61,159873.52,159492.27,-705.9695,555.3852,-425.7129,2000.98168945313
99,164992.2,164853.95,163987.84,703.6548,-53.31299,735.08044,2000.98608398438
100,130610.34,129854.914,129776.25,660.02686,-296.31964,-773.02374,1999.82666015625
101,-782732.06,-776366.7,-767687.56,-127.127785,6865.483,-1552.0591,17882.13671875
102,85579.24,85050.04,72548.08,-6045.3506,-5881.019,-197.37636,19409.017578125
103,61073.55,66910.945,79882.13,-1526.2808,3338.0454,397.8332,17858.775390625
104,435064.38,434834.12,434576.8,1696.6527,-1336.227,-2408.2832,5618.75
105,-770034.75,-769263.6,-795014.25,451.58014,3330.7578,2472.0757,26382.9375
106,-135027.97,-128130.63,-118157.69,5801.0757,8595.794,2794.5144,23703.755859375
107,-86092.99,-62657.266,-70604.75,-13811.335,4766.3687,4453.1455,33556.609375
108,152731.73,151478.39,162529.47,234.02187,75.55521,10798.136,21443.578125
109,-69190.02,-62997.24,-66628.055,11503.735,-4263.472,-3180.484,22603.85546875
110,14079.226,13124.363,14327.799,146.68369,-615.75665,-728.243,2000.98327636719
111,-687173.5,-686415.5,-688560.4,-16.39311,-347.39172,174.8302,2000.94567871094
112,190107.69,189227.94,190833.1,61.992073,246.42787,739.148,1941.92651367188
113,-545451.4,-550858.3,-544531.06,3057.3323,-71.00442,1399.7227,8306.181640625
114,318245.34,316976.6,317640.6,832.97473,-199.79694,-375.63318,1957.74633789063
115,137240.19,137438.88,138922.53,659.89795,106.56215,-204.50912,2000.35766601563
116,-83273.914,-83730.52,-83033.63,913.3752,-582.76697,188.31227,2000.98510742188
117,29922.107,28353.764,30323.322,387.8535,63.747505,-311.20218,2000.98498535156
118,866942.44,865958.8,866585.0,-469.74655,-442.56943,-817.0135,1998.95397949219
119,206124.12,205088.4,203845.69,-115.53006,-20.709518,139.60643,2000.99182128906
120,396524.94,394922.34,394076.78,554.967,-2716.0781,1992.4116,6293.06689453125
121,19959.428,2051.727,21038.482,8327.323,5770.7773,-229.66861,25480.783203125
122,-169258.22,-176075.75,-179138.34,3264.698,-10949.304,-1882.9904,21886.3203125
123,46888.184,46369.46,47054.445,844.7456,-329.31873,620.2568,2000.81311035156
124,29183.22,30253.104,30622.34,748.80994,463.06094,28.772015,2000.98291015625
125,149377.4,150605.89,149907.55,842.6765,-133.0997,463.08228,1991.41833496094
126,286290.72,298586.0,307854.72,959.9943,-5840.43,2397.535,21757.4296875
127,192506.66,184616.44,192886.56,1661.8955,-3262.4224,9675.455,19658.5
128,78709.81,78330.61,77487.83,526.9298,-682.122,447.7054,2000.9541015625
129,51306.336,50068.773,49575.86,522.0913,-489.8679,164.98221,2000.96081542969
130,23918.447,23876.43,24933.42,734.795,5467.2783,2948.471,10883.390625
131,8639.202,6511.0835,15077.547,-5930.6763,-2564.1304,149.94244,13601.2216796875
132,19687.352,18291.39,18578.936,-727.92896,-271.6709,432.61215,2000.62585449219
133,46243.484,46390.867,46036.613,185.6311,-1100.0172,241.09029,2000.71740722656
134,123059.836,123667.4,123453.445,224.08673,319.46524,1042.7865,2000.98669433594
135,186205.72,194383.11,194156.2,2445.278,-1324.486,-4016.2034,11690.0087890625
136,342707.7,343938.9,358516.4,-5036.34,155.74211,-3092.8845,18352.990234375
137,228472.83,226718.84,228843.17,-94.03259,-159.68326,-32.300278,1992.32165527344
138,282630.62,282747.53,282336.06,163.89816,892.42645,672.66077,1990.51513671875
139,167455.88,167620.81,166703.97,-37.450222,-431.5765,952.957,2000.98681640625
140,113858.74,112417.68,113834.68,463.42416,184.30228,-526.023,1902.32836914063
141,21677.193,22046.975,21059.828,-365.11328,-718.25415,659.82684,1999.96826171875
142,683194.44,670026.8,678858.3,-5492.406,-1145.9298,1006.7314,15250.29296875
143,544476.6,547305.3,545366.06,-2585.2202,5748.5425,2679.239,12124.310546875
144,-159501.2,-164236.08,-158567.1,3668.4263,-6178.557,-571.96747,13549.6015625
145,300907.1,301908.03,301697.06,-125.031815,-1006.5631,-165.64587,2000.98461914063
146,456183.47,454991.97,456569.22,-477.67935,194.17969,620.6689,1995.353515625
147,147490.23,147502.22,146295.61,-130.41272,-343.9786,-847.8125,2000.98327636719
148,274536.44,275380.25,273735.8,752.586,178.02612,238.6647,1998.42858886719
149,161986.31,161456.56,162722.92,-470.52448,-435.15765,-697.25366,1975.9052734375
150,40793.84,20756.418,28419.248,1032.7299,3621.9207,8275.825,23551.990234375
151,275442.5,257545.77,267053.5,-6960.4824,1219.8319,7852.8984,23986.36328125
152,-92248.24,-91531.41,-91143.4,183.31596,972.06036,-192.33104,1997.25659179688
153,103611.8,103493.92,104453.1,689.28314,757.2731,-111.12968,2000.90661621094
154,149101.08,149822.19,149765.17,-686.14996,732.33374,-408.44022,2000.98693847656
155,16032.78,27800.645,20254.334,1298.833,1659.9047,749.41504,11028.9208984375
156,17361.883,29526.523,25279.121,-8173.614,7280.2773,1662.829,21956.251953125
157,-47155.97,-50621.76,-42531.883,11729.265,2484.4224,-1554.4371,22088.75
158,-37570.15,-7149.3877,-9784.678,-1884.7411,7373.049,1497.9025,32135.234375
159,138498.89,128305.11,118125.42,-9007.519,-3762.9697,2154.0261,24720.724609375
160,103302.61,82232.7,85404.13,583.6896,-3845.608,-1486.086,20956.87890625
161,43257.805,41228.32,41971.574,-310.63028,-144.447,403.75665,2000.98425292969
162,-25.908157,6555.416,5827.69,-412.23923,3604.2322,747.99554,8956.2158203125
163,10002.593,14707.269,20047.1,-11040.939,-1996.5745,3743.7754,22259.45703125
164,-30503.406,-49533.574,-33805.562,-8210.879,1799.4781,-6569.59,25527.62109375
165,-44025.918,-27474.992,-38419.273,-7750.5415,-424.39746,8464.162,24662.7578125
166,189730.34,183833.89,200344.33,-697.89056,4493.621,8466.751,22070.486328125
167,-150954.34,-124485.29,-116458.89,-274.84238,1280.1195,4077.7043,32132.70703125
168,-322108.88,-302466.0,-332241.38,-2388.527,1662.4636,-1700.243,26862.99609375
169,-25142.766,-48845.35,-37470.996,3857.0461,4357.0806,-4782.4785,24326.65234375
170,-39788.547,-39982.47,-30041.287,8761.861,6549.3496,-1045.9546,21429.220703125
171,-320305.06,-335439.8,-312335.97,4156.937,1335.8983,-5375.6636,23602.22265625
172,1991598.6,2001702.2,1997986.2,1007.8078,10768.244,8624.205,25541.923828125
173,-215763.05,-229245.98,-218795.4,14147.744,-8427.779,-475.5152,31053.767578125
174,177104.7,165280.84,187282.84,-9893.326,-843.1811,-6403.414,27973.57421875
175,7338.6914,-6202.0034,10450.66,-6055.6865,-529.0784,-3967.443,19830.49609375
176,174531.42,174412.22,172656.19,347.29163,120.67561,311.58606,2000.98974609375
177,-32475.28,-10672.231,-1594.434,1738.9148,-2599.654,4958.8506,29305.623046875
178,526662.9,527611.7,524626.2,-1963.8644,1587.5746,14563.32,25736.8046875
179,-136518.98,-141334.97,-132267.61,-3672.846,1364.4866,-4751.0146,13248.1591796875
180,15220.127,15209.075,15039.84,-60.904972,1132.7157,193.81238,2000.89611816406
181,174432.58,174666.28,174529.88,-223.24002,-328.3327,-1078.5303,2000.98559570313
182,-376674.38,-347854.16,-348188.4,-1884.9801,9175.157,248.97298,32931.4375
183,724456.4,709539.7,728333.75,-1575.0188,943.4704,442.7457,17495.134765625
184,1983.9672,715.51556,2868.7502,-113.977905,-387.07092,21.461761,2000.98510742188
185,673.0239,1514.8403,632.4236,224.22078,-342.39316,-958.63403,2000.98547363281
186,302971.9,303141.97,301609.12,102.26503,59.140743,784.0569,2000.98840332031
187,8581.588,8310.292,7529.9272,301.70804,716.7398,657.12305,2000.98559570313
188,170831.1,171183.05,172159.34,-131.44043,-480.41672,782.96185,2000.98864746094
189,25754.357,10720.46,10144.708,-11311.376,3083.1357,1185.8992,25526.12890625
190,16550.72,48743.04,23320.541,-2627.3572,-2448.2004,8435.399,33412.53515625
191,92936.086,104081.984,77051.695,8370.839,-12102.971,-86.32859,34688.20703125
192,-49998.7,-14448.21,-38203.01,-5033.9277,2620.7546,-1463.4005,32964.890625
193,450655.1,425264.12,460460.9,3967.2156,-2801.609,-1887.074,32730.427734375
194,-442058.75,-447371.0,-424155.34,-17317.996,4258.2495,729.95734,37411.16015625
195,-420922.97,-434321.34,-409157.38,-8366.226,-3362.017,-3582.4124,27531.38671875
196,-515795.6,-515800.7,-497110.6,-13905.369,752.7258,5780.6426,32113.07421875
197,340341.9,329608.8,361254.34,14752.208,4611.061,923.24554,38680.87890625
198,-189020.44,-217834.47,-190038.14,-8264.154,-7135.696,712.0988,34075.27734375
199,-43989.707,-46143.918,-45242.992,-16091.989,16637.371,172.34492,40135.5625
200,51520.344,36944.918,15565.036,12605.092,-6055.774,20.418642,39596.046875
201,-46074.535,-48944.504,-73557.98,6070.4775,-15579.943,-3441.0095,39483.88671875
202,-7410.7227,-23673.877,18860.422,-4955.9746,6942.509,1129.1787,40050.22265625
203,-4381.2363,1910.9478,-17693.107,-11668.991,42.39654,10112.248,31872.125
204,21050.738,31861.959,-7007.512,-6829.231,-8703.526,-1172.9641,39733.97265625
205,22775.125,-15122.049,-9141.716,8024.467,-1184.1901,-5327.3003,39087.66796875
206,-12255.379,16004.481,25215.457,-5668.659,8627.293,2022.1444,38415.12109375
207,-53499.64,-56551.324,-47132.043,-22035.373,-2181.998,509.12012,39255.890625
208,35460.08,9494.758,30498.395,7624.039,-12442.196,6523.4956,36557.55859375
209,-12242.559,-49398.645,-8765.111,-450.44614,172.61665,-1931.4833,39163.3203125
210,-27768.271,8901.039,-1379.8477,-10876.6455,1702.6698,5496.9062,39084.4140625
211,50174.125,49236.89,65997.45,4703.2173,-3294.4724,-8103.337,23706.537109375
212,-13183.256,-6013.8374,-10371.408,11983.882,7781.5957,-4401.3423,26641.380859375
213,32781.434,24641.09,31622.328,2940.5266,-642.78406,-4969.289,12626.73046875
214,-29192.58,-21839.94,-21276.986,-9642.5,-5761.7144,7722.572,24818.486328125
215,108317.016,114288.96,92384.305,14904.912,-4251.7017,10398.137,37811.75
216,-17771.201,-23621.457,-11742.581,-2448.5088,2135.305,21902.373,39706.98828125
217,3118.6133,-24843.734,-27904.783,-13541.082,837.5718,2909.581,38137.13671875
218,8769.986,12882.635,35624.387,11235.405,-670.17334,-1669.66,31875.439453125
219,6444.7544,24628.88,36489.562,5491.2837,7923.606,94.35387,31078.1953125
220,-104870.33,-80081.62,-94309.93,8820.869,-7089.93,5478.4727,30634.76953125
221,-30515.143,4688.808,1280.3707,8664.508,-422.59338,-8403.819,39605.23046875
222,-47279.277,-65208.176,-55614.16,8930.609,-423.57364,6651.8447,24779.5703125
223,54578.426,56554.125,56191.562,437.94772,-167.55653,-92.72011,2000.98364257813
224,202891.56,201477.14,202877.81,334.4559,-344.1224,-665.61426,2000.32495117188
225,66701.44,68152.08,67480.61,678.6137,77.54328,583.98517,2000.96813964844
226,65872.57,64804.266,66550.45,457.03882,-216.63622,-549.4442,1999.52478027344
227,309397.5,308375.06,309567.12,355.75348,139.54865,876.8908,1998.12353515625
228,69886.21,70150.12,68699.21,-378.0159,-604.44635,-478.62503,2000.9677734375
229,510761.47,510050.88,511999.8,2.0082293,15.118526,601.34973,2000.98986816406
230,269079.16,268427.5,268209.72,477.61188,-659.20886,682.3816,1999.736328125
231,199884.83,199982.73,199462.8,31.656815,-584.2407,951.21344,1992.59997558594
232,394295.78,395206.66,394430.9,924.7011,402.81284,275.13657,2000.99011230469
233,175761.23,177900.34,176779.62,-281.47745,156.83536,-292.95096,2000.84997558594
234,149082.61,147757.12,149596.6,364.93558,-354.68115,418.1624,2000.96887207031
235,163361.44,161334.3,162659.0,-505.45163,58.47168,-120.62892,1999.783203125
236,225865.77,226680.97,226298.64,461.81628,-872.2521,-437.89972,1999.15441894531
237,69907.21,71191.0,70596.46,503.98212,-815.43024,-54.227734,2000.98071289063
238,68173.35,68882.76,68191.88,937.33057,-110.39838,-528.9744,2000.55615234375
239,68497.766,68129.86,69087.13,-906.11115,528.8167,27.984428,2000.98559570313
240,41549.766,38116.61,42051.195,782.2237,-78.62165,165.62587,3961.810546875
241,100736.41,100740.07,101209.95,-219.35835,187.14565,1085.0487,2000.98522949219
242,-353793.5,-352520.72,-353974.8,764.5262,349.09763,5.8181887,2000.70666503906
243,325759.6,325949.84,325855.38,-820.36017,-14.788246,807.70667,2000.98608398438
244,119176.08,119170.58,118517.664,661.2031,166.20549,-852.3677,2000.98767089844
245,369374.34,369943.3,369793.06,439.3679,315.88815,-975.3057,1998.24047851563
246,213825.27,212537.25,212780.62,142.2084,-723.77783,564.59625,1998.3203125
247,342920.44,341571.9,342749.16,-434.93307,-109.32477,-769.7273,1999.42297363281
248,282356.16,283809.72,284292.28,-292.21185,-386.91238,-289.56464,2000.98852539063
249,415768.0,416384.16,415203.34,-815.0016,-155.0311,277.37238,1828.1123046875
250,-16410590.0,-16411827.0,-16410576.0,850.23694,42.639984,-306.99295,2001.14526367188
251,372270.78,373357.3,371915.8,-692.06305,-139.9805,285.0827,1852.48254394531
252,818432.75,820368.8,818435.25,-121.82573,-32.44133,255.78975,1996.865234375
253,1263467.2,1261910.5,1263630.1,-482.63687,-433.30435,37.42532,1992.44311523438
254,842895.2,841052.8,842582.56,183.21582,536.4569,203.12425,2000.98681640625
255,1457132.8,1457534.8,1456510.4,-95.81216,-452.0571,924.5081,2000.97521972656
256,588250.3,589250.56,588160.0,911.64935,1.8267683,-338.32278,1983.86047363281
257,344846.44,346537.8,344904.62,129.96504,-449.62466,-438.36435,1999.84191894531
258,201233.9,199884.72,199590.11,312.706,612.3329,306.12555,2000.98315429688
259,-1142345.4,-1142860.2,-1144182.9,117.31567,467.0428,-451.67725,2000.78295898438
260,-296116.72,-314183.94,-303754.34,5300.7905,12684.812,3841.735,29292.529296875
261,-230474.89,-223243.45,-223044.98,12808.147,-9369.491,5890.102,30221.783203125
262,8459.53,-14351.543,10070.305,-1124.3888,-1294.151,13649.826,33577.57421875
263,551136.9,546708.7,541932.06,-8478.805,-9765.27,-13693.8955,33584.17578125
264,139793.69,142049.2,139873.1,2581.578,1953.3391,1242.2289,6401.8896484375
265,44135.668,63930.65,70109.01,-701.0801,5143.965,12118.643,32768.1875
266,1659137.6,1664050.8,1667736.2,6051.57,-2321.2405,389.38107,13502.3271484375
267,377571.9,408044.6,395943.8,2937.0212,1321.0944,14074.074,36491.41015625
268,-36260.84,-25453.846,-17902.404,4406.542,17321.92,-4208.8384,35594.46875
269,-155584.16,-157473.89,-177245.98,-4701.6265,-6386.715,-13400.124,34047.71875
270,-67009.23,-64387.355,-65713.21,-363.58716,-1319.7239,-351.12762,3338.76489257813
271,49622.344,66019.12,66014.95,-508.92093,1303.0386,-1485.88,16771.41015625
272,-37034.71,-36018.625,-36234.34,-769.6263,-244.48553,-629.2258,2000.96166992188
273,74199.516,69546.89,74933.22,-2576.07,-301.0898,-576.0399,6839.205078125
274,6843.6772,18067.715,10575.813,-4713.985,-872.1209,2241.9753,13492.380859375
275,12203.863,15522.888,24545.137,15100.632,-9799.435,1572.0826,33195.63671875
276,-11200.966,15909.65,9758.461,14740.202,6118.0596,-1598.9475,37119.3046875
277,704475.94,691424.4,702529.7,-8698.003,-3150.4653,-4788.9033,21777.796875
278,50218.336,31666.973,29288.875,-16582.447,-718.4607,-4412.019,35760.375
279,251600.19,251959.44,249827.44,-30.879677,-109.17733,136.97449,2000.86706542969
280,48987.07,50464.83,49986.793,78.26384,-862.241,120.52889,1999.55029296875
281,-95647.08,-93589.555,-94992.18,-432.95187,-121.064644,-162.77145,2000.1552734375
282,90826.77,101344.695,79616.25,-8317.671,949.2027,5554.9165,25632.7734375
283,-676890.5,-675945.8,-677308.5,26.95712,-234.10066,889.75354,2000.90258789063
284,-10231.469,-33642.94,-15554.401,-18560.953,1673.9706,-879.0833,38678.99609375
285,-588834.06,-594122.75,-601457.3,-5868.1675,-17325.69,6469.3384,35354.74609375
286,-47865.582,-57596.18,-74161.15,4034.8237,11518.165,-10046.309,35775.66796875
287,-57452.273,-47199.12,-57551.47,-17552.264,4063.2944,-8978.187,36355.94140625
288,4790.674,-9611.008,-37638.215,699.84827,6937.3677,2300.1628,39475.2421875
289,52783.008,70932.27,48604.555,7510.5835,17291.244,2129.3198,38761.8515625
290,-44247.113,-65247.46,-70327.695,17658.395,-563.9153,-220.95071,38859.5859375
291,-939.2876,-9966.807,-2690.456,17336.783,978.43024,-9977.991,35665.09375
292,61383.56,61708.746,60982.652,611.73804,869.18207,-269.56787,2000.98608398438
293,395904.3,395506.4,395841.3,838.2474,-40.854153,764.5728,2000.98168945313
294,289641.25,288456.78,289543.75,-54.801743,945.9573,-66.98908,2000.99096679688
295,75648.35,76335.89,77095.945,861.14954,193.30038,-177.0868,2000.96740722656
296,31225.67,20680.916,28884.154,-5047.6445,3233.2522,-3272.0493,15228.2841796875
297,638.5303,8657.569,-22046.89,-3955.2043,-8892.976,-11134.335,37642.4609375
298,18891.377,48066.336,50783.16,-12419.865,-210.33841,-2011.5055,37587.9375
299,85543.6,84732.21,80425.3,-3450.766,1118.7601,2156.3022,8725.2275390625
300,25423.227,26280.01,24951.523,-218.49638,-189.81627,892.8834,2000.94067382813
301,331924.8,331987.2,330176.2,-524.4321,1.8352684,40.842945,2000.18811035156
302,575785.06,590827.8,607617.0,-5527.2217,-6898.972,4874.963,32656.552734375
303,-294782.78,-307588.16,-323419.56,-3459.1667,-461.55478,-8875.984,29836.623046875
304,43123.055,42511.867,43742.12,572.13544,786.15186,104.34003,2000.98486328125
305,49357.047,46169.832,54465.965,2653.0796,-920.5699,-1316.3217,9022.169921875
306,151894.75,149935.45,149968.98,2.0853922,-235.59473,-132.26483,1998.31945800781
307,147635.2,148123.88,147214.75,499.4151,182.37189,919.21387,2000.98266601563
308,-456900.25,-460561.53,-448099.03,-2442.054,2755.769,13896.296,27259.583984375
309,-307501.34,-305824.44,-304649.47,1127.9951,-5146.1465,-3598.7388,11326.1298828125
310,-756512.94,-748901.06,-748874.2,-80.03204,13581.106,1740.4146,24911.67578125
311,18727.479,18906.412,17918.863,-175.7062,283.3115,-925.8659,1932.78588867188
312,-38807.805,-44892.832,-78143.2,-997.42487,6856.1035,1055.0131,38630.12109375
313,55137.684,46147.445,46077.105,8482.518,6219.4043,2968.6194,20971.458984375
314,58548.8,61990.945,64216.85,2887.598,-13841.384,11038.824,31461.05859375
315,-452084.03,-474265.66,-474367.84,16423.74,4783.227,-3171.0652,37447.6171875
316,8690.174,19499.516,1954.9084,10597.301,2544.803,-933.9076,24371.345703125
317,-401036.62,-377519.6,-400426.7,105.54083,5985.977,-1431.0049,25549.0
318,-22762.025,-35698.375,-33908.31,-6385.54,-20867.291,-1057.0504,39741.734375
319,-74773.7,-88558.33,-96330.8,10348.643,-13264.672,966.3584,34777.96875
320,-63855.227,-98752.47,-75291.82,-4909.372,-8060.633,6064.823,36429.125
321,108473.38,138611.84,136177.47,3935.6555,7381.3677,-2780.7383,32772.00390625
322,10225.001,9547.879,9585.623,509.15692,-795.37964,-545.8814,2000.98205566406
323,-2301.6226,2046.771,747.97797,1087.1992,1264.7983,1963.4517,5904.09228515625
324,73362.375,55874.824,58503.484,10361.97,-132.67093,12388.549,32393.640625
325,-3975.87,16119.007,835.53394,12292.044,5917.391,-566.4187,29825.513671875
326,48031.7,48349.67,51139.504,1859.9888,-508.307,-1999.0809,5649.259765625
327,-32983.63,-33309.504,-33647.11,701.67316,-584.26904,625.08264,2000.8798828125
328,17994.79,16421.91,17675.61,-519.32635,54.311604,608.8788,2000.98522949219
329,12704.17,13047.404,12121.461,-520.11304,223.43742,891.59076,2000.873046875
330,352585.88,350724.5,351465.44,-11.874914,-666.16016,112.03978,2000.98291015625
331,203453.75,202581.16,202299.1,812.2228,-265.28574,-477.6387,1990.41918945313
332,381432.47,379699.5,381723.9,330.54504,46.264565,-159.74028,2000.97998046875
333,126213.95,127933.516,126368.12,250.58344,38.64586,602.0498,1998.95361328125
334,557809.4,569800.44,567489.94,-3134.6614,-8045.8213,-940.1508,18648.171875
335,-134354.8,-107999.086,-116993.664,2783.6313,-5698.648,-10497.933,31460.400390625
336,271247.72,274367.06,270682.6,-766.52325,-8124.634,1048.7017,14659.587890625
337,109242.92,91307.26,107977.48,4302.6704,3517.1736,-8228.498,24420.642578125
338,-53143.113,-45420.457,-55778.824,-6177.7324,12696.545,-703.0193,26201.595703125
339,18757.787,18678.771,19945.197,520.35535,-303.09155,-684.5944,2000.98010253906
340,51215.074,50311.516,49249.69,13.747511,318.5622,-514.9786,2000.982421875
341,140144.56,139795.56,140953.73,152.29413,-908.8758,-362.85565,2000.42492675781
342,239098.0,238798.36,239799.17,-166.8707,-231.63544,-994.63635,2000.98291015625
343,44019.56,44115.69,44392.85,171.13503,-290.92426,-1087.7295,2000.9853515625
344,-15946.252,-8441.287,21194.531,7505.646,4533.827,-2306.662,37465.3828125
345,11007.621,11165.102,10644.383,-481.05325,858.7619,-542.6307,2000.98522949219
346,457797.62,472298.62,487234.53,7649.165,-2191.5278,-4199.9565,29879.796875
347,128865.35,129444.62,129578.08,829.285,-685.9671,181.19168,2000.98840332031
348,107797.766,108450.516,108682.43,-211.74475,-444.01602,-939.2791,2000.9853515625
349,17525.328,16857.426,15653.809,22238.975,-1530.9634,2186.1804,38830.19921875
350,-13892.663,9770.852,-23788.898,-3836.6946,-8926.856,-6068.9653,35858.0703125
351,63750.97,62927.953,63727.41,-214.83482,-55.298374,-1032.4382,2000.9853515625
352,288390.3,288435.47,290359.44,109.065186,87.73631,-226.97806,2000.97717285156
353,10244.89,-5736.865,7634.17,-6534.247,-4017.3782,12296.018,29164.90625
354,33913.125,27475.166,39392.316,7944.589,-8508.927,5472.039,24558.669921875
355,80045.18,71853.21,84471.13,10847.046,13744.552,5297.716,33568.81640625
356,66542.34,57612.22,27481.434,2780.29,2871.6362,-3098.5105,36515.9453125
357,11825.314,869.3851,31860.934,15647.027,2052.2866,-3709.7698,39107.26953125
358,2701.958,-11016.17,-18474.287,-1473.6553,1389.8605,-389.14816,18944.296875
359,13281.005,-9065.005,888.49927,-14721.191,-543.767,-1242.999,32119.431640625
360,231942.02,235379.84,228777.12,244.2535,8093.903,8475.554,21093.443359375
361,142590.45,143967.08,180720.2,-1293.8885,311.3289,268.8044,37534.15234375
362,-289459.62,-288728.47,-295613.88,2295.6042,-3216.9404,-10739.329,20874.966796875
363,-24562.873,-11229.311,-16134.275,11778.926,-1379.6791,4405.0156,24831.314453125
364,40098.91,5560.965,3182.0781,5023.4365,-1923.139,1982.425,37138.66796875
365,-879.32227,15296.624,2768.318,2394.9734,153.57649,264.78363,15279.111328125
366,-59517.555,-48564.14,-88215.234,-2847.8188,-2896.7556,435.0066,36165.49609375
367,189942.42,203087.16,230962.89,-2924.1653,-5610.8896,2406.386,38127.81640625
368,-7010.7983,-48.234863,4118.9287,16114.586,-3999.0818,987.22797,30410.494140625
369,9236.513,-13577.166,-25462.832,10286.5205,-3072.9385,568.0784,35771.82421875
370,12726.478,19641.73,33076.6,4009.689,-3480.1067,865.58154,20199.900390625
371,11688.413,9180.564,19812.281,-1432.7062,176.59615,558.88184,9992.4228515625
372,-47.260513,-90.77315,-413.3073,-1275.9382,2124.9656,-681.8657,4466.0126953125
373,-58842.633,-54969.08,-91989.03,2084.6426,552.48145,-754.6843,35464.6875
374,355047.7,343890.06,383068.16,4732.729,-4967.8804,-5642.2544,38197.1484375
375,5686.3193,-35513.715,-12708.734,-5965.4023,4576.3623,6297.946,39579.33203125
376,47310.785,55912.08,85227.42,5699.1226,517.1284,-2256.8516,36042.25
377,13903.947,12205.589,29991.229,1968.0724,1483.0472,333.34488,17537.34765625
378,123025.78,122865.36,123435.74,-2.14767,-964.3642,564.0222,2000.98522949219
379,421525.84,421323.94,422543.6,4.7777133,-879.01337,366.887,2000.98767089844
380,223733.05,223003.98,222576.8,127.131645,295.29086,-943.1097,2000.97790527344
381,-454131.9,-454373.25,-454303.7,-902.08685,477.70633,-526.5259,2000.96911621094
382,-494421.53,-502836.22,-497532.28,-4552.342,-1015.21155,488.28467,10967.5166015625
383,-315815.44,-311396.94,-283173.03,-13314.416,1044.9663,-1661.2665,38525.26171875
384,7471.256,9419.572,27837.297,-2201.434,345.87488,-987.7062,19917.74609375
385,281613.97,304232.97,310235.2,-6051.032,6694.521,3817.7754,31167.787109375
386,-17813.137,-37866.664,-57041.156,-1103.3015,1920.1686,4315.3926,34998.6015625
387,5213.871,-17333.637,-23194.434,1170.7333,7057.3457,5989.156,30594.53515625
388,22357.594,28483.0,59275.58,2297.0615,-2439.2417,-4621.84,35666.28515625
389,12997.419,24001.336,27981.32,3990.1702,1015.5935,-3107.0884,16141.330078125
390,-6867.028,-10974.848,-17009.896,-1647.9016,-1019.5435,1479.0867,9793.626953125
391,22330.123,34508.848,44912.574,-153.32982,-697.5683,-701.14777,19653.705078125
392,1166.5684,5367.1113,-12900.807,-1873.0222,-1857.4741,-2449.5774,17706.009765625
393,187176.17,195420.86,226486.52,3872.0847,-5593.1045,-2015.9961,37949.92578125
394,86779.805,53971.164,62556.586,-14799.556,-4619.101,-2080.837,40031.47265625
395,84034.74,58025.547,100366.62,-2870.0642,-999.76434,-1909.9768,37505.22265625
396,-132604.83,-123492.39,-107531.35,3597.1626,9554.72,717.27765,28239.607421875
397,276615.06,276685.38,278510.2,370.58362,-161.70677,-129.33582,2000.95446777344
398,-616718.44,-631660.7,-621556.7,1283.5416,-5788.482,-1914.2213,17054.029296875
399,357636.2,358163.94,356213.2,-34.310394,129.33514,546.4352,2000.98120117188
400,225144.06,229105.39,258581.69,117.85917,-8620.992,420.23007,34997.79296875
401,58309.195,54191.695,88775.84,-10264.527,4042.159,635.9237,37906.84375
402,4482.6606,-15716.81,27643.508,-4046.8936,5974.994,3134.552,39974.87109375
403,14888.325,26445.324,39726.332,-3281.9348,4706.4463,1315.7748,23820.095703125
404,-48998.9,-31426.293,-17636.213,-3262.262,-9590.343,2260.4604,32626.22265625
405,-32426.123,-32034.775,-57785.008,3235.299,-755.68774,-340.2857,26203.2890625
406,2078.0225,13764.966,13986.676,274.6225,-1780.4037,874.06274,12298.48046875
407,-17425.652,-9747.933,-28639.879,761.352,3514.8967,1153.608,17708.779296875
408,-26000.512,-24888.0,-61183.47,4788.8623,2050.5242,938.6149,36909.02734375
409,-11747.931,-5375.7593,-15841.432,404.62387,-3297.2542,-2060.5728,11370.59765625
410,1870.7726,19405.166,-19533.553,1792.8551,-7586.354,-980.74554,36415.640625
411,149027.42,149396.55,148049.44,195.80757,-155.75784,-886.9717,2000.41613769531
412,365195.56,371119.47,382098.3,2180.561,-6597.3467,830.34845,19172.19921875
413,-9653426.0,-9653602.0,-9653674.0,200.13486,-342.39078,-1068.5332,1986.44873046875
414,12750.292,8723.78,-17658.45,2241.3013,-1813.8191,3166.85,29554.8671875
415,-19820.154,-17634.086,-49944.42,-6551.7456,-2689.7026,-1713.7168,33725.2734375
416,376521.12,374932.16,388856.44,-7228.503,-6510.654,-1731.0765,21614.685546875
417,-2629629.8,-2630990.0,-2631747.2,52.642067,1585.0107,53.1032,3317.72631835938
418,34290.316,33864.9,32568.865,-5.633835,-336.42407,-646.08307,2000.98645019531
419,30455.139,13376.934,6892.158,2447.6277,6469.433,-3690.4082,25077.009765625
420,-24950.047,-55265.184,-38341.18,14857.08,4084.802,-3998.5361,38112.94140625
421,117333.62,117499.016,118665.02,-205.95943,-755.5765,-441.28732,2000.98364257813
422,41825.348,34162.523,68789.22,7447.288,2069.629,-141.31079,34229.8828125
423,106749.21,124767.336,149533.95,5982.874,-499.67032,4145.7754,39293.53515625
424,-121933.38,-97116.11,-82076.37,-2603.0015,-10724.814,1648.1836,39860.7265625
425,56580.258,56103.3,93199.0,-2002.3116,-1480.576,-931.8445,37146.12109375
426,-64607.93,-37954.266,-77265.06,5118.6206,-3500.8687,-2619.1182,36659.625
427,-72330.336,-77854.23,-104239.13,-11983.9,-54.632843,4145.4463,36808.0
428,-156406.98,-163625.92,-163589.14,5057.805,11553.466,3663.7856,23860.234375
429,-32380.504,2737.0732,3282.1924,1896.8031,-5475.3706,1763.8407,36915.453125
430,-25977.367,-46740.773,-66336.91,7289.6294,338.74542,-1198.8876,37230.125
431,77246.61,61744.91,102194.95,-8770.086,832.83044,-1898.8362,38640.71875
432,11918.605,9298.723,-10894.502,3232.9644,2851.7654,2505.712,23283.548828125
433,15746.643,24249.254,35549.277,-1123.9471,1000.4848,82.67158,17403.38671875
434,-85939.31,-87873.77,-94498.99,2431.6807,-4517.3438,2113.6135,12361.7294921875
435,588439.75,573606.0,616451.4,-1767.5596,-1574.5552,-1437.9294,37989.765625
436,-18608.219,-3293.9326,-25404.799,8535.792,-467.31107,6030.787,26704.890625
437,71777.01,70644.38,71430.875,-79.25628,-800.11176,-592.7246,2000.98901367188
438,9845.818,10661.865,12986.127,1271.1755,-580.5137,-955.2189,4069.49755859375
439,-347522.06,-339802.44,-324797.66,-539.18494,-11787.016,-5361.583,30074.58203125
440,-4698.2324,-7155.77,-33210.258,-167.17232,-640.0637,-1475.2721,27509.052734375
441,-520804.38,-495001.1,-502847.3,3769.703,6781.871,-1305.4745,26657.83984375
442,-307179.7,-318679.7,-349036.2,-4641.6323,1582.0067,-2480.7522,38645.4609375
443,839.32214,2931.2646,-5599.895,3454.9663,-519.19147,-75.02109,9795.2109375
444,-45736.152,-31241.65,-68712.06,-4754.9985,3554.3044,321.47922,34308.1171875
445,5669.0894,9854.606,10812.468,53.12623,-270.58075,-843.1299,4980.55322265625
446,-224029.08,-227900.06,-210573.58,-8202.7295,1508.1589,-13417.423,31573.41796875
447,48148.516,67704.75,84873.5,-7805.6953,930.631,-2884.6963,34975.95703125
448,-5672.721,-4888.152,-21503.906,5263.255,-95.43428,801.8521,18674.1640625
449,-50234.19,-42455.367,-83098.27,-772.67957,-2234.671,1685.4904,37702.74609375
450,-24406.98,-37904.773,5922.6543,2645.2349,4669.7104,110.48818,39973.83203125
451,-10156.607,25055.309,-16735.717,-2521.6135,-268.26,1406.058,39243.4609375
452,44080.953,51216.453,77228.02,-9142.13,3758.715,-2284.2515,34955.625
453,50828.484,66228.984,71188.39,8914.533,-790.9451,-4861.9756,25482.314453125
454,93469.03,53212.062,78588.63,-5738.697,-4090.4587,-1224.8126,37369.828125
455,-13005.775,-6503.1523,-46313.27,8127.4014,246.88028,2259.8123,39773.4375
456,-27977.75,-12317.049,-34631.582,-17516.783,5099.5,-3997.0894,37949.87109375
457,-51279.727,-54504.86,-85933.51,-540.0051,-7584.6987,4242.2827,36427.62109375
458,-63633.023,-51204.49,-63224.242,5488.201,-2451.189,1031.6696,16159.64453125
459,9566.597,6841.16,15051.59,1688.5643,-859.72,220.08484,7961.06591796875
460,-87966.94,-74938.625,-117188.81,-5852.8667,-1807.0457,-92.88196,38948.12890625
461,5579.0566,13795.219,16090.946,1353.3125,-1336.2555,2023.3,10713.080078125
462,55.954002,8269.212,-8338.983,3151.5266,1831.0375,3316.9148,16725.5078125
463,-533585.9,-537226.0,-528397.25,15392.033,6020.565,13099.808,37327.73828125
464,7588.727,-3053.4492,-5165.149,-3633.0557,-1442.7273,-2505.8562,14313.20703125
465,-27586.613,-22393.91,-38932.0,-3675.0525,1712.5371,-2518.0947,16820.642578125
466,-8612.965,-43624.156,-36058.684,-6751.474,12.750902,-2457.1023,34249.13671875
467,-26386.564,-30639.182,-40847.977,520.36523,721.86145,-203.41121,12969.890625
468,53694.89,50124.71,72563.914,2840.1575,8327.563,-9719.557,30851.349609375
469,-1474.072,4978.1025,3521.6616,-309.30804,-2251.2405,-204.90616,7069.07275390625
470,86492.375,66269.234,108422.445,-6299.1313,1162.6309,350.78143,38168.83203125
471,-117549.44,-89657.14,-132375.4,-3203.208,-453.1639,581.4417,37996.47265625
472,65118.492,84011.61,94840.17,8614.593,1684.7759,-184.13298,30166.931640625
473,195062.11,199744.58,236892.9,1779.5859,-1098.4836,-183.13895,39863.40625
474,21931.771,15230.808,12197.008,1546.4635,8514.543,-10125.624,24631.037109375
475,42342.254,41576.03,46436.895,1010.49835,-6136.561,2524.2515,12475.6396484375
476,-841976.2,-840067.6,-847845.44,2574.793,11348.696,-7852.195,25308.7109375
477,-29667.752,-15761.002,-35210.06,164.1222,-4650.5444,1614.819,19338.478515625
478,14375.892,11211.24,15157.696,-2380.34,-322.92624,1120.0696,5845.93408203125
479,24764.332,23095.45,37612.87,3755.8638,549.71936,724.5994,15300.787109375
480,-6358.2007,-9917.323,-9484.052,2380.4734,1265.0032,-939.5476,5980.126953125
481,-209202.3,-205438.45,-245349.25,-1848.5304,480.61957,-244.96133,38313.76171875
482,-112398.75,-85589.75,-120114.73,2107.216,7424.897,71.374146,34115.1015625
483,65933.95,61396.023,47799.797,-14840.939,7554.754,-2759.91,33496.0234375
484,-10588.337,-11665.892,-15929.218,2057.259,-154.58333,-619.3537,6152.27392578125
485,-33591.54,-32499.105,-58968.797,5008.116,2121.3723,-434.75418,27608.56640625
486,24672.08,22940.1,48646.727,17115.053,2842.292,-1702.572,39128.17578125
487,6185.538,12573.989,2260.02,2204.5173,1804.4402,-1142.5448,10467.2783203125
488,-2061.8745,5403.9136,3731.8057,1409.1016,-5068.944,2224.6802,11997.3837890625
489,-11868.354,-18332.129,-1538.4961,-220.88222,3558.2817,-1340.4763,16086.5576171875
490,11081.675,4466.935,17075.615,-3352.3887,1818.1127,1840.4879,13157.689453125
491,-48500.28,-42415.176,-52728.188,-3183.7651,-37.111008,318.79846,10552.20703125
492,24774.125,16756.166,38327.85,1526.8805,829.37756,-1348.5814,19265.982421875
493,40275.723,32318.5,53598.855,4843.1206,-6828.727,4356.402,24779.732421875
494,344361.12,355073.5,386744.34,3054.2183,-3175.736,-4496.3125,39698.34375
495,42054.227,40430.305,69566.164,-4751.7476,-2912.3772,3804.4502,30672.8828125
496,-136.42175,-1902.2476,-2015.9705,-4027.3325,-1257.9253,4858.8467,11294.353515625
497,64192.43,48453.496,83123.04,9382.336,2026.321,5373.0493,35595.5234375
498,25320.746,39093.94,54073.496,6764.418,3357.568,-3506.9602,28781.806640625
499,3607.1294,-3080.2065,13615.121,1126.4387,-493.64743,781.3621,14770.794921875
500,34188.742,32796.57,66212.164,6948.816,-1981.7863,2127.7102,35245.44921875
501,10694.56,3696.587,-1199.977,-3561.699,123.65017,-661.55145,12109.0830078125
502,-68231.71,-59737.86,-92677.766,-4164.9536,-1077.677,-276.8552,30547.517578125
503,-16827.07,-3870.9834,-35757.855,5286.4795,1091.8157,-214.37042,29309.697265625
504,5089.8364,10773.573,17213.916,703.9542,236.22168,1865.4794,11067.1669921875
505,27751.172,7580.73,-16943.406,2073.822,4982.8926,717.38983,39898.32421875
506,179059.9,183543.42,182320.78,-2215.3152,-4977.4604,-2639.1274,11227.5654296875
507,-1498.6208,2692.6692,2404.9238,746.5694,2841.8267,-4267.808,9848.1611328125
508,-10272.548,-15600.499,-17730.844,2327.5833,-154.6137,-1025.979,7984.8828125
509,-14378.085,-9622.869,-23946.564,2224.6448,-2087.505,-1760.2842,14031.537109375
510,3659.3037,-8572.921,-17218.121,5679.595,-1516.3685,-1580.8317,21006.794921875
511,-23351.469,-24555.04,-46094.566,326.34442,-300.30005,-621.11914,22205.21484375
512,173183.55,147463.83,192162.7,252.98009,-2831.454,-961.0809,39202.87109375
513,-7957.5967,-6268.9497,-10651.3955,-1311.4954,525.8951,1988.1259,5701.28466796875
514,17109.078,19234.51,-12809.224,-654.8887,-5493.0757,2340.1824,32732.998046875
515,-42849.297,-9497.731,-1725.6934,955.7615,-3349.2883,-4990.653,39281.734375
516,76.5437,2440.7366,-13258.407,4644.471,-790.6766,-392.64523,16792.5
517,72014.75,78090.84,111240.78,2028.43,720.3718,-155.91457,36759.1171875
518,-1022.6543,37959.402,17314.312,-10611.798,-2386.937,5089.7607,39669.54296875
519,-36489.043,-79689.22,-52512.836,208.77318,762.89294,-5975.111,39239.890625
520,-283.57617,9813.257,5088.2026,-2428.607,-163.10088,-3091.5676,11091.0625
521,-6902.8174,-21344.396,-24723.361,7563.4575,1542.1984,-50.221706,21155.01171875
522,24644.656,18465.605,43050.04,-3032.2253,1789.6099,-1248.8336,23076.75390625
523,5901.4497,10788.69,-11228.867,1095.5863,-2052.52,3638.997,21378.0078125
524,-34661.402,-35035.215,-53418.836,8488.716,945.8659,379.68225,23754.171875
525,-28512.867,-24010.43,-46212.88,2761.3296,-1544.5385,1178.7086,21153.13671875
526,41504.98,53860.78,63300.71,18883.52,-1946.1292,591.98804,37955.125
527,4326.2246,4850.3193,3954.841,2162.3647,-3581.206,-1361.0029,7659.42578125
528,38463.594,40272.55,72231.2,10000.872,275.6903,1601.8131,37288.30078125
529,-11245.358,-1911.4836,-4034.983,4172.72,-3087.8127,-33.156883,12355.2353515625
530,89579.73,122564.836,101092.06,13967.217,-2006.604,-516.29614,37933.41796875
531,17381.86,-2510.2578,11780.0205,-2453.2925,6064.6973,-2739.1118,21599.775390625
532,-3380.2458,-10662.607,-5039.83,3270.0435,2157.5872,814.0587,9577.8125
533,-1463.2275,3518.0188,7995.8867,-1658.6477,1613.6672,2368.5703,10003.2470703125
534,-586.8208,-2597.2468,-4093.3481,1758.2648,-124.086365,999.1225,4647.9404296875
535,2438.2886,-2310.3604,11666.811,55.742573,-1661.7465,-724.55493,12704.595703125
536,52421.21,20633.709,39980.883,1900.4381,-4136.4727,-4538.8545,29895.31640625
537,-16753.697,-5222.972,-2940.0474,-1779.5975,-642.8018,600.622,13278.3984375
538,2819.302,771.40356,-112.21741,-3619.9307,487.84024,-3302.106,8917.4892578125
539,-13918.807,-13555.479,-22877.408,737.50397,-3863.573,-2917.4106,12473.59765625
540,34316.656,36606.13,51566.69,20045.588,118.025085,2110.0476,38499.1875
541,-5779.2188,798.62256,-19506.979,4404.673,-3352.6511,-1220.7523,20455.154296875
542,3225.097,5924.1245,-1123.5745,-4090.7034,-54.39471,-1073.735,9570.8955078125
543,13997.674,10241.813,21904.266,-655.87415,-953.05634,2949.6528,11680.4775390625
544,-7091.7197,-13006.656,-32869.414,2453.5913,-2135.2485,-278.75674,24061.876953125
545,38602.695,34548.22,59126.895,-3232.3643,-1736.3524,1287.1414,23796.1328125
546,11205.541,4399.217,5369.9424,-720.2668,-986.9802,774.8053,6851.349609375
547,-25221.82,-25385.738,-61699.96,-950.9256,-1198.106,1288.2029,36560.90625
548,12732.281,10239.947,19837.893,-18.2471,271.9813,30.222347,8639.2509765625
549,89222.586,89457.6,127810.625,858.4447,-1741.9445,528.33344,38628.67578125
550,22321.492,-1562.1104,23375.398,6795.8037,4619.4697,-5054.397,29595.884765625
551,3495.2422,2285.2632,7005.749,3928.69,1002.53204,391.1583,8234.888671875
552,-14029.189,-16765.248,-15618.652,2653.2231,2447.5957,-826.83453,6841.45166015625
553,-89697.62,-82244.375,-122757.69,-1547.063,-1828.4569,-380.5731,37584.1484375
554,-37414.78,-38924.39,-67048.31,-2244.5938,1761.2617,-444.50894,29337.748046875
555,1691.748,1346.7888,9273.964,-629.4464,-419.06836,-981.50116,8051.7109375
556,-98123.32,-88182.01,-126482.64,-7678.4927,-457.89636,1035.964,36955.8671875
557,11584.891,11514.924,17961.229,1175.8406,3696.9885,458.17352,9321.451171875
558,15856.932,-2807.392,3096.088,3014.2354,-5862.4956,-3731.8489,21098.984375
559,10496.749,4131.057,13655.039,1783.4211,-268.21948,-1748.9167,9462.3076171875
560,49477.13,25858.578,32167.605,-18104.838,-257.38806,2174.1414,38031.09765625
561,-51622.164,-63728.58,-93139.77,-174.9419,197.6643,1173.7056,37040.37890625
562,-4306.704,-10129.355,-9355.169,1766.6445,-1048.0143,417.30255,6570.79443359375
563,26031.977,23487.906,45982.457,1365.3364,807.8276,168.40685,21514.75390625
564,-10192.341,-3035.1602,-28732.018,-1673.9784,-3409.6482,6181.5146,26183.080078125
565,-9075.735,-9555.162,-19223.914,-1301.8712,-1060.1597,-410.95822,10359.2060546875
566,-10200.054,-12598.181,-18434.463,873.5918,367.87167,624.6083,7594.42138671875
567,-97797.8,-110064.66,-139970.94,659.7962,286.1791,-302.10233,37597.11328125
568,11710.781,20859.193,51826.742,3182.5051,-870.95715,1699.8801,36977.234375
569,-1424.1719,1695.1985,-4462.2104,-1502.6224,-1503.5594,429.9828,6522.82666015625
570,84603.414,95275.805,104989.9,-1676.8219,-1918.6294,-430.35175,18220.052734375
571,18546.559,21985.984,12223.229,1952.46,283.19318,-1351.1393,9524.515625
572,209730.27,209626.75,243836.33,-6339.403,-6270.8223,325.15546,37491.54296875
573,-574720.75,-563677.56,-605558.44,-2505.8135,-2928.871,-2195.0684,38373.015625
574,22055.223,14311.305,10315.51,7062.872,2445.4797,-1780.0712,16851.626953125
575,-208864.73,-186609.2,-186753.83,7461.455,-2279.0737,-13284.259,34700.546875
576,16385.02,24237.447,763.35254,-16.778437,-864.6064,-1811.4791,20986.970703125
577,-22337.412,-8063.4043,-35680.305,1261.6637,-382.019,-483.7794,24044.791015625
