Element Label,S11,S22,S33,S12,S13,S23,Mises
1,1927.6101,1167.4938,419.3694,-288.42294,406.2632,232.13235,1616.322265625
2,662.158,1224.3583,-170.21982,1661.5485,220.4266,227.85236,3171.84936523438
3,211.78296,2492.5847,11.796811,475.9029,100.986496,460.68634,2654.22705078125
4,-177.55959,1635.1051,-906.7866,399.8275,83.90556,89.45077,2379.93286132813
5,785.2047,3635.0405,2368.8965,-240.34845,343.56186,-609.64514,2785.46044921875
6,765.2102,690.4446,-1209.0223,-617.04956,-603.9479,16.120337,2448.03344726563
7,2501.958,917.89453,1267.6338,879.4982,422.01025,-5.6642084,2220.92114257813
8,-1839.7759,644.3819,-1222.2461,2063.196,-405.2765,-120.061226,4280.73193359375
9,1621.1769,3588.0105,2287.3423,285.7543,754.5314,-68.07074,2229.07934570313
10,-2764.0637,538.3178,-3828.096,986.8234,32.21682,925.7709,4587.7509765625
11,2154.388,599.30896,-44.601128,-659.1735,252.90489,78.699104,2312.62060546875
12,1029.4341,499.61813,-168.92702,915.67804,-692.6822,1.1722465,2244.25756835938
13,2718.8,206.90253,142.73856,1041.2717,398.1016,-235.66415,3220.20629882813
14,-2531.7236,-963.24164,-1148.9509,3508.9321,326.8924,98.43792,6284.1708984375
15,-3048.0864,3930.1638,3683.6406,-1286.8296,-380.71902,-1104.6847,7489.99755859375
16,4044.0442,411.31284,1823.2789,283.12204,403.76083,-842.7972,3594.65649414063
17,2479.7322,711.60004,-639.44574,183.96783,-19.770283,-1072.9503,3301.03247070313
18,-175.30154,112.655815,-30.182377,38.9723,-231.4153,-1476.544,2601.52880859375
19,-4857.787,4208.632,3063.638,-7933.7207,-1246.2761,764.02313,16382.080078125
20,253.39093,2626.0933,-7257.124,-2703.1992,2758.3071,-2671.3254,12083.556640625
21,949.5939,1705.5657,1211.7201,892.13824,-564.36456,-15.802631,1945.77673339844
22,647.06604,-469.97812,47.309452,-444.7498,-1705.7249,-840.6226,3518.43432617188
23,1653.2395,-3287.846,7011.2026,3743.3562,-1104.4285,1123.8993,11361.4755859375
24,703.0129,-428.49963,-3191.6235,469.5166,-507.93088,493.11197,3769.1484375
25,-1460.5538,2315.915,-7058.24,-50.553455,1169.7465,1363.6016,8742.203125
26,4867.4233,2861.7622,47.566193,-99.99301,-365.131,431.12234,4309.7861328125
27,1292.673,3193.8171,8297.326,-170.31683,-589.39575,-2052.3208,7288.88916015625
28,948.076,-313.93082,-4954.469,-35.7114,68.42598,2096.482,6495.169921875
29,498.26273,1600.4598,234.50252,-104.30655,-245.83408,261.75787,1412.30944824219
30,1476.1869,2230.7654,-1939.42,-1319.6346,8.61925,547.0371,4575.52001953125
31,927.042,2875.6052,2407.4993,-260.15076,613.64777,971.5018,2695.93408203125
32,124.92702,2545.3613,207.37563,492.5712,-406.62802,397.58554,2713.64697265625
33,492.35614,2472.0159,170.87427,-535.7106,212.24959,124.951584,2387.8388671875
34,623.641,3004.662,-1924.7345,636.8784,-968.02045,28.422096,4718.2275390625
35,1009.5739,1710.4503,-1014.3387,142.96016,-264.5681,-64.17154,2507.9111328125
36,645.9927,1887.9546,633.8074,1108.1907,-127.33909,41.458977,2301.26342773438
37,896.8668,2604.6416,109.2812,103.92569,1121.0992,-266.8146,2983.01293945313
38,1037.3684,1804.8973,-109.208916,364.94064,-111.941895,184.07635,1822.78955078125
39,877.8067,740.3419,-75.28684,434.49026,363.76996,-32.380917,1327.68359375
40,449.64584,1476.5687,-814.6889,-371.95847,1193.7185,-363.69022,3006.3681640625
41,1035.4774,491.74005,119.450676,-261.719,909.81305,549.2717,2056.82885742188
42,985.7369,-660.19226,1228.9341,-629.83905,-585.34656,-207.92493,2348.65795898438
43,1334.3448,874.1489,-424.61896,-958.6047,-894.00287,1135.3367,3393.77758789063
44,4673.7354,-6317.947,-4763.179,-7809.734,-19.366997,-4285.731,18553.28125
45,-4193.0186,4696.3345,3293.6682,-4123.5425,2195.0696,-846.7238,11667.728515625
46,-16853.16,-6678.951,-4232.507,-2731.7197,-120.03058,2956.8313,13529.556640625
47,-15629.503,-7397.208,-7518.9233,-738.142,2358.343,1568.1866,9616.7060546875
48,446.14285,2367.5767,-2960.9548,-546.2227,800.7097,-455.5425,5028.6953125
49,-2411.2197,-55.914646,-2719.9177,3832.923,733.2046,198.45299,7223.2021484375
50,622.70996,1241.8287,5588.476,-3399.0483,-2085.9453,1612.9701,8802.6611328125
51,3719.2795,3861.206,-1226.9885,493.4951,1901.9497,-244.727,6078.67138671875
52,4309.721,3727.9126,9674.435,-2995.698,-1351.6465,-156.37033,8044.66943359375
53,735.47144,3216.864,-4231.9814,-1996.4143,-1454.4011,-1658.484,8349.470703125
54,404.48206,2666.5896,2484.8757,-726.2466,972.2411,345.77005,3084.77319335938
55,667.6056,1584.4714,-3096.8643,-1699.5294,1462.5161,-618.10236,5889.9580078125
56,-354.37808,1116.2043,-3086.9763,-287.92343,-572.4723,-1318.961,4483.19775390625
57,1002.90045,4309.574,6793.224,-1471.6127,440.04138,649.6357,5801.65087890625
58,4632.102,1872.3623,7694.5835,-3327.5737,441.41705,-747.60156,7805.5185546875
59,-2336.2107,858.67456,-6211.981,-4.417314,-3759.0618,-2827.1025,10197.0947265625
60,837.4024,-15.603951,-1999.0563,1198.5914,-509.79892,882.81354,3712.3076171875
61,3015.5566,1193.6833,1028.0488,668.8065,-131.58078,541.9636,2433.8125
62,1249.1378,1187.529,298.36267,190.71384,1094.0427,618.6561,2386.90234375
63,2162.5935,1646.6926,-375.54184,-151.40784,924.1183,-258.2805,2868.75268554688
64,1183.7998,816.1973,-268.43027,411.77615,-499.02252,636.59686,2044.93920898438
65,126.374466,1227.7772,-442.94342,-883.16455,-998.3326,-793.5253,3063.208984375
66,766.39667,263.3242,116.7383,38.036995,-429.40332,-1061.3175,2070.02392578125
67,2181.05,1223.8313,993.1678,73.18338,1013.77203,-596.31226,2314.36865234375
68,1979.5101,957.47754,-500.79504,708.6888,597.8085,-831.24164,3051.7607421875
69,3740.4814,2435.239,-366.55362,961.76965,459.21863,310.45404,4111.87451171875
70,4148.171,587.47675,-544.8176,217.16954,1003.79144,765.3136,4786.833984375
71,919.6729,687.5212,3.1305149,-366.61432,1477.7266,-460.0922,2875.84204101563
72,751.71014,473.22537,1984.9962,-616.7462,-1166.5038,852.8824,3057.37573242188
73,3289.3699,-5937.8384,-8262.847,3956.0767,4677.926,-6809.562,19071.21875
74,10904.356,2799.208,-723.50934,352.40884,-1564.7858,-3248.356,12084.2373046875
75,2850.408,6682.484,10547.492,-1147.6282,-3045.4229,6908.1353,14811.3486328125
76,-8813.295,6276.3657,3082.221,9540.702,13020.556,-1021.3438,31217.15625
77,9980.107,-3626.1423,-930.7621,-4173.7407,-3843.9617,2654.2446,16536.16015625
78,-4389.6416,-702.1004,-9811.579,9555.798,-250.60756,1795.5698,18622.283203125
79,2988.9702,-1462.7583,10553.629,1534.035,-3023.2102,-7935.8403,18279.212890625
80,-13554.307,-9325.939,-12961.762,513.76434,6123.7676,3917.7397,13231.1826171875
81,-22105.076,-15200.49,3734.2559,2429.1028,-461.65494,-1930.35,23800.298828125
82,-3950.234,-2082.9675,127.136185,108.86368,-2283.6108,3431.7617,7969.26904296875
83,222.33678,1678.6638,-559.18335,-182.48943,113.032196,-117.81091,2012.38305664063
84,2820.4666,1611.149,528.34863,-381.20786,30.863747,-193.72485,2120.32055664063
85,2285.4434,1707.1448,2953.0383,-748.58093,445.8467,453.64352,2015.19653320313
86,1660.256,277.80215,-2406.2158,256.03223,-325.07477,-978.55334,4026.41796875
87,4071.5203,1097.4922,1006.9781,-1211.7478,560.6159,-855.6698,4082.47583007813
88,3682.667,1101.3159,1226.6583,-888.58685,-942.69696,-670.09186,3568.94848632813
89,3693.7166,1208.5471,-2100.778,-364.76443,-719.56305,-182.6796,5234.93310546875
90,2647.082,904.41797,59.519924,-413.51913,173.50562,-416.7339,2519.4072265625
91,3383.62,131.90125,564.093,-789.0441,-78.067604,-228.62238,3376.08642578125
92,1425.12,-327.17407,-1240.6791,-312.573,-507.12448,112.61281,2570.68701171875
93,2276.98,2140.931,-728.72894,317.22208,88.88533,199.0485,3014.6845703125
94,2683.7444,530.7563,799.15314,69.3794,217.55997,602.16223,2318.140625
95,2217.2002,1003.1522,529.35236,267.74356,-653.0653,-214.19646,1976.30908203125
96,1925.9983,1201.1608,338.84384,460.9557,-414.53995,1274.8596,2814.74536132813
97,1231.0941,3502.305,863.73834,916.1473,-1282.0621,-1900.2365,4940.5888671875
98,707.38855,1189.4794,823.24255,253.63184,1292.2069,-356.54675,2402.861328125
99,649.14136,2072.9224,-516.1841,-187.13524,25.98163,251.6897,2311.15356445313
100,923.6549,1939.8503,458.0355,129.38063,-809.621,-771.0582,2350.08154296875
101,2307.6768,643.6548,-1949.7285,126.37897,-219.98917,-151.54489,3751.27319335938
102,-2388.77,-133.83556,-794.47107,619.77704,682.64606,412.1275,2662.970703125
103,-14172.7295,-4072.7766,-10253.184,-5211.533,-4122.336,5748.601,17589.345703125
104,-1606.1108,2456.3276,-4424.8354,-1350.7477,-1126.5295,-25.95381,6721.77734375
105,1768.7896,2016.059,490.2302,-2001.7363,-508.0038,-1253.6272,4418.34765625
106,2167.9983,2317.113,8590.873,315.1756,-934.17786,-495.47406,6631.01513671875
107,2134.3677,1857.1586,883.9159,-681.4755,823.6803,333.32782,2248.49609375
108,1305.9202,2151.6252,876.28625,-4.604636,248.95496,-776.6389,1805.1728515625
109,1027.6448,1408.8064,-2223.855,-250.19751,684.6294,1037.8339,4096.599609375
110,725.4486,3042.424,854.875,-406.45087,-94.42664,-118.86187,2376.97045898438
111,1236.4423,1689.3843,189.02455,477.11176,-529.45044,529.2204,2034.88146972656
112,1189.8602,1405.6897,101.51497,-364.5622,-732.7757,388.35803,1981.92797851563
113,-9.132819,355.7411,-227.99832,-602.15344,-603.69696,903.8248,2211.94653320313
114,327.2251,1584.825,130.66885,-867.5912,-359.96524,1354.8158,3165.56884765625
115,-995.54346,1018.2279,-157.43353,-38.366367,-86.73449,-1854.8291,3663.072265625
116,1324.341,370.29388,-179.03777,-718.38055,8.616734,65.22137,1815.83459472656
117,1839.7144,1516.1781,-896.64667,203.07896,274.48315,-162.79903,2671.3837890625
118,692.5308,338.657,-1426.4363,-172.46185,1767.3403,-226.52972,3671.3828125
119,3543.111,391.87854,44.895958,-250.512,582.54803,-287.12457,3549.33251953125
120,3143.5889,-82.71552,5513.541,1962.2463,2312.1536,1649.7655,7708.85693359375
121,1169.6201,-2056.277,5227.8823,-88.76391,-6439.3657,-1028.4276,12944.5107421875
122,-8766.823,-16684.004,-22726.172,8227.815,8400.202,-10266.742,29631.49609375
123,-6740.63,281.4187,-2654.3682,-5188.7217,1008.08716,1235.5192,11212.025390625
124,1396.4446,-529.9697,-1910.6813,-418.81113,-541.904,-664.8974,3318.2392578125
125,1207.573,3015.9966,-1202.3705,1129.8148,833.44073,-41.522884,4399.421875
126,-137.86691,2937.1458,409.48764,472.10385,-935.1724,-1049.391,3829.89965820313
127,-546.5151,-2152.4558,116.97963,513.3438,-131.01079,959.80133,2773.17797851563
128,-2537.332,683.12994,-9246.177,75.83397,598.2111,-710.1334,8921.2802734375
129,171.12422,1240.99,-7191.7827,213.62102,-2262.561,1706.0765,9352.0517578125
130,6446.0557,3248.0525,11834.495,-182.73576,1244.1312,-1495.059,8242.822265625
131,1552.2654,577.2595,-5432.646,-100.23913,-1593.1118,-978.4598,7310.64990234375
132,1582.094,1106.9537,-117.95001,480.31143,-113.407616,-181.92625,1771.47424316406
133,3369.741,783.79694,4623.5825,120.47868,142.18501,-727.10297,3632.0546875
134,2585.1045,1339.4393,-1291.9805,-698.2088,-500.2677,-432.27692,3811.53515625
135,3345.3862,1080.5585,-932.12573,-311.79492,376.3828,603.1049,3942.9140625
136,3243.1482,1393.7474,1127.7202,-569.0434,-814.438,-59.589836,2637.24389648438
137,-6366.9453,578.7381,-2581.423,777.08813,-3192.4043,-693.73096,8373.1337890625
138,3474.9558,658.57916,1533.9174,-489.9777,-1319.5645,194.76633,3505.80932617188
139,-3564.474,5888.087,6169.603,-7377.2456,-4196.0566,3840.964,18773.443359375
140,-3429.3208,6557.293,8243.185,6377.701,3827.407,-844.19635,16956.455078125
141,-6217.9146,-4666.6284,-805.4321,1979.4573,-2623.3823,1833.9547,8111.50244140625
142,-4684.2373,-1246.0756,17064.836,6090.196,-3753.3613,5274.6406,25437.5
143,67.017746,-7173.844,-14420.205,10340.962,69.84242,7002.9976,25007.134765625
144,4571.1978,-3870.8186,3737.7634,512.1936,1001.43604,-159.97736,8294.5048828125
145,2328.9187,1815.1317,623.5554,-464.3617,563.36084,-181.29115,1998.41650390625
146,1690.9211,1698.4177,1637.4891,-1382.5082,1564.2601,-323.52762,3659.51318359375
147,2220.6213,784.1601,52.356182,-240.4863,-248.38513,640.2915,2288.814453125
148,2069.7703,1161.157,1277.0096,-153.43594,1259.2928,96.2312,2364.2333984375
149,2181.4705,572.4362,1443.8202,-617.7043,671.3444,326.9126,2182.57104492188
150,2414.0159,432.23294,1330.7513,-82.31076,-849.0943,638.2428,2521.78515625
151,835.1636,553.43463,-1941.9401,-104.012024,-186.00705,-150.23256,2685.74877929688
152,-1878.0621,-2096.834,-10366.48,1757.095,-838.05347,-387.76752,9058.935546875
153,5429.783,4913.884,4117.774,-16.537575,1711.9476,1211.1251,3808.443359375
154,-2688.5874,93.16263,-6571.56,-238.5774,-2463.6794,-798.7739,7342.41748046875
155,1754.1211,2283.9683,-1820.4199,-1897.4965,2847.428,2857.2964,8635.3623046875
156,2005.3018,1823.2593,2268.2466,1368.2288,343.73178,392.67706,2565.80126953125
157,465.6798,3529.485,810.19543,1106.9539,-1127.7734,-82.05138,3995.23754882813
158,-54.817883,3639.5413,-612.92554,504.55942,-936.92236,-384.95764,4456.8388671875
159,708.00824,2531.551,1270.8402,623.7796,-768.284,-102.13702,2363.28588867188
160,972.5969,2002.4324,-719.6099,157.69489,1712.6404,243.58568,3836.513671875
161,1003.2272,1501.2766,249.56897,-594.1616,277.4438,-445.94424,1754.42895507813
162,4025.9507,981.6426,1742.7054,-558.41315,688.77277,-559.75464,3290.71337890625
163,4694.6406,1056.619,576.916,6.506209,58.880424,75.6033,3903.60864257813
164,1642.4393,144.04483,529.0741,199.2014,203.38684,-668.6083,1844.115234375
165,2519.9883,1354.8525,84.518456,-357.01352,-261.8358,79.36181,2249.07690429688
166,1381.023,2335.1753,-3079.7856,-707.1851,1156.083,-772.3455,5689.0224609375
167,-252.78342,2934.9329,-4579.504,-983.14886,1019.54865,-456.5626,7022.6728515625
168,1600.8638,2763.818,4289.1543,-222.36127,795.1204,1915.9766,4302.4287109375
169,-1447.195,2597.331,-625.8859,-1714.7793,-61.681362,-766.2705,4930.037109375
170,159.74707,517.53625,-826.2556,245.73279,201.05539,1211.2495,2481.2890625
171,-654.14813,1431.7407,-348.15417,-377.61984,-649.78766,429.45508,2460.49853515625
172,555.66705,2020.8038,126.11549,-540.9014,-1827.9138,-852.0746,4005.01123046875
173,3710.838,6531.6094,11131.367,-1997.0145,-601.2328,4291.8843,10507.0859375
174,1392.0054,1327.1635,358.57822,112.01718,46.657593,-542.31934,1389.84594726563
175,777.9649,1750.5652,1279.7123,-13.147501,-117.58493,-765.5693,1584.29418945313
176,1801.8236,1170.7723,-1535.1375,-900.4731,-844.69543,87.388824,3744.828125
177,-1806.9701,2329.926,-1255.2947,-1497.5276,-874.77185,-257.8241,4935.47314453125
178,2604.559,898.4986,6607.015,-2035.4753,4486.502,-808.9694,10026.8447265625
179,4390.34,2015.1587,3636.253,-1410.21,980.1489,-489.71332,3739.873046875
180,3891.6912,718.1393,2416.9524,-140.97198,-264.63568,-985.2828,3278.44287109375
181,2511.048,345.19427,-1495.0673,767.18524,-204.0132,-1020.7227,4132.72705078125
182,693.26526,1131.4014,-40.28841,-582.1032,-319.34885,-758.7778,2025.13586425781
183,1307.4683,1430.9644,847.7178,-834.1586,-756.5901,2103.7058,4167.119140625
184,-6313.6177,-1748.953,2002.1364,-1830.3414,2381.0994,1436.2786,9234.5732421875
185,-3715.0515,-3105.3855,-158.69629,-349.6815,425.59796,1116.2794,3936.9580078125
186,1195.9695,-1195.7147,104.096954,909.7265,23.589159,-221.16917,2632.8974609375
187,1085.1663,-1104.5472,-621.61816,471.07846,359.229,153.19615,2256.96215820313
188,386.5212,-2261.7478,615.5765,-562.32745,465.2578,-222.05112,3068.93237304688
189,1863.241,-5869.9995,-10622.561,2648.4246,526.9022,871.4469,11970.6357421875
190,2441.9993,-263.33295,-159.47049,-1523.6034,560.3354,158.55602,3876.8642578125
191,-27.23009,-2022.8872,-1444.8004,1247.2361,847.8031,334.02606,3212.63012695313
192,565.0485,-940.6199,-4969.594,1173.0411,-153.5888,-790.2124,5535.17138671875
193,2273.1316,-1240.0161,-419.95663,-698.4034,151.17169,229.41776,3438.52758789063
194,1744.7537,-2152.56,-48.864887,-156.88344,339.33456,-583.4724,3585.58618164063
195,983.0177,104.09772,-50.373795,-112.67073,1571.0868,-475.67612,3008.97973632813
196,2924.6375,1216.7069,-1477.7224,-652.4507,574.5654,-266.91977,4154.5234375
197,191.11096,-686.72894,-252.03705,-182.1946,-644.79205,286.845,1473.65710449219
198,2174.303,347.5294,-266.8328,23.788044,-505.16016,-982.8912,2915.87475585938
199,-370.65176,-2232.0173,-850.89014,1018.4584,-314.43817,321.93277,2553.57006835938
200,371.54117,-584.5318,-327.19635,-114.23387,-831.4211,760.09204,2140.19067382813
201,0.015188309,-781.23395,-1710.8588,499.2531,21.497139,316.89935,1803.12060546875
202,1332.5093,-1923.0745,990.34973,682.3909,370.65213,817.63116,3662.875
203,544.31506,-1023.92957,706.7427,-660.82733,36.692356,202.26396,2043.8564453125
204,726.9164,-1012.2441,-757.6728,46.11381,-712.738,-857.2077,2526.16845703125
205,214.77399,-1479.275,-636.6173,-480.31622,-606.9389,-1075.5968,2724.02856445313
206,971.1063,-843.59717,902.2947,-793.35364,850.7808,528.757,2841.03442382813
207,581.5064,-2147.281,123.15948,-1081.3304,-484.95862,55.259594,3260.087890625
208,789.4796,-950.0267,-143.36433,-788.196,-398.62372,-943.8215,2699.30541992188
209,961.34576,-2729.5137,-384.10788,-1347.3396,-649.252,301.633,4177.357421875
210,801.35675,-2291.6587,251.75182,-1232.7867,519.928,7.2955294,3679.57836914063
211,-404.4535,-2132.9873,194.58105,-3160.362,-257.76242,1574.7769,6479.57373046875
212,-3813.8103,-595.90936,238.70206,-1978.4635,1151.4285,-1088.2424,5745.4580078125
213,-1785.7708,460.0188,-1503.7786,-1051.6364,2120.121,-1567.8944,5354.1787109375
214,-1821.8503,2061.6013,641.3972,119.450806,82.76482,2194.5696,5108.29150390625
215,-2008.1205,1177.1836,-472.35938,-166.96257,-119.83545,-1045.7693,3319.708984375
216,-1132.6843,1204.3473,677.6952,-189.33244,597.04034,358.13083,2463.72924804688
217,-1350.7295,1137.5924,-221.28769,-456.9755,10.665039,-141.99384,2311.76928710938
218,827.2208,651.93945,-2337.0547,-138.12427,883.6873,-678.633,3642.84204101563
219,-769.7191,1400.1914,-2303.2275,104.66684,1239.0079,-602.947,4014.55590820313
220,99.23908,899.4558,-668.5136,-345.8981,506.58215,262.76843,1783.28747558594
221,682.91016,1122.7601,1522.7651,-55.03836,883.7599,363.2904,1810.39672851563
222,624.6025,624.4253,-547.7783,-394.187,-22.424198,333.71475,1475.13537597656
223,838.3046,1535.5891,-223.94814,-94.46399,756.2261,290.95306,2086.05932617188
224,1387.0309,309.86426,-2282.8806,-581.35944,-1197.0234,-681.44214,4169.05908203125
225,867.296,295.01343,-262.83957,-351.12418,-460.73303,-997.94763,2225.38647460938
226,2962.9976,-112.5054,1086.238,423.46356,-433.41388,-1315.0653,3674.05249023438
227,989.0262,866.3616,-139.62799,-859.49805,-1058.8794,-746.7778,2898.8583984375
228,216.32251,874.23584,343.51486,-56.33633,690.4677,-97.239586,1354.05725097656
229,607.7791,1065.0286,-68.25578,328.80725,-120.8218,-262.9911,1245.32971191406
230,363.45618,930.35815,931.26636,1347.3867,322.22745,504.70782,2616.09008789063
231,382.83246,-214.88542,141.47089,1581.6802,441.06195,790.6808,3199.30126953125
232,1314.2229,-1075.2399,272.61905,-443.44263,1307.8566,-95.96686,3170.9013671875
233,1601.2682,311.03146,741.29913,397.8852,647.77637,-343.22714,1838.99133300781
234,660.94086,-1142.8986,187.71692,-156.1412,69.49954,-403.9572,1789.22692871094
235,351.009,-783.9362,183.8508,308.1341,626.56445,596.8658,1912.50158691406
236,195.92824,428.431,41.290176,-464.2624,-1242.3583,620.45966,2558.47924804688
237,1208.0302,1228.5392,1328.9333,472.73636,634.75433,1837.3237,3466.8447265625
238,1043.4536,135.47224,403.15555,666.0157,718.1659,1365.772,3021.10083007813
239,1043.5338,-654.39905,-194.99419,-16.706722,410.78598,-244.35332,1732.10522460938
240,3781.8545,-566.0982,-551.7453,-1211.7814,908.9229,-659.50977,5199.1357421875
241,1485.9965,-323.71588,269.53278,-980.12506,431.33572,954.4961,2954.09350585938
242,2723.8613,305.30753,-955.8511,-487.76593,1160.7452,287.4314,3936.20239257813
243,1237.9429,1403.3798,11.837122,490.12918,815.6913,-905.9575,2629.17504882813
244,853.16956,38.742973,-702.39026,-265.60962,-807.92456,-798.8951,2429.14379882813
245,5919.977,2582.1033,-885.32715,-854.76746,41.25445,-1595.4327,6676.19091796875
246,2009.6454,-2873.8457,-10772.191,550.69293,-148.81096,-3744.1702,12955.1728515625
247,-4638.3154,-7551.319,-607.2125,1294.2291,-2083.089,-625.2992,7462.83203125
248,8163.149,2906.2285,7541.7065,-2646.6758,211.8899,-192.28746,6783.42236328125
249,-13073.447,-21899.947,-5501.854,8215.681,-1703.7009,-2669.2234,20848.046875
250,-914.81335,-7262.317,28918.293,1380.6272,-9422.087,-325.97263,37309.98828125
251,-14042.874,-30720.824,-6248.488,-2047.8575,15540.324,4815.2383,35714.796875
252,-19065.465,-22902.502,-11215.352,-11327.318,6300.8364,3050.3022,25266.724609375
253,-13466.956,-23398.553,-7106.8696,1101.5503,-3066.7466,-3298.8977,16332.677734375
254,-13377.921,-5819.312,-4647.0005,6729.603,-2242.5042,1547.5979,15016.732421875
255,4218.5195,-15549.315,1999.8373,-7829.3813,-385.30728,-581.85187,23177.359375
256,3144.7397,-1712.6758,620.05725,-889.9915,-986.4698,4255.6265,8793.8486328125
257,-3443.3582,3078.0298,927.36487,1540.0234,-531.88477,361.22342,6440.78466796875
258,2992.9558,-2347.9531,338.68597,4580.093,-767.5062,-2867.7244,10524.482421875
259,1621.9982,-487.457,-1256.1484,-3254.9954,-1164.4066,-75.58576,6521.6455078125
260,-4310.5327,-1650.777,-3874.6077,-656.27545,845.65643,-2314.5015,5060.94091796875
261,228.39397,-377.812,-2322.9165,-1164.7759,707.7896,365.26398,3362.03979492188
262,1454.9895,2021.1051,5276.486,-3612.078,457.64993,-574.296,7315.7373046875
263,2987.8813,1182.1539,1022.3623,-2062.471,454.32922,-19.383842,4117.82177734375
264,691.6016,2013.2413,781.8538,-367.93787,989.0261,-65.8041,2233.66040039063
265,458.2876,1718.7001,-1786.377,806.13275,822.5598,2308.1526,5423.8759765625
266,1188.448,2165.2832,4728.8843,-270.88943,-723.40894,722.4743,3658.75463867188
267,-594.0378,1749.0009,-212.6446,511.3909,-235.0888,22.482435,2386.1162109375
268,-989.48425,2112.6614,1754.72,34.261696,853.4576,367.91168,3351.98608398438
269,-2246.407,1215.121,978.21027,296.368,534.901,379.24713,3573.73364257813
270,-3577.9082,2150.3496,-4771.0317,-494.05435,-634.5095,747.4412,6684.83984375
271,-2476.1824,4374.4897,3246.9746,1977.6212,-134.33022,-932.5068,7407.736328125
272,-4915.483,-3674.9607,355.91138,-719.39685,-1359.1779,385.0544,5506.96826171875
273,-8845.116,-1169.9998,-1689.4958,1455.9462,-264.3393,47.130657,7859.11767578125
274,-3496.634,-519.5694,-4329.1763,1520.2413,158.27344,686.30084,4522.84765625
275,1057.3444,-4631.0474,-3941.9177,999.80176,569.852,623.3103,5835.341796875
276,656.0222,-1325.5966,-321.86926,-644.78375,-168.36719,-202.78642,2097.837890625
277,-1133.287,922.69696,-3305.7593,616.94867,-288.33237,-1467.6866,4611.6015625
278,-2950.4329,1941.3698,-38.62058,526.3564,-1578.9137,-466.67194,5208.43359375
279,596.8365,-1277.7356,101.114456,-57.509014,-502.98718,-368.3934,2001.63562011719
280,392.6761,-1339.6525,-308.36957,-48.609394,652.5755,1401.9316,3075.52856445313
281,2102.561,-1426.8649,-5054.513,-5944.393,145.77443,-580.339,12062.4111328125
282,-2168.829,-1236.22,593.0486,-1216.9264,-346.63562,369.94815,3337.0283203125
283,701.4336,1000.91394,240.5291,-129.30331,183.3615,94.74196,786.195739746094
284,448.21188,236.24535,473.15585,456.87888,470.71387,-442.6296,1389.07592773438
285,501.4034,909.51373,3262.4744,924.1237,1278.1252,125.08538,3764.7060546875
286,-2220.0857,-1199.4835,-9157.903,-550.07,3220.033,-80.16179,9396.1982421875
287,996.40515,-2850.5286,-1454.3274,-1572.6078,-390.07007,9.117657,4387.84521484375
288,-1159.6774,959.7046,2004.3452,1145.2665,376.70914,-262.709,3516.3515625
289,1575.6079,-1334.646,-189.64166,419.359,-581.2195,713.63043,3084.99584960938
290,-1583.4601,-1887.8744,-2287.64,167.76102,142.43806,239.90785,831.949096679688
291,2680.9307,9.7435055,912.6709,-513.05145,306.40207,-589.697,2766.43627929688
292,-215.40392,-1497.6349,1367.7697,100.81075,56.212543,-905.67065,2946.3935546875
293,2019.2502,167.67526,326.55243,223.13206,996.6772,1033.2311,3080.83740234375
294,-2420.1477,578.88525,-1125.5934,-566.97864,-748.2967,-1902.5848,4504.59619140625
295,1810.8044,1285.9541,-3076.6323,546.18536,2973.4602,2467.8862,8202.9306640625
296,2125.6238,5094.123,4375.98,1147.3229,-309.29288,3302.207,6644.22021484375
297,-5596.174,492.5308,-67.365135,-1050.9437,13.077041,-3790.275,8966.0068359375
298,-2589.1216,1328.3167,607.6111,-807.97455,266.5207,6.0754447,3900.52563476563
299,187.09589,1377.692,451.7093,98.5884,399.20624,-821.48047,1924.63977050781
300,701.90137,1224.5411,813.9593,-252.62463,359.24518,-197.00487,960.315063476563
301,130.6522,127.13925,-196.2072,151.3051,-455.59937,288.76324,1023.35028076172
302,2599.1772,2277.0466,3301.8787,-1409.6423,-555.8512,-268.01187,2815.5986328125
303,-1023.3143,1345.113,-333.76816,-225.80992,-748.07513,196.9192,2529.80883789063
304,-2291.2925,2264.6858,-157.16423,-719.1471,942.72485,1193.0432,4906.74658203125
305,-6404.5044,6473.6914,2265.9778,6.9862723,-3111.4744,-1795.8845,12964.744140625
306,606.4378,-53.558876,49.57377,908.6431,-102.27541,17.24691,1699.21594238281
307,-487.6767,-3309.7666,-6153.0137,-3304.4473,27.188265,-267.39758,7552.9453125
308,3580.1577,356.29324,144.88943,570.3095,-1809.3174,-731.47473,4849.880859375
309,2016.3298,2621.9575,-1180.1871,-4245.4644,3785.2893,516.9921,10506.16015625
310,909.61816,-558.7964,3333.3186,-2024.1904,-496.0153,861.3271,5181.25
311,-1032.8965,1593.3939,-661.21423,-1504.6321,1383.2671,732.40674,4494.5185546875
312,4001.4436,-10015.1045,2.065813,6695.941,1841.696,2057.4688,17713.923828125
313,-486.84232,-466.2477,3491.5437,-579.6515,-324.02982,-1158.8126,4593.2080078125
314,2080.8616,-4659.978,-1037.2004,1829.0576,-1648.1759,-1524.6898,7700.82568359375
315,3324.4617,783.5831,7496.3447,971.1138,780.95264,1174.7992,6577.2509765625
316,3741.9773,-1311.6506,6424.3057,-372.0514,-1434.5447,-1122.7488,7527.2998046875
317,649.45233,-1635.5527,-152.4139,154.51346,-349.84756,421.5451,2236.93383789063
318,35.856087,-281.90582,885.04834,379.39688,802.3139,-262.10995,1913.37268066406
319,1216.777,-687.55304,1088.509,-208.51805,-231.55736,45.572525,1922.54711914063
320,838.09796,-785.7609,-268.96826,-1303.1655,-467.48315,1365.4425,3661.75317382813
321,1077.6763,-2223.948,1166.2863,-986.9605,-65.108505,127.25481,3766.2587890625
322,-924.37964,-2598.6504,268.2983,-461.88666,-926.9952,-106.9067,3078.11547851563
323,-6201.9985,-6405.1313,-744.3406,1324.516,1028.5564,-647.8107,6374.30078125
324,-4826.6826,558.258,-542.50995,-2178.9905,-64.9239,-941.96954,6418.7431640625
325,-1459.8466,1234.3995,705.072,-161.41998,338.40695,10.70179,2556.38061523438
326,-1078.6191,728.64294,-214.36133,-110.85864,651.2385,891.2066,2478.53759765625
327,1815.1135,1123.0826,293.52792,1008.8824,658.65485,603.2271,2681.0078125
328,460.64706,-966.1311,3.225947,-48.428757,469.17447,760.4061,1998.58801269531
329,1002.76196,-1199.8176,-369.56418,70.78034,269.1377,568.86835,2217.01293945313
330,381.05322,551.862,1829.9022,-727.8848,203.08487,332.54843,1981.36511230469
331,1481.8027,402.2879,2005.6149,324.48676,-192.90771,231.09093,1610.25415039063
332,6672.2563,3812.0444,-1553.3394,106.44456,-555.80115,-1071.2543,7531.12109375
333,-8574.457,-12776.886,-7951.3687,6479.432,-17134.646,-2905.6829,32445.85546875
334,-13787.956,-6296.749,23530.783,862.3511,558.1711,1770.534,34377.5234375
335,6423.089,-3402.0234,6726.4717,-2823.7498,336.7912,275.9766,11139.7978515625
336,1597.9213,4627.537,261.6372,1316.8223,2155.3435,1802.5486,6625.615234375
337,-686.7863,2719.9514,1250.0182,-1289.5088,-1233.1367,-879.16736,4541.81396484375
338,-2362.166,-319.54776,-977.91406,479.24023,-184.39117,-74.81066,2017.11389160156
339,1275.886,468.85638,-274.02847,-632.5415,-88.44047,-221.55954,1781.50549316406
340,1316.5159,-147.40773,-829.53516,45.060207,-77.194984,-1622.1459,3394.84790039063
341,-326.7298,-588.7076,194.70828,1203.4462,-161.5178,57.57425,2215.89526367188
342,569.43427,168.35698,-929.8148,1309.6816,-255.02928,-392.6093,2758.73876953125
343,801.15063,-1717.572,546.31213,-1498.7056,125.1002,-97.02971,3546.91259765625
344,603.7606,-1247.2668,-128.91718,119.57472,-281.2585,-222.332,1742.24584960938
345,-898.399,2247.8657,151.57018,-676.2132,515.8712,510.24136,3263.30151367188
346,-111.008224,112.042625,-75.58552,-115.03069,548.0274,-654.8303,1506.72229003906
347,961.20483,-351.56522,447.95538,845.6725,781.97174,-776.53595,2664.95043945313
348,-5387.817,-4914.887,-5041.8,2021.0503,-502.3905,498.9204,3733.31396484375
349,1644.6152,200.4059,1307.2456,-395.17676,-1284.6096,-186.74426,2690.00122070313
350,452.59988,-548.59326,-176.75505,412.69867,-445.47223,841.39215,1999.62219238281
351,-749.74023,-1089.8683,40.86681,740.2355,-147.43967,369.56174,1768.74047851563
352,1515.1024,133.4849,350.57724,-459.98837,-93.46852,-38.725235,1523.65795898438
353,-1320.0767,-1590.6857,381.2428,-165.2568,-821.1419,44.197754,2353.44873046875
354,974.2358,-1094.2775,-565.3973,-488.09137,-36.609848,231.72072,2084.29125976563
355,-643.20215,152.12473,37.499554,-1189.6133,30.134882,188.57018,2215.72998046875
356,-1002.17566,1256.8171,-208.10071,539.7581,224.29582,-51.831333,2229.9765625
357,-140.7222,-212.99434,-80.536026,-488.68622,119.53361,41.482094,881.853271484375
358,-419.48502,-1137.3358,95.792465,-1013.0837,94.79899,-101.16592,2070.60205078125
359,310.74136,-1692.8746,-93.002914,-191.89743,-172.6148,-261.0085,1942.36352539063
360,497.76334,-915.0934,128.28307,-48.311386,263.14047,-410.5768,1526.79650878906
361,766.6642,-1949.8005,-243.31091,-36.31751,379.55048,-276.87836,2514.31616210938
362,-173.6001,-935.95966,-133.5263,-533.6954,-491.1864,34.8761,1481.6484375
363,-78.64828,153.62263,14.627315,870.0424,-290.2086,-213.21962,1643.45886230469
364,-1340.4045,-1247.191,-270.8805,423.58472,-345.34268,5.955838,1396.080078125
365,-1780.7075,-1095.2069,286.13452,386.47583,84.16838,-253.41533,1996.72912597656
366,-675.91864,-1120.9102,431.12738,-269.96912,100.82677,-14.266716,1471.7177734375
367,-53.91646,541.56287,64.797356,-267.3245,-36.85666,-85.00281,733.577392578125
368,-956.51074,751.5866,-197.72342,566.07367,-125.40556,91.69383,1797.49645996094
369,47.666264,7.2588034,30.1632,567.08746,-21.457233,137.72308,1012.06750488281
370,2002.3838,986.96515,-170.39824,193.69104,-131.38957,59.779964,1928.94604492188
371,-3136.55,-942.0224,17.970037,-1621.492,286.14093,-189.31213,4010.62622070313
372,2247.2808,-692.25574,-1197.5858,266.38104,501.7033,14.279562,3369.01708984375
373,959.44806,-1083.8601,-76.14303,310.98248,-317.05365,371.85403,2034.22009277344
374,198.8425,-1132.0901,29.570648,859.42926,537.16095,113.46659,2166.76049804688
375,128.0198,-671.4729,360.05414,232.00963,-98.80351,171.06227,1075.68444824219
376,225.50325,500.033,370.4938,1.1319933,-29.175636,117.04905,316.612640380859
377,-1238.238,-480.53467,96.1777,502.32538,-32.524647,-170.49123,1480.22155761719
378,114.540306,1.5313848,-238.61002,460.288,121.31367,-236.22533,971.972412109375
379,-1262.4204,1459.8722,30.011116,-510.34607,-7.9312367,328.29486,2582.20068359375
380,-1376.2996,788.96155,-190.56186,296.72916,314.51166,92.0936,2028.11218261719
381,-452.14047,-1458.5837,-109.01712,491.7163,357.47696,-296.68076,1687.83239746094
382,-329.0302,-647.51685,93.37608,-602.28906,-376.45996,-106.704575,1400.7041015625
383,-285.60767,-713.20465,477.38254,-937.36285,107.14249,-222.54933,1977.42663574219
384,292.54434,-1096.0769,206.93492,-47.900635,43.834778,85.077644,1360.54455566406
385,542.68964,-2365.6763,-423.13873,-542.4297,-213.8453,-425.55795,2854.0517578125
386,213.1929,-1005.07715,260.78067,272.09836,-3.0678003,-89.2028,1338.07080078125
387,184.51917,-1113.2959,-69.92587,-198.20532,-90.61223,-228.44455,1310.68383789063
388,-862.2262,1455.7109,-79.42292,-222.06212,-60.67974,21.671926,2081.22900390625
389,-1233.4058,137.48492,117.560936,-334.11893,103.23087,-55.789005,1492.86242675781
390,693.6269,17.394794,-171.75905,449.08722,-166.29381,39.19996,1146.11938476563
391,-1497.691,2287.3813,1824.7242,-2368.9531,146.78342,416.5385,5496.4169921875
392,947.0413,-1703.4066,876.76056,-723.24445,21.42665,289.185,2943.64526367188
393,362.9119,-734.0148,118.84021,417.27408,106.662674,158.20016,1275.404296875
394,-865.3159,869.6995,-363.71902,-534.554,297.0346,244.02878,1921.50524902344
395,139.40514,896.54364,426.93417,14.994554,147.4503,64.45096,718.744323730469
396,-1606.16,1558.305,101.180626,340.03345,-168.36041,274.45126,2860.75268554688
397,494.56738,-409.38354,41.87623,-483.42856,277.70642,-97.322044,1254.48510742188
398,246.51976,-377.6923,-16.1017,-442.20068,14.860779,-133.43796,967.152099609375
399,185.1324,-177.32242,-228.83868,-27.064392,-92.373,313.55478,689.525390625
400,-314.2469,-1733.3324,330.70764,-1340.7844,472.0282,137.72821,3076.27416992188
401,67.06677,-1267.4534,-288.3821,-280.09033,182.66959,-39.396347,1331.55798339844
402,-1903.2854,-676.3161,-439.89285,-274.72687,324.17285,-430.52188,1717.31469726563
403,603.5116,-441.41666,-290.0743,-516.26166,204.0001,-116.1953,1386.20629882813
404,251.49329,554.8772,351.43863,150.25752,41.15508,-252.96457,580.082275390625
405,-6861.476,736.8779,-201.3029,-62.8061,-12.175825,106.76641,7178.64990234375
406,94.6125,-1315.0997,-340.94867,-910.10974,354.8431,201.759,2132.54467773438
407,-1969.0381,-929.5695,-564.7496,1340.3163,-144.71205,150.52277,2667.0107421875
408,-533.8679,-786.8852,-471.1023,-201.8353,-198.69974,-263.17685,729.576171875
409,544.62494,-677.46326,-211.9253,568.0235,-7.959136,25.391905,1453.05639648438
410,1090.007,-727.6085,156.01834,1169.2025,-112.60626,-66.41239,2575.03466796875
411,999.70184,-1650.316,411.153,644.2174,203.64764,295.41577,2727.74560546875
412,-701.53516,-874.75024,267.94025,512.3854,211.6076,-44.725594,1437.27673339844
413,-328.05777,707.7554,-219.3626,112.69738,-59.35654,-33.388252,1012.00378417969
414,697.7642,-1861.8171,-134.7046,-1222.2076,-43.03587,-105.91353,3103.91259765625
415,-543.3346,302.99936,-864.0989,-553.4818,373.9635,-3.899454,1558.60925292969
416,-233.11472,-863.8905,-222.8579,278.1794,-228.84694,-156.88033,931.424438476563
417,-535.6055,772.97644,73.9758,1.8289763,415.0827,-39.44462,1344.56225585938
418,-41.264153,598.1762,-65.65128,-333.60193,114.12718,-73.9826,902.462646484375
419,-1514.8215,-189.03587,-27.295437,-185.7508,165.19104,44.50662,1479.73559570313
420,-703.16223,393.80502,76.476,-892.4792,189.0822,-173.74309,1882.36791992188
421,1235.9324,-442.11942,-72.30616,550.3951,29.01898,-35.72942,1802.00280761719
422,-1514.7579,1421.6355,143.84444,-264.7925,113.98991,-3.25612,2598.54125976563
423,-105.22294,-357.02774,-83.35098,-475.52438,-28.923319,-243.19699,963.174865722656
424,175.97208,144.42665,535.3273,-233.05794,-295.5236,-245.5585,864.473693847656
425,332.7287,-781.59906,-262.89502,13.821591,17.507856,-233.24908,1047.60766601563
426,918.17206,-167.94112,-299.13516,-829.9213,-37.91689,19.40672,1846.91540527344
427,251.11977,-1621.4581,-55.638985,254.53058,194.1092,68.75186,1829.697265625
428,842.4973,-531.39246,52.2326,50.967575,7.7473865,53.083782,1201.15844726563
429,460.53827,-915.8856,440.48645,-878.3088,26.36594,-638.82587,2325.51171875
430,-2083.7297,-2390.3242,-1495.3998,-1205.6613,-129.78183,173.22243,2263.1650390625
431,-278.63705,-528.60126,546.69006,-653.9508,-259.02933,63.53322,1564.06591796875
432,360.21832,-2039.0166,-242.80057,-1564.4984,-4.6261115,-233.52068,3489.95727539063
433,-916.93097,-963.78503,-119.49239,401.31937,89.879654,-296.52487,1202.76953125
434,506.1408,-204.45068,-21.616512,510.73636,-312.4402,188.30714,1261.04663085938
435,-361.8249,-699.22906,68.48614,-1755.8484,-205.76498,11.547823,3133.78784179688
436,312.29114,-527.1632,-40.89795,-313.98218,277.59943,4.194869,1029.52978515625
437,-474.26306,-1000.5256,30.774233,-466.40573,-116.525154,167.75244,1255.2119140625
438,-586.9395,-169.62817,-122.884964,-458.18427,10.503561,-187.95937,965.378601074219
439,-1649.6516,-2006.6082,-28.289335,-788.25726,9.325113,78.30827,2284.2275390625
440,-203.73462,338.91312,-128.70908,979.1182,-200.7599,182.13802,1831.89428710938
441,389.34665,68.60453,317.81375,415.63623,265.03275,-251.60085,1001.970703125
442,161.97342,-694.17816,217.62279,804.7459,60.38992,-48.716778,1656.69714355469
443,-269.53598,905.2045,280.63156,131.17941,286.59338,213.74068,1213.04663085938
444,-155.86667,618.01355,534.9586,-210.21638,116.86021,99.05074,862.837768554688
445,-1365.6725,-123.72872,699.7179,128.17712,-138.43465,202.57027,1863.61157226563
446,-1718.1765,-434.15463,-450.8678,-80.654,135.83856,15.821968,1305.04943847656
447,-98.36538,349.82086,-455.1271,-26.298063,-5.917542,1.6927686,700.167053222656
448,411.14987,1019.83093,15.092446,512.58496,406.43512,-302.3771,1525.29370117188
449,51.8839,172.6029,-522.892,-327.69437,-371.59457,147.3399,1102.65698242188
450,229.28058,-106.03894,94.39902,-330.40536,35.806526,-205.12251,736.87109375
451,682.9463,523.6349,10.6230345,-230.5632,-220.29013,186.48055,882.992797851563
452,493.5372,-1190.3514,83.53129,-238.83855,-169.53436,169.36063,1629.904296875
453,-172.16083,-565.4741,-285.73438,605.9349,24.069925,-145.22849,1135.52087402344
454,1395.9904,-739.1901,217.50966,-720.3117,260.98898,73.885666,2282.28247070313
455,307.92038,-252.18698,289.8685,-162.83205,162.76463,-2.0524337,680.417236328125
456,-697.05194,-398.2148,-258.49527,647.76337,245.20418,-85.05106,1269.42785644531
457,-181.67923,159.06961,47.264626,301.29623,-67.65353,-143.45627,662.058227539063
458,-132.26677,-1208.1191,-139.0822,-58.294453,158.65486,-129.66136,1134.15930175781
459,384.06625,-910.34143,-191.42693,214.4082,-527.71576,-154.70193,1518.85595703125
460,-945.91766,281.42383,-140.61955,-461.53326,-295.97638,-315.32095,1538.38330078125
461,-25.233215,-104.72367,-1.6503432,935.7587,130.25516,67.74812,1643.27453613281
462,-2280.2307,-1228.9615,54.179947,487.21814,-86.81193,-3.756407,2198.94091796875
463,-59.672092,488.9841,-142.71933,-75.09938,69.77707,-180.84557,695.072998046875
464,-771.36115,1715.7554,-654.50464,-557.1878,119.14719,161.48769,2638.3642578125
465,-253.99278,-425.10706,76.29508,-586.5336,41.043762,53.604237,1113.833984375
466,-531.0419,-371.9535,-159.65031,399.47696,448.8046,71.94346,1096.67980957031
467,443.94012,-1063.5339,-528.8521,1582.5825,193.14886,-140.14008,3071.95092773438
468,-714.1676,187.86726,105.084465,-61.888428,-10.512151,-79.854485,881.362121582031
469,-323.7033,832.4179,-608.9491,698.7503,-122.71636,60.48066,1807.94567871094
470,416.9771,2779.2974,508.45508,630.1971,-17.624994,-59.30149,2564.32299804688
471,1426.2714,1011.04443,286.52902,1.7620492,-22.799257,-283.32812,1113.80773925781
472,1578.4285,-505.7762,105.38871,-15.212406,177.09077,298.6792,1950.90869140625
473,-956.4609,-981.5923,-404.7776,-287.82755,-42.192513,-98.55536,775.799438476563
474,-2070.0952,-146.97423,39.2057,-236.13506,41.502552,149.34795,2080.97680664063
475,-144.97235,1233.6816,320.1401,-561.86725,74.13308,115.02169,1574.49951171875
476,-1929.5088,-438.02414,-235.05026,-169.2503,-5.6050653,-85.43407,1635.96618652344
477,-700.8849,-219.9793,477.92548,612.4874,83.83764,-0.57361096,1483.40063476563
478,-747.2053,-446.1447,-77.769066,633.65564,235.6573,133.41733,1327.32946777344
479,-1279.2928,1394.7651,265.8174,-1039.0656,-116.11894,-322.389,2999.5771484375
480,-2553.26,-2483.0278,-419.23413,211.44731,143.4922,-30.50546,2146.58178710938
481,-1980.537,-1153.2887,456.5353,-35.51206,163.93103,22.945095,2166.46728515625
482,1035.473,546.38837,58.62593,656.97797,87.97443,139.73921,1446.48986816406
483,1776.2432,-1.3814465,388.5352,253.48082,-7.5898604,-356.67987,1787.02294921875
484,507.5437,233.88577,39.890766,-463.60345,-98.219406,245.95485,1010.35534667969
485,-296.68002,-815.2794,275.09998,335.81525,37.84195,552.9873,1467.10571289063
486,-483.04517,445.22025,-261.11673,563.2313,168.95787,243.96082,1385.92919921875
487,458.83057,-939.8103,-448.33572,340.73196,68.30028,-163.73116,1397.51940917969
488,-142.96204,-542.5124,654.62366,-25.662334,178.43411,-86.69419,1111.07995605469
489,-862.8447,-940.1564,115.98671,677.69714,400.32126,-87.49083,1709.1865234375
490,-884.5334,-690.8159,409.2285,321.98715,17.990227,-54.7162,1334.80395507813
491,1412.7534,2700.1997,549.8649,-296.34317,-138.24222,-12.013841,1958.12170410156
492,-262.3277,-581.5066,18.961006,325.3067,510.8016,-73.811005,1177.85925292969
493,-794.06244,-691.93176,1003.8045,278.2147,23.35906,56.13316,1817.26135253906
494,-2359.132,-1469.1843,393.3309,395.52188,402.5655,-78.08229,2625.3173828125
495,-347.7243,-256.98538,-75.23587,682.05493,108.36212,-189.62712,1263.50988769531
496,921.3585,126.55359,645.9465,-77.308655,-16.016474,87.813095,728.354797363281
497,-1755.7576,7.2501287,-63.2072,216.96646,-394.65567,35.80038,1897.70166015625
498,287.70078,-284.0797,130.88965,234.1678,-189.69559,-166.2007,785.611877441406
499,-1231.7996,152.82529,610.454,-796.28424,256.3358,471.56418,2350.89379882813
500,-1321.7085,-701.7584,722.87756,-1261.415,-185.59592,204.73407,2880.92309570313
501,-1185.177,1581.9517,-437.96136,288.10214,68.15162,449.73096,2649.03881835938
502,588.9196,2213.7717,-551.06854,-496.79547,-1.8065044,-27.049072,2556.29638671875
503,237.48116,103.80791,241.74777,-362.01254,189.25336,-99.59384,740.826293945313
504,-723.6752,379.7589,112.90288,1266.2966,189.82323,157.87625,2446.98095703125
505,-272.14697,2757.4192,283.66754,-503.6097,203.55809,-56.521873,2949.25146484375
506,-922.62445,1475.5801,-100.62649,518.21686,52.31987,1.15477,2295.56298828125
507,-582.97437,2493.1714,167.8549,-528.05,107.71966,81.3681,2933.92895507813
508,230.29015,241.38025,-125.86049,-294.3216,6.787854,27.296827,627.028869628906
509,-1919.7704,-1913.5256,-22.765383,796.34106,-186.31104,-411.86426,2470.28955078125
510,-295.4697,-176.64645,-159.82463,371.70532,254.09448,131.51369,822.480895996094
511,166.74477,-22.454584,-72.84372,487.84735,-106.24211,-14.040409,892.360778808594
512,-1808.6412,813.25775,-357.9293,-964.8878,333.52023,171.32268,2896.56469726563
513,-358.48477,-24.167377,-471.97058,-772.21234,-239.95978,20.292398,1457.90966796875
514,-1958.8059,1981.848,-63.612778,-493.34448,-231.68181,-166.59076,3553.40161132813
515,1824.9105,-535.17017,-2197.7678,446.703,-343.86685,56.8408,3636.08764648438
516,1952.7865,639.55786,-1555.8204,504.23114,214.58217,-226.16574,3237.53369140625
517,-2490.7158,-2234.775,-71.4261,386.79987,18.951933,265.00433,2441.28540039063
518,-2567.1172,-2816.8374,41.64191,396.8886,-43.26335,-196.91473,2848.49926757813
519,-1452.974,1170.177,295.50385,381.53943,308.06894,69.74652,2467.30712890625
520,34.017784,-300.73557,53.182285,175.85095,11.077796,345.79367,755.447570800781
521,207.8073,444.16916,-520.30804,47.35219,23.96952,127.42714,902.929077148438
522,735.69006,772.555,73.36602,1124.9196,174.44577,-223.2062,2121.68286132813
523,-702.8121,-841.59796,-122.2576,1149.8937,209.50233,68.41036,2132.92236328125
524,-1353.1296,-2096.0022,73.97171,-10.531898,69.837296,34.479042,1914.98388671875
525,-517.1657,-1342.4327,-536.76495,412.99582,-184.30476,484.5557,1408.28234863281
526,-561.80756,1397.6647,119.0428,-503.72116,-83.05759,118.93556,1947.64453125
527,-104.91093,1960.9275,388.20792,-807.76825,64.8746,300.61682,2394.44287109375
528,-1980.837,2951.5432,-849.8436,683.9783,98.60188,188.80553,4644.20263671875
529,-1450.3334,998.3831,-352.5444,1348.9827,177.92894,415.135,3253.37182617188
530,2717.1726,574.5637,1800.5752,1258.3474,-37.776993,-98.47516,2872.40356445313
531,1601.7151,-543.7965,1453.4064,1240.579,-310.71805,13.418343,3035.50708007813
532,440.40457,1858.7968,10.307085,-1105.9166,78.19413,230.2708,2579.42602539063
533,-633.7017,-278.33603,-231.8373,1580.625,136.98073,-311.22668,2826.12377929688
534,-882.1212,-863.5802,-109.50687,2025.9463,72.11753,180.25175,3606.85473632813
535,162.13986,485.29385,286.89435,-1268.3245,-188.00241,63.56078,2241.37744140625
536,2736.4468,-206.28177,-781.7854,329.92703,-76.53664,-217.32288,3342.1884765625
537,-1608.5779,375.96805,-582.3635,-1450.7549,199.4403,145.22372,3074.3515625
538,2613.6555,909.79944,-610.10956,893.6101,47.097862,127.12867,3202.14184570313
539,4414.957,-1537.3616,-709.8597,-1796.7415,-44.81833,-224.7244,6405.59716796875
540,2344.5625,-1332.7062,-1317.9689,-938.2489,-178.565,-127.91157,4031.62548828125
541,2210.6714,1306.8374,311.78424,-773.50977,-31.140915,-104.13307,2129.97705078125
542,3009.0164,1141.3892,257.33246,-135.45708,76.995415,217.20163,2476.90063476563
543,-453.65082,657.943,-68.91758,-1097.1582,-794.6821,115.78378,2549.90942382813
544,-1869.8191,-2324.5068,-232.20401,-705.09265,-47.35211,-67.72791,2268.27734375
545,-995.9502,1576.9055,86.17871,-486.5154,-77.55896,234.94768,2429.02612304688
546,2935.3352,-657.337,1373.1091,-524.62054,-8.86363,239.84973,3276.24438476563
547,995.71533,-486.26212,2317.677,-596.235,-19.30714,-12.641454,2640.27319335938
548,1059.8502,506.47885,-114.7492,559.93207,-106.203064,32.983467,1419.00915527344
549,1885.1821,1082.1111,123.93151,383.14175,55.713715,38.969017,1669.36450195313
550,-2255.071,-2973.493,24.306717,-714.0014,-138.97537,-325.56354,3042.130859375
551,-2353.2002,-3230.8843,-194.9638,-368.68643,-198.13004,263.94946,2838.5078125
552,1031.5199,-1388.4912,-555.9366,31.745626,102.53411,63.420998,2140.4296875
553,1161.1597,-1025.5613,245.9927,620.2836,37.184208,-339.30222,2263.14965820313
554,773.01544,717.6323,-182.12271,85.838394,171.21613,-162.56174,1025.56628417969
555,2433.6194,1097.4875,784.84265,1015.2022,-180.56912,-254.39328,2384.23999023438
556,-504.4765,1229.9514,-367.05853,344.79745,-119.1888,-148.56488,1803.95971679688
557,1026.6254,-893.04095,-361.8492,59.649376,-214.87523,41.229683,1761.2099609375
558,234.88513,-1651.9128,-489.7626,444.39935,-210.59798,371.7206,1964.15698242188
559,-158.01796,-534.5833,-913.1382,-697.025,84.110466,52.885868,1383.763671875
560,0.7140825,1370.2054,-1077.216,1895.7549,342.71866,145.02695,3963.68286132813
561,1486.915,1430.6688,1170.5708,931.7059,48.915478,-142.29921,1660.60144042969
562,1083.8427,3284.586,-51.797245,-1202.958,-139.6628,-273.9626,3641.04516601563
563,2217.7788,1308.785,1373.0895,-660.0001,-100.97465,-307.45187,1546.90673828125
564,-528.99097,1013.4095,-268.25284,-540.69226,-114.76374,-108.78041,1731.14904785156
565,-382.81424,819.60675,-40.33006,450.54077,213.50801,-236.00572,1436.70300292969
566,380.04776,-1293.1317,471.18723,611.0183,27.951841,73.8394,2024.61340332031
567,-651.557,568.58563,166.24622,-154.11224,163.56526,-269.3432,1236.47216796875
568,-1170.1974,-949.76215,-421.35263,612.3373,-70.613045,167.32765,1291.55456542969
569,-1111.8407,79.84507,138.76521,-510.7478,20.754051,115.120705,1522.314453125
570,-70.09966,-2363.3594,-590.6544,-485.91486,-179.06662,59.02268,2269.63330078125
