Element Label,S11,S22,S33,S12,S13,S23,Mises
1,1739.9194,268.86713,1444.5868,1723.3711,906.6316,56.359844,3633.49169921875
2,-756.20056,1052.2505,-1938.5935,702.81476,-1077.1283,-53.79557,3431.90795898438
3,230.95528,196.75238,1898.1052,-211.09328,1267.0455,-1159.5795,3438.21875
4,1280.6699,170.67163,-2047.4525,-353.5205,-2229.0867,1548.16,5575.49072265625
5,327.95096,515.2564,4355.7793,1913.2623,1810.0676,-2629.247,7553.38525390625
6,-107.51779,1728.8505,-3884.7676,989.2936,-1035.7487,-441.15158,5595.94140625
7,2864.3315,-37.477615,4685.336,1829.1434,1658.9678,349.20682,5973.30859375
8,-3327.676,1603.3334,-3389.0295,625.22546,-2278.5103,513.61115,6493.080078125
9,4898.322,1202.7977,3041.7263,1018.399,5092.301,-1500.7537,9894.72265625
10,-2640.109,-70.229416,-2284.0881,-555.4975,-3976.9822,2546.8967,8582.0185546875
11,-1545.0636,-988.4911,-2563.6465,1204.012,1179.0999,40.83811,3230.93896484375
12,4689.734,129.32515,1811.2921,623.0216,-1549.4185,-387.87637,4977.3271484375
13,-3002.6826,-722.48444,-2821.1484,1849.0844,1968.1179,212.05884,5179.8681640625
14,3130.5469,320.7856,1392.4982,-1133.7987,-4134.4824,-398.91498,7851.611328125
15,-180.76434,3555.803,1701.0435,327.1369,2850.0537,-507.7965,5994.55419921875
16,3223.7449,-5062.625,10233.048,392.71503,857.2212,-1559.5375,13632.298828125
17,812.8741,580.0868,71.313896,-431.73038,-186.94043,-261.59775,1140.521484375
18,1077.177,76.40596,3034.851,-216.0139,-150.2725,1674.4463,3925.84448242188
19,-4063.643,813.76025,-365.87228,-1037.0093,-5937.6304,-1094.6898,11489.76171875
20,-23262.229,-12812.833,-40525.582,97.83296,827.28326,5852.662,26314.400390625
21,444.48816,1972.4471,4367.831,-1080.417,-1405.8127,-1284.9055,5110.416015625
22,252.20097,1304.2594,-700.8381,-348.95947,1487.0668,1328.0586,3912.59545898438
23,1008.1229,-461.3691,5981.835,1551.0483,-1196.9526,584.0409,6837.00927734375
24,13.215341,-1177.3651,-9582.83,2906.8386,1120.259,186.9933,10549.6767578125
25,247.06313,2661.0723,15962.304,28.486692,-665.7037,-2448.9258,15303.04296875
26,494.56378,5817.167,5876.8506,1043.7069,1313.1754,-1488.0364,6613.271484375
27,4124.47,8331.127,26414.88,3596.999,251.4468,-4421.986,22769.65234375
28,-7754.514,181.38687,-1535.0677,-1165.1404,-1455.82,61.326576,7921.19384765625
29,980.59735,-7383.9688,-10733.124,771.85925,907.5439,3445.4734,12209.3857421875
30,1704.3802,-1200.7655,-410.32407,-346.84702,-435.04984,-2213.95,4733.0498046875
31,-458.4768,-227.594,3758.7664,1352.5558,622.82367,927.1163,5108.35986328125
32,2197.6562,-1836.0198,1913.4098,1282.4154,422.20477,659.85895,4688.236328125
33,-1475.7476,-807.6524,-3809.7966,-1558.0502,-1515.8601,-1238.6523,5121.75146484375
34,850.3526,2035.1138,6333.9214,177.67458,2328.7937,7.7861104,6429.7119140625
35,-781.4259,1352.6089,3111.543,106.523094,3235.803,1521.1323,7056.0908203125
36,-373.14307,572.3238,-3176.014,827.4774,-1942.8315,1087.1617,5322.0029296875
37,-1042.7305,-1198.6426,-2364.6318,-108.45344,371.9679,-232.63266,1475.92407226563
38,930.28534,382.62112,1743.0363,698.9037,-972.64417,-361.8257,2470.19775390625
39,-120.6288,-207.37445,-1609.9728,117.682594,-1907.3105,-627.8655,3772.81982421875
40,311.10544,254.58171,541.96576,678.59467,649.10535,-1456.0631,3012.5380859375
41,385.8397,-987.946,1614.7389,286.78625,339.4319,1190.1572,3150.79809570313
42,840.37054,-812.9113,5396.6787,-551.3381,506.32416,-277.3616,5739.1591796875
43,-876.0209,-1024.5651,-1783.261,-1.0992165,-350.6778,-600.32056,1469.85290527344
44,2543.5034,1554.1823,6597.065,384.1853,20.956448,1099.3624,5048.79150390625
45,2249.2578,-1358.7622,-1699.1989,709.0332,-1348.123,-291.87057,4645.2197265625
46,-4270.9355,-335.1214,-7189.006,-2047.2299,9686.915,-4279.6343,19609.15625
47,1297.9226,3429.5693,21949.957,2006.2144,-1152.3837,9244.504,25680.125
48,9002.76,8909.522,26647.156,-3369.0374,-2622.3284,6372.1924,22124.060546875
49,-12046.282,-6461.9614,-13448.85,-2080.1104,-2079.295,-10049.811,19233.59765625
50,1535.444,5719.506,-14413.23,1890.4436,-1233.5973,-3868.8809,19969.681640625
51,2246.6619,-1621.3608,-14982.437,1010.7984,4303.957,-2048.3684,17787.232421875
52,-3917.1685,12339.618,2628.845,-4268.7856,-10127.466,585.6026,23750.984375
53,5843.5806,6189.9365,33974.387,-6838.654,2022.2952,6171.3916,32381.287109375
54,-56.565826,18596.803,11639.978,1316.6089,-882.3572,-9027.176,22772.419921875
55,3067.9438,-3890.5222,17880.758,-26.92254,-6164.5264,-2932.2844,22599.01171875
56,-5035.3936,7141.9165,-14488.383,-1044.5698,-5985.488,5276.5215,23388.76953125
57,-2459.8545,-695.5021,1581.4572,-690.55524,2195.9001,-1730.7366,6098.9931640625
58,-8560.665,-2292.5977,-8240.111,7372.237,2835.2236,898.716,15065.53515625
59,-2706.1475,-755.5509,-4567.349,672.4352,-5426.0303,-280.8139,10040.80859375
60,6900.463,1522.8656,19614.217,-3873.7039,6188.5137,-4223.2236,21733.48046875
61,-1791.265,-1890.6049,-9454.084,534.0218,-1636.1757,434.5621,8211.0126953125
62,882.1043,624.05444,1464.9945,857.24097,989.9377,-25.122461,2388.13208007813
63,542.8065,996.4875,-585.7805,550.332,-1937.938,344.35178,3810.86547851563
64,309.05136,1846.6959,-2734.4355,1162.2241,-752.6769,-314.7217,4728.21044921875
65,616.0807,6.661892,1795.5795,-349.23544,528.5071,646.46533,2222.39184570313
66,1989.6532,42.278076,-590.39154,926.1651,-139.59201,120.05078,2845.98413085938
67,2002.7938,-859.6672,-290.86874,200.49684,174.91495,-793.9818,2998.77563476563
68,668.4261,1380.3385,2961.1558,97.14297,-130.4842,312.70282,2122.24975585938
69,1124.3987,-307.21115,-1968.8138,62.98318,409.45108,-1681.7576,4023.55224609375
70,1403.9652,380.3669,2538.7244,400.12198,737.7557,759.8609,2709.66381835938
71,2634.6162,-1139.2114,-3405.8572,593.3411,664.2156,-1391.6284,6010.240234375
72,3147.716,-422.58392,-186.03444,-745.89966,361.94382,-1396.7996,4457.9931640625
73,995.74426,-1197.2626,-3867.4333,806.88477,1107.583,-1185.6481,5257.8974609375
74,1416.8458,-132.08069,-3083.0176,192.53642,1641.2019,-1349.0681,5415.69775390625
75,-2979.0916,-409.28964,-527.23956,1192.2455,-1470.8795,1378.7491,4772.037109375
76,2573.6748,-593.5128,-11219.525,1746.5419,1580.2227,-3779.4382,14700.0947265625
77,-1570.8857,812.8744,1677.0073,936.0321,-3335.583,2587.311,8036.060546875
78,-2523.1875,-7960.481,-17322.041,3182.9175,446.5448,-1287.3138,14285.20703125
79,5912.9077,1236.8961,8809.611,290.2905,1168.8568,2755.8306,8422.3681640625
80,3279.9702,-1168.8474,11501.478,-2912.2031,-530.5485,-2441.6929,12966.6474609375
81,7878.339,2538.2515,20526.521,-11098.005,-6625.6294,3239.2783,28083.94921875
82,-2715.2676,-11078.552,-13716.073,2688.363,-1068.3824,-15976.611,29829.8828125
83,-2322.9111,-10400.044,-33715.14,75.061,4330.422,790.1583,29245.521484375
84,1020.9564,-56.934307,5538.564,130.7779,-237.64415,2467.5864,6702.81982421875
85,-2620.9124,-657.95337,-4800.6426,1548.9047,-1519.7588,92.82369,5199.5498046875
86,313.71725,-985.4151,-677.6007,-424.5031,-728.97107,-662.48126,2198.64770507813
87,4869.1865,93.85511,4928.5825,-761.37915,-1841.9536,1048.3003,6189.1220703125
88,1787.693,2320.9385,4882.968,404.97562,216.8019,-1024.1067,3463.22729492188
89,-2768.7595,-3207.6838,-557.33014,-5971.72,1058.3394,2719.6638,11772.341796875
90,10997.533,25893.334,-10847.315,8466.214,293.58258,-141.5582,35211.1875
91,1754.8649,6039.835,3553.5403,-2453.1765,-589.00397,348.92517,5774.875
92,211.11595,-122.88598,1170.7434,391.61603,615.4093,387.28357,1843.69201660156
93,1532.8286,-601.63776,5518.443,1260.3735,-1072.1342,-862.0391,6276.27294921875
94,-4512.711,-4014.845,-17744.438,227.06615,1120.2916,987.5284,13738.9794921875
95,221.69646,125.094124,-1223.982,191.76494,182.46419,-1729.739,3338.54077148438
96,920.4199,188.78789,12.728606,2.9196708,-79.39117,924.9286,1811.21667480469
97,1271.7651,2882.4055,-363.22882,705.9494,-1112.8313,307.058,3659.76538085938
98,981.40265,2277.4614,376.95917,356.2633,45.0276,317.64105,1875.64794921875
99,1510.7827,-989.362,-2392.191,543.9228,-153.26637,982.8073,3947.36450195313
100,6895.417,-1656.7616,10120.37,648.6091,-1907.1321,-212.88234,11109.9033203125
101,-396.97278,1413.0448,12.602643,1145.2653,-596.8305,571.32996,2947.09155273438
102,-3002.7534,-4532.094,-18246.121,1815.7726,3689.7883,8919.291,22378.177734375
103,-9482.412,-4001.1677,-30989.184,4022.7598,-2307.312,-177.79668,25982.357421875
104,2427.0557,-2453.1406,-9456.834,1248.1018,143.20535,2332.6904,11318.4169921875
105,-2162.5286,-1815.5502,1605.6144,1179.7347,1274.0233,1196.3422,5133.25048828125
106,-168.74152,-797.90094,-3150.9424,762.49225,485.8609,-1853.8239,4491.70751953125
107,-546.7532,-3092.2563,-4439.158,399.1583,448.09836,214.94054,3597.39208984375
108,622.15094,582.9329,2507.048,-382.50366,85.380936,559.02966,2242.01635742188
109,-636.73773,-302.79602,-782.7752,470.4343,-223.52156,-167.46907,1039.01904296875
110,-659.58215,-911.83276,-3358.6157,568.75586,-232.2516,1454.9938,3761.7646484375
111,1677.2958,-829.6091,-1712.2886,176.75282,272.02097,-1341.3883,3871.71362304688
112,912.03156,187.10046,-114.754135,1038.6233,-292.12177,-858.15533,2556.75146484375
113,-446.12903,473.86288,-1906.6659,294.7424,-436.9179,-729.07404,2598.3056640625
114,2512.729,950.5515,-1623.7804,2123.1067,1363.7699,4109.1406,9102.0107421875
115,-15143.802,2382.3352,11440.006,-6844.9893,11567.557,230.46951,33016.64453125
116,5530.237,4868.3877,28408.348,1290.4948,-6583.9434,-3126.359,26520.771484375
117,2563.792,-1460.9747,7483.44,-5769.8247,-724.1971,1835.0132,13105.3408203125
118,1290.8467,580.01843,5823.533,-480.3704,-53.905865,-671.21124,5130.7939453125
119,627.5753,-725.6668,-6126.7534,-1332.4667,1156.6271,-752.7222,7025.06298828125
120,-331.71017,-342.79526,2704.4368,124.28657,-1624.1865,1896.8514,5292.1064453125
121,-157.08823,255.9869,-1592.3589,589.5597,449.3632,1906.8741,3921.80297851563
122,816.5905,1040.5879,1551.0452,523.9069,-54.126373,-2268.2593,4085.62182617188
123,394.75095,88.79322,-9.804651,89.32576,230.0233,-2830.2717,4934.31689453125
124,-1464.9503,1646.5999,5165.3296,-1074.0231,-413.81372,456.34848,6132.77880859375
125,-16893.635,-7422.205,-18634.855,4267.449,2348.7732,-4888.915,15878.2783203125
126,-3422.1082,-1145.5499,-9694.29,-600.3737,-3454.2766,2830.8232,10941.6669921875
127,-479.4695,-299.5634,-8705.291,1412.3475,-1957.1641,2526.305,10285.8486328125
128,973.8452,2404.8298,13141.184,-547.10364,4600.4033,-406.73062,14055.8154296875
129,375.7063,-1690.2616,-1334.584,583.42664,-966.8327,1014.35846,3251.482421875
130,-7178.9575,-2893.725,-25691.121,3046.1213,-2784.6138,-2274.5012,22516.908203125
131,-756.75305,1780.9004,2516.7979,974.1035,-93.19058,798.4376,3692.408203125
132,6337.993,-7038.911,-49.82545,-5216.25,-1805.673,235.80843,15029.056640625
133,-2996.2612,410.22104,-11826.076,-1173.4159,296.70984,1058.9316,11287.4794921875
134,147.12183,-2.8536932,397.65347,1182.91,-223.71364,-651.2751,2396.51440429688
135,-264.78738,673.6915,22820.697,48.467617,-10238.306,974.6731,28800.708984375
136,-16648.107,-5251.6436,-24641.39,-993.9787,-7514.8794,-981.64484,21450.92578125
137,-1730.0465,7994.5703,2718.533,3903.7554,4741.7446,5050.0728,16148.6015625
138,-18690.062,4038.6494,-21243.54,-3899.5903,6738.109,-5610.5034,29281.595703125
139,1965.3486,-4012.7478,5706.9136,-1717.606,1541.1178,-5106.498,12896.083984375
140,3870.8137,-1743.688,5391.5293,2571.4092,-2420.856,-276.75577,8945.4521484375
141,-509.7963,1922.1404,-1215.0751,-175.1726,448.18228,2134.419,4742.23779296875
142,-91.68059,-1231.4316,-760.02716,124.97859,-479.47348,-1015.41516,2194.0185546875
143,604.7487,-2054.489,-5399.2783,148.25893,1070.4198,380.16602,5575.90087890625
144,1628.2438,1718.1189,3162.07,65.09338,265.00687,1625.0219,3219.98950195313
145,1901.4133,-1222.7698,-2612.271,272.25092,406.6038,1146.5626,4549.115234375
146,-1633.07,-786.281,-4569.7793,1225.521,515.86444,558.78546,4250.74853515625
147,-263.4946,-1877.2288,-4634.39,455.28946,-203.31837,-1434.4968,4644.849609375
148,1465.2062,950.14844,-224.39876,281.11517,348.80002,1431.3998,2999.763671875
149,-636.6257,1558.6536,3798.4502,620.76373,772.1975,86.948845,4209.57373046875
150,4788.282,1919.1094,18865.354,1852.1396,-426.6476,-1751.9678,16334.9677734375
151,15172.062,125.56206,23962.951,7185.263,11621.156,1949.4668,31739.376953125
152,-492.41202,367.19205,-2916.077,638.2808,497.94156,-624.7586,3439.98217773438
153,-8501.541,1900.8859,-16603.283,1382.4974,-5093.045,874.1479,18546.431640625
154,146.97162,2162.9983,-7181.0435,1209.7301,1554.3759,-432.18716,9205.248046875
155,1989.8229,-2374.192,13528.742,-2355.9487,1589.3357,171.82239,15062.048828125
156,1306.1179,3565.472,13754.089,-308.9939,-3598.329,-2075.458,13564.115234375
157,-1037.0052,-3178.216,9573.819,-166.10329,515.0543,-850.1261,11955.7998046875
158,168.89131,-427.21704,-11585.84,1596.5542,422.0408,4215.6396,13893.095703125
159,2053.9343,1800.299,7616.6733,4009.1277,-965.1845,-1646.8951,9569.2294921875
160,622.11816,1918.053,1226.3938,468.7443,-1604.59,2026.9596,4687.26806640625
161,-731.29126,872.62036,6043.563,829.07947,602.163,1975.1453,7242.8193359375
162,-452.68268,-2625.4124,-5681.063,451.63602,-431.64255,-1827.3712,5646.732421875
163,202.46024,406.0457,1184.9127,153.32312,-253.1865,2851.264,5045.6513671875
164,566.9144,932.94165,6840.1494,569.00684,-28.18508,336.33127,6205.18505859375
165,903.8265,-1319.2578,-3768.0144,-321.8987,322.59988,-903.1592,4410.49462890625
166,8719.431,-5016.102,16843.484,332.4526,-1041.4127,1074.7401,19321.068359375
167,12825.745,23926.832,-12577.2295,7576.942,-416.1117,-2380.1694,35217.765625
168,6221.929,-1292.7336,16846.197,1846.3275,2568.8555,-281.66592,16716.603515625
169,1176.7787,-439.2108,2402.9126,1256.661,753.69,46.968403,3541.83569335938
170,-2520.8943,-119.391304,-7035.742,-990.6826,951.6614,-124.56611,6534.62890625
171,-20573.785,-19904.088,-39266.523,1563.1978,4264.4453,-1798.8955,20832.205078125
172,-5479.559,5467.397,502.264,1855.469,-6839.1235,-2541.047,16129.3271484375
173,3287.8474,-268.27185,-14212.764,2113.0786,733.90466,-1266.3024,16628.435546875
174,1774.3145,657.2257,5135.465,190.69482,-995.716,-555.55133,4506.58154296875
175,11824.86,4468.3423,34841.668,-903.54816,5176.6904,8463.219,32418.16015625
176,5611.4473,-10843.674,5193.997,480.3216,-4919.5996,7456.527,22453.83984375
177,116.46697,296.80026,935.5631,-1.550502,764.26044,-2696.1514,4910.775390625
178,611.4581,301.8913,2483.7927,974.5894,-306.4687,233.60622,2734.23461914063
179,1353.1495,46.897266,3176.172,-114.194214,-300.32217,705.66736,3035.56176757813
180,84.514015,2037.2819,4060.317,358.4245,-166.59633,836.51715,3797.9521484375
181,660.1477,2231.725,11904.692,2358.9058,6848.0747,2056.605,16772.255859375
182,-1588.747,1441.4841,-2571.7583,2358.9387,4184.0107,1169.372,9297.3798828125
183,14855.392,-14515.242,11920.495,-7566.491,-4385.9126,1424.6124,31946.83984375
184,5264.296,937.05475,9622.172,3085.6333,2434.2092,-428.47125,10171.724609375
185,2916.3914,4491.214,177.38205,4479.775,-1063.5044,-590.0582,8884.732421875
186,-4519.3413,-112.31944,-12363.788,2677.4756,-5249.0493,3681.7905,16135.63671875
187,222.79768,2781.6091,1684.7599,982.15424,-845.7561,731.5714,3404.31274414063
188,2065.6384,-26.615814,2189.2297,367.28525,321.7053,2314.2983,4629.74072265625
189,986.6672,375.88016,941.7902,217.31102,-599.3864,2744.885,4916.33056640625
190,-4721.1396,-731.83136,257.1955,15.004005,999.14325,874.631,5111.63037109375
191,-1527.8939,-2864.0015,-995.24646,372.94342,7.5255075,257.14545,1842.92504882813
192,879.7616,126.732315,-809.70874,497.0998,973.1908,-195.33032,2417.89770507813
193,-23.991615,-1061.9723,292.62512,325.236,-267.19824,619.5998,1785.923828125
194,-296.39804,633.6967,964.23865,-63.723736,-1762.5288,819.22797,3553.43188476563
195,-1956.0663,-8083.5723,-12607.782,2795.9883,-746.91675,1233.4142,10743.703125
196,-2927.4402,-5367.9067,-6561.782,-6658.9873,2141.595,167.06116,12536.513671875
197,495.44266,-5809.708,-7539.7935,1885.3177,130.27667,1170.5477,8275.3427734375
198,-285.43137,-662.2558,-1355.5673,667.36694,-690.56287,-2255.1177,4348.26025390625
199,-2406.147,-3665.3716,-6808.3823,606.6558,760.82,974.7485,4594.8837890625
200,-684.0663,-1027.3319,1212.7535,1863.93,437.42908,-267.54788,3946.9423828125
201,-1783.3319,-3634.0305,-4638.7686,-437.82138,602.95,-542.22186,2973.51196289063
202,3519.45,-3219.9253,-70.92297,-521.1296,-850.3805,-755.88556,6229.875
203,-100.191376,-1275.5582,2843.176,854.8932,-341.18246,549.2174,4117.1708984375
204,3559.6477,-1567.1086,6255.1377,962.8294,281.95145,1021.6169,7315.67724609375
205,205.08243,-1909.8483,-2569.7136,24.760302,-296.92795,838.47504,2946.0791015625
206,-604.8255,-1591.8969,-2534.0234,315.60922,352.2912,-176.81387,1885.94873046875
207,61.982147,-1394.1042,1678.572,384.22614,-424.5304,231.87392,2869.19995117188
208,-111.271866,-2744.1592,-3839.3132,604.7552,74.59064,395.69757,3549.43408203125
209,18.963274,-1767.8516,-152.82787,851.8401,1015.8947,-256.6257,2895.83349609375
210,1276.6989,-1155.3948,3474.303,884.0339,407.20364,-803.1571,4567.986328125
211,247.47272,-1429.9819,-1610.4706,-128.29256,-27.659296,236.0603,1835.22131347656
212,331.7094,-1802.9509,-1167.9542,346.8837,-214.26917,137.00436,2039.49072265625
213,209.1464,-911.52435,912.9873,40.14883,-272.25912,-311.95737,1749.06604003906
214,63.04734,-2117.5503,722.24023,-224.2708,198.68414,766.94965,2942.94580078125
215,-999.22406,-582.886,-2012.7072,516.04144,-378.69537,1526.6665,3137.46630859375
216,-113.37174,-3210.6592,-566.39417,369.53925,447.38007,7.149828,3066.84790039063
217,-219.36188,-2662.7058,-1699.4938,894.15015,-155.80258,-84.32611,2652.71899414063
218,1955.0684,-3360.2483,-1082.2787,-1672.7102,1702.9738,-1747.8783,6898.77392578125
219,-1922.7625,-4524.499,-2286.4597,635.1303,1532.9359,-1149.9915,4264.0771484375
220,569.84937,-882.47736,1681.3174,1157.8987,397.38672,-411.14978,3156.24731445313
221,-1255.255,-2334.5337,5210.879,1079.4338,-1210.3724,-510.2848,7656.77490234375
222,222.29045,114.67634,1175.8627,174.87787,-156.08546,60.12131,1095.06945800781
223,-273.31885,971.1176,1283.4208,1376.1267,993.5211,-357.13843,3325.6376953125
224,-92.27386,-616.94763,73.36888,204.63802,-40.198452,-847.7075,1635.8271484375
225,-2730.261,-2527.4968,-8378.186,-78.605804,1323.7959,220.92587,6205.45166015625
226,-140.27072,-332.60245,-1394.9703,-207.18105,209.41109,212.03163,1328.58850097656
227,2942.4888,112.85569,6340.7246,-230.89183,-662.922,-122.697426,5540.22412109375
228,-1227.3779,-594.99664,-568.0223,-2433.577,-950.7424,-20.722523,4571.3896484375
229,1713.3145,1346.7234,-3930.397,4009.9238,1320.4462,322.34174,9148.6533203125
230,-4925.9395,2426.018,-6979.481,-1926.6874,2590.7793,589.81464,10280.1884765625
231,760.504,778.78125,1045.1725,424.87198,-496.85464,338.77884,1304.84594726563
232,6814.4614,-2266.7632,21272.72,1492.1812,-1877.1929,-438.97632,20991.380859375
233,15.695563,525.779,6497.337,-495.5583,-53.185654,107.527855,6304.41015625
234,173.45396,1532.9526,2483.675,-169.56126,-533.3019,40.447815,2233.60913085938
235,-508.2534,149.25735,-1121.6967,-410.7995,-225.08566,-832.0243,1986.71374511719
236,-23.366535,784.29675,-356.72552,-333.32614,457.36612,588.23553,1741.15576171875
237,-503.88354,48.143463,-167.23958,264.56537,1334.2972,-68.36498,2407.75415039063
238,2269.609,296.07336,922.5493,1935.4626,833.0482,192.20094,4059.76831054688
239,505.17847,62.837296,2494.7766,240.04851,30.310024,167.35675,2300.84716796875
240,1052.2727,242.85783,2393.0764,1577.4172,7.9558682,493.3443,3425.38525390625
241,1429.6903,-284.58517,1361.1997,-226.68033,54.108143,-972.77484,2414.08935546875
242,107.46287,-2682.9353,-5269.141,414.85303,500.18076,677.0767,4932.8974609375
243,1291.8507,-471.66736,2694.9194,-588.6611,145.06586,612.8558,3127.68432617188
244,2157.4622,-381.82367,-1759.6954,-591.8177,-916.19604,178.32664,3938.236328125
245,1249.2854,-602.05194,307.9448,-163.40279,869.23987,-171.17323,2237.31298828125
246,1269.4774,-769.99585,161.98204,-558.64923,638.00964,-274.9286,2347.65478515625
247,1032.3915,59.84083,2269.0742,-782.9112,892.1688,802.33606,3136.23193359375
248,-1789.0063,-1816.6072,-1544.4434,514.88477,1665.7501,445.54605,3127.67431640625
249,2305.231,-679.50665,1575.7993,27.78839,-439.15387,887.44257,3194.857421875
250,2138.3887,-1810.259,-3058.2512,-909.62836,652.72253,-240.71773,5100.14013671875
251,-2050.5955,-2001.3745,-2386.446,-1022.9366,-1360.9298,-790.6135,3271.474609375
252,4562.058,-2862.2969,-11.46299,30.126255,200.95163,76.60921,6498.0126953125
253,247.25555,-4946.188,-5515.534,-2295.5964,-1354.2778,3689.1033,9612.1181640625
254,-6688.11,-9664.123,-21210.617,-1199.2339,4403.688,2113.5054,15888.1494140625
255,2099.0981,-2586.9502,-5057.742,-1464.8352,141.24973,2204.295,7792.04345703125
256,-5265.4536,-6465.094,-10137.988,-3706.6824,-2989.013,3441.1106,11085.13671875
257,-1276.5867,-8987.374,16799.09,1840.3732,-3598.1921,-2076.3945,24238.40234375
258,-1408.3168,-2624.626,-2816.9985,-792.556,4601.7725,-11.78355,8195.3759765625
259,5204.367,-1487.0967,-3113.7512,9.510538,-319.84573,-2690.63,8962.814453125
260,-952.2646,-2591.0022,-12248.17,1001.24164,313.3356,-429.11768,10752.96875
261,-5464.5615,-7022.9824,-12775.985,2970.553,-1988.8167,4961.72,12517.4296875
262,-373.74518,1925.0852,5221.161,-791.058,1269.4594,1367.3973,6003.92236328125
263,-4759.4844,5818.976,-7187.3184,-4520.113,-2369.5508,1529.7944,15120.8583984375
264,-5203.364,7310.5874,1262.4762,4057.7117,8143.679,-2700.1348,19690.572265625
265,2017.8085,280.14832,2979.3013,-597.1612,-5750.6094,-3072.7932,11585.30078125
266,-19560.72,-12723.927,-28364.004,3827.1418,-4535.2534,-1991.9987,17377.474609375
267,336.4196,-4089.3772,8418.529,-497.75516,-325.1275,-521.86383,11070.4736328125
268,576.9808,-562.449,7061.9395,-4119.099,2439.1628,-1527.1277,11246.6875
269,1283.1895,8130.769,2426.821,2693.34,13524.466,-3049.5884,25273.73828125
270,878.0723,264.9768,275.2703,4701.304,485.19598,105.80944,8210.7431640625
271,-2808.472,2703.0186,-3573.8486,-3259.688,-6665.751,1426.3961,14368.6435546875
272,-196.0224,-3451.116,9274.003,1043.2717,3652.4512,3714.6975,14689.6630859375
273,-2458.0378,-431.66522,-4503.926,532.3127,-197.9486,-293.52112,3696.43872070313
274,1074.0662,-148.8014,2689.1985,-1337.8086,1672.179,1010.86633,4785.64990234375
275,693.1383,-1539.6113,1090.3252,291.95688,2036.3241,-1272.355,4856.12744140625
276,-4944.3647,-2801.379,-14866.847,844.1979,-1730.0146,600.9797,11683.841796875
277,1849.5486,3045.6626,7920.073,-448.238,2146.968,-409.88672,6779.09326171875
278,613.5757,256.99673,7815.016,-582.6219,309.3432,-730.29865,7580.3173828125
279,1452.0753,-1088.7266,-1132.8618,1274.7021,-900.49316,-658.1256,3895.69116210938
280,372.9374,-9565.742,-8360.656,1219.8248,-246.70059,638.8545,9701.728515625
281,222.26196,-2935.4358,-1354.8314,612.53925,55.431686,255.53664,2967.99975585938
282,693.02106,-751.3069,-4236.3984,4035.7712,-2592.5254,-437.51035,9426.8623046875
283,-1015.5296,218.59334,-2161.6204,491.38287,-3391.388,587.7122,6365.22802734375
284,-228.33673,-817.9001,-1269.834,784.5358,417.0659,-281.95587,1850.7001953125
285,-514.1467,-817.4376,-3826.1277,-211.21349,29.286263,634.74884,3376.66015625
286,1088.0148,661.53625,2982.264,-1315.733,312.07016,-3878.5793,7429.2451171875
287,-208.38008,-1992.8529,248.37251,-111.54979,317.0338,-50.40138,2134.13012695313
288,-544.20435,1795.8484,-827.98444,657.48376,-293.14966,527.1894,2934.0908203125
289,-914.05,-674.8271,-1673.4694,271.9974,327.8708,-381.86356,1340.71655273438
290,967.11334,810.2778,8430.622,788.06396,-116.93023,-835.83276,7803.7880859375
291,-9926.765,-8850.402,-23555.848,-1611.6279,1194.8948,2651.4573,15321.43359375
292,-151.44025,-3168.926,-446.89743,89.00269,-1037.0116,1679.1765,4473.23388671875
293,-1025.5502,-2292.5715,-5956.063,2455.9866,-181.84601,960.68256,6374.306640625
294,-781.3709,-1560.852,-967.19977,334.0895,-1316.1948,-227.71788,2486.92456054688
295,-514.98267,-193.0244,4051.822,30.89535,-1012.7111,-98.87121,4753.7333984375
296,-57.260014,1184.6666,3655.8523,21.496077,152.6241,-348.2525,3339.65258789063
297,-52.54539,-1396.0123,1552.6278,337.0928,-6.9953704,-307.2208,2676.22436523438
298,2010.736,-994.00476,-897.5777,-566.6778,-509.01147,-216.91353,3260.34204101563
299,1696.199,-153.57164,1902.5249,1137.432,917.97675,404.00772,3277.93286132813
300,-1712.6383,-2211.3699,3750.0676,-793.20557,624.548,-2172.2383,7073.03857421875
301,-1212.3207,-401.85034,-262.0701,-1157.6504,-5.1653423,-44.076935,2194.55224609375
302,-5097.914,-317.86176,-994.11395,1069.526,-1153.559,-2452.2458,6748.18310546875
303,-2954.8352,-251.66177,-2899.1042,-254.69438,-994.5035,2425.7112,5289.00244140625
304,-2294.3586,1281.5588,2699.4082,1251.6875,527.63403,-87.17989,5042.39599609375
305,-3596.3235,320.14258,-11070.818,652.9686,241.63997,462.69888,10128.02734375
306,-313.3017,8491.666,2445.2288,2851.9512,116.751274,-619.23865,9297.3291015625
307,178.46526,1545.7627,307.74762,119.91745,64.50349,-1065.6542,2274.18725585938
308,1462.0094,-3406.143,7714.894,3288.3171,-516.514,-1771.556,11657.279296875
309,6443.3228,-4242.724,10044.862,1547.1277,-1264.7269,-207.09805,13332.5537109375
310,624.8558,564.39105,5064.795,-520.6896,5343.906,726.46295,10394.890625
311,-6043.084,1764.193,-1126.8694,-1100.2406,-497.39996,795.8682,7281.10693359375
312,187.7444,178.17952,-323.87674,296.3677,-156.86919,-655.7264,1372.66552734375
313,2754.24,-2795.1365,9179.443,-2035.5352,1568.3625,-637.2222,11347.3486328125
314,787.1633,-2948.8542,-736.4773,2315.9507,-894.49133,-236.16899,5407.912109375
315,-10674.012,781.68976,-13757.778,172.08101,3567.5874,1117.9828,14767.90234375
316,-1869.8862,491.10825,-3345.6978,1878.5614,699.9957,250.08955,4845.75
317,5812.8477,-2056.3745,5752.343,1716.9823,-1302.8247,-1995.4447,9345.251953125
318,-927.07294,-1074.1125,2154.2148,-735.1196,1031.0692,1454.9363,4596.74462890625
319,-3070.952,2027.183,4907.8555,2551.4177,1133.9325,-3109.0732,10067.81640625
320,-1991.8474,-1146.0964,1923.5216,1830.6187,-886.35913,136.50165,5019.9873046875
321,409.936,-2568.5923,2353.9148,1191.9623,-305.99597,835.04895,5007.5966796875
322,774.385,-1312.7346,3122.0051,-2260.36,95.1184,-326.3815,5517.38623046875
323,4248.3203,-4275.2197,14647.281,3353.4648,-3425.7896,-40.933167,18394.982421875
324,621.83,-1452.2815,-90.02523,1632.7582,-1155.225,485.94467,4005.24243164063
325,-2223.129,-2958.4946,-4771.28,718.14185,643.6721,653.7514,3038.4716796875
326,490.48795,451.28967,4289.7627,541.9933,-1485.9133,2412.3228,6288.71533203125
327,-62.419067,-1512.018,511.5856,1073.1139,-305.78885,-143.60127,2657.06591796875
328,-1362.4557,-3593.1562,-2713.4387,716.76227,-315.06226,54.474052,2373.91674804688
329,-3527.4097,-1834.4946,-4504.3506,287.7503,347.34305,-2200.592,4540.08935546875
330,-273.20712,-289.8327,-437.9087,310.8413,-386.51968,-377.07446,1090.541015625
331,-907.6059,-1172.6187,-2553.807,1571.3273,728.98145,209.07303,3387.70288085938
332,417.38562,-1173.3253,370.68118,110.796326,510.94315,-262.28146,1866.71899414063
333,88.34032,978.2539,307.39648,407.4857,-60.71465,-25.084906,1075.20739746094
334,1039.4349,-1384.9131,-2848.8723,350.23984,133.05522,136.32175,3470.82885742188
335,531.899,-527.2967,-994.0211,4.1888037,392.07104,-1253.8054,2647.90014648438
336,777.13873,315.14627,3551.771,221.1983,-120.49191,-332.42563,3117.00854492188
337,-241.77382,-1312.5378,-3488.6445,92.46155,-81.02865,336.75507,2932.17138671875
338,-2958.6702,-144.12788,-3379.9954,-509.30002,-1049.4655,-899.52515,3974.25830078125
339,1431.1415,1037.9795,9190.151,-6173.0156,-1054.9489,5169.762,16163.0380859375
340,3700.7344,4307.5044,25669.277,-4561.1743,-5376.0996,763.44147,24910.318359375
341,629.7662,-4736.657,-2595.2397,-724.78595,3046.775,2326.0144,8218.7529296875
342,-15720.125,337.93762,-17300.408,-1563.3364,1929.8828,2618.4622,18022.470703125
343,-953.2296,5289.9844,1345.248,-1118.021,-2406.082,-82.56998,7144.8505859375
344,-1477.3314,-1775.3895,-885.4345,1120.868,-44.150146,558.77826,2308.06909179688
345,580.3221,-4083.9624,550.8566,698.2909,407.51846,-114.83303,4859.99853515625
346,-720.1868,-3308.837,-7790.613,-2380.4504,-1.1097137,479.42764,7488.548828125
347,1184.7217,697.2552,345.93665,694.86206,205.16315,-282.1297,1531.62377929688
348,40.1446,-3004.6484,445.8241,13.944744,64.9864,185.25233,3284.32006835938
349,562.6845,-1067.0272,-291.02197,64.563225,393.9898,-258.36014,1634.60046386719
350,-3314.022,2297.4382,-2519.532,-705.5634,1414.1686,674.06006,6042.9794921875
351,106.543106,363.473,-2973.704,-358.07907,529.55707,265.70105,3432.650390625
352,-1608.0677,-592.0105,-3957.4556,425.26358,-199.8942,-1053.5425,3596.02319335938
353,-3508.9988,-1981.2267,-4678.952,1094.0001,-283.46564,578.2666,3213.2607421875
354,262.5532,355.93945,-1555.3651,331.54077,-125.62321,-382.75644,2073.62622070313
355,2398.9348,3018.2307,9832.521,1863.1255,-1959.5286,100.01953,8544.0693359375
356,484.59842,-1401.9103,-75.01013,414.10223,-222.33197,95.79422,1872.60144042969
357,-15.540702,-945.20404,549.0553,26.742403,658.42773,-40.861145,1736.56628417969
358,800.5073,-802.62946,-601.80005,595.80884,-674.13116,78.034294,2176.0087890625
359,-1432.6199,-2004.9277,3697.798,-628.27704,722.51324,991.1838,5939.908203125
360,-891.0297,-480.90207,476.82074,1936.0886,-65.624565,296.04205,3605.46630859375
361,2463.7036,429.02792,493.46017,-505.11435,36.604073,-76.597046,2190.89038085938
362,812.50085,-1309.1096,786.1275,416.06262,-199.29785,-81.15871,2259.25122070313
363,764.1088,766.75116,-382.68463,80.767654,-252.05656,215.9917,1291.62585449219
364,-489.23087,-284.11002,249.09462,-23.584743,-549.58417,36.84814,1160.87182617188
365,-473.86398,-547.67944,-482.5029,-679.755,64.709946,-99.539894,1197.23559570313
366,-395.98593,-268.04556,228.87709,428.25986,-160.67508,158.05542,1014.63830566406
367,-657.938,-958.39136,251.00917,-676.71985,515.0052,-235.34273,1877.56555175781
368,-298.6504,-1984.9373,421.96445,361.3961,196.106,209.60541,2284.07763671875
369,-892.8511,-1380.2653,697.6669,492.02148,123.59776,-267.09244,2128.06494140625
370,-124.738815,-2176.8286,-653.43616,29.067778,11.183088,84.17489,1851.978515625
371,-481.50888,-463.6681,-158.61075,284.01538,92.04613,381.4337,895.939392089844
372,-667.647,-472.0501,373.1544,-203.31544,-106.83587,-191.14764,1088.95068359375
373,-1190.1346,-470.82855,-107.52362,576.0838,-156.04492,79.0348,1413.55102539063
374,-2204.87,-1148.0974,371.01215,641.85535,171.63368,48.32897,2522.12866210938
375,415.16956,-191.08542,312.0084,-154.51305,111.90364,-15.366434,652.337280273438
376,443.83295,-396.788,277.66782,-404.2854,61.857407,15.788784,1047.44421386719
377,-1698.86,-235.40704,-116.44523,-127.658325,439.78897,-15.148003,1720.39611816406
378,-691.848,-800.1447,-667.07965,-21.446312,279.08463,376.47107,821.742004394531
379,2247.6611,161.2972,329.6753,-402.203,-25.424793,129.72055,2137.21557617188
380,-938.4709,-2483.8567,-857.0318,221.90952,516.5643,-64.985466,1865.91027832031
381,960.17004,-1948.5916,-540.71344,82.57955,-83.747734,-210.45775,2553.86157226563
382,499.26462,-1738.2498,231.07458,86.67562,-30.329634,-134.808,2134.97875976563
383,192.21687,-1244.4673,-243.26915,225.31297,233.2772,-74.722786,1400.12731933594
384,-584.78564,-1319.0431,-575.7289,758.61395,-403.19156,96.45752,1669.716796875
385,-1490.264,11.798553,306.6269,902.15814,-179.53954,131.59149,2318.68212890625
386,-1686.4933,-506.21225,-66.67331,400.8286,49.02612,-103.09979,1620.53308105469
387,-1008.5615,-668.5375,-718.9483,1041.3633,81.47696,17.467773,1837.16088867188
388,-879.5394,-659.7484,334.746,206.58426,-55.901897,58.92451,1184.79138183594
389,-322.65366,-962.5292,-282.10526,-395.19226,148.1542,228.64967,1062.1923828125
390,-492.4771,-1296.6217,371.71432,155.69537,-17.1354,-314.78033,1568.20727539063
391,-921.8178,-1139.9491,-37.86905,-684.97156,494.7951,321.86578,1864.02282714844
392,88.74528,-693.8123,211.73009,-932.61194,-73.08944,-127.15375,1843.25512695313
393,149.80309,-1874.232,265.04913,344.30292,-71.258575,212.12785,2202.07250976563
394,-120.820984,-2480.624,-222.11414,293.93268,-52.586708,-10.163718,2368.05712890625
395,-868.27094,-990.8293,396.66864,-13.201761,133.0336,296.5172,1444.8203125
396,-727.10474,-1668.498,-851.37976,982.3368,399.72256,-46.45019,2040.94055175781
397,-524.7546,-284.66223,-216.689,-96.66603,-327.7257,45.144318,659.502807617188
398,-824.28595,-1363.4653,-102.83581,-539.6387,-134.01865,15.630237,1458.91796875
399,-385.22437,-289.7182,-66.74297,-106.683495,38.00802,122.44446,404.463531494141
400,532.25476,-1588.6251,373.85382,59.14939,131.39111,487.73145,2227.8251953125
401,102.11031,-393.82867,1187.1827,-1441.8749,-378.31223,-215.70308,2960.98291015625
402,1109.4929,-2238.0747,768.1244,288.4658,143.53883,-255.84764,3269.2216796875
403,205.6808,-1760.3365,335.62338,-189.78996,581.9351,126.71508,2304.29052734375
404,-593.411,645.44836,196.79639,653.0223,-420.43823,-224.12666,1772.1630859375
405,-1187.2843,107.2647,-725.526,150.37445,-19.832144,322.30823,1293.04846191406
406,-790.1674,-324.21835,965.2911,741.49664,-369.1328,-99.89405,2137.51123046875
407,397.03674,-1251.8953,-33.710613,-333.03934,35.669224,131.98798,1607.19372558594
408,-196.26988,-1989.2539,55.927624,426.43243,213.79163,-168.00293,2120.82788085938
409,5.0451813,-811.71094,-472.3823,-531.5632,23.243093,100.82394,1176.80969238281
410,-350.40726,-2660.5266,736.47815,-209.53772,81.093605,41.714138,3030.75439453125
411,-361.30814,-1465.0128,51.916294,-902.03564,-29.369713,117.79074,2080.91625976563
412,-1602.3207,-1607.2483,-785.47174,-344.74298,-362.5124,-24.706648,1193.27770996094
413,-60.649593,-743.2343,-219.35599,-65.896034,48.327232,-146.47583,683.504211425781
414,-577.127,-839.04694,300.45822,1293.048,192.31201,217.80911,2517.50024414063
415,324.076,1578.8279,1414.9584,-347.2675,-23.77309,-360.59885,1466.01989746094
416,1122.2825,-2671.462,344.2168,485.2885,-66.10824,147.8968,3582.08666992188
417,473.96613,-125.681625,-1544.6494,412.90326,-35.867405,522.30005,2134.86450195313
418,-966.9745,-1170.3024,-559.80963,735.873,-91.2344,-184.28487,1428.73876953125
419,-185.38762,-944.7008,569.5189,-100.58002,-160.30574,-194.30608,1392.96752929688
420,1178.1234,556.38293,839.50525,352.00034,-117.557785,-262.88022,954.558044433594
421,-762.8136,-734.0836,206.0165,-146.36003,-234.98631,-219.15651,1133.85668945313
422,-556.8943,-208.23837,401.55795,1401.9034,-7.737168,-25.66548,2569.859375
423,681.8941,-317.3812,-786.17334,-380.93732,172.19145,13.176506,1487.13818359375
424,434.5764,100.807045,-981.9918,524.3819,478.06882,-442.13177,1934.49743652344
425,-1324.1031,-312.1327,-32.8694,-140.6167,-87.36098,-153.82234,1240.11181640625
426,-284.50574,-258.2856,1193.7117,564.66327,221.09084,109.003746,1812.69909667969
427,-158.57271,-535.1347,-555.1716,172.24467,-89.817116,7.6258163,512.958129882813
428,-54.651375,-309.2361,433.97012,-328.6346,-48.643078,82.59885,882.908996582031
429,-1247.2914,-606.4503,-326.45944,654.09326,-43.663536,-290.05878,1486.65307617188
430,-880.9037,-525.89,-80.101036,-594.88806,-338.71072,-19.206558,1374.765625
431,-693.2375,-1022.2473,-362.83054,294.90756,67.48611,-175.27965,832.386169433594
432,-707.58746,-520.449,271.0825,235.00493,-277.2409,-64.398865,1103.80249023438
433,-577.2206,-736.36444,520.7111,143.40472,-158.88487,177.65698,1279.69677734375
434,1454.9279,84.0198,505.42166,-441.70145,-119.872795,-233.70976,1507.16125488281
435,-620.3547,-1572.3583,42.78534,365.44852,-145.14622,285.69537,1638.93347167969
436,463.79398,-737.53973,-121.03949,49.489925,-182.6324,-78.53908,1099.34948730469
437,521.9167,-1954.7412,-818.47485,637.861,52.833782,178.32944,2436.220703125
438,-761.0256,-1303.826,31.738823,-566.37225,85.97532,-25.598509,1529.67126464844
439,-758.4706,-1774.3379,-861.7735,-577.47,465.59204,120.91518,1622.44250488281
440,-416.27298,-1825.1324,-1413.953,942.8231,-49.232895,-748.65607,2435.18701171875
441,-98.635544,-45.65617,977.29816,-672.10504,-406.1577,8.115223,1718.63415527344
442,-520.8592,-2084.5603,453.3041,225.2524,186.37291,-8.346439,2274.66162109375
443,-787.82245,-1090.3073,358.33627,1086.705,-310.037,199.7181,2388.02978515625
444,382.9689,-842.4979,-185.25049,-1136.307,-291.01617,-421.5074,2406.02685546875
445,-1193.9619,-71.05522,-338.21817,102.609856,207.92494,106.8393,1108.07263183594
446,181.04822,-1382.1068,621.4765,-691.1468,-174.94092,81.057236,2206.91284179688
447,838.12494,-216.98228,290.1112,-146.78847,-250.62358,108.412186,1060.04431152344
448,-1078.964,-2223.8264,-421.31772,-910.47174,38.266174,28.335434,2233.7861328125
449,-623.1261,-340.52747,575.53345,824.97925,51.867786,85.996925,1802.75805664063
450,-1099.073,-202.60918,-1098.9983,778.36383,170.79764,87.58455,1652.77331542969
451,-425.74725,-1301.2146,-99.18079,283.01688,291.15817,-153.03409,1312.95861816406
452,30.708004,132.99274,201.5239,-37.968353,316.76703,-69.20678,584.710144042969
453,-651.91254,-449.8183,257.60287,321.1365,24.61298,-183.35582,1047.05017089844
454,-1483.5929,-540.4801,233.69061,-114.61368,-180.93353,274.60892,1607.10375976563
455,-749.18536,-836.2582,-55.129765,-276.02066,-224.32602,10.675656,964.157043457031
456,313.29462,-287.34097,-90.75475,-113.62506,-35.85664,61.153255,578.913452148438
457,611.6093,267.45438,844.6,36.699852,-271.54196,166.57564,749.266479492188
458,-1095.5503,-720.7191,-692.60626,-298.12897,-270.10825,16.737473,798.864685058594
459,82.98692,-1938.0354,-547.104,444.2056,18.716982,13.105867,1949.77954101563
460,275.67,-404.37906,-251.15436,-746.0638,-93.05981,449.9421,1638.56701660156
461,-298.01205,277.1882,427.0699,505.78415,45.39541,-4.2955375,1101.46374511719
462,-444.07657,-828.594,97.03909,386.46533,337.009,191.85907,1244.16625976563
463,-347.1303,-317.64236,-0.4736651,-244.88701,15.661058,-206.92099,648.006042480469
464,-1630.4303,-1200.3309,596.9445,128.99808,-265.83417,258.07236,2156.36743164063
465,-514.98627,-710.5482,147.61006,-269.1546,-26.64502,-32.074055,910.717102050781
466,-1343.1456,-261.2031,-67.70627,1611.5558,197.84248,-198.01991,3073.07495117188
467,-740.8808,92.415344,-69.04704,105.766045,-360.54654,109.0296,1022.30609130859
468,755.6827,-203.64674,77.55239,-156.29391,-248.99094,-88.97026,1006.3017578125
469,316.81512,-501.02444,-229.0791,170.75282,-101.97412,-109.606125,821.653442382813
470,-733.8377,-258.91464,656.63513,1519.5557,-160.33348,-72.01125,2918.63403320313
471,-1575.426,-1245.2682,152.36087,-315.5415,197.78922,126.244194,1728.49157714844
472,-1528.0021,185.143,210.2112,479.6467,-88.73203,-99.72967,1929.26953125
473,915.1554,3139.9265,-493.73196,-74.062805,-20.674103,187.61467,3192.54736328125
474,641.71466,-51.698807,-167.35326,591.3419,131.921,-273.34433,1378.33630371094
475,-1082.1586,273.85052,-240.8569,37.2971,193.74956,-106.03027,1247.49890136719
476,631.9612,-518.4228,-793.2082,70.69897,507.40768,-192.15192,1616.52368164063
477,-549.7228,-812.8057,-254.50398,-28.14569,105.755516,-42.43044,524.751403808594
478,-459.05136,-187.35097,484.04544,281.9196,33.81235,71.38803,981.920288085938
479,1257.0798,1988.299,-446.82416,818.3958,-85.39601,251.8372,2627.80444335938
480,1240.4047,1895.5309,614.9312,1545.1646,-100.190834,-236.99026,2931.10571289063
481,831.37366,1512.2449,270.66467,-269.13556,-185.2641,-136.3482,1239.27136230469
482,1217.4282,-1407.434,-181.66222,871.38464,2.7727516,-4.4880233,2730.00952148438
483,-507.37418,-2534.2415,94.62174,-90.67534,-0.49159905,-100.96063,2397.08178710938
484,-2038.0029,142.3805,-367.14038,-3.6288476,-24.217934,76.7302,1980.453125
485,-508.22913,-296.63388,-242.43951,-238.87987,121.25215,128.0392,568.90771484375
486,-1869.6302,-1341.7517,84.14465,-1012.10046,69.78262,9.701914,2480.41723632813
487,224.33665,446.73904,-559.1271,-42.89308,-318.52884,156.48677,1104.93798828125
488,-32.295498,-874.7011,-280.595,1498.6418,275.1016,184.78986,2762.13647460938
489,-1052.4685,473.8519,663.9451,-242.58449,293.44202,9.644563,1758.14624023438
490,-4656.0005,-601.6165,44.41243,-259.05295,-248.58487,61.025734,4457.85986328125
491,-2460.2437,-13.722478,-8.850514,-593.1408,157.02779,19.587126,2669.82788085938
492,-1273.8777,-391.21008,19.604101,767.96246,3.50778,-221.43947,1796.36450195313
493,300.08163,-1675.6376,382.63675,646.3155,193.70837,-146.38705,2345.93579101563
494,-74.77165,-1851.1741,-483.1238,253.52304,51.12735,347.20245,1777.43395996094
495,-221.51254,-1122.375,-317.6104,1001.9777,-42.639523,0.4508632,1936.89184570313
496,-1030.1478,-269.3084,-260.05206,-7.9825068,307.76587,-10.4978695,933.105590820313
497,-985.7616,-328.57092,-38.666683,694.20447,321.8868,-223.4441,1616.42846679688
498,-955.05945,-1983.035,291.1531,501.0241,-267.62668,271.83438,2253.99291992188
499,798.1296,205.0346,780.38403,356.05072,-59.251194,-256.87427,964.548278808594
500,-1714.219,91.59336,-556.18646,-343.78265,-31.825123,-87.27105,1700.36901855469
501,-712.4734,-360.37527,755.6774,1040.0168,-47.89717,302.59253,2299.7783203125
502,-3259.9785,-696.9983,-57.118862,772.0983,229.32954,-72.95928,3252.7626953125
503,-1133.5605,533.5856,-590.06683,2725.7344,142.50917,-114.72068,4955.60009765625
504,-1150.8439,-8.658101,-518.7884,-239.59473,111.09692,-409.38968,1301.61511230469
505,-1190.5507,1210.2083,-129.67635,1109.0422,42.189148,-12.458563,2835.12329101563
506,-230.44586,-363.50998,252.39792,20.228434,169.70084,88.007095,652.649841308594
507,-678.6907,-923.5906,905.1547,-409.83026,610.5908,163.73051,2158.51684570313
508,-1212.5349,-1543.0955,1370.8291,-375.496,-84.00894,160.30296,2856.265625
509,-852.12866,1153.7328,-556.92883,428.4898,-92.00746,131.54434,2036.32312011719
510,308.10364,1528.6364,-268.75427,118.8592,98.889824,68.040665,1616.21411132813
511,264.16293,-719.147,-134.44865,-255.23859,5.8455043,49.860012,967.900634765625
512,-1458.176,-628.02704,-28.371704,820.16547,-43.62251,358.00583,1988.65905761719
513,214.93362,2936.2908,-182.24126,-483.19272,165.05922,140.3632,3079.87841796875
514,-2070.949,-143.03572,165.73116,1060.3453,149.06967,-196.5543,2821.88305664063
515,-485.4462,2191.8823,-409.58215,121.72283,-55.14443,-144.51118,2662.13330078125
516,298.2597,-1067.7654,-191.28757,152.09508,-223.32066,-16.802795,1287.17102050781
517,-1933.3214,-2438.4985,-97.524826,1152.6454,25.526016,-206.27321,2944.1689453125
518,377.58932,-784.2384,-17.328032,478.87723,-122.74646,53.784657,1337.47009277344
519,-1351.9038,-1187.8667,203.76147,-386.46936,20.25009,-142.00162,1643.65905761719
520,-911.982,1195.8423,-288.7069,-691.2348,167.84961,45.66995,2245.40307617188
521,-1228.9624,986.38,-299.62283,26.318727,-533.87616,-167.49692,2157.29541015625
522,2532.683,434.37482,-1908.4216,-8.142885,-122.086266,164.161,3864.35791015625
523,192.98637,-11.537149,-1735.4937,271.77063,-20.838316,-46.44678,1896.25891113281
524,-2169.0713,-2706.6099,230.70523,187.96622,37.320118,81.67104,2732.76953125
525,-2900.424,-1828.0505,-150.58603,463.00595,-48.99498,-162.81738,2548.05688476563
526,-1530.9769,722.9751,181.22769,21.53143,-131.23216,21.254307,2051.12890625
527,-983.6062,-2641.0815,-175.10417,244.9475,376.60883,50.868286,2313.92211914063
528,-799.81433,-153.70018,325.68033,-409.39856,-149.20018,-216.9434,1291.43347167969
529,132.42407,-641.78674,-494.9974,722.83606,97.370895,-2.9727495,1450.25830078125
530,-1294.2123,72.939926,-614.4625,1000.24634,-89.89116,76.02652,2108.2939453125
531,-1172.8267,-2130.7537,271.58932,193.71657,135.38098,-352.12814,2219.71899414063
532,-1732.2332,-4120.897,-591.32245,1201.6565,-51.713993,89.2333,3754.529296875
533,-408.6076,443.36182,477.20667,-492.95093,-83.28116,-63.121784,1231.90673828125
534,-2037.7313,664.445,283.24142,-56.218758,-239.10318,257.54672,2607.10131835938
535,-1252.8707,4128.8267,-333.78125,944.6955,193.55219,49.305737,5259.1025390625
536,-1371.8105,73.645424,-642.7983,1411.4017,-14.109515,341.68622,2809.63647460938
537,2181.2058,-218.7404,1550.4386,1139.1215,31.713184,-61.007156,2924.17138671875
538,2994.0483,-550.9279,1235.6344,624.3733,-60.020115,47.021996,3257.65356445313
539,1738.2627,2929.714,-204.91888,-885.15497,134.79327,89.49586,3152.73706054688
540,-1708.2991,646.3869,-410.1908,2068.9841,56.518574,-118.16932,4131.1689453125
541,-993.56274,-639.62366,-331.89124,1005.6409,-25.83919,250.46004,1884.94714355469
542,925.3529,612.00354,259.65765,-809.9522,183.18993,44.4695,1551.5859375
543,2274.1875,796.2641,-811.6486,-138.87375,-112.36455,-201.65588,2713.62182617188
544,-514.59644,-745.6141,-283.99347,-1654.6891,114.7999,83.5089,2904.18090820313
545,3459.8867,824.69226,-387.99567,-902.8436,153.9922,-63.005928,3760.1806640625
546,2986.757,-1691.2532,-1063.057,-2257.4067,198.77176,-131.09193,5898.93603515625
547,885.55334,-622.4592,-953.4445,-1482.6671,-278.54114,113.57099,3122.36108398438
548,2504.6353,646.2935,194.85516,-1039.5266,117.999855,1.611355,2789.2265625
549,3194.8955,1584.8495,-203.28732,77.04505,15.058093,101.67586,2952.65405273438
550,965.44904,512.2395,-80.94579,-1555.1605,-155.55809,-63.793182,2857.70556640625
551,60.59338,228.52254,-490.91092,377.54352,-303.39044,-25.366205,1063.32299804688
552,-1874.3313,-2752.8408,-291.74695,-1104.0736,79.59636,213.27548,2911.88427734375
553,41.702747,2035.3,-253.93779,-420.32956,45.477688,112.36326,2285.89892578125
554,614.90784,-1279.3104,2341.413,-945.28516,-107.14762,133.52968,3550.75854492188
555,1069.4208,-80.41532,2165.244,-332.0824,-17.581396,-86.24706,2033.97326660156
556,773.43054,2141.3079,188.11238,22.935734,5.2974343,73.076935,1741.26745605469
557,1344.117,1036.1653,32.80084,-588.7297,-61.069313,-82.61358,1575.44702148438
558,-636.71045,-2157.0059,601.78186,-865.1017,-125.79536,-359.49323,2899.72729492188
559,-2428.7957,-4007.6057,-220.73872,-567.9659,34.474377,125.26442,3445.67163085938
560,564.73047,-583.9293,-166.94005,-477.06708,286.6337,-221.17175,1445.79626464844
561,1295.2703,-1396.7117,557.2189,781.75244,-21.853039,-140.57103,2774.66918945313
562,2010.38,-361.5676,395.37283,392.20526,-113.785324,-83.89838,2219.25756835938
563,-622.2545,714.872,-408.52872,554.0592,83.97582,-91.25658,1585.84094238281
564,2087.0293,-872.5782,-247.44717,326.5655,-30.924389,66.16318,2763.30615234375
565,812.5886,-1769.8182,-499.29462,536.22327,22.666042,-172.86966,2440.4599609375
566,-264.82947,-1862.9591,-578.74414,-329.0034,-18.283958,129.68587,1589.6767578125
567,580.64294,2128.9893,-589.6162,1246.9214,-137.0115,271.79483,3243.64331054688
568,2889.6353,1907.7755,795.6661,1636.0148,266.14246,-635.1765,3570.048828125
569,1140.0232,2485.0137,73.888824,-417.20316,95.71933,2.507371,2220.1943359375
570,1998.7286,1952.5103,1077.9331,-408.24902,-69.6168,132.49146,1172.45300292969
571,-448.0596,692.3642,231.06602,-359.50772,476.61646,289.12817,1518.97985839844
572,-314.09805,-440.42603,460.36438,679.53125,131.76012,155.13997,1491.02734375
573,473.00598,338.2775,395.85522,-341.23712,-87.99202,61.386883,630.532104492188
574,-2164.0603,-99.9969,86.76752,-124.18804,134.54016,116.94603,2195.98095703125
575,-811.2097,-479.67297,-572.9715,183.01993,413.14374,14.656746,837.189270019531
576,-1701.783,-195.78761,-212.76738,224.22281,123.36933,-51.15838,1564.31396484375
577,141.05608,172.79214,448.34198,-367.6776,-235.0785,309.35403,971.661315917969
578,-1530.586,-139.28537,658.3566,57.48458,-427.75464,151.53148,2075.9169921875
579,-1672.0917,-1213.4429,-554.18536,-566.4356,240.76416,332.11185,1553.92785644531
