Element Label,S11,S22,S33,S12,S13,S23,Mises
1,82445.49,73543.09,105980.22,-687.0696,-15005.799,5164.3984,39995.03515625
2,-8414.929,-22887.154,-2685.8516,7875.5537,-4156.1797,6013.6475,25914.599609375
3,13205.006,7886.8467,-2437.2495,5137.001,3152.4548,-4112.725,18694.884765625
4,-3532.2534,-22955.732,-5014.733,2799.7036,-4521.0474,202.96361,20871.8125
5,-2099.5815,8928.5,-4363.982,-108.778366,-270.0083,-845.35645,12414.353515625
6,11490.935,10368.93,9309.261,3762.7578,-3426.9185,-1108.5848,9217.5908203125
7,-8077.4717,-527.688,834.45557,-1281.0513,11035.679,-9923.782,27108.390625
8,11544.067,5466.679,21595.066,749.79785,3145.6528,3801.1091,16545.64453125
9,-10981.966,-14476.378,-9674.409,-732.28735,-9328.175,9060.289,22965.3984375
10,6540.2686,-8180.0806,14845.008,9153.453,-2969.005,-2751.4517,26616.15234375
11,16410.674,5963.302,3356.6543,-4389.7695,6825.1675,221.95755,18462.978515625
12,-7897.7803,-5485.243,-6733.845,-1946.1229,-1206.3367,5851.241,11081.7890625
13,3488.0518,-10207.241,-6733.499,2995.7903,-7503.9863,6677.8833,21947.439453125
14,-1130.7571,9883.996,-5986.139,986.72595,7393.3843,-6803.4756,22453.2734375
15,139.99783,-8911.8955,-5265.9517,-4653.81,5291.419,4181.1606,16237.1328125
16,-8436.357,-16575.32,-30362.41,-1537.9933,-806.9086,11982.262,28430.837890625
17,4682.5986,-4885.075,941.53424,-387.12543,-2378.1453,7474.029,15960.6484375
18,9103.562,17581.51,21596.348,-4061.193,605.11664,-12221.073,24913.337890625
19,4920.187,152.55368,6150.8535,4638.3765,1395.9974,4906.0874,13141.9697265625
20,1193.028,1028.464,-1017.8686,-1361.103,1536.931,-4816.784,9316.6416015625
21,3118.864,-5974.7656,4846.855,3196.6433,-2619.8486,-699.9907,12414.1103515625
22,-1192055.2,-1191833.5,-1192631.8,429.7097,728.2227,670.7512,2000.990234375
23,-19707.96,-16060.043,-20041.723,3436.5676,2608.2388,-516.2071,8442.4150390625
24,-482.1225,1513.5042,1103.1082,273.4788,316.0764,-222.03955,2000.98559570313
25,491.10654,-768.17883,346.06982,-191.7635,903.8473,-78.76317,2000.98547363281
26,-5482.6646,-2375.7832,-6532.751,-1140.6056,-7471.4585,-1981.3234,14041.5751953125
27,12337.15,8294.709,15908.866,1634.9515,-7718.4155,4717.9507,17235.287109375
28,3455.6003,-972.66205,1539.6483,1003.491,-3829.0847,220.1462,7870.71044921875
29,-3968.2463,-12076.793,19376.92,-7226.7944,1191.5018,4802.5312,32096.298828125
30,1839.0571,268.27155,1556.8857,136.15906,552.30255,556.61285,2000.98559570313
31,995.94116,-807.385,235.27818,91.87257,661.8967,-261.68005,2000.98547363281
32,-1452.7882,-5683.9673,15814.064,-682.7267,-655.0667,-5895.1025,22272.1484375
33,-3474.199,-3436.616,1295.9652,-5611.257,-5690.6787,-1700.7698,14928.6474609375
34,18197.75,7480.5645,20154.05,-5702.8975,8169.5884,-728.9103,20953.30078125
35,10669.04,-26985.857,12102.745,-6255.9497,-2320.012,-310.58926,40097.13671875
36,19022.936,5830.4,3553.7537,-1989.7324,-3441.4465,7488.132,20612.73828125
37,26304.932,-3923.087,15740.271,-1347.3555,5769.7065,14861.316,38391.23828125
38,1572.5784,1399.4727,104.32754,735.64294,-370.385,111.52383,2000.98559570313
39,12736.054,14778.6875,33290.773,3870.8464,-6319.6914,5286.813,25165.455078125
40,45794.617,46911.574,45644.273,-791.0901,-186.24464,441.31445,2000.982421875
41,5016.9316,6887.2705,5253.8057,-413.84735,259.1267,-243.20877,2000.98522949219
42,-232611.44,-231169.2,-232122.22,201.54878,206.34541,-844.69495,2000.98388671875
43,19963.766,12780.2705,24312.96,-1269.3354,4964.894,776.816,13503.888671875
44,5166.242,17141.807,29947.38,2673.5032,2253.523,108.66533,22303.90625
45,-463.9163,557.1161,24263.197,-5645.187,2710.2083,3418.5667,27201.5703125
46,24279.883,6884.386,28980.771,1485.6942,2554.0156,3201.3193,21527.009765625
47,-13886.235,-19397.6,-11291.869,3398.7988,-1262.037,1500.4038,9878.8515625
48,5467.8364,13892.389,15662.202,-284.0532,-1393.0891,-6622.692,15055.21484375
49,6479.7905,662.3947,2682.271,1610.254,-1629.9377,-8386.578,15903.6005859375
50,7210.4355,5460.271,9057.466,2279.8503,3642.578,-10378.957,19704.6640625
51,-9985.536,-16560.49,-11196.676,-1562.6411,-4272.0684,-8793.331,18187.330078125
52,12793.347,17477.912,17559.855,-4264.8184,447.45596,-9090.059,18038.568359375
53,11478.999,8399.303,13630.138,-637.37695,2479.487,-1126.0696,6648.54833984375
54,-4754.0767,-5150.3696,-303.58914,1196.9878,2373.6636,1888.0116,7322.740234375
55,3973.0012,2141.32,3807.8865,-1055.0883,-1468.2318,-8538.346,15218.2998046875
56,16469.768,8920.296,13457.778,-3033.3777,1641.1259,-3044.1519,10335.0029296875
57,-6491.2,1107.6477,-36614.867,2163.746,-1564.7979,-185.4492,34865.12890625
58,7985.813,12049.111,10123.154,975.47595,5753.3,4590.5933,13333.0654296875
59,-19594.787,-20131.48,-26348.377,-156.69957,6183.2476,-1572.9991,12824.53515625
60,5347.4844,2696.9268,9569.848,359.62186,37.639523,1838.5417,6824.83447265625
61,-4060.3926,3951.3767,2514.7385,-771.1062,3311.3862,1211.9423,9686.5078125
62,1555.832,-624.4916,6773.025,-1524.5035,3074.8848,-48.25433,8870.859375
63,4824.3853,12020.301,16742.732,946.2721,745.6599,-4302.7583,12959.94921875
64,7662.8115,21176.59,6212.3516,-1058.78,2592.8896,-4742.123,17184.955078125
65,6837.607,8774.517,11201.848,-335.05377,5018.7407,3151.4634,10956.2900390625
66,1791.2446,-2855.3877,-1930.0128,-3419.5994,1563.2439,-1637.3191,8282.6474609375
67,-2543.9834,7248.398,7499.629,3603.4395,4984.9414,-5299.8916,17209.9921875
68,-10131.989,10722.5625,9970.001,3402.4885,-4284.167,-2080.463,22859.623046875
69,23153.768,27132.287,21199.938,8194.461,-1804.6094,310.81274,15457.2529296875
70,2669.773,3507.2285,5070.9365,1647.683,7140.7637,3111.6338,13950.5888671875
71,-12216.347,-3383.636,-11772.858,5446.253,5085.393,1800.7379,15830.126953125
72,7572.669,9014.983,11150.2705,-33.76845,8471.753,-4125.2993,16615.92578125
73,-3936.6443,4596.288,4614.269,-1873.1008,4848.3975,3031.144,13474.9609375
74,-4853.5806,230.7689,9635.689,3746.307,5723.141,-3913.2551,18666.2578125
75,-5623.6113,6348.8496,-1084.815,-1137.4071,6682.88,-177.67238,15733.9873046875
76,-4278.7104,3156.9412,5501.1577,1427.0388,-1175.9307,143.44527,9409.2783203125
77,-442778.16,-441487.84,-443552.53,-313.80002,-369.77942,107.36013,2000.98706054688
78,52900.863,48741.984,67376.18,7501.65,-6462.9805,-5330.4126,25814.8515625
79,-12181.602,-11473.739,-10119.219,6249.102,3243.6348,-2833.4336,13270.1533203125
80,2538.3748,4623.935,3709.1287,-9.411521,310.74722,-380.97958,2000.98522949219
81,-3971.7856,1672.0391,10013.021,-574.15656,-4182.0244,-10053.049,22475.5
82,-16384.523,-4705.91,-18149.324,5968.4937,-206.67015,13302.267,28248.234375
83,9239.359,-4322.747,-753.16187,-8558.038,3678.6938,7977.904,24485.11328125
84,11808.248,-11.412168,13342.038,81.74016,-66.095436,7341.9907,17942.501953125
85,1913.676,7768.3804,9391.157,-2941.3862,2403.9717,14330.836,26567.328125
86,14534.402,12147.487,24545.422,9383.668,-2999.85,8608.151,25362.791015625
87,18835.018,-2448.2378,16266.796,-6475.859,-1173.3247,7234.6772,26303.5078125
88,14548.361,12272.527,17413.676,5455.1147,2118.0347,4498.1343,13540.4248046875
89,401.02798,1436.6738,397.41345,-542.2813,-29.638527,825.1832,2000.98559570313
90,22638.174,14529.686,-3979.6104,-1046.8474,1382.754,7189.7446,26879.82421875
91,11848.91,5035.942,13306.299,-579.2782,-2442.848,-1204.1656,9040.404296875
92,97.18388,5011.6904,1462.9153,-4695.57,-2995.268,8589.322,18267.322265625
93,1936.5061,1448.6694,1108.2145,873.34076,-26.71575,-630.77966,2000.98547363281
94,30389.184,28663.984,2466.0742,-10944.1045,2765.9958,-6086.402,35041.52734375
95,7903.6616,-2839.3052,18706.227,-1198.8914,-1819.8536,5416.3467,21223.015625
96,9916.561,10623.238,8469.815,-3340.9963,6642.8955,-5376.9585,16006.900390625
97,16560.232,31001.834,34829.414,2058.9792,1941.8945,4184.6777,18842.830078125
98,8264.83,11456.291,7597.7935,1099.9459,-2011.8367,-9313.616,16992.98828125
99,9636.315,11473.497,18909.3,3491.9192,-4803.4995,5055.5386,15962.5830078125
100,588.0229,660.1088,1276.7861,-942.9218,541.29486,-96.08485,2000.98559570313
101,-426.5403,596.32416,-5.2907286,889.5516,27.357992,527.56354,2000.98547363281
102,-11366.526,-9642.86,-1054.2775,1661.7925,347.36505,3698.3438,11883.5400390625
103,828.08936,-12020.772,4349.2417,6597.3325,2872.3794,-9199.437,25138.60546875
104,-1336.26,-8452.162,-1048.6404,1137.021,4929.2764,6230.367,15684.056640625
105,-19626.168,-31665.434,-20332.875,-4649.9,-7175.813,-1525.4222,19059.3125
106,-30198.078,-30953.926,-30388.555,190.30391,1069.1782,27.416548,2000.98571777344
107,8358.666,9206.82,8814.6875,-757.0384,93.96247,-756.6568,2000.98498535156
108,442220.56,440925.6,441520.84,-648.4841,-427.69077,557.71094,2000.97827148438
109,8147.3164,-4214.7686,-7260.195,-1178.9948,-1116.1874,8043.543,20043.62890625
110,6281.2773,3709.4622,6518.54,2102.2512,3524.4675,8.428875,7602.95556640625
111,10763.324,-2869.7666,11872.955,-6965.6997,6370.655,-4404.3267,22972.44140625
112,3976.4976,-9347.592,-8201.386,-9514.885,2928.1426,-6737.442,24435.087890625
113,1447.5815,-2480.2932,430.70078,6418.339,1491.8252,1243.804,12139.6484375
114,-13883.747,-12730.224,-10693.49,-2274.5269,5753.5454,4934.015,13989.0
115,-412.18994,13878.1045,20317.422,-2757.595,-9864.23,-3670.174,26321.658203125
116,8955.617,8858.914,16695.44,1435.8633,3034.917,-222.8607,9727.7412109375
117,4299.26,8804.21,14311.464,-1596.3203,1374.5396,1558.8953,9799.876953125
118,3313.3564,5922.034,12100.3125,648.3563,-1854.5773,377.73898,8549.9111328125
119,12408.02,12071.51,19638.162,470.8103,-1886.4113,-493.67764,8178.81396484375
120,1061.2814,4024.541,10496.421,-2777.4558,6819.1567,202.02144,15251.6201171875
121,3701.7957,-3583.1255,3046.5217,351.2531,-2284.0225,-5049.0903,11883.86328125
122,2841.9897,-63.98339,9441.368,7481.7334,-2927.6907,2444.4224,16814.958984375
123,601.832,3490.748,3076.2156,1602.2081,4015.53,-688.48193,8050.888671875
124,9874.538,20859.1,6252.3735,-7368.326,-1910.4006,6724.222,21978.162109375
125,-2177.6072,-10758.773,1021.22845,-2899.5027,1974.83,-1820.4037,12577.0224609375
126,26706.053,16846.668,28203.229,3108.9968,7539.1934,-578.765,17740.66015625
127,8553.504,6062.3335,7264.1987,1360.3391,542.80383,-496.77213,3439.79370117188
128,13928.848,-2542.8083,-10452.58,-4018.9082,-1834.9417,-7168.549,26017.0546875
129,-6566.297,-3210.4702,821.9532,1975.5857,2252.3833,-4133.3013,10919.4853515625
130,5807.155,-7090.6616,-8343.861,-465.62018,6078.274,-11490.63,26299.7734375
131,-724.19403,-10262.317,-7583.9194,-2734.737,-1801.4664,-8456.83,17869.775390625
132,4545.903,-6823.53,12684.141,6165.79,6705.8394,6233.3286,25564.447265625
133,1198.1814,5303.771,-14080.772,6627.1064,6117.079,10048.2705,29324.841796875
134,-2172.3853,-3367.0962,21010.996,4736.592,-6834.196,1445.8644,27933.673828125
135,40468.85,44952.414,50803.06,3112.4883,-5483.8755,6889.9985,18500.318359375
136,175378.86,174157.33,175447.25,-54.739925,-841.2713,311.66306,2000.98974609375
137,-10397.101,-9721.354,-4101.413,-1864.8165,4810.601,-9106.026,19090.716796875
138,15663.056,3384.2297,23755.404,-3474.1936,1043.1929,-2296.9358,19259.35546875
139,18574.125,19686.418,24885.498,-92.58393,7138.3135,9.818262,13672.7138671875
140,-7965.7603,3700.0615,-3207.1868,385.6254,7377.9966,-3513.5806,17435.857421875
141,-2594.2368,17921.861,14675.271,209.36757,3477.0884,-495.39874,20049.4765625
142,24265.404,-10608.629,-12475.321,-1657.6501,-2439.3938,2278.6792,36420.51953125
143,-8157.687,-10028.184,-9060.773,1445.1191,5903.96,-6408.343,15383.7900390625
144,4849.7637,8047.8296,6794.292,-1160.5248,3982.6538,-1234.326,7999.11328125
145,6389.4683,2691.9573,11919.904,1736.5072,7326.9434,-4766.1787,17405.580078125
146,4299.1147,-6001.069,5264.0566,693.2828,4361.1855,3487.7263,14558.7919921875
147,9647.843,-9592.409,-11139.767,562.65234,-2725.375,9990.897,26926.56640625
148,21346.244,13927.927,21713.229,-8796.118,2560.079,1.5821713,17597.318359375
149,-2603.2876,-2704.6096,-10366.621,-4671.965,5629.5874,-572.3931,14867.2275390625
150,24610.635,17879.803,31552.695,-3913.633,-807.90845,4415.1685,15703.8525390625
151,17972.166,8162.5264,25810.994,-4224.962,10088.869,1856.27,24572.673828125
152,2502.041,2886.3533,7522.6226,5131.025,1124.7292,-4890.6323,13340.0380859375
153,11563.3955,3351.231,19721.672,1461.5919,-6867.71,65.11464,18679.185546875
154,4850.59,10626.888,9606.5,-336.41528,4532.1626,1160.4105,9721.8017578125
155,3548.091,-3448.0732,8673.954,4435.73,1373.9105,702.6103,13313.64453125
156,7610.3955,6748.8384,11959.974,-2296.882,8183.7324,-25.765064,15497.0302734375
157,-10819.78,-14604.951,2925.0469,-7507.689,-8352.843,-662.4196,25199.142578125
158,-435.92743,1293.1063,356.39407,-688.1171,91.19748,322.02255,2000.9853515625
159,8158.3135,8943.365,7556.537,838.3006,332.6125,-194.02649,2000.98522949219
160,60.328236,2705.5356,14038.07,-8157.8735,5214.6846,50.762394,21133.849609375
161,-739.0871,23594.146,18893.29,4090.4128,778.32526,-8673.434,27883.9453125
162,-10534.459,5579.426,-792.52313,804.98285,6397.714,-5847.333,20612.916015625
163,5247.946,-1708.2578,-1723.2404,431.78482,5454.009,9643.392,20427.337890625
164,-11348.664,-11673.014,-16835.988,-3191.171,100.791664,5636.523,12422.9013671875
165,8158.7446,10919.425,10267.607,-318.5251,-3412.2642,5938.1836,12135.396484375
166,-4420.9395,11880.965,-19562.873,747.8379,-1593.0106,666.65564,27431.673828125
167,2693.3694,1620.8553,15596.708,9661.193,4027.575,-281.47183,22592.10546875
168,-54916.723,-52728.11,-53880.98,-338.76328,145.64232,5.2086015,2000.98693847656
169,75350.85,73565.02,74642.74,-571.6502,-442.92725,54.751904,2000.98425292969
170,55291.43,54486.49,54878.887,-94.46625,-1066.1636,-164.32248,2000.98498535156
171,-4507.106,15623.252,15488.529,-2523.71,-2906.751,442.36835,21156.07421875
172,-18459.389,-2601.4548,6970.976,1272.0046,3330.0896,-5702.525,25111.41796875
173,9589.037,14905.72,17345.746,-2674.855,2107.846,-1111.8076,9257.193359375
174,-5229.293,26141.65,22118.268,-2783.2993,-30.330925,-3171.0806,30455.158203125
175,-782.786,-5878.251,21565.07,-4425.96,-10074.977,8426.258,34864.7578125
176,-15319.317,-33842.695,-37132.863,5856.7236,701.6541,-8092.912,26753.54296875
177,14653.362,-9096.845,13743.438,2748.3848,-1202.1738,5149.3306,25491.818359375
178,10452.833,-1390.1984,-5417.1387,-3388.961,5259.8184,-3238.251,18790.3125
179,10202.32,9724.625,5394.6616,4648.324,4712.375,-8891.068,19739.267578125
180,1495.7681,-9249.492,24032.85,-2014.1274,1032.4446,6392.511,31678.193359375
181,-73559.84,-71991.89,-69386.82,2316.9841,2003.437,391.37506,6475.765625
182,7616.6143,-2908.2766,5148.023,920.6482,-243.30008,4960.5522,12939.3671875
183,2876.11,-2362.3042,2792.31,-3964.3472,10472.41,2845.855,20675.298828125
184,-92716.17,-92696.984,-93437.734,-858.21204,-4.9417906,647.9254,2000.98583984375
185,82144.055,82895.03,84303.11,-240.33333,-226.30916,155.90468,2000.98229980469
186,17755.832,15245.339,30173.615,-5838.408,5755.2266,-1351.7924,19969.71875
187,8775.123,14784.382,34134.676,5883.5605,-6856.6543,-3741.975,28525.83203125
188,11878.944,11694.953,-5361.5703,-5887.3027,8707.52,-2113.221,25277.220703125
189,-6186.8477,-6646.7725,17488.576,12788.2705,-1628.6641,50.99204,32714.08203125
190,33.646442,-3357.9648,1232.4946,-4406.2764,-488.95215,-6178.508,13801.85546875
191,7852.4883,2470.4924,15862.683,-2701.7793,-2482.8672,6639.1147,17574.58984375
192,24294.637,22484.637,25671.682,37.7506,2098.8433,9716.846,17439.48828125
193,4978.7554,23092.428,22864.055,8640.608,-2947.4653,334.72635,23966.63671875
194,12814.573,-3574.9001,-19487.277,6540.669,-2140.3826,-4515.91,31398.712890625
195,1157.1444,-2313.191,-7484.989,1204.5756,-745.8107,-13416.809,24551.833984375
196,-2510.569,-1190.8171,-3445.4792,5715.6196,-1808.5248,5892.07,14690.6884765625
197,11169.643,-1132.29,-9440.901,4271.903,-1463.9572,2031.9587,19903.419921875
198,21942.738,6697.5884,-7586.07,-8976.985,-2661.9475,-1549.1875,30404.12109375
199,1659.9756,-9833.63,3622.7515,-5715.4556,4563.649,-2791.6572,18503.373046875
200,-130.47432,7003.4385,12985.883,-2325.259,2685.812,-5897.6777,16479.37109375
201,-8333.223,-1148.1837,-7087.348,-2411.9817,-6868.911,6393.8867,18051.85546875
202,-15714.922,-700.5622,-963.5421,5814.587,-3514.385,7508.2686,23003.3671875
203,16459.73,-3323.482,-2990.225,-8621.698,5864.7583,9953.385,31753.58984375
204,-25978.812,-32496.402,2076.8435,5461.4375,789.44385,-3546.939,33786.80078125
205,8205.608,-11535.858,-18259.938,-934.4268,3422.1997,-11963.502,32168.4921875
206,-17600.113,-17053.074,-20053.955,4784.3765,-11056.568,-2262.945,21411.203125
207,16434.8,10556.943,3162.6897,-4741.746,-2487.6934,10183.3545,23017.537109375
208,27764.81,29355.793,28203.799,-579.96185,112.75077,557.1436,2000.98608398438
209,839.67865,1220.8854,-476.70856,25.028988,349.21118,647.0983,2000.98547363281
210,6284.592,4914.7544,6117.5244,648.83386,320.7488,-502.27325,2000.98522949219
211,-2808407.5,-2808071.8,-2809524.0,59.28486,784.1499,371.7201,2000.97717285156
212,144751.77,143356.62,143078.34,247.27092,-427.27914,-535.6341,2000.98522949219
213,1236579.1,1236598.1,1238468.6,313.80865,-72.502304,-229.62941,2001.01391601563
214,-1505456.4,-1505760.5,-1506638.8,623.2714,130.16277,-743.1556,2000.99536132813
215,58022.707,58001.566,65020.656,1.859042,-4612.8984,-2573.4907,11524.9619140625
216,-14438.638,9281.659,-27180.102,-8758.1,6964.7266,2675.6216,37740.4375
217,1187.1829,22221.848,9373.159,-11200.854,-10664.919,-6108.0894,34158.5
218,8345.852,-24301.781,-2323.1382,-2189.586,6496.546,863.2513,31218.7734375
219,-27274.002,-6899.094,-9186.314,-1173.429,5519.247,-2097.596,21965.498046875
220,-11548.274,4283.1157,15058.235,3608.0583,2128.2334,6256.614,26596.98046875
221,-4973.07,22250.592,-19491.52,-3745.6663,5332.1157,-6764.838,40147.62890625
222,-15074.213,3299.6785,16026.151,5628.4097,1720.5095,10000.054,33724.15234375
223,-18638.852,5909.7705,593.96466,-9742.741,-2811.1753,12732.944,35989.60546875
224,6162.885,19863.15,20419.197,-1767.7283,-8456.762,11129.505,28127.337890625
225,-27204.016,-21377.982,-12210.1875,-9484.472,-1399.5065,7837.106,25127.77734375
226,7136.1167,3489.6184,5219.3853,8644.602,-4165.8037,-1778.7332,17196.578125
227,4591.657,3330.0012,16071.781,-10178.773,6495.524,11412.445,31240.974609375
228,-16668.709,4276.924,-14924.428,1963.615,16546.193,-5242.7446,36339.82421875
229,-2282.3792,2408.929,8833.859,-3326.3694,11673.291,15311.213,35195.4609375
230,-299.34912,20128.854,23976.867,11536.362,-2580.3037,-1911.1494,30674.435546875
231,4621.0703,17010.908,28360.248,6501.707,4278.904,6231.3257,26854.49609375
232,-7643.182,6036.904,19867.814,4376.7646,6078.374,6545.648,29402.236328125
233,-1027.6642,6632.933,19461.125,3177.3545,1365.3835,10196.562,25870.98828125
234,5290.8003,8972.096,11087.69,-2480.629,-4550.617,3260.1978,11759.5654296875
235,7025.5254,12258.511,27720.215,1384.6599,-1991.1058,-17166.121,35341.64453125
236,7648.797,20164.955,15444.15,-7589.504,480.7045,1996.9343,17473.181640625
237,19958.174,5296.485,-2462.402,14466.26,-10137.515,-7402.214,38593.10546875
238,-2661.5083,20740.658,-14708.444,8030.222,-3090.2969,-3911.4336,35252.171875
239,8498.693,15686.719,33673.887,-5719.391,-6624.918,-4029.623,27982.400390625
240,351.4354,13392.863,-12553.425,616.0159,-7679.089,2188.5208,26406.904296875
241,5333.624,8315.217,20787.04,-6191.293,-4895.5596,-3080.5725,20420.27734375
242,7506.033,-2734.1536,-2351.9287,-1003.10474,2735.7078,-11422.494,22759.2734375
243,-5417.343,6876.9014,7888.839,851.2501,5620.4307,-3773.4292,17443.376953125
244,12804.485,12818.781,13855.408,8906.987,-18498.246,6694.031,37417.62109375
245,7770.358,8282.921,2849.0967,-6352.004,-4770.7173,-3072.9336,15641.4775390625
246,18547.635,27759.947,26950.885,-2488.8162,7042.7417,8333.353,21302.2421875
247,15164.3,19983.693,12114.716,1583.7578,15482.892,-6988.1445,30338.2734375
248,8864.986,1439.5623,25767.299,3381.985,5386.921,-5868.396,26287.189453125
249,-8884.337,4577.8438,16278.11,4251.797,6174.377,-5719.317,27246.49609375
250,-8275.986,-8636.815,-12165.3955,6290.183,3221.53,-4619.9053,15090.35546875
251,2973.7598,23066.924,23226.969,9754.891,-3423.7727,5320.304,28504.98046875
252,3134.6316,16243.466,27846.947,6397.3457,-2082.3018,4947.0635,25841.765625
253,489.49902,-5813.4526,-30479.65,6370.481,-182.03275,6926.844,32701.841796875
254,14606.322,17134.68,44953.0,3067.0623,-5850.6987,10191.127,35959.3671875
255,-573.0739,-8302.985,20639.176,6855.752,3376.138,-4023.8357,29957.51171875
256,9023.577,-1851.0642,14753.47,412.22256,-1493.5463,705.98535,14902.921875
257,11435.06,-2883.1084,17834.459,-1733.3918,6762.9243,9569.544,27541.673828125
258,-3671.016,9524.724,-21368.648,-7164.8037,1769.8774,1503.4609,29850.443359375
259,3538.3757,-1748.3237,17197.86,4203.9565,3076.6384,9774.323,25588.537109375
260,10380.448,-5490.931,16501.574,-7244.3877,5496.408,-11327.366,31929.958984375
261,-20577.998,-11323.277,-36839.215,2431.6716,-5373.1396,1780.5306,24787.736328125
262,-3811.163,2255.1965,-4812.2915,12873.971,-6384.811,-9596.59,30654.111328125
263,7824.391,14706.285,13692.295,85.21833,-2739.8782,-16658.16,29940.541015625
264,-7822.209,4046.2712,-15061.663,-13908.48,-3538.5007,2551.4314,30275.76171875
265,27832.184,6658.718,19479.021,4213.5254,-4098.022,-9730.316,26998.25
266,7340.3906,8665.616,-15298.349,-2835.8875,759.53424,-569.3457,23897.701171875
267,17837.75,5772.614,8076.806,9189.197,-2986.8157,-7794.021,24195.123046875
268,9563.84,-1238.337,-6690.7773,-2507.4597,15.933521,-11365.179,24732.146484375
269,10338.574,-3862.618,19750.229,-2169.0117,-3396.7593,-12354.915,30505.234375
270,-27396.64,-19762.416,-36428.297,4691.9854,-4339.2256,-5693.147,20701.896484375
271,-20388.168,4393.8457,12708.325,5254.735,4223.058,-1654.5376,32154.005859375
272,18034.672,12285.132,22605.938,12484.289,10490.391,2926.1665,30060.62109375
273,28996.729,36669.98,24179.697,12728.748,4209.4727,-10277.451,31227.310546875
274,-17441.354,-15482.898,-18574.816,-7729.034,-13732.749,11225.952,33621.203125
275,-10309.535,2715.6152,-30443.148,-9064.948,-10622.863,5176.9326,38764.90234375
276,1738.1365,-3335.141,-9192.972,2316.351,2583.1787,967.3145,11344.2802734375
277,-11187.199,-18224.385,-31343.465,4852.815,-3428.1497,3654.123,21445.689453125
278,-503.5869,-11892.912,-30642.932,-1478.6337,7287.6284,-8414.753,32758.845703125
279,-2610.1836,-4332.3247,-26018.38,-3015.4265,7337.13,-2503.618,26798.888671875
280,-4472.237,11509.359,-20724.469,-625.78156,-3120.1108,-3754.437,29188.19140625
281,13709.831,12522.359,-5983.7783,6692.919,4608.6353,1230.9285,23843.49609375
282,-1501.9277,13008.594,31116.43,4109.772,2034.548,-14457.904,38618.453125
283,-10672.87,2177.6807,-11940.386,-3365.0513,-2207.8274,-2160.2917,15672.470703125
284,-820.2073,12456.781,-8364.397,7534.35,12531.629,4567.1743,32208.060546875
285,-7399.7124,-13352.818,2137.5474,11.5120945,8668.495,1618.2087,20407.345703125
286,-402187.44,-401571.6,-403081.9,470.86627,703.76154,202.29538,2000.98645019531
287,-639.3312,11287.105,6003.226,1894.6946,5118.908,5681.4863,17127.712890625
288,-381.73108,-20672.568,-3925.9082,5577.147,141.07564,13779.28,31864.462890625
289,2035.5669,-8469.093,2872.4915,-4073.423,8337.512,1287.31,19573.759765625
290,1007.55615,-17923.098,11860.914,-4954.263,852.8547,2265.166,27799.91796875
291,-5685.343,-20846.904,-12413.4795,2527.3188,-485.43884,9083.335,20988.607421875
292,-5343.025,15869.62,14489.443,4817.227,-1874.722,-5438.113,24320.4453125
293,17624.121,7061.221,24905.162,-6359.1006,10093.375,3751.5935,26658.279296875
294,-178.53638,6015.7812,-3754.6052,3360.0442,-615.65967,-2655.862,11378.78515625
295,2972.1863,18598.371,-7194.899,3808.7847,-650.309,1714.7358,23664.95703125
296,-1588375.1,-1588750.1,-1590321.4,162.20305,68.86175,-487.17197,2000.95861816406
297,343612.12,344908.5,364199.3,-1092.4633,-7556.38,-9539.053,29097.796875
298,2285.3845,-21311.863,-23481.68,9364.487,-8097.002,-624.2029,32766.96484375
299,-9009.939,-3917.1692,2231.5623,2136.0198,-7456.666,9377.927,23224.708984375
300,9625.81,34.972168,5007.9814,-3604.7783,3757.8477,-6236.086,16341.16015625
301,14937.746,-6793.9937,6424.416,5080.388,-10858.935,-2247.0237,28391.259765625
302,17779.752,715.912,19685.674,1302.7329,3580.5312,-12731.454,29277.14453125
303,10223.011,-8371.727,5491.643,-725.547,-4407.6484,-13403.836,29648.29296875
304,8764.316,-13421.653,-4795.7974,-1101.588,-6672.5757,-4214.9185,23785.638671875
305,-955.1451,-9956.456,1841.3552,-2091.5593,4351.733,1868.2904,13943.6123046875
306,9589.241,13333.95,41452.84,7829.2217,6222.754,-664.26013,34804.79296875
307,-1747.5884,-3202.1235,-3656.194,6935.1846,3334.5315,8865.232,20406.052734375
308,-60252.55,-71283.984,-57762.04,7363.911,-11981.966,989.8005,27417.0078125
309,-8697.097,-3256.3503,-8855.372,10479.534,-5361.9424,11493.965,29026.44921875
310,20491.996,12106.877,20960.402,10324.492,2362.4045,-5695.527,22545.568359375
311,4896.414,-1600.1504,-21021.166,-2205.7205,-5901.161,858.1676,25822.99609375
312,6013.1777,14118.253,28427.96,-567.91486,3136.7117,6564.8647,23371.30859375
313,-24205.5,-16033.347,-22124.91,-12558.951,-2060.51,-418.85687,23249.84375
314,17300.516,20333.623,-18112.459,426.06064,6547.434,-4614.4106,39543.890625
315,6740.381,-7300.5225,8318.665,9183.293,-13006.124,-3884.8232,32055.427734375
316,-10095.259,-5834.4014,-6961.71,-4629.232,8338.092,5106.9277,19123.9453125
317,19920.016,2964.302,10826.776,6195.6235,3902.9272,1118.9026,19509.291015625
318,-20994.996,-7245.526,-3391.308,-5016.4243,-583.8954,-4720.661,20006.666015625
319,32931.23,34738.125,33225.848,198.9193,193.6657,-563.73413,2000.98461914063
320,54497.64,53319.688,55040.52,392.05997,-57.71293,-635.35583,2000.98315429688
321,-1155355.6,-1154443.0,-1156009.1,-485.12286,664.481,197.45198,2000.98645019531
322,-11184962.0,-11183549.0,-11183597.0,315.16287,-688.1541,344.56424,2001.46789550781
323,-3099141.0,-3100240.0,-3099806.0,309.50543,-912.38617,316.24872,2000.98901367188
324,113744.055,113924.04,115078.484,-75.00753,734.86774,514.4757,2000.986328125
325,-1570.7389,34326.5,23078.07,-2506.1028,-8401.297,-6304.618,36894.21484375
326,-7466.21,13281.033,19175.445,-6688.002,1578.9283,-6618.3916,29335.328125
327,26979.898,22561.002,7806.456,-249.07536,7052.464,2002.5483,21537.189453125
328,22384.11,208.56094,2912.3389,-576.8076,1854.4089,966.2415,21289.0390625
329,-4793.7085,-53.277843,-26786.344,579.48004,11880.887,-2085.3987,32371.6328125
330,11900.818,-2307.5586,28388.729,7392.2583,-12117.516,938.49176,36263.98828125
331,13038.766,13185.808,38745.055,1292.6475,-2011.5502,10488.261,31689.39453125
332,5820.032,12012.458,12410.575,3846.0322,-5418.295,-1344.6864,13373.26171875
333,635.6886,26432.793,3406.022,1872.9554,3809.2468,578.9366,25627.314453125
334,-3881.893,12561.759,16678.775,3166.2627,-5768.6006,-3165.16,22693.67578125
335,7280.672,14967.573,27463.594,-9917.907,7426.8794,-4850.8687,29025.12109375
336,-11965.717,-24349.727,-8775.164,2218.6726,764.0662,-1893.0927,15176.4775390625
337,836.5498,12449.618,5503.813,-61.147614,-8477.0625,-2837.4165,18498.412109375
338,-33508.45,-23082.574,-15438.242,16993.686,4646.494,-99.34949,34321.84375
339,-1009.01465,22334.69,24008.75,-3365.7112,149.96236,4996.224,26377.037109375
340,-1467.959,-10141.415,16367.964,-1208.4696,8219.183,5309.7446,28977.134765625
341,25243.217,14421.858,14732.989,-10434.397,803.3446,-9223.276,26412.19921875
342,-949.667,23265.809,-7252.726,1987.0442,2817.34,-4985.434,29815.60546875
343,2931.822,1354.7341,-5343.6963,-2404.813,8659.51,7178.051,21326.138671875
344,118924.625,117465.52,130023.01,1521.663,1842.0267,2565.413,13355.38671875
345,1924.9917,3203.6584,15217.611,-4639.398,-142.32971,83.11325,15032.8125
346,3497.6104,-9448.271,-1729.0027,-4896.6865,4290.356,-4265.917,17578.3515625
347,-3523.3584,-5834.3086,15298.912,-5328.8945,445.47086,-369.77335,22120.41015625
348,12909.912,-18745.854,-30065.197,219.37183,3643.0007,-1558.3048,39189.04296875
349,-32813.324,-34799.64,-5874.5854,2350.151,-6.4067335,-5774.8223,29996.08984375
350,-140648580.0,-140648820.0,-140649920.0,-381.54724,-820.6594,8.296894,1999.69067382813
351,-15948.964,-8127.5815,-7808.2915,-2860.5754,8482.976,5334.692,19737.814453125
352,7416.952,341.47998,-13326.433,-3180.712,1950.7711,1981.099,19675.43359375
353,7079.0815,-1479.6838,288.25928,-9186.443,1115.4519,-3645.1887,18921.251953125
354,13298.366,15066.267,-12365.791,4046.8179,6965.3057,-4040.4202,30835.009765625
355,-32834.562,-253.27783,-7141.8965,2194.1182,9101.23,-2671.4595,34189.22265625
356,9502.12,21422.291,-4767.876,5333.9624,3557.2378,2317.7556,25597.955078125
357,-7715.34,3287.5042,-4008.0977,9725.044,5548.366,3068.529,22323.66796875
358,-1124.2188,-22742.316,2123.0781,3190.7625,4104.659,-2090.6768,25343.3984375
359,18471.525,-411.26514,-1800.3335,-5158.456,-938.49304,4475.947,22962.84765625
360,20842.54,23946.924,33798.906,1188.5977,-2068.037,3207.9812,13609.7451171875
361,-2872.6372,-5238.5938,-7487.541,-276.4704,816.6418,-602.9342,4392.8388671875
362,-1188.8385,-412.25372,-51.487732,-2628.3916,-279.52246,2871.4292,6834.357421875
363,-332.0435,-1614.2467,-574.0648,-902.39966,1201.2843,-1546.8347,3916.96557617188
364,-4927.619,-5558.615,-4422.7695,905.081,3076.17,-1173.4586,5995.71337890625
365,-39035.05,-44112.957,-75036.59,-6204.827,6166.3574,2269.979,37203.6796875
366,256.97977,-476.55853,2140.2168,166.00543,-5465.502,-604.14746,9811.1611328125
367,81154.52,77962.234,116359.38,-4975.508,627.77484,660.4189,37930.39453125
368,12292.4,-2085.3447,25502.586,-1190.9775,4303.5103,-2739.839,25563.59375
369,3570.7422,-648.05664,10413.401,3706.9172,-4057.7295,671.39484,13618.3544921875
370,4665.693,14829.369,6799.0435,-32.959423,-1450.2745,1055.7026,9789.0498046875
371,15895.068,29145.086,27312.43,1453.8341,2764.2754,1145.1484,13705.3828125
372,-10264.828,-9260.006,-19999.07,10.574234,3267.9067,-4105.947,13717.16796875
373,-455.40433,-841.9087,2457.33,-252.6215,-985.0739,2794.7166,6024.37353515625
374,-499.70044,1519.1327,6752.2607,92.07439,-1383.3099,309.44107,6933.935546875
375,-1477.8339,-3266.4617,-1610.5237,136.70038,2576.18,-1546.5226,5488.24462890625
376,-4581.9263,-2560.4956,-3374.078,-762.10815,1970.593,2784.3738,6305.06494140625
377,16222.601,18911.44,19135.531,185.58192,5934.3647,1374.8134,10922.7431640625
378,16107.98,12015.928,24373.95,1095.2957,2682.8508,1608.7671,12322.83984375
379,-4974.9873,-812.073,-6394.6724,987.74054,1304.156,-362.79718,5803.4140625
380,18.30835,-643.27466,9224.963,-2772.7415,-351.29037,5302.7363,14109.666015625
381,-3093.947,-2364.1123,-6956.5776,-293.2698,4581.6694,787.18134,9130.3740234375
382,-1420.3407,819.02734,-2111.5886,-753.8863,19.182043,-1761.2434,4248.837890625
383,6744.794,10565.617,8801.029,-1705.3848,1315.02,1875.2832,5952.578125
384,4998.753,6560.998,2150.7415,499.5245,-4912.2114,-2480.973,10324.958984375
385,-11168.401,-7660.736,-18974.596,434.94507,176.87344,9150.988,18775.1171875
386,4260.261,4691.329,9362.544,1681.6919,1547.5648,-2120.0703,7291.9755859375
387,3161.1804,189.61499,6153.8633,229.68973,313.73532,6809.7866,12893.8916015625
388,50420.258,31537.23,37993.51,-12103.676,8073.419,7283.0703,32718.56640625
389,645773.44,651421.94,686222.06,-1307.7008,-4543.0854,-3661.0488,39329.14453125
390,-7490274.0,-7483412.5,-7495333.5,-2322.9663,10843.525,468.0808,21840.01953125
391,429019.06,431921.12,466799.44,-1021.0157,817.7488,9201.501,39815.5
392,638.4059,-2154.3433,-3223.9905,-1222.6389,-296.14978,-1489.0576,4830.1533203125
393,-47068.723,-24669.227,-65475.38,-5817.802,-110.852615,57.31283,36802.57421875
394,-7037.3564,-3260.4116,-2370.98,1130.6556,1339.8927,708.6682,5398.4677734375
395,-14301.405,-9544.495,-22743.883,-803.3143,2800.301,5723.048,16055.669921875
396,-810.50195,21242.822,41254.89,1294.3538,872.86884,-901.69244,36577.52734375
397,4953.9507,3214.3926,-15809.243,-946.08875,208.17343,-280.3306,20026.6953125
398,18046.043,20695.898,25181.48,-708.1683,1008.877,272.1084,6618.7958984375
399,3791.724,-2500.8252,2413.104,391.8183,-5865.534,2563.9138,12498.6689453125
400,-4541.794,-11473.396,-11995.744,264.50073,4471.425,1377.2035,10854.5634765625
401,2714.5918,6525.082,-5572.6826,-484.44873,3190.325,-447.13132,12108.4970703125
402,8733.281,9881.272,15846.007,-2883.6252,2299.396,-674.028,9268.974609375
403,-12824.127,-8761.439,-22557.393,243.08377,-4602.7734,-1911.49,15016.0029296875
404,-14270.686,-9397.373,-22894.94,2190.8418,-4253.1084,193.46553,14454.5517578125
405,7906.9946,7093.1777,21587.188,790.4298,-3646.6118,-3346.179,16562.052734375
406,-17266.938,-22388.688,-35873.008,-1719.1226,2460.5735,-1045.8574,17533.779296875
407,1941.2761,4789.9004,-1543.3303,1271.1361,-77.00385,3515.728,8492.91796875
408,442833.2,435846.03,471503.5,1561.9932,12115.704,4254.8545,39662.73828125
409,-21951.54,-15627.039,-50119.684,906.7535,-5651.4585,1984.3455,33491.6328125
410,-4616848.5,-4623493.0,-4635921.0,3570.437,8165.7705,-3760.9207,23704.41796875
411,-3777.9302,-7209.8467,-17547.742,-2062.4626,1040.459,-3788.561,14601.2822265625
412,21189.928,21929.0,34370.1,1192.02,-4282.0264,-323.24646,14970.15625
413,2829.9307,-3631.1194,183.16898,-2390.5464,-1545.6104,-3250.6143,9362.6923828125
414,13046.692,13336.932,15929.615,796.5935,-1148.4984,309.80225,3702.36499023438
415,2135.2937,-2590.4983,1503.3873,146.0694,5102.6206,3558.305,11657.8291015625
416,-25267.713,-22346.447,-23535.633,3421.9104,3490.4812,742.4586,8933.451171875
417,-6665.776,-5584.1753,-11372.163,-377.2128,-1607.453,1119.4735,6352.05615234375
418,-15497.184,-20470.146,-27893.178,-1694.9843,1726.2074,157.5683,11592.1953125
419,-1128.2812,274.13965,-4374.6587,-806.1887,977.26215,23.20581,4677.08203125
420,5174.964,2338.566,7849.4873,-1810.0415,-1471.7483,1587.3119,6831.52978515625
421,-4409268.5,-4415631.0,-4429710.5,-2998.9136,9005.123,296.34738,24470.69921875
422,1307.3936,-1741.0177,2761.9797,-1289.2783,3262.8906,-2028.405,8069.21142578125
423,-14771.836,-9421.151,-8077.5527,974.6639,-194.06189,535.33636,6437.9267578125
424,10299.586,20642.318,8665.639,-7743.1284,7877.3623,6743.899,25080.04296875
425,8047.4375,11340.166,15153.193,-1411.6489,-6410.761,850.6502,13014.57421875
426,13790.35,14575.842,20868.266,-1431.1637,-571.29095,-1172.4562,7510.12744140625
427,-7211.3467,-10187.408,-29398.127,-3630.8108,-5164.861,-2300.8936,23885.958984375
428,-22705.549,-19905.797,-18509.305,-4172.2964,-1452.1825,-1444.486,8860.5263671875
429,-39088.76,-30979.21,-69740.79,3745.3167,1971.8119,3454.778,36652.94921875
430,-1662.5376,-2820.633,-8099.046,-563.7135,678.0359,1339.308,6559.6865234375
431,-34112.727,-7787.077,-16131.93,-6015.1914,-3200.4927,-2636.9268,26516.59765625
432,-18547.17,-20089.27,-33446.48,2030.3339,-3526.6614,-556.0878,15874.4384765625
433,-10774.039,-8726.912,-13765.933,-589.5986,1440.7716,1100.6125,5492.84375
434,105.89014,-5968.2075,-8358.843,1385.715,-1211.5483,-5062.945,12008.1279296875
435,23074.342,21359.764,36780.688,-162.24294,-808.6625,3158.4788,15693.0888671875
436,17652.447,22607.938,30342.836,468.18295,-6005.411,847.6931,15288.0341796875
437,5750.8677,4206.9976,7142.836,684.25836,-820.14453,1921.3407,4579.00830078125
438,30871.734,46538.34,46941.234,4218.96,3720.28,-5383.9966,20827.8515625
439,-22.990723,-2666.0593,-7169.468,-2354.6711,1425.432,-2726.844,9176.3466796875
440,18328.65,17964.984,26055.201,-1419.4034,-1276.2356,-5052.506,12253.80078125
441,4839.1597,3032.0815,3920.385,-892.29,-423.59885,-4798.2666,8628.228515625
442,-8469.037,-6604.8184,-16568.967,188.00415,-2048.3477,1117.1498,10031.02734375
443,12387.948,16041.743,19914.686,1747.3191,-161.116,4594.272,10726.6064453125
444,4393.7603,2787.2932,9421.075,-1922.0509,-327.31555,1510.8773,7360.93408203125
445,5497.0806,7725.8516,11602.077,-531.37524,-1168.7397,2232.4338,6966.20263671875
446,856415.5,852828.75,893243.2,591.9835,-5109.1445,-3165.0217,40132.88671875
447,-5273.4224,-3002.288,-5607.6123,-1552.297,-1447.5913,-613.2015,4546.67041015625
448,-5590.3574,-10398.032,-17012.17,81.865364,-372.54852,-577.4782,10004.8037109375
449,-4126.3706,-4500.8745,-872.0288,-1803.1938,-775.89996,791.92053,5039.02392578125
450,1033.749,4234.5483,8107.2637,-529.7118,-348.308,-30.222555,6232.76025390625
451,7070.542,6867.586,-1593.647,352.19876,-798.71094,-173.66124,8702.1455078125
452,-1034.3899,153.92334,7175.6367,2049.9863,5081.3203,258.44806,12219.9716796875
453,6265.6143,9233.37,11352.046,-2079.0774,2848.0596,-7593.7314,15161.8056640625
454,328310.3,328237.9,366880.78,-2329.4927,-2118.4717,-1338.4343,39058.88671875
455,15743.3545,-2000.4609,33447.996,711.93243,2845.9014,-2888.5752,31516.580078125
456,3379.467,3019.5408,4446.2476,1922.0688,1420.8687,2682.7627,6354.74853515625
457,-10799.657,-7457.2812,-17779.645,401.80515,5986.741,-617.0609,13869.7978515625
458,6884.6895,9142.497,15598.256,-1857.3845,-2240.2783,-1504.1715,9671.822265625
459,-3860.7783,-1748.7463,-8028.7495,-1569.306,934.68646,415.41446,6415.78857421875
460,15006.584,11084.125,11543.656,-5292.498,2931.935,925.96686,11233.296875
461,18645.041,16536.309,25898.207,-2816.772,-1512.4762,2894.293,11320.1728515625
462,8514.878,9914.143,18759.604,-602.20905,-212.93062,3878.488,11786.8251953125
463,34173.63,37035.793,52029.426,-743.56726,2059.7249,-3526.5437,18100.0234375
464,35907.426,30247.016,67073.6,-3528.8044,743.0308,-126.84026,34911.9765625
465,4056.4873,4688.3354,5270.8364,-1374.2778,1737.0813,-2486.5098,5862.85400390625
466,-168.50293,-18204.51,-10010.929,-7820.844,4392.5034,-1526.2238,22204.052734375
467,-30995.977,-35180.477,-47079.6,2393.7366,790.46466,-8551.092,21149.91796875
468,-5253.621,-3934.7297,-1397.0881,-1458.9431,-1353.7728,-3843.9822,8230.3232421875
469,2451.1772,3282.4712,5183.739,-1199.8888,-3768.989,441.60654,7307.97265625
470,-5733.285,-4904.7974,-3946.4995,-1653.9614,290.38083,-1420.3024,4112.19775390625
471,139167.6,139745.6,176574.39,1204.8687,1849.3984,-965.0351,37354.93359375
472,2772.2837,1461.5996,-952.405,-67.24929,120.02275,5055.633,9351.1689453125
473,4816.737,8965.718,8686.974,-1983.2423,-1518.2129,65.49676,5904.47021484375
474,-3021.6545,303.49243,-5342.532,2528.832,4082.4656,-719.13605,9741.4755859375
475,2774.0105,4092.2441,6987.6494,-886.1985,-239.69261,-66.37308,4059.5009765625
476,8671.04,8182.5615,19287.645,182.96877,-2825.3633,91.13059,11925.1943359375
477,568168.9,567931.2,607231.06,508.79306,1968.4106,-2823.8662,39642.38671875
478,-6089.579,-5991.39,-3777.4067,-1316.818,3269.1567,-3714.779,9153.7802734375
479,544289.44,545942.25,583695.0,-525.31836,4001.358,-2182.059,39415.03125
480,2708.0515,4267.8276,3580.8674,-1166.3685,-113.058365,3556.6194,6625.82275390625
481,6130.1465,7438.009,9885.62,2623.8054,-1735.5211,1918.7682,7185.86279296875
482,4130.6836,1033.3938,8306.637,-698.89417,-2118.139,2754.551,8812.12109375
483,-10487.535,-15396.164,-26149.285,-528.0272,1479.8949,1254.7396,14305.14453125
484,-13728.779,-15511.055,-23417.805,1408.983,428.18655,620.51953,9351.2607421875
485,5252.941,4103.7715,12659.463,1603.3823,-364.204,-1740.9094,9049.3779296875
486,-7778.7217,-9332.77,-16966.344,-1749.0706,3843.971,-1283.6658,11445.4765625
487,1968.5474,2286.973,11457.37,435.64447,-1486.1302,4898.544,12895.734375
488,-2242.2148,-906.0263,3669.715,103.610085,-3372.4868,1363.5884,8280.5908203125
489,5599.1963,19296.41,16933.035,-1739.8453,516.6341,6436.678,17175.62109375
490,-39133.438,-32943.707,-69859.25,-437.66226,3432.9058,5791.5205,36181.86328125
491,-7875.557,-8956.502,-8082.5273,47.703514,1298.0999,-2882.7412,5565.982421875
492,-8035.5825,-3547.625,-2253.4595,673.7166,753.63104,-1255.9056,5951.6591796875
493,4539.9053,2804.9023,10126.405,2184.2832,-2535.2312,5098.4766,12469.58984375
494,-8076.173,-12085.611,-14906.2,-2270.292,2149.9358,-2573.446,9194.4287109375
495,3551.7007,-445.32056,4230.643,826.35046,1206.2289,-5537.081,10841.689453125
496,-1097.8054,-1285.8892,-2034.4629,-1017.20746,1156.339,175.68658,2818.62084960938
497,-3575.9634,-658.6689,-367.66357,-390.80997,1948.4882,-697.397,4769.8369140625
498,-3749.7188,-2548.8896,-8053.887,2226.7993,-1144.3835,-2063.5867,7531.025390625
499,7273.599,5292.798,6616.2197,-387.18015,-187.9975,-464.8879,2063.41967773438
500,-25942.05,-32825.633,-61831.086,7069.839,6199.1226,1966.0934,36948.51953125
501,1674.9614,5859.9326,13529.845,1490.5944,778.44995,-353.04523,10830.3916015625
502,-11864.08,-7039.162,-7051.705,3278.2651,-2711.3352,-1690.5984,9278.412109375
503,-1244.5525,3875.0696,5368.005,1194.8599,-760.7856,18.063974,6488.68896484375
504,-10733.947,-10555.755,-14398.512,2054.4614,-3460.494,2896.0156,9373.47265625
505,-2566.3762,2788.3242,913.8745,-98.087395,-1598.808,-976.36206,5718.962890625
506,-15213.15,-11128.863,-23209.096,-3324.7812,3483.5884,-3696.1667,14960.87890625
507,160.7621,332.64932,400.73596,-1451.4767,644.6015,10.646878,2759.1865234375
508,788.71924,-576.1273,-3613.1995,-2156.0308,-339.9168,-2141.6013,6578.9931640625
509,1617.388,2158.4424,2628.3625,863.1543,-748.16254,-677.1338,2461.23852539063
510,-6969.187,-6616.5894,-5311.7324,-472.18933,-2682.848,-1676.0298,5742.49072265625
511,-13156.609,-14506.037,-27270.398,-2464.0605,-2744.8525,-1633.2202,15191.91015625
512,-4308.783,-346.46777,531.3766,2215.3562,-2167.8708,3669.4922,9442.8154296875
513,-2975.296,-695.84143,1363.9697,331.70523,604.2313,1193.4231,4453.32763671875
514,-10369.734,-8249.885,-16086.186,911.4603,5300.7715,-1551.6771,11970.77734375
515,1848.8191,4271.926,5204.915,1531.1127,-413.56088,832.3649,4315.9189453125
516,-965.5523,-670.4759,1717.9934,-1373.4429,622.12,3686.737,7354.78515625
517,4852.84,4148.4575,9668.416,-1028.2747,-264.52032,-1422.6045,6044.11328125
518,-21692.059,-30767.012,-60184.344,-164.96918,3849.858,2870.7495,35832.453125
519,-7018.467,-5467.9873,405.36108,1615.8818,-937.2281,3134.646,9271.091796875
520,1269.1575,3959.9497,6035.3364,-2988.7097,12.854684,4850.547,10701.0791015625
521,5673.32,6895.4893,8407.294,-1200.7673,-4875.4766,4822.558,12289.6083984375
522,24547.63,25443.684,49294.258,92.68279,2230.0515,2007.3757,24860.7734375
523,2511.4563,1633.7152,1039.2194,900.3532,-1064.0646,909.7826,3155.53295898438
524,6957.761,3968.2056,11087.585,-63.0465,760.23785,711.2711,6450.01953125
525,-3739.951,43.60443,1405.6538,-1252.1057,-2427.289,-2908.409,8311.37109375
526,-8593.63,-7690.8613,-6929.498,-519.34424,-593.67676,300.03693,2053.91772460938
527,-26592.812,-25838.336,-44565.46,-487.78012,918.8852,-3387.3174,19360.109375
528,-2639.7476,-5645.1226,-7779.5015,-792.42773,-2661.0818,-1393.1655,6996.64794921875
529,5060.894,2420.373,6878.6533,-1709.1267,-293.84024,-624.6278,5026.85595703125
530,-9601.361,-8421.107,-14709.347,1445.927,-4359.933,372.7069,9860.4833984375
531,-4278.86,-6001.6265,403.7605,2223.8384,2302.3792,-1713.5417,8515.26953125
532,1084.4288,1486.888,985.2757,1538.4062,1096.8269,1618.8932,4333.97314453125
533,1477.3723,-517.9027,1236.8657,354.5849,-260.1797,-1025.0872,2700.328125
534,-10317.401,-10710.039,-12397.633,71.25017,2127.8108,2354.99,5822.4267578125
535,-873.3108,-784.4718,-1157.239,726.49994,-684.90674,113.967735,1772.96240234375
536,1681.9089,3185.624,4217.948,-386.4443,-1697.9407,-1785.8123,4852.171875
537,-7994.6357,-1074.2319,-6133.5,69.35796,2484.7747,-589.3977,7619.3779296875
538,724.2977,2113.3982,3414.6343,914.6187,-911.7672,586.7025,3386.23120117188
539,2432.645,830.27734,6038.2754,426.2562,2166.5115,-2137.6086,7048.4189453125
540,-55.981934,-3040.8506,457.04565,-464.42444,2289.615,493.69974,5273.4482421875
541,697.1421,1403.997,-3350.5332,-723.9656,1058.6953,-532.58344,5052.748046875
542,-1424.025,-770.6937,6757.755,2913.65,-175.13478,3760.6125,11402.177734375
543,-4546.159,-6472.0205,-3129.9604,1885.7715,2191.5625,-2924.9692,7693.2138671875
544,2829.4102,-1507.7316,-5464.46,-1157.1732,-1095.2452,522.37964,7749.958984375
545,-1869.0387,-1061.4126,1557.796,-792.9347,851.87665,1920.6503,4975.7275390625
546,4855.056,-1805.5851,1985.1012,-1152.7485,-2094.4663,1430.4357,7534.60888671875
547,11708.061,6209.2324,12651.409,-2063.6042,1312.1138,370.17114,7393.62744140625
548,4190.816,550.58105,4130.4897,-1478.7081,-529.9942,-1825.3416,5516.64501953125
549,2027.609,-53.052734,9928.635,913.419,690.0003,4083.6775,11711.33203125
550,-930.927,-2471.3276,-8696.789,-477.07828,820.0113,338.75803,7332.3427734375
551,-2313.6626,-5680.938,-9055.548,953.26917,-1807.3566,1550.7788,7336.9130859375
552,-4987.169,-3497.2437,-1933.9764,-2104.8486,2085.4731,-4071.7632,9114.2392578125
553,4010.801,4358.7144,4471.983,-718.6657,1696.6045,3407.4438,6722.361328125
554,-143.23071,982.6145,5935.1455,-3218.787,-1697.095,-538.2305,8483.048828125
555,2452.1143,2637.919,2778.703,-1342.4183,272.58112,-759.3278,2727.52661132813
556,-4658.485,-5342.157,-10503.492,-1733.1506,-1223.7627,173.12485,6650.5322265625
557,-3452.7932,-1496.1029,-4937.4795,-137.24062,340.25937,-341.53018,3113.15991210938
558,7097.336,6777.366,15854.508,1637.3685,-1147.3733,975.2945,9717.94140625
559,5251.358,4301.9155,8785.063,685.00806,-346.57062,213.63104,4318.3935546875
560,-882.26154,-5061.0493,361.4016,507.17462,1265.648,-3606.4604,8294.751953125
561,-7644.828,-9734.525,-9180.766,-1202.4719,2921.3613,-2827.7625,7579.306640625
562,-4819.6733,-6746.037,-7623.008,-1172.9054,273.681,1581.6792,4245.73583984375
563,-2016.2068,-4839.672,-9823.679,752.71564,332.87482,-911.357,7169.9599609375
564,-2929.3857,-3681.7756,-4000.3638,2462.7642,128.90671,-1561.1577,5144.3564453125
565,2508.0747,3016.0498,6902.871,384.9424,-1067.4097,-1100.6302,4983.63525390625
566,4894.802,2673.3765,5253.778,1385.0359,2704.9648,1938.7463,6696.470703125
567,-6710.9253,-7457.712,-12052.005,752.4968,583.7824,631.60504,5386.474609375
568,554.0875,2920.5798,2166.401,337.77734,1778.8065,-2175.526,5330.833984375
569,3065.0227,5075.8203,11667.09,1018.2103,-525.10754,117.4418,8044.91748046875
570,3909.253,5345.808,3901.3762,-108.738174,-1334.1731,2384.3323,4950.32470703125
571,7233.9375,11231.036,13989.837,-620.9789,23.141905,-1657.139,6634.1357421875
572,-5493.31,-3981.054,-9028.089,-1840.1882,465.40414,811.2676,5736.74267578125
573,-7862.293,-5909.6924,-9335.377,-1181.9507,-3582.563,6378.49,13176.1015625
574,5364.07,5303.2607,12203.468,2927.336,2327.3738,-3712.5803,11423.861328125
575,136.27417,-993.6216,-7458.409,2121.7607,-4416.3555,-2046.941,11617.34765625
576,3585.173,-1929.3713,-10557.677,515.2668,4862.1914,762.91254,15030.1142578125
577,-4573.638,-5643.852,-7536.3438,-635.9971,209.52193,-3831.3945,7220.5390625
578,45674.633,58882.383,36307.24,13637.336,2919.935,2309.64,31391.513671875
579,-18500.918,-31917.52,-51621.574,-5342.8647,4180.828,2687.763,31501.830078125
