Element Label,S11,S22,S33,S12,S13,S23,Mises
1,1730.2332,1680.5934,254.47635,-246.90897,-208.27798,-106.0054,1566.46374511719
2,1288.8464,2118.4546,-5.1417985,-299.45038,124.56637,130.90392,1950.16101074219
3,979.708,1805.3353,176.25185,-122.86939,-41.705124,-59.971153,1432.43005371094
4,467.47977,1629.5421,-465.75143,177.22134,-39.69238,107.65233,1854.58837890625
5,1062.52,933.9812,-76.55352,630.0788,29.225714,30.39979,1537.50720214844
6,1637.2183,1445.635,-95.302795,-51.390102,-40.26917,94.02295,1657.021484375
7,915.1756,1249.693,-192.96664,-135.12859,83.33707,-170.70607,1368.798828125
8,1347.9796,1337.1656,47.438248,-241.4724,-154.91174,194.05872,1427.36010742188
9,1020.8704,1704.1508,331.3303,150.71692,158.46574,-60.525352,1252.18115234375
10,1201.9819,2031.0981,19.598053,307.70718,-44.151936,27.285606,1832.46606445313
11,1113.6891,1409.6997,97.58885,295.57156,70.111984,11.452433,1303.1064453125
12,1196.2953,1922.3281,24.902718,-76.371506,-143.14145,92.83148,1689.54809570313
13,1273.0381,2379.6636,7.3007765,105.42696,143.84578,-166.78,2099.11254882813
14,1334.4673,2082.5283,-287.57443,-72.86286,-142.652,98.63112,2123.7138671875
15,1043.1378,1476.1698,-118.594635,127.08604,5.3459835,-72.48556,1450.69189453125
16,-742.3608,992.9122,-452.13394,-242.50739,-1092.7612,-175.82587,2538.37280273438
17,733.2969,555.0781,-568.7044,1241.2152,44.97159,170.28877,2491.95434570313
18,971.01184,1828.6438,537.6674,-11.822865,25.4853,187.66946,1184.48193359375
19,142.79283,-184.63824,409.8536,775.0,540.0277,-893.1409,2309.94458007813
20,927.37946,1401.9104,831.63104,-391.75186,225.9242,125.653015,969.888061523438
21,1443.7938,2705.49,610.97546,4.2429113,124.08073,139.21918,1854.88952636719
22,-404.51416,-1546.7864,-1173.4973,-3061.3547,2325.5576,806.92773,6878.33251953125
23,-122.32174,-415.8754,1989.9573,2635.1406,-344.31064,243.67892,5151.08251953125
24,520.6474,-167.30777,-1417.0271,482.57193,-812.613,-652.3172,2617.44750976563
25,419.61316,975.1569,887.7751,626.0799,309.2613,-267.67896,1394.82312011719
26,2243.9175,1934.6409,3273.0837,607.6299,170.79807,-663.9634,1997.70678710938
27,1248.0226,917.0075,108.0721,270.61133,-212.3667,115.935455,1194.58386230469
28,2506.1768,2113.5676,2939.5173,150.28557,414.0196,-223.39194,1115.2421875
29,1989.466,3408.5884,-1247.3231,433.25583,-24.109777,31.665337,4201.427734375
30,3781.7734,686.63135,1373.1545,1006.54083,845.2092,898.2591,3940.7421875
31,4231.994,4898.618,2317.2979,-952.28534,3072.9006,-1411.5513,6512.5234375
32,-791.32416,624.5408,-3615.062,-938.3686,-84.23626,436.11975,4148.45703125
33,-1901.5486,-197.26007,3822.5918,-1981.8597,350.777,-80.07266,6171.423828125
34,2665.838,1606.802,2576.4072,408.3825,244.37056,-285.6626,1399.69055175781
35,768.2527,1589.6223,-2161.25,-289.2538,60.20363,-246.39442,3479.48950195313
36,63.620876,3373.372,3294.1047,-263.1127,-50.72916,1491.1315,4193.3525390625
37,1508.0737,4350.8877,4091.1382,-99.5704,-696.6053,-353.216,3044.74072265625
38,2432.5574,-1764.2605,-1720.8213,1384.7975,1190.7003,875.33405,5453.236328125
39,1697.5098,2062.9182,-1338.709,-542.536,131.48494,204.09999,3394.33032226563
40,1071.1031,770.35223,-1561.1119,-3168.2131,492.25455,617.5778,6181.52392578125
41,1876.8893,538.7848,870.8542,-1461.0419,-33.86505,-171.53459,2819.9453125
42,2104.0286,-1191.9673,-1645.5198,-1168.3522,-988.7247,-84.02941,4428.685546875
43,-1099.1171,-2588.3276,-1020.20044,546.11694,416.58624,49.240658,1940.13830566406
44,391.03925,2839.2961,678.09,15.733452,626.63995,-720.3202,2847.62084960938
45,649.80194,1630.8905,-460.98526,-238.65134,-675.95056,295.7964,2256.15625
46,972.5598,902.0888,-476.70444,-233.0387,110.32709,199.79218,1523.93896484375
47,1294.1584,1629.8427,291.60193,-343.71323,223.17029,-16.935352,1399.65625
48,1265.3772,941.9029,-238.74545,76.68822,-378.60068,-163.24654,1551.7998046875
49,1167.3707,1455.5557,-6.1913934,160.78453,-242.01657,115.18918,1446.22900390625
50,1946.9689,1247.5903,853.73645,347.9303,-34.896976,-106.81327,1149.23950195313
51,2590.5288,1387.3671,469.8402,369.98184,-141.63985,-26.058016,1966.28308105469
52,1267.8604,1028.7924,-645.92523,-53.067543,-82.91732,-145.68382,1831.65209960938
53,1586.0615,1142.977,-620.80963,533.7576,75.705475,-82.92557,2231.88012695313
54,1602.4663,1609.1396,-761.31165,379.66327,199.35036,28.61217,2481.40576171875
55,2331.4854,2224.8083,1607.6353,536.39197,184.91153,551.5406,1528.541015625
56,498.50214,1260.6047,-1646.6245,1434.046,250.97789,163.86095,3640.90087890625
57,254.52142,998.25616,-438.41385,1592.0837,-619.8666,57.268547,3211.75903320313
58,1221.7614,461.26163,-718.3014,1458.0929,759.30023,78.88476,3315.59497070313
59,2503.582,1867.6146,726.7837,695.41187,227.69931,-74.16723,2013.53344726563
60,1169.5415,1325.6265,-130.0299,479.455,81.32305,-247.42007,1676.07080078125
61,1160.388,2221.3975,-119.013535,476.80655,-53.63813,-310.8128,2258.4384765625
62,831.1715,1964.9115,19.16774,717.899,-86.135735,-111.919945,2114.54296875
63,852.89233,1339.8752,-253.81497,317.5504,-51.02987,-224.51582,1569.21960449219
64,1552.4144,2179.446,474.68726,364.1577,-71.86529,-344.3471,1731.90209960938
65,1075.4934,2209.188,-500.91235,464.6317,-1.7065,-72.92712,2494.2119140625
66,1842.1981,1947.1931,58.296448,492.34753,-21.61304,56.04963,2029.45178222656
67,-317.2465,843.78314,-430.8591,93.61488,212.76465,-633.80695,1691.16418457031
68,1325.8057,2397.1086,-149.40225,-79.98059,-109.8825,33.821774,2227.81689453125
69,1179.1881,1943.0507,-792.7789,-45.445297,218.43233,315.04584,2534.8662109375
70,1735.9436,1824.1624,610.74005,-81.295105,-6.6114635,-182.34242,1221.81579589844
71,1313.6481,1880.2269,-576.78424,-343.87738,-167.8238,174.21297,2344.38159179688
72,842.28406,1341.6161,415.91367,-131.38228,452.66556,-285.8645,1247.27001953125
73,1450.7133,1990.4884,657.3702,-444.13724,-26.263569,74.55799,1399.8203125
74,1117.3014,1976.1791,-235.69214,-671.2812,-612.4685,367.33295,2571.44458007813
75,1617.2714,1813.0145,1782.6466,-702.74896,631.6776,-379.51627,1773.13537597656
76,1348.1635,1453.6575,-201.01944,-713.40924,311.8918,-271.99384,2148.29125976563
77,-1429.1847,-3901.843,-2612.5505,-1056.4923,-670.9389,-971.5496,3481.24487304688
78,2286.3938,1974.671,-528.9257,-278.29608,1126.8031,307.8547,3386.93408203125
79,-3822.6572,11199.693,2089.012,-308.3931,-413.3619,-2057.4866,13612.837890625
80,-203.32976,-2831.2463,-7186.121,925.6023,-1286.3092,1786.4506,7377.21728515625
81,2521.6313,1755.4808,8256.935,-869.9347,1070.7947,410.23053,6640.01708984375
82,-455.41214,347.13223,-6012.319,870.24524,-1707.2611,1208.408,7167.9775390625
83,2107.767,360.46686,-2401.6702,283.80646,-584.4252,380.97452,4148.54931640625
84,1396.4022,1837.4224,732.6215,478.50378,4.9430285,-451.16077,1491.79528808594
85,1320.6848,922.01697,46.28877,663.27563,563.2575,499.1107,2072.1669921875
86,766.6797,1244.2585,-1500.1368,-149.1036,14.312338,504.65558,2698.23364257813
87,1630.5023,705.02344,1570.4998,-103.92114,-195.9732,-447.86966,1246.57824707031
88,2299.0425,986.2861,1634.2383,-498.97675,-151.72766,83.74878,1459.31726074219
89,2255.375,2281.6663,1499.9517,1458.0166,-69.22587,-203.24644,2665.88793945313
90,-646.6079,2073.2136,279.103,2058.6619,-25.028467,-158.9587,4304.48046875
91,728.39294,488.0727,-2353.1716,-235.05849,1135.8427,-387.00613,3646.74194335938
92,-361.11945,204.40805,-1284.2761,-793.9074,63.59237,-658.2842,2212.9443359375
93,-1689.0298,-202.772,-6064.0347,-1904.1244,-1866.7999,-1537.8793,7501.94189453125
94,1823.536,3147.8523,989.6278,-123.078896,478.97147,967.3915,2663.60668945313
95,1966.6835,1326.6864,714.6937,182.30147,-78.92775,-78.3265,1145.68762207031
96,901.9681,1630.253,61.142246,-219.4643,-312.6692,140.10661,1531.80200195313
97,1761.673,2010.7731,-581.55035,-816.25305,267.59137,-80.41482,2893.0029296875
98,1773.9155,857.0969,767.69147,-2.5510592,196.6335,73.191414,1030.82629394531
99,580.97095,2842.9185,-569.4447,521.4334,41.664696,411.97336,3220.57348632813
100,-4927.6953,3110.8147,-1913.3503,1324.8953,-913.8062,-222.28494,7575.7822265625
101,456.7734,5540.5605,1599.5472,630.65656,-1957.1488,142.20837,5838.3515625
102,-2733.463,-680.1834,-6422.1914,1635.8689,-1991.2411,1419.9343,7167.19091796875
103,798.95245,3310.8445,2352.4514,1260.6768,447.49503,-674.9303,3399.41235351563
104,1552.4922,-1786.0902,-1926.5886,391.91403,-364.89377,-482.87427,3632.447265625
105,-998.2366,2285.2695,-1005.31635,75.27405,177.22853,-1076.3263,3793.59619140625
106,2478.4326,290.31116,-630.0389,-1302.5835,337.67844,85.6661,3619.81005859375
107,-2623.5234,-3135.226,-6134.5186,487.56146,858.91736,1002.1166,4090.40576171875
108,-1920.8538,-723.10645,667.2622,446.86856,-90.692505,748.65936,2708.92163085938
109,877.8574,1673.5714,-461.57574,381.8533,-28.120293,-296.52655,2048.5703125
110,1691.2299,1936.386,-1336.5769,772.6387,-355.08572,26.883112,3484.4423828125
111,1541.2505,2808.2354,-46.52009,554.412,170.94716,270.11923,2714.15307617188
112,1107.4803,2870.7852,571.44226,736.48126,142.14894,265.87204,2498.33471679688
113,1368.906,1936.451,-433.02396,562.3843,-129.3698,174.88153,2383.80444335938
114,1001.0247,1514.9529,-63.68915,105.221,-227.18607,51.75592,1463.22082519531
115,1219.6517,2129.415,666.7898,-66.66989,51.203312,-130.49597,1307.12927246094
116,1485.7313,1593.4524,-874.80585,-367.49127,-669.24927,-35.88789,2755.12548828125
117,830.47986,2156.1785,729.4915,-521.84973,334.4762,-211.46262,1785.58374023438
118,1139.7612,1582.9608,-919.00006,-513.80334,-427.10526,354.95255,2657.92749023438
119,1680.9943,2432.3584,18.32991,-163.08615,-496.4595,646.9046,2579.32763671875
120,641.04034,888.57086,607.81494,-189.6217,-250.1855,579.9739,1172.755859375
121,4327.054,3127.0044,6576.6885,3470.7847,-396.27887,-18.823578,6768.44580078125
122,511.25656,-1925.6919,361.51178,-572.4224,-1012.50757,-1835.2484,4445.12646484375
123,1137.1938,1637.6058,383.05807,-86.66908,253.94429,-197.59041,1236.7841796875
124,1011.27936,2475.1726,103.56042,-254.91713,112.69373,18.9641,2128.34838867188
125,270.36826,1876.5183,975.3548,-951.9478,-479.44025,-286.70654,2366.26586914063
126,987.2652,1232.1388,-1178.8488,-188.65898,273.93335,-46.51821,2370.82763671875
127,1628.9873,1459.8113,286.1724,325.48795,58.722836,-18.606762,1390.61547851563
128,83.69123,2260.5747,-1317.4181,-158.36404,-251.53172,102.58925,3169.9521484375
129,2551.6555,2429.4504,3438.1028,804.2265,400.2687,243.16339,1872.81127929688
130,4006.1653,3158.6265,4657.8423,-1112.3094,-152.08592,290.48303,2393.64892578125
131,1398.2935,1074.8986,-824.6169,-349.31943,585.32526,-326.2605,2457.69482421875
132,2271.5369,-210.84756,2554.9363,524.78064,657.7365,-39.689995,3012.443359375
133,2434.4531,3206.805,2752.2966,-787.6582,-816.30194,-9.918014,2076.685546875
134,911.0032,1121.1213,2373.0212,1312.002,-991.5871,-1418.1913,4002.7529296875
135,1271.553,1477.2909,-287.46063,-118.318695,-162.87305,-10.356855,1707.48425292969
136,3067.2373,1081.5925,1670.6492,-1590.8635,-578.09265,84.956154,3425.91333007813
137,-220.01949,1138.0461,-1257.6393,-270.2573,732.63477,354.22253,2556.55078125
138,123.64851,3203.7478,186.27467,-362.97894,-597.1073,-98.15922,3285.09008789063
139,1188.5774,2008.1049,-839.5645,-198.25569,-70.69468,255.38445,2603.0126953125
140,1011.2523,1685.1141,-1.411041,-327.1211,-8.4655905,241.45898,1630.37390136719
141,818.1902,1532.8434,-105.04,19.942781,43.78251,-237.1053,1482.72497558594
142,1241.5928,2341.838,144.82047,593.6553,13.73771,-56.39774,2165.07641601563
143,1376.0563,1844.9596,-1019.14954,-28.135042,142.2392,-194.38966,2693.77709960938
144,843.28534,1964.4359,-138.553,403.19324,-76.71522,238.02348,1999.27209472656
145,761.4237,2279.9478,202.28142,322.4857,121.01864,24.79339,1955.86254882813
146,1260.6594,1691.2318,-579.99176,262.23407,126.40629,80.64419,2153.98901367188
147,1538.7219,117.790855,-955.5896,633.8953,275.00403,-66.94796,2478.34375
148,2612.5547,2924.4456,-642.31885,197.0157,-344.19354,279.09787,3523.0927734375
149,1360.5284,2516.7756,616.1644,680.7881,-138.02625,-115.96493,2059.02124023438
150,941.8108,2016.1582,-251.55258,-137.4651,64.522064,-14.217974,1982.47595214844
151,1212.6012,1385.7947,-22.731333,-73.53549,-214.19055,-229.18205,1442.71362304688
152,1771.3308,2272.772,-785.3515,899.31134,-420.6956,-613.02374,3486.36254882813
153,1588.9951,2394.3525,-1651.0422,470.24042,82.84365,-496.43698,3896.04272460938
154,3563.4365,2672.9553,-757.9339,1284.1044,69.30303,1354.5994,5107.357421875
155,-327.6979,1653.8578,-5387.5444,-135.87799,-116.38461,932.687,6500.82421875
156,3030.9036,-264.92612,1174.2078,89.359314,-1291.0768,-858.1152,3927.357421875
157,1052.7877,1480.541,1217.5234,-876.82184,98.45521,-164.50055,1598.86083984375
158,6999.2505,-1685.3917,8784.274,94.00017,1249.5354,1548.7109,10296.4873046875
159,301.5604,-1497.1354,1630.3611,-1102.1979,-1038.3705,77.47261,3779.98559570313
160,-875.6163,-1144.1902,603.3036,704.86316,1020.27496,346.6043,2762.30297851563
161,-532.8054,2646.3857,-896.2006,-1345.1624,106.49809,325.46542,4144.25
162,-1061.8353,-1058.6122,79.96538,823.4279,-539.66876,45.882168,2052.84741210938
163,-2441.5623,-4544.216,-7584.782,2657.017,332.39908,747.35504,6576.15087890625
164,1690.6965,9463.555,10469.064,-1371.1868,45.882763,-382.67044,8679.29296875
165,1564.5645,1273.2772,-563.0235,593.3926,17.193735,-23.5085,2247.3603515625
166,2615.0242,1725.4893,-181.49928,354.54233,55.803352,-160.30228,2566.65991210938
167,1843.5676,1122.8336,-58.93067,465.06793,49.13351,29.19845,1851.06103515625
168,1898.6516,-497.01202,-4025.362,999.48663,-290.66663,1442.6971,6011.2978515625
169,332.05414,818.1443,-1338.137,-1329.5851,-411.9748,-449.18878,3202.4296875
170,1283.7809,1627.5372,2296.1487,-2059.6902,-837.38983,-715.568,4142.6796875
171,1095.0579,951.58734,-978.244,146.20601,87.039536,22.677002,2027.33972167969
172,1292.7286,1340.7233,101.09278,277.04214,22.393848,-58.21249,1312.02868652344
173,1020.8922,1998.6456,41.77605,460.5398,160.14598,134.59282,1907.7685546875
174,1312.9036,2448.2793,2021.6831,-994.04175,109.62082,-622.2655,2269.08911132813
175,1242.6656,2029.2513,-34.680183,479.8478,-20.50439,230.8109,2026.55261230469
176,822.1886,1883.022,148.65967,-102.36484,-160.53316,20.556196,1550.3310546875
177,1749.7323,1169.8308,712.7605,62.066814,134.1693,-60.30858,941.661926269531
178,1659.3926,2068.772,-779.6293,-54.80034,-199.68721,-223.60529,2719.10595703125
179,390.6986,1864.01,-349.2263,1521.1112,748.2263,-195.39174,3541.705078125
180,2190.3804,2115.4937,34.12002,539.4235,-236.37404,24.34337,2352.85375976563
181,2344.5588,3444.5444,3773.371,-1760.0695,-798.641,-441.41534,3670.3349609375
182,1114.9316,1651.4071,843.4845,516.02997,-159.59497,-419.1594,1381.83581542969
183,1770.6788,2068.7344,-250.582,298.98932,401.007,156.71935,2366.65747070313
184,-397.69852,-3331.162,1710.3162,2245.8706,750.22235,768.01135,6150.00390625
185,-6328.127,-5185.203,389.84286,1977.752,-592.5369,-817.8678,7318.04541015625
186,256.92648,51.139015,757.17554,1388.6755,-1016.70917,121.41272,3053.869140625
187,465.08655,-479.26233,559.74994,846.0581,-313.25067,-20.13364,1852.88647460938
188,-1472.0309,-1392.7415,119.01082,-601.838,-12.132556,473.86533,2042.611328125
189,3265.4133,-2211.6497,-1703.0336,1718.8087,700.8494,652.15875,6251.6875
190,9467.382,-1677.1434,-1330.6482,1287.5557,-203.59486,1397.3152,11463.603515625
191,-554.18506,-2326.379,-687.15857,1545.0977,474.99432,-451.831,3372.53466796875
192,-503.8111,-5263.43,-3373.688,523.09973,5.017834,1708.4893,5177.685546875
193,-3686.2651,-6008.964,-7537.987,1387.1428,-153.05635,-916.6955,4432.61376953125
194,518.1618,-1280.1522,2593.5024,-1504.5771,314.88272,291.90417,4314.791015625
195,-143.5084,-5346.554,-2534.6008,-1989.4746,-801.79193,-933.4567,6063.39111328125
196,3242.9016,-6818.863,-1370.4609,-99.06486,418.21683,-2279.7244,9604.646484375
197,2098.3657,99.277695,3539.6384,-138.9297,54.6707,557.6777,3155.11254882813
198,5697.685,-3081.6582,4237.7847,454.91016,153.44652,-49.235756,8190.84521484375
199,1530.6755,-5363.62,-1753.386,-2130.265,-78.226006,858.4968,7177.6435546875
200,-1807.8522,-5036.394,-3485.9167,1006.9227,5.1302614,-140.42995,3304.93603515625
201,422.72614,-3635.8062,-108.47292,1104.9343,443.64664,167.4494,4351.45849609375
202,3556.6936,788.0311,3822.9504,-1093.0791,-329.73212,-217.5535,3539.23486328125
203,819.2484,-3382.555,286.6651,-517.0726,-261.65475,-230.15709,4106.9921875
204,403.8913,-7108.824,-3421.936,506.19992,1000.81525,-371.11768,6820.72509765625
205,-1894.036,-3239.5571,60.535492,-1027.5931,-388.3336,60.283764,3448.45581054688
206,-790.34485,-5926.2065,-1669.9626,-1278.6925,650.36865,-396.83334,5411.07568359375
207,2895.2463,-951.66315,2888.6243,-3.274758,-21.116493,463.6615,3926.77954101563
208,1960.7897,-6077.813,-5025.5483,-1221.8828,-51.961704,-772.9167,7971.6337890625
209,1359.8734,-1796.9026,2124.841,-1302.6732,272.29352,-77.53389,4277.4501953125
210,2397.2952,-3085.0403,2538.0,908.8761,338.61176,-103.08808,5805.27490234375
211,316.65308,-1064.2421,1348.7798,-2803.2314,-148.29431,-1445.6865,5857.28076171875
212,182.03453,540.5312,-1145.2485,-1262.7556,-314.65686,1020.56305,3251.36206054688
213,-4980.792,3218.716,-1264.6477,-2411.2224,904.429,1438.9896,8756.662109375
214,-4593.644,3444.645,-1505.3596,-3668.1145,2541.6123,-497.04758,10479.16015625
215,-7384.6914,-865.32263,243.33553,26.72271,1179.29,-556.1492,7487.4072265625
216,-774.4269,3267.9368,-1859.8312,-685.4564,-647.8666,408.8939,5007.66748046875
217,-3637.5571,-77.81368,-1959.1619,-856.7367,-124.778435,-954.7978,3807.59057617188
218,-1970.2996,-80.2147,-756.1277,-1088.7719,212.20462,1311.1515,3405.94555664063
219,-3192.6702,4047.3853,842.9525,-1742.9246,-492.91962,-829.2932,7168.8193359375
220,-2960.375,-371.53375,-2253.5342,-1219.9917,497.70544,491.11594,3362.0947265625
221,-144.19629,2329.0483,1267.1244,-344.414,129.38387,-360.56796,2326.87231445313
222,-3182.9487,251.3595,-1708.8079,22.039022,36.05337,-107.28204,2990.78515625
223,-3266.0476,-1051.2369,-4920.8394,-1094.3665,-512.2149,412.05273,4024.69140625
224,-1067.7471,1194.3346,-5844.5767,-673.9115,2.1784585,213.5389,6343.49853515625
225,-1171.2393,1702.4894,1112.99,-1266.021,399.11493,-194.89227,3508.8486328125
226,779.69055,542.9624,-657.683,515.41064,-406.59158,46.910366,1755.36682128906
227,-903.2544,2356.0874,-1735.7793,290.75485,155.14723,-173.31679,3800.767578125
228,-168.80072,1023.8672,1163.2732,-183.48096,115.39501,-94.39449,1332.60290527344
229,-3014.2163,-737.5546,-2395.548,233.16548,392.8262,487.7267,2344.59106445313
230,-530.88947,2149.2642,1115.5707,1290.3284,-27.508179,408.8882,3313.603515625
231,1294.6293,165.8211,-2.863595,553.14905,242.12497,196.89648,1644.13342285156
232,776.88135,350.1046,-353.23434,851.1011,-102.36836,57.401283,1786.45861816406
233,1046.6403,274.1867,518.6621,642.0536,-184.311,-124.30298,1361.09167480469
234,1181.2542,125.44985,-99.29925,489.78238,174.3102,2.427348,1487.73522949219
235,1041.0939,1146.9421,-185.67827,366.56467,-114.645065,-302.0015,1536.93835449219
236,528.04736,1477.2168,671.3178,168.47054,73.39413,153.99231,978.728332519531
237,601.4787,-584.2337,-752.0829,283.78595,268.83505,141.01144,1466.69055175781
238,777.7009,-2.7177672,-488.5456,817.01855,-48.565197,-75.41344,1803.03259277344
239,1800.0425,488.86057,1620.4277,-381.0243,-209.95291,99.28835,1453.72131347656
240,463.2832,-557.0348,415.29605,192.95956,158.17499,-30.193953,1088.06372070313
241,540.3195,110.813934,-849.9791,-64.91728,-298.2255,89.40405,1350.44494628906
242,1370.9855,5.887625,-178.9004,-291.64407,556.5225,277.66663,1888.25573730469
243,568.64026,406.94904,62.193836,74.32993,-38.706127,261.936,653.945495605469
244,1984.4818,-49.256584,534.6228,-256.95697,195.6919,104.32764,1906.61181640625
245,798.9989,59.406143,-1310.4185,-101.6745,-168.49329,278.64886,1945.67419433594
246,977.69434,146.6814,271.80096,-554.03656,-79.56467,-37.899902,1243.55603027344
247,933.22375,415.56845,477.3759,38.391846,100.984634,-435.70123,918.865783691406
248,1120.9364,-149.42813,-232.5605,-331.29288,-55.871662,45.73282,1439.18371582031
249,1439.2278,657.8521,383.58328,-369.7503,-25.369062,142.70895,1171.85852050781
250,506.51035,-507.16336,111.19578,-657.59546,78.844154,13.43618,1448.99072265625
251,1379.2467,69.04199,65.96769,-890.89844,-209.83018,99.59853,2064.85327148438
252,1112.433,-11.2374,1208.5222,-855.8263,-170.40057,-55.70545,1916.65734863281
253,1159.1879,18.340736,40.977333,-647.05566,-23.358364,-42.08837,1593.4912109375
254,84.57536,1510.7388,52.307713,-2244.8406,-321.08517,1885.6865,5308.07470703125
255,-1132.0034,856.93463,48.67501,-1575.9286,735.0354,-483.4239,3574.095703125
256,-1268.5518,1738.0885,68.25032,-764.7263,146.4656,1418.7892,3829.53076171875
257,-834.3043,2614.8464,626.152,-403.96194,-495.8586,-863.5434,3529.3828125
258,-1771.963,1935.9951,-282.37036,-229.78566,153.38503,-659.1521,3460.76904296875
259,-584.494,1026.1575,1138.3081,-88.702354,-475.0041,504.5475,2061.94262695313
260,-1416.752,1024.3157,-484.4176,-390.20743,-149.77367,-85.938866,2257.96484375
261,-1830.6008,1560.8431,-463.9022,-99.17352,547.8242,-131.64828,3117.13159179688
262,-892.02936,1823.125,714.44696,126.32384,42.594807,-24.996086,2376.17114257813
263,-2027.5782,979.26025,-490.85968,150.92482,3.825683,-112.49539,2624.55004882813
264,-1960.3639,1687.1067,-203.66484,229.25827,-32.58122,82.26465,3188.05419921875
265,-1972.1548,1236.9513,-331.39847,328.22513,100.76668,208.06726,2865.06811523438
266,-1838.9242,1254.5337,-372.59686,295.36038,68.7909,6.1065125,2731.2265625
267,-2234.5806,1108.0076,-27.46178,135.35092,-17.067228,-41.988907,2954.30224609375
268,-1935.4281,716.67145,154.77359,350.07657,-26.05087,-81.814995,2499.7861328125
269,-1711.0955,1366.8243,529.3686,95.07612,-319.93747,52.65967,2817.76831054688
270,-2307.9268,902.4435,478.8514,1123.8965,18.258785,-239.28502,3617.76489257813
271,-2322.3103,1195.4065,630.64526,1390.457,125.73653,86.27311,4071.42309570313
272,-1504.5288,-608.38855,-156.09908,1863.6616,972.77637,228.08383,3850.662109375
273,-440.25412,-2484.378,-2450.3948,2086.838,-143.9981,-577.0049,4270.341796875
274,2171.1362,-3277.5476,292.9509,1352.5502,-575.1557,-1127.053,5768.31298828125
275,404.50027,51.823532,1607.4288,-22.706171,-236.87758,348.72293,1590.71228027344
276,-1946.7145,1112.9546,575.0739,161.9261,-91.56736,-44.56226,2848.67065429688
277,-2249.187,1081.3107,-854.2561,661.763,135.4077,-31.879738,3124.75244140625
278,-125.905716,-167.96817,-899.03186,1143.5928,470.1507,-823.05035,2680.62451171875
279,914.5316,-438.16275,-304.72467,969.1556,-2.7330034,-105.97123,2125.69677734375
280,615.3071,-275.07205,662.79663,357.7226,80.13249,79.01528,1122.14270019531
281,586.9608,-1008.6953,-78.53979,-174.14383,-5.374894,304.9073,1515.60876464844
282,-72.02603,1176.5398,1002.5144,-854.152,-36.926727,94.848854,1895.18481445313
283,-1663.1157,443.3177,-876.918,292.36542,36.006798,132.2501,1926.6259765625
284,1072.6705,-1049.8036,716.2757,1345.377,-95.27932,764.38995,3329.52001953125
285,-991.7132,-6.963195,-3277.185,296.30325,-904.3153,-199.2474,3358.50805664063
286,1700.7866,-1685.7666,-679.4748,-1326.8324,-329.03394,575.25964,3958.85327148438
287,4027.432,-5602.513,-434.14474,3193.8306,-122.85023,-762.62585,10102.8955078125
288,-91.01826,-3914.5254,1330.1244,-484.3201,148.2035,168.37175,4788.23974609375
289,-750.1161,-6210.956,-2626.109,-874.02454,-136.3678,1243.3949,5484.638671875
290,2829.3066,-9288.526,-1917.1338,111.138985,336.23758,715.49194,10666.115234375
291,1384.7797,345.97617,938.45087,-167.04866,-21.634514,-581.4954,1383.5478515625
292,1677.3235,-43.3025,80.42481,444.56537,-130.58038,-112.583084,1856.08923339844
293,533.98706,40.882263,-1777.9244,-398.7111,-592.1596,-235.30222,2478.5166015625
294,1529.9534,443.15457,-1982.5663,415.85522,-605.5328,711.5703,3583.2021484375
295,1150.0713,-191.53215,388.9872,-101.86022,-10.45859,-305.59872,1292.16955566406
296,895.25745,4026.1455,-2201.9038,-2079.212,-2151.4841,-1261.4612,7792.40673828125
297,-0.4221371,403.4763,1355.702,-735.63,-519.0573,322.38803,2048.8994140625
298,-3116.8289,1100.7454,815.51434,1647.2864,257.5348,-2556.3867,6679.16748046875
299,-3005.9744,979.4608,616.0645,942.25146,125.75346,-422.25436,4220.58154296875
300,-472.0379,125.266624,-471.52954,963.3402,-12.649678,136.35005,1787.95874023438
301,-2077.8132,1492.8104,-275.49133,158.08696,-93.280365,173.25607,3123.04907226563
302,-2199.2852,1295.4615,470.36935,79.15708,-5.429226,-126.155945,3174.45654296875
303,-1885.9983,1677.6912,1171.722,494.23135,-204.58748,-22.046268,3465.91845703125
304,-2213.5146,2100.5613,-1546.9039,583.8448,-38.40925,82.79146,4150.59375
305,-2240.0532,-146.42682,205.71992,1654.6794,-141.32176,-205.70934,3693.95434570313
306,-1397.2836,1440.0405,-403.64636,-664.69867,-73.28272,-794.644,3074.80297851563
307,64.769394,3349.1548,1420.8484,262.80597,-414.03326,79.52319,2985.41357421875
308,-1621.9473,1386.5481,667.5735,-533.9457,-81.44953,-133.36569,2886.77905273438
309,-1596.9807,1701.102,224.14272,-375.6315,-66.481094,73.46491,2939.45092773438
310,-1582.8278,846.317,-537.23315,-70.051544,-196.43169,238.85365,2180.7666015625
311,-1164.9086,398.7137,-899.6434,-1582.4927,193.638,-605.5256,3290.26220703125
312,-2063.2651,-1076.8212,-349.83072,1268.6362,-114.108826,258.39682,2699.33422851563
313,-2341.6213,-2681.6252,131.01741,1248.1514,-353.20703,640.1723,3653.43994140625
314,594.7127,-1909.9609,839.0411,2038.1576,362.9119,-386.26648,4500.00341796875
315,4315.8584,-1337.5961,5668.5664,-3364.0627,713.6982,-1405.6575,9101.939453125
316,3880.3867,-5543.831,3779.708,-1300.6527,-629.132,708.409,9779.8388671875
317,-7431.1655,-3232.1663,-5212.9224,-79.291466,645.0456,-731.87146,4013.95288085938
318,425.67072,-3395.4773,1845.7499,-330.30872,-585.3781,163.94595,4845.62451171875
319,4317.0596,-2982.6729,2736.5232,-2120.4138,-392.66412,387.2929,7658.1787109375
320,1322.734,-2768.8945,-3043.0095,-1663.0481,18.29836,-427.84015,5175.46826171875
321,-737.6529,-1461.8254,485.59406,-1976.146,-28.086721,166.60924,3835.06225585938
322,-135.426,280.36823,487.82797,-1903.0817,-221.02711,-310.72787,3406.39965820313
323,-3950.784,1229.0765,2315.4915,-1326.4945,302.70972,1076.0518,6531.92578125
324,-2384.0576,-55.237988,2587.3267,-2093.5054,-1067.0674,1839.931,6729.103515625
325,-2497.6414,1821.0944,2631.4062,788.58685,798.3794,2022.8278,6233.8544921875
326,853.5026,127.89596,58.92039,1294.4774,335.10147,-66.75976,2441.01953125
327,1515.7584,508.7176,615.52814,724.8001,-137.92163,-266.06882,1662.35607910156
328,842.4474,-176.85097,-127.56072,68.40657,291.79282,3.5977726,1122.79272460938
329,1085.7917,-26.317228,-278.42276,452.66455,-292.68588,-37.624397,1567.37670898438
330,-33.00861,628.2951,-666.0825,-499.79068,329.25754,-318.70773,1623.60302734375
331,1847.7673,243.93231,3093.671,244.30524,777.7343,-194.6307,2868.81469726563
332,664.5799,-38.02608,-625.5026,181.66539,-209.02055,46.913494,1219.92895507813
333,1033.2408,550.4001,-680.25793,-910.82086,263.26,-41.09959,2245.80395507813
334,1427.2943,507.63184,-56.519638,-1038.3112,229.83511,-37.888885,2253.86865234375
335,-1239.3479,1798.9822,-361.45615,-177.02954,744.39557,484.5263,3129.77758789063
336,-440.9598,2008.2046,770.0779,-169.9627,-404.76645,45.447956,2254.62939453125
337,-1946.1195,899.5619,26.122168,91.74425,108.1748,-36.974766,2537.66162109375
338,-2197.0017,-909.8004,-41.33117,1916.3749,-345.12753,-408.1276,3924.73461914063
339,-775.6966,2337.0378,4173.998,1151.9166,276.60284,-177.15648,4804.78125
340,-487.9519,1317.931,334.04318,-270.63712,333.61215,13.826271,1733.97241210938
341,-197.936,877.48785,-339.39328,1329.569,-97.920815,363.58426,2656.55419921875
342,-579.3403,1210.956,656.70844,948.9712,-68.423035,22.132792,2288.5009765625
343,-2509.0945,-121.31587,-3285.3413,913.5113,-340.20035,-540.22095,3447.28662109375
344,1459.6786,-2863.4338,-1768.6122,-944.465,-108.98181,-289.56375,4256.53759765625
345,749.53827,-521.1176,57.634415,354.9942,2.1869705,3.4450667,1261.83923339844
346,-1524.1683,1177.5564,333.66437,316.2049,-32.579655,-36.542877,2457.36743164063
347,334.4613,443.79803,3169.0652,1382.5396,-307.70734,-89.57887,3712.05834960938
348,-1388.1593,-1202.1078,1029.8033,1195.8303,-163.93279,228.87672,3155.80395507813
349,-1885.9064,-1840.4231,1007.5246,1786.2588,893.1321,-17.272488,4495.388671875
350,-1401.4841,-870.1152,-378.39154,-1252.1381,563.351,-599.61115,2742.20263671875
351,-386.77304,2553.4343,1984.0208,-434.66232,-585.50354,123.868645,2989.33520507813
352,101.37699,-89.053185,-614.266,1293.9749,-91.3881,-119.651955,2345.89990234375
353,-102.39819,308.21872,428.15182,1303.4823,-400.10388,360.5105,2489.89721679688
354,159.47258,580.0404,622.4006,1553.841,893.20197,57.2277,3137.35668945313
355,-2135.8591,459.23593,-583.76074,2394.151,30.381674,417.80322,4778.9130859375
356,-1886.1514,88.95484,240.36404,2021.7809,-132.99657,314.23242,4103.06005859375
357,-2123.8357,-238.63649,-413.6018,1651.315,89.504845,-115.38612,3391.05346679688
358,-1837.4172,-950.29095,-286.2914,2037.4044,-174.8485,-238.10704,3812.05859375
359,-1496.6398,-690.1627,434.23425,1650.4939,43.50598,38.66444,3317.23193359375
360,-720.35175,-528.59094,-361.72488,769.75,248.95229,-25.231588,1435.96716308594
361,1549.0142,1266.4274,-32.413807,-873.8444,183.56764,40.944824,2128.57055664063
362,-578.815,-2334.1929,-219.13982,-502.00906,-87.46983,69.215096,2153.00903320313
363,67.68658,-1406.5553,-215.69672,-361.91895,18.913425,-35.783737,1494.58703613281
364,-1176.8552,967.3115,518.23926,-383.7619,75.21655,32.664074,2073.2158203125
365,-872.19556,1155.9937,233.41371,-540.5117,29.853132,-4.1282086,1993.1689453125
366,-33.73328,-218.64801,-562.1812,-178.09547,95.262024,46.457283,587.014709472656
367,740.958,-814.0303,256.28018,-541.7855,64.174545,58.72041,1674.07495117188
368,1037.6522,-1731.5804,-292.73184,-4.7928157,-42.616226,68.355515,2402.9072265625
369,147.77785,-2180.115,-597.239,-9.399414,8.189981,-33.076202,2059.99145507813
370,1.050813,-2610.8296,-184.14055,362.93985,-78.768486,-86.60409,2609.36938476563
371,421.9294,-391.4006,1882.5947,230.91396,-124.65081,55.445316,2049.11010742188
372,-282.25983,-443.9155,274.21286,197.59126,-182.2355,-28.22783,803.055480957031
373,-1117.3038,426.6279,-68.48763,71.58949,22.007341,39.4248,1373.2919921875
374,-551.6962,-946.01196,197.08298,810.1911,-47.39541,-5.1113005,1728.42614746094
375,-1035.5023,-674.1213,159.8148,-190.99236,15.913088,19.998026,1113.017578125
376,-378.4181,369.57468,-249.64284,-438.69843,-75.26105,14.104704,1036.68298339844
377,-690.098,1.9507686,-386.32074,749.8986,-34.76502,3.3392823,1432.37097167969
378,-757.72046,-147.89983,-315.8343,529.9822,109.82916,-130.02376,1107.80078125
379,1262.8696,1182.5475,-468.29123,-61.838852,21.442068,82.45061,1702.22351074219
380,296.91098,-1383.3434,279.70898,-679.89734,127.96,-84.92408,2062.08276367188
381,560.5921,-883.7483,-997.05774,-33.98198,-40.045452,65.57307,1511.22143554688
382,537.57654,-998.30176,-749.043,494.92258,-65.05013,4.212872,1669.07580566406
383,930.2441,-923.18365,624.17694,542.001,102.84025,37.547943,1969.47985839844
384,912.6966,-1075.4205,358.42786,188.66595,120.76352,-14.923179,1819.08666992188
385,-811.6421,-363.60822,90.22785,817.9529,18.126997,-168.48155,1644.177734375
386,-549.74225,-750.559,61.61864,622.7312,9.83635,-15.481058,1304.32080078125
387,-739.94586,-617.0167,-520.9345,854.9648,-64.792915,28.430004,1498.02136230469
388,-1378.845,718.68994,-5.909756,-568.1416,-58.707153,115.58526,2103.23510742188
389,-1155.5929,507.35352,-474.17892,-961.6293,31.229012,-40.968925,2208.78125
390,-398.2511,-784.1712,200.00766,-630.85565,-13.597893,104.19402,1401.70910644531
391,-474.2691,-609.7334,-484.59442,-758.1795,-58.081684,6.4725924,1323.56079101563
392,-638.71545,-1683.5735,484.01273,-543.2952,175.01292,-34.326427,2122.7978515625
393,471.49347,-1643.9302,-780.4439,-631.8465,34.68895,-78.7452,2147.99633789063
394,614.1435,-457.62457,1160.9072,-68.15252,36.17437,-5.172651,1432.33422851563
395,119.70929,-1834.1993,-312.83728,138.63034,-21.972517,-98.46111,1802.18933105469
396,-1029.9387,744.5258,3.5780463,-381.58987,-66.99163,6.0444083,1683.25524902344
397,-1448.5093,-887.3641,423.93103,74.70646,-11.816548,115.96424,1681.57983398438
398,-899.4758,-280.8179,-139.8073,960.6292,47.95107,-18.288635,1807.25927734375
399,1315.0481,-680.7014,991.2273,-227.67552,3.9239454,-160.06375,1916.77502441406
400,780.5517,-1034.8339,426.32996,144.7536,62.4254,-74.46631,1693.8818359375
401,896.63513,-908.5712,745.2625,102.8297,38.412067,-38.227573,1746.12634277344
402,-968.75433,940.3347,-615.20917,14.495273,-47.237812,-18.351368,1761.53381347656
403,-393.11578,43.884357,-497.0463,320.83057,-11.758041,38.12041,748.838684082031
404,-727.5248,977.0553,650.0418,302.38303,14.82295,9.718698,1652.38000488281
405,268.53735,-118.00833,1.649659,199.93037,74.01546,1.5679532,503.826385498047
406,391.033,-703.25275,-6.707934,50.83386,-17.833464,79.542465,973.706420898438
407,64.17151,-398.03595,-52.650566,-211.07645,-31.347954,-12.8724,557.12841796875
408,693.43024,-1098.0326,711.3981,-597.2992,-36.464172,-13.027041,2077.654296875
409,-102.55012,121.96455,436.7581,-153.66174,-92.89122,-4.185645,562.985107421875
410,-473.2398,-979.38873,-332.75845,-984.5365,34.724564,-6.214171,1805.18591308594
411,-963.0546,-2021.8291,-122.997314,-89.30254,-11.848103,-2.5741928,1655.44458007813
412,-509.49518,-141.9576,232.87767,349.7327,52.655823,39.204704,890.628540039063
413,104.40344,-727.29596,-936.5384,-419.84393,19.156996,83.9898,1208.55444335938
414,529.76025,-1058.3021,-28.334156,109.11681,25.772614,-63.55709,1413.13598632813
415,-518.83954,172.96828,965.0689,-779.04364,-85.97423,-29.216118,1870.68579101563
416,-679.2214,-54.091705,-844.50287,313.0345,200.90672,38.772667,970.051391601563
417,-285.41098,-1054.7893,-353.4989,641.8137,39.111248,-35.41235,1337.28051757813
418,184.5377,-1049.9583,-282.02982,555.27545,-67.599976,-40.36559,1452.3359375
419,-426.30234,-803.5184,-431.61176,1165.3188,-62.488087,9.520117,2055.77416992188
420,-998.53174,42.41734,-216.27943,-500.0431,42.896824,-32.05381,1280.60168457031
421,-1001.89465,-874.1366,203.57959,-99.94829,-3.1154208,-32.60124,1161.32165527344
422,-155.24722,335.80405,274.06238,-185.0388,63.182255,49.504967,580.23388671875
423,-1099.117,-120.85609,-498.0123,-527.37787,-109.872475,-52.88597,1268.57116699219
424,-797.31067,434.15613,-457.2049,-403.77353,-1.6034803,41.3249,1306.74536132813
425,-15.33362,-260.1473,504.13705,944.84283,-47.876675,-2.8607821,1772.58068847656
426,-436.18924,780.2774,439.38397,-94.37452,45.92979,-49.87432,1105.36169433594
427,-862.2786,-33.226303,-1.93052,178.35652,8.150395,-7.374021,900.026977539063
428,-1778.0326,-111.902054,328.61115,320.14505,-158.91333,-56.400684,2024.0498046875
429,-129.70738,-202.14697,-25.641443,-275.96475,-1.6146994,-28.81304,504.562927246094
430,-263.72275,-462.04605,619.0011,968.8116,121.647484,-20.725842,1963.43298339844
431,-1089.1025,349.47284,-450.45325,-224.60197,143.24329,-112.70817,1345.22497558594
432,-191.78548,-439.34338,-243.92834,125.99691,-11.524089,42.22911,323.217254638672
433,144.6613,472.63412,-65.823364,-433.76236,-36.51747,-66.95216,895.991577148438
434,62.30446,-388.28885,-515.9876,187.58983,-1.3049058,19.04607,619.309875488281
435,802.7284,-1156.2262,-864.28174,-382.54013,52.321857,32.661472,1949.68005371094
436,204.65767,-1247.5145,-283.46173,287.1272,-99.66854,8.667332,1384.04626464844
437,-11.699205,-398.88516,45.147194,-60.262173,-14.538741,-57.715473,443.482269287109
438,119.11629,-563.1296,-327.8804,-250.01602,-88.67151,1.684624,755.926086425781
439,514.0174,-1072.8313,-404.90002,-176.33147,-121.19093,212.1064,1475.33813476563
440,188.77144,181.23318,1185.4354,-272.3819,-136.17207,76.719666,1138.75854492188
441,325.40778,-1597.6852,-167.4972,-102.69849,-0.23889025,72.98595,1743.83544921875
442,-1535.3286,-221.92532,3.5614774,-364.7905,33.028404,67.83314,1577.44116210938
443,-16.750906,-878.62775,170.14676,553.8014,87.9496,-62.752354,1376.20935058594
444,-187.38509,-1927.9281,-818.6256,-904.3311,105.1909,99.17909,2201.2275390625
445,-502.8953,-512.40393,-287.81274,-413.2966,14.259433,-82.281006,762.731079101563
446,-830.7173,-429.53006,55.457424,-347.64557,2.5811543,75.9908,985.216186523438
447,-834.4769,-1146.6735,302.16623,-762.75146,-98.82916,83.494865,1881.453125
448,-354.2014,463.46207,149.60532,-315.13086,37.768963,11.097411,901.677185058594
449,-2280.295,-2060.9097,-487.8398,-703.94275,41.583057,93.100006,2094.17846679688
450,-664.28973,-26.592451,136.89789,898.3681,-15.710705,111.02138,1731.05676269531
451,-0.97017187,-41.49938,-34.186462,384.25394,60.34071,-8.486495,674.901489257813
452,-653.6968,-1139.8422,-222.48578,720.04395,-24.924875,-78.31958,1485.78833007813
453,-68.62501,637.5805,1055.247,-63.98108,-118.03796,-140.89587,1040.07897949219
454,-547.4213,586.78864,281.68152,-471.49255,9.456307,-116.93443,1319.72424316406
455,297.2682,111.4499,440.87094,167.36838,63.10294,-78.90582,443.277618408203
456,-1618.6257,-1137.8472,-307.06647,185.43922,81.48895,63.78798,1206.67199707031
457,-132.35806,-269.66122,-1236.6549,-135.78914,51.63778,145.78621,1101.71533203125
458,-248.05765,218.19258,-551.7433,-11.604317,-77.46442,-10.212093,685.512023925781
459,44.385765,-790.23773,-108.80527,-308.75446,-13.285313,111.39756,957.05419921875
460,-57.948338,-283.90018,-976.57684,51.722927,-46.150696,-88.93845,851.770141601563
461,435.2836,-116.71387,281.23468,-481.34296,-24.080786,-98.07766,984.41259765625
462,-289.11392,-566.60425,203.49559,-331.3297,118.42197,-46.921795,913.440551757813
463,364.92502,-1010.67596,-804.8652,-515.28094,-65.956955,-43.26935,1570.58386230469
464,-246.53403,76.551956,1076.5118,-386.2961,112.56945,44.009563,1385.23547363281
465,247.49434,-458.86276,125.29623,-491.99603,25.870993,-0.34867695,1075.05615234375
466,-368.2883,480.6349,182.4043,24.58807,138.37654,0.9835459,784.664306640625
467,-1560.2744,145.83214,-291.31763,576.02716,-171.34209,77.56008,1859.46728515625
468,-436.74185,409.80832,160.3974,5.148556,65.48568,4.5908785,762.051208496094
469,-938.73737,-515.7727,-429.96396,257.66333,-95.08192,68.18327,680.291198730469
470,389.1966,-1030.9379,241.6774,-12.143579,-217.39905,26.60081,1404.77722167969
471,-1043.7289,-287.6559,-57.22526,-254.17346,-92.68127,116.415726,1029.177734375
472,-1130.2772,-272.01062,-193.81561,1299.8022,-46.773746,131.81859,2436.59545898438
473,-2549.8596,-1894.2028,34.7943,435.23517,-8.029009,-129.3505,2456.49194335938
474,-139.02626,-79.05858,119.004486,419.13477,18.343948,-49.84371,768.236267089844
475,767.7641,3237.6128,-250.19653,22.057396,5.4175477,-293.599,3148.13500976563
476,247.8126,-121.12353,717.6806,-103.17374,1.9338557,-0.4291258,749.79150390625
477,-264.25626,-437.65646,-396.3907,-119.28084,41.102806,-60.70186,288.827331542969
478,-523.07513,-1476.5157,-688.2147,-137.88495,80.676544,-3.7363966,924.918395996094
479,129.57898,67.73316,312.7526,-143.1898,30.353561,-23.286652,338.536224365234
480,-581.4978,545.9834,-4.060662,-217.69807,-118.26561,-92.76216,1078.67980957031
481,1007.2238,3299.082,209.0457,1348.2107,23.817423,43.76349,3630.35498046875
482,965.55994,-492.3592,-495.7009,-782.4534,-21.091858,-136.7783,2006.13342285156
483,984.3029,-699.27997,-1.9831833,-163.37914,85.18771,-235.91866,1554.20043945313
484,-1277.2902,-105.31484,244.54225,178.48387,-128.80786,221.13185,1482.5625
485,-1946.8971,-1018.43207,-21.374449,601.0211,349.4875,-41.125683,2058.41723632813
486,-96.79563,-473.4442,185.19962,-324.72128,-43.881817,-36.880287,808.571350097656
487,-2529.858,-1682.8506,-519.92773,210.49916,-23.014841,-176.90114,1811.96472167969
488,-54.065647,-889.2317,-95.10137,485.00732,192.96321,-64.38882,1222.60095214844
489,176.31319,-379.8716,47.482555,-210.40117,165.96114,-108.07282,710.464416503906
490,-696.237,-490.70862,344.00323,-288.19482,-75.7836,20.62518,1085.45715332031
491,-3202.0574,-2060.551,-308.586,-349.6827,-194.07741,49.01824,2619.03369140625
492,-3974.0142,-2739.3264,108.35215,251.46431,-25.002844,-32.346436,3653.00366210938
493,-67.227516,-497.33997,-207.66237,622.9586,-27.768217,-90.93895,1155.71240234375
494,377.43237,-1380.4598,-329.5984,172.86597,-127.9491,-236.71939,1629.12939453125
495,-500.56158,-1820.9001,-714.33276,-277.96445,83.33692,-265.74637,1404.00598144531
496,58.23483,-473.21616,-573.52734,-362.31198,-84.74983,153.76704,912.197021484375
497,-1533.5424,-445.00824,77.908455,533.0294,-234.85953,-105.389534,1754.62817382813
498,-716.04785,-551.9469,130.82414,600.8634,-35.810513,-44.10756,1303.05139160156
499,1056.0299,1605.1439,-430.52402,729.28735,-138.11678,97.57423,2238.08569335938
500,112.010284,-215.69435,-3.6627853,-685.0386,-52.77598,-31.813103,1225.59765625
501,-135.60924,1414.2739,1067.4475,614.4487,82.92386,45.42528,1773.23071289063
502,-2498.8062,-1714.2622,231.0986,1196.6304,-102.54787,62.772472,3203.95092773438
503,-1310.4545,491.1972,492.92236,596.3958,69.64375,-62.48525,2083.83959960938
504,185.53969,-426.77,362.63693,217.76228,-16.203339,-46.1728,814.966003417969
505,-2077.083,817.34894,149.91086,318.54675,220.28885,70.43084,2712.23803710938
506,67.907524,-254.14778,617.27734,-43.915543,20.733835,87.5056,782.624694824219
507,-67.150375,-539.2531,648.37726,-792.7548,54.518944,-246.1338,1774.45947265625
508,55.720634,-2013.5441,113.92281,-449.23398,-37.880894,-196.80528,2265.30688476563
509,-1087.0604,2458.034,255.00311,802.1548,66.90857,-81.77871,3402.19580078125
510,31.478237,1695.484,-355.99756,56.34815,-111.33562,-160.23807,1920.30090332031
511,-208.75612,117.94543,363.7638,95.93146,0.41775835,73.570366,539.737548828125
512,-1311.3848,700.11035,652.1938,731.12415,-12.559036,48.71039,2358.65283203125
513,20.000092,2044.4243,-60.86678,-511.08722,26.962692,-65.79468,2251.0751953125
514,-1428.873,466.28314,378.03903,1126.2927,184.65144,179.93785,2727.1220703125
515,-281.90836,1750.319,-71.16747,-240.61433,-138.82248,-48.6775,1996.17028808594
516,-133.98627,-327.01257,211.9098,-180.09633,-25.257338,-35.14442,571.483642578125
517,-1134.3151,-1704.4813,84.96121,517.52,-79.90957,410.66306,1958.43920898438
518,286.11386,-165.08356,190.85747,-176.72134,43.851658,15.790894,519.501403808594
519,-1195.5698,-1110.2548,576.29224,485.14978,-5.282899,-139.03323,1939.0185546875
520,527.61945,590.8798,1890.4648,-514.1107,-104.655914,-81.099396,1618.84362792969
521,-630.2666,344.9426,-838.9284,-104.994774,13.343569,45.06209,1112.54626464844
522,-1027.3911,407.62006,-306.08273,379.80594,-100.11248,37.990402,1418.31323242188
523,1836.8068,-627.97455,-1321.4205,-283.09818,183.19632,-51.25606,2934.99658203125
524,1778.343,-456.73303,-323.93533,-482.35135,85.3917,97.889244,2337.7333984375
525,-1639.7458,652.1313,-797.5151,-530.86115,-116.7122,23.485703,2218.04516601563
526,-3338.8171,-2203.304,1231.6885,629.53107,-240.60881,-69.96351,4285.59619140625
527,-3401.6277,-1989.8024,-160.05103,-175.54121,-3.982251,-39.374065,2832.255859375
528,-1288.1554,247.80928,-255.51942,-42.24187,-119.364914,-89.7217,1382.63488769531
529,-642.87976,-700.5242,201.10132,147.98251,61.96869,51.317795,921.626342773438
530,-170.49503,-222.40262,678.0639,131.76715,-9.295981,6.299143,905.129516601563
531,255.76448,-696.29114,515.7226,1558.5848,-24.522028,-155.68271,2929.77099609375
532,-1315.2272,-790.90125,270.3641,1165.0209,164.55965,23.200373,2472.31176757813
533,-875.37195,-1714.5704,243.0951,222.74507,-45.339462,148.69246,1764.98718261719
534,-775.6549,-1124.5731,-76.805786,357.24734,63.301407,220.76306,1181.13610839844
535,1001.61804,2086.0452,288.6828,-27.75778,16.668472,161.15372,1593.24877929688
536,-57.9851,1897.1119,495.0762,-163.63135,160.56848,173.89267,1815.318359375
537,-1303.1624,2777.7664,-459.52615,742.8049,-4.1432767,-60.507927,3948.3154296875
538,-705.46375,2382.5269,355.28723,968.3247,-14.6339655,-170.63304,3207.21630859375
539,1136.679,412.13873,1882.7059,828.5067,-223.8135,50.96244,1959.43371582031
540,1502.9376,-600.75275,252.69147,829.0615,-94.8199,28.127577,2334.49633789063
541,286.0109,3327.227,-139.99997,-2328.937,50.59735,-15.686602,5196.76171875
542,-2018.0793,-398.37512,-393.5951,1922.8792,-127.35378,22.216805,3711.29858398438
543,-2255.84,-899.61176,-1053.8998,1873.1289,240.4672,6.795466,3514.73461914063
544,4377.7935,289.71594,-1417.0773,354.57462,205.10875,-15.469561,5206.44970703125
545,-1465.5975,-520.67883,-198.86086,-755.70197,129.25359,32.52961,1751.30822753906
546,3750.995,-576.5898,230.89842,760.3941,101.04325,-38.422886,4201.810546875
547,4449.2646,-740.1335,207.16994,-1682.1842,252.8665,83.39407,5622.56396484375
548,3698.436,-1570.8875,-330.5448,-2309.8884,-17.25533,26.420425,6227.2138671875
549,-70.541245,-1278.13,-760.4621,540.41473,51.22031,137.90964,1429.05310058594
550,3294.666,1166.0204,-292.229,-471.75363,96.30962,-203.97676,3253.00170898438
551,3649.264,1164.6902,-153.46507,-205.09024,111.50935,-36.391552,3369.44458007813
552,-851.09314,-172.39355,-1081.2493,-1011.1386,276.0545,91.92656,1997.7451171875
553,442.86548,492.56717,-292.68228,282.26648,84.03726,-72.21422,925.155822753906
554,-1486.8214,-2076.1125,-314.5115,-501.66025,-51.61382,29.587013,1782.69836425781
555,1112.0198,2021.9103,508.26102,164.07173,-272.59232,60.856663,1434.07409667969
556,2693.7905,190.372,39.259823,-734.4868,-149.65198,-91.55466,2894.64721679688
557,2623.1216,156.43192,1023.3767,-88.84906,-141.10385,57.50307,2188.83544921875
558,1316.364,1427.7366,182.90207,-127.51242,-134.9614,-25.63824,1236.4345703125
559,1870.1296,1357.5992,706.933,-80.808525,-96.64798,111.16811,1050.82238769531
560,-1480.611,-2860.7046,328.10312,-169.12254,-137.02885,120.261604,2803.18139648438
561,-2024.098,-3739.4148,519.91925,-379.77798,56.403538,314.21936,3810.06176757813
562,1304.4591,-1702.0844,274.82855,153.07971,-236.96324,-52.12484,2692.71606445313
563,719.69495,-672.22565,-314.91022,183.01697,138.98375,60.941216,1318.08166503906
564,2354.359,1086.9244,528.25714,745.6997,54.389057,64.49869,2077.5302734375
565,-297.70142,3306.4932,-439.3879,205.77338,-133.65184,44.432922,3702.36376953125
566,273.47385,-898.35596,-199.34216,24.576448,-27.899137,1.7227968,1023.15008544922
567,443.11935,-1232.0245,-139.98666,-186.69016,4.206962,107.64179,1519.44274902344
568,-413.2066,-1179.6355,-670.04346,-147.71988,-155.482,27.988106,772.57275390625
569,-2033.4569,1624.4333,-1190.5217,1839.0919,154.2043,-314.3932,4639.1787109375
570,1726.605,3259.4626,260.42706,1011.5848,53.793568,194.8784,3152.6650390625
571,649.52167,4199.243,-225.8579,-2113.4905,-128.4316,-205.52794,5481.8701171875
572,1465.7131,1368.7523,1008.21356,-657.5889,84.87483,323.59344,1344.38342285156
573,-855.72546,-46.951588,-548.8374,-158.53664,19.92815,67.89412,768.44921875
574,-571.6486,143.03102,205.91954,529.8769,-92.02719,-30.051933,1195.86450195313
575,-713.5492,-699.5077,-297.42273,212.51903,102.404915,-37.292313,581.928527832031
576,361.3598,-211.47552,637.4678,203.18417,9.9574175,-24.162815,829.723266601563
577,-97.82858,-1088.5063,394.49786,128.60806,91.52617,-12.657572,1336.71118164063
578,258.3206,-366.19492,316.5892,-620.244,20.349958,-21.588987,1259.58447265625
579,-35.32853,-536.5081,-1442.5059,-117.135544,-54.091427,-27.833467,1256.32177734375
