Element Label,S11,S22,S33,S12,S13,S23,Mises
1,-7300.2896,785.36755,-24537.514,1297.7415,-11417.005,1430.1522,30068.361328125
2,108493.62,81247.336,123767.83,-1339.2632,1098.5115,4448.0464,38212.34375
3,-87796.91,-113296.75,-128837.195,-5415.8027,-1093.9291,4456.006,37936.48828125
4,-71600.88,-80439.89,-85753.75,-1835.4172,-3143.1147,18240.986,34514.90625
5,-65443.91,-71421.1,-95692.62,1449.6055,-2585.884,-11401.28,34441.84765625
6,2430.0786,14048.574,26673.16,-636.2461,18239.387,5459.5366,39111.48046875
7,-86765.35,-72473.76,-100385.12,-4411.254,-7394.9814,-15532.829,39123.35546875
8,221343.52,221056.33,250202.56,2594.416,5850.284,-11211.448,36622.05859375
9,76847.9,92434.01,79293.83,-4500.16,13400.477,-3981.728,29288.599609375
10,14892.051,18748.273,32163.348,6564.247,6265.738,9598.258,27748.734375
11,-16887.395,-10056.261,-33646.008,-573.92377,-19401.33,-204.18571,39652.79296875
12,120894.91,125981.58,155985.48,2176.754,9302.882,-7053.9277,38753.6796875
13,-164401.84,-180437.3,-170718.92,-5465.384,7884.148,5560.6875,23761.279296875
14,45013.88,44664.457,46100.156,-302.22333,492.92856,-663.16406,2000.99365234375
15,74253.54,73395.94,74218.016,478.28552,780.8762,510.61362,2001.00732421875
16,-11212.38,5683.8496,-20493.6,-9935.197,-10882.49,-1900.6614,34506.359375
17,5642.012,5031.2734,5968.9336,-579.34564,-219.05458,851.19574,2001.005859375
18,223799.5,222725.69,242615.69,5274.507,3493.5574,-5346.0967,24108.6171875
19,-425644.3,-424931.66,-425655.7,-130.27475,748.89307,-764.46375,2000.69140625
20,370611.9,371079.7,370733.22,-612.4834,-567.5534,-760.22345,2000.59143066406
21,88933.79,88957.79,94689.82,-1777.969,19557.004,-4601.5957,35403.83203125
22,-75515.62,-77321.805,-75201.16,80.2566,-34.716644,-130.61298,2000.82299804688
23,174740.23,175225.02,174915.53,-439.7014,186.85095,-1022.82025,2000.9990234375
24,82767.17,81926.82,82621.41,145.73088,496.72244,-930.0582,2000.96997070313
25,102619.42,102719.766,103638.9,-522.78827,-738.8481,-446.905,2000.9716796875
26,-16274.51,-16135.495,-17741.723,42.841118,-274.7341,-682.1422,2000.974609375
27,115131.305,111772.12,91527.516,-3957.72,-6114.2095,4293.7393,26525.14453125
28,93050.59,64450.44,92478.1,-1297.0801,9658.694,940.2332,33007.4765625
29,-756738.0,-744817.1,-772289.2,2249.8157,5983.6895,-8283.589,29963.021484375
30,-45670.566,-65101.52,-28893.05,2339.6138,4710.593,8292.444,35697.8203125
31,34392.76,19135.414,1549.1611,-3307.5542,-9618.648,-2211.322,33696.1015625
32,74237.055,82500.37,80447.38,1055.0106,-1538.5472,-20317.846,36116.72265625
33,58077.496,59974.46,76314.15,-834.5132,18096.611,2827.9014,36195.60546875
34,8325.212,9025.092,9646.839,197.48396,-921.2507,-98.53232,2000.94567871094
35,29435.818,58676.83,56616.49,5551.955,8532.163,-7053.614,35484.66796875
36,99310.3,91129.055,106146.19,-2782.4932,-719.4082,-3208.4133,15008.3115234375
37,16322.867,4147.6797,7052.165,1767.0385,5742.754,-3301.0305,16195.7998046875
38,29428.877,30891.193,31359.576,-219.32437,-384.59442,352.67322,2000.96447753906
39,-62975.844,-64132.523,-64287.918,-156.10042,885.6147,109.67564,2000.98107910156
40,42034.234,40431.496,41648.25,142.27745,79.564156,779.94336,2000.94396972656
41,6104.7227,7008.9116,7713.757,732.97394,-12.748202,382.99472,2000.99291992188
42,-16742.559,-16545.205,-17998.104,289.9096,323.83334,724.3056,2000.93237304688
43,378379.0,378348.44,376380.5,-117.22465,0.69421685,-97.94895,2000.96618652344
44,11089.159,9135.449,10685.268,501.4754,-82.810455,104.34248,1999.6728515625
45,707716.2,712151.94,714903.6,-1256.7902,6227.5186,-677.16327,12724.529296875
46,498554.62,499839.56,500352.66,-661.094,160.1487,118.64842,2000.98327636719
47,186926.36,186616.33,186745.17,793.4233,202.69743,800.80237,2002.11096191406
48,627304.1,628940.94,627260.75,600.1792,-181.43814,-155.91898,2001.09216308594
49,-234304.33,-209527.64,-214584.16,-12383.118,-1110.3075,-3326.8784,31797.744140625
50,909421.5,922931.0,923130.9,7864.8633,5951.1533,-448.0646,21855.5703125
51,-266754.94,-289849.75,-294604.16,-308.70404,-1022.8235,-11529.066,32679.6484375
52,73263.1,66211.17,81366.14,15132.638,-1516.912,-10246.48,34371.4296875
53,-229041.94,-211553.7,-197243.11,6131.861,-6790.237,9134.103,35529.07421875
54,233956.33,237641.06,239257.62,6515.5786,11254.418,9658.228,28448.818359375
55,29253.818,25713.607,35751.01,-9122.397,8418.838,5887.6465,25377.669921875
56,140602.42,146624.36,149599.39,-493.19052,-2818.1785,-3099.6077,10789.291015625
57,-45688.01,-44609.31,-45322.367,180.4891,-62.734413,998.5956,2000.99719238281
58,9675.293,5464.393,10344.116,-352.1487,-1235.9207,-2539.6592,6730.48876953125
59,-19100.809,-13914.32,-28671.785,-1914.467,1523.0695,-5623.4375,16762.068359375
60,-15444.124,-20174.39,633.9303,8673.858,7061.9463,-10690.6455,32789.0703125
61,42294.89,48674.312,74272.76,-4877.901,-7790.1104,-6615.6772,35270.6875
62,13290.809,-4219.3047,19924.133,-9809.815,10319.974,-11552.932,38410.53515625
63,-2492.4248,10304.737,-19968.295,-9882.691,7274.536,-9724.992,37792.8671875
64,80356.35,79480.88,94466.66,12147.67,-827.34393,15960.861,37699.0546875
65,10973.885,11260.367,20753.586,-15195.007,-13324.413,-4786.5156,37241.640625
66,99175.32,85458.85,110182.055,15281.618,-7158.1245,2681.7593,36553.23046875
67,13228.941,-20439.424,1811.2031,9023.443,3230.6565,2677.779,34301.56640625
68,-84746.695,-65568.125,-87724.68,12828.698,7281.969,9196.888,36610.86328125
69,137166.52,137898.27,130572.09,16377.554,908.5858,7032.83,31691.935546875
70,-8320.809,-8854.028,-8964.169,-1012.7623,55.433834,433.29825,2001.17639160156
71,-238596.62,-238687.31,-238859.33,1009.0796,329.4577,-434.49127,2000.02819824219
72,239770.72,239635.34,239479.17,-81.54669,81.28214,1139.787,2000.24267578125
73,346382.66,346973.94,346241.75,1068.228,-87.07747,-182.0846,1999.58203125
74,305538.53,303659.7,305656.66,-208.55334,71.70751,177.28394,2001.53540039063
75,301521.94,300681.8,302210.28,-750.841,-426.6245,78.90239,2003.474609375
76,78295.15,77271.99,77196.086,649.84845,716.56116,-25.775213,1984.83154296875
77,223131.42,222793.06,223105.34,-879.86255,-97.57139,666.81177,1947.1240234375
78,147460.2,147463.23,148557.89,-646.9197,105.797874,711.47284,2002.31750488281
79,35323.504,34493.734,36168.465,-420.5553,-360.16718,571.679,2000.95263671875
80,-90041.97,-84829.05,-78873.65,715.41754,-3000.612,-5323.0503,14395.7431640625
81,2203.728,3120.4832,3694.1257,776.2777,-248.33586,-324.40387,2000.9853515625
82,11647.553,11766.588,11066.4375,-478.6047,-129.17776,-973.9367,2000.98559570313
83,14453.061,-6449.939,-10952.27,-11628.9,7414.6978,8262.382,36424.53515625
84,23454.87,7042.454,-12286.317,-2215.1897,547.7051,-9256.431,35112.1953125
85,-9517.895,-2402.2495,2849.5195,-20847.754,-846.9251,-5799.152,39019.3828125
86,23577.592,19948.766,47864.242,-9446.449,-8605.567,-7438.4126,36701.5703125
87,-1820.2496,-3128.4075,11250.82,-13446.939,11476.155,-2622.0972,33880.02734375
88,1189.4167,-24326.127,-7719.367,9098.429,-7763.1924,-1279.4589,30612.96484375
89,3128.1572,5682.806,1750.4183,2943.777,2638.6409,5148.4595,11762.171875
90,12894.489,14115.571,13668.067,515.0013,416.50446,-717.15576,2000.97619628906
91,2177.4697,131.77544,372.14276,-199.99821,3.7867177,210.48131,2000.96765136719
92,-79300.49,-78092.31,-78455.805,-6.534812,930.8582,-289.54904,2000.94873046875
93,10837.754,9780.777,11207.664,-9.556669,-258.61057,-848.12524,2000.96997070313
94,7142.89,6846.3696,6524.5513,-56.49926,1027.4353,-424.50635,2000.99487304688
95,29850.057,30350.658,30151.65,-474.1087,-746.3611,699.5077,2001.00415039063
96,5614.8604,7690.959,6756.594,281.80432,342.46744,-238.3603,2000.98205566406
97,15930.065,20765.37,-5910.6313,-6935.0923,1005.1825,13457.386,36008.6640625
98,-125545.69,-123275.875,-120094.03,1932.216,-1664.3616,-1186.2528,6799.31103515625
99,-208605.92,-208999.16,-208518.06,-975.6032,-124.87914,477.55142,1945.05969238281
100,891593.75,870558.44,872368.5,-9437.288,8607.069,-693.89526,29976.025390625
101,48642.527,50852.99,46477.03,410.7589,-789.2991,2982.06,6589.0400390625
102,47652.53,31697.162,67189.51,-1833.283,-894.67645,8989.929,34683.24609375
103,110981.84,74127.59,83379.625,-207.20436,-4606.8984,2006.0157,34332.6484375
104,80945.195,72639.516,49464.176,-8417.448,3802.5674,-1123.7983,32531.451171875
105,11029.308,8772.781,39122.535,-267.47314,8005.477,6627.7847,34379.859375
106,20477.555,18798.592,20007.27,84.71928,432.51456,-624.68726,2000.98327636719
107,149.95952,1065.789,1596.6644,-653.5686,-498.36673,351.49677,2000.994140625
108,34291.26,32959.75,34756.99,189.44826,-79.95039,649.8858,2000.96179199219
109,41671.273,43097.402,42641.83,-99.37276,506.9499,-732.98596,2001.02697753906
110,5226.375,4705.319,6024.613,-116.53432,-44.85988,936.7692,2000.99914550781
111,43329.23,36308.727,20253.639,-2110.152,18632.602,-722.9655,38421.5546875
112,13468.152,-4402.8384,-8466.234,-4799.5654,8953.7705,-2780.9302,27227.16796875
113,75709.73,63253.355,78056.05,-10005.448,-5688.133,-3604.2786,25025.12890625
114,-53056.79,-25509.217,-23667.707,2575.2717,-6461.808,-6520.21,32949.80078125
115,-238802.62,-220073.9,-214060.55,4677.5366,14455.376,-5354.178,35749.984375
116,439855.84,440413.7,441781.88,-570.05994,87.4377,141.8525,2001.14184570313
117,195986.66,197102.89,197295.38,-34.691807,488.9376,-771.5505,2001.13659667969
118,7031.191,6741.122,6467.725,747.23334,21.20286,-888.84064,2069.95776367188
119,119663.8,119710.414,119586.086,1085.9846,11.42176,-403.49417,2009.66088867188
120,73236.92,73102.766,72321.49,20.351786,272.81625,-1007.1803,2000.24096679688
121,80443.625,80014.78,79114.25,582.12354,-71.34274,-733.91943,2007.1962890625
122,220053.6,213243.38,226728.77,-11511.947,-14463.152,-4966.383,35149.88671875
123,-8300.39,-7915.0654,-7583.4653,163.21747,-722.10266,811.0043,2000.90161132813
124,38000.99,39975.875,39684.56,443.7402,13.011254,-31.776014,2000.99450683594
125,-753009.25,-738701.3,-730801.9,1012.6557,-1240.8198,-2460.737,20149.537109375
126,75690.95,75010.41,79961.72,-46.027004,-4172.4966,80.224144,8594.41015625
127,701678.9,701679.5,701270.9,-25.938446,-889.55286,-696.43823,1999.43225097656
128,405262.16,403660.8,404257.06,696.71906,331.45178,286.5114,1999.27844238281
129,-52092.184,-76663.17,-50828.71,7265.129,-3564.8875,-9181.032,32950.26953125
130,11366.009,12213.204,12358.09,230.07625,479.658,874.3467,2000.98608398438
131,32555.553,32652.146,31354.234,-32.133614,772.43396,462.6615,2000.94067382813
132,27283.924,59978.566,43107.676,-2363.2192,-10964.967,4481.911,35209.1953125
133,18940.383,36804.82,10761.097,3119.0627,-13603.932,7578.818,35900.68359375
134,-4508.035,-8686.446,10396.139,-10139.028,-13889.143,-8129.335,37245.83203125
135,34183.055,45378.547,9746.182,-551.2937,-5621.2217,4328.8643,33882.234375
136,-3430.2327,-411.38986,-31554.172,3891.0308,-2973.91,4659.4946,31969.62109375
137,27189.482,28402.088,28229.912,-453.88538,812.4384,116.87116,1982.53784179688
138,-52483.746,-51731.51,-50884.98,-193.07225,-203.48753,-784.9725,2000.96459960938
139,467410.66,467814.1,467070.6,305.07846,148.45969,1046.1348,2011.00268554688
140,2070164.5,2080099.8,2069243.6,1043.7325,-2265.3235,2208.5078,11916.4609375
141,34550.336,34101.695,34808.77,-673.9673,-16.589354,865.55316,1998.76916503906
142,4906.324,3593.3562,5199.728,-749.84326,-212.14975,-2.688412,2004.25537109375
143,172920.14,173992.95,173107.78,-82.73517,232.06982,-972.41235,2000.92333984375
144,38864.16,36670.34,62330.89,608.2855,15516.843,-2320.2317,36695.5
145,-229789.72,-230397.73,-211768.44,-13681.546,-9690.198,-6875.2866,36347.7109375
146,71792.29,79831.66,77904.55,-8613.023,-12659.246,-14361.323,37079.87890625
147,14334.22,40409.316,24723.643,7456.559,5562.3657,-13452.855,36324.9765625
148,8219.845,12545.704,42661.207,-3946.4944,-3716.8718,-1542.8585,33929.97265625
149,-65056.973,-49559.87,-71504.164,509.83948,14151.256,1885.8536,31525.583984375
150,-49866.004,-40172.668,-45987.727,-89.07055,-555.8662,-7682.3013,15792.794921875
151,-1750.9172,18719.918,26734.37,-2555.7993,12163.436,-5907.751,34863.984375
152,439464.62,441131.84,439653.44,702.7594,-83.8729,6.9986506,2000.83483886719
153,406699.75,405200.7,406848.5,-487.34976,14.93176,515.8274,2000.93286132813
154,-31279.627,-18213.15,-14878.127,4062.3757,3085.5366,-926.8045,17495.125
155,23439.951,23505.139,24038.074,66.679276,1149.423,434.51538,2205.96435546875
156,-345797.16,-346002.9,-354159.1,898.1322,-1233.0212,-2177.7974,9457.970703125
157,73665.04,74203.08,74186.5,1042.7959,147.26756,363.21075,2000.98486328125
158,7634.788,7952.8364,8478.742,-979.6223,151.72581,-412.6525,2000.97058105469
159,8272.75,7895.2007,7819.3584,264.56885,257.14395,1067.447,2000.904296875
160,22247.145,23180.941,23880.994,-527.67896,-612.395,-96.17353,2000.98071289063
161,-35157.887,-35165.07,-35014.402,311.9723,-375.88663,1043.221,2000.61303710938
162,71681.63,69495.14,71022.57,131.75818,37.060005,-240.31207,2000.88159179688
163,23471.764,13988.883,-2634.1758,2063.9385,9451.198,-7458.5205,31169.36328125
164,-31304.674,-25699.432,-1290.8165,-9466.824,-7882.43,-3848.2427,35548.59765625
165,-1587.6697,20586.264,7599.1143,-15341.43,-3136.94,3499.956,33833.73828125
166,50876.8,61709.81,55118.305,2985.862,6914.1416,1744.3278,16391.65625
167,10655.448,11149.802,11193.816,604.5205,-603.101,-718.406,2000.982421875
168,-1086326.0,-1109158.8,-1076989.4,-6675.8696,-5289.269,2443.5981,32515.10546875
169,191118.48,182307.9,165146.48,-1247.6144,297.5811,-12071.635,31071.7109375
170,320070.3,342178.34,333880.88,5596.056,1619.262,3962.7578,22871.296875
171,52735.027,54660.934,52972.64,181.42906,54.062008,442.8951,2000.98474121094
172,16046.112,15888.567,16442.262,-87.489716,-1114.4713,-59.63815,2000.98449707031
173,31137.162,30634.496,31777.584,-271.03934,530.1553,807.3895,2000.986328125
174,-128576.586,-115468.35,-119293.45,3964.5464,4885.382,-824.8914,16034.7109375
175,406590.1,402640.53,404764.7,-248.88652,1517.4266,185.50957,4349.53125
176,-51710.664,-50214.965,-48166.92,13911.218,-4058.93,-277.7264,25292.625
177,-12720.827,-14713.257,-24983.576,2043.3834,19797.486,4992.7935,37323.50390625
178,286662.78,286167.38,287115.47,1040.7593,-12.814397,162.46635,2000.95874023438
179,195406.11,202434.23,214620.6,-1837.7416,9139.464,8141.187,27259.9921875
180,-30322.506,-23764.451,-30231.389,-7001.4995,18038.256,-9831.972,38152.59765625
181,7929.649,1540.8911,12108.284,-6254.3887,-19199.436,-5657.6494,37472.7578125
182,68880.77,69692.91,69245.34,-300.31192,-217.26224,-1015.7731,2000.98645019531
183,290721.28,258915.52,287851.06,-6151.614,-7634.589,-6226.9873,36513.9609375
184,45397.184,47210.91,46407.664,385.06598,489.10202,348.09595,2000.98522949219
185,48355.2,46621.984,48576.547,124.47121,325.15308,260.5045,2000.97790527344
186,-40332.934,-44271.918,-36939.047,6496.1875,4383.209,-4227.987,16681.3984375
187,6520.552,-6120.937,26369.182,8180.0166,-3151.8738,-5032.1177,33334.65625
188,-391440.2,-388232.03,-379836.2,3186.3625,-4536.591,-3181.0757,15174.849609375
189,219266.8,219313.0,219199.08,-713.6419,-490.03668,762.8509,2000.98376464844
190,20549.633,14571.183,-5967.016,9863.431,-8965.924,-4080.127,34107.3828125
191,-302732.62,-312075.0,-285955.1,6017.529,2063.6504,5407.9434,27104.482421875
192,35640.54,2835.2756,16788.48,6132.902,-10533.989,-2606.7368,35766.69140625
193,-71836.15,-75746.34,-97525.984,1735.3264,-16529.09,-1101.3517,37511.46875
194,24684.021,37080.73,38457.58,1569.1433,-21457.041,-397.15717,39518.5546875
195,-43647.355,-37258.836,-55840.742,-1655.3323,-15619.544,487.9824,31752.712890625
196,-117255.79,-118548.734,-131511.05,-880.8282,-320.882,11200.98,23779.720703125
197,-39116.29,-26403.83,-36026.2,-5120.3174,-12526.049,-13197.289,34694.90625
198,41461.273,49249.562,55943.234,2699.506,4328.632,-12312.127,26276.1015625
199,17048.283,18450.96,18459.969,-413.4999,346.92206,-619.0621,2000.98608398438
200,11303.018,11002.571,11150.427,-172.92094,-868.9391,-726.0224,2000.97534179688
201,22232.143,23996.775,23667.658,-435.47754,-339.47372,-386.3291,2000.96875
202,44556.773,25936.09,23193.75,1441.8472,1943.5865,5302.091,22521.5546875
203,44410.41,43295.383,43832.53,-184.49417,994.64233,-18.362318,2000.98608398438
204,11178.974,9289.3955,10436.586,160.19551,447.21265,450.2267,2000.98547363281
205,2650.791,4145.0503,2393.597,-93.43211,-288.19003,590.28815,2000.98571777344
206,51141.625,52719.434,51825.348,760.7773,-299.45703,-200.3023,2000.97619628906
207,1624.7137,2622.8428,424.11542,-327.6417,-95.72294,-78.22203,2000.98522949219
208,176507.19,178520.1,177824.25,-91.08104,-201.0039,219.10469,1850.79370117188
209,-60501.844,-59526.914,-60432.527,1007.4296,-30.944223,-151.22545,2000.98413085938
210,41497.926,40986.844,41873.418,821.9061,-675.57635,-68.391785,2000.98425292969
211,24357.418,23041.549,24093.254,868.63184,-82.066124,298.04056,2000.98522949219
212,58999.9,57712.305,58403.906,-162.32066,891.36224,313.89374,2000.97973632813
213,16196.173,15938.29,15617.936,774.0044,774.65607,226.95862,2000.94970703125
214,125531.69,125512.83,126655.91,354.57065,-278.92242,-838.24744,2000.98876953125
215,16763.133,16632.107,16564.428,32.20062,257.2962,1121.2511,2000.98547363281
216,-41471.78,-19936.707,-13766.978,5714.311,-364.44736,3515.2253,27751.02734375
217,5447.343,6350.7725,4749.244,275.27945,-315.61206,717.30164,2000.98571777344
218,28232.865,47338.83,57064.1,-3985.6743,2770.3962,-3125.1487,27302.220703125
219,-50257.203,-28201.293,-41206.297,-76.7731,-4599.656,14855.362,33080.046875
220,5425.919,16861.861,1519.6959,2124.175,7247.894,14827.8125,31959.896484375
221,7257.434,22315.857,36089.715,6865.2646,603.04553,-1901.9988,27878.794921875
222,-18801.371,-1947.8461,-97.128586,6459.9883,2292.1836,15648.281,34557.49609375
223,-14785.161,-36020.125,-8034.302,-7720.7646,3432.6184,-3953.0908,30015.197265625
224,-3779.834,-14696.414,-2935.365,9352.65,5859.666,-12968.159,31607.6953125
225,-7659.6816,-28597.842,-9707.509,-1685.472,12565.2705,-4064.1072,30519.728515625
226,-8786.991,-139.1253,-11712.096,-6115.6387,-1367.3522,-1388.1055,15239.103515625
227,17274.203,14095.669,-4800.4204,1741.4595,-299.52512,6670.3057,23876.20703125
228,8186.7666,8482.042,8997.898,1025.3959,233.46922,-245.28392,2000.98522949219
229,61082.71,61657.008,63214.11,210.53201,-263.58267,-68.1152,2000.98449707031
230,3069.0479,2663.4421,1013.5032,-30.438332,302.73355,-238.17464,2000.98559570313
231,3858.7227,4975.86,5091.016,361.01306,793.27246,334.26828,2000.9853515625
232,9673.87,9394.925,9401.919,368.43533,-570.8338,920.7329,2000.98547363281
233,16277.014,-18104.377,2901.2249,11856.968,-1138.8303,-4024.3887,37085.7734375
234,3154.6982,-11283.103,-33704.812,710.6149,7283.8403,9009.507,37935.40625
235,-7001.305,-34643.363,-42378.945,8543.865,6685.7183,-2972.3315,37647.625
236,7287.6494,-7711.5864,-36112.25,746.97473,-3443.9988,974.18085,38699.70703125
237,-4772.4795,5882.4067,-31521.008,3039.187,5837.7227,-7476.3574,37571.8984375
238,52293.69,17593.78,40088.668,4243.1084,-6923.51,9714.094,37555.83984375
239,35986.29,20077.025,2842.0056,14908.84,2191.4136,1049.2494,38844.265625
240,-26426.594,-19950.893,-46219.566,17196.27,3575.2927,-1214.9204,38623.58203125
241,32397.355,3316.8318,37672.402,11802.467,-2891.9006,2010.134,38496.8828125
242,93553.016,60537.395,63269.39,13947.688,-2099.4973,-1264.3219,40111.46484375
243,30966.098,47030.273,55033.934,-16083.872,-4804.7812,-7825.009,38467.015625
244,180091.69,181145.58,181126.7,-222.80048,359.58347,-1210.4716,2454.32153320313
245,17873.516,11409.376,24015.66,17016.055,3128.2236,10854.874,37022.90234375
246,12560.3955,12693.382,12258.144,598.5404,15.721054,-962.2389,2000.61022949219
247,88690.76,88535.68,88426.66,498.73508,-97.8371,1028.5939,2000.44616699219
248,57742.254,58378.64,56954.285,859.2179,115.39934,-268.9225,1999.75256347656
249,123876.81,123167.08,122681.875,779.3627,167.60356,-581.3632,2000.98754882813
250,31706.777,32910.91,33223.707,-68.681206,-497.68213,663.90234,2000.98461914063
251,23258.613,23863.08,24997.684,-457.35187,-296.8043,-507.81277,2000.98657226563
252,165468.27,164336.44,164609.8,-337.01212,851.3716,-383.87418,2000.91845703125
253,474355.8,473183.47,474273.66,631.9618,681.8015,-205.32675,2000.99682617188
254,22068.742,21643.176,22952.701,-804.14575,-285.10663,399.36844,2000.24194335938
255,44104.727,44037.77,43183.008,473.58258,-142.6375,-908.78394,2000.96875
256,48057.316,49036.81,47298.348,5.9361954,154.59854,742.34265,2000.966796875
257,256357.44,258372.62,269494.25,-4185.268,1369.068,5128.579,16948.248046875
258,706948.4,707254.3,706364.4,9.221445,379.30002,-980.9413,1982.90673828125
259,1444457.8,1438783.5,1443553.6,-1056.583,-48.936237,2644.4282,7226.3134765625
260,365419.1,365095.78,365549.7,925.9853,-641.58344,104.74342,2000.98864746094
261,257103.6,257055.22,257877.48,156.95549,-18.123241,-1046.4685,1999.7158203125
262,9213.583,9314.251,7935.8345,-201.89905,406.37317,733.64215,2000.95056152344
263,723946.2,723178.6,724849.1,374.7051,-703.06726,-27.3496,2000.96875
264,446568.3,447700.28,447791.8,278.8344,-828.153,-317.78854,1996.76452636719
265,-179515.8,-144548.56,-152643.61,5103.422,4004.3477,-2773.2917,33977.76171875
266,-557648.4,-558380.4,-557246.56,521.3838,-396.06644,757.50134,1999.73950195313
267,696744.5,712497.2,700658.06,-19326.514,-4505.715,2607.8394,37465.49609375
268,-14855.262,-1695.5847,-36545.953,2347.369,-4533.998,-12116.764,38049.3828125
269,50216.594,62182.414,81115.25,-15159.786,-3630.815,-1510.266,38262.625
270,481125.53,460104.16,499366.25,5922.7524,-3141.451,7767.5005,38391.56640625
271,-99702.484,-85402.8,-95229.52,-17021.475,-796.30273,-2205.7312,32345.267578125
272,41479.26,73573.67,53403.46,5167.3545,2417.6128,-12461.414,36783.65625
273,1318.6465,23261.45,39540.25,1968.2905,4874.462,4884.192,35470.5234375
274,482127.22,474550.12,479966.75,-3376.851,-1113.5651,-1249.2295,9397.9287109375
275,36748.367,36175.168,37595.344,833.9772,176.44173,-311.6124,2000.66711425781
276,49357.336,56231.438,39983.0,-377.8847,144.28093,4955.6895,16545.060546875
277,-43277.02,-44165.17,-38328.562,-4441.088,-1810.8782,-323.18842,9949.47265625
278,-225065.75,-193502.4,-218486.19,-11948.73,-1450.6495,-4267.0825,36347.15625
279,-123660.83,-92204.14,-121237.96,-13970.801,705.1773,2368.4744,39026.2578125
280,-9802.756,-13114.546,4160.3066,2266.7625,-3805.0642,1835.8412,17920.349609375
281,28364.887,36296.883,25443.225,13782.718,-6108.795,-5507.782,29452.951171875
282,93610.984,93669.75,93680.875,-406.48856,-852.74426,-663.9516,2000.98547363281
283,-12771.365,5879.9062,15676.067,9464.088,2391.421,471.2666,30217.13671875
284,-21282.217,-18780.31,-33356.402,-2512.0269,-6069.911,-5811.928,20323.67578125
285,-98307.625,-112938.66,-124370.805,3006.0554,-4461.6772,4435.5845,25649.1171875
286,-42100.7,-78561.64,-50133.137,-4075.5369,4567.035,1382.1492,34916.82421875
287,27330.225,26448.799,25560.697,-243.73228,364.43552,599.6841,2000.9873046875
288,2487.7874,1926.5657,2715.5002,-229.21198,735.5377,759.08795,2000.98120117188
289,6280.1846,6217.4976,6188.3184,-4.288572,-899.85004,722.9654,2000.97277832031
290,4007.8325,4154.253,4078.1594,-875.99725,-749.5547,-6.576968,2000.95666503906
291,31772.98,31892.08,32025.977,147.47226,-1032.4178,480.58176,2000.9599609375
292,-85339.18,-80617.86,-65370.316,-5634.3,-4070.8884,-10099.508,27887.623046875
293,24879.94,-3835.7192,-9681.586,-5437.4634,437.1032,-9678.276,37375.25
294,-635648.56,-653568.5,-628518.6,-3775.2117,7370.4175,-820.0649,26598.3359375
295,58188.67,58517.383,57342.55,192.85826,-585.24133,-765.2109,1999.46215820313
296,-353444.56,-355018.06,-342423.4,-2867.811,-1600.7458,-4748.3296,15533.30859375
297,-79389.19,-79944.7,-78133.59,51.666546,-628.3526,-276.19287,2000.98779296875
298,14613.847,14644.745,15764.625,22.841913,670.6514,674.134,2000.98559570313
299,-13776.619,-15993.661,-12050.041,-3934.9592,-5061.974,2336.6594,12305.552734375
300,-1427.6544,58.961113,21422.725,9048.092,-7898.465,-1661.1687,30519.16796875
301,-74552.38,-74619.38,-74860.83,130.65332,126.48772,-1129.2305,2000.91333007813
302,-238223.03,-235268.81,-251537.97,19123.396,-600.6288,1105.4482,36430.9140625
303,46500.617,87194.32,72173.28,-6870.3457,834.2889,-3198.8171,38009.70703125
304,465514.1,464957.7,493037.34,3212.9875,-1514.3448,13057.324,36365.96875
305,-142482.05,-145567.92,-126080.11,1079.869,-10990.039,11265.333,32798.24609375
306,13513.102,26171.873,32489.646,-14319.823,3759.7888,1338.5476,30709.7578125
307,649080.25,649097.7,648048.2,-84.78827,722.26636,666.63293,2000.80615234375
308,-12887.596,-4575.4585,-22472.145,-10619.503,1462.0673,3027.5745,24755.935546875
309,96859.92,98714.18,98772.31,118.026146,164.43117,-332.20065,2000.85473632813
310,-749746.7,-737517.25,-747516.1,-4701.9736,3977.9067,-10597.798,24041.482421875
311,-236160.53,-236951.56,-238344.19,-241.95607,221.81894,-1.7672937,1997.49670410156
312,21984.357,19733.54,18239.967,-428.08047,-599.49335,7603.198,13627.6376953125
313,67145.24,65473.363,66812.07,-642.19525,-189.61555,-318.54083,1999.66760253906
314,49659.406,48994.06,50447.754,-581.64264,-661.3402,171.37376,2000.9619140625
315,138971.3,140030.56,140278.78,377.94376,-635.00586,553.5135,2000.98449707031
316,-25425.291,-7139.823,-44074.8,-1602.4446,-7703.108,885.2651,34802.95703125
317,16275.761,7338.4844,15944.656,3669.5112,-14761.747,-13800.304,36640.0625
318,-14022.284,-10977.506,3893.7075,-267.3351,-17542.322,6993.5796,36685.7890625
319,28307.357,27102.896,28583.412,-542.48627,207.32722,614.46063,2000.9853515625
320,-89600.47,-90436.47,-89586.516,484.4548,-774.08405,513.6244,2000.97302246094
321,-43215.395,-45439.336,-44128.164,197.21815,41.582397,206.37735,1999.69116210938
322,-96091.6,-94708.56,-96515.375,-468.34937,461.6698,-96.60164,2000.98522949219
323,123719.35,124391.98,125944.79,-46.71037,-133.83023,108.853294,2000.98364257813
324,1417.1003,-218.12231,1384.8884,38.67026,672.6455,81.20781,2000.98559570313
325,62461.45,63247.176,63108.99,-1025.5928,194.39725,-262.7872,2000.98681640625
326,3013.8865,3042.888,3273.2175,1064.2913,89.61215,-416.78604,2000.98559570313
327,-24166.969,-27148.78,-55763.25,-1660.5114,12053.012,-3914.0698,37457.4296875
328,30735.744,40642.055,-289.13406,6286.361,898.92456,-5348.1646,39683.8515625
329,16545.008,59380.355,31271.557,-4045.3364,3270.1777,1324.2505,38824.71875
330,-58009.5,-53530.113,-41927.125,-17282.248,-10415.487,-2597.0105,38057.55078125
331,565757.75,569701.75,567321.4,-1680.7859,4795.2754,-4167.693,11891.224609375
332,2529.4456,803.5316,1385.7231,-326.34335,-644.44476,-204.61526,2000.98547363281
333,436718.4,436579.75,436811.56,-791.15625,-823.9542,127.31831,2000.98388671875
334,294335.22,294191.62,295925.3,-463.99136,-350.42557,266.00394,2000.96911621094
335,464590.66,470753.84,470833.72,2165.263,-2680.8567,100.745155,8610.4619140625
336,558141.25,559844.25,558619.44,-136.98346,457.6577,-576.57086,1999.1162109375
337,3777.9727,4725.946,5808.9316,192.82068,-488.21817,-162.46107,2000.98571777344
338,179158.7,180579.7,179018.0,554.6584,144.60991,509.68607,2000.99755859375
339,-4038.4495,6260.4087,19300.707,787.4937,2708.3572,-13475.211,31289.392578125
340,34100.61,21531.463,27845.336,10967.32,-4225.707,-6627.97,25781.671875
341,-88775.25,-88727.94,-90182.36,-360.69376,-721.9583,-11.127937,2000.77795410156
342,3618.13,3582.0452,3244.2087,749.60913,-137.48427,-843.3669,2000.96899414063
343,37885.55,37461.35,36560.734,-31.77028,652.2506,671.1982,2000.98449707031
344,25853.63,28950.656,4919.863,940.07245,-5273.329,4201.0527,25527.794921875
345,69672.35,69414.97,69881.734,-418.904,-658.1323,-819.30554,2000.90466308594
346,177.19907,1495.6987,119.14139,12.298544,750.79614,-405.80377,2000.98217773438
347,35601.508,34495.746,33798.24,-267.5416,230.94383,-618.7832,2000.98034667969
348,22411.584,23029.445,23415.264,840.5589,595.07245,132.92072,2000.98620605469
349,235573.61,235492.66,234860.52,-998.4643,61.3333,426.03555,2000.98120117188
350,45611.605,44789.094,46656.453,-154.23444,161.58325,639.4319,2000.98559570313
351,17580.602,16944.047,17004.797,-71.68464,-967.0338,520.5237,2000.98364257813
352,-62361.305,-52198.996,-52077.863,5081.7427,-3863.6396,6141.618,18437.24609375
353,-608888.4,-629201.4,-620228.4,7385.613,951.43823,3413.2485,22631.228515625
354,684637.75,677157.2,663249.7,7539.6978,4311.405,3208.7026,24710.451171875
355,-125996.9,-142743.83,-156376.33,-863.426,-1030.0992,-2770.483,26889.658203125
356,174689.03,174543.7,173078.14,613.18005,101.8403,-392.69055,2000.92041015625
357,111271.945,112820.195,113882.68,-7851.029,9102.313,2567.0002,21410.55078125
358,40404.684,32714.607,36940.227,490.8637,-3291.363,-21292.541,37918.81640625
359,-2918.1377,-2136.9258,-1229.2728,7795.894,-3911.8848,4033.2266,16708.69140625
360,83443.03,92550.836,68697.76,-971.0078,-3823.736,3682.2993,22848.23046875
361,-123.247314,-9461.213,-2344.5703,-3435.8757,2251.8257,290.3374,11057.5771484375
362,101417.54,88584.7,123402.195,1126.5475,4179.978,-5016.8306,32586.224609375
363,-28853.86,-15538.645,-1452.9816,-10947.828,-505.81137,-5971.605,32102.447265625
364,94858.3,105533.41,137585.73,1742.1067,641.74097,-341.5827,38654.390625
365,23193.71,21055.607,8392.841,5387.256,5319.34,-1021.1733,19159.1640625
366,61331.516,64651.766,45732.734,14553.629,10322.507,8131.006,38204.24609375
367,-15158.615,7860.4346,12681.758,12101.526,11415.7705,1234.2267,38716.58984375
368,45207.414,48868.055,24634.906,-13682.581,1590.8524,-12617.497,39481.2890625
369,36200.23,53565.3,43269.11,1845.7557,-11517.265,-3124.9954,25811.287109375
370,-46757.082,-33301.402,-68295.48,-1555.9918,-3222.6763,1064.9497,31250.505859375
371,-20751.639,-16436.732,-35743.543,2374.3228,891.7707,1532.3165,18286.77734375
372,10774.701,6106.038,24117.512,-809.2452,221.83032,1703.0806,16520.70703125
373,2689.7695,-3773.4668,-2383.448,-4420.948,-1841.032,-450.9218,10204.611328125
374,271518.94,277670.6,294645.66,8522.992,-3209.0828,5270.6396,27614.81640625
375,-261815.22,-264423.88,-296806.94,1671.4526,2829.8757,6402.518,35990.6484375
376,-75539.055,-86188.47,-114005.445,1275.2565,7156.813,4639.54,37503.9140625
377,33342.69,35250.688,64806.9,-3436.8225,-2.7641582,523.3542,31142.578125
378,-66458.695,-67025.8,-96326.28,5614.85,1446.1884,-14375.506,39953.421875
379,99197.984,96817.99,131976.39,5149.493,-5693.2505,-6711.4863,38340.890625
380,28754.078,51681.797,42749.02,5310.6187,5460.145,-9622.605,29197.564453125
381,-6794.4224,-6281.24,1143.6299,1274.5814,-4213.4663,6425.351,15530.3359375
382,4659.527,2319.4812,2101.262,6978.8423,-9380.297,-9333.5205,26028.072265625
383,27498.2,-3102.874,-2050.543,3647.2812,-9029.677,-6762.2607,36428.3984375
384,-4.6289062,22.299805,-6471.3477,1308.4259,-2547.7778,8.621406,8161.0654296875
385,22597.465,14777.933,-12344.28,-4662.966,1411.0939,2855.2024,33234.0546875
386,-35859.574,-12891.369,-3141.4768,-7110.1826,4676.759,-9655.681,36653.96484375
387,22641.95,31025.594,20757.814,730.84985,2307.198,1022.3284,10504.2255859375
388,2580.8315,4129.7065,2346.688,-223.6317,-59.483906,-585.03485,2000.98522949219
389,14936.681,22270.553,16002.686,6036.325,1144.5405,-88.15773,12663.6884765625
390,12036.181,23257.002,1887.0342,8642.802,1248.0474,-401.66098,23917.455078125
391,-16426.578,-20814.889,-28617.285,-12886.171,-7232.2744,-92.65166,27739.455078125
392,-3910.3796,-26700.998,-19161.8,19076.648,-1957.9083,4818.5723,39715.74609375
393,-6302.956,-37040.61,-12747.106,4096.4126,-2572.131,-9726.56,33797.33203125
394,-9124.26,-4104.5923,-10747.554,-11468.014,-461.37872,1062.1088,20845.84765625
395,-4350.6235,-34985.21,-17086.96,563.8869,12234.297,-8029.4077,36795.6796875
396,-22013.35,-7273.946,-9083.71,-11820.201,-1493.137,3603.428,25664.06640625
397,-232005.52,-233575.34,-208385.98,-8601.15,-7769.3237,-6002.953,33295.015625
398,27068.502,34533.72,23588.527,13570.485,12068.286,7350.886,35289.23046875
399,-51449.855,-59459.14,-77996.3,1659.7964,690.3394,7526.3223,27127.01953125
400,-186625.97,-201116.28,-162178.86,-3870.9124,-2222.589,-2954.2686,35324.65625
401,-70587.85,-67627.79,-108385.37,-1485.9991,-1512.5637,1795.3264,39654.19140625
402,202900.11,194172.92,189343.95,-19436.19,-5464.9126,-7073.8047,38918.3046875
403,-1989.3096,7854.369,26062.996,-16104.225,530.7551,3303.2397,37673.72265625
404,1326.7847,-16675.898,-1049.9629,-1536.7715,5553.9727,5606.5464,21929.03515625
405,29678.129,20864.445,54652.234,10950.339,6226.4497,-2080.5935,37556.93359375
406,-35775.37,-35650.24,-35619.17,-356.49982,1056.0186,292.47327,2000.9833984375
407,-15069.532,-27242.697,-28293.979,-21675.504,-2797.848,1982.8113,40085.52734375
408,-54478.53,-54232.887,-53833.81,-10.964657,147.0329,-1098.6472,2000.98217773438
409,-48096.785,-27738.629,-60010.992,-4774.147,-1430.0919,-3441.2698,30149.52734375
410,-8097.959,9930.074,-25865.395,-1759.6045,325.82724,-11710.343,37175.35546875
411,59544.59,79080.555,70240.54,-7947.528,-9730.009,-10022.248,32587.525390625
412,14287.471,17793.436,44690.324,-7171.057,-1474.4097,-11520.356,37269.0703125
413,68368.7,87572.234,84297.375,-923.38116,-396.30475,-17835.586,35692.64453125
414,-25914.715,-32063.33,-35591.86,-19203.414,-3962.783,11350.288,40148.015625
415,-15973.151,-9711.739,-15725.5205,2464.5537,-4765.776,-20333.031,36937.4140625
416,20424.07,5627.163,18933.238,5383.3853,5647.789,5743.46,21925.064453125
417,-4570.3384,23349.691,-3079.4858,-3295.5898,-13193.538,-8096.2515,38620.78515625
418,93647.25,85161.13,128206.14,1562.9501,3451.5903,216.44377,40035.125
419,4819.8164,4329.0386,4731.387,-622.2963,-279.3599,-894.94415,2000.98547363281
420,-86310.45,-96965.82,-128411.7,-2905.0283,1114.0095,-517.9698,38305.265625
421,207007.8,200840.14,233766.97,7200.381,3041.0103,-6408.702,35008.98046875
422,-17412.973,13892.964,3062.5925,14040.913,-4464.923,-2541.694,37801.22265625
423,156560.88,150889.1,190342.5,-3282.4888,1108.7216,-5394.3745,38578.21875
424,498122.25,506746.72,480911.25,-3360.959,-4319.689,13971.749,34562.0078125
425,25465.291,14480.21,4987.6562,-6861.4697,-3053.9104,2357.2314,22381.802734375
426,-7261.874,-40271.566,-9648.607,-2675.7507,849.8301,11064.766,37516.4453125
427,-31029.133,-33566.227,-49708.082,10122.025,-3728.7578,7588.7983,28806.1875
428,11471.926,17458.559,10641.158,-9024.607,-3587.1216,4038.0159,19322.345703125
429,60852.844,35769.027,19158.611,-4798.321,-4485.585,-7092.741,40026.37109375
430,-36583.64,-44901.6,-71433.305,5799.492,523.982,-12274.966,39339.03515625
431,133570.75,119272.91,135279.9,-2103.0618,-2449.664,-719.35803,16266.8505859375
432,-10852.288,-45698.363,-17613.77,-6957.275,-7022.0156,-8230.089,38996.09765625
433,42026.32,38538.1,63434.332,15226.089,-4593.834,6877.6577,38024.5234375
434,19589.422,7075.2637,-13356.205,-9917.114,1395.8722,3691.473,34227.26171875
435,16635.898,4457.137,9724.292,-7976.058,-3432.9517,-777.0352,18437.3828125
436,-21596.441,-15371.498,-46306.457,-7924.715,2236.0706,-1348.7686,31812.169921875
437,23046.395,-1049.1543,42505.027,-7010.364,2251.7056,1946.682,40026.4296875
438,24280.285,10217.779,6276.9463,-7961.8237,9886.556,15911.067,38879.203125
439,-27303.52,-21279.977,-48064.223,4222.02,-5724.2075,-3581.641,27975.048828125
440,5517.711,9662.923,7695.2095,455.1827,1089.3143,528.2443,4232.80126953125
441,12769.508,14068.342,-2653.9697,7279.9307,5522.282,-7317.4136,25898.181640625
442,42767.594,38443.41,75180.01,3213.7114,3778.8376,1534.4791,35920.84375
443,12832.581,18473.89,47085.613,2324.614,4191.625,-2714.8787,33209.86328125
444,24011.035,2971.2327,13355.014,6393.042,7347.118,-4623.333,26090.275390625
445,-19385.48,2498.0283,20805.45,2349.148,-860.2297,7426.5093,37402.0703125
446,-161960.16,-134795.02,-134120.12,131.62863,-2102.4722,4254.2485,28711.37109375
447,16273.053,21993.916,35172.32,-2214.3857,1016.9195,4409.922,18919.451171875
448,17236.37,18123.154,-8851.962,-3291.303,2510.8948,1599.2203,27633.4296875
449,203620.66,216702.28,245442.44,-472.80612,4466.056,5676.749,39118.76171875
450,35106.676,629.6035,32486.336,4860.4316,-10134.423,2511.4753,38769.91796875
451,-64444.793,-27090.59,-61842.414,-620.4796,-5277.4565,-905.82043,37310.45703125
452,-9268.9375,-47017.188,-24581.395,-4957.9585,-1049.3369,-6145.563,35661.38671875
453,22301.334,31191.14,63075.05,4503.915,5094.5986,-4129.1787,39609.66015625
454,-17170.084,-18324.225,-16970.482,2522.8816,9927.8,2809.8938,18440.91015625
455,-118854.195,-113348.26,-152625.22,2568.1877,-223.33376,1383.816,37180.90625
456,-362428.75,-366003.28,-403781.1,-630.6633,191.03836,285.97034,39705.49609375
457,-31791.21,-24065.207,-50928.207,-8937.087,-9099.476,-4504.5435,33506.07421875
458,-14745.519,4482.1484,-25338.875,7437.3257,5858.511,-13835.351,39099.4453125
459,6571.079,22029.057,11672.227,-8214.618,-3350.3625,4519.031,21988.5625
460,3695.4812,1570.8041,4440.481,-5278.4634,9388.945,856.4989,18891.701171875
461,3008.4404,16185.695,13092.95,7284.466,3837.766,-1201.6615,18712.533203125
462,16879.246,21670.93,50101.48,-9125.076,-1526.7528,-102.43652,34990.171875
463,13242.947,1882.4448,15071.689,-14913.956,483.68677,-2399.8186,28955.798828125
464,47978.28,37701.996,33371.207,-14769.149,8064.6,12495.259,38558.44140625
465,-41841.023,-76794.28,-60857.086,927.6931,1490.7457,-13895.543,38822.34765625
466,50102.1,14321.809,42390.707,6680.655,2491.8652,1336.5338,34952.24609375
467,108252.31,77345.555,69357.625,-5440.414,3850.0479,-1158.8986,37459.4140625
468,-95623.55,-91330.57,-130297.23,517.24274,843.397,-1693.577,37162.99609375
469,-83706.17,-65702.03,-77367.04,9484.615,-1537.628,-4507.9604,24251.4921875
470,8018.674,-20095.07,-16283.365,7880.448,4591.828,-6724.1157,32908.21484375
471,15927.459,4466.369,3574.6572,9349.941,-16798.438,8578.598,38366.33203125
472,-171905.9,-177361.53,-158499.03,7211.8247,-2839.3071,-1163.735,21608.564453125
473,-7348.618,-18121.588,-23043.678,1712.4524,-1663.521,7031.32,18940.09375
474,104802.625,97543.93,100896.5,-1068.9137,623.4122,285.67645,6665.7021484375
475,27289.557,36661.496,44495.73,-5382.7075,-10558.894,530.91364,25394.240234375
476,166513.48,179262.88,137815.2,3531.857,1711.9231,3472.1455,37873.54296875
477,82036.984,70953.555,89027.47,3180.653,-372.25378,-512.1815,16755.302734375
478,6228.9893,4630.2773,7191.1777,-1142.6588,1916.6217,2455.1262,6167.67431640625
479,-8975.005,-3002.438,-2429.8333,10373.715,-130.72247,-2647.0718,19578.904296875
480,-19422.334,-177.29395,-13236.488,-11676.155,2078.5322,4338.4326,27713.068359375
481,4864.0996,-11087.673,-8445.869,-5989.5596,-1920.3319,2666.4385,18955.578125
482,13891.256,10832.081,25910.045,-2403.124,3821.2104,2961.5273,16673.91015625
483,10169.426,7482.2124,8673.462,-2108.7126,2491.4377,-5463.9595,11267.892578125
484,-15763.109,-21623.113,-37543.625,1904.8015,8267.095,-866.0836,24479.916015625
485,-24766.54,-25900.58,-45810.613,-3026.3945,-7074.0312,1788.3767,24646.94921875
486,-49663.31,-41973.89,-77797.59,-3195.1128,-2956.1526,-1492.4978,33623.30859375
487,-10829.964,-2678.7915,3678.2534,2370.0964,2641.734,-902.4132,14103.2763671875
488,-52602.676,-66811.77,-85775.49,2136.1697,-4846.367,3166.028,30744.123046875
489,-3313.5947,-22604.031,-25968.055,11019.573,9526.642,2545.019,33231.40234375
490,2984.7383,14052.462,20287.986,-969.9265,-3619.585,-1265.3735,16652.90625
491,103129.23,103202.62,140339.5,419.55655,-1164.2627,-1751.9414,37358.8203125
492,2846.6743,23435.914,3080.4697,-3263.9038,-502.97687,-3421.7915,22068.12109375
493,-20129.502,-22506.678,-25372.28,-3419.5276,2463.5706,4299.939,11376.7373046875
494,-5065.1494,-10782.867,-1136.6235,-5440.1704,3326.029,3134.0586,14900.623046875
495,-40074.85,-26952.059,-40560.926,-3143.687,-4495.46,402.83298,16419.05078125
496,11944.584,-10911.432,-19526.744,9430.041,2261.6436,9589.093,36762.84765625
497,8755.444,-250.83447,5576.959,-2433.762,2317.4265,1987.0432,10407.4736328125
498,-102153.88,-75025.2,-80654.37,3468.277,-3619.8403,4716.248,27514.841796875
499,-5370.663,-7462.134,-12139.566,-6028.444,1331.6833,195.90053,12267.72265625
500,-9977.68,-7215.083,-15915.213,2131.18,-5846.8315,-20250.648,37493.16796875
501,7357.375,15792.333,27091.781,13297.199,-4378.3916,11852.119,36104.18359375
502,152787.31,156008.33,191914.78,2180.0608,-328.10114,-758.28937,37836.6171875
503,-20203.186,-5117.8623,-26710.176,1201.7743,3081.5637,-4145.38,21270.669921875
504,6509.4746,42023.355,30043.83,12498.845,1169.8362,1284.3694,38170.97265625
505,20891.807,26115.268,54688.508,-2733.9326,1416.6003,-5860.1226,33532.5546875
506,36991.03,45455.51,64826.64,-5107.426,4601.2817,16445.082,39546.8046875
507,-1829.9812,-8266.487,-5841.43,-3461.9612,-156.1845,-3613.7834,10339.6142578125
508,-1429.0098,10594.502,12316.653,5651.9243,1682.3325,1919.0585,16840.6875
509,-16484.436,14740.677,12823.769,-8921.743,-2281.1426,-172.90846,34253.75
510,31877.627,27734.682,63571.758,2826.4548,7344.8223,1204.5983,36648.98046875
511,1891.7445,497.4699,-1065.8875,-857.5691,998.49054,264.80252,3460.55224609375
512,11790.994,12630.584,30169.668,514.42615,654.5444,-1201.0822,18150.951171875
513,-1860.1436,1349.832,3667.2458,6504.511,-4180.598,456.2682,14251.173828125
514,-89264.45,-89575.0,-125231.45,-2321.8413,-1349.0808,806.81573,36140.52734375
515,-5642.2217,-15517.724,-15246.363,-1813.7843,-4008.7751,1583.5865,12669.76171875
516,-35216.98,-44663.484,-51172.09,6843.829,-1383.6154,5743.8145,20935.93359375
517,-143199.75,-144838.28,-180574.19,-3106.3896,-592.0311,846.8581,37019.53515625
518,-53592.918,-52298.69,-87650.18,1471.9484,1919.7029,-790.2496,35001.12890625
519,12175.751,7156.863,-19131.639,3499.7424,-2779.3455,-2183.1846,30371.556640625
520,35963.69,18611.043,40531.62,8999.257,-5770.4585,422.4918,27288.01953125
521,-13623.775,-10850.9795,-1047.2485,-545.2575,-5558.829,2887.5142,15798.4853515625
522,518.45215,-18267.012,-22403.498,-3251.4087,-232.4344,-3653.6904,22795.51171875
523,12091.223,21233.848,27698.01,-2238.6484,-4267.322,2539.1958,16537.22265625
524,3529.5088,6036.9243,14949.429,-892.39465,2771.8257,35.218224,11554.61328125
525,-33004.125,-33111.44,-55181.89,17636.303,766.81836,-3568.8704,38243.65234375
526,-15066.365,-22860.266,-44859.69,-2782.102,-151.46344,-2142.6848,27445.279296875
527,-27630.283,-13463.134,-27884.541,-6057.186,-2149.3193,-7700.7017,22498.990234375
528,-175745.03,-192359.78,-180652.1,1266.4553,-3626.9375,-3506.6218,17313.708984375
529,-49373.793,-47569.297,-82793.36,-3607.2402,4236.305,4865.1416,36664.87890625
530,-384.90332,6288.768,15110.721,-1974.7465,7918.714,2182.5076,19883.322265625
531,6721.809,-2964.6958,4174.069,-5338.2295,-2181.7021,-2622.9734,14001.7919921875
532,-17783.986,-4617.2095,-1496.2793,-508.07132,-686.89044,4654.938,17070.208984375
533,3105.2375,-1398.3071,17402.26,-3221.0117,1837.7456,4871.241,20037.90625
534,-2072.915,12011.593,13536.364,-1511.2036,1207.2654,-2064.2563,15690.1591796875
535,1307.9248,9432.836,19533.346,10698.602,3572.4858,-6476.217,27524.3984375
536,-2781.4534,-11386.69,-6165.4463,1761.7109,1651.1895,-2410.257,9555.083984375
537,-14938.642,-11830.248,-22102.053,-1090.538,1473.5515,1546.5819,10025.013671875
538,7316.974,-56.882324,4867.0635,-19619.617,4283.4326,-4271.627,36150.828125
539,-7288.6626,-1401.1313,-9154.624,-2615.6335,-583.0369,-2006.062,9096.59375
540,-16856.588,-8426.527,-7142.2725,-6325.285,-7876.9424,1216.0193,19853.0625
541,19599.791,25754.693,49368.63,-7394.803,7462.1704,-1327.6439,32821.20703125
542,-2105.6836,-12517.299,-16455.805,-487.69586,3847.4956,485.7634,14517.2607421875
543,-8619.645,-18245.498,22248.904,-802.4926,2029.3691,4543.687,37668.05859375
544,2508.8047,1048.1614,10790.488,19809.957,-2708.3364,586.02423,35821.15234375
545,10855.623,-13943.574,-6150.3105,5496.565,3107.088,-5795.7666,26511.126953125
546,-2366.2842,-9849.664,-12973.199,-1957.7706,-1280.7362,-1049.1191,10433.2861328125
547,27118.316,27957.363,-5487.6855,-1329.2665,-5242.0703,3236.9868,34790.609375
548,4800.5825,6244.9243,14510.32,-3085.4648,3315.645,-2637.2761,12835.3974609375
549,-9389.863,-7537.773,-18236.812,-191.80023,-3736.9001,-207.44795,11841.318359375
550,72745.17,81049.38,111750.83,-803.80414,520.02795,1078.944,35675.3671875
551,-2865.5762,15732.535,15431.52,12294.808,3298.2014,5742.5337,30420.935546875
552,-33690.582,-5450.5107,-23715.246,150.50914,-2432.317,-8756.392,29379.318359375
553,-4495.3066,-5161.444,-7935.3047,-833.8802,1732.8768,-2252.3337,6024.90625
554,-14382.98,-3035.7588,22761.93,6000.0493,-1149.4677,-1744.711,34757.875
555,22199.434,16234.373,35151.734,1250.152,5178.6226,881.3339,19185.375
556,12067.873,11987.612,8717.113,1333.6193,2791.1602,1334.5607,6709.36669921875
557,-10274.202,-6075.0103,-6428.3604,-5944.422,-5487.3364,-6913.6006,18868.19921875
558,-1589.623,3168.6277,3122.3315,-5277.592,211.58896,-5823.566,14417.2744140625
559,-4418.3657,-1980.6643,2256.4885,-5156.3584,1555.7625,5324.505,14363.1865234375
560,78519.766,78272.08,114634.74,413.10028,-1605.3033,-1364.3763,36429.734375
561,10346.501,-8702.818,7950.8613,1320.0917,-4206.3433,1009.08124,19604.66796875
562,-6334.926,18545.787,-18201.732,6577.284,-783.162,5359.7,35678.09765625
563,-17238.574,6616.0137,5130.909,709.1421,-3160.6064,3312.592,24499.328125
564,11489.018,12658.121,14477.604,-2.2267318,2883.9805,4586.725,9740.1572265625
565,-10390.796,-8671.958,-11801.242,671.2402,-2763.5815,-2907.235,7549.0380859375
566,2353.3743,1351.4932,4912.998,14180.459,1467.0049,-1934.0797,25120.796875
567,2765.8633,3289.2795,-1008.0399,3016.4194,-2270.3518,2053.2524,8479.3291015625
568,2168.5505,-231.62927,665.1039,3225.0703,1463.7773,-3376.3704,8731.7509765625
569,-4532.652,19359.553,-2164.3247,-5965.6177,-1558.7172,1556.4924,25321.619140625
570,-15940.411,-19071.84,-37468.266,1579.332,-938.14325,3651.3696,21353.26953125
571,45508.37,58652.04,86658.65,4209.6226,2353.5674,113.67274,37350.4375
572,-5547.1567,-17059.05,7664.2266,-2958.443,2605.8645,4156.5,23613.78125
573,16600.547,5548.626,-201.4497,-11959.749,6091.388,-6732.3145,29919.0859375
574,-10852.878,-13120.458,-47261.45,-7034.549,11.639705,589.8012,37385.359375
575,-215464.44,-219019.56,-254642.02,-888.77057,-937.5151,-476.118,37602.21875
576,4137.2124,20562.414,5933.604,-10580.063,-1329.0243,-11590.467,31426.693359375
577,24883.176,7953.4644,34692.88,-14948.428,5601.0566,-3552.629,36759.57421875
