Element Label,S11,S22,S33,S12,S13,S23,Mises
1,10415.845,7129.1074,563.23047,686.4693,3630.1836,-2190.0059,11438.115234375
2,11989.727,10056.209,2671.1572,-3311.062,-1040.0576,361.18893,10444.2587890625
3,2439.7673,7659.201,-5373.134,-2380.7004,853.73645,163.78552,12179.2080078125
4,12246.574,11127.146,3677.1377,-367.4932,351.03363,120.56237,8118.7392578125
5,15653.799,6428.591,6923.3906,-3710.2432,1328.3097,137.58835,11288.595703125
6,9516.97,11979.177,2121.1,-1325.232,-1845.3165,-1606.6564,10109.39453125
7,8584.36,7341.361,-4572.119,-535.12976,1257.94,2176.455,13345.4755859375
8,13562.531,14184.604,4834.3403,-2578.5496,633.9522,-1208.5232,10369.7578125
9,7517.8027,10481.277,2561.291,1654.0275,-1696.99,1567.258,8500.1953125
10,1443.9082,6537.147,-22785.86,670.30743,1991.5825,-5461.6616,28968.380859375
11,7915.6616,11582.277,1828.5303,-2852.6262,1890.3395,912.3423,10509.333984375
12,14001.245,11335.543,-4418.047,-1468.1171,-1033.8472,-1255.5989,17654.408203125
13,6374.9805,13095.92,9039.225,-3506.2485,-2172.8145,2739.1716,10388.3056640625
14,3072.9072,678.1328,-31172.744,3219.7788,290.48227,-8391.671,36593.76171875
15,56913.09,61453.98,62162.723,-831.8529,4580.291,21385.498,38227.89453125
16,3968.0303,-10396.144,-723.6769,-4282.8193,7124.6187,8796.48,24502.88671875
17,7015.819,24844.904,11631.562,-3025.929,1248.5135,-12564.598,27615.92578125
18,8148.326,2736.5437,-1821.7295,3371.567,1308.496,1974.7699,11210.3369140625
19,-5954807.5,-5953784.5,-5955290.0,8.460719,800.20374,-321.18573,2000.9013671875
20,1145.5276,22939.23,-14450.412,9963.193,-3130.4966,-7257.8384,39285.06640625
21,4055.9595,6274.206,9129.133,-7650.502,256.52032,-2845.949,14815.20703125
22,-14345.133,-10238.03,-14164.774,-4701.007,-8105.7334,-7743.013,21434.31640625
23,-36341.945,-18872.451,-45057.54,192.38834,-10924.527,-12293.994,36673.91015625
24,-27027.21,-25439.09,-44076.418,16454.533,-3442.5693,11807.641,39828.9296875
25,23886.543,-3598.7422,18324.982,-1907.6527,2089.7913,-9695.762,30652.130859375
26,612.9834,-5709.322,-15152.059,-865.2882,-16029.603,-6110.5425,32771.078125
27,14314.211,1124.9688,4382.042,8132.0522,-11835.992,-12165.388,34702.4375
28,-1031.3389,-7915.5435,-17593.836,2891.8218,-13918.269,8686.706,32253.806640625
29,15458.398,941.38574,-4560.6836,1446.9432,-551.61847,-7.5625553,18113.087890625
30,-17538.219,-12553.149,-20977.717,-2092.9075,-15140.612,-16437.49,39563.3125
31,-13962.707,-21874.41,-22753.19,1145.7218,-10150.834,-19504.166,39046.30078125
32,7082.7803,-7408.9727,-2512.7542,1620.4685,-1725.4504,-7307.132,18439.65625
33,9495.953,-8685.691,-6348.3574,1904.5414,-13527.258,9169.036,33250.48046875
34,-9183.19,-30245.719,-10535.07,3031.8467,-742.1959,-5833.214,23415.62890625
35,10528.453,9850.931,675.70605,2022.7468,-5623.5117,1828.6805,14423.5419921875
36,3813.413,19781.785,17894.305,-156.77522,-2427.334,-10837.559,24464.650390625
37,-957.40015,8738.993,-8559.929,-12978.56,5178.768,-4609.569,29581.544921875
38,-4935.5083,-7103.5312,-7498.975,-3940.349,-18506.54,-4429.4766,33743.58984375
39,21847.799,5859.5317,6372.16,-726.34076,-13439.315,-1085.222,28189.587890625
40,28226.5,4314.376,-4704.593,-3970.8152,-979.69214,-1843.8881,30482.37890625
41,23594.11,4863.0063,-10108.895,3173.1228,-2995.3599,7531.5117,32905.10546875
42,-10396.131,-14396.186,-21766.611,4728.0737,-13212.553,3783.1626,27083.599609375
43,186334.42,186350.55,187660.64,-110.09349,-461.631,728.1343,2000.98486328125
44,-73027.734,-69983.6,-81848.98,1936.3243,2371.084,-5225.6016,14965.59375
45,-5817.8335,13763.109,-9460.899,-9452.713,12610.736,-6385.584,36544.5
46,11470.941,29294.664,32408.414,-476.48932,1698.609,-3859.7373,20902.36328125
47,14639.408,19877.291,50849.723,8108.4263,6302.763,-5980.7446,39657.015625
48,-16979.543,-4197.63,-42181.7,6105.3545,-3272.8796,-9578.937,39241.39453125
49,2406.4675,-7521.8354,-7639.7324,-1667.1865,-2655.2976,-19427.463,35517.953125
50,-7984.6025,18099.57,-7236.5947,2742.4338,1376.6979,-12433.786,33962.8984375
51,1542.6821,10942.548,3578.4683,-6272.1533,-5659.0786,230.00658,16959.35546875
52,15816.638,12989.0625,26576.25,10476.134,-1536.6096,-19019.33,39695.39453125
53,-15329.086,16236.439,11415.751,4685.9863,1916.2032,-7608.666,33436.80859375
54,-17639.074,3665.8672,-16604.33,4636.846,6509.3,-13153.33,33816.71875
55,1033.318,1504.9253,16664.988,1579.4388,-627.6202,-19694.303,37542.80078125
56,-98156.25,-96358.08,-121656.77,1314.9329,-12583.562,-11242.7705,38173.16796875
57,-3274.0752,6551.6455,-14585.99,1385.1055,-4227.8037,-10194.004,26585.40234375
58,8046.128,353.94382,-14149.444,-2658.1208,-9840.524,504.9341,26335.33984375
59,-3981.7812,-5223.6772,175.08325,-12940.591,763.963,-8451.207,27246.66015625
60,908.93933,-4068.4985,5381.336,6106.023,-3541.5945,-9734.879,22379.033203125
61,12995.724,5395.2876,-2967.3008,4052.4019,-3895.466,14960.032,30942.79296875
62,12615.508,-2173.2812,-6420.727,-4208.174,8060.9453,16290.584,36657.546875
63,13319.842,2383.8616,-5678.5083,-1034.1111,4024.1335,-9668.036,24596.123046875
64,10616.978,13109.936,1398.522,-323.18805,-3208.539,3222.262,13286.173828125
65,6358.77,10132.762,1213.6445,-1855.6718,1358.5582,-2510.0693,9741.76171875
66,20728.342,6613.4307,3517.8486,-3208.9834,-182.4177,4704.762,18705.724609375
67,16355.867,3737.7935,8264.444,-5155.404,2848.7058,-9797.524,22685.748046875
68,7229.273,-231.90582,-10389.51,1909.415,-11706.907,-2036.6111,25868.31640625
69,16049.391,12759.72,6985.4824,-702.11475,-7144.953,-1191.1362,14901.189453125
70,15436.799,-3242.563,-25441.596,253.80617,9335.968,2905.3706,39285.83984375
71,3621.336,4284.2544,-7581.3794,-256.36017,5568.8325,1085.4609,15170.177734375
72,-18037.512,-8143.079,-45283.6,9120.223,5332.982,6855.653,39820.73828125
73,21096.05,19619.773,55908.367,856.7618,-8866.272,5470.701,39916.03125
74,42955.203,31843.156,55142.207,6466.49,16203.549,6678.083,38135.61328125
75,-123523.234,-158250.2,-159192.52,4258.175,-1592.6458,-2084.646,36257.64453125
76,-11391.514,-622.5419,-16705.234,-19102.1,3922.0051,-3189.139,37050.75390625
77,542893.2,532533.94,554015.0,3115.0247,-9325.499,-10465.732,31061.5859375
78,9254.135,10727.05,5934.3574,-1536.69,-10167.511,-4409.677,19840.236328125
79,2787.8994,13760.9375,-3923.772,3115.2214,-7405.6855,2158.2778,21135.80859375
80,-9914.239,-14512.334,-11234.947,-4649.854,3538.0574,13089.832,25164.69921875
81,10233.394,21126.58,7032.8423,-707.9608,-7567.6074,17889.355,36016.19140625
82,-1073.2451,-2532.9492,-20432.227,2741.6711,-3666.5637,-8998.349,25581.921875
83,6444.7827,8138.4463,-10353.962,4782.3154,-4629.327,6225.044,23720.76953125
84,17304.559,9981.472,10640.267,-2221.8862,11855.6045,5992.834,24360.94921875
85,4549.9287,13169.0,-14718.404,-8199.893,1571.2391,184.36935,28650.572265625
86,1714.0659,21293.266,-4710.0957,-5584.204,-5431.186,2162.4534,27321.544921875
87,779.437,10676.791,-17032.686,-2092.555,201.23055,-2472.24,24962.291015625
88,-12326.541,10219.844,-6163.6426,-73.06565,-10241.804,-4669.543,28062.1328125
89,-6694.224,14285.037,-10326.195,-275.72687,6121.7764,6367.4873,27637.07421875
90,13213.713,-6776.255,2757.5454,-1792.9753,-195.5678,8404.955,22838.578125
91,-5440.3745,23091.066,4006.3008,9622.133,-3952.0605,-11649.703,36952.875
92,6351.115,8249.444,-3369.9622,11149.272,-3713.038,-2300.117,23381.771484375
93,15510.063,11441.782,5559.55,571.30035,-6835.855,2382.3071,15273.31640625
94,5207.287,10440.702,9528.632,-4981.8457,-20503.191,8834.6,39914.8671875
95,9587.486,5606.677,-21588.367,-32.105755,8005.6694,8494.951,35671.32421875
96,5698.647,14365.913,11923.251,-5348.2783,-6054.2354,268.54446,15997.0859375
97,4987.7827,15675.251,-4488.079,725.71924,-2388.9666,287.2393,18006.552734375
98,3152.3271,-25591.133,-8585.687,14992.834,2752.6738,7161.162,38438.390625
99,-6706.0054,-2509.455,5307.8486,11771.238,-164.10487,-15108.706,34815.41015625
100,35706.07,5729.7734,29033.037,6982.583,-1859.8417,-8886.447,33713.91796875
101,22821.477,-5823.843,16197.994,2860.1257,-6270.719,-254.08403,28590.095703125
102,2753.0522,-1911.9375,-19869.873,-3036.5923,10355.139,15938.744,39236.50390625
103,7866.41,-3219.7095,-1504.1569,3031.0422,-19682.328,-4778.967,36947.06640625
104,15368.924,-2012.0967,-5236.699,-6764.896,5929.1504,5789.669,26680.732421875
105,-87.99667,-12700.993,2107.172,-5718.864,12642.271,6527.0146,29949.91015625
106,7388.437,9203.076,3958.1045,-2954.6853,-14619.884,-4607.059,27429.42578125
107,13942.286,-8286.484,5024.729,-2144.705,1892.606,-18293.195,37468.42578125
108,16988.791,2927.919,-13719.264,-2712.2808,1413.3871,-6302.3306,29259.720703125
109,10410.079,7811.1,-15762.447,-6693.7305,4167.3965,1986.1777,28672.08203125
110,13714.556,9342.663,-3198.2524,-839.33826,442.28003,3555.7227,16487.732421875
111,-2002.6768,-19446.16,-4389.734,2931.476,-6215.3936,5110.222,22098.681640625
112,20592.467,-6971.046,6155.094,-5130.6113,1303.2766,-1478.57,25707.2734375
113,2605.352,9535.306,14580.689,121.34357,3818.858,-5684.0107,15784.916015625
114,14187.983,5899.5,-8067.1943,1192.5709,-1894.7291,-4076.5366,21081.302734375
115,23942.637,15589.16,20107.678,-21.506758,-13644.989,14066.435,34707.4140625
116,24688.963,22563.54,17103.52,5418.0884,-825.2278,4218.785,13763.669921875
117,1581.5361,19281.43,22999.508,16373.32,-7865.619,5667.798,38459.75
118,22112.465,-9553.349,-13811.137,-3860.5908,5008.541,-1373.0643,35795.30078125
119,39609.984,46789.93,32814.016,-1956.9014,301.9371,2573.615,13347.8037109375
120,74038.555,73332.47,78946.52,-458.21182,1041.5428,843.2368,5836.91796875
121,16078.443,5861.444,-23335.514,-1262.374,3579.9138,-3915.1619,36665.62890625
122,13157.159,9208.56,15052.618,7455.9297,-8462.705,16800.77,35427.26171875
123,-2041.4993,6524.8237,-13242.346,-1277.0325,-9424.812,3322.581,24480.26171875
124,5198.6616,2194.822,7652.254,1693.2219,4002.8328,4175.0264,11461.8896484375
125,12583.936,14653.021,9953.811,-1497.8846,1987.4025,576.01154,6017.99609375
126,30539.232,30056.941,32035.312,-94.77075,-147.98215,489.52072,2000.98449707031
127,-4567.523,6429.8936,-21643.268,4536.0938,8778.901,-5265.1426,31247.626953125
128,2921.3223,12236.456,19967.564,8954.874,-7902.569,-16126.85,37771.75
129,737.39746,-8498.047,16241.033,-5048.684,-17298.16,-247.53433,37989.07421875
130,4269.27,-9856.774,-2362.7507,-709.0078,-8962.605,10669.433,27089.626953125
131,268.43848,6864.291,5536.7773,814.7827,-1985.7188,-4665.315,10753.0380859375
132,6204.795,5906.104,-5079.9253,2006.5724,-8791.784,4590.6177,20766.56640625
133,7327.542,19913.062,-7619.6763,7602.482,4587.6504,1680.4646,28547.1171875
134,6064.5347,-1195.0872,-12200.127,3844.309,-19173.807,3013.5518,37791.41015625
135,12937.865,27212.727,2033.4414,-1340.5358,-4095.966,1427.031,23241.525390625
136,-11507.06,12441.659,-27681.2,1872.9698,-1080.11,-9938.976,39151.8515625
137,-1649.0792,8694.898,-22991.555,322.37347,8710.09,-6164.164,33543.4765625
138,-60898.223,-62619.12,-68369.85,519.6244,84.38322,516.339,6896.37744140625
139,-8192.526,-4699.809,12375.621,-2309.8801,8785.758,3745.9585,25555.447265625
140,-11534.748,-26265.758,-51719.4,-2359.2178,3475.091,-9045.249,39220.203125
141,14702.161,7745.6206,16632.145,3362.2495,-3986.7915,6801.4146,16909.16015625
142,10509.408,-1346.3242,-9617.473,-2572.0532,-77.067116,-2330.0254,18525.173828125
143,11135.456,12511.797,2430.8687,-274.24435,3206.583,1442.6731,11267.6845703125
144,25197.174,6807.411,-6573.3223,1087.1517,16752.992,1038.6753,40150.546875
145,16499.455,10248.89,3624.2705,-2694.8726,-2127.1458,11232.428,23199.705078125
146,9187.467,-5248.0747,-7703.66,8261.502,-3980.3372,-10313.101,28657.095703125
147,12846.271,9692.067,-7859.6562,1756.1318,-3904.891,1098.3179,20784.349609375
148,12053.477,8930.181,-2789.8398,-4908.1157,4080.1086,-3743.3198,18653.87109375
149,-4901.3203,11697.821,8885.656,-5069.478,12093.585,-11742.665,34151.046875
150,-1444.1958,-3761.0498,-21960.37,-2234.7146,3159.6023,3391.357,21405.21484375
151,13192.17,8525.861,6978.161,5998.2754,-4819.041,-5618.863,17427.39453125
152,9602.745,19916.63,24828.004,2424.2751,-8129.274,-7040.28,23361.001953125
153,-4561.529,9845.308,-5995.9297,-933.13055,1227.6876,-20355.623,38476.84375
154,-23045.037,-13385.424,-13170.124,-11580.733,11448.515,9757.902,34302.0390625
155,-10866.516,-6301.1025,-8955.607,-14208.83,10007.112,11366.499,36186.48828125
156,12469.271,-1429.178,-14876.794,5202.7607,-1923.2036,5316.001,27165.9375
157,6697.8247,-26662.324,469.3071,-3692.438,3556.8696,-8141.8657,34951.91015625
158,-4565.9946,-4694.356,13277.98,-7658.236,-6698.066,-2332.6838,25447.52734375
159,9245.804,6576.13,-3354.5398,3303.418,-5751.6104,9562.694,23207.1796875
160,11002.595,3819.7534,1716.6741,1928.1547,844.661,11085.159,21285.1640625
161,20898.559,-4142.72,-3230.6287,3379.2034,-10148.399,-1791.4684,30950.166015625
162,7078.365,25684.377,-3533.2158,376.40707,2379.0642,5720.029,27781.1015625
163,-7268.959,14120.732,2868.5225,-6568.0337,17008.037,-2271.5127,36826.1640625
164,15368.279,13059.08,310.64648,1698.8604,5337.3643,6489.8584,20439.40234375
165,4131.2295,16960.17,6844.4326,-2112.8694,1990.1791,-6641.1313,17167.544921875
166,-8121.8438,777.53577,-17439.19,-7.432991,-89.13722,-8062.5635,21070.578125
167,-3567.5242,-6613.823,-11327.638,4735.045,3836.7676,-21803.07,39792.03125
168,6173.9355,14235.163,-6998.7295,393.74594,-5597.327,13882.655,31895.611328125
169,6078.4834,14322.166,-7728.619,-435.89243,-1919.1304,-7381.9033,23398.984375
170,20427.451,19675.803,23232.316,301.76346,-12405.142,7801.074,25593.87890625
171,5508.9844,-3822.4807,22320.887,9166.112,7630.349,-2464.533,31169.4921875
172,12042.447,14734.152,-12988.725,5120.273,9025.791,6149.1475,33729.26953125
173,-5834.8203,18685.904,3847.4246,7184.6807,6508.2275,-4795.4243,28434.38671875
174,5182.9595,14077.395,-8629.094,-441.0545,8280.96,-3004.3257,25022.36328125
175,18223.18,8577.827,-8812.121,-237.61148,-840.35095,-4351.6914,24945.4375
176,26728.055,12673.139,1534.3643,-4170.302,3557.031,3097.889,24435.423828125
177,16807.332,10021.098,10682.128,-818.1067,-5293.994,-1530.3138,11623.9677734375
178,-4845.265,4105.8564,-27030.0,10966.506,-11062.657,1060.3615,38757.91796875
179,451.85034,12614.245,-19050.996,-167.7092,4486.6704,11578.903,35045.31640625
180,3922.3792,14460.004,-6784.32,89.871284,353.30905,3869.772,19591.3828125
181,8003.0986,5844.4424,-4371.0386,488.6081,-19479.28,-3207.3965,36069.00390625
182,30515.283,10730.486,14817.017,1876.8335,1209.9082,2365.5764,18948.185546875
183,14315.322,14394.465,22137.695,2008.4836,7663.697,6303.317,19185.173828125
184,10468.48,5481.207,9251.046,-151.6303,-1187.0446,2036.0708,6084.103515625
185,-2954.0586,-4951.624,-11848.975,3072.973,2322.3928,9282.063,19191.7109375
186,-12986.582,-17373.379,-24600.006,2498.5662,199.26723,15108.311,28404.236328125
187,557.52686,-2021.2479,-10696.402,2231.4023,15034.861,-5279.588,29681.314453125
188,-2778611.2,-2778488.0,-2779033.8,455.27948,778.13586,-663.2864,2000.98498535156
189,-8983.067,-9131.114,-11607.344,17596.797,1499.1567,4567.209,31698.3046875
190,9039.779,8510.352,3985.16,2235.202,7622.448,-15196.356,30087.119140625
191,9181.478,799.9734,-13987.578,4098.065,-7283.9517,2807.6643,25417.7578125
192,5280.3984,2358.5361,-12158.09,8157.6577,7033.8066,-13469.712,33971.3125
193,8135.4263,4394.3877,4479.926,-2946.6655,9558.605,2563.3801,18263.208984375
194,5409.896,-3723.1938,-7200.4194,3734.7415,-5085.626,1485.1278,15915.8642578125
195,24030.47,10787.708,-5905.248,-6556.0015,8125.9365,-11551.123,37448.734375
196,20979.13,3668.282,11456.354,2930.7273,-5433.6133,19455.822,38411.3046875
197,8108.609,5302.293,-1523.5635,846.1152,-3232.2063,-5061.0366,13562.9912109375
198,15975.61,4995.1025,197.30492,-6476.9077,14320.702,4943.9697,31791.50390625
199,20566.67,-12173.2295,5441.676,3239.3376,2903.6921,1433.4318,29468.8671875
200,14823.42,11459.379,452.55762,-1131.3135,-8970.229,-1560.9133,20543.568359375
201,-3939.9893,7798.3223,8738.549,-1542.4105,11693.295,-2714.1921,24272.322265625
202,-3176.8472,-6613.888,7647.723,2123.465,-1931.2184,2523.2183,14491.552734375
203,12173.034,17326.06,-8578.334,-7244.959,-3303.0408,-3506.8035,28128.22265625
204,15106.545,-4271.625,8373.304,-453.3441,10514.068,-7028.266,27763.55859375
205,32265.0,9418.377,5125.4287,-9714.075,4072.1213,329.82098,31171.134765625
206,13644.49,6487.4756,-1072.7949,5531.0063,-4352.15,-6663.972,21078.775390625
207,16178.953,-4995.2334,-10611.766,-9761.385,-2688.277,4962.2886,31308.537109375
208,32292.14,8905.47,8992.036,-3347.8064,4330.935,3825.8433,26052.3515625
209,12872.96,-5377.621,23059.354,-11010.726,-1667.6914,-224.25494,31542.931640625
210,16580.947,2201.3,7526.7793,-8955.622,-3386.5217,1140.3655,20915.8515625
211,-7170.842,-15845.13,-14418.647,-5927.028,-1170.3348,-4406.6846,15253.1650390625
212,-3629.935,-9274.89,8928.686,2154.234,2322.822,-5635.6973,19643.5546875
213,-9092.594,3070.8726,-7887.776,518.4208,4660.834,-1527.4644,14412.583984375
214,-3210.0635,-5380.4893,-6740.2075,-3872.2925,791.7734,2047.9043,8304.0439453125
215,-17826.244,15902.466,1539.3613,-9332.624,3588.031,-2990.0503,34441.43359375
216,12583.764,-1764.6604,-23074.629,1467.5648,9563.247,1343.5602,35383.6171875
217,1641.948,169.96779,-20882.572,-5832.5444,-4711.5283,7873.4634,28826.908203125
218,11812.4375,21299.912,4957.529,1903.1475,-16658.352,3403.588,32865.7734375
219,19466.809,16872.107,10610.93,-130.02905,843.5732,-3240.579,9791.33984375
220,12086.778,5884.0674,5679.8555,4292.649,-7383.297,4571.9985,17925.15625
221,8447.707,11493.1455,-2283.4722,-711.2951,1641.9291,3922.0803,14589.990234375
222,16386.549,5102.5166,906.03906,2860.68,6048.4004,2495.574,18581.619140625
223,2934.8022,22674.457,7473.9517,-2364.0444,-1021.4549,5712.658,20939.34765625
224,14657.244,15675.136,13524.779,-6320.2427,-414.2469,22056.547,39790.65625
225,258.60596,14114.047,-28046.734,1809.3379,627.2484,-4179.838,38062.62109375
226,520.09717,15052.212,4108.414,1597.0986,-4870.933,-9121.543,22368.51171875
227,-1468.3232,7062.162,-98.71289,1254.6635,-4079.598,18008.182,33022.6796875
228,-1331.4443,21846.125,21916.275,-9812.869,2046.385,14314.517,38144.29296875
229,-5108.369,7101.577,-8021.107,10148.294,-545.82794,-1951.2205,22680.6171875
230,-589.9567,1959.235,-1720.9568,2937.8264,-7137.4604,15581.726,30294.451171875
231,5732.6157,-9252.423,25134.459,3630.9036,-252.15498,1535.1185,30635.455078125
232,-4223.1094,10819.409,-3414.5508,-1258.4734,5374.7065,1689.2719,17740.99609375
233,28972.668,14196.627,129.44336,942.824,6732.548,2487.4412,27951.470703125
234,3727.6868,8748.035,-5384.2705,7569.8696,4876.665,-7075.652,23397.1328125
235,1441.3594,8998.479,5377.802,3111.9756,15506.696,4950.174,29441.40234375
236,7015.044,1553.8657,4812.7305,3422.618,8141.091,-3101.8362,16896.349609375
237,-1514.562,1422.7097,13909.26,3994.5054,16065.027,12920.064,39040.05078125
238,1646.116,3513.0537,3434.8857,-1170.9375,13957.281,-1751.1084,24516.833984375
239,1085.2383,-8691.486,-26329.922,3564.69,1732.7568,8486.98,29023.435546875
240,20922.691,7938.4956,-1817.5029,-11117.747,6761.7656,11035.271,35549.28515625
241,41171.887,5191.8687,16708.83,-6307.516,8231.766,5431.8696,37735.625
242,14930.37,7265.73,12424.858,-534.92004,10580.139,1025.5658,19638.029296875
243,37716.72,2805.7554,8466.008,-5946.846,70.36601,-3044.6045,34454.71875
244,-12255.07,-7692.2207,-37431.914,-9537.972,12089.005,5226.236,39533.05859375
245,14784.245,8642.04,18252.648,3245.2527,6983.731,10744.017,24398.244140625
246,-28060.002,-19257.434,-49872.4,-2339.2747,12014.414,8793.463,37771.6953125
247,27161.5,13668.53,43606.36,8784.216,1716.39,-11965.557,36663.77734375
248,121537.71,112215.71,154386.05,-1395.7295,-1686.884,4380.605,39294.71875
249,-43228.77,-52367.402,-84436.664,-872.4503,4506.8164,-341.16147,38322.1640625
250,133233.61,139587.67,174742.55,1903.269,3384.8933,4375.1787,40028.515625
251,-49090.31,-67761.81,-88256.89,-4810.62,8541.557,943.1156,37977.83984375
252,298540.53,292755.38,325639.62,10480.428,-5570.4546,5851.0483,38077.734375
253,634081.0,636837.0,664512.1,1798.63,-10620.007,307.23346,34613.91015625
254,-3594693.2,-3593475.0,-3594652.0,397.81763,705.6177,447.13495,2000.958984375
255,-2742123.0,-2736400.5,-2747226.2,7879.594,14325.355,-10679.938,35101.11328125
256,-19353320.0,-19354818.0,-19353910.0,-14.173953,-175.57367,-856.7542,2000.86181640625
257,-8489095.0,-8489181.0,-8489924.0,328.84857,606.5833,-806.6421,2000.90258789063
258,-34045.92,-34481.438,-49061.33,-5299.322,-1730.3875,3089.7927,18465.759765625
259,33942.223,31166.598,64705.48,-2718.9338,1190.6069,2669.609,32973.93359375
260,-56176.37,-32114.818,-72749.414,539.89435,2446.7327,-4715.697,36577.92578125
261,2079.444,-20999.02,8207.862,13202.721,-8692.884,5734.004,39495.29296875
262,-93980.46,-86046.95,-126368.516,-7131.45,2119.772,-2779.6353,39472.8984375
263,36693.69,23384.475,65367.11,8315.4795,-1577.4935,2256.5806,40138.5625
264,186.11084,27401.967,-15507.736,5956.5283,-1356.4766,-5080.255,40043.8359375
265,1676.158,4096.631,8776.546,16715.582,-4975.1973,5645.104,32360.150390625
266,18352.625,27090.867,55436.375,8548.082,215.24118,4733.669,37604.328125
267,-9566.786,-3491.8186,-35486.805,-750.5709,-2267.1274,15270.468,39785.51171875
268,5757.788,14632.592,36053.668,13421.384,-3264.316,1178.7402,36114.66015625
269,-13926.415,-840.9619,-29081.424,9122.978,-1621.2513,7336.9307,31910.447265625
270,-3598.227,2832.6826,-23142.371,2481.904,-3902.1538,3872.2568,25654.626953125
271,-6384.3975,-6310.048,-32952.56,-5808.341,-6809.426,6357.6904,32702.05078125
272,-3315.9512,5723.098,31233.348,12533.414,247.7008,-1908.2206,38018.8515625
273,-11457.036,-26325.688,-40833.703,943.6549,11088.738,-9204.085,35678.72265625
274,-10479.178,-7701.249,4888.826,-15496.15,-6593.618,-963.2853,32477.751953125
275,-12265.395,13734.978,32223.957,3200.376,-1420.2772,2960.6035,39517.796875
276,24841.117,-6108.6826,395.78564,8610.819,7800.364,-3543.2344,35235.2890625
277,5563.4995,25791.506,4290.1333,1907.5872,-3420.7883,5838.398,24183.34375
278,15350.736,17878.484,49894.54,8229.97,-4161.6934,-5318.523,38109.87109375
279,-2686.68,9789.577,-1166.94,9744.187,4426.898,878.3324,22021.810546875
280,9706.035,-2115.0347,11902.084,1847.3767,13286.095,901.3842,26697.505859375
281,11907.957,-1580.6809,1102.9717,7267.73,-8088.3604,-2962.762,23108.54296875
282,128296.586,122549.76,161338.8,2299.5002,-999.4354,4869.877,37479.44140625
283,-8133.435,12228.965,-6711.361,-2574.0981,-1419.3474,6285.968,23068.474609375
284,7618.5776,10226.889,8267.937,701.1973,-2341.703,-1800.0905,5760.0302734375
285,13092.766,-228.14697,10009.006,8645.006,3055.7744,246.08983,19956.982421875
286,6122.731,3718.7803,-2646.839,-755.4687,10608.126,3351.3142,20847.203125
287,10959.957,-6028.27,-11259.831,-11069.939,-10468.519,7602.4165,35702.0234375
288,4783.017,-7999.974,-15201.493,-3169.122,9561.27,-1363.4108,24845.201171875
289,-30999.438,-696.7705,-7217.796,11611.215,7611.8237,6127.2324,38132.40625
290,-6842.064,-6232.5337,-15337.699,436.86475,226.73225,12786.773,23852.822265625
291,2241.4817,2154.8708,-6852.2637,-2626.901,-6874.6562,-16736.271,32934.921875
292,1393.8353,-1724.8585,-2958.4485,370.39294,-4128.775,-6133.031,13397.3623046875
293,8521.504,-2131.592,-13390.943,4881.957,8658.799,-14092.378,35389.52734375
294,6581.1694,9180.425,12954.443,4311.987,2761.5972,-9822.907,19973.392578125
295,11065.942,9950.265,24978.639,239.59407,19087.393,-803.53827,36130.6640625
296,507.48242,-8552.154,-38561.348,-2886.2375,4586.3784,-2894.3115,36982.8046875
297,5241.3438,3360.502,2189.2725,1412.0911,311.81024,-1299.0189,4295.14501953125
298,-9416.883,18318.848,22875.684,-4091.2632,-5665.152,-5802.9414,34116.59765625
299,14439.187,4572.7188,-15550.662,-2248.2185,-1377.4684,9489.306,31493.50390625
300,17301.758,14437.715,8186.951,1327.9296,2847.32,4120.295,12071.4384765625
301,24228.842,25217.982,-6535.654,-2411.6182,-4097.6465,648.93427,32356.544921875
302,-10098.092,6158.4473,-26405.98,7899.6816,-4607.6577,4130.1655,33127.23046875
303,-13168.505,15247.49,-25157.855,6506.222,6183.8,-453.58374,39169.2578125
304,633.2871,24835.412,11378.424,14650.792,-5376.2495,6589.0903,36083.83984375
305,-9183.06,24842.516,11880.248,-1156.3555,-12693.269,6698.517,38816.11328125
306,-26330.523,-38127.758,-52243.57,-4584.7275,-16895.998,-7718.9624,40039.84375
307,34058.734,34397.637,36054.344,309.92322,-181.43066,255.63028,2000.98571777344
308,5988.1514,6606.7485,2813.9258,310.71884,13274.888,18486.926,39581.29296875
309,13832.4375,40080.52,17454.566,-13415.917,-1699.4648,4530.911,34888.68359375
310,208101.27,210528.97,247107.72,3730.3882,-4144.3306,921.5906,39096.328125
311,-4759.285,5962.2744,-34078.836,8791.86,-2702.0151,-3983.3403,39878.984375
312,-160722110.0,-160721810.0,-160722080.0,375.38025,892.69525,-309.281,1784.41076660156
313,-28375.396,-18458.652,5547.8506,-3281.787,5548.079,4546.5044,33156.99609375
314,383.0996,15533.1,25674.469,16033.007,2639.8748,264.58112,35753.328125
315,1799.4365,11294.148,-14356.587,-1076.3477,6279.86,1365.2273,25138.42578125
316,11774.463,-1551.5903,9445.417,3212.8142,-2835.734,12352.244,25783.6328125
317,1728.1191,5416.9214,12860.984,5647.4854,-3091.6375,-2953.6863,15716.5751953125
318,16686.094,-511.56006,1937.981,6189.3745,10432.392,6292.5464,28633.04296875
319,-4140.73,9547.208,-16495.559,-886.2249,868.12476,8253.818,26797.521484375
320,8203.139,-4119.913,-8504.183,-6254.114,-11203.857,-7817.6416,30039.55078125
321,22907.512,6211.8833,18936.848,-7712.855,-860.41974,15063.28,33009.2421875
322,-3564.9324,-11174.419,-25840.135,6655.7676,7552.7407,7757.918,29481.7109375
323,-6674.0576,-4531.675,5326.285,-4879.3164,551.06134,291.3642,13981.3291015625
324,-5993.7197,-6270.4966,-5389.398,-262.77264,-691.6758,724.8947,1956.49792480469
325,-8301.94,-5632.4688,-17776.979,409.8052,-12751.837,110.91165,24709.603515625
326,8230.699,12691.868,13858.798,995.6938,10615.316,-6330.59,22084.560546875
327,8033.0127,1395.933,-1288.1973,-3643.5815,17781.469,-196.70369,32520.07421875
328,59.36792,1343.3728,-12721.511,3480.1985,7411.4097,12918.579,29718.708984375
329,6031.6855,-6928.9824,-27335.773,4315.165,-11412.938,-4840.088,36956.84765625
330,9647.784,3313.572,-28361.24,3501.5051,120.35969,-10513.239,40155.453125
331,11697.674,19792.656,22577.98,9317.731,-2989.9932,2744.0947,20142.111328125
332,-13694.257,-27805.986,-42843.47,-7301.7534,11179.73,-8596.724,37337.49609375
333,-28009.738,-15558.845,3187.7751,11663.91,-6985.155,4475.078,36803.11328125
334,-1463815.0,-1460009.8,-1465714.4,8446.87,9170.291,-10784.834,28992.837890625
335,-29646.83,-15958.643,-59146.508,2918.2747,500.13797,1263.5226,38632.671875
336,-12695.438,-2227.7817,-44218.92,2797.8218,4885.994,-3588.5977,39585.54296875
337,20007.93,32302.527,52914.445,11579.311,3386.3347,825.3863,35610.5390625
338,-24568.172,-11558.85,12295.246,-9718.132,-4593.9375,-1923.2596,37500.95703125
339,-15205.11,-16863.037,-7568.584,-13124.903,-33.158447,-3537.5522,25061.154296875
340,-12.343476,3877.4824,-5240.0615,-11618.76,3519.2725,11762.13,30331.177734375
341,-9649.849,10148.975,-23980.957,-7646.1357,1876.4229,1415.4684,32757.8515625
342,-6877.129,-5860.822,15794.686,2551.3599,-7316.1777,5078.206,27376.537109375
343,16380.589,5039.4404,21228.508,-5422.4497,-11132.592,13033.876,34303.984375
344,14976.795,-11977.574,-2318.086,-12851.758,-4290.2505,465.95334,33329.4375
345,13962.573,9592.186,12877.31,-4522.1514,-11926.241,-3858.5242,23414.84375
346,-29082.438,-19266.785,-57927.26,-5526.121,1883.0615,-4007.2832,36904.31640625
347,4567.0415,13105.408,-3308.3965,10784.239,-10878.333,-3992.8196,30885.455078125
348,-27803.295,-23854.787,-2657.3806,13939.605,-4931.605,-6610.3037,36545.9609375
349,-16351.936,-7948.086,-19492.719,10762.325,-2015.0051,64.228096,21599.998046875
350,11293.486,-4431.241,-1528.8062,-101.09549,1191.8431,1817.5243,14975.095703125
351,5910.395,-711.33,-10783.874,-5857.0244,-148.61693,-6296.385,20830.623046875
352,14637.362,1902.4781,-14933.673,4524.9946,-11807.981,-3674.308,34354.81640625
353,13219.754,8294.683,37442.582,-252.19652,7582.4062,5969.979,31778.802734375
354,-9197.743,-32077.77,-30762.662,6929.4463,-12256.8545,-10267.702,37498.7421875
355,-16855.543,7267.2725,24226.402,-5250.619,-1799.065,-4194.376,37733.53515625
356,-19306.826,-20226.674,-33293.082,1077.254,5430.024,766.48315,16652.197265625
357,-13287.033,-13812.486,12894.018,1891.2448,-1851.8484,-185.90236,26844.04296875
358,-2018.6052,-2490.8794,-1695.1465,87.33503,-190.31448,-327.3855,966.185546875
359,984.57214,1381.0752,-1263.9908,1339.8385,-437.6417,-136.86992,3481.53784179688
360,525708.75,528316.3,565913.3,319.61203,1660.7307,1348.5908,39145.96875
361,-5247.2764,-4656.8086,-9910.92,-670.8304,-297.26996,349.1008,5180.03076171875
362,472312.88,475736.06,513209.5,-449.74002,-4129.5566,1217.6711,40005.875
363,-1654.0674,14596.425,3364.7102,-388.0582,-1941.5209,1205.8945,14961.0107421875
364,-1867.2952,3268.57,-1875.6682,2193.2207,3809.0098,-1213.44,9423.046875
365,-9356.744,-1229.8794,-9570.227,-19628.746,605.40283,6046.4497,36530.3671875
366,21561.832,-3228.755,15765.42,1141.0463,-2537.3591,1612.9187,23140.876953125
367,13834.634,-2691.059,12168.55,1969.0541,-1215.1357,-800.4857,16319.45703125
368,2913.6392,-2203.504,-10448.785,4261.788,1118.0361,-245.6198,13956.41796875
369,6206.264,-3800.3132,5158.99,1239.2946,350.33173,1843.8743,10291.943359375
370,-3323.186,-858.56836,-368.42188,60.530907,3242.7878,1222.9185,6600.5458984375
371,-492.9984,2729.5557,707.27637,2473.9102,491.41672,-216.6099,5213.77880859375
372,143.29639,-845.0809,-349.8528,1716.944,165.19266,178.35886,3123.0849609375
373,-1618.3141,-3041.413,2089.208,-741.6225,-76.91357,-40.005455,4766.5146484375
374,-13952.191,-8607.419,5373.847,-6400.2524,-9053.514,-2704.821,26258.43359375
375,-20308.54,-19855.475,-45164.69,6656.339,4357.499,-558.75916,28637.66015625
376,-409.31442,-244.87657,467.10764,5103.3525,-110.54655,-513.60236,8922.5380859375
377,5340.889,2856.2627,2891.2578,3266.533,59.455215,484.1956,6229.95166015625
378,288218.6,289456.38,326568.03,-1851.723,1432.5996,2213.2068,38156.015625
379,-55240.188,-52450.46,-89947.26,1643.1025,1362.7292,-1914.9377,36522.01953125
380,-6522.463,-12972.148,-30917.336,996.9847,-381.1925,543.38275,21992.55859375
381,10526.153,-505.91797,11099.521,5380.0513,-2623.3965,-2518.9563,15964.8896484375
382,19888.973,3865.0537,24465.156,3389.9583,978.1747,1960.4811,19997.806640625
383,-630.92676,1264.9146,986.3253,1324.7954,-339.88437,1929.8632,4464.1455078125
384,-1373.6853,-830.6329,38.58069,494.0133,345.5144,-81.954895,1622.62268066406
385,-2553.7007,-4547.5254,-11557.847,3204.3774,-1048.4529,-3118.9924,11418.5595703125
386,-10461.78,-2498.7505,-5323.4253,-301.451,968.0968,-2446.9033,8363.12890625
387,6797.439,1086.6008,6920.567,-1702.6461,-3125.637,-10792.077,20512.060546875
388,-800.98285,7369.944,-15061.645,2578.9004,1834.4386,9405.088,26116.431640625
389,12257.444,27940.191,11017.018,25.100235,-909.4751,-9921.182,23763.69921875
390,202.71446,1249.4843,-276.32016,-409.31314,37.8361,550.3641,1800.62451171875
391,-9702.972,-6505.3696,-17577.63,8950.648,3697.2432,-3928.2866,20616.9921875
392,4691.0786,-639.75366,213.10315,-2961.3743,1598.7662,-38.512505,7653.79150390625
393,-2041.1987,-5546.3843,-12838.506,-810.19476,2568.4128,-857.8646,10723.2861328125
394,1153.9341,2056.6252,-9121.593,2055.007,-326.17447,-2919.8718,12419.4287109375
395,-3170.6306,796.6766,2025.8688,2645.9734,95.80337,-1225.2264,6903.73974609375
396,-11675.75,-16583.406,-12857.671,1813.3319,1133.621,879.7609,5976.89794921875
397,210132.11,206902.81,244826.55,-1483.8593,-3568.8708,4255.587,37753.375
398,18755.041,5917.9185,10801.017,3439.3577,2711.366,-827.50604,13621.5927734375
399,33199.266,21698.553,48858.65,501.6464,-5084.229,2745.769,25661.208984375
400,-146494.4,-149245.33,-184939.28,-611.58356,1140.7964,-944.2916,37249.41015625
401,6164.2295,12601.384,25308.855,5798.932,-4091.5203,2700.9573,21394.080078125
402,45224.38,54914.008,81666.18,4153.834,-2253.738,875.1088,33735.51171875
403,11585.679,-454.1538,4492.413,2310.682,2494.5405,-795.2071,12101.787109375
404,6242.441,-3564.8271,-2028.216,245.76593,-61.01596,-757.49603,9240.53515625
405,4179.568,322.76196,451.5995,1131.3362,-1489.83,1086.7637,5332.5751953125
406,20463.479,-6670.1875,16056.428,-1910.684,-6638.639,143.58293,27916.072265625
407,-10230.05,-2605.0452,-5476.083,-558.8082,-947.8689,2174.6096,7893.720703125
408,-23110.682,-26400.23,-10288.847,-11901.025,7911.7935,5468.586,30328.330078125
409,1586.6011,-2463.965,-7757.0,-126.98939,10.847716,1744.4774,8662.646484375
410,2813.8025,5481.6772,8706.667,1983.4004,-142.26146,2997.79,8058.81884765625
411,-984400.3,-995951.0,-1014793.6,1955.562,6942.628,-13433.727,37464.33203125
412,-6927.535,-20301.893,-32644.473,-1236.7247,-1625.059,-1209.9718,22653.693359375
413,-2328332.8,-2334094.2,-2355364.5,-1359.9723,6651.008,-7824.191,30497.166015625
414,717.0886,-2989.1995,-6728.147,1950.0342,311.28693,-1101.9547,7544.23095703125
415,-25.37378,-336.2439,10479.74,5373.2573,-1501.6838,1010.47314,14497.0263671875
416,8702.968,-2608.646,3530.7502,4177.0615,-741.9011,-1626.651,12575.0185546875
417,-9163.11,-2370.9731,-4378.426,8223.803,2646.9778,5314.628,18578.91796875
418,-730249.06,-732542.1,-759068.7,-4250.8394,10620.216,-5740.213,35512.953125
419,-1655.2428,3653.5515,4995.682,-8547.743,8830.12,8078.281,26191.41796875
420,-5739.1167,3887.5693,-13131.539,1193.6241,-112.73166,1261.0845,15085.38671875
421,-1846026.8,-1836544.1,-1858132.0,91.680664,15028.502,-4992.3604,33220.63671875
422,-4492.795,5747.8955,1136.9238,5412.272,-4161.0615,-1880.5123,15144.0947265625
423,11635.446,10571.337,32880.758,3095.2383,-3150.4646,3814.3713,24026.423828125
424,-12174.752,-6568.6562,-28822.496,1148.9065,4838.823,-1503.7399,21974.77734375
425,795.75635,15349.492,10287.586,6260.025,1153.049,-33.774494,16891.423828125
426,-9596.387,1412.2681,-463.21826,-1707.9409,70.11154,-1291.2471,10854.91796875
427,-2540.0999,-5887.1763,288.75708,-5839.9614,1303.2383,133.25781,11667.8076171875
428,-3387.0986,6017.9863,15185.584,1529.3104,3314.1477,-1612.6937,17506.91015625
429,-3595.1357,8581.326,1330.6682,2282.4268,-349.9137,3920.3088,13215.638671875
430,-16060.608,-13362.897,-22051.164,-668.3017,1584.8622,-1717.8422,8778.005859375
431,-107880.09,-104694.16,-142738.73,796.52844,2821.0225,-259.33798,36909.51171875
432,4147.4497,-2351.06,-1406.9167,4083.6118,-944.00916,-497.57324,9509.48828125
433,1741.7592,-954.0131,7648.662,-659.3546,-883.04266,-1145.6982,8103.31884765625
434,2552.462,-4966.8696,-11188.165,461.54517,1583.5947,345.16196,12269.6630859375
435,-2523.4407,-8407.322,-6931.834,2613.4219,-399.1793,-1245.3833,7330.51318359375
436,7614.351,-19608.592,106.09323,-8215.517,-2037.0347,-1735.5958,28583.826171875
437,-24022.668,-23452.34,-40215.715,-6268.7144,4113.787,6406.0244,23739.142578125
438,2973.5203,-2942.2585,3985.8035,3959.377,-349.29065,-1222.7057,9689.71875
439,33652.81,24479.21,52502.93,-1535.8307,-1368.8032,2006.9602,25242.548828125
440,-1400.2985,3569.1335,123.53712,1753.2976,58.473007,135.25407,5360.22607421875
441,-54.789154,-2815.0757,-6518.2144,4045.103,2888.4475,2821.375,11382.1162109375
442,47345.434,49237.566,79236.66,-131.50815,-1158.9443,1288.7798,31134.41796875
443,-11172.884,-6722.104,-3981.5977,-3488.6167,-3009.3726,-3142.9492,11525.2724609375
444,-2180.2976,12630.005,3612.727,-6311.684,636.4019,-231.67023,16970.439453125
445,-4292.65,-3794.8264,-627.4194,-215.30943,-776.647,330.03326,3759.31982421875
446,351073.72,348081.38,387391.94,-770.3761,-2716.8513,-830.0441,38244.41015625
447,-5472.055,-3799.758,128.32199,-1261.5438,-1033.857,1547.5284,6321.46337890625
448,-1863.8517,177.09901,256.739,227.36876,-2959.3044,2795.7397,7362.77001953125
449,5316.205,918.8402,14210.465,4398.092,-3567.8298,-94.239136,15290.5361328125
450,2686.4185,-2216.8748,1678.851,4925.4814,756.5093,1661.7725,10143.9423828125
451,6538.97,9397.566,16305.822,-2063.805,-2239.8796,2306.5989,10928.57421875
452,-15767.175,-3481.139,2496.3264,-8320.2705,1628.899,5669.081,23920.12109375
453,-2842.7957,-1055.5953,-712.4052,-1464.2108,494.00623,1503.5342,4227.40185546875
454,-4202.396,978.52637,-3646.481,5844.805,1652.3208,317.29932,11629.6435546875
455,42862.277,41917.133,70832.125,-1985.5227,-577.34454,-610.3593,28698.18359375
456,6402.32,10190.34,9873.208,1360.619,4977.0576,-530.00574,9693.2060546875
457,-15767.349,-21637.896,-39736.953,-2418.9321,1346.3505,-880.42255,22217.283203125
458,1094.8993,-1209.1785,-3235.6511,2646.3428,-1129.5793,962.3126,6457.54541015625
459,-219.84065,-982.9548,328.8912,-218.32031,537.3973,909.59357,2189.44165039063
460,1054.9585,46.4398,4654.2705,314.78824,-226.31152,-279.6258,4276.40380859375
461,1284.8342,117.45983,6925.64,-2529.3455,-397.47906,-3616.555,9933.3544921875
462,10054.838,-4717.09,10441.89,-1760.4856,-1527.4032,-2846.418,16268.99609375
463,10081.06,3623.5518,15552.397,-1773.609,193.40031,1268.0623,11015.416015625
464,-1352.423,2338.9597,1184.5867,-2438.962,1159.441,1810.1266,6511.97705078125
465,2003.6318,7380.893,1052.9888,604.4158,590.5675,-2012.1055,7015.5888671875
466,-20591.758,-19079.213,-38522.293,203.83018,1584.1111,906.78754,19000.849609375
467,12708.68,12205.061,18431.713,833.84216,-80.33351,-1095.5166,6449.3935546875
468,-33194.504,-32062.182,-49227.97,696.00446,2019.4974,-4648.1226,18841.78125
469,-2429.6545,-4991.781,6939.869,5471.4136,5171.373,6868.728,20734.875
470,-4400.187,287.46048,-1519.4628,2276.2732,1253.9768,1071.0326,6361.74169921875
471,-4994.86,-3984.8516,-932.56213,2491.3909,-184.56844,-132.88988,5674.1240234375
472,-7636.4346,-8971.429,-18704.596,3271.1719,5467.4214,-2665.3333,15893.4658203125
473,-17568.34,-17695.455,-34629.6,-1865.5565,106.42238,26.963614,17303.5
474,252676.56,250172.38,288529.72,517.0741,-3809.1787,-1227.4763,37820.02734375
475,516.2346,4901.578,-5642.4966,-6949.6147,-10127.378,-10133.214,29065.412109375
476,272269.3,274273.6,311076.53,1227.9928,894.41504,562.22504,37948.765625
477,-7163.907,-11788.386,1403.6499,1357.3507,-5949.4297,-6396.9873,19206.45703125
478,376.64536,2933.4915,-902.232,-867.6481,859.2068,-9.855002,3989.5263671875
479,-234.49342,-1024.0386,1242.9103,-306.704,-83.053444,-808.5025,2497.29956054688
480,3319.4636,-2373.0117,-1156.2504,973.70636,-730.19556,428.7053,5652.75439453125
481,2892.6362,-4242.169,2404.0044,-383.8182,260.8507,18.637623,6950.1826171875
482,2239.6575,2677.186,5639.165,2746.9915,504.55362,501.9326,5866.69580078125
483,-3415.8486,-5726.3047,-4112.0747,2831.976,68.44748,-755.56934,5477.345703125
484,1703.6294,-2787.7224,-4625.2314,422.8535,726.51654,744.96466,5965.43310546875
485,-2689.1736,-3875.126,224.39502,1754.5503,908.99,-337.69104,5040.53076171875
486,5567.489,4908.499,9671.407,-3251.081,894.0132,996.3518,7554.16259765625
487,-7055.1133,-208.35071,2086.1018,-7030.336,1053.0499,-955.9354,14906.283203125
488,7407.4263,3525.3162,-3568.517,3974.3096,1571.4731,2716.3032,13033.0810546875
489,-5742.936,-5714.9966,-856.11786,-1755.1967,-1104.6144,-1366.3834,6499.916015625
490,-11243.03,-11003.636,-5559.6245,-1709.1101,828.3193,-836.0971,6626.9541015625
491,1463.6754,1905.7415,144.13914,1306.5537,2857.8225,-2050.6067,6690.11083984375
492,-691.1964,-4057.8564,-597.2794,-449.9164,-553.59283,223.73724,3651.88305664063
493,636.7033,-3128.7788,-1302.6078,-938.4954,1136.2595,17.958838,4141.7255859375
494,-4679.272,-7576.3584,-7276.6836,-1269.8243,-1046.8657,-74.37869,3969.44262695313
495,-4316.084,-1567.0614,-2160.5015,-221.73563,530.0817,-507.37125,2835.6044921875
496,-6155.4023,-208.41617,-249.63625,-966.7264,-671.1676,-786.498,6413.58154296875
497,2679.6794,-2120.6572,-650.8337,-1373.2108,-83.094185,-163.22162,4889.34814453125
498,1476.2872,-2330.668,-11298.725,3692.2195,416.51892,2821.334,13941.220703125
499,661.74,-4301.48,231.23639,-246.61609,369.32013,-20.797182,4824.43212890625
500,-1801.7344,2140.4204,4161.948,2096.7642,411.95328,-509.0356,6486.29833984375
501,-2560.253,3960.987,-5.893833,1284.1488,467.84628,417.72598,6206.5263671875
502,705.8555,2109.2327,-634.9284,2143.1782,-2633.1013,586.8609,6423.49755859375
503,-2156.249,7547.4272,4743.7314,-991.90326,-690.2296,-635.4782,8967.0654296875
504,7648.8784,2855.8164,2574.169,-4056.142,1668.6615,1436.7957,9397.12890625
505,12582.713,13381.548,29335.104,-2130.996,-2026.0573,-167.9955,17144.12890625
506,-79729.49,-80410.18,-116334.08,1674.381,1096.8125,-2306.3445,36652.6953125
507,324.1926,-1377.8744,-478.1647,517.8487,-246.80072,548.6093,2016.25720214844
508,20.108614,-2905.1,29.897085,131.413,66.559135,434.9876,3036.16796875
509,463.23715,112.17439,-784.23804,-51.123142,-977.93933,-1817.8373,3745.93530273438
510,-2655.0464,18.157589,395.4012,840.18097,-1940.8584,1137.6094,5059.421875
511,-3950.3179,5207.887,-2290.318,215.92815,-167.37662,86.48423,8465.935546875
512,1060.4288,-1442.8378,2061.2886,4156.0215,1117.2098,381.0156,8109.93310546875
513,-4048.892,2385.0876,-1038.6641,371.05777,416.32047,-61.566235,5659.87744140625
514,-155508.5,-158340.06,-193925.69,-296.58365,1054.6504,-1100.5536,37179.9921875
515,-8927.461,-9399.4375,-13489.698,-1618.491,489.7549,72.81299,5241.9013671875
516,13833.163,-4862.389,-6118.526,-2084.5422,2337.401,6268.611,22845.095703125
517,-2718.7239,-1865.2618,-7103.7983,815.59534,-645.533,971.58936,5456.8720703125
518,34388.617,32373.924,57354.285,-966.68317,-2440.8647,-33.2284,24462.828125
519,-82799.47,-79832.73,-117436.336,-237.65665,1778.9066,530.65704,36356.30078125
520,-4082.462,-3881.8706,2558.5308,486.63803,-1697.1754,-966.86053,7413.97412109375
521,-6702.25,-1322.0339,-2104.0781,-1959.0077,-201.6426,-159.16295,6087.84521484375
522,-405.21396,1128.3336,-1649.9055,-578.235,-203.88913,288.93182,2681.05249023438
523,-5517.5903,1800.6492,-641.32135,-1544.9103,942.5719,-2209.8599,8131.7236328125
524,-4014.137,55.865723,3592.4985,-2022.1888,-1185.888,71.608696,7743.9599609375
525,-1835.6693,1860.8364,-2680.0083,39.76669,928.42944,568.2308,4588.8466796875
526,2548.0557,3430.0493,-151.73854,1885.8096,137.71136,891.5357,4853.6826171875
527,1168.7842,3176.4932,251.15639,1652.3809,336.61493,-711.17847,4094.33837890625
528,-4554.0537,169.86858,-6147.127,2470.5366,-3539.2085,1944.6962,9980.6337890625
529,1950.5125,-2273.382,-82.48191,2540.6055,-1221.938,-411.13644,6143.103515625
530,4767.868,2657.74,2613.9353,2369.776,-699.8206,-1213.7858,5223.36865234375
531,-1214.6567,-6269.78,-2790.8665,182.5684,1009.14465,505.6405,4898.2548828125
532,-1628.293,-3746.9407,917.2895,832.91425,-166.42467,381.93387,4354.74462890625
533,439.04462,-1776.6927,1698.7432,-516.9145,-351.39514,-98.591866,3238.625
534,-305.484,-2954.5059,10.367103,74.8721,590.9641,109.90295,3009.07690429688
535,-3693.7888,4376.8223,64.487335,470.3884,-259.66052,-38.569893,7056.79443359375
536,-3615.3606,1387.9105,2609.6558,1699.0914,886.1529,218.40594,6617.98681640625
537,3441.2307,3958.6973,7499.0273,28.116135,561.143,175.51823,3958.9326171875
538,-168.24533,-2431.8535,762.21063,-993.80994,-375.2937,479.49948,3488.71435546875
539,-4291.4883,2345.5608,-845.8622,-95.150406,-203.9267,-578.0696,5848.79296875
540,-4095.774,-4307.863,-5016.1836,3662.7039,-948.49255,-1285.793,6971.50146484375
541,-1277.9822,-2740.5876,-1605.9,3046.3904,1466.6045,-935.4592,6219.859375
542,2707.6777,-5301.756,-1726.9309,420.8073,-834.9499,454.80862,7179.22607421875
543,-1704.5469,36.40276,1639.952,-2739.4304,-335.9139,-381.90613,5628.80810546875
544,4233.433,-1538.6533,-381.2946,-370.58832,772.17206,-258.27933,5511.5302734375
545,1972.3453,-7493.0786,732.7688,-1491.655,107.22165,183.9034,9284.8662109375
546,362.8829,-12143.867,1685.3477,-3352.102,49.45711,297.05493,14446.08203125
547,2391.002,1240.945,4959.2266,767.4913,3345.5964,-1023.0424,7025.52783203125
548,1636.3649,-741.4026,-249.98305,1760.2072,-352.86508,-407.4869,3859.20385742188
549,703.9281,-1774.0219,511.3711,1794.7113,684.21466,-140.9329,4102.09326171875
550,-15166.087,-9378.685,-23954.982,-854.23737,543.21826,1216.041,13004.39453125
551,3073.7476,3495.0183,778.5191,-1514.117,1093.5438,679.01044,4273.26416015625
552,-6310.8643,-6992.777,-203.9352,-2832.2466,371.553,-1078.7268,8360.2607421875
553,9967.318,11403.145,18697.11,-1234.9629,-667.9285,713.2184,8554.3095703125
554,-3055.4683,1765.2915,1191.8644,1039.3344,526.31244,754.1097,5155.76318359375
555,-4527.03,2826.5493,641.45184,1081.9858,259.01297,125.82835,6822.1943359375
556,4717.342,4238.692,2770.7817,557.99756,-611.0934,-55.332012,2269.37329101563
557,5100.794,3141.4358,50.90819,1128.9275,-66.533066,-446.17407,4886.6982421875
558,-3480.7854,-7200.451,-86.74171,-1535.4034,967.97876,506.32733,6973.70751953125
559,-1030.8876,-5046.001,647.6772,-586.00916,-339.6935,461.29474,5262.4248046875
560,30343.719,29156.521,54569.188,-188.40865,-870.1778,-392.30597,24897.451171875
561,3067.379,-261.4615,9408.076,19.512104,-808.0277,-338.15698,8642.66796875
562,2686.1746,-1823.6954,-481.565,1102.4752,-715.08246,559.2057,4712.31591796875
563,-1601.1886,3813.103,15.799598,-297.7463,-777.5899,-1.4904214,5025.3623046875
564,4997.8345,1454.8002,-39.08216,1760.9417,-818.6388,-349.39816,5635.34765625
565,1238.0604,-1295.1517,438.46878,-318.63968,34.961277,-161.78833,2327.60864257813
566,1026.5305,-2160.9807,129.06506,-1121.0768,154.69217,-48.246674,3457.48486328125
567,-1600.9824,-2285.3157,-5336.2236,1826.935,-237.0774,-5.927963,4695.3154296875
568,2510.869,3660.7988,2147.2397,862.5143,363.41614,-684.81134,2430.55932617188
569,-1487.4467,3334.4731,-875.17487,-886.2485,-42.92609,-112.94554,4803.49560546875
570,-15922.835,-15493.075,-33741.75,-2336.336,55.458153,-60.444435,18486.53125
571,-2078.6152,-2252.5322,2029.091,2788.8625,905.4194,-1638.6301,7173.9697265625
572,-2131.637,-3359.596,5394.998,8566.851,273.11444,-2526.787,17520.017578125
573,-5239.482,-4522.1196,-7366.177,3440.0383,-1737.1476,-992.7235,7353.515625
574,5369.6274,-2396.6562,-715.90533,476.11526,309.75272,241.89098,7157.5361328125
575,-80610.445,-83113.42,-118048.43,-2529.4907,1843.4094,324.20346,36658.77734375
576,-8276.852,3159.2231,5302.782,-1020.5125,684.326,-5495.6885,15969.6455078125
577,8904.426,-3623.3564,-1825.6892,-4472.0474,-594.2267,3093.6633,15080.6279296875
