Element Label,S11,S22,S33,S12,S13,S23,Mises
1,-67075.33,-67740.18,-69258.75,51.690514,-196.36192,202.09805,2000.98168945313
2,31588.488,31905.217,33519.535,-354.80396,368.62985,18.081041,2000.98571777344
3,-47468.844,-6883.572,-30362.398,-753.465,-3893.0579,5983.185,37417.79296875
4,21959.314,3346.4805,8958.526,-6989.456,7417.4717,646.60657,24214.5625
5,1247.228,10602.655,-3618.8025,12924.329,-633.2221,3729.5261,26472.09765625
6,10073.423,9981.46,8400.793,1275.9312,2518.138,36.19881,5153.96142578125
7,1915.5215,-14167.693,-24571.82,-13418.589,4852.732,-3522.877,34384.6171875
8,-6903.826,10253.938,12804.4,-4880.257,-3876.1748,1057.7567,21553.083984375
9,12717.693,-16224.163,6716.631,1521.9598,8858.385,-4702.247,31759.365234375
10,1066.9756,-6075.3057,-6515.061,-7537.1714,5485.62,-9636.911,24365.12890625
11,18618.936,-1277.0295,-6850.8574,-3124.3845,-4249.5166,-9905.297,30259.1953125
12,-2275.205,12459.71,7422.568,-8534.761,-5698.243,5844.258,24221.29296875
13,-11192.434,7283.8247,2077.9282,-2160.7827,-6906.827,8659.273,25580.3984375
14,-13509.678,-2269.4854,-12613.84,-74.19908,-833.67413,-265.70447,10926.5
15,2640.5093,14150.125,6150.966,-2471.949,-10503.227,442.8204,21313.462890625
16,6647.0195,5465.2046,6601.772,921.66644,-181.85,60.739487,2000.98559570313
17,2290.481,1573.1277,1658.8884,-1053.6542,147.37943,-221.95308,2000.98547363281
18,576.4573,1352.2379,1629.7494,66.8302,-1002.7364,-163.26555,2000.9853515625
19,-2930.5598,-2955.9827,-1508.6824,-579.62994,219.90092,-513.949,2000.9853515625
20,7448.515,4653.9995,6950.2305,1995.0153,-315.4337,-6018.2983,11294.4072265625
21,-7323.4917,12101.301,3232.211,-4179.8745,12847.19,-9915.338,33559.05078125
22,21545.947,22164.627,22478.752,-729.8644,21.802511,-43.997776,1510.33813476563
23,12630.039,-12795.793,-4466.631,3299.138,-13684.64,2578.1987,33443.59765625
24,-9213.646,-9114.739,-9503.186,2176.8928,-3049.5183,1929.1322,7307.6796875
25,320.33514,-1176.1276,97.03317,552.59235,486.2271,375.72855,2000.9853515625
26,-735.6231,-877.8883,-1634.2369,-635.2235,182.34186,63.32438,1422.04321289063
27,-5355.634,-3877.4458,-4550.2944,330.14658,690.5926,-448.34146,2000.98559570313
28,3067.3547,4572.05,4424.8657,-291.29617,719.0308,-211.3946,2000.9853515625
29,660.3045,403.30792,1369.6106,697.57764,764.4449,114.77445,2000.9853515625
30,-8611.441,12992.71,11472.406,-10112.916,-5202.7163,2820.1257,29121.8671875
31,-2933.6829,-4612.649,-4093.885,377.9098,-329.81894,586.5431,2000.98559570313
32,-8416.857,-7719.909,-8337.055,1892.5078,-1641.1135,8696.1455,15688.525390625
33,5972.047,5271.9717,4897.233,983.1734,228.43839,134.93306,2000.98547363281
34,9315.822,7352.9673,8180.397,193.63893,-330.3739,-465.72433,2000.98510742188
35,4095.6675,4588.653,4760.702,-460.40665,404.79935,916.3292,2000.98510742188
36,5885.31,-4454.895,-25336.535,4995.519,-3551.485,-2730.3406,29899.033203125
37,-998.8421,-2202.7192,-1663.3452,292.79684,285.94696,-896.3911,2000.9853515625
38,-8837.953,-10935.859,-9537.661,402.38846,175.90776,28.768486,2000.98547363281
39,24874.592,24623.309,23116.256,-24.995241,572.53705,-319.177,2000.98486328125
40,8888.049,10328.576,10055.049,64.25717,277.6273,817.3915,2000.97888183594
41,39672.99,39468.88,41165.176,541.3463,396.41653,-163.78233,2000.98315429688
42,87927.68,88032.86,87651.11,2.2682366,-273.17487,844.9017,1575.47106933594
43,14907.323,15298.409,14726.41,-591.97864,-924.434,210.12898,2000.98571777344
44,120179.11,120570.75,121622.25,158.89563,816.60156,286.9324,1998.52270507813
45,16585.396,16597.217,17533.332,371.99533,808.13837,-477.96765,1986.77624511719
46,-104654.54,-104399.96,-105251.07,-425.0151,-886.4186,-402.2181,1989.21813964844
47,3558.2935,3883.4756,4528.3335,-761.0164,674.83704,-237.35233,2000.98547363281
48,919.95953,458.93103,946.9401,-498.79385,213.23454,-982.418,2000.9853515625
49,16032.009,5077.9795,25207.912,5058.2495,-2013.9427,-3036.4988,20525.291015625
50,15511.746,6826.154,20241.066,-2599.1,1747.8589,-6291.667,16943.115234375
51,38490.668,29654.455,44645.016,-1921.8153,-1044.2102,-3675.2036,15006.9443359375
52,-6601.666,-5432.161,-3566.3867,-843.93097,226.28627,-277.04956,3090.53930664063
53,5057.3296,4428.7974,6228.004,1153.5153,-1210.5586,-2699.2803,5722.57177734375
54,343.498,182.85962,467.13678,341.62225,235.02127,-1068.8262,2000.98547363281
55,351.9207,-214.95985,-87.851974,291.36664,-60.335384,-1075.9312,2000.98559570313
56,6067.782,7181.2266,6597.9053,386.26694,-20.318426,-935.338,2000.98547363281
57,2275.1392,2848.047,1583.2369,176.61761,289.61588,-904.6879,2000.9853515625
58,5425.7896,5549.4146,5282.22,75.946495,-728.5324,-883.31134,2000.98547363281
59,-2326.7302,-7790.2686,-5059.3447,664.47125,-3300.0405,1356.7201,7867.98046875
60,6337.206,-1019.37494,-1861.083,768.3113,-18.689194,-2899.4863,9381.517578125
61,12022.023,3457.1614,5529.1685,4515.663,4985.943,-467.07626,14011.0888671875
62,-4521.9873,-7296.6895,-9885.935,5490.709,5101.978,1813.2112,14141.603515625
63,5617.918,6477.8467,5368.767,-927.83105,-211.44669,-300.7748,2000.9853515625
64,327.8883,-266.67636,762.8278,320.29022,-750.64703,633.63837,2000.9853515625
65,1249.873,1190.5789,-12233.528,-7556.4634,-9106.122,-12550.731,32766.34765625
66,5238.4043,4122.1055,3812.2717,-747.4432,-57.275215,245.07588,1885.21313476563
67,5765.626,6272.9023,6921.6616,76.79765,-585.2662,806.4989,2000.98547363281
68,-4392.95,-3268.5208,-4023.6038,-293.22546,187.37048,-940.7837,2000.98547363281
69,-3415.5715,-3028.1423,-3333.3645,829.4274,-6.834279,-754.8499,1974.43530273438
70,-393.54034,8727.964,-19777.398,-275.40585,6230.6685,7865.358,30627.25
71,4802.3013,5180.22,5167.953,-178.93834,-1115.151,-113.817276,2000.98522949219
72,-3831.7153,4978.0312,6993.3037,-6987.5293,-2941.3926,-3717.7087,17700.935546875
73,2242.919,1830.7103,1512.3313,-1075.4475,177.60614,-111.09959,2000.98559570313
74,-3321.1138,-2009.9629,-3071.623,672.91614,-596.4789,203.21565,2000.98522949219
75,-10413.512,-11199.638,-10059.854,28.408615,-685.4402,723.6359,2000.98498535156
76,-3470.1064,1454.4204,3638.6887,779.8712,-2696.7185,6671.101,14033.2001953125
77,-4001.6199,-2857.0261,-2962.577,709.8467,-645.70917,-116.9789,2000.98559570313
78,3483.3042,5472.5312,4258.9727,512.4856,-131.84142,222.2362,2000.98547363281
79,2380.4126,10092.495,9321.771,-13479.853,9976.831,-1732.8374,30114.203125
80,-24.014603,-4962.4136,909.27686,633.8537,1153.3033,-1869.7888,6749.2041015625
81,-6202.632,1185.3414,-659.7057,3289.5884,1039.2118,-1700.4318,9419.8544921875
82,-9725.214,-2214.2383,-2277.3618,3908.5261,-3971.6257,-5762.879,15771.1162109375
83,5647.0293,6493.491,7177.907,584.17316,537.428,-341.28464,2000.98522949219
84,4099.6733,4654.3125,5400.2627,-253.10515,854.6756,401.89087,2036.15966796875
85,17240.361,17286.918,18414.072,-176.89935,913.5472,-164.55954,2000.98608398438
86,210662.45,210589.73,212408.8,-39.802708,-151.14925,-21.5671,1804.62817382813
87,8597.197,7637.403,8521.151,-0.38055798,-676.7363,-769.42096,2000.9853515625
88,-458549.3,-459760.66,-459808.47,33.219173,757.14374,500.16745,2000.29235839844
89,1920.1991,565.11237,1160.1683,714.49786,-239.95255,-552.47626,2000.9853515625
90,4269.0107,3936.258,4134.4575,206.93965,32.757607,-1123.7135,2000.98559570313
91,-11386.791,-5542.5596,-2520.6367,2209.3904,-736.02765,-5274.2744,12675.615234375
92,6760.1816,7833.283,7057.98,-867.20526,477.55118,218.31104,2000.9853515625
93,2430.429,-10032.352,-2990.1191,479.57928,3339.0122,-556.4189,12337.5009765625
94,-2920.8264,-160.27333,-7281.362,1722.311,1017.7207,3140.6497,8959.3408203125
95,10266.386,9566.394,-289.09396,-2118.493,-717.52997,2612.62,11832.384765625
96,6308.009,2740.605,-1363.2222,3331.755,1283.3721,1915.4447,9667.33984375
97,1723.365,762.3004,2499.4548,-638.276,97.01786,-400.70093,2000.98547363281
98,-5724.0522,-5502.6865,-4880.349,162.51952,1023.11176,-219.00166,1984.30517578125
99,6426.9995,5671.5015,5169.2075,193.53922,49.108135,-945.471,2000.97778320313
100,11499.889,-7203.562,8886.772,8806.02,633.81744,12181.567,31413.181640625
101,-11540.732,-10505.292,-10368.904,178.2367,-838.39844,435.10236,2000.98547363281
102,-7703.4272,-7185.8203,-5962.4897,531.7172,-497.29596,73.49531,2000.98559570313
103,1120.278,394.40146,814.4245,980.71124,412.13873,-264.92303,2000.9853515625
104,3745.8313,3172.8604,2254.4873,581.4989,-643.384,128.821,2000.98522949219
105,1317.6296,2235.712,1503.8319,-435.85422,791.15625,532.1822,2000.9853515625
106,3046.863,2851.9468,3306.4385,-831.70056,511.5677,573.7867,2000.98547363281
107,1137.746,9429.398,1645.8668,-3639.1218,2499.6072,8720.118,18745.443359375
108,13131.894,13319.758,12255.691,957.12024,-153.64064,-269.10486,2000.98388671875
109,856.7621,335.772,683.9215,585.8338,-261.36533,-923.4109,2000.96435546875
110,-103916.75,-103502.65,-104025.37,-4.920474,706.9678,871.05414,2000.98608398438
111,2024.0557,1944.4523,2629.9724,703.86633,832.1659,37.24189,1997.41064453125
112,-4029513.0,-4029382.5,-4030965.2,-105.87079,-446.82895,-417.27905,1862.93823242188
113,-664.3724,-6307.334,940.2295,-4542.1846,3864.3582,7791.0967,18228.279296875
114,-4321.2153,-3048.6885,-4537.467,314.27042,388.22253,-661.87103,2000.9853515625
115,-1606.9221,1366.136,-21403.844,1199.3223,-2000.8677,-11840.936,29942.66796875
116,-5800.9126,-7538.895,-2562.4011,1424.8826,1490.3969,-3019.0408,7696.46337890625
117,-8639.0205,7404.174,2603.4565,-2467.1677,-7823.1,10417.302,27033.98046875
118,1610.3563,3266.0613,2672.327,287.1529,611.1505,418.42032,2000.9853515625
119,9896.098,11507.855,11522.076,-678.1506,-32.901474,6.9860673,2000.98583984375
120,-6213.767,-4754.4443,-4654.912,124.72487,646.2807,-373.9237,2000.98498535156
121,-8194.737,-9501.381,-9404.567,-564.40045,-144.13414,-682.1011,2000.9853515625
122,4819.45,-9287.623,-1711.7726,-2924.8647,-558.20795,-6834.4316,17783.6328125
123,-111.994644,288.11572,-46.990173,223.96452,1066.2582,-318.5582,2000.98547363281
124,-17592.752,-19315.787,-18487.307,746.727,174.36868,-63.737503,2000.98315429688
125,2662.8843,4369.1997,3570.2905,193.99583,-394.47366,642.29474,2000.98388671875
126,559.998,-1614.9183,14167.844,-731.9148,-5072.6323,-5261.9575,19528.59765625
127,-3856.1936,-3207.0403,-3067.7322,919.9292,-551.77234,-82.73631,2000.9853515625
128,27793.846,29860.27,38649.37,-1400.289,1712.8242,1133.7732,10872.923828125
129,-594.5826,-1903.9912,-1477.3691,863.11975,305.79828,224.0113,2000.9853515625
130,-1115862.8,-1116539.5,-1117267.2,169.66537,619.1727,652.76855,1998.72937011719
131,35319.688,36757.215,35190.43,-385.8251,-65.0489,-652.09314,2000.98913574219
132,6307.788,7794.542,6348.753,776.1463,-118.334045,-34.227295,2000.98559570313
133,-1424.8436,-1469.1351,-4390.93,2121.0237,6967.997,-4291.3003,14935.5009765625
134,1263.654,104.97603,723.0672,905.27277,-182.3666,-381.7544,2000.98498535156
135,7774.981,1440.0262,-1895.2665,-201.8819,4974.874,4539.4863,14442.158203125
136,7352.862,-4464.3027,-3083.1973,9400.26,8762.686,1816.6108,25111.369140625
137,-350.65497,-327.95233,742.87354,-744.6541,123.569084,611.8582,2000.9853515625
138,11842.9,11555.032,11447.959,633.2472,905.298,223.88388,1984.24475097656
139,13532.4795,10730.491,26260.398,-1271.2886,-2238.104,-2872.4905,15815.94140625
140,-5563.8574,-10831.928,-1186.1991,-1584.2184,384.5125,-1695.8083,9304.7490234375
141,-6855.292,-7117.1353,-6969.3804,974.5452,606.2975,-8.781735,2000.98498535156
142,-4476.3076,-4120.621,-3736.1357,604.7453,-908.4134,-81.75029,2000.98547363281
143,2952.2573,822.62244,1832.5609,-354.40656,-272.2806,8.171905,2000.9853515625
144,5780.0854,7099.4243,5538.116,-568.3977,130.28091,-537.07635,2000.98571777344
145,3471.3262,3575.661,3415.5298,-78.85447,-1149.5673,17.827421,2000.98547363281
146,-3921.5024,-4184.989,-3733.5608,-483.2945,-983.37506,287.4458,2000.9853515625
147,-9024.617,-10435.074,-4361.33,1046.5579,-7397.5615,11325.622,24136.689453125
148,7387.445,7309.2925,8329.111,7273.664,3586.814,-3354.4453,15232.78125
149,-8624.137,-3389.5103,-5561.9097,-1725.0837,-3929.0566,-236.07396,8726.7587890625
150,36913.324,34960.195,41664.312,490.19037,-3104.0625,-3405.845,10004.5849609375
151,-783.4199,266.9217,5071.053,487.60455,1353.0614,-1000.87866,6199.97998046875
152,65112.8,65265.207,63259.258,205.94638,211.82808,-15.561213,2000.98046875
153,783.29504,3080.3774,-509.4786,336.56082,-2046.6951,260.18124,4798.6708984375
154,569.9826,-1584.9241,-919.31415,-1524.0299,-2445.2693,-2443.857,6817.306640625
155,-388.96088,778.09784,-172.95737,671.73846,-555.68976,434.84747,2000.9853515625
156,-4226.1855,-4439.714,-4515.1147,-1103.1594,-305.1717,45.795837,2000.98559570313
157,485.63565,470.31702,350.16858,-559.3531,-1008.0981,2.4939075,2000.9853515625
158,10136.069,8363.979,8304.034,-394.40903,269.4374,-152.04588,2000.98608398438
159,25585.543,25142.654,23786.04,415.34198,98.482346,-522.78986,2000.98364257813
160,-57974.164,-58292.965,-57511.562,-454.47614,508.86032,845.4482,2000.98022460938
161,-47790.637,-48233.61,-48622.816,-547.357,900.46094,-225.48567,2000.9833984375
162,93463.94,92721.12,93585.66,-679.00726,-461.2008,-664.71014,2000.95043945313
163,-3930.279,-4453.6523,-2748.7104,-41.974834,547.37976,520.0503,2000.98522949219
164,6079.203,8141.972,7001.021,274.86185,-648.0302,1019.8416,2794.63305664063
165,980.15,2267.1719,1097.766,565.83496,705.7987,100.15843,2000.9853515625
166,6324.3057,5747.7217,6320.081,539.8354,-523.95013,-811.5213,2000.89208984375
167,18729.23,18577.557,20485.074,-225.87616,-379.20535,-125.4026,2000.98364257813
168,6748.4336,6054.5503,7692.7065,-62.251167,-782.6119,-204.19698,2000.62475585938
169,-125525.28,-124363.89,-124375.24,-462.36026,811.1294,119.42629,1998.42053222656
170,4029.7585,6388.4385,5710.4756,3907.3079,-3190.8645,-1039.8411,9165.900390625
171,11574.378,4083.2327,9714.602,-1867.4121,-9413.543,-1848.9846,18226.53125
172,14268.558,1092.1544,9832.072,10660.155,-11476.977,-10565.573,34724.875
173,273220.66,273058.22,274901.56,21.591331,-456.7954,-289.62643,2000.97692871094
174,23538.379,23995.771,23291.746,-136.93855,-342.1526,1034.5625,2000.31616210938
175,1763.0688,919.8243,12787.1455,1582.9459,-7536.7593,-3841.7854,18807.994140625
176,-12359.332,-1019.6847,13297.879,5600.2256,2330.8828,-10089.1,30194.251953125
177,3263.376,2926.9968,3292.8154,576.5211,-947.731,250.53983,2000.98559570313
178,1276.9435,2435.8188,2558.79,883.1315,232.81897,17.728586,2000.98547363281
179,-19429.777,-13383.806,-1511.3336,2289.3406,-315.7986,-4618.3813,18146.64453125
180,5214.4136,-277.85953,-1831.1377,6153.148,-14995.722,-914.39233,28841.216796875
181,24874.201,39858.62,26529.113,2311.8828,3279.1677,5049.7827,18090.544921875
182,1317.0984,-15087.317,-1333.746,2650.7722,-3622.8196,1996.6947,17465.9921875
183,788.81024,944.0345,-44.19799,-328.2175,741.12964,-878.6409,2265.90600585938
184,3220.2935,8393.098,17345.334,931.4073,2544.4775,-3589.7202,14625.0654296875
185,1239.2538,538.51025,-591.28613,-1189.1581,-676.81946,-59.513813,2861.1796875
186,-12445.596,5165.941,2781.751,2068.9912,12314.07,8674.427,31102.244140625
187,-11868006.0,-11868128.0,-11869735.0,279.38647,-227.22395,-522.7806,2000.5869140625
188,79082.34,79200.23,80685.09,154.89818,431.14764,546.38245,1979.64990234375
189,8201.938,-15506.234,8724.011,-4208.659,13018.07,3974.6685,34404.51171875
190,9193.422,-2650.057,4341.042,10423.224,-13345.414,-607.22437,31107.583984375
191,-10282.628,3186.682,-6667.2974,3825.9465,-3599.294,1993.0532,15507.8056640625
192,14930.396,-6053.27,11829.822,11974.368,11721.402,5914.354,36498.4296875
193,579.02985,-33702.04,-21961.205,-3029.4905,3764.853,636.3827,31334.029296875
194,-15051.662,-22124.59,5643.886,9740.77,-5122.469,3187.6702,31914.896484375
195,1909.9215,-19483.82,-20515.89,-5634.031,361.00342,4698.248,25351.048828125
196,22772.137,6843.0215,6368.1504,-5093.7466,3312.1462,7959.0044,23713.150390625
197,-11452.057,-36169.13,-11568.908,-2516.956,-7646.992,-189.15399,28330.21484375
198,-3947.7349,-14852.634,-9183.898,7302.8296,4467.1245,-8645.912,23094.357421875
199,7125.9624,-7412.73,1067.0873,-2388.8362,4336.3066,-12050.513,25868.326171875
200,10463.94,-8052.6406,-589.45,-6001.3955,-1463.0441,6767.0933,22632.3359375
201,8994.216,3854.558,-1257.8176,-6058.2275,6131.203,3623.3398,18468.76953125
202,9241.605,7691.653,8649.488,-838.3893,-97.159256,-102.84502,2000.98559570313
203,-14252.768,-19112.432,-6560.203,-4177.1787,-11816.97,-5613.5376,26191.20703125
204,10717.048,8831.292,9733.132,657.89374,110.05602,11.428048,2000.98522949219
205,24637.469,26624.943,25373.07,492.78683,261.64844,116.72576,2000.98645019531
206,26296.096,25014.078,24359.2,258.18088,240.2369,489.4987,2000.98522949219
207,11041.688,10120.169,9789.562,591.8956,-693.3445,-287.27448,2000.98522949219
208,20992.164,21960.764,22465.264,-64.958206,559.27496,-676.15393,2000.98486328125
209,148869.77,148939.27,150108.69,-135.87349,490.6074,768.5567,2000.79052734375
210,18129.047,18227.723,17018.39,-360.40128,-384.44012,-778.4608,2000.9853515625
211,-127349.586,-127714.04,-128377.98,-131.6023,85.19664,717.8506,1560.53662109375
212,-364364.8,-364175.47,-366118.38,88.060974,385.98502,161.52739,1997.83618164063
213,187035.47,186715.53,187201.5,14.9516735,-829.29065,-765.3022,2000.98681640625
214,2940.4766,2575.746,3568.5806,-88.78999,-33.65415,1036.0603,2000.98559570313
215,-7225183.5,-7225520.5,-7227296.0,143.05034,108.83681,-120.892525,2001.27062988281
216,189358.64,189102.72,189202.48,-441.3526,-821.6693,-609.3614,1942.59582519531
217,20934.08,20200.527,19223.512,-27.502863,-44.44919,-771.4996,2000.79553222656
218,3865.9568,4824.592,3258.3423,-155.538,-581.2599,590.79626,2000.98559570313
219,18536.594,18382.752,19612.506,-869.171,-44.262417,-358.1967,2000.98510742188
220,-986926.94,-986541.6,-987681.25,597.9767,-366.54077,-711.1891,2000.31335449219
221,25394.795,24912.266,25424.516,-556.5389,789.7139,564.4269,2000.9853515625
222,10448.587,11367.616,10858.795,896.1997,560.51324,73.03446,2000.98510742188
223,-24157.807,-25341.479,-27861.621,5846.7656,-2502.019,2522.382,12294.5830078125
224,17638.691,34967.94,30582.477,3262.8682,-2978.489,6394.327,20609.5546875
225,537.51215,-5077.2646,-6690.6914,7949.4375,8085.503,-12532.295,30001.1640625
226,12392.261,-2547.7168,3377.3518,10919.901,-4981.437,4482.7725,25734.25
227,13692.076,10147.467,16631.713,-2511.9702,5159.347,360.96933,11436.916015625
228,13302.679,-4996.1226,-5556.764,3561.5796,-6493.439,-2155.613,22889.04296875
229,-375.5333,-3329.768,-9930.349,2929.5273,7354.042,2492.5044,16686.064453125
230,10024.02,-3106.6338,6712.4634,-1830.7189,2572.0513,6409.2324,17118.21484375
231,-17523.0,-5328.5176,-1261.9773,5710.9194,-8147.974,-5831.538,24776.283203125
232,-17885.488,-7101.9497,-13637.627,14761.321,7846.128,-11513.997,36395.23828125
233,-23923.018,-10023.707,-13017.954,6430.537,-2794.6575,-10622.749,25427.396484375
234,-15063.0205,-4173.1455,7981.682,8674.644,6416.2266,2580.2322,27711.34765625
235,3346.6865,-26692.207,1102.7618,11827.924,-653.56665,4689.028,36426.734375
236,4972.029,-6656.4395,-1893.5521,-7624.21,2781.447,11110.148,25892.51953125
237,10057.8,22719.068,3782.9119,1593.3069,880.86237,2143.2605,17402.7109375
238,-3029.9438,-1161.2808,2957.9993,3345.2383,1174.9596,-4786.005,11601.2451171875
239,-7618.3555,-3975.4617,-17614.285,6856.1455,-7143.5566,4661.9746,22559.185546875
240,-3008.8538,-8725.917,-11086.784,-5126.097,3146.5823,2229.5286,13236.376953125
241,-5508.8345,6397.673,7344.849,2138.8977,-7330.761,412.3281,18149.228515625
242,3579.963,19926.662,19016.824,-2117.7412,3935.825,1327.5562,17843.30078125
243,-3778.0796,2856.5217,752.05634,-14039.309,2549.5366,-2769.8875,25851.658203125
244,-13062.4795,-16277.957,-17744.348,14083.527,-144.19052,-688.6736,24773.517578125
245,-3740.2805,-7209.3066,706.7147,4529.073,-2413.7468,-2539.7527,12066.63671875
246,6174.9546,17179.156,16848.102,-8865.743,-3830.9695,11578.972,28277.375
247,7206.353,7641.7764,8287.576,852.6489,-292.11148,-475.77213,2000.9853515625
248,1871.1266,1619.693,28506.559,-5214.7466,-179.25943,99.111145,28247.35546875
249,-2714.2488,-4703.35,-1543.3992,238.23134,-10326.581,10729.002,25943.705078125
250,-13791.191,-9337.835,-11864.526,2079.8696,-8293.183,-1169.5317,15439.427734375
251,2229.7231,2188.0576,-4253.331,1655.0653,-11423.566,13112.94,30940.59765625
252,3609.1118,-7085.0195,8340.222,-3870.0935,-18110.402,-2538.0547,35150.55078125
253,4420.8003,-6057.0996,11366.396,704.8389,40.899868,5188.746,17693.716796875
254,-4795.5996,-5963.7847,12388.425,6764.64,8550.412,-7744.92,29211.13671875
255,-7699.903,-5751.2925,-8396.355,-108.96738,-386.53802,16962.459,29483.86328125
256,1729.4668,17434.22,18800.002,9675.843,12373.708,2747.745,32137.14453125
257,-1927.0503,8787.785,4775.634,620.06647,-7170.7983,332.68478,15609.677734375
258,247.82986,-25952.916,-16249.535,-956.35486,6747.811,11383.998,32473.494140625
259,15285.139,14343.333,14439.04,-262.4794,-904.60767,422.8038,2000.98498535156
260,11311.321,-9315.134,3057.1443,-5731.592,559.20483,-685.0233,20596.771484375
261,-4297.8584,9908.036,8785.162,9095.638,-2503.0198,-6928.0312,24456.01953125
262,-1703.3761,3730.9775,6785.582,-3684.631,-4857.187,-6638.5415,17296.810546875
263,-16953.99,3874.791,11885.898,6970.02,627.4655,-11518.32,34782.4296875
264,-37193.312,-30105.26,-18534.752,-8628.556,8945.869,1292.8584,27103.240234375
265,-14516.307,-4762.6484,-31200.463,15771.843,332.72372,-3908.0283,36450.375
266,17167.117,-14871.766,8659.307,3360.383,11249.588,4200.308,35954.91796875
267,-18201.969,-14560.645,-16095.65,7436.6626,10187.658,-13973.032,32757.287109375
268,1907.8746,-775.05115,-6540.8457,-709.3649,1216.1555,-728.2778,7965.52197265625
269,-8517.478,-7289.331,-6535.303,-4621.2627,-10485.769,3075.7483,20622.9453125
270,10518.643,-1394.3715,11473.697,-1913.4597,-1622.3977,-2593.8953,13902.337890625
271,-4457.854,-483.88965,-21039.832,8815.787,2637.9246,2151.4785,24991.345703125
272,2987.1848,-12848.72,-540.3989,9600.678,-1174.3533,-5730.9404,24218.68359375
273,1409.8121,-11300.556,3182.9353,9324.618,2229.7168,1952.6727,21781.498046875
274,-6337.6543,-19310.408,-12696.481,2945.5557,3011.1353,2804.032,14249.66796875
275,6532.0586,4425.894,11542.891,8304.745,2324.1567,8076.1143,21421.4921875
276,-441.02563,-7821.1416,-1103.4946,6020.557,4940.419,8254.663,20890.16015625
277,-7404.6504,-7272.9233,88.453125,8153.674,-2328.457,18817.812,36513.28125
278,3373.6365,-16582.234,2894.0623,11175.963,-6734.1353,6012.0215,31750.3046875
279,-3395.1006,-13526.776,2839.7542,-2680.8208,-1239.3716,877.5078,15269.9833984375
280,17437.094,17451.57,15659.541,-182.76546,-26.527838,-488.53064,2000.98571777344
281,-120.521484,7033.1484,12752.535,184.03624,4808.191,5124.318,16523.759765625
282,3884.4824,-5569.4326,9710.536,2269.074,1895.3866,187.42058,14308.296875
283,-15568.261,-12780.5205,-10438.045,4608.3374,11818.455,-3224.7124,23102.44921875
284,-611.9634,1739.4773,4774.707,1751.4504,-548.0642,-6694.591,12900.990234375
285,-7629.5938,-18582.186,2156.4795,-311.64398,-1669.7379,4994.5527,20159.40234375
286,2742.0706,10045.648,7427.6045,5696.4067,86.3595,-533.9156,11802.54296875
287,10934.094,21911.936,11272.784,2380.0613,12936.828,-510.85526,25234.32421875
288,7290.478,-11720.503,6284.1978,8734.972,-309.81967,-1341.3892,24039.234375
289,-3267.9004,-28195.191,5580.1074,3196.8208,-1376.6997,1952.6971,31112.66796875
290,-2667.5906,-15459.454,23769.82,2544.8152,-4417.177,322.76135,35763.4921875
291,26680.156,26683.793,24882.018,-84.780396,43.159264,-495.62564,2000.98498535156
292,5468.778,-12827.108,-1014.4323,-2504.2014,-3036.8652,-13796.108,29591.111328125
293,3824.0461,3011.8652,3408.5454,794.90515,483.1966,-551.6841,2000.9853515625
294,12327.626,12953.513,12531.263,-664.23145,-447.52573,-768.92365,2000.98168945313
295,-16824.74,-18612.146,-17578.404,-709.63983,95.572975,-129.01639,2000.95751953125
296,11532.183,15936.893,8389.091,8049.6357,-3009.977,-5980.6396,19287.271484375
297,-5720.6284,428.9921,-2923.0054,-5356.7954,629.17896,111.070305,10758.744140625
298,8007.8315,7216.861,10321.403,218.26367,91.64358,-2213.205,4761.423828125
299,1835.0248,521.58563,1889.8911,143.73814,-832.152,-146.44022,2000.98559570313
300,-8015.6333,17608.455,20256.41,-3190.334,-5923.734,-2715.5303,29822.572265625
301,87350.37,87275.2,88893.08,155.3263,372.08652,567.95917,1989.22595214844
302,-301194.47,-300621.97,-302046.06,96.70709,-535.3545,-724.6898,2000.97521972656
303,49344.92,48790.715,50499.332,-746.6485,-130.80075,13.807927,2000.98498535156
304,-3664.967,-10519.991,-15684.502,3625.0718,2628.409,-7760.845,18705.81640625
305,7334.9307,2125.8713,15493.091,-38.05879,1712.6891,-3438.195,13433.318359375
306,3145.3882,11303.867,26019.314,5286.0654,-5079.3623,-2204.2092,24061.6640625
307,4244.2095,2606.3376,-10312.584,8531.098,-99.039734,-48.243977,20226.615234375
308,-11450.231,4103.4673,9503.163,2867.0378,2004.7832,7118.1416,23319.1015625
309,-7758.715,-8914.512,1619.6039,6170.982,-4186.4297,6245.408,19595.029296875
310,-1909.8395,-9756.907,2689.3997,15609.29,2472.7864,-8244.803,32742.083984375
311,-7218.7334,-20395.963,-2640.2305,522.5467,4373.3037,8867.817,23431.7109375
312,-3596.5945,-5545.1104,-7865.5293,-2952.9265,-9144.546,2033.167,17410.6640625
313,23848.34,17199.395,22291.496,2717.1821,-3666.0076,6914.8945,15562.6552734375
314,-17952.738,-1507.7725,-11292.419,4633.095,-5294.98,-186.24982,18811.6796875
315,12061.107,15011.67,24808.309,11926.116,-8777.419,-2609.17,28492.71484375
316,28657.504,28693.379,26680.0,-8.04465,-53.686256,-62.456547,2000.82360839844
317,-4116.598,-13507.909,-16430.086,-8123.3066,2089.708,2251.7139,18720.431640625
318,-650.6982,16.505058,955.1245,3923.3926,-2684.8767,-118.6492,8354.6015625
319,1108.3221,-589.1085,-4270.565,9936.961,7137.98,14041.132,32607.13671875
320,1841.1709,-24026.383,9849.686,-1200.6528,1894.082,-4455.3237,31860.076171875
321,-6851.2144,-3353.26,8304.418,12356.867,-13192.41,8241.988,37052.6875
322,4730.366,-4239.382,-4659.657,-11402.27,8175.325,-10023.621,31246.837890625
323,-2242.2476,-8441.577,13714.976,1186.5709,-9408.199,-426.10748,25735.189453125
324,-69936.414,-68516.125,-69992.78,-6.964687,-794.1874,-60.93487,2000.98510742188
325,-120798.84,-121141.68,-122383.37,-163.29543,-687.831,-365.1327,1996.07507324219
326,-26594.46,-26657.12,-28487.088,-105.171364,-395.4105,40.291744,1993.60876464844
327,78411.516,78472.48,80366.45,46.4326,294.13028,102.64281,2000.9833984375
328,36401.223,35386.78,35407.402,-87.9698,-308.45438,-941.2509,1993.76684570313
329,32449.969,32366.691,34340.0,-21.092485,59.679268,291.75656,2000.98352050781
330,-296365.84,-296099.5,-295245.44,-979.65326,37.601524,-175.46304,2000.90002441406
331,-14795.43,-199.29175,-15674.8955,7769.872,3413.761,-1753.436,21259.236328125
332,-1555.3395,-1600.4384,23237.586,4398.3,-47.5308,828.6236,25998.291015625
333,-13794.188,7040.335,14716.178,-7492.777,-1527.5085,-1128.1588,28847.212890625
334,-1681.1256,-4858.7085,-27319.332,653.3188,-4101.0493,7470.4204,28374.37109375
335,-17721.8,1579.419,-17309.738,154.08179,48.335117,-2538.6418,19600.15234375
336,-5717.3203,-5275.108,-7801.328,-2113.2107,405.85553,-2759.9,6496.3447265625
337,321.5057,10751.892,10261.497,996.6663,-438.31894,-8021.1304,17334.66015625
338,-4023.858,-10483.533,-5035.065,3021.5898,7490.862,-2681.5999,15922.306640625
339,-3776.9656,4061.8154,5425.4277,3107.4087,2712.4011,3113.6562,12414.462890625
340,-62710.066,-41241.516,-31678.494,-5113.117,-321.35767,-4945.683,30162.482421875
341,3169.2812,7608.327,11839.987,4161.9185,-2382.4854,-2555.6355,12040.9228515625
342,2140.9954,-5159.719,-9053.519,10490.993,-2555.5688,3015.0144,21770.07421875
343,2315.897,872.73267,11527.591,395.1412,-7017.906,-3376.9456,16812.634765625
344,12951.636,15023.305,11601.919,6517.969,12688.335,-4266.728,25960.69921875
345,-8492.448,-18233.12,-4283.1416,3465.9885,11661.728,-6199.325,26700.603515625
346,-9347.865,8649.679,9694.575,2445.104,-1110.7876,6318.1567,22027.333984375
347,111948.516,112039.336,111642.93,-570.29,131.72534,-974.1336,2000.98474121094
348,-9196.942,-7297.9746,-15998.529,4175.6216,1480.9114,3123.931,12286.05859375
349,-6970.6406,-1345.2979,-4286.3735,-1452.164,2279.2244,-1935.8823,7543.4541015625
350,-2691.9868,4103.225,-18672.297,6621.7124,7828.642,-5625.959,28644.251953125
351,-23128.78,-9952.638,-5168.381,16352.262,-2606.062,-9218.994,36565.98828125
352,-3827.2974,-4894.7114,3459.5752,6965.381,4727.628,-904.53015,16645.46484375
353,-1347.0278,-14517.252,-12428.845,8952.598,-1718.9641,-8539.022,24867.0
354,310414.25,310384.56,312289.78,17.313614,164.11244,340.58762,2000.96887207031
355,1300.7241,-1653.6052,8958.102,-2043.2711,2127.2876,-1665.9685,11154.0654296875
356,-26084.941,-14826.793,-12177.313,14391.393,2946.472,7638.321,31400.75390625
357,2132.153,-10180.596,6931.6455,7865.6396,1911.0676,563.3032,20766.4921875
358,660.1914,-10716.383,2885.1177,12387.065,1886.3788,3941.312,26024.681640625
359,-1738.3557,-8230.396,-5256.4565,8460.525,-844.0711,5168.6826,18130.32421875
360,-3366.9229,-2406.7559,-5495.0596,1190.3455,10297.657,-3882.8818,19367.513671875
361,-8934.587,1738.8398,-5939.912,4644.113,2638.0127,2304.2869,13872.150390625
362,5173.2676,6575.38,10534.11,2675.1707,1578.5862,-4141.365,10177.7294921875
363,9261.342,22186.006,16581.133,8989.17,2772.3354,14575.699,32075.63671875
364,5592.153,232.79492,-1613.3527,-2852.6614,-543.32574,587.8224,8268.0341796875
365,458.3418,611.86816,18871.8,-2553.7346,-784.197,10137.826,25806.74609375
366,6448.047,44499.83,38671.027,4013.9636,-2003.6862,9798.365,40106.3671875
367,-10860.071,-4109.616,-5870.169,-134.86395,2806.555,-893.73016,7928.728515625
368,-4706.3057,-25988.797,-30655.506,5759.6553,-770.9085,-12579.664,33912.96875
369,25417.322,-15835.037,18306.576,2208.034,919.44714,-420.36038,38427.55859375
370,11735.931,-4737.106,17456.91,400.37778,1909.9849,6392.9883,23073.109375
371,-17164.506,-35166.93,2216.9336,2203.9978,4584.1216,375.62335,33566.0390625
372,-4164.017,-8581.214,-11771.526,-10013.023,-4272.5244,6998.107,23371.943359375
373,-22103.498,-21747.467,-15845.006,-167.06874,-5156.5415,-910.2738,10927.330078125
374,-2869.3423,-1527.3104,-1229.9604,4083.28,-183.244,1098.4099,7485.205078125
375,1820.3777,-3285.79,3104.0137,-2261.5835,-2123.2068,-3767.6157,10282.4228515625
376,1313.2166,1627.955,1751.6993,-137.17122,969.60486,-607.32294,2033.88586425781
377,-5637.6963,-4587.1733,-13595.136,2213.291,5287.578,-6756.941,17559.16015625
378,-2798.0166,-6540.124,-3574.5369,6488.531,736.8174,-6848.623,16743.453125
379,4316.864,1271.4917,19182.143,-2123.9155,5730.5264,1180.82,19792.775390625
380,5342.654,3251.5146,6766.247,1919.3993,2307.9324,-1132.9749,6345.017578125
381,-15283.739,-3871.1582,-16822.531,-294.47012,-10316.07,-10371.509,28149.69140625
382,9058.76,-4588.3604,7384.153,1272.9457,3476.338,4708.7983,16547.77734375
383,331.87036,-3087.6133,1142.7087,2268.107,134.36948,5244.562,10636.0869140625
384,-534.7361,-10282.4795,-1638.5256,8699.41,-858.2012,-516.5274,17763.06640625
385,-4030.8955,-17858.52,-318.50537,4787.838,-376.40076,2534.1694,18568.24609375
386,-17834.588,-16643.428,-15809.431,-1500.5588,7332.1753,-5169.1064,15852.578125
387,-1179.9211,4287.672,5695.007,-1170.0504,70.09885,1478.8093,7088.8876953125
388,15984.098,20451.389,24026.44,124.93283,5172.171,2770.4236,12330.2509765625
389,-49799.62,-20137.89,-19601.16,3268.203,-377.53555,-5060.5957,31706.884765625
390,30738.057,36450.406,16250.612,5713.024,7981.1626,8161.732,28532.94140625
391,30570.232,41492.586,35795.72,-7159.5166,371.7784,8965.81,22019.91796875
392,15841.724,-4260.916,-22958.426,1813.6531,-2378.2986,2133.8152,34206.4140625
393,1470.1191,2618.9036,5673.9844,797.6868,243.91983,-483.03348,4117.064453125
394,-16476.96,-35976.344,2117.2324,-8585.719,844.03125,-3107.615,36616.90625
395,-3593.4395,12061.817,8360.456,367.8781,3561.627,-14913.318,30108.5390625
396,-22319.533,-24888.72,-12871.701,-11551.272,-461.6811,3319.913,23540.095703125
397,-8292.579,-32917.305,-32811.855,-7087.7075,-7090.812,-2087.188,30305.21875
398,22642.904,21686.494,-9643.195,8010.203,7143.449,1470.0151,36938.96875
399,-18029.684,-1929.6748,-12695.905,10379.116,3843.6997,683.2105,23889.0390625
400,-9495.0625,906.1379,7240.6,1134.1112,-1772.0034,2121.978,15523.6396484375
401,-19620.94,-7494.4375,-20798.36,-2823.2747,1670.1641,-3437.8196,15180.6826171875
402,-9431.559,-11318.757,-11341.652,1296.6306,-3127.8284,4131.2275,9444.578125
403,-4469.7573,-5122.4385,-783.9094,7211.6807,-798.1874,285.71713,13213.568359375
404,820.0408,-3485.56,-7024.125,-2843.301,-2543.3765,-16041.1,29358.224609375
405,1585.646,3065.2695,-4647.2617,-2100.8818,-1916.6034,-2635.6753,9765.365234375
406,-7033.246,-9580.387,1051.1636,5643.1675,178.50874,4994.236,16214.083984375
407,4689.5283,6525.178,2501.7847,-6161.8228,370.91595,-6159.6265,15501.990234375
408,-4927.079,-14943.621,-14764.181,4876.1104,-6191.979,3175.8398,17753.16796875
409,-39114.258,-31104.492,-22777.377,1921.2572,-4095.3667,-788.6021,16231.1708984375
410,-10325.579,-11147.602,-10332.116,310.26498,723.6559,-1106.4889,2490.6162109375
411,8295.135,5794.997,7988.0186,-424.70605,-614.1458,2501.909,5101.81103515625
412,44341.285,44649.375,43907.742,-237.20937,1028.2994,-286.6399,2000.98486328125
413,3815.3242,6347.274,31107.65,-2297.7034,-4158.5757,-1895.352,27580.349609375
414,7505.354,3775.333,14779.844,6272.5146,-2675.2156,-4178.438,16907.009765625
415,14813.529,6515.6113,20263.26,4273.2915,10156.996,7112.7295,25687.078125
416,2411.5798,-3435.54,5396.232,7632.007,2229.0723,-5069.2397,18091.1328125
417,-8911.324,-1238.5864,-5497.0396,-7118.91,422.85132,-5119.796,16599.4375
418,-21121.326,-23545.744,-15710.811,3175.9917,-3826.9697,-1401.9319,11329.736328125
419,-3057.3472,-8314.079,-4225.443,4693.151,7060.176,1101.5908,15559.9833984375
420,5223.578,1686.4392,4613.399,78.1327,-1838.1405,1521.1287,5274.60693359375
421,-2072.7886,-11833.083,-6246.329,544.8975,-6263.654,-3494.9377,15072.5380859375
422,-10596.912,-10544.895,-5056.2334,-788.0525,494.25024,-1464.9861,6280.77197265625
423,-43263.637,-47906.957,-37161.527,-4276.509,-170.1453,11672.67,23469.90234375
424,5569.3784,7192.787,17179.031,-3294.3313,-2076.1775,2095.7031,13313.0615234375
425,136.27856,-2973.1672,-6466.1978,1691.908,-1316.0582,-9004.341,17022.02734375
426,-36291.105,-20608.285,-44108.668,-9186.19,3651.0159,732.6055,26915.138671875
427,-6350.2617,-8091.293,6847.0986,83.06452,1948.2859,-3256.9963,15601.626953125
428,6927.0176,1731.0386,17393.527,107.80543,-358.63358,7133.017,18546.9765625
429,9852.66,11627.741,11293.359,8591.575,72.2546,-57.910946,14971.3193359375
430,5163.9023,21767.754,26697.309,-2056.836,-2770.9797,5182.395,22318.966796875
431,11000.33,9808.99,27643.648,1985.2457,9830.444,5909.704,26547.26953125
432,-6763.975,-11343.746,-18647.732,1641.5798,-3369.4866,2308.365,12880.3505859375
433,15224.4375,20749.793,-10376.936,10152.014,1301.0095,-704.565,33810.8515625
434,-6259.2544,-13734.134,-1785.9756,-961.5913,-7145.459,4778.052,18269.025390625
435,-5427.136,-2220.2441,-4728.967,4655.338,-2002.7134,-155.57568,9254.9638671875
436,-7938.4976,-10951.335,7418.2905,-13428.607,8471.205,-3388.6187,32892.1015625
437,-14903.038,-5741.416,-15822.222,-3895.398,-4486.267,1661.0743,14400.7314453125
438,419.0957,5240.566,7706.9917,7107.0303,-5872.3857,-7281.61,21337.09375
439,-3065.6538,-7431.006,5412.6406,7781.048,-2334.751,-1947.2001,18366.017578125
440,-32119.348,11065.36,-12209.449,-2532.627,1029.986,324.6804,37739.38671875
441,2639.447,-1089.1943,16749.23,5457.1553,3420.0178,847.2458,19803.62890625
442,17514.664,9768.305,20267.848,-6438.686,4589.203,-53.2201,16627.51171875
443,-10393.689,-4167.4253,-12741.574,-2186.605,1335.477,-262.52832,8876.849609375
444,-4570.6084,-9305.724,3726.0361,3852.337,860.2041,-6519.377,17458.21875
445,-2812.3018,406.69446,3962.4146,4452.904,-1864.0559,2320.7976,10978.0869140625
446,10666.538,15554.69,20158.668,1739.8318,-2877.398,-3672.0469,11914.9765625
447,-51043.438,-25116.566,-39396.758,5858.1157,-8279.482,-7924.2734,31668.125
448,-2679.12,4710.8223,3262.927,-1735.3752,-2529.5588,2229.6548,9442.0576171875
449,-6150.9053,-12622.118,-1709.667,-3542.525,-6667.2847,4384.464,17861.087890625
450,2969.455,3583.5237,3871.4417,2158.6194,-2042.8695,1804.2306,6074.650390625
451,3333.2922,249.99115,-261.96924,-938.4505,-1936.8611,390.95047,5069.740234375
452,-7514.1084,-1499.6582,-1053.5251,468.6498,1840.2885,-845.6794,7212.509765625
453,-5707.955,-157.79453,4152.064,-2785.03,3454.219,-1351.9497,11740.8232421875
454,-456.38196,-3314.1697,4754.583,4682.12,-2642.9202,-4258.209,13832.2734375
455,41505.83,26930.076,26331.387,-7841.3193,3906.3691,-7700.158,25092.880859375
456,13948.443,16216.959,18034.102,-3842.192,-3642.577,1380.8877,10118.4658203125
457,-14060.584,-8182.0127,-18364.19,746.9054,-3248.9644,2743.0457,11588.419921875
458,-12053.573,-4289.2637,-3882.8027,-745.2753,2319.1807,-172.08568,9027.5439453125
459,-3821.8208,52.45703,-10989.018,1227.1914,1698.7528,1580.1971,10715.0732421875
460,-5399.2715,-3411.0566,7408.0464,3810.3364,2097.6438,164.44304,14119.2822265625
461,-872.9213,-3837.82,-962.6539,1932.8044,1001.0142,-2459.9966,6395.36279296875
462,-7968.6445,-24861.469,1828.4834,8486.7705,2192.4507,-1200.2982,27958.376953125
463,-3662.6157,4498.836,-1465.5453,-3212.0022,5133.1934,-973.7734,12897.6640625
464,8495.069,-839.25684,13631.425,4887.395,333.12982,-2499.8982,15880.7275390625
465,2558.0747,-3192.7612,-11907.824,-13944.58,-2870.5327,2716.7207,28095.53125
466,-5322.9355,-11272.845,-5879.961,3042.423,-5855.745,3851.644,14406.2900390625
467,-2635.8896,-5600.542,-2586.8594,855.31134,463.36404,-717.3859,3649.60864257813
468,4201.7314,-2149.683,-171.41956,2399.2327,-2877.1506,3688.1045,10705.0693359375
469,488.15564,2143.8867,-393.07672,2480.921,-984.46106,4080.4382,8734.9541015625
470,-12171.424,-10049.653,-573.81104,4917.758,2024.8002,-589.4924,14152.52734375
471,10918.307,1254.0876,-1508.731,-883.8479,-5780.059,-3949.3613,16646.140625
472,-51702.75,-34260.73,-30602.078,-4019.025,6266.656,3667.1548,24249.51171875
473,-4807.5176,-6860.503,-5145.4805,-3904.7168,-2377.0342,-649.1479,8221.3515625
474,-13938.654,-5675.5854,5600.0684,1155.5485,-3210.5737,-2128.6719,18360.640625
475,-17482.047,-11483.212,-2597.5527,-1466.8489,680.38367,1656.6573,13576.5166015625
476,4816.3813,-453.4497,-1608.1937,1089.0328,-3020.677,-3958.8545,10636.6767578125
477,12717.914,8604.863,9608.987,9886.727,10690.301,-2202.9617,25776.81640625
478,49153.285,45784.445,29125.83,-9165.186,-574.34045,-1451.6238,24582.34765625
479,-3589.5542,-11983.831,852.4087,11514.628,3220.2317,13197.014,32845.625
480,19652.691,-2809.8235,-1736.3153,-9542.935,11527.585,-7635.5903,36446.7890625
481,-1538.712,-1018.55334,-1362.2101,5947.6436,987.1202,-3252.5276,11874.0615234375
482,2788.5425,-1645.228,-2577.5654,4082.4644,1990.8232,-940.0086,9444.673828125
483,4444.698,1763.0232,569.8202,-2656.5037,3047.172,-1514.4974,8229.3876953125
484,-4571.7173,-14941.186,-12169.778,25.010311,2035.5624,1751.9878,10397.564453125
485,2245.3442,2236.3896,2336.1936,1279.943,1076.9729,-1721.8065,4159.01123046875
486,1500.9314,-1384.7969,5289.1523,2237.0752,-2004.5056,379.37195,7817.2392578125
487,12875.254,1823.5938,20447.229,-5115.8086,3722.947,2689.663,20123.5
488,-355.0089,1278.1589,655.9626,3439.1523,-4276.4883,4122.421,11973.7060546875
489,3250.057,-1162.7019,2402.951,2058.5747,2805.7302,1904.2102,7978.69384765625
490,619.9309,-954.93195,-5208.488,-1960.3024,-7087.986,-3323.0435,14921.3447265625
491,8493.36,8948.377,8026.4854,-170.18594,1571.8414,-3713.23,7035.66796875
492,-13064.525,-18862.414,-19954.654,-9659.072,5765.1753,4241.938,21788.255859375
493,-9666.646,1013.43994,-4003.0166,-103.26168,-3665.6099,-5351.9873,14557.6884765625
494,-4183.202,-5559.8193,-1144.8699,4958.076,-2131.8005,1130.859,10321.1904296875
495,1484.7935,9668.277,8939.886,-99.02911,85.3282,-4320.796,10844.2744140625
496,-1942.2151,3587.8206,9904.411,-1506.0029,-1101.2292,-1957.32,11284.818359375
497,5319.7534,3400.5564,5903.1826,4225.9136,1155.7366,1156.9001,8169.509765625
498,-2607.684,-10606.898,-9322.438,168.14374,1720.0392,-712.0835,8114.4443359375
499,-10402.8125,-14897.377,-11094.069,-4660.1543,1089.4995,-6101.0166,14069.5205078125
500,-3722.5957,2829.8274,-1824.5758,1975.184,-487.32452,-1349.6923,7209.82763671875
501,-1468.6741,1381.4443,-3021.2346,3876.559,1177.2439,2385.5803,9015.1220703125
502,2141.6208,-1485.0208,7007.4707,1827.4037,-655.554,-921.2593,8266.15625
503,-14152.443,-4907.6846,17387.207,2315.0347,5640.032,3304.2761,30543.435546875
504,1875.8452,158.14941,1402.1024,-2649.5166,281.86526,-1496.822,5511.87353515625
505,-7335.1484,1042.647,-10875.145,-245.7158,2337.8064,4219.936,13504.70703125
506,-7919.058,-15.651367,-4510.1235,-443.40372,-1416.2582,-3488.3616,9500.2978515625
507,-1398.5492,-2391.7485,5593.41,-105.32775,-516.3486,2925.7075,9128.568359375
508,-1583.2782,3179.1812,3459.4656,3345.3154,1581.8944,1553.6442,8509.7841796875
509,-12512.633,-1639.1245,-4416.0884,-3867.2651,2450.7563,3431.4219,13926.9228515625
510,-1910.5208,-4128.709,-1852.0005,-876.9684,349.49777,538.17664,2931.92114257813
511,-6080.198,-9233.323,375.104,-7391.5747,-6381.202,5926.7866,21527.03515625
512,-1299.6848,-412.75104,566.21484,2013.556,-15.879115,-203.12221,3860.18920898438
513,-2092.3193,2243.1465,-1943.6511,-4864.0234,-520.00385,3328.6252,11099.5693359375
514,-2917.2773,-4919.8555,-9611.934,-4316.5293,1082.9064,1480.3168,10070.3291015625
515,-574.4622,-854.69904,-38.082306,1637.7871,-2534.4604,-170.63548,5284.07080078125
516,-2537.3447,-341.27197,-6003.71,1952.7563,3658.4114,1435.5173,9067.7802734375
517,-3856.3545,-11434.192,-7411.0366,2501.5034,-5618.0864,1899.511,12938.634765625
518,-2916.584,6154.5557,10055.293,-1264.9102,80.760025,3551.2092,13249.0859375
519,2610.9556,-9819.852,-8219.957,2801.2456,-5987.118,-2982.0698,17174.18359375
520,4582.1187,-1878.9336,11354.146,-852.6315,1622.8474,-2172.8984,12474.224609375
521,772.1305,666.01733,-489.91803,6812.1265,-1454.0049,2137.3303,12678.0224609375
522,-4080.895,-5864.895,-3835.821,1659.7511,-1282.8774,2707.6824,6235.07861328125
523,-2820.84,4010.266,-1434.4319,-726.4827,-621.78107,-1129.9917,6759.38232421875
524,1118.6836,-3628.711,-29.221863,4772.428,-2765.357,-2483.2422,11321.447265625
525,-4340.0767,-3244.6978,-5671.5796,2026.1111,-1724.381,2194.2302,6333.32763671875
526,-4439.2407,4827.678,2745.55,1673.3485,2547.643,-4436.065,12562.7978515625
527,-2863.3308,-897.5614,-2835.75,1637.571,-2021.3947,3901.033,8352.7236328125
528,-3331.9062,-6675.2744,7821.568,3096.6038,1524.1361,2840.2214,15257.9384765625
529,-13279.355,-13062.568,-19144.236,-887.7246,697.41956,-305.2193,6310.15673828125
530,-3177.1611,-3672.955,-2217.3682,1366.968,704.5356,-1288.9825,3704.35107421875
531,-13788.276,-9020.029,-6961.117,2208.3284,-2155.0098,2386.7278,9079.892578125
532,-5563.959,-8326.341,-12054.355,-3183.2664,396.27197,2535.2993,9054.3310546875
533,-8400.171,-4572.3687,-17428.959,3684.8193,-2692.148,-3433.4563,15118.6650390625
534,-2424.2163,-8691.427,-5169.8384,5464.8516,-1216.4479,2455.6968,11905.1826171875
535,-1293.0238,1375.9021,-7141.699,-4241.082,-4019.6768,2152.9382,13163.5478515625
536,-2817.718,63.552612,-1882.9891,-789.07965,781.1878,-1041.2179,3665.15185546875
537,-375.1023,3524.2446,3535.1616,-1272.8527,956.9327,131.60912,4786.14453125
538,1068.5801,882.0185,-3639.7417,-170.90256,885.93097,-1267.928,5346.9501953125
539,-5102.5576,-8841.936,-3723.0051,1300.9384,-1058.7982,-662.99036,5550.12939453125
540,-140.06274,1247.1083,7162.875,661.348,2407.6526,304.49973,8006.70947265625
541,-2211.296,1315.0946,-3183.7395,-2649.429,-3263.813,-1107.981,8573.7392578125
542,-1163.5192,5967.409,-1089.7267,1555.8373,559.0705,646.02094,7731.8154296875
543,13563.613,13895.765,21381.8,3640.3665,245.66461,1793.9172,10403.3564453125
544,125.96069,-2098.1914,1022.92236,2096.86,-709.8392,2072.6577,5944.4248046875
545,5378.8833,4316.537,7040.9355,-687.9061,-575.9182,-1283.1089,3607.00244140625
546,4924.676,1325.7352,-1139.2977,6.9908404,-2406.4336,-359.00534,6757.20654296875
547,-8306.866,-517.8611,-3409.206,-123.922874,1447.4324,769.32007,7390.16845703125
548,6582.3345,1390.3213,-532.2268,-243.19698,779.99585,316.45056,6552.71875
549,-5982.8403,-1433.9426,929.2405,-3211.654,398.67654,3955.3994,10741.6728515625
550,7297.209,3683.54,3753.5928,-789.3382,-40.492218,-1919.7635,5073.55126953125
551,-544.7277,-5038.3013,7745.631,1004.0015,1875.3606,-1510.9167,12107.814453125
552,2623.9631,1094.4614,5881.9316,2587.9348,-69.72716,-654.6028,6271.29345703125
553,-4778.0283,-3845.529,-11123.718,-563.3625,1135.8274,-1796.1165,7845.71435546875
554,-7501.132,-1935.5107,-4176.189,-512.5613,-742.41034,1059.9485,5416.47119140625
555,-205.50098,1336.9998,9746.019,488.63132,-2223.2925,-2692.4836,11106.556640625
556,641.72614,-2430.284,2983.3196,2169.4893,-174.93887,-32.513927,6027.33251953125
557,-5430.7983,2793.44,1112.6381,-670.1049,-760.0711,908.8784,7886.59033203125
558,3562.0322,3655.351,1083.3556,453.72653,1820.1416,926.6854,4417.74169921875
559,7741.3623,5281.3906,7563.0947,219.09753,809.99835,2247.88,4787.0556640625
560,1285.8053,-2880.6682,263.83563,1408.0305,79.38037,-854.82477,4722.779296875
561,-1151.733,-3668.6475,-3575.8281,3660.1707,12.317194,2367.5444,7944.59912109375
562,-9625.018,-7305.3926,-5299.9253,2799.6243,1618.4656,537.22955,6803.845703125
563,-4818.2856,-7682.666,-213.0586,4432.751,4524.2637,3422.8308,14075.01171875
564,-2859.2502,-2995.0627,-92.6405,976.40063,-1074.0393,1444.8236,4542.2041015625
565,-7682.6294,-2391.7388,-10018.359,3618.7476,414.96722,1628.4008,9672.8955078125
566,2279.979,1954.3756,568.2125,1020.5339,-1726.45,1052.1681,4226.85888671875
567,-2581.0486,-6079.289,-5778.6914,1273.2086,-2875.0186,10.274584,6398.216796875
568,2095.27,3514.7444,5139.1343,-2050.063,-95.0787,-3021.8887,6854.9365234375
569,-3648.5168,-8121.674,-7273.559,-4462.619,3444.4458,2114.9956,11211.2373046875
570,-2500.4868,-138.46211,1466.4592,-1798.587,193.7725,-1500.327,5340.04931640625
571,3111.8481,-1162.467,558.8522,3475.704,-692.852,-2432.808,8325.4189453125
572,3300.3604,1852.9948,-231.79639,3655.6096,2147.417,-1524.1187,8387.6181640625
573,1169.1932,5002.9043,1866.1812,-507.98395,-948.5756,49.027832,3998.97778320313
574,3399.0493,2108.577,-5932.4106,-225.71924,-3725.2502,-2466.996,11693.7158203125
575,5841.658,2644.9856,3775.5208,6525.76,-3967.1375,7174.25,18364.73828125
576,-1106.2971,7624.8257,-5024.785,3176.3909,7115.453,-12589.652,27990.271484375
577,5689.4497,6206.2324,-1748.0664,-2919.6094,4949.6934,1901.6508,13013.333984375
578,13841.558,26866.543,6781.204,-528.1604,1502.9739,2401.3267,18340.46484375
579,1038.4883,6351.8374,10911.934,-6626.2256,4193.172,-2637.9583,16691.3359375
580,20342.254,9902.169,13184.591,-1001.19147,-11254.838,6177.0347,24145.17578125
