Element Label,S11,S22,S33,S12,S13,S23,Mises
1,5640.877,5217.566,-965.0301,870.8258,6504.3853,-3202.0168,14176.5888671875
2,6039.243,10115.985,-6445.928,-2144.2422,5429.497,5279.1904,20229.666015625
3,4902.5635,19933.693,4551.8364,-1579.9758,5007.7163,1912.2831,18028.333984375
4,24695.734,26814.076,23552.436,3573.5532,9627.046,12537.546,28215.908203125
5,7287.647,16484.773,-5617.526,6696.1367,-845.0135,-10833.956,29301.908203125
6,-1100.2706,1328.427,-20842.4,308.9476,-2593.5752,509.11502,21560.189453125
7,28509.492,23759.953,34779.64,1491.3837,3692.1145,7860.011,18015.55859375
8,-397.42834,6263.417,-13801.329,2222.0747,2828.882,-3840.5203,19909.345703125
9,-4189.8813,-8549.532,-10339.248,1284.7379,-1662.1035,3293.768,8706.22265625
10,6102.51,13542.495,-19576.602,1884.7488,8228.656,7063.942,35627.3671875
11,10651.247,6638.0767,-6314.7754,-1341.2983,-1379.1759,-799.8844,15776.15234375
12,20695.332,13586.935,12317.882,-380.4229,-4271.1895,8767.518,18626.115234375
13,-11047.037,-10123.246,-17637.807,-2471.6174,3586.4197,-8763.404,18376.228515625
14,22000.75,4475.3726,22535.129,1152.9307,-1813.4175,5043.1694,20172.841796875
15,17586.89,12000.697,11532.75,-1656.157,-854.2144,-22826.25,40094.50390625
16,32598.104,46542.715,33621.62,5465.6,-2858.3474,10649.036,25210.353515625
17,-42584.67,-36188.133,-25012.555,-4847.52,9770.763,-10249.324,30155.248046875
18,3397.0571,-10924.269,-5766.3716,-10613.442,7659.0376,7429.9907,28937.32421875
19,12290.6045,9252.216,13536.892,-368.03848,-1246.9243,1981.3053,5605.28955078125
20,-26933.438,-6767.869,-7635.0923,-9755.573,-2398.353,-8490.716,30148.9765625
21,17802.332,19390.969,14237.913,3967.631,-12606.288,5727.7295,25363.23828125
22,-2774.5593,-7653.1836,3388.5796,-1667.8663,-19416.299,5599.2046,36403.703125
23,11083.668,9641.739,-3924.8154,2192.4158,-11035.269,7352.872,27342.974609375
24,15174.408,12917.948,25231.555,-7079.277,-11580.912,-588.7918,26128.001953125
25,3175.3499,5711.872,30533.56,-12787.065,-1629.5553,-4190.513,35166.54296875
26,6211.0054,5627.033,15374.979,-1037.3599,-6706.9365,-1038.6014,15201.4580078125
27,-8758.844,16930.877,16173.852,5497.7124,-303.38345,-2652.5425,27443.498046875
28,4654.4478,10528.791,18255.252,-2065.2856,-8101.6226,2549.9995,19204.337890625
29,10744.807,23818.006,5284.3237,1338.8097,-4601.7524,-9053.192,24225.974609375
30,-20002.406,9774.207,-549.1918,3503.6025,-14963.012,509.66904,37351.0859375
31,-19778.898,8262.395,12251.866,-3572.9363,-5821.5127,-6512.832,34370.3125
32,4053.7952,4084.4172,1077.3545,-1242.476,-7664.8315,-19210.166,36012.81640625
33,8400.153,6611.071,14295.449,4409.3813,-9193.285,12526.235,28828.798828125
34,-1517.8165,17846.328,22935.27,-392.68,-17541.805,-439.36902,37730.58203125
35,10833.6455,-1941.1339,-19838.9,3493.0276,2871.2703,988.11505,27864.501953125
36,21104.086,22112.922,30356.055,473.20615,-15208.524,-1205.494,27860.58203125
37,-8353.396,-2442.6316,-8285.085,1692.037,-12001.295,6090.986,24218.185546875
38,10961.867,24376.355,29538.178,4135.5933,-9422.917,4617.7583,25641.58203125
39,9009.649,16430.621,8165.6934,-7869.863,-8931.892,6362.445,24670.396484375
40,20806.557,17210.422,8738.172,175.0665,-18160.154,-1032.2955,33284.24609375
41,17819.941,21104.992,27647.576,-2346.7102,-7147.0674,7404.733,20232.220703125
42,30931.59,36526.56,24647.283,9211.385,-12473.079,-6134.5864,30661.669921875
43,174944.23,175411.69,177109.2,-98.08232,-136.66498,-87.02762,2000.29858398438
44,616103.9,618410.94,616983.9,318.01904,435.69946,-176.17215,2243.37744140625
45,356847.84,356907.88,357544.94,-45.19381,-711.97107,892.2069,2088.69140625
46,-47602.645,-43037.047,-65120.473,5141.4053,-2876.7468,10348.03,28863.0
47,21780.834,21927.826,20606.621,-110.64801,-685.12274,-573.0701,2000.77966308594
48,-38627.31,-30515.758,-48539.28,-6916.81,13190.113,-6750.228,32351.30078125
49,28101.475,36683.977,2141.8813,-4915.795,5927.648,11084.694,38947.0859375
50,8350.571,-4824.0947,-16689.83,-11945.277,-7261.5894,-8057.59,35379.79296875
51,28530.729,25400.348,49161.82,-563.44525,3008.1824,-1822.7925,23196.810546875
52,36366.582,26109.568,46584.188,3180.2634,-391.69238,-1075.5586,18672.998046875
53,-9350.284,14250.233,-6236.3296,-17.485619,-812.6048,1389.4591,22382.22265625
54,-391.28275,11963.076,-12066.284,2465.688,-11937.549,-3000.4358,30098.751953125
55,6482.3076,22935.232,-4952.3555,4171.6157,14499.561,1697.5267,35793.12109375
56,-12551.757,-6484.1064,6890.6104,5023.606,-877.2637,1240.0757,19480.36328125
57,-26326.953,-39209.637,-43192.996,-7308.615,-4993.1416,-2760.2834,22159.5703125
58,34675.977,33735.723,26149.404,11727.036,2514.0884,-4784.4014,23785.982421875
59,29676.139,9775.533,6697.455,4705.33,13754.968,-2020.5602,33362.10546875
60,19287.88,33222.027,17373.652,5183.3516,12237.21,-7800.454,30608.634765625
61,-1391.3182,13893.681,30118.432,5119.7637,13374.712,4207.145,37593.26953125
62,21913.535,1491.8253,16042.506,-2721.5327,4553.836,5364.799,22414.158203125
63,19880.738,26016.57,-1740.9579,-5734.6484,10535.046,-3463.6414,33247.9140625
64,-15853.357,-19160.223,-28234.729,319.06924,13166.466,-2318.792,25686.4453125
65,4913.326,2318.2961,6445.185,-1336.1747,10168.365,-5708.936,20648.84765625
66,19360.264,13174.848,25271.027,10936.428,6677.483,-7866.16,28070.7890625
67,-10277.889,16389.535,-11586.121,-1615.907,13387.129,808.98865,35988.78515625
68,27069.326,6523.2627,-4770.715,5080.9795,4859.978,-8102.9917,33571.1796875
69,-2682.2703,9522.515,27422.86,57.792736,10392.375,-253.41397,31812.830078125
70,9941.412,-7848.3545,27224.064,7754.588,5299.924,3471.04,34977.609375
71,-9204.415,9933.394,1541.5676,-8268.381,8487.685,6081.2124,28429.587890625
72,-9141.039,-19861.314,-17102.082,-6774.208,9384.154,14521.887,33577.82421875
73,-5189.143,-22291.002,-36235.66,-3383.4058,-7171.7783,907.4164,30274.12109375
74,4801.628,21520.182,20086.873,-3.2849782,-11492.661,-3979.5527,26483.125
75,-8931.035,2564.7507,15112.895,-7702.725,-2551.1868,-13951.22,34861.0234375
76,815.3988,-682.957,533.45483,-622.5741,-526.1789,-190.31215,2001.03820800781
77,2190.5469,1061.6251,512.67163,-362.98206,532.84564,432.62576,2001.01879882813
78,-62119.977,-37890.793,-45819.05,476.88928,10081.301,3631.8354,28336.66015625
79,24386.219,18156.133,25653.154,-144.81873,-15270.775,-2924.8416,27814.185546875
80,9230.35,23700.086,37543.28,-1024.3259,-7558.996,-8082.7505,31174.833984375
81,-8345.539,-3724.5217,-6194.014,-414.33026,2018.6434,10404.477,18802.654296875
82,-15819.759,-7219.7383,-17089.11,-1279.5618,-2735.89,2193.6296,11326.5703125
83,1034.4933,8722.749,-3321.298,4162.88,-976.3119,4961.1074,15500.21484375
84,23495.775,25347.57,961.7311,424.10928,-3994.4773,-6174.9824,26753.30078125
85,6049.9365,10558.029,-5998.8247,-3620.8003,85.80721,-1145.1162,16220.328125
86,4892.779,-7082.1475,-3309.583,4743.013,-1201.3943,-495.1607,13601.802734375
87,37016.676,24030.729,27845.814,-9313.8,1369.763,-7953.2607,24275.08203125
88,11892.287,1618.5096,35515.367,748.5629,-1463.5656,-14773.056,39612.3125
89,-36868.004,-30733.977,-50504.855,-8483.829,-8422.531,-11870.045,34039.328125
90,43243.16,36795.86,35501.914,13800.715,-5675.9336,1219.0083,26908.552734375
91,-36990.54,-50674.78,-49794.082,-399.814,-979.31146,334.84546,13404.30859375
92,41766.75,44377.2,43411.83,-2028.1572,-10437.057,9696.717,25028.82421875
93,31731.154,17653.059,4999.04,5929.458,-14276.342,4672.691,36316.3984375
94,-155.7371,4993.1494,18634.568,677.33575,-10089.987,-2118.8914,24558.2265625
95,10393.911,6026.3687,13308.468,-3844.7075,-11711.497,-4621.8154,23668.66796875
96,12288.673,4930.4844,8503.627,4769.1084,-8526.441,-14542.616,31006.697265625
97,17758.709,29021.521,7478.989,807.3796,-2787.0908,3636.057,20327.9140625
98,31006.545,32633.328,39573.016,-1939.2994,-1834.1294,-6883.1567,15020.09765625
99,2770.0479,4425.5415,3415.4927,-205.90483,724.1857,267.49762,2000.9794921875
100,67751.01,66518.96,99110.68,-6345.329,-145.56282,7952.702,36526.33203125
101,14601.177,-4001.6196,7821.753,10808.354,1716.8265,2018.9479,25247.591796875
102,19575.715,34132.973,53443.715,1943.6991,-7996.379,3263.1475,33181.83984375
103,-14509.849,5218.5146,21323.873,-7630.617,-165.41028,-1067.7448,33830.52734375
104,32320.73,24599.197,43992.086,174.18295,-8112.2856,939.20087,22048.31640625
105,-9226.562,-12506.545,-11292.838,-6547.4355,-10174.659,8804.999,26077.044921875
106,27896.22,38796.387,58310.402,-233.30086,-8297.172,-6875.2705,32570.185546875
107,3458.7854,7735.8735,33941.777,10774.926,-7807.007,1869.7899,36861.37890625
108,13267.838,15471.157,10436.501,668.1583,-8819.291,-9948.713,23467.404296875
109,-14387.501,-1809.1449,15572.45,3494.5603,-13239.724,-4452.6714,36068.71875
110,21894.436,18262.084,26898.334,1934.5391,-13913.141,-5470.1387,27168.546875
111,4949.0034,1707.7133,9449.688,-4140.8003,-9868.006,-4004.6274,20905.32421875
112,-12960.566,-7507.453,26082.996,1612.0658,-2444.2625,-1010.3443,37013.63671875
113,5586.884,15550.091,7499.222,-13232.292,-7764.8096,59.469536,28107.607421875
114,9575.838,-10680.418,-21849.348,1099.7479,-1903.6611,4603.5093,28972.03125
115,9488.138,-11842.482,-4308.804,-3251.185,-1493.1742,10221.253,26511.7890625
116,-20517.959,-11518.3,2660.0933,2675.3313,-6165.0767,-5300.643,25088.017578125
117,-10658.015,-41186.688,-14903.134,-10412.807,3672.9722,2048.5728,34623.18359375
118,-17551.764,-18585.045,-18820.193,-274.18317,582.03796,371.924,1738.607421875
119,504.68555,3710.3696,10982.611,-4161.0957,-2675.91,-4227.5786,14612.2314453125
120,-24117.023,-8407.532,-21717.412,-6900.7207,-11168.919,3406.356,27690.314453125
121,4297.44,4932.6597,4797.475,-449.42633,486.00815,882.55615,1996.79406738281
122,12717.552,5683.192,-10800.421,6419.432,12477.421,-6135.7827,33775.3203125
123,19018.225,25157.723,39571.996,-1720.6237,-18086.42,-1163.3491,36445.28515625
124,-1806.0437,6912.7163,-16795.152,-2103.8052,-17318.6,-2414.803,36904.60546875
125,25063.041,36552.613,49507.78,-1049.8206,6311.8354,4291.0986,25035.189453125
126,-4064.355,-12435.615,-16879.756,860.6373,16851.793,2092.3562,31533.095703125
127,42752.863,43704.6,42283.36,-33.589413,541.0559,726.00244,2008.96301269531
128,54514.145,55470.86,54588.656,-158.71837,923.1845,416.09604,2000.33996582031
129,308.5286,2948.035,26543.09,-6279.413,-13769.274,-6763.2876,38082.421875
130,19298.605,10769.695,27644.123,779.567,-853.34656,5726.8047,17775.3984375
131,-10308.216,-3708.1792,-7153.188,14535.761,-831.12915,3688.2295,26635.2734375
132,22203.566,1922.5399,46974.047,2560.684,-244.54158,-3916.2617,39914.02734375
133,4321.726,6720.1567,2367.409,-505.57565,-10502.721,-2117.9883,18957.98046875
134,16727.299,-2092.4111,5480.246,15818.694,-493.5334,13287.361,39371.2734375
135,-33456.703,-22299.443,-47363.88,-899.92505,-16449.49,4713.2695,36795.265625
136,-31649.129,-8595.317,-7697.944,5536.548,-16554.73,3849.7373,38878.91796875
137,184244.42,183509.72,183857.73,398.67,380.24185,-945.6241,1999.5986328125
138,-8083.3496,3135.891,2645.4214,5174.4883,-10062.984,3093.9832,23096.4140625
139,307567.94,307956.62,308755.84,29.577787,-638.0323,854.4109,2124.7138671875
140,237044.6,237459.81,238302.05,390.77905,1268.7161,-1298.6154,3402.60620117188
141,13366.888,9503.551,16096.579,-993.2593,8940.423,-11943.879,26526.29296875
142,4421.7065,-944.109,5770.199,-3093.5178,-755.2211,-9236.448,18005.630859375
143,6649.1113,22037.787,37046.543,-10016.776,7006.372,9591.986,37647.48046875
144,14966.341,15241.208,46813.32,3241.3923,10382.334,-2051.8157,37055.09765625
145,22801.03,3975.097,1435.4745,397.3884,2677.5496,807.4705,20799.369140625
146,29929.738,7813.5513,13915.878,-256.61984,7678.3237,3964.6904,24811.84765625
147,5586.914,4870.752,17903.646,8541.272,5808.2466,-6265.6733,24472.0
148,11928.161,-21827.877,450.56375,-6957.814,10254.009,5242.396,37774.10546875
149,26549.713,14161.886,54596.74,-8581.625,-2395.7192,-1936.0527,39203.71875
150,-52682.3,-42570.965,-49184.62,11251.56,-2107.341,-1115.1908,21816.34765625
151,19812.705,4900.0845,5731.965,1651.53,6080.145,19184.37,37866.609375
152,26685.99,25697.184,25791.625,-151.02109,-855.69403,-530.8694,2000.94958496094
153,-26336.797,-3932.1602,4004.4678,-5751.477,-7579.8345,2448.1372,32130.287109375
154,-12622.961,-23409.73,-29526.023,-11967.842,-9423.8125,-6663.2173,32388.984375
155,14323.508,2158.9102,-20527.021,8726.545,-2020.9583,-6000.7607,35879.41015625
156,7702.71,-7471.7295,13349.561,-1509.0504,2626.006,549.9843,19397.5546875
157,-4127.5806,-14120.769,-9511.061,3494.5483,1763.0096,2291.937,11694.728515625
158,24513.162,41660.824,63059.82,1063.7872,-2378.9265,-1914.9884,33915.7265625
159,37979.93,19661.537,23680.854,443.15707,-14257.331,-7269.5854,32357.923828125
160,-37677.297,-23579.885,-28996.898,1930.9148,-8462.662,-3884.9143,20567.6484375
161,20271.857,10844.111,14637.715,-4507.1543,-14858.447,-3550.18,28785.130859375
162,33574.453,54788.363,57551.59,-7564.7515,-14091.02,-3380.0723,36302.97265625
163,3542.922,9971.479,-19623.436,-10188.969,-8464.602,7208.678,37539.59765625
164,-2780.4778,16493.213,-17289.732,-586.9655,7435.371,2968.405,32480.1875
165,31605.562,40911.723,15908.327,2121.7747,1811.336,-6391.3574,24999.71484375
166,-33502.49,-13075.806,-35623.715,7990.425,993.47723,3960.2974,26582.552734375
167,20645.668,10828.97,20768.844,597.0733,822.39343,-10731.932,21123.765625
168,-2921.247,4277.1445,-4954.5566,-5520.335,6244.3335,-2292.2961,17168.255859375
169,-1444.7566,-13289.553,18148.44,-4932.738,3913.7163,-11109.573,35291.4296875
170,7176.7534,1552.0244,11634.869,8226.148,10301.905,-1257.4518,24550.51953125
171,-6809.9194,9626.725,-7471.29,-3991.503,7418.293,3954.919,23265.533203125
172,9487.425,-6065.535,-29790.172,3906.8708,6196.018,-3269.038,36969.76953125
173,11809.323,23678.143,-7102.237,-3125.3403,15540.061,1589.8971,38527.14453125
174,-53203.918,-51070.387,-41147.62,10164.746,3880.3071,-16546.674,36065.18359375
175,6669.206,17707.24,29662.219,4545.0195,-3033.7322,15322.437,34505.54296875
176,-2045.983,7233.926,-17718.998,10056.666,-1095.8276,7505.665,30874.28515625
177,23175.006,4123.6323,-10800.103,13279.711,6495.1553,-1015.7854,39098.58203125
178,852.5444,197.87839,-635.3972,-286.00342,-1702.611,-796.8414,3537.70654296875
179,-24293.416,-44238.777,-33718.3,2348.42,-2186.951,-16850.814,34371.59375
180,19380.537,49363.38,13112.718,-3014.1875,-7855.4224,1873.9769,36730.0625
181,-10952.222,-19268.574,-806.0893,4810.3164,8600.968,-14052.522,33767.6171875
182,10876.542,18138.193,4514.7666,3837.4954,-17665.36,-477.51898,33473.25390625
183,-1135.1694,-12675.683,2313.0164,83.99099,5345.467,7065.7744,20503.31640625
184,268.27127,-1402.7179,3362.7014,-2308.9524,-40.3223,2173.1562,6906.876953125
185,-13864.355,19335.441,253.51825,5112.38,2921.043,-1841.7468,30773.580078125
186,35.352486,19349.621,2650.5625,-2669.083,10831.462,-5187.1855,27989.708984375
187,14665.646,-10092.031,14616.13,5870.3286,6653.009,-6619.3706,31294.361328125
188,94969.984,91975.37,107620.01,-3469.8953,-3784.569,-8067.173,21936.271484375
189,7228.3877,18757.295,9968.27,772.5508,-5011.1895,-8965.612,20666.591796875
190,2443.45,32175.97,7586.3125,-2649.4348,-2147.8184,4133.3213,29046.728515625
191,-4162.0864,1203.528,10540.824,-2774.5369,-3274.549,-3199.885,15876.2470703125
192,-50301.273,-56316.574,-27692.227,-11594.966,-3193.4773,-5599.758,34804.4453125
193,-3884.0486,16333.512,18835.168,9488.225,-7540.1587,-9646.14,34429.2109375
194,2343.0623,-1414.4171,-9629.382,15218.38,-3659.927,7084.2886,31591.388671875
195,894.82556,14935.225,-5534.131,711.5663,16391.756,2745.5142,34043.07421875
196,40725.82,30538.803,47983.027,-10535.446,-12244.662,-5375.2153,33163.7265625
197,2302.141,-13318.902,-3513.0264,15395.842,9318.88,-5668.5283,35426.13671875
198,11228.808,2587.7388,17493.412,-11568.37,-6682.1934,-4285.075,27542.123046875
199,20580.518,1641.892,-13087.03,4898.024,11002.322,-2264.49,36125.71484375
200,7103.5127,-5658.725,-15090.868,9273.195,-7002.3896,-3163.5696,28413.318359375
201,2436.2712,-15699.083,-27263.682,-2951.098,-8120.503,-4093.1584,30766.46875
202,23813.428,13801.116,1012.7588,11867.733,14355.235,-4080.02,38503.46484375
203,3779.999,-2131.1682,-15614.299,8437.648,-577.22723,-1970.2467,22861.859375
204,6765.7837,-7206.8477,-12410.782,3513.0852,7925.152,2680.838,23281.7109375
205,24606.486,7212.8286,8606.242,12582.521,-16645.084,222.0023,39831.24609375
206,18941.824,28976.617,22601.145,15418.745,-15659.295,-2304.1807,39270.19921875
207,-4746.3677,693.3195,-28805.701,5651.7725,-8432.9795,11258.712,37799.01953125
208,-11905.024,-13201.539,-13476.3125,9927.363,-9077.722,-12642.681,32007.7734375
209,27933.227,10383.214,13834.389,11609.15,1623.6112,4282.581,26955.376953125
210,35384.83,42125.523,44432.04,1190.9934,-4864.895,4195.589,13941.6796875
211,13342.48,3607.165,-1678.9077,-2996.3945,-12669.371,1110.7756,26198.3984375
212,-5504.0464,-9248.606,9025.734,-1843.6085,-738.48346,7445.63,21393.6640625
213,756.6426,2475.8264,1854.3959,5920.7437,-829.436,5397.616,14032.30859375
214,654.731,2.4804327,-230.90114,494.0467,909.35803,-230.05699,2000.98522949219
215,39660.043,32755.652,56932.344,3222.5132,2632.736,16106.611,35992.6953125
216,12374.829,8371.137,4629.325,-6442.262,6534.1455,13319.398,28806.669921875
217,-11645.5,-15158.919,-14224.102,1555.9823,-2130.13,19145.283,33621.9375
218,12639.047,20919.432,26258.355,-6594.281,2832.3967,14805.3955,30877.134765625
219,38811.71,33443.434,63483.332,-5124.1826,5876.002,11138.591,36393.81640625
220,6113.118,-10970.138,13246.404,5487.995,-863.77673,17861.732,38913.984375
221,-3027.8655,-3695.2615,-18071.914,-808.821,-908.5063,20498.328,38493.0078125
222,6927.738,13249.064,5685.4785,-53.937107,-2556.6255,18574.107,33225.97265625
223,25560.951,42206.54,37000.383,-1983.0349,5308.6,9333.587,23983.5078125
224,6567.6587,83.24529,-2390.6372,-3993.2017,13959.247,802.6388,26430.30078125
225,-706.4965,389.91904,-20689.012,-8750.14,3844.6443,12818.967,34488.09375
226,-11356.964,-23218.27,-11097.546,2633.8044,6828.3696,15243.039,31647.689453125
227,-37413.48,-21593.71,-59898.227,-5821.1074,497.39005,5782.655,36252.5546875
228,2069.5793,11054.655,-7471.905,15241.158,-4246.9976,9472.204,35744.37109375
229,-16092.406,-25712.537,-16366.568,1804.2377,2614.757,3920.571,12898.6015625
230,19636.314,2670.915,42093.43,5861.1416,2217.0771,1919.7751,36083.2734375
231,-5030.999,138.53969,6993.425,-1097.6917,10942.306,-11075.829,28982.564453125
232,-8341.769,-27245.312,-15849.41,6310.148,7836.515,5897.141,26073.037109375
233,5892.797,8338.041,3563.5361,-1660.4355,13590.913,2079.253,24340.912109375
234,32855.363,16267.722,367.38095,986.7638,8541.265,-11147.575,37233.12890625
235,11720.655,-13816.373,-9194.815,-1471.7726,6812.6753,-11371.151,33001.86328125
236,28739.887,12353.861,-4145.9536,-11340.4795,4867.2427,8092.671,38268.46875
237,1179.092,5307.3223,8110.543,-6537.7036,6312.07,3399.2273,17857.443359375
238,1579.8605,8480.28,23721.947,-5989.087,4701.9946,4596.59,24948.302734375
239,-33257.95,-7904.672,-14875.304,-3402.1865,11766.504,4220.934,31908.861328125
240,11630.827,2462.8716,20326.938,-1493.0535,2757.483,-11368.395,25624.58203125
241,2796.0269,-14713.971,-30784.494,8547.647,692.09717,-4826.0176,33715.75
242,11520.408,-12857.344,-9837.609,4912.158,11749.044,4810.919,32950.296875
243,-4439.235,-152.70563,-12109.446,1147.2668,18822.576,1239.9125,34373.15625
244,27333.729,9255.595,11315.715,-906.41766,8179.9355,-9916.128,28142.626953125
245,16730.89,5547.786,23505.818,3686.3933,15510.399,9595.716,35853.109375
246,30010.809,-5513.5376,1383.528,7623.3633,651.26587,-3444.248,35717.54296875
247,-2450.1538,2708.7854,24107.453,7777.8423,5810.3154,-5416.455,31075.55078125
248,895.5946,6341.8984,-1181.9921,-2747.9546,9767.283,9450.592,24941.693359375
249,-1893.6826,-24016.602,-10077.347,-1285.2424,16975.928,5964.973,36764.03125
250,22681.94,11104.522,46830.27,6073.056,480.07623,60.108547,33288.1640625
251,-19291.99,-20290.42,-16332.527,-4962.2583,8100.823,4381.8467,18467.642578125
252,-55647.535,-52938.28,-49412.79,4421.6704,15761.002,-2360.9985,29153.466796875
253,12618.729,-580.86633,9909.454,-2589.4282,-5115.539,-1823.8019,15950.189453125
254,27098.135,39858.113,24261.822,-638.75433,2029.2438,7278.352,19482.138671875
255,17439.514,12112.082,19326.092,1602.5013,-12736.77,7690.195,26716.822265625
256,-58155.066,-57637.52,-59699.48,314.79395,78.67904,-280.30325,2000.9853515625
257,18964.287,18799.148,17003.902,157.45775,353.42188,52.2753,2000.98522949219
258,-16786688.0,-16786652.0,-16785398.0,488.2097,415.69626,-619.6572,2001.08410644531
259,365138.16,366254.3,366649.9,482.5216,0.1524813,697.9936,2000.97729492188
260,50486.824,50325.03,49549.754,221.46895,1002.7056,-171.14923,2000.98559570313
261,63491.6,64558.54,64189.832,-331.38608,862.3851,427.58432,1997.49145507813
262,-1111502.2,-1111049.2,-1113084.0,269.1564,180.56078,297.3011,2000.99499511719
263,7747.4277,8318.173,9196.272,-463.27478,695.88336,321.10846,2000.98559570313
264,-32011.836,-50443.895,-39652.24,6512.803,6266.3125,8516.81,26831.8125
265,23230.041,6969.2437,-15511.616,1487.2668,5577.1455,-219.92703,35149.02734375
266,-138387.17,-134985.19,-147546.58,-2935.295,-11498.862,-12451.46,31847.517578125
267,35276.164,15964.853,33080.125,1330.1344,-1322.2001,7664.797,22850.3984375
268,-9107.92,434.62158,-5383.93,6925.6777,5687.5645,-3466.3489,18611.25390625
269,20883.855,25964.06,16351.418,-2259.034,-10610.4375,-4471.651,21964.015625
270,11234.77,19970.24,20097.8,-744.89026,12710.944,143.57108,23745.94140625
271,11802.316,19243.416,599.0348,-3531.7896,-9567.768,-8653.368,28300.841796875
272,18559.164,16938.49,9192.918,1741.2794,-10933.008,4898.722,22690.396484375
273,-1509.3486,18071.637,3703.7192,899.31055,4435.7124,11201.262,27319.8046875
274,2242.2751,-24736.727,5846.7607,3289.6843,2169.7776,5305.8037,31131.154296875
275,2619.1494,-3505.381,-18814.697,-2160.37,13985.299,4410.3003,32011.982421875
276,-8812.631,-11163.489,6385.717,10840.198,1526.8982,7836.0938,28565.408203125
277,26675.21,9107.782,15630.503,13042.849,5107.479,-394.1779,28734.0546875
278,-8950.062,-25171.34,-29568.691,5038.7593,8986.564,-3692.6968,26704.82421875
279,892.35596,21961.594,3200.5547,1179.3433,2583.5996,-12163.034,29472.43359375
280,6549.364,6676.3643,19138.74,-5668.01,17098.668,108.21434,33621.67578125
281,-4211.843,-5563.162,17965.455,1245.2922,4322.309,-10379.756,30125.478515625
282,9011.631,-13319.013,-7721.709,-3272.0256,5099.204,5251.205,24450.880859375
283,26421.809,20596.469,18787.559,-934.89905,868.5932,13961.076,25246.08203125
284,3278.091,-1368.83,14462.385,2968.1272,-445.46786,19809.562,37455.78515625
285,14297.654,10332.113,-13337.964,1024.0201,-7081.505,7002.489,31153.751953125
286,-4573.7046,17092.75,-11184.392,7385.921,-5118.4966,-7870.1807,32930.80859375
287,-11274.668,-1741.644,-482.0501,2331.35,3954.567,243.56235,12956.55078125
288,24702.723,25126.842,19016.562,-2750.1934,-11350.282,10433.71,27761.271484375
289,12949.575,-9827.144,-12576.304,-1233.0417,3138.412,4296.457,26046.92578125
290,20942.178,15082.159,-14711.066,3526.4546,10328.766,-1410.3042,38208.50390625
291,23892.725,4912.996,-11302.33,-76.37692,8341.035,7285.419,36040.21875
292,16877.973,4021.3625,-1902.1372,7559.526,3056.76,99.1323,21818.26171875
293,9118.498,1061.8712,11711.144,-2485.627,17208.152,-8484.855,34862.5
294,-4502.5615,-7582.2646,-19650.004,7457.371,13373.491,-7838.205,32863.0546875
295,855.8086,14052.26,-1181.3334,7288.7866,17124.367,-5250.1865,36427.7890625
296,19749.822,-3194.7473,8658.83,6903.1113,7227.0684,1150.3892,26431.154296875
297,8471.281,10287.115,8739.09,-127.65034,-221.75877,554.9344,2000.7373046875
298,6623.9453,4672.316,3062.699,-3910.8079,-153.31372,16983.896,30345.560546875
299,20477.027,20320.064,31558.719,-10586.858,9597.401,14922.622,37485.95703125
300,21089.043,10022.793,15331.019,-5007.516,-955.4694,8395.581,19527.384765625
301,9558.604,20321.627,10385.7,-5067.436,4807.5737,2121.7312,16355.5791015625
302,16375.779,28128.418,44251.07,2200.5234,2880.2434,-3091.6064,25605.400390625
303,-11624.668,2504.56,-9138.893,-10292.268,-8148.415,-16093.501,38271.09375
304,382.20676,12915.803,10338.109,1562.5919,2424.2703,-8920.62,19877.537109375
305,-18385.469,-9425.539,-7706.081,7924.573,-6732.026,13308.846,30892.982421875
306,11299.278,5477.415,-15006.421,7342.069,-8308.334,906.9914,30724.693359375
307,22316.936,22460.242,22221.943,-243.6446,-911.34406,589.8114,1938.17907714844
308,18997.95,47824.605,15025.743,-5909.8604,1051.7383,-1723.899,32837.0703125
309,85069.98,84304.914,83241.484,464.23376,383.30792,88.83984,1908.08410644531
310,1801.1963,1683.568,3500.85,-112.43582,-387.66525,-370.84482,2000.98547363281
311,7309.6685,26008.37,42774.99,625.9364,-7890.0293,-2715.7312,33975.484375
312,20375.082,11175.323,13311.812,4328.3184,9174.732,4927.2734,21239.33203125
313,-238.05078,-8557.786,-15238.509,-4440.7803,-493.82928,-512.99713,15169.5283203125
314,19935.092,12925.464,10501.207,9757.283,-5512.7285,9143.314,26449.76171875
315,17188.512,8046.9805,-7155.6084,-3366.3757,15327.153,8347.346,37436.0546875
316,28361.408,-4995.729,-512.62976,6493.37,2726.048,987.63916,33689.24609375
317,38296.562,32752.398,32582.496,13457.753,-1860.9247,-7859.235,27762.091796875
318,-16101.644,-24129.78,-25479.299,8052.808,3907.887,-12935.995,28626.630859375
319,1160.75,-11796.387,-32587.33,4904.7085,-4759.4106,-4739.4087,32818.4765625
320,-8989.907,-13475.47,-37752.785,-2376.5522,-8174.261,9381.46,34638.71875
321,-3522.1746,-8713.344,-17428.844,5034.2334,12526.7705,-10768.539,32292.826171875
322,12784.861,14046.915,829.8879,1116.4708,-7835.7075,-1163.1628,18750.875
323,6985.5254,-12489.656,-24813.441,3691.0615,37.510532,-2601.5752,28850.421875
324,-8374.682,-10018.772,-8768.447,-536.0452,484.12482,-275.3748,2000.83923339844
325,17182.482,7079.5547,28834.951,-4316.14,-659.0344,-1843.2395,20565.89453125
326,16793.062,22740.023,27102.791,-4820.2754,-1939.2534,13945.639,27290.56640625
327,25952.488,31785.768,60379.01,-4153.5303,-2644.6233,7773.0293,35670.5859375
328,31180.2,20125.057,37658.16,214.42119,11448.673,9641.248,30133.20703125
329,-2904.543,9358.513,-377.22433,-2108.5166,17186.002,1404.987,32110.943359375
330,14426.344,19837.76,10065.469,3075.5754,14394.104,-5108.826,28286.880859375
331,-15351.063,-9410.078,13049.427,2488.6108,-9076.269,-3723.9666,31312.546875
332,44166.035,22651.004,9210.694,-2156.1145,2769.0176,-7233.4316,33565.21484375
333,35632.902,20611.12,11533.967,-5661.851,3993.0537,323.8547,24263.58203125
334,-14470.766,-26659.375,-24187.123,-2465.4148,-4224.553,-7926.6294,19616.591796875
335,87910.88,88087.79,88975.086,758.81085,396.85776,-525.52277,2000.98791503906
336,-166843.86,-166453.9,-168266.78,292.91586,555.2953,159.91516,1997.70349121094
337,33128.4,8156.406,-1515.5465,-3483.2583,11576.255,-5160.0645,38431.52734375
338,3997.8933,17605.61,-13391.563,587.7777,-11207.321,1529.1796,33302.515625
339,370.11984,27164.11,3763.6846,-9062.051,12429.85,685.4654,36739.38671875
340,12798.759,14865.501,47729.805,-1352.0059,6684.683,-620.578,35957.61328125
341,-2042.1736,-27086.932,5006.254,-3554.101,-7045.0625,-3733.9568,32894.79296875
342,19875.926,26207.064,1861.8634,-10327.24,-5183.5923,9906.189,34257.87109375
343,16656.832,2315.6277,-5441.236,2838.9426,-8558.967,-4392.133,26055.724609375
344,11514.219,-3102.6492,-10611.059,5842.7983,-3149.6033,-12545.195,31370.353515625
345,10498.38,4917.8394,13077.758,-1738.94,-18473.307,-9244.892,36625.87890625
346,7761.148,-10626.485,16397.965,4923.037,8927.119,2353.0283,29998.498046875
347,7435.704,16312.431,7585.1777,11988.146,-4189.8125,-14912.3545,35049.0703125
348,7358.042,2909.604,6729.3247,-168.6979,15155.551,10370.637,32081.06640625
349,13753.695,2465.7893,17425.51,11447.946,10483.53,-14448.348,39134.2578125
350,-11533.114,-18571.766,-20484.416,-6979.2173,-4795.3857,5501.396,19302.201171875
351,3485.584,-4087.116,4504.7407,2161.2053,-6905.596,-13614.473,27914.8359375
352,8526.413,-10052.211,-11049.383,-5340.0723,-16205.581,-4453.223,36022.09375
353,3244.2002,4862.691,-94.32182,9179.168,10324.418,14950.52,35528.5078125
354,-993.38477,-6988.552,-29897.662,-982.6084,-3420.8254,8946.149,31244.466796875
355,21147.773,16372.485,22183.084,-4833.665,-573.4761,-2674.6494,11016.3505859375
356,14946.0625,11660.947,12127.577,-420.12427,-13797.932,5975.0,26234.650390625
357,9900.074,6336.6914,9974.454,-3060.7664,8591.102,3879.4001,17539.767578125
358,-1121.7227,501.26453,3208.8687,-4088.822,857.74243,3250.8042,9920.9560546875
359,635.02734,4954.4736,511.34888,3793.396,-630.12695,783.10126,8087.49755859375
360,3997.4316,6513.208,-4833.077,-8507.509,-1746.0236,-1592.0084,18450.06640625
361,2227.6304,1245.0022,9613.042,-1925.3469,-55.034836,-551.8679,8649.3134765625
362,68338.78,63679.43,78684.63,-693.68585,-19142.406,-6570.5254,37512.734375
363,-3023.5615,11841.483,5769.7563,-876.51666,1904.2153,-5399.473,16377.5703125
364,-3310.492,-5014.536,-9121.13,-378.3153,566.22424,195.60179,5317.111328125
365,7629.0674,5732.206,15209.109,-8685.41,-1269.998,-2656.5337,18103.939453125
366,14973.09,-1255.1606,-1245.0962,1342.2068,-2257.1372,-2488.3691,17391.302734375
367,5487.0186,718.21704,1413.5704,2299.9731,1254.8446,1919.516,7180.26025390625
368,5112.038,-5673.5005,-4609.617,7394.8325,486.32776,-1249.575,16596.072265625
369,4272.4365,-11661.278,-8093.7627,1979.6705,-3019.9778,1611.5143,16021.1015625
370,-835.084,144.05713,687.61896,3377.3552,472.46188,58.462376,6056.888671875
371,3978.7832,7593.307,5669.9346,2753.6562,1132.3694,176.80348,6041.56396484375
372,-101.757935,-868.43604,-3793.7136,2796.9365,-666.7379,159.58638,6022.1572265625
373,-4942.1533,-5383.1787,-8637.101,-2932.5295,1093.5554,450.3146,6497.13037109375
374,-30631.904,-22990.736,-29693.115,-150.73071,227.38383,8338.374,16152.5244140625
375,-7139.059,6438.189,5690.2407,5424.7515,-1028.7999,-1520.2888,16526.9140625
376,-6416.454,-3846.976,-3889.0312,1724.3243,-691.147,-2698.0562,6219.91845703125
377,10298.217,13322.5625,11125.3545,2965.998,129.06473,-610.52216,5906.681640625
378,6724.9707,-1981.8638,10819.586,-9509.987,1242.065,-4658.847,21663.064453125
379,20892.043,973.73047,7235.9326,-10447.062,-3651.4458,139.46979,26051.921875
380,-5271.4473,-23250.08,-10462.389,-1884.6442,3418.1409,-1773.2034,17663.25390625
381,-6118.4688,-16036.242,8225.514,9727.287,553.4118,1523.4208,27168.25390625
382,906.9877,-791.4946,8047.7,3360.767,-2783.966,1835.9592,11543.4345703125
383,-1685.4727,-4605.155,-2917.6257,8536.976,1743.0435,-2577.2966,15941.36328125
384,1539.512,32.39868,210.97815,373.77982,1209.9485,356.24185,2688.1083984375
385,3877.5156,-8196.627,-247.66943,4111.641,1243.4412,646.7132,13023.20703125
386,1158.5021,5112.2456,3139.6511,-1751.355,157.64645,3005.3296,6935.15625
387,-3012.3027,8298.027,1528.4119,-5811.988,1369.7072,-1502.8911,14523.3125
388,-2005.6978,4267.332,6543.498,-7918.043,1348.614,-4575.135,17752.41796875
389,3501.267,-2630.0469,840.0021,-8817.165,-3809.1191,3321.2683,18390.380859375
390,-1584.5288,734.7931,-414.0472,-2562.4463,767.9425,-351.9325,5086.62255859375
391,11934.156,-6695.371,-1803.0339,1484.7129,1274.9258,-4921.0195,19078.548828125
392,12097.339,2221.0732,4987.6416,-6478.476,1274.1534,3861.8025,15918.3564453125
393,10550.961,4620.913,6616.1904,5792.8423,-1126.6241,3914.852,13333.1025390625
394,-9876.147,1875.2046,-7299.8633,2708.3555,-5058.8667,-6932.5425,18905.53125
395,5111.088,10173.923,7482.7456,-1480.3569,623.4107,3368.9817,7812.81982421875
396,5917.3154,17648.123,-6348.8315,4477.0625,-1164.1721,-2409.3674,22662.19921875
397,5260.8057,-15227.866,14.100586,-2597.955,1044.2097,-4623.5786,20675.28125
398,21680.643,7.3745117,-350.33887,-4310.6074,2479.1907,4865.9385,24956.4921875
399,9526.914,-19425.023,-1272.6235,-2825.529,-6312.6465,-12.237023,28029.9296875
400,-412.20166,696.9082,12611.174,-1548.7687,-14861.222,-9017.3955,32712.353515625
401,-12251.803,-1789.6934,-21235.883,2376.787,-2893.0176,-339.08395,18071.048828125
402,-15890.709,-3321.0508,-12360.5205,387.81906,10603.147,3540.8694,22392.6328125
403,18725.61,-1998.0381,1751.0273,3211.5972,-1847.6776,-2780.853,20741.623046875
404,2139.6772,1310.0796,142.27808,4016.961,-3280.2397,-2639.1875,10227.6376953125
405,6996.757,-2869.3672,-2896.5574,4984.2256,1317.366,2230.2083,13865.95703125
406,6542.2295,-7376.5,2061.6077,-3718.665,-2305.9814,-2460.7727,15068.0693359375
407,-7057.449,-9494.567,3382.7534,-7390.083,409.48117,4140.227,18871.90625
408,-2095.079,-12954.238,-5458.5034,-10531.092,183.6456,1040.8179,20706.828125
409,593.79236,-161.50842,-4616.6577,-166.2442,2969.1785,1698.967,7679.4697265625
410,3352.5017,3536.8113,7828.3857,2451.2808,-2991.4258,-2777.4136,9341.1376953125
411,-3074.1035,-9145.236,-9361.433,-1920.0543,358.0696,-4625.135,10669.4912109375
412,610.3247,-8674.141,-6716.575,-6775.633,-5626.5684,730.37665,17497.462890625
413,6235.4175,-5362.2163,-6654.765,-5120.4395,-4109.9287,210.46935,16752.02734375
414,10750.312,-4409.087,3639.0222,7871.074,3234.3203,656.84564,19776.58203125
415,407.01532,-4372.312,2701.565,9147.385,-6098.2734,-2099.5469,20368.80859375
416,4946.7075,1496.6267,4959.2104,654.4835,221.92632,-4944.6626,9312.7978515625
417,4634.286,-2933.939,-8547.877,3032.2644,-7538.7686,-4615.951,19831.435546875
418,1118.5721,8653.911,-7539.927,-8291.748,734.7833,1957.4192,20405.125
419,-1490.9924,-1039.8816,2037.997,-5318.9907,-3462.5886,-2582.4377,12325.4130859375
420,-3466.492,-833.75244,-7956.7793,908.8749,-597.4738,-636.43427,6609.08349609375
421,11943.018,4887.077,-3252.169,4212.157,2349.2244,-2032.7535,15988.8486328125
422,1760.5498,2007.2516,892.4054,-3296.2603,-1246.1335,204.63728,6197.48974609375
423,-9262.116,-2671.8396,-2584.1814,5170.6567,3270.1072,4747.6655,14964.15625
424,-14139.492,-6192.632,-30984.727,1423.5156,13172.966,6727.8813,33811.75390625
425,-11151.48,-1238.4368,4802.604,5449.4946,3003.0393,1706.8785,17875.505859375
426,3431.9736,3958.0854,-1915.4801,-79.41673,3790.8494,-1500.3077,9031.5400390625
427,2839.879,1114.991,4794.9863,-2116.2073,-3931.7764,2820.1052,9687.1357421875
428,17525.941,7401.526,9764.929,8327.936,2956.1672,5043.434,19868.326171875
429,-3518.7104,3246.7344,-2266.5713,-2194.6143,-1693.0752,-202.7537,7876.525390625
430,-12102.401,-9812.186,-8385.41,1138.7559,2975.909,1866.0361,7173.07958984375
431,2261.2534,4499.9927,-1597.7302,-224.88805,4908.7344,-581.72943,10099.353515625
432,473.6858,-9376.641,-2028.2329,8656.169,-2656.2688,161.2313,18018.791015625
433,6191.95,-2206.1155,1582.7953,-769.8307,-205.80637,-1644.3767,7942.33837890625
434,4502.037,-7047.1704,-18096.021,5295.7236,6245.139,-3997.8364,25142.677734375
435,-1435.6172,-4801.2993,-6917.8125,179.24545,79.999,3933.1987,8334.068359375
436,8201.592,-4331.3916,-5338.573,4560.7456,2034.7266,1732.6846,15954.34765625
437,1971.1573,-16704.508,13383.107,-11289.696,2761.114,2134.4165,33332.3984375
438,3496.9036,-1614.9316,2108.4338,7232.38,1259.5604,-1046.7761,13635.60546875
439,-4241.4434,-9108.586,-8076.9795,4927.0347,42.025654,-2414.5566,10490.7041015625
440,547.2635,5267.772,-477.6911,4688.2896,503.66855,-779.12555,9833.3291015625
441,4721.4375,-600.09625,-834.99744,-1979.9331,2856.1094,-556.1296,8172.1640625
442,1500.3215,6534.2803,6856.0776,-5090.5176,2309.834,77.53255,10992.1953125
443,-316.51495,1435.7487,-1655.8652,-4781.8765,890.5039,-676.49304,8919.7607421875
444,-6231.9146,-2866.0212,-10210.697,-4322.963,-1914.9988,-5657.067,14269.7236328125
445,-3842.2625,-1265.4872,4929.872,-3508.5693,-377.27036,546.0268,9961.822265625
446,-13689.675,-2866.69,-14383.246,1367.8031,3485.956,423.9888,12951.146484375
447,571.912,5125.2964,11184.188,-3234.894,2684.3396,-1250.276,11947.0576171875
448,-13116.776,-7344.4033,-15854.389,2389.8252,-243.62799,-1088.8567,8802.6142578125
449,2789.3662,9798.874,20331.18,-94.83947,-2277.3616,1329.3058,15961.7099609375
450,-7608.2383,4373.871,-2459.5679,5785.582,-4226.731,-2272.7444,16670.2890625
451,-5701.245,-977.6405,-3405.5898,1192.3862,-4986.724,300.29163,9791.671875
452,-1869.6241,5652.583,237.76062,-5344.54,-2750.8445,981.068,12508.146484375
453,2476.3818,205.41034,-1187.9899,-3916.018,-1165.1385,-1632.2675,8266.4609375
454,-3311.5876,-733.33246,-443.28232,4391.8804,-4082.5276,-3417.3608,12263.0078125
455,883.54913,4020.7788,13143.979,-600.9465,-3413.9368,-487.95755,12588.056640625
456,14068.968,11207.273,21841.99,1501.2703,-4334.576,605.53394,12453.1240234375
457,-4544.033,-3980.7703,-6696.4497,-7291.2944,338.4426,676.5458,12937.087890625
458,12101.171,-3999.2817,831.6892,4290.65,-512.0829,-798.85266,16208.400390625
459,4965.3345,196.00049,2748.804,873.62195,2445.8496,31.189585,6109.60595703125
460,1840.8036,-2492.2957,1037.8865,-775.09674,2182.4314,71.21637,5661.08349609375
461,1325.7738,1366.3779,-3185.5125,-1601.3995,2509.086,-751.849,6986.58251953125
462,-2481.7966,-20300.156,5766.914,1756.6783,-3386.375,129.15512,24004.66796875
463,3822.3071,-6576.1104,2542.756,-4297.102,890.3458,50.817642,12419.3466796875
464,-647.9123,3979.5107,-2630.9922,-2548.2964,-3623.1616,-2495.1062,10585.943359375
465,-3196.5205,71.0365,2418.54,-3368.9922,-2156.9553,1753.6547,9005.1044921875
466,55904.67,58951.332,89099.25,202.6727,-2522.0396,-2668.301,32412.875
467,-1216.3579,-7331.6655,411.4746,-1738.3492,920.9815,-1576.3524,8310.6181640625
468,759.50543,-3713.3865,-5045.8423,-1555.3228,-4480.7163,4625.958,12626.4853515625
469,176.41826,-732.3123,1891.3975,-4482.9014,834.286,656.0092,8306.248046875
470,1225.8754,2364.324,-3448.0486,8234.372,-3647.7085,-4678.382,18369.986328125
471,-6564.871,-81.90591,-4088.786,7072.408,3356.2332,-236.84764,14701.2080078125
472,12104.897,22539.111,40057.293,2870.2805,-2780.6487,-1280.356,25522.09765625
473,-2212.4517,-3131.45,-15386.789,-4185.877,-155.84836,840.5335,14732.8740234375
474,-1960.706,10767.138,-262.7068,-9792.229,354.41025,3681.7805,21725.005859375
475,-462.01917,-620.92926,847.80566,-2626.3604,1837.6511,-2235.1338,6910.9111328125
476,3621.154,10105.266,7462.6377,-506.5472,1651.3367,-2206.7402,7446.59033203125
477,-577.5154,-2674.268,-1796.6627,-4744.9106,3279.5225,1418.8142,10448.6298828125
478,814.1034,9952.147,14382.724,-1436.9032,-1241.9335,-528.8803,12461.1826171875
479,2509.047,4459.7754,-2001.5312,-715.8273,1478.8589,929.86505,6606.19482421875
480,4110.8237,-8626.475,-454.44135,234.04996,-1101.2208,-1400.328,11602.431640625
481,5687.203,-9152.334,-139.15866,-1357.7974,1524.2816,-947.2436,13523.712890625
482,356.7844,1784.5364,-980.686,1964.7988,1326.3743,-696.67334,4904.2890625
483,-2815.046,-4972.287,1950.3395,5316.4346,130.9674,827.8568,11159.91015625
484,5774.152,-203.03859,2090.4326,1438.8314,-45.8288,-149.56882,5793.30859375
485,-8245.983,-3262.7114,-4373.1143,4632.0757,697.14417,-902.4295,9423.486328125
486,5878.708,2434.1492,9068.977,-1353.7539,-865.9578,364.88257,6417.0771484375
487,-1449.8801,-4491.5522,-3756.6006,-2651.5781,-5907.145,-2538.7222,12355.8681640625
488,-1731.6053,-2680.5698,-228.66777,-1703.6077,2198.5764,3117.958,7547.09423828125
489,-11806.166,-11020.712,219.55125,-682.93353,1687.0325,50.981606,12072.0498046875
490,-6518.9873,-5795.963,11117.707,6.1940775,-931.42,-1084.0571,17462.8828125
491,-6643.1777,-5107.456,-3289.0837,1512.2557,-776.29266,719.0596,4321.71435546875
492,8118.0635,-4747.434,5986.1855,-323.65848,-288.86453,458.98795,11993.1162109375
493,3943.5522,-12041.733,-1723.4011,-1387.5139,-508.76492,-1473.1744,14495.4716796875
494,1821.9099,-5257.2134,-973.26825,-2395.0774,2685.72,344.7683,8794.5810546875
495,-33203.83,-18371.307,-45643.81,-538.57404,1399.3223,-1475.6527,23928.021484375
496,-10045.587,-1539.2307,-2312.8508,-2718.474,398.6238,-482.59442,9472.1484375
497,3496.6929,-6083.468,-815.0643,-2205.6328,-1121.036,-1155.0712,9561.9345703125
498,7232.237,5664.2124,-2117.594,-10968.872,-2825.003,1370.4653,21581.060546875
499,6944.4595,-4678.4478,3566.4695,1156.743,1974.8453,1511.4546,11393.349609375
500,-881.672,-550.8564,741.92676,2843.8374,-857.26843,-272.44775,5375.68994140625
501,-14557.401,-1660.5657,-2796.263,-2546.9932,-4375.0806,537.46844,15189.5810546875
502,-1064.6381,3064.0679,4178.677,3235.466,-5662.935,105.43522,12269.271484375
503,-25029.266,-12521.244,-31583.275,-698.86255,4616.5327,-1272.3898,18752.13671875
504,3238.6023,11224.196,1711.2822,690.8215,-368.53525,824.7082,9065.2392578125
505,3041.0566,7424.4834,-1624.5927,-1815.7246,-1873.7566,-1805.7894,9572.8955078125
506,16910.025,-8267.506,9331.775,-773.64246,-3998.1404,6278.5864,25856.318359375
507,516.2229,-4232.5723,365.56772,1988.4353,-897.3876,-682.84607,6126.556640625
508,1090.5911,-1553.3146,-3265.6533,984.48785,651.26764,537.0867,4415.32421875
509,3151.9534,-339.25952,3531.5999,2623.713,-1133.9961,51.684372,6178.6396484375
510,480.15167,6431.4004,9899.32,5896.4805,-391.68393,885.8788,13236.400390625
511,-5721.61,-2008.4174,-6210.3354,-1599.9952,-780.04877,589.42444,5137.025390625
512,4329.7104,1726.3491,-1330.3337,4971.834,-2797.313,-45.112434,11032.53515625
513,-6232.0024,4438.1675,-72.8718,-654.28033,-712.0194,37.5278,9427.50390625
514,5935.853,13185.027,7835.8174,-4312.933,3508.5938,2260.8408,12266.0625
515,-16578.055,-15279.33,-1777.2676,1386.3544,511.19916,-115.38732,14426.2841796875
516,7776.2427,1869.9532,3107.7124,-5117.7876,-2649.3884,3325.3406,12724.4814453125
517,-2654.3652,-5521.604,90.846695,416.36768,-310.5174,-4256.2876,8876.1328125
518,14923.517,19365.95,27937.37,-1578.8015,-547.8971,-2205.1497,12419.697265625
519,-5094.7686,2011.2773,-4003.918,-4673.315,1886.9852,2454.7827,11756.4384765625
520,-3066.5889,2877.104,1921.4009,-142.4306,1415.6271,-69.262436,6053.734375
521,3590.9126,6684.7065,12258.08,-522.721,-1937.6088,114.019615,8366.517578125
522,1972.4778,1443.8043,-1154.7054,-1949.8828,1117.458,-1271.814,5330.13232421875
523,10857.926,15729.181,17789.184,1838.3799,-122.53708,-1057.0677,7179.392578125
524,-14407.938,-16222.177,-21352.959,-158.04738,1345.9126,-2795.858,8239.216796875
525,-17049.291,-14869.9375,-4094.821,-3887.1602,-431.30383,132.87256,13794.0771484375
526,1243.0725,4400.7944,1611.8251,3799.1675,0.3511837,-579.9341,7297.44873046875
527,1261.6456,1016.36237,-1244.174,2115.3914,2914.7927,2209.5186,7699.56298828125
528,12870.436,15223.501,34379.63,-562.35144,-1700.965,2931.1362,21283.162109375
529,-321.7002,917.4234,-4753.156,3738.4343,3109.4573,890.0245,9998.7314453125
530,-1186.7233,4643.368,3477.6812,8302.195,123.41393,-1493.8298,15558.6748046875
531,5779.6743,-6601.455,2900.061,2504.1274,-2404.4841,-2143.901,13261.8701171875
532,3177.1365,-6436.6465,-5232.1206,-365.66623,-78.1678,-1381.1558,9404.142578125
533,3541.0315,-7932.119,-779.9177,3368.9355,1114.3398,358.18686,11785.083984375
534,3157.3467,-4158.861,3501.9265,3352.1365,-758.84503,1287.1682,9827.2607421875
535,-15768.048,-100.83008,1086.9841,-1047.2782,586.67114,593.97107,16457.9375
536,-10643.618,194.37198,4268.886,4375.419,-89.42357,-1751.7046,15648.8173828125
537,4188.495,10003.933,9973.435,-2155.1812,-258.36917,438.90436,6953.81005859375
538,-2037.9808,-158.09216,1391.1411,617.14386,-2229.3687,-197.96999,5001.69189453125
539,-10315.687,6467.8433,1283.1409,-5530.9717,-497.3608,1021.74854,17810.091796875
540,-4009.142,-5347.819,-128.73299,8257.55,-1080.7723,-561.21545,15200.484375
541,-5107.13,-8110.1045,-5883.1113,7721.3135,280.1472,-2337.1458,14239.6630859375
542,8859.78,-7603.3525,-6180.0806,2327.706,500.39188,1365.2263,16499.28125
543,-7175.662,691.1734,1990.6299,-2952.0579,-1508.0371,-2970.808,11543.044921875
544,8162.933,-7120.78,-1192.1818,-1056.0101,-1267.7559,-534.44324,13680.392578125
545,-3129.592,-15383.04,-2058.1538,-1831.059,854.76965,1038.0486,13412.9287109375
546,4318.9463,-13882.323,-8817.993,-6401.227,-134.25777,-1509.7709,19863.93359375
547,-4760.378,899.7308,-7851.9023,2509.1465,2271.265,-67.51267,9667.9765625
548,2218.4692,346.5236,2083.482,3618.8838,202.75128,265.4248,6549.30126953125
549,1207.3247,2088.5286,678.5495,4937.7583,-626.8073,1373.89,9028.1689453125
550,-16213.537,-7108.982,-24230.596,-1380.4342,902.74133,-1653.2117,15379.1689453125
551,7825.7314,1840.3444,3822.6736,63.59249,1468.0012,1577.5078,6467.78857421875
552,-20645.232,-15559.839,-6911.9043,-2541.0247,1225.4369,240.43709,12987.4970703125
553,4158.23,7799.6826,6706.8833,-3043.085,-726.7847,-1543.9546,6855.08154296875
554,974.816,4138.702,3245.3552,-2772.3691,-1346.7299,-267.70578,6057.716796875
555,8441.074,15741.351,17125.436,3019.9731,2240.8018,-628.3564,10436.6044921875
556,4182.295,3731.8315,-46.19212,3867.1907,1839.7777,1008.70544,8616.875
557,3428.4055,-673.96625,-6661.8853,4264.272,-194.08513,839.1919,11577.0068359375
558,-6319.9834,-12602.488,-413.25085,-548.44257,-780.64636,-1225.4863,10895.158203125
559,-6938.7007,-4858.4907,1429.4357,-2229.7783,-1880.9392,127.88297,9084.27734375
560,8675.682,7086.941,13521.197,-6009.3267,2372.154,-1120.0605,12754.7001953125
561,456.8174,-2145.3484,1686.3594,998.15826,2370.3218,640.70374,5705.98388671875
562,1140.9257,-4790.584,-1529.0322,1003.9967,-64.812675,-783.763,5599.47216796875
563,-4939.967,4909.9663,2130.073,897.01495,42.722908,924.1297,9074.6162109375
564,-260.1714,-7402.734,-1081.9288,490.49347,167.88634,-900.1915,7004.2392578125
565,952.6083,-5825.961,2487.2,3224.698,401.1249,1637.9723,9921.3857421875
566,4531.8765,-1268.7201,481.32877,-3110.6348,-80.33227,-429.53125,7493.94775390625
567,-9139.383,-2560.3586,-9774.553,2826.259,-669.4239,2244.7502,9396.2822265625
568,-3410.8286,-2318.3352,-4076.39,937.5432,-1143.8542,-40.008392,2988.412109375
569,-6458.375,7921.4795,-4887.6973,-3364.4614,-336.7018,-702.3973,14914.4267578125
570,-9419.348,-7898.395,-23935.225,-2450.5327,-1792.5872,741.375,16260.57421875
571,-2624.7732,-1666.4485,-2730.2407,4404.1084,2422.8645,1002.7357,8935.677734375
572,1836.8254,-4365.5195,-7008.1226,-17.113483,4405.5513,3.9347827,10957.6611328125
573,3675.968,3410.0432,8038.265,3584.1748,-4979.535,-5581.947,15055.265625
574,12812.825,-1317.4003,228.29938,982.0254,-1155.8359,-58.778275,13679.2802734375
575,3754.5276,3383.242,6734.414,-2592.4292,476.81644,-84.510864,5566.8232421875
576,-19250.064,-4609.8823,-5191.103,3981.1895,4022.1265,-3234.2192,18265.4375
577,13988.306,-5875.0537,-4385.7617,-2310.1345,1239.9369,-471.87564,19709.875
