Element Label,S11,S22,S33,S12,S13,S23,Mises
1,-7700.879,1348.636,709.26953,2765.07,209.37831,-2364.5117,10786.9208984375
2,-10822.182,-12162.137,3283.4053,5147.3975,-2402.1306,-1718.2284,18036.591796875
3,4662.6807,12241.63,5775.612,2772.6008,-4082.101,1625.6447,11455.34765625
4,-8765.414,-6442.498,-722.32764,3795.0903,806.83655,5299.225,13446.568359375
5,11093.422,20835.457,4325.9414,-1717.1646,1069.98,-4356.0366,16608.455078125
6,3894.4097,-2010.1937,-2027.3047,6465.5586,-1054.0225,-3002.4084,13811.3095703125
7,5450.025,-8382.993,-650.7703,1725.4182,-6607.9155,-1827.7893,17150.130859375
8,5450.6626,7548.2476,5214.949,-233.46162,2834.274,6039.831,11775.03125
9,11019.691,-4294.0674,-2803.391,4871.1084,-2995.1357,2112.93,18038.6953125
10,-2452.1694,-1827.4202,-1614.4498,6258.272,3865.1455,-1636.3656,13073.5517578125
11,-6064.6416,-12632.68,480.60986,915.4509,-1723.993,-2914.5469,12879.5673828125
12,7372.838,-12358.305,-9656.077,-1964.6982,1136.0978,-1917.8125,19229.87890625
13,-5046.6226,-13536.04,6152.8154,7641.5615,-2926.4878,1090.2089,22293.796875
14,11651.943,-51.628418,-2648.667,5746.7476,-443.85022,-1310.8683,16701.326171875
15,7723.4526,23479.488,5325.689,-12306.596,-1066.7073,-2013.1036,27599.0859375
16,-9668.835,-12213.033,27427.975,1306.9001,2320.4592,-6099.653,40123.83984375
17,10116.834,23361.29,16320.647,-1896.1682,1804.6722,-7643.1587,18098.267578125
18,7080.9253,-5433.439,-3417.8252,1886.405,2902.7566,4681.023,15399.265625
19,-592459.2,-591347.1,-592172.3,456.20245,798.4058,-394.65262,2000.98156738281
20,-5833.517,-2166.1316,23894.09,6930.7075,-5359.087,7212.1064,34270.46484375
21,-13511.352,-6520.8325,4703.814,3962.4695,10019.994,-11521.149,31620.265625
22,-3920.9185,-13410.402,-8501.876,5502.181,-8302.166,-6004.2427,21755.85546875
23,-2380.4207,8271.178,-27298.713,-1566.4282,-6260.0386,5411.4478,34822.03515625
24,-8175.7334,-23415.094,-5240.0786,205.96657,5539.604,5366.7656,21545.048828125
25,-20669.984,-19730.975,-34402.043,-6864.085,262.4641,-4010.7559,19802.974609375
26,4116.9497,-1045.7124,11347.425,-3770.8037,-6756.682,16148.413,32835.80859375
27,10047.628,22520.797,12676.406,-4188.618,11903.418,-11090.099,31247.076171875
28,-9804.805,2188.7861,-14883.912,520.3723,7187.68,-10416.083,26680.427734375
29,1532.8425,-1639.5521,1051.2151,4116.7197,-17791.396,1986.726,31953.91796875
30,-9865.451,2153.9058,-10879.281,-3368.7178,-2548.6418,6045.4585,17912.359375
31,-9091.696,-15094.057,5471.4272,-4358.0825,-7725.446,10634.851,30180.330078125
32,-30847.523,-15427.721,-20553.703,10635.618,17811.74,-2349.7842,38635.375
33,-1609.1621,1764.6768,-30343.875,-883.77625,-14225.797,-1153.9307,39337.90234375
34,-18552.344,-10086.518,-47623.69,-2345.8687,2528.7793,-7254.667,36830.8359375
35,1894.0835,18895.09,6690.2524,-1634.3042,12420.943,2133.619,26739.6171875
36,-12942.373,-8408.055,-2388.3276,-545.13995,12841.177,-11654.781,31419.314453125
37,-6444.1978,-4753.485,14909.905,4042.403,2286.8203,-1713.8425,22277.25390625
38,-9752.097,4077.9072,-9943.32,-1342.5669,-1932.0674,19049.87,36045.09375
39,-17957.566,-5514.701,3043.748,-863.8329,3351.4248,-11152.528,27269.671875
40,-9843.07,-706.6079,4183.1597,4742.477,12633.656,-1655.463,26581.623046875
41,-5559.2,9393.296,6580.6406,-1041.1243,6884.33,-7088.8584,22036.822265625
42,-8473.703,176.82349,4647.0244,-3657.992,2952.3108,-5504.4106,17049.064453125
43,-6789.004,-7017.093,-14661.65,7644.5586,16214.884,7536.3696,34564.5859375
44,-8934.008,3764.54,3714.8574,-593.2264,-4137.169,6580.7134,18518.810546875
45,-1491.8884,-10811.947,11659.1875,-544.5654,3786.5898,-8513.756,25372.025390625
46,-3489941.0,-3489093.5,-3488319.5,-542.9343,329.19946,523.1513,2000.95202636719
47,116370.4,119873.0,133955.14,-1894.5911,-670.3469,2442.3252,17026.755859375
48,131432.34,132184.92,144075.31,6460.1675,1285.5615,3232.6826,17675.017578125
49,-3904.5664,22708.404,4876.4795,11136.214,8952.128,-125.50511,34120.11328125
50,21757.137,8486.519,-7324.512,8743.752,-14969.96,-2195.0972,39395.8671875
51,3485.938,15143.662,-6296.941,-7313.2866,3793.5002,-9190.193,28331.197265625
52,9250.986,8362.693,5554.823,4956.5703,-6687.8154,-21084.404,39404.40234375
53,27941.107,40924.18,5855.449,4003.8323,-9137.378,8860.431,38433.90234375
54,510.11487,16353.964,-2833.1777,5614.487,904.6874,-19590.754,39542.2734375
55,19008.086,32944.508,-5009.7285,1174.5577,-3764.7263,-10673.784,38655.515625
56,-3500.6162,3962.8845,-8360.043,3823.1165,-2590.687,4794.235,15764.6416015625
57,1471.7177,9384.745,6005.6104,-7159.893,-1407.1909,-9682.192,22096.666015625
58,5967.1836,3279.8425,-8486.07,2346.032,2708.398,-2572.2097,15350.70703125
59,2280.7341,903.61127,25197.486,-3496.6196,-5182.164,6598.235,28398.7109375
60,-1177.388,-4072.2615,-9726.096,3091.1523,-2655.8418,-5123.2607,13611.86328125
61,-11646.619,319.12012,-23260.691,-9604.958,14017.051,-9955.91,39756.70703125
62,16699.92,-12716.327,-5908.6787,-8594.761,-7638.8374,-5735.092,34738.2109375
63,-4890.586,-18619.61,-7509.0127,3062.56,-7489.8516,14001.689,30724.048828125
64,5904.629,-17123.654,-16293.256,-1093.661,11778.429,-13776.663,38743.26171875
65,3673.969,14184.843,-9577.392,-2350.7393,-1144.7018,4224.1694,22347.263671875
66,18605.01,8562.727,12519.73,-7758.5405,15491.566,8797.513,34777.97265625
67,-16405.861,-14976.059,-16735.488,-4917.3296,-4081.8425,4333.4336,13471.634765625
68,27631.697,12981.312,22925.908,-5301.851,-5038.2354,-3194.958,18945.716796875
69,1405.0314,1579.95,-4602.6206,3410.627,-8173.045,8160.094,21730.8046875
70,4714.848,6982.172,34346.438,7594.1763,-4578.248,13150.349,39631.77734375
71,3469.1208,744.12604,25949.396,-1240.3206,-14187.47,-9164.907,37874.81640625
72,32243.172,-11129.704,6783.545,-5517.878,931.3447,-4860.704,39874.359375
73,6883.748,-7299.204,-29404.508,1165.8795,-2269.2341,-2374.5962,32245.328125
74,-5050.4478,5842.8335,25467.713,14986.334,6686.11,-3230.4014,39455.90234375
75,4937.1543,-8319.098,9866.05,-2379.7112,8171.6855,7006.6235,25098.95703125
76,-36019.496,-38929.9,-18677.125,17312.102,-3341.949,-5546.4697,37210.53515625
77,22427.852,29253.219,20430.295,17178.09,3248.4004,9290.419,35214.515625
78,6990.015,-21901.344,-25060.049,-1637.9426,13420.577,3728.3584,39064.4765625
79,-11909.143,4761.267,20918.709,8685.121,2651.208,-6923.8066,34634.0078125
80,-40766.176,-51272.367,-39367.734,15589.893,-362.32315,-3615.1328,29929.310546875
81,-5140.1094,-22922.457,14007.924,-936.93054,-3301.813,-3762.9246,33183.9453125
82,11239.835,15438.679,1535.0675,12581.609,-2788.8423,700.54,25539.33203125
83,2702.9302,8169.9194,-10326.565,-3535.1228,-8417.653,-646.9828,22851.81640625
84,-863.4634,11942.196,7138.893,-4168.2417,-12184.262,-14771.764,35744.28125
85,-11402.38,2565.8389,-9242.532,2001.5603,-4083.0977,-5077.912,17578.2890625
86,-9170.569,-3558.7854,325.6704,8189.45,4045.4253,1220.977,17976.369140625
87,-25767.863,-42355.434,-19193.309,-1823.1971,-457.59814,4504.728,22336.208984375
88,15691.046,49983.176,56057.773,6905.793,-1705.0511,-2816.8455,39959.4453125
89,-11577.969,-2996.8152,3545.8306,-3637.2505,1852.0084,8792.099,21318.2421875
90,-8456.158,-18188.027,-25527.816,-1001.11005,-14457.76,15876.201,40078.17578125
91,2090.878,-6394.209,-25565.975,-9612.295,14942.705,-120.322266,39361.30859375
92,-39749.805,-19184.656,-20440.752,11487.357,9302.176,10787.123,37459.671875
93,-7805.6562,-24412.168,-43552.96,-2052.7778,-5201.2695,12804.187,39314.76953125
94,-3672.006,-2212.7898,30944.305,-2560.0247,-3699.801,-11288.3955,39911.3515625
95,3325.121,-8288.186,-20935.012,9320.942,7928.591,-886.821,29887.61328125
96,-17722.2,-13893.997,-14155.522,-6954.582,-16209.954,-14524.912,39749.56640625
97,-21905.277,-12964.002,-198.60742,-2320.6824,-2922.7095,11158.891,27791.84375
98,-19745.41,5511.5054,13615.995,1974.3159,-11769.6875,-5953.7812,37972.3828125
99,-13122.246,-23800.736,-418.04785,4509.552,7062.5,3804.716,25790.71484375
100,6375.625,1939.1782,-25782.055,7538.314,-1112.587,-13085.564,39987.7578125
101,-31146.627,-49661.523,-18483.947,11219.21,2491.5305,-4658.227,34625.50390625
102,-1563.2852,27092.965,16830.316,5778.8066,-8528.938,-14139.017,39377.1640625
103,-133864.53,-134940.67,-165590.9,691.60364,-10427.217,-9317.794,39517.82421875
104,-11685.577,-3058.929,278.42334,-607.40045,-1969.7589,5551.26,14816.9921875
105,24899.281,-11879.09,171.77344,2959.4712,525.6895,2198.395,33109.875
106,-13611.516,-8040.241,3336.6035,-15808.813,-6652.2866,3141.058,33704.12890625
107,-29938.727,3486.0354,12368.85,-4814.9053,-535.78143,-1733.5905,39654.15625
108,-3621.692,-1503.9647,-46.215332,-6370.444,-2503.3184,10771.993,22323.796875
109,-7963.8076,-3266.1348,11367.818,2002.3477,6255.5493,5636.843,23015.474609375
110,4757.44,4193.158,8482.784,-5922.655,5774.0435,4534.988,16830.013671875
111,-2469.0605,-14252.661,-6493.829,-6829.875,534.30225,-4269.833,17410.2890625
112,-5959.9863,15989.867,28656.312,5976.7163,3107.8276,7706.2886,35136.32421875
113,20030.594,20836.613,25116.252,-11167.295,12318.749,-13764.839,37685.6328125
114,-5808.9326,-4633.297,-32810.79,-6687.7676,-13444.048,-5456.7188,39089.12890625
115,2086.3237,-15296.49,-2080.7617,-8652.928,-4022.2192,-16024.837,35925.359375
116,9945.101,-4160.3496,-2430.5312,11366.049,17448.836,-4458.5586,39219.1171875
117,6563.238,16.661499,-1480.2106,6301.9766,15055.263,3216.0945,29749.875
118,2159.0032,-37612.812,-5052.335,-3062.06,-1513.6859,1790.6989,37304.35546875
119,16843.873,-8883.944,31992.441,-1758.7518,-1053.091,-2097.8132,36151.7421875
120,-27300.717,-37482.035,-18760.426,2796.0117,-1628.6066,-1164.2886,17292.3125
121,19710.203,2058.753,13038.669,-10649.901,5072.928,12355.574,33373.140625
122,-13414.023,-9388.502,18056.646,4120.521,11453.375,-7529.8945,38658.703125
123,4742.1685,-12506.146,28021.875,5741.1475,-2016.5448,6109.58,38262.87109375
124,-18019.516,-7288.567,-11685.112,4461.3438,4772.6816,10040.343,22754.6796875
125,3178.4197,7067.424,-5928.909,802.3561,1522.6859,-2330.137,12596.1064453125
126,8488.833,-12238.265,10148.461,-4918.7554,8412.636,7273.152,30172.208984375
127,12230.176,23111.36,23928.117,2894.3542,4897.4766,19004.67,36174.2265625
128,-15772.591,9233.388,1405.3737,-11062.162,-1657.8313,6442.567,31475.533203125
129,-4453.855,4720.6934,1508.8265,2856.8792,-2530.0903,-13071.568,24926.052734375
130,-450.4851,-12763.75,9921.84,-2975.7568,-15368.722,-5895.9395,35019.46875
131,-4849.254,-5652.49,-10287.621,12820.695,1645.8173,-7472.875,26355.666015625
132,12433.275,441.8545,9239.923,-865.61426,-15333.878,-9909.822,33435.66796875
133,-8757.731,-2412.4917,-18944.871,10859.31,-1251.8047,1935.145,24049.71875
134,-2903.2236,4802.963,28788.941,-2467.523,5937.382,-6336.0586,32619.21875
135,-36877.99,-68402.04,-49124.004,6441.637,-13414.586,5816.512,39032.2890625
136,59174.062,42369.94,66416.586,-11162.573,3581.5544,15745.184,40156.703125
137,-32621.172,-18445.47,-3570.1804,17172.82,-2695.1921,4098.0166,39874.59375
138,-26893.377,-5818.3276,-1335.2295,-7421.771,16536.195,-2521.9011,39539.88671875
139,3392.132,-2916.9119,-12598.308,12727.701,3198.732,-7360.4917,29560.5
140,65004.074,66307.95,65860.15,-370.84457,800.22504,343.2915,2000.98742675781
141,-9847.506,-2730.7642,-5266.407,-2715.5496,-1868.954,7021.3496,14816.6005859375
142,-144070.5,-136773.38,-145731.28,-1797.9019,-4001.681,4937.4307,14106.6474609375
143,59073.58,80798.76,63028.223,5832.232,4011.2178,3017.3723,24069.384765625
144,4485.315,-16294.748,10995.198,11463.622,13429.215,3687.5525,39818.7734375
145,11285.562,-2681.2344,18345.656,-11522.29,6304.1406,-11790.519,35750.359375
146,16738.861,10410.003,27714.473,-112.044174,7004.6514,-1964.6687,19717.87109375
147,11336.902,12813.423,2640.4812,10421.25,16168.387,-10927.439,39483.3203125
148,10227.716,4892.796,3127.011,-2926.5984,21375.531,-4734.049,38790.0546875
149,4586.2983,11369.46,-382.27246,-4387.5522,20298.748,-5479.5396,38579.0859375
150,2848.4434,-9772.765,-31685.248,2862.7268,2439.9548,12712.347,37990.40234375
151,5353.752,-2536.2866,-14601.588,8791.347,1745.4819,11408.277,30569.095703125
152,5608.3237,15780.96,-9592.866,5289.695,-4201.197,3779.471,25863.890625
153,-4655.044,9292.801,1610.3435,-1934.315,6305.0674,8285.053,21973.197265625
154,24628.94,-1664.7974,22663.205,-3684.8796,-3351.7627,-8885.041,30899.96875
155,-8947.6,6966.365,-29742.258,-10937.974,-6376.205,3955.2527,39299.0546875
156,7721.688,-889.8002,1417.9761,5050.0586,3458.7107,-6646.5347,17450.98046875
157,-117077.94,-119134.23,-152731.47,692.48224,-3150.5056,11214.006,40131.859375
158,-24943.031,8863.133,-10743.809,7460.125,-8353.513,-2620.678,35515.64453125
159,-21575.875,-20597.479,-5914.615,13204.651,-9049.128,3805.3745,32297.068359375
160,-5295.2974,-7711.661,-2496.4377,-3242.9377,-10319.839,-8884.96,24663.9453125
161,-19386.742,-3596.6855,-4486.985,-8069.733,4152.8467,2725.4814,22482.1171875
162,-16275.713,-14204.193,-11702.81,-2801.7612,15769.876,3715.6853,28753.52734375
163,-31750.121,-9454.181,-10798.671,-17445.28,6630.181,-4533.9927,39692.59765625
164,-12398.421,586.42725,-6890.4985,-925.6739,15297.498,-8569.113,32439.544921875
165,40199.137,36986.52,9304.283,-11360.401,10133.28,-3533.9275,39978.140625
166,7049.3545,16402.096,12125.667,703.30115,2235.7483,2578.153,10108.685546875
167,14061.137,10312.993,1085.7432,-10.322021,-11080.2705,8599.609,26906.376953125
168,-4050.4683,488.76855,-2950.2505,3166.776,-4501.6284,-8608.939,18167.0546875
169,-8861.917,16155.581,-23584.63,1393.3346,-4416.303,-7741.0503,38145.32421875
170,25232.361,40259.367,10631.968,2222.9182,-2772.3435,1789.3527,26568.208984375
171,4371.3496,8934.729,2650.6797,-4434.0986,-2323.5188,-1165.8408,10530.6533203125
172,-15118.756,-6587.778,-11071.769,-2873.401,-4736.314,-5831.4653,15770.73828125
173,71.58682,2459.9414,-19472.572,-2548.6396,-8095.384,-6913.1914,28174.9140625
174,10911.356,18585.963,6722.158,5832.7295,3719.1248,-20995.525,39681.1484375
175,7347.4546,25723.652,29608.234,10359.169,-16684.807,-352.3123,39769.5390625
176,-12496.056,6136.3135,-27337.348,7114.0884,-9646.328,7838.4697,38200.3671875
177,-3698.188,3932.0872,5494.05,4651.032,-9603.499,11939.296,29013.744140625
178,-372.65723,-21915.47,-12192.847,-10973.674,-1460.5374,12638.336,34583.46875
179,-9812.085,5933.4395,-5999.9824,-136.38461,7240.7876,12609.305,28926.744140625
180,20058.143,10001.687,27893.037,-6149.419,-65.98825,-194.6602,18838.310546875
181,13813.699,-15505.231,17278.787,-605.32855,1004.3209,3441.0103,31825.244140625
182,-402.69922,-12826.282,-6944.3345,3784.3726,-2601.6602,6819.2075,17850.572265625
183,-45220.105,-42570.805,-71806.7,-9607.201,7943.4775,8385.131,38228.58203125
184,-11611.018,-34159.61,-28541.438,-11398.985,8656.617,1784.1708,32210.12890625
185,-59180.203,-34047.023,-59485.508,-6992.3623,7092.253,8480.152,33952.34375
186,27425.605,5650.2344,22282.986,9135.67,14978.888,9968.153,40127.3671875
187,-1087.136,2147.4868,-16107.993,3761.5261,-1421.4227,10641.102,25939.99609375
188,-31320.334,-28845.8,-57582.008,-75.06135,8283.381,5169.575,32354.564453125
189,8681.401,15827.834,14717.696,6810.8525,1693.1942,-3454.0698,15097.2197265625
190,916.2129,-24830.715,-13751.188,2169.2678,-3681.5403,3625.7566,24384.689453125
191,-8709064.0,-8708061.0,-8713872.0,593.94446,4886.07,1143.3843,10273.5888671875
192,-14325.627,-5713.912,-28317.34,-7454.198,-10580.979,10914.176,35360.23828125
193,8833.935,-16936.479,17284.45,2463.6477,2402.4604,14030.78,39741.80859375
194,-117987.63,-114021.734,-152985.27,-514.67255,5644.742,-520.2038,38425.9765625
195,-20661.236,-17699.217,-36917.742,7162.1875,1136.6694,-16832.133,36454.47265625
196,7456.336,11869.1,40024.734,-314.00024,-7060.7886,-10706.643,37818.15625
197,-20144.145,-16876.156,-15172.971,1337.5522,-231.2797,1185.0889,5374.708984375
198,-33676.203,-9447.001,3209.1016,5527.199,1419.4089,3418.1365,34447.40234375
199,4790.623,-218.57373,12466.161,7031.4863,-1039.9727,-14372.398,29895.1796875
200,-9275.986,-11129.137,-17568.025,3318.6707,3802.008,1890.0558,11997.8798828125
201,-17674.496,-11498.303,-28372.66,-3527.4526,-1370.3192,-5041.575,18381.634765625
202,-27307.066,-6314.776,-9126.139,4508.151,-7296.407,1678.6954,24873.681640625
203,2361.733,2912.7158,5477.0366,1128.5465,-718.03906,-2156.4902,5254.63232421875
204,-12124.622,-6914.7095,-2454.2568,-5799.053,-9888.389,-6557.907,24362.337890625
205,-12134.901,-3359.8643,-25028.025,4804.7104,2547.9448,1263.6027,21210.69140625
206,-10964.304,3657.8467,-12815.576,1726.7654,-5405.392,4730.311,20199.791015625
207,-5921.874,-5235.3125,-15773.232,-1183.6997,2465.292,4083.3699,13294.4482421875
208,-8770.316,-10228.319,-7337.165,-2593.349,903.64105,4877.93,10013.8857421875
209,-7466.009,-20770.822,-6520.5825,-11152.917,712.8461,3245.619,24429.078125
210,-14350.457,-4590.2354,-11249.812,2153.2488,-6624.5234,10835.908,23925.42578125
211,-21305.914,-34201.164,-57611.477,-1519.1503,8061.499,-2593.8047,35189.234375
212,905.3203,10617.215,26118.498,3729.5935,-10316.442,5927.168,30847.49609375
213,4254.4834,-6878.4595,-8606.669,-3482.6335,-7079.84,-803.1233,18299.2578125
214,-18229.896,-15899.377,-39738.152,-2330.233,-13057.484,-2993.3694,32754.02734375
215,-3306.169,-9413.73,-14589.721,-12969.647,-2616.2722,5390.9707,26609.4609375
216,-36856.66,-39053.746,-67590.78,-2517.4312,3236.662,-1440.7491,30635.853515625
217,-45475.99,-29339.242,-67991.59,-4446.531,2051.58,-2668.3005,34985.3828125
218,-3261.8887,-8750.064,-26790.814,4930.3394,14419.585,8907.873,37273.9609375
219,784.93774,-2792.6348,-4961.745,-8865.445,2798.6262,12494.411,27438.666015625
220,-11448.728,-6863.2896,-22528.523,-4066.6716,-6658.918,-195.53114,19425.384765625
221,-9820.994,-2730.5542,-7573.937,-2233.2046,-7977.0083,2072.7146,16066.705078125
222,-1792.8845,-7311.147,-76.26782,4028.7485,5634.145,-8862.9795,20553.6171875
223,-3111.4863,8158.746,20343.936,-1430.695,4161.4995,1027.5441,21773.591796875
224,-5976.5957,-7238.3286,2835.5117,4058.4424,-10256.526,3664.3933,22263.17578125
225,-4635.032,-1737.3374,-14560.5625,-635.12714,2758.2522,-2557.1006,13391.201171875
226,5334.5015,6198.794,22098.74,4185.46,10030.355,1220.8472,25022.93359375
227,-4408.6465,-14271.168,-41945.695,-4705.007,8877.722,-2862.0376,38255.9296875
228,-3037.6907,-13187.584,-34031.86,-1059.4197,13502.92,-9576.78,39680.83984375
229,-2989.8752,-8346.196,-9778.927,-1084.7788,3920.7537,-5251.3975,13068.884765625
230,-26479.342,2282.5928,13582.266,-904.42566,-3503.969,8672.214,39304.46875
231,-423.40814,-17146.24,-14736.277,-15802.272,9891.161,9527.188,39498.12890625
232,-10119.551,-14261.158,-19303.744,-6487.6294,-3601.1929,-4695.0225,17168.82421875
233,197.9359,1564.5807,28369.932,6339.2095,-9197.101,12320.941,39834.171875
234,-12406.054,-9081.418,-27495.652,1612.2692,-1657.0308,17654.58,35213.69921875
235,3205.3171,11995.25,-8034.171,8697.775,8863.411,-13454.373,36167.359375
236,-1970.6445,-10113.492,-35256.938,2215.7798,-7904.4023,-9959.735,37456.5703125
237,5108.6094,8566.801,10371.873,-7830.6113,-1195.4133,10115.241,22730.076171875
238,24949.988,-7121.7295,-4037.6982,3985.3513,-8491.6,459.16476,34695.8125
239,10262.4,4437.653,-6374.3643,-7828.886,-14019.961,268.01892,31425.666015625
240,3002.1333,5474.642,10811.417,3952.7031,-2737.2358,-1205.2607,11022.55078125
241,4859.5034,-17918.797,-5141.1514,-16724.328,4603.048,-1238.778,36032.53515625
242,15609.133,2933.1682,-2174.3071,-2768.323,-17924.512,1627.8711,35303.16796875
243,-3401.407,-2753.5322,-29030.215,13298.764,-2432.711,-10962.083,39783.0
244,2441.5967,306.7014,-2843.3533,12635.949,9275.353,8944.237,31595.91796875
245,5282.9873,5900.605,-8044.619,2244.3135,-5860.2227,-4357.601,19008.982421875
246,30460.494,17188.525,24359.648,20896.592,-4046.5657,5496.983,39776.53125
247,7195.4756,2615.6394,1374.6848,15715.661,-16513.12,-530.4654,39850.19140625
248,-1488.8643,-3101.5488,-31928.262,10739.304,8479.166,5645.8555,39209.46875
249,11834.864,-24213.031,11889.935,-6947.6133,-6083.09,461.6066,39470.21875
250,12513.596,-8602.857,-26588.932,-7172.3223,6437.532,2581.421,38050.609375
251,10004.839,-5757.786,2701.0698,-11108.678,-5175.549,-9086.79,29748.1953125
252,-26488.719,-42098.504,-51890.64,-15019.107,4638.7783,-4076.4868,35826.43359375
253,-12349.067,-24793.9,14310.579,-10961.135,987.1521,330.66052,39510.45703125
254,16330.517,-11335.115,1716.8408,-12505.869,-7587.1846,851.6412,34910.0625
255,-35509.46,-61464.88,-27952.947,-11343.088,-3187.8418,-4227.123,37376.5546875
256,-815.3361,24764.709,34486.21,-7957.1367,2530.0967,-10516.748,39223.4765625
257,60762.574,58530.64,53807.145,-16751.42,5826.415,-5597.1123,32794.6640625
258,136302.28,129895.13,139677.27,-4488.3687,-1107.4221,172.5002,11758.8642578125
259,25495.094,-3624.1172,15540.47,-17124.89,3049.4138,-114.47204,39558.48828125
260,138511.92,137569.78,137495.39,659.5901,689.45056,282.0128,1983.19104003906
261,-33538830.0,-33538068.0,-33537198.0,-243.15268,664.9724,408.15518,2001.04736328125
262,-468250.1,-474436.03,-484937.2,-3966.169,-9895.483,6611.5503,26183.78515625
263,169397.66,171975.39,201092.16,2334.3577,979.2133,3302.4922,31327.77734375
264,-285866.62,-274380.06,-293686.28,-2262.07,-7649.7646,14759.476,33575.9296875
265,10838.59,14017.498,24438.713,-12023.44,5923.6396,-1127.5682,26355.404296875
266,-23528.9,-27575.701,-12102.688,-467.61023,-6401.653,6028.905,20635.333984375
267,13443.407,249.2225,5561.0996,-11363.808,-5168.058,-1827.2119,24693.47265625
268,28011.104,-4745.9976,30425.25,-3395.3503,616.88153,-1382.6122,34632.32421875
269,-9947.084,15568.123,-904.77026,10026.058,535.99915,501.22546,28376.994140625
270,5012.086,-735.3916,-5157.6016,-4844.12,-2452.2463,-10652.002,22513.07421875
271,-19814.037,-5048.4873,-26119.162,4869.5566,-2493.0154,5507.5137,23057.666015625
272,-11823.055,1937.748,1605.772,7658.33,-1426.3939,2726.8564,19729.744140625
273,-2668.8232,3800.6606,-7583.9834,2624.7107,-5649.0137,-3071.7708,15573.0625
274,10408.871,16063.175,19018.227,9009.697,-3697.1687,-7764.0146,22864.451171875
275,11980.49,9843.23,704.88086,6285.55,-1600.0533,-502.81958,15315.7353515625
276,-5942.589,-5964.6855,-36228.105,539.58765,-3937.6707,11727.511,37101.70703125
277,5286.038,-3244.2244,-6617.0493,1389.1676,6221.5117,553.25696,15353.8818359375
278,14202.85,9638.438,5445.589,6913.501,-5784.4707,83.12018,17359.212890625
279,-171951.27,-172983.83,-208148.34,-220.71053,7753.032,5553.15,39330.7265625
280,-17904.273,-24533.184,-54941.133,1686.649,4243.977,-131.56325,35110.93359375
281,-19586.455,-4298.1484,3956.0337,-3371.7427,12798.09,9531.055,35015.12109375
282,-1967.3984,-10747.289,-8408.76,2480.6233,1794.2128,6189.446,14320.2294921875
283,5917.1333,14780.094,18479.676,-2723.9019,465.78226,769.775,12235.8359375
284,-12701.029,-15638.539,-29456.965,-8848.766,-1452.3218,306.1299,21947.220703125
285,12270.723,23985.299,38858.56,-16257.8,-3929.647,892.1156,37072.109375
286,-5484.9014,6637.8047,-9095.544,-1092.7559,-7402.6284,4791.2437,20990.822265625
287,-10139.287,-7601.8213,-15386.152,-3513.2024,-3999.2988,-5281.4365,14696.0439453125
288,8946.048,7156.165,-6656.5386,6813.5986,2309.6501,-6206.9106,22126.310546875
289,4141.5103,7334.0527,16835.482,65.40881,-14154.444,-17018.818,40009.76953125
290,-24486.135,-27611.193,-59873.06,-2675.5874,1770.3984,2725.796,34707.109375
291,20942.457,2049.1748,23587.525,449.77612,-8129.51,9581.835,29803.267578125
292,-4078.0684,9709.246,9144.766,2462.3516,-4856.425,2752.506,17155.14453125
293,-14460.592,-10143.939,5087.575,8826.134,-10582.625,305.90784,29771.46484375
294,-18998.314,3622.8604,-4400.258,4540.138,-4134.688,3376.7407,23279.3515625
295,-13100.725,-14212.5625,-30499.934,1613.5315,6448.4336,1034.5813,20503.462890625
296,290.43945,-15949.07,-15893.486,-4737.4194,14797.464,2243.442,31656.681640625
297,-2143.482,-30277.893,-9244.016,-1521.2971,-2690.0623,2658.546,26306.830078125
298,33885.33,12182.413,6158.9194,-771.642,-9220.327,-1859.7291,30087.068359375
299,3887.8223,-10468.3125,-6004.0957,-1612.954,-9733.688,-4584.988,22738.60546875
300,910.6616,-13862.605,-5971.593,1137.6974,11198.04,-892.0976,23375.208984375
301,2833.2305,7093.3853,20609.209,-6037.194,-5553.998,-11496.186,29270.74609375
302,6211.8525,7094.802,-8808.051,-2333.0613,6395.2075,3153.6257,20211.396484375
303,-11976.878,-9332.207,4637.2153,3342.448,1372.9065,-1128.6298,16795.103515625
304,-21973.918,-2153.7944,-1708.4751,2961.7654,612.9479,-3961.52,21826.26953125
305,3698.0205,20522.828,28968.281,8451.753,-1649.9734,3736.0317,27583.154296875
306,23819.748,42184.926,21956.72,-571.0111,-3315.6206,-3470.183,21096.2109375
307,26971.008,2118.4932,9864.858,-4413.4644,-3133.33,3164.0776,24557.2890625
308,1595.19,-12626.35,-8120.7256,4236.474,11551.748,3945.8594,25677.951171875
309,-3132.872,-13338.791,-11992.998,3113.9692,5290.135,-1222.0018,14483.22265625
310,-159633.66,-159944.06,-178718.52,401.75992,2299.359,-1402.945,19510.36328125
311,6936.3896,-153.06473,-23399.115,6517.296,-12721.973,-7656.6963,39297.41796875
312,-24866.363,-16490.094,-20469.592,515.5216,3955.7432,7138.9663,15915.416015625
313,-116773.45,-118088.9,-150312.03,-982.75586,-5522.0264,-4804.597,35299.8125
314,10700.975,24731.672,1983.1696,5560.452,-122.757355,-9576.338,27624.21484375
315,-5857856.0,-5858886.0,-5862178.0,782.6807,2568.7253,726.5087,6205.2548828125
316,6254.764,-1162.6609,2953.6763,-7377.382,603.2689,6438.9277,18170.80859375
317,-6268.1113,-31128.268,-15941.133,-133.64468,7627.2705,-3256.1663,26029.00390625
318,2920.59,-1828.7231,12677.451,-7603.7373,-5996.9834,1380.4376,21240.27734375
319,-8292.742,-1565.5239,-1166.3665,-7436.965,11832.849,4294.2764,26256.365234375
320,-17587.967,-2116.7417,-5219.0405,7330.672,9595.885,-7644.637,28526.609375
321,-13585.535,-15710.549,3533.1885,31.155447,10076.897,8149.8623,28945.453125
322,-601.3126,-6564.0415,-19830.693,3113.6277,9818.992,4150.3706,25703.349609375
323,-139.2002,-6062.171,-28846.086,-5533.557,7875.9326,4448.5386,32038.369140625
324,5788.793,-7106.611,1100.6205,-8814.296,-3345.2515,4764.219,21507.1015625
325,-46917.664,-28074.668,-39123.89,-12600.096,-1408.3912,5458.015,28992.259765625
326,-8233.743,-8849.2,-33703.47,3907.6895,-9498.176,5040.423,32032.544921875
327,-18660.455,-9427.575,-32100.676,-4885.4106,-1943.4813,1911.0979,21996.98828125
328,-11852.242,1152.1565,3402.7197,-1206.1737,7735.2153,-413.90475,19693.294921875
329,26450.047,35634.004,27685.93,-9349.885,4464.5146,-2210.4043,20278.96875
330,22788.781,3130.021,7670.035,5732.0493,9394.312,5123.536,27566.42578125
331,-9194.222,-26067.463,-19960.379,168.1146,-2263.7556,-10480.546,23747.431640625
332,10520.136,-11328.57,7975.2305,7706.34,-663.17377,12139.089,32400.53125
333,4391.0,-19062.244,-35103.973,-972.6034,8844.781,-4897.188,38640.625
334,-40234.684,-62084.887,-28552.271,-11942.902,1887.8165,-336.08072,36167.69921875
335,42830.062,41827.543,25400.049,1591.0961,10878.57,2558.9048,25876.728515625
336,19061.742,2193.6206,23056.662,1043.1082,-17864.07,3723.5552,37015.04296875
337,-5384.8765,-15172.075,21974.11,10294.615,-4084.8606,590.455,38485.2265625
338,-21917.78,2865.393,-2332.7432,7230.249,10171.552,-6719.677,33392.7109375
339,-900.5746,5056.004,-1706.8433,-5787.503,4274.326,2392.4485,14608.2197265625
340,-34773.176,-23098.105,-8799.869,13629.119,-9657.008,8951.43,39813.265625
341,-714.75195,-24503.732,-10743.751,-15052.203,11193.531,-5773.487,39793.31640625
342,-22603.203,-11107.336,-11257.275,6041.6597,14858.014,10851.33,35432.95703125
343,9142.029,15165.1875,6888.126,-4515.605,1593.6487,-3306.13,12510.6689453125
344,2650.933,10516.869,9288.1,5487.129,3408.3442,8401.558,19764.919921875
345,-35104.9,-38884.46,-68626.78,-1262.6915,555.53357,591.81757,31907.107421875
346,4689.762,7612.249,15547.023,-2375.4324,-5777.215,-4649.351,16631.203125
347,-7671.883,11965.129,-11779.42,-2076.494,-404.0828,9518.361,27719.4296875
348,2297.6768,3805.8896,-15205.272,3340.1863,-4074.8074,-9358.356,26096.845703125
349,9927.599,5783.2026,2630.6938,1677.3948,2804.4722,3006.7495,9966.8125
350,8924.469,18108.252,22921.812,-5339.972,-6968.1245,-5060.7407,21442.072265625
351,-39855.43,-35029.434,-63515.17,-3198.0168,1078.4587,298.94275,27049.85546875
352,-1417.0244,-22481.15,-18629.492,14897.334,-6992.97,-744.5049,34518.984375
353,17525.328,10662.432,15789.309,-4041.5151,-6769.638,-724.87756,15041.9697265625
354,12263.6875,-1550.9707,5023.4067,-497.03534,-2222.322,4867.4097,15161.6865234375
355,-35569.336,-34010.78,-52450.707,-2238.1785,43.81319,-1310.9818,18273.21484375
356,-2297.2922,-5175.006,-354.85474,3903.849,921.0313,-1012.51447,8305.69921875
357,32051.795,41226.785,67811.5,3423.375,-910.27484,959.2675,32790.95703125
358,-2611.3552,-4687.313,1910.2421,-5275.9707,844.1378,-1495.007,11246.8447265625
359,40201.41,33592.836,33328.934,-327.625,15812.197,-10471.983,33539.125
360,-2720.8628,2473.7664,-524.0483,-2247.0386,-311.2497,1682.2787,6657.84423828125
361,-8880.236,-16695.924,-13772.45,-4021.1006,468.46683,-135.47858,9798.158203125
362,-33259.773,-35707.203,-58645.23,-1410.7072,-557.2622,886.23004,24444.638671875
363,-10528.643,-16229.105,-29313.111,1652.9109,632.36743,440.0561,16977.876953125
364,-5917.855,-5746.014,-8315.619,-555.62103,-390.81973,838.2589,3111.78955078125
365,-121.399536,2570.3845,1063.4591,-342.93896,1526.9867,1340.991,4266.4814453125
366,-11419.592,-10534.199,-16605.63,1219.7988,-931.06006,-44.234463,6272.22607421875
367,-5385.05,-5853.551,-2236.092,-226.51924,141.4859,1991.0687,4870.08935546875
368,-4223.3213,2336.0308,2701.1865,6360.787,-262.19977,997.84424,13043.2275390625
369,12116.99,5376.0317,-2111.038,-512.6359,-372.4863,-634.30945,12424.912109375
370,-2103.8152,10151.224,1899.7527,-1200.3033,212.8299,735.9294,11101.05859375
371,-15536.672,-18641.47,45.22461,-5348.179,7214.861,-2146.6426,23592.580078125
372,-18222.16,-20686.365,-39587.523,-1819.0103,4608.709,140.45345,21991.103515625
373,-4643.3696,-4496.0835,6177.739,686.72766,-30.759106,-714.25214,10884.501953125
374,-9140.711,-21932.846,-30654.125,2269.562,136.54092,-759.9906,19196.474609375
375,-6446.5566,2449.05,-6406.102,729.4039,-2671.5156,-359.2178,10107.8076171875
376,22243.803,18951.662,43703.848,-2561.6038,2826.5278,-2248.766,24512.146484375
377,2951.9165,1796.7671,19470.416,-2322.0352,1211.0028,2286.6973,18153.19921875
378,-5566.311,-411.08398,-12756.596,-666.45715,59.194595,-982.2876,10935.3466796875
379,-13586.947,-4760.4683,-19628.184,1003.2674,-3555.8186,3422.0403,15614.3642578125
380,-5704.756,-5658.9985,-3907.58,1761.2631,199.45605,2186.274,5187.92578125
381,23684.68,11211.499,13763.802,470.07864,660.1031,-552.8624,11538.90234375
382,-10324.98,-9505.761,-7777.9756,1556.3514,850.6633,-718.21063,4007.10009765625
383,-12053.903,-5219.3164,-11811.129,-792.22894,1098.3148,-1095.304,7362.88623046875
384,-28976.367,-24117.64,-42075.906,-2839.167,568.73346,-1355.9103,17015.306640625
385,-28280.197,-30119.475,-47541.61,-3162.9692,-885.30054,1474.6929,19438.271484375
386,-3002.0413,5895.291,-4392.158,3743.8066,-128.51854,476.4683,11672.2822265625
387,-23631.379,-29554.766,-46051.176,-815.30524,775.8678,314.73584,20224.48828125
388,-20346.848,-25326.074,-40410.082,319.51392,-2063.0984,511.44745,18473.94921875
389,-8454.847,-10987.518,-19032.455,2984.0525,1388.4089,-1.3596997,11135.8603515625
390,-6896.6807,1079.8623,4286.6504,-1110.5198,-910.90753,447.16797,10309.0595703125
391,-9214.43,-5524.885,-11885.24,-254.61043,3.172473,147.72626,5555.18017578125
392,-1502.5103,-509.05154,1842.592,190.11406,1595.5626,1951.9022,5294.251953125
393,10429.159,16879.846,19623.832,-324.2892,-5235.0986,-1830.4407,12626.44921875
394,-25462.398,-13628.502,-22612.838,-5401.692,2892.2026,107.76241,15069.9658203125
395,1376.7634,1163.6658,6555.737,-2538.535,-1896.2194,2516.7805,8780.2490234375
396,-29499.752,-23618.229,-50451.14,-3933.2827,-2570.5713,2514.6475,26114.84375
397,-34054.04,-28940.723,-31137.059,-12031.353,939.5441,1802.7191,21596.232421875
398,6598.472,-21.90039,11758.494,-4928.9995,-748.1616,966.81934,13490.181640625
399,-3744.271,5411.6445,18351.514,-8998.532,-1139.0569,65.494385,24830.892578125
400,-3056.5422,-5112.585,-6860.3613,302.42743,-1475.9567,-1410.0082,4863.08935546875
401,-288.68262,3111.772,3571.2993,130.19481,-354.62442,-1667.5323,4701.80615234375
402,-2260.5137,-2621.7651,3201.4893,-13.004727,569.09973,1027.9209,6006.5908203125
403,-37766.418,-40413.86,-62355.527,-2825.9922,-1068.666,303.0768,23962.375
404,-21578.646,-22393.139,-38955.914,1236.9928,-2000.5753,1779.3444,17736.255859375
405,-33803.6,-36100.656,-55270.18,-3412.6821,-937.9934,349.71973,21324.30859375
406,-10195.2295,-10277.981,-14814.88,895.0722,-18.26236,-684.18036,4977.3994140625
407,3103.6436,5097.762,6991.037,1166.7405,3985.5188,-868.3656,8083.0390625
408,33551.895,45519.645,54793.547,-1950.3175,-1442.9932,2010.1377,19235.3828125
409,4666.2646,10848.818,16475.47,1329.9863,-554.4256,-2481.1995,11374.0087890625
410,-4615745.5,-4617875.0,-4637557.0,2174.2163,11438.598,3627.3022,29664.91015625
411,-6290.4395,-2729.101,-9489.953,1352.0258,-878.99335,794.4982,6634.0078125
412,-2328.8987,-2195.479,-2128.677,-315.47913,-397.15952,1441.6647,2652.9521484375
413,-3261.5596,-745.92334,-2876.5283,546.1333,-1072.5712,2222.998,4967.8212890625
414,-5670657.0,-5673933.5,-5690392.0,-325.3433,10771.008,4855.527,27470.59765625
415,-4535.8657,-2462.0774,7633.798,774.4204,35.37987,-812.29095,11443.1806640625
416,-20875.236,-20175.754,-35993.85,-3109.1523,-387.9387,732.80585,16452.962890625
417,-7825.7075,-2637.8984,-1022.43555,1813.64,-364.4628,1375.4276,7337.9541015625
418,-3139.338,-17944.441,-5165.8096,-4421.9697,-3867.2002,747.58905,17277.134765625
419,-6716785.0,-6715721.0,-6730030.5,-953.0425,11018.328,4329.8745,24775.947265625
420,-14167.989,-7196.873,-15155.901,1025.0243,559.7528,2833.439,9199.8046875
421,-18586.227,-8971.922,-22849.691,-2577.7432,2108.1357,-810.8931,13669.01171875
422,5323.807,5536.4443,4623.6646,-1827.1544,-1065.7117,-772.6327,3987.21435546875
423,-1696.791,-9016.347,-8178.6807,-4722.822,-2428.1438,267.8747,11531.0146484375
424,-4406.135,-920.7474,1009.88416,-51.235207,581.66064,1965.071,5933.939453125
425,-3215.7,3642.621,-132.13318,-3085.1099,-398.92615,1522.5243,8448.80078125
426,-20231.031,-18561.033,-33224.47,-2585.6067,561.9585,-888.92523,14720.4404296875
427,-18096.713,-15862.842,-26251.52,1313.0325,1721.5745,873.6191,10298.5966796875
428,-6041.6465,-6435.952,-4221.205,1920.8077,-709.8853,-3156.9783,6831.3359375
429,-5281.792,720.8911,-3227.6687,-1993.4119,-1193.5292,2035.1863,7519.43701171875
430,-10050.005,-13805.767,-16516.512,-498.27823,-54.901352,-278.9372,5711.576171875
431,-15729.33,-33334.117,-36044.85,2196.6575,-428.373,-585.29895,19520.5703125
432,-13704.664,-16471.797,-28633.793,1254.8578,-1844.3806,587.29834,14324.419921875
433,-2033.8141,-3632.8123,3148.6475,1558.3615,-549.30945,-809.24713,6917.85986328125
434,-15685.716,-9323.074,-30056.797,-3506.6582,-550.97754,1826.3293,19653.404296875
435,-6024.257,-5075.0947,-5457.0347,1778.8475,-293.43823,-951.077,3626.17163085938
436,-28031.322,-31561.418,-51315.715,-193.13033,344.6024,-186.35634,21748.580078125
437,1629.5608,3778.1746,6664.0864,-3423.1387,-4046.2336,3338.8022,11698.640625
438,-5897.354,-3571.0237,-1195.045,396.47824,-386.61517,2044.3514,5481.10546875
439,-9837.27,-3526.514,-3151.8945,5541.0576,-327.89944,-145.95111,11611.482421875
440,-1985.1967,4015.7954,6556.8696,1331.5232,1443.0406,-604.2423,8389.232421875
441,1024.0933,7491.233,24420.344,-2273.3586,-826.92993,-585.5613,21365.537109375
442,-21199.574,-16109.059,-31531.482,-1760.2506,264.6495,-589.1139,13992.9677734375
443,-4247.376,-7032.8306,-9540.723,-3947.9385,-815.89185,688.45294,8438.6904296875
444,64222.49,38696.215,75716.695,7163.8354,5211.592,764.164,36253.375
445,-8565.389,-14636.738,-12264.543,3474.6152,331.53842,366.2878,8064.5693359375
446,-2730.8218,-6141.883,757.90027,-1018.4492,-24.078373,-1504.0496,6753.2744140625
447,-1807.211,-2040.7756,2453.3604,-3795.776,2941.1306,4410.264,12113.1298828125
448,-8390.264,-5857.0503,-9649.515,223.90564,1202.0562,1500.2302,4736.04541015625
449,2834.2998,-8413.626,14213.269,-1806.3068,988.9456,-21.136805,19917.583984375
450,-22052.227,-16647.238,-29141.174,574.2708,1335.5442,800.50244,11227.0009765625
451,-25357.678,-25542.678,-42685.36,-1137.4934,35.593067,-692.5357,17389.693359375
452,-12697.669,-17547.785,-18634.96,-4229.382,-774.9116,18.16182,9243.5908203125
453,-7967.6597,-3385.0745,-3450.0159,2266.1924,301.68753,36.83568,6032.47119140625
454,-6900.573,-5841.381,-7165.743,2322.132,-1183.8533,-1169.0115,5094.53125
455,-3829.2715,-7931.542,-4912.382,821.3926,-1750.8248,-10.156153,4977.85791015625
456,-7364.111,-7262.6753,-2933.8103,2452.379,-989.46643,1071.109,6603.77978515625
457,-19295.447,-15980.675,-31420.371,-800.51074,-499.19806,870.2065,14252.5322265625
458,-40310.453,-41488.664,-64455.59,83.532906,-735.1323,1904.4354,23842.201171875
459,-6754.4985,3809.506,-9601.712,1734.7075,-1185.1556,-2334.1597,13392.875
460,-8744.0205,-5364.469,-8044.616,565.0023,767.02875,-1335.5826,4197.72412109375
461,-13789.243,-10445.471,-20393.41,-1963.9579,377.9173,1042.9506,9599.0498046875
462,-28317.03,-26148.182,-40484.22,-1892.3425,752.21924,-1018.5638,13952.9921875
463,-8544.04,-17117.857,-17233.963,964.2259,-1711.5927,-680.42444,9353.3984375
464,3131.6582,-6600.3335,12468.497,-1902.2787,471.85037,-553.421,16887.77734375
465,578.3782,-2854.0962,12710.832,2039.1997,-1957.6554,133.77515,14988.2822265625
466,-9854.349,-6451.7793,-7081.563,-1306.2201,-645.99335,1646.0692,4932.58642578125
467,-6216.6743,-4103.831,-3507.4448,2128.6692,-64.329285,1372.0332,5033.22900390625
468,-31667.4,-32477.441,-49635.76,998.04456,-502.78186,-1164.4573,17798.24609375
469,-5144.4204,-12810.616,-7461.528,-1431.2875,1551.9004,1408.0107,8105.21826171875
470,-10456.149,-3344.003,-10410.447,-4622.676,-1205.5322,-1680.0101,11278.044921875
471,15635.785,9192.148,32062.344,4459.65,1589.1938,786.3403,22052.123046875
472,-18599.209,-16309.322,-28674.434,-2845.2114,-719.99457,2394.5842,13147.9208984375
473,8010.779,3745.6262,35053.29,4987.542,-1279.1034,-1354.6097,30819.94921875
474,-15175.1875,-12461.513,-22548.502,-2829.4863,-0.8473959,1956.9197,10827.98046875
475,1394.6592,5795.655,-10849.936,1425.677,-1573.4003,584.60754,15418.72265625
476,-7386.8545,-13131.467,-12996.133,-7824.5356,114.89974,587.01355,14730.40625
477,-19068.9,-22810.605,-23433.033,2480.196,-1457.9738,120.789246,6449.16015625
478,-12089.885,-15668.83,-11086.047,1064.5704,-767.3202,-10.913995,4751.40478515625
479,-16365.852,-14405.467,-20221.348,508.77048,1254.0491,941.72046,5866.95703125
480,-27715.162,-23604.951,-41168.45,568.9159,-264.32245,589.102,15981.3125
481,-4181.2007,-6872.145,-4291.4067,-877.76056,158.00278,-266.91943,3091.40600585938
482,-14060.113,-13799.175,-26471.744,-1244.896,-357.56152,511.67694,12773.943359375
483,-32284.254,-38385.652,-51046.152,5252.656,-748.02344,1786.4274,19203.796875
484,-10607.973,-9585.926,-12365.315,-2795.8623,-323.45294,705.0478,5584.3173828125
485,-35093.332,-40673.46,-31042.23,-702.9276,-1475.8517,-31.59196,8841.6435546875
486,-48427.633,-62043.17,-72396.45,-2060.3728,391.51404,334.88184,21144.04296875
487,363.2525,-941.01135,9057.342,-636.19324,701.66187,-1666.3584,9982.4423828125
488,-30442.13,-36242.098,-43487.887,-1669.321,-1874.8107,1023.8409,12256.255859375
489,-50135.383,-52611.37,-68858.89,-2433.6587,1671.4282,201.61255,18346.9921875
490,-14914.678,-11777.064,-12207.892,2495.3762,-503.094,-359.224,5339.06396484375
491,-15492.29,-13844.451,-21267.754,-762.6355,-207.97224,320.9992,6911.73681640625
492,-33688.883,-30759.84,-44099.47,-926.63684,579.77405,-330.58838,12303.0439453125
493,5490.713,-2319.0806,1336.0593,3784.9248,49.062553,-164.1611,9427.1982421875
494,-29319.02,-33476.94,-51184.016,-1379.7087,-595.71716,854.6935,20332.740234375
495,5545.0156,235.30159,7854.861,5348.3447,972.6143,375.23315,11613.2587890625
496,-35386.168,-36772.566,-58108.457,-1622.409,-207.25989,-1243.1436,22346.904296875
497,-41848.305,-38521.293,-49780.367,-2321.6829,1086.1481,-219.06184,10964.9638671875
498,-16087.661,-19067.04,-18473.857,-2479.7063,-649.2375,-1668.2858,5960.044921875
499,-22132.281,-15784.16,-17689.854,-3745.2358,636.01013,-884.03143,8801.7705078125
500,-4498.4585,1863.6602,189.69237,-107.84943,-1736.8108,1392.7656,6894.3857421875
501,4479.7627,15082.011,20352.91,2847.7847,344.8303,-87.10492,14858.7529296875
502,4441.5845,7039.5576,19211.82,2516.9502,-792.15076,-661.41815,14447.72265625
503,16635.39,4975.183,-3675.4333,969.5807,-691.7189,675.61707,17812.541015625
504,8299.97,111.29499,-6758.533,2490.3364,237.24045,-313.57455,13768.546875
505,-4425.8413,-5576.4546,-3880.7124,1670.5841,-1587.055,783.0287,4473.97998046875
506,-8339.941,-3643.2168,-3001.185,-923.77997,-153.81235,-510.712,5375.91259765625
507,5540.6577,-30.930779,-1278.6995,-836.42615,220.7882,-686.06024,6573.33154296875
508,-2516.1445,198.19702,3577.6118,1698.1505,-1937.1266,744.4858,7037.91748046875
509,-1295.6515,-2048.4373,1346.7587,1047.0977,1003.82715,84.03398,3983.92016601563
510,-18500.857,-16637.535,-27773.885,1262.6499,-1505.4409,-1381.0529,11137.48046875
511,-22803.035,-10382.54,-14430.679,2465.9722,-905.88904,759.6762,11950.419921875
512,-10790.023,-10807.436,-18484.05,-1868.4417,-954.72815,2053.6006,9215.419921875
513,4236.0576,-3697.1477,15079.53,-3240.659,1930.1819,-1547.1703,17787.7421875
514,15222.243,11232.381,32391.041,3072.0603,-558.0818,942.555,20275.6015625
515,-20388.785,-21444.951,-23199.412,-306.8689,1164.0896,683.4265,3434.48046875
516,-20564.861,-19508.129,-30005.72,-1421.8381,893.5947,1400.8555,10703.763671875
517,6246.4414,18991.637,11028.392,-335.63953,-492.6272,1378.4976,11451.06640625
518,5394.542,13787.429,13196.038,914.4173,-704.0674,-27.967394,8356.1220703125
519,-23037.506,-23889.725,-21262.71,3337.4626,-1462.1466,-1008.68414,6947.705078125
520,-48768.996,-58091.492,-79928.21,-2206.978,269.79886,397.8397,27975.513671875
521,-13615.962,-25982.023,-12601.35,-3793.9507,-270.47305,700.70624,14538.5791015625
522,-3868.0352,796.6118,3907.7883,-924.3679,79.86167,-793.5228,7100.875
523,-10864.014,-14375.36,-16194.58,-1332.4413,-516.1652,-723.3941,5451.82568359375
524,1285.8939,-1414.1001,703.6346,-3559.4,339.21133,-2100.1677,7592.2451171875
525,-1070.4677,-11603.252,-3947.2915,207.67426,-551.7703,-170.79596,9489.201171875
526,-28624.21,-29369.266,-43214.258,3346.107,663.0749,-119.25155,15411.2021484375
527,-20352.168,-25216.383,-34975.766,287.41708,635.9274,1288.1415,13145.9814453125
528,-19900.35,-24742.479,-34195.84,669.127,-1602.3303,147.8994,12949.8203125
529,9618.991,-8190.558,-12763.95,-1574.2062,-57.736607,-186.81747,20666.279296875
530,10505.3545,-3160.1436,1720.6335,8.950647,-148.9156,-299.76822,12008.5771484375
531,-36934.08,-19197.568,-20931.938,2794.8508,699.9041,2625.1973,18232.068359375
532,-17859.31,-12532.145,-8683.605,7154.621,-1538.374,333.4411,14989.693359375
533,-9264.659,4239.945,-16174.351,1711.3541,-263.0377,939.9618,18305.05859375
534,-11501.697,-2923.4348,-13204.78,4145.8057,-325.80664,596.3426,12001.875
535,-25074.406,-30292.799,-55590.105,-2833.8472,1214.1008,-940.1661,28816.01171875
536,-18608.887,-16425.37,-22127.094,4770.6094,-501.94144,-1216.6947,9914.6669921875
537,-13981.916,-15523.058,-1444.4496,5758.838,-1506.3799,814.67944,16946.283203125
538,-35379.24,-35776.41,-64019.24,3304.9775,1343.6204,-2083.4272,29329.830078125
539,-30073.096,-25024.102,-31910.426,1137.0255,836.68085,437.83353,6685.69189453125
540,10822.465,1690.6531,-1579.962,5464.3926,70.704,96.11428,14614.2060546875
541,-12805.621,-23012.426,-13098.054,-4171.9985,377.34003,-99.40909,12407.7841796875
542,-45968.395,-53953.91,-63362.0,-3534.8413,304.21088,-310.3868,16292.974609375
543,-5434.4297,-10366.642,-4093.8638,-2664.8804,55.027916,-411.8915,7386.37939453125
544,-10443.742,-4179.774,367.0494,8296.398,707.1423,857.6773,17279.748046875
545,-12421.007,-3476.8386,-4564.242,4863.638,-353.57535,5.378713,11949.6748046875
546,-28911.088,-26035.129,-35825.992,3354.7983,-1500.4708,-452.86115,10821.623046875
547,-36550.355,-25407.455,-17922.494,-3984.6953,-471.65628,860.1732,17723.248046875
548,4872.62,-1926.1853,8929.534,-6433.05,-66.242714,-1208.837,14792.359375
549,-3657.1462,2398.0715,-2113.044,-4003.3408,1812.8932,-579.6313,9415.3017578125
550,-6019.5938,6893.724,6546.9463,-2299.0984,954.27014,1530.7006,13711.8408203125
551,542.2586,-632.20435,-2669.8652,3655.8813,445.21976,859.9085,7129.79541015625
552,12605.237,7353.0654,18157.512,6703.5654,-118.79143,953.177,15005.1962890625
553,-69491.69,-57826.07,-88473.484,-692.06537,514.5762,-905.56757,26879.75
554,-41374.7,-31588.664,-52049.586,-691.8458,-664.60065,379.93054,17815.12109375
555,-3804.186,-7881.4697,8227.081,384.93268,1562.4705,-457.20776,14792.771484375
556,165.58492,5131.9795,-5303.6,2484.2388,-1576.3853,-72.27817,10379.0244140625
557,-6974.8286,-5782.8853,-6712.455,-8993.433,744.44073,-70.90431,15668.439453125
558,-6754.179,-3456.606,-10983.456,794.62305,-616.71155,-239.35316,6776.0068359375
559,-1924.0055,5786.5527,-5647.786,617.28796,-301.60822,-179.84982,10175.6943359375
560,-4542.3613,-14695.825,-32959.37,41.135555,236.70929,888.53156,24992.595703125
561,9837.798,1494.0833,-2176.432,3848.0457,-110.10331,237.02252,12583.4521484375
562,8834.32,-311.34464,17740.541,-2789.3083,-221.26355,-855.02435,16434.66015625
563,-9285.051,-17259.307,-15518.656,-4057.3193,-1567.3534,1533.1733,10795.619140625
564,2786.7607,-6913.7324,-4037.3777,-6454.0635,-1477.4855,1142.3351,14487.9052734375
565,-21251.809,-22979.959,-47029.246,-4508.114,-430.74274,-581.0581,26181.181640625
566,-3828.43,-5705.434,-6304.8496,-6869.7524,-316.00275,1651.1185,12452.5576171875
567,-11603.445,-15225.455,-12188.644,3615.0415,-243.43633,770.9249,7246.25048828125
568,-7870.9307,-19856.055,-19880.037,2364.3328,-1353.0432,-999.6673,13007.3671875
569,-584.64905,-164.69827,3774.2917,-1838.6553,-1158.0925,1289.7657,6041.7021484375
570,-835.6402,1278.457,1100.2026,398.12686,916.23193,1913.393,4254.5869140625
571,9528.172,2209.6956,24382.816,-775.68414,22.74814,-464.60983,19631.3046875
572,6152.533,550.60535,6304.142,-310.20496,-486.0478,-2449.4202,7158.92919921875
573,-31348.945,-34173.816,-55786.74,-2038.2699,-241.4317,57.331642,23426.48828125
574,-31097.746,-32005.623,-52644.555,-1048.7928,-2230.0237,2002.289,21812.23828125
