Element Label,S11,S22,S33,S12,S13,S23,Mises
1,22615.428,17860.197,4365.179,-1822.6934,782.0095,-33.2936,16754.23046875
2,3512.38,14393.399,-1131.8506,7250.8477,-3515.2483,-29.702974,19628.994140625
3,8215.067,14952.805,4560.847,2154.3235,1148.0321,-2042.7986,10666.2060546875
4,8743.933,13819.977,2172.8955,1896.2094,7476.22,2629.4443,17364.04296875
5,23268.709,21261.72,14562.83,3111.1716,-134.08623,-1714.2838,10012.798828125
6,20623.94,16876.502,227.72163,996.94434,-1945.236,-2775.8328,19775.35546875
7,8821.956,17103.484,-4919.6313,1235.1085,2300.2046,1875.0481,20055.248046875
8,3337.3096,14103.575,-530.066,4269.7627,-212.2709,-873.9168,15153.390625
9,14339.38,16038.873,-8095.3994,2630.7434,-5895.0317,3544.6038,26590.310546875
10,12312.688,11801.171,-11266.922,2612.8525,5543.086,-4465.1333,26770.671875
11,20867.086,14258.259,12515.704,935.00555,-818.5961,1090.8535,8150.59619140625
12,9516.756,10387.628,-3193.369,2129.5847,7394.528,-4154.7896,20069.974609375
13,8871.324,14396.085,11048.814,5763.896,-7691.5864,2604.7993,17909.166015625
14,4397.749,10894.672,2624.755,2427.8503,12083.866,-2114.967,22935.4453125
15,21363.844,13073.835,15845.551,-595.3247,-14402.5,3480.2065,26704.37890625
16,10741.971,8193.424,18345.158,1952.5679,-3928.9321,17059.775,31851.7734375
17,-381.8542,2594.0076,18684.037,-6370.6377,8234.553,7638.0425,28562.638671875
18,8307.068,14366.146,23128.441,-2832.9292,15213.437,8421.449,33132.55859375
19,-30552.24,-25734.096,-36437.496,-3522.3362,2880.4688,6401.0107,16469.287109375
20,37260.434,24756.865,43917.19,-2768.765,-1854.006,-13530.566,29435.076171875
21,2661.061,10833.9795,-3575.959,8775.62,-11682.414,10546.074,33627.39453125
22,31697.85,31865.117,31156.11,-738.96826,-213.71011,13.311928,1479.13708496094
23,33577.727,41900.0,39680.785,8070.977,-194.83113,462.2469,15871.142578125
24,8571.792,-2871.7368,5456.8584,11681.339,-8455.743,2371.4136,27308.27734375
25,10629.127,24204.219,26194.938,1519.7637,-17603.852,-727.8161,33962.8515625
26,23324.908,6623.3184,-7510.556,111.91776,-1201.0856,-4291.9917,27827.984375
27,35489.2,49020.023,62299.76,3754.9468,-15971.975,2803.3533,37017.6640625
28,5006.952,8573.012,16752.168,-1962.01,-16104.929,10106.808,34711.3828125
29,8092.4443,-19347.717,-25897.26,1057.0209,-10680.465,-3419.9949,36827.12890625
30,-7562.472,3370.6704,-19743.05,2015.2126,-13508.1875,-9301.43,34931.625
31,21804.357,23861.176,36332.832,3834.88,-14344.493,-8934.304,32959.1015625
32,6819.7676,4658.907,12212.59,2449.04,-14227.191,-14816.845,36458.93359375
33,14052.52,12019.68,9533.089,-2245.5444,-16436.396,12880.811,36588.375
34,3416.263,-5108.3955,-2863.2205,-335.17212,2821.012,-8346.322,17081.15625
35,10263.939,386.06717,6522.278,-941.33795,3421.2883,-417.25964,10625.8671875
36,16350.504,-16545.293,-4615.216,4006.709,7067.9023,4192.1313,32905.3125
37,-8635.206,-17779.5,-19678.82,-2732.5889,-19442.658,-6075.585,37037.59765625
38,26973.652,31726.62,35956.46,2549.6482,-17152.268,5115.1826,32267.39453125
39,7263.5547,-3852.879,-3862.0908,2984.8552,6827.2607,-394.44736,17050.12890625
40,662.1534,-16307.503,16994.352,727.25146,-11438.242,1237.8481,35079.12890625
41,17425.986,-7628.304,23513.498,6416.6807,-13760.417,1726.6863,38959.03515625
42,11211.031,12809.725,11733.106,135.20335,-743.59735,313.60635,2000.61047363281
43,31218.855,31129.9,31813.744,-9.456243,-577.2406,-929.0441,2000.99499511719
44,9468.633,16714.844,13397.533,1622.9048,5649.102,-7545.6196,17717.83984375
45,8574.619,16835.139,22219.846,-893.6357,10279.99,-11631.32,29444.947265625
46,18328.09,5040.1875,16269.711,1967.6338,-1641.3617,-17317.354,32753.974609375
47,-5099.467,25835.459,4088.6233,6101.392,-2859.3735,-6988.5537,32247.267578125
48,27414.951,12912.109,37813.727,478.1367,-1785.0345,-13515.992,32055.728515625
49,16463.996,10937.561,32834.004,1472.2499,-469.41138,-15278.191,33112.2265625
50,31375.521,19111.535,34713.8,2731.5718,-2265.926,-13045.1,27400.759765625
51,-1816.3887,17614.943,-4113.742,3365.9614,-2569.0369,-662.21954,21968.15234375
52,13706.891,2942.424,15808.164,1845.0023,-6851.852,-16061.447,32678.345703125
53,16071.26,13059.128,19388.484,1744.8999,2262.8484,-17643.77,31439.974609375
54,14190.949,8293.918,23846.646,-110.820885,-2203.1855,-9589.428,21804.076171875
55,27690.389,22118.625,31879.064,-1232.4542,7377.277,-5216.765,17927.666015625
56,19459.781,14942.744,10915.684,10344.973,3959.3655,-2168.2288,20904.544921875
57,12186.721,141.62755,5895.7695,2470.3792,1371.1943,-1784.0355,11932.4111328125
58,-774.7049,9131.353,10170.267,2952.4011,13707.677,3573.179,27159.802734375
59,16740.158,900.9758,-236.14871,-11227.849,9645.837,-8137.5884,33558.38671875
60,15293.128,3372.9924,32934.05,-2310.351,6590.4136,-5358.967,29933.982421875
61,20185.027,32093.506,36810.062,-7144.21,12721.683,-5712.594,30931.6796875
62,18635.7,27306.732,44350.293,-3397.9036,13401.329,-3663.3994,33572.9140625
63,17412.852,24857.047,35444.895,-332.76172,14798.64,-1733.0613,30210.5703125
64,18491.81,25714.742,30594.174,2674.1646,19472.707,1193.8895,35700.30859375
65,10407.519,22312.414,22543.168,84.3921,17013.383,3267.9988,32325.736328125
66,21837.312,25215.062,31054.574,-1074.0771,16495.412,-7378.504,32377.728515625
67,6498.545,13480.231,26395.512,-2551.4211,16236.172,-8426.683,36457.03125
68,13126.0205,22734.69,38051.957,-1449.6793,16087.514,1313.2019,35525.0078125
69,-418.6358,7951.6963,21756.99,1697.3282,12641.296,-9901.105,34034.52734375
70,6278.4653,22435.61,30761.783,-946.0035,14394.657,-5105.3184,34167.26171875
71,11575.945,14275.525,22276.393,-641.65454,15933.654,5803.136,30932.328125
72,8258.949,1935.9424,-10128.407,1379.0956,13306.857,8496.407,31863.80078125
73,9038.525,9322.748,12995.081,2527.96,16258.398,-1175.1724,28825.890625
74,-11925.02,-7735.7354,-22598.361,-3909.4485,18452.23,-4607.7744,36155.0078125
75,-10148.831,10882.876,7574.5156,1436.1085,13746.038,-3123.9297,31400.990234375
76,16538.21,18414.314,23465.598,-4069.579,16136.8955,-2390.738,29774.84375
77,59436.734,63663.906,72213.516,2091.2947,14821.364,-2667.9136,28646.078125
78,-24121.826,-13291.729,-28000.549,-7633.039,1124.3202,9733.532,25241.8203125
79,-6765.7026,7093.477,-6133.642,-8549.309,-10282.974,16162.774,38780.31640625
80,3266.9253,-5484.3477,17352.875,-663.9573,1217.9968,12434.734,29460.306640625
81,2321.2437,7111.2188,19832.465,-295.7148,-542.67957,13816.887,28628.19140625
82,14072.344,5287.5034,19312.416,-6813.6704,1823.8131,15932.233,32579.6015625
83,34803.215,25711.33,42918.934,-4046.0837,-1260.6472,14211.094,29699.49609375
84,-503.30472,5663.396,-13542.697,-980.97363,8584.209,15200.704,34721.765625
85,16901.271,16567.14,28814.545,-31.390898,-7787.856,17199.252,34862.8203125
86,-981.0803,7763.943,-2563.5884,-2714.5188,15509.09,13177.797,36844.0390625
87,21566.104,13761.276,29262.248,-2850.782,-2939.7112,17426.127,33786.5234375
88,30421.537,22307.049,29772.977,3010.9763,-973.7915,20643.816,37007.390625
89,34542.324,31032.967,51286.1,-1661.6953,-9625.182,12281.869,33017.8515625
90,-4460.934,-3350.117,5282.3364,-2235.9666,5513.426,10869.586,23366.17578125
91,22511.1,18461.48,15553.903,-461.7081,-2203.0518,10436.171,19456.845703125
92,31122.281,39720.2,46645.516,3596.5078,-17555.77,837.71277,33866.6875
93,-1512.3119,8881.928,18283.299,1209.1813,-14174.61,9452.505,34195.625
94,12891.449,19387.662,36302.81,3444.4612,-16104.301,-4.61234,35381.43359375
95,16375.027,-14717.306,3207.2078,14718.153,-686.03766,6187.856,38689.26171875
96,2884.507,18021.08,-15656.711,2590.9912,5612.1836,11038.22,36519.8515625
97,8512.031,18637.178,35263.223,108.89941,12122.534,-3682.9075,32076.154296875
98,10140.269,9433.7295,33548.688,2369.8567,11204.097,-6479.056,32929.78515625
99,27588.268,18890.283,37004.395,3486.7,-2073.3894,-8967.236,23169.4140625
100,4691.0884,7098.7505,27342.672,2277.4956,-9226.649,-1767.5886,27288.841796875
101,-2123.2925,5117.8945,11483.729,-1618.349,-9675.193,-15829.246,34342.90625
102,39313.336,47835.15,54919.145,1640.1096,-17878.852,1615.025,34029.8046875
103,20846.75,26680.447,30387.188,3740.9082,-16596.451,10178.488,35334.26953125
104,19762.812,7256.4883,-11542.244,-3275.2979,-8806.759,3819.3164,32458.046875
105,28515.938,27496.992,32157.393,104.59427,-15999.784,-11215.616,34108.51953125
106,-34571.656,-18315.844,-41797.55,383.79102,-15186.523,-2124.3206,33760.9140625
107,-10442.768,-10768.166,-16580.932,-4880.221,-14667.144,6417.356,29599.966796875
108,32503.846,45585.027,64812.77,2017.3953,-11683.614,2538.3325,35119.859375
109,5734.197,7202.161,28931.408,-936.7697,-573.4466,11859.393,30524.8671875
110,13120.927,-1360.0226,-22149.342,233.80058,5612.685,2144.8982,32425.53125
111,-3934.8433,5945.7417,11948.796,-4832.903,16165.673,-247.0457,32360.734375
112,15540.23,22798.457,36532.145,1285.5278,16128.774,-6580.0244,35443.44921875
113,10943.006,15201.414,16794.781,-365.9556,16692.207,-2221.7698,29640.478515625
114,9633.075,-2363.1726,-26752.137,2035.119,9972.703,1329.2313,36706.9140625
115,6006.313,10486.262,22644.604,-1300.0586,15210.367,2621.8625,30694.017578125
116,31613.383,41760.8,55635.543,-2293.765,11907.985,5177.2393,30949.431640625
117,29758.79,16772.314,46597.723,4101.6562,4603.257,-6408.425,30135.046875
118,-18419.637,-24315.2,-23865.775,-2450.1318,-3464.2397,-11695.902,22286.875
119,7766.389,21084.361,24726.713,3604.2847,17959.115,4800.774,36260.8359375
120,3619.8713,6815.6313,22008.137,767.1987,-17316.18,-8483.249,37507.19140625
121,13224.548,22361.918,36374.71,65.40939,-14219.775,-1735.0078,31992.806640625
122,26314.7,29242.787,39552.86,658.729,18267.139,-202.38472,33875.50390625
123,-2673.3228,-15896.686,-32522.18,5753.2695,-2667.4065,4712.682,29298.173828125
124,42432.832,42287.82,43088.46,-481.19217,-105.106316,-580.6303,1511.66333007813
125,18265.73,13564.921,12635.163,8096.7925,2026.3357,-18558.73,35631.5078125
126,44739.184,40495.113,53190.15,4772.333,1729.316,-15701.267,30695.015625
127,15890.989,13137.92,-8692.223,7496.326,9668.077,1645.705,31644.263671875
128,33061.3,21655.453,-4829.2144,2005.9037,2362.638,-8611.232,37214.0859375
129,12754.037,3853.2625,20901.26,3936.0977,-680.7881,18343.09,35712.65234375
130,19169.338,13364.59,27721.756,2307.2063,-11819.414,11645.76,31597.78515625
131,30907.047,17415.49,35216.812,10411.0625,277.18088,10999.318,30774.953125
132,37251.188,28995.977,48017.293,-743.65686,-3022.9128,16474.285,33409.77734375
133,26751.025,21498.19,28238.992,9097.9,6256.3477,14300.944,31889.095703125
134,18137.336,9572.04,29210.09,1771.9651,-4970.2964,-14438.1875,31618.453125
135,19652.707,13584.421,9532.686,7491.401,-10025.581,87.02737,23404.0703125
136,13840.553,11157.637,11299.627,3746.3198,337.41046,-4429.8076,10399.6689453125
137,-13568.739,-9681.937,-10386.561,-2757.3638,3997.2275,-2014.0433,9786.560546875
138,28634.453,39765.297,49622.395,-208.95468,14917.904,-2486.825,31891.87109375
139,11033.986,14165.6875,22094.82,-1080.5029,16663.855,-5091.646,31809.42578125
140,18828.756,31244.115,45420.19,420.1839,12570.226,-1032.365,31762.58984375
141,12003.339,24966.54,34644.13,94.628265,16986.678,5354.9287,36590.26171875
142,11402.682,12986.491,19127.438,-2016.9385,16342.542,6878.7275,31707.04296875
143,16083.877,24573.668,30219.607,-2406.8555,17891.416,635.9601,33627.16796875
144,11184.907,16759.414,30966.94,501.3069,15572.117,-815.96643,32285.48828125
145,1668.2054,12300.17,18025.412,4928.3677,17379.764,-1594.5961,34544.91015625
146,-2519.5295,-3399.1013,-32581.48,-5783.475,-4756.66,8705.2295,35687.80078125
147,-13486.794,13820.26,-3525.298,1563.5376,8231.73,8345.286,31502.96875
148,19123.285,7869.5977,20802.771,-4742.375,19140.928,-6907.284,38184.99609375
149,53757.668,42236.31,65695.41,-3768.3208,-7745.731,-12050.981,32727.03125
150,22021.287,14472.854,35855.438,3847.3853,-7822.9136,-15011.139,35451.2734375
151,-2186.1162,-6590.0728,-3607.3413,2174.33,684.20557,-3854.728,8678.7109375
152,19376.902,5416.861,14705.609,3308.9294,1986.6614,-3897.0566,15548.021484375
153,509.51187,-3279.1438,-30620.766,3000.1904,1387.1377,3683.476,30642.87890625
154,2789.3027,6946.6616,15131.2295,-1743.4348,-16008.829,1519.3424,30053.09765625
155,10183.994,18144.586,21214.445,-814.7182,-18256.623,-5143.086,34329.16015625
156,58739.605,68514.39,77867.73,212.0038,-16549.586,4654.1504,34077.01171875
157,-35033.38,-21384.04,-31626.346,776.76843,-18209.62,4210.6245,34658.0078125
158,19965.545,31581.447,46007.184,-1478.251,-7267.2227,-14208.071,35793.85546875
159,31492.059,32932.355,44826.54,4546.97,-18555.895,-1264.9371,35503.0390625
160,14323.392,1978.1296,17440.334,6172.631,-3266.2483,16484.865,34090.49609375
161,17308.188,11022.122,29982.5,958.1672,-3765.1484,12829.716,28616.6484375
162,25022.92,25052.135,30799.56,-3791.8909,9944.281,13505.241,30334.431640625
163,16732.738,10999.952,24677.17,-2511.3127,-1046.1266,15217.209,29298.740234375
164,13238.388,12187.446,30522.084,-8988.072,1809.5441,9538.308,29036.3984375
165,15466.454,23052.484,25878.639,-401.7445,-10649.2,-15810.218,34315.6484375
166,-8374.631,-10891.645,-20450.799,-8462.9375,-2632.9392,-16335.58,34029.22265625
167,8388.638,22885.422,676.6743,-3158.8442,5414.5957,-8553.256,26810.310546875
168,36136.78,22345.52,47032.36,5476.7593,-3976.844,11343.048,31346.466796875
169,24270.408,12108.464,29855.115,-1031.5292,-11761.092,11265.872,32341.0625
170,34035.887,25723.7,49254.72,-1426.7467,2066.2373,15041.271,33538.65625
171,17809.078,6279.131,16116.624,1953.079,-11902.615,-15214.528,35315.6640625
172,27884.54,14128.058,1040.8279,-594.30023,-3908.4197,-14091.825,34397.32421875
173,1817.2418,-172.49574,-692.8969,-1859.0646,4618.041,19974.455,35728.828125
174,17287.463,21830.037,21122.188,820.4534,19969.873,-2473.1252,35137.96484375
175,11613.909,5464.2827,4771.7373,155.75087,18728.576,-528.9597,33102.07421875
176,-9186.065,-19790.578,-16095.877,17116.584,1411.2935,-10698.308,36265.6171875
177,13008.941,19518.4,23095.402,4326.965,-3013.5034,-20753.953,38131.921875
178,15939.716,15219.537,4901.7144,-3033.0056,3982.804,-3775.895,15243.5068359375
179,24004.736,28919.086,38593.098,-3969.7727,-4493.895,15811.355,31986.53125
180,17025.361,22176.508,-2412.2844,-13193.818,1471.8665,-4219.8135,32964.11328125
181,13226.155,-17343.275,-2727.0264,1356.481,-9451.148,-10457.961,36095.8984375
182,12304.972,3750.2407,-26385.018,-2247.9636,7745.4,-185.73932,37872.859375
183,20983.207,31638.717,41892.76,2030.8201,17838.398,196.44931,35986.95703125
184,31498.719,22191.705,6813.0503,-9013.663,9220.714,-4477.9165,32018.91796875
185,1546.5955,-3613.0723,-1092.438,-12588.571,-13932.326,-9453.524,36685.4609375
186,-3650.0044,-12860.956,5079.5806,-4160.9272,-7266.302,13536.294,31646.267578125
187,7489.7715,-7361.39,15246.952,-3010.8958,1269.0474,-3343.7295,21482.6328125
188,-22964.275,-5388.9595,-6592.8003,991.8968,-7589.2725,-2968.9758,22166.873046875
189,11381.121,14392.139,24932.473,-1528.2855,-18934.92,-2054.1636,35315.171875
190,36124.34,37427.76,32859.105,-748.1035,-13612.032,13796.358,33840.45703125
191,15152.793,16081.315,35153.176,1363.9634,-15733.835,-6776.8784,35613.57421875
192,39228.84,42964.434,63296.203,-5127.1924,-12522.761,-5980.0454,34057.1953125
193,14597.172,14924.593,29887.182,-2466.9175,-18707.371,2920.1814,36367.87109375
194,13195.545,3335.9229,-11787.581,3012.228,-16755.07,-4692.8047,37557.015625
195,21868.127,31906.223,33025.05,-1108.9164,-14958.677,13449.215,36481.02734375
196,67659.625,76637.61,93761.195,3303.194,-10391.16,-5831.5254,31404.435546875
197,3934.4724,20633.191,-13272.271,5681.8755,-10242.104,-969.67004,35729.87109375
198,-38292.312,-47753.027,-37527.035,3048.42,-17396.531,-4610.625,33119.49609375
199,27488.488,24387.871,25417.234,4034.763,-19964.768,1380.4467,35465.6484375
200,23593.504,27485.314,34406.402,-1855.9966,-16240.919,-9207.866,33852.2421875
201,17067.314,12953.142,10900.441,-759.2855,-10318.17,-13891.248,30489.48828125
202,-34.08622,-4587.635,-10837.797,-358.69925,-19451.8,-2954.0806,35354.53515625
203,8221.695,13729.407,28808.033,-5134.124,-14058.071,-9317.308,35681.2421875
204,11425.191,19667.3,27949.322,3695.1902,-18184.113,7220.7656,37338.359375
205,2481.973,14408.577,8512.705,-1838.9817,-2924.4138,16744.965,31363.533203125
206,12556.106,7473.5073,5796.41,2838.0623,-17980.725,3883.031,32809.8515625
207,-8345.492,-2971.1396,-6078.6836,9927.067,-13823.719,3813.0532,30567.6796875
208,36941.45,25422.52,32124.99,-6450.3594,-9294.985,-755.36096,22048.28515625
209,-62732.742,-46536.13,-44351.793,-1621.6414,-3939.3093,-3694.4421,19946.69921875
210,25681.695,-4320.119,-5441.22,-6474.1094,-6699.941,-2592.1462,34865.00390625
211,-41305.094,-40278.055,-41697.12,-881.8362,-115.24092,-81.78545,2000.98364257813
212,2509.168,-11800.222,-38509.344,-903.68414,540.72253,1981.2368,36268.859375
213,-7576.967,-537.1357,-8779.031,-4125.4033,-11366.451,3733.0244,23236.14453125
214,-14453.726,-15964.508,-10570.83,-1355.6443,-6023.393,-3189.4585,12965.361328125
215,-18091.732,-2474.843,1541.9482,-7241.6416,-144.79018,10606.272,28594.017578125
216,15207.009,-8791.512,13959.527,-827.89923,-4396.8867,10237.44,30364.732421875
217,1013.17194,20601.258,-6957.039,11485.532,-3077.485,-4761.8325,33098.7734375
218,-24890.926,-37501.664,-32016.715,-12617.769,-440.34332,-12089.304,32196.365234375
219,1681.3186,32688.746,34355.996,-6202.5957,-8095.919,775.1934,36466.265625
220,11997.35,3060.9812,-6216.3784,1911.61,-10553.134,10980.978,30913.560546875
221,390.66583,1746.2701,-3900.563,-9960.301,8074.4707,1262.586,22892.486328125
222,4197.195,28417.668,16590.441,-2511.4917,861.9502,15261.644,34058.16015625
223,21335.44,11989.528,27141.605,14.789043,-8188.8374,17311.338,35714.7109375
224,48812.25,37571.098,50429.004,-11664.571,6461.134,13297.593,34800.21484375
225,6807.233,19383.426,17649.742,9666.492,1461.5647,-13147.344,30735.205078125
226,26532.707,29125.012,33284.75,-137.24326,-7968.656,18423.799,35265.71875
227,-4363.7354,6037.491,-9422.454,1222.8032,6467.9956,16281.188,33340.890625
228,-18203.57,-4541.13,-34485.27,64.52093,-7928.752,2202.3093,29620.298828125
229,18415.545,24534.441,14721.1455,-5013.677,-2437.0715,14823.413,28742.384765625
230,-11007.667,-6028.7295,5470.0195,3335.5413,17768.273,1258.9929,34634.23046875
231,109.99661,-4395.0073,-19243.203,2067.0764,1621.637,-12398.953,28099.1953125
232,-2758.034,-8200.46,-7549.0317,955.09814,-1320.632,-5228.0986,10791.9833984375
233,6342.4585,3569.5847,-13988.442,-4347.171,10868.821,-1158.6317,27924.435546875
234,27379.516,-3826.136,-4594.1147,4268.181,-404.27872,3125.7634,32905.94921875
235,28311.5,-5383.186,-2744.6418,398.65814,-8199.608,481.38214,35443.77734375
236,-4296.868,-12771.7705,-35283.98,-2783.4368,10430.777,-2796.732,33801.234375
237,-15248.285,-26832.84,-31010.254,5717.0522,-126.52476,3000.4976,18032.115234375
238,14741.187,16530.162,22496.867,-1349.56,-5567.5596,-7550.4653,17859.505859375
239,3174.557,-5388.7407,-27337.346,4133.1074,-9762.581,-10990.238,37980.9375
240,18909.861,-311.6212,-16830.645,1561.1504,-1508.9844,3088.413,31664.1953125
241,14608.321,2482.9077,2409.186,319.09546,-3717.2222,-1147.6412,13915.2763671875
242,13951.937,7220.164,16173.163,7092.319,7600.2026,3525.7683,20656.4453125
243,25853.902,20785.566,-2066.4814,5273.968,12862.176,-7439.023,37543.23046875
244,4185.1924,-3282.5225,-14111.394,5329.493,-2395.6123,-382.9731,18888.23828125
245,23624.654,10709.941,-15916.459,4041.542,-6868.7734,-979.97516,37590.56640625
246,12765.081,14465.461,23702.467,-34.973045,13346.697,-1946.2382,25489.01953125
247,23409.559,14421.31,35548.184,-7090.1416,15294.768,-5579.233,35822.109375
248,5079.671,20991.113,-3455.5972,17419.854,3033.3718,1672.7657,37525.80078125
249,7161.358,2265.501,21431.234,-10163.418,16021.335,144.2881,37114.13671875
250,3254.264,5667.3667,-4088.0188,1500.5576,21228.1,3944.1455,38506.7578125
251,-651.30426,-8700.907,-34910.28,-3448.08,3733.9224,2972.4514,32660.421875
252,4628.814,-9134.799,-9795.975,-5127.648,16668.371,-4148.6997,34102.6640625
253,12138.942,-17606.201,1690.6765,-5867.4033,-7745.443,8706.678,34551.8203125
254,-8545.978,-16414.678,-3457.916,-17840.686,-12478.097,1063.2428,39410.8046875
255,-12702.467,-17283.459,-24383.625,-4138.5386,11703.74,8518.48,27998.791015625
256,-11015.356,-16489.074,-17738.688,-1963.957,-3547.6672,-2839.7441,10577.560546875
257,16247.695,-10432.354,-4575.728,4587.6914,2422.2786,655.1353,25921.046875
258,24836.73,14162.626,18280.549,2293.5952,-7281.119,-14210.933,29455.328125
259,18483.49,1469.0831,4741.588,276.27774,-3754.3806,18249.918,35863.81640625
260,21890.46,14532.673,22988.406,3516.8608,-3187.0293,-16451.965,30708.28515625
261,-13695.399,11354.366,9700.106,6135.473,2193.6436,-5611.794,28471.62890625
262,16071.316,2108.2598,-14166.554,4804.772,4047.9128,8859.34,32263.921875
263,47143.285,35776.88,51695.316,-581.3949,-9352.631,-14794.68,33492.2890625
264,4870.0996,24181.062,8515.642,1336.2935,-11491.65,-11631.111,33513.93359375
265,-24432.145,3443.7466,-11711.97,889.2606,-11090.56,-4523.8315,31891.23828125
266,18018.986,20711.72,18280.904,2351.8142,4174.6465,-15509.135,28232.783203125
267,-14198.35,18626.494,-4976.65,1477.9062,-2912.8442,-7961.0234,32893.0
268,266.11725,3881.01,2539.0566,-1215.533,11537.534,-16393.03,34928.33203125
269,12739.665,22248.986,15231.612,99.03412,-14166.636,-11525.02,32764.74609375
270,5394.8228,-5075.3647,13212.024,468.03192,-12873.466,-10624.84,33001.1875
271,22588.602,10785.313,-12733.643,-340.49927,10359.858,9363.75,39438.90234375
272,3018.5166,15650.868,16996.986,8791.424,14107.339,-8841.992,35239.94921875
273,13378.061,12514.53,12425.368,139.94743,112.639626,-637.904,1465.67797851563
274,-16856.852,-20232.39,-28943.283,2534.2183,-8299.446,12097.067,27957.185546875
275,2806.2053,15645.265,13451.68,580.6689,-19684.033,811.53564,36150.5234375
276,1762.9629,-5959.7705,-29722.746,565.3131,-13275.847,-7659.0815,38904.015625
277,-6642.154,12951.975,-22699.037,3465.3975,-6808.991,-3222.6084,34097.5625
278,6909.099,11302.731,-11767.09,2112.111,-1503.4264,-843.5903,21736.126953125
279,12719.39,2977.0862,-6409.5366,4890.8936,-266.0546,3102.646,19373.24609375
280,-3182.252,-10404.358,2990.0012,-75.45112,100.9068,-455.33096,11640.5234375
281,7002.447,-13786.825,-31451.268,1758.5425,-1396.2661,3706.0264,34172.90234375
282,227.5276,9830.408,-18945.97,1918.1027,10801.053,-5857.263,33285.2421875
283,-6027.5312,13447.964,-11745.109,4514.5625,-359.0155,6941.423,27007.75390625
284,6887.8364,-5349.6157,-18681.773,5516.5684,1190.9999,866.18494,24258.13671875
285,-23305.387,-22223.766,-22047.04,1531.2183,-15067.328,14045.706,35795.87890625
286,16388.54,24414.55,23453.42,-3722.3794,10536.549,7768.88,24765.2578125
287,46020.117,46342.734,58940.84,-5917.2485,-15071.233,-6602.395,32865.23046875
288,-4076.1438,3930.8906,3934.3445,771.34155,-12801.307,12919.337,32531.11328125
289,27326.445,29716.904,35093.35,-259.10022,-18132.15,7282.97,34541.62109375
290,34957.277,38451.195,43729.586,-121.94152,-20307.12,598.5522,36010.6640625
291,13228.995,-1532.9702,-11759.802,943.4283,-9098.5,-2611.2334,27293.693359375
292,18713.904,-1509.8354,-1247.1547,-1241.9238,4164.8433,3628.7446,22358.9921875
293,9161.163,-4798.2695,1748.2996,5665.261,16655.02,9664.576,36810.375
294,6811.614,-6402.2666,565.1145,-16419.686,7486.3745,931.518,33326.3203125
295,11053.726,-7249.809,-7064.1655,6175.082,731.69995,-1588.6075,21336.07421875
296,-9049.394,-5635.54,-8547.505,-3078.549,-9484.884,-1075.6344,17663.107421875
297,-695.3489,921.78174,4251.201,-1336.2448,-53.353718,4846.813,9742.90625
298,-20310.953,-34142.34,-38012.23,8952.639,-4490.082,-11036.274,30432.533203125
299,11270.388,-4731.1777,5100.009,-2265.4814,-11210.254,15264.872,35872.6015625
300,15525.44,5566.5103,12241.71,2757.682,10808.258,-14996.499,33544.23046875
301,4424.6606,6411.9873,11253.076,-440.02246,6242.061,-17372.791,32556.396484375
302,26379.98,30794.582,29318.068,-1717.8917,2578.1038,-19078.148,33702.6875
303,5077.035,10147.514,17347.852,-1532.9028,1921.116,-20351.863,37078.02734375
304,3060.8372,-8105.996,-10511.976,4150.1436,-8926.238,-8469.347,25753.599609375
305,-11629.252,-20234.36,-14011.267,5560.32,-2503.0247,-3849.9773,14670.9990234375
306,-8624.342,-5674.1934,-3548.598,-2802.4868,1489.672,-14924.132,26793.66796875
307,4242.143,5156.518,19925.965,208.76228,-6335.577,17251.654,35297.1015625
308,21438.045,19413.074,22580.633,1309.6388,-4818.196,-16004.839,29171.47265625
309,-16738.06,15438.764,-7553.922,4795.138,694.0723,-3422.7747,30491.82421875
310,16326.84,11399.514,29863.486,2690.8347,-1878.5651,-14825.135,31078.634765625
311,3080.8992,11282.322,-2480.1997,2871.9875,11889.812,3614.6284,25136.478515625
312,-2136.774,8649.944,-14470.591,1975.7588,-8720.035,-2590.508,25719.2109375
313,26960.934,13500.506,28823.963,8083.0645,-6320.2495,7806.508,26615.791015625
314,-21131.814,-32704.137,-30081.73,8175.044,14072.149,6627.072,32198.955078125
315,-21275.271,-14598.062,-33879.09,2693.7856,-16254.393,9542.797,37083.41796875
316,17000.81,17879.654,21254.365,-868.3391,-16017.191,-12135.474,35054.94921875
317,16299.419,17552.822,14307.81,-362.5329,-13565.882,16268.323,36803.56640625
318,16144.989,15866.943,14131.252,3207.525,-16087.418,13631.179,36990.26171875
319,9393.744,17076.51,26114.404,-11176.326,-2768.7336,-3047.4941,25213.77734375
320,-10774.794,2393.2039,-6262.4326,3620.3818,-8417.85,6779.105,22893.44140625
321,-33130.527,-33595.344,-35068.344,126.518425,-274.2726,309.23856,1905.52880859375
322,-1163.7665,7108.992,2453.9353,-16512.586,5615.4556,1325.6085,31136.251953125
323,-5556.2954,-4667.1294,-634.0011,-4882.286,1293.1243,2124.1902,10521.6953125
324,-20732.645,-17395.1,-19430.555,-5956.936,-6592.944,12348.245,26510.041015625
325,-3976.9568,13859.57,15797.243,5267.018,5007.6514,10901.353,29519.99609375
326,24642.979,-1949.2778,-72.45334,-783.6924,9030.284,-2012.8263,30321.552734375
327,10590.678,1534.2151,12051.09,899.76624,4886.81,2562.9077,13825.8974609375
328,14076.961,2825.605,-16658.752,4317.2646,-7262.064,2082.509,30864.189453125
329,17769.473,4344.177,-6416.1143,607.24713,221.31245,1467.5149,21170.650390625
330,3474.3293,-17735.629,-27380.95,-3319.9126,-1404.5549,5975.561,29892.76171875
331,24819.42,13626.103,31111.752,8318.975,6277.959,-904.3228,23740.7578125
332,11868.723,7078.9883,30533.092,-7337.152,-651.55316,7772.3647,28367.259765625
333,-27060.748,-46782.785,-37534.56,-6231.833,12860.474,4408.1846,31033.423828125
334,16442.045,15453.251,21560.264,407.80307,12303.516,-12726.226,31188.677734375
335,5810.55,-9233.414,8449.107,-4255.6787,3263.0725,-14770.644,31839.728515625
336,8974.65,11228.147,-6517.816,3052.3186,4473.707,-18915.336,37965.3671875
337,1311.4248,6559.453,-1464.3002,-1965.6106,8502.061,-208.92761,16685.037109375
338,21310.111,21242.672,34925.13,4857.9326,3208.6746,8694.529,22688.3515625
339,-3582.5493,28678.846,24664.008,-918.0264,-7979.547,4964.997,34567.234375
340,8043.5293,-7144.757,-8716.335,3216.9712,-3929.1118,11937.64,27602.640625
341,-7777.7856,-6039.978,-7193.9307,-114.56329,-4670.227,7438.878,15291.48046875
342,21550.29,11469.921,16125.172,4074.686,31.71312,15605.755,29270.96484375
343,-11626.484,-17145.863,-7674.473,-6242.805,17111.736,1047.6068,32657.9140625
344,9765.748,-12845.799,-5103.2144,3035.9333,2551.0078,1794.8582,21283.701171875
345,-6853.9346,9999.5625,-5598.7056,-1594.3888,3504.158,3281.9792,18472.6484375
346,-3419.3364,19740.627,13698.771,-5460.364,-1008.0353,11170.653,29996.73828125
347,18223.531,12652.239,11640.642,6496.0244,-6669.0957,-6599.9897,20697.9140625
348,-12653.647,-24911.568,-35730.395,3521.8892,-16584.176,8479.167,38443.78515625
349,-33881.438,-36044.28,-43038.953,-2110.3071,2567.9998,-866.30066,10204.2734375
350,-7628.31,-9748.646,3712.7244,-6973.173,13826.081,-7777.354,32526.611328125
351,-3479.2493,-1345.8191,-8352.847,2701.3225,-1407.302,-20240.809,35994.51171875
352,-5329.8135,-11739.937,-24504.717,-7811.3384,4856.042,10624.017,29635.396484375
353,4343.9824,22448.365,-713.69525,-5396.504,1005.17914,11645.311,30694.505859375
354,20060.973,1361.9385,-4850.0806,2435.4153,8108.1616,-659.9885,26846.3984375
355,-9316.797,6851.0425,14570.495,3265.0046,-8381.318,3708.0657,27014.16796875
356,-8563.108,-9916.783,-10343.519,-488.13675,344.7436,-1541.9672,3285.81274414063
357,6489.9,3893.9192,310.8994,1898.6978,10119.399,13151.94,29424.837890625
358,-2114.5105,923.37164,-1572.0315,-1815.173,630.09143,642.3716,4493.16748046875
359,-521.5964,4103.5835,-1049.5404,3529.266,187.9421,82.08308,7848.9609375
360,-3742.9443,-2823.2185,-935.03436,-4647.445,168.85172,437.2305,8461.8564453125
361,815.76483,-1760.1896,-454.5731,-262.4575,-277.55878,253.94084,2368.16235351563
362,-796.67584,4720.68,555.3756,-2891.3816,651.8731,1542.353,7635.51904296875
363,-2816.3386,5434.5396,1623.9697,-3012.6863,300.6082,-2244.2153,9683.30078125
364,-4255.931,3390.8716,568.0281,708.13947,-486.5551,-119.14267,6863.9267578125
365,546.6993,-1117.5289,-6791.671,-3518.741,-3387.2654,3233.5942,12138.4638671875
366,15177.206,6663.3857,8134.5234,-149.29738,4318.9644,-1433.304,11149.650390625
367,13331.085,3902.8152,8864.794,685.0076,6555.0933,-1096.8391,14165.283203125
368,-3330.3157,-8048.464,2264.0852,4884.966,3412.7507,-4075.856,15372.720703125
369,6713.206,-5745.036,-7345.1704,3815.9263,-2679.2024,2576.261,16212.1162109375
370,-1890.2072,-889.788,49.070415,2563.5461,-1260.3119,-576.07043,5319.546875
371,-1551.6173,1217.4741,371.44458,1796.8894,-63.14336,49.167084,3968.19213867188
372,-1492.2953,-1088.7747,-533.8404,945.6389,140.92546,472.09006,2026.22668457031
373,-1530.8047,-1313.8088,-310.40088,-763.80383,317.416,-137.44478,1838.68737792969
374,-2636.558,5971.9033,-521.5902,-3930.396,541.8181,154.795,10376.3525390625
375,25.795635,7181.223,2556.85,5110.508,-1640.7527,26.9273,11221.6689453125
376,-1669.4987,565.1431,-505.44147,2725.9685,602.2056,-46.22862,5209.07666015625
377,2206.4941,2260.118,-8.495762,2079.008,388.0989,270.8826,4320.4921875
378,1240.2721,-4419.188,-520.84467,-4383.0513,309.7801,-146.0746,9118.6279296875
379,13993.615,2710.7083,5534.8037,2112.5728,1308.723,36.065613,11042.9423828125
380,14111.295,8827.95,1729.1388,2218.6392,839.2537,-258.75528,11527.935546875
381,11030.056,7686.4575,301.93732,1609.2356,-387.45996,-2113.3726,10583.94921875
382,11471.132,1472.3718,1095.3198,498.43365,595.23816,297.64954,10293.7578125
383,-1068.9469,1534.6697,2884.209,2752.9067,-1026.8585,-100.78776,6167.90380859375
384,-4442.9067,-2595.595,-691.03894,-160.68712,484.0666,-42.9495,3368.10913085938
385,-2265.0725,535.222,-2610.3342,3815.8633,-491.71414,-615.57654,7380.53369140625
386,-1694.5366,2904.3127,-753.30383,-3618.5981,985.1369,984.208,7925.0859375
387,-4633.369,-1314.7661,-2717.7861,-5646.052,37.121616,782.3334,10285.888671875
388,-1480.0989,-1201.2778,2746.0222,-2412.309,-2546.1697,53.527695,7326.3056640625
389,-2940.1685,-1109.1324,-3652.6462,-2428.1348,-180.55756,-1324.3607,5311.4970703125
390,-1139.1833,896.8488,-994.50684,-1757.915,46.95814,-466.55182,3715.13305664063
391,1279.8716,-2414.5684,4527.8066,-4577.247,1623.1492,4732.449,13196.3212890625
392,8138.1943,-2923.8616,-4410.2607,-3369.8633,-642.6777,-640.6656,13325.14453125
393,10016.452,-2596.0105,-1472.9836,-2170.9248,1030.5366,-719.52344,12847.146484375
394,-1299.681,9477.206,402.86172,-1323.3256,-806.4786,-133.9697,10389.921875
395,-6008.847,4368.6606,-1385.9703,3393.0256,1102.6633,-452.62085,10949.419921875
396,-4397.788,1722.5142,-2361.2373,4618.708,-655.16656,-448.72476,9748.359375
397,3859.1956,-6438.0684,1490.7281,-5104.916,957.0533,247.25804,12975.6044921875
398,8921.697,-2695.3923,-2806.2852,-3498.7954,-61.803463,-952.548,13255.7734375
399,10609.44,4077.0354,-1348.0212,958.24866,705.5991,-196.93005,10578.60546875
400,2527.414,12477.717,2006.1023,54.894547,-437.99832,604.13184,10302.7666015625
401,-2986.643,7850.8184,-3565.242,4246.615,-893.63184,-409.96652,13455.7451171875
402,8040.424,15025.035,3880.8982,1905.7789,1808.2899,3131.4302,12052.4853515625
403,5526.4272,-1961.6156,-2705.592,426.19623,1042.9775,-549.9551,8179.908203125
404,8029.638,388.17245,453.38516,1412.5776,-1201.8029,-567.5176,8317.6484375
405,4781.9307,363.5967,333.434,4781.6357,-1263.0654,2029.0457,10265.72265625
406,-7922.9746,-426.63446,3828.0918,-3122.4932,4256.498,-7646.001,19109.681640625
407,8703.119,808.5972,7306.319,-2296.1177,-136.12865,482.662,8355.7412109375
408,-3109.3655,-5445.0874,4508.642,313.88123,-147.11632,4199.3843,11599.490234375
409,-1785.6835,-6517.302,-3177.0735,-2968.6309,-866.4159,-243.56657,6827.076171875
410,4528.4707,-897.27686,-21.514938,3657.0454,-937.27423,-21.86163,8259.107421875
411,-2.8529835,2283.0742,-161.60657,-2014.5054,385.14288,-688.6054,4433.486328125
412,10746.93,-1931.5874,1378.9226,-560.9013,9.441443,118.26216,11433.1962890625
413,-972.8988,-3864.6194,3702.0637,-2882.3462,147.94255,195.7916,8297.013671875
414,7843.547,1732.0549,-7519.872,4930.802,-2274.3142,-804.6282,16428.322265625
415,-1065.1337,287.42343,6256.096,3085.3784,82.732475,4543.1177,11663.0361328125
416,9379.564,-1823.6392,-2753.045,3935.8813,432.643,1159.2864,13706.01171875
417,1107.8313,-6125.4536,-1245.5898,4354.929,847.32385,-1663.0751,10401.1337890625
418,-8060.679,-5829.506,-2170.7637,-1794.8916,-1543.3346,-2355.1965,7744.62548828125
419,322.27142,-1368.5756,-252.37326,-3456.2783,-757.0004,-993.3314,6537.15478515625
420,-2888.2036,3546.8413,348.48132,-3455.7463,286.617,-441.28784,8228.9072265625
421,-595.65314,-1963.789,1666.2021,-2817.2236,822.475,677.94025,6107.43505859375
422,-1620.2185,912.76025,-425.5094,-3199.7366,332.38525,294.02106,6010.22998046875
423,1322.0397,-2127.5952,505.4852,3748.0657,2363.9429,479.54953,8327.57421875
424,-1832.437,9843.81,-1819.0303,-963.1945,1041.6077,-957.82733,12040.2958984375
425,4843.333,14642.11,2767.0264,1981.271,-30.72307,759.22626,11583.642578125
426,-3994.8079,2532.9502,414.32117,162.02728,-459.17523,-118.390594,5832.97900390625
427,-1621.454,-433.7321,-369.092,-3267.3293,-987.6453,-100.551125,6039.42236328125
428,-2225.2896,644.47266,217.62314,4570.0386,683.3614,1632.7021,8902.0576171875
429,-2084.7017,8652.178,12.6609125,-1810.7084,956.3014,18.394474,10475.73046875
430,-2635.384,-1890.1306,-547.754,1243.459,-1224.6282,-3848.5186,7545.11669921875
431,-1276.8583,1280.1792,1249.8491,-4129.722,788.6388,-116.305565,7715.7021484375
432,10546.087,1618.9855,-559.1469,-337.7841,1283.769,1268.2269,10676.7734375
433,6897.6606,-1921.3774,2448.944,677.302,1637.9933,1225.5834,8500.85546875
434,11883.432,1614.4473,-1851.7327,-663.24805,151.15486,514.8961,12459.7021484375
435,4173.205,-1764.8398,-572.3515,993.92865,358.11185,-109.690254,5743.33251953125
436,3451.4,-2085.9858,-7642.241,-5234.4126,-1406.8068,-3265.849,14575.1025390625
437,4855.3066,1614.1523,-3106.6003,-1308.9917,801.7647,742.34686,7537.46435546875
438,-1222.3998,-393.33752,-3166.2026,1544.6827,-404.062,49.073185,3705.72583007813
439,7767.865,-62.103775,1190.5419,-2666.1106,-352.49792,142.26276,8650.275390625
440,-1580.9111,3838.568,1473.3036,2842.7925,-326.72162,-4.8066034,6834.5771484375
441,6143.0034,4841.6123,3857.0159,5491.983,667.8499,717.2939,9864.6650390625
442,-1338.1659,-1235.0923,150.44751,-4504.874,-44.472485,328.1734,7955.11474609375
443,-1141.2655,-1011.326,-959.3472,-2671.2803,-216.76974,-988.4761,4950.3310546875
444,-1495.5743,-2546.5483,-1564.8486,-3051.694,1052.9828,-375.87628,5720.59619140625
445,-3153.4514,-1108.3911,1498.4111,-1949.659,282.5537,716.4448,5430.6220703125
446,-3817.5393,-926.631,-503.22943,-4562.358,-1032.5626,-131.89421,8686.58203125
447,-5977.2324,-3472.405,494.58945,-650.2841,449.28632,702.41174,5941.56298828125
448,-1223.6241,-880.1153,678.66473,3236.203,-594.8888,120.449425,5967.2001953125
449,1581.2386,961.0653,655.2274,3601.8179,-895.61523,1763.3228,7163.8955078125
450,32.210293,1428.4673,1731.1522,5302.114,1056.0105,276.7264,9506.640625
451,-3340.7395,2209.0408,-1096.5328,-1561.9601,648.90424,1275.0725,6069.71875
452,-363.94632,264.5725,1202.2919,-3511.15,-115.70672,-144.93988,6241.10888671875
453,-175.13493,598.6809,1402.2736,-2143.2095,735.6191,-126.71301,4161.490234375
454,-1420.6893,2068.4102,-229.02536,1442.6156,-638.6853,47.40005,4112.17236328125
455,-4019.2664,-228.60268,-961.8759,-2318.9766,-774.6321,301.92352,5507.615234375
456,-4105.265,5597.97,736.8452,657.8876,101.70175,-911.2081,8627.5751953125
457,557.25104,-766.3445,-2611.2231,-4428.5166,114.61798,255.70258,8165.06005859375
458,6318.7837,3601.598,12150.684,2158.3062,3026.6042,-2800.357,11055.421875
459,523.3722,-2706.617,-1272.005,-860.95703,-404.19446,-502.64484,3365.8544921875
460,436.35257,-3548.5781,-2801.0227,-166.53685,-194.1045,-37.663403,3695.94970703125
461,3708.3828,-2105.0007,1001.18225,-2563.743,958.5172,223.73285,6929.0068359375
462,309.0576,-2050.4185,-5828.615,-3740.09,246.22566,-2727.392,9655.0078125
463,4681.165,-1903.3296,-734.6319,-3292.7175,337.78192,-175.6936,8365.8232421875
464,-2669.0007,2535.2075,238.27623,-2389.8809,671.1884,-421.74542,6278.98486328125
465,-3718.345,1038.8717,-169.92178,-1401.6268,8.46874,297.3277,4949.83837890625
466,-3866.6255,1908.5526,1731.405,-971.8938,469.06113,-237.09406,6001.95263671875
467,-2795.5715,1362.7166,-1127.3469,-171.35445,-1093.2487,342.0317,4142.7041015625
468,-3380.122,-3093.7268,-16.45595,-808.19366,276.62115,-950.9219,3915.96459960938
469,-2603.23,-1465.8833,-994.8201,-2213.1064,236.38329,734.8615,4304.931640625
470,-2217.2847,985.09845,48.025642,3416.7388,-588.7218,-39.478638,6648.2529296875
471,-254.87581,392.86102,-1097.0072,2427.576,-64.91457,-311.33542,4433.62548828125
472,1554.5718,3351.3472,-3313.575,5035.1006,-294.10114,174.23636,10586.85546875
473,355.95078,1862.8488,0.7519634,-3179.6475,70.00636,96.37668,5771.0654296875
474,-948.9685,-2611.0713,171.05385,-2390.9106,517.22205,1857.9727,5846.94189453125
475,-1615.3884,-1089.0283,-27.955784,-2124.1812,714.7607,591.32886,4252.00341796875
476,-2699.0295,-2712.745,1154.3494,-1524.5264,202.97086,740.0838,4862.1884765625
477,-495.24243,-740.9688,922.6449,-1175.4131,-168.09412,-370.7357,2657.27075195313
478,-2250.2764,2391.4849,348.723,-1256.6031,484.7487,-325.5554,4690.08203125
479,2273.1272,4713.749,-929.92737,343.79288,-176.79865,172.6961,4956.9609375
480,4233.4824,-2821.8171,-503.36316,-1083.451,-130.93535,446.5262,6554.86669921875
481,3341.2517,-5304.5884,-540.827,-1310.049,-174.93974,415.05423,7874.93212890625
482,2363.2566,1252.8414,4089.5408,3050.0515,-263.5402,506.4301,5917.44775390625
483,-2540.68,-5526.125,-4725.2373,3207.003,72.27826,58.354023,6167.96484375
484,-512.11316,-3377.4248,-72.9032,2130.3418,-323.22086,-1904.3411,5871.06640625
485,-5025.6396,-5163.975,-586.0315,2281.8162,-121.348076,118.19281,6004.1279296875
486,-1906.0013,-1615.1058,-57.88613,-1649.6216,-543.7559,425.09482,3543.36328125
487,-254.38031,-608.26514,-338.23877,-2211.852,-477.4996,347.41867,3978.13720703125
488,-775.9167,-748.72015,690.1421,-2624.8047,-560.4547,406.30286,4921.033203125
489,-10562.978,-12067.767,301.6902,-2311.3909,-62.459812,221.26718,12362.87109375
490,-8085.6685,-4680.2534,-1656.7258,121.97053,-86.96584,237.55772,5592.09814453125
491,-1709.8555,169.51932,945.799,4154.383,234.73082,-264.98016,7599.09228515625
492,531.5263,-5294.3716,971.1895,636.64575,-549.3412,-594.44385,6314.83935546875
493,-558.1713,-7341.647,-1777.2804,-358.13855,-695.75507,28.027195,6408.6923828125
494,3136.3208,-1066.0193,2536.6423,-2277.2393,516.20886,-317.6621,5670.875
495,-5801.4497,-515.9904,-79.249794,-1105.3157,-111.453636,-659.72595,5953.431640625
496,-4891.4365,1598.2179,414.572,-1418.9756,-48.51709,-479.80383,6524.82568359375
497,2804.4119,-4549.491,1174.3796,-1462.4049,176.02802,-488.95984,7209.43017578125
498,-1813.6667,592.7755,-764.19867,-4751.3115,-1486.9259,1522.2123,9256.1328125
499,334.9751,-5056.974,-345.04294,206.56825,251.42807,22.17151,5117.42626953125
500,2260.445,1073.5693,1726.9143,-421.25336,573.5851,-100.589836,1615.49133300781
501,-7281.955,6710.65,163.31879,-633.717,-645.2012,-82.122795,12227.845703125
502,-4716.106,1840.2916,-6062.3164,3474.2092,676.576,-106.55885,9552.1015625
503,-6147.106,2397.5022,-56.826828,-15.051138,243.03447,165.84897,7636.9609375
504,265.03677,-514.38556,246.79561,-1920.5024,253.43158,1248.9529,4065.82543945313
505,959.8047,277.4125,1557.6309,-3729.134,-379.18204,-150.75688,6591.650390625
506,2437.7856,-2139.9966,3667.3474,-5372.542,571.20544,-255.90402,10764.037109375
507,-1425.5055,-4414.726,-1582.4026,296.12234,175.61174,-249.14523,3005.4716796875
508,418.7307,-3258.2056,708.0136,931.12427,-99.90368,-933.81665,4462.53076171875
509,2834.5027,1002.69104,1946.2053,-550.46375,-27.126194,-135.6168,1866.50122070313
510,-2446.6353,675.5865,-626.9069,2176.3613,500.75357,-76.19107,4728.36181640625
511,-3113.8008,2312.3147,-1235.5676,754.179,279.97586,-24.633507,4972.154296875
512,-2394.7646,427.59494,-28.532774,3918.1614,-594.31775,183.61874,7355.4853515625
513,-4160.915,6736.591,-2067.4326,373.1035,-89.41252,-24.810297,10038.3271484375
514,-1648.3381,88.1556,984.83826,-3737.193,-826.2259,62.19743,7023.95361328125
515,-4626.5444,-6089.584,-2184.6348,-1417.1173,99.59801,-271.96243,4237.01953125
516,1148.172,-1029.2045,1474.7717,-2553.8691,634.78094,2038.4883,6229.01708984375
517,-223.06396,2059.3435,5294.3506,1939.392,452.8901,74.666756,5913.88525390625
518,-1123.8744,46.178802,-422.75116,-3379.3208,675.91235,-334.1793,6083.19580078125
519,-2415.3787,-1869.0182,-115.14838,-2799.1907,-1101.7427,-98.7704,5613.37646484375
520,-1171.5292,1665.4796,181.88098,-525.69714,671.9935,260.31882,2903.06689453125
521,-1627.6616,-482.42902,-577.7285,-1207.4056,-333.19357,57.65739,2434.7509765625
522,-2806.719,-273.46295,-2484.2336,-402.70615,156.31535,-144.03903,2515.2548828125
523,-3413.2415,9.622066,1231.5236,-1986.4845,-350.90497,92.265274,5442.861328125
524,-5997.5947,-3090.5925,-841.6638,-2323.33,-436.64627,-274.64255,6085.8720703125
525,-6484.9404,-2377.9116,-495.6046,-984.9254,-172.42206,-513.4739,5650.8271484375
526,1374.1646,1621.0854,1222.6594,2119.6145,897.393,-840.8353,4258.70703125
527,1335.5455,923.7012,-33.946583,2345.1616,-170.43608,687.8001,4414.38671875
528,-640.72266,4936.117,4849.181,3087.6187,986.1225,1376.1794,8235.4697265625
529,-1170.1329,-1092.1542,-590.18536,3971.6484,181.74536,535.31714,6969.78857421875
530,2223.6785,16.644983,-345.641,4393.0864,-169.55508,433.0974,8021.74658203125
531,1310.5323,-6123.483,1193.6355,163.78606,25.735487,497.40845,7431.95458984375
532,278.4178,-4121.433,185.04843,1120.4669,142.96051,325.33368,4806.43017578125
533,1108.7241,-4238.9395,2074.89,685.2287,734.4814,-52.70701,6142.72314453125
534,-21.75949,-3021.7563,-658.6724,1105.4796,-309.8581,974.92633,3781.61840820313
535,-6259.6387,2077.219,1077.7388,106.02507,-496.32227,365.3791,7958.82373046875
536,-4300.9023,-1903.3931,429.8798,1789.9448,223.9606,143.18259,5158.482421875
537,-507.78824,1719.7589,1093.0009,423.07156,381.88135,231.31975,2256.91235351563
538,-1500.3185,-1327.7098,1691.4762,923.364,-100.71666,129.32043,3507.82299804688
539,524.05444,2277.0005,-2078.298,-662.06744,295.17334,-215.23572,4015.24633789063
540,-3693.8665,-2486.176,-1618.2235,6477.7544,-226.08421,-494.2754,11403.0810546875
541,-3788.325,-1483.789,118.549416,4006.1965,225.51982,-556.9972,7797.638671875
542,5163.183,-2643.5378,-957.3098,971.4447,-85.91201,19.327349,7312.9150390625
543,-4615.73,-1733.4208,-704.3191,-2386.1038,-173.42407,-396.0217,5474.86474609375
544,5514.1836,-1804.3546,-714.9997,-831.5408,189.76924,34.87728,6997.23388671875
545,-3019.1602,-14100.319,-590.412,-3463.1094,-98.088066,-74.50955,13843.017578125
546,-449.95294,-4763.8228,854.3593,-2763.5044,-414.3717,-62.483253,7026.73681640625
547,-1972.3762,2021.4851,-441.30228,3449.988,-950.549,-854.2384,7265.48486328125
548,1234.5919,-1020.11804,124.95724,1526.476,207.07883,-40.2412,3307.11206054688
549,2182.0083,-1854.2372,-292.39948,2342.8154,-338.1117,129.46393,5411.6767578125
550,-4980.629,-919.51245,-577.5117,-2305.0046,97.856384,304.4513,5851.8779296875
551,2686.0154,2106.8965,61.337433,-2333.3608,-34.368484,-586.20526,4803.38232421875
552,-6217.0522,-6858.885,-521.3347,-1827.2844,-41.167263,16.891722,6821.41357421875
553,1562.2786,3287.9639,401.95102,-2599.1345,115.91699,-327.26544,5191.80419921875
554,-2888.9602,4329.5664,3415.0352,3176.8066,-28.989101,-24.335115,8753.4287109375
555,-2635.4436,3143.0923,665.4748,-654.48083,198.34673,124.42239,5163.58056640625
556,4960.015,6569.7227,2459.4597,2324.7703,149.07196,184.41327,5408.46240234375
557,3602.952,2996.2131,670.0501,1457.5393,-984.46576,-241.10448,4079.916015625
558,-797.21594,-6441.201,1708.3148,528.91595,-409.31885,-213.13156,7331.5478515625
559,-1662.0055,-4313.939,-253.30421,656.72797,-7.800203,133.87816,3755.10327148438
560,-415.79907,-2808.3286,-133.88939,-2755.4192,-136.49045,14.195738,5414.02294921875
561,1301.9972,-3100.9187,-89.10994,-252.38762,266.0541,308.6021,3985.60913085938
562,5094.2124,-2689.3271,-1645.6351,861.7742,280.22604,-34.284298,7484.39892578125
563,-3182.8982,2639.3552,823.11066,-397.03546,-140.63272,-140.08386,5216.6904296875
564,4615.3164,-2186.5596,927.7819,1508.6954,329.20435,268.0395,6492.3359375
565,2364.3984,-1610.4584,1045.4801,304.7579,228.80814,-254.01653,3595.24487304688
566,879.33954,-3948.844,1599.2073,-1399.0697,273.0706,-3.730451,5779.373046875
567,387.2855,155.19476,-1911.1815,1205.379,-184.60612,-427.01376,3132.32177734375
568,264.38278,4063.1362,1822.5115,1936.5972,-285.19528,484.02936,4810.138671875
569,-847.10956,2787.9216,-515.9674,-1145.0841,61.30179,-795.24097,4238.1064453125
570,1161.8196,2370.7778,776.3603,-2686.3457,-61.355217,-187.32907,4882.83642578125
571,558.6233,-1607.7905,1803.6716,2953.1418,-519.9734,-48.623287,5993.50732421875
572,1543.1161,249.98291,-1146.6973,4403.2744,-480.82312,1281.969,8319.818359375
573,2342.6125,-1029.9486,-192.02225,3684.5095,-652.91327,-282.9307,7176.08544921875
574,4020.399,-3136.578,-3181.579,666.39667,-123.18746,501.7162,7326.619140625
575,-3112.505,-1570.1642,-863.164,-1480.861,-510.64124,218.35445,3387.21801757813
576,4190.6987,2437.611,13981.012,-5176.5054,2449.4895,1000.75006,14747.201171875
577,3047.142,-630.7065,-1694.9103,-1776.2985,1147.4243,2090.548,6715.6318359375
