Element Label,S11,S22,S33,S12,S13,S23,Mises
1,3678.412,28859.164,17422.82,-3947.3699,-12517.582,-11176.429,36992.38671875
2,8176.784,15286.23,-3526.2192,-1531.9048,6387.5444,-1763.689,20235.625
3,8930.41,24133.443,6323.142,-3499.3743,-4248.3354,4679.3027,20835.978515625
4,-1520.9277,3923.5713,6267.109,-524.252,4646.391,-3553.078,12302.787109375
5,6316.814,10429.173,4338.2925,2730.8374,2605.265,-5026.1035,12144.2255859375
6,-23052.809,-19355.203,-8749.127,7851.895,4947.55,-3426.7776,21424.2421875
7,12638.609,4827.5117,3650.8604,668.4623,6444.6875,7115.482,18692.818359375
8,11452.465,7242.274,4102.3477,-1134.8522,-1875.8989,4236.77,10443.9384765625
9,-2343.1282,-3594.4612,-6963.497,-439.40247,-1627.9441,-2526.5815,6694.228515625
10,759.70264,-58.45215,-7084.8794,-5107.0723,672.6614,3700.8203,13284.61328125
11,7697.8223,12027.539,6441.3467,-1396.2625,-2477.1013,2726.1685,8504.00390625
12,-3233.4292,3291.4453,6797.0557,2911.9148,-78.870094,-1203.7737,10370.177734375
13,504.5537,-11666.92,-1853.9099,3701.1965,-439.33447,-1441.2866,13149.474609375
14,1629.9541,-12105.533,-9439.025,-4300.1685,9196.252,1175.316,21736.59765625
15,3108.9429,707.65674,11464.726,223.51952,-8406.436,-2099.2053,17917.1484375
16,4908.5483,2202.3972,27514.928,-541.22235,-9523.297,1254.3348,29278.42578125
17,6046.9956,3114.7185,8780.856,-6367.683,1077.7683,-3858.6665,13924.2060546875
18,-6767.271,-2915.7676,16799.29,3193.3582,8912.835,301.32764,27361.123046875
19,-6309.436,-5908.9688,-7024.5254,1180.9768,4318.9214,3437.4978,9826.0185546875
20,11260.362,6107.947,13050.185,-811.2176,2353.0994,-8644.884,16785.716796875
21,-996.4531,24995.645,15468.509,4044.722,246.17053,15015.727,35276.08984375
22,70053.56,70227.13,69373.6,858.0548,-1.3919218,-627.162,1999.81762695313
23,-3467.8818,-3243.7039,-4174.578,-402.54663,31.998735,-967.2364,2000.98559570313
24,4383.672,4241.9854,4050.9348,677.33887,-902.5841,-167.05426,1996.92358398438
25,-1158.7462,522.81384,-292.8345,-828.4253,-7146.0986,2140.7246,13081.609375
26,-15309.381,2156.4216,-4808.9653,2593.9858,-12747.4375,9645.255,31916.8515625
27,22666.408,17835.975,22312.184,-2861.6348,-6468.203,-1496.878,13362.232421875
28,615.2486,-4097.8076,-5035.4014,9063.041,-19180.133,2412.8354,37350.03125
29,4878.4883,9609.278,5716.735,1521.9088,-6295.474,5075.2964,14907.7490234375
30,-11852.86,-13054.287,-36768.14,3527.5696,-5678.5713,-5324.934,28485.3515625
31,8761.761,9673.816,12503.499,3600.7166,-7285.755,1694.2401,14770.689453125
32,2864.1619,6883.6416,7298.2227,-1397.1783,-5407.609,-9246.417,19185.05078125
33,10806.285,15746.066,14910.919,860.38116,-5948.896,2763.4336,12339.8544921875
34,-6681.4497,6650.9224,4894.2456,1843.09,-18230.648,-5751.6436,35551.68359375
35,5916.836,30173.43,-1385.5059,5206.1655,5832.4634,-6752.2407,33748.77734375
36,4525.935,9925.132,12191.32,10090.597,-18671.033,3198.433,37795.44140625
37,9119.829,22805.03,40715.637,12576.231,-2492.6484,-5815.3403,36711.90625
38,4079.4346,2808.0344,4092.5603,-484.06207,-5245.1865,737.34784,9300.712890625
39,14525.428,30578.441,15224.157,14938.216,-14997.211,-2618.6575,40146.515625
40,2163.8738,10406.144,15214.3125,4705.6133,-1758.1523,-4781.151,16582.02734375
41,9023.917,19697.47,15022.582,4826.6914,-820.0497,4130.7695,14456.130859375
42,51385.56,50997.62,52043.152,816.3111,-385.58252,490.1717,2000.98693847656
43,29259.78,32272.148,33868.28,169.75742,722.30725,120.9502,4257.42529296875
44,3150.2493,3850.5005,5440.242,5548.667,-9135.928,-808.79724,18677.578125
45,-1446.7814,-18250.959,-4463.146,-5539.617,-4513.8564,-4684.5835,21443.275390625
46,-2861.3997,1098.891,8156.2607,-1935.5789,4765.6187,-9078.737,20495.919921875
47,-1565.7559,-2938.3716,10330.334,1920.5756,6931.065,-1060.2028,17840.591796875
48,40.58789,-2197.271,246.07237,-832.57764,559.38007,-5731.8296,10348.427734375
49,7009.9287,6316.9043,9911.608,1215.7317,2193.8506,-1789.5759,6276.27783203125
50,4701.3804,4678.6826,3636.2488,647.5378,-2494.974,-6001.426,11361.98828125
51,-11858.191,2079.3125,28301.932,1214.3042,476.55948,-3908.0532,36031.66796875
52,6416.7407,2446.5781,2760.167,-2367.7817,-4359.81,-8242.884,17096.60546875
53,2230.1472,7611.9966,5171.5186,-2710.883,1765.6162,-7055.703,14231.431640625
54,13685.318,15626.023,14724.994,-499.13885,2932.4385,-9116.573,16694.6171875
55,15913.414,13001.588,17934.83,-2340.8826,639.5199,-7122.0703,13721.83203125
56,4511.55,3778.725,4581.1943,-203.16232,408.0502,-725.6569,1672.12243652344
57,4083.3843,5196.451,4567.3784,457.81085,-274.48062,-267.01154,1415.31872558594
58,3879.5513,3092.9124,3277.8618,691.46924,-80.745575,-825.03125,2000.8740234375
59,3150.5693,8524.021,3566.6548,-13583.909,4777.3896,-1737.9056,25649.763671875
60,15002.46,16759.424,12860.383,-1215.9662,3355.8267,-1530.6128,7529.1259765625
61,3242.403,1425.9932,725.1626,-270.25674,3893.033,2700.2053,8521.9169921875
62,1322.947,160.73012,-667.8318,-2387.506,8355.382,-2914.282,15969.255859375
63,10059.5205,12648.216,11580.982,1601.4094,4765.7095,-3709.7603,11054.1416015625
64,10826.702,16595.85,35482.137,-110.45026,-12734.947,9147.994,35164.80078125
65,-81.61859,2373.5278,891.63873,438.66742,2622.737,1529.0763,5728.28466796875
66,21662.771,23236.129,23335.318,-205.15213,5062.046,2597.3088,9993.9267578125
67,-5009.4995,3584.4316,22658.303,49.992016,5388.8213,2928.4834,26729.037109375
68,11387.473,10814.752,17344.852,3890.9812,9114.348,-4949.3843,20182.98046875
69,-257.84705,-2311.3381,29611.225,4897.3813,3885.9917,4071.9365,33536.7265625
70,-49.732765,15467.991,27462.588,3706.533,14511.666,3745.2705,35858.8984375
71,18251.334,24187.451,32226.73,-1335.1638,11696.594,2268.1416,24058.30078125
72,8112.6367,11156.129,18641.477,-3474.364,-6009.2393,7770.727,20341.435546875
73,2270.8528,4915.018,15385.301,2675.5322,10728.371,-2662.6611,23072.541015625
74,5964.5215,5399.922,10701.725,2206.3628,8631.855,1780.9937,16525.16796875
75,299.01074,-13308.284,4683.8564,-3908.3762,9935.415,1216.1753,24707.328125
76,-9117.131,-5484.0635,-6944.9683,-1571.9099,7068.243,-7404.11,18214.865234375
77,14978.377,16616.025,17404.75,1487.3254,2605.734,465.3433,5679.01611328125
78,18943.908,23244.283,25335.152,2124.914,11039.486,-37.958,20273.5625
79,82351.43,81191.19,82142.41,616.6725,-420.11383,-515.8022,1901.53430175781
80,-20624.344,772.3473,-4320.181,10648.892,1335.8839,-318.65384,26844.814453125
81,7569.1377,6650.897,8008.2407,-494.0281,48.323627,-780.07806,2000.98522949219
82,29972.814,31168.156,30277.209,41.92534,-356.71252,-905.4099,2000.98693847656
83,-5851.442,6317.8374,13912.964,10554.838,-8248.557,7040.727,31388.69140625
84,13513.303,7508.972,20352.85,874.4808,-2009.8489,11369.758,22937.416015625
85,-20250.176,3903.4185,-13746.07,1714.5101,-508.26703,16701.676,36263.390625
86,1365.8115,-3978.2727,10261.818,-3718.2844,-4025.2634,11798.142,25747.091796875
87,3783.3835,3807.7415,14672.644,-846.62726,7545.1436,14452.718,30296.73828125
88,4407.6,8624.272,23697.342,6368.2397,-4168.2754,4874.2314,23528.650390625
89,7792.571,3045.288,14753.063,-771.6255,49.13755,13831.543,26072.146484375
90,6844.7065,10699.245,10127.409,-5724.218,-13799.888,-5761.697,27967.525390625
91,8530.932,-10531.024,-3876.766,10953.468,3455.9214,3680.4133,26780.515625
92,-20338.766,-20089.293,-21967.29,178.22456,-466.2817,-212.75713,2000.98522949219
93,9811.005,7286.1396,8343.464,1762.5564,-3790.5425,54.96892,7566.82177734375
94,1804.9954,-963.7123,4278.5376,615.7293,-2740.876,-400.81424,6692.47314453125
95,11373.707,14293.439,11495.453,3195.7354,-7178.7144,1748.9363,14233.7802734375
96,-2689.8782,14581.545,2444.6765,16171.97,-11455.759,8099.999,40138.703125
97,-6178.353,3117.1526,-9576.747,-2970.432,4158.7236,8719.871,20880.830078125
98,15372.511,15607.912,33033.875,2198.9248,10664.575,-2681.806,26174.4765625
99,15781.209,8512.527,13830.983,5591.701,16730.156,-4132.9453,32049.978515625
100,-667.94916,2122.205,1996.8965,-137.19519,1639.3849,-2599.2874,5986.5791015625
101,9257.629,18700.348,15401.59,-1745.8055,-6449.5186,885.6209,14324.205078125
102,4691.0693,6488.0825,6100.0967,1628.2856,-3579.3315,-9478.893,17849.91796875
103,10100.117,10752.1045,10599.809,-5620.0776,-8495.982,-3447.166,18635.955078125
104,15019.181,15646.423,17028.455,-1700.9583,-5858.7607,-196.29419,10721.05078125
105,1648.7068,4375.5205,8402.919,2480.5588,-18256.924,256.33945,32453.65625
106,3768.1328,10976.413,9566.578,3509.6108,-6174.6465,-4142.32,15703.240234375
107,-1491.973,18153.977,1029.4547,10430.467,-622.58685,-1145.9994,25966.744140625
108,33690.906,23954.375,28189.916,-664.66266,4677.83,-461.2273,11794.4970703125
109,1012.0813,-381.80838,463.8443,-698.4674,583.94525,-54.15987,1993.65405273438
110,-485142.3,-485607.47,-485864.97,518.2861,534.5088,-803.8566,2000.99255371094
111,-9984.136,-2300.201,5476.468,-3022.967,-10910.9795,3432.9355,24478.427734375
112,-3905.7603,-1718.8271,-5084.9175,758.8284,4519.2993,-535.90283,8521.330078125
113,-6104.1553,4595.308,-12416.821,-2947.445,-629.9434,5996.6875,18894.548828125
114,-11110.549,9428.782,-273.94165,-3791.7744,5049.416,-752.53217,20929.42578125
115,11004.134,12325.773,12442.318,739.8604,3063.7917,2626.7183,7239.884765625
116,-11008.541,-8385.496,-5822.2744,2063.164,10306.14,-667.46326,18786.4296875
117,14506.151,11239.875,16969.418,-6097.0845,4587.9214,4853.6323,16435.498046875
118,1879.8815,4238.2856,14090.359,142.98885,9042.891,3528.7908,20213.873046875
119,12923.335,16818.25,17122.31,-2568.342,4924.441,3485.284,12059.3623046875
120,5384.1943,8196.218,11031.722,3121.8042,4474.436,-6617.122,15639.01171875
121,4938.1436,-4797.4463,-9225.6875,5549.1445,-1809.6228,8071.9824,21334.865234375
122,-1693.3105,-8999.964,-24751.367,2271.9878,2999.3074,-8415.036,25913.234375
123,6166.4224,-2643.9734,4494.2266,4308.4736,-4679.8555,-6392.426,17597.384765625
124,4829.1353,-366.97803,6325.719,899.5988,-3701.8506,-910.5798,9112.748046875
125,22259.879,27806.35,35303.95,364.59433,8430.915,1665.28,18722.2265625
126,2036.1953,-7935.6514,-36837.375,-4106.7466,-4882.611,5087.2324,37718.78125
127,1217.708,-514.063,1233.4427,31.68527,1475.8494,-1979.3949,4617.13623046875
128,-601.1273,-7692.9565,954.27045,781.33154,3486.3613,-7465.95,16409.166015625
129,11962.978,11842.274,12942.365,-665.69196,-21.079493,-9965.02,17329.962890625
130,18982.186,-2873.1357,25763.947,-1162.1506,3765.3992,-743.68304,26834.876953125
131,-7573.2544,-8988.742,-8240.366,797.6345,-30.600224,-1260.1007,2859.962890625
132,-9606.243,-7539.4956,-5115.4395,-49.1533,3931.5942,3473.0999,9885.5556640625
133,-19550.621,1562.8738,-4367.717,-7237.7163,-11401.236,-1983.8268,30243.361328125
134,7552.404,-7930.7153,1839.3188,-9392.535,-1233.3315,4096.8623,22438.4765625
135,23581.197,24112.938,30880.125,-167.26216,-1176.5658,14301.537,25836.306640625
136,10991.108,8017.1763,26278.377,-3646.7048,-2192.516,9001.222,24194.853515625
137,9642.436,5497.4062,13988.989,-870.0465,1014.952,-6798.9097,14075.767578125
138,7318.9756,7841.7524,8081.054,-9.809994,131.20839,1079.5593,2000.98559570313
139,18019.906,11974.056,22843.41,1384.7579,6768.0635,-6750.6885,19205.95703125
140,-3478.3562,-12983.412,14225.762,495.8915,-4143.323,-2365.794,25319.765625
141,14341.308,16716.145,29515.555,2452.1501,9332.048,-820.7581,21935.876953125
142,2508.2268,15221.984,22528.467,140.63327,11596.6455,2834.3188,27120.529296875
143,19318.5,20001.08,27394.363,-157.40686,7576.836,-1045.1824,15354.150390625
144,-9682.472,-9961.379,-8085.2544,1640.0455,1748.6017,1405.4745,5122.74462890625
145,-26062.326,-4664.1963,-10621.443,6366.7065,9016.219,1427.4651,27156.75390625
146,-10884.084,-10578.011,-13026.031,1333.9586,4573.498,-3575.112,10572.15625
147,-13202.692,2798.4343,10724.079,1689.1599,11706.215,-1958.0149,29611.46484375
148,-20041.518,-19535.127,-12121.887,-959.852,-1002.7158,397.57394,8075.953125
149,-2900.143,9417.5625,15922.631,6302.6504,-810.6018,10552.374,27006.822265625
150,16750.188,14566.07,24040.504,-1811.6079,257.46005,-6482.169,14489.380859375
151,10144.644,3796.055,11326.977,-641.6353,1029.246,-10549.279,19684.603515625
152,-905.34045,-44.580734,279.26813,-65.85698,167.39644,-3839.488,6741.4111328125
153,18272.389,5005.2476,24257.27,-2788.6624,-1200.4886,-12244.151,27724.5234375
154,11126.539,6839.0103,12668.445,831.7467,-7623.5703,-2615.1426,14977.3212890625
155,7854.5947,10680.373,9526.357,1383.857,-2615.5435,-982.227,5934.515625
156,1038.8295,3587.9478,1911.4231,1340.8018,-2453.8042,-469.70328,5399.41259765625
157,-4880.1504,9766.896,-1647.101,96.98509,-18536.502,-4321.342,35559.66796875
158,2280.5483,-1274.4622,-918.75037,1886.1675,-1378.4252,-3094.8635,7523.806640625
159,1301.524,3421.8665,2982.4507,-127.15718,69.30595,247.51802,2000.98449707031
160,23086.88,8737.443,27049.46,-4138.7827,-3778.7195,12263.491,28703.197265625
161,19683.395,23077.326,36010.344,2665.1636,1285.8237,14293.173,29356.927734375
162,-18748.74,2556.662,3137.216,-4242.295,-2961.0684,-7048.307,26380.99609375
163,-4775.268,-20036.26,-8550.704,-5025.7334,-401.1722,-8296.981,21732.7265625
164,-9555.623,12060.756,7734.459,9299.772,3439.1,-3453.8093,26892.224609375
165,-17866.006,-17686.56,-9383.269,-2815.8413,-6994.8887,-12746.972,26990.646484375
166,3946.2495,-1525.9258,16213.224,-4289.042,13894.856,8999.169,33539.4453125
167,46343.61,48419.105,47688.15,277.8752,-368.84366,114.41149,2000.98327636719
168,17679.516,16837.71,17758.598,-135.65318,-1019.3214,120.55572,1999.32861328125
169,-127038.6,-127768.625,-127140.734,-670.24036,773.3821,361.75873,2000.85974121094
170,972.49536,7249.0854,2455.8699,792.036,76.50615,-15912.579,28174.73046875
171,-18832.346,-10329.791,-18724.49,-506.47528,2011.2502,-16098.855,29356.642578125
172,11305.853,-2964.5579,1147.1561,-252.91563,-10255.414,-8261.998,26122.19921875
173,-83443.914,-75792.35,-58354.44,-11845.495,2018.8441,-6221.8296,32332.064453125
174,203.73926,8166.134,19346.09,-11241.172,1684.2073,2343.4204,26105.30078125
175,21220.797,19393.107,18017.943,994.78253,6045.8174,-442.16263,10997.99609375
176,5251.9146,5473.179,5743.3096,-1307.4082,938.96515,-4146.6284,7716.10009765625
177,3172.6694,734.4223,16887.383,-1338.1311,-7619.8345,-15505.214,33589.73828125
178,-17840.77,16838.842,8750.859,-895.1676,9182.217,-8038.109,37904.875
179,-1993.0509,9137.68,26579.799,6702.726,-8384.841,397.7393,31119.69140625
180,-8037.7163,4431.9517,8372.356,-6231.761,-3788.9343,-19800.967,39445.69140625
181,17883.82,13523.049,27396.0,-13649.364,9033.506,-4166.402,31729.84765625
182,8516.033,19127.088,5961.975,10055.659,-364.17783,1149.9548,21305.69921875
183,-6607.0737,1741.7291,-3760.2075,-4874.245,10705.115,6276.0415,24233.83203125
184,143340.14,142567.16,143943.27,418.1677,-750.5973,-347.22687,2000.98767089844
185,37345.59,37655.293,37497.098,46.473488,-336.31598,-1093.0751,2000.54797363281
186,-9164.871,-13988.276,-15369.217,-1245.0289,5183.3735,130.82672,10822.9755859375
187,14911.362,-355.34128,15984.774,10403.941,6268.4897,2922.137,26811.125
188,-26136.963,-6409.1255,-27255.172,-2116.421,151.82079,-2681.48,21155.984375
189,458.6368,24150.766,-2724.3237,6227.2734,11978.961,2858.4397,34902.64453125
190,-20139.463,-16487.996,-19373.467,-4822.2617,-1779.1561,14892.501,27490.75390625
191,-15524.858,-1736.9751,14187.391,48.505463,-9054.781,12232.843,36853.16796875
192,-5330.3745,1.81747,2162.1697,-14437.813,-1359.9199,-10292.645,31517.19921875
193,-3322.3223,10374.789,12232.333,3426.8447,-7836.174,6525.8857,23742.6328125
194,465.8413,-13970.676,2878.1824,8989.279,-4188.634,-1195.1539,23417.916015625
195,-11795.556,-774.48615,-9174.873,4931.2197,5678.46,16102.949,32358.146484375
196,-7094.1187,-12156.937,2304.8232,3930.9133,800.3351,-7834.19,19848.396484375
197,5881.6987,-15413.477,-12638.378,2618.9604,5313.099,-2692.1094,23002.08203125
198,16445.33,22273.787,35415.004,9035.456,17034.451,1359.0197,37473.0859375
199,-3286.499,8003.758,36996.45,6004.362,1970.6182,1995.9492,37777.5
200,-13010.146,2546.165,21761.951,-1727.6619,-3202.9604,-5864.182,32451.02734375
201,9832.549,19044.828,31522.73,3525.7637,4000.8901,-16669.012,35698.6875
202,3233.6426,26181.945,32771.023,5335.745,-2078.3276,12216.188,35599.484375
203,12992.371,14874.268,9806.191,-4263.1865,-7925.789,7548.563,20823.314453125
204,11746.907,19421.5,21378.836,1289.1989,-13599.162,-17384.084,39295.91796875
205,-5422.255,12476.387,-22155.766,7946.672,1189.2767,-10718.416,37923.92578125
206,7664.62,29293.07,21674.09,5729.8203,-9856.742,-3430.2837,28041.240234375
207,2909.048,-9018.115,-2914.9373,12674.883,4969.2524,-588.35333,25764.107421875
208,14154.581,12038.769,13745.695,11692.744,-13399.051,-6533.9927,32872.82421875
209,22965.111,38994.727,20885.611,14733.531,-4449.897,11015.258,37003.375
210,12987.754,38178.535,4724.0776,1572.2329,8184.367,2957.282,33847.24609375
211,10726.057,10265.026,9200.509,-219.94319,-817.6417,74.56987,2000.9853515625
212,14484.453,14154.767,4494.1953,-3745.518,-344.9432,1498.6313,12074.8359375
213,-1817069.6,-1816092.8,-1817066.5,167.67015,799.7861,-591.4367,2000.98645019531
214,101996.56,103713.73,102549.59,290.24512,594.8323,358.1821,2000.98388671875
215,23523.865,23618.303,22224.598,589.6142,-157.39015,-596.34485,2000.96118164063
216,-40333.594,-15757.493,-4200.0034,-8612.344,5191.8984,3629.015,36939.03515625
217,-1137.0342,18792.53,18349.365,-5730.751,-4821.077,-6116.1875,25865.57421875
218,-16163.862,-760.904,10411.706,-9092.681,2357.7976,-288.50845,28268.841796875
219,-30988.922,-6874.8325,-362.45157,131.67491,-6900.353,-1652.9417,30529.228515625
220,-63.778458,-800.18195,13124.094,-6197.467,-11467.338,6708.359,28790.716796875
221,1329.4075,-8986.139,16690.205,-13118.826,-6793.137,10672.908,38695.00390625
222,-1135.595,7685.1763,1186.9324,-5660.599,2999.2,3342.6296,14810.33203125
223,56.7167,-2755.9238,22418.11,-3440.1106,-2906.7734,6418.3804,27482.271484375
224,14569.1045,4717.8784,17025.328,-691.98596,-9050.79,1883.481,19624.1171875
225,7039.8535,8561.06,23446.826,7305.595,-2459.8438,5140.6865,22451.994140625
226,-11393.004,7224.4546,-2707.9836,-185.83606,-9404.699,9249.692,27972.583984375
227,8537.144,1980.781,11826.905,1864.0618,-9226.401,8770.225,23915.087890625
228,19978.275,12950.867,22569.867,-2607.977,3640.38,13620.615,26287.603515625
229,15454.566,-2379.951,-3723.2886,14102.182,3991.6907,-8584.121,34775.12109375
230,16979.951,17016.402,28298.12,3403.4514,-5902.3716,8985.088,22564.341796875
231,-1345.5913,-1678.9006,-1733.5265,-334.60056,-135.06795,907.42737,1730.07580566406
232,-11234.487,-3658.035,-1990.3109,-1383.3727,1027.0159,-6213.8774,14055.6611328125
233,4483.707,-3476.8074,12321.41,-1404.3054,-10769.702,-11854.257,31026.3984375
234,13582.77,8710.482,35761.82,-7366.607,7408.8296,-4904.4907,31989.798828125
235,-27040.746,-19998.121,-9890.76,-163.96167,11116.129,10698.544,30612.119140625
236,6324.3276,3609.6729,11002.972,73.28239,370.48154,10446.303,19229.236328125
237,-19827.25,-10345.83,-13171.147,5494.4893,12780.515,-11613.469,32500.80859375
238,-265.95435,-1935.2294,10315.866,-11151.747,8557.999,11171.473,33160.71875
239,-13835.06,-5241.0034,-205.25555,10995.905,9287.097,-4566.1074,28749.302734375
240,15069.491,28538.076,48828.64,314.19232,9100.252,1847.7329,33546.64453125
241,-422.99146,2289.5308,-9873.569,8496.127,-3315.7437,-4207.977,20614.615234375
242,2567.4238,-8629.208,26974.547,5212.8677,841.45825,3810.474,33489.62890625
243,14400.21,18947.012,37315.914,2358.0347,8078.936,4185.5776,26582.9921875
244,16404.184,10919.157,8282.229,968.7702,14261.347,7959.7764,29232.69140625
245,2295.2986,15210.172,23429.62,-5907.112,6239.9785,-1048.8223,23776.046875
246,5055.66,9490.578,11312.809,-5168.5537,9008.434,-14332.314,31159.48828125
247,-2633.286,-10348.174,16254.6455,534.07526,4923.7905,391.88,25219.818359375
248,-1804.7845,-5624.8706,-10367.092,7813.586,5502.852,5112.387,20189.291015625
249,829.6506,4355.5845,-768.79816,-9684.541,8949.445,-12628.611,31948.669921875
250,-22878.645,-8803.753,-14246.957,-13135.644,4945.462,2797.5325,27669.57421875
251,-15993.687,13837.055,13503.416,4050.3733,-4668.2676,3752.2646,32200.38671875
252,34241.125,19555.768,42847.684,-202.55734,-2687.1726,5511.425,23000.787109375
253,-1817.9913,448.31323,-324.1146,923.41815,-11754.122,-6584.2554,23475.001953125
254,7016.3027,-22541.11,-9100.715,3591.043,3066.0435,8293.267,30499.91796875
255,6626.9604,4243.1636,8826.455,-569.1104,13420.129,7704.202,27112.70703125
256,625.5075,-5467.175,-15109.432,-1969.0266,6892.9414,545.37836,18544.609375
257,-1992.9514,-2038.2413,7303.7886,-6827.206,-4290.9785,-7793.5327,21543.900390625
258,28050.94,1401.7091,20599.771,3519.7876,9915.298,-2241.53,30237.607421875
259,-28048.367,-10680.747,-36362.637,-14919.606,-3044.9324,-3585.722,35345.8828125
260,13340.237,4342.155,29126.69,-850.4158,12424.8,-4382.653,31545.916015625
261,-16386.31,6862.2476,-5677.17,-305.74466,2585.5608,-13375.943,31036.953125
262,1948.4293,3708.3997,-1573.3191,-8528.439,6654.9683,-18012.027,36688.77734375
263,30119.47,18477.342,50113.05,-494.77917,2020.837,-7532.251,30842.185546875
264,7906.798,-10448.216,16611.36,-4402.262,-7056.948,-6823.134,30325.814453125
265,-17862.684,-10702.974,-39827.72,7205.835,1422.3363,-8246.601,32509.19921875
266,13365.966,15484.405,37978.906,-7341.509,10483.429,10272.38,36960.91015625
267,-8657.294,-1494.687,-16984.752,2783.2852,2982.4429,-274.27682,15180.4619140625
268,7494.5786,873.0676,18702.22,3915.7417,14521.075,9041.97,34169.03125
269,12593.373,23096.668,30137.357,-12997.813,-1203.2743,-508.70627,27309.1640625
270,14361.376,4393.243,31745.895,2012.5065,4774.562,-6807.8916,28186.138671875
271,3515.0002,-10103.6875,-23625.34,3816.8818,-2138.8506,-2448.2344,25057.1796875
272,10288.614,17824.156,44012.992,10007.537,4584.3086,6365.964,37750.0078125
273,6100.6113,5972.388,6373.155,-105.21437,30.142893,138.09589,467.776550292969
274,619.6633,1343.3647,1255.956,752.60236,-58.17005,-261.45856,1543.56408691406
275,250.93088,9069.658,12701.15,-1588.7388,-5316.7124,-5912.6553,17895.134765625
276,5011.3457,4566.833,-27622.695,-7772.5195,-1692.5121,2943.2798,35587.7890625
277,8032.5776,10805.927,-2.6074219,-5655.2817,-1068.6195,-8609.786,20403.376953125
278,-3554.2441,-5970.1187,-29474.81,3986.927,-1276.9247,-904.7597,25886.78125
279,-5363.1846,-4545.4854,-21233.676,1778.6392,1741.6465,8055.061,21880.611328125
280,9788.135,-8239.707,21386.41,7598.99,-7197.7295,-1396.4707,31672.087890625
281,1334.659,-4773.087,-19556.08,-1952.7129,592.23004,4869.811,20730.8671875
282,-15322.051,-6026.564,5907.663,-2504.9475,4004.7422,12588.003,29699.796875
283,9276.755,5781.794,-9499.3545,-8781.105,5077.805,-4464.299,25837.974609375
284,-4337.721,-14236.894,-11455.5205,1147.8396,5299.971,-4348.0923,14937.7294921875
285,-34048.215,-16227.993,-22436.635,-4719.4897,-7781.0664,-14867.355,34015.26953125
286,1391.1262,13268.461,10609.374,12433.822,-455.07788,-3949.1729,25055.298828125
287,29249.646,13140.294,36326.25,7683.926,8790.868,-11623.575,35183.48828125
288,11642.05,-615.0293,14999.282,2690.145,-10359.746,-3132.211,23995.265625
289,-6436.968,4903.9395,11270.649,180.07979,-8038.39,-12042.873,29502.41015625
290,14710.419,18086.748,30074.21,-4228.197,6253.365,8766.562,24435.158203125
291,4046.1465,-9966.13,-15054.717,8912.946,1206.2894,-3325.6494,23862.2578125
292,-31097.078,-773.9452,-7053.7715,-2306.662,4613.7104,14256.368,38184.5234375
293,-18614.098,-393.25574,-9664.044,-4112.415,13740.241,-3875.617,30186.16796875
294,23304.705,25003.105,37894.418,-5138.7896,7166.416,359.5039,20606.962890625
295,145.55942,4217.661,-4837.9385,-985.39667,3528.6458,3733.3752,11991.326171875
296,-4840169.0,-4840974.0,-4841050.0,812.0205,85.85804,-655.2578,2000.82885742188
297,55140.867,59344.74,50699.605,9611.243,1331.4069,-6642.7563,21700.0546875
298,1855.1774,14337.068,31791.576,-314.5465,3679.6912,-2895.332,27283.48828125
299,11364.571,9487.263,22154.281,-2730.7683,-8099.909,-461.8152,18974.572265625
300,9062.251,10731.591,33167.57,-660.52356,-8737.802,4683.88,28979.056640625
301,11212.66,-7874.79,18752.486,1971.5449,-1744.0933,3616.1255,25002.23046875
302,27050.508,7702.3867,30296.07,-682.85834,6220.7725,-198.38712,23775.828125
303,3365.2249,-9865.184,23233.385,-1997.5887,2245.1423,-9483.497,33608.84765625
304,4116.503,-3820.9858,-17146.479,1283.7313,-4629.25,-174.50684,20387.951171875
305,24193.645,29904.965,48205.93,262.22244,-3785.7847,-2666.874,23164.76953125
306,13765.772,11628.941,38634.434,1171.7689,-12292.716,5751.094,35111.73046875
307,19933.139,4819.0693,-9295.541,3269.1287,4850.165,6602.1084,29569.984375
308,785.989,-15704.857,5918.7104,7404.8364,7945.13,3960.0637,27997.361328125
309,-765.65265,10245.18,16845.857,-3485.122,151.81711,-7480.404,21020.5390625
310,341.50064,-7991.8833,2854.4102,7896.059,9166.509,4217.3984,24272.994140625
311,8866.992,5314.0054,12991.006,-847.8227,-3972.28,4426.936,12351.943359375
312,7055.4097,-13027.039,7727.368,607.95874,6945.611,-6976.501,26628.912109375
313,-3976.0366,-12940.712,773.31903,6311.1606,8268.034,3305.5632,22424.357421875
314,12803.026,1966.6637,-7746.307,-1803.8363,-1828.7781,-1408.3123,18513.95703125
315,-17163.371,-2072.737,-6017.126,-6683.44,-12972.551,-3139.408,29192.3984375
316,-3.7825408,22201.447,26469.137,4844.1055,-213.79532,-6447.1035,28306.873046875
317,-24291.832,212.1699,-3939.984,6974.6016,-8932.693,-2129.1353,30246.5859375
318,15115.318,43957.336,34718.555,9202.733,2236.6562,8520.748,33728.921875
319,64278.35,61384.027,63540.4,2964.7432,420.84802,2231.8794,6973.529296875
320,86599.03,86319.98,86582.625,429.55685,146.89029,1050.7288,2000.98547363281
321,62002.5,63494.906,62700.168,-477.64996,122.981865,730.5957,2000.98608398438
322,68449.09,68142.36,68723.38,-147.32376,987.6263,503.0456,2000.98693847656
323,-24414.494,-6773.7324,6824.7905,-623.54956,10240.032,-3956.0486,33146.59765625
324,12526.607,-3367.2642,-3857.0554,-9618.223,8611.667,-6924.625,30074.97265625
325,9266.745,2726.3074,5208.242,-5728.691,14990.821,2866.3652,28809.380859375
326,13322.238,9687.676,34565.53,-4555.5137,-9429.769,-7056.701,31939.13671875
327,-4368.1807,4177.4707,4059.913,4625.2544,8167.4146,-1560.1819,18537.49609375
328,-6738.0356,5815.2954,23107.893,198.85187,7023.328,6078.28,30539.091796875
329,-1352.2207,-6333.533,3039.2615,5891.401,17458.244,1135.43,32989.97265625
330,-1843.4429,5524.1885,19105.992,-7611.0435,6971.302,-798.20276,25696.412109375
331,-28670.334,-19824.576,-17265.975,8028.5938,8170.2856,8760.718,27042.796875
332,5490.7773,1422.45,5025.584,-1962.1613,14402.45,-3576.775,26212.537109375
333,26269.416,12147.656,36340.938,11015.58,-606.6758,6626.5376,30658.66015625
334,17838.19,-2418.411,21120.896,-7647.4487,5258.966,-12855.197,35239.0625
335,8141.21,17554.6,29901.805,-1309.6927,-3560.122,278.8936,20017.419921875
336,-5284.177,-9205.754,-25218.188,7796.4434,-6022.6704,-1262.2915,25110.201171875
337,16714.438,20800.062,23985.938,-2963.5217,-3667.8145,11350.595,22205.234375
338,-7200.0327,-19112.443,7545.048,5890.3296,-8054.611,8582.351,32475.541015625
339,-5138.7344,-3933.8152,-3808.1833,295.1441,44.785053,-584.8409,1706.59118652344
340,12065.413,-920.6901,6267.8916,-3328.4766,6629.9854,-12237.83,27227.9765625
341,2933.4912,-2903.9363,11059.032,977.4851,202.49844,10995.915,22655.068359375
342,15417.785,-8312.033,-12741.529,12245.719,8971.503,-589.11475,37151.2265625
343,-59.08203,-8104.715,-18580.438,2404.6216,1835.9078,-2150.896,17323.224609375
344,7963.143,-726.0742,83.674805,-8987.444,325.58023,-506.32596,17678.564453125
345,4762.5137,4457.2466,16427.625,1313.7981,6629.8906,7282.861,20878.068359375
346,9974.593,-10559.326,14025.481,-15.491515,-11078.979,3419.9065,30406.439453125
347,-188.65472,807.71686,1378.854,-513.3127,534.0117,395.78522,2000.98278808594
348,11480.686,1652.585,10347.042,3488.9895,-8528.251,-3248.64,19316.015625
349,-15380.578,2290.143,2365.7866,10121.206,1699.3362,1375.3904,25204.197265625
350,-3892.8025,2364.0803,2945.748,7130.777,-7873.371,-6361.477,22428.673828125
351,-25577.312,-8994.957,-39180.66,-6155.2007,-5059.2534,2962.1292,30039.498046875
352,10070.462,-7358.545,17026.434,-615.06433,7095.492,-2185.7444,25296.181640625
353,-339.3203,9390.12,15027.059,-779.60956,1640.7386,948.9218,13924.15625
354,94.46692,-643.5671,-467.77454,-1546.939,-73.07192,-301.5036,2813.12084960938
355,-691.9138,957.6459,1495.816,-851.4559,103.90422,1102.9476,3123.33447265625
356,-317.49966,645.44214,-1348.0845,-908.56726,-831.2941,-636.3522,2957.40112304688
357,-7926.618,13.580933,5762.363,-3116.5667,-4826.098,24.779678,15516.3203125
358,-4539.756,-22197.793,-20730.932,-10980.452,-257.51736,-3695.6895,26285.744140625
359,-3537.7595,-4174.945,-394.28882,-1066.3608,-2694.8418,735.6599,6253.9482421875
360,-19578.459,-17759.973,-26722.898,-3226.1953,-1529.7402,-7459.532,16508.21484375
361,17521.92,-593.66797,24705.672,-575.0288,-177.93095,-1151.5931,22693.263671875
362,5791.691,-6156.8135,14808.758,3005.3445,979.05945,579.75665,19047.177734375
363,-7469.6113,5480.866,-16261.605,401.59525,-2251.05,-2025.0189,19668.8125
364,-1460.024,1339.9225,1791.8046,-1286.7184,-2119.0344,35.06337,5267.8916015625
365,636.4257,1467.1025,627.9245,-2606.6748,1646.3191,-317.27853,5432.7265625
366,47.12442,599.4996,-183.236,-97.68604,-202.52191,507.1605,1186.90270996094
367,-1777.9685,-744.82825,885.6356,-369.5808,-630.8549,-376.32663,2727.4267578125
368,-1434.3523,1078.1844,610.2989,-313.4651,-697.4511,-186.94609,2686.09765625
369,7078.817,669.29346,2009.6313,-774.5242,10436.737,2245.3997,19441.943359375
370,3247.217,-141.42114,7480.1187,1798.369,-1647.4896,-7447.1245,15098.6142578125
371,1063.6538,-4698.922,-3765.4697,-992.65027,-74.70672,-1909.1779,6527.41943359375
372,283.40427,1357.5934,-208.33936,109.66526,-324.9898,993.5933,2288.78515625
373,5297.662,647.3179,8051.241,1720.0929,1392.4012,-5893.2803,12684.5478515625
374,-5970.58,-7819.3735,-3842.665,-2449.7217,-834.4241,-1216.5414,6034.2568359375
375,-9261.67,-2478.3145,-5687.4883,3855.6733,-4154.391,-1618.8926,11780.5654296875
376,-860.36743,-4405.0503,8245.831,2086.8223,-1843.8556,411.51715,12310.0830078125
377,624.35754,-862.39966,3953.2856,775.5274,-4086.768,-1038.0463,8566.416015625
378,4097.2534,6194.133,7847.784,-1657.8129,617.7866,3477.6033,7501.34375
379,120.29815,-341.5147,919.4942,359.168,512.0628,-590.2185,1854.6611328125
380,1292.9639,4633.8633,10720.635,261.05865,-638.9408,1.5153261,8365.099609375
381,5069.0728,4072.9683,-5641.138,-342.30283,273.33173,-3530.704,11958.4951171875
382,2507.676,-11973.639,22155.209,4843.43,-4419.0215,-3360.2866,32296.912109375
383,1072.1055,-3138.574,-15798.635,11675.025,6629.6016,4344.7754,28787.482421875
384,4721.063,18505.365,40178.91,-7689.293,819.6979,9795.401,37759.04296875
385,255.30399,372.4633,-1335.4333,-702.67053,-573.9715,888.3873,2750.96435546875
386,-13490.0625,-5365.427,-35403.816,1175.2677,-3235.2861,912.6295,27609.912109375
387,-5193.8984,-4734.8135,-2711.2458,-700.5985,-76.5733,1403.5728,3554.53637695313
388,-10103.163,-1443.6172,-16661.867,553.9929,-1690.2662,178.68062,13578.92578125
389,-544.33887,14392.291,24155.91,-1178.7815,-2555.1377,-3460.0935,22889.697265625
390,2371.0493,1755.4984,-2047.7786,-282.37106,-525.06616,-2823.2004,6493.27294921875
391,2683.7275,15073.92,26844.078,432.04837,311.18958,-3665.377,21887.0625
392,6877.0757,-3538.1772,8549.208,-1817.7944,-2229.8005,-2367.8503,13051.3798828125
393,1480.1678,1888.4602,4720.488,-1247.5009,-5692.9907,489.9162,10581.240234375
394,-3131.2578,-1991.8196,5031.3535,1661.8313,1586.2535,-924.92084,8776.4365234375
395,-568.756,5184.5024,-2933.6968,1012.81506,4782.6504,2104.0515,11716.6025390625
396,3685.102,3285.8967,1933.3815,1318.6771,7624.2495,5313.9795,16335.482421875
397,-2894.1882,-1350.6842,-625.5039,-376.01953,-3706.2607,-1146.3625,7042.96337890625
398,5742.4307,5748.165,17278.678,3940.3066,-3051.8833,857.8393,14482.6298828125
399,-4320.9185,-1935.0361,-1352.1112,3172.431,2742.6475,-93.73755,7759.42529296875
400,-3855.1274,-1398.9536,-5014.5806,314.83313,-793.70306,-2918.7131,6161.88671875
401,8917.957,-6696.2515,28920.156,-8772.064,1329.94,2945.1135,34905.3671875
402,-11358.113,3006.0571,-15101.632,-2090.5522,-2325.0896,1458.8102,17601.9765625
403,-6003.935,-22243.285,-36697.125,-12784.434,-4827.535,-5571.4204,36887.8515625
404,-8396.48,-2797.0264,-16876.508,2015.5679,-28.975246,805.51654,12840.7509765625
405,-4884.54,955.8441,1887.2942,2862.9329,-711.01227,1312.925,8467.27734375
406,-2286.732,-393.6516,-9401.364,-1753.4215,-1134.8755,406.1063,9014.009765625
407,-1470.4576,-342.43405,1687.0742,-1289.3687,1910.9688,-932.0753,5121.50244140625
408,758.0991,-2083.0947,-117.78818,-128.01886,211.03865,4435.441,8096.49169921875
409,-87.94263,1173.4595,6651.1167,-141.64243,-192.59888,-2037.0271,7150.1962890625
410,3820.8877,-109.51953,12283.376,269.036,1227.8159,1493.0405,11478.2431640625
411,-864.235,-1341.595,-3325.2307,547.421,-1703.3107,-1894.5137,5047.7666015625
412,4026.7148,-583.9355,-4682.8457,237.47083,-239.943,4567.6416,10949.41796875
413,3904.559,-1755.6418,3502.7017,1770.32,178.50899,-400.38345,6316.91259765625
414,-5591.209,7699.505,-34180.07,-1405.9523,-3271.096,5269.2295,38668.5546875
415,-158.34218,489.8293,-1042.931,-1118.8989,-8739.74,-1910.8553,15672.75
416,3352.5776,4427.4536,6569.041,-2549.1223,1116.4553,1845.2893,6441.46435546875
417,-3243.1096,1107.5154,-9498.765,-1457.1674,3532.0122,-3126.2131,12585.3935546875
418,-1353.5525,-1627.3127,-11780.315,1928.1853,-5211.1978,2883.3147,14949.978515625
419,-652.3502,111.49545,-371.9208,-4386.3574,-9402.365,-3731.151,19108.798828125
420,601.56055,-8611.626,-25005.377,-1632.85,184.2369,2690.1414,23118.98828125
421,-2189.4062,-537.0322,-427.26678,-1668.6283,-2451.116,487.32193,5478.41943359375
422,-22349.523,-9204.594,-24108.281,9833.459,-2299.8389,759.2368,22509.751953125
423,938.9468,-1676.3494,-13406.199,1537.906,2130.9514,-554.3563,14026.6337890625
424,-1271.5422,6069.466,-391.01294,-2066.4905,-375.04477,2374.2688,8851.3466796875
425,-5088.762,-2057.1726,-538.0724,791.1237,246.60516,495.937,4347.57666015625
426,-452.7256,-475.14026,5607.1094,-1460.2047,4035.6648,679.0885,9669.4248046875
427,1102.9801,-1746.5444,-216.51926,3096.4639,-1610.7323,-1565.7639,7071.30908203125
428,10023.177,2015.3076,20021.566,1513.5366,-1796.9602,-3952.4255,17538.076171875
429,-2236.9211,-1055.7347,-5782.686,277.8117,-3258.9668,-1775.8843,7727.3076171875
430,732.747,-28.472744,-947.898,-441.97638,1794.5364,1126.0919,4021.9453125
431,7025.9927,-10366.551,22075.48,-1952.3153,2391.9204,7132.089,31175.873046875
432,-2029.323,-960.2678,-7763.404,429.43903,1976.2968,493.57404,7290.67578125
433,-924.3478,-1395.4336,-4262.224,-423.068,659.91547,-1162.5281,3960.90307617188
434,-284.36816,-1796.7402,-1172.5387,-1235.7985,406.0148,279.94904,2654.07690429688
435,-2977.2356,-2226.1206,-670.29395,-1061.7104,171.42937,-427.97302,2858.794921875
436,2814.244,2628.15,2118.6396,1146.0033,-2228.3074,-721.56995,4559.28369140625
437,-3601.4604,-3938.7947,289.09366,-153.23196,-945.5488,-32.63368,4395.275390625
438,-556.1299,-2486.5244,-1060.1766,-2212.017,1762.016,-2472.734,6733.7861328125
439,14742.108,-1411.9368,18744.21,-7050.267,-11580.877,-4113.836,30722.3046875
440,5345.6333,1566.7021,3629.842,-2666.1729,1971.0841,118.972946,6615.4228515625
441,-9992.895,-1714.1235,-9893.377,1540.0199,-2852.8228,-1792.1666,10435.0576171875
442,-2139.2146,-3227.555,560.6654,-555.0799,959.99554,2084.567,5304.48828125
443,1121.0918,-918.72833,224.8428,960.80365,-455.1654,4050.2815,7466.005859375
444,1258.5162,2612.4668,6427.645,51.190365,3523.9834,-1671.9182,8197.7744140625
445,-9074.259,3978.216,-2844.212,-3630.229,-423.78043,1300.6917,13153.4365234375
446,4344.4297,1418.937,690.8144,-578.26935,2576.0425,-220.48445,5681.1796875
447,12038.268,7278.634,10181.262,2175.3843,4806.11,4719.673,12945.3779296875
448,9793.075,-1963.3658,14873.926,-6716.0083,-171.5094,2368.6626,19390.61328125
449,-5009.7124,-413.50143,-467.88434,2056.5542,-1231.0205,-2318.39,7364.60693359375
450,-5447.763,-3069.8972,-9247.591,2195.9973,-364.27582,-1701.377,7257.9453125
451,3243.774,914.7326,450.6597,1747.9558,4701.7314,2736.073,10230.533203125
452,857.2993,901.6272,-946.6825,73.22842,-18.063242,-1266.856,2857.9921875
453,-1591.0287,-2043.6045,-11901.634,-5885.001,3016.9429,-991.3658,15362.3251953125
454,-3484.611,-1478.8934,1969.4971,803.6183,725.4989,-442.7501,5189.92626953125
455,1195.497,-2156.8198,1636.3419,980.9346,-366.2152,185.53383,4037.63940429688
456,6372.714,1843.2786,26905.012,-5250.144,-1418.8752,876.4698,25022.53125
457,13267.998,-115.39155,27584.932,-4021.3062,2932.5557,-817.26953,25534.583984375
458,579.69196,-217.68028,1638.7551,-1416.211,138.58784,706.0485,3189.35424804688
459,-854.84644,-7522.178,761.649,420.7608,-109.63971,-715.7629,7742.623046875
460,-2854.8381,-7163.725,-9782.037,2483.4993,-684.60095,-996.1531,7719.48046875
461,3810.4844,2838.5767,8169.9575,-2651.6511,-538.5657,-1460.5851,7249.16943359375
462,-2614.596,-4319.266,-7250.7583,1326.4342,203.31094,-430.82816,4738.76611328125
463,1050.1201,-5979.324,5389.6997,-2638.249,-1563.5571,3779.3843,13031.359375
464,3204.3792,4813.632,-3654.4482,-1108.8894,-6916.1426,2518.4607,15062.7587890625
465,-352.3733,-482.46024,-6725.0386,1174.6163,1612.5635,2427.757,8331.9287109375
466,-602.555,9075.953,11421.248,651.7445,3110.4377,253.04451,12343.5712890625
467,-5838.252,-1452.3196,-6103.7007,-2095.8328,-2856.4043,-3579.904,9827.15234375
468,2707.9888,1063.0704,681.62537,-583.5194,328.43723,-130.46579,2207.90942382813
469,-5099.9165,-5157.292,-5168.1665,-35.333176,4715.97,70.941124,8169.7001953125
470,-2227.9316,-4537.9585,14755.693,12365.426,9323.188,-4716.333,33454.75390625
471,-2857.1147,823.16724,-1002.837,1379.782,2952.4001,-1625.6766,7067.42041015625
472,-2702.341,12825.502,38230.18,-75.232445,5454.2964,-2910.8638,37358.7421875
473,-1121.4204,3031.9653,-735.5014,1494.4387,-2277.266,-392.66467,6206.21435546875
474,2193.2915,2208.873,647.16907,664.7642,-601.21313,5.402862,2196.59326171875
475,467.36237,1840.7534,158.21182,2236.3093,502.50873,-457.864,4335.44287109375
476,-825.90717,-1275.0586,-2672.0134,-302.8415,2243.5374,1231.0312,4764.7138671875
477,-3896.3367,-1540.9567,-6556.2637,1863.6879,622.92706,1808.0133,6346.5751953125
478,-2823.3672,-1596.4052,3103.583,3121.0103,1744.0588,-1022.69824,8417.072265625
479,-4567.245,-585.70544,-14941.586,-3592.1245,-1525.7126,2206.361,15002.7666015625
480,123.09584,863.728,2982.7927,1077.9725,1364.4419,615.9829,4100.9638671875
481,-2617.0208,-2725.6343,-1494.8103,-1200.9917,-1291.4098,-2702.9114,5713.1943359375
482,-9950.458,-2412.6401,-3304.0122,7600.735,455.42392,-2052.6362,15410.0595703125
483,-286.8731,-1091.532,-8682.553,-6082.3765,2916.025,1518.543,14415.015625
484,-1767.8116,-2502.0566,-2975.515,108.91224,-780.865,-982.58813,2423.25952148438
485,-4464.274,-4297.3613,1139.7135,1834.0176,1439.3688,729.5479,6957.01708984375
486,-572.44867,1864.7856,2662.137,1781.98,-1630.6205,-1057.889,5420.306640625
487,1908.4126,469.11435,545.3529,655.31555,-705.54675,610.12384,2422.00732421875
488,4900.5874,3258.3445,1547.4514,1383.8135,-338.5106,64.83071,3812.4814453125
489,1922.638,1458.1268,539.4649,366.0564,1043.5872,-473.3253,2414.076171875
490,-2303.0105,-2681.636,-533.3271,192.23003,1188.8439,2401.4187,5059.30078125
491,1672.6727,-14.006973,-27.220705,1176.1782,-58.68824,845.2314,3028.38525390625
492,619.83777,2180.9797,2142.5469,-908.49146,230.0215,459.80777,2376.49145507813
493,1923.3485,-3007.8545,-25717.602,13763.061,-7091.9023,2023.731,37195.06640625
494,3121.7017,1718.046,1953.0215,204.88696,-1216.238,-8.3882065,2501.89721679688
495,-11826.774,-8290.342,-10760.359,-5296.8955,566.32117,1996.9867,10342.6123046875
496,-10615.749,-5833.9985,-1827.3403,2463.1387,272.8828,372.10013,8770.24609375
497,-3386.841,1687.9485,2086.5876,444.85678,-694.84863,-1329.9789,5940.04052734375
498,152.35963,-0.7132746,662.9232,830.02423,-781.89764,-1380.2806,3158.90747070313
499,-3457.8267,-1374.7542,667.2848,-1817.9768,548.7083,356.6996,4895.19091796875
500,-1306.1093,-2169.2185,-37.758442,-320.3594,-57.180103,-73.1833,1944.77844238281
501,-357.24625,-1096.0854,-2184.408,-188.61143,-1827.885,404.04767,3626.89965820313
502,-974.21783,602.92914,-2471.5918,686.66095,-1852.235,311.865,4369.177734375
503,-201.39078,1433.8688,-1719.8296,-98.06816,1007.39764,-754.6734,3499.25268554688
504,-2775.5513,-1640.7905,-4279.4346,1141.1976,11.664543,-772.028,3309.28686523438
505,-7473.0073,-3085.111,-1037.6862,985.5711,1640.1715,-371.66885,6620.3037109375
506,-814.1446,3290.8994,438.42487,813.67896,730.184,-20.729746,4106.76025390625
507,-2135.2178,-3689.5,-6125.1196,-843.6278,-70.60493,473.4537,3867.32861328125
508,-1604.809,1549.8105,-873.30963,26.006382,754.68964,259.08768,3176.66357421875
509,3795.8838,-2158.146,593.2591,-959.82715,-2146.2612,4900.668,10736.45703125
510,-2.6940286,-3445.6191,-108.84454,-136.83981,1023.8512,-216.2577,3852.37890625
511,-1838.7888,-8282.314,-33559.574,3662.1846,1223.0071,-251.79672,29803.453125
512,-2539.6384,-2825.9692,3559.1526,3920.5178,674.8504,1265.9119,9555.5615234375
513,476.00293,537.7596,-720.2252,-598.6915,461.38187,-1753.745,3528.37475585938
514,4274.2754,-280.20212,6760.003,2912.6719,-2129.2786,2190.9285,9575.81640625
515,-3409.7136,2516.3901,6549.353,2785.9424,-325.00717,-65.20627,9944.712890625
516,790.89185,-282.0743,-1675.044,57.567223,-254.99153,-1026.5477,2820.04150390625
517,-1449.4417,-2241.0308,-681.47894,2084.517,-2919.7651,-851.9287,6527.81396484375
518,-3032.719,688.662,-1856.5356,-1280.1049,-1830.8815,235.37424,5098.396484375
519,-3378.3455,-2433.7192,194.88452,-695.7815,1278.3804,-1096.5614,4499.7080078125
520,-16.88248,-2927.8716,-1602.6832,-1160.0972,226.83304,2548.5012,5481.67724609375
521,-5636.9966,-1238.3894,2055.177,2849.1455,-2029.0946,693.2672,9101.03515625
522,-2095.0625,-34.39727,-3357.7195,1001.3277,-1246.0951,1164.44,4491.83154296875
523,-4727.2705,-2175.1873,-901.2934,25.914495,-2564.3481,-2707.9463,7288.04443359375
524,-778.32245,-892.64874,-1645.4264,1634.2361,347.75037,945.22833,3423.61669921875
525,2363.1826,976.35016,255.9994,759.8378,-3081.4436,1058.484,6084.43310546875
526,-959.8426,-1954.6229,2071.8052,1002.44226,-1355.4807,-385.6567,4708.412109375
527,-1408.8438,-2928.216,-212.97528,3627.662,1399.8032,525.39594,7193.17919921875
528,900.20325,2848.4048,914.8519,-282.61676,750.28015,286.27252,2437.49853515625
529,-219.76723,474.67212,779.30096,31.501024,68.07865,1633.2758,2967.53125
530,-932.1835,2205.6416,-2499.1643,178.1301,562.07904,496.72052,4359.06787109375
531,-4436.553,-1749.1366,-198.99149,903.93176,1134.527,-91.06722,4486.4970703125
532,-288.4541,-50.12113,832.14966,1716.0294,-975.37836,-955.2023,3933.32861328125
533,-375.2811,-2793.9062,-1321.341,487.96976,2167.8918,1254.1156,4897.81982421875
534,3261.3057,3317.0112,-474.53445,-295.6248,255.23651,40.416267,3824.94873046875
535,-1027.51,499.8142,791.94214,-1293.0466,611.6091,-460.37347,3104.5400390625
536,-2506.4934,-483.32437,1122.0759,2253.1006,-510.3817,-764.3797,5261.38818359375
537,2582.9097,2577.4812,8.715935,456.06372,43.77836,-568.0869,2865.384765625
538,-1097.8693,1684.9026,3591.7942,-344.9738,269.06323,-1071.0327,4549.94921875
539,1188.7239,-1880.7421,-622.915,-889.86145,-942.94037,-801.9136,3757.00146484375
540,1776.2529,-1996.6864,1805.8922,-1232.2394,-1372.8799,698.9559,5101.27734375
541,2015.9213,-1400.3232,-1691.0409,-350.8091,2679.8684,928.6682,6103.27490234375
542,965.83093,2239.2002,-2589.9536,-716.7479,183.34402,-1680.5458,5376.58154296875
543,1867.6055,-1166.3813,831.5925,113.74992,529.4008,-582.35706,3005.35888671875
544,2134.2476,-259.80847,-608.06647,-652.74207,-501.76083,442.26953,3050.71337890625
545,-999.993,1149.6401,710.872,-125.57318,288.25793,-1134.4408,2833.31982421875
546,-2239.151,-3492.2676,-2245.7615,701.00214,-494.13724,-293.09763,2006.61584472656
547,1289.8799,-1269.7294,2324.452,-986.00305,-597.79944,923.8854,4101.14990234375
548,-513.8873,3825.526,1669.511,-327.79272,-858.94867,1156.4636,4546.53857421875
549,2442.6196,-978.8349,940.8309,414.30234,978.86334,1913.5793,4816.45458984375
550,3851.6702,914.9156,1833.2987,-1119.3962,645.9315,-373.4952,3492.88012695313
551,1342.1149,3264.886,927.35077,406.98743,158.6955,-49.422348,2290.49584960938
552,-81.217896,134.41061,-922.19183,2019.7074,610.2488,735.60126,3989.14306640625
553,-755.45013,-4601.4673,-675.7313,-343.7392,-60.906372,208.98558,3949.86401367188
554,-4523.167,-5547.4404,-1271.0363,-347.63144,-395.7067,-899.4576,4268.01220703125
555,-3049.2217,-3592.7583,286.13272,664.83453,-210.25806,-701.1416,4020.73974609375
556,-2075.46,-1972.8176,-838.3581,559.19,-39.670536,-1071.8551,2409.02465820313
557,2632.9077,-35.03602,1103.1787,2271.7314,-396.505,-168.56427,4627.736328125
558,541.9497,2418.976,1242.7494,-809.04205,-382.08783,-89.69004,2263.77612304688
559,3568.0889,-324.78928,338.28958,-132.622,-1152.4215,79.58932,4131.45068359375
560,-425.11896,-5272.058,-1759.9916,33.699623,1477.953,178.73952,5045.4873046875
561,1534.6575,-57.62039,-518.4305,-550.4993,-839.1836,397.7834,2641.58349609375
562,-1508.0287,2470.413,-1949.7639,1290.4016,-1451.8856,236.42581,5409.9501953125
563,-864.289,198.71474,1368.369,912.04407,1093.7233,-230.55377,3159.91235351563
564,4303.4673,2537.2483,957.5918,-365.2841,-1684.7665,-298.19193,4193.71337890625
565,1470.1404,1242.1068,1022.0308,-1557.2183,-193.8388,1245.0872,3491.25341796875
566,1090.5188,1538.2577,10480.727,2651.0847,155.86752,589.2191,10313.6455078125
567,-5633.8076,-7641.3125,-10975.607,-1781.811,224.20248,-375.33432,5651.47705078125
568,-2369.5151,-3055.4746,4537.2124,4388.663,917.1306,1448.3145,10931.9931640625
569,1618.9966,-6163.3164,-3801.872,-3654.3745,-68.87839,3134.2358,10831.0302734375
570,-561.7425,-1403.675,-5651.8076,1210.2432,4382.4463,-2509.9736,10160.8857421875
571,-747.3089,6627.9907,2887.2144,-1005.52765,3538.1106,-786.078,9123.6396484375
572,-1718.8339,-8463.855,-4950.2207,-409.77487,6359.8154,-2294.1147,13106.3271484375
