Element Label,S11,S22,S33,S12,S13,S23,Mises
1,7927.58,9970.038,11134.331,-637.28,-1902.8378,-9889.007,17702.072265625
2,5062.1,7629.004,-8026.9546,203.1474,2270.1917,2376.6536,15621.8193359375
3,783.76807,2418.843,-4976.897,-2308.2034,-2781.368,632.33704,9255.74609375
4,6528.3955,8126.1387,6965.4995,-1608.3588,5860.6167,5624.8833,14414.033203125
5,-943.6742,8251.641,-8228.052,-4652.638,-6576.669,-5645.155,22246.35546875
6,10596.511,-636.45984,521.7321,2441.0107,-2889.826,688.4405,12604.0400390625
7,-527.30597,-1216.7482,981.96356,-1101.3094,2083.92,-1641.0403,5342.25
8,3819.5186,6575.8,6958.934,1623.908,-2846.9082,355.06955,6434.59521484375
9,2388.4722,-1060.1381,-5879.8037,-7228.6055,-248.5479,-292.11545,14454.8525390625
10,7104.2227,-10250.191,7601.2046,-1417.3228,5479.303,-4667.965,21714.32421875
11,9361.577,1485.7917,737.8011,-3215.8682,5788.444,-1184.75,14291.013671875
12,-3300.3618,-4391.6064,-5936.1133,-1068.919,-4903.849,-1878.227,9561.16796875
13,6886.97,-14735.3,3969.6284,-1961.8534,8391.053,2993.753,25741.357421875
14,-9076.916,-3990.1858,-7075.481,2344.4343,-4345.363,-595.90106,9690.240234375
15,21763.035,4167.4277,3191.6929,-2864.8206,-1589.6172,897.2105,19035.318359375
16,31011.906,25831.041,53890.734,-2391.387,-1024.9191,8056.933,29729.85546875
17,19501.695,19904.033,31497.168,-640.05505,-8438.969,8894.709,24319.7890625
18,-12917.587,5930.857,-406.21704,-6605.6523,11267.61,-3535.238,28727.21875
19,-3106.2942,-3873.1155,-3186.9385,-418.46753,656.4812,38.678654,1534.73608398438
20,10479.477,14069.202,11375.98,-439.2697,-111.839226,-8229.319,14637.388671875
21,1183.6035,18305.594,31806.45,-2982.2375,-3737.2776,5102.3394,29210.986328125
22,-5775.7456,-6177.273,-6116.7183,402.83517,-113.32641,-120.40401,842.273864746094
23,281.33893,-30.543806,-417.8947,210.53827,-123.704124,-217.66884,830.148193359375
24,-89.952415,4056.7617,824.9861,1768.0991,-2967.574,-713.9713,7180.921875
25,3733.01,8003.174,9672.429,435.27997,-8775.471,114.364975,16117.7861328125
26,11020.625,1209.8754,31771.81,1409.3467,-13992.359,-5084.1753,37434.0859375
27,4355.3833,7755.283,12170.179,246.71283,-9607.789,1534.3668,18172.37109375
28,8633.611,11353.384,14014.294,1220.5486,-7037.418,6267.049,17105.185546875
29,5956.153,15858.876,31207.133,920.16394,-413.70715,5856.136,24321.986328125
30,-30275.996,-25710.889,-18738.232,-2110.0923,-8974.625,-11435.4,27360.251953125
31,15432.916,16811.88,21375.209,4448.1235,-9431.078,-1466.2422,19017.3828125
32,11556.261,9666.47,19568.945,-3642.6914,-8117.2686,-9472.757,24281.552734375
33,6160.879,12248.232,17637.0,3407.4993,-5761.237,4711.428,17317.603515625
34,438.85876,14774.843,26318.672,-975.8121,-15121.868,2517.0413,34815.921875
35,4763.384,20909.342,-6098.4897,2028.1393,-4754.0645,-4222.0737,26223.439453125
36,2167.424,9959.699,9840.755,-3191.139,-476.27228,1864.5587,10073.0927734375
37,-1936.5598,10198.846,33662.793,-2702.148,-8370.637,-6148.8877,36443.15234375
38,1262.941,1524.798,2508.213,-297.9242,-5893.4873,-534.5927,10325.5224609375
39,6978.3057,15022.886,20354.832,-1825.4629,-10403.443,5646.385,23798.634765625
40,123.76709,4878.1865,10739.326,1111.0804,-7653.118,4703.4917,18182.5859375
41,13294.055,14966.154,24434.453,2897.7815,-8188.018,3920.1511,19511.576171875
42,6977.014,5324.4043,6559.5337,390.93536,-645.0975,138.09297,1994.90087890625
43,204.60019,660.53174,408.8338,-334.89987,549.6925,-500.04376,1466.13745117188
44,-4555.8677,-6099.8994,-4878.3516,-667.91925,-426.0309,113.49824,1977.77795410156
45,2898.2896,12023.512,28089.098,-3787.7786,1719.1576,3290.5925,23924.193359375
46,9751.575,10799.359,19805.479,-3592.117,2404.82,-8579.558,19197.142578125
47,-40517.797,-24009.486,-21975.93,2265.836,7899.526,-3931.558,23647.6484375
48,4541.9204,-414.22705,6468.9487,-2136.1926,630.6821,-7548.8516,14955.4736328125
49,5549.229,8408.852,10134.171,-1073.862,-237.37206,-7857.733,14316.01953125
50,12513.419,13004.289,16178.799,-1017.9893,186.56497,-9667.167,17188.73046875
51,9731.46,6625.3926,31364.018,-4133.4976,9509.721,6344.854,31434.705078125
52,8768.177,10266.064,14634.62,-1833.5621,-2132.5112,-11780.185,21631.421875
53,4981.2144,3032.893,8485.134,336.1904,-701.3994,-8594.174,15693.775390625
54,19617.412,16775.89,21835.918,2286.722,1530.1183,-9980.692,18462.22265625
55,4096.1445,1009.6796,8657.8,-908.4973,-764.51526,-10161.75,18932.177734375
56,-2491.3823,-979.5884,-3413.7063,870.94855,-296.14346,-2303.9976,4795.26220703125
57,-5947.436,-7496.159,-6858.9634,-260.7481,465.5882,666.31665,2000.98522949219
58,5983.6973,6341.1826,6251.895,-501.61813,730.27954,-142.27235,1587.24926757813
59,6409.3804,17265.56,29893.668,-11241.325,-3975.9731,-369.82794,29006.142578125
60,1523.9841,4768.0093,5559.1543,-2457.8103,9630.964,-534.21735,17634.091796875
61,-2617.767,210.14873,2465.3125,-200.67938,7801.187,1187.3038,14366.1318359375
62,10835.97,18363.15,26600.719,-2078.5464,7620.5884,3436.9114,20227.20703125
63,31624.434,41538.66,57314.785,732.2892,6015.402,-722.93964,24805.603515625
64,-5944.289,-7403.878,-11619.906,-239.53923,19581.002,2492.6353,34570.4765625
65,12195.51,24359.24,38992.887,-774.8626,4426.4487,478.209,24522.79296875
66,-10073.027,4721.3047,10645.742,6145.278,12559.298,1439.4591,30566.921875
67,-2527.486,8948.294,19560.807,-2893.1292,9863.942,890.37646,26181.802734375
68,7357.4443,11923.017,23903.576,5798.9624,11697.241,-2112.458,27273.138671875
69,4755.1494,6535.753,20028.137,10660.376,16314.089,-563.5035,36736.515625
70,-46288.01,-31147.502,-24128.498,2299.7478,8055.7456,510.08817,24415.259765625
71,24853.127,29570.703,45371.59,-2267.2854,10047.861,6494.5146,28130.087890625
72,661.1077,2757.0942,11649.925,3541.152,15132.627,-4578.993,29826.580078125
73,32482.21,49084.83,58921.266,-1344.082,3053.1091,2335.2456,24196.224609375
74,1899.8116,1474.2687,12119.296,3542.7634,10344.861,4578.069,23033.58203125
75,310.9275,10195.206,23239.373,76.63061,5242.189,-1804.3125,22113.509765625
76,-2545.4622,11118.424,9774.339,-1348.4725,4180.55,1639.9207,15365.4501953125
77,13213.18,20514.043,25200.695,2768.179,7021.012,-4993.973,18846.1015625
78,-3071.7185,-2908.998,-3350.4165,-450.96375,-662.824,178.33376,1474.11694335938
79,-7407.912,-8549.204,9179.377,4990.4077,19.29846,17641.08,36106.90234375
80,18054.062,10534.396,24417.951,-1240.3214,-1209.9429,9742.547,20944.15234375
81,8653.111,3144.0042,21910.893,-695.4793,243.57394,8335.076,22118.02734375
82,22720.586,-3357.9487,13163.967,-5373.4946,-3704.1353,12042.94,32940.53515625
83,21190.975,9056.618,28182.412,-4126.26,31.526243,6295.489,21235.34765625
84,7428.613,-3771.9092,-4198.777,-2727.1116,-2175.5962,18922.318,35229.0859375
85,13815.651,8518.495,20656.08,1106.6515,-6554.6406,12016.412,26016.005859375
86,8011.1675,2290.4531,12968.986,35.919235,17075.81,2465.1433,31283.435546875
87,23261.07,14396.4,33271.086,-489.68344,-386.33212,14311.872,29718.251953125
88,18138.049,12875.65,28824.438,-153.8957,-4718.8438,15154.312,30886.25390625
89,-60.882492,-3609.9946,13359.16,-1271.2146,-5696.1167,13181.847,29390.330078125
90,-4302.9873,-6925.675,17626.229,-2923.1,-3199.6108,7764.9287,27973.396484375
91,1132.2773,-2707.6294,3303.2139,1150.9368,1713.3074,5228.3022,11071.572265625
92,7374.923,8879.354,8104.666,56.65719,-7258.8516,94.34411,12641.4833984375
93,5444.2944,7159.759,10923.5625,2343.4775,-8010.5635,5037.1836,17568.9609375
94,12701.578,14600.039,15497.294,-194.10216,-7334.0557,-1705.4348,13278.4140625
95,13090.134,14907.882,-12381.478,6539.851,-5435.6226,627.7016,30274.365234375
96,-7847.2515,2833.5627,7395.7544,-1704.5935,-8011.71,10641.981,26919.435546875
97,18954.674,29123.545,42131.383,2313.4485,8871.059,-7722.6147,28912.703125
98,19850.676,32679.195,35622.082,2211.7434,9596.867,-5173.981,24130.263671875
99,1661.0366,-2217.9038,831.22864,1104.8325,-387.83374,-8860.906,15880.0556640625
100,10712.185,13721.702,23641.81,2267.0579,-6105.994,-1824.5413,16570.3203125
101,25425.014,24825.674,41788.406,-2342.355,-7745.988,-3706.5022,22706.87890625
102,26909.959,29442.719,35553.54,-287.48132,-5563.823,-9823.281,21020.017578125
103,6744.2847,11480.894,18418.031,-711.323,-9624.685,1870.5686,19832.712890625
104,-1874.9048,1526.846,26969.662,-5204.526,-2573.2075,11059.12,34835.28125
105,22050.371,23297.807,25836.826,-804.829,-9264.791,-2632.4614,17070.7890625
106,-3820.716,11889.664,24086.676,-5620.3086,-11350.767,-31.220108,32687.75
107,14144.735,13264.499,21984.07,-3889.689,-6090.493,-6567.9316,18847.1484375
108,3142.744,4127.3896,7120.1597,898.1559,-7277.1807,563.0856,13233.1533203125
109,12261.628,8526.151,22919.268,2859.1035,3938.84,8514.093,21351.5
110,9638.948,-3209.035,1091.771,1321.7274,-9633.3545,731.5259,20336.21875
111,6137.221,8503.665,9612.064,-802.53204,9002.335,-1045.7463,16055.8583984375
112,-16696.594,-22269.89,41.333317,-10084.0625,8720.014,-3897.5403,31356.955078125
113,30829.506,30745.656,54866.336,-875.9186,8576.167,-3550.2966,28992.396484375
114,2463.8394,-2764.1367,-17498.016,-4093.8691,-10424.186,3462.6423,27086.66015625
115,2045.6064,7889.15,22142.395,-3536.2178,2057.3652,-1372.0459,19402.36328125
116,8332.695,15683.85,27560.6,-1561.7964,8480.869,3411.4014,23246.73046875
117,-3724.738,-2458.1116,-3371.4758,-141.14397,671.74786,131.17596,1657.34948730469
118,7860.527,4755.382,6928.4395,884.0937,357.0516,-2424.1514,5288.97900390625
119,24361.771,38438.586,47150.4,2685.2915,4786.5903,-6692.2446,24928.13671875
120,7220.644,8689.448,11304.197,372.79974,-12888.784,1980.6854,22877.57421875
121,2295.7456,3969.7966,7947.3647,517.63135,-9042.152,-3031.233,17289.669921875
122,19446.178,32546.357,39111.527,-175.49342,10507.617,2620.7507,25546.986328125
123,1929.0734,12563.136,-405.80237,-1071.333,-2864.6206,-5152.0103,15844.7216796875
124,-283.25473,818.8289,205.8496,-944.15204,223.43773,-297.30737,2000.99853515625
125,38172.047,23456.371,41714.867,708.7971,24.880196,-3818.2908,18068.888671875
126,9189.621,5866.931,13586.821,-5.1627235,4229.501,-10742.154,21091.0859375
127,-4722.2183,-2626.1655,-10204.496,769.6462,-8306.548,-17259.148,33887.28125
128,-11955.881,-4089.0952,-13515.436,-3745.919,10188.6045,-1442.3616,20888.923828125
129,-13914.417,-8251.743,-12286.747,406.0632,-8378.641,17294.82,33673.87890625
130,-2809.9893,-6504.7837,-7692.224,-480.52557,-11535.288,11292.196,28317.33203125
131,16235.139,10519.329,20412.244,-6808.6104,-7249.5,15728.518,33360.01171875
132,38508.47,26447.592,48002.902,2499.7817,-3540.6716,7647.8164,24123.5
133,12442.55,5429.0786,31809.994,-4838.951,-484.9785,10204.839,30716.24609375
134,53907.1,48730.004,73405.2,-620.36365,717.0033,371.8142,22606.048828125
135,5226.588,-5756.3867,22327.26,-4331.907,3177.0444,2091.95,26468.486328125
136,2766.1575,2398.3267,2750.1172,509.28534,36.38665,244.57828,1044.60473632813
137,12211.736,5767.1724,12764.88,2346.3186,1382.8053,3571.347,10291.6845703125
138,20832.111,30488.479,39720.07,-473.2203,10855.428,-1530.8187,25076.568359375
139,5661.2847,16251.586,24022.652,936.3685,6753.878,-11600.055,28248.90625
140,5780.2446,16518.42,26826.672,-632.6663,12822.989,-1268.353,28837.033203125
141,-13602.778,-2431.002,-1711.5483,-2036.1576,15211.661,-4371.43,29955.1953125
142,3315.49,14653.859,25948.953,3939.2388,7531.9272,-6493.878,26971.458984375
143,15986.729,25287.51,40481.07,-2370.894,6930.7583,1793.8868,25085.544921875
144,11715.976,16375.89,22064.193,-1688.4001,9383.992,-6436.244,21853.703125
145,12690.107,14150.025,16614.033,454.25568,10107.853,755.7031,17906.375
146,-4692.1353,-9250.261,-14840.832,-5705.3955,-3217.3657,5786.417,17512.005859375
147,17262.125,-6958.922,13754.573,-9568.982,13611.021,-1239.4509,36729.9609375
148,-6503.1865,-265.26877,-5036.0435,363.317,7055.2275,-4826.875,15859.794921875
149,33947.152,30754.258,54178.934,-1146.8785,-168.19862,-1947.0868,22349.984375
150,23986.525,7223.445,29477.434,-3762.8772,4057.0256,-5582.498,24259.93359375
151,5066.352,9758.812,10097.536,2825.3535,782.29974,-6143.9927,12757.474609375
152,3879.6372,9428.229,15251.232,126.4716,2506.8196,-9978.643,20362.318359375
153,-11503.561,2800.6113,-13580.167,-6433.3403,-6280.8164,-15394.619,34527.06640625
154,11127.154,15754.192,17205.996,3213.385,-7508.295,-1227.4823,15325.009765625
155,-966.70746,-277.43362,-91.40115,239.01053,-5620.4106,-550.48694,9822.701171875
156,9419.906,7486.854,8958.52,50.79162,-6278.8003,-861.79785,11115.912109375
157,8131.958,5742.947,3838.9175,-1000.7576,-19332.041,-3062.4175,34149.73828125
158,1926.0791,3521.138,4911.518,-566.19415,-6069.1343,-1400.2312,11137.4130859375
159,11683.808,14633.423,18562.377,-375.3512,-7852.704,194.83485,14874.71875
160,29956.633,14013.947,40653.2,-694.0162,-3508.7876,5920.87,26127.908203125
161,42302.54,40612.984,50269.555,-873.82776,-11299.299,11447.125,29295.25390625
162,12170.189,14965.104,20145.299,-1778.3568,14511.662,6853.137,28831.810546875
163,4107.384,12150.707,21716.547,-1378.6945,-10223.866,7952.293,27242.302734375
164,22427.09,6950.7173,33803.57,2126.1162,3011.4114,5473.9336,25993.611328125
165,10252.782,7346.744,13934.504,-933.05084,-4359.6616,-8623.044,17759.552734375
166,15999.979,6968.6567,35759.004,179.21083,2054.6067,-11561.33,32621.888671875
167,6448.1226,5929.347,-14947.954,1082.6805,6855.803,6226.441,26604.3203125
168,9308.739,7460.881,24809.56,2971.6074,5890.079,9765.687,26248.994140625
169,7297.897,1371.5829,18191.488,4487.036,5298.766,11479.492,27537.5703125
170,34569.348,25288.635,39013.55,6610.0747,9705.501,10025.229,29365.16796875
171,14241.931,2036.3954,22488.145,-281.40753,-3232.6775,-12274.452,28305.46484375
172,-6863.1206,4089.1963,-4965.8555,-3112.9807,-1721.7881,-8305.818,18646.685546875
173,19989.393,-10975.643,15642.971,-10471.247,4888.5625,6024.001,36778.234375
174,9033.404,14124.355,15672.168,-9940.57,-11817.391,7541.4736,30367.94140625
175,12276.225,12775.27,43264.074,-9901.69,-2971.6182,-6309.7607,37216.83203125
176,-3284.8943,-11114.648,6634.3423,551.6889,-3854.3706,-9638.746,23697.244140625
177,6716.665,-1365.7626,24781.766,3409.4006,-98.04791,-11925.851,31611.107421875
178,8474.284,5058.9326,3426.4119,2625.1624,12413.443,-10301.199,28656.66796875
179,2951.8135,-8363.289,-16679.797,1591.143,-3398.936,14228.922,30674.71484375
180,11008.3,13809.168,27403.287,-11653.037,3671.3623,-3903.8503,26912.021484375
181,4600.705,-921.36096,6203.4785,4145.6763,-11142.233,-1319.639,21705.876953125
182,2877.2307,-3089.9614,7665.0986,-10902.669,2236.2568,-3428.2244,22225.35546875
183,13253.619,24384.229,29215.91,-2860.674,11477.794,-2947.5146,25433.212890625
184,2555.1575,2272.3113,3101.1611,-588.01776,49.733852,474.28534,1500.70373535156
185,2419.9592,-6469.7334,-2306.2766,5642.242,-3981.0278,-2403.4395,14823.2646484375
186,-4487.4824,-288.00482,-2847.786,994.52966,5325.8657,6875.5796,15598.748046875
187,5522.9326,-3229.452,19996.049,5553.546,9075.593,-9185.165,31709.244140625
188,13314.639,-11272.322,-736.44586,-10914.383,4028.3438,3785.4087,30091.859375
189,-402.17273,9549.662,20216.232,7963.4844,-6551.9937,3903.0964,26147.77734375
190,17504.262,10307.088,35705.484,5452.0386,-9422.44,993.009,29539.138671875
191,25784.334,12903.916,28503.656,-4273.123,-7604.094,12566.608,30171.681640625
192,-10720.802,-19819.457,10844.721,525.3487,-6149.7163,2217.617,29548.486328125
193,-1138.0374,2835.9773,7925.696,-4129.9233,-13458.458,-13028.098,34142.0234375
194,-4441.6875,11312.691,-10935.502,2846.3909,565.801,3710.8594,21430.205078125
195,-3544.3022,11183.839,16916.068,451.0651,-11762.215,6662.24,29715.609375
196,14900.692,21398.979,26802.541,-4553.6147,-10785.44,-473.2954,22768.302734375
197,1386.5964,16170.115,-18555.744,1574.4993,6889.059,-3269.5706,33059.828125
198,-3215.075,195.91304,8222.381,5351.463,-3899.4233,-15376.955,30729.796875
199,-3699.7202,11588.786,5277.3306,4876.0664,-11597.24,-2082.316,25785.73828125
200,2385.1926,19520.648,29753.516,-5982.858,-7482.3726,7319.071,31776.21875
201,6488.6416,3946.5007,12132.784,-4139.9976,-17045.043,2254.429,31479.099609375
202,-2951.6338,-10179.306,-36426.79,4408.851,-10632.542,2351.7917,36673.38671875
203,11189.441,15004.959,-16319.396,-2439.895,771.8054,461.36026,29942.271484375
204,13641.605,9916.38,5348.4263,405.24182,-16572.395,8635.792,33164.984375
205,6795.858,7492.1807,29429.47,6449.991,-9055.8,640.2243,29479.8984375
206,693.46643,18776.889,35035.92,8138.6025,-11362.941,-1634.3904,38463.734375
207,8665.717,455.0625,-30341.451,8680.957,297.24802,1972.992,38816.48828125
208,14871.099,39698.855,45063.117,7474.4062,-4837.7207,-1781.3186,32026.638671875
209,-25529.557,-5383.7153,-15967.606,-13887.873,7630.529,-7074.0825,34757.36328125
210,-4768.8457,5134.758,-27828.49,9339.262,-6320.923,-247.54366,35212.40625
211,26223.0,11454.869,20016.27,-17204.186,-2683.6174,-4573.416,33723.36328125
212,-7839.7793,3949.8892,-1408.7391,-2032.0656,442.41895,6546.8066,15687.314453125
213,436.42712,-4361.171,-1838.7097,-1366.3915,2214.547,5916.834,11942.298828125
214,24077.58,19807.771,28156.451,-1359.0471,-136.64984,-383.0935,7636.8701171875
215,23042.85,18111.04,32981.47,-2887.1343,7976.3613,11607.814,28146.26171875
216,-2952.592,-20004.574,-28963.844,365.8343,-4846.104,15278.149,35985.1796875
217,16228.496,-2293.0635,1487.4995,108.788,-6516.8223,14616.056,32490.74609375
218,21612.75,21819.533,35107.38,-1124.9595,8427.012,12897.5625,29920.54296875
219,21485.65,16299.926,33941.83,168.0398,-2373.466,15842.028,31883.171875
220,10961.773,7652.2686,21251.207,5056.588,-8178.175,12510.979,29963.423828125
221,-17144.695,-3773.0806,-9077.536,-2711.9712,-702.21466,3664.3743,14136.29296875
222,13378.55,8715.633,18422.633,936.9014,13856.794,9913.713,30728.10546875
223,8128.7695,-3337.8708,21132.182,-5532.3516,3300.8655,10170.167,29740.25390625
224,46020.785,34604.152,58870.734,1221.0834,10964.956,4727.133,29569.666015625
225,-10245.681,2597.411,-3561.3167,1251.0676,7422.1367,-166.56638,17141.205078125
226,12320.657,5732.338,21431.06,3887.0073,-7177.6,12145.842,28790.142578125
227,16434.775,14796.154,24112.68,-777.6008,7038.8057,14888.313,29827.0078125
228,-4870.946,-6749.0054,7554.0527,-592.5946,-204.70964,-3611.325,14884.44921875
229,21279.09,21478.584,39003.9,2678.0823,870.84125,12472.831,28305.099609375
230,1577.5233,-567.76013,1668.2268,1537.0693,1295.5568,1583.6516,4944.90234375
231,8945.664,11807.87,14607.902,-2067.1865,125.336494,2151.0107,7126.99951171875
232,1985.9475,16660.975,8183.69,2487.965,15665.209,-149.42221,30292.732421875
233,9497.517,4993.4624,11794.401,8952.187,11793.96,-10159.445,31674.404296875
234,8641.896,7877.507,38959.6,-5884.2095,1282.9608,-2907.355,32819.046875
235,12576.741,8833.634,19623.707,2313.49,17374.111,8776.905,35253.171875
236,14105.046,2472.76,24928.117,-6317.935,6537.08,3063.693,25582.294921875
237,-23289.75,-18033.723,-4279.8057,4023.758,677.6248,5217.226,20510.845703125
238,-15350.06,15806.894,946.1329,-8757.275,7833.664,5948.21,35339.6953125
239,-1349.8347,14733.751,29969.635,-2682.369,3439.268,4079.2473,29031.935546875
240,5928.0054,18223.04,33054.64,-1045.8456,5742.4565,5837.794,27530.84765625
241,-2702.2834,3105.361,-19625.623,7794.2007,5102.4536,1936.3181,26268.12890625
242,11956.78,729.844,7738.577,-3510.4048,2641.8167,7149.631,17542.4609375
243,2779.653,17680.027,17732.94,190.04211,12602.07,821.3449,26483.599609375
244,21060.648,15462.168,24151.645,-3360.982,14333.153,7492.725,29611.337890625
245,9524.493,12889.434,25611.643,-6202.368,13617.762,2729.701,30167.517578125
246,1781.4628,-1654.5464,11463.097,-223.26036,13353.946,8284.578,29662.13671875
247,10702.777,-76.21982,6637.3096,818.71387,14314.501,4930.557,27902.509765625
248,14605.667,13892.878,2902.9368,1314.8783,16608.186,-4511.704,31982.32421875
249,7668.655,10615.639,30691.555,-3595.591,-1722.1549,-12453.211,31365.908203125
250,2903.2761,10309.876,8793.628,2953.4753,11081.708,-8692.47,25829.931640625
251,-26120.3,582.3244,-16970.082,1597.6882,3273.6846,-10129.298,30000.64453125
252,13541.793,7167.9263,25843.771,-4235.5093,9860.035,-278.14474,24821.11328125
253,575.4746,51.4605,478.6553,-369.87064,104.53846,80.41051,834.161437988281
254,-1624.8358,-11553.551,6285.836,-11442.438,1355.9436,-2520.5261,25633.259765625
255,1832.5614,180.67477,324.0299,542.15247,-234.51743,155.49341,1905.72583007813
256,-1546.1035,-688.6692,-316.10626,-515.02954,98.82607,641.7685,1803.91564941406
257,1532.7167,926.7559,6695.395,-9747.123,-3049.7168,3174.2512,19320.921875
258,434.41498,-14218.384,-2040.5386,-6940.7925,2116.8862,5759.136,21024.634765625
259,4841.601,9179.729,-16485.266,-4741.9976,11092.164,1464.7112,31767.55078125
260,-35925.633,-45808.766,-41190.883,-6344.2505,-11235.282,-10396.544,29951.12109375
261,14943.896,-2321.1458,17228.262,-9142.88,-6196.4785,4117.5166,27560.248046875
262,3325.8909,4328.9067,26644.65,-10494.807,356.40073,4576.1157,30249.09765625
263,22857.518,13538.738,13735.266,3194.3723,5044.815,-15936.901,30886.306640625
264,4037.4343,-1917.7439,18369.406,-3637.7393,4596.141,-5400.583,22733.03515625
265,-14782.351,-3177.7793,-12844.301,-4057.6934,-11205.864,-1981.5336,23533.3828125
266,20356.092,15029.026,51572.945,-2633.356,1003.5559,-3880.321,35187.4921875
267,3801.4207,4956.13,-13066.711,-5581.8105,-6678.117,2715.2705,23552.59375
268,8808.914,20341.9,-9763.901,-1150.8478,-3389.718,-11147.273,33217.2890625
269,12043.241,-14794.468,18660.422,-4715.3755,8.141998,-7195.1655,34112.39453125
270,11553.857,4846.8433,29432.37,8420.968,12410.88,-6746.4976,35998.75390625
271,2229.1428,-5740.6216,-10824.042,7733.1055,3805.9766,-4133.8433,20099.6796875
272,1723.6705,25407.96,18832.482,6840.962,-740.74677,-8278.736,28215.275390625
273,-17747.242,-16896.533,-26969.188,-943.06287,-4652.9155,-482.2152,12725.0830078125
274,8083.8755,15296.958,18499.133,-983.9426,8524.178,16382.925,33338.71484375
275,-4264.588,-1605.6212,-6196.7056,4717.8315,-15282.512,-12230.236,35101.51171875
276,3617.4412,5939.151,3058.429,2242.8489,2024.0437,-5529.8374,11230.2880859375
277,-7745.609,-5922.1157,-39153.52,-1458.6189,8950.7295,-1683.4639,36087.1953125
278,-4337.681,-1415.4631,-35692.953,7708.4424,-5106.869,1473.5023,36692.41796875
279,1346.4867,-17580.795,-28974.047,4607.678,1853.1996,6240.0786,29908.232421875
280,3903.0955,7074.248,-5648.77,1120.3164,18837.28,3558.7368,35183.421875
281,4447.7905,-4954.552,14780.4795,-2278.546,6214.696,5141.6694,22429.287109375
282,-19487.764,6263.592,-8031.568,4273.3774,-6151.7607,3122.781,26399.56640625
283,-11719.55,5364.1333,-7876.868,-3858.2886,-864.6525,410.06454,16981.689453125
284,7651.5127,14803.863,-1260.8287,7750.22,1132.0326,-6290.94,22295.7421875
285,1634.7197,4760.61,28996.398,8613.149,-7252.9336,2217.3254,32680.6796875
286,23459.826,-13407.406,622.6522,-11140.25,6731.1655,-262.68988,39334.8984375
287,18272.521,22509.588,23839.648,-2124.2861,-15818.136,11080.825,34027.77734375
288,12715.063,13081.412,13095.257,-573.8528,-67.96678,-4967.0874,8669.3212890625
289,17634.074,22868.34,50485.223,-1521.4241,7967.0947,-4336.2617,34473.48828125
290,42.83658,25575.309,28283.031,4596.6646,-3204.2385,-13080.575,36549.51953125
291,1878.1876,889.21466,-14293.063,-2326.6743,4966.868,1445.097,18520.501953125
292,2001.31,-1457.335,16303.683,-1573.281,6102.469,-8382.402,24411.6171875
293,-3396.5867,4778.503,15128.65,4686.682,12863.8545,-6757.068,30949.57421875
294,22564.744,24724.604,18066.809,-6366.61,13676.05,2081.9102,27024.40625
295,-110.537384,6003.48,-10264.74,-5843.8223,9743.171,-5198.352,25901.341796875
296,2803.9827,-1469.3416,4534.7007,-1496.3569,-2208.003,-2790.1135,8564.455078125
297,2053.9607,10611.131,36491.07,-3579.132,-11061.116,493.25378,37022.4375
298,28514.244,20307.332,35852.387,33.53757,-12772.377,11273.441,32436.103515625
299,21087.502,2426.8179,26243.709,-1229.2639,963.1293,11920.001,30076.58984375
300,-3354.952,-338.08762,-15489.403,3842.015,-2186.673,2341.9539,16371.8193359375
301,26003.547,2269.2722,35998.21,-3438.0447,-6146.9985,-1240.0569,32463.14453125
302,8994.476,2017.9683,29643.385,3381.8145,3073.851,-6476.7715,28418.44140625
303,20863.104,22968.379,56677.1,2950.7249,-788.9665,-5085.23,36293.83984375
304,6726.443,-21552.836,6177.333,-3925.9954,-9470.785,-3091.3882,33592.98046875
305,-13508.433,615.9956,-32277.889,-3833.7437,-34.18438,548.5829,29358.115234375
306,17894.771,21589.244,-594.3857,11072.991,-1741.6042,-2385.0886,28597.283203125
307,40431.855,34505.77,58301.324,-1540.2094,-5161.573,10080.224,29192.591796875
308,-63250.562,-62077.793,-51782.387,12007.204,7775.303,-7903.3125,30343.31640625
309,5255.7036,5298.79,9438.09,11427.012,-4274.9194,9755.8125,27375.103515625
310,12158.27,7163.785,26364.07,12794.382,-498.4058,2228.9573,28362.6328125
311,-2070.522,-2112.6921,-2367.6125,-431.5116,652.43915,-671.301,1806.95483398438
312,-11196.977,-11283.254,-30208.463,-14637.176,-5791.59,6297.0234,34958.96875
313,16231.295,14659.958,2071.251,1193.4818,6775.8467,-14126.678,30354.97265625
314,8445.804,-1353.5668,-17003.053,-1177.5718,3554.015,-5695.6475,25172.673828125
315,-5755.159,5949.845,-5041.2314,-6974.932,-12368.519,-9541.284,31735.759765625
316,5409.2925,12271.421,25273.938,-4668.0093,-14051.735,11258.67,36652.10546875
317,-12186.132,11862.271,10867.482,6076.6157,-14886.779,1317.9388,36554.4453125
318,9040.345,10031.536,22593.932,7007.5186,-8583.051,-1239.0997,23327.587890625
319,26191.22,35985.39,53961.133,8295.481,-6042.86,-2913.8406,30603.51953125
320,41093.344,29525.887,62393.188,-4786.994,-8229.846,2932.861,33639.5078125
321,1746.2701,-14381.115,-17878.395,10634.726,11117.586,-8098.2383,35150.59375
322,-15858.225,-14024.992,-9004.293,-6537.5757,400.8799,-1028.5642,13024.8955078125
323,-3108.9524,-3983.5742,-3400.712,-386.2987,174.95528,327.48807,1206.71496582031
324,-22791.773,-19198.623,-26808.635,720.1775,4729.1924,12546.923,24174.50390625
325,18154.768,4363.0596,34428.01,-1454.8044,8232.689,10245.226,34699.28515625
326,8003.118,-2574.851,32825.832,-515.85156,2652.73,-3651.264,32442.85546875
327,-638.7537,1270.639,12043.84,2500.5686,7056.099,2395.2207,18044.7578125
328,-17450.5,-2225.8916,831.44037,-3215.4001,-5269.9546,-9102.343,25506.357421875
329,-1008.6719,7202.091,22587.682,-2180.8804,9217.654,1975.0364,26670.712890625
330,7573.9854,9638.092,14510.806,13220.36,5781.0815,-1726.719,25915.30078125
331,-973.09247,5928.2764,5761.355,391.46274,10472.483,-12468.218,29023.310546875
332,5188.722,10173.607,8177.799,-14035.13,6303.5464,-6833.465,29481.025390625
333,10855.737,-10948.216,942.2303,-3866.5002,5658.385,271.96542,22330.689453125
334,14500.259,21572.672,20141.438,-10481.79,5094.1235,554.8053,21220.806640625
335,-34006.63,-18277.625,-7963.97,-1034.8536,-9773.948,-3883.0398,29172.478515625
336,5597.9214,16944.504,30062.363,2445.1587,1718.9445,-5375.6836,23731.005859375
337,14374.908,9961.891,6406.976,-15819.417,710.71814,-7108.0894,30848.857421875
338,26217.012,13282.6,40202.855,2053.3467,-34.91075,10295.623,29571.158203125
339,-22591.906,-13131.046,-7420.8125,1136.926,-6370.9497,16154.784,32935.00390625
340,3824.3528,2277.3594,2813.975,-352.49704,142.78676,701.66986,1939.57531738281
341,-5160.9653,2517.6672,2820.9512,4536.3643,9009.139,-10424.265,26317.439453125
342,5901.5728,6598.555,22210.4,5498.773,7348.083,9239.781,27638.91796875
343,-6978.3667,-16477.701,5705.533,-7703.846,3997.7905,2936.0269,24969.236328125
344,-2583.4973,5394.518,-27437.217,-4834.3486,-5866.874,3363.19,32968.86328125
345,-746.16364,-146.19142,-24163.855,-1329.7255,689.1018,-6001.8413,26030.62890625
346,-11250.49,7457.0776,16207.504,5510.774,605.13995,13321.063,34853.96484375
347,-1031.4114,1351.2673,-22975.99,6512.326,-208.4691,2318.9429,26134.701171875
348,11006.905,1624.1162,-3290.3914,449.52237,-1148.636,-37.432507,12762.0302734375
349,13796.486,17682.275,16767.754,-18050.771,-4903.3755,-7638.441,35171.578125
350,-12654.747,-3888.6833,-305.3958,-751.19226,-10637.911,4244.232,22722.763671875
351,-13853.042,-22732.951,-8329.811,370.5517,665.1206,1669.2047,12980.8505859375
352,5178.5103,-3011.1313,13587.419,3771.1404,-1601.9539,-4483.7554,17813.517578125
353,16180.589,-3059.2495,25836.307,4407.386,4779.3315,4044.6353,28723.806640625
354,10699.119,14424.774,21738.637,9326.897,3044.3794,3773.1082,20642.404296875
355,14681.842,15616.985,-16085.629,-522.429,398.2701,1462.2515,31368.66015625
356,10832.921,15797.437,2082.1558,-1751.6693,-7107.4336,-2839.9688,18155.267578125
357,-1493.5978,10318.641,12295.136,736.03455,183.3946,1308.5347,13177.453125
358,-3092.7126,423.0949,682.14923,1184.97,267.7769,335.4599,4254.8759765625
359,356.83624,1692.399,442.59857,808.4229,-141.13908,125.50823,1934.994140625
360,9443.97,15084.312,26533.729,1965.1732,2437.806,-1035.5688,16128.013671875
361,-481.97443,-468.67648,-1485.5431,-140.26712,-53.68128,-786.77106,1716.20751953125
362,-6544.545,-13672.806,-229.84006,-8131.004,2302.0996,7533.1147,22807.51171875
363,173.79596,4783.9487,356.89502,-1503.1375,-887.1958,-2896.5312,7399.47412109375
364,-2444.1401,2693.747,-1139.9456,-465.56967,364.9848,275.9935,4761.97705078125
365,-4955.1514,-2752.2664,-6923.5,-3580.704,2637.3184,2687.6372,9698.6591796875
366,4316.386,3246.6255,2123.5789,2.4086103,-3331.6584,-3322.2341,8367.7119140625
367,-235.19553,-1932.8484,-186.39125,104.72561,43.334373,-1804.8724,3574.70141601563
368,7127.4526,-1946.5116,-4916.4907,708.12177,1418.1044,-229.92131,11216.1962890625
369,2530.1064,-2238.2336,1718.4984,-843.2444,-34.508133,2113.6765,5921.60400390625
370,-2728.342,902.897,1002.4801,2084.5374,147.56175,632.9411,5278.302734375
371,-1886.8618,-209.40138,-42.928997,151.15176,-16.26881,236.25838,1832.38269042969
372,-627.9465,-483.45758,312.43054,786.8166,98.59176,99.276306,1638.68273925781
373,-308.1502,-627.9783,406.08817,377.7166,-399.98615,-539.01,1618.77465820313
374,6506.67,2156.1536,-21.267443,3617.1472,-899.32184,-6049.2344,13586.6982421875
375,507.42526,3508.024,397.45255,1820.672,41.97882,-3765.2952,7863.06787109375
376,2626.5393,-486.52982,265.51712,2932.0984,316.6776,695.4931,5954.76171875
377,-420.92474,1272.322,1009.2876,1371.2328,498.0976,312.01895,3027.88671875
378,-22222.158,-10185.195,-21307.135,-7042.701,-9185.743,-3618.1482,23998.2734375
379,9634.255,-1861.1082,2043.1047,1062.8822,-2534.8062,2328.8428,11892.91015625
380,4008.2505,-5566.007,-2512.1094,-319.7116,-3916.8938,-2664.8833,11806.4189453125
381,2558.5098,-477.7391,4040.6907,-288.7332,1570.2343,-1257.1168,5320.14794921875
382,-2888.7034,2836.9236,-8646.074,-9.83413,-228.58572,2600.6829,10924.39453125
383,-702.3072,335.56268,-1521.4799,1818.9084,-877.5681,1264.5819,4430.75341796875
384,-686.0249,-820.64276,170.3406,999.10785,212.98058,-5.0840616,1999.39379882813
385,1030.0142,-766.5882,-1742.0032,-189.21198,669.4002,-687.08844,2966.4140625
386,-1030.0588,2437.085,314.7545,-1604.7526,620.28906,755.50366,4445.14013671875
387,-2645.4246,-4793.7275,-2132.5137,-2460.8914,1303.0065,-2106.1055,6522.93212890625
388,2670.0193,11038.847,-5452.4624,-1876.1523,1036.9011,1832.2866,15094.5283203125
389,781.83136,73.85251,2085.4216,-2541.6643,1293.0568,-5475.6465,10838.2548828125
390,524.4675,-1289.21,237.76012,-680.87036,-331.17993,-29.560434,2138.70239257813
391,6189.0996,-1566.0806,-2201.2285,-877.40173,1225.2627,3528.2349,10470.4609375
392,5567.54,-4401.31,-1674.1583,950.18726,136.38129,1962.4456,9692.611328125
393,-153.0014,-5627.7886,393.43774,1082.1534,171.40855,1038.3616,6332.41064453125
394,660.8169,3567.7573,3393.8892,-392.90692,-330.66882,1636.0417,4098.3115234375
395,-1953.256,1567.1656,-54.530052,365.43097,-849.46643,235.46849,3470.72729492188
396,-451.11325,762.1857,-1198.1051,477.9468,443.64923,-98.69364,2059.46850585938
397,-7201.226,-2025.1038,-4867.0015,-2039.9384,-2812.8428,-4004.9155,10222.375
398,-1587.5509,2833.248,-8480.88,821.8892,-198.39607,-2207.1145,10690.8427734375
399,-2614.858,-666.64136,3896.4434,-1360.1342,3004.6367,63.146725,8133.42236328125
400,1744.8878,11162.788,-733.5896,328.52994,1141.8591,-6048.345,15236.9462890625
401,-1992.4424,5931.4814,-7769.689,2071.8083,-3894.2795,-4072.6497,15813.8056640625
402,151.87447,-7001.4907,5736.0474,-1191.8625,3520.5208,5558.3823,16013.4287109375
403,4111.731,-601.1873,3344.496,337.3615,717.5665,862.62476,4827.3017578125
404,2217.94,204.34532,-641.06476,535.8337,370.7909,54.413044,2784.65209960938
405,3863.9382,1214.8573,1415.7401,488.50732,-140.90837,-453.3057,2813.853515625
406,-5465.249,-523.6192,4479.073,-6484.937,-3777.6006,-2012.4141,15977.845703125
407,2143.5957,-1190.1014,550.1109,-2028.7592,-974.1069,898.69305,5094.87255859375
408,-2392.7295,132.4901,-1166.0707,-238.74863,-921.31006,1706.1727,4029.1884765625
409,1812.9413,-1039.8276,-2665.0403,-1348.7291,194.86897,-289.62494,4608.55126953125
410,1437.4302,-537.3466,-6389.8774,816.8909,-347.85303,-372.6552,7245.05712890625
411,15267.73,12669.816,13030.789,-4082.1064,5060.7617,1847.5918,11958.560546875
412,1423.5485,4773.852,3342.259,-720.4725,1131.3191,-1452.4752,4494.8486328125
413,31.34555,237.52286,-22906.322,566.61993,-2294.1633,-1730.8378,23593.3984375
414,5947.3857,1442.2668,4143.93,459.40125,-123.41049,-1192.9188,4513.509765625
415,6052.122,4272.834,4943.1255,5166.4087,-962.1115,-106.984,9236.2958984375
416,9168.646,3763.08,5264.644,-2640.487,613.123,281.1845,6755.70166015625
417,2627.0823,-761.92993,-8300.68,769.0864,-1542.6747,-27.182415,10138.2099609375
418,-2071.9348,15954.416,879.48096,-1091.127,-4425.685,3734.4604,19611.916015625
419,-1352.0393,-4516.492,-2603.9177,73.65574,4329.0796,-1369.771,8335.90625
420,-6209.478,7570.989,150.9679,-416.22406,378.08664,1013.0105,12113.3720703125
421,-3248.1672,3784.1863,-3414.8616,3875.3706,-2214.6511,-10504.663,21011.125
422,-3263.402,597.2546,-286.5927,-1391.6072,476.3444,-1369.826,4938.958984375
423,254.28004,5011.4697,3780.7415,2766.5454,711.3079,2135.4424,7513.33984375
424,-6962.9404,-5000.1655,436.7994,-3984.3552,504.75623,3960.6633,11812.484375
425,-1.0594696,4045.696,1418.382,-70.06146,-180.98802,-1096.6427,4045.7119140625
426,-1690.966,2338.4666,3968.0488,-481.42218,-906.8496,-52.245003,5350.58642578125
427,-1189.4961,-289.71982,-6054.7153,-1823.6512,728.51917,-700.3495,6472.89453125
428,1349.9886,3267.42,6656.7544,1388.2737,2416.7527,386.24734,6739.02783203125
429,-1259.111,2283.208,-3726.293,-448.106,-95.28882,-874.1623,5504.2412109375
430,-1331.8153,2321.63,-4282.3555,-1107.7006,989.8331,-1256.2491,6647.38916015625
431,-7611.419,-6328.365,-12796.536,814.51196,-1108.545,-4112.282,9570.47265625
432,2668.9465,1192.2494,-852.9576,-113.69366,-687.44324,-2016.0945,4799.38330078125
433,322.55304,-727.3463,1316.6575,-551.3876,-81.035774,-568.6797,2244.15161132813
434,4201.571,-1675.6204,5884.611,2729.234,89.12394,195.83174,8351.6806640625
435,3222.7349,1744.4908,3739.9397,581.2528,469.3662,-425.2724,2331.16064453125
436,1390.6449,-2809.8347,2241.505,-4241.9136,-1275.3069,-1465.5835,9340.5849609375
437,18489.016,10328.483,10945.659,8527.481,5489.515,2005.1969,19559.123046875
438,986.98157,-1239.1389,-1465.0698,-459.7835,318.97842,1181.796,3261.74438476563
439,4159.63,-3210.0942,-1084.1604,-607.7858,-3316.696,-634.06323,8858.9287109375
440,-1165.1385,-134.34523,-174.26341,224.09619,-106.58766,-85.77404,1108.96020507813
441,-653.1294,4640.5327,308.00497,681.2871,-904.7464,-15.324312,5263.798828125
442,490.36728,-1021.50726,10437.766,-3021.1636,-38.574497,-535.53955,12021.7666015625
443,-2464.4158,-3748.9963,829.8246,-240.1052,-540.7157,-41.8465,4217.7255859375
444,-194.85683,-74.383705,4917.7593,-2197.3152,-1434.1273,-416.61502,6834.681640625
445,-1126.5187,-2807.0369,-379.08563,-1616.6353,-443.25027,-135.15848,3622.6533203125
446,2506.517,8085.391,11154.546,-1580.2965,-761.00696,8344.283,16606.521484375
447,-3406.3867,-6556.4424,-2074.4612,-1052.0983,-486.39023,-287.4989,4491.20703125
448,1001.66455,-108.52783,1108.1744,153.07678,624.5074,-291.50647,1690.37622070313
449,-3.2849774,1030.6135,-933.6755,3646.3032,-1056.3579,-1839.1039,7501.84423828125
450,-572.0228,2301.6672,-1043.231,1192.8619,305.58136,585.27466,3925.65600585938
451,4004.1594,-3033.5269,1867.5986,-1971.2559,-304.62494,-1539.569,7622.61328125
452,2847.482,3701.6125,1079.5187,341.86887,-1328.8916,368.7257,3379.59497070313
453,129.53244,1002.9448,5672.7944,-855.30347,-894.65454,838.9233,5775.4892578125
454,-1290.3867,1234.4615,-1908.023,834.0211,782.8615,484.13388,3597.8212890625
455,3533.5532,3967.5789,11367.142,-249.095,954.42065,2956.0884,9342.79296875
456,5957.2695,2216.3733,310.8345,1285.3666,1149.2924,157.13797,5809.21728515625
457,10589.762,6853.747,6221.4336,2924.1519,2105.7976,-606.0379,7535.04833984375
458,1513.0812,-1346.4017,-6019.686,-1592.1064,416.26764,-503.2176,7229.33837890625
459,2005.0187,-1649.7903,170.29408,-845.6236,52.842335,520.8241,3603.5625
460,450.69067,-1977.4133,-345.54068,520.00586,347.85754,-436.06808,2518.14208984375
461,527.51184,-772.75433,2168.16,-719.0429,-1286.0054,-143.67775,3618.02783203125
462,-1952.2845,-1687.817,1732.6279,-1539.3387,1823.9073,932.888,5689.76513671875
463,-1573.526,2519.34,-5285.716,-564.6401,-255.88089,316.66833,6868.7060546875
464,-675.7241,959.892,-1281.3706,-122.24614,94.974846,403.66364,2143.21704101563
465,-2597.2585,1445.0592,-2731.894,12.821072,-695.3232,-380.51523,4334.51123046875
466,-2200.45,-447.85144,-10373.612,1860.7554,-673.01166,-1304.4844,10052.2412109375
467,1694.7625,1895.5817,6773.071,-489.9637,389.86026,209.80504,5110.57177734375
468,-11302.881,6505.8022,4448.644,4075.3445,-3831.1147,-1237.5936,19575.453125
469,-795.80804,-1404.3387,-2116.6113,-1255.642,2068.4426,-388.0062,4396.36279296875
470,-1351.4911,1517.0371,-2755.5242,1401.676,-1382.2988,53.47494,5085.48779296875
471,-2653.1685,-72.36041,2759.2402,2167.276,2.6496387,-400.2955,6046.34912109375
472,-355.40457,3723.5483,2206.9312,-202.18481,827.93915,3447.5913,7112.560546875
473,-1482.5199,-2453.3867,-7120.328,-2129.6711,464.97226,986.00037,6665.25244140625
474,566.1747,-3155.0525,588.4782,1045.631,7757.1523,-1042.6765,14177.193359375
475,-2191.1316,1414.7985,85.86301,-2435.6118,-3068.065,-457.24884,7525.9326171875
476,15242.851,6511.9346,-5650.418,3701.8157,4288.923,2343.927,21050.345703125
477,-4370.064,-2849.9893,3996.9849,798.70715,-5330.522,2185.3213,12691.875
478,230.97365,1957.5282,583.3017,99.70658,142.97572,-842.8822,2172.39819335938
479,2118.3699,2774.3723,-63.333534,1353.9176,-537.499,-365.7658,3659.05981445313
480,2232.1855,-2789.6816,132.27693,-1801.8016,-1.6211606,-367.62582,5406.3134765625
481,2326.9749,-6590.648,-1016.9714,-406.32605,-444.5482,-485.9021,7917.22119140625
482,-236.51685,-1184.7172,-725.6633,1944.3134,-291.96817,159.051,3513.86279296875
483,-3656.1877,-2694.269,1398.6271,1998.4067,647.0071,127.83882,5907.61328125
484,1760.7708,-622.7114,538.6607,-155.40446,-335.12122,253.28474,2205.33276367188
485,-2294.9353,-2426.6067,758.95056,1452.7844,301.66376,417.54922,4107.7314453125
486,-1429.0856,1074.4476,-966.1512,-2368.2964,199.74707,869.27295,4953.39306640625
487,661.1531,-1830.3143,1218.4595,-1204.4839,-1300.0685,92.42175,4165.93505859375
488,-318.9026,-1466.5745,915.4289,-2710.8289,1840.8853,474.17328,6094.60498046875
489,-5319.983,-1678.014,-1225.7836,689.798,353.47137,-74.76819,4115.1572265625
490,-6549.8555,-3192.705,-1751.022,1911.4738,-393.63004,-473.07596,5503.2978515625
491,-1062.4135,3537.221,-2785.476,2867.814,244.01985,1041.9226,7756.2587890625
492,769.2479,-2618.5774,317.1224,834.2384,-201.97359,639.64044,3686.15209960938
493,-267.70227,-2553.4583,965.40784,1589.9122,-109.85989,-143.69029,4152.76318359375
494,3679.993,1597.1244,1459.0511,332.11542,-204.75272,573.0618,2467.15747070313
495,-3930.568,1375.7965,1365.0657,-213.41101,879.1634,-390.20715,5568.9208984375
496,-2206.8918,-208.41937,-795.4226,-617.7309,569.47217,140.71333,2311.36889648438
497,291.5076,-1546.4717,482.98343,206.66133,816.4741,-291.7471,2479.94458007813
498,-1648.4935,-5443.656,-2401.2695,-2548.643,-5.100276,400.6173,5664.0380859375
499,337.41525,219.09998,421.23178,4.7900324,280.8266,6.0116696,517.405517578125
500,-3467.0059,-286.81277,-1583.6757,934.93066,-190.789,-83.27763,3228.54467773438
501,-1709.3851,960.94775,2004.9423,666.93726,-655.6928,181.40434,3705.58422851563
502,354.61856,-911.5434,-4858.667,392.25497,-1991.498,51.229046,5877.78076171875
503,-4313.0225,1763.1698,-69.57943,1095.5789,-138.49475,324.52365,5754.76416015625
504,-694.7519,-991.89105,97.30891,-2129.8125,-418.38242,109.70127,3888.51440429688
505,2472.3127,-3859.1306,-2427.695,-2229.458,-746.13116,-1483.7324,7500.60693359375
506,-6243.876,-4844.3354,4574.7065,-6318.579,2229.7378,4578.9375,17362.255859375
507,-847.07666,-1874.6573,351.42197,949.92865,-433.92487,135.19778,2655.31103515625
508,405.69092,345.16803,-283.6762,118.701096,-172.51244,48.70192,758.837768554688
509,225.93637,-1346.4792,569.6656,-934.2801,-126.398506,289.19205,2459.38793945313
510,-794.66565,-1236.1354,-506.48026,2533.2114,-265.4931,-826.0435,4681.3623046875
511,-689.259,2135.0642,-80.985565,209.40907,65.4276,186.13058,2622.43579101563
512,-2074.3662,-866.83057,-1638.0558,1212.7465,347.2597,450.05746,2550.16357421875
513,-1260.8053,1976.6462,-242.09653,76.06273,106.45158,106.754456,2882.07934570313
514,1274.988,-8255.352,-17666.025,1881.938,-533.9918,3560.4314,17848.966796875
515,943.916,-4905.4717,2043.7628,-2479.3994,-447.3286,205.04987,7811.98681640625
516,-1763.4669,-426.02362,-3398.228,-1183.0906,2292.5164,35.12879,5159.19580078125
517,-89.802475,-203.90991,-1056.3223,96.197624,1709.7952,235.53374,3130.7001953125
518,-1351.761,2781.185,4488.165,-498.82712,3350.8252,-1658.9734,8350.8701171875
519,4004.979,6154.481,-3854.3384,85.51992,-4443.7183,-40.408752,11939.4130859375
520,-3162.6184,321.10602,-863.84955,-1472.2844,-699.81775,-546.91547,4275.7275390625
521,-2310.2869,-1339.2056,-2280.0554,-1057.1311,-183.93127,-405.338,2204.88623046875
522,-494.1015,-510.40576,-98.58937,-514.88385,-194.20625,-215.74922,1100.56884765625
523,-2308.6091,775.5583,805.9091,-3719.9766,454.1747,99.28112,7195.11572265625
524,-3899.954,-3270.1785,1694.2269,-1757.8126,407.96143,-1034.5507,6414.69384765625
525,-4482.0166,-3057.7822,300.90802,-502.87173,233.29666,184.85329,4372.32666015625
526,-2275.0728,-748.5011,-1014.7709,1879.5394,-160.18233,59.216736,3560.94677734375
527,109.317024,-2861.5735,-984.42267,1343.0953,120.76898,251.80971,3524.02783203125
528,-3744.626,2319.0576,5263.0396,-2371.0293,2128.3098,-868.19073,9798.080078125
529,195.93141,31.608116,-1094.4666,3827.764,-443.63953,393.56534,6818.3974609375
530,-4231.9634,-50.965508,158.1285,3045.388,531.6493,222.63591,6871.57177734375
531,154.96692,-4226.3965,-315.0413,1690.8324,297.79395,317.48233,5148.12060546875
532,-783.7211,-4480.021,-78.871895,229.39662,321.5602,-378.3238,4202.64599609375
533,-230.36566,-1300.613,-444.69727,627.5017,264.29596,-452.1588,1722.25280761719
534,72.958626,-231.27762,149.92165,148.74324,-240.55338,73.94288,615.038208007813
535,-1692.0741,3441.8486,-489.19556,-302.7486,-59.529167,300.80554,4710.16455078125
536,-241.53296,145.10455,-894.11597,-73.94057,48.94378,-414.36533,1168.90979003906
537,-749.6864,1103.8481,2833.8796,-219.11453,371.286,-271.43466,3227.05688476563
538,1272.6025,-207.63971,374.91754,602.20966,111.41474,518.19586,1897.09106445313
539,1374.1702,2928.9202,340.24426,-2054.956,-25.5917,465.248,4291.1083984375
540,-3471.3748,234.56058,1988.3008,2720.3025,473.52597,-887.4047,6967.35888671875
541,-2788.8042,-1982.0763,-263.50525,2860.4255,248.3545,247.98996,5468.67041015625
542,3098.4277,-1170.3175,-2111.3774,-313.18097,-564.3041,-195.97296,4948.70751953125
543,-3106.2898,-499.28867,-141.05096,-2294.688,-581.5605,-151.97856,4973.8740234375
544,4053.306,249.69102,173.58365,237.94214,-357.34628,-38.93682,3914.10864257813
545,3106.9827,-668.621,598.32056,-1862.5518,165.15776,228.43434,4660.7431640625
546,1235.445,-1309.6356,-427.18744,-1851.1178,221.23045,130.22867,3935.46264648438
547,-83.91178,274.3728,3928.1853,252.40271,-472.0635,-142.97565,3963.4326171875
548,3597.6074,484.121,92.69699,204.23341,4.5399876,57.20915,3346.74731445313
549,2097.1716,527.839,656.876,98.1278,278.34125,-59.95927,1596.57373046875
550,-3756.9202,-517.96826,-3786.5344,-1489.5317,-2501.7502,-486.80927,6060.60498046875
551,-87.627426,803.5936,60.445347,-834.52563,-85.96779,146.24072,1691.11340332031
552,-2895.5515,-3861.0056,-396.87515,-1087.3706,212.69583,-204.5078,3660.07592773438
553,2260.4043,1522.4746,1673.4907,-695.71606,420.15598,-279.82193,1634.76708984375
554,-1477.3204,-791.06036,-655.13104,-1271.5186,-19.53378,37.957504,2332.05004882813
555,-1776.4633,725.687,1692.5924,393.21765,200.60312,-291.71484,3233.40112304688
556,-505.78967,124.103424,-743.0127,1389.1532,-97.754456,368.262,2612.8955078125
557,1350.8743,161.85406,-291.3312,1145.6858,268.41238,128.53009,2522.19677734375
558,-2213.4153,-4790.4854,-894.67566,1355.9648,-400.48117,-89.04698,4218.970703125
559,-2459.9612,-4918.392,-322.4648,882.01666,69.09234,-498.1161,4354.3310546875
560,-2744.4983,-2172.3357,2543.5803,-1697.6592,2030.447,1555.2458,7316.84130859375
561,-73.966736,-100.55805,2092.126,-688.512,-483.2988,-237.55519,2653.759765625
562,1644.619,569.80774,894.99054,1556.2863,-184.03812,-2.2527714,2877.35278320313
563,-590.7149,1816.0865,-331.1415,331.42548,-242.57918,86.854805,2400.83813476563
564,40.61668,-1204.6533,-510.93225,-463.27222,296.74756,157.21184,1466.37768554688
565,648.6419,-1677.692,-567.9759,338.10266,218.5248,-110.6479,2141.18139648438
566,-487.32336,-433.58026,-771.3235,-82.03966,-64.803,-126.99939,424.244964599609
567,-2716.036,434.35712,526.39594,717.9002,667.3694,-120.20566,3626.16088867188
568,259.66324,538.3905,-137.43422,331.32904,-466.37833,-315.38544,1275.27416992188
569,552.5426,3266.23,154.3684,-2164.672,-143.44981,442.0619,4827.89501953125
570,-2290.7017,-548.5474,-1885.3092,-2915.0137,-2230.9893,-2543.147,7894.291015625
571,1220.3561,-248.09879,-218.62592,626.3542,-144.52419,60.36739,1834.2578125
572,1893.7388,2386.6167,7804.1387,1698.2865,430.32568,-505.965,6499.1328125
573,917.8144,1116.4039,-1190.4718,-1301.281,-579.4946,215.04561,3336.04028320313
574,2402.2585,-2573.691,-1696.3004,-1462.3019,505.91797,669.57153,5449.0234375
575,3060.6548,-14301.527,-1463.2378,-6610.61,-839.0487,-5205.208,21397.697265625
576,-31.592787,-2207.7622,5449.0884,-898.2248,-607.64923,2452.146,8262.4248046875
577,-929.3089,-3227.9434,-3119.651,-835.0701,-881.92755,-3391.1677,6631.13818359375
