Element Label,S11,S22,S33,S12,S13,S23,Mises
1,1871.2101,2107.33,1308.0991,-823.4173,681.578,-708.88135,2332.60375976563
2,-1187.2426,489.40976,-2342.3083,203.88683,-1256.2262,892.62164,3651.208984375
3,303.4838,1754.826,2898.9907,823.5716,2276.1008,-1110.9165,5133.73193359375
4,1697.0677,2895.4885,-2883.0334,-2459.176,-3590.5234,3192.444,10737.5849609375
5,1070.67,1722.9076,6057.045,1875.3917,2444.6406,-3966.7666,9885.486328125
6,-2565.7524,1805.7828,-6946.1265,-796.5729,-1384.5088,98.8326,8070.3427734375
7,6834.841,1803.6836,8642.152,1204.9469,2806.0117,-517.2179,8151.75634765625
8,-6541.831,1053.9178,-9566.584,1085.4972,-4347.4062,1210.3254,12427.7587890625
9,3128.3105,2825.6438,8976.408,1902.5648,7752.7583,-3360.1255,16158.84375
10,-2911.6672,4293.5225,-6177.0957,-2525.4727,-3700.3171,4674.412,14555.662109375
11,-2918.76,763.9916,-3353.3274,1310.0702,1762.5219,100.150024,5463.54296875
12,5598.2656,450.41675,1936.9633,15.9292755,-3133.8948,56.47271,7108.5771484375
13,-3879.2485,624.26935,-835.7624,1739.916,4054.5864,302.89444,8632.1640625
14,1561.1682,-2462.2795,-1023.9332,1834.9916,-6405.527,-803.56396,12149.111328125
15,-879.86285,3288.66,-1947.7936,4340.0215,3169.9036,-1207.6873,10676.9150390625
16,8809.156,-2447.1995,12040.963,494.75287,2306.4382,877.0046,13875.4892578125
17,-896.7967,1250.5641,66.80225,-463.35196,560.1887,-812.3668,2652.51293945313
18,-92.47655,-502.50443,1361.2568,-1280.7423,1296.1841,134.55891,3590.68701171875
19,-2125.0247,-3889.6724,14189.032,-11199.936,-15529.899,-341.65912,37393.18359375
20,2077.949,15196.992,-23707.5,5632.787,-5139.299,-7719.716,39095.8203125
21,1979.9641,2153.5413,-1282.5176,-1712.6569,-710.2918,1419.0715,5253.05859375
22,741.2529,-3010.3037,11804.108,3563.7642,13334.496,7930.8223,30629.810546875
23,-764.5093,-3776.8496,9203.402,3951.9385,-2493.384,-2460.1338,14903.7353515625
24,2489.272,-1517.7074,-20158.639,3146.081,277.10034,1146.5945,21727.90625
25,-600.96204,600.7555,28778.182,684.8777,-1357.7306,-6128.459,30803.96484375
26,-1770.6487,-1251.0155,-19573.93,4101.0137,2126.7983,1378.1759,19904.794921875
27,13558.474,23767.162,52608.016,9847.868,-215.328,-1332.2117,39074.85546875
28,3318.562,-10838.976,-15723.932,-664.69214,-1033.4841,1703.7001,17512.712890625
29,-18353.957,5722.877,-3503.1338,-5393.986,3454.1533,-338.55823,23792.9140625
30,1680.779,-2587.2397,-6430.8267,1684.2784,560.2519,3041.447,9305.744140625
31,2856.8945,4783.9746,10023.182,-73.17849,158.36455,1485.4581,6926.06396484375
32,1027.4108,2225.738,2273.16,355.16632,11.610632,-1419.4589,2813.98095703125
33,-196.78784,746.76636,-557.93365,-262.41238,264.13202,473.01965,1564.80102539063
34,2154.1675,8227.686,2519.2422,-1623.4677,263.72147,-3018.8875,8382.138671875
35,-2024.8358,2126.6128,-2883.3435,-765.40186,-278.99402,-299.63593,4878.11328125
36,-1184.594,5995.87,2226.8718,-2606.9695,-1049.3281,1271.633,8200.27734375
37,450.4923,7484.725,7143.963,1366.1969,-134.71779,-386.8867,7300.85791015625
38,2276.0906,2279.441,-5593.7466,1357.5217,819.4989,430.7666,8370.228515625
39,1505.048,774.8436,1480.6082,1152.4865,-2006.0569,934.0236,4380.70947265625
40,-1216.8342,1316.6687,-1181.884,-1439.2928,593.3014,-997.016,4072.36376953125
41,-109.67136,-618.7043,-3359.0342,-653.62366,-1393.8298,-126.11923,4039.94018554688
42,1228.4819,-6996.7256,1139.0891,-558.31415,-5612.1787,2753.018,13604.7373046875
43,-10708.395,-10601.852,-34457.68,-14168.663,4823.6836,-8386.205,38073.7734375
44,-24007.684,16112.396,-12205.397,-3253.4412,10011.236,-1100.9158,40143.13671875
45,-11961.848,15116.807,-8234.288,-3269.5725,2179.5781,-5426.4688,27944.09765625
46,6709.806,-3157.368,-6318.777,1027.0415,-13370.315,-8198.916,29659.34765625
47,14263.982,1884.4974,-11872.106,180.72133,4463.9673,-243.67223,23934.33984375
48,2571.4436,11132.515,-2652.5957,12074.741,-968.1402,-17743.035,39114.7265625
49,-19285.469,-6367.526,-39737.934,2946.6284,3776.3096,-12544.602,37286.87109375
50,-3106.266,19022.713,-4947.253,3843.9976,-17091.65,-2405.5735,38365.125
51,-5651.7075,-3920.7874,7504.948,-1836.0255,5726.1514,1407.6212,16362.8896484375
52,-11962.364,15295.478,-277.8569,3806.5447,15196.015,-4618.266,36894.91015625
53,2558.9255,-4313.672,-21651.17,2694.4246,-8575.412,2521.494,26989.658203125
54,10039.219,3159.3972,33453.78,-5520.6025,3726.6445,1515.2922,29944.02734375
55,809.39685,696.21106,-16729.34,1664.3993,7681.778,6382.921,24762.87109375
56,304.1815,942.4898,-15811.803,2629.0369,-3714.8225,1604.9181,18446.73046875
57,-306.40106,3044.924,-2175.8699,2402.798,-128.66658,-724.4187,6319.4794921875
58,1266.3524,3043.9436,1203.8383,-699.0196,767.0816,-852.4413,2947.19506835938
59,881.7231,2425.6487,2100.4998,798.85535,329.0293,-302.84314,2121.75756835938
60,935.0869,721.56305,441.18118,432.20972,-294.1526,-246.05086,1088.89428710938
61,-2425.3086,912.0642,-1422.2538,1461.1235,549.1271,304.21298,4047.6552734375
62,2002.008,458.37354,-821.0732,-343.5408,446.28238,5.0004325,2635.60791015625
63,2752.3696,1176.289,4874.1846,69.90044,-763.9708,23.959162,3478.16259765625
64,1002.5,1513.6628,453.15338,735.0808,529.9737,-980.98474,2488.87841796875
65,-1114.2664,1332.8867,-1980.3116,692.20135,-550.629,277.182,3381.63159179688
66,2971.4312,1497.0181,-1821.6361,632.2156,-558.45807,-1335.0385,5055.89990234375
67,957.3746,-1718.733,-1971.7583,-1964.9824,1200.6458,353.64502,4917.92724609375
68,128.84372,1373.1953,-3132.5698,-1336.2623,1947.6533,-2049.2302,6751.18212890625
69,3557.0276,2753.2952,-225.75659,2448.176,3606.138,-4254.5215,11100.0615234375
70,7633.473,4671.178,-3524.1316,6260.3037,130.19138,-3304.6348,15830.41796875
71,-386.31738,3783.6562,3481.2622,1650.3986,-919.2738,5131.2417,10291.4873046875
72,6205.9043,706.3932,2988.0244,15019.73,14924.479,7442.5244,39167.24609375
73,11748.46,1143.0413,8982.13,-977.7562,-6679.9385,4378.466,16882.98046875
74,1959.8002,-2910.2458,-7143.8975,2841.9397,5874.784,750.4822,13846.2275390625
75,-4891.968,17196.64,9090.259,12652.826,2932.482,-2917.7576,30102.8515625
76,-45726.082,-37916.566,-65736.88,-274.42908,15675.191,877.12305,36842.421875
77,-5528.4507,-13161.903,-8082.5117,-10239.98,19170.303,317.53644,38244.8984375
78,-40948.727,-40929.145,-66119.14,1949.6547,11624.915,11229.507,37804.3359375
79,-6891.95,-19440.896,2255.8535,2316.975,-11053.083,2837.6992,27617.537109375
80,1382.0514,4795.88,1526.4359,-1041.6923,-1188.352,1015.5498,4665.6298828125
81,2098.8938,3551.3972,9855.545,-2302.4094,733.10657,-851.71277,8408.3701171875
82,-4268.9927,1565.0455,-58.664555,277.86432,456.19247,376.4295,5336.73193359375
83,6136.952,3050.0254,13358.755,1635.8173,-103.62183,-831.12787,9700.9765625
84,-2622.103,1214.6417,-12284.85,1868.1814,358.9195,-32.705814,12490.9072265625
85,2440.1052,-544.7853,6207.082,506.94934,396.89484,945.65674,6186.28076171875
86,-1192.8451,3756.5823,-671.2408,-418.7548,-953.3111,-1195.3348,5452.1748046875
87,2131.3752,2877.2102,6865.3486,-1390.9564,229.77129,-1676.8186,5816.68603515625
88,-9298.852,-5876.9365,-33539.93,-743.06506,4611.2744,-2021.4137,27568.03515625
89,-1655.1431,4488.774,4378.579,-1017.26654,492.4877,261.85052,6412.53857421875
90,-940.5779,995.73553,-4850.0767,207.83783,301.57996,772.89636,5366.3818359375
91,2072.2644,2853.4258,1947.0896,1291.7168,399.80435,419.0803,2595.31811523438
92,-128.91347,2466.6743,-359.7393,167.93845,-420.05872,850.0514,3189.23266601563
93,1022.0095,-129.7504,1909.8802,-4527.932,-243.98552,-1493.0607,8456.3740234375
94,1987.7019,4279.8516,1147.716,-168.58388,-514.7493,-403.61823,3042.00341796875
95,-1376.0907,2643.5503,-5717.712,-1820.3582,-1211.7828,496.16254,8218.5068359375
96,-323.42905,4294.8936,-2132.7754,1049.1907,-375.59598,-659.0207,6163.3857421875
97,7985.276,893.35754,19259.727,58.112576,-3817.34,-1159.4738,17467.84375
98,-2188.1592,2213.872,-254.60265,80.29498,937.35486,-62.01731,4155.9267578125
99,1942.6508,-16653.846,16254.144,5479.368,9162.902,-8662.752,37200.38671875
100,-21457.305,-8517.02,-49635.074,4051.6914,2625.0667,-4171.5327,38055.125
101,-1094.4456,1065.7635,16001.338,3037.9634,-5559.564,-9087.199,25062.8671875
102,-1450.6079,1580.0059,-8891.955,57.56457,3988.5308,3284.969,12931.2890625
103,2826.7087,8164.9893,7873.589,-518.67444,667.41296,-1675.674,6131.36328125
104,4399.8823,1444.1448,2300.9124,3016.394,-1875.3691,4111.399,9772.1943359375
105,3094.4607,-1254.1864,2008.2595,637.50543,677.30743,-3654.2427,7617.283203125
106,-1677.0887,2819.3745,-5227.353,561.6682,-1528.1913,884.5996,7686.7587890625
107,2378.333,2695.6255,-2356.884,1720.9425,1732.3617,-1754.2953,7151.65869140625
108,3769.7583,-1918.9889,1710.9696,-990.9685,1816.7225,242.87004,6157.35205078125
109,-155.34596,5341.9478,-430.96857,1978.2876,-2386.2856,79.123474,7788.07470703125
110,-3757.9875,-6076.097,-3957.2146,5502.7188,2163.9368,1699.0634,10885.75
111,-258.70648,1631.1383,430.29935,1029.7524,574.9994,-555.82764,2800.71508789063
112,442.933,473.0326,-2133.0967,-67.63235,597.3271,718.8346,3057.55834960938
113,-976.8137,2277.7886,-1571.455,456.00015,1561.7906,-204.85582,4576.9677734375
114,556.7271,1232.8986,-2482.9368,927.55084,322.64075,452.7802,3906.46533203125
115,1635.9415,2254.987,5266.5566,-1100.1902,1156.827,1609.6466,5170.6826171875
116,12625.291,3977.3699,3237.9502,2268.6438,-3415.9216,-65.31516,11497.2314453125
117,4622.133,3278.2285,-948.3554,4978.456,-2758.1714,2688.0828,12008.546875
118,16711.023,764.69714,36636.805,11461.757,-8323.048,-3275.806,40039.890625
119,-9319.085,-11355.324,-5813.259,6599.115,14367.6455,-15646.71,38832.55078125
120,7501.915,-6748.509,13618.849,-16118.295,-12766.194,1597.7773,40045.53125
121,3421.2734,7354.033,29568.34,4903.247,-11925.053,4094.7004,33843.0390625
122,2150.7244,812.4022,327.99673,544.27875,512.12976,1508.3379,3342.87963867188
123,285.56525,2652.1196,803.1818,2838.6492,384.97205,1432.9763,5951.6552734375
124,354.35828,-406.44125,-3730.8694,-3949.9707,-851.2867,-1375.847,8295.7578125
125,-443.6188,941.1828,-4065.1492,-595.41925,1079.5815,1430.2878,5544.861328125
126,-2404.4497,-1030.581,151.70078,-1062.8394,723.96674,-1052.4807,3632.35717773438
127,-35005.71,-30601.941,-65689.28,-10097.096,7901.63,-2529.8633,40104.36328125
128,6344.1885,-20490.768,-8228.797,-524.04834,-4839.753,7254.9897,27756.4296875
129,-30590.58,-26482.73,-63839.883,1626.9614,-6096.5337,4664.2666,37995.84375
130,-772.93677,3909.466,-16875.238,4143.718,-4464.229,5907.8486,23929.34765625
131,2957.0955,5940.31,29951.562,496.96753,4191.7603,138.11682,26656.73046875
132,-15332.538,-2899.4434,-44235.074,-283.94153,-1768.7565,1117.1112,36914.19140625
133,-1665.9452,4158.325,-1669.6558,1085.4924,-897.0157,-265.47006,6332.76904296875
134,-5597.4395,-594.1479,-17975.14,-1962.6826,-1001.0841,493.2759,15983.1943359375
135,-1611.7888,2606.9731,1103.4237,-1234.1045,1416.037,1698.1807,5740.33740234375
136,-2767.041,1410.3469,-7378.988,-3196.622,290.2361,-859.91534,9545.30078125
137,-641.6088,-4212.8223,31925.441,-6880.334,-6619.1147,-1115.1306,38299.5546875
138,1401.9408,-2383.2058,-5326.0103,-1077.1357,1341.9677,-3179.783,8564.037109375
139,-14713.0,4957.9526,-37999.72,-5749.912,3566.2332,4284.491,39745.42578125
140,2516.4146,17540.998,37319.188,-10197.893,-8510.581,6822.9873,39787.11328125
141,8948.56,-3653.8508,-4624.517,7039.1226,8998.595,-2300.441,24071.634765625
142,480.4394,2841.7747,-1511.6882,2257.1685,-21.43873,755.38275,5589.82763671875
143,1368.2421,4349.253,8198.305,-1499.0416,-646.4809,511.1706,6629.8388671875
144,191.87221,1168.74,-1699.5188,-1455.3473,1102.6571,264.41266,4073.16552734375
145,1466.9147,-160.28378,-2570.0618,-201.19098,880.85284,-803.6543,4094.22900390625
146,-364.72427,1228.7784,-3824.957,1685.345,1251.4855,-1037.768,6039.62353515625
147,469.98474,3234.8398,2290.612,51.5516,186.16396,1402.4097,3455.07421875
148,282.41525,2918.058,-2072.3472,1073.8005,165.3963,1591.1493,5462.0791015625
149,-180.03899,2265.058,2597.0908,97.39997,-20.69245,511.85226,2777.82641601563
150,10961.997,15506.08,39964.766,2837.3416,-3007.2188,-327.83585,27957.509765625
151,15690.743,17389.787,41119.402,3776.6443,-10343.08,2496.609,31444.001953125
152,-12113.087,-1114.2089,-32468.73,1595.4092,-12785.245,5931.629,36916.02734375
153,14193.724,-816.21295,18957.217,-5607.012,7184.869,-3374.9792,24552.861328125
154,303.8932,5344.88,15937.71,581.542,-5294.2793,1374.5907,16786.576171875
155,-1701.6833,262.2311,671.0656,1216.673,-1315.3083,4389.791,8501.1064453125
156,-1447.0614,-1008.062,-5457.548,305.5837,-1439.4272,-780.6316,5134.3427734375
157,3750.6045,7434.0737,5906.7466,-3235.685,2092.093,763.9116,7520.97265625
158,3216.9421,5055.6123,5963.524,2990.5903,473.68384,4643.736,9903.091796875
159,1478.1293,1272.6548,-1249.9574,740.58167,435.2263,1315.1409,3785.04418945313
160,5812.538,2547.1638,20544.154,295.361,-153.51743,-783.4275,16672.166015625
161,13398.927,2089.5762,39911.43,802.9928,2088.567,-931.3016,33886.22265625
162,590.12006,2698.6218,1340.8698,-646.7703,1179.1091,223.31314,3000.31420898438
163,-1208.2258,-949.132,-2911.6455,-1539.5988,-484.15265,223.1162,3372.50048828125
164,-3943.9414,3345.586,-6721.6353,-1156.3173,-1609.4464,-530.49585,9681.287109375
165,15310.86,7528.082,42334.83,-7371.4966,7461.4595,6314.1836,38089.78515625
166,11382.73,2098.6292,-11443.407,996.491,-6112.8315,-6760.0796,25445.669921875
167,-87.392136,1875.8252,-2009.1346,-530.06366,672.7647,-1728.496,4741.72412109375
168,1355.4059,-3548.6895,-411.7599,-29.696915,719.3746,-1882.8915,5540.546875
169,31.692495,2722.5908,40.38259,103.46442,567.5969,-639.3918,3072.8984375
170,20467.31,14689.554,34204.344,-2673.5942,3370.2908,14004.902,30747.203125
171,12242.055,-3767.2874,35483.87,-5885.944,-2400.6196,144.15187,35914.50390625
172,12381.102,8962.683,-12763.788,9733.103,7666.8506,-10627.171,36842.1953125
173,1572.8519,4345.709,2429.3604,-1168.8391,-136.09105,1078.951,3700.52563476563
174,2338.3145,1155.6948,2645.3733,-478.27362,76.90545,-518.02203,1834.40148925781
175,-66.737434,609.2028,-3465.518,-547.166,1195.5396,-816.4441,4635.9287109375
176,-11788.335,13737.704,-22156.762,4970.0713,-7909.424,5637.8,37160.24609375
177,6031.0195,13530.286,-11398.147,7056.387,1639.8607,-8127.868,29092.142578125
178,11552.681,-413.83304,20998.506,1949.2043,1855.7284,990.6232,19238.7109375
179,-2251.3965,3520.5735,-15327.467,-1450.7441,-2395.4924,-389.87097,17428.685546875
180,-8405.359,3240.1304,-19320.57,226.44649,-7071.4663,4330.851,24255.138671875
181,670.8332,2209.2993,1613.8673,782.41846,-156.6079,395.84552,2045.86413574219
182,1700.4253,4985.349,4102.1436,504.77853,-1321.4274,-2098.4285,5280.40087890625
183,2727.8408,2394.9639,-1730.094,-332.43332,-336.18994,1435.4519,5035.0986328125
184,-8176.5,-18531.207,-19746.246,6004.825,-3622.9253,-1936.2428,16735.451171875
185,-18396.07,-14510.982,878.524,963.5936,1360.1887,-4872.168,19780.5546875
186,853.9379,837.61145,1612.6548,90.799706,-1074.1697,337.47745,2101.48364257813
187,483.8415,1829.0173,555.8228,551.91644,-324.91382,-622.056,2027.12976074219
188,2227.6975,-177.85814,6775.775,-1165.2749,-2216.8708,887.2461,7654.48388671875
189,-1806.029,-16570.32,-41573.56,-1776.9446,1915.7502,4145.618,35837.7265625
190,-19059.32,-15352.525,-41156.832,-12281.865,-8286.768,-8290.47,38061.67578125
191,4214.4814,-13588.163,-19081.283,4535.295,3417.5068,565.45557,23293.875
192,3990.5627,-1302.1876,6694.0806,-5850.2056,-17061.203,3775.1128,32685.078125
193,2287.9429,-11323.907,-15148.455,2511.6804,-3940.868,6042.5386,20664.5234375
194,4369.474,1365.7583,9465.072,3711.4058,-145.39203,277.0462,9586.9931640625
195,2114.676,-2677.9727,1626.7023,-233.05623,-4367.2856,1574.1964,9256.6572265625
196,1480.8832,-7803.266,-15831.713,1238.0004,-1582.1333,1774.5443,15708.0576171875
197,2129.0027,-1484.7566,162.24591,-1915.3402,-1075.6771,1421.3885,5509.79736328125
198,3081.3557,1267.896,8786.467,-715.333,52.288765,-3039.8865,8686.1357421875
199,2380.6438,-7577.9976,912.6739,-2845.8684,-417.14035,413.532,10585.009765625
200,-2665.7458,-4972.952,-4250.0244,357.3403,-1314.3733,-1744.5446,4344.42138671875
201,1145.632,-1758.73,1078.3531,191.4072,787.3666,-568.1125,3344.01635742188
202,1843.8981,-1362.6516,-5035.123,155.55788,633.5336,-7.388698,6068.0986328125
203,65.93053,-449.4748,-46.013557,513.5743,-1204.1455,-212.02754,2344.46557617188
204,1389.4587,-928.17554,-825.1026,195.24255,1870.2894,-494.1316,4060.0458984375
205,-570.3031,-2428.0994,-4749.129,1024.4049,1809.2902,505.79147,5185.2548828125
206,997.3524,-1814.1022,5332.8325,-1127.1995,-56.060303,-327.03757,6559.85498046875
207,-581.49335,-232.23524,691.57446,-845.63196,1176.3984,745.39514,3043.33959960938
208,-2683.3354,-2612.132,-6185.8164,-312.4376,2432.8638,1113.7917,5856.001953125
209,665.12036,-2827.248,-3086.521,-1696.494,-2819.7217,-2025.4152,7613.34521484375
210,-3774.5444,1.2916942,-7008.0283,-575.6883,535.8381,-2951.5898,8056.84375
211,-7927.5356,-16807.22,-34964.703,-1209.8647,368.65662,137.36177,23971.470703125
212,-8048.061,-8847.304,-18807.865,-824.73236,4060.7273,-428.93604,12644.109375
213,-7405.751,1923.6012,-14999.8545,-1628.0695,3402.303,9691.2705,23237.8203125
214,-1446.1853,-4257.368,-4606.886,2838.461,7207.0635,3631.957,15118.751953125
215,-3422.3254,-329.5488,167.4147,2654.9429,1364.9288,-1964.8993,7047.48046875
216,258.79596,2479.4016,128.68074,-1974.5121,-133.38782,148.15453,4129.43994140625
217,-56.691128,2148.7578,569.3046,-875.04407,-350.22327,-372.27057,2637.44287109375
218,-1183.2661,-1245.199,-8183.5767,246.00053,-2685.5452,1016.8841,8572.9111328125
219,-5082.599,4469.3105,-17418.678,-505.3338,-790.07635,1059.9934,19164.041015625
220,-3367.5657,504.15424,-5592.4194,386.1145,-1082.1139,-491.0352,5765.2158203125
221,1701.1868,2620.8745,9623.144,114.378235,458.1838,-65.494385,7549.79541015625
222,-1450.5741,-104.288574,-3522.8835,-587.33905,-117.35252,-278.19662,3194.56860351563
223,-2682.4753,2052.3354,-8817.349,-124.580414,97.99069,637.0009,9507.640625
224,-8720.009,1188.0309,-21639.52,-2632.3552,326.53848,3665.8948,21319.337890625
225,-1901.2811,2666.8474,6725.228,2829.1128,-1048.446,-18.118616,9120.734375
226,860.0228,1084.8339,2963.3074,1006.2918,-634.9753,1243.2164,3589.66796875
227,9266.887,-1055.9061,32411.35,550.2758,2546.4758,3763.0027,30724.328125
228,-338.89987,2142.5967,9900.342,-3394.4858,-31.720304,2653.5007,11886.33984375
229,-973.9467,1131.2155,-125.05718,-64.727974,-299.41663,102.23956,1917.85034179688
230,893.29645,1599.2616,-186.65808,501.9235,475.89673,-316.8595,2040.46887207031
231,-1459.6351,1004.54047,-2300.5483,245.61446,213.33357,-482.63837,3141.30346679688
232,1881.5677,1279.8308,659.0257,688.9843,-110.28959,-37.164017,1608.03625488281
233,619.8983,2694.5393,509.99832,748.0163,-633.4762,-745.174,3015.38232421875
234,-169.92549,357.4678,746.242,737.2804,-738.85596,752.7748,2367.02490234375
235,2033.5536,1058.3094,2291.416,703.8755,-956.41223,-345.91415,2420.44165039063
236,-185.34207,989.1746,73.68635,-345.5486,-1437.1843,80.53608,2777.86206054688
237,1391.0651,193.18861,-5235.503,1469.2933,38.093147,769.02295,6757.478515625
238,1181.007,1392.4008,4051.2864,-551.35913,154.5328,-276.9683,2981.6435546875
239,1328.193,120.48613,-3757.3848,-1637.462,-936.87604,-696.12885,5771.53466796875
240,1796.1534,-2295.5513,-3884.3608,-661.865,-252.13696,1195.3452,5617.71875
241,770.5998,1650.4504,362.61346,276.15503,-13.260025,697.1737,1728.30053710938
242,998.6968,-7.883875,3025.9526,-1908.9679,-103.709206,-2057.3406,5552.14013671875
243,-574.7459,3615.918,4867.1313,3350.1243,121.10536,-710.5215,7720.0478515625
244,421.43805,1504.457,-709.11475,-363.07037,-2077.9062,522.2894,4224.025390625
245,3477.0544,577.34436,-506.66702,1173.1171,-650.51013,350.8666,4300.4814453125
246,1003.1934,1029.685,-5646.857,2335.8542,973.966,-4759.155,11470.099609375
247,13065.545,-4220.266,1997.2031,-3660.098,-6482.1035,857.46936,19960.708984375
248,8599.041,-1838.833,-1600.4529,2340.573,3929.201,1615.9817,13307.9951171875
249,4985.677,-18496.994,-31165.951,-5020.4736,-9114.737,-5500.177,37749.78125
250,-7539.5156,-25167.543,-40545.664,-1410.3279,-15971.237,-1017.05597,39907.78515625
251,-32906.816,-32116.164,-52745.64,-11632.597,-4507.4287,14371.973,38684.015625
252,-50147.496,-57071.727,-78997.12,1665.5082,-16713.064,2427.3655,39299.640625
253,-1056.7278,-33727.64,-36995.03,3637.6067,2947.6555,-8382.696,38228.05859375
254,-20884.572,7146.8125,17283.525,5667.122,2172.8474,-2245.371,36031.86328125
255,-8804.688,-21245.47,-39428.5,-2530.395,12554.158,8656.711,37794.8671875
256,3002.2495,-1502.1499,5873.4766,140.60448,1413.6108,-3319.2969,8976.30859375
257,-10488.824,-378.98154,-26353.098,-15910.22,-6173.9937,3630.6995,37783.265625
258,-8633.586,23823.057,-929.03723,-3227.9993,12401.393,-4167.8213,37516.47265625
259,-7371.854,8681.62,-4648.5874,-5984.465,-5264.938,3183.979,21033.91796875
260,-42350.07,-31831.822,-58792.203,3750.004,-16256.316,8633.545,40156.2578125
261,-12404.509,-15072.033,-12390.905,3018.3276,-8302.702,4466.1025,17352.978515625
262,-12963.0205,-8613.592,-17144.348,-2031.3391,-8754.691,19265.152,37554.4765625
263,-11174.971,16507.312,-25454.307,6141.6836,-2160.009,186.79744,38636.19140625
264,1612.7274,4987.548,-754.2178,7070.681,4477.763,8810.247,21632.75
265,-11859.909,-1628.2742,-13304.248,2042.0563,833.8358,19945.303,36463.56640625
266,-3290.8223,-7729.1836,-6327.6084,-6952.5503,12488.215,15098.277,36224.26171875
267,209.42499,3134.3025,-3731.3699,3273.2996,-1931.502,-2171.9705,9648.78515625
268,-990.0509,6243.077,3839.5017,7034.9307,4438.9175,-3947.3916,17176.681640625
269,3360.7278,-2394.1204,7191.406,-2364.503,1296.7424,-4177.501,12000.380859375
270,-7999.581,-3443.6616,-12809.305,4035.1328,5559.867,-8898.766,21093.8359375
271,-890.4736,-2493.2185,-4490.4756,3666.3464,4143.232,-2180.8657,10763.4951171875
272,-3780.0417,843.8403,923.1937,2609.6233,-3123.6804,-5908.9365,13274.1337890625
273,-4492.7153,-2571.7712,-8991.466,794.5873,3076.3232,1783.566,8508.78125
274,-691.7005,-1305.6315,-1031.7501,1234.158,-434.2693,2512.232,4934.8671875
275,4291.785,-18843.172,-27228.86,4260.7407,5709.15,2115.952,31068.07421875
276,61.872166,1109.014,378.05594,-127.36065,-519.13086,-329.48822,1431.16369628906
277,62.09052,4102.04,-8733.321,7994.789,538.4194,1597.7878,18151.912109375
278,1198.8127,-2932.7305,-7500.4033,1286.8331,-3788.8984,1971.595,10793.583984375
279,1082.3839,1326.4705,-928.45514,452.698,121.79358,-147.53137,2306.18188476563
280,-723.33966,-456.0383,-3868.889,-130.83969,-829.94086,-666.2254,3775.72119140625
281,8239.334,-4528.415,-5569.275,-3074.3296,-2774.2107,263.12564,15134.041015625
282,-26.208263,1929.2505,-1521.0508,418.03323,-116.24528,278.03268,3127.0078125
283,-1472.8793,1519.779,-618.9809,1457.9,65.89608,1768.3024,4785.37841796875
284,6774.4507,7283.759,22299.615,-388.93845,453.17105,-1095.5143,15428.9794921875
285,-25962.723,-31583.787,-64388.344,-350.96548,-4466.4404,-2209.7896,36972.9375
286,3278.6626,633.8535,2559.0374,-813.46075,2982.512,-1128.1489,6172.44287109375
287,4705.0176,-4544.206,3074.4978,299.49234,1902.0292,57.181744,9179.201171875
288,-5395.1514,-5940.2036,-3593.9407,-707.9318,-317.3059,-19.099642,2515.91772460938
289,1942.3966,-5224.5845,-1860.6967,61.01199,-483.6258,2931.4426,8066.31005859375
290,2543.694,-4242.8223,1522.8564,-318.49243,-975.7719,-984.22266,6799.8359375
291,1531.1368,1594.3519,4422.681,1092.8695,530.95874,-635.3964,3717.83056640625
292,1651.9739,-1294.8607,-329.9754,-8.278307,-1094.4557,-876.79224,3559.7021484375
293,-104.39812,1153.1295,-1550.2598,1714.1373,-3226.7417,301.69543,6768.57080078125
294,3191.6946,2144.0159,2872.836,415.02313,-1018.4324,-167.1538,2139.48779296875
295,997.595,-322.6109,1059.5798,1934.7922,-1649.3517,2220.815,6001.3349609375
296,1197.5487,5184.65,-1532.1721,6430.95,-1609.8401,-4141.0366,14748.6513671875
297,-2638.725,-842.1736,-3543.211,-139.2664,-110.02067,-3292.805,6188.12109375
298,-758.99927,603.0796,2395.3853,-606.69543,790.2438,893.195,3588.86694335938
299,-634.26605,2158.7773,6136.403,100.2516,120.36218,-38.000366,5900.0185546875
300,3758.1177,-10740.6,-16489.53,3598.9426,350.15268,16921.191,34997.43359375
301,-5023.2783,6343.7803,-7947.0024,1176.0546,470.01947,7438.895,18488.263671875
302,-6160.1123,-2143.1438,-27029.47,-5452.328,4945.65,-2921.7136,26901.095703125
303,-6423.248,-2530.636,-26670.059,866.6861,-331.3012,-2841.2646,23036.921875
304,5499.365,-13636.408,4451.882,-8123.794,-2822.1907,211.80092,23858.91015625
305,2508.865,-6840.3896,-12861.15,5167.5947,-7300.8735,9320.359,26087.83984375
306,-21550.07,-7757.9414,-49316.18,-1096.5156,1791.7017,6747.6294,38651.8125
307,-1166.6324,2424.5361,-5652.9126,-374.37964,3226.6733,1694.9623,9455.560546875
308,-11609.515,-9729.899,-32259.588,215.46608,11176.16,13337.275,37111.73046875
309,3576.9077,-2928.5862,1461.3096,7895.257,-3541.7249,-1633.735,16299.63671875
310,-3443.2278,698.04333,1628.4636,1077.6707,-157.09871,-2112.3137,6229.984375
311,-1618.3263,-9834.929,-709.88293,-719.51697,5198.296,1917.3074,13017.3076171875
312,1292.129,102.86368,-3796.1985,-5016.823,-71.69759,-512.48987,9877.396484375
313,-2973.115,-12788.136,-28335.646,3478.4607,1096.4012,-7172.5205,26170.58203125
314,2236.7617,-2796.713,-7858.8735,2305.1743,-1745.8695,-2716.4802,11120.478515625
315,581.0468,-1268.1091,-3534.3625,-757.3132,513.8913,-2113.488,5353.43408203125
316,-445.34525,-840.08276,2529.667,512.0743,49.932865,830.6599,3611.78540039063
317,3753.1885,-796.8203,2903.783,-2799.429,-369.50214,-2889.68,8156.59375
318,1190.4657,-789.5576,4872.1997,830.27563,-1573.4177,235.58357,5867.45947265625
319,895.5788,-1755.8456,6959.1025,-3888.154,1934.2146,6630.1294,15758.3623046875
320,-4017.4668,-8913.256,-9069.807,-8046.7944,-6074.435,-4593.645,19824.56640625
321,502.02557,9625.818,6963.9165,2872.4458,-2414.2593,10596.502,21098.318359375
322,533.3264,-2130.6804,-2296.0928,1444.3887,-1152.6129,71.57495,4221.9248046875
323,-702.9289,1149.387,-645.9757,-1215.0833,7.390355,10.780442,2785.42919921875
324,555.17346,180.13446,-681.83575,1077.7712,155.75949,821.9715,2606.02880859375
325,-616.14685,-2217.1978,-3896.0398,-808.0938,-918.44904,-947.33685,3905.35791015625
326,-434.84363,104.11672,-665.4854,106.75926,224.33238,982.2535,1883.51110839844
327,680.91907,1414.539,3578.995,-133.49858,-713.66376,718.5482,3152.98364257813
328,65.08594,-2836.4106,-3049.4944,-736.5592,125.634544,1880.4656,4622.30615234375
329,-665.27765,-791.60504,-3297.8032,1849.4404,-980.15765,-539.87476,4542.18017578125
330,9712.918,824.4103,-728.21436,-117.43912,-642.25146,-2149.1096,10504.8369140625
331,-21533.74,-27671.932,-47275.08,-4915.722,-17689.242,1038.3208,39455.59375
332,-14332.338,-21498.2,-45311.816,5232.467,-7412.7183,13121.923,39403.28515625
333,-4880.4014,4385.661,-1624.4226,-4636.2954,3125.0825,2642.2234,13454.34375
334,-17797.121,11425.893,-32165.734,-2071.388,3026.32,-3269.6353,39405.015625
335,-2448.8945,9360.121,-7049.3774,946.51306,3290.4927,4861.2017,17916.697265625
336,-4411.1855,-1663.0164,-4825.9814,-616.3229,-1639.491,263.34363,4275.02294921875
337,-269.35037,1960.841,2066.2886,1002.9801,-3419.7747,76.391,6583.31494140625
338,-1014.2185,-2152.9907,-17277.8,-3101.1804,1384.8265,2009.7017,17146.49609375
339,661.3673,4121.134,1565.3342,711.31323,-1177.5859,250.24069,3940.24267578125
340,336.63406,1688.9355,-1106.5256,-242.22543,-578.94055,13.458926,2654.26000976563
341,75.649475,1646.0726,3143.416,224.67874,682.6157,436.9046,3030.13549804688
342,187.08499,-1914.3318,880.46735,-1482.4373,-147.65202,792.9606,3859.84985351563
343,533.31354,-1292.1045,-1146.5598,-8.443237,117.70876,83.08384,1774.86413574219
344,-2470.8806,2286.3164,-2398.3438,-5787.9688,-514.8368,8212.763,18053.708984375
345,-3699.9597,-1261.1791,-8125.597,-787.48175,841.96796,-3679.1965,8995.7578125
346,948.1254,-1323.4735,-4229.8315,712.56586,-520.1947,-235.70163,4765.59375
347,-6532.7534,-5397.8096,-5595.594,-3972.9272,-1210.5249,1888.0419,7971.53759765625
348,-5322.8003,-1067.3973,343.88757,3082.1897,177.6328,714.76556,7498.8515625
349,-462.8215,605.5914,221.42122,326.9624,145.60501,-476.99783,1394.82495117188
350,1261.0825,179.4851,1280.752,890.23376,210.85875,-100.532265,1932.037109375
351,357.17694,-1027.0848,-217.03532,154.98988,377.90656,37.42844,1398.48083496094
352,92.80725,3568.2256,2681.3325,925.9663,111.23716,-206.9446,3538.44995117188
353,-368.0338,-551.58826,-428.2384,539.5696,11.414776,350.01147,1125.87170410156
354,1157.7657,994.1621,-413.23718,-691.8261,143.01537,5.7588224,1932.64697265625
355,-78.055595,-1081.0394,-551.93317,168.5293,-299.78867,512.3811,1377.56103515625
356,-133.0826,-856.84564,-102.90399,-393.26443,181.02559,37.861958,1055.06774902344
357,-670.35706,1082.3685,555.70026,-1774.4775,234.80368,261.188,3498.95556640625
358,-2149.3125,401.12296,-1717.6846,-1028.5245,293.6116,779.0006,3292.85913085938
359,-1457.69,-690.0366,-1025.3438,52.055286,92.246605,260.643,825.702514648438
360,-2232.4663,-822.1576,-231.61992,-437.614,106.34171,-175.31882,1967.53637695313
361,744.84283,1286.8723,1986.5591,601.348,-143.59186,56.839653,1522.83117675781
362,-436.31964,-801.76855,107.39159,159.4294,211.09282,-160.5807,956.642944335938
363,1090.296,-1563.9526,1075.036,-847.3263,-562.56055,354.88614,3238.19482421875
364,1535.4243,629.11554,2398.03,-131.60204,-121.77069,-970.348,2295.30810546875
365,-325.13593,511.16605,1220.3567,-14.526822,-186.69238,-176.13316,1411.9892578125
366,-1124.4843,-179.09567,-130.52386,58.941833,-195.17769,319.848,1172.02880859375
367,-434.63724,-357.3754,248.06561,686.15063,115.4617,220.7163,1420.51220703125
368,-470.57797,-453.3406,189.24988,-375.71323,-6.819792,-73.104324,929.488952636719
369,1080.808,417.01126,358.41974,-363.81912,644.8684,21.609982,1459.11340332031
370,123.33577,58.62491,-967.19556,1666.2046,702.63184,484.92142,3411.46752929688
371,-472.3706,69.72558,635.64435,334.53604,239.04483,120.51963,1213.11987304688
372,1916.5782,1246.0958,396.41306,85.98863,-272.94507,236.77359,1468.01538085938
373,-2553.3613,-2300.2966,-885.62427,-982.29407,694.0521,-703.92065,2872.2265625
374,3565.617,159.75603,1603.7322,793.3914,44.32279,-732.3376,3502.88916015625
375,1804.9319,-328.59064,1690.3129,277.86032,-114.88373,553.3953,2347.43823242188
376,376.87482,-112.920456,-616.60266,386.88086,193.85062,74.1377,1148.28137207031
377,-23.328842,-1352.9296,-1080.469,186.73547,222.15407,-20.03164,1316.69311523438
378,-851.7866,85.17008,-55.0723,992.05554,-98.67015,81.97859,1941.14562988281
379,-917.64746,-503.7167,-166.12697,443.5559,65.1568,-72.306175,1021.61175537109
380,-1618.935,-1521.2932,-2315.5776,967.60657,-152.91801,-202.99733,1888.23449707031
381,297.81058,559.6644,332.0291,-1315.4901,163.35634,-413.05334,2417.48120117188
382,2092.2847,3507.511,2382.9553,-825.1202,-405.6434,-298.62732,2116.5146484375
383,-5470.3433,-4836.787,-3918.1238,219.867,245.96243,936.11993,2186.97021484375
384,-230.0778,-1494.3785,687.70087,-803.1341,87.85201,954.9025,2880.0810546875
385,-814.0084,-1678.9677,-135.5266,-783.8629,5.223699,-412.63712,2037.04797363281
386,-174.39339,-2659.5938,-3013.1704,315.64636,-401.2297,-146.23132,2833.0107421875
387,785.8581,-210.06577,156.2046,426.30737,621.9732,8.478375,1570.73950195313
388,244.47534,-714.9832,-995.4388,-713.63153,769.3745,222.44145,2172.63989257813
389,-994.6309,1054.9141,-456.75,-807.8557,-309.57785,-543.2095,2553.07202148438
390,-2283.5632,-1090.6631,-1187.0187,-219.14919,68.89832,319.7831,1335.08666992188
391,-628.64435,-340.0515,-1253.0237,681.0691,242.2175,61.265026,1494.04150390625
392,-265.18344,266.31012,-380.61923,-3147.792,360.09192,724.3574,5660.9208984375
393,852.6818,-1745.9988,-253.69147,-280.28192,-158.79433,471.35025,2465.75048828125
394,56.637997,52.942875,-1373.112,504.4201,-64.97468,-680.55237,2050.4521484375
395,-1918.5841,1034.6664,-1325.5337,-145.87836,-1004.32654,-249.62814,3255.5751953125
396,-680.61176,669.9652,-1982.5391,602.5196,161.68132,-40.538864,2539.65893554688
397,57.588142,2824.7983,2163.032,766.4309,459.12347,-25.333178,2942.90625
398,1659.7467,1020.4232,275.32214,-336.37003,746.6322,-20.10223,1858.3046875
399,810.801,-125.33945,248.91158,-28.002327,118.41141,-257.15936,953.352111816406
400,-514.97894,-1222.3567,-1824.2985,-187.60797,32.11293,217.90497,1240.82592773438
401,2779.3298,1610.2974,5411.46,-1896.4868,321.32156,-86.33047,4742.771484375
402,-714.83734,-1887.1797,-1268.2936,11.551912,443.76584,-13.408902,1274.19946289063
403,-5175.091,-4963.0303,-6757.5503,-624.5132,515.20605,-633.15045,2460.43188476563
404,542.492,-32.52858,791.54114,-565.4663,-258.9245,-120.676414,1319.07287597656
405,1056.6606,1673.5449,2012.5978,655.61115,118.130585,133.14261,1445.40051269531
406,-3662.522,2290.7683,41.47625,8.544354,330.97885,232.52507,5253.69921875
407,269.59763,-1755.561,-998.15204,-34.223328,-227.77443,493.6644,2007.81799316406
408,-601.16376,-528.73553,830.0656,754.63855,-92.77342,-595.7581,2179.23022460938
409,-785.0326,-1591.81,-2114.6492,164.07321,103.91279,148.61531,1235.10266113281
410,539.4777,-141.37016,-1562.1516,747.8064,123.9742,81.72835,2278.88134765625
411,1037.817,139.69783,600.66534,529.00385,276.7989,181.09201,1331.49401855469
412,-405.41626,-1074.2056,393.90332,1001.8532,-26.05329,-329.7672,2227.14453125
413,173.09312,-1346.0961,-1521.2537,499.5443,173.0946,374.69183,1965.81127929688
414,-4687.017,-6172.9336,-5720.6035,259.1384,529.6937,547.99304,1919.50500488281
415,-1142.6914,-432.40015,-1944.3779,90.188774,497.07257,-723.20874,2012.80493164063
416,788.6756,-655.43024,-1989.1522,-510.44537,274.05258,435.29892,2713.98706054688
417,250.95303,277.0598,-589.3918,-902.79865,-269.4845,-72.30042,1845.93701171875
418,717.3175,-1155.7039,1114.2806,650.9129,386.4118,233.0584,2508.23901367188
419,-450.84,1385.3926,-323.94934,-295.56192,-84.26477,208.72444,1889.15869140625
420,-2404.4858,-184.43697,209.51721,-6.0313845,49.236916,372.78076,2526.3994140625
421,-2681.7278,-1159.1602,-948.4008,-453.51605,50.417007,-60.081028,1821.81555175781
422,-512.536,-2868.307,-953.61255,-988.40845,-417.49445,601.8959,3040.67822265625
423,-76.291405,529.8308,1431.1215,868.1679,-126.058754,168.60995,2029.80493164063
424,-1400.2369,1333.0482,1828.739,-1164.9432,-148.60742,-296.95798,3670.62744140625
425,671.0509,-280.26596,1725.8091,-438.91672,-588.2246,-63.845562,2156.18286132813
426,127.644135,382.1871,-669.8762,-341.48975,3.814668,-560.59094,1482.06274414063
427,-681.1519,-878.9301,-1268.4528,113.54853,-115.30546,338.6692,830.987060546875
428,-52.301933,-760.0921,-1595.5928,-333.25876,101.46766,115.72457,1481.43017578125
429,1227.1992,-598.39215,-1118.3541,729.0289,244.27856,318.82043,2575.03149414063
430,112.53585,-858.02795,34.995644,-297.8104,204.92052,-18.631878,1125.09582519531
431,-969.24915,-967.5198,-579.68304,97.4199,-1139.1261,-377.39417,2121.24169921875
432,-737.99786,-998.435,-962.8647,-601.875,-311.1952,-360.24115,1351.45764160156
433,-587.0024,-314.4705,372.94742,-714.7179,401.82953,184.93596,1689.26904296875
434,53.775875,-1230.4747,-485.41455,-859.32513,197.60756,-557.7262,2124.43188476563
435,-1231.0022,-745.73254,220.1188,540.293,-85.126015,-112.96123,1604.00231933594
436,264.95493,256.14362,392.53964,510.51663,-24.952314,47.951443,898.958984375
437,266.95486,-890.1101,-38.608253,-928.38416,116.67775,29.99626,1925.576171875
438,-349.97614,-457.76373,-70.72067,-72.01134,30.333529,-287.52863,621.319152832031
439,3712.6748,4200.3433,4050.3994,-1113.8578,119.77805,-979.28284,2613.28198242188
440,307.75314,17.890429,1145.7415,-605.16254,-57.311657,-246.50269,1523.14013671875
441,347.38354,-40.955967,1930.4683,-436.13803,-481.36826,-263.61304,2178.53393554688
442,-2312.2527,-2779.863,-1267.5786,-744.7363,84.59816,-126.00774,1879.22985839844
443,-61.55991,255.23035,844.6525,1048.0359,-191.17905,356.3267,2102.4248046875
444,-1120.5446,-1239.9475,-3211.377,553.3969,315.53488,-44.30008,2315.06030273438
445,-1053.1172,-491.61646,1029.9762,711.1029,53.07802,121.06813,2248.18359375
446,595.2752,478.77457,2163.407,52.729427,399.35303,160.30289,1794.20703125
447,-1706.0691,-1267.3373,-1086.5054,-1274.0441,-774.00964,-484.33426,2770.39697265625
448,399.0541,-1543.0991,563.2683,352.20325,-111.60889,-861.6942,2599.02221679688
449,-1847.9115,-943.633,71.783424,163.97974,-8.18952,491.2189,1889.91186523438
450,-316.11664,179.70407,354.67645,-236.50781,-116.568665,639.1349,1340.61975097656
451,-106.65554,-582.433,-703.4668,-94.48975,-536.63245,-827.5709,1801.09057617188
452,-23.302069,895.8579,123.88889,-10.100516,-373.57962,138.65727,1099.04370117188
453,1221.7687,1480.6924,2018.9956,-335.0969,-284.02646,14.71191,1037.1708984375
454,1143.0212,628.3649,450.52255,-279.24237,22.589085,132.04153,822.065307617188
455,264.65173,-697.98505,652.5249,-454.65134,-156.33228,-221.85843,1513.80395507813
456,789.4108,730.67737,-213.06712,696.6093,464.11154,-222.08391,1788.71142578125
457,341.92307,332.04813,1229.9459,678.0936,1001.68225,109.37285,2285.36059570313
458,132.87149,-51.204414,468.10138,-655.8324,-222.14745,-77.9992,1290.201171875
459,-414.35767,365.2603,588.4698,-579.95856,198.60854,63.265263,1403.93884277344
460,-1860.2631,-879.9904,-312.21298,192.12361,3.6717312,65.87164,1401.31176757813
461,-1371.059,216.1488,-1535.0999,-79.019455,90.43594,-312.5201,1772.78869628906
462,450.62247,-276.50766,1238.692,271.3073,-262.70786,170.63417,1496.00073242188
463,49.070305,-914.22,-74.40165,174.0351,-323.03076,64.45034,1113.82531738281
464,-349.3243,-538.2768,-320.1818,47.215446,-645.44507,439.46112,1370.37341308594
465,-1249.3151,-357.87,184.82828,1095.351,5.2627378,-7.522779,2274.33862304688
466,-2162.1687,-1149.5326,-226.89879,326.2409,-159.73193,-435.1755,1942.923828125
467,1145.7393,978.0962,1873.3469,711.3606,-840.39075,-604.65625,2326.62744140625
468,401.53415,2601.3982,-629.90265,-476.20407,2.2367663,24.435776,2975.634765625
469,845.6357,-438.0941,569.2773,-185.19362,-2.008404,-294.58017,1316.35900878906
470,4088.8062,4462.127,2575.4531,-373.66772,673.37134,-585.78235,2408.97583007813
471,608.5912,-1145.2494,57.5832,421.33517,437.62582,-279.84103,1937.84375
472,2001.1235,3071.5173,1460.2172,66.40652,488.0217,86.36545,1663.55261230469
473,-549.4472,674.50507,115.81906,351.00348,-154.15477,-122.19087,1269.67614746094
474,1306.3289,3063.1667,-351.12045,1067.595,97.05929,9.516618,3491.89013671875
475,1460.9275,306.16672,228.72554,-1048.9487,192.4155,-135.3034,2212.63818359375
476,928.0294,-919.4917,166.10193,-174.68759,87.01269,-327.5967,1738.50805664063
477,-1947.6549,-2103.555,-2215.3782,-143.55591,-9.264678,144.20743,422.743713378906
478,-1429.8292,-274.39246,1013.7122,206.87106,-47.424377,44.931984,2150.29345703125
479,97.26809,-457.02753,1068.5573,-409.23926,-22.468714,70.045395,1519.10876464844
480,-2429.044,-1431.2118,-1214.8271,57.368275,65.0486,132.09767,1154.6962890625
481,-167.75218,-1032.4685,1045.7885,503.54248,473.81146,-70.55892,2172.29736328125
482,-520.3857,-1080.161,-380.3731,780.58563,-465.89932,-462.07047,1879.09118652344
483,-2719.0737,-3829.9468,-1823.354,942.70636,-4.1351957,84.02989,2391.38110351563
484,-2464.715,-604.27344,1150.3379,-162.49518,-305.04047,1.7379326,3187.88793945313
485,-3169.5984,-1984.8369,-870.2212,-177.38463,73.51125,-281.24188,2077.1328125
486,-105.7021,-36.590324,-70.14185,1230.5576,372.75543,24.004534,2228.22094726563
487,1016.21356,-774.1662,988.4682,401.9377,196.9785,-239.14627,1982.21875
488,123.10634,-1217.8209,-55.305058,-139.96988,-26.118486,32.998608,1286.37780761719
489,0.31239948,-274.7497,-539.4483,-9.105653,73.41119,117.666534,525.819030761719
490,-539.7783,-503.5624,571.7249,673.71844,-109.21231,37.34958,1611.87890625
491,-442.6352,-1326.4905,-59.51731,138.55919,69.70972,437.7467,1383.34411621094
492,16.798191,1544.6213,-885.5182,186.50385,-67.84204,-345.92715,2236.99658203125
493,-15.367241,-1698.7361,-496.69992,-1579.1509,-1276.7964,-866.56946,4108.498046875
494,-648.5403,913.60956,44.075752,565.115,213.78244,-109.1737,1723.07556152344
495,-2489.3752,-1663.79,487.49164,1203.1085,60.755722,120.11691,3388.57470703125
496,-202.4981,198.62251,183.66368,1269.4497,223.23222,42.216843,2268.14306640625
497,-343.5733,-440.56503,-864.6037,404.35086,-73.00334,-17.529367,858.925842285156
498,-2680.4458,461.0497,180.96457,191.29552,51.42727,43.59743,3031.662109375
499,560.2915,554.3669,983.9592,369.15942,347.17657,198.0762,1034.49157714844
500,-500.7908,-671.8485,222.87932,-766.4302,273.6633,-97.68154,1640.82116699219
501,-1116.5964,-2297.0688,1121.0364,-1349.8892,319.39932,428.19757,3919.78173828125
502,-661.39484,2404.823,83.37289,272.7534,67.069534,103.81365,2818.11303710938
503,82.38639,2016.0344,-129.51022,34.44746,-3.3185637,23.134619,2049.10400390625
504,-704.2932,-1500.4807,-1356.737,-57.272278,-98.136475,48.219532,765.400451660156
505,-2046.275,-179.41602,-460.0869,578.57996,-22.656546,206.01695,2042.81640625
506,-454.16855,1578.549,-581.25366,-455.13242,197.32185,5.103815,2268.20239257813
507,-713.17145,983.0619,972.9476,1225.9366,152.71732,249.67412,2761.50219726563
508,503.5345,3098.028,-78.23716,-157.85933,9.062076,44.36075,2942.81616210938
509,403.11877,-282.34277,319.636,-88.05113,158.1528,26.170692,721.077880859375
510,-1772.195,-1784.1383,-171.15971,655.1277,-149.81152,271.95926,2039.45361328125
511,-1608.3579,-2044.5643,-1055.8212,-560.2307,-1340.5881,-58.23484,2660.802734375
512,-1388.8024,-824.6307,401.0734,766.26636,256.20642,108.04774,2122.63720703125
513,840.67975,461.75714,1918.1874,-414.42944,-313.66406,103.56028,1598.58752441406
514,-947.55194,-134.313,-1218.8625,-333.632,-70.81504,-158.84578,1174.8525390625
515,-726.9583,1074.2634,576.8117,-258.47653,124.46,127.978905,1700.55114746094
516,1439.4617,-1202.5461,-2100.3523,-339.7151,308.67285,-28.915352,3285.2451171875
517,1476.3298,-570.8762,-1117.538,-349.57727,85.286606,172.26022,2467.07836914063
518,-1612.498,790.3419,-1255.9436,-152.80128,77.21294,122.01616,2275.21899414063
519,-2569.22,-2449.334,1098.5878,793.7694,-232.71114,239.14842,3905.3447265625
520,-2742.6174,-2007.4729,145.44667,232.5683,-41.64965,56.26456,2633.4716796875
521,-1229.8278,321.62207,-367.4815,59.398922,-144.90993,-88.35671,1381.93798828125
522,-574.3322,-680.9742,-159.29414,77.010574,-216.95424,14.403439,622.504028320313
523,530.1254,125.09381,1004.9231,40.948887,-162.75922,-177.29875,872.122802734375
524,-30.343975,-582.3922,-664.3049,1299.3713,138.42055,-196.25972,2365.3369140625
525,-2188.2292,-864.2304,-1377.7579,1192.0977,3.1606734,-66.60448,2369.26196289063
526,-147.25613,-1162.5092,884.73596,152.62575,24.602026,-51.48273,1795.30798339844
527,-812.09906,-1355.4955,-539.9173,714.10913,-196.3716,168.12408,1499.20080566406
528,292.66718,2025.6802,147.32898,-163.04057,-62.890686,-98.73378,1843.14611816406
529,365.16776,2463.343,762.18427,-177.63116,-6.0832496,-181.25502,1979.96997070313
530,-1295.2751,3704.5242,96.70053,971.2019,-147.07382,439.25385,4842.45947265625
531,-1292.8738,1944.8059,221.88759,1250.5098,-20.541166,314.59036,3586.39794921875
532,1645.3513,141.11133,1906.0288,736.2893,-258.8173,26.609741,2133.60302734375
533,1446.1196,-1033.5612,1073.6602,964.243,-211.1661,-8.27667,2878.75561523438
534,876.17676,2697.9973,144.95198,-1937.4154,193.9825,315.86234,4105.9482421875
535,-1419.0529,441.63272,629.0735,1745.3917,36.310913,-73.29715,3606.28662109375
536,-1895.4506,-1015.3069,-715.951,1960.0621,176.57338,-6.442817,3570.28466796875
537,3823.4568,537.8372,-1584.4799,298.68695,227.25963,-92.67149,4766.65478515625
538,-1185.0751,-877.2367,-526.1155,-1046.4634,-175.50943,-467.32764,2087.81982421875
539,3481.4563,504.92578,-225.42845,281.01474,160.66032,11.194142,3446.99780273438
540,3771.6135,-1350.7075,-935.6043,-1812.0848,123.44424,-235.54987,5860.658203125
541,3044.7551,-1513.1053,-492.12827,-1894.2965,38.058178,95.43339,5287.69873046875
542,-860.76294,-1160.703,-975.12024,882.9726,22.17058,-48.80715,1554.44018554688
543,3310.9224,1485.8046,-23.60684,-598.5582,209.24919,-546.95703,3235.41162109375
544,3143.428,750.11566,-593.1382,-861.184,-115.77396,115.77983,3612.81616210938
545,-1788.7225,171.73627,-546.7382,-1112.7076,227.79817,77.14233,2615.13842773438
546,-115.23148,706.3069,-1706.8824,411.8468,140.00868,-53.62017,2256.5830078125
547,-1935.0433,-2597.819,-106.747955,-667.4884,15.064996,302.06375,2569.96435546875
548,1246.0485,2247.5461,95.03978,-17.255453,-273.82053,90.16216,1931.51892089844
549,2184.7776,-328.15665,1211.0948,-1750.3352,26.62894,-144.16888,3751.21264648438
550,2915.1912,1147.5603,2103.417,-148.71027,-389.041,-90.99207,1701.12329101563
551,991.9142,1689.3076,215.21008,108.30703,54.840008,36.915684,1295.99279785156
552,1888.2113,998.3297,933.3424,151.66608,222.8183,-421.6099,1266.94909667969
553,-1575.6332,-2927.8345,460.2203,-421.74167,-255.20421,-226.55817,3099.83935546875
554,-2163.0981,-3059.5977,76.71681,-447.94266,-27.9965,504.22827,3032.412109375
555,686.96124,-1737.9685,-174.15936,-273.8782,-360.0467,124.69516,2279.08569335938
556,1007.04126,-844.0841,-119.294,477.72842,125.50337,-100.99559,1836.52807617188
557,2379.2666,-24.979942,288.8971,509.00375,33.624428,-545.57855,2607.27758789063
558,-533.71515,2692.7317,40.862404,584.92554,-166.18338,112.20956,3167.537109375
559,879.8969,-429.1656,335.09402,350.9948,43.636715,-79.52349,1300.59619140625
560,605.1713,-554.9327,-97.17301,-277.85754,64.806885,-507.19708,1428.38977050781
561,115.31691,-1221.5366,396.71255,31.154022,-121.18351,594.8081,1830.54748535156
562,-1939.4778,1298.7533,-799.26373,1223.5922,235.82436,-147.2582,3580.13696289063
563,2000.8309,2716.486,437.96722,932.8059,-112.76813,267.6295,2633.73950195313
564,204.09048,2509.8948,-374.51617,-1845.0002,-123.427666,355.17892,4197.845703125
565,1572.9443,1711.592,994.22876,-692.4929,-105.35541,10.853061,1380.82019042969
566,-913.07416,-381.6806,-834.8723,-542.42694,239.82591,-82.343094,1150.00451660156
567,-640.1921,232.21306,934.98553,455.90482,224.95276,-97.191154,1634.55786132813
568,-703.89905,-786.1598,-1268.1759,180.7469,-322.94925,142.61145,866.411254882813
569,1409.7786,1201.7675,1998.1133,-163.7451,-373.2326,-115.86227,1024.89208984375
570,59.840267,-1116.2443,-64.35823,-133.67868,345.06317,-290.4397,1384.34582519531
571,55.44128,302.62296,-333.08838,688.11224,-882.9267,-951.84796,2604.86254882813
572,-320.3516,-810.946,-526.6147,742.42737,473.7234,815.623,2122.40307617188
