Element Label,S11,S22,S33,S12,S13,S23,Mises
1,-9459.57,-14092.632,1812.6621,83.65246,422.31982,-3930.2493,15736.900390625
2,-34939.625,-8856.844,-50341.332,1440.2654,2748.1797,-2296.5237,36931.640625
3,157861.39,155692.9,196074.61,912.54083,105.58785,1126.9756,39422.82421875
4,-972193.8,-970198.7,-1006908.8,458.06076,2149.9456,-7868.203,38452.49609375
5,2983460.0,2979841.8,2998284.5,239.76555,-1860.1019,-9022.465,23265.064453125
6,-7852.201,-21367.883,-21680.094,-3415.2263,2366.6772,-9156.6,22143.072265625
7,-9456.902,1945.8193,-2559.4233,5007.1675,2398.72,10357.715,22655.48046875
8,67100.375,60601.055,99545.72,-5016.264,-2749.8247,-752.6102,37492.48828125
9,-218131.38,-217645.66,-253360.69,1426.7034,-1246.8423,-10232.996,39791.515625
10,-917983.94,-921869.94,-954089.44,-36.89565,-1908.5862,-8875.872,37758.14453125
11,16302.315,5214.465,25474.873,-2176.1406,-4410.9624,-13361.587,30281.2265625
12,-8441.162,-13797.896,-27219.504,6285.0703,3386.863,5153.866,22656.919921875
13,-17800.312,-12800.837,-46068.812,11246.688,5003.7563,3018.985,38044.0546875
14,108176.36,107107.3,143991.06,-882.07745,-405.59515,9210.581,39742.37109375
15,129154.25,142274.84,167473.89,-195.0911,1765.5659,10594.166,38521.984375
16,-54499.844,-66094.664,-59268.93,-1149.0018,-8913.19,11804.793,27608.734375
17,56899.465,64512.23,67865.914,8489.213,1246.006,10872.875,25889.15234375
18,30947.482,31181.623,30417.723,846.92865,-132.01575,668.3988,2000.98107910156
19,55408.45,60310.977,58274.387,668.8192,1588.188,77.44917,5208.16748046875
20,49522.203,49185.88,88152.52,-2954.3955,3697.9573,901.4636,39686.9609375
21,83511.06,82648.75,83331.85,809.58484,-289.64917,623.1061,2000.97973632813
22,-197872.72,-196861.39,-197253.36,757.8235,153.09398,-676.65546,1986.65686035156
23,-22840.852,-22900.38,-22867.982,-364.25977,-410.10757,1015.87604,2000.32434082031
24,568914.25,568919.5,570476.5,164.26555,679.3595,187.77792,2000.94213867188
25,-736202.1,-737076.3,-737635.6,-546.7307,-492.27454,-519.6006,1999.91967773438
26,-1257912.4,-1268128.5,-1284132.5,-2190.9053,3252.65,-3487.6956,24629.810546875
27,-731825.3,-733935.9,-760011.25,-7615.535,2132.5217,758.28925,30475.734375
28,2251315.0,2258709.8,2264145.2,4203.933,9017.629,-5942.0396,22963.376953125
29,-637060.56,-636014.7,-671625.6,-2887.7437,3032.3826,-8572.919,38795.3125
30,-786382.6,-820026.9,-792708.8,-768.3067,-10306.054,1148.7023,35825.828125
31,228019.77,202985.61,244634.55,6233.449,-763.03186,-97.05679,37908.3046875
32,-346270.78,-309045.7,-318773.2,-7780.279,-2867.8657,5884.0894,37793.7109375
33,-97384.875,-131551.42,-103531.71,244.38773,-4238.383,10923.054,37511.73828125
34,-139790.1,-143898.61,-163270.58,-11503.018,-6680.9517,12416.976,38277.28515625
35,50408.375,22035.246,56449.55,-2835.0073,5186.5527,-6672.575,35374.0
36,106636.36,116176.78,78755.71,4601.2085,-8081.2114,175.15807,37334.5234375
37,-50760.703,-29104.836,-60115.254,-4822.435,14476.256,6940.2095,40025.21875
38,34.246788,14492.625,33525.05,9467.929,6915.1743,-8333.757,38303.97265625
39,18875.47,14832.262,15997.027,-13514.847,7069.9683,-2265.295,26949.8828125
40,-52589.297,-41947.082,-36524.652,-407.22513,10616.924,1966.7604,23465.40625
41,74258.98,78057.19,100237.53,-9220.896,13146.664,4800.753,37859.74609375
42,25576.916,-4138.682,11220.047,-13253.711,7247.137,7752.1426,39081.27734375
43,23029.723,4055.5957,41033.598,4829.376,-894.0466,12422.724,39510.8046875
44,90784.86,85548.44,91009.11,4560.571,3802.817,-6637.2354,16327.4013671875
45,21452.707,21997.785,22673.742,181.0804,-951.3963,150.03488,2000.96069335938
46,-556535.25,-557003.56,-555816.8,542.8615,863.49396,-993.84644,2675.08422851563
47,1320.0463,2716.509,2272.5215,1466.9255,785.4313,398.97595,3211.087890625
48,179337.56,171371.55,185556.53,3862.5898,3302.256,-5839.712,18205.8671875
49,86128.08,86993.57,86069.61,847.13763,572.79596,-145.63522,2000.98486328125
50,100386.445,86634.14,105685.81,1606.3599,-1131.7408,-14651.485,30751.73828125
51,229276.23,238197.89,249204.23,4438.366,3960.5896,12594.301,29680.5625
52,109346.3,107447.125,104523.88,1869.998,-2274.3684,3310.5874,8751.7333984375
53,135531.73,136683.77,136485.83,-100.51004,-528.92804,814.7131,1999.79968261719
54,82094.62,80127.27,81231.695,562.5813,-127.208916,171.7307,2000.98107910156
55,530925.3,530250.56,531704.06,86.4335,117.40562,884.88086,2000.00183105469
56,148327.78,148728.98,148808.9,-25.034897,-991.0938,529.9521,1997.65991210938
57,32000.123,32153.55,31138.336,-33.772026,969.22345,-306.5273,2000.47998046875
58,464246.0,462834.25,462811.7,-622.0745,422.5384,306.619,2000.99755859375
59,396211.44,396357.4,397631.28,443.18875,-243.5893,684.757,2000.98547363281
60,67487.23,65974.45,66908.67,-141.7847,-321.88574,-792.63635,2000.98571777344
61,-52374.766,-20910.328,-28227.588,491.64932,123.481705,2140.317,28772.09375
62,9527.547,25792.697,36654.58,-8142.4023,229.33298,-5577.575,29181.97265625
63,20428.322,5837.978,11913.856,-18133.266,9105.292,575.9129,37380.546875
64,-39657.438,-28965.807,272.85944,-3743.9512,2031.9327,-3602.897,37083.6875
65,-5408.8584,-689.8495,10003.347,-7517.66,-15081.685,3571.094,32821.48828125
66,23243.535,45162.715,58330.43,-9042.63,10974.582,2376.2935,39573.1796875
67,-23786.99,-22674.129,-39680.96,10705.634,17322.682,2929.0137,39259.8984375
68,-1849.7854,-28736.92,-13511.402,4477.5864,16718.486,3411.4363,38457.08203125
69,62358.22,48284.207,36481.62,12225.526,-9516.92,-10592.034,39498.9609375
70,14418.341,25201.768,49153.58,-1368.2177,13123.065,-4457.4175,39116.75390625
71,42790.78,26915.072,44268.668,9678.765,-16482.236,7260.371,39138.875
72,-23854.482,-32844.96,-15778.832,-12331.151,16410.58,876.47516,38536.3046875
73,-13864.44,-1803.9697,15935.353,11528.133,11088.436,2267.6882,38171.5078125
74,-154374.53,-188384.75,-160723.69,5754.0156,-8460.999,-5144.7065,37075.14453125
75,-18647.254,-47356.184,-15878.932,2090.3948,-3989.473,806.88385,31211.40625
76,88859.45,76629.83,115788.62,-6574.177,2970.3372,-2809.6443,37200.640625
77,-240785.16,-250706.34,-246415.08,-282.8148,-2120.154,-2315.0671,10201.67578125
78,50766.926,51040.832,69294.9,-13110.108,4154.098,259.84134,30097.888671875
79,42499.02,41662.195,42564.51,344.8969,56.370735,-979.4861,2000.98547363281
80,60474.18,60391.766,59913.793,-574.1535,-569.6821,-767.384,2000.96142578125
81,46770.957,48056.0,48818.05,117.226555,-283.6258,412.06046,2000.81555175781
82,2048.6455,1700.1146,2585.1235,95.6546,-63.81275,-1059.56,2000.98217773438
83,-76804.59,-77829.64,-77378.63,-562.18195,-517.94214,-697.20435,2000.76098632813
84,-48562.598,-36253.055,-32844.395,-5431.671,-3961.7305,-3853.0383,19627.419921875
85,4234.5845,4580.249,4076.621,-121.93228,694.4873,-878.13495,2000.98522949219
86,-69728.234,-68385.266,-67980.5,389.53873,-418.0271,-413.33057,2000.74365234375
87,18976.771,41383.883,25498.459,-13017.338,-1442.6768,2228.1318,30462.595703125
88,11858.063,6976.12,11245.623,1796.5399,1385.1901,796.0089,6209.5380859375
89,-20211.258,8830.844,6499.241,-648.56946,-6665.528,2863.3826,30664.505859375
90,2686.625,40299.473,9215.166,-9639.714,2479.9521,1735.2831,38962.12890625
91,23938.191,-14341.8125,-3343.4016,11240.125,566.4068,-168.61786,39311.23828125
92,37353.02,41868.04,14580.892,6202.537,5241.6567,15390.8955,39373.21484375
93,50536.23,69390.15,35961.05,4684.9604,9758.274,10247.104,38848.84765625
94,-59142.547,-56696.008,-64413.53,-19424.4,-2748.7698,9024.664,38020.8828125
95,-37627.117,-66696.12,-64483.234,-2757.0105,3413.6074,2554.694,29375.46875
96,24406.588,29776.629,18789.816,14.173556,1206.4342,2686.9153,10796.9140625
97,-10017.722,-8487.097,-16754.941,-6158.2627,19533.32,6779.542,38136.01953125
98,-30344.086,-31555.35,-67036.74,1181.5991,-7704.3945,-1167.889,38596.984375
99,-29655.29,-60677.64,-29925.625,-3461.8315,1121.7498,-244.66092,31527.453125
100,102196.35,102530.59,102923.94,-651.30133,-100.63263,-875.5133,2000.11022949219
101,256883.94,255971.97,254921.02,-359.7683,-56.0722,-486.73914,2000.77551269531
102,426609.12,426547.88,427787.4,574.8659,642.9019,-320.55002,2000.97631835938
103,31333.809,24621.398,31048.18,2989.2463,235.55972,-4052.8176,10930.2333984375
104,-400113.97,-396064.34,-429858.25,-1522.121,-294.04095,-9962.778,36421.9140625
105,-256298.81,-237946.02,-232546.78,15098.868,-4806.485,-6687.4565,36775.921875
106,-29771.938,-9066.369,7285.386,9604.414,4814.0493,-4102.871,37834.28125
107,78612.555,59114.37,48488.64,9896.859,-10386.149,-2243.028,36507.8203125
108,3504.4458,39336.895,8337.827,778.0633,2850.448,8129.602,36859.1484375
109,8636.37,24509.736,37233.453,13070.771,-9862.848,-3577.0625,38191.27734375
110,31432.54,33621.293,32833.38,-71.06228,194.65239,250.48647,2000.98742675781
111,-2530.9688,-33132.594,-23836.865,10988.538,-9137.914,-3681.3223,37306.97265625
112,-104210.0,-75813.305,-81151.25,12108.996,7696.4287,2166.695,36262.3515625
113,26956.418,25851.48,43009.777,-13540.435,15821.342,-1162.764,39770.59375
114,75975.08,93624.84,109701.33,-4693.1167,10506.001,-6681.8833,37213.71484375
115,-9185.775,6154.3438,9834.615,-8241.223,18244.684,1729.1083,38944.16015625
116,-9635.629,-12631.946,17424.838,-6137.515,5346.527,-5586.8643,33387.5859375
117,-173138.08,-167300.53,-191695.36,12393.276,-8607.881,-1695.2355,34328.8046875
118,17394.637,14890.363,18626.521,-2904.5269,-4533.92,375.97098,9913.4296875
119,114728.41,116376.03,116425.22,-243.67665,-584.03186,38.27027,2000.984375
120,14697.235,15052.547,14030.415,211.43272,611.5836,-804.13586,2000.98547363281
121,246165.94,269596.1,277663.53,-3449.2087,14584.729,215.42986,38432.4140625
122,315270.9,327337.34,334002.56,14591.55,12375.651,-5547.4756,38222.8125
123,144783.39,144014.61,183401.78,-985.3121,2229.6536,-893.92786,39266.83203125
124,-165760.88,-196414.22,-195691.67,4460.7847,-12035.045,-4202.4487,38278.00390625
125,-671.3187,-3787.97,931.76697,-17786.008,11445.564,-5538.2354,38096.2578125
126,-418742.22,-417323.0,-420124.6,-370.8026,3616.1057,653.6422,6841.77783203125
127,-272063.3,-271539.22,-271713.47,0.7283624,791.5329,775.4298,1974.12329101563
128,2319.1318,3084.5896,3126.189,884.3419,-393.50003,-437.2508,2000.94287109375
129,30498.057,66026.26,63004.61,-4763.6846,6759.0176,559.7297,37014.87109375
130,22805.787,19011.396,-14784.966,-8576.819,3395.7065,1614.1691,39343.6484375
131,4248.641,2424.034,2998.0298,4943.87,-3161.566,3436.17,11888.8681640625
132,-44497.875,-44621.555,-41249.96,10230.785,3977.0034,-2114.8367,19642.8125
133,129296.72,116271.43,127479.125,3220.8562,-2090.5217,-2660.2546,14654.3701171875
134,108202.16,107058.03,107149.86,241.78548,-272.1606,893.29016,2000.97192382813
135,29488.004,15349.51,21038.219,3202.4473,-1824.0259,4418.29,15847.419921875
136,195581.92,193953.95,195297.55,645.24457,163.11203,368.291,2000.98742675781
137,151014.3,151168.6,150138.03,-874.1432,-283.45273,-424.6085,2000.28662109375
138,30282.557,30248.72,3637.5564,262.20267,-5723.752,299.1605,28422.076171875
139,7608.014,-17783.17,-1236.83,-8261.317,3665.2583,9664.3,31993.890625
140,25208.115,19706.223,48365.04,-14007.066,7167.334,-3372.0361,38350.20703125
141,-72846.766,-111812.484,-88149.91,10365.152,1894.2598,4660.505,39426.515625
142,71892.35,40342.316,49664.82,-14897.459,286.4695,-5068.047,39131.73828125
143,-26702.207,-8869.724,8203.475,-5268.6436,13891.799,1537.8203,39790.2734375
144,20970.527,14350.144,49815.52,-955.4877,11526.634,-3679.6094,38842.95703125
145,4042.2754,23380.38,15899.196,-8283.413,16568.365,-4718.145,37167.43359375
146,-30516.893,-23872.107,-39257.246,1577.7849,-9932.251,-2968.148,22549.3125
147,64029.18,66548.33,92392.83,6665.1865,-10778.903,2535.2686,35220.75390625
148,33553.453,4602.8022,35096.215,12390.883,-890.074,7898.522,39183.1953125
149,223773.11,232173.94,226680.2,-4018.3757,4095.9636,5920.326,16078.763671875
150,-125580.9,-134562.53,-125248.14,535.95416,-11886.135,13739.352,32783.84765625
151,120459.05,120823.83,120253.29,-518.4264,333.6681,-916.2394,1977.1806640625
152,109910.51,110873.23,108933.375,-70.07594,612.2455,118.89011,2000.99731445313
153,538617.25,538901.2,540465.5,533.4091,233.21802,-71.524895,2000.98889160156
154,16980.434,17129.705,15559.591,-311.44843,339.17487,609.501,2000.94006347656
155,-983948.06,-961986.8,-990782.1,-10768.376,-4123.4106,-4634.908,33799.61328125
156,87569.07,97898.63,102774.71,14729.84,-6157.367,9193.3545,34627.171875
157,-182587.98,-189783.11,-213930.69,-4027.302,-13206.773,2199.7283,37350.37890625
158,84149.555,54685.293,92529.2,5615.418,-4804.438,4856.276,37681.0078125
159,-69242.53,-83013.36,-105071.64,-5046.1553,-12268.858,-232.23065,38834.15625
160,-35020.938,-56837.574,-56419.418,-1546.214,-11879.251,11819.415,36285.47265625
161,-13298.371,-25933.965,12578.86,5744.206,-5581.0215,8000.8003,39252.171875
162,-7709.94,-9267.73,-7271.5645,296.91302,-168.92117,-342.57797,2000.98364257813
163,3270.7817,12150.81,134.19577,-537.9384,4055.6416,4728.2393,15291.421875
164,-94992.2,-100848.82,-110919.9,-14850.26,-2944.4812,8519.003,33166.6953125
165,-13708.583,-11059.672,18926.629,3317.1345,5323.3667,5737.132,34675.56640625
166,36361.008,36292.855,36463.01,271.455,897.65784,-669.20593,2000.98559570313
167,27750.465,28599.32,27437.361,44.72701,-7.2996397,985.3604,2000.83374023438
168,78310.08,79740.65,70766.84,-1284.6206,-2300.9314,394.0923,9541.361328125
169,43157.473,39259.62,21067.844,-6718.122,-1520.1779,-10352.803,29680.2421875
170,11419.955,13223.773,11729.6455,-515.50653,157.96121,337.04678,2000.98498535156
171,10913.648,12755.741,11519.903,-539.3947,367.56735,165.02641,2000.98254394531
172,235069.62,240206.97,235614.9,2309.1902,-935.3501,948.40356,6723.7236328125
173,-147197.97,-134629.45,-125934.7,-4391.146,6932.963,12208.725,31496.8203125
174,51403.32,50991.89,52561.71,602.4681,-17.596893,-555.69,2000.986328125
175,60594.695,76372.86,79159.03,3721.952,19588.008,2992.465,38989.32421875
176,-17633.537,-28882.562,5181.333,-5741.1133,3202.1365,13517.609,39768.37109375
177,87103.8,98513.27,106691.164,10737.305,5541.491,-8757.468,30958.564453125
178,-58050.71,-55434.516,-22687.615,-8892.02,274.99506,5709.518,38731.16015625
179,47955.01,38104.86,27675.27,3541.2136,19031.56,3112.835,38233.828125
180,142131.34,140218.84,141032.83,325.8371,330.42734,-445.11508,2000.97973632813
181,11581.098,12230.753,11014.557,-219.58977,-8.1133375,-956.7512,2000.51293945313
182,12307.194,-2529.1262,42144.65,-179.69289,-632.88495,3243.7634,39823.76953125
183,34876.72,27040.508,-1376.2115,-4828.003,7559.846,78.3535,36510.2265625
184,63858.242,38690.188,26258.03,-4355.536,9811.031,1946.9772,38182.9296875
185,-30804.49,-46371.863,-67668.51,12060.366,-996.155,2708.8655,38584.59765625
186,24345.365,16590.432,26289.762,18853.22,1639.6327,-3638.4255,34541.421875
187,88825.63,87468.95,86701.17,-316.57025,268.48297,71.4676,2000.98071289063
188,20517.668,19479.39,20012.736,-135.32884,-95.20725,629.0365,1441.49658203125
189,41790.82,33664.453,37712.594,-1502.966,-1715.4613,3108.0095,9701.181640625
190,32592.086,-5291.825,8121.569,6395.471,8409.524,-5578.7817,39181.53515625
191,2503.6804,3189.0347,2367.0664,274.29147,153.85126,-1020.65686,2000.9853515625
192,71691.875,72401.61,71360.75,860.23956,-414.4467,-374.0293,2000.85131835938
193,282307.7,283513.47,283385.97,-145.6909,890.92303,-284.376,2000.98608398438
194,184222.66,182460.61,184141.19,1336.7145,2631.752,-456.9304,5452.79931640625
195,-210916.6,-197576.69,-194331.42,8784.234,959.7451,4280.683,22825.443359375
196,1476227.8,1496796.5,1480859.1,7344.6104,87.45784,-10227.82,28721.7578125
197,112551.8,109258.51,115065.766,620.96405,-6621.3013,-8763.859,19711.478515625
198,-217849.89,-209083.06,-218746.27,-18017.55,9295.984,4072.9192,36992.26171875
199,11199.023,-18433.469,-422.2942,12272.984,-3825.748,-3043.273,34530.3203125
200,-17628.166,-15421.297,-25217.178,5305.0054,5287.435,-16938.76,33290.78125
201,-487278.28,-469344.5,-479673.97,4230.4673,13801.033,-7084.742,31917.84375
202,-2344.3816,13090.643,29058.744,9429.5,-9471.533,-1807.4735,35851.9921875
203,-140683.58,-145013.8,-142156.61,-4398.1865,10246.696,-18867.107,38150.515625
204,-20354.936,-38493.582,-28271.484,-2931.6858,-6785.9907,-19470.533,39361.46875
205,-15123.775,-20157.479,-38705.863,8127.645,12978.072,8218.347,36997.8125
206,-60207.73,-46879.445,-18079.525,1669.4287,-294.62125,-5580.2715,38638.9921875
207,17220.576,37595.61,61259.25,-2402.9585,1059.3838,-1826.8556,38574.07421875
208,2136.9136,6933.302,40563.863,1731.4321,6784.4624,5016.169,39215.95703125
209,-7521.366,-27159.596,-48320.83,8430.037,-2652.7197,-119.07317,38514.6328125
210,41840.348,63819.992,52962.63,17321.723,6641.1055,2458.5273,37588.8046875
211,-297.56323,4378.373,13281.104,14584.523,-5694.0117,-11957.791,36153.94921875
212,-9042.502,-17461.943,-40863.62,1414.9044,-3628.7432,-11028.459,35013.48828125
213,7864.4375,-8804.23,-27452.1,7930.7354,-7333.7827,-928.77527,35903.390625
214,-176864.48,-177367.08,-177468.89,970.88245,-139.9089,517.38477,2000.93969726563
215,91682.266,91933.914,91044.94,567.89417,-2419.8276,8743.81,15764.7314453125
216,27767.477,27723.469,26071.172,-182.79202,-288.5904,-196.95749,1808.64709472656
217,39503.3,41372.37,41190.316,188.32744,322.1655,365.08652,2000.98291015625
218,-271962.28,-273137.84,-272976.16,929.9508,-119.28498,221.78368,2000.67297363281
219,2908.4468,19036.877,5315.1724,-3894.4783,9605.724,-9883.159,29024.87109375
220,3703.903,2241.2742,3459.5554,784.58405,-291.13928,142.27034,2000.83093261719
221,28488.135,36282.16,12855.539,621.91235,3465.5527,6197.8223,24070.630859375
222,1286.2087,6458.5586,-16741.906,-4612.884,4790.9795,12834.826,32740.017578125
223,54138.21,69826.76,68666.27,-7125.1074,4847.7446,-4062.9734,22396.373046875
224,75969.62,67517.14,71017.664,-7928.9805,13508.736,-12505.762,35487.41015625
225,6826.2695,14075.245,16811.516,4195.357,2158.202,-2906.2273,13114.3056640625
226,-21575.914,-11393.474,-7056.749,-2741.695,-8212.802,-7838.729,23997.619140625
227,42492.395,30792.822,23993.0,-1217.8724,2704.1982,3721.2676,18182.51171875
228,13047.891,13271.42,5302.1685,-6075.4736,4301.878,-13722.106,28158.814453125
229,34955.11,22887.994,6394.867,10505.059,-669.539,4250.075,31674.375
230,-51754.113,-51036.69,-56371.73,-9168.313,4880.64,-3850.8633,19831.1171875
231,16332.298,15281.008,16729.672,651.6809,-511.6585,296.433,2000.98413085938
232,33340.277,32326.938,23382.855,8618.967,-6868.841,-382.35983,21329.044921875
233,7104.1455,8808.075,8799.43,72.96178,-516.7742,-315.21808,2000.98571777344
234,167171.34,155127.98,140342.47,-11120.957,7542.2993,-4638.5967,33881.51171875
235,30166.332,35192.844,-250.66614,1594.7885,-7024.45,7633.6997,37865.9453125
236,-58578.824,-82143.27,-57813.477,-14699.386,1857.1123,-10239.723,39332.203125
237,-46921.777,-68287.766,-34765.188,-4361.7646,-2392.8347,-1485.3077,30739.162109375
238,-8602.835,-35488.21,-3493.4963,-11295.397,-6345.3413,1734.0916,37401.3984375
239,-522.7684,6430.537,-31465.523,-1445.7128,6426.915,-3862.2024,37361.6484375
240,16491.865,21566.049,11691.981,-18616.328,-570.49115,-10122.468,37698.99609375
241,89677.4,53735.55,61773.312,-8753.318,23.018394,-6873.837,37936.03125
242,13332.8955,-6021.2207,-20573.05,-5522.0312,-1673.5104,1447.3052,31211.212890625
243,-23430.518,-25580.26,-9206.131,-15598.607,-467.71494,-14624.233,40121.61328125
244,139.95073,-30798.877,-14960.23,-6808.069,-8665.497,7351.766,35277.640625
245,-8387.711,-31776.314,-45880.133,5975.674,9152.427,-3626.909,38388.84375
246,38729.34,17504.838,58513.652,7329.395,-5744.8115,-4566.49,39806.25390625
247,14034.642,50480.895,28655.125,-4898.68,-10479.646,7057.6436,39498.3203125
248,-132115.4,-125366.85,-104948.55,-11084.583,-10570.057,-6296.535,37722.21484375
249,-169476.38,-162577.17,-184705.73,-13103.005,-6494.763,2462.033,32317.173828125
250,-117510.99,-129371.234,-121916.734,-8392.846,4109.771,16551.164,34520.08203125
251,-11253.106,-23393.8,-23275.586,-14096.968,-253.06534,-4787.782,28479.984375
252,193099.14,208801.11,195800.64,3547.7327,-477.01758,6167.0645,19078.0234375
253,-339194.53,-329633.44,-337614.06,993.2266,-7337.439,6233.029,18969.103515625
254,7544.746,4264.2026,2196.3384,-461.89676,-64.444534,1307.19,5253.61669921875
255,10420.377,11191.997,9031.928,121.033966,346.10272,45.03801,2000.984375
256,20914.953,25954.85,31945.764,-4671.733,2219.5247,10248.972,22064.986328125
257,56110.754,55639.023,54237.516,-172.3536,210.37744,558.0201,2000.98486328125
258,32341.445,32828.758,32539.648,-401.24908,-802.9923,-684.68475,2000.98547363281
259,254415.17,252488.72,254019.7,-100.31187,524.0984,120.45888,2000.88000488281
260,37152.9,39236.56,37759.566,22.898344,-362.74304,-231.8175,2000.78356933594
261,149977.58,148909.47,149643.12,-42.82552,-840.6089,572.381,2000.92883300781
262,162284.33,161957.78,161252.58,-650.89325,780.76,152.6988,2000.98010253906
263,71643.74,73018.234,72648.23,-522.44885,-271.9199,694.1827,2000.97729492188
264,40857.8,42079.582,41252.05,-246.51439,-102.91262,-935.09064,2000.93969726563
265,46459.695,45620.57,44681.953,446.50644,541.51843,-226.10175,2000.98645019531
266,64345.25,65370.273,64236.582,827.6924,-431.74258,267.98364,2000.93566894531
267,136725.6,136399.94,138057.1,-398.66025,525.4153,-358.8729,2000.97436523438
268,308466.38,307995.3,308089.4,-143.90349,-1113.6327,107.79921,2000.98706054688
269,96227.336,99139.76,106790.695,-4385.52,1283.6144,8410.718,19083.072265625
270,136857.45,135941.27,136672.75,940.09204,-415.94012,207.34207,2000.90026855469
271,466379.1,466607.22,467291.62,267.01123,-943.51636,-384.19693,2000.98962402344
272,-755000.75,-755495.8,-755846.5,-369.8936,1004.46716,-84.4133,2000.09606933594
273,84412.06,83123.09,80234.22,56.15266,346.00964,3329.0188,6880.87451171875
274,-179038.97,-177642.92,-177650.36,558.83185,230.27281,-568.43976,2000.986328125
275,135306.3,134779.98,135235.55,-346.48462,184.9257,-1047.6467,2000.05297851563
276,367190.5,367632.9,367895.38,21.297388,949.88617,552.2633,2000.98156738281
277,319558.3,319177.34,319718.5,457.40894,1023.2384,33.639057,2000.98413085938
278,75661.57,47302.688,65304.062,12005.465,10279.42,-3495.3262,37467.609375
279,96728.09,97326.33,95945.016,398.67273,678.9131,-484.67566,2000.96984863281
280,93261.93,92233.95,93235.89,-775.5669,1022.594,1632.6614,3737.51318359375
281,-43755.492,-46307.234,-67050.54,3717.7173,-1559.4874,9303.041,28251.15234375
282,-197366.03,-172739.2,-211495.19,9059.462,3700.881,-3711.4087,38505.90625
283,-67837.16,-30068.395,-56218.363,-4203.832,10622.341,-2464.113,39145.6640625
284,-118020.766,-98297.805,-90724.836,-11578.012,6075.7007,10027.278,37553.1484375
285,40422.1,65910.95,77937.42,-1739.129,-3263.5667,-5679.5894,35194.57421875
286,17706.178,12346.091,30191.059,455.06155,-4663.4385,14012.629,30107.279296875
287,-190766.61,-192271.62,-191186.06,-603.7091,549.21063,255.15768,2000.833984375
288,49661.254,48865.22,49278.188,-923.71576,108.07267,557.5617,2000.72338867188
289,-21055.555,-39274.42,-53063.832,6481.532,-6950.678,-4157.012,33107.5703125
290,-428.57047,-9879.613,6156.26,16673.213,5822.4556,-8765.401,36893.13671875
291,-65046.164,-54973.355,-78660.24,17591.996,2864.94,-6173.7725,38617.890625
292,15082.425,45187.535,51694.613,8758.253,1513.1486,370.97552,37174.703125
293,-5075.0576,4885.58,35199.754,2345.4146,1179.0907,5785.4785,37963.15234375
294,-63746.703,-60042.984,-85362.87,4345.925,10278.537,-12286.945,37249.82421875
295,-58217.242,-54976.855,-91373.984,-9897.814,-4710.66,1552.2026,39812.1796875
296,-579.2966,-18052.256,25236.012,-6288.4688,-3896.8853,393.0369,39842.93359375
297,-47542.293,-44869.57,-69230.24,-17076.9,-635.8628,1169.4503,37625.17578125
298,121609.07,122011.984,130571.72,-17880.062,-12764.6875,4089.2815,39685.62109375
299,111398.76,112352.01,111351.34,-757.92303,534.6897,394.45816,2000.98571777344
300,79849.266,81827.375,81270.67,410.0108,181.35649,-305.13885,2000.98522949219
301,1192.529,13027.936,317.5262,3096.1519,4726.404,4755.6323,17743.216796875
302,-24210.906,-47889.805,-66171.195,459.37524,-1846.2325,-3571.5398,37106.7265625
303,139546.11,138435.44,137312.1,97.48101,266.32104,-80.62994,2000.98754882813
304,29093.584,28061.225,29638.982,-121.726364,710.8322,415.28125,2000.98657226563
305,289748.75,290819.22,291579.8,130.33978,442.4736,525.07336,2001.00427246094
306,95322.62,94339.61,95101.61,184.70818,-706.4413,731.7832,2000.98608398438
307,28175.764,27907.65,26700.215,158.49606,-684.37494,472.54883,2000.97277832031
308,18879.455,17439.172,18512.535,570.6962,-148.01353,653.33905,2000.98461914063
309,70127.46,69250.555,70190.125,-922.83966,-433.70627,137.70982,2000.98376464844
310,40049.57,39874.098,40102.625,251.94843,-1097.0568,230.93536,2000.98547363281
311,54411.797,53865.516,54368.33,57.548218,-1104.528,137.35516,2000.76171875
312,8105.873,6745.37,6234.221,-179.28273,-562.63513,-223.74121,2000.98559570313
313,117026.695,116924.65,117943.99,100.63634,989.18536,175.72601,2000.98461914063
314,203451.39,202764.95,202136.81,89.32733,-909.2153,253.20432,1998.30651855469
315,177852.64,178130.28,178274.27,-159.18628,-1056.3678,-382.15405,1999.91906738281
316,248445.3,248493.08,248921.7,710.2568,-372.17752,-789.1616,2000.93811035156
317,439347.1,437066.28,422176.22,-5636.071,-2478.8794,-14320.935,31462.28515625
318,124861.63,134875.3,103376.13,8087.7734,521.5553,-10994.143,36561.10546875
319,4657.1206,7246.4023,-9763.617,2591.1362,2724.891,20523.916,39472.92578125
320,-47310.63,-17171.562,-16099.241,2823.6902,6532.8633,1350.249,33155.03125
321,51868.234,62642.53,76502.2,-4049.967,6828.366,-5429.4136,27111.3671875
322,-93827.54,-108802.15,-111408.31,-9.3379755,7039.6265,-7634.295,24363.373046875
323,77084.74,78961.01,78352.164,-148.63669,-502.63455,-379.02545,2000.97351074219
324,-73129.26,-75016.73,-73905.27,-152.13066,-629.0399,125.70645,2000.98583984375
325,-73657.17,-71727.516,-72818.39,-375.21057,426.4962,-275.12766,2000.92468261719
326,13717.443,13455.283,10587.111,3204.5671,3343.4363,-1096.7974,8774.9296875
327,-49433.996,-49046.78,-81800.83,-351.7544,2475.0437,-10697.54,37714.12890625
328,15579.6875,9672.144,48213.71,1045.9272,141.48116,2140.9011,36190.57421875
329,-8939.636,-10555.872,-31352.23,-19059.941,-244.31995,-140.15268,39481.57421875
330,67729.25,46500.67,68703.83,14843.397,5047.301,8462.551,37743.0859375
331,64523.58,56237.645,24920.557,-4615.8677,-2496.9915,2329.9036,37520.88671875
332,21917.05,51072.61,53796.887,-13723.664,-3514.789,-519.8396,39240.09375
333,35318.344,12161.559,48645.43,-11207.373,439.0157,3984.7048,38045.86328125
334,6883.9087,3015.0183,14028.277,-2737.384,2460.4414,4702.8926,14164.8798828125
335,23414.912,24540.02,21438.734,1764.7179,-832.67633,3509.4817,7467.70947265625
336,20286.324,21313.848,20748.953,446.88672,857.6308,-366.73532,2000.91662597656
337,188744.03,189163.98,188589.11,-421.26767,1032.79,45.295826,2000.98522949219
338,83838.84,81619.21,75718.766,-483.58026,-1444.3304,8053.647,15949.3681640625
339,83771.42,83974.24,83997.92,136.96846,1137.517,76.091675,2000.49633789063
340,21369.678,27778.94,30121.232,5236.177,-2280.644,-5681.4224,16008.42578125
341,-37216.418,-24614.045,-47503.035,-3354.0027,-989.26135,2303.4001,21139.322265625
342,7935.8477,8751.408,9065.814,-961.34045,156.5819,214.05191,2000.98522949219
343,11261.871,11008.617,10301.371,-917.7299,40.350597,492.9219,2000.98291015625
344,2859.7505,4751.8247,4478.9004,470.59683,19.528622,-258.44064,2000.9853515625
345,-42112.07,-5455.948,-22195.498,1046.2699,5359.34,-7534.1543,35637.32421875
346,-113426.336,-77470.48,-89693.734,-8189.3857,-4311.3755,4211.148,36233.9296875
347,169485.19,171319.47,170307.78,12.856712,207.87866,668.6734,2000.97192382813
348,-2055.3188,-11196.496,2752.0728,3467.6807,-1744.9517,6425.9634,17880.306640625
349,-5588.1323,-5932.548,-4967.4766,-931.8138,401.63934,256.62585,2000.98559570313
350,59055.074,58495.51,58513.715,-1082.932,206.05498,-135.51018,2000.98620605469
351,42714.023,42620.2,42706.56,-196.82838,-1095.9307,-290.84033,1995.32934570313
352,1295.2731,165.84685,366.97482,-756.16095,39.739075,631.1285,2000.98522949219
353,36874.258,32534.783,23081.191,-5503.8228,1600.1255,13306.688,27910.326171875
354,7550.9727,7733.3203,6329.0957,-123.69361,-703.02344,-492.0156,2000.97583007813
355,10630.366,10883.558,11985.955,-670.71106,-392.82175,-459.33047,2000.98571777344
356,34962.46,38366.86,56467.02,12092.083,3777.1353,-2751.6453,30083.154296875
357,-17191.248,-9791.703,-12738.103,-3212.7827,-3284.246,832.2655,10345.7841796875
358,-3949.2693,5808.6133,-16613.23,10243.652,6797.1753,-15140.35,38990.48828125
359,-6173.8867,-10195.327,-5664.587,2964.1611,-737.67426,-61.778225,6817.7841796875
360,23428.195,23285.998,22280.898,-63.73168,52.79536,-967.82025,2000.98559570313
361,27421.363,13116.321,-10322.797,-7978.256,466.65527,5583.9985,37073.95703125
362,12744.031,-3963.623,29179.918,-13121.312,3783.646,5774.0767,38514.4609375
363,309754.53,322914.94,351547.06,168.28578,-867.0344,-3231.6475,37462.99609375
364,186966.75,188710.53,156703.77,-2471.7288,672.63165,-12246.962,37964.6015625
365,52861.203,51882.367,51547.07,-2297.8435,3574.165,-12062.741,22183.150390625
366,-313092.16,-314068.25,-311835.72,-86.11663,-272.16278,-23.195736,2000.96862792969
367,-119173.7,-131605.78,-96338.01,-6151.7646,4676.956,-5783.136,35205.2421875
368,-262738.4,-254452.89,-294789.06,5344.271,-1726.4288,-5116.8086,39174.23828125
369,-33900.55,-31772.086,-67528.555,1289.3768,-1504.9454,310.4294,34914.46875
370,2571.2373,2689.628,11485.1455,1101.2655,-620.21185,129.04446,9124.6240234375
371,2930.8828,7717.078,2261.8809,3058.2407,-864.56696,-2495.356,8691.291015625
372,25627.586,25396.92,24810.158,-28.56056,-110.776146,-1069.5538,2000.98449707031
373,-107660.15,-99612.47,-95765.87,1095.462,5510.971,17825.8,34036.859375
374,443747.44,444694.25,423915.72,1792.2211,6381.4126,9349.32,28407.802734375
375,-23276.584,-18843.867,-6077.8506,-223.98409,2692.5537,382.47095,16172.419921875
376,-8154.1094,-36841.023,-15516.963,-15396.045,1399.2089,8553.481,40030.078125
377,-167360.75,-140475.31,-178570.3,2910.7578,-3206.5608,3987.8528,35409.4140625
378,21785.732,13958.442,51739.03,472.19943,-5352.903,9221.034,39174.375
379,25897.777,55427.36,26620.645,2013.0422,-8324.921,-13174.007,39898.69921875
380,-81252.51,-77120.05,-118593.414,1311.064,-138.65121,-3128.7068,40003.88671875
381,-17981.543,-17234.883,-22667.566,-818.0188,-2440.4248,-8166.122,15682.67578125
382,245.21484,290.13165,2089.8196,-2920.7258,-1760.9105,3965.312,9240.517578125
383,2392.7056,17183.867,45174.32,-165.42876,1388.1659,1047.0206,37754.56640625
384,-51180.97,-52159.605,-21842.742,-6136.807,10489.643,65.73639,36517.01953125
385,-165387.39,-165500.61,-165242.44,136.18378,-337.15512,1088.8859,2000.97912597656
386,-475853.25,-474267.5,-508391.28,-1415.8633,-531.9712,-2971.25,33855.328125
387,-7705.7744,-9515.65,-15077.623,2663.0708,676.16174,-659.9594,8260.25
388,-275061.0,-284147.28,-312917.22,-158.03656,1565.5693,2821.6816,34684.21875
389,119660.11,112184.414,80080.98,-2304.3413,-3082.449,-5271.4326,38135.42578125
390,-245006.08,-237880.03,-234504.94,-822.80457,2223.9722,-18368.248,33395.65625
391,-103417.086,-61636.734,-82409.51,6187.835,2013.5066,-1217.1604,37956.3828125
392,28489.64,21425.014,52618.535,7846.105,-7516.009,10439.049,38518.1875
393,-155337.39,-156854.05,-150811.44,-588.4319,-1279.2034,7169.65,13777.0927734375
394,-151332.64,-168483.61,-170904.0,2385.6995,-599.81635,-3532.582,19927.806640625
395,20875.432,14032.48,55254.746,6687.908,-23.73632,-1690.8695,40084.69140625
396,75749.18,66486.12,107398.734,-3264.8022,2551.7815,7728.5747,40141.9296875
397,17144.873,29993.793,36125.812,6663.612,2719.786,-4861.4146,22534.1796875
398,103242.92,103637.37,105162.516,-191.94537,187.47523,-5598.751,9865.96484375
399,240099.97,246068.56,272020.72,3055.1692,-520.179,-11145.507,35574.109375
400,-231954.05,-228929.22,-203220.66,-3472.7043,7621.257,5371.91,32324.072265625
401,66546.47,72069.73,36947.363,-10482.859,1553.0974,-4306.838,38244.6171875
402,104972.734,99331.82,135728.83,1977.8142,65.092735,-559.4796,34116.515625
403,107396.56,103196.74,75614.266,2142.5825,4635.4414,9133.676,34968.2578125
404,170035.4,176557.45,203923.06,-6515.287,2385.449,-5672.6274,34797.234375
405,-4426.2983,-13005.643,10650.946,-17718.344,8351.986,-2352.6187,39974.640625
406,-23534.418,-24021.46,-30761.484,-163.24731,-3985.2378,12245.124,23377.41015625
407,24527.965,18110.748,-5896.595,-5817.6826,-3116.0188,-10076.364,34739.859375
408,-533.7406,29131.367,38450.477,3217.0762,-6138.2285,688.13477,37266.87109375
409,9854.009,31056.72,28023.922,-18992.61,-1236.2872,588.8551,38499.7734375
410,-108673.67,-102689.71,-111970.96,4132.4795,-3073.0784,-13040.603,25615.3515625
411,-133011.45,-136670.47,-124197.34,-1344.3511,8046.143,3796.2886,19136.51953125
412,266117.0,266623.88,268226.5,137.31752,-221.0625,-233.11218,2000.96423339844
413,48455.426,54887.66,41460.47,-5978.6294,-4509.251,18460.2,36412.4296875
414,-12932.438,-14051.325,-14949.706,656.9247,134.53644,-2913.7722,5466.5654296875
415,-197564.86,-197663.44,-192824.92,199.88011,-4761.3906,12008.497,22884.23828125
416,-655245.44,-655300.75,-655279.94,223.13037,-152.77737,-1122.8256,2000.98413085938
417,18140.664,18203.633,17383.3,60.029133,304.91095,-1014.7196,2000.98583984375
418,-126465.125,-119124.72,-159784.02,-1015.44965,2871.958,3435.6423,38364.734375
419,-30365.396,-37345.605,-33319.55,-2171.591,-1715.9637,12839.269,23544.6640625
420,57938.48,64300.742,71402.97,1028.5682,5681.5215,12194.467,26119.61328125
421,5092.07,4496.742,-2.9285667,-295.25446,-1062.2018,-14761.415,26088.78515625
422,73738.41,71362.555,89004.555,1486.207,-6022.756,13531.766,30655.232421875
423,18330.13,7762.924,12347.393,-4368.6445,11586.8955,-15959.381,36171.359375
424,-12298.375,-3118.1724,25110.76,2003.6959,-1069.784,-6607.2925,35871.1953125
425,-795.9805,16124.227,3865.844,8553.415,9331.93,1319.549,26741.505859375
426,92785.055,92504.414,109012.664,-3871.2449,-5731.0464,16638.209,35241.34375
427,-39471.47,-27285.236,-31225.848,9037.86,-3759.6353,-3064.7393,20776.01171875
428,-41815.92,-39859.977,-43351.84,869.39026,4892.249,7370.823,15692.22265625
429,-71597.28,-70762.95,-71712.64,110.975586,-542.629,-871.3974,2000.98596191406
430,55232.957,66759.516,92693.55,-2516.2083,-2957.1228,-10429.262,38417.46875
431,-238587.44,-217082.02,-204942.33,12187.316,-3137.7798,3748.1067,37258.53125
432,108594.125,125285.79,127692.664,5520.4775,8019.2407,6092.848,26838.396484375
433,25087.27,36618.36,20595.229,-501.8249,3749.6272,7971.1846,20940.30859375
434,-307852.78,-273472.84,-286705.5,7368.393,-7637.623,5869.367,36652.05859375
435,59674.57,65231.15,64203.344,-20812.455,1543.6549,-8881.816,39616.96875
436,155320.27,154042.58,154628.33,825.9061,4359.6685,4514.313,11019.5615234375
437,-4276.575,-1384.5483,-7429.6836,2184.8506,280.49692,-2211.9905,7527.2998046875
438,-76039.84,-104991.25,-96710.555,-16363.08,1176.3428,5138.712,39416.2109375
439,-27782.133,-22725.094,-52420.83,2425.5098,261.71487,-4831.0205,29070.755859375
440,144923.34,130356.83,160260.62,3948.7563,-9537.887,213.90665,31474.6796875
441,-30047.871,-27921.352,-47001.746,2499.3037,-2612.908,3852.6875,20291.86328125
442,17385.46,17354.662,16520.47,-25.545969,-274.74222,-1008.7958,2000.982421875
443,-20591.572,-31176.953,-2066.0645,-4692.244,-1973.2723,-1445.3693,27117.234375
444,-142771.39,-129724.94,-169995.8,9434.134,-943.18414,1182.9701,39248.38671875
445,280521.3,249910.95,257987.89,1894.0823,11994.743,-3687.068,35187.5078125
446,-130219.0,-154145.12,-145213.89,1795.0748,6258.769,7952.5728,27485.455078125
447,112655.17,114493.77,117455.44,-2167.5806,-5824.7915,-18094.516,33402.265625
448,21565.5,18429.74,48654.574,-4026.9202,5178.099,1700.3914,31086.26953125
449,7521.356,-1340.5348,-23029.014,-3183.528,843.26013,-3336.9512,28408.9375
450,37928.605,38450.785,27989.553,-1646.5206,-4427.5034,-17399.834,32855.0078125
451,23860.582,27872.473,57471.72,11653.879,-2722.3955,6710.1914,39695.24609375
452,-110756.67,-111018.28,-149576.17,-1258.2252,-1041.9283,-3403.917,39238.15234375
453,-215008.62,-211440.52,-210850.2,11705.549,7279.53,15526.917,36172.859375
454,3774.1963,-3214.0146,38171.43,-2762.0203,2055.5046,-1777.7396,38954.109375
455,-10996.098,-21515.123,-50490.965,292.30728,-450.3109,2831.9595,35776.69140625
456,-114855.56,-123447.06,-130594.18,-9935.391,1971.3368,859.4647,22278.01953125
457,-58020.875,-48560.61,-91480.38,1001.6828,-1920.9178,-910.9075,39270.09375
458,115287.68,108539.08,74222.75,-5227.5093,389.4378,4808.6943,40081.7578125
459,-20500.846,-16341.154,-21368.879,7610.126,-4167.364,-6429.355,19274.8515625
460,-13189.714,-3084.2197,-31421.549,6138.111,-2157.636,-1052.1797,27369.310546875
461,-67734.0,-85248.09,-42207.688,-4143.382,310.2535,1364.4043,38246.34375
462,48971.68,54715.27,87810.84,462.41757,-2993.368,-2020.5725,36853.2734375
463,5742.6064,4429.497,-26702.43,1621.1691,13316.248,871.2487,39419.91796875
464,-26468.852,-33060.87,-67368.3,-1495.4998,-4358.3,-5416.523,39978.98828125
465,78065.88,69404.234,109200.28,-2770.5908,4175.7607,1335.8229,37346.25390625
466,132225.47,126713.71,165007.66,-3400.5125,1477.9382,-2102.0376,36609.2578125
467,34659.055,34344.215,63847.67,9646.26,-5339.353,-5168.028,36139.546875
468,-139425.4,-139458.86,-138503.25,3.4979293,-307.21957,972.6974,2000.98706054688
469,-68386.76,-75749.61,-88015.414,7359.6377,-17252.236,290.559,36751.0234375
470,100588.24,106918.09,134180.11,-2918.9548,-3237.5093,7263.2993,34221.64453125
471,106331.78,131925.81,139247.8,-10204.421,7081.1265,305.20215,36866.81640625
472,-13230.001,-8613.6875,-34518.758,-473.1052,879.831,-201.28104,23998.17578125
473,-30734.082,-25876.482,-49933.395,2619.9885,2606.493,1235.1075,23043.9453125
474,-136811.81,-135719.53,-164123.75,790.9534,11.761243,-1147.0675,27978.41796875
475,8960.118,21647.207,10421.57,5818.2837,403.42578,-952.5143,15789.9921875
476,7256.4644,15186.862,4127.3545,2542.686,3562.0024,-1253.6794,12636.142578125
477,3927.082,7323.3506,2563.2896,2100.714,610.9646,717.5938,5824.94921875
478,213118.83,209064.27,250108.44,3443.5837,91.50493,-2151.202,39801.1328125
479,106135.27,114728.586,148138.06,-2626.2515,2498.786,1121.466,38991.4453125
480,-22837.953,-24998.764,1244.7432,-1345.0995,5368.9688,-15242.714,37757.25
481,-35466.086,-33272.51,-55451.875,5510.6094,-1107.3475,-3623.5776,24129.9375
482,-10189.959,668.08203,-32048.178,-1580.8895,4422.468,-3529.2517,30603.19140625
483,-22212.176,-16315.744,-57122.39,2202.9536,1187.4191,34.341812,38446.4453125
484,49680.6,67649.836,64132.418,-19468.334,-2951.8079,2258.6106,38086.11328125
485,-140599.48,-141683.19,-165224.42,-1628.6733,-381.8617,946.21277,24330.166015625
486,12894.84,15191.854,22673.46,807.64825,-1694.3007,-518.5765,9476.9033203125
487,17945.049,17270.223,35055.74,-2672.741,-2680.125,-2719.7717,19234.0625
488,78434.19,80985.375,82514.96,-4182.9775,-9410.594,-19048.283,37675.34375
489,16522.8,45371.637,36164.97,9163.508,3134.335,1115.1833,30602.763671875
490,-32017.666,-38277.273,-59841.39,2146.9028,1210.2416,1045.134,25703.603515625
491,-5192.117,-14767.734,3407.9116,-856.6769,1417.8375,-4164.1016,17557.19921875
492,139610.16,134780.33,172975.77,5751.454,2074.7336,-2350.1614,37768.53515625
493,16455.62,16176.297,31094.238,-668.6732,-684.6321,-2447.999,15465.5009765625
494,-63796.42,-87941.445,-102186.72,6793.785,-5649.042,7427.84,39109.875
495,33346.9,29699.041,45780.926,2191.8376,-4147.7544,-4359.1914,18338.515625
496,14751.375,14072.464,51670.89,5901.929,2103.8142,2632.9614,39078.7734375
497,11930.311,35876.71,6048.6865,9059.798,-955.0316,4462.505,32520.53515625
498,-60564.625,-56438.07,-95247.58,1891.0752,1677.8604,2077.6265,37352.11328125
499,31887.898,9379.241,6621.257,792.4146,6321.851,3608.608,27150.91015625
500,-35290.547,6524.754,-24138.457,3137.1714,2162.252,5571.459,39284.03515625
501,-4973.4717,-4423.772,-23761.812,-3725.2139,-1163.7358,1759.478,20460.05078125
502,14355.897,9226.057,24698.818,1836.8237,39.731125,1477.0608,14248.5244140625
503,222267.03,222455.97,260398.88,455.9076,1765.7958,-970.3261,38205.640625
504,-71062.08,-83221.625,-54885.758,7843.413,-8963.091,-13850.349,40091.015625
505,45029.547,41121.945,77324.75,-3358.0896,1212.5188,798.59,34994.2890625
506,22253.797,21387.385,2875.794,-1983.2688,4852.5903,5859.0244,23343.00390625
507,17410.85,21989.906,39420.18,-1839.7142,1557.4966,-1217.0576,20651.177734375
508,8063.961,-7740.426,-19913.479,1821.048,-1750.0933,-3847.3135,25571.314453125
509,-32687.693,-39866.36,-32907.598,-1429.5353,-3935.349,2020.3131,10716.32421875
510,63287.875,59777.566,101028.7,2939.0698,480.66724,-782.6927,39970.234375
511,85818.61,54195.414,93520.305,8631.308,2929.9297,3839.311,39954.5703125
512,-10972.222,-14282.096,24324.717,6681.1313,3483.5686,-3042.1208,39645.16796875
513,26679.213,34948.375,32142.12,4295.537,-4024.287,5296.3516,15528.7578125
514,21313.426,24200.11,56237.6,4762.4663,7880.256,3572.207,37680.71875
515,-7365.696,2417.8503,-1578.7578,-14414.592,-552.9262,-2594.4045,26777.62109375
516,26795.441,24086.762,3412.337,6652.462,-4496.6475,-177.18481,26158.91015625
517,24384.594,17671.371,24562.756,1854.5339,4703.4136,436.48914,11115.3447265625
518,-10761.52,-45486.832,-38528.6,-3081.2527,-1973.1396,5854.934,33994.71484375
519,-18223.23,-11818.514,-34266.523,1766.7455,2372.1692,-3340.931,21468.384765625
520,10911.228,10479.133,24327.996,4294.3486,357.14496,6915.6455,19625.98046875
521,149200.61,148039.72,153770.03,1721.5067,2744.5674,4390.0864,10809.2158203125
522,-207885.27,-205821.47,-244184.6,-308.2926,1257.1952,-3190.4097,37846.76953125
523,10699.628,9620.235,-23108.838,-4667.762,-5543.6265,-8413.3955,38439.5625
524,48291.82,50029.547,86840.734,372.1469,1500.041,3254.233,38222.859375
525,11684.382,2663.2944,9505.553,-735.41345,-449.07776,-2443.0022,9306.1376953125
526,-90051.07,-86839.61,-122651.734,342.57437,-434.52866,-76.72577,34332.91015625
527,1556.752,7625.5728,7935.365,37.291946,-1506.7395,162.33812,6760.22607421875
528,72344.75,73067.945,98205.27,1611.0018,60.298393,-1005.35846,25718.021484375
529,-16446.693,447.49414,-19006.223,-325.96454,-579.74286,-1169.369,18456.306640625
530,10717.738,9772.235,4365.4424,-523.7992,3552.4297,1859.511,9181.244140625
531,-45575.76,-25013.047,-43158.113,-1654.9174,3665.85,-2909.92,21281.244140625
532,-20509.156,-22561.875,-44489.016,4457.858,-2805.225,2643.443,25183.568359375
533,-12002.463,-10734.782,-12261.556,253.77246,679.0209,2058.298,4035.93530273438
534,-1835.1064,-21021.752,-11490.058,1308.947,1302.0616,3609.6155,18039.21875
535,219202.58,217249.36,257458.28,1043.5406,511.95526,1141.4269,39370.0078125
536,-76009.94,-96325.875,-74499.38,4242.5005,-3539.9675,-17143.283,37669.27734375
537,35420.848,33509.03,57413.203,-6723.14,-4922.905,-3280.1382,27747.951171875
538,13569.366,10703.247,32995.875,10642.736,-4556.1934,-10838.061,34579.66796875
539,25397.027,19508.855,42153.67,-2087.5278,-458.77576,430.5197,20697.404296875
540,-19919.832,-32959.26,-42055.832,-1405.0703,1490.696,3372.6711,20447.55078125
541,13170.696,2056.2424,-9288.599,-4668.4165,623.9524,-418.8475,21104.615234375
542,76749.82,78071.99,110277.35,1102.7609,-483.61578,-715.1496,32975.7265625
543,9101.178,10559.309,27957.406,2185.362,-2295.1506,-1407.6844,19138.0234375
544,-1363.9248,-34699.863,-3480.6572,868.28564,3324.2668,7782.735,35529.26953125
545,34052.945,34898.63,71228.55,-667.51416,455.99075,-2723.9302,37088.02734375
546,10632.974,11038.779,15050.476,-4682.0596,113.03351,3970.2327,11444.560546875
547,9209.379,14354.712,25483.244,-2326.1511,-2810.9746,2746.5837,16436.166015625
548,-39557.84,-5489.0176,-22868.898,-30.91879,1869.7471,-1291.1901,29767.853515625
549,-20217.084,-19045.824,-45883.215,429.77496,3118.6768,-2632.5054,27215.92578125
550,-122298.66,-124984.16,-161974.08,-1378.3031,2883.185,-76.85633,38800.2265625
551,-11025.565,-15421.291,-8451.494,1396.2483,1080.1921,-184.71237,6834.79931640625
552,-84568.08,-90478.63,-122835.66,1657.3428,120.80024,386.67487,35803.5234375
553,50512.61,59591.273,93158.81,1624.5596,78.57562,5386.7134,40111.546875
554,-17181.979,-26203.85,-24955.846,-6432.009,218.51375,1025.9235,14110.4697265625
555,38915.94,42430.777,59825.047,229.69441,987.9569,-149.13654,19473.208984375
556,-43146.758,-43105.074,-67037.27,-921.56903,-1317.7899,1047.0764,24141.271484375
557,-1095.4274,1212.0876,-2210.2517,1472.5216,-3708.7976,555.8638,7605.08984375
558,-1560.5981,-1058.0656,-2939.684,519.5159,199.00201,-1584.8485,3363.21020507813
559,-25878.186,-25587.729,-52711.36,378.0589,716.8138,867.50385,27057.81640625
560,35295.402,34868.08,60995.617,-444.36026,-3498.0044,1563.6156,26763.802734375
561,-25392.03,-25093.533,-32868.57,-7318.938,374.99017,-7145.1714,19300.318359375
562,32896.957,25117.203,61261.008,2540.694,1622.9731,-4046.973,34089.74609375
563,21146.764,22188.357,49480.63,-2951.4248,-640.7346,-251.40392,28318.447265625
564,-29936.145,-35758.38,-71848.52,-347.26752,1351.6455,3886.7654,39971.05859375
565,-636843.0,-643301.25,-673460.0,-609.5788,2920.0908,8168.306,37052.546875
566,19605.979,29635.041,-11610.68,5295.2314,3152.5469,-2315.8806,38963.56640625
567,51118.7,46426.992,80043.414,6292.5176,-1975.5586,1538.1869,33644.484375
568,-66812.37,-78627.68,-46450.71,-2005.797,-999.728,-15769.336,39444.4140625
569,-75243.7,-78311.734,-61190.11,12368.196,3613.5898,-16440.266,39483.80859375
570,93965.836,90863.875,89272.97,2892.936,-2325.2742,-18304.045,32611.810546875
571,61255.633,31953.02,61692.133,-267.82278,3789.224,266.68262,30251.072265625
572,107369.58,86148.56,74549.72,-12584.356,3956.9097,-5062.636,37814.8671875
573,-74824.52,-73281.63,-109546.94,4019.3943,-122.38895,1459.8776,36283.671875
574,-164008.48,-182528.5,-148826.1,13789.244,4460.343,4226.3154,39222.09765625
575,2321.902,3126.904,-1426.5972,1905.2054,-6652.478,-7185.024,17783.31640625
