Element Label,S11,S22,S33,S12,S13,S23,Mises
1,-5015.5967,-4754.501,-14651.992,-2299.6206,-9030.885,3458.1475,19795.35546875
2,-2667.4216,1103.5284,7080.146,4348.4785,5940.0864,-6669.548,19196.55859375
3,-6777.499,3385.696,-8395.205,-14365.524,-3490.7854,-341.3895,27899.1015625
4,1487.4513,-24054.215,-2529.8933,4245.619,7172.6646,-1856.0039,28011.73828125
5,14891.123,32682.127,27243.938,18370.285,5043.237,-9064.718,39806.46875
6,15469.689,12764.079,25608.945,-1372.7429,-19.615063,-2371.554,12652.4677734375
7,-18235.29,-46036.156,-24610.803,7842.4927,-7497.6006,-3033.3647,31891.23046875
8,20461.027,-5950.6953,13839.699,16317.317,6053.0796,-4300.6343,39124.296875
9,52592.008,30827.443,44509.16,13221.012,-9826.687,9142.509,37788.12109375
10,-55926.883,-82540.44,-83908.82,5544.221,-2250.9482,3420.136,29817.423828125
11,766.787,-33217.15,-27696.338,3853.302,10181.304,3472.6099,37275.54296875
12,36817.16,-1614.108,34434.137,2705.3262,-2729.1782,-2916.4587,38221.42578125
13,-85.49294,-33275.836,-19034.363,7916.612,6236.585,1501.1168,33811.27734375
14,-23627.492,-50744.938,-28929.52,5366.3667,-10029.479,-4814.3013,32823.578125
15,68769.08,70752.52,69381.46,464.2105,-126.8237,-267.5568,2000.98156738281
16,39653.12,26276.729,60185.586,8718.464,302.5135,3008.1277,33624.63671875
17,6371.7627,-24889.766,17472.066,-1234.1001,5544.086,-3323.9749,39716.98046875
18,44705.402,43082.117,43264.047,577.2778,-329.4005,-319.40515,2001.03747558594
19,-77025.43,-76981.22,-76547.86,9.416773,-563.69135,973.35864,2001.17602539063
20,-70520.945,-71258.01,-49298.11,1915.0518,-183.71594,9380.57,27233.865234375
21,-4493.3506,14189.321,16063.104,15963.981,3180.3245,-10352.769,38781.3046875
22,1000.22046,15339.849,3006.3708,8866.0,7239.11,2405.0962,24315.994140625
23,27036.664,18916.07,51927.617,2605.2087,13848.696,-2584.723,38773.6484375
24,15551.315,13283.455,50112.64,-3423.2073,-1591.6256,-6273.265,37931.84765625
25,2875.218,-3408.918,-25548.73,-4096.5493,-482.61118,-15880.87,38424.48828125
26,2482.3938,-24576.309,-38106.56,-2984.51,-367.3436,-2662.5464,36465.6875
27,7812.7583,-6144.345,23253.38,2768.261,-12826.995,-2047.9152,34320.359375
28,-10862.822,-12267.65,-19077.094,11221.726,-19169.47,2772.0693,39511.37109375
29,21019.508,29076.367,38264.312,2950.107,15202.474,-9134.737,34541.89453125
30,-40326.438,-28833.717,-57250.26,-8467.963,-4447.2886,5890.5835,31488.89453125
31,-69099.984,-69460.03,-67842.65,404.96872,668.6363,49.86923,2000.97729492188
32,18243.795,-6562.2153,-991.9134,-13512.587,1073.8038,-894.4918,32585.5625
33,33148.082,11450.881,35270.375,3532.9949,2549.1094,-6709.11,26707.62109375
34,11364.748,-13219.71,-29627.936,3655.9023,-94.09222,4873.822,37261.21875
35,-7221.7803,14448.18,26041.174,-10291.138,2059.8389,10448.388,38899.38671875
36,-462.50696,20282.064,7626.524,7556.2007,-1692.1677,-5576.3057,24517.962890625
37,11914.782,-6221.233,6765.9893,18573.135,-5307.65,-8248.471,39819.0390625
38,14452.919,-3929.2944,1243.2065,812.205,1521.2523,-3593.0186,17810.939453125
39,15881.139,8180.395,23139.191,-2387.6074,-2214.9912,5682.209,17220.80859375
40,10581.696,-11174.235,-20495.889,5736.6943,-6555.546,-3699.3337,32120.47265625
41,5985.2544,-443.85013,29936.889,1397.6774,-72.81012,-6298.4976,29898.017578125
42,14819.224,4175.696,43350.246,7626.147,6028.5625,-2543.6345,39164.90625
43,4678.524,-19376.129,-21969.719,-2175.741,-4623.0596,1828.0052,27130.892578125
44,749.6478,272.8817,1312.9355,-471.50723,654.04156,643.0414,2000.982421875
45,101677.52,100532.51,102429.23,39.472572,505.4321,407.12228,2001.28332519531
46,-2336.2883,-885.15106,-2169.379,-110.2704,-748.68353,-362.8714,2001.1337890625
47,-191180.95,-190154.95,-189588.84,-125.55848,-634.18933,514.9181,2000.82202148438
48,-108279.82,-109264.64,-109148.375,344.25867,778.0746,-566.8153,2001.11706542969
49,41435.543,40082.4,40698.758,818.4155,280.37616,-357.0643,2001.15087890625
50,18529.154,18366.58,18623.018,523.3972,831.80615,-593.2883,2001.00268554688
51,9893.423,-10393.962,17471.92,6114.9873,-2372.638,4520.3237,28515.380859375
52,11707.822,12314.712,12382.781,-471.75308,928.09174,335.53207,2000.92980957031
53,-37322.215,-10852.65,-25733.525,5147.0103,2324.069,5415.887,26680.751953125
54,19309.123,19306.066,19350.367,-893.0797,1.0936531,732.42004,2000.98266601563
55,-19767.75,16002.047,7225.045,-9182.667,2567.1416,-7639.1357,38605.265625
56,12641.467,2914.3794,577.8173,8729.969,7646.661,-8198.329,26990.60546875
57,-19061.998,3076.435,-4368.987,7445.8203,549.906,-13896.004,33574.3828125
58,-49.80715,-17529.795,18580.777,-9642.868,2428.7773,5558.7393,36981.90625
59,3652.312,-14100.766,8605.18,-8646.946,12063.548,-6982.288,35139.5078125
60,22467.398,8843.232,11641.462,-8804.041,-2962.7695,15259.787,33358.28515625
61,21440.79,20008.48,36626.73,-19781.361,962.1883,-1145.5715,37881.875
62,-17185.93,8905.966,-35828.336,-2553.5317,2869.1255,826.1924,39510.08984375
63,-37549.62,-21841.305,-35170.355,-18438.592,-7866.4233,6556.593,39364.84765625
64,28171.865,49565.414,6690.5903,3800.032,5796.3203,1043.7594,39064.95703125
65,68098.81,44746.55,55816.92,2849.012,8461.46,4606.5044,26686.3671875
66,31183.932,29803.873,31557.766,649.0098,242.13966,37.42813,2000.99096679688
67,-54109.03,-53407.895,-54099.39,174.1279,-276.80502,-1032.4221,2000.85900878906
68,44515.258,44784.7,47151.5,49.67851,-2591.9333,-1458.1788,5731.7255859375
69,47822.06,36819.977,47706.59,-9173.439,-5736.6943,-2974.2292,22304.97265625
70,-9546.67,-12585.256,22011.602,9006.327,5329.9653,-6449.5127,39425.953125
71,56377.35,93668.18,78958.4,2020.7854,908.9326,4707.83,33758.90625
72,26643.34,4562.3745,13800.772,-8171.8667,5576.497,1808.0702,25929.94140625
73,5126.611,10284.319,-9687.025,2191.8406,6827.2017,2445.9688,22240.572265625
74,-25439.398,-454.18237,-9726.637,-15603.406,-5901.798,-3330.8574,36697.9765625
75,16246.289,-7241.2173,27344.26,4127.4995,6271.3936,-4819.051,34267.49609375
76,38198.08,36894.598,44420.797,-3529.3342,14080.008,-11803.063,33144.80078125
77,20712.44,3513.7246,-15209.296,5704.591,5038.115,-7144.599,35989.85546875
78,66617.234,65293.203,67012.586,-213.9353,-416.28748,-551.943,2000.98303222656
79,29379.783,22282.494,39671.86,-6353.8765,10402.583,-754.3652,26015.53125
80,33763.03,12647.925,20261.992,1464.7755,14683.028,-6252.6714,33369.87109375
81,45309.15,47282.867,47057.32,-230.41321,-265.68552,-209.48462,2000.98974609375
82,54805.855,53734.03,54137.42,-521.20074,-771.68414,-417.6655,2000.98486328125
83,85967.82,84678.914,85444.72,662.2441,-613.0274,-316.1623,2000.91748046875
84,96114.336,97624.266,97385.53,-122.56741,-779.7087,-230.31718,2001.11279296875
85,20634.797,5713.6045,33694.707,-15435.085,6228.9766,-3533.0652,38166.03515625
86,-20412.049,9381.495,-12803.859,-5362.8354,-9331.177,-7626.443,35225.63671875
87,17344.455,22914.375,7124.877,-18486.775,3606.906,-4645.737,36351.70703125
88,-6639.6416,-7776.959,-32007.9,-13382.053,6682.1123,7347.1714,38067.34765625
89,13507.051,-8676.341,4377.8325,-305.10855,-5373.9604,17666.168,37364.77734375
90,-11642.42,-6508.8457,-1712.4767,914.3043,-7306.12,15945.003,31612.603515625
91,3473.346,8266.632,-16585.479,-4723.596,-13353.022,109.6597,33516.6015625
92,18369.328,7026.986,21315.22,7259.4146,6915.037,7203.6733,25059.3203125
93,-1242.221,7098.244,21702.154,8797.975,-2090.255,5975.795,27515.302734375
94,-1340.1002,-18911.717,-2233.8623,14001.76,-806.4219,-5091.3438,31011.607421875
95,23315.467,2827.9412,17732.428,10900.64,2176.2468,-3179.8691,27157.70703125
96,-7413.2476,-12918.729,-6833.2583,20078.346,3091.7197,-521.5402,35675.6484375
97,19424.959,10097.223,25028.941,-9784.822,-2835.0273,-4387.574,23233.091796875
98,4926.428,2860.509,6925.6084,4502.7124,4043.2341,574.03723,11101.7978515625
99,-18292.904,5234.1406,10832.492,13718.287,4112.749,5102.115,37549.8203125
100,106.86572,7963.081,14172.992,4672.6294,-7254.693,-3595.2708,20279.041015625
101,-29441.395,-67378.52,-60420.37,10869.862,1194.433,145.6306,39780.328125
102,-288288.38,-288670.7,-287761.16,-853.25226,345.28568,527.9666,2000.92883300781
103,72336.59,73427.14,71721.125,361.37262,2484.6099,999.34827,4913.9609375
104,16806.365,-1433.3143,23384.266,10949.646,-1008.62134,-2013.2286,29509.810546875
105,9273.765,3917.1301,10047.465,-17733.76,-10565.338,-6876.8716,38126.7421875
106,5209.0566,5215.62,647.82245,3237.1292,6857.8306,7877.1104,19480.96484375
107,11394.96,22942.816,32859.56,-8423.687,7599.094,-2280.5269,27348.28125
108,11293.635,-6812.2334,-17202.545,-7975.807,4198.5137,7029.1387,31872.49609375
109,391.14203,-3303.8215,-22485.594,-6248.7207,-3363.2937,3985.1904,25518.40625
110,14844.309,2688.4648,4578.6377,-2363.9758,6310.4287,-1698.0581,16529.98828125
111,59.26067,2635.5952,9293.508,-2923.4714,9935.927,-1238.2205,19862.67578125
112,-13208.596,-1330.951,12110.411,-7843.9004,-15054.86,3195.0925,37101.92578125
113,-960.53723,-29952.562,-43224.207,4167.5547,2763.3638,4322.179,39147.20703125
114,9135.222,16733.275,16231.535,-824.1749,-3769.275,-3581.7734,11718.2470703125
115,51091.73,56313.582,73855.2,3509.8538,-2073.2148,7551.2065,25445.82421875
116,13716.836,13145.915,14058.171,-534.9625,-449.03946,-796.4772,2000.98156738281
117,62034.98,62362.22,62420.918,-393.9234,1024.7556,293.20596,2000.88671875
118,94701.82,95153.66,95173.43,293.45282,1008.9028,398.29584,2000.34948730469
119,20930.72,32130.992,27488.482,-10392.873,10530.538,-4417.651,28465.078125
120,-29412.844,-24030.611,-39555.438,3064.6514,583.98773,6868.9893,18899.17578125
121,-25706.668,-36663.195,-19506.523,-16430.906,-9709.446,-4084.8328,37002.98828125
122,-10622.198,-10524.183,25605.953,6772.533,5477.842,1460.7866,39280.546875
123,-11633.799,19579.174,26042.578,4795.2554,-739.0477,6389.274,37561.38671875
124,-17359.865,-17208.47,-9235.686,19404.148,7860.965,1356.999,37219.17578125
125,-35450.984,-50264.926,-22095.086,14464.736,-7123.0986,-5438.596,38266.46875
126,74409.88,75107.1,73556.99,-505.31384,179.49098,-666.5277,2000.91040039063
127,12441.043,-16941.32,546.0846,6968.509,-15034.005,-931.5366,38492.3203125
128,4053.9688,3658.019,-34712.402,1002.00946,-24.265074,-4653.3613,39441.2734375
129,12421.696,7689.951,10799.152,-13316.938,-8931.337,-5791.693,29821.2109375
130,-10318.635,14598.252,-27705.795,-786.9374,-5757.323,3454.1016,38645.6875
131,-26531.85,-26137.18,-12318.352,-15537.858,-4468.243,11654.82,37259.16015625
132,5538.52,4836.322,32225.082,2812.161,4720.9106,7915.5195,31779.822265625
133,6212.6772,4358.4966,13842.091,-9748.906,6531.254,2760.7046,22621.9375
134,-3023.5615,8925.154,1106.6146,4691.2935,2711.007,9048.28,21075.279296875
135,17364.035,5098.313,16109.231,4904.9253,426.87134,8423.393,20547.8359375
136,22890.97,2163.0088,9672.416,266.61786,4659.2188,3531.322,20811.8671875
137,2379.4514,2867.5815,2106.3555,625.60095,-827.3109,-331.96832,2001.056640625
138,-161126.69,-159893.84,-160649.48,-837.1491,483.13382,-116.24087,2000.63891601563
139,14787.002,15311.947,15650.418,2.2469642,912.05237,559.8924,2000.94494628906
140,70644.42,69128.61,70185.66,-572.3756,2225.4128,-369.42343,4249.98828125
141,-21139.838,-25680.13,2252.1484,-5723.729,-4656.654,4800.8057,30107.8984375
142,-13656.917,10179.339,22031.469,-3683.843,-2756.67,-9491.63,36399.6328125
143,26036.217,20751.855,17451.77,5926.3716,-1926.7063,-7229.9424,18154.126953125
144,-34789.914,-18460.729,-50899.703,14631.275,7095.007,1027.9973,39820.06640625
145,19595.193,14289.957,26151.387,5428.3677,6249.9883,2157.6106,18040.669921875
146,-1701.7034,841.9222,-14725.98,-17016.55,8990.972,-2989.4026,36704.79296875
147,48717.824,13226.736,29622.43,-9093.145,1637.0999,9899.971,38686.68359375
148,38544.492,37824.32,38640.71,796.3433,535.6787,-463.07324,2000.96313476563
149,-232891.94,-232874.88,-233337.81,216.46611,397.66672,-1029.5167,2000.3515625
150,2624.4172,-3943.0015,-8815.587,-3441.4114,-12099.638,5191.657,25582.55078125
151,-6552.6484,7653.5225,29990.205,-5362.133,-1955.6885,6792.827,35414.97265625
152,11233.303,24498.408,24760.594,-12807.725,15517.6045,-590.9922,37350.4921875
153,13307.367,-10396.415,-8369.117,15117.957,687.0635,-8321.279,37586.296875
154,-4759.233,-8288.595,-36559.62,3867.2463,-11479.3125,7665.057,39088.8203125
155,39484.53,49712.03,43873.312,5180.4673,-3448.3064,-5537.076,16945.16796875
156,-59481.957,-58178.816,-61016.73,-2631.381,-3003.8845,-4395.9663,10576.8505859375
157,70188.94,70034.086,71211.92,-264.68896,135.37013,914.66907,2000.97509765625
158,1702.3953,1218.0558,1239.2429,302.6251,-1048.8444,260.89264,2000.98388671875
159,-20669.969,-61845.32,-32829.254,-1271.468,-2822.936,3206.3376,37445.875
160,2294.973,-7309.151,-14016.966,7009.1445,-10828.249,9654.79,31311.958984375
161,9999.57,-8850.504,-6600.593,8294.53,-11584.908,2941.6938,30870.1328125
162,2843.9028,5785.566,5179.218,-13081.494,-1250.8875,260.82214,22924.05078125
163,-11246.215,-2028.7047,-19980.732,-14925.432,-8539.365,-2389.9465,33852.15234375
164,-8593.488,7211.653,-31961.45,-2064.5945,-1913.0363,6663.168,36361.4921875
165,-3311.6902,-2152.6738,-7010.8657,2972.6555,10207.402,-7358.909,22822.32421875
166,-9403.1875,8872.142,-5898.8755,-14171.468,4188.7188,14970.131,40120.66015625
167,-9153.746,-7616.1377,-6190.0327,-914.0236,-2572.9233,11212.848,20152.93359375
168,3667.2788,-5133.788,17676.092,-12320.181,-6102.5957,6247.7373,32881.3984375
169,-13369.972,9895.376,-4012.512,-15263.347,-10676.211,-1132.9625,38155.453125
170,6706.538,29106.322,20965.123,-7597.911,12428.434,-7666.068,34620.1796875
171,21223.646,25468.146,4081.1694,-1216.8165,3251.5383,-13372.827,30940.2421875
172,484.1118,-26716.48,2869.7554,9892.892,-2676.5212,4555.4517,34464.62109375
173,-42343.938,-44492.27,-29897.633,5035.407,880.05695,-11792.468,26112.0859375
174,9712.193,-4295.6846,-7848.083,-273.12927,5159.942,-1430.6437,18569.888671875
175,9969.396,-165.44531,4994.317,-6007.401,11098.548,-16345.976,36829.57421875
176,2142.957,29.304384,1320.8683,74.080666,34.19211,-439.02332,2000.98547363281
177,35301.0,34867.773,36119.227,90.81287,905.6105,-319.97177,2000.98352050781
178,17670.764,-6907.8647,-341.04382,-13406.599,-12965.931,2953.3977,39440.5
179,23381.713,29155.543,56178.523,3793.3557,-6035.7695,2509.5364,33029.65625
180,129405.97,133571.11,134714.92,-8719.878,-3891.2031,-1262.3563,17370.51171875
181,-6945.084,25755.244,23979.588,3307.856,7814.477,6981.384,37103.140625
182,-5184.3623,-18412.643,15049.978,5618.0273,5707.8853,-5731.9956,33809.39453125
183,-119634.23,-119307.73,-118658.28,190.50859,997.2053,-239.01785,2000.9873046875
184,15549.207,-9821.04,8838.404,7534.3345,2720.0898,-1841.1827,26853.20703125
185,2559.8909,6711.7354,24784.98,-2548.028,-4266.211,6756.2046,25098.509765625
186,-19687.691,-8198.143,-44284.01,4246.7373,-10599.532,-3284.943,37988.37109375
187,-2427.4272,32224.758,4118.5435,-7733.5933,-4890.7075,5453.157,36839.98828125
188,-21651.377,-3377.503,-20767.496,-18080.395,5446.6294,3032.8896,37627.89453125
189,30624.81,16627.309,5363.403,15638.793,10675.942,-793.6191,39471.56640625
190,-16711.418,-13672.415,-47145.47,-10552.44,5353.205,758.0439,38075.08984375
191,-26749.352,4005.5288,-8866.892,-7308.099,2795.798,6287.979,31905.525390625
192,10714.553,15227.011,16652.994,21972.887,4007.8862,4025.8499,39674.49609375
193,3195.3494,42766.863,30001.883,9565.929,-2265.6367,-1426.9055,38983.94921875
194,3880.4177,1873.7922,3667.7297,34.116398,181.7857,-292.30206,2000.98681640625
195,20814.074,-12225.529,-10642.521,-12236.13,-442.01904,-1109.1276,38668.6484375
196,26460.264,7415.9604,4220.0703,16354.139,7530.8945,-1012.3233,37541.359375
197,13846.345,-14555.768,23867.07,-9578.444,-5946.5024,-641.6091,39676.97265625
198,20709.486,3750.3484,-5635.255,-6349.5596,-460.519,-15340.803,36911.8046875
199,46789.82,77164.836,51656.008,5739.01,-8400.34,4483.12,34195.19921875
200,-6413.2046,1824.97,-28205.424,-2653.5247,447.40674,1157.3242,27350.296875
201,-37485.684,-41273.96,-36774.656,-963.036,-1039.7648,-1697.0203,5675.8662109375
202,28879.416,39461.28,31112.814,1162.766,-9138.76,8935.134,24237.30859375
203,48653.965,50195.0,29837.174,-10019.715,-11608.824,11171.571,38279.68359375
204,59294.45,56800.676,37079.477,-1544.9402,13509.55,-1942.5098,31785.67578125
205,18508.95,339.72183,-8134.377,10128.1045,3156.592,-2753.8667,30270.0859375
206,20505.557,11706.968,16471.176,19361.592,4313.899,-10253.027,39420.94921875
207,14563.419,-5359.2954,5786.545,6657.5186,3117.919,-2934.6577,22069.376953125
208,25529.822,5024.137,18473.787,-9278.551,7708.844,-8595.765,31365.537109375
209,8981.599,6147.8916,-11410.359,-4508.497,7395.869,-6906.655,27097.2109375
210,18626.248,-11503.9,-20053.693,2089.8152,-1872.4329,-2319.9055,35753.28125
211,8760.338,-5828.3506,3568.4646,1961.9335,-4571.322,-1949.0566,15801.193359375
212,25641.047,-16348.602,2361.2551,-3989.2048,149.00972,5926.9937,38480.703125
213,13106.057,1616.9469,12407.128,-7388.825,-3341.0874,5382.5356,20214.9921875
214,14407.358,18210.822,11186.848,-1036.2145,6734.3413,-2607.08,14026.8671875
215,13529.811,3613.1406,-16221.944,3183.8225,-5590.2207,8263.637,31898.1796875
216,11753.062,12052.581,-12285.541,1801.3242,3092.1174,1515.083,25108.732421875
217,4024.2908,8713.91,-79.76442,-14049.185,6086.268,-1608.9961,27732.93359375
218,6304.7026,11073.879,-19698.287,-11054.004,-4586.3047,-4662.88,36301.7421875
219,-6406.5874,-24230.084,11147.901,-14219.64,1272.9656,-617.50586,39386.7890625
220,3789.92,-1079.4279,4487.834,-12184.975,-3453.964,-5477.9644,24471.017578125
221,-11398.567,-6251.583,-36942.668,-2356.873,-9603.472,1299.7203,33299.84765625
222,-7759.9414,-13667.4795,-16676.709,-12443.455,-2709.275,-365.41296,23423.736328125
223,-15296.489,529.7214,-21197.463,-5182.232,7612.6255,5419.536,26855.490234375
224,-5356.1865,-2673.6355,-3841.2705,-9350.413,-3871.9893,2079.0706,18046.119140625
225,8337.115,-20139.002,4184.203,-9954.312,-1844.1113,-11893.195,37969.57421875
226,-35533.594,-36478.06,-58696.082,-2938.312,9672.403,-11487.909,34899.859375
227,-19364.188,-16330.725,-16307.9,-3222.4126,-3153.4736,-9917.595,19113.6796875
228,4844.5273,1216.5487,7612.128,-405.57544,-5845.8022,1546.5883,11876.537109375
229,7247.174,1182.1108,-22580.582,8360.811,420.82657,-1268.2512,30994.17578125
230,-2276.8123,7726.017,3627.3867,5201.236,3141.4631,-9860.273,21870.01171875
231,8444.727,19520.021,-13650.95,14025.993,-3141.5276,-191.51591,38412.2421875
232,16512.072,8006.8833,13285.662,7740.628,-6627.1636,-12003.384,28267.65234375
233,4066.8447,26598.527,-15732.327,3240.026,6536.767,5875.7983,40112.94921875
234,4283.2153,18479.373,-20877.055,6397.7983,-284.4121,9931.668,40133.546875
235,-12368.127,-9188.709,-17754.969,-19310.56,7563.945,-7150.4126,38729.47265625
236,-20245.469,15909.604,-5262.3267,-4511.6655,8895.822,-1606.1111,36002.4765625
237,-15439.121,6409.8164,-23602.375,-10002.489,-506.99954,-1034.2838,32039.083984375
238,-15150.572,-19510.586,-55377.812,-1980.6847,-237.03323,2732.6428,38680.6015625
239,-16323.777,23006.977,1459.6464,8612.952,3782.7456,-2298.4355,38013.78125
240,127391.22,129574.266,128333.95,-160.86217,311.59985,-113.47172,2000.98706054688
241,11456.914,42367.305,17801.605,-1121.2335,-12532.319,-4228.3066,36444.1328125
242,6140.744,19299.865,918.75806,-7881.8076,3385.5952,5517.9805,24109.087890625
243,1586.9692,1535.1077,2185.5186,-1042.9348,69.6671,333.9195,2001.04943847656
244,7133.214,6327.503,6857.1206,378.6428,449.90582,906.10895,2000.8505859375
245,75150.234,73790.66,74815.516,417.1989,785.24445,205.37106,2000.98376464844
246,-13569.058,9888.335,-19739.646,-7332.206,9475.497,-7215.5835,36330.484375
247,19013.207,40856.953,10055.663,-7246.646,3033.5078,-7218.389,33083.48046875
248,-3924.2993,29245.998,-741.0633,-10517.272,-2320.8843,-5460.4277,37977.1015625
249,19707.602,39428.535,50374.21,13711.587,-1445.4962,-776.57587,36009.4765625
250,-7678.4604,18626.67,27215.518,-12160.815,3395.8423,2563.0696,38595.57421875
251,21981.654,24684.889,15163.155,-21858.62,-1341.0055,1482.692,38956.62890625
252,455.5785,-21226.143,11570.466,-1812.0208,6081.176,12073.663,37319.43359375
253,-10706.761,-14188.002,-32080.295,-1453.2512,17166.28,-6785.022,37723.0625
254,10153.85,4063.162,20315.104,15631.648,2543.6938,-3644.9639,31536.4921875
255,14288.154,17164.56,34194.695,-2278.6428,6268.4556,-519.9467,21944.318359375
256,11712.059,10529.554,11653.48,-600.552,-626.7594,-370.1349,2000.9873046875
257,17571.105,19829.066,19026.31,-143.55199,-60.64767,-17.18072,2000.98840332031
258,-78452.74,-79877.92,-79103.72,-891.8996,127.04661,116.89659,2000.75500488281
259,109654.055,107429.69,108311.336,-186.23349,163.52008,136.13817,2000.96716308594
260,63522.184,63184.52,63055.82,241.66501,1099.6099,-95.229065,2000.96850585938
261,102120.48,103525.625,101698.31,294.8156,-9.690642,-576.59735,2001.07263183594
262,13152.167,13253.6,12244.601,651.5781,772.38617,69.50676,2000.97961425781
263,247187.11,248067.83,247588.28,809.0348,-656.0993,-235.21391,2001.06787109375
264,327015.03,326980.9,327734.28,-451.38126,163.22447,961.06195,2001.27758789063
265,-175560.6,-175999.14,-176615.16,-162.55878,738.3102,-694.40985,2000.78674316406
266,-91292.86,-90554.734,-90263.805,390.59363,-412.2779,854.79767,2000.96423339844
267,-299541.97,-299666.1,-300440.47,-274.33188,561.2005,-840.2801,2000.00170898438
268,81811.61,81878.42,81024.54,-667.85614,807.017,-105.62064,2000.48034667969
269,-336055.62,-335361.03,-335237.7,229.58551,1042.6421,-10.695434,2000.78161621094
270,23951.46,24539.201,24624.555,674.7148,-25.23433,-516.3675,1603.2548828125
271,46349.082,46297.617,47352.332,-83.789665,-742.5913,649.12946,2000.07153320313
272,43681.6,45330.88,45054.797,-728.7026,-69.38003,135.98717,2000.98522949219
273,36447.18,35708.812,36539.387,833.527,-554.0578,353.20142,2000.31665039063
274,1937.6666,12452.499,-13218.056,527.2175,5404.478,7.143463,24250.29296875
275,10146.383,22786.678,9196.658,-1191.6825,3099.347,-6827.663,18590.66796875
276,34034.98,23330.94,22865.443,-4486.929,13323.992,-9389.388,31260.861328125
277,18342.35,4122.8247,-12699.582,-9167.724,-5160.2065,-1536.6802,32611.404296875
278,-35807.03,-30254.953,-62034.76,-1132.148,-673.7449,-9770.759,33999.23828125
279,29261.83,23659.08,40864.223,16349.459,3709.2136,3098.1514,33211.390625
280,-5925.7817,-23255.695,-15463.625,-3165.2974,1366.321,-2231.188,16631.2578125
281,13965.012,-20094.451,-25318.547,830.3567,-4516.236,-4104.906,38458.765625
282,3847.231,-1220.8029,17555.715,5717.5083,5295.439,-5482.092,23567.716796875
283,24379.984,-8242.44,6246.981,-1556.0807,5955.527,835.22925,30286.09765625
284,22843.344,25834.523,10215.262,4137.9795,3384.7903,-3355.0906,18047.087890625
285,44357.312,15790.818,36503.293,3226.868,2786.387,2778.5537,27038.109375
286,-5076.982,17366.117,4719.6987,17953.57,5065.659,-3847.7192,38316.95703125
287,27652.684,26729.21,27874.303,-484.17563,1730.4613,-4.7280707,3285.33251953125
288,52126.805,39200.848,33896.844,34.99599,-6879.329,3011.781,20807.78125
289,7111.0625,2971.7903,3847.5574,-4659.1523,3528.7017,-472.02902,10836.154296875
290,-19917.27,4448.455,-10951.764,3927.4844,958.3402,-5330.8857,24287.927734375
291,17353.707,-12289.983,-10039.386,-8798.4375,-10217.802,7468.305,39113.58203125
292,29662.465,796.1648,40785.562,-8851.0205,2160.4243,2520.084,39321.05859375
293,8072.7563,26066.3,33984.246,-10196.2705,-10891.063,-4052.1387,35297.73828125
294,74502.305,37069.965,66326.1,4114.9087,722.52966,-986.89685,34889.2734375
295,5150.5337,-30407.623,-7920.32,13493.58,-3734.7224,-110.23265,39478.66796875
296,691.8163,4804.0337,-7832.6147,-16132.021,-4282.856,-753.3385,31017.54296875
297,7757.211,2007.857,11250.107,-6917.222,-3637.8835,-3827.1265,17103.34765625
298,-4201.7236,-14410.523,-40191.24,8925.279,-7925.03,5425.7773,39341.73828125
299,52774.91,41211.53,72631.36,7960.2256,5997.4297,-5389.5176,33804.46484375
300,7039.4272,8938.325,-21039.242,-7403.224,-7043.342,-10783.079,38825.37109375
301,-51498.543,-23387.033,-19074.938,-6945.356,-10854.977,-4016.2168,38427.4140625
302,-10725.815,-43542.832,-12978.543,8527.764,-41.41547,4430.988,35849.37890625
303,-613.13135,10466.628,28673.725,-7315.2114,10336.457,-5439.8687,35011.85546875
304,4447.4307,-2330.1162,-5591.4663,-7132.332,-7752.9478,2817.683,20866.92578125
305,-6541.753,-584.68616,31118.545,-2975.1873,-7644.6455,-4947.1953,38790.9921875
306,788.98883,6596.264,-607.68036,5469.274,-906.43616,-5371.0566,14917.58984375
307,-10270.242,-3629.6858,-4649.7163,1016.5919,-3936.9988,-3160.8315,10859.8671875
308,-20924.008,-6650.3525,-32186.947,6520.45,978.439,355.96594,24943.04296875
309,-15841.674,-9419.003,-39415.09,-3516.45,-1573.9218,-6072.6323,30058.599609375
310,-3228.4697,2324.6316,-4090.1611,-2664.641,702.485,-1114.857,7929.35107421875
311,18256.969,-4512.028,33558.39,5345.7563,-899.8179,-3398.8174,34982.49609375
312,11068.83,27761.586,43915.46,-13215.137,5770.558,3482.685,38333.44921875
313,956.9907,286.67322,767.58777,-1026.1382,-259.41336,-308.0203,2000.90808105469
314,-2647.3618,8508.429,-26789.008,6101.28,-6968.8047,8420.512,38035.17578125
315,-41769.977,-43428.934,-42597.62,783.87823,-180.33557,18.700676,2001.52807617188
316,102230.33,103310.125,102819.4,-712.58154,-203.89552,702.192,2001.03649902344
317,54350.023,54108.223,54043.805,88.00002,1026.7504,-498.1885,2002.16125488281
318,-705228.0,-704352.4,-706173.2,115.529274,610.55444,345.29993,2000.94860839844
319,-16219.39,6731.734,-10360.129,5607.416,-15739.489,2291.381,35775.4609375
320,-2941.3164,-9410.58,-29179.861,9107.359,4083.594,487.13406,29328.13671875
321,-2843.8635,28013.742,-325.46234,-10308.791,8443.54,6908.4097,39454.96484375
322,18986.184,-19769.105,1331.2623,-10299.198,1497.6002,2727.3809,38428.0078125
323,-19401.85,-24272.81,-16216.105,10372.98,-16232.904,-1134.3119,34155.09765625
324,39494.08,36441.69,44169.78,1577.749,-11142.617,-2661.5872,21133.978515625
325,4612.1235,228.75398,-23698.105,-16315.636,213.59445,-3042.2136,39026.79296875
326,3890.236,-759.98517,-1098.9692,-12713.715,-10643.254,1699.5126,29270.00390625
327,12625.275,6109.38,-7732.584,-2291.8857,-4141.609,-4775.8203,21445.09375
328,-8495.954,-9268.345,1605.8738,-14526.569,-4476.089,1459.8037,28460.65625
329,6769.102,-19827.371,8686.837,-6246.8555,-10113.821,-439.7895,34446.66796875
330,827.71844,-16857.996,-11140.705,721.7624,-12.753532,233.2659,15687.068359375
331,-16182.953,10675.426,-23822.893,-8993.742,7801.87,-6426.7036,39167.78125
332,19152.277,20197.602,20220.281,211.11658,842.2675,456.44452,2000.97570800781
333,-70341.445,-53522.023,-65642.03,-7084.0854,-691.9575,2120.604,19784.23828125
334,10009.105,8295.859,9958.928,-532.5376,313.5351,-46.439053,2000.98327636719
335,-3615.253,26776.488,30788.232,-3634.4102,-11310.412,-1728.3461,38652.82421875
336,16967.35,-14335.867,-11407.506,-6245.65,-10817.873,4130.9727,37631.078125
337,-2906.901,-2949.8364,-3414.908,608.7465,896.97955,283.11145,2000.99816894531
338,51714.59,53143.234,53158.402,-257.37488,-759.919,-57.614464,2001.00952148438
339,2520.8635,815.0468,966.2436,-536.65857,-393.38724,19.534262,2001.04211425781
340,24328.408,26189.201,25942.36,-191.99405,-310.7726,427.04956,2002.89733886719
341,38619.1,38452.836,38344.74,390.07278,1035.9232,-300.42407,2000.98645019531
342,-20351.947,21572.166,4209.6074,5665.1196,-5448.888,1826.2869,39070.93359375
343,7892.5107,23868.832,-3671.7573,15729.283,-7556.7773,1554.9117,38659.1328125
344,26737.113,31345.576,39174.027,10511.876,-4844.2466,-4750.9946,24253.130859375
345,-25232.621,-5399.8,796.9079,2061.528,-4770.78,-11757.538,32409.689453125
346,7296.224,-1573.251,7879.708,11279.973,-1399.8027,601.59515,21745.359375
347,13935.61,25827.39,11271.426,-14705.098,-1815.678,6385.418,31002.01171875
348,91313.86,104384.86,106827.62,3747.3704,1699.0626,4633.282,17998.28125
349,23874.004,25526.387,23641.49,-504.402,150.08972,-38.277237,2000.96813964844
350,-14240.631,19289.592,8250.116,-8910.289,-9924.027,-5955.7515,38936.375
351,-3672.5898,-24712.879,-28822.678,-12214.141,547.96686,4619.8013,32535.208984375
352,23189.709,7352.788,43709.11,10360.235,6746.1934,-1185.1063,38204.296875
353,-16004.084,3806.198,5873.607,-12500.277,-43.539013,-1654.7778,30243.4921875
354,-18107.533,-8577.968,-43659.066,-10905.574,8231.77,4325.367,40042.421875
355,22309.203,6145.7134,-20375.121,6876.7817,-2484.044,-3752.2656,39948.75
356,14779.62,-3122.3943,36628.688,10895.878,-369.28882,1489.6333,39398.38671875
357,-3141.711,2717.7063,16446.201,12624.363,-72.96643,3995.6145,28797.216796875
358,-13049.578,-6840.659,-7967.077,848.48224,-1084.8524,-518.46875,6270.77099609375
359,8573.491,4613.316,13615.723,-2885.394,-648.9857,744.2668,9432.7646484375
360,-40702.25,-27889.943,-42494.43,1150.9985,6260.576,13746.498,29644.333984375
361,-21365.281,-18754.332,-27824.404,151.67088,-4035.3423,5518.941,14342.2060546875
362,19858.12,20023.602,18182.031,-502.0837,156.11029,142.08769,2000.98974609375
363,-21250.19,7142.6133,17990.639,-3874.1978,-1588.5878,-3791.7947,36435.8203125
364,24794.816,29815.033,56229.12,8473.653,-5391.79,-2970.5789,34418.11328125
365,9461.497,2183.1553,-1821.6256,-8041.731,3734.8872,-2975.5322,18988.904296875
366,18928.656,31099.105,19690.408,2282.1038,-1819.599,8294.432,19271.19140625
367,-1017.7555,26442.062,3656.139,7462.4873,2396.1873,13345.729,36961.59375
368,-13272.347,-30039.854,2609.32,-1254.1975,534.8932,-1999.8939,28587.560546875
369,70492.85,78900.27,52008.723,16798.684,-545.5841,-2603.9731,37888.96875
370,21515.387,23996.965,59151.137,-8633.339,-1535.3608,-723.9946,39515.3125
371,8316.653,8442.924,1588.9576,-5790.795,-3175.9612,-233.7987,13309.8251953125
372,7140.197,6132.4316,4283.7344,-781.0024,-292.33954,1027.7689,3398.75463867188
373,4922.19,14241.645,16032.007,-2860.4124,1853.2441,-2632.82,12743.134765625
374,6957.596,7539.6465,7169.3423,-429.6044,825.64886,-617.7386,2000.98559570313
375,-29854.307,-20692.008,-42601.137,-2725.9077,8579.903,-5883.2593,26649.462890625
376,-19715.346,-2639.973,25481.775,2661.7114,-1951.091,501.93018,39950.2265625
377,-285.65924,-743.7715,11832.97,-4667.857,372.52087,-1091.9321,14899.08203125
378,16658.875,7098.704,21340.713,-7676.8237,13488.291,6985.0522,32047.640625
379,21784.68,7460.731,46042.043,-1641.7784,-3349.8013,5256.5264,35576.66796875
380,24792.146,-8101.184,-14074.057,-822.7993,7515.4067,-1700.132,38655.6640625
381,20600.584,9807.6045,-23014.893,731.7812,1997.9484,-471.6259,39526.0234375
382,6617.2188,40965.72,47446.26,794.35657,-3735.63,-3103.1792,38949.46484375
383,-16857.777,-20603.846,-20699.055,7852.2637,5737.62,77.86962,17267.076171875
384,-1511.2473,-3374.5566,-6690.2524,-707.3459,1604.1725,453.4487,5521.041015625
385,36990.375,36841.246,42752.94,8266.469,2890.621,-165.50679,16255.5078125
386,-33007.66,-36338.645,-40441.49,4832.113,-228.00871,-648.3162,10632.9736328125
387,39967.805,19790.322,3861.3503,5034.9204,999.7432,200.11563,32579.73828125
388,-29781.246,-21974.234,-20337.148,-5175.636,1063.2379,1273.656,12846.3955078125
389,-952.594,7469.5073,38823.676,-2246.2812,2805.3948,3495.638,37329.48046875
390,-2698.5505,-458.0803,-4565.1704,601.2741,-132.61859,-263.51553,3745.89868164063
391,8672.807,-2245.2769,10869.868,-3449.7542,-4328.991,-6997.5054,19668.18359375
392,-2609.1357,-40050.94,-39678.11,-5866.655,231.1972,4730.554,39479.3125
393,-22925.35,-15165.543,6513.8667,1202.8843,3648.346,-16118.722,39014.75390625
394,35970.24,13589.037,-952.52405,-4968.393,-3489.8728,2060.0215,34075.7421875
395,5739.134,4969.268,-478.17154,315.16745,1840.2455,-684.1505,6806.083984375
396,30130.46,25355.568,22492.205,3609.737,-1410.7755,1200.2775,9698.15234375
397,27115.889,22222.174,9845.451,3146.4575,8627.896,242.37964,22156.228515625
398,-19836.154,-47337.7,-11129.258,-8604.377,6604.079,-2918.2583,38080.10546875
399,-38624.555,-20189.84,-54982.582,-12339.036,-3186.9546,-5028.865,38367.60546875
400,38687.914,38264.504,37866.04,-253.82632,-715.851,-767.3692,2000.9853515625
401,-79907.5,-82245.38,-109691.14,-6042.6616,-4522.4644,-1076.5781,31579.6875
402,45878.758,46517.066,45444.37,819.5019,3074.9216,-6800.539,13038.2353515625
403,17788.004,35719.27,33057.03,-994.5801,3063.3804,1682.3558,17902.2890625
404,8014.234,8776.187,-2943.5862,4109.4126,6302.4336,3550.299,18347.791015625
405,27161.896,8953.66,17720.04,-4871.25,4206.002,-2794.6072,19911.228515625
406,-7014.343,-17665.35,-39427.24,-8652.119,1641.2888,790.8709,32455.279296875
407,-22438.852,-26919.938,-14428.142,7184.784,3271.4438,-2160.5898,17919.908203125
408,40908.98,30423.602,25252.59,7287.3926,987.9528,-2560.17,19308.349609375
409,-6369.5615,-13766.207,9154.018,-7891.8335,-2771.4214,2095.962,25170.9921875
410,-14548.344,-11665.593,-1429.65,-8472.392,6217.929,2782.0767,22296.73828125
411,-208880.05,-209273.69,-210832.77,-217.72643,408.40845,232.32748,2000.98205566406
412,-5781.2144,-3805.2568,-2413.046,-6007.5537,3830.44,6369.0493,16810.0234375
413,-248867.36,-248454.7,-250315.92,20.403564,-182.18398,587.8594,2000.9833984375
414,-30026.33,-55923.08,-31893.15,-16558.973,-1655.8253,-2685.6926,38447.953125
415,36192.664,31067.988,2201.855,-8438.855,3669.66,-2153.4268,35712.734375
416,-20013.139,-93.684,19966.816,-2595.832,-7064.363,-6989.4883,38926.75390625
417,3653.5652,-17024.43,25996.76,-5771.8794,-411.61008,2214.386,38781.08984375
418,-604283.7,-604235.1,-606034.1,-287.792,151.44974,422.39893,2000.98522949219
419,4725.957,-6164.8906,-1149.3226,4099.1147,-4584.125,-2638.5527,14949.2275390625
420,-45240.73,-51902.805,-53398.406,-5421.593,11519.915,208.11893,23302.79296875
421,-110906.32,-110622.31,-112258.49,-411.87265,17.168245,632.7434,2000.98742675781
422,-28532.797,-16335.413,-43504.105,-1724.431,896.514,156.401,23810.345703125
423,80057.19,100644.49,109426.766,-2935.357,2570.9246,-1391.8987,27078.751953125
424,54647.246,63938.227,74451.92,-1056.4667,874.9062,-5825.234,20049.625
425,-38211.56,-20797.084,-17189.816,8542.041,1220.1292,757.4411,24580.107421875
426,-44384.12,-27434.996,-52142.832,-484.02402,366.2961,309.13635,21917.25
427,6272.7085,-6382.925,-3684.4731,-1589.5393,1455.7998,297.67368,12144.9521484375
428,-18283.863,-8746.256,-48512.473,3788.9194,2866.0583,2080.115,37063.92578125
429,15265.827,17030.133,21103.426,-1814.9446,-933.38165,-5412.4624,11281.4423828125
430,-37450.496,-58929.742,-73362.09,-446.08197,588.88074,3229.0352,31820.8125
431,19549.072,13877.881,34280.11,8056.766,-4315.54,-1963.9196,24390.2734375
432,-24128.215,-22627.693,-38942.766,-70.11377,-2928.2651,853.26154,16488.63671875
433,342.11752,-6778.814,-10583.17,-576.78723,-2619.901,-795.0239,10759.0537109375
434,9448.516,34534.61,23537.795,5312.852,3357.17,2000.973,24594.2578125
435,-9701.305,-9558.248,-21093.717,3272.0095,-2143.4604,2873.5073,14216.533203125
436,40799.785,52021.812,17819.834,13649.372,-685.11414,-2702.8425,38654.02734375
437,-26746.05,5487.808,-20951.914,-9413.169,-6076.8677,1797.5994,35666.91015625
438,-7791.8535,14918.77,-1077.2936,3224.4019,-2002.367,-1618.1956,21434.556640625
439,-11572.694,-8005.5513,-11325.703,-569.7034,106.28213,-769.0149,3832.25610351563
440,-36524.27,-50834.242,-21616.273,-3207.0486,-193.151,7329.2173,28852.666015625
441,7528.05,20610.84,33438.848,-4919.8613,221.9119,-2843.4192,24506.3515625
442,4649.3037,13793.163,9415.755,-334.67688,-1715.7888,664.57544,8557.935546875
443,19321.72,21066.572,35125.418,-1459.1261,-434.06836,-454.14172,15257.69921875
444,-53940.957,-53501.664,-54773.7,791.9127,-31.120953,-537.7118,2000.98486328125
445,-26219.506,-22170.787,-44167.51,-9404.253,-4952.0327,-498.3799,27401.138671875
446,-24242.738,13973.502,-1796.077,-3792.03,-49.767467,-1600.695,34019.6875
447,1320.0316,-30640.422,-28175.922,-9119.768,465.58057,227.74675,34627.9375
448,2430.223,-5295.682,8595.3125,4212.9424,-833.9945,2029.7156,14595.2509765625
449,5219.5645,-4375.9595,4024.1575,-10006.066,1769.2538,1780.0089,20032.291015625
450,14107.355,3917.148,14003.558,-1543.9999,3067.4612,1925.7532,12218.78515625
451,-5042.1294,-2075.0386,-6269.661,1195.7946,-616.3104,-770.9244,4600.53515625
452,31310.09,14062.125,-1137.1981,259.40668,3017.8523,-882.1412,28644.859375
453,38124.797,35911.297,62852.35,-5597.813,-625.6155,-901.958,27725.5703125
454,39198.64,27972.727,48705.207,-1731.989,-11200.233,2542.239,26978.5078125
455,46012.02,44019.0,19291.568,-356.34467,2113.0842,-2892.478,26525.00390625
456,1133.8881,-4594.798,351.4583,-2764.8345,-11872.359,-401.74506,21799.623046875
457,-79210.234,-45679.754,-36317.496,-4654.9897,1281.0724,1313.7775,40012.17578125
458,-3358.707,3497.8137,-7168.9062,-2316.3667,1226.5742,-1686.6115,10807.326171875
459,11134.348,13489.335,11626.822,-4476.8623,1598.8231,-2928.64,9907.326171875
460,6058.0957,20743.205,-2782.5667,-1389.5953,-220.69536,171.56522,20728.318359375
461,-13025.424,-24687.258,-25991.54,-4262.935,4138.2847,-3528.265,17209.00390625
462,-2683.87,-11881.923,-8543.039,-922.7388,1297.8435,-919.5991,8670.9638671875
463,-11627.581,-20125.355,-26610.0,7157.0757,-191.04462,7356.273,22033.900390625
464,-98509.484,-73270.93,-102398.95,-4091.1365,4698.3867,-157.62753,29441.271484375
465,26230.93,30201.252,32588.744,-953.9537,-1972.4813,1109.7189,7002.80322265625
466,13112.731,2372.5405,25801.457,-2800.3125,28.365835,1097.193,20970.787109375
467,-18796.88,-4274.5854,-8378.888,5577.205,-1309.5144,-519.91327,16352.6611328125
468,2747.5957,-4695.2144,31037.129,2026.6989,-4152.168,-201.43752,33621.60546875
469,-21844.55,-9000.495,-25435.205,-5906.149,-1511.0144,-157.0489,18318.08984375
470,46293.195,31909.498,30931.97,-2350.7405,2102.5364,2718.2695,16550.3359375
471,519.6011,10798.785,4454.2466,-8392.279,-187.24042,-1260.4734,17229.646484375
472,22503.564,29499.34,7475.281,3356.3877,-6635.6206,-2929.1008,23907.1953125
473,-31711.07,-29347.805,-45466.41,-2301.3325,164.69383,1537.2096,15822.7919921875
474,1935.6519,1920.9927,4456.366,695.00146,-2752.2969,1266.8447,5948.13818359375
475,7540.914,14193.299,24453.541,3098.2034,-498.2184,94.4446,15727.361328125
476,-19516.55,-22709.684,-47081.918,-473.54535,-475.02118,-103.07743,26142.05859375
477,14463.154,1488.1975,15469.126,-198.58376,-1603.2815,-1524.089,14043.2294921875
478,-19399.535,-20361.613,-8451.94,2197.704,-5877.6514,6207.925,19106.359375
479,-11130.941,-2887.305,-16147.491,-1303.9493,1295.9858,-8451.311,18944.431640625
480,7417.3276,6120.841,12032.887,5623.2456,917.5219,-975.44354,11367.099609375
481,-2229.804,10080.244,30246.54,853.837,263.63754,2916.0278,28885.466796875
482,6990.5386,8107.603,-14089.427,-11398.643,1403.813,-1587.0956,29536.6953125
483,-25278.184,-28903.904,-51380.133,-635.5084,-303.97427,-1252.869,24617.4140625
484,-2559.9822,-8763.019,10702.822,4360.052,1432.4976,-1541.3751,19156.28125
485,-23164.11,-23416.727,-32300.014,694.5488,1781.6611,1480.8463,9938.2861328125
486,-17974.652,-21983.533,-39868.223,4052.9316,919.8618,-1863.1725,21676.306640625
487,49356.53,65593.95,58070.7,18926.646,3034.0063,4392.3013,36854.32421875
488,3103.439,-5024.5166,-1203.7224,138.46771,-708.33453,276.37427,7169.29345703125
489,-2056.9841,-18918.396,546.2048,-10224.239,-616.19904,-826.707,25529.82421875
490,14018.472,12470.372,21583.555,710.58527,-45.39172,-616.21234,8602.2509765625
491,14303.899,8511.852,12185.802,4149.0034,161.60469,-8287.437,16838.40625
492,490.02325,1782.1365,20309.736,-12877.733,-1145.4463,-2176.3325,29741.126953125
493,-24798.475,-32615.223,-53254.086,2056.6191,9456.897,-761.81506,30514.2890625
494,12806.49,31900.404,5086.347,5501.168,-528.7473,-5706.959,27584.802734375
495,-7563.947,-4029.181,-10677.467,-1616.0555,1919.4633,698.35144,7317.455078125
496,-8075.7188,-11705.182,-9210.097,2750.6826,-381.32828,-8007.6655,15028.166015625
497,3949.4497,-14519.701,18455.342,15837.709,680.24695,209.34291,39666.87109375
498,1429.2894,5016.454,-1201.0918,1837.426,406.55182,1398.7238,6761.3466796875
499,31697.592,33606.742,42189.16,-2213.6292,-323.15958,-3287.0125,11879.1826171875
500,7465.1357,7314.281,23315.502,1843.093,-914.93994,1045.8511,16420.466796875
501,-10772.121,-14481.543,14716.101,-11756.288,-2926.585,-4757.679,35583.53515625
502,-23777.605,-10748.762,-32028.152,-623.2775,-2654.4194,233.24777,19177.69140625
503,-6397.4473,676.1299,-11007.421,-508.1577,-128.49683,-788.7471,10324.0947265625
504,-17707.307,-4371.303,1244.7063,-3123.439,-4227.1157,5108.6772,21105.74609375
505,37198.953,23814.71,28266.768,5111.6265,286.065,-6018.5654,18074.080078125
506,-3103.78,-3070.013,10352.219,3714.49,2351.3694,1873.6803,15783.59375
507,-435.13,-8086.6973,10431.965,-2159.7214,309.8015,-2026.5575,16923.134765625
508,-2739.8503,-2868.2068,9785.211,-7768.92,2528.7349,1177.8401,19050.330078125
509,4799.562,-7221.151,-19477.672,9790.779,-5186.456,329.3473,28471.9765625
510,4729.742,-6326.2744,-1280.863,4799.051,2286.2888,-20.080635,13292.2822265625
511,-14658.735,-9524.532,-22326.09,-2476.0427,-4533.7373,3680.4106,15659.0888671875
512,14332.91,11424.197,25224.656,-2803.6982,405.78348,-184.19102,13525.8876953125
513,-14952.896,-16377.003,-51712.66,-1720.4421,-2845.0278,-2922.269,36874.6484375
514,-8685.538,-17839.334,-20370.816,2207.6848,2834.9087,1180.8633,12501.5234375
515,16299.339,6677.7373,8568.521,-7943.381,-100.88678,222.46054,16353.2509765625
516,1237.613,-35715.94,-8309.486,6301.7314,-1367.0419,-1003.83594,35095.26953125
517,-22053.875,-57184.12,-46115.54,4972.4067,-1671.6296,6200.4243,34142.3359375
518,7890.962,10811.938,6839.51,-83.31793,-1121.5248,40.899944,4063.03100585938
519,-22312.396,-18425.957,-1328.8544,-2768.598,-5609.9326,1065.8368,22241.39453125
520,-14931.662,-8856.04,-13749.515,1487.483,423.12738,1599.0786,6780.44677734375
521,-17525.186,-6537.63,23977.643,-7429.0103,836.85016,-3536.72,39904.80078125
522,-20511.447,-17057.621,-11898.87,-4752.223,-2874.5132,1559.7872,12497.8876953125
523,-11361.213,-6944.146,-18714.473,1292.6278,1366.0271,465.23624,10831.474609375
524,30725.748,7126.252,30759.521,-2075.969,8663.156,719.8696,28237.720703125
525,-14597.549,-17992.648,-3361.6182,1612.9045,624.20056,-692.2521,13650.3056640625
526,-45403.55,-9750.321,-28678.143,6707.5015,5847.961,-414.64307,34534.91796875
527,-13128.61,7881.1377,-6248.7427,10789.37,-1398.7668,234.11426,26447.37109375
528,5233.8,2803.5225,-10452.141,-3220.2046,1428.4464,-1359.9172,16019.126953125
529,-18953.977,-13118.187,-31842.365,454.5276,-4492.1763,2256.8074,18756.84375
530,15341.141,16471.258,25278.791,197.80618,-1929.1421,-965.51733,10143.0849609375
531,-3833.113,-5418.0815,-2712.8586,-594.4093,129.77113,1773.7395,4011.4345703125
532,-9216.25,-8691.976,-21301.818,-4180.1973,1715.2882,-212.67586,14630.6689453125
533,-3605.701,6462.5513,5384.545,263.52838,965.28534,-1476.0848,10060.7314453125
534,5832.509,13806.166,11529.76,622.58795,1015.3487,2895.5256,8945.2666015625
535,16289.144,6594.672,729.83624,4786.818,4666.968,-258.6902,17875.09375
536,-4567.3823,406.99512,1287.2384,310.21396,-1701.3433,-1198.8068,6571.28173828125
537,3395.8247,1561.8081,-13274.546,-6984.0464,-734.1507,-1808.5151,20210.169921875
538,-3898.9597,-14850.174,3927.5615,-528.50854,-1498.4249,-556.53076,16595.072265625
539,-4621.0454,-9706.374,-45062.902,3150.765,-658.5805,50.982445,38559.50390625
540,-21597.518,-15086.025,-3877.5432,-11664.744,-371.51294,-354.84198,25495.1796875
541,3298.8271,3379.7107,12353.043,-3333.7356,-2865.554,-1122.7424,11958.689453125
542,4942.592,5541.0566,5026.9683,651.24457,1155.905,-698.90906,2657.23779296875
543,-13166.242,-8652.598,-29422.416,-2032.0952,1118.7173,-1757.5626,19581.130859375
544,30705.27,22653.377,10703.556,-763.2717,-3057.2415,334.3683,18274.93359375
545,-1640.5405,-2074.156,245.83421,-2983.173,-2026.7688,-1057.1019,6851.140625
546,-4953.084,-7126.3516,-13403.824,-2145.4917,-569.84753,1797.325,9069.0185546875
547,19232.941,34663.36,-5741.876,2412.539,5520.489,-6180.814,38349.796875
548,24280.996,26572.44,42317.168,-232.92224,60.95492,-675.11383,17051.87890625
549,-30584.244,-28249.117,-23008.912,887.31805,4276.6006,-2920.9583,11312.60546875
550,7419.3496,12274.917,21253.55,1551.0569,-465.98816,-1300.1869,12677.8935546875
551,24573.896,15845.462,14813.839,12281.834,5500.3496,1633.6163,25249.796875
552,5280.934,-2002.4672,9079.397,-1228.8978,778.0917,2557.3762,11004.9697265625
553,-1958.8525,-2332.8582,-2764.9927,-1082.6976,2802.8313,-964.953,5510.52978515625
554,593.30054,1175.2188,11715.492,4296.4883,275.3228,-913.74744,13254.478515625
555,7751.171,9309.105,-8914.876,657.93585,-3390.406,170.39749,18493.76171875
556,-35244.902,-53342.14,-34082.18,2790.9043,-959.1282,998.2526,19468.455078125
557,5727.8135,6096.8486,17564.658,3951.55,-1681.8645,-4302.1123,15707.7568359375
558,-25829.05,-20267.176,-44005.594,-1144.0143,-1434.032,-41.80891,21737.47265625
559,-1158.1222,5466.168,-7058.19,-613.6254,172.01791,-416.3006,10932.2490234375
560,-6196.137,812.93945,-6400.8726,1532.9596,-479.0087,1410.5221,8019.416015625
561,13901.733,13626.244,17895.51,-4986.8867,492.63065,832.6429,9723.2421875
562,-12557.034,-15084.071,-13204.801,-2011.679,193.94638,349.21024,4217.5625
563,3403.6653,10186.186,10324.571,-2379.3635,6.392194,1919.0105,8659.8134765625
564,49709.18,44341.38,57932.023,11235.271,-2645.9348,-4527.277,24530.646484375
565,-2239.2095,5937.7007,3890.3127,8042.5854,5697.559,199.73058,18597.529296875
566,5246.693,8315.26,19591.291,-5228.9854,330.08966,779.79755,15979.494140625
567,32026.355,11088.256,28106.799,-9426.336,-2920.0486,9104.285,30207.78515625
568,-3058.1863,-20974.713,-36743.656,-4945.1006,3195.9856,-1920.946,31100.826171875
569,-34187.79,-29683.703,-23442.846,1917.2181,-8256.242,-566.2733,17430.7265625
570,24030.56,23602.879,60427.42,-360.38318,6851.0054,-4259.236,39193.14453125
571,103068.42,85678.64,111080.84,7929.0005,2832.413,-7219.089,29579.693359375
572,-8481.193,-9537.537,-6279.2627,-1347.5,-454.7196,944.18854,4127.0341796875
573,7660.7153,22785.262,26981.217,7322.5254,2086.0195,7564.015,25600.30078125
574,58477.082,56693.42,77437.98,2512.6206,-1286.9143,1857.3334,20755.09765625
575,468.79755,19472.861,4203.192,19485.885,3565.6409,1598.1426,38588.00390625
576,-12531.505,-26378.871,-54266.926,-7464.8115,670.93713,-1332.5754,39109.04296875
577,13425.666,22805.596,43099.33,1899.3936,-2750.093,2163.0195,27161.01171875
