Element Label,S11,S22,S33,S12,S13,S23,Mises
1,-14787.439,13434.604,21916.184,-9908.999,607.40546,-1581.6141,37562.80859375
2,-2254.8599,-10474.016,2741.8267,-8425.258,192.4937,-1464.2423,18790.63671875
3,-3600.3818,-9488.771,-13773.156,3974.2812,-3906.8933,3944.7527,14768.771484375
4,-1045.5032,-3561.5422,4133.519,-6138.5254,-4907.3784,218.28859,15218.99609375
5,10985.814,12425.115,9853.192,-2897.4556,1996.5309,1916.2821,7290.0732421875
6,9134.774,693.70844,-19354.463,2005.4639,16392.508,4245.2124,38918.92578125
7,18918.484,1872.9268,28316.275,8939.251,-9118.927,2840.8486,32441.73828125
8,-3567.5732,27239.28,10336.513,-7970.243,7249.161,-5748.8525,34079.58203125
9,-13373.573,-16867.035,-13372.389,-1985.2811,-8866.635,1214.4254,16257.5703125
10,8395.997,14462.359,-2552.647,-1518.851,-1689.5657,-2713.2861,16145.0419921875
11,19526.342,8827.301,-1036.2585,1212.4099,-3539.553,-2674.429,19512.630859375
12,-17951.564,-3261.897,-40707.824,693.8288,-13114.37,-2304.0786,40015.57421875
13,25145.934,16191.491,42224.57,-8109.4614,7201.687,813.0287,29659.021484375
14,-2663.3523,3163.266,-14852.147,-4235.467,1142.9342,-6703.9463,21121.09765625
15,13280.343,10408.576,11104.093,3551.4624,-1488.1156,6720.49,13664.205078125
16,63605.145,56722.043,60146.953,3597.7573,7301.8877,-1379.78,15492.861328125
17,-2504661.8,-2503087.0,-2504294.8,780.5075,175.69029,125.28789,2000.96520996094
18,-8939.898,-15633.947,21185.236,-1570.1202,-6838.141,6914.4365,38014.44140625
19,-189.68575,1454.4869,-235.20918,-608.96387,-157.27858,111.05216,2000.98559570313
20,-4645.873,-5158.517,-11543.795,-6578.9326,-12.956033,-1919.8861,13609.3134765625
21,808.1279,-24596.64,-197.16992,2707.9314,-3511.3188,13960.45,35560.4140625
22,11101.922,11069.304,11604.169,-259.54572,1074.3499,152.17154,2000.98522949219
23,-2728.615,-2538.482,-3642.7727,-177.14813,334.77792,415.14145,1411.75305175781
24,1973.8755,199.10777,1100.4117,-222.0424,349.76404,-612.77673,2000.98559570313
25,16583.967,-6019.1387,-9796.905,4170.143,2800.4546,11017.481,32410.087890625
26,-8568.675,-14471.817,-13780.661,862.2228,1695.9642,4003.279,9496.45703125
27,-3739.0798,-7686.391,-14442.228,605.54315,-6365.2554,578.28455,14544.5078125
28,-235.77306,-3694.2551,-6474.726,-1465.2388,-1648.6914,644.4856,6719.35546875
29,11207.205,1075.32,7668.1724,-9638.657,12984.048,-3982.1414,30188.78515625
30,1362.5355,11010.583,-4327.8813,4518.3867,-4848.498,-5285.817,19898.69140625
31,152.05853,3374.9146,-2203.3528,-5293.1094,-6343.666,-3208.2405,16099.1201171875
32,5087.736,6110.7563,4050.5122,-8019.1753,5281.784,14002.471,29461.9140625
33,3088.271,4205.765,4238.9043,-338.70032,868.53174,-191.33107,2000.9853515625
34,540.651,344.6229,40.458763,628.32166,-859.4599,371.03333,2000.98547363281
35,-2235.9167,-2436.2646,-1960.7863,991.2493,427.20773,-335.52914,2000.9853515625
36,20526.248,-14226.344,13398.779,-3886.8225,-7696.853,-9587.676,38854.37890625
37,-828.24567,-5357.9663,12157.785,-8867.195,-17173.16,-516.90405,37005.58984375
38,-663.1013,-1442.691,-1285.0107,-162.7973,-1834.4415,-166.5079,3281.44921875
39,-2398.1658,9089.7705,15768.551,2737.6624,-19088.303,-3570.847,37511.75
40,-4373.5723,-4741.7983,-4816.5093,-425.6145,-1027.1685,205.41939,2000.9853515625
41,-4551.0,20950.455,-1489.9878,-3325.3967,-16405.537,-5208.383,38776.4765625
42,-5631.333,-21885.29,-25828.697,2908.3223,-9752.693,-2258.4998,25881.654296875
43,9746.777,8947.847,-17703.047,7592.967,-3281.9937,-7527.79,33278.78125
44,2954.0579,16904.99,16210.848,674.00006,-8987.725,8802.547,25721.22265625
45,-5430.9077,-6156.4375,-6131.7563,-263.34705,-860.9583,595.2716,2000.98559570313
46,-54477.508,-56400.47,-57595.027,600.4838,-1410.5397,-572.98706,3931.5888671875
47,-11466.961,-11577.965,-11497.877,-1139.9601,28.900084,176.12817,2000.98522949219
48,2672.7524,5005.3267,-459.77365,2669.6348,7623.7236,-1821.6589,15108.2802734375
49,-23945.787,-14886.268,-19917.08,2293.7834,6352.2837,-11603.581,24547.41015625
50,-6006.6123,-2217.173,-269.40176,-7194.6304,-1481.0992,-110.392944,13690.8828125
51,-2543.9736,-1150.5149,-4677.5796,1263.7736,-2884.759,-4251.0166,9666.3017578125
52,15472.365,12800.482,18653.582,-1993.7404,-1570.8634,6484.1006,13085.0087890625
53,4776.8057,8162.341,-13755.18,5728.816,5920.878,-17040.9,38632.140625
54,16789.963,3474.976,-5121.3623,2519.7954,-264.8726,-3920.0527,20760.66015625
55,4931.968,-3721.6006,-70.00305,1998.631,-5310.2007,3343.6445,13665.1826171875
56,-1509.0085,-9121.2295,-17732.49,12484.963,8030.5845,-6411.757,31338.09375
57,-12101.988,3472.5237,-14978.391,-291.33206,-9382.817,17280.164,38155.16015625
58,6827.1416,748.68207,-3910.584,3995.9277,-1920.7744,1457.0908,12341.6923828125
59,-11205.038,-5220.662,-10865.991,1418.8745,-2837.1536,-3448.607,9988.259765625
60,6315.0957,1577.0088,2364.3987,-1887.0522,-1441.5577,2919.7114,7863.20751953125
61,-7350.366,1836.6677,-8819.246,-585.7247,535.7872,-2697.119,11125.08984375
62,-12019.357,-6667.8096,-11729.838,258.90646,-661.0815,-3105.021,7590.0693359375
63,-835665.44,-835830.44,-835735.3,376.2345,-991.8756,449.02228,2000.38745117188
64,166598.97,165292.36,165543.77,-282.44553,-876.0513,82.20572,2000.98486328125
65,22260.748,22062.975,21979.785,1017.1767,513.40784,-124.82952,2000.9853515625
66,33904.53,32082.62,32147.762,60.38673,-509.4571,56.090294,2000.98498535156
67,68101.73,66441.54,66554.92,23.08956,-245.39198,643.1354,2000.990234375
68,87026.74,89140.12,88450.055,312.09753,241.9743,131.54323,2000.98974609375
69,110151.52,111950.984,111664.586,-214.7826,594.64453,0.8293718,2000.98071289063
70,-424287.8,-424010.1,-424623.47,528.8637,-876.78516,-438.00327,2000.97436523438
71,109118.05,109352.34,108711.17,-608.8827,920.9512,-102.33962,2000.96472167969
72,31921.883,26883.83,28298.906,-369.49124,1233.3732,-3907.0063,8427.484375
73,-96805.99,-110368.945,-99675.89,-2280.2668,4472.075,5530.545,17905.96875
74,18946.35,17459.94,17650.889,780.3654,206.77473,170.0164,2000.9853515625
75,-4475.831,5321.324,2132.492,2035.0511,-2040.0651,5375.621,13656.984375
76,5097.769,-16513.209,-16353.902,-3377.7153,15878.303,-10388.254,39723.453125
77,6313.3066,23934.27,25016.238,7050.2095,6295.666,-13448.026,33783.20703125
78,6134.5537,1898.6316,10654.057,465.37354,10231.7,1193.9945,19403.681640625
79,5400.478,16029.54,48107.727,-4077.5845,-722.6668,3828.3284,39728.62109375
80,8134.866,20012.637,30876.676,-618.29083,-4254.22,-1303.9137,21182.349609375
81,18338.129,25086.82,24362.8,-7101.6904,3683.2197,-4518.8135,17159.318359375
82,2612.8782,9287.694,-6017.562,3035.255,-57.47197,-4206.655,16043.0771484375
83,-23015.135,1049.4393,-3583.0776,-191.41795,1734.7377,8941.215,27167.2265625
84,13395.888,18060.121,39777.156,-4007.2905,2393.6125,610.26355,25713.00390625
85,-8503.766,-3217.1494,-18478.031,-7973.786,4976.995,-4058.6218,22240.431640625
86,4895.1475,6551.0166,5811.1743,-515.8794,-488.73874,376.2811,2000.98498535156
87,8384.342,18293.43,32414.646,642.181,-3096.5752,10189.35,27910.556640625
88,-18044.508,-1441.7667,-5065.886,5395.2173,6067.483,5251.6665,22563.755859375
89,1391.111,-82.69535,1417.0082,-355.31152,144.22151,-671.2826,2000.9853515625
90,21655.766,21345.936,20787.225,-202.40987,-611.68933,851.916,2000.98522949219
91,65379.44,64681.57,65578.375,-189.80183,-788.0073,-675.1724,2000.98547363281
92,107619.84,106679.69,107062.32,473.60632,190.75714,922.18176,2000.97436523438
93,93171.38,93938.35,94696.664,386.50153,-313.31216,-710.9666,2000.98608398438
94,71015.83,69217.37,69219.586,-251.52695,-426.2739,113.34198,2000.98498535156
95,-100142.59,-98767.43,-98944.67,-92.9187,854.1281,-192.05505,2000.97863769531
96,56185.562,55046.37,54978.812,-702.06525,-521.6283,330.86316,2000.66735839844
97,-1137048.6,-1137504.1,-1137855.8,-855.10345,662.24133,-33.78789,2001.00146484375
98,6088.256,5755.3926,6460.875,-4.1436954,1053.4995,315.12115,2000.30334472656
99,16425.508,16282.861,16116.025,-416.34222,-982.4539,-414.84595,2000.98522949219
100,-396589.66,-397973.53,-398049.12,-361.75748,-550.89044,474.48907,2000.97546386719
101,14189.634,19081.086,12189.41,5006.6074,11246.425,-586.86743,22212.361328125
102,-8950.737,2584.5356,-16550.525,4482.5264,-15208.182,-6182.5493,33871.84765625
103,-2590.7227,-762.64325,-10299.06,-3839.3794,1898.305,-13327.099,25782.158203125
104,6721.3086,-18218.273,-13481.135,-2103.656,5939.7427,14844.426,36145.1171875
105,11209.09,4710.6724,3945.0938,-6209.1606,1134.1686,402.58252,12953.642578125
106,-2990.3682,-2303.127,-2758.0544,-3216.2769,5390.4795,-6562.328,15740.52734375
107,-6136.1543,3302.1926,-20818.736,2282.1135,2011.6401,16437.754,35799.48828125
108,6869.353,6886.653,6530.833,188.2642,-1122.0139,6.192017,2000.9853515625
109,-4366.3564,-3664.129,-4014.3,690.26746,-855.9987,-46.511826,2000.9853515625
110,5810.7114,6171.408,3577.838,974.91425,-3520.345,1702.8855,7392.599609375
111,-1972.2317,-2283.0662,-2572.2239,202.14972,-1076.9004,209.83798,2000.98559570313
112,-21258.604,-12404.973,-24664.943,-345.69785,-10632.03,3080.9153,22093.05859375
113,116307.875,116531.086,116811.2,-592.3965,-957.6638,-54.687325,2000.98645019531
114,-1211820.8,-1212709.4,-1212698.1,944.30707,-401.3632,-148.02682,2000.98596191406
115,-682323.8,-680199.2,-681511.06,395.66898,135.79666,102.09996,2001.01538085938
116,29974.4,7096.384,23833.066,-10825.984,-2145.8682,11234.311,34127.22265625
117,-11702.457,-6882.1836,-8496.6,-10070.778,11027.404,-13607.016,35250.31640625
118,-7396.849,855.35675,-969.77924,-9984.083,11488.388,-357.30664,27417.99609375
119,5024.877,16177.972,27736.816,-2311.8347,3663.891,9392.286,26605.759765625
120,-5342.6064,-4674.0054,-5705.05,947.824,362.18628,-177.55054,2000.98559570313
121,3265.93,4227.0415,4422.5728,416.46817,-881.9832,3.007048,2000.98547363281
122,3379.8823,-2673.6658,-1151.7379,-2952.8037,-11415.946,9994.043,27322.517578125
123,4061.5222,-456.70938,2483.5615,-187.8496,-44.299313,-678.5981,4155.48095703125
124,19264.883,17696.76,20414.72,2498.2825,-2400.0642,663.15625,6550.47509765625
125,-835.2028,-28.405853,5474.953,3568.3743,2724.6526,1010.53345,9945.48046875
126,13844.273,-14147.17,22796.01,-1082.5049,5164.047,10669.622,39233.48828125
127,22186.033,19896.596,35548.523,-5492.3345,-1227.7072,6788.31,21157.8046875
128,-16732.82,-6079.729,-8009.4536,4048.4197,-6554.6133,-654.9992,16613.23828125
129,-11967.067,-15994.401,-16671.8,502.3704,-452.10312,9624.317,17281.759765625
130,-22568.246,-7175.0747,-2373.412,4291.4395,4185.8022,14797.519,33145.59375
131,-1307.7952,13899.224,6829.888,519.6695,653.80237,-1899.3345,13661.638671875
132,13526.565,-4412.367,24563.355,8221.496,3538.8835,-12369.434,36619.1640625
133,71308.09,72410.91,71684.28,1005.2092,95.734436,27.568802,2000.98974609375
134,13513.999,14387.406,14509.882,-1006.59656,31.400038,-159.6484,2000.98522949219
135,5506.5356,4154.4976,5885.179,-414.6745,-229.38358,-531.32184,2000.9853515625
136,41928.125,42188.64,42402.84,-1094.7698,-182.05907,214.59326,2000.67541503906
137,-219.06773,559.5328,-11.032232,-686.2545,-277.36963,790.1022,2000.98547363281
138,48013.082,48215.867,49912.34,-353.355,-3131.4756,-2510.516,7208.6220703125
139,-27086.56,-28675.172,-27913.514,1016.8643,394.45963,1146.0748,3066.45190429688
140,-1950.69,-1403.0929,-1961.02,113.72096,1101.1633,-85.31639,2000.98522949219
141,14962.757,22125.781,27596.059,-4695.05,10902.29,2256.0571,23630.41015625
142,-5066.69,4344.997,3294.7698,1126.9623,10010.94,5538.379,21823.982421875
143,-8305.624,-4013.6887,20119.645,2472.5105,-7147.4976,4882.046,30781.818359375
144,9853.559,11825.369,11362.56,80.27659,415.5583,303.80145,2000.98522949219
145,-189064.53,-188895.89,-189974.73,868.73096,254.94461,-422.08405,2000.98522949219
146,-1485734.1,-1485844.2,-1485805.1,-1012.6397,-518.935,162.25327,1993.11975097656
147,252791.47,252040.19,251756.8,997.9601,-217.12134,-72.93,2000.69848632813
148,335495.62,337657.16,336341.03,38.27066,77.258934,-375.09476,2000.98620605469
149,-2881194.8,-2879867.8,-2880316.8,-921.945,-103.89124,75.93313,1991.56530761719
150,4314.3506,9228.664,4931.175,-5352.3647,-3395.8677,-4526.6826,14265.7431640625
151,1692.1644,2416.8384,2045.5054,-945.9012,500.88815,240.23842,2000.9853515625
152,-14519.913,-1826.4957,18384.924,14655.636,-1963.2556,5720.6353,39752.7265625
153,9775.131,8851.294,6180.0103,5354.946,-8011.258,-2821.6367,17689.236328125
154,5805.201,1606.5007,-3626.7202,818.23346,8288.809,7701.7573,21285.232421875
155,4033.2856,-1890.5286,-6621.315,-4073.3264,-1034.2548,5093.342,14707.3994140625
156,9799.247,8358.481,7890.244,566.4715,-136.90868,71.57896,2000.98583984375
157,1697.3225,1597.2678,923.3692,-868.2795,-428.67526,-468.81076,2000.98547363281
158,7436.507,6256.418,7065.2207,936.4181,303.01764,42.951385,2000.9853515625
159,8886.454,6969.7017,34443.555,-2104.435,-9838.577,-218.76166,31774.962890625
160,3176.0667,2567.6165,2611.4468,-264.39062,-1069.1968,80.05361,2000.9853515625
161,1399.6917,-19512.46,6491.158,4817.7974,-5157.1694,3151.8323,27366.759765625
162,4933.167,4483.8457,4524.1987,433.5754,-1040.092,55.435055,2000.98547363281
163,6763.5625,5124.256,5871.501,-37.3711,-736.20966,-343.027,2000.98583984375
164,131812.31,132795.81,132158.6,-443.74185,-688.655,643.914,2000.98693847656
165,11315.034,3602.1519,-533.2902,13208.846,12648.396,-1953.9661,33515.77734375
166,-7038.0513,11687.815,17571.096,13616.489,-87.267105,5697.9336,33898.21484375
167,-10346.77,7945.172,20170.424,14904.751,730.46765,2712.246,37387.16015625
168,10602.829,3821.2114,23250.428,49.45747,9476.521,7337.9336,26882.705078125
169,5738.3667,12382.269,22512.742,7502.094,5780.0996,5711.1323,24103.896484375
170,-3137.1533,-342.38617,-3015.0386,5137.421,2041.6968,-3565.2402,11717.5947265625
171,-5066.6147,-2293.9673,1347.6134,-7141.902,3613.0425,-1378.9849,15130.5263671875
172,8453.173,4288.0806,-5676.191,9867.126,-2517.6836,6338.092,24284.72265625
173,-4993.3833,5923.818,14266.232,706.7325,-6687.0093,15762.862,34072.0859375
174,-11311.332,4096.8433,10018.919,6067.082,-6043.7144,15924.228,36667.1796875
175,5218.7417,10861.533,10658.579,-5167.4536,-2995.2527,1432.3464,11996.4267578125
176,8965.2705,271.28073,7035.1064,1161.5789,3325.5288,-12164.812,23317.4453125
177,-4142613.2,-4140720.2,-4140902.5,448.235,206.75055,15.902852,2000.85095214844
178,-468.6086,2837.7886,1852.4932,705.4398,-2901.716,2020.3344,6902.416015625
179,18615.793,-917.7617,5421.2017,7218.6353,-8607.929,-5994.982,28006.330078125
180,4319.7266,1056.8328,4621.2866,8296.279,-3333.747,-1753.0004,16148.2744140625
181,20714.287,33111.14,11997.821,-9072.249,14611.089,3499.8394,35522.26171875
182,50775.805,43528.32,39193.453,642.4405,4024.5364,1519.5719,12628.94140625
183,-17027.848,-13134.823,-22627.15,708.362,-11193.3955,16381.159,35365.4453125
184,-831041.56,-830918.7,-830959.94,1035.2634,488.5462,-142.44151,2000.98559570313
185,6281.198,-5244.7896,20816.957,2455.742,-17155.63,-2633.9004,37861.9453125
186,-11463.293,11374.844,13011.027,-5503.4424,-3799.1309,2103.0063,26628.1171875
187,-5329.4873,-4031.4468,-4451.971,588.2241,-166.98479,722.5825,2000.98559570313
188,8781.661,5871.5444,-13874.064,1492.8595,-5959.271,11205.455,30752.7421875
189,-1100755.6,-1101315.8,-1101287.1,699.4827,862.5965,13.651639,1999.78283691406
190,-2109601.5,-2110311.8,-2110115.2,44.463646,-1091.5997,-35.624775,1997.00073242188
191,-8621.745,118.04091,-7831.3774,7711.826,-5421.4062,-9954.6045,25178.861328125
192,-3792.128,-9958.6045,-2757.937,898.861,-13918.665,-3103.3008,25651.029296875
193,3163.9155,-23780.064,-10328.068,-562.89667,9785.852,8908.263,32722.998046875
194,10432.589,4902.972,12252.274,-4118.3438,18846.834,8225.045,36924.19140625
195,-549.5027,-26739.986,-12943.48,717.5192,10078.764,-5367.2266,30127.365234375
196,-6692.053,-18083.885,-25106.553,-3354.3665,-2081.6836,12934.192,28420.560546875
197,-3614.5122,770.82825,7255.4414,598.8061,-6608.338,6287.2656,18449.765625
198,8105.8657,6800.9126,-10526.09,3576.4258,1534.9889,8654.115,24385.671875
199,5453.0024,-5203.0522,6520.1304,3693.9983,12943.657,9044.731,30249.541015625
200,12692.377,4996.949,-10088.873,4796.7383,-2321.907,3158.4473,22760.068359375
201,2560.349,3325.7168,-19902.734,-7180.3643,-3470.1443,151.39723,26706.474609375
202,-1892.386,-18177.756,-16841.428,-3340.139,-11320.48,4265.045,26790.626953125
203,17560.926,-3909.0908,25518.365,-5636.992,-2805.2288,1008.4909,28585.22265625
204,1437.784,2749.4001,4170.8267,-545.6209,385.19583,10549.356,18461.044921875
205,-4472.5825,-10343.694,4468.1396,4603.892,8185.2153,15846.66,34421.34765625
206,6125.9365,8242.4795,14247.3955,-5576.589,-285.66223,2948.92,13148.2568359375
207,-2968.5515,5066.779,-4414.0537,1760.0841,6380.3193,11701.597,24909.28125
208,13852.89,-8673.417,2573.3845,2863.342,-1365.0455,-3979.9688,21407.541015625
209,-5945.453,-3602.5796,13122.926,13118.551,1535.2087,-1761.2888,29275.986328125
210,7334.1143,-9826.382,11005.414,1006.88135,12350.397,6800.0327,31149.994140625
211,8550.688,3439.8992,11838.217,4267.4443,-6291.0923,154.07407,15072.0888671875
212,-374.26868,-7018.3433,20416.695,14858.939,-6318.092,-6648.8716,39106.08984375
213,-10727.331,-15516.107,-13684.763,11906.063,-3610.6025,8672.957,26599.796875
214,8441.69,-7426.8765,-14784.166,14499.636,2163.2583,7482.0293,35148.12109375
215,-1505.1929,12049.699,-11587.725,8373.04,-7452.0063,2733.8953,28660.1328125
216,19711.639,25657.988,46568.37,1423.9585,2679.0723,9014.4375,29467.595703125
217,8596.508,9639.722,8941.478,-923.14966,-440.43423,77.36712,2000.98522949219
218,10618.7295,9459.19,11516.238,88.27899,98.831154,503.4909,2000.98486328125
219,2437.7786,13472.071,14950.905,-5088.526,-583.0995,-9661.214,22337.791015625
220,2805.8225,1846.1189,3874.4714,60.088387,132.26231,532.9175,2000.98547363281
221,12474.328,12189.796,12557.491,860.2462,-233.00471,709.3333,2000.98547363281
222,906.3301,2893.3638,1702.016,569.1534,-80.336205,-64.31725,2000.98547363281
223,2225.8704,3155.278,3013.7625,699.42145,515.45825,-573.5795,2000.98547363281
224,10346.481,34651.484,-2847.9814,609.66895,-2258.1257,-9991.739,37435.75
225,9042.931,11105.806,9682.285,394.3338,237.70673,-86.821335,2000.98559570313
226,11754.636,10582.394,11140.958,-868.06683,43.612907,-485.15134,2000.95349121094
227,-4739.9937,-5548.3374,-5729.926,887.955,18.437542,517.8005,2000.98571777344
228,33433.246,32673.473,33736.297,864.0885,-498.9225,-198.22371,2000.98498535156
229,45686.86,47235.6,45868.164,-238.8056,298.02512,-686.9543,2000.98461914063
230,-466136.4,-464214.6,-464575.78,-392.87924,3.9363134,368.916,2000.27258300781
231,141168.66,139272.42,139351.27,25.380764,-426.3776,37.439804,2000.986328125
232,-2109415.8,-2110725.5,-2110936.0,-599.4884,-463.36685,286.4339,2000.96887207031
233,-1996448.6,-1996609.6,-1995569.9,930.97687,204.96353,-334.15826,2000.19262695313
234,15919.748,16849.912,17399.287,857.84564,-144.15909,-129.46892,1999.58911132813
235,-310207.16,-311063.84,-310982.94,952.72876,390.93796,-224.49542,2000.97888183594
236,169861.67,168058.73,168092.83,-497.2564,-128.3528,86.62208,2001.00036621094
237,73651.305,71982.44,73487.69,-623.3129,203.98697,241.31978,2000.98168945313
238,39650.816,37813.68,37777.773,396.70654,-29.57329,-39.232292,1980.32690429688
239,73037.05,74937.24,74919.44,356.09256,99.35125,74.59464,2000.98413085938
240,7214.7227,7782.4775,6885.1377,-1047.3494,-136.11418,-106.60241,1999.64782714844
241,40245.195,39366.49,40061.707,-592.6435,-233.01709,-209.30098,1411.57788085938
242,277315.56,275467.12,275301.22,286.94522,-27.787489,35.352516,2000.99780273438
243,35532.258,34259.383,35344.934,-1481.672,239.31703,-1389.1797,3736.86987304688
244,14593.686,14506.955,15397.155,-2967.2786,1284.4271,-797.7807,5830.576171875
245,-6531.426,-30122.336,-11444.563,-5922.1626,-1337.6871,-5772.6343,25986.89453125
246,-16051.815,-34293.336,-12920.826,-3554.5813,853.9961,-4340.646,22277.498046875
247,13491.754,5714.966,13478.535,9396.968,-4034.0283,4827.659,21071.873046875
248,1329.0602,-4182.7734,10957.647,-8746.095,-1016.86847,-9403.262,25961.697265625
249,5807.0303,18836.201,25858.47,-6445.985,4684.5547,10489.396,28829.421875
250,8522.175,9311.235,-186.91425,-1350.3413,9870.988,5278.688,21557.271484375
251,5240.6304,-1187.4152,361.67328,-3411.8364,9207.194,-1419.8176,18139.697265625
252,11370.357,8095.545,9982.915,-10268.279,10691.859,-2051.3057,26076.609375
253,8307.009,10399.295,10691.648,3499.8438,9537.292,-5073.1753,19796.78515625
254,-4434.4614,6821.1196,14630.809,1286.3105,2752.9175,8694.107,23022.68359375
255,7930.5776,18876.148,6447.6978,12314.349,10475.145,-7382.65,32952.4140625
256,4934.413,15342.023,17369.156,1051.992,2467.3174,4212.8228,14434.3994140625
257,56.407562,1228.2896,335.51468,725.6228,455.18237,-475.6248,2000.9853515625
258,1534.5178,11230.29,17274.684,5378.7476,5183.919,-5554.0513,21192.02734375
259,971.629,-580.0083,-74.37982,-825.65704,-148.78232,67.62392,2000.9853515625
260,12603.8955,11232.678,11921.691,22.879728,-441.74527,-666.9843,1825.31677246094
261,-13184.131,17273.523,6570.7124,8723.117,-11167.504,888.7497,36345.890625
262,-23758.135,-12795.278,-9749.681,9628.393,189.32045,15630.526,34263.8828125
263,4356.7563,-18070.057,20005.078,1023.7072,7648.0264,7268.524,37893.12890625
264,20861.549,15556.23,-10351.66,5897.1943,7160.368,8829.256,36453.05859375
265,-7852.335,8326.365,4751.6006,-11233.695,6044.36,-3131.2751,27097.9609375
266,24392.477,9119.401,14976.202,6453.5337,12812.38,10787.428,33832.51171875
267,23569.068,1348.6968,32609.719,2848.4763,-7649.4263,8177.38,34305.3359375
268,27273.783,-6150.8594,12413.906,468.2229,-815.462,6724.3984,31299.23046875
269,2565.5303,-167.15674,12145.102,10462.343,-488.61646,17576.574,37166.109375
270,13293.833,-4595.7866,-3248.1707,4025.6863,-10086.808,2704.5999,25952.65625
271,-11280.169,-1413.6506,728.76514,15951.045,7144.019,4266.511,33077.24609375
272,-14897.882,5754.06,14092.708,94.845764,2466.909,-1320.3916,26301.314453125
273,-76.62337,9624.25,3359.9053,5272.3745,-15816.152,10709.239,35362.25
274,-3622.5938,-7141.578,-19890.426,-2287.449,7041.7017,347.981,19611.134765625
275,-16400.29,10532.786,16132.537,5280.5015,4513.3955,-6984.9272,34622.20703125
276,-18826.102,5150.108,10693.71,2556.8342,345.11868,2187.6946,27799.861328125
277,-11511.328,-10303.49,-11199.543,238.21584,182.00972,-148.03722,1230.79833984375
278,8196.271,4444.5806,5017.412,-564.9416,-291.791,-1066.5192,4108.4697265625
279,28016.877,7008.387,18941.63,-9139.683,783.18317,16697.107,37707.83984375
280,2637.8691,1994.8054,7712.2285,-5970.9194,7768.1987,-8171.464,22753.783203125
281,10433.978,-3439.3115,10270.198,15736.462,9151.74,4578.101,35316.73046875
282,-4646.123,5169.494,3094.0945,-3240.67,2787.8665,-1331.8588,11850.1591796875
283,-5116997.5,-5116087.0,-5115711.0,479.40378,781.2169,221.67548,1995.12854003906
284,-60725596.0,-60727096.0,-60726012.0,-672.4688,-317.15173,-426.3245,2000.67993164063
285,79696.445,78612.12,78661.305,972.6445,83.66488,-81.60284,2000.98474121094
286,5993.896,-13467.409,10994.794,-8974.972,9503.103,-5796.9473,33383.625
287,-77026.055,-72340.19,-70708.67,-145.98933,2266.227,5744.372,12113.173828125
288,113796.61,114357.31,113114.695,-824.93115,376.01584,354.25955,2000.98559570313
289,16041.202,-7381.948,-5653.93,-1344.5565,-2531.4253,4030.7454,24177.322265625
290,323.58313,-2288.5076,-2700.028,-6317.743,17426.832,5639.3975,33679.3828125
291,-18696.816,5746.5947,-31844.018,2259.8,-2205.7434,-11966.948,39385.67578125
292,7083.0176,-8586.441,-3055.3887,-9355.741,-4076.162,-15402.6,34836.921875
293,28443.955,-2590.8657,11731.766,-2718.2095,8604.347,6274.788,32957.34765625
294,11936.387,-3166.9895,25557.695,-2041.43,-12796.779,11280.391,38792.99609375
295,-155.2313,574.22986,3146.1047,1541.6691,-3634.9292,12304.354,22582.791015625
296,1628.7891,10720.68,1016.22217,-382.17325,-4385.182,-732.4669,12179.666015625
297,-22350.324,-21948.87,-22055.018,1076.7499,59.180923,358.4423,2000.98486328125
298,17684.709,2810.8655,-1019.04004,10789.958,8719.987,4689.679,30597.845703125
299,15981.119,19570.033,22668.605,5406.984,2515.6096,1790.5725,12243.8447265625
300,6969.632,16071.143,-18090.941,11072.653,8104.6533,1635.8451,38882.56640625
301,-9277.762,-8157.191,-7804.821,-130.9737,-238.73502,817.88293,2000.9853515625
302,-27313.586,9706.428,-9086.57,403.49847,1616.7552,4419.792,33088.89453125
303,-16733.164,-16203.292,-14511.67,-559.85956,-547.46655,-206.82582,2450.818359375
304,-105062.2,-104475.34,-104428.74,280.60226,370.6356,-996.93634,2000.9736328125
305,26970.41,8003.9683,8238.285,8114.0903,-5779.0073,-704.7888,25583.841796875
306,-5797.0615,-5890.7485,-8364.341,7064.335,10069.288,-4117.396,22607.61328125
307,3712.8052,10705.769,6129.922,1575.5931,-4027.201,11466.603,22099.607421875
308,-168.2338,10684.432,19775.953,4091.055,-2457.3906,-8234.161,23892.1328125
309,20969.512,32735.865,34359.383,4584.253,-2968.2407,3103.5518,16690.09765625
310,109737.336,108339.125,108864.69,-165.10893,-852.47723,286.1588,2000.9892578125
311,-14850.218,-1730.0634,11779.651,7763.255,-10376.331,2515.4563,32476.0234375
312,40819.496,39169.65,38879.12,-11.9175205,484.67993,-65.91854,2000.98352050781
313,-18797.703,-2870.2568,-12020.676,15831.239,2388.931,-8519.619,34328.23828125
314,-22784.094,-5862.1865,5393.2656,-6461.8506,-2930.3237,-2356.2144,27770.1640625
315,18557.227,-7809.7363,4370.9575,-10050.684,1995.1857,4319.23,29889.40234375
316,-2427.4343,13711.28,-10035.147,3654.1682,-4392.8813,-5429.574,25050.0703125
317,13305.65,13840.834,15012.257,130.21057,-741.15125,80.8,2000.98608398438
318,-2748.5315,5126.8535,5623.3193,7992.578,-3994.685,-12258.84,27505.125
319,7403.4404,5029.5776,9210.885,1678.4366,-5471.2446,-6571.0054,15523.595703125
320,11482.925,2827.8215,-2472.0676,-4043.597,5112.1187,797.30096,16680.259765625
321,25050.756,19074.82,45936.387,5714.6987,5259.105,-4248.0,28841.236328125
322,14100.392,2312.4824,15270.277,-10632.877,-13536.627,2.4800346,32295.650390625
323,2388.536,3063.3577,-447.2119,-2444.4646,-19349.312,4674.532,34886.6484375
324,2382.9648,11902.294,12647.398,-8040.214,-8407.352,1665.7233,22640.12890625
325,-4477.3843,29868.295,-1439.2179,-3302.1245,1936.8287,1278.8156,33665.71484375
326,-28362.97,-12442.186,-24167.201,11810.317,4144.7163,-4974.73,27358.84765625
327,32244.77,25677.328,29265.74,-5215.7656,18907.861,7763.34,36978.15625
328,1685.3423,5499.467,4703.8564,563.44934,-1370.9059,192.51222,4341.39892578125
329,-538.8814,7999.104,4661.962,3356.9412,-3469.7651,7855.438,17623.560546875
330,8796.82,15254.049,15181.98,-401.7213,2124.5168,-1372.1069,7804.39111328125
331,44528.914,46293.227,46372.266,265.36353,391.8074,-156.59651,2000.96362304688
332,6361.937,6955.597,6504.599,538.42194,-427.0084,875.4326,2000.98522949219
333,171078.88,169376.34,169417.11,519.07166,348.07318,-10.506307,2000.74291992188
334,19471.51,22203.992,38492.906,-7846.4033,-2591.9873,2026.0074,23118.646484375
335,-1394.3315,1490.4219,-17616.691,15223.068,10585.956,-2986.039,37100.48828125
336,-1680.8035,6435.149,23827.39,4905.694,6678.019,-7719.786,29904.580078125
337,3454.3074,-3577.1887,1091.4093,265.05807,7096.6953,3149.0588,14814.1904296875
338,3811.204,5788.008,5694.187,217.21892,-71.71396,-196.52881,2000.98510742188
339,-11845.874,-16249.446,9194.79,-1220.6825,14902.309,5231.3433,36160.234375
340,13052.428,3149.2837,-8663.291,6308.4473,3241.4434,14667.979,33925.65234375
341,12790.721,-11341.803,3649.934,-11545.399,-4784.31,8293.941,33470.41015625
342,-12344.415,6560.9346,5636.3066,3994.2988,-3109.054,-6594.59,23411.845703125
343,-7533.8975,-5502.4604,-7365.262,-167.68849,182.05234,-38.755184,2000.22399902344
344,-280087.88,-279643.72,-278795.34,654.8103,90.18948,-682.9764,2000.98181152344
345,-1855324.8,-1854798.6,-1854546.2,928.0454,488.7818,-277.00848,2001.00244140625
346,14537.73,14200.955,14156.624,517.0873,1009.1571,-56.688877,1999.32116699219
347,-4556.742,-3710.253,-4260.836,3296.7341,-8943.31,4583.7,18334.07421875
348,37396.1,35586.125,35404.344,344.5479,-12.407549,55.564613,2000.98559570313
349,16644.408,5900.2983,-3585.2183,-8356.771,5314.4517,4871.7437,25937.677734375
350,125262.9,127099.49,127016.94,-255.97243,427.29025,102.31242,2000.99291992188
351,-854037.6,-854451.1,-855790.9,-472.71313,89.41788,-511.95087,2000.13488769531
352,1954.1354,-15829.592,7409.153,7346.0874,6744.4214,-7410.115,30101.740234375
353,-3731.9836,-2955.9543,-4360.537,-780.8959,346.12256,331.69708,2000.98559570313
354,-7960.646,8592.446,-12654.593,2139.9932,5544.2686,9225.576,27111.373046875
355,271525.25,273171.25,273194.75,478.8276,417.4339,122.251884,2000.99145507813
356,-21166.07,9316.711,3047.0579,3042.4722,-4276.968,-3250.096,29861.82421875
357,-18777.645,9706.621,-3536.4377,-764.01996,-6301.5674,-9257.133,31424.1484375
358,-108.24877,-722.38043,6487.344,-983.02893,5762.6855,15463.888,29459.2890625
359,-13715.317,-10432.295,-33916.86,-4782.05,1190.6816,3545.6853,24408.51171875
360,-3424.5632,356.04602,4339.4565,3553.3186,5615.939,2057.5718,13799.1162109375
361,-20867.375,-27593.98,-16081.153,-1477.1505,1920.1074,-2566.7886,11735.4912109375
362,6283.454,-608.97656,5304.712,-5990.4453,2716.9417,-769.7407,13164.22265625
363,11122.161,20154.914,31072.848,-441.14264,-1055.2327,6992.059,21213.248046875
364,600.89404,-4211.392,-8435.703,3146.3347,-2358.4832,1473.9481,10688.0615234375
365,-6671.4473,3789.7573,29082.746,2449.268,-5654.5054,-6962.383,35680.6484375
366,-31400.293,-35544.375,-53816.168,16299.007,-5185.5444,5538.081,37368.50390625
367,-653.2318,3664.439,240.27167,2919.691,241.4122,724.5926,6550.3056640625
368,18906.904,23051.031,7874.532,-4573.21,314.8754,-2344.2998,16252.19921875
369,14124.785,9560.466,7605.9688,122.12818,3134.4736,3117.8794,9605.0537109375
370,-818.8324,-4981.758,-1868.9935,-2219.2783,566.4455,1399.2073,5972.65087890625
371,-3787.7107,-8418.144,3979.053,-366.0644,-636.23035,-3380.2048,12394.3828125
372,4149.92,3584.689,-3320.6553,-1873.7035,1668.7675,1193.3898,8664.0380859375
373,-8574.492,-6752.458,-10526.801,1267.5575,1593.7865,-1942.6775,5869.50146484375
374,-4840.195,-2322.6716,690.85156,-835.987,-317.22144,798.2105,5226.451171875
375,-77.08887,-1944.2363,-1458.803,-95.7164,1895.8909,-505.86588,3793.9296875
376,3175.4492,-4412.6895,4475.9375,-220.39696,200.16878,-1180.6875,8578.3095703125
377,5083.3096,-9328.505,-13026.297,-2858.719,1489.4235,7827.4385,22127.908203125
378,-20774.457,-9003.381,-17866.324,-834.8702,3426.9353,2570.73,13035.806640625
379,5399.3994,10542.342,13978.066,1069.5416,1944.9808,-1297.9644,8703.9384765625
380,30.385742,434.76782,5950.834,19.484526,312.6337,1512.6176,6322.9345703125
381,1125.6598,7782.3413,-2404.829,345.57742,-5344.9297,3840.6553,14511.791015625
382,-8247.856,5223.5596,-37441.035,1067.5665,-712.22546,2208.6997,38033.80078125
383,-587430.4,-587470.6,-583940.44,1641.1343,4580.517,447.31577,9162.1728515625
384,2809.0981,2445.83,2634.4985,-226.46817,-1085.8561,266.96283,2000.98559570313
385,134929.53,148883.14,171033.67,5130.0225,5751.962,4412.597,35086.3046875
386,-30293.092,-46773.332,-25788.162,-10148.495,5544.4346,-602.8499,27720.451171875
387,289.7462,1298.1553,-2418.8647,-3615.1663,182.13089,-547.8146,7161.90966796875
388,18958.934,22994.777,35618.93,-18953.053,-1384.1886,-3237.4373,36625.8359375
389,-22048.637,-33709.812,-45913.305,8178.0293,-2398.546,-5808.0347,27318.759765625
390,-11292.795,4115.6553,27110.27,-2270.4204,3037.5005,2023.1624,34291.50390625
391,2148.9785,1000.9365,-22971.088,1586.5809,1152.4612,704.87286,24829.89453125
392,4153.328,-11465.322,-8479.546,2816.5215,-1821.8999,2778.4507,16221.560546875
393,-324.82544,921.6024,-1911.4976,2.09576,-1301.7438,-312.4692,3380.1357421875
394,1841.7385,-7206.2246,4243.484,-3108.0325,-3107.055,384.89255,12951.845703125
395,13849.889,-5803.5093,-3087.4937,-2197.223,942.2818,855.389,18963.015625
396,1608.249,8925.13,-3052.7676,-4088.5833,-2290.005,-2420.6128,13886.177734375
397,-7185.5566,-6699.783,-2988.9075,740.1419,2215.3596,-671.72406,5790.4873046875
398,115338.65,125018.734,155065.45,2969.998,340.64386,1891.7736,36399.33203125
399,195884.2,182606.58,226585.36,-709.53687,-639.50525,1182.466,39158.9921875
400,25623.912,25688.719,26533.82,-217.50601,743.01544,-691.04596,2000.98498535156
401,452.0808,-11441.145,7266.292,5420.9966,-4873.695,-1146.4272,20791.546875
402,-5870.152,-5517.167,-344.2832,-1245.4479,1925.1595,6807.768,13546.9013671875
403,73675.33,47846.707,84745.875,6021.96,781.78174,115.082344,34442.37109375
404,-15692.199,-15859.39,-26913.01,535.01666,-452.12747,-1936.1766,11695.1640625
405,-3622.5605,-4432.9336,-6507.677,9732.514,2158.8896,-3256.1814,18346.625
406,2373.9663,4935.8135,18416.297,6528.311,293.0384,-913.2575,18799.9375
407,7340.5396,7012.2593,2685.8757,-3405.961,936.9879,2978.8457,9181.59765625
408,-19447.621,-25603.525,-49080.31,-7318.547,2670.8699,-2211.387,30501.3125
409,-6621.7676,-4745.74,-2352.9546,-1213.9114,637.42975,-1104.4438,4799.26171875
410,5577.078,16423.855,-2534.122,-8943.36,4141.188,3918.8481,24675.818359375
411,13425.094,5120.7246,6443.849,517.8676,2795.1926,1254.0151,9417.37890625
412,11281.231,12117.565,2684.8984,-3918.5925,1679.3284,-5919.739,15538.412109375
413,7349.4297,10610.3,7464.0625,480.02835,-1599.7866,1908.4882,5437.72265625
414,-24966.035,-10228.481,-34177.992,-9254.805,2676.8665,8015.8965,30150.162109375
415,-1098.4346,-3926.5042,-15165.494,4364.4434,146.87071,-2573.602,15594.1533203125
416,-33110.656,-26110.809,-62813.07,-10293.516,-3104.4668,-3426.119,39001.80859375
417,14780.632,14677.671,-503.52933,-5104.4336,2255.3582,-8270.809,23036.642578125
418,-7998.312,-11485.394,-9560.858,2524.687,1252.7059,-1009.65466,6003.39208984375
419,96154.05,104102.55,127833.59,-884.27155,2566.5872,-1179.3319,29004.2734375
420,10683.628,10184.694,10550.345,327.37927,-1070.6094,120.55238,2000.98547363281
421,-20324.496,-5614.4985,-14720.623,-2628.754,4184.0977,6940.435,19573.30859375
422,3043.954,5384.229,1097.3718,2317.9426,-552.53955,1637.9178,6237.33935546875
423,2780.6294,13509.076,12963.931,2825.2578,2328.9604,253.24652,12245.775390625
424,3061.37,4719.453,12093.8125,3515.9543,1131.046,532.0212,10541.8427734375
425,-16545.639,-4992.004,-19954.232,-2746.2014,13773.042,444.8938,27871.048828125
426,17818.398,4636.2305,-1045.898,287.55377,-935.315,-539.114,16873.154296875
427,3991.1226,13547.36,12810.219,1972.6039,2545.5894,2438.9648,11566.330078125
428,-5585.5176,5130.543,8245.762,226.1538,865.83673,-570.89276,12700.4580078125
429,-534379.4,-534906.4,-533927.2,111.81077,916.54047,-491.86746,2000.9873046875
430,13762.39,18497.41,-2288.167,-72.13271,2221.4534,-3877.3494,20395.150390625
431,-19196.006,-14380.878,-13017.725,2739.999,-3501.41,1250.746,9777.673828125
432,-26039.525,-26493.502,-26263.207,-17.80708,554.07574,-926.0315,1910.27124023438
433,18832.25,12361.404,51640.605,5777.0806,777.05133,654.02264,37865.23828125
434,-10367.59,-2193.774,-9125.152,4402.647,-3402.1462,1312.9076,12499.7734375
435,-8471.458,-2950.3533,-4146.5894,9561.969,2911.1924,-786.3724,18079.908203125
436,2909.6753,-1834.9305,-2002.8265,-3425.3042,-3934.0308,686.704,10314.00390625
437,112.79126,5650.5303,2202.6177,-5561.842,-3400.307,-6405.282,16553.92578125
438,-25533.02,-13977.615,11585.703,12299.3545,920.8017,-3218.8506,39621.3828125
439,-9726.344,19423.455,20509.93,-3624.898,1061.4276,1451.5011,30523.462890625
440,-6522.7705,-5158.99,-13222.727,-2077.0417,852.003,-1605.109,8873.31640625
441,12994.017,770.4844,18430.57,14492.913,5260.703,-885.46686,30998.958984375
442,4491.666,-4442.594,6156.936,-522.3311,833.97406,-2240.2153,10743.9658203125
443,5846.86,4458.7607,6986.742,1916.838,-812.4225,-1033.6279,4584.373046875
444,64458.152,67163.37,91784.94,-3004.8447,-1335.2352,-222.5252,26697.021484375
445,790.53516,11001.265,9440.246,1515.8174,1843.7009,973.9555,10521.083984375
446,5713.0913,-1385.8276,3022.844,-8058.908,-1943.3773,537.3159,15670.6259765625
447,-9576.362,14971.06,8060.4287,-3920.4949,4387.7095,5601.389,26051.642578125
448,-5980.3027,-6766.579,-18563.555,-4144.7505,-2080.8796,-2863.457,15433.3330078125
449,-6763.9854,-6309.641,15897.419,10761.633,-9415.119,-3109.8386,33850.1796875
450,-8786.7295,-10908.577,-8240.132,-4234.4966,4581.818,1321.8204,11312.5810546875
451,-11259.368,-2495.9595,-838.35693,4989.908,-2983.9321,1085.7007,14107.3232421875
452,-9292.671,-8288.524,-10082.18,3236.4333,-100.06854,3722.9587,8686.7265625
453,33923.477,39702.016,72273.695,-4256.904,1614.9812,-204.4962,36672.0078125
454,-10561.026,-6665.4116,-6113.3296,4167.0874,2634.0007,2031.216,10144.7802734375
455,11869.436,16155.951,23526.602,3640.5942,-3197.4766,-368.71396,13233.9072265625
456,1508.1831,872.41504,-2095.5613,5835.7886,47.200283,-1994.8977,11189.943359375
457,-50077.496,-27465.836,-61802.387,12567.104,540.4844,3272.723,37691.96484375
458,3397.72,4944.6133,5941.057,134.08777,17.010448,1191.5889,3040.00512695313
459,-170.09387,3529.9683,-7011.066,-1448.3412,-4209.662,2805.0725,12994.75
460,11740.497,6734.056,-3661.0244,1180.4072,-2131.9463,108.96638,14248.361328125
461,9570.543,9443.049,31152.473,2653.1804,2341.5374,6983.949,25542.91796875
462,-3201.5417,-1317.543,-2591.3154,-1277.6416,-2993.711,-1372.7836,6341.11865234375
463,-5590.6655,-457.67334,-8445.053,-3041.2593,4012.966,-833.4227,11282.2841796875
464,-681.9839,11699.008,394.31274,-1800.9712,35.311863,-2908.961,13275.6220703125
465,-3152.0679,-13462.585,-13166.835,2857.906,-2660.184,-310.70673,12221.5849609375
466,2708.9053,-4274.142,-5338.0005,-3489.2925,4195.1436,3635.7256,13649.263671875
467,-1899.1719,2344.6921,-939.12354,3425.3901,-715.8955,-5092.9346,11375.8125
468,10679.311,10525.867,6803.9707,2195.4116,-957.38055,2701.0933,7317.3837890625
469,-6203.699,-3413.8696,-1989.9574,1656.8257,-2037.5369,80.748245,5873.03955078125
470,-4658.254,5821.145,-102.569275,4817.0967,-861.90533,815.4496,12516.708984375
471,655.2155,683.08813,2940.1777,-4308.4756,-1061.48,2470.835,9085.2802734375
472,12227.1875,7876.015,4000.2227,-5354.7485,152.51894,6272.2466,15966.5810546875
473,43058.62,20127.18,46038.445,14873.877,-3885.3574,-8319.57,38983.23046875
474,13097.914,-1270.8152,-16759.078,-15716.124,3658.2715,1954.9119,38229.52734375
475,988.4121,5831.525,16762.045,4581.8823,-3564.8418,154.3046,17235.03515625
476,-6270.9937,-7879.4565,-14995.8,-994.9179,-1322.9594,1281.897,8821.8984375
477,-8378.572,62.88826,9065.328,5211.2812,460.3029,3221.108,18480.544921875
478,-7298.0664,7335.089,-19020.646,1408.0449,259.44925,1335.8359,23121.19140625
479,-5901.719,-14432.141,4154.0605,-427.79825,-5303.606,-8148.4673,23319.373046875
480,15941.553,3853.1475,11511.317,-3121.35,-1206.2944,2217.9246,12670.9716796875
481,-6791.033,-3880.3755,-1292.4424,619.0768,-136.35577,812.31866,5087.931640625
482,9900.133,8013.04,13397.675,1896.2439,3115.6616,1197.5543,8161.236328125
483,-486.1754,-232.40222,6374.157,1674.2412,-1750.3695,682.02936,8023.94677734375
484,-13799.306,-440.73633,-8858.216,1132.7441,731.99945,1019.4238,12059.615234375
485,9738.164,20502.09,4626.3735,-2273.5667,-305.24564,3097.5544,15543.0634765625
486,7839.2964,10498.476,7767.907,1529.6893,117.753746,-2587.8835,5866.77392578125
487,-420.87482,1304.6375,2090.4954,-1456.9088,-3097.9253,4592.691,10168.017578125
488,-7892.2324,-6677.722,-652.9795,1136.1403,-808.20984,1505.0813,7597.20556640625
489,-11842.679,-4508.3604,-3.885254,2731.7996,-3599.214,346.8348,12989.68359375
490,-7086.5107,3484.9756,-17651.908,5705.761,3587.7957,-3884.5063,22729.455078125
491,17672.785,18814.258,21512.125,-1370.0111,3750.1238,-2627.0605,8954.685546875
492,-10257.29,-8486.49,-20280.775,1891.3024,-3066.8381,-1823.9894,13049.2890625
493,312.41382,-1939.1428,-2309.3516,-1022.47125,2461.596,3863.5273,8493.2529296875
494,-6451.0,-3724.2734,-2148.9998,-859.3075,3341.002,-764.5749,7188.0244140625
495,-5916.571,3741.9526,-4106.5454,-203.18744,-4665.5776,2656.1663,12871.419921875
496,546.0797,-3115.123,948.25037,1997.9354,-1216.1459,-304.39685,5632.833984375
497,-20789.098,1700.2295,-5408.9404,-1309.0219,-268.44385,1209.9622,20153.87109375
498,-5321.2085,700.16113,-2058.9895,1586.9402,-3363.5347,421.52966,8323.71484375
499,8293.121,14225.38,-1116.3618,-5352.238,1313.7273,-397.8772,16466.373046875
500,-682.0554,3568.4033,4152.758,2413.7812,-1946.4805,-301.57385,7071.76513671875
501,1030.4607,-2794.7383,-7571.7656,1612.2523,-2879.7576,3041.9065,10777.841796875
502,2383.9795,15956.633,964.99365,-202.57872,557.21716,1381.4945,14569.48828125
503,-2605.4524,756.49805,-15759.085,980.4133,-2089.2073,1058.4148,15744.2470703125
504,-8084.0977,-8575.239,-5280.9688,594.0895,1140.4518,-425.8656,3870.4375
505,7810.811,-13290.152,23139.59,-5650.655,-5334.1904,-8303.614,37305.15625
506,-3401.5525,5756.04,-4496.1636,-3257.5183,-729.5456,1151.5337,11510.5498046875
507,-288.71143,4493.991,2402.9036,-107.82653,1856.5957,2162.877,6454.12060546875
508,-7870.901,-2415.7864,-936.36304,3011.7156,-2631.2756,1406.1558,9691.818359375
509,11838.543,8517.33,3329.729,-4748.9824,3356.847,-3197.6606,13686.111328125
510,5612.588,8159.5957,8918.987,-354.22464,1629.1339,977.41437,4494.74951171875
511,-34711.535,-23707.781,-27323.021,312.7281,3080.1978,-6871.2773,16271.7841796875
512,-982.802,5306.842,2080.314,-1373.8308,545.782,-1974.2645,6922.81884765625
513,3586.4836,-1451.8423,5886.78,164.43288,1422.3707,-520.6645,7016.37646484375
514,-215.54135,-1759.7462,604.1836,-3574.4272,1375.2195,2532.8813,8220.2236328125
515,-3960.0225,-2681.1,381.5276,4232.031,-234.56905,-589.80383,8358.89453125
516,-1877.3899,-745.9269,-2441.8984,-1133.6295,-2577.2468,-441.14404,5157.845703125
517,13253.057,14892.462,3054.5352,-8223.973,-6678.022,-1570.6868,21621.916015625
518,1611.9001,-3885.5835,-7624.701,-2190.1936,621.35284,-207.36359,8968.67578125
519,-6306.904,-16102.148,-18395.867,-181.07301,934.16986,-3401.5088,12692.623046875
520,1349.6069,2976.1042,2932.826,334.05154,1011.9696,478.1349,2582.60180664063
521,1654.634,-633.13794,5219.802,-3702.021,207.81306,-1988.7941,8900.0537109375
522,-397.3208,10620.827,-2067.7664,123.806496,1223.0818,-2281.1296,12756.943359375
523,-7448.344,-3544.6145,708.27124,-770.5985,-3322.6504,2820.9773,10426.0966796875
524,13299.096,19734.428,27373.94,2540.5537,3204.3635,-1135.891,14246.9736328125
525,-3218.5078,-4141.4214,-6641.079,2986.0325,925.9564,66.09308,6224.265625
526,3328.8882,5117.513,3323.62,-1210.9446,741.3654,-2528.666,5332.83349609375
527,-2958.6833,6705.726,4789.225,-1676.3248,2395.8079,-1623.3406,10588.083984375
528,-5551.602,-2763.4805,-5270.315,529.3369,-3221.2595,962.81555,6466.81201171875
529,-14832.435,-6150.256,-24145.014,-3622.9568,8387.791,318.60443,22219.47265625
530,1850.6913,2383.518,5904.176,-1233.5046,330.64743,2478.6318,6154.53271484375
531,-5044.7725,-449.03674,-1483.9482,3320.9695,6443.7583,2297.938,13817.734375
532,-10963.364,-3136.8926,-7736.3906,1635.4347,-1686.7126,2324.873,8898.6083984375
533,-8691.852,-2345.8896,-32512.44,-5571.899,-2810.6892,2052.1492,29804.8359375
534,-20834.75,-279.34277,-1277.647,-140.35733,1418.351,-848.3504,20279.40234375
535,-8217.12,-5220.807,-4130.2305,514.7027,-505.39835,-3440.9697,7107.51806640625
536,240.17896,2682.0952,5110.4253,1140.3367,-632.73157,918.4145,5042.0361328125
537,-2627.3784,-4886.7974,-425.23193,993.7848,656.52,1037.1401,4734.2216796875
538,-6321.1895,1429.148,-3806.9614,217.62653,193.03282,677.8872,6966.73681640625
539,-472.815,1519.8969,1519.2006,3627.5745,661.8368,-990.77045,6906.9794921875
540,3838.499,996.50586,4866.2075,255.10103,-334.58484,1487.7058,4384.60107421875
541,12133.228,13944.068,11764.138,-483.80685,807.21954,1564.7222,3753.10791015625
542,-1211.969,3881.746,1310.825,1728.8583,-142.0998,-2584.2378,6965.7958984375
543,13460.148,-4418.533,17354.74,2129.0842,706.7217,2908.5225,21093.154296875
544,195.21973,3080.7954,3664.795,-961.74304,-1694.3773,-530.9629,4752.4873046875
545,7794.6436,-4075.4165,10220.856,4905.93,686.08075,-888.46765,15860.9208984375
546,-3467.073,-2196.8105,-4019.773,-3353.0662,-2257.9714,955.965,7374.76708984375
547,-3210.871,-2665.052,-8814.633,2060.964,87.38111,704.0245,7000.8056640625
548,-6484.5527,-6097.7686,-12752.596,-3494.1648,-2316.9822,452.82608,9757.5751953125
549,10647.516,-1435.46,4664.8784,-3394.6768,-850.31433,-81.009865,12093.90234375
550,3117.0288,1464.7086,47.595825,-2339.4124,2600.099,51.021584,6617.2353515625
551,1249.6562,7500.52,8855.115,88.94413,-2101.7644,618.8808,7987.529296875
552,404.14008,-2159.527,1044.4144,-1953.3353,401.19022,319.09265,4567.12890625
553,-1002.33325,-5093.5996,-3540.5933,1030.4777,-1062.6908,2532.4436,6213.68896484375
554,-2690.1248,2188.171,-6490.8174,2162.4497,128.72398,406.8879,8447.4189453125
555,-812.1693,-5789.468,3089.6436,-108.67761,-1145.9299,507.31223,8010.31396484375
556,2254.3318,-7912.2563,2861.38,4503.3765,127.1258,-519.5097,13099.580078125
557,2412.5396,-6555.0713,278.90454,-5130.337,122.27077,-159.42114,12038.23046875
558,-2853.382,3456.6724,4177.6514,260.35892,-4427.832,-291.76215,10205.9716796875
559,-6770.12,-2055.6558,-3284.54,-79.56182,-452.25708,1091.5667,4706.37353515625
560,-195.48303,-1118.5427,-3529.7944,-1803.5292,576.944,1006.77924,4763.345703125
561,-10252.995,-4927.0195,-6774.4707,-1329.6482,-198.25403,-1727.462,6026.0927734375
562,-404.62878,-7410.5015,1295.8816,346.72214,-1204.847,-1003.7579,8463.2001953125
563,-4221.9873,-1812.5513,12846.475,2312.4,1186.15,-1924.4554,16952.4453125
564,-6199.884,-4538.3257,4409.2734,1969.1726,255.73108,932.54486,10588.923828125
565,2134.2522,-2861.9307,-1651.89,917.3312,1044.956,-1004.23755,5404.27880859375
566,5277.6465,237.16504,6269.379,-369.8532,-603.4714,-2724.4539,7426.9541015625
567,486.9463,3951.7122,7539.5146,-186.29366,4890.2905,376.4495,10468.1376953125
568,849.92065,2216.8193,3253.6582,392.82693,-90.12618,213.96706,2232.79052734375
569,1489.9326,-417.7749,2651.8916,-489.57535,-374.55103,-115.68,2895.90014648438
570,-1362.9028,-3132.0425,-9766.357,-829.9215,-2131.5056,1851.3273,9211.921875
571,-9646.108,-14115.92,-5617.135,-628.327,-1573.3346,-2443.1482,8985.435546875
572,-375.99414,6666.5254,7137.3477,1155.1719,-1390.4341,686.59393,8021.966796875
573,-4793.468,-6288.8623,-4019.2598,-168.7398,1327.6168,1877.8849,4466.07470703125
574,3470.4885,-674.0227,1166.8185,-3708.0935,-146.09268,1317.4407,7710.84521484375
575,-31223.71,-25164.008,-19867.28,-5078.5293,-2160.6536,-1409.868,13936.095703125
576,-1166.0049,-8661.41,-6717.296,-1434.3958,1201.7565,2474.8416,8617.912109375
577,27864.615,29446.016,16832.975,-8489.887,-358.77243,-4688.5903,20596.423828125
578,-9765.042,-10446.058,-1485.5492,6594.6465,-3336.274,-604.0105,15479.244140625
579,3487.769,5229.86,2622.3435,-3121.1868,203.02501,-2902.9626,7740.939453125
580,19828.268,17560.488,16059.85,1900.0615,1924.273,-2325.9417,6997.64599609375
