Element Label,S11,S22,S33,S12,S13,S23,Mises
1,20999.098,14924.869,10661.426,-3028.9883,1930.565,-4435.4087,13367.6640625
2,8619.606,18179.076,-1698.0251,1129.8,-504.92044,-1949.824,17676.755859375
3,26669.807,17505.408,6483.0,780.8853,-1680.1938,2229.691,18212.810546875
4,9407.627,21274.879,-6011.3467,1107.3812,3974.2354,5226.734,26354.810546875
5,16288.32,19867.1,18517.674,1499.0328,-1006.4567,-939.466,4714.580078125
6,15455.804,18631.963,-2697.8464,221.27785,-367.47986,-380.2187,19957.14453125
7,13464.075,14490.25,-4964.419,-2765.1257,186.50365,3855.0315,20668.796875
8,24578.791,13065.686,-130.34453,1045.8954,4320.1616,-2733.0273,23244.2578125
9,11493.519,7313.933,-100.08695,2649.3052,-7581.4946,-2061.159,17597.2421875
10,13115.944,13500.364,-9892.188,223.86847,2027.3557,-5062.1763,25054.431640625
11,12569.339,17582.467,8582.793,-1858.0642,-2628.4456,-1765.78,10072.0595703125
12,15247.535,18851.846,-3808.5332,335.704,4332.7593,-3412.7236,23160.427734375
13,31549.424,21019.695,10403.223,-487.35,-6718.9995,3558.2832,22572.212890625
14,5207.317,25788.797,-9177.048,390.70923,7450.1772,4296.2817,33895.51953125
15,15267.645,16053.621,6332.813,-720.9438,-4.5362296,-578.5399,9488.677734375
16,23729.768,19484.016,27821.654,1319.3652,-9500.369,18737.664,37167.6796875
17,-9280.561,2039.0883,-18563.848,-1732.0452,-15933.729,6673.328,34980.68359375
18,939.85223,2126.3767,2938.6716,194.8715,391.36038,137.71391,1913.57788085938
19,16867.988,5041.267,14057.519,-468.20773,-3622.6667,-18746.102,34767.93359375
20,18367.92,9133.756,-5548.492,6034.3057,-16571.68,-7314.9165,39115.734375
21,6710.7583,10265.989,22601.07,3959.4375,-11781.615,-856.3611,25967.265625
22,-15197.721,-27046.197,-17644.115,-2354.4275,-7415.903,-11223.61,26017.5
23,-30874.758,-28434.8,-28322.639,-2452.8154,-10061.877,-4318.2085,19594.728515625
24,-3628.769,-6461.1733,-30577.912,1402.0696,-11810.904,-3175.63,33355.53515625
25,12318.268,20327.395,-17130.354,5460.5195,-4246.5625,1271.591,36271.58203125
26,49496.79,55674.8,64545.32,3928.7102,-17065.281,1883.5531,33200.53125
27,6446.9805,-14028.987,-34935.57,-2991.5732,-7223.8574,2144.5889,38491.96875
28,23674.809,28785.42,35555.164,3223.5315,-15032.352,10485.498,33844.80078125
29,-41072.152,-24039.445,-50709.52,405.56168,-15638.016,-6125.564,37334.25
30,47019.465,55657.68,57730.39,977.47644,-17817.441,104.439026,32436.125
31,20847.79,20598.12,20044.979,-3406.7537,-14678.706,-14347.415,36045.28515625
32,22253.504,25393.988,33706.676,4347.825,-15610.623,9716.322,34293.95703125
33,5248.8584,2976.9214,-1872.4801,662.4713,-19376.844,425.36063,34175.16015625
34,13488.38,-12410.644,-22683.09,-4655.9775,2970.9612,7756.4526,36253.69921875
35,19132.148,19996.47,25373.578,-2422.65,-19793.414,-750.0892,35056.2578125
36,11805.283,-5208.73,-9305.344,807.6057,-15994.08,-10491.501,38413.04296875
37,20335.922,26473.85,30525.555,654.65436,-15143.382,1836.1255,27898.484375
38,7120.69,-4639.9214,-31627.291,-5851.402,-9576.637,2886.317,39835.44921875
39,15472.303,18692.367,20759.328,4799.943,-16784.434,-5477.726,32024.73046875
40,27261.64,23655.438,36597.105,942.81824,-13324.006,13097.531,34405.10546875
41,21519.898,34385.23,23164.69,-680.2425,-13625.684,-2943.5618,27044.794921875
42,-185.23193,558.7416,1105.478,383.2378,795.51715,32.155434,1897.74426269531
43,476.2325,-223.3126,707.8264,553.99835,-795.06903,376.9206,1987.04895019531
44,5009.0264,4922.7124,6768.716,-105.02077,353.31265,-235.86357,1957.119140625
45,20138.238,-2815.496,21666.725,-9960.526,301.57065,-3203.9553,29883.1015625
46,19103.855,13933.06,19521.496,-1086.4445,-5045.884,-19403.623,35192.28125
47,-33.010998,5120.6562,-2624.5854,904.4355,892.16754,-9692.648,18256.966796875
48,18038.082,17678.7,32278.412,-4967.7773,-6566.0586,-15144.243,33158.015625
49,7798.8633,8482.649,711.6592,1427.4983,-7751.7007,-17484.303,34044.44921875
50,14468.161,14774.668,17881.902,-4888.0156,-353.00903,-20311.17,36337.08984375
51,21134.953,8878.239,21229.473,479.57852,2013.3972,-18358.166,34282.83203125
52,10152.344,11572.312,18028.713,3636.9229,-1612.1189,-19928.03,35940.6015625
53,-10172.074,15144.697,-18088.867,6900.7686,-2079.8237,-11845.239,38481.296875
54,19843.508,14034.992,29291.285,-509.9673,93.11394,-17820.982,33636.96484375
55,250.01224,4292.419,-17951.105,-24.4675,1376.5991,-16831.969,35732.76171875
56,47166.836,40948.223,59694.035,-342.50864,-1095.2269,-15220.306,31183.765625
57,5016.883,1681.1786,8929.999,-3752.2524,2247.2563,-16833.86,30773.650390625
58,-4801.809,-7735.3594,4785.0894,2119.7263,-2587.5376,-15386.158,29536.509765625
59,5854.7803,14296.95,23253.86,-4164.983,8524.19,2292.3953,22647.38671875
60,24398.557,33308.42,39816.7,-786.04596,13244.45,905.75323,26651.310546875
61,19438.59,28033.373,33721.754,-208.3807,14769.525,276.96933,28458.662109375
62,12272.761,19181.604,26484.467,-1261.9713,15718.002,-2981.153,30399.41796875
63,8352.06,19166.83,33252.938,-4703.3477,14089.505,5737.446,35048.21484375
64,11743.269,24026.814,35170.938,-248.56155,15716.841,-4401.209,34804.03515625
65,26318.787,37154.12,51214.125,-2387.5618,14792.3955,-2490.8096,34052.77734375
66,29774.66,38192.93,44112.45,-1736.6135,16705.385,2436.303,31934.369140625
67,9894.162,-7999.154,-26251.293,-1091.5752,12062.714,4206.0674,38380.69140625
68,10330.64,17660.756,29454.613,-167.08409,17246.475,-9542.162,38011.0625
69,20892.06,1320.5459,-20960.42,-678.4962,7976.665,-1485.7451,38915.84375
70,717.8834,16216.979,19204.654,-1661.9231,18575.506,3682.4155,37142.55078125
71,6782.2324,8391.021,20424.941,-2696.7227,19487.383,-4688.2603,37333.55078125
72,15916.393,-859.3747,-17531.994,4366.212,8884.359,12635.953,40150.80859375
73,2465.0842,9069.932,-1022.66766,-233.55219,20598.463,-3171.5356,37175.98828125
74,24643.482,22748.846,32523.8,-528.0276,18255.537,9919.541,37100.42578125
75,1959.0138,-4157.7705,-34021.31,2168.9712,2261.2773,-4991.982,34873.0234375
76,9778.7,17165.377,28536.111,1964.9161,17080.701,-1059.8461,34030.1640625
77,7644.773,-7990.2144,1308.1659,-1411.5935,8059.9844,-14383.365,31733.958984375
78,87.58181,6056.6377,5284.869,4880.6255,15987.942,-5575.3457,31035.083984375
79,5045.409,17257.043,25254.045,-2205.294,16046.411,-5422.9565,34438.4921875
80,17607.463,16763.28,32634.498,-3303.337,6690.8975,-1936.3077,20432.775390625
81,-47742.605,-52934.406,-36155.973,-7149.6177,-7278.3394,-1603.2981,23266.83984375
82,12464.009,21099.354,30603.857,1271.4993,3970.8203,18700.287,36718.3046875
83,37481.656,23727.133,39709.504,-2762.5708,14183.38,11307.657,35139.4765625
84,28825.04,17398.955,20950.812,6616.4067,-61.97501,14823.93,29886.048828125
85,13251.0205,13664.988,13319.027,5193.6836,-4052.9805,15219.164,28726.638671875
86,-4848.377,11477.723,-10542.153,-1906.0782,7699.4717,14762.5205,35134.8671875
87,6485.314,3098.418,19398.148,897.2156,5885.122,17174.05,34829.7265625
88,-7024.35,21589.762,-13121.767,8910.677,4380.204,5488.557,37637.08203125
89,12520.698,17475.887,19847.867,1741.4702,-7188.8726,20403.916,38144.8671875
90,1640.7749,7906.8564,-4478.142,-535.1263,13959.945,16444.457,38881.95703125
91,22703.236,26981.238,32039.111,-5425.278,493.50864,20644.107,37856.17578125
92,-1647.2397,-2099.9434,2877.6592,-5502.4326,-2541.2358,20420.158,37200.546875
93,4654.3105,13103.163,9773.4375,-12588.853,-7012.4424,14989.045,36760.2109375
94,11618.768,18177.717,7188.412,-1145.99,3176.8337,18938.049,34668.02734375
95,-1025.6691,-13682.296,-15651.032,-5024.229,5077.869,13367.823,29633.810546875
96,16742.38,24489.207,30438.953,2191.719,-18475.27,1031.1401,34396.39453125
97,22646.17,27857.104,41587.523,1460.9004,-16378.409,981.9536,33185.51953125
98,19687.623,22906.135,30663.025,-1517.6844,-15499.017,-5318.4917,30131.736328125
99,13399.622,-4390.185,10386.464,-1883.7067,-16079.85,11000.898,37700.69140625
100,-7446.651,14631.152,-18257.994,-5351.5654,545.8027,13945.745,38900.74609375
101,-2079.494,-6837.3564,-7008.7695,6045.8657,18012.07,-3190.2256,33719.078125
102,12520.54,8188.7,19758.615,1143.2628,-1463.5121,-19258.857,35008.08984375
103,19860.324,21277.863,31013.996,2428.198,-15067.2705,8035.904,31671.54296875
104,43646.492,55333.652,61669.438,1929.826,-13929.934,-969.91077,29101.6015625
105,26832.717,21900.814,23664.963,-1556.319,-8460.3,-17302.426,33746.90234375
106,61889.844,65302.65,63708.86,1010.7413,-19012.186,1158.5984,33169.70703125
107,40397.68,45682.656,54523.203,2253.2092,-17798.186,1146.5026,33500.87890625
108,8573.998,-7087.9883,-11180.536,-7127.748,-18004.67,759.27325,38115.515625
109,45893.703,48945.953,58830.945,756.63495,-15727.316,-5873.9277,31376.30859375
110,13995.898,21907.281,23333.912,42.784378,-13947.226,8708.714,29782.84375
111,26542.018,23589.877,28599.236,-5074.845,-9822.565,-14975.096,32534.466796875
112,17522.203,21795.297,28564.951,4697.51,-13933.293,2902.8342,27693.03125
113,20782.691,1978.5114,6311.051,646.3142,10972.944,1694.1698,25728.943359375
114,19294.678,14335.871,-11992.511,-3312.0312,5887.9893,6311.3403,33237.6875
115,5204.0547,25374.533,-1473.0114,12711.953,-6432.8716,680.8083,34589.42578125
116,15582.949,-965.0682,-18980.443,-2977.4539,9844.73,-9461.151,38501.96484375
117,20829.81,28250.818,29910.182,1868.3811,18175.383,-8488.625,35886.14453125
118,15459.59,22829.785,29485.86,1676.0016,19151.799,7289.8467,37628.53125
119,623.2996,16113.585,19808.441,-6346.686,16643.008,116.6968,35534.30078125
120,16808.307,-1545.5193,-20556.006,-371.4153,-11928.524,-4808.443,39291.51171875
121,19174.035,23960.81,35288.613,-3793.75,14650.728,6898.952,32176.8828125
122,26590.064,15816.214,42723.027,-4696.088,14294.996,-3478.208,35576.0703125
123,-8474.489,-2840.2654,7155.3325,1851.3541,6444.634,14.933062,17968.22265625
124,41294.984,35787.613,45122.72,1560.1868,-19040.846,1692.4119,34199.7109375
125,19880.336,28633.436,38604.57,1796.2589,-17346.73,-79.60731,34289.12890625
126,34454.1,39612.164,47201.523,-3691.525,19234.695,4912.966,36695.56640625
127,24688.598,-3870.173,18065.01,-2462.3364,8184.108,-248.67906,29826.623046875
128,17319.936,20645.697,1946.5305,-1650.5952,2896.5713,-18405.729,36717.6640625
129,27358.748,30080.043,26496.766,-1953.5378,-918.4134,-18214.984,31934.78515625
130,11585.924,23111.861,-4252.789,1279.3779,-9654.292,14515.844,38508.75
131,9648.035,8135.615,18463.283,-4918.6353,-2032.4155,20488.883,37916.78125
132,-3448.8193,6977.748,-14903.76,3456.716,3730.9893,16658.045,35629.25
133,25981.322,10200.713,28700.25,3157.083,-708.9311,16414.502,33749.71875
134,21501.756,10469.851,12850.024,3268.1597,7630.0146,19455.424,37991.37890625
135,-6297.195,-6827.3877,-38839.254,-667.3882,4552.3564,-11607.68,38855.3203125
136,19820.996,22302.06,29059.955,-1515.4941,10238.01,-14272.646,31639.494140625
137,568.3512,54.660652,1138.9236,-580.94385,-200.10693,-814.19476,2000.97058105469
138,2849.8447,24715.904,4586.1562,-2654.5017,-10142.343,-9870.72,32637.5078125
139,-3764.4712,-217.94589,3078.4014,-753.24567,-2234.377,838.4863,7343.2255859375
140,-7001.7026,2821.5896,-6715.024,-4041.1711,10152.334,-9528.3955,26913.5078125
141,5527.502,12585.016,16231.18,928.2956,19734.543,2316.51,35719.41015625
142,16285.711,14638.752,22341.848,10.843546,18157.0,-10129.748,36690.99609375
143,13475.612,17237.94,24931.309,1189.7964,20707.574,-4027.1174,37968.390625
144,26085.994,2987.0703,-12528.879,642.3542,6933.5205,-8711.576,38805.16015625
145,19907.352,5623.9487,-12264.602,-4850.832,13813.387,1599.2386,37818.23046875
146,9882.305,14075.012,26204.959,-1557.3219,19785.309,-1370.9253,37454.78515625
147,26800.506,20902.506,3370.887,-12301.645,7314.505,-10683.064,37448.984375
148,-6989.4946,-11669.325,-23086.668,12190.545,2321.8584,-2655.0732,26245.708984375
149,15501.298,15899.446,-13635.189,-12300.808,-1384.9728,-9716.063,40044.7734375
150,21483.22,30644.111,41518.77,-22.240984,15371.12,1728.3165,31930.837890625
151,20937.648,10540.947,38910.734,-5719.1016,885.4574,-14146.841,36316.109375
152,15186.625,7652.816,15814.87,-3868.344,-4161.793,-17037.146,32086.3359375
153,5125.7466,22872.945,-13226.583,-209.05872,-4641.7183,7363.0674,34711.4609375
154,10625.923,5391.2207,18584.854,4200.185,454.26886,-15755.419,30506.603515625
155,12567.805,10016.797,24303.46,2565.7637,1615.4922,-17582.285,33602.9765625
156,26252.223,24682.586,35884.15,3368.0835,408.7646,-17514.484,32636.806640625
157,7379.419,19947.86,23713.773,191.3082,-15118.191,-4285.3833,30989.70703125
158,42977.324,47545.953,51956.33,-2450.3472,-17009.133,-542.40546,30778.2421875
159,167.18665,14229.023,17249.748,-233.20122,-16950.904,2655.5127,33654.9375
160,11742.639,24832.807,16457.338,643.33185,-18901.076,4766.8228,35679.4921875
161,6929.4175,15652.506,21428.453,963.18665,-13428.326,1122.1403,26596.212890625
162,28508.227,32039.014,35726.613,2566.5552,-17483.414,794.0288,31268.951171875
163,18183.076,16776.855,11176.147,839.09625,-19050.035,2528.4358,33929.69140625
164,47349.97,47312.375,55707.965,3225.2942,-355.6466,20183.852,36385.7421875
165,3937.5627,11324.94,1927.5624,-2352.4858,13789.942,15055.58,36613.70703125
166,16780.71,19089.215,8277.749,-22.00025,-16097.251,14033.513,38281.10546875
167,3488.0283,5348.396,10940.475,9006.308,-2507.312,16070.065,32894.94140625
168,24225.686,15173.711,13563.574,2288.5916,-4336.241,18028.24,33856.7578125
169,26243.455,18814.707,32368.877,-6274.4697,-6364.9517,-14728.46,32072.396484375
170,24287.525,21702.406,30765.662,-51.085144,-5894.705,-17276.428,32635.427734375
171,4269.8965,19356.506,-6037.1665,-362.86325,15901.899,3294.2786,35789.70703125
172,-709.9966,-4424.724,-21693.83,-7184.792,-6966.9873,9641.233,30911.353515625
173,23177.639,24115.043,29843.113,-509.64117,1993.477,-16838.236,30038.953125
174,15448.873,7210.385,17365.023,72.77204,3572.9312,-17569.16,32429.462890625
175,40962.35,35255.523,54586.34,8130.669,-4196.924,-15540.031,35659.140625
176,20462.678,10060.501,-13827.625,-9614.724,-8741.942,954.4024,37903.33203125
177,2363.3625,7309.2427,-22214.045,5458.238,1101.4661,15178.735,39169.7109375
178,-3475.543,-8182.0835,-29797.566,1251.8518,16731.004,1748.9286,38010.15625
179,42951.57,56181.668,67711.44,-1506.2158,12125.615,1137.7208,30204.171875
180,32038.424,23452.242,38929.22,3435.6523,4283.516,-15543.02,31552.87890625
181,-5157.9243,2386.0146,-9285.3955,-1071.1539,2547.515,-17871.67,32957.33203125
182,-2726.467,566.5228,-10393.586,5756.9946,-4806.3223,-18666.326,36178.7578125
183,12454.041,21929.479,-13335.417,-6973.9424,6436.957,1346.8632,35705.734375
184,-12117.953,13526.116,-26710.73,2875.3948,400.22876,6623.9385,37439.28125
185,2264.3179,23757.992,1071.1106,3473.2715,17525.482,1278.5505,38099.484375
186,31086.885,13380.891,-181.15643,5026.403,14975.153,-126.53484,38550.859375
187,-12476.072,1241.3477,-2427.6616,2532.121,-4513.948,-7649.607,20179.48046875
188,-32355.152,-51533.695,-46353.25,-6596.598,-9479.338,-9406.879,30998.1796875
189,-12731.444,-20854.787,-32832.42,4778.8525,-7889.5557,10094.919,29457.09765625
190,12052.745,-12407.845,-8038.1333,4964.4434,16822.38,4768.315,38751.18359375
191,-4262.2056,-3092.6118,4764.6445,-6703.9014,-2422.3833,1367.9026,15176.9033203125
192,-4460.08,-10765.229,-18525.293,3572.9949,-7361.572,-15701.771,33006.30078125
193,25907.688,3744.9248,-13629.023,-1095.8948,-6427.3467,4784.6206,37071.6875
194,9363.817,-4812.951,-25143.303,8620.28,-9017.134,-5152.904,38066.17578125
195,7439.7285,-12597.798,-26500.15,-4365.002,-7264.1885,-11187.467,38266.04296875
196,-16744.98,-31854.64,-49329.48,-1189.8765,-13849.759,4753.951,38015.86328125
197,6471.856,6165.042,26482.102,600.5626,7344.6763,-2277.5542,24189.25390625
198,16631.713,-7388.4375,-18974.69,2838.0842,-10771.623,5180.7485,37977.37109375
199,-4653.157,-10884.022,-24385.76,-750.62274,-16994.396,-8834.666,37516.94140625
200,12962.811,-11298.717,11445.946,-874.02136,2683.055,-1698.0723,24221.056640625
201,-3543.1428,-9388.176,-39290.168,-5959.1567,-8029.5503,-429.0376,37464.375
202,17205.314,630.0728,-17071.203,2322.1113,1164.0541,-4955.003,31230.98828125
203,16943.254,-15931.392,-17116.096,7126.88,126.79425,-1240.8896,35751.05078125
204,4551.3784,-10921.062,-12672.766,2981.1567,-19293.059,-1425.3068,37669.4921875
205,7097.295,-18851.64,-24773.93,5399.3496,-5916.6797,-9606.568,36488.85546875
206,14499.073,-5047.0713,-12921.561,1827.0109,-1198.6183,179.81047,24746.640625
207,16868.768,-4439.3066,-2489.9055,-7250.884,2189.5105,-9191.237,29014.48828125
208,2867.085,-9205.998,-23246.898,5054.3096,-855.37,-7272.9897,27385.130859375
209,19963.857,-13822.846,5335.4077,-1061.9131,-6615.115,-3608.44,32171.576171875
210,7933.7095,-8099.4907,-11137.651,-5216.22,11108.489,2401.6287,28002.345703125
211,-12825.022,-15219.433,-15422.525,5767.234,-8567.61,-18652.22,37013.125
212,18053.734,-2663.9617,-10665.089,-3878.0203,-14761.275,-2526.169,37107.3203125
213,1550.879,-14678.713,-33451.363,-167.6808,-524.71313,1374.4167,30447.689453125
214,-6712.26,-1712.4702,-5371.6235,5988.1216,8606.792,6474.189,21809.197265625
215,-46785.484,-39909.152,-36554.17,3485.6396,12550.277,2151.039,24585.93359375
216,-1795.4644,16222.275,3695.837,2613.8586,-4692.1074,16990.62,34762.62890625
217,88167.66,72737.82,86192.805,-5913.2437,6942.398,-732.8696,21508.359375
218,-7565.2993,7086.344,-702.69073,-11021.044,-1066.9014,12881.76,32044.37109375
219,-311.27682,-2270.966,-25671.633,-9880.609,-7276.6025,-6134.4204,34086.7890625
220,12823.193,7447.511,-7098.819,-2854.8289,-8822.89,15433.353,35933.765625
221,36475.36,32471.18,57932.566,-613.6824,-3983.974,14002.622,34631.34375
222,6768.401,5936.0654,4065.497,-941.339,-13461.39,16261.123,36678.41796875
223,5196.316,23496.006,-19116.926,-5309.9326,-3609.0417,4375.2896,39395.79296875
224,8458.62,10721.087,6371.1543,-2799.5605,9304.51,19275.85,37578.03125
225,9727.562,8830.845,20892.576,-530.70404,892.2024,20785.736,37879.375
226,46587.445,37130.223,57651.633,-1727.5054,-2956.2434,16768.125,34571.26953125
227,-2424.6604,16383.755,-15714.298,980.4367,-5449.815,13917.943,38124.015625
228,1537.9467,17301.14,-24205.328,5172.289,-290.05368,5202.443,38453.828125
229,9720.979,7087.6494,24922.51,1215.7278,-5445.4507,17750.73,36286.49609375
230,23994.021,21686.932,34952.562,1278.1293,10236.22,17533.725,37312.60546875
231,-8637.453,-5261.157,-9951.435,-5256.315,5864.473,-19873.04,37261.75
232,6086.3403,4875.791,23081.945,3783.3386,-3064.7812,17587.322,36193.25
233,-4751.807,-16472.06,854.47095,1335.9319,2386.4587,14886.593,30360.720703125
234,10563.929,-8249.239,7376.618,-7334.097,-3476.8022,8313.173,26628.720703125
235,14236.969,1127.8527,-28278.943,5812.463,-1756.166,1420.5674,39227.109375
236,16532.004,15816.671,7650.8633,581.52875,20182.873,3937.6436,36641.6171875
237,17626.309,-6752.201,7671.4688,5343.916,17451.393,3535.4492,38568.7734375
238,-9015.6,-10182.212,-12636.128,-4493.3286,21081.184,-2971.5132,37822.66796875
239,28545.715,28634.049,29849.207,-3320.9211,20308.594,734.6857,35687.72265625
240,19795.006,21370.492,23055.346,-1782.2971,17838.158,2873.1936,31573.255859375
241,-300.54657,1007.0809,-20624.26,-2147.6272,17711.365,6034.095,38800.5703125
242,26271.059,26379.111,37224.383,-1274.9596,17893.525,-10745.813,37823.69921875
243,34744.105,39524.605,55787.617,-83.22063,17765.617,-3048.638,36603.80859375
244,16709.207,6124.3076,-24021.613,1543.8389,8425.894,143.68004,39498.1953125
245,17191.701,9287.55,-21200.146,996.4941,197.72072,-3401.2695,35647.67578125
246,54800.383,43592.453,52827.633,-5309.3237,19059.98,-5148.439,36896.25390625
247,11021.854,11991.95,8226.173,-2110.7197,21139.066,5759.605,38274.45703125
248,9649.408,13185.963,8806.22,-5834.128,20923.352,2970.4258,38185.62109375
249,21691.201,13970.428,24600.975,-1907.0143,20872.326,1842.2383,37664.2578125
250,8732.14,7864.436,14574.797,-2497.1328,18351.096,10233.194,37190.17578125
251,19237.025,11004.58,9327.819,-208.33015,20495.264,-3464.404,37157.671875
252,-1928.9331,4663.5786,-6675.1274,-2847.2163,14207.568,-15385.66,37911.96875
253,24394.13,13288.45,20834.324,-6095.425,16926.418,-9516.293,36594.0859375
254,-1213.9508,-2173.2883,-22397.049,939.7815,1645.4982,-16921.193,36042.68359375
255,3153.1807,6362.8037,8182.716,-3188.4019,20214.594,2678.19,36018.88671875
256,2466.2676,1138.9722,1968.3623,-211.59079,818.6541,412.42825,2000.9853515625
257,2199.2126,-19246.637,-32228.271,-6196.087,-3935.159,2910.8074,33074.140625
258,4742.761,5356.5986,5402.177,-4.5021033,-541.43066,-902.1815,1930.84130859375
259,-7963.761,11680.758,-10687.8955,-3878.4448,-1622.0575,-8312.905,26592.775390625
260,6795.5396,-2559.9336,-21523.479,-6799.0996,7858.716,2123.4727,31016.8125
261,3732.2388,16086.221,-11039.2,-5187.145,5283.724,2810.7388,27230.052734375
262,16544.973,7494.6455,24375.736,-772.6843,-5152.638,13377.623,28851.73828125
263,-12707.908,12703.787,-16894.967,-1716.0151,-8765.253,-10050.88,36222.5
264,-8913.736,5710.761,-16573.504,-3171.3171,5440.7603,4437.655,23719.693359375
265,-9251.476,22561.512,-3493.998,-541.34375,330.8007,-14344.496,38477.95703125
266,186.88686,917.73285,-15818.796,5960.2124,-11021.353,-13035.869,35344.0
267,-872.22284,1161.7466,-18619.945,4555.0396,-5180.4736,11337.36,29725.095703125
268,6610.4546,5891.809,-15769.684,5112.048,-10637.737,-1197.6481,30124.580078125
269,2070.1555,6116.8965,-5619.6284,6861.3726,-5557.9023,-2297.7957,18877.84765625
270,-3226.3901,9653.616,15945.92,8289.792,630.25903,-5713.748,24327.494140625
271,-8396.285,957.55414,-27736.855,550.0708,2401.3198,3129.203,26268.669921875
272,-4790.432,15859.317,-25449.213,-816.9149,2269.5352,1782.5471,36149.44921875
273,-2295.3655,4986.567,-14964.736,9243.369,-6064.1016,-14531.142,36137.22265625
274,-15384.715,8645.988,-17085.139,13796.439,5542.222,5799.8413,37219.84375
275,-11011.508,11985.32,22958.445,12010.118,-6307.3774,1425.3335,38207.109375
276,11301.596,1852.3293,-10563.965,13803.035,5966.2563,10844.864,37309.12890625
277,-25934.941,-36841.72,-4368.365,-10808.777,-5658.7944,2247.0894,35791.05859375
278,19676.617,-2569.7634,-6948.827,-187.07906,-10427.214,13787.417,38833.74609375
279,16659.969,5376.7935,9.3391905,375.7096,-5608.0713,4903.887,19585.7265625
280,407.0834,10639.793,-5352.5195,4311.46,-9269.131,1893.7126,22827.451171875
281,-12555.427,4505.5073,15186.373,9960.298,-1655.661,-4683.086,30968.080078125
282,15256.982,-15299.1,12781.84,8533.08,5514.148,-2588.2148,34553.2109375
283,7979.369,-13213.923,-33580.273,-2234.5708,-510.634,-5675.296,37522.83203125
284,12974.732,-10080.633,-24206.588,6994.275,10770.406,134.44467,39390.23046875
285,-2312.0488,19972.158,-20787.264,-569.4463,309.95444,9619.542,39095.94140625
286,-6906.3027,13679.221,-11778.118,7605.502,-5145.466,3369.9233,28893.162109375
287,15568.852,-6293.9287,25913.39,4036.901,-3364.1914,-9169.702,33856.23046875
288,-3883.4326,-21995.77,-41009.605,3850.5261,-11980.607,-2741.8196,39135.7265625
289,11116.115,-19078.496,-21325.947,8721.275,-531.3237,-6042.0957,36375.48828125
290,-19338.637,-22527.234,-35090.91,-3446.4402,-17158.39,8486.803,36647.18359375
291,2826.2144,2388.0674,-30426.63,-430.55,-8485.368,5174.6265,37259.42578125
292,2530.8767,1535.0406,-21375.783,12530.944,1041.9993,4975.7515,33125.79296875
293,20779.72,12275.724,-8185.2563,7820.272,-3112.5093,6168.338,31490.4453125
294,12514.228,-93.24774,16762.586,-874.8072,1430.1802,950.0653,15546.640625
295,10393.026,8101.85,4428.996,729.1068,17394.52,-13112.323,38108.48046875
296,7478.478,3191.767,-4916.802,3556.0818,18236.78,-10205.266,38301.484375
297,13673.715,18001.03,15043.441,-347.26486,20485.072,1991.5112,35858.73828125
298,17011.896,-9353.726,-25003.926,2168.962,5996.836,1032.593,38443.46484375
299,-52004.73,-76742.4,-71152.29,-7868.548,11114.94,4563.923,33522.69921875
300,7724.4375,12705.43,18164.947,-1955.0127,1419.2802,20785.445,37355.375
301,37512.516,34347.504,60451.234,-2939.6914,-968.8864,12539.794,33305.91796875
302,15847.508,10703.233,14841.123,-3657.6409,1870.1096,18328.541,32874.49609375
303,24279.578,20520.08,27536.898,760.03455,1374.2046,21669.473,38119.3671875
304,1222.9828,15764.991,-12857.266,7815.912,-4522.8223,-3192.9827,29827.79296875
305,-839.65497,11913.417,-9731.265,-955.20746,-4462.2915,-5094.857,22258.548828125
306,-11106.528,12857.282,-9929.954,4824.4585,-464.9764,-16566.541,37964.1796875
307,5060.1426,5795.116,-14364.402,9618.834,-11085.234,-9392.539,36097.12109375
308,-8596.347,-9898.865,-29837.277,6052.401,-12021.761,11568.954,37016.1015625
309,-8976.865,-15117.199,-20511.412,4402.2144,-5103.077,15430.43,30829.865234375
310,4793.4688,-868.9487,-12200.015,4236.8594,-9335.838,-629.4092,23262.248046875
311,46324.17,39704.39,60818.066,293.01147,-301.0818,17450.633,35551.9921875
312,-3336.9753,11065.898,-10352.8955,-10504.315,5863.355,-13055.376,36099.8984375
313,-9975.315,8294.199,8564.535,-286.4022,1301.0693,-427.75558,18565.03515625
314,5285.16,5072.162,-12513.763,10509.841,-15273.249,-1333.7328,36736.6171875
315,-25867.613,-25015.645,-33955.27,-20460.514,5150.081,1418.5513,37610.25390625
316,-8725.642,-9959.382,-25752.639,-4933.0874,6705.034,-12462.222,30728.380859375
317,1179.7386,-7264.173,12354.36,636.1075,4698.9683,-3269.167,19749.59375
318,-2544.4292,10517.054,19805.795,2238.4004,3630.3855,-13837.313,31736.287109375
319,7005.7603,-1128.6268,-17890.504,-4466.471,-6684.69,8545.906,29941.228515625
320,11178.123,-22239.2,-26467.674,-5789.286,762.5869,6852.042,38974.9296875
321,5336.3267,-15333.832,-33710.8,4461.364,-9912.197,1053.0792,38763.59765625
322,7043.699,-13464.446,-27239.248,-9214.282,-11319.139,1055.3849,39182.19140625
323,17323.39,-2422.9587,48.749744,-1396.5374,-10236.193,11182.832,32288.970703125
324,-15484.973,-22328.959,-18878.303,9333.41,-11800.997,10256.657,32091.373046875
325,18985.03,14699.836,15239.958,-4808.465,-11265.564,-13288.877,31563.04296875
326,16829.742,-15792.5625,-6280.5425,11356.251,-10722.211,-520.44714,39711.3671875
327,11039.347,16729.328,15236.937,1869.2102,3862.2834,7027.7935,15149.740234375
328,-24601.58,-29520.426,912.97266,-10151.656,-2728.8992,7892.13,36318.80859375
329,12764.348,6997.22,5524.064,-6446.7925,6646.2446,15533.709,32015.861328125
330,22346.146,18773.156,29110.135,13.387759,17207.47,3281.8533,31674.736328125
331,2256.4202,-2137.616,-3305.3586,-990.49884,15872.188,13756.068,36772.44921875
332,20390.709,-3784.9487,-10989.97,4624.476,13443.19,-3463.24,38116.37890625
333,22845.006,26074.848,37412.477,-5798.857,17984.986,7415.3657,37574.125
334,7199.8286,-6431.249,-22524.908,-3490.1152,10225.669,-9133.751,35562.58984375
335,7451.507,10537.847,-24.959633,-1326.7875,17820.55,-9098.121,35983.64453125
336,124.931274,10555.547,15816.325,-7538.7,16704.576,-7453.704,36954.625
337,10687.306,-4225.521,2931.5388,-8664.616,12304.741,7156.8696,31622.666015625
338,-3314.7952,-8889.95,-29778.988,-9082.804,1830.8822,-5845.7837,30723.962890625
339,16230.126,39515.434,9592.625,9272.364,-6204.6396,-9237.926,37017.0078125
340,-3501.071,13558.997,-13828.825,10013.373,-2492.3513,-1327.1534,29977.041015625
341,-12610.903,5758.224,-2311.6135,-1386.7373,4357.077,4189.0957,19227.01953125
342,28981.55,19037.914,39306.49,-677.61566,3662.9937,17971.02,36313.22265625
343,-11334.651,10705.386,-25615.607,2013.7651,3242.7751,10341.035,36999.80078125
344,8241.794,9302.669,11331.335,-519.3649,4624.828,-1772.739,9044.1826171875
345,-25208.14,-1637.1383,-13511.749,2054.3757,-16274.914,2600.372,35274.1796875
346,-3606.1133,-15384.48,8409.928,7091.692,-1185.9832,13992.629,34163.16015625
347,12610.389,-15576.713,8199.15,-2499.0151,-1893.7139,4204.7964,27787.880859375
348,13409.818,-9202.549,-21329.254,3746.871,1098.0112,-729.85114,31303.69921875
349,-21602.416,5551.668,11202.843,9186.3125,3265.5217,1054.7452,34802.671875
350,-27299.717,-6099.899,-49187.24,2093.1592,-3807.8997,-6323.751,39612.1328125
351,-20130.436,-480.77347,-24568.693,10494.864,13719.097,645.9308,37273.8046875
352,-33260.543,-31903.725,-24152.8,-11522.861,-3551.6453,-14354.521,33567.2890625
353,-12334.774,-40394.54,-50080.824,7595.5693,-391.63544,2113.4014,36604.7421875
354,-3689.957,1582.6838,-1510.876,1442.4143,-346.3468,81.0063,5261.259765625
355,8.324858,-246.97568,-281.82666,322.19766,-29.235905,-154.90404,679.171875
356,-1801.2063,1372.3772,-1919.9672,-5082.599,-933.1344,2988.488,10833.5810546875
357,299.20355,-445.77167,-91.12131,-333.85678,-82.4067,-101.25353,895.583435058594
358,-12096.319,-134.1323,-1122.0674,-2036.1116,-1889.6006,-2443.858,13165.0458984375
359,-2484.3079,14973.869,3547.9019,-4599.652,1558.733,-5469.22,19908.806640625
360,-2888.385,1399.1857,183.65657,-255.5102,-60.686596,-803.1013,4097.67333984375
361,-616.31726,5052.932,-1429.9796,-3058.437,-375.2552,-1380.6464,8462.765625
362,7779.054,2761.6226,-2725.1147,1300.7272,-1093.9833,-2206.3987,10299.4599609375
363,4351.456,2434.0579,-2534.9397,268.8114,2929.7742,-1376.3617,8339.396484375
364,7151.4634,4451.02,364.73807,1657.5999,1115.4374,2343.9175,7967.57373046875
365,1514.4768,-581.7813,613.1844,1037.0077,-45.7368,-1415.6401,3544.2666015625
366,-1037.3359,259.35385,309.14944,1141.0376,106.76722,-173.23831,2403.86889648438
367,-1136.6266,-604.61,-114.07128,730.5384,-149.1125,104.51703,1576.44494628906
368,-1316.5391,-326.31824,-28.758026,331.1263,-76.21469,-54.27268,1311.07824707031
369,-433.73077,-1265.6318,-113.229904,-334.83615,153.79015,8.376478,1211.98828125
370,-2134.9653,428.9319,390.181,-2354.2341,2601.0708,3836.3943,9357.0
371,3184.2422,5683.0356,177.23254,4828.0283,-347.5498,1015.1581,9807.3212890625
372,-2068.3398,1118.2308,-1394.0812,1577.6951,-34.211334,55.975025,3992.56298828125
373,495.38422,165.82971,109.66749,529.25165,-240.63509,196.05843,1122.32946777344
374,-886.3431,175.0687,-6071.062,-3074.3704,802.94086,-3911.8442,10474.1591796875
375,24788.227,6665.077,7548.9487,14.688822,-2587.9368,1756.5134,18508.380859375
376,16031.585,3029.4094,5865.2505,4377.1777,-3945.173,-569.53546,15664.3486328125
377,1163.2631,-3072.2434,-2456.4978,6504.917,-2035.5135,1725.3756,12806.763671875
378,6136.8857,6453.7085,-1472.1088,3752.8848,800.4108,143.39911,10229.5634765625
379,-2327.3123,1721.0934,-2702.3174,3764.8276,880.99,524.6532,7982.75537109375
380,-1535.1405,-210.13617,-210.12196,240.4375,-137.3215,7.033219,1409.18627929688
381,-1661.3806,698.91766,-1763.794,4351.042,-642.94824,-1274.7512,8290.5390625
382,-4994.807,4782.9517,-2646.7378,-5439.195,90.49898,1019.5826,13040.5859375
383,-2585.412,-286.6614,-2050.1213,-11691.407,-2864.8005,-2018.0599,21242.55859375
384,10922.703,-8369.718,7636.294,-3035.1636,2319.723,473.53134,19080.0390625
385,-3530.1284,-356.80283,-7532.333,205.46542,-1040.9274,2.2199714,6493.47265625
386,-457.79187,-875.7478,539.07385,-448.87,125.476425,-90.49597,1503.771484375
387,7784.732,2454.9426,-209.74097,1190.6514,-1534.3003,1074.3984,8030.416015625
388,15465.191,202.94815,659.3122,-951.89484,1266.7521,771.4897,15345.9140625
389,12551.116,94.74203,4489.4194,-836.4254,315.41745,1189.9901,11241.8056640625
390,10251.697,8100.9575,3013.5134,1410.2399,685.3908,963.85693,7184.1640625
391,-3514.3188,14464.552,3360.003,1012.8684,-722.12744,-158.77682,15862.5751953125
392,-2821.1643,2467.998,-3450.874,1862.0636,-885.7504,-9.490439,6667.69677734375
393,-3349.6123,-5359.9653,4184.8223,-883.221,-1330.9985,184.82031,9149.5078125
394,5268.195,-1328.4518,-5593.5596,2413.5903,730.726,199.33592,10442.2041015625
395,3842.6494,-174.11221,696.2804,-4240.8984,-6637.036,-3959.091,15701.1279296875
396,11875.8955,-2807.284,-5373.283,-2242.5723,-1224.8531,-823.03613,16777.291015625
397,11735.863,1247.9408,3585.7666,-114.74291,-215.18445,-250.07507,9555.576171875
398,-5780.2856,5923.2656,-1198.5541,842.4374,-2.8146772,2379.9902,11111.482421875
399,-2721.6636,4788.273,-393.9565,706.2924,-34.83034,1843.5801,7485.5185546875
400,-1501.7269,7108.4795,-559.12195,3907.7754,318.83127,-105.53911,10632.9033203125
401,5590.9453,106.85315,1567.3315,809.66296,-162.78865,-96.01824,5125.68896484375
402,6338.4336,-2350.703,-1866.6945,2366.4885,-318.69742,296.04712,9428.5830078125
403,1528.6489,340.79816,-2127.8325,698.7109,-950.40686,-562.3221,3944.6826171875
404,-7294.3784,-6711.705,371.0351,-12458.47,419.7773,1672.6488,23004.216796875
405,518.6971,3570.3723,-3137.2793,-4485.6787,-1123.4192,-244.20493,9907.8154296875
406,-13629.745,7045.749,7752.096,783.62177,2783.4644,-1160.4116,21718.74609375
407,3800.5342,4507.3994,12171.956,3507.7942,162.80705,-2507.275,10977.9580078125
408,-527.2832,2677.0203,5386.588,-5476.392,-6376.1523,5136.5044,17815.1953125
409,13600.261,2744.3928,8183.2812,3108.9685,-188.90833,-67.54653,10839.9873046875
410,-3539.1387,-4684.9683,5194.0894,-4146.6694,2012.7129,-2017.0287,12787.95703125
411,-3518.6365,-875.8186,-2732.122,783.06464,-1589.0887,-2198.0083,5425.25390625
412,1129.9749,10981.899,11911.561,4268.9844,-193.7228,-5700.298,16104.3193359375
413,-5596.6646,-283.65497,-2389.694,-1136.107,-2467.595,1994.3452,7452.8916015625
414,-2440.124,-3230.0815,3342.7434,6203.716,-713.91406,-65.56036,12475.3349609375
415,-2229.4072,1743.2723,2113.5146,2228.2744,634.0599,195.79768,5797.14111328125
416,-3240.3645,472.67102,-1124.5671,-1795.84,-1584.2258,-1363.4645,5760.96728515625
417,-11607.308,-3962.9148,-84.05678,-2997.4336,2204.2986,1914.6096,12476.44140625
418,-3231.6296,380.5152,-416.71075,-2995.3281,-1288.7778,-458.204,6582.71484375
419,1694.9225,-951.1057,-3061.55,2495.0698,-495.14026,373.7435,6072.10009765625
420,-4734.254,3441.429,1186.3048,-1499.3724,-91.32413,-3204.6912,9543.044921875
421,-1561.7913,3825.7334,2949.022,6885.019,2097.23,-2759.1143,14258.837890625
422,-3872.7124,1689.3198,1180.7094,-861.8395,534.6195,-28.252062,5608.39794921875
423,215.99248,-721.00665,2551.9407,-3534.2026,53.648808,490.36063,6835.58056640625
424,-4236.6567,3756.5056,-1950.8782,889.0593,925.8921,2522.5046,8653.1513671875
425,-3809.254,6138.7803,-3023.9878,1225.4066,-416.09094,13.12505,9838.3408203125
426,-1631.1327,-1639.988,1719.8231,-612.6515,280.20187,443.8492,3634.72534179688
427,-2953.9087,162.75296,-186.19107,-1542.642,664.7318,-262.64746,4173.67822265625
428,7197.9497,-1274.1713,-2943.2373,-155.48384,591.7283,-283.11362,9490.33984375
429,3833.5112,-1713.0789,804.2029,-122.1995,-297.02505,-392.58728,4889.87548828125
430,16901.861,99.34998,-4723.987,3004.6152,-1367.4069,-497.91058,20495.595703125
431,4710.4214,-373.9359,-115.34305,2144.792,770.10565,196.83902,6348.1181640625
432,2479.1084,-2437.867,-382.5664,-6949.54,714.731,346.46783,12848.1904296875
433,6783.706,906.66785,-5884.8613,-5739.1753,3945.4858,3451.8313,17373.51171875
434,3020.4082,3192.9797,2427.826,2839.322,274.22504,1186.5677,5396.09814453125
435,-958.1676,-863.44775,297.85632,595.34296,126.931656,-204.42764,1644.56811523438
436,2739.5894,-2261.325,-7978.3047,2178.3528,-660.6099,3593.9592,11856.5439453125
437,-753.80133,-2419.9382,-1753.0087,-3735.2458,323.09467,900.47974,6834.58544921875
438,-2631.2866,-1239.074,-3962.823,-2476.406,-613.8689,-768.10516,5182.9765625
439,-1263.6011,-1900.58,-274.9151,-1490.0498,-223.63316,-2.2708805,2970.48999023438
440,-1655.2015,-951.9687,946.0844,-1085.5864,-3789.5056,-1647.7339,7758.4501953125
441,-3302.4192,-2100.3936,-1004.5125,-1494.8959,-293.82413,66.99963,3307.52221679688
442,-259.7745,574.27765,-571.256,2007.4299,-503.8541,558.11365,3851.99438476563
443,1517.9788,1023.06006,590.522,2928.6458,258.09686,96.115486,5157.96044921875
444,-1428.278,234.20865,-2134.6104,2214.3164,115.11227,42.866077,4380.85498046875
445,-2047.0625,913.9509,799.86145,-1141.1013,806.3831,1072.0916,4212.841796875
446,1819.151,959.44446,-1049.318,-3469.7117,1512.5139,846.2546,7185.3603515625
447,-1501.2778,98.50593,-1548.0083,-1360.9667,911.92487,657.3103,3461.78173828125
448,-2810.8867,2507.3408,4541.4355,1543.7081,237.10144,240.6771,7122.52734375
449,-1080.1891,310.2366,851.73364,-1809.7878,-24.342417,210.39346,3597.21899414063
450,-2649.4856,2733.7764,-372.4086,-615.7961,42.70252,1319.1979,5316.99365234375
451,275.38782,-654.95215,-2793.8704,-4274.8325,3227.5747,120.82421,9672.0478515625
452,5550.654,425.15482,-580.0883,-2621.7893,1242.8011,874.2584,7744.77978515625
453,5261.517,1439.1716,-770.8814,2581.669,888.569,282.42484,7109.51806640625
454,2592.7021,-504.67212,693.90924,598.07513,182.32599,-7.0792255,2913.90283203125
455,2386.8652,-3853.4646,95.87747,1119.6941,-59.04489,-234.37407,5816.375
456,-47.14502,-450.7841,-1977.4945,-3388.6797,-57.912262,-99.39255,6131.8154296875
457,5524.751,1653.4266,2084.643,-1398.2161,-115.473854,62.005924,4406.8447265625
458,5589.3203,-2913.1443,-1456.884,-1765.9908,-1769.0852,-419.08084,9016.80859375
459,-3536.834,930.30853,178.45735,-1090.8853,167.49281,210.17607,4576.98486328125
460,-1862.663,-263.99756,-1512.726,-94.59576,-750.7252,-270.9285,2014.09326171875
461,-2695.0747,1360.718,589.494,283.33917,279.45612,228.98343,3814.28173828125
462,-2793.8005,-65.8868,816.74927,-997.2549,-3193.7026,2123.3176,7598.45458984375
463,-3342.5176,-1566.269,646.9891,1013.2088,421.40042,-404.91568,4011.14038085938
464,-2852.3025,-214.53835,949.6233,1219.2928,-146.34972,-859.72845,4257.4091796875
465,-3020.215,-1204.1987,355.9994,1796.6117,-1.6132941,-385.32697,4323.697265625
466,-888.99945,3569.843,637.11163,3601.8616,10.754913,-622.03033,7448.95556640625
467,-161.60445,1314.03,1013.13165,-2058.129,-51.924847,-282.61414,3844.39892578125
468,-4516.4165,-1593.3881,1243.1199,430.24622,3892.784,-2088.318,9164.1103515625
469,-481.16605,-4964.302,-4022.25,-1450.7715,-356.55243,-75.57848,4845.1376953125
470,-3934.0908,-461.93506,123.523315,-1440.2412,2295.3489,-2655.407,7590.37255859375
471,-5243.0034,1182.6598,-1518.1938,-1615.3127,329.296,920.33673,6474.80126953125
472,251.39243,961.04144,309.31757,299.2425,110.05872,201.46172,944.768737792969
473,716.50006,2376.688,-184.92706,492.489,-168.49448,-134.46663,2435.64868164063
474,2420.6309,-850.9684,199.66661,-1765.7596,95.02758,-35.881615,4213.6220703125
475,1548.2612,-4620.962,-593.03925,-1115.0535,-43.426395,-473.235,5817.3759765625
476,940.8547,-3089.5056,995.2787,2442.045,-136.9841,33.370213,5866.5576171875
477,-4156.339,-2123.3105,-2945.7754,2309.5718,28.096489,287.8377,4403.50390625
478,816.16046,-229.52129,-840.48096,1341.6497,87.280396,-108.57401,2750.25122070313
479,-2093.4646,-754.39636,366.6722,1580.5728,-66.91596,193.07799,3488.69409179688
480,-3455.1938,-1388.3944,152.96208,-256.09064,713.97424,-901.91595,3741.59008789063
481,-2715.542,-482.1001,-1798.9784,-785.5517,-903.60425,1443.1332,3785.490234375
482,-1119.7827,-1362.6244,230.51732,-614.2382,-20.17637,-41.972023,1829.90808105469
483,-1473.6279,-556.282,1389.7919,-1484.3048,224.91785,153.26785,3639.4599609375
484,-4990.213,-226.821,1300.08,808.736,-214.46127,-44.513416,5865.2060546875
485,-5048.94,-607.76965,209.6,314.66687,290.206,-230.54512,4973.0595703125
486,-682.048,2568.5798,131.89047,1871.2822,-233.08939,-273.4951,4413.1337890625
487,1394.5782,-1460.1407,242.00446,2195.8574,276.28104,-157.12596,4577.7724609375
488,4231.8438,844.30273,1389.9873,2140.2732,285.08328,842.74365,5103.0830078125
489,1128.8777,-3051.2947,-437.7151,2499.3303,-60.05991,-33.7501,5668.65234375
490,2457.5427,-2466.1843,1157.8405,-1961.0835,484.84943,509.78708,5705.73095703125
491,4908.015,-1514.0818,376.50226,-1583.9668,-59.180256,-65.84801,6342.435546875
492,3866.58,346.6589,1182.1097,-1971.9585,-145.40492,-131.77214,4682.78564453125
493,-4078.3135,-1698.2184,656.16174,-853.1031,572.6457,241.44943,4489.27880859375
494,-3369.6023,-979.2823,1110.9049,-708.3891,-222.26033,-65.83765,4092.11157226563
495,291.3474,-2869.5203,1194.7678,-64.293594,-122.07915,155.94159,3713.880859375
496,2114.2085,390.90878,7635.3906,-5307.8213,1298.7903,856.7459,11608.16015625
497,-291.64877,-4310.5093,2161.8787,197.99129,-87.337364,91.75415,5674.25439453125
498,-5693.3677,-47.52815,-2722.676,1278.2229,-27.054255,-47.3017,5370.189453125
499,-1957.7715,1075.6738,-579.4174,585.4316,287.5147,13.018165,2863.07202148438
500,-2253.8127,1575.9177,296.89035,125.33262,212.7577,136.13963,3412.17529296875
501,-2328.1667,1449.567,-231.4399,671.81757,-253.49124,4.889272,3506.2119140625
502,-102.89865,-22.572058,1261.0095,-2259.3354,-187.81445,169.38203,4154.85546875
503,193.88115,-1719.8914,1506.4795,-3238.6208,-982.6416,-555.3591,6571.56591796875
504,5034.521,562.0542,8824.751,-5172.15,-2729.4749,-70.59507,12407.212890625
505,-85.978645,-3256.4084,-1034.7632,463.59283,-24.202396,40.194656,2931.74365234375
506,765.9921,-2927.0828,-1523.6981,-149.26949,59.70852,-174.26897,3254.86328125
507,1827.918,-1777.778,-430.8387,-1868.7479,163.83371,-124.49266,4534.568359375
508,-2032.8705,-29.706758,-422.00363,2506.986,-250.0945,335.41238,4770.8291015625
509,-2225.115,1837.3079,165.56326,190.8883,280.91034,-98.86356,3589.15649414063
510,-342.80313,-438.0381,1465.9077,3914.7092,-202.16557,-161.29053,7044.73291015625
511,-1770.4463,2171.3733,-115.903786,315.17145,89.9967,95.73913,3478.9853515625
512,-120.80973,1701.7354,2494.043,-3161.0115,-2234.0168,-556.77637,7160.44091796875
513,-898.0202,-3418.3528,-921.20386,-1642.6676,248.2814,353.347,3866.36083984375
514,-1079.2194,1062.1267,-524.8073,-1810.4507,-468.48557,-203.24078,3784.32299804688
515,-3741.751,90.69935,-646.4142,477.62604,-250.22986,253.04546,3670.20166015625
516,-2474.0107,811.6936,-16.552174,-1259.9451,-47.768276,520.44495,3787.12182617188
517,-1937.0356,102.87858,-509.2846,-1601.7057,-248.23727,54.114674,3343.24194335938
518,-230.49103,-523.28375,-1733.3606,-386.01614,-162.23564,-27.906624,1559.69165039063
519,-637.39954,1160.044,-1004.0868,-232.22346,135.00757,3.1461248,2059.333984375
520,-3711.4521,-1974.7802,658.55237,417.17194,113.446655,-110.272354,3888.55908203125
521,-2912.2207,-2000.7921,1306.3329,-60.998985,143.42972,25.265974,3854.44946289063
522,-886.1025,1301.7408,2745.724,2081.8608,373.17563,-394.2169,4890.54052734375
523,-90.16491,-3149.0483,-870.3659,2184.3389,-134.58159,29.503115,4685.0712890625
524,-3302.474,2106.4482,-247.8436,649.2934,-195.36978,-132.2436,4847.3359375
525,-1702.9233,-227.105,-116.22664,2487.384,218.1232,-141.96129,4595.47607421875
526,-3161.0842,215.80101,455.32828,2937.7942,210.33574,412.71527,6229.3828125
527,-69.11479,-4625.7515,-232.43848,504.3034,132.6932,198.88496,4580.37744140625
528,-1198.9899,-4390.2363,-511.73856,860.51105,-96.9274,191.47899,3899.89404296875
529,-420.17728,-1893.7183,1203.0701,91.51723,43.335094,83.45199,2692.55078125
530,-1193.2319,-2761.768,1502.7914,-443.35284,-208.22235,441.00507,3906.51635742188
531,-1882.4697,2143.1292,-1523.997,35.99412,26.295322,286.18375,3891.34228515625
532,-675.76843,-1529.3743,-530.3569,346.85284,44.09404,-140.47958,1140.11779785156
533,-134.9324,-837.2941,1429.6879,438.1436,-3.2399547,-91.97762,2154.43701171875
534,-363.3053,-1618.8611,480.67203,544.76605,-85.29295,134.9166,2077.287109375
535,1343.1395,297.2233,-1112.5641,-26.96465,21.745495,130.29646,2147.20556640625
536,-4575.9326,-1280.7511,-2856.211,2832.4893,-105.15444,-324.4652,5706.73828125
537,-2112.2856,-572.17993,-93.20856,3150.8096,-94.73117,202.70476,5768.1884765625
538,-1666.3569,-323.574,1075.67,-2132.9722,118.00458,-390.60806,4448.375
539,2875.0022,1359.9509,-1077.0508,-221.33199,-40.09106,-3.731825,3475.39453125
540,-2086.845,135.47464,301.54636,-2010.4568,-214.67323,-258.002,4218.89892578125
541,1517.8679,-226.59763,-1002.4319,-351.2346,-11.873365,65.63762,2319.90087890625
542,1593.0876,-277.9348,-605.31586,-488.78885,298.18335,-110.58906,2289.23876953125
543,573.82654,-695.19763,-1180.2156,-535.86993,-235.45288,181.95114,1894.27209472656
544,-1818.9146,1280.9517,261.40204,1625.7529,-117.438156,-233.1778,3952.4541015625
545,1282.7285,189.71922,23.311655,488.84943,113.14422,106.74326,1481.1328125
546,1323.8239,-39.53864,-251.73785,973.11346,45.35884,3.0779305,2245.02563476563
547,-1423.373,180.0876,-893.81934,-1620.2,-254.94408,-47.66871,3174.79833984375
548,-64.204254,1148.9574,257.7765,-1157.4283,163.37358,57.594547,2300.81787109375
549,-2277.5479,-4921.1562,-207.87518,-2394.2915,129.10919,-352.56705,5862.1181640625
550,-953.4234,1226.3754,-527.33154,-397.35873,83.05642,133.40964,2133.55444335938
551,-1866.9642,-1685.075,917.3229,-1025.6027,-171.05298,119.57464,3250.4091796875
552,-1504.7112,121.72871,1920.2247,-1197.8643,269.59634,-244.64095,3675.22412109375
553,-103.90851,1727.1879,1074.451,1843.705,6.1514006,128.17403,3582.02416992188
554,646.9963,1314.699,197.60684,1550.3688,-71.54601,-286.95642,2901.92260742188
555,-1940.2766,-3203.5444,1267.4976,360.85477,-66.49437,-15.819382,4042.59838867188
556,-1713.113,-4663.4336,-40.59286,492.02527,-156.57587,115.583916,4156.45068359375
557,-1339.2902,-1142.8782,948.7658,-2481.1526,563.98956,-213.70541,4938.01513671875
558,921.22284,-1643.0367,383.46246,-453.1326,64.59897,77.5413,2476.328125
559,2246.7654,-1050.3794,440.04105,310.07678,-101.865944,-145.6264,2926.017578125
560,-940.51086,1636.3564,-191.47673,-93.69988,56.583473,-132.3529,2315.087890625
561,896.17535,-1416.1465,242.3076,371.52686,13.858929,-23.206503,2163.03295898438
562,961.9336,-1265.3019,267.9526,375.04547,-95.64827,-23.600029,2085.09521484375
563,-76.437546,-1326.8368,-682.87964,-571.17645,84.91619,-44.0406,1476.19580078125
564,-1722.333,1677.0061,424.4745,-442.1742,45.135445,28.381191,3075.978515625
565,-437.28735,1151.1814,210.07689,617.46906,-20.587425,-183.97118,1777.80969238281
566,1393.774,1467.6809,-1033.3267,55.10811,105.42607,-322.5637,2535.79516601563
567,340.0261,433.89532,-74.26594,-1881.3906,-408.30493,-30.979914,3367.67700195313
568,638.90735,633.54816,1443.6434,2345.6428,407.32553,-208.66707,4217.39599609375
569,-3109.5647,-107.12197,-961.89355,-1682.9294,787.84595,-186.28215,4200.220703125
570,-2665.945,-207.91664,-362.56503,-2128.712,-14.607472,79.54658,4393.1259765625
571,1738.7504,-2923.2961,-5432.635,3954.2876,-752.51654,543.6204,9445.8818359375
572,-1944.7786,3336.3066,2247.353,-641.0566,-250.98944,-9.764536,4974.63134765625
573,3490.534,-1446.8527,-3196.0667,323.83057,339.98877,89.53412,6062.9619140625
