Element Label,S11,S22,S33,S12,S13,S23,Mises
1,28204.441,16975.74,43281.84,3246.0818,2362.377,-224.83047,23900.13671875
2,-47515.555,-41718.2,-54338.348,579.3176,40.370277,971.21155,11115.55078125
3,61353.92,62017.184,93682.17,9074.695,-5273.061,1773.8236,36932.625
4,-59004.426,-69174.12,-98087.22,-2270.1604,-5567.243,-3799.1445,37217.890625
5,51437.34,67941.41,85105.76,11826.551,3000.0771,-9369.413,39499.8984375
6,-4981.3916,-25530.568,-30977.082,-393.04565,-211.10654,-1791.5938,23959.990234375
7,27869.102,32755.297,24207.484,2693.488,707.7383,2089.5305,9567.625
8,-61179.367,-80221.734,-62475.387,-18659.7,-3405.3813,-3166.4797,38066.19140625
9,30932.918,55212.61,47987.535,-10892.238,15136.622,693.92194,38871.60546875
10,-27787.217,-36076.13,-35080.824,3852.5476,-2624.8254,20331.857,36970.19921875
11,22587.697,44827.656,29855.953,-14094.57,-3051.6863,-1882.492,31942.73046875
12,-50408.94,-53401.176,-35892.6,-7788.2812,710.91986,6163.5854,23676.388671875
13,14191.607,37238.57,36306.62,1901.5214,-5443.5415,-13083.473,33523.54296875
14,-16181.142,-1193.2332,-6110.746,798.35345,3195.7112,20585.398,38457.01171875
15,15667.0,11167.053,16827.682,1518.863,-1798.0006,7813.095,15052.3203125
16,23003.553,32059.447,50728.13,-13732.528,-4550.0806,-8849.356,38241.08203125
17,-10309.136,3934.9316,-28201.516,-8788.144,2670.0579,840.4915,32141.75390625
18,-5591.149,-10852.456,5058.8823,-19968.389,-7387.977,-823.1932,39485.78125
19,153131.27,154668.05,154831.62,124.61019,-346.59058,-564.84235,2000.98413085938
20,112938.86,94035.47,107965.305,-2165.1833,320.84393,-8627.99,22929.390625
21,-30692.805,6223.3096,-14363.873,10051.824,-5480.2007,-1148.2999,37733.32421875
22,33722.176,21711.363,-6426.6826,6930.1367,-7796.0815,1359.2664,40074.0546875
23,29710.498,33937.03,20328.02,2512.108,550.705,7899.604,18777.724609375
24,-11573.5,9186.239,11221.879,-4881.511,-4722.186,448.5186,24826.55859375
25,-5206.0293,-8597.598,-38902.574,11697.477,-6155.3086,-2235.9766,39646.3203125
26,-30185.87,734.0964,5838.479,10172.803,5822.411,2264.4646,39591.2734375
27,114229.26,82307.16,85867.84,-8405.682,3450.3333,-530.0552,34154.9140625
28,-69018.375,-55887.387,-80315.8,13543.589,-3339.0208,10665.509,37059.328125
29,27016.87,12602.481,20324.328,20975.44,-3581.4941,2403.3574,39138.37890625
30,11306.753,29535.742,-7457.634,-9342.582,-5700.0415,-4612.877,38073.78125
31,-26791.693,14729.68,-8763.679,-4520.0034,-2394.728,-2450.642,37376.44140625
32,-12147.373,-28776.486,-11015.204,4194.8857,7584.4575,9241.071,27896.083984375
33,-17282.84,13592.094,22362.586,-3984.2012,-666.53204,1285.3351,36808.72265625
34,-23707.467,-46300.996,-67906.44,5909.06,-1217.0933,-3403.0015,40116.60546875
35,-55570.734,-46713.7,-41185.73,20767.969,4142.2886,727.025,38793.734375
36,238785.44,261819.39,281572.72,-6989.017,3209.75,698.2638,39429.22265625
37,-2809.7834,-27851.506,-15714.974,-17826.992,-5011.569,-4097.022,39364.61328125
38,75.72907,32391.465,38018.953,7494.149,-571.935,365.23087,37784.91796875
39,22664.752,29681.7,-329.31055,-16064.628,838.44885,-4609.0303,39741.26171875
40,9147.091,-22926.885,-14536.245,-15334.375,-211.11469,-2190.64,39369.796875
41,-697.1802,-6744.8706,8650.221,-289.13138,-6934.5283,8245.805,22999.400390625
42,5908.1978,-15916.3955,-2684.485,-10823.7,-16326.81,-3586.4917,39399.94140625
43,38851.094,38014.207,37693.348,-786.6819,554.64856,225.51903,2000.98461914063
44,21529.648,19944.197,21528.883,-498.94974,70.96798,493.1318,2000.98498535156
45,112091.14,111708.414,112459.91,865.7252,-202.47162,-535.5296,1911.91125488281
46,31945.893,29177.521,24046.342,-9467.903,2678.4143,-4298.146,19851.080078125
47,3887.682,3590.1013,4218.4287,884.3408,-298.42218,603.93933,2000.98559570313
48,51558.484,36119.39,44619.83,6382.7515,-1711.7184,-3636.0205,18709.7421875
49,-76998.58,-84567.97,-109238.46,224.70734,-5155.7476,5495.67,31987.08203125
50,-57362.07,-57335.316,-55542.242,-1157.0898,1476.6632,5032.5303,9476.341796875
51,-93587.9,-73073.945,-56503.7,-10965.244,2311.7385,-6802.296,39381.1171875
52,-102047.92,-78399.6,-95107.32,-16124.836,4908.0884,4304.4116,36758.1875
53,-5326.5684,31640.22,15434.822,-12686.776,661.8848,3421.4158,39362.3203125
54,11991.187,52114.613,45493.746,-8234.449,-2034.0167,553.826,40060.25
55,9983.895,11209.095,-938.4263,20514.598,877.6125,3008.144,37764.84765625
56,19632.318,-5088.002,28826.273,-8691.097,11033.835,-772.24805,38942.671875
57,14354.107,7704.843,32582.074,-957.6172,-4724.293,8297.179,27819.265625
58,2155.481,24056.863,-6137.4893,-10212.756,-5531.704,4714.1187,34661.80078125
59,-24643.969,13566.078,-18866.041,-111.394936,-2153.7424,-4994.2124,36897.109375
60,9467.454,262.3877,40011.56,4356.7505,686.2157,1235.8307,36902.2265625
61,-7954.6,6382.0312,-4516.4087,7201.461,-2127.2559,1602.5636,18572.330078125
62,28128.547,6083.8896,20416.46,9582.811,-115.08847,1478.3824,25642.15625
63,-2556.4238,8654.253,23666.844,8932.648,-3581.1013,-287.05164,28239.248046875
64,-4274.6226,-29338.922,8273.133,-9304.875,-5900.4604,-1170.5118,38320.55078125
65,-1038.6836,23173.908,24769.086,14145.75,4264.958,3785.7305,36404.51953125
66,22448.256,1210.4512,13239.928,19604.434,419.57504,-247.86456,38652.125
67,-4524.199,-11747.731,-43814.797,7366.7803,2489.7285,1128.194,38695.43359375
68,-37149.6,-36279.152,-1521.9689,-179.84186,8360.325,-6399.922,39645.08984375
69,44914.61,21425.867,57303.492,-12331.537,4512.083,1035.7443,38944.83203125
70,16803.285,-9877.771,-24947.44,8770.19,-2434.2568,-2740.1477,40150.95703125
71,-158283.56,-178554.55,-147355.27,3486.4136,-2739.613,8550.889,32096.771484375
72,-31651.771,-12943.402,-46779.758,14750.955,3641.9048,691.81934,39444.609375
73,38706.58,51476.77,69987.11,14726.423,2441.4055,-6470.6694,39194.1796875
74,177568.7,174717.14,184320.56,2181.4675,-1519.7296,3107.928,11097.5283203125
75,64509.82,72236.914,69694.86,6884.421,4097.568,8932.419,21873.4453125
76,-375691.72,-360107.9,-372777.53,-10024.994,-7990.507,-8407.14,30183.1015625
77,98655.6,99646.84,99538.88,-772.09094,4.248466,665.25055,2000.82568359375
78,11305.751,13292.946,-682.751,-6547.349,-4984.154,3294.7112,20178.966796875
79,-9328.037,-38027.168,-26378.598,10856.619,6842.041,-3152.9553,33895.25
80,-24155.58,-2713.305,17010.172,-9786.279,-3894.6064,303.58395,40059.91796875
81,20062.701,-8686.986,-23256.12,2462.4045,-432.65723,-5577.334,39619.8671875
82,12975.759,-17867.39,21154.922,-576.8669,692.07275,-8502.814,38597.91015625
83,101593.805,71617.625,95313.43,6361.1357,-8495.586,9230.997,36651.109375
84,27256.45,14076.991,41454.43,16879.832,-1886.9138,1719.0863,37904.296875
85,-2904.396,22734.842,2063.7104,-4065.458,-367.75757,545.94446,24608.0859375
86,8450.412,5079.418,9379.993,2166.6125,6353.8994,5931.892,16003.8154296875
87,-43398.11,-25737.768,-70895.86,2452.3127,102.988754,1163.1562,39695.91796875
88,-23108.594,8076.8906,-30875.035,-6499.3027,-1716.9176,1118.0879,37608.09765625
89,2822.375,9075.33,25573.848,-12528.125,2851.2742,-8447.81,33523.3125
90,-18230.494,9405.814,-22234.531,2385.886,10832.319,2823.6807,35825.53515625
91,-12472.708,-9691.74,14134.882,-6549.756,8100.304,-207.3397,31102.642578125
92,-833569.75,-840640.4,-854056.94,-4166.834,-10121.924,15490.581,37472.43359375
93,151993.73,116272.6,152738.75,-2921.565,4593.9136,4373.873,38072.015625
94,-159022.89,-116098.3,-134136.16,3356.3823,97.72461,-4780.466,38678.16796875
95,47456.504,35913.336,66622.65,-2349.4104,-2800.914,6115.693,29565.580078125
96,29959.553,16155.128,41952.836,-4654.6343,8284.428,4940.954,29053.26953125
97,27938.549,-7430.5273,9277.5,-13802.01,1414.294,2040.0442,39104.40625
98,-167810.64,-191258.36,-170519.39,3615.7605,949.6591,-10957.24,29928.73046875
99,-112594.44,-112907.89,-101897.836,-5481.193,-7976.2104,-4702.486,21568.466796875
100,-47401.457,-48834.746,-83673.65,-4663.665,-1473.3262,-7247.9526,38666.4921875
101,35295.137,21147.713,8126.7285,15909.163,4553.563,-7022.889,39030.515625
102,-27557.281,-16558.004,13452.258,-3635.8186,5073.2485,-888.4142,38352.703125
103,799.87885,11752.575,38782.203,5303.0415,-4283.573,1873.8307,36007.73828125
104,28882.223,-13993.629,4291.366,-2427.9775,2664.2988,1166.7018,37838.59375
105,87133.04,120015.26,116665.586,-1370.1486,9267.791,6045.3906,36813.91015625
106,-8026.1704,22926.91,16866.559,-13055.384,725.15076,-3496.966,36835.13671875
107,3817.7942,-6654.0693,-3201.8147,-9463.349,7390.6406,3025.1753,23354.0390625
108,-22940.28,-40651.42,-62883.68,-9656.585,-4706.7383,3734.3481,39871.8125
109,7408.9956,-11797.547,5166.9814,5982.7007,-1861.7806,2084.0654,21486.3515625
110,-22128.352,7767.047,-18122.947,13940.905,1092.5269,-306.9279,37107.20703125
111,12701.363,27160.795,23825.684,2399.24,-3020.946,-4773.148,16881.0703125
112,-9266.965,23371.818,-9103.114,8863.599,44.19117,5875.8013,37406.41796875
113,12617.854,-18192.06,-22356.893,2730.6147,3233.1055,4071.0796,34617.38671875
114,23313.105,30189.645,-168.54102,7388.7075,-7614.8745,10702.615,37967.390625
115,67556.32,41683.582,40056.156,8576.159,3770.6135,-2500.0444,31562.759765625
116,20922.68,8909.235,334.6341,12836.116,5544.845,14068.682,38744.98828125
117,245712.31,241317.53,210894.77,2742.1587,3201.3582,-5193.7676,34825.13671875
118,-461292.78,-486733.03,-476938.06,12719.08,68.61021,-8316.934,34450.17578125
119,152424.4,151309.16,151699.9,-930.6887,-214.45963,319.75372,2000.98352050781
120,109389.78,109175.055,109298.09,-300.24527,361.53125,-1047.8987,1997.91333007813
121,15859.178,-8470.719,-12975.927,12127.455,-6011.194,9730.446,39440.15234375
122,79311.305,80765.74,99904.375,15329.641,-7823.7295,-9087.936,39148.8984375
123,-1376272.6,-1378739.0,-1403652.1,1532.9773,-10342.247,-11682.257,37756.50390625
124,15048.031,-19011.094,-25264.502,2958.868,2977.7383,-6408.276,39851.953125
125,-25533.498,5277.2754,-31155.156,-5739.8613,9171.616,-1241.9935,38857.890625
126,138135.31,139438.31,137591.9,-616.4452,-200.99059,-41.59104,1991.87170410156
127,-19318.979,-18012.75,-19452.943,-194.63364,-201.85516,-775.5267,1984.78625488281
128,15856.582,39916.06,3818.1748,-10046.037,-2470.6807,7272.9907,38641.81640625
129,-34633.098,-38102.82,1176.3593,2233.401,3250.2195,6213.374,39762.78515625
130,-7868.545,-583.65234,-43296.508,3238.2512,-1636.0139,1282.6677,40133.81640625
131,15273.533,24811.18,46709.312,-15917.658,3157.6863,181.55988,39616.6484375
132,14092.03,16892.287,5287.334,-9946.662,1339.134,3818.4773,21352.984375
133,-147672.28,-160662.64,-127396.945,14673.585,-227.17679,-1970.8005,38742.37890625
134,233271.14,213877.0,224936.45,-9089.294,7979.7188,14013.549,36221.09765625
135,23636.879,44330.44,33187.957,-19309.623,-3317.3135,-1266.2256,38447.484375
136,51966.516,52074.21,52044.055,-1088.7452,-224.95872,-302.47086,1997.90979003906
137,-16638.445,-21252.402,13280.348,10004.53,3244.2444,-7275.2783,39307.80078125
138,115842.14,115947.68,115672.016,-30.337982,-476.7775,1042.6243,2000.98559570313
139,39163.312,37843.562,38408.92,650.7509,604.52936,-233.9567,1961.18408203125
140,2722.6565,16986.756,-16983.12,-8224.852,2812.4016,-11368.353,38564.99609375
141,48226.58,36068.77,6172.08,6281.612,190.60732,3498.6714,39500.75390625
142,21000.668,11751.28,38376.938,-17036.57,416.1804,4455.8696,38458.08203125
143,-22627.55,15420.421,16227.38,526.8323,-17.458807,-1212.9955,38525.96875
144,29252.19,-9647.111,-8301.097,-1489.7588,-2606.8994,-825.46826,38622.51171875
145,16795.805,20012.88,-14589.33,10133.602,-4080.4548,2036.103,38298.84765625
146,-6319.2676,26587.598,34266.406,782.91846,3044.1963,704.938,37757.6796875
147,12046.834,12690.452,16511.096,-11034.278,-3633.057,-557.4376,20573.4296875
148,-37216.49,-9225.639,-4175.961,10423.7705,5278.6143,4639.2217,37741.953125
149,110023.48,108042.19,109775.77,245.58302,-60.940254,324.43433,2000.98449707031
150,3533.1487,5156.2817,3170.8357,-5471.4263,97.80065,-6547.887,14893.5087890625
151,17016.602,16993.81,55365.13,5062.0215,3150.283,-2178.5342,39904.4765625
152,-29877.957,2336.2256,-40164.67,5136.921,1207.0908,-700.86896,39496.2890625
153,-14378.895,-44328.734,-52989.05,-2774.7502,-193.90674,10225.313,39601.14453125
154,58524.35,47709.18,32276.068,-17713.334,2061.6672,-6528.391,40049.44921875
155,169112.03,144360.73,181459.19,10577.984,6105.553,-3733.433,39497.0546875
156,-90099.06,-70439.64,-51832.934,12313.218,2321.0837,-408.87613,39623.34375
157,62655.45,93304.25,82003.46,-15550.794,1024.515,4928.5176,39015.4140625
158,13275.841,-8736.813,-20420.914,-15095.189,-1058.8273,994.1744,39600.453125
159,-263731.88,-268273.03,-239689.14,12486.402,3766.8792,-8137.2905,37640.43359375
160,-31271.787,-17140.86,-53031.926,2512.5608,-7759.4395,-3899.6873,35012.37109375
161,2716.8003,5086.7856,18709.672,2739.176,-2283.3765,1247.6652,16318.90234375
162,-16978.477,20525.48,-5671.1753,2579.3079,-6626.356,5105.1865,36608.828125
163,-18162.746,-24331.607,14944.051,3923.682,-45.09673,2210.9456,37405.921875
164,-135956.66,-117249.64,-134692.72,-16422.287,6677.7646,-7637.538,38023.06640625
165,90608.625,65991.51,92756.03,-4175.3594,-4837.7734,12177.177,35083.33984375
166,-5953.174,-29413.25,-3900.8914,-14786.808,-10455.827,1169.2323,39884.296875
167,13906.831,2082.4163,-12045.843,11841.508,2244.0093,-1712.9811,30839.203125
168,-15238.532,721.33777,-3052.9773,-9588.032,-5011.609,9412.937,28734.564453125
169,-68368.805,-41518.32,-52608.66,-1153.7861,1587.033,2258.337,23937.69140625
170,-39130.254,-51143.97,-55732.33,-15016.666,745.83527,-3845.3936,30708.8984375
171,-68333.28,-51070.56,-62488.25,5781.306,-2203.2666,3341.4602,19483.185546875
172,11886.534,12557.043,-4499.423,17177.992,4048.5312,-4318.5195,35641.3671875
173,-14802.521,-20452.582,3269.5537,-7648.5723,10209.829,-2954.7961,31225.751953125
174,-28479.404,-25065.809,-9773.531,-19493.898,1592.9078,-3114.9766,38398.76953125
175,1531.2148,-21059.205,-38551.242,9693.811,-1048.8579,-4989.1963,39640.09765625
176,-26141.06,-13583.243,6339.5093,-13800.755,5448.8184,-245.38013,38280.9765625
177,96303.55,94920.03,94359.51,325.97116,-75.76964,-470.48386,2000.96350097656
178,-33321.867,-13930.672,2087.544,-6791.3755,4262.3223,9244.384,37315.6875
179,-211677.72,-236885.8,-196523.81,-10211.038,-1060.3489,-1787.3032,39659.0625
180,-6092.2856,19297.998,39171.605,686.4007,-1784.4199,2585.6199,39689.36328125
181,23481.816,-312.11426,20429.162,-2365.6655,986.90967,6450.1455,25443.2578125
182,-27872.03,-39912.094,-18131.21,-1446.2715,7034.3354,1769.6273,22830.73046875
183,-9077.273,-25693.05,-2266.5693,-5894.7163,3230.1628,646.8599,23925.615234375
184,28801.367,21650.805,61203.406,-1024.1404,-2424.3086,5891.266,38178.72265625
185,-15022.941,-7617.1836,-27739.428,-2726.7139,1578.2501,-3309.013,19322.4140625
186,-7612.728,5532.4404,-16814.412,-506.21902,-1048.9368,-1914.8445,19836.673828125
187,-13840.245,-4137.019,-10280.671,8360.001,-1408.729,-6130.6147,20016.482421875
188,101236.88,100479.81,100374.04,93.7277,-617.1749,-836.0375,1982.51525878906
189,1026.62,-4869.411,9174.132,-4602.934,12644.151,-7186.3066,29108.36328125
190,-28727.182,-6576.8267,11318.855,8116.42,-3096.7578,-1188.9554,37920.03125
191,-29581.06,-16370.41,-1880.4419,-10383.61,-6696.3237,-12688.214,38946.82421875
192,-31822.941,-26732.805,4501.8887,-7014.5796,2425.1982,6304.3525,38013.11328125
193,12342.478,29182.84,-11805.476,-811.19635,-4519.2427,6071.126,38042.11328125
194,15556.594,28552.19,54486.938,-1505.3926,3540.8035,5910.138,36438.08203125
195,-10436.177,-42254.465,-31629.562,-11474.384,-5138.7505,2320.6724,35743.3515625
196,39194.246,31722.121,57068.71,15342.888,-7088.4253,-1152.7443,37011.15625
197,7628.191,8981.143,24265.898,2516.903,-2051.4495,-9624.781,23783.875
198,32240.154,-3735.1777,7843.2983,-6684.055,8368.484,-3570.2178,37337.78125
199,-2019811.5,-2020349.0,-2044999.2,295.58875,11378.909,11910.696,37887.57421875
200,-13336.12,-17796.734,-52938.78,-4403.3394,539.06085,-4006.954,38972.07421875
201,30780.736,-6933.258,7957.5195,-4704.191,-5956.254,6169.357,37006.64453125
202,5037.4053,2469.3718,1970.8568,21888.451,-4402.279,2451.0564,39007.6875
203,68437.21,28295.074,34071.496,-4395.756,-5067.6143,1959.3524,39489.3359375
204,31957.943,42224.13,5899.811,-10704.011,1436.3037,-5389.4897,38587.4921875
205,30339.39,6622.7734,18658.902,5825.05,7669.241,2568.7559,26831.529296875
206,-2304.756,-6480.3677,1912.5605,-12372.413,-13940.415,-10524.201,37780.1953125
207,-8450.7705,-1722.3428,-13247.859,14172.935,-1218.746,4467.379,27703.88671875
208,-9777.363,-27766.523,9318.106,6505.481,2699.4116,-10680.204,39022.8515625
209,-7029.9473,-2589.184,14716.09,-15845.915,-5331.072,-1023.6338,35181.31640625
210,11291.162,-9670.473,17443.03,14571.957,10307.246,874.378,39550.296875
211,-29724.885,2621.2002,-13863.466,3930.284,-3007.2402,4434.3457,30286.3203125
212,-5015.6836,-18894.232,-28774.484,-7483.8584,2402.3591,1333.9637,24860.287109375
213,-28506.299,-7388.9062,-37092.86,-6321.356,-4639.7266,3593.515,30400.640625
214,327.87622,-39967.805,-7876.589,7413.0273,1922.1906,-1618.8385,39297.0234375
215,13287.887,867.2549,29056.367,-14271.572,5226.031,4824.987,36899.6015625
216,-9072.492,-9248.024,-886.8574,2518.6465,15057.116,-7754.306,30790.275390625
217,3129.6155,14201.832,-22117.686,577.37494,718.8331,4091.921,33050.65234375
218,108.96138,29033.568,37069.99,3612.822,-2529.6895,11836.04,40153.43359375
219,-55767.54,-73720.97,-90809.7,11953.726,-5777.3174,6272.777,39598.00390625
220,6667.696,30319.01,45128.484,3311.3792,-9161.085,5541.511,38804.19921875
221,-10478.719,3009.1836,-33111.582,-9591.671,-7111.4136,2475.182,38020.2109375
222,-1400308.4,-1414220.6,-1427836.6,915.0688,16616.445,-695.0425,37425.33203125
223,79885.86,93382.56,113951.195,10278.187,8519.563,1125.8011,37700.3046875
224,-21847.467,-37281.633,-13202.456,-2948.3215,-14184.076,3450.7092,33342.796875
225,-88775.79,-65050.746,-70331.57,11357.782,13903.284,2333.7056,38062.01953125
226,26958.89,16605.445,42584.285,7766.5605,-2937.654,647.8323,26855.732421875
227,2416.8848,23561.984,41651.8,-5956.5864,-2081.3733,7765.3447,38173.3984375
228,17550.957,19445.238,23821.209,-3570.82,299.0509,-1412.9807,8691.193359375
229,1615.8711,-5775.046,-19570.506,522.64087,682.52826,-1472.7994,18858.044921875
230,3900.772,-11274.187,-12680.896,1857.6569,7315.334,-4190.0615,21844.216796875
231,-11137.777,-6467.6772,-17455.13,-2432.5283,-2795.1035,2345.496,12203.0693359375
232,-4585.328,-6122.1787,-36239.91,6969.5225,-6609.8525,-1532.4736,35207.453125
233,15645.175,16625.496,13118.522,-6471.527,-3048.9465,2752.7043,13641.271484375
234,468.19788,-14839.781,15526.5,-12307.895,3453.483,41.354355,34377.84765625
235,7784.3965,-12761.594,10487.101,7731.7373,2060.155,3430.8818,26690.013671875
236,-6054.61,4380.548,-4066.354,1609.0018,5897.5405,-2007.118,14706.9072265625
237,7427.073,-4188.7793,-33071.332,2724.9988,-563.36786,-5236.244,37551.41796875
238,32840.77,9895.641,36609.26,8510.701,-465.65228,-903.95544,29112.662109375
239,-3340.3145,-2864.332,-31434.625,12849.316,2246.858,5094.124,37298.78515625
240,17646.436,14242.029,-2951.6953,4183.3926,4793.9014,-734.9208,22109.17578125
241,-4331.2285,21312.273,1887.7417,10652.953,4270.078,-2068.3113,30737.26171875
242,13443.404,-6374.3857,-29632.621,-4308.7383,-1472.4232,1122.4784,38217.75390625
243,8035.4316,23161.39,42675.164,-13760.697,6473.235,-894.0386,40011.53515625
244,5230.543,10004.716,27258.562,11506.581,-1884.9978,1280.8501,28559.5234375
245,12326.582,-4310.5513,-5611.268,5853.4966,-8149.984,1489.2374,24674.6171875
246,49932.05,55085.543,89288.39,8004.4688,-3659.5823,-226.50034,40064.98828125
247,-22934.389,-58078.953,-59544.23,4784.2456,3683.4966,-6050.905,38832.921875
248,56584.38,26301.447,15735.818,8471.333,1134.6898,925.7558,39627.90625
249,-166846.66,-125958.55,-158515.38,-5102.6294,1651.0312,-1124.554,38609.31640625
250,-61750.297,-96070.086,-90770.19,-6043.305,2840.0154,-7438.3755,36384.0
251,119715.734,118726.33,151284.48,8346.0,-881.0835,-5249.33,36369.7890625
252,-48861.7,-53271.13,-65650.56,1283.5535,-4008.0862,-3027.0535,17547.240234375
253,298014.53,297234.88,298315.03,-417.63455,-919.08575,-68.42179,2000.9765625
254,-27462.3,-38779.246,-23645.762,3219.0286,-13131.089,-7772.3438,30255.935546875
255,-20144506.0,-20143522.0,-20142514.0,-304.77603,467.57162,180.83487,2002.20642089844
256,376375.8,376202.62,377166.44,337.0323,-805.04114,-336.08295,1848.21789550781
257,31302.193,30100.002,30005.152,394.6766,776.2718,-173.87642,1983.45397949219
258,209997.52,211459.62,210107.97,749.0334,-69.32789,-325.54794,2000.99621582031
259,200594.6,201081.31,201893.98,702.1651,591.7025,246.06229,2000.98889160156
260,-130817.19,-121154.42,-132896.61,3992.0098,-2256.7788,-2516.1926,14137.44140625
261,420512.4,404960.28,389036.47,1948.7764,3561.3896,3998.136,28991.109375
262,-201992.86,-187915.47,-205619.92,-1017.7817,-2241.2537,10935.342,25284.58984375
263,304625.22,305615.12,290838.1,-13.729857,-4347.12,-14234.74,29483.708984375
264,-9008.714,-4151.3613,21553.451,-4553.8555,9882.649,-4330.9097,34938.1171875
265,-420450.06,-443104.22,-455074.5,-3174.9363,-676.3237,6100.3022,32725.052734375
266,42541.71,26994.889,2208.478,5304.8384,-138.53185,-3645.0544,36956.1953125
267,-35820.46,-44876.508,-75872.83,-9723.085,1115.0986,-83.70294,40135.453125
268,24393.465,25480.244,-7226.3,-13768.436,-1136.8021,308.44824,40102.6953125
269,-7697.8184,-20618.484,10533.09,-16536.553,1099.4005,-636.8018,39497.8515625
270,-31088.148,-31078.492,4700.28,-9795.0625,-2036.83,3207.3733,40144.78515625
271,37979.66,8391.617,50677.938,4062.0754,852.249,2080.2356,38432.77734375
272,4608.1523,8216.907,13464.842,5138.085,981.1877,-1128.5446,12058.6572265625
273,10816.027,-19954.332,-9763.007,13103.479,-2528.8682,-5360.211,36845.2421875
274,-2689.753,24950.29,-2302.5967,8426.215,1449.1764,-1135.0906,31250.435546875
275,4201.334,23948.984,44201.77,-9347.482,-4529.4854,5138.5645,40037.2265625
276,7937.1323,35383.977,1602.3408,-14178.57,-2035.1866,-1374.337,39856.203125
277,-72403.13,-63866.906,-93490.445,4567.823,10672.789,9236.244,36848.2421875
278,8788.621,30921.326,-9436.939,-9490.333,-1156.299,-877.7314,38754.7421875
279,-6219.7324,10932.848,-831.9595,6832.9106,2569.3833,1540.5773,19945.330078125
280,-23291.562,-35980.52,-25324.63,4772.3765,682.28784,-3405.395,15615.982421875
281,-22815.287,-26706.371,15118.115,-683.5864,-1294.9324,923.8139,40133.25390625
282,18063.412,14647.388,7677.039,-17188.791,9969.543,5946.4414,37076.75
283,-7577.422,-13962.443,-3981.3042,574.6081,2763.8604,-0.12720174,10028.4169921875
284,1426.332,-17682.81,-34736.08,12060.904,-275.83066,3608.1387,38177.57421875
285,-75748.9,-66016.36,-54122.438,18848.176,3185.7583,2820.4128,38366.890625
286,-2612.2612,-6917.048,-24123.363,3882.9402,10536.713,-8401.039,31284.005859375
287,-41343.31,-31982.984,-66642.17,-4816.688,-11065.681,7038.8423,39370.53515625
288,102936.445,81226.69,118393.22,-9766.405,-6859.7866,-5702.3696,39631.51953125
289,-2741045.5,-2732232.8,-2767754.2,-165.90947,1283.2155,-10822.361,37185.91796875
290,-267116.97,-307607.25,-281849.94,-6829.7583,245.20454,2878.7207,37748.63671875
291,-48947.57,-6851.8164,-19495.164,1560.3007,-5288.199,-1925.9613,38755.67578125
292,-17109.658,11703.812,5350.059,5138.765,2108.1987,1107.8765,27995.515625
293,7088.8257,-391.3877,26708.332,-3680.1907,-1645.5277,-1600.4161,25378.640625
294,-47840.688,-8136.9062,-9928.318,3442.9033,-2692.7642,-2474.0396,39801.37890625
295,-2059.123,-11180.621,-40808.78,4596.841,-4258.431,5005.0923,37738.98828125
296,-6924.411,-27187.379,-51530.67,-2706.3289,4996.8496,303.98102,39920.0
297,-7991.1445,-4854.6,-17102.797,784.9792,1377.8214,134.08647,11359.4423828125
298,-31488.799,-21502.303,-60897.22,9392.497,-1420.878,-1567.9187,39196.44140625
299,-1446328.5,-1441364.2,-1465254.5,-9016.408,-10960.753,9957.946,37129.15234375
300,-11025.491,-12089.981,-7712.244,-10730.108,3275.8577,593.92676,19856.87109375
301,-13563.15,-20342.791,847.9004,-5255.3926,1013.9974,1646.6898,21104.986328125
302,47869.043,38373.71,62925.812,-9440.862,-7531.1274,-6337.6533,31904.19140625
303,72620.34,92910.99,100812.01,-17104.172,-174.22606,-4130.775,39539.75390625
304,-33601.957,-51534.613,-6969.3477,-5426.1074,1594.7458,-818.38403,40080.375
305,-17263.756,18097.727,-22006.793,-4116.739,-382.01266,-612.1908,38640.08984375
306,65306.906,65918.445,66316.44,-317.05383,633.43835,660.71185,1894.9111328125
307,15498.274,-19649.889,-20976.555,-471.4568,-6903.792,2434.9622,38016.10546875
308,126442.38,129218.164,125658.64,-813.7501,-1230.0796,-1515.1499,4889.5400390625
309,-106893.414,-99157.9,-101855.445,2049.9412,-1316.8,-4489.6587,11159.203125
310,-26641.443,-10021.597,-6361.2817,-14949.922,5233.882,-6325.924,34974.046875
311,-11974764.0,-11973000.0,-11973054.0,-278.84796,495.6879,-65.88895,2000.69299316406
312,-1697.1412,-3826.2798,10033.529,-6905.9497,-36.492615,-2559.5193,18161.826171875
313,-8184.5225,-6883.947,2844.9094,-434.6261,-650.9059,106.40723,10529.337890625
314,27565.145,4351.0596,20708.469,9801.154,4385.896,6509.7256,29996.033203125
315,-21602.768,-34171.344,-61047.883,4090.508,-6266.8545,-5505.1416,38432.46484375
316,30375.502,-80.332634,-5571.0977,407.82474,-2855.349,-3086.5623,34328.86328125
317,-35232.094,-19411.643,-47271.824,-10233.632,7551.6313,-10402.586,37358.0
318,-33790.625,-68046.625,-55905.465,-12133.527,1820.4379,3487.9978,37324.0078125
319,-4712.774,-20299.736,10517.446,-5673.7983,4165.0845,-14654.053,38796.25390625
320,-10672.582,-22032.775,-41909.82,-13176.786,447.8803,-1939.755,35815.234375
321,-19276.936,-21601.451,8103.8604,3864.6375,6791.4404,7844.8335,34446.48046875
322,-12721.736,-17853.969,-22289.51,-2969.0942,11347.934,1882.167,22185.109375
323,-11133.734,-34126.445,6626.962,-7832.1206,2676.832,7176.67,40156.07421875
324,906.9416,-1557.8821,34230.6,-8459.645,6243.963,-542.54584,39130.80078125
325,-7120.541,24115.305,18452.486,3069.8198,3713.0723,-6359.2266,31965.826171875
326,-28899.182,548.5869,1338.6074,-2535.9614,4966.951,-3582.0378,31982.146484375
327,125.23242,-10605.198,-18542.865,11833.887,7959.5103,7111.7734,32019.357421875
328,-13139.78,-21396.38,-51743.734,7954.377,2269.351,969.93713,38049.80859375
329,5722.2383,-623.9834,-31994.613,-3227.4917,4448.181,-6374.23,37894.29296875
330,13809.498,20379.52,42850.625,11612.679,-11366.991,6.1918464,38573.82421875
331,9451.658,12034.109,-27264.623,-820.538,-5608.9653,-200.36465,39320.40234375
332,25144.988,8849.322,9564.119,10931.616,6220.077,-9962.739,32042.921875
333,86565.445,88057.5,87542.16,-165.42058,-180.02301,836.558,2000.42236328125
334,135170.61,135589.05,135909.38,948.40924,239.74837,-490.35056,2000.986328125
335,124405.28,125146.41,122912.98,-9733.105,-420.41498,-5813.612,19748.587890625
336,46860.21,55887.055,15525.47,-1067.5145,168.89633,-3011.0857,37106.7109375
337,-8376.996,5616.249,-10986.4,-9069.995,-2503.9863,-1799.8843,22681.642578125
338,-26715.746,-33081.145,-58923.23,-13955.33,-642.6741,1905.2732,38330.2734375
339,-9278.82,-15139.642,-31806.746,-4329.1543,1891.2932,1868.4512,22073.8203125
340,-7707.547,-2872.0981,10088.095,10929.265,-5987.627,2544.3088,27190.779296875
341,-1046.7715,22383.307,-9415.633,4037.0994,1314.382,-312.44122,29486.6015625
342,-11426.221,-7448.0957,-16257.109,7601.6255,1186.1245,3687.6172,16635.841796875
343,-24088.06,-9934.661,15474.738,1766.1195,-22.445995,614.40643,34872.296875
344,109069.016,97979.63,68559.93,-1761.8248,-1557.4487,-1270.7394,36553.703125
345,-4048.1548,-19247.273,-1882.9209,878.0003,-761.1677,617.77704,16547.109375
346,-22961.477,-21930.797,-22805.441,1405.0306,-1120.3164,45.443375,3258.78515625
347,-21150.69,-12800.643,-37319.707,-5010.4946,-3850.6792,-2862.9827,24709.529296875
348,8445.587,11386.799,5217.357,394.29727,1754.8527,750.8197,6321.6474609375
349,18809.635,14520.729,13194.972,11721.186,-9650.533,-795.6485,26819.666015625
350,-12117.7295,-8904.513,-17957.2,-2185.4968,-748.337,-2790.649,10127.1923828125
351,-8821.349,-6866.168,-11452.709,-3255.3982,193.014,-719.30164,7024.83935546875
352,-15498.393,-15463.682,-27481.781,1621.5095,-609.6139,-437.815,12393.4091796875
353,38475.363,12706.968,1593.3047,11555.689,1248.657,-897.6373,38491.578125
354,-88.970825,2517.8445,1406.463,-1718.5679,1232.1722,-115.608765,4311.46826171875
355,-29811.354,-11133.443,-24381.977,8094.5073,4927.657,-406.44855,23384.55078125
356,-1921.7334,105.75375,1276.4791,603.1454,-3445.3293,2317.5994,7789.1572265625
357,-19561.16,-20770.424,-43803.258,2861.3484,863.124,-1281.2653,24321.765625
358,-3577.4106,-7111.831,-12140.105,2214.588,1214.9054,207.8264,8649.7666015625
359,-4576.961,6736.0093,677.8997,-6891.567,-884.3525,3018.3557,16380.095703125
360,13049.844,13013.961,-32.881836,-486.0549,2485.3875,504.36206,13809.16015625
361,-5234.2666,-17683.656,-4119.5767,-1060.0448,1205.048,822.27545,13411.2998046875
362,1140.5953,1453.2202,89.27985,1741.5188,-1189.8147,981.38336,4215.05029296875
363,14248.805,8397.606,11447.081,2203.568,-372.60522,687.1914,6487.91748046875
364,4821.4634,2703.332,3468.3489,1027.1008,66.74408,-4.943341,2574.79541015625
365,914.8823,1278.7444,5772.9272,-1235.0381,0.15876326,363.6206,5190.1787109375
366,3268.4153,2063.5469,6145.4863,1191.7263,-2791.1755,-497.31366,6447.5048828125
367,-17535.156,-28833.78,4106.082,12955.664,-9192.694,-122.17598,39970.33203125
368,15804.665,-19792.543,-10065.613,10512.413,3126.6965,-2771.3171,37408.8828125
369,-10908.869,-17362.363,-18644.102,-363.81613,1627.0717,-795.6797,7861.3369140625
370,-14187.092,-14486.799,-24978.852,2492.273,-1377.4989,-304.6109,11744.048828125
371,-25507.566,-25459.025,-4857.9424,-12897.952,405.01562,967.7407,30459.484375
372,-37764.94,-40442.42,-74053.08,6047.5693,3219.4404,1001.071,37022.38671875
373,5168.947,-5827.6885,-4334.2246,3881.9011,3188.1519,-2363.6406,14113.615234375
374,3577.4841,7606.7324,-5348.174,5862.9414,940.0589,2665.036,16091.8154296875
375,-26908.436,-47173.574,-32215.43,3141.604,1674.0039,3329.2388,20063.908203125
376,5288.144,9324.932,7621.092,4254.2505,-613.4204,2022.2998,8945.0869140625
377,-7277.3066,-6015.1455,-8946.382,-1213.0828,-833.88983,643.12714,3771.8916015625
378,-9836.239,-6443.8184,-18988.88,2936.8684,-1404.0872,-1964.8942,13026.9482421875
379,-3928.3118,-2945.0276,-4744.9365,-589.02277,3143.4111,-1073.9274,6048.1904296875
380,-10729.623,-628.25977,-5565.625,-467.81937,-618.1124,-799.371,8958.8359375
381,-355.96375,529.9863,-5194.244,-2414.9412,-1652.6426,-55.495922,7360.64453125
382,16575.545,13713.41,17291.57,-2215.7283,-240.89763,-254.25089,5084.31396484375
383,3052.6802,2076.9314,4969.2227,1485.2595,105.31425,-106.21258,3630.48046875
384,-2065.7593,6263.818,2075.829,1821.103,128.69463,13.607378,7876.3203125
385,12503.203,9160.855,13272.118,-6489.277,-1665.6309,-428.822,12228.6259765625
386,-5438.446,-6674.8154,3582.1436,-3956.1267,4267.36,827.09766,14060.177734375
387,-3987.9727,-1447.6562,-5124.7725,-1231.1466,-4907.0776,2172.1768,10078.3828125
388,-6442.6113,-2692.3042,-9093.621,-882.515,-1012.1032,82.57562,6038.60693359375
389,-4908.6816,-1036.0507,-2387.0964,-637.9423,654.3643,-128.5425,3761.05737304688
390,65553.305,45092.52,88347.97,-1166.5535,3029.3718,-3050.4712,38264.4375
391,-24787.89,-29897.623,-37740.72,10489.816,-5544.3545,5893.084,25577.59375
392,30739.914,48347.19,41934.105,2183.8892,-8265.473,2687.4233,21889.62890625
393,1179.871,-18216.586,-35890.535,9740.111,-7530.118,-2558.39,38804.078125
394,-14762.236,15255.328,24899.67,999.28186,-3187.438,-2890.2153,36634.7109375
395,25939.705,5302.5557,-10768.078,11362.191,1777.2076,4878.8345,38522.6171875
396,8719.059,1086.8257,5239.028,-193.78377,393.40747,-281.927,6679.56591796875
397,22097.488,23632.932,28346.271,5981.546,82.24404,993.3066,11921.7099609375
398,6074.665,11372.779,12088.317,-2715.6672,916.6241,183.82912,7557.74658203125
399,3565.6675,6116.2104,15011.998,7076.3696,-2203.0725,755.786,16577.95703125
400,2068.2666,3499.9243,6000.735,-1518.4335,187.6743,-464.80795,4422.07275390625
401,-3117.329,-4881.053,-8131.709,-206.42842,1113.9888,1806.8925,5749.44140625
402,2730.3704,1447.544,3250.349,-461.7599,-145.91113,-331.88275,1901.8515625
403,7202.4443,10888.804,15636.531,2835.3464,1935.0825,31.274979,9433.24609375
404,-12854.851,-19064.412,1519.8636,-2120.375,-17916.527,-8227.107,38910.171875
405,5314.737,3787.8372,-4715.761,-4628.124,889.0612,-4236.327,14425.53515625
406,8561.421,8687.028,7726.303,205.74997,-926.6301,401.195,2000.97412109375
407,-1221.7222,-16208.816,-10394.051,-2471.3237,-2059.6138,1257.6898,14389.98828125
408,7419.371,16413.244,3234.6992,-9823.4375,3780.9666,-2067.1545,21937.271484375
409,-6935.242,-3405.252,-27270.582,5781.7446,1162.1577,6056.9717,26686.48828125
410,12923.021,12354.396,23140.99,2394.9333,827.5721,184.66202,11397.5634765625
411,14588.998,14161.636,13384.467,92.93637,-869.31866,444.26804,2000.98522949219
412,-8157.0537,-5194.555,-15198.9,-1504.9594,3303.3215,-1396.2397,11162.634765625
413,36713.934,20331.549,28074.299,13814.929,13955.75,5785.0557,38193.37890625
414,-139581.47,-139224.48,-140389.84,-687.0854,-677.82404,215.9215,2000.98645019531
415,-5388.228,-2656.1543,-4467.4165,-842.579,-544.1607,598.8452,3144.8994140625
416,-4030.7188,-11634.467,-19647.72,7063.0103,1571.9904,4762.15,20200.642578125
417,28667.236,23362.314,38659.223,-9744.327,11686.009,3090.756,30069.771484375
418,-4270.7573,588.9048,-4526.0767,-106.63781,-870.04456,-415.16315,5267.29541015625
419,-4377.0835,-2162.1611,335.6494,-823.57886,0.93050903,518.38995,4417.966796875
420,-605.8559,-2754.2275,-153.27527,224.8627,516.1345,301.04898,2648.66137695313
421,-16763.959,-14976.802,-31096.268,21.990187,-2621.5251,-2360.3738,16478.951171875
422,-8346.896,-3143.4448,-4044.8013,-516.35236,1186.414,-1657.5758,6038.49755859375
423,18556.883,5236.669,22379.371,-1128.8306,315.49805,481.21497,15740.7744140625
424,19724.68,21286.822,-6332.703,2522.3604,1727.0479,-2269.4978,27669.83203125
425,-1137.0625,-13582.919,-12317.08,-2033.135,-1822.1971,-776.4842,12842.0458984375
426,7872.0273,8960.523,2155.7607,-3397.0017,911.11206,941.6833,8936.005859375
427,50758.344,79715.164,69456.3,9242.741,-5157.87,-9391.542,35318.21875
428,8527.226,7813.5264,7426.153,4999.9507,1150.2706,-1132.6576,9151.640625
429,441.34424,4049.3557,16188.411,1091.8224,-284.24515,-681.5222,14470.1171875
430,-3146.8313,16870.844,-21771.01,-2129.0793,8305.571,-2535.8699,36881.140625
431,7886.343,16846.996,14788.352,-1031.7919,2006.2368,1120.5729,9226.0673828125
432,-1700.7551,-11706.588,582.0215,4631.994,-4623.9614,3588.1123,17184.34375
433,11976.173,11866.645,20484.463,1433.927,-285.98965,-307.09085,8946.0390625
434,6689.3623,8492.15,16531.1,3839.9822,575.1541,435.45242,11320.9951171875
435,26026.59,7777.549,18171.713,1764.145,-1129.4028,2152.1113,16686.541015625
436,-8115.9023,-10242.1045,-13528.025,-2354.8499,-409.8313,1026.3649,6527.22412109375
437,8442.685,8051.848,13126.864,-609.12836,-218.9449,1826.3923,5932.0390625
438,-3284.5525,-4592.1333,-2086.982,-1718.8655,-207.25093,-787.8234,3945.15087890625
439,-24376.707,-42225.98,-9032.543,-13556.86,-2533.6135,-153.4263,37398.0703125
440,-3180.8599,-4943.074,-15194.702,-8183.7446,236.60912,-1818.0757,18364.966796875
441,-2905.7676,-7435.918,-6578.858,2224.9937,812.9412,-1525.1095,6417.669921875
442,14868.2705,20289.291,34077.492,2838.7734,665.274,4232.6636,19326.09765625
443,3672.8691,8667.606,10324.333,-259.78925,869.3222,2698.0068,7763.66015625
444,-8536.557,13582.967,-21511.898,10202.667,-5500.089,-2977.0767,37071.09765625
445,-8156.1396,-4323.8687,-4009.544,-153.44261,-739.6723,-43.270184,4208.0009765625
446,-6194.7886,-4347.396,-5082.2646,-266.65088,279.81702,950.01196,2398.13891601563
447,-4111.0405,-3355.7444,-3054.4277,-616.3532,266.07712,-6.128738,1497.00537109375
448,7658.3086,23255.305,-4104.244,16500.916,-1580.9354,-2439.7344,37513.734375
449,-426.14868,-6487.701,-4494.215,5542.31,938.25916,-3181.1047,12400.953125
450,14901.443,11313.44,22974.855,760.67957,-4431.258,27.843445,12948.650390625
451,6761.2837,3169.626,-1188.187,3658.035,-1037.2781,-1247.8433,9776.765625
452,-8208.177,-9297.782,-10536.374,-2443.1775,620.58124,805.83923,5008.17041015625
453,10219.518,11839.183,19187.71,4901.5786,309.2258,599.4914,11915.0234375
454,117.08984,907.4591,-2705.619,-1033.3992,-364.94843,1143.9498,4283.98388671875
455,7344.2734,7935.378,3873.9233,-2004.4335,602.54376,3343.8457,7818.5947265625
456,1296.7119,-12039.811,-22867.678,5551.2515,-1027.2223,-760.20483,23170.2421875
457,705.187,3070.8594,7619.5996,-1679.4584,-631.5649,-324.76202,6857.33544921875
458,-5198.7905,-2627.6223,-2752.6028,-2513.2305,-865.4175,-1882.3683,6175.025390625
459,-10526.449,-12375.281,443.62256,-3009.1494,5645.89,-60.158604,16335.4365234375
460,6095.414,756.3882,10501.825,1686.5358,-2497.3486,-5069.12,13258.1669921875
461,19523.877,50232.16,61266.266,1824.3518,-133.02498,-3174.187,37998.0625
462,4141.9243,1335.782,674.08484,-3185.3052,-1083.2059,714.25024,6757.0751953125
463,9287.827,14853.922,16463.19,2948.3022,249.86089,1803.2241,8862.736328125
464,8446.062,8772.03,20868.861,-728.7588,346.8878,51.419052,12342.8095703125
465,-4583.9346,504.64258,-14909.068,4545.859,471.08298,-276.20142,15745.8369140625
466,4481.988,-5443.3047,7095.5303,-32.577274,-866.35535,-195.36417,11560.779296875
467,-51320.57,-80674.83,-44092.42,10850.035,-40.21526,1250.0773,38522.1796875
468,5189.956,5886.5854,6348.598,-1238.5876,720.4178,-1123.8032,3311.9033203125
469,-45552.234,-56312.3,-47001.816,-20807.564,2389.9724,-1864.897,37798.3671875
470,5890.778,2101.1655,531.00977,-2553.6382,-2448.47,1258.3123,8066.9140625
471,-8543.842,-9468.1875,-14513.666,512.63,1466.4242,538.60034,6251.7900390625
472,5497.1333,5345.325,6243.066,2255.5215,-553.6092,-396.76093,4164.91748046875
473,-2709.9353,-6916.279,907.06665,2132.6833,204.89485,-88.55996,7732.06787109375
474,18911.438,7376.782,20854.77,3765.1125,191.64046,2391.024,14799.6572265625
475,-10634.527,-7439.9805,-13567.054,3251.272,567.9011,-1404.074,8171.11083984375
476,531.7612,11188.356,11827.119,1038.776,50.505146,-1476.9504,11426.5927734375
477,-5381.9688,-8962.268,-7485.549,-1654.0753,404.34906,-755.16797,4485.68505859375
478,-16198.074,-12279.364,-19647.02,-287.93475,1602.8505,1696.5385,7573.4912109375
479,-17329.148,-1170.2842,-25382.988,-10465.355,3712.1294,-159.92824,28741.982421875
480,-449.74292,-3988.4556,-5533.983,-1042.2894,166.12616,-601.849,4980.8515625
481,-2929.8206,-5001.402,-5670.4404,233.39642,145.34535,-1162.6968,3226.05297851563
482,-44199.33,-46997.01,-74767.06,-1108.61,-906.84436,46.73263,29374.3984375
483,-42216.574,-48288.887,-69791.73,437.53125,258.90494,579.53046,25131.654296875
484,-150.7544,-8412.305,-5216.0845,2433.4111,1867.9229,3065.9248,10416.0859375
485,-6495.292,-10803.837,-12661.144,-2703.2656,156.25018,826.9269,7352.7568359375
486,-5147.937,-7351.656,-9503.912,-836.0497,673.273,-1895.0626,5334.994140625
487,-853.8689,-6864.613,-2511.2485,6628.912,2365.8591,-812.1403,13398.2041015625
488,4563.516,19704.549,11119.466,2989.715,-2110.4138,-1555.1874,14845.8759765625
489,-18188.436,-13607.297,-24784.441,-1123.9868,-0.40215558,-1359.1835,10200.1728515625
490,9076.2295,2980.0195,11677.637,1021.19904,-269.70462,-1795.1495,8532.5419921875
491,9606.186,3890.2275,13317.814,-5675.323,-434.61215,1485.8362,13095.0966796875
492,-6984.052,-7236.073,-10477.533,1406.5906,379.0171,201.4166,4227.9609375
493,-6750.265,-8198.153,-10078.451,-2026.0577,-615.61237,-162.41948,4678.15869140625
494,-19124.477,-15676.244,-30808.285,-3230.846,-942.74286,-61.5229,14922.564453125
495,-17841.752,-17254.586,-9218.553,6078.1616,2199.9487,-1918.5771,14353.9326171875
496,3475.7637,10594.399,19973.256,3181.9683,-217.31094,-1472.6711,15570.0126953125
497,359.14893,4730.4575,10241.928,544.13995,-291.02902,223.50192,8652.69921875
498,-6018.8154,-12490.288,-28883.342,4853.1353,593.2822,1570.2347,22266.814453125
499,-1285.9086,6511.1777,-568.81555,5123.704,7187.421,827.4699,17073.5390625
500,-11898.541,-13289.83,-26470.527,911.2939,1156.0906,948.3031,14254.9453125
501,3067.2432,2102.8716,5422.173,695.39905,125.267944,-395.55157,3273.21435546875
502,-1686.2505,-561.808,5217.466,236.12546,13.237764,162.81885,6435.07275390625
503,-4200.625,-6343.2495,-6438.3374,1378.6401,1092.2511,-297.60187,3788.17919921875
504,-8722.22,-7193.8145,-13385.352,2780.1228,11.91501,-813.0062,7508.56787109375
505,-28.414307,6526.3574,37.006836,4137.1665,336.16577,201.49152,9713.3798828125
506,-16088.275,-14586.43,-23372.121,1445.0841,484.81885,-354.19263,8578.7802734375
507,-28464.637,-30939.488,6913.76,-329.35703,1712.3324,-3291.3508,37241.546875
508,4075.8564,35.192383,5337.3687,2336.1223,1376.7118,2301.6218,7808.1064453125
509,-5622.707,-9394.057,-15667.338,-2781.2715,-1855.5219,512.7923,10562.1982421875
510,38637.746,30886.754,63861.03,2006.816,-4059.6958,-231.0724,30878.51953125
511,-7346.201,21699.682,-17334.623,-6378.695,-222.91264,-1928.2485,36971.8984375
512,15618.982,45526.9,30748.44,-16244.469,-2397.6125,-4335.029,39193.9375
513,-1184.6746,-3010.086,-5303.2915,-944.97906,665.40497,480.84354,4180.65087890625
514,-9608.875,-6157.5137,-18654.867,611.32947,384.10846,-2132.697,11839.4189453125
515,120.539246,3317.54,-246.3971,-821.3569,-877.4759,-427.71735,4051.06811523438
516,-171.84082,939.85254,12601.903,-4916.6167,-3227.607,439.5521,15954.787109375
517,19852.094,12419.949,31532.04,-1782.6741,510.70828,592.129,17024.484375
518,-23913.98,-25842.295,-41900.28,-447.74268,-206.94398,602.20953,17156.923828125
519,-5824.006,-2981.437,-13068.261,1904.6918,-330.5423,-178.2011,9615.5244140625
520,2278.5984,2393.8962,12565.644,-3125.617,523.6713,35.06289,11609.708984375
521,-8410.304,-13676.439,-5426.6245,1238.7999,-240.63675,-1046.24,7772.28662109375
522,-2764.4573,-6059.124,-3780.3767,3782.2195,-447.2468,-2158.5815,8126.12255859375
523,1505.4541,1632.3445,6328.035,2235.3535,720.9469,1190.4607,6592.62841796875
524,5359.023,2457.692,5227.062,2176.0825,-1296.9208,437.06393,5279.90185546875
525,-609.9984,-5865.5996,-1160.3068,-1226.3215,-524.8692,191.65565,5520.890625
526,4178.309,1301.7666,11356.156,-354.4832,-840.9666,-128.90584,9109.9873046875
527,-5731.47,-9604.818,-14477.23,-704.549,-114.73892,664.422,7776.16943359375
528,-47324.63,-40325.54,-74821.945,-1366.1477,674.28766,1377.8811,31783.716796875
529,258.07227,-4079.8718,-3112.7842,3117.32,-692.4016,1434.7584,7233.5849609375
530,5581.7,7219.1826,16805.586,-4440.3994,1627.3827,-1844.9857,13696.22265625
531,43.71582,-2570.227,-4749.886,526.9883,2138.5815,710.36194,5774.83349609375
532,-19436.088,-16804.26,-38925.93,-2516.7563,-924.942,855.1025,21490.38671875
533,-4907.9805,-4137.5684,-6039.852,3119.2874,-324.03568,1343.8793,6137.5537109375
534,2965.4834,-3107.7637,1099.474,3104.382,158.05652,1575.9717,8091.4248046875
535,-2603.3728,-6938.285,-720.08057,1884.8418,1718.0391,-1164.9452,7354.33984375
536,-11008.565,-7719.194,-17703.877,-244.17029,1351.7203,668.5903,9201.7314453125
537,-17618.191,-21016.48,-34609.82,98.82803,2.8606958,481.71835,15596.3720703125
538,-40217.543,-45771.016,-74363.73,-966.50287,774.96545,1086.9763,31864.11328125
539,-51442.28,-55156.305,-85987.336,379.2189,390.68973,549.1509,32873.20703125
540,3658.355,-2997.279,-19971.436,358.48227,-3050.3494,-340.64655,21772.4765625
541,-1564.3672,-3310.937,-7291.168,1137.3936,-803.58435,-1172.4844,5982.21484375
542,-1755.1769,-2333.2197,-6629.938,1812.813,-598.66394,-814.5293,5848.4228515625
543,-19126.562,-15439.832,-21083.926,-8916.304,40.23854,-820.3788,16283.8837890625
544,-3370.663,-3866.516,-2746.1575,-1179.8035,-819.96625,-432.05478,2774.5986328125
545,-44609.652,-38784.297,-65605.4,-419.047,108.663765,953.67017,24502.1328125
546,2972.2063,4896.371,-2749.9941,-4613.1733,128.59036,277.4427,10563.1943359375
547,-129.9397,705.30273,-2822.0825,-1539.1272,934.0965,420.95792,4522.1474609375
548,1564.8501,3065.9556,5811.3247,1785.0438,1657.6309,135.74338,5636.40869140625
549,16590.912,19775.582,28985.828,1256.6428,262.88052,-445.56454,11394.8544921875
550,15672.852,15536.009,26844.918,320.7761,405.75806,-226.52124,11283.5791015625
551,-39087.617,-35724.867,-61762.19,134.00497,163.72841,-99.21059,24532.77734375
552,-23924.178,-20048.547,-38155.188,-113.000206,-177.63,286.79282,16525.01171875
553,-9581.635,-22392.453,-45448.59,-1073.3304,-99.99293,-1887.8883,31705.66015625
554,7668.4775,-3110.149,1945.6003,-1494.9756,1127.5173,-462.8856,9920.0244140625
555,-399.812,-3628.0088,-1926.3219,-738.77545,1481.8707,311.57516,4042.28149414063
556,-1711.0751,-2363.3877,-784.954,1278.5593,389.18686,-278.34314,2734.64770507813
557,1253.033,-526.13367,1227.6434,-466.91058,-513.36804,-317.20523,2206.22314453125
558,-6296.334,-6616.2964,-10040.67,-9.750518,-134.35042,64.35493,3604.33642578125
559,-3317.3792,-3899.5693,-9895.654,1444.3512,342.54663,1221.8306,7132.455078125
560,11320.543,12587.482,7763.464,-4675.412,1419.9957,-11.410059,9507.4990234375
561,-4886.5923,-4386.8066,-3046.96,-848.75775,197.435,-1852.8579,3910.49462890625
562,-33757.418,-30335.074,-59973.523,-1503.4419,338.67392,-139.48576,28211.7109375
563,21248.975,8997.702,26349.94,-1921.6501,-364.0147,-321.62988,15823.80859375
564,10294.48,6459.6577,15118.342,-1529.8741,122.45947,-462.04904,8011.31396484375
565,-16307.541,-11789.237,-32260.29,2998.7996,-115.85962,-1910.4749,19620.21875
566,1626.4888,2691.4443,-5812.934,4899.3203,-438.35773,1274.156,11910.4462890625
567,-15608.614,-11114.604,-18192.398,915.8455,739.94147,-1506.8041,7032.34423828125
568,-11160.219,2441.4563,24604.752,-9356.45,-342.3489,3992.4463,35895.3359375
569,-6121.3535,-10320.038,-7137.189,-3578.0957,2841.9526,1060.8522,8967.1796875
570,-9277.791,-6559.087,-19691.559,17.038692,2351.5361,-1037.0321,12804.9287109375
