Element Label,S11,S22,S33,S12,S13,S23,Mises
1,1496.5148,38.819542,-588.4763,-892.66595,861.50604,-297.08664,2883.52197265625
2,-1727.0052,-2916.1672,-1165.677,2226.4983,-308.92804,522.55054,4286.49951171875
3,-1539.2788,453.07278,519.47614,1384.7906,-808.7608,-767.2196,3686.09130859375
4,-536.56104,-326.07507,-1411.2003,875.06085,530.66925,-1009.71265,2682.15966796875
5,-2945.6414,-1281.1488,2105.3545,-79.48106,499.3986,1196.6732,4993.89404296875
6,-829.38434,-201.99828,-2627.5266,-2511.4739,14.110752,499.37277,4942.294921875
7,5163.8784,645.2139,5591.2295,-749.3205,1148.7377,51.92077,5308.79833984375
8,-3490.3757,-3453.3835,-5006.7363,290.6708,817.77563,5.7647133,2148.63916015625
9,141.8388,-6629.1353,5884.2173,6227.016,1129.26,814.36664,15486.9287109375
10,-7442.0425,4555.6294,-6593.485,237.58833,-496.07056,-1005.88086,11765.4775390625
11,2333.493,1167.1382,2174.0354,502.90552,765.1611,-41.89697,1928.79455566406
12,1769.5818,-2569.871,-3607.3206,-196.25232,864.36584,-476.7033,5239.06298828125
13,-661.3604,-3107.766,4279.01,30.70956,205.80052,-260.65994,6543.09033203125
14,5771.626,-5966.8896,-5877.211,878.9437,295.00037,-601.14185,11849.51171875
15,-14266.061,-4793.9453,7863.757,4210.127,-232.82292,1201.595,20676.150390625
16,4439.758,1545.5399,4975.3223,-3978.1416,786.63666,-2436.5625,8795.2880859375
17,3946.9124,3929.6726,-1444.3936,638.51337,-3797.2417,1665.8936,9043.1943359375
18,180.33488,1104.8789,-612.28894,287.38986,-424.47034,577.2543,2000.955078125
19,-13794.511,7982.3247,-1172.9736,-8062.1177,-2261.7683,6782.5464,26589.94921875
20,176.67848,-1193.3888,10.24006,1896.7134,-2225.7832,828.7369,5421.4453125
21,5324.904,6494.4146,1735.2091,1364.6345,3475.2761,-1402.6161,8134.6884765625
22,338.82376,3494.4395,-5370.4497,4031.967,-1012.3238,-90.10052,10603.7265625
23,-257.354,3682.744,-13888.243,3803.3242,1311.5869,4401.0127,19018.3046875
24,-8614.356,-770.26935,-10974.259,6234.152,-1838.5586,2039.2466,14994.0166015625
25,-1861.7257,-1146.5206,-4279.971,7469.9062,-280.15598,-1315.8694,13450.556640625
26,5644.548,8142.805,23005.943,5109.6035,110.72751,-3904.698,19707.537109375
27,1857.1877,-6618.232,-11994.761,3081.381,-1233.8392,1330.9347,13589.4853515625
28,-2772.231,1232.2274,1582.5984,3533.3853,-1571.8462,1710.0852,8438.0810546875
29,4241.146,3370.0479,3512.0256,2306.1675,-2891.9973,-3404.9023,8745.373046875
30,-3847.206,-2962.0474,-4468.8003,-1687.0842,1089.9756,1146.1653,4214.74560546875
31,563.0447,83.07875,2012.6464,2504.7332,1287.5497,-666.8822,5306.23046875
32,1097.2299,-1110.6383,-793.39825,917.175,876.29376,653.95636,3222.60424804688
33,-1079.7103,-2129.858,-4469.9453,3697.2688,-2295.617,774.7911,8225.333984375
34,-2486.94,561.1456,2928.9617,710.62354,1620.542,-915.2845,5832.7822265625
35,-2258.8206,1369.8116,-577.3178,4218.706,2402.106,-809.95624,9086.458984375
36,208.74353,-427.73428,-2294.3237,1617.1243,-1473.8342,-1628.3951,5233.94189453125
37,-1507.9331,1272.206,1724.796,708.5151,-1209.2588,2971.812,6448.26953125
38,-1105.6892,-813.696,-1158.2264,874.24,380.05228,-585.306,1964.00512695313
39,687.5803,892.0175,7746.3633,2356.8455,-1044.3922,2227.0356,9123.6298828125
40,-2631.7488,1757.7054,2144.87,-649.1871,-182.97339,-2697.6733,6656.8564453125
41,-6794.2344,-3481.3435,506.9633,3442.7053,3451.5366,-201.51442,10559.9462890625
42,5648.9053,6048.3857,7118.003,-581.38586,405.04288,-505.5562,2000.98120117188
43,754.0133,426.89908,1423.844,-810.475,-640.54694,-95.92203,2000.97497558594
44,2199.8164,1811.4727,931.99176,661.54364,-411.44766,552.981,2000.99719238281
45,593.53455,9438.846,-426.1212,-3862.5063,-10336.968,-4352.044,22592.8046875
46,73.4678,16523.936,-3486.1536,-8839.676,-325.71088,-7878.274,27618.57421875
47,-13860.678,-6352.6406,8611.062,3748.517,5552.103,1493.3599,23107.42578125
48,8291.69,15030.66,15758.249,-11551.981,-2687.9272,-3094.5725,22396.3203125
49,4031.3625,4084.3284,16002.781,1994.287,-5916.887,-8698.66,22060.005859375
50,-2912.0264,7634.463,-15868.473,-3392.5586,3292.2236,1195.9829,22069.859375
51,7179.573,12557.162,10918.459,-11585.997,10708.507,7117.9297,30356.361328125
52,9101.791,-13079.33,10877.764,-200.51921,3693.8767,1055.9982,24061.369140625
53,158.81755,-8438.673,-92.883026,-3614.9949,7037.3154,5924.011,19101.673828125
54,-2712.451,-11801.913,-3831.0278,-4836.9316,284.00558,-2217.7708,12605.05859375
55,-23416.219,-17572.203,-15676.34,3147.05,5107.04,-6863.585,17265.86328125
56,-8890.698,-8539.356,-12617.919,9657.13,7249.818,1013.6386,21351.0546875
57,-2313.5981,14615.828,8382.036,1167.031,-2788.9973,-4755.8623,17754.07421875
58,1879.911,3890.4902,3522.239,1356.4186,120.16972,-859.3925,3349.06591796875
59,3914.9417,4977.883,-2412.367,-901.45654,-1332.8826,-3715.132,9852.1298828125
60,1943.0176,1432.6144,3305.9275,-1671.2172,1083.4886,-1966.3398,5129.70654296875
61,5656.983,1618.4233,-3193.893,1404.2662,2660.6658,2835.5503,10496.548828125
62,4249.8057,6657.7495,4692.7456,562.3263,783.96906,157.2315,2791.8515625
63,4634.5005,5550.161,1486.462,1674.7118,629.0335,1075.6636,5167.5234375
64,779.1157,5651.432,362.12158,1148.7979,2591.0706,-357.46353,7101.3076171875
65,2411.1729,2863.2117,1915.3218,1463.4514,849.00366,-4309.9746,8061.60595703125
66,1190.9426,1128.2091,-5340.2803,1369.5364,-1652.3169,1871.548,8159.4423828125
67,3349.376,2903.1196,-6161.704,1483.5254,-578.24255,230.3049,9704.646484375
68,2749.991,4293.7715,-2879.9763,3535.195,2591.6587,2916.4253,11221.88671875
69,2562.9282,-616.6686,4222.8584,3945.9075,-2648.0703,-3556.017,11127.7255859375
70,1387.8374,8244.447,7205.4434,1341.8762,-367.54337,270.5201,6855.31103515625
71,-2750.7356,12556.961,-6503.5005,2455.0884,-2029.3058,-2224.2395,18738.552734375
72,-6388.56,5449.281,-3825.5835,7693.7065,-243.37697,498.7332,17171.677734375
73,-7775.7827,-6562.323,4144.186,7267.178,892.7457,-5753.938,19729.26171875
74,3599.9226,6611.96,612.5612,7336.9937,-7666.007,-3499.6035,20038.30859375
75,-11596.84,-17320.314,-2634.6704,8082.5264,-9679.695,3598.6345,26082.46875
76,-19849.79,1698.9055,-4672.7095,-2155.8245,-1960.7765,1590.8274,20017.80859375
77,-21440.393,1827.7065,-6504.4033,4204.8345,3757.4731,8424.926,26931.244140625
78,-21497.38,-2324.2961,-12714.342,-10613.841,-481.917,-1730.7598,24979.896484375
79,2377.594,10379.118,4279.9453,280.77896,1663.9552,-685.38617,7897.6982421875
80,-3556.017,-585.9996,-126.43161,-1207.6213,-290.6435,2153.0164,5378.85107421875
81,1112.3837,-1310.156,-4857.3843,-2047.8477,-1872.5941,171.48691,7087.58935546875
82,-2398.0105,6044.1924,1214.8163,384.25323,296.1852,1268.3317,7704.23388671875
83,728.3009,153.70421,-4847.9844,-1203.2341,-125.79414,399.7606,5752.49658203125
84,4140.14,2494.0076,495.27798,-1643.077,1556.3468,-1967.3707,6080.48046875
85,-965.94495,4955.475,-3692.913,-1838.2113,-324.36844,1396.3263,8657.3076171875
86,2547.7559,2671.2249,-1643.0061,-213.5852,717.84906,-1288.5131,4975.81494140625
87,-364.55472,1499.9679,168.58694,221.04523,-774.1827,-1279.1158,3101.564453125
88,2660.886,-325.61942,-725.77954,778.34174,-536.642,1782.3907,4742.0009765625
89,267.77048,-280.17026,677.12823,-318.98996,-1553.4135,-2427.5437,5090.7333984375
90,3045.6921,-2111.8574,-656.2111,-238.4028,-280.02,911.38617,4910.119140625
91,4555.0483,3784.0737,510.29434,-1420.984,-2785.6267,4560.4136,10274.4775390625
92,2458.8882,1266.3683,-3598.4995,468.98627,-455.67932,-1419.1057,6181.81640625
93,6793.166,1491.3274,6009.281,383.78436,209.15648,-2692.8008,6847.96142578125
94,2302.8757,867.50116,-1163.9097,-880.7625,1341.5361,2328.3064,5752.58056640625
95,-5671.3354,-1997.9423,-3785.1992,1128.3201,-1786.8828,1246.3533,5308.59375
96,-781.6468,-985.3575,1152.306,1801.5585,-176.4736,-4450.4136,8568.806640625
97,937.7256,-49.50599,-556.3994,837.6586,1318.7092,1239.6431,3696.50268554688
98,2336.052,-1314.8575,303.2091,1167.5468,245.96051,-278.71512,3813.64624023438
99,-21772.668,-8344.553,-16632.246,719.7061,-10929.377,-3911.0242,23313.26171875
100,1235.7645,1144.4388,-17795.572,-2670.303,-1409.3586,-4773.5483,21358.201171875
101,30.514416,1661.8242,4630.06,5152.4053,-1215.874,-1128.6793,10208.4453125
102,-2149.125,8666.29,4402.628,6262.0273,1185.8438,-1214.4252,14673.8154296875
103,-1094.46,2565.1514,-3261.7476,3760.8604,600.9524,-1860.9899,8940.1796875
104,3134.5098,50.14992,1153.8218,1001.6196,-2340.6704,-275.4133,5196.22412109375
105,2201.048,-2646.9487,-2544.583,2982.4617,-48.970875,-979.64996,7251.8173828125
106,1090.5245,3188.5327,2929.7214,2091.6353,-1662.3467,-104.47296,5037.19970703125
107,4070.6577,-2746.0046,5356.7285,1120.7465,947.64246,1769.8658,8529.193359375
108,-915.4443,-948.5538,1344.9869,-495.83163,2097.8672,-2157.2214,5752.12890625
109,2806.517,1907.7188,2614.1536,1082.635,-2170.1233,-1729.5242,5224.0126953125
110,2064.5186,-8.772643,-562.0769,-1742.7015,1251.9574,1429.6445,5069.1923828125
111,1948.1047,1058.872,-2305.5771,-964.37427,-1526.529,-773.8471,5165.2177734375
112,81.16496,1407.9712,1256.1593,-636.99115,2185.0837,1636.6586,5015.87841796875
113,759.2043,4050.992,-6137.338,-2125.4028,1548.0386,-1262.7958,10325.955078125
114,-116.28915,7227.5444,935.8823,3750.9856,-406.72546,446.5733,9519.255859375
115,-58.612022,10304.339,-6170.3867,-2764.8635,-7266.854,2979.5466,20397.759765625
116,202.739,1855.288,-8418.5205,5093.5596,5988.547,-11.251279,16635.0703125
117,-3670.6887,-566.7812,-8527.303,5417.6777,-3098.6252,11225.699,23306.705078125
118,-17247.328,-5732.428,-1269.6106,2599.6597,-1456.188,-4676.909,17209.158203125
119,-30180.613,-26423.027,-17335.13,1412.7087,3618.617,981.04333,13379.6708984375
120,4769.0527,3166.6099,1157.207,257.47147,-1862.9153,-2742.7441,6557.716796875
121,-2328.5208,-5416.485,-1191.0775,-2376.8394,-1461.9435,-1000.7091,6380.115234375
122,1863.8907,-968.7413,1091.4414,4485.931,2198.8494,2442.979,9960.5419921875
123,3727.6274,1901.6423,2420.9355,4144.5366,-1511.8889,4435.7207,10957.7138671875
124,5008.757,-1414.6051,-4959.3228,2722.5889,2018.9551,-2012.4081,11099.953125
125,-4305.931,-21939.59,-23408.08,1592.2505,-1190.9302,5849.4116,21295.65234375
126,-1301.1582,7820.3613,21093.398,4181.766,-503.20514,-6251.593,23471.5625
127,-7476.451,-2127.2573,-10278.97,292.56543,-2886.8157,2204.5334,9554.9462890625
128,1467.9792,899.39343,2645.217,-1037.7487,-450.63336,-492.51297,2635.56909179688
129,3823.2139,3286.1475,5272.037,-704.80634,-659.4233,3135.6072,5954.537109375
130,-2716.779,404.51993,-8627.645,-1103.1791,1846.9194,885.99023,8908.966796875
131,4026.1277,5356.5215,-927.03345,2341.67,-629.4463,2369.559,8208.3310546875
132,3735.703,5387.1436,2731.3662,846.8123,-1501.96,-1337.506,4436.24169921875
133,3453.7617,-5427.9565,-757.4922,-1616.442,178.0398,-2850.0127,9566.498046875
134,3007.3093,79.37893,-1105.3733,-379.57562,-1937.6714,-1335.0876,5521.64892578125
135,357.6107,107.9683,435.83286,9.192,-494.41064,-1029.9507,2000.98522949219
136,2746.8662,2023.1041,-2785.692,-4271.12,1537.181,-435.7353,9461.212890625
137,805.5539,1491.6835,-634.60803,186.207,279.455,210.03139,2000.90539550781
138,134.02213,956.83057,1624.3617,-84.43338,664.5016,-573.15027,2000.85961914063
139,7736.7275,5760.4126,2048.8496,1162.4235,2532.6516,-1711.5381,7556.55224609375
140,-83.68126,12098.608,20204.422,3280.4717,-1157.3835,-2549.203,19200.47265625
141,729.53687,5170.42,-4650.2974,4656.761,-3405.0728,-1402.9188,13352.888671875
142,1944.1624,-195.6521,5920.0425,5541.961,1961.3253,4.395305,11514.1005859375
143,4054.6326,1543.7253,4666.543,-407.18533,429.55148,-1466.0244,3964.10961914063
144,6836.9766,4442.1216,-4623.449,-4143.413,1778.3303,987.84894,13173.8056640625
145,4146.689,7206.295,3904.919,507.527,-2256.0847,-3070.1584,7381.02197265625
146,4947.6875,6178.6987,1836.2087,-1257.049,-315.85095,-3738.1892,7873.30517578125
147,4486.291,2762.72,-1751.3148,-1626.0586,-680.913,-117.28414,6363.3212890625
148,4019.753,1862.6909,-2659.3137,30.126572,2049.3435,272.68765,6905.13671875
149,2287.367,-5172.459,17477.139,-5791.3647,-8275.772,-7596.8535,29646.462890625
150,5164.933,13361.737,10335.237,310.18246,-1647.4419,-2702.0493,9048.41015625
151,3544.3162,1427.1969,2543.328,-1533.3032,2295.394,-163.92271,5128.85302734375
152,-6901.9355,2120.646,-11717.55,-5112.631,8158.475,6065.5186,23162.837890625
153,-23998.193,-18309.885,-15435.685,3025.1772,-3335.9907,7564.186,17013.509765625
154,-10711.419,-15856.929,-2155.7432,1661.4503,4041.0085,-4733.5015,16376.439453125
155,-150.28467,7774.0244,7756.242,6467.1274,3326.4255,1286.9789,15042.923828125
156,2624.676,81.5293,1945.9459,4279.985,-242.64426,-19.73835,7767.5458984375
157,-4423.213,2591.5044,1325.0769,1938.95,-2483.4966,1864.1937,9062.779296875
158,2261.9646,-4315.3105,1287.7484,735.5278,2296.0151,847.9916,7576.099609375
159,287.5384,-1700.8079,5051.013,2916.2976,-556.8653,1702.1171,8441.0859375
160,-702.804,-8.720947,-4170.8613,2471.5288,780.401,-4447.9956,9717.1357421875
161,1996.7837,-171.13391,2066.5344,2526.4817,3943.8535,-1031.6779,8594.201171875
162,2542.0078,1733.7324,-3892.708,-1286.1841,-2100.4707,451.37296,7461.08642578125
163,3986.6292,-1677.5847,3998.0916,1116.9229,240.67372,-276.70023,6024.482421875
164,2842.8647,1032.0227,1107.3633,-393.17624,97.17408,2906.8713,5384.25390625
165,-42.448975,4441.8916,2365.917,-1652.1354,-430.26477,49.87,4884.78271484375
166,-844.5927,1574.1827,1970.1936,-2168.1743,2548.5754,5217.714,11055.6513671875
167,1350.8444,-3243.631,6493.38,6600.0415,741.71014,-11536.338,24551.484375
168,19160.414,-11454.977,-6807.892,-8235.6045,-4523.465,-7290.4927,35226.9765625
169,-16717.648,-27734.236,-25989.225,709.35846,1257.8605,9053.343,18903.212890625
170,7847.921,8121.091,-3589.9287,-1040.8082,2624.7183,2412.5806,13243.9580078125
171,1083.7533,1772.8717,1412.4861,-2855.0308,1897.3091,1856.1356,6778.2802734375
172,-4834.456,12577.925,8401.403,-12607.691,6846.897,2820.9966,29820.9140625
173,10203.31,7826.379,17527.184,4529.8984,484.4081,-4227.5903,13877.2734375
174,-4081.361,6695.675,-9257.634,-7484.134,-1216.6759,2168.4282,19629.240234375
175,3325.6426,8589.053,1254.2935,1813.0311,2020.8684,1932.69,8730.130859375
176,2397.3176,3024.57,780.65234,-1383.5757,1431.0298,851.2695,4252.2314453125
177,853.0066,3268.0264,-1225.571,2273.1633,-383.2909,865.1631,5775.87060546875
178,3187.1055,6192.427,-980.084,1425.4689,1133.4159,-1499.5193,7457.65478515625
179,1529.5767,-7912.5825,13635.325,2183.9146,1133.1486,9831.386,25654.1796875
180,21810.312,8641.823,-3656.2883,-11273.551,-2990.538,4166.6245,30769.97265625
181,5820.019,279.9602,3891.8093,-1136.8208,-1725.8981,-748.01385,6182.20703125
182,1169.154,3713.3608,113.03357,-3027.5833,-2330.881,-771.0932,7473.7490234375
183,-6851.8857,-11731.958,1404.5166,2660.088,-3951.8643,3300.0715,15265.203125
184,2440.4546,428.88266,-691.55664,742.97266,-175.09395,-1672.431,4206.509765625
185,-1860.134,2637.7388,-5008.5586,2281.1812,-397.62216,627.061,7846.6513671875
186,2976.9634,-2590.536,1279.5978,2174.886,-628.58136,-107.05689,6311.7451171875
187,2036.6042,2456.7847,6901.985,4945.5967,219.73233,-728.63605,9844.71875
188,-8179.2124,7559.783,-1238.2515,-649.4526,786.48535,1673.3033,14077.2880859375
189,-1499.0858,-4677.8555,720.16943,-1011.83044,-33.827023,61.46783,5017.00537109375
190,3923.6719,1918.4436,-4057.5078,-1135.8927,-2850.3733,373.05807,8965.3916015625
191,3137.5923,4723.977,2186.2925,1785.2415,23.171793,746.75476,4020.76049804688
192,-47.767574,568.4644,-162.7041,483.7638,-30.690702,-972.1484,2000.97595214844
193,-6976.0796,280.68164,-13223.3545,5326.4927,-1161.0914,3417.8984,16162.5830078125
194,-1354.9224,-2413.8574,-6117.9893,-3349.0552,-714.70374,-5618.749,12192.4697265625
195,-1308.9172,3009.1519,-9769.851,3454.6072,2628.9634,-885.4662,13625.6171875
196,-2620.3162,-7020.841,-1961.9926,4447.8457,-1003.3448,2498.0557,10187.5380859375
197,2480.0334,-5394.3857,-778.9794,838.2098,-528.72375,1514.2181,7535.90185546875
198,2551.467,-1098.8206,1445.4331,3037.8362,667.8708,-538.89026,6356.5146484375
199,4052.1877,-145.43015,-4262.245,-807.0387,-1578.0057,1610.1902,8309.71484375
200,2608.6357,-2842.9124,-8301.346,619.8449,1790.8496,1143.3955,10196.416015625
201,86.38104,-2749.1343,1851.1411,1448.9705,-666.25934,-1617.6964,5624.9091796875
202,2941.6655,1854.2537,2243.9028,2402.7705,1079.5785,1397.8551,5252.52001953125
203,2203.7058,-243.97119,-614.415,-951.7943,-1836.5328,624.21906,4586.97314453125
204,-417.9605,-509.18933,626.1052,-528.6825,766.4699,715.1747,2308.46557617188
205,-5129.654,-3345.6545,-1673.0485,3113.477,1599.993,2771.8442,8293.0517578125
206,-659.8033,-2802.191,3269.236,497.86765,3294.4053,453.495,7897.126953125
207,-392.1112,-617.3106,-1635.0045,1839.0758,-794.668,3116.2507,6518.416015625
208,1774.8132,-3788.578,-190.1958,2233.0293,-1658.7065,1840.0309,7566.4248046875
209,-13.549194,-1777.3516,-3049.0068,2452.5642,922.0071,1712.5402,6030.3349609375
210,9478.087,-2939.0024,3541.2002,-3121.1216,-706.69916,2956.4675,13139.880859375
211,-600.6786,2385.0085,302.8927,-3151.6958,2101.9453,-376.28052,7107.16748046875
212,-5727.711,-9023.354,-11886.996,-85.54285,3441.8257,-6590.7207,13941.75390625
213,-648.9981,-1517.2257,-1458.179,-87.4664,-130.01465,-57.00553,888.510559082031
214,-8966.133,-3191.6821,-1975.0266,-1323.4001,-4192.191,457.7128,10022.779296875
215,-1348.4092,-17521.658,-5806.4355,7443.526,2492.495,-1627.1163,20053.56640625
216,-430.48755,-7917.9043,51.496338,-1460.8221,827.967,-110.042946,8270.275390625
217,-6064.4272,3396.6025,686.1103,162.33768,1305.7797,-1683.3837,9214.62890625
218,2235.0808,-2303.425,371.31143,3195.1748,3682.4885,-1561.5736,9707.6298828125
219,-240.62204,-2219.9048,346.258,1503.8263,715.5153,762.61066,3935.56640625
220,1711.7972,3147.522,-816.7783,-1546.0853,-993.5126,1056.8383,5056.5205078125
221,-1657.4524,2185.3228,-606.4758,-1450.2073,-315.3753,-1432.7804,4959.74560546875
222,1628.6335,1174.3628,-2484.941,-852.494,95.986786,2641.814,6197.14453125
223,2751.395,-673.4321,1478.0198,-590.95197,3546.7957,-2113.1404,7821.30908203125
224,1831.8079,2397.8398,-337.61682,-1199.2914,663.55786,-1224.2949,4048.12060546875
225,2666.2002,464.95062,-95.28381,-1198.4016,439.23312,250.05457,3386.36010742188
226,1336.5967,2495.9104,-1665.4062,-254.50128,627.6546,672.6534,4070.60766601563
227,286.5873,989.9424,427.35443,1113.9899,2028.6403,-114.704025,4064.978515625
228,-540.8768,1806.3367,-38.155273,2192.939,71.836395,-2798.5576,6520.7626953125
229,-231.65802,-837.7982,923.719,-741.1155,-2885.084,1189.2152,5767.51318359375
230,2102.736,-3083.0674,434.00153,-2241.3123,4812.164,544.20734,10317.6162109375
231,1819.9424,-78.276794,173.47733,-2077.7485,-800.40656,2599.315,6191.212890625
232,3368.0518,-466.33008,-146.14673,-120.71921,997.7115,-5714.501,10703.91796875
233,3109.0632,2739.837,1657.7812,436.66852,-1258.6035,101.31432,2657.400390625
234,-943.147,3298.2283,251.90485,1177.5016,1191.897,692.88885,4920.40869140625
235,-523.1538,545.13434,2610.4165,64.69094,-2729.6152,-2358.18,6830.88134765625
236,2150.7441,3362.8325,2109.0903,-323.72015,-75.20924,-899.27576,2068.5322265625
237,5011.3774,5026.411,506.97217,1451.2905,-1322.862,-2046.8083,6670.42041015625
238,4987.5723,4340.384,-499.5774,-397.6748,1698.7892,211.57681,6020.20166015625
239,4173.202,4015.776,-2710.3804,549.5902,824.1796,-218.06009,7029.328125
240,6821.3477,-1842.9482,-8168.5723,-2101.6663,-3804.425,669.8688,15096.6474609375
241,-3531.1282,4226.21,-418.21417,94.02413,-412.7332,1344.836,7189.01416015625
242,3064.2446,9832.678,514.739,3778.138,93.806694,673.1068,10666.603515625
243,7973.84,2716.1824,3183.1235,-169.70602,-1046.527,1336.4565,5842.63525390625
244,2462.8193,-2299.583,-2705.997,968.1257,-30.611624,-1543.1613,5894.04833984375
245,7199.78,6999.1313,901.4961,-1637.6866,682.08655,559.0648,6987.44140625
246,3335.3481,1810.9474,5756.8,-564.28204,-130.25381,3050.2593,6387.2431640625
247,1455.5833,3238.551,482.75525,2666.5015,1651.7444,-4497.7275,9801.2255859375
248,10488.939,2931.585,-3694.0781,-452.9631,2449.574,-35.950207,13027.130859375
249,-4368.883,1967.9027,7808.5586,4701.6187,-708.49524,-297.8313,13392.7880859375
250,-342.16043,1896.5768,-1180.157,1562.3833,-569.2104,-44.939423,3986.40454101563
251,8273.392,909.07385,-1832.0391,-1535.6699,-7454.124,-3991.033,17420.82421875
252,-875.65234,2504.0176,-18371.67,1883.0996,-1826.7577,-408.7317,19945.27734375
253,-4894.2085,1210.709,-6251.2056,1064.6593,796.92,-2425.5933,8387.61328125
254,-13365.729,1212.7932,5132.5244,6270.2383,4682.4766,-999.4707,21720.099609375
255,-6253.8687,-7865.1626,-7421.999,3735.5613,-11766.721,-3921.2969,22481.96484375
256,-30096.764,-6836.3667,-764.2083,3987.4243,1778.7946,3222.36,28416.541015625
257,993.394,12229.089,31148.197,-5897.362,-2874.5881,1523.2396,28858.794921875
258,-20310.94,-35338.81,-12130.485,8010.9194,8121.8706,8806.522,32230.03125
259,-3824.591,-6005.1055,-4001.2217,539.968,4656.39,1784.8232,8937.4541015625
260,1173.709,2406.0134,1535.8398,828.2123,-303.95062,-393.89447,2000.96997070313
261,3609.8503,3164.494,4880.703,731.41345,-4.5337996,80.8149,2000.98559570313
262,9320.666,8903.294,9154.336,-812.6229,275.32364,744.5407,2000.98571777344
263,-1435.0037,-387.4449,-9953.195,-7389.2495,-424.62524,5409.3267,18294.990234375
264,4046.9346,11114.459,-82.67475,6333.426,-6799.0625,-3317.7603,19703.576171875
265,-5168.268,4457.736,9376.33,4052.6484,2278.6245,9109.382,21862.9765625
266,-20702.22,-2862.3728,-22691.455,-1472.734,1606.3759,3652.903,20297.392578125
267,-7715.62,16734.283,11263.495,-3217.792,-2603.9573,-903.31024,23405.541015625
268,5121.8564,7116.999,2761.2173,-6757.5273,-1974.3257,-2503.8945,13481.76171875
269,-19981.164,16022.359,-3404.1711,-10761.888,-7611.0283,-342.4603,38675.703125
270,-4771.959,2444.406,-2173.206,922.23,-313.02985,-5363.1875,11367.177734375
271,-61.880287,-3096.5684,2606.6926,9394.712,-677.93304,-2015.2865,17400.392578125
272,-19231.162,-23423.932,-16505.656,-4520.4785,-5332.3066,-32.40489,13529.3359375
273,-17191.22,-12317.643,-14346.057,-49.668083,3252.9456,13380.684,24225.21484375
274,-18714.053,-17257.104,3549.1846,-720.25006,6237.3613,-11678.323,31508.064453125
275,-11920.524,-11581.767,-10136.091,-8333.858,-266.4836,-39.585094,14535.1923828125
276,-9953.492,-2722.314,2056.9944,-4847.107,-48.715984,-994.1847,13533.197265625
277,-13267.929,5052.2383,-4666.4375,2602.0618,477.075,-2248.2883,16976.2421875
278,-6474.8174,10090.323,9334.034,3275.9207,-648.6548,984.41425,17286.1875
279,2400.2249,-2600.5908,20.459839,2689.7627,2567.252,425.56824,7796.84619140625
280,937.5296,-27.58966,2048.607,1107.6202,1290.3573,-62.502293,3453.33520507813
281,3362.7563,1421.9717,-5844.419,1927.9111,-2568.4312,-3907.2522,12141.271484375
282,-8613.479,-19091.46,-2585.3184,-5144.38,-1502.3748,-597.7772,17219.962890625
283,1545.8585,-2159.4688,737.4823,671.37634,-847.0249,1321.0913,4486.4306640625
284,2115.721,5102.868,388.52173,2079.315,-913.3828,-1290.4159,6126.5517578125
285,7818.021,2329.9531,1716.9695,892.2158,-2000.8176,-441.75848,6988.7158203125
286,4407.5347,9085.454,13072.635,-1837.7216,2178.0054,-2394.8113,9899.515625
287,2370.8486,1426.649,-959.7046,-1057.9335,-337.67496,138.68195,3549.20166015625
288,-164.50421,-893.80206,-398.63043,-67.00354,-8.636243,1994.7549,3516.642578125
289,2040.842,7303.996,5715.621,2103.8528,104.63167,1540.6422,6503.5400390625
290,916.29395,-1974.6594,-13733.5205,-1861.9806,72.54727,809.73553,13892.6767578125
291,-1383.2839,-1038.2532,4667.1064,5007.437,-708.33905,1594.4387,10908.4326171875
292,3209.9937,1372.8507,3851.755,-2505.1973,2897.5625,-4233.16,10136.1005859375
293,-391.88397,-2193.6687,-1474.1382,-10.077726,-1841.2477,715.3315,3764.79663085938
294,-1502.954,-1001.31213,-3901.7754,-472.3476,-486.83112,-1591.579,4023.56298828125
295,-2064.2988,-2306.2644,1055.0796,973.4547,2165.6643,255.92543,5258.65869140625
296,-944.36725,-450.71225,1201.4532,-801.0542,-101.77991,4.667388,2396.90478515625
297,5956.891,4079.8008,295.8286,-127.65313,-18.584217,-239.02794,5016.58203125
298,7010.6816,-926.3663,-4755.9404,3513.108,997.90106,-2946.0994,13195.05859375
299,-6628.5625,-370.69513,7230.1416,5887.574,4838.8613,-1784.4752,18118.666015625
300,-551.2175,-2743.1064,271.78625,6728.042,-53.813293,2200.3682,12554.6337890625
301,-5285.155,-893.1162,-4376.15,789.848,4453.5933,-3468.0508,10657.443359375
302,-196.64087,5353.231,4003.8787,-138.58331,4300.213,2893.585,10285.1689453125
303,187.97217,2538.9243,575.4842,1612.6271,72.31004,3278.4268,6695.35302734375
304,1356.1761,1370.6066,-2790.7107,-1692.8087,2125.7405,26.322433,6277.8916015625
305,-140.28882,3879.9214,2719.0178,-1848.5394,-3313.7,13.359702,7485.74365234375
306,3091.9187,8156.462,-5449.49,-2513.6382,4997.349,2401.8013,15907.392578125
307,-249.1619,-2756.4336,-1489.8062,-6000.778,-89.558334,-3139.1504,11930.20703125
308,-28255.012,-24505.404,-18036.291,-3951.1577,-1970.482,5834.849,15517.259765625
309,-7850.0205,-3802.3066,3330.112,-4948.5894,629.2894,-4245.73,14995.2548828125
310,4254.057,1906.4949,2380.9348,1014.06464,-1908.083,-588.75287,4435.0400390625
311,-5640.8726,-5799.5435,-5540.422,222.0409,341.65854,-1073.1012,2000.98522949219
312,2024.585,2982.1445,-717.4385,822.08014,2319.2502,2527.614,6956.43408203125
313,-14676.803,-16741.291,7207.958,5362.7554,-187.01982,-4425.5054,25952.328125
314,-12940.511,-10471.209,-19924.89,2409.3376,1841.3645,-10453.697,20677.318359375
315,-6106.041,13751.174,4607.892,-8593.043,2091.5352,2262.7576,23374.205078125
316,-2070.8708,1031.5425,-918.5718,519.4457,-668.3351,2351.6487,5110.58642578125
317,-8452.657,-34176.36,-7585.468,-488.60297,-5791.5454,310.40536,28042.814453125
318,-8719.661,6179.002,6169.5117,-2536.7705,975.8585,-945.5961,15705.8525390625
319,6166.292,9950.881,7900.4673,4964.417,-554.7572,-1539.3301,9629.9287109375
320,-306.70654,8815.282,4683.6187,-1318.0311,-4.190381,-1453.7993,8610.7265625
321,2993.4915,101.51196,7244.0454,399.07114,-452.61526,570.1721,6386.7763671875
322,1540.1505,1475.8522,1220.7828,1195.646,219.20613,-2398.2568,4666.19384765625
323,-1307.9099,-797.1704,1274.0454,3216.8032,105.08161,2680.033,7631.05322265625
324,-4036.6133,-1159.2776,-3489.6064,-542.73846,705.8468,517.5319,3191.58666992188
325,-9880.99,-10748.375,-13430.728,-1718.4094,1670.7676,7417.3374,13876.5224609375
326,1932.8376,-3620.5276,1449.605,-1189.9497,-1175.8899,-1853.0024,6861.97900390625
327,-467.40375,-1953.9094,3428.988,-61.718708,553.02386,-15.749075,4910.52490234375
328,-2855.371,2332.732,4605.4487,2156.9192,-1935.7732,1085.8032,8521.044921875
329,-2261.7708,183.66925,478.18256,-636.22296,282.70706,-1149.0762,3493.1884765625
330,-160.17981,3377.6348,1338.9905,-834.9919,1032.6415,1155.1276,4330.53076171875
331,4771.1147,11915.99,7345.998,2250.6145,461.325,-1375.4828,7796.93310546875
332,2074.94,2476.605,-501.2378,65.54354,200.94176,-814.7455,3155.66772460938
333,1147.8855,1334.2942,-15.741272,4217.958,-13.46797,3830.3535,9949.6015625
334,6510.571,2334.5479,-5443.0327,-1205.4938,-1805.5588,2730.2822,12120.7421875
335,2188.209,-4437.55,-445.47977,2012.3516,1072.9828,-309.39267,7019.724609375
336,1033.5747,5144.62,6541.585,-468.40463,908.3423,2172.4944,6472.08251953125
337,-14520.416,-4744.158,-510.2284,1582.7618,-610.74097,2552.5508,13530.49609375
338,-26036.62,-3330.4758,5337.0254,6252.957,9228.725,-2756.4453,34396.23046875
339,6252.355,-4231.197,-3349.677,-1237.576,8466.94,1507.0405,18108.451171875
340,88.394135,-15494.778,-29513.574,-4855.631,10237.852,5941.574,33895.40234375
341,4548.2285,9481.548,-4415.563,-14894.55,-55.76073,2528.3206,28872.787109375
342,-5065.4355,6349.288,-7398.1245,2852.4275,-1928.2701,-85.029625,14069.4609375
343,2960.3677,449.03528,1920.36,1434.5038,868.2511,-379.56607,3693.7509765625
344,-1669.6945,122.16975,1322.7603,-1488.4606,2020.953,203.57408,5082.03857421875
345,3198.1646,2980.3198,-3550.9346,3506.4954,235.3832,1750.724,9506.59765625
346,3613.0723,-1792.7688,-5279.2974,-560.7792,1650.472,-272.99524,8340.611328125
347,-1514.0112,1239.3674,-1486.6934,261.40973,-434.5631,252.52371,2910.2353515625
348,3631.579,-1725.6465,-1839.5704,1658.3749,-2106.3145,-703.7603,7236.66357421875
349,2766.9722,22277.678,3107.1748,-16311.876,-154.9055,1542.7001,34345.15234375
350,5623.932,-386.42627,181.16516,971.91864,-1206.3721,-851.3632,6512.255859375
351,1292.0017,854.7344,-1054.4557,2088.3423,919.90607,2082.6357,5771.0791015625
352,-4788.6147,-1597.5858,-1577.4738,782.24725,1015.7681,-259.44257,3921.76831054688
353,-11435.514,7220.005,-2569.3928,-1777.2819,1419.572,-894.5531,16707.986328125
354,119.00552,244.93399,1078.5223,1530.6353,30.282196,1405.5725,3711.31860351563
355,179.73584,424.88068,701.1334,350.61398,-408.59906,-207.81985,1096.97351074219
356,1254.1537,1257.1367,-11.288025,95.81601,235.85512,-300.71176,1439.03930664063
357,9486.774,34476.074,17726.514,14503.854,2656.5935,7296.948,36033.97265625
358,-653.1776,626.64996,-663.8057,128.68921,-410.3496,-405.5941,1643.17883300781
359,9776.6875,18547.182,-1268.4683,8830.979,-4221.9023,-10870.041,30621.787109375
360,1124.8019,1513.9814,34.427063,-1152.4626,-301.26324,-1001.344,3004.92724609375
361,-2988.6367,-3711.8176,868.1483,-1608.3036,-634.195,-112.7463,5214.556640625
362,-4538.3945,-2606.8743,-867.72754,-253.14539,1135.6422,524.02936,3872.94677734375
363,-1950.3367,-3259.8313,-576.11084,465.98102,-746.4174,1434.434,3728.06225585938
364,1271.1904,603.5888,-1412.3336,-793.6601,-123.48542,45.518135,2792.33203125
365,267.90753,2060.962,1237.547,355.10498,-203.21301,-53.86352,1710.9990234375
366,379.74124,1802.5869,-1462.423,-1540.439,151.5105,-1543.4095,4730.03564453125
367,823.5525,2822.1643,1447.4125,-1517.7925,177.7565,-400.3164,3259.3603515625
368,-2231.3376,762.5712,66.73572,466.2181,-252.43794,245.5593,2896.30102539063
369,597.78687,-489.33475,-58.8516,-201.0803,-170.12964,168.70837,1092.09948730469
370,-500.25836,-662.4822,103.0596,126.04531,-106.62899,100.155045,774.626525878906
371,-7657.752,4770.788,3983.926,-10076.435,3732.9106,6436.624,24819.470703125
372,771.23474,-9492.409,7082.753,-2882.1096,2210.8833,3919.4836,17193.82421875
373,-558.7887,1429.9695,-3075.0952,750.2164,305.75842,-1719.3463,5111.62158203125
374,1227.1378,1357.8978,54.69928,-1274.0078,-301.6457,787.2288,2923.43359375
375,-27202.633,-23666.602,-15698.363,-11988.572,-4195.783,-2205.9263,24551.212890625
376,11776.443,427.7273,499.79468,2779.507,2374.6907,-497.54874,12992.990234375
377,4687.526,-678.08136,-1321.428,1386.4127,1020.30676,-401.89194,6483.0263671875
378,2681.488,-2069.5203,1048.1007,235.97675,386.59555,65.29758,4255.35107421875
379,-1342.2285,-1204.7407,-6660.426,-661.8842,139.61784,1110.6234,5840.07861328125
380,-165.50568,-1440.6824,595.6359,1236.6858,178.11028,-476.568,2922.447265625
381,-541.0913,-995.82654,-51.562683,-298.58994,293.78708,-572.02094,1475.48388671875
382,114.885376,1538.6442,2439.1853,1080.065,-14.49066,-552.3485,2921.59765625
383,1259.1859,-211.56573,-34.02118,-1367.3951,-544.4018,-298.07764,2949.31982421875
384,-1364.6842,434.20663,5.18808,-415.25833,521.01013,585.5749,2238.0068359375
385,-1851.6191,-55.92737,673.667,324.3265,786.22003,597.42413,2882.30444335938
386,-3947.4458,-1376.5112,-1329.6539,-1530.5203,197.34042,-596.1378,3865.59350585938
387,-2468.9531,-358.23865,171.20111,-913.61224,-188.34976,-37.738094,2909.927734375
388,-1798.9,-103.08606,-210.85211,292.6875,-118.31642,-247.45334,1785.31262207031
389,-33.106842,-1230.1761,-95.3869,905.9697,-388.43356,-68.61644,2071.57177734375
390,-327.24207,-2925.7498,-52.445557,602.9153,644.18835,-142.33664,3152.46752929688
391,-1355.6957,-73.220825,-262.45135,3.4219656,-385.3652,-211.10368,1420.25170898438
392,680.62744,-1668.7135,1304.0667,-78.21937,506.74713,400.835,2939.98120117188
393,1513.4122,-731.9988,68.49538,-133.8985,380.23026,153.9551,2108.0419921875
394,-16800.092,-8214.6045,-1351.29,4285.3716,-6073.1475,565.0712,18612.927734375
395,-4397.663,-6470.3423,-9053.443,-3990.2834,51.009296,-885.56683,8151.6826171875
396,-2835.516,-2511.4065,1539.989,621.4714,-937.07227,-1450.6079,5285.61572265625
397,810.5171,-19238.111,4333.2754,-6333.527,2936.6653,8703.133,29298.9765625
398,-865.1011,-9667.014,-625.4531,-2949.7095,218.66055,-227.55025,10297.6494140625
399,-1795.2524,-6453.0146,-4987.0938,1510.8115,-1740.8083,-5801.6465,11572.8974609375
400,-284.55792,-411.63702,-355.58844,-691.5005,-46.230247,384.06857,1376.81689453125
401,191.74432,-1137.1088,-1064.0763,-1622.3485,62.89144,118.64753,3102.3017578125
402,-1113.412,-417.53754,127.41025,-1289.2573,-161.2032,668.8575,2750.82690429688
403,-3038.7292,-1247.842,1112.0886,1078.7584,150.6807,569.6185,4187.5517578125
404,-2440.578,-2315.159,49.232178,-755.9556,-417.83768,176.63469,2869.56201171875
405,-1335.3923,-2110.4485,-48.86035,265.965,-847.1776,367.7687,2454.4072265625
406,-1847.6694,-9.29657,-343.11615,-605.6094,272.8409,22.47657,2049.99877929688
407,-373.3301,138.07623,-1971.221,-515.93097,244.22597,-155.529,2163.79858398438
408,22186.434,9183.976,1711.9951,7067.836,13266.762,2068.2708,31823.9765625
409,1352.3372,-2426.1084,306.23334,-1623.0115,464.3274,-1999.4628,5653.4228515625
410,-56389.105,-63045.2,-28463.482,-8594.637,-3589.702,-3787.5898,36239.734375
411,1191.5981,3197.7754,1731.3584,-189.51256,267.74588,-15.287438,1885.93298339844
412,-3239.5906,3402.0076,-763.0979,601.182,-1385.7773,-473.62915,6427.623046875
413,4163.1826,-1495.6245,5039.5483,18.445934,-974.845,-443.42133,6418.03369140625
414,815.8419,-1145.626,-1316.596,639.7277,-172.07317,525.0188,2521.0029296875
415,4533.113,23821.781,20485.623,-7231.76,-14623.2295,-8508.304,36529.6875
416,-2811.461,1269.9929,-260.00226,534.8533,-455.49698,-113.46871,3778.0693359375
417,-1912.6008,137.44421,-1858.0803,1282.1886,-146.09808,-196.35759,3034.07543945313
418,1187.9233,-1950.3431,-6599.608,1900.977,-1336.5198,-2031.854,8639.4619140625
419,4125.855,11134.621,-10098.379,3271.9307,-7107.193,-8063.683,27016.0703125
420,2609.208,567.30975,723.6726,-957.66656,-105.0443,-100.74729,2586.39697265625
421,-1418.9257,4435.6084,-3436.6968,-2103.5933,-2076.9182,-4223.9824,11397.466796875
422,5848.746,9087.0,2223.8542,10112.163,-50.605038,-3203.7876,19311.458984375
423,464.17487,629.2726,44.234406,-1074.2308,989.04144,472.81992,2709.26928710938
424,-782.87195,-1636.6124,0.9688721,405.3771,36.139324,158.98882,1607.861328125
425,608.22736,-60.98471,-257.75732,-289.11847,-756.87427,308.1023,1694.80749511719
426,378.0232,-1411.2278,949.7052,1666.4556,405.308,81.68294,3659.94311523438
427,1305.9836,-1024.1969,-279.4845,-1085.9496,-332.1645,39.409378,2850.00732421875
428,2112.2568,2949.7322,3632.1448,-1450.779,903.33923,2135.5024,4917.52099609375
429,-8532.74,-16239.785,-10006.8545,-3678.4224,-1902.1401,-10713.245,21118.193359375
430,757.38776,-127.74658,1532.0336,407.27518,115.71374,11.881364,1614.74963378906
431,-7.776062,1119.7192,429.90552,-752.2753,-34.523952,-200.01591,1670.53173828125
432,9131.876,546.4331,7788.986,-682.1508,-1363.3785,235.66791,8433.4384765625
433,505.74622,458.884,775.8571,-2111.3347,100.046104,331.32922,3717.57739257813
434,1350.7317,-400.96777,524.7616,120.84809,1977.0765,-383.0192,3809.75659179688
435,7516.871,-5250.1304,11480.509,2327.702,3172.0774,-513.6663,16629.578125
436,-149.27692,1438.8512,-941.4944,-290.41476,634.2644,-146.77466,2435.65747070313
437,-3152.9146,688.1801,-431.10715,-900.37476,-286.62613,-373.46133,3847.65283203125
438,-1042.0616,562.5706,-2538.9937,287.90762,-736.16504,528.3398,3151.12573242188
439,51.01889,9862.454,4598.9194,90.77091,1165.8514,2758.3215,9962.609375
440,-1202.5999,-874.78674,-106.31759,271.2361,-163.39069,-0.57857037,1118.35510253906
441,-2073.767,-1818.2567,166.05756,-834.67175,-384.47537,-289.86008,2700.9912109375
442,851.74146,-6292.717,-2222.8088,-5826.5967,9998.323,18110.672,37739.45703125
443,-317.60208,1709.4309,398.8051,442.879,-505.2737,325.23737,2200.36108398438
444,-1525.5093,1761.5803,-1050.1354,-2140.033,236.92537,458.84064,4899.751953125
445,-1827.3379,1836.3296,-63.38984,-3348.9773,-1202.3119,723.0416,7044.39013671875
446,-363.14697,-2175.6265,-1631.443,-6.607574,-295.65112,-185.35953,1720.56091308594
447,-2638.0383,-3972.8484,4050.7585,-81.28042,313.57388,-350.22205,7492.18017578125
448,-474.47662,-186.14719,-241.70825,-548.7685,344.8442,-244.73941,1228.85571289063
449,1055.0024,-1941.0406,-357.4092,867.1543,109.639206,-296.36218,3048.76342773438
450,-80.83024,-2100.6208,-198.13448,124.44474,30.123846,340.4599,2062.35424804688
451,-4830.7227,-3080.888,109.52124,-3820.801,-918.7927,469.08957,8112.43212890625
452,743.53534,4199.843,-367.28964,-1757.5413,1318.5631,1120.91,5938.96826171875
453,-1423.8113,-687.2786,208.15,-5649.9614,-784.8555,-17.657532,9980.9267578125
454,199.76184,1342.2719,-173.00642,-1430.7224,-251.26976,1928.8752,4400.24609375
455,-805.81055,1196.249,228.45958,-693.30023,166.14365,217.32367,2161.89331054688
456,-537.79913,23.174929,16.293966,-1339.594,-115.70367,-195.24727,2418.45874023438
457,-1683.5558,-2691.0742,-877.96277,-74.31191,-199.48119,332.92404,1715.86242675781
458,-3042.8528,-4115.862,1017.7441,914.2664,270.73566,-725.43286,5128.66015625
459,-1991.7572,-1100.6057,78.134605,-2662.9885,84.67394,-279.9921,4976.46826171875
460,6.1048036,-1603.7789,27.65721,-95.04099,512.3156,247.4897,1903.98010253906
461,-240.41792,362.1956,-568.7044,134.15063,648.8603,-145.04051,1431.39916992188
462,-3209.354,-2278.8066,-7653.907,-1633.8916,1405.2178,-2663.4216,7744.02978515625
463,3394.0823,1689.9375,2144.4917,-465.81012,-429.40173,1749.8229,3567.32934570313
464,12789.8955,7616.1396,12521.938,-5442.635,552.34656,-7551.4424,16920.642578125
465,-2324.3022,820.1164,-668.0408,684.3963,374.52222,-277.1651,3078.80639648438
466,-1020.7294,-803.96136,-28.857138,1658.0641,-319.87802,-509.4779,3185.74829101563
467,-2235.1985,-1556.7015,34.16162,137.3048,1366.4215,111.4752,3125.02172851563
468,-1501.1642,-3189.22,-4675.098,-3932.6958,-273.7184,1558.5435,7840.65283203125
469,-4151.569,-516.15814,-1911.4843,-721.9065,-435.90018,-1507.2411,4363.412109375
470,-13364.041,-12316.882,-17295.23,9831.197,6270.3403,8975.864,25889.662109375
471,-1268.3408,378.95004,-224.39252,203.25291,-609.28906,-431.17975,1969.54089355469
472,-34926.434,-59636.992,-30045.617,2537.0405,8295.328,12078.7,37662.6328125
473,-278.31873,2730.2979,1193.034,12.815031,409.00696,20.0171,2700.642578125
474,439.33902,-1399.8878,320.77072,550.2916,211.67418,-190.30606,2080.92993164063
475,2493.2698,2818.4514,608.5239,1665.6305,-74.73322,87.08019,3554.345703125
476,662.2729,-1615.0233,-683.62463,-1213.3445,71.02121,-124.42501,2900.12109375
477,3033.389,-365.39905,1690.1505,-174.11275,-6.861362,571.09406,3140.09545898438
478,-396.98666,1360.2345,286.14276,45.556557,67.27676,153.43199,1563.49340820313
479,-3550.3164,-858.0257,-471.32654,768.8806,-92.70977,-334.27356,3251.7080078125
480,803.1061,-982.9292,-2555.031,148.71928,-464.71936,-529.0695,3165.95068359375
481,-2717.3076,-2020.6378,-115.7588,-303.60773,-254.35878,-356.79355,2508.6884765625
482,-4292.1406,-1780.1692,-7510.4404,1003.19464,141.36523,2318.4788,6630.0009765625
483,-1179.9323,249.97038,211.7478,1323.4644,200.10594,66.19574,2716.50048828125
484,-3590.013,-1603.581,-732.25977,-895.52246,-508.52054,282.16174,3139.49682617188
485,-4343.747,-2504.598,-156.31442,-539.5636,119.78633,-354.45358,3809.08032226563
486,174.55664,-485.73428,4151.7305,-1494.5275,122.09222,629.3638,5178.2080078125
487,-1793.3165,-2870.7356,-102.99101,900.1366,-355.7118,-73.93508,2943.79858398438
488,1603.5353,-394.22867,1076.7196,463.357,-288.89136,-198.0929,2056.29248046875
489,1070.7505,-417.38434,450.23962,-1781.257,-397.26578,-165.59102,3427.90405273438
490,-2141.2534,562.2963,-558.31665,-693.559,-437.62778,-1490.1666,3770.24365234375
491,2019.6787,-372.3198,2825.9565,-529.68555,577.60583,-1056.0293,3672.67407226563
492,1100.8573,-939.8816,368.89087,8.1840315,258.45233,258.97446,1899.58813476563
493,1392.4102,2704.8206,342.8253,343.5249,137.0541,-368.6622,2240.45776367188
494,-737.6362,-1003.2112,756.90076,405.19315,-699.29865,-576.71185,2378.75439453125
495,162.29767,1819.1494,1403.3707,465.28986,436.38177,562.30365,2097.25366210938
496,-2887.6123,-3467.7075,-417.49744,1799.5924,132.23253,55.88425,4200.98828125
497,-1864.6693,1390.9553,233.8994,-203.54544,-811.7044,248.88332,3233.828125
498,-866.1432,-4484.45,-2217.0571,-311.98145,356.0069,-1152.0195,3831.80908203125
499,-1214.3396,-217.13246,-281.2523,-904.5272,322.1311,191.61705,1952.06494140625
500,-1013.61523,-567.5348,679.79956,-33.27788,104.69845,732.7519,1989.52893066406
501,-4049.1926,351.1674,1156.5872,-1193.7628,-13.832352,730.2631,5425.09375
502,-7670.7065,37.05743,577.1615,-8048.3267,-921.3975,-258.09967,16153.5693359375
503,-2138.7097,203.3927,-57.517704,1432.0984,-276.0529,374.1929,3426.927734375
504,-1642.1965,1187.007,-306.38672,-670.14343,-96.87274,245.595,2750.61499023438
505,-2141.4624,346.77368,578.55536,-34.923645,-422.1479,202.82085,2735.59204101563
506,-2711.1035,1173.1409,-33.51623,-560.0862,-197.84383,1065.9236,4040.23779296875
507,-1291.5665,1387.0121,-243.96332,-722.2475,481.57965,-270.34756,2818.88500976563
508,-44.185444,1686.2596,462.65112,1151.2932,-300.8119,-79.80651,2577.06616210938
509,116.91539,3987.3303,131.66034,-206.48038,256.22098,130.9216,3911.4619140625
510,-8068.4277,-6850.7017,-6893.028,-1095.9792,-756.2542,-5466.462,9818.298828125
511,-1440.0651,-33.278973,-1748.8467,-636.0604,-239.96703,-378.15002,2079.48217773438
512,-1186.2039,-4.973648,-505.04675,299.79938,33.611538,-164.72061,1187.056640625
513,1473.486,-3194.0193,757.17194,-861.9769,-68.59411,267.20798,4627.37939453125
514,2851.0525,4550.7183,5398.097,-21.336563,966.059,-1314.6172,3610.12548828125
515,10045.775,4690.0938,12468.267,4943.783,-3429.767,-4133.3516,14401.1298828125
516,-1849.6476,509.8565,3.5275004,1245.4889,726.1849,-710.2002,3518.21801757813
517,-81.385895,392.537,331.37604,382.29407,-224.7696,330.59033,1056.99487304688
518,2873.5317,-1369.8463,-825.2538,-1081.6512,-387.10306,414.11963,4523.921875
519,1026.4681,865.9044,-1341.8478,435.43008,-610.2044,-47.976696,2635.75170898438
520,-3706.609,-1693.029,360.56686,-1049.4849,300.22794,407.88498,4059.63232421875
521,-5418.4146,-2103.9302,-223.53934,1065.5883,454.34674,213.48706,4991.6591796875
522,574.27527,4161.887,-13.573171,-758.8375,550.743,-375.84796,4287.97607421875
523,-1187.4061,487.88248,524.58344,735.5103,22.783016,-651.53613,2401.54223632813
524,3901.4543,585.0025,-691.37213,512.89624,-26.851566,2721.1182,6313.93896484375
525,433.20093,-1375.0054,562.9456,176.33582,-407.42075,-835.22437,2491.0048828125
526,-2066.8052,72.95808,1055.6105,1289.6056,661.62274,250.70522,3760.03686523438
527,-1418.2775,-1047.8364,-1612.1705,606.8638,160.68219,479.10593,1455.19128417969
528,-2896.3938,-812.3261,-459.87988,-44.009552,75.84454,197.13174,2311.21801757813
529,2239.77,2231.281,573.0468,-575.0029,40.212826,-55.77728,1941.63830566406
530,-710.38995,-80.28255,665.4302,-414.4819,145.9868,719.821,1885.93505859375
531,-2719.2905,3799.739,-355.66327,1100.1367,433.3044,-145.82732,6077.3251953125
532,-2493.341,5134.4487,-235.89586,-45.7152,348.59454,28.706524,6814.19189453125
533,26.70304,1205.6951,657.6355,1455.3821,483.23972,-72.55457,2848.68359375
534,2277.6487,542.0276,864.3797,1792.5486,261.55292,96.27068,3525.5546875
535,-995.3847,3322.915,-849.4678,-2934.6882,272.9308,-33.76337,6641.0068359375
536,-213.98282,1383.3881,-307.55524,1944.6016,-547.4319,84.80157,3869.73706054688
537,-1966.4144,-1337.1506,-1473.0361,1619.7778,420.4041,-220.27177,2979.21948242188
538,1959.6683,-1234.6656,-4043.3442,2705.6697,2317.781,1236.5894,8350.451171875
539,5942.1006,-980.26105,-751.4419,2091.6926,-43.483994,-459.34476,7755.75146484375
540,-410.91147,-1446.8881,-13.896339,-1200.9805,-70.51156,-76.607445,2449.84716796875
541,4429.8486,418.8502,-432.5358,1003.1513,-213.86453,-85.60419,4837.97607421875
542,3418.2815,-1495.7732,-172.02986,-1950.0225,95.013535,186.81111,5561.908203125
543,3860.6846,-1256.4757,-131.91548,-1176.7703,-681.8283,319.29257,5248.8369140625
544,648.01685,2068.5579,-1706.8773,-2409.733,202.2925,82.52003,5335.9462890625
545,2307.3835,1139.4661,327.2069,-194.86467,74.259705,-58.007698,1764.37036132813
546,3082.272,-810.2732,586.33746,-207.8958,-220.08755,894.54767,3787.04125976563
547,-2711.639,-3631.826,-3485.5215,1457.1453,-1889.0479,-572.3859,4334.94189453125
548,2220.4949,3462.8367,-458.3431,-70.81262,100.75791,-494.5308,3581.45239257813
549,-1894.1919,-3536.2908,94.58793,86.43737,633.73016,-415.4973,3415.06616210938
550,349.81113,2298.656,1182.9475,1254.9583,689.5341,1417.3134,3878.90747070313
551,1355.2103,231.53041,1053.1517,-882.94885,94.37921,-543.3692,2065.36865234375
552,1846.2639,-458.76428,158.84738,-1011.3556,235.2527,265.1007,2777.83618164063
553,1088.6685,1500.61,-131.61142,974.8708,-424.84283,158.73393,2372.6875
554,190.69606,117.40648,222.47975,-148.25885,198.50362,-596.26807,1122.26147460938
555,-1378.2955,-2742.307,102.7186,509.44592,458.06506,-653.5076,2960.29443359375
556,-2035.8943,-4535.9585,-118.00245,-163.36609,-356.6239,503.35788,3993.14379882813
557,-1193.4417,-884.30945,-1335.6455,2766.3025,1177.0763,3343.97,7798.71533203125
558,121.23869,1852.2627,761.42395,441.08008,633.76715,-284.22894,2080.64916992188
559,2523.071,82.02598,-346.00098,2561.2922,135.35234,232.53868,5204.28466796875
560,-948.18463,3579.8857,-228.29912,803.0363,92.10312,193.28296,4453.5478515625
561,3145.1775,-434.68726,279.87122,1102.3024,-18.721067,561.4159,3919.16186523438
562,1981.7289,-163.75166,-143.29243,324.81668,79.585464,0.13189456,2212.494140625
563,-391.9801,-1483.5432,-69.51235,-451.7688,342.0968,-125.00729,1630.25939941406
564,-1362.8284,615.5959,56.83787,2876.1194,645.64453,-1469.2366,5971.90380859375
565,1813.8424,2908.9536,-204.13759,1284.9647,-130.78827,323.43594,3577.70556640625
566,1076.3998,5894.1875,-265.47055,-3042.5017,138.97481,-224.15508,7710.75
567,-929.151,-131.95578,-1404.5564,-313.44522,-999.39215,-2775.2825,5257.20458984375
568,866.8368,460.67978,2309.4583,-660.9337,314.54962,463.13657,2254.52026367188
569,-434.82208,-274.19653,132.89198,-566.5401,452.79117,-561.6952,1667.74621582031
570,-494.41263,-118.08937,162.47162,-298.52936,1060.5422,617.40894,2260.775390625
571,5603.9014,-2729.0754,10985.846,118.05653,-1363.8976,5559.4443,15543.365234375
572,-4929.6396,-454.19363,7025.1743,6295.0474,-3903.413,-5135.4478,18792.42578125
573,-3278.0027,604.56476,926.1189,149.0786,-599.7972,699.0413,4363.267578125
574,-1707.9149,-3985.8604,-1566.6156,288.01428,1129.9785,524.0354,3230.18920898438
