Element Label,S11,S22,S33,S12,S13,S23,Mises
1,-1579.6235,-11121.413,-7356.4917,-2079.1267,-1454.9873,-7822.1787,16497.728515625
2,-824.73,3167.845,14163.984,3541.8625,2436.058,1502.5284,15587.4599609375
3,-3014.6938,-4238.8325,-6787.7246,3726.112,-775.1781,2613.6663,8663.9345703125
4,2282.2097,-5207.555,-3363.0752,-2793.461,-3448.244,1876.0588,10738.9091796875
5,-14168.283,2964.0725,2040.6619,-1912.3201,-504.45227,-7467.285,21390.779296875
6,10271.968,14887.361,6015.5522,5697.503,-2141.5244,-12687.742,25556.669921875
7,-5821.811,-11684.335,-12647.821,1330.8618,2304.6765,5452.314,12303.548828125
8,3056.3037,-5600.8413,2611.1353,8662.792,-1579.0857,12576.914,27900.5234375
9,298.32568,12773.056,11196.449,10937.657,-2396.0251,-8798.765,27327.8515625
10,-249.37317,-7399.014,-12306.42,-8089.6553,1720.7443,10861.0625,25872.470703125
11,6474.6147,415.38745,2953.811,-9990.706,834.48083,-4181.076,19538.49609375
12,5036.6914,9661.104,7422.9736,-12029.294,-8795.025,849.62897,26160.640625
13,-157.99463,7224.982,3590.9678,-5967.204,3115.2063,6586.725,17520.71484375
14,10322.594,12212.151,-11553.894,-12388.845,262.76135,4181.607,32196.3203125
15,5495.7456,4276.899,3687.8218,-523.43024,-276.23273,366.28662,2000.9853515625
16,33162.11,1333.141,26468.79,3322.7703,3513.1592,-8905.87,33954.8984375
17,-32198.748,-29678.416,-34164.543,6657.738,6164.9277,1116.539,16306.6328125
18,18598.535,1942.719,-24017.8,4879.2563,-2746.0054,-5571.7397,39635.01171875
19,2325.1453,350.4587,1394.3275,61.180775,581.9825,-127.62908,2000.98547363281
20,-10435.082,-6866.398,5035.5386,-11603.847,3066.218,-3657.1423,25867.79296875
21,-7811.5127,13176.48,19015.379,521.5882,-458.48175,-8836.773,28859.103515625
22,27705.314,17863.953,46176.332,-441.37045,6437.9185,-12648.257,34995.296875
23,-11521.532,-11595.324,4380.5986,-8815.624,-641.9147,-894.6283,22154.8984375
24,-3715.6711,-12288.719,-23471.037,-7443.3047,3703.315,1548.0005,22559.89453125
25,-29353.006,-27076.658,-5083.0376,8548.505,7008.762,3007.2112,30540.060546875
26,-10111.869,-20929.635,-21881.156,12272.8955,-52.3712,-12199.297,32040.15234375
27,-2631.913,-5020.869,22677.79,8245.613,-3882.0933,-9566.367,35078.203125
28,16658.326,-3363.7527,10803.952,2894.9065,-14309.028,-2319.5547,31200.447265625
29,1781.4966,-20742.54,10578.844,-3262.7246,1718.1624,-1536.128,28822.7109375
30,-7778.5615,-14196.258,-5547.2793,-1109.6554,8758.91,14851.013,30919.126953125
31,7317.2783,-3014.2566,-5451.0806,-6437.1387,-2817.0425,-18145.887,35690.22265625
32,-8992.757,-1573.5825,-6107.705,19267.123,5075.61,-7984.631,37738.27734375
33,-14761.69,-2619.9114,-10958.221,9840.302,-879.5434,7.0097857,20211.97265625
34,2227.0454,-13625.672,-11323.178,-5675.6387,13003.177,-4965.1226,29965.865234375
35,-2823.0498,-11154.164,20865.621,-5231.9614,-14495.903,1541.5193,39338.9921875
36,-715.2932,2438.7886,-14876.295,10379.882,-6043.8433,-4710.3447,27468.51171875
37,-1658.4706,3151.474,19036.764,-5607.629,-577.02496,7612.6777,24921.462890625
38,-24619.422,-1626.6885,-25994.55,8909.262,7491.0938,-325.21057,31128.22265625
39,-5599.475,-1687.2495,10882.374,12842.629,-410.57626,-6370.0776,28974.3828125
40,-11009.123,2145.7432,9532.018,8657.992,3141.6372,2220.7085,24373.341796875
41,5414.645,-5553.4844,5135.4443,3090.576,4614.707,-1555.2753,14734.7783203125
42,-5817.158,4148.7563,-2931.191,3159.8965,-1132.0695,-8065.8286,17545.919921875
43,-11135.209,-25428.096,-2328.796,-3257.9136,698.79443,-2184.1052,21338.380859375
44,18421.908,-10399.929,5918.0703,936.8652,-17574.684,3052.4126,39797.66015625
45,531.77997,12148.452,6941.19,5292.5234,16768.191,-11524.596,37783.1953125
46,-11297.711,-12893.234,-12579.829,-610.1969,-13.192576,497.50284,2000.9853515625
47,2705.5396,2562.7454,3560.674,167.68144,-412.06128,919.50256,2000.98547363281
48,5053.272,5141.446,6170.314,-632.3385,-713.60626,-199.6844,2000.98547363281
49,-42017.535,-30850.469,-32419.996,-1391.2169,-5949.3057,-3434.8513,16031.953125
50,-8566.096,-2210.455,19449.738,-13996.839,6496.2417,-5389.09,38061.625
51,3441.7383,1716.7151,2080.986,467.7744,-395.39716,364.44702,2000.9853515625
52,-28631.555,-37785.918,-14972.456,12474.156,-87.35362,1199.2905,29437.48046875
53,-410.22882,6439.4204,17455.95,-2135.109,17243.775,-1705.1686,34032.08984375
54,4051.7122,31076.783,29658.014,-1684.8796,-1278.156,-11870.672,33618.1640625
55,1613.094,12073.437,282.89047,-6243.8384,16645.676,-9819.969,36913.27734375
56,-4214.504,20069.184,18012.969,1551.1852,-8702.637,262.24805,27903.86328125
57,6711.7705,12080.23,-7995.114,-7626.2812,6492.237,-16200.588,37581.52734375
58,-11098.43,23333.082,1812.3834,-5710.641,1764.2095,-4334.272,32729.322265625
59,-10786.066,1483.2604,-6965.4375,-5152.2925,-515.50604,-9696.921,21926.775390625
60,-6997.436,2637.5354,-35149.965,-932.36774,-5344.0757,2799.6746,35615.25390625
61,5370.3936,-4990.927,11232.896,4451.858,-7798.768,1605.2903,21263.103515625
62,-624286.8,-618538.8,-626211.6,2181.0066,5621.129,-3213.0571,13705.5126953125
63,-275550.62,-265529.75,-283081.78,2711.573,4328.2446,-4306.0137,19143.91015625
64,6979.152,-5184.674,5235.812,21265.068,-4422.103,-2654.9246,39575.40234375
65,108238.26,110039.35,99993.78,8808.131,17795.07,3514.823,36136.81640625
66,-6321.716,-35212.684,-5734.244,-8737.146,-1061.7366,-12179.242,39107.578125
67,-25773.066,-9361.915,6908.568,-4506.5195,14376.241,1302.2478,38563.125
68,-265.5437,1528.6742,28639.193,2074.7104,14231.812,-5570.793,38736.15234375
69,-8068.362,5202.315,22711.629,-6526.8745,11048.699,-9186.031,38238.96484375
70,15525.015,4864.746,-16892.414,1640.5724,3835.011,-15503.283,39902.43359375
71,1663.5312,848.2237,15467.274,-469.7138,19085.557,-8818.992,39105.2890625
72,6456.871,-3224.9976,-24289.023,-12769.12,-4929.4595,-6791.8604,37971.16015625
73,14508.282,19077.217,9146.498,6870.8716,20379.697,1234.3652,38292.49609375
74,20459.004,18983.213,23489.762,12661.916,1837.6913,-1417.1061,22648.71875
75,4297.0913,-140.49158,4183.499,806.85925,-334.2184,3413.4937,7512.98583984375
76,-18693.742,-12570.411,-41577.574,-11620.88,-8804.994,-2079.5146,36769.3046875
77,9013.111,7467.416,585.34247,-1194.8442,8784.207,-18292.027,36054.87890625
78,21789.531,11806.781,728.3117,-5673.4663,-5146.7354,6249.251,25023.431640625
79,-8843.497,10127.683,7420.988,-11463.211,-13911.039,-1146.2274,35980.421875
80,2386.3074,1486.107,1141.5796,523.65186,-356.88806,-721.10986,2000.98547363281
81,-4552.6787,-6686.0625,-15905.7705,-3166.158,-11573.98,9041.708,28043.283203125
82,-36194.426,-23846.266,-28630.205,4894.5806,-2665.0095,14598.265,29134.1015625
83,-9007.959,-9582.14,-10790.653,617.5504,173.17291,-308.6407,2000.98559570313
84,4427.7627,-6304.3696,-3333.8782,-5643.8735,12341.746,2840.7847,25862.115234375
85,6766.7207,-26384.857,13558.393,-2802.5012,-5106.334,-4258.092,39070.3046875
86,224.36806,9840.933,3400.4097,-9213.642,-443.1138,13.815124,18091.05078125
87,-28462.932,-22673.346,-42579.027,-18284.734,-5101.7188,3578.876,37868.3515625
88,-2229.955,2604.8433,-23043.18,2123.1165,9097.339,-15880.391,39693.33984375
89,28477.912,9856.5205,50585.164,2728.2158,-6030.2344,7702.2744,39453.140625
90,-1080.8821,8698.957,-2776.6528,-5090.789,-3760.683,2977.8708,16182.8623046875
91,-428.67822,10213.435,-3258.3157,-522.2165,-12193.731,17571.99,39045.85546875
92,29.44751,12221.807,-5761.134,-4176.6235,5603.953,5171.1455,21898.697265625
93,-1645.3076,29563.031,15351.901,-7954.9053,-2486.5442,13827.457,38915.25
94,3793.4185,11858.644,1031.0234,-8811.323,6555.2456,19469.86,39925.1328125
95,-11161.023,10603.773,22396.236,-9046.465,9520.966,6201.5513,38759.11328125
96,-138631.97,-125130.06,-130504.28,-4196.0513,3902.4836,3944.9636,16846.91015625
97,44026.293,46651.0,61926.31,1638.9352,-4573.1914,3221.2993,19551.169921875
98,-10483.723,-3520.177,-1663.3875,10581.607,-7534.3306,-1215.8025,23989.84375
99,-16374.385,3461.0872,14172.014,-797.12006,-4.276249,3085.0942,27405.947265625
100,-22562.098,3793.0762,-10305.263,-9685.513,-9627.0205,10292.195,37403.8515625
101,-6996.5005,-2573.1357,-19470.252,8666.437,-8220.665,8353.857,29457.712890625
102,-3775.2305,8568.152,7355.1255,-12920.7,-6872.8843,-5928.616,29779.96484375
103,-40563.465,-35292.996,-17571.889,3443.5005,-16566.113,-7295.8423,38128.51171875
104,1520.5044,-14993.125,1712.8523,7644.642,5654.67,-7331.663,26616.173828125
105,12835.388,-8632.547,2105.9185,3753.3708,-7114.159,2833.9258,23745.416015625
106,-9871.565,7230.407,23736.057,4195.306,-6794.766,-5988.343,33853.8359375
107,-936.1119,-1324.9478,-3703.4585,12342.554,4699.9727,-564.9276,23042.9140625
108,-16744.152,2794.1033,-10364.607,8162.4785,2433.5076,11172.715,29831.6875
109,35998.965,-5053.863,23988.107,-7402.469,3899.4216,-1658.2656,39430.58984375
110,-5581.332,-18355.297,19860.652,-8399.82,-8844.329,1463.1217,39852.51953125
111,20498.291,-9155.874,-2423.8872,8138.474,2532.2917,7891.6343,33612.9921875
112,13302.039,-8086.9453,-14507.23,-5469.9814,-11408.376,-6041.7026,35010.765625
113,175941.61,172001.52,178952.66,-12063.91,-7463.8135,-8395.437,29182.939453125
114,-11649.622,-10373.769,-10690.38,-7190.13,14097.896,-14675.186,37399.91015625
115,-7563.589,-6995.7705,16665.072,-4996.4346,15244.964,-6162.754,38205.38671875
116,13746.038,15133.278,13610.254,7554.45,20754.195,4910.8696,39216.0703125
117,-1808.9739,1901.0878,12991.268,-11087.264,-6741.396,-1454.6497,26255.884765625
118,-7186.997,1823.9916,-11598.547,-6005.204,-12886.482,-2485.108,27664.2578125
119,-16929.506,-8443.529,-15734.943,-143.76988,-6309.842,13836.08,27515.765625
120,-1577.3143,-26064.797,-14334.248,4936.975,-8477.08,6832.3193,29643.4921875
121,11089.845,11163.381,9368.167,38.066475,-233.65225,496.53033,2000.98522949219
122,2925.686,8622.706,-485.04398,-7947.2803,-2616.8242,-12666.3125,27474.490234375
123,-5674.714,-7351.733,-12064.311,10958.494,-4976.703,-1802.0948,21845.708984375
124,5987.498,-210.37598,-13998.958,2779.963,7005.2905,4934.3623,23610.361328125
125,-333.71844,-5848.012,30732.201,830.5402,-4048.1587,-4629.0103,35809.50390625
126,-4126.5073,13921.906,4024.9802,9397.52,16390.229,-5252.6226,37399.19140625
127,-31986.572,-36873.543,-46363.062,9779.163,-10374.52,6824.963,30163.50390625
128,6671.873,-14028.127,1180.6836,-3766.7002,10012.047,1416.2046,26349.189453125
129,-17120.72,-28774.123,-38170.21,-6979.831,14260.802,3990.689,33728.7265625
130,3286.4497,928.6924,29122.402,-10306.5205,-10974.344,-583.68427,37616.140625
131,-3164.2893,-4843.1133,-3842.8196,-244.16844,1506.2325,19566.04,34023.734375
132,29540.207,4435.015,45564.324,3455.7788,-1410.257,-8599.383,39407.78125
133,12867.932,13998.301,6073.0825,-1306.4911,6565.102,2813.9473,14604.9912109375
134,18663.02,14924.461,17763.89,6161.497,-3753.6348,2038.6891,13418.421875
135,16536.533,16715.924,15229.391,-509.08405,-638.88367,94.22471,2000.98559570313
136,13473.128,-8513.371,-28608.346,-2731.3704,-1635.4185,-90.97275,36870.88671875
137,3771.131,4103.9185,3250.8813,-1042.0958,-209.46184,141.29129,2000.98571777344
138,-87176.04,-84971.4,-84143.45,-8075.7153,-4282.6543,2529.5002,16650.564453125
139,9911.052,21492.408,12079.462,6555.0244,-13960.097,-2598.8003,29112.470703125
140,-34785.816,-4006.4397,-30814.932,6536.0303,-9104.595,5478.3135,36163.4140625
141,18994.117,9461.014,9373.527,-1583.2972,8631.851,1962.1685,18284.39453125
142,12830.308,8173.637,6550.416,5394.8926,13899.656,9971.916,31577.072265625
143,3472.6814,-2752.292,-14268.151,10013.238,10086.225,-15072.806,39123.01171875
144,9045.958,7159.3003,11391.951,2872.196,22531.594,534.2098,39523.5625
145,8681.889,8802.027,34446.54,1284.7402,15979.31,-4625.0044,38676.54296875
146,-20085.143,-42353.395,-8996.611,-10050.5625,8906.198,-3828.7078,38088.48046875
147,-19254.104,-16343.166,-36120.55,-5334.848,10810.291,-14944.517,38053.0234375
148,-53825.19,-40748.86,-39906.652,-16354.086,13984.543,1495.5771,39730.26171875
149,2372.6133,30394.42,41373.883,-834.53937,-8714.993,-2679.4805,38274.22265625
150,-3676.6887,10811.43,10001.499,-662.0882,7405.765,4545.7993,20656.021484375
151,6581.4707,-21126.01,-13681.777,-12366.225,-3526.7725,1294.9856,33436.1484375
152,-8052.758,-5714.529,4472.0015,9119.715,3000.879,15918.477,34201.875
153,-22956.55,-9854.444,-15905.837,14999.642,-8478.872,7065.848,34196.765625
154,3121.052,-8470.98,-5699.1753,13329.985,9745.169,-8754.571,34026.83203125
155,20895.953,1719.1317,13794.251,-2680.3252,-17773.959,-3860.1433,35999.88671875
156,23119.73,29202.08,13723.9375,6994.3447,14916.22,9767.687,35817.46484375
157,23492.725,6004.921,-10974.979,2954.5017,-4825.202,2176.565,31643.77734375
158,-17170.668,-1270.7903,-3865.2422,-12505.553,-4107.9497,-2612.1292,27541.74609375
159,-10788.531,-12890.919,-8148.997,21779.398,2160.7913,-6394.3174,39706.828125
160,-18630.26,-20694.553,503.8801,-8753.924,-13476.713,11143.254,39460.74609375
161,-11514.119,-9674.516,-7789.539,768.1787,-54.123203,-11144.533,19615.958984375
162,9072.003,10903.025,-6031.963,-7122.519,5642.3506,18818.158,39613.2109375
163,-4686.086,7640.311,10286.453,454.99487,-9408.071,10946.551,28586.65625
164,17575.334,1731.0898,36898.773,-5215.996,-6315.406,10802.743,38496.3828125
165,17613.674,7077.1455,8533.074,-426.00818,8132.714,6259.9287,20354.986328125
166,5994.4976,-10601.514,19037.72,-989.3509,12842.207,3641.7683,34633.93359375
167,-18760.246,4946.3184,-28956.203,-10487.961,-691.5448,-1893.19,35353.203125
168,13159.687,25012.799,7860.1416,-6784.629,1371.9083,-19373.557,38744.56640625
169,16871.291,7877.818,5108.53,-4104.4873,3994.3257,-11855.427,25169.720703125
170,22066.709,-17051.537,21808.959,-1658.8502,-4024.253,386.82385,39717.8671875
171,16283.15,-5776.5513,7331.3804,4056.5789,4114.886,-31.076574,21666.990234375
172,4736.215,16262.834,21476.666,-5718.3477,-632.2542,-6425.6343,21054.90234375
173,13401.906,7652.1807,4614.6343,-6590.6426,-10202.068,-9598.731,27905.453125
174,99.16573,19531.652,16918.693,-6129.385,9307.538,7749.596,29773.1484375
175,11290.43,3529.29,15149.887,6539.618,-862.20337,18161.717,35002.26171875
176,-618.27637,75.75488,-17013.418,-14364.371,1577.9364,6348.022,32062.880859375
177,15707.494,-13590.465,7973.705,3446.9624,1104.3456,10554.274,32635.55078125
178,-3238.6965,5017.1543,16859.15,-4768.7827,7328.7646,16359.125,36583.83203125
179,-12320.813,-17389.87,8827.762,-2684.9534,16709.77,716.9679,37960.23046875
180,15954.81,26807.24,47803.33,1147.9137,289.45316,13970.645,37097.3125
181,5133.0146,37605.973,10588.275,-4652.186,1385.7053,-8475.664,34544.234375
182,4480.2334,3652.413,-12125.037,-3101.9763,-2269.7646,-3410.711,18490.408203125
183,-16766.768,-7485.6953,-48910.1,2239.263,1400.9159,-7553.2876,40121.61328125
184,-23287.982,-14684.415,12777.401,-5718.068,-3618.2004,4714.012,35615.60546875
185,-93023.43,-125964.15,-121244.37,-6931.289,5547.0645,-8978.148,37817.375
186,16033.868,24164.385,11912.251,-896.01587,-7653.858,7942.931,22000.625
187,14935.153,6917.066,11195.029,-9131.503,4763.436,3252.6687,19956.28125
188,-2001.5778,1664.7208,12552.21,-3119.6807,12189.373,263.0541,25437.044921875
189,-1244775.5,-1231766.2,-1233082.8,-9644.129,-2202.3591,1769.625,21373.361328125
190,1152185.2,1134925.5,1139442.0,-6327.668,-6932.118,-10968.84,29420.59375
191,-196.15211,-5962.7495,-1091.9003,-15366.209,-4584.063,-2848.6453,28716.494140625
192,-17394.496,-6049.1196,7171.3413,8440.753,6436.4067,-9994.868,33033.3515625
193,-10964.011,-7267.481,-26324.492,-8946.97,-9147.986,-13501.484,36666.89453125
194,-1707.458,-1666.3201,29739.629,3329.2761,2512.793,11807.074,38184.328125
195,53814.848,18307.902,51089.082,-6187.812,-4681.334,2335.0989,36991.3359375
196,11981.18,24511.334,9189.118,-12089.727,12175.215,2259.3362,33140.4765625
197,1556.7383,-3714.1938,-26186.496,819.43506,2392.5437,8554.549,29832.283203125
198,9317.068,8058.274,20062.365,-4860.6206,2196.1848,-6448.2646,18456.951171875
199,-8516.924,-941.90454,-31365.682,2392.922,8669.848,-11705.816,37500.42578125
200,-1480.0779,-16178.854,7628.2627,-2958.5886,-12485.615,3304.6797,30977.275390625
201,-2828.3242,5304.3296,-8553.214,-11125.898,-8504.643,-10403.306,32534.642578125
202,-25.105469,-25852.84,-37243.164,-1985.6543,-8421.428,-2611.7034,36552.0234375
203,11733.7,-13553.102,21265.168,12.62326,-10454.717,-9012.614,39279.47265625
204,-167.49768,-3894.0,8806.155,-3366.5261,-11234.673,-1816.6498,23460.78515625
205,13119.878,848.0669,2952.2058,-6248.345,-1841.0604,4187.0986,17581.02734375
206,-5137.3477,-28193.895,1550.7119,11785.873,-9569.78,-5987.068,39109.2734375
207,6174.2285,-23450.012,-34058.336,5261.454,-1325.9856,-5885.6807,38686.46875
208,1400.0205,-15464.928,18331.4,1732.1901,-3251.7576,-8887.491,33679.82421875
209,-9387.988,-10000.284,-10791.844,2497.316,-10725.718,-13984.302,30854.515625
210,17281.523,-10999.54,10730.029,5293.02,5045.937,-3466.9753,29222.41796875
211,7668.36,1211.603,5753.816,-2089.7007,-2399.1416,6122.615,13259.7470703125
212,11196.484,1121.6514,-2636.8896,6575.2715,-20051.188,-1588.6578,38690.05078125
213,13972.325,-10666.564,-12825.051,-1835.113,-16324.636,-5145.3657,39419.85546875
214,-14715.194,-16348.523,452.66553,6036.0957,-13689.829,4411.3257,31423.283203125
215,17304.74,22344.21,27574.195,-1613.3137,-12607.058,1382.0548,23863.3125
216,-2923.6274,-12056.989,1496.9001,4636.654,-14036.813,5861.458,30033.244140625
217,16765.137,7611.214,23319.86,13397.779,-5135.218,-9579.331,32858.23828125
218,22920.857,-11648.51,10315.3,5567.017,-3373.2512,12856.899,39257.9453125
219,18384.094,3459.1584,37043.97,2230.425,8313.336,-13318.1045,40047.68359375
220,40671.86,3983.0938,40386.953,3529.1626,-2209.2253,5237.814,38340.64453125
221,-1737.3485,-4978.5874,-34619.348,747.9018,-3828.77,13200.502,39415.34375
222,21845.691,7051.657,6041.5264,-647.2817,-9205.821,5922.9824,24404.328125
223,3001.8884,-210.01172,-10390.832,1717.3381,-12902.296,16724.338,38652.69921875
224,15833.945,-823.6924,16782.27,4186.482,-6960.555,1149.3469,22272.494140625
225,10069.159,7704.1963,-19041.979,1539.1432,5509.1284,13387.363,37683.25
226,14306.551,13845.621,-9020.962,-3399.0586,3549.6812,17393.758,38906.58984375
227,26220.04,2408.0496,24688.31,6708.1025,5294.8657,16218.755,39257.23046875
228,20961.193,35018.996,13734.435,3823.6282,-249.79019,-7496.558,23750.4296875
229,-126.359505,21709.408,14122.061,-3661.575,13511.072,14524.577,39867.92578125
230,8729.1875,27304.559,-9801.266,353.09818,3877.106,13332.037,40141.39453125
231,-14227.628,-5176.3315,-17773.547,13592.325,-2103.743,9300.047,30880.38671875
232,1346.049,18119.469,38785.285,8533.282,8280.479,-1699.2334,38572.94140625
233,36336.055,25704.244,38286.895,-279.1769,-4373.878,-1163.5813,14116.3076171875
234,135289.97,146810.95,133474.53,10003.676,12131.546,10712.0205,35255.21875
235,-38237.465,-58999.547,-39365.645,-19359.447,-3422.132,-2265.856,39797.15234375
236,-39138.035,-43039.367,-10555.464,-13907.845,-3323.4912,150.30563,39461.15625
237,-26745.264,-40417.277,-11262.137,-16777.598,-5850.793,-1232.4648,39875.4609375
238,10255.697,-26531.45,-5187.835,-12723.058,615.6022,-5063.0483,39841.4609375
239,-21755.28,-28536.19,-12681.22,-15313.946,-5383.1304,-13941.2705,39540.00390625
240,-8541.357,-44076.79,-32716.55,-11800.434,-1951.464,-3790.1104,38215.1953125
241,27031.016,-10810.9375,3902.5251,7187.367,-2770.3254,-10198.433,39771.046875
242,24557.912,-15260.895,-196.86499,-71.184746,-756.4716,-10348.498,39187.203125
243,25822.105,23421.545,-1999.1611,13163.094,6029.4683,4174.948,37338.37109375
244,21075.768,-12386.84,2745.6372,2361.4666,-1840.3296,-366.25626,29489.96875
245,9242.321,10330.287,-7028.503,4679.5977,3620.3755,1000.5025,19790.041015625
246,16063.438,17153.04,14095.645,8703.476,-749.425,6361.5522,18908.939453125
247,6720.173,5588.317,-10152.851,-6325.1196,-822.8019,-4643.863,21298.615234375
248,8507.402,10397.508,-2035.1738,-8820.243,-3810.8357,-2014.9388,20585.9765625
249,-19137.455,-5457.9062,-16753.719,-223.05588,-3397.9702,12648.721,25980.033203125
250,7140.889,19434.77,7691.8975,6486.0425,-12669.299,-1139.9465,27501.0390625
251,-961.89734,10967.081,11119.167,-1798.4421,-12319.4375,58.606106,24681.107421875
252,-18475.348,12110.946,-16559.908,3045.3413,-1753.9982,6012.7744,32033.05078125
253,-22788.703,12555.026,12457.398,1532.2626,3766.054,-410.99026,35997.75
254,-4618.375,-20426.275,-5422.127,10266.024,-12756.06,4919.1865,33387.875
255,-10406.152,-14256.934,-14708.738,-2290.95,439.37543,-504.60532,5819.005859375
256,-11207.223,-23258.533,9040.585,-4418.5645,-12543.751,-2431.0698,36709.11328125
257,243.20639,2067.5632,-245.7417,1133.9124,-3799.1355,1707.8214,7769.61328125
258,-7728.2593,-9700.951,-8317.114,2874.6992,446.214,3928.5283,8646.712890625
259,-20529.375,-43372.66,-53701.945,1853.7894,-4013.8828,-6151.7397,32196.888671875
260,-85543.71,-99660.6,-78283.49,-13441.155,-7538.295,742.23193,32689.654296875
261,-34497.36,-65561.98,-29132.945,3598.5288,-4627.715,1015.65765,35589.62109375
262,-13997.977,22061.531,9856.714,8096.4204,-1042.5847,7663.364,37218.87109375
263,-26234.273,4112.418,-2677.7837,-14831.934,-414.91895,-426.22354,37709.265625
264,1315.6829,-17213.504,-12042.686,-7116.627,1197.9945,1905.1116,21009.287109375
265,-11298.632,22248.027,-3218.4426,-12697.281,6093.031,4615.625,39731.0234375
266,-5260.615,13767.739,3895.3267,-17727.58,-4084.0752,6185.0005,37138.79296875
267,-14902.285,4988.7026,-1690.1406,-15556.34,-4462.7427,197.93855,33064.703125
268,-12109.82,-7767.53,-1857.46,7284.7393,-3966.2253,4122.916,18353.1484375
269,-9681.078,6588.7153,-4753.163,-6143.873,-4441.145,-1162.4834,19628.583984375
270,-11409.813,-5595.0386,-16813.945,-2789.371,386.89996,-5885.5957,14904.751953125
271,-5779.9507,-5163.2217,3288.0527,-6830.2725,2133.9631,7888.3433,20428.2578125
272,2806.694,-13641.042,10094.935,7957.929,7188.933,-14046.337,37154.38671875
273,-15695.944,-16950.707,-35346.7,3617.3965,1753.0121,2164.5627,20630.107421875
274,-6467.498,-9098.003,15532.611,9657.253,-4074.0366,3070.5144,30110.810546875
275,-7953.007,-12891.824,-36678.34,-5862.244,-1813.6573,1287.0204,28733.298828125
276,-13924.034,-21576.752,-6177.6123,-9693.584,-7753.0903,887.6702,25346.48046875
277,10013.777,9190.924,-7373.022,11320.696,10052.631,-9994.569,35720.9453125
278,4862.2324,-25212.408,12680.264,5961.3364,-7152.42,2367.0818,38439.8671875
279,-15063.888,3829.0156,-17185.52,-8843.737,-4194.4697,298.40878,26252.806640625
280,-5421.569,-16129.582,-5971.5137,6193.1113,-861.18823,-2917.103,15871.119140625
281,393390.12,388987.0,373560.6,9855.558,-446.8086,1656.912,25010.337890625
282,68939.78,45382.72,68495.02,7115.695,-4959.208,-5376.102,29275.310546875
283,-5744.0,-21046.91,12521.956,-14187.297,-6744.4736,621.3445,39859.8359375
284,-6932.5635,-8558.545,-12594.896,-157.26785,-5003.597,608.1341,10089.1337890625
285,26724.668,21217.799,-749.41797,-2228.0312,-2214.8176,14061.249,35448.828125
286,17368.168,23368.71,-9765.18,11084.813,-4136.548,2729.6738,37112.60546875
287,-10768.124,-14871.72,-8724.482,15876.983,15899.461,13.612377,39293.984375
288,-7718.441,-2894.8896,-14625.8545,15057.054,14621.635,25.63744,37760.0390625
289,23468.697,13735.413,41575.766,370.36963,-4495.5957,-7808.317,29030.951171875
290,-21.213947,-9656.855,-14623.673,3044.3887,12704.8125,13032.535,34452.2265625
291,4212.593,-13407.779,-5557.2275,-3243.0315,-3988.6719,2412.6013,18180.244140625
292,-20063.104,1652.016,-11126.909,-4611.612,-2616.875,7131.8804,24378.015625
293,6344.683,12081.778,35913.33,-10058.246,13219.63,-2001.1315,39716.18359375
294,14277.227,18594.809,31126.871,2871.0857,5998.2417,-5175.5264,21043.447265625
295,10960.283,-2016.8379,-28287.098,9664.95,-0.096796386,-2357.6616,38682.734375
296,5032.5825,17048.629,16127.0205,-1109.8306,-727.8273,-2332.346,12480.5654296875
297,15740.198,6760.9443,-6560.4697,-12898.837,3206.8323,-4818.849,31262.736328125
298,10140.391,-434.9702,12525.457,-4969.9194,4589.6265,-4635.645,18561.025390625
299,50169.94,38372.285,34053.133,11687.053,3403.1316,-7184.1167,28427.728515625
300,-11102.598,-38918.844,-1192.1932,-4981.737,95.25607,7790.594,37472.52734375
301,-3434.524,4196.119,-30661.527,-1978.1438,182.31258,13655.322,39730.82421875
302,8613.769,23931.455,2727.3535,4298.061,-1266.8188,17033.8,35918.42578125
303,5768.376,5035.2676,6058.593,-5868.0786,11936.187,-9124.01,27951.705078125
304,-7730.507,-3298.8198,-391.1482,-1654.1086,2393.3198,10977.101,20684.841796875
305,-10660.33,14503.301,19390.639,-4643.7905,-587.72095,-1470.1364,29194.04296875
306,4193.8423,-15343.649,30001.26,-2074.377,-2152.592,3011.038,40074.40234375
307,-9078.772,7534.189,-28733.537,-3773.3071,2078.087,-1275.4406,32394.03125
308,25607.02,30677.291,27263.852,-10260.925,6448.09,19252.906,39656.88671875
309,-9181.777,17117.46,12595.496,-10525.682,-7101.6665,8277.913,35810.83984375
310,6535.3154,-28363.967,13439.1875,-2991.4666,-1637.5704,4660.4966,40082.609375
311,-11352.508,2149.2107,-201.83716,-13031.037,-4398.0347,-14181.964,36426.87109375
312,-9485.574,60.688133,8758.022,236.60735,-6529.099,1606.0659,19636.5859375
313,2953.3877,-2362.4697,14371.826,-192.55759,8161.6294,8453.423,25172.73828125
314,7570.8823,7196.0522,-1715.9259,-3490.317,14695.854,-10360.214,33005.421875
315,5958.7207,-8659.143,-20932.467,-1517.5978,-6709.3613,5102.766,27636.875
316,-1124.7535,12772.322,5560.606,12904.253,-2825.1365,-14192.4795,35674.90234375
317,9425.676,4031.3096,26284.508,5501.5137,-17576.885,-6089.7295,39155.55078125
318,10962.85,148.16014,-25157.688,-966.833,10084.757,5412.469,37773.19140625
319,-295.98047,-23365.645,-3567.6396,-4541.1587,-6928.817,-5919.5903,27900.78125
320,17870.19,9921.913,-6802.7383,-2669.603,-10843.611,13771.606,37668.6171875
321,13281.277,-15605.742,-20670.826,49.29193,-12031.477,2839.3267,38273.91015625
322,4189.45,-25883.088,-18865.88,-493.7994,-10413.595,9163.592,36339.34765625
323,14752.202,17063.635,24215.65,-8984.946,7934.912,-4315.1772,23663.55859375
324,9811.002,-3805.4148,24296.492,4312.589,498.92355,12329.114,33242.140625
325,20583.04,-619.1344,-6481.269,-8024.6733,1086.3948,15797.549,39415.75
326,17798.738,-7214.795,2675.4062,4466.9204,-381.1013,5795.7456,25242.263671875
327,-196406300.0,-196405330.0,-196406750.0,205.85393,190.37244,-527.7236,1631.87280273438
328,12417.021,-10518.34,25647.576,7020.0244,-6522.5654,-9088.991,39087.453125
329,-10287.066,-45030.492,-48141.71,-5547.4355,374.66046,1797.2252,37779.796875
330,5332.916,-35614.832,-3708.2305,-4747.5146,-613.0118,3188.4263,38567.96484375
331,19989.863,-9568.56,-16538.217,3943.8162,-3822.9045,-10769.239,39581.8515625
332,-8125.326,5176.454,13701.976,-9786.211,12945.999,-4780.3906,34952.671875
333,-18012.465,9814.821,-11902.763,3982.382,-2695.2327,-388.9257,26673.857421875
334,-11131.064,-5537.203,-10210.126,-1610.4607,-6582.2783,16550.564,31408.77734375
335,10524.842,196.15358,-15625.887,-2038.0326,-2399.496,8177.4385,27400.451171875
336,-102873.17,-104460.28,-94280.61,-18032.064,-5002.2207,-2414.564,34029.56640625
337,-47614.355,-35364.277,-53500.26,-19308.676,-5398.9033,-2297.1938,38452.0703125
338,-7602.4194,11879.942,-3576.2156,-15592.518,1397.5925,-1744.5148,32583.775390625
339,-7749.7866,17780.596,7713.6963,-14177.933,-8476.008,-1747.2876,36384.8828125
340,2202.9924,11607.736,6356.8994,-7369.3276,2890.578,20682.885,39216.96484375
341,10150.44,32224.285,-10581.151,4103.605,2601.0645,6010.062,39418.99609375
342,90279.6,91986.805,98263.57,-3293.2612,-2575.9062,1106.0719,10447.0478515625
343,-61043.32,-39444.688,-49570.188,4001.7656,4495.255,10001.977,27552.0
344,3839.5308,-14387.872,-3544.2844,2707.7285,-2897.0679,858.14935,17365.333984375
345,-2314.0454,-21939.436,1470.5469,1690.8041,-6097.167,6274.2197,26682.45703125
346,-8613.862,-33424.895,-3988.2278,-16220.277,-4133.409,681.3926,39921.05859375
347,-3401.3845,5113.5225,-727.7505,-20142.531,4956.9253,252.46368,36714.51171875
348,-3838.0642,26483.69,-13928.804,3315.1958,8353.681,-1226.3115,39674.1171875
349,-2372757.0,-2353556.5,-2361284.5,-2953.0193,-8595.831,258.1558,22978.806640625
350,-1701.5643,-2677.59,11504.13,-15682.1875,-8173.2046,6348.907,35317.91015625
351,2512.874,1380.5529,6647.6226,-1563.1155,-5393.496,4425.886,13282.505859375
352,-10396.072,-24679.068,1578.9747,14579.923,-1113.9725,-3813.562,34691.7890625
353,10568.033,24750.186,-15506.143,-6649.245,-4999.9854,7046.8115,40092.3125
354,-62587.32,-59366.83,-44476.457,11271.166,10771.515,-6261.216,33568.609375
355,15856.433,44376.215,38614.293,2501.8801,2498.371,363.81384,26835.607421875
356,6958.983,14295.403,8974.389,2354.9978,862.30945,-18.868559,7872.03271484375
357,2618.3674,2020.0435,3982.3057,1248.2928,892.7893,-1386.079,3982.95922851563
358,2762.3792,878.6679,-4595.2446,1461.7091,-1987.3291,2964.5103,9404.6015625
359,-502.36063,131.35239,244.7659,1370.2266,111.702934,319.8063,2542.2724609375
360,2346.9058,-6826.384,122.42883,-6135.519,-2341.4204,-1296.3502,14251.802734375
361,19967.191,25298.047,7251.4463,8238.849,52.03956,4790.0664,23029.810546875
362,-6580.7373,-1063.363,-3298.8848,-2660.4153,-1167.0314,-2379.504,8087.6572265625
363,-8357.877,-18870.049,21015.354,4497.898,1517.3901,-4918.5522,37712.67578125
364,-1044.0881,-8162.579,-3621.2495,4220.5264,5256.152,-781.8322,13308.751953125
365,-2445.892,8578.627,-5204.258,2169.6438,-2662.1736,-6590.236,18034.28515625
366,1491.7319,-15587.823,10372.513,1981.6299,1461.1981,1768.9148,23448.50390625
367,-2514.0405,-7186.1025,5591.7173,-10091.535,837.9981,-3300.277,21580.119140625
368,-7223.209,-218.12622,4765.388,-2151.6704,3742.6055,5201.542,15681.0390625
369,-6547.3193,-6141.6846,-1036.0688,-878.303,-357.63828,343.42722,5599.52294921875
370,8.077148,-6495.9346,-323.08398,732.2353,-1064.1754,-496.57584,6782.5986328125
371,-3089.4421,-1271.6307,-117.25171,1836.3995,146.2201,67.3158,4114.64404296875
372,-513.197,-968.3564,-802.06006,-5618.832,1894.6033,-1113.047,10457.4443359375
373,-1663.3926,-7503.7803,-9189.954,-4693.198,1839.3367,881.11505,11196.34375
374,-8886.205,-2147.1726,-4343.465,1139.5175,-1122.6544,-3312.1433,8719.220703125
375,-5986.8154,-5615.175,-7694.354,2028.4983,465.48087,2651.8477,6146.5205078125
376,-5717.4775,4320.6304,3783.142,-3910.6633,4166.6777,1740.8555,14237.708984375
377,24574.723,6394.5703,39697.17,-1433.6907,-350.94852,-1015.2534,29047.599609375
378,89299.88,57853.4,99579.06,3482.3706,-4105.3667,4221.2544,39473.875
379,-118332.24,-124148.89,-126230.63,10220.488,9281.537,-14609.741,35530.625
380,70013.36,90582.0,103300.7,13769.537,-3665.6082,-856.2979,38180.5078125
381,16182.9795,-7.942383,1788.1909,1009.74316,-221.60371,2420.4011,16033.466796875
382,-482.07104,-5344.0757,-4674.52,-2564.3086,113.092606,-1235.7308,6721.49609375
383,-25360.217,-27464.516,-31631.133,-11380.322,-3277.4822,-3965.815,22327.125
384,-6606.425,15465.699,-6832.8223,11654.269,3246.0444,-2672.346,30866.28515625
385,8929.606,-3114.8418,22147.162,16664.414,-2084.2805,-9494.448,39944.2734375
386,-21690.578,-10288.408,-25011.004,-17589.799,-3076.8442,12323.407,39888.56640625
387,2304.2925,-4812.766,-239.56494,-625.58887,-78.80777,231.79024,6353.96337890625
388,5487.083,-28996.043,5205.628,-4988.4478,-3928.4902,-5660.525,37370.2734375
389,-12483.422,-39258.145,2068.6055,-2119.4814,1614.8942,-1321.1975,36671.66015625
390,-19016.33,-17869.059,-7912.1055,-2363.149,439.09946,3061.554,12543.1923828125
391,26462.082,27548.033,8884.311,4711.1406,3059.8647,4220.818,21848.677734375
392,10342.348,14722.512,3301.5693,6174.5967,-1517.1677,-2537.3577,15498.2265625
393,33730.3,15236.365,25709.354,-1559.7352,-19.68196,2589.8235,16895.0703125
394,-87677.89,-107621.51,-89185.74,17752.926,-2646.9246,-1171.3977,36613.98046875
395,-7443.468,-17767.555,-13145.684,1962.6233,-1268.778,-506.2349,9868.421875
396,597.4475,-12544.502,1521.6274,7511.64,-2359.6467,3240.2812,20079.51171875
397,-58173.684,-40504.96,-82786.945,69.49859,1618.8445,1917.2682,37037.625
398,6087.5386,5772.469,2344.8643,-6490.3706,1518.6318,-3070.1768,13209.810546875
399,-1050.1261,-2158.8352,-91.51526,-8340.324,1525.1182,-2277.2876,15311.109375
400,-2131.9634,-836.8883,7716.1094,-7548.1074,1195.9232,3041.121,16996.04296875
401,-363.56787,-1134.9102,13450.055,836.30927,-3190.5195,-1959.6931,15691.521484375
402,-31944.41,-51374.35,-71120.28,-1034.1266,-3675.317,161.35881,34567.28125
403,12958.417,14671.643,12587.735,-931.3102,1035.1464,4288.024,8042.7392578125
404,-11588.729,-2062.3013,-11946.984,-20218.596,3670.533,8505.188,39725.33203125
405,-30851.34,-6914.916,-12187.704,-14612.887,2688.829,3067.9983,34133.26171875
406,2228.4316,2709.1123,-7579.1123,-16678.037,6321.8496,44.040005,32488.572265625
407,-30545.842,-33774.566,-66004.17,4216.792,-833.0495,1957.3567,34930.6796875
408,-17119.248,-13853.185,569.666,-7091.5405,-1575.5594,-1995.8514,20882.025390625
409,12081.651,13807.666,13192.273,7277.9966,246.6048,1417.9696,12939.0
410,-20821.434,-8622.34,948.3096,8679.43,-3325.7866,2011.4209,25069.623046875
411,-25574.215,-19416.17,-5927.7236,571.0485,1193.7158,15.825197,17554.943359375
412,-9279.425,4140.425,-9263.089,-6426.5884,-930.8744,1132.9657,17613.259765625
413,-36879.465,-16811.623,-38242.637,-507.57953,13950.377,-10276.866,36515.5625
414,783.76746,-4699.978,394.48962,-1579.8834,2546.439,-695.20886,7515.27783203125
415,-1956.8989,-549.7401,-1432.0643,20583.447,1602.8661,-9860.436,39647.75
416,-9914.781,-9184.915,-9347.134,-3721.4644,1591.2809,-607.07886,7119.73828125
417,-2719.272,-3284.2695,-1097.2855,5328.0425,1394.0092,1218.1705,9965.5498046875
418,8796.518,27881.535,22430.725,6701.5903,-3017.81,3543.7517,22128.044921875
419,18104.057,1798.6434,-23278.611,4459.2173,1060.2872,4237.409,37689.8359375
420,-4305.5337,-9215.294,1699.5732,-4089.1985,-2260.0977,529.92755,12489.2724609375
421,639.8689,-1022.5048,1342.1893,-11492.6,-4028.676,-1016.7682,21271.01171875
422,10353.609,13907.2295,-6357.1094,4634.6377,-1016.5507,-3282.5461,21239.701171875
423,20043.49,19467.566,2919.955,6872.484,-1703.295,-10349.533,27484.9140625
424,727.0166,18755.803,5859.1045,8854.0625,-967.1161,-1659.704,22474.5
425,-17557.928,-13520.749,-5696.83,-5953.137,3092.713,-2779.3665,16348.9404296875
426,22383.605,16477.426,52203.18,-6810.5127,-3802.1072,-1976.4086,35978.40234375
427,-10742.451,2061.0347,-15699.869,6008.354,-94.95616,-1767.0773,19226.88671875
428,-4748.1304,-1067.5371,7962.241,-3156.6814,-911.6225,-4197.615,14613.8837890625
429,-4524.2607,-1355.4645,5518.4526,-4255.617,29.876724,3165.2861,12785.330078125
430,13933.148,7014.464,11233.069,2231.689,-445.73016,1033.5696,7430.99951171875
431,-4985.702,1483.9703,6184.0713,-3004.4358,2030.6395,3037.1743,12707.455078125
432,31000.895,11072.821,24333.225,-9149.816,-190.34492,1511.0962,23808.16015625
433,15242.202,12874.589,34148.98,47.069706,1765.6061,-2331.8677,20820.83984375
434,-6320.853,-10893.729,4423.892,-19671.78,-841.839,-2508.7666,36978.91015625
435,-10911.5,-12046.249,-6338.6597,-7526.7754,104.34315,-4361.8965,15951.6669921875
436,-3893.9604,13608.623,3104.3916,2697.958,3379.9614,3410.35,17995.248046875
437,5999.1807,1522.1499,7809.124,3228.4023,-1501.9573,-851.2051,8463.5625
438,-7419.7437,23487.809,31111.586,-6556.9746,-2311.545,4859.0513,38273.66796875
439,-4504.1245,-2079.6416,-2552.2202,2935.2441,-202.58113,2688.952,7253.76904296875
440,24702.973,48516.36,8082.508,4831.175,649.6257,5407.182,37391.26171875
441,-1597.4948,-4382.28,-3138.7935,-88.04423,-469.41815,482.04468,2686.97973632813
442,-2602.316,6228.3965,4426.967,3064.537,-978.67065,-2532.9207,10752.3642578125
443,-5174.0405,-1888.8782,339.77466,-1274.0519,1221.7971,2592.8557,7252.40380859375
444,-6109.4346,930.97675,352.66464,-4152.873,-559.4552,1963.3007,10491.5185546875
445,-3888.9517,317.83456,2679.0942,-6745.054,-1544.3882,-54.10066,13298.7734375
446,-11821.105,-4755.556,-27502.994,7397.79,649.2401,1811.4044,24123.322265625
447,-5495.6646,-7807.286,-7982.136,-2272.6807,171.81996,3913.1077,8203.6201171875
448,6337.65,16470.55,-2237.2898,1879.4459,1879.3365,2009.5972,17216.341796875
449,1214.0272,13823.631,1815.3914,11834.936,527.8645,461.4335,23946.869140625
450,-966.0845,4113.045,3637.074,-6382.884,-3985.4263,-841.6603,13985.9296875
451,1828.0084,3522.1875,-1034.9957,-1483.3353,1654.7446,-302.03107,5568.35107421875
452,8771.647,-3531.6511,5641.349,729.7341,-968.49646,219.01428,11278.84375
453,12217.779,-3541.877,-17155.705,2545.3052,-2604.1494,811.0629,26267.970703125
454,-4408.2686,3486.2563,2669.821,-3128.06,-2254.9863,1451.3438,10366.9228515625
455,-2689.961,-16306.987,-19439.92,-252.17612,-1149.6788,175.9556,15561.1328125
456,-7007.7017,-4174.4375,-6081.821,3154.2676,-2975.3335,1804.2672,8510.7900390625
457,1920.4746,-5385.3325,-12123.065,-2794.7034,1199.8243,-2203.1626,13795.21875
458,1651.0334,113.31506,627.34503,-2541.3464,-1510.369,2490.3604,6831.03369140625
459,6340.4453,-2354.4797,1126.8936,858.2878,2856.3745,919.7056,9309.9716796875
460,-16673.842,-2381.6177,-6040.5415,1209.1876,-2290.2502,-5056.963,16192.6533203125
461,380.78232,1217.5594,1801.1799,-4247.583,286.30298,1563.1974,7951.837890625
462,-6637.245,-763.7012,-2007.5264,2242.8623,518.03674,4066.49,9708.0048828125
463,13267.836,4788.2275,15563.663,7799.1553,-1087.1992,-2833.565,17514.453125
464,-18254.762,-23526.21,-48354.656,4388.8584,924.8917,398.392,28912.806640625
465,6131.4307,10578.154,9058.605,5930.42,1914.2465,2023.324,12004.5634765625
466,-1076.4015,2564.1177,-1073.8475,-8693.984,2093.618,-4149.321,17458.537109375
467,-3596.3503,-863.1018,-921.8641,2492.9277,1979.7227,-890.17285,6331.87841796875
468,2260.9412,6164.303,-2112.3215,3571.318,-991.072,350.47952,9644.1796875
469,-20178.283,10405.308,-23251.242,-7012.4023,-1148.2164,8500.494,37510.4375
470,5272.018,4524.9536,5123.577,5301.3003,941.72296,-4871.1685,12594.6806640625
471,-29531.71,8528.536,-4380.5903,9164.262,3225.7576,5650.948,38766.87890625
472,-2964.9216,1571.6627,-951.13635,1640.4426,-2072.3176,-1049.6068,6305.7041015625
473,8901.308,5287.5874,9273.079,4624.482,1938.6371,-973.99225,9634.2666015625
474,2801.4,4215.8706,7667.8228,-157.39308,812.05133,-600.4113,4683.31787109375
475,7237.5293,-4085.2815,4486.116,2928.1729,1377.1405,1285.0948,11873.884765625
476,3957.734,-5367.9624,-1214.562,-611.73486,3075.2805,3038.4175,11075.94921875
477,1838.4155,-832.0885,619.2974,-802.35315,5470.6597,-2014.7705,10452.546875
478,-14686.388,-686.2678,-12818.728,91.59215,1454.1923,-3496.1514,14709.9443359375
479,-8917.964,-4903.3916,-2636.3477,-2621.1604,2793.2197,-1134.7794,8845.2431640625
480,-4346.4966,-180.33426,1334.1998,-613.83496,2264.956,-1487.3243,7008.37890625
481,-3019.6265,-3436.76,3315.111,2542.4912,3594.1272,689.39844,10125.076171875
482,-14544.468,-6522.78,-12890.297,2886.536,-809.44696,-145.41614,8991.09765625
483,-5978.7563,-581.0436,5699.6504,2560.7493,-1539.9244,1555.8605,11684.705078125
484,-11561.891,-8321.288,-11706.057,-3282.8298,-1822.2264,3190.5786,9155.396484375
485,-6429.5703,-6454.6455,3763.6516,-3700.3516,-1843.3859,-942.47314,12573.5751953125
486,198.31201,-7953.7725,-1057.9325,-3599.6497,-1735.1329,-401.5019,10304.451171875
487,4995.701,-2089.0847,-418.2779,1800.7717,-2629.099,728.26184,8555.95703125
488,-7158.238,-3262.448,3289.66,-4004.65,754.42377,-169.20264,11555.8623046875
489,1236.4985,0.052388974,2891.1582,-3048.1387,1603.6266,-1324.2616,6867.4521484375
490,-6274.885,1670.8495,362.60852,4201.5806,-3213.0986,184.96768,11767.99609375
491,3291.6602,-4278.3975,-880.1904,3975.877,-1375.4077,483.46295,9845.2119140625
492,-20753.79,-30155.213,-638.7932,-14432.544,1409.1309,-6837.8237,38121.23828125
493,-7259.8057,1237.7971,-6059.0986,-2153.4382,-76.502396,693.3179,8878.025390625
494,-9462.61,-2697.7385,-3791.6987,9035.126,-457.00632,-2320.674,17356.365234375
495,4002.3848,9922.04,8128.247,4177.326,1375.1173,2916.6138,10544.396484375
496,-3710.374,3058.5676,5542.953,-995.696,4037.9497,-2509.5032,11814.802734375
497,-5063.176,-81.68975,-3145.7097,-1570.9006,-52.392056,181.47922,5142.98291015625
498,-4984.843,-596.9869,2829.6248,5135.2515,463.13214,-1336.0138,11451.6865234375
499,138.04787,-26.010727,480.29416,2960.5073,-996.0981,-2282.251,6715.40380859375
500,4193.39,4763.692,-2008.9901,-2234.6558,2725.3765,-2409.259,9849.3486328125
501,745.6253,-5744.3037,-845.56934,64.269806,-1311.6458,-1002.66016,6520.2724609375
502,-2976.9856,1864.973,1313.3273,-2665.2317,714.6752,541.8125,6693.3681640625
503,-4543.4785,3631.6318,-71.28413,4422.8066,742.41315,-996.8142,10657.8779296875
504,-3555.0742,4360.276,10685.369,-4694.545,-751.8026,1780.0603,15167.15625
505,-447.46222,1368.1309,5098.397,1671.6376,184.83385,-1602.7653,6338.4609375
506,-4967.9673,-814.1012,12581.623,-2909.4016,-1680.8046,-1568.7085,17134.63671875
507,2867.01,-632.4414,-2691.7795,1211.4984,1049.1327,1562.5968,6222.85595703125
508,19.364775,3720.1616,4663.8027,-509.96118,5.917397,-2331.8713,5930.57666015625
509,-1169.9388,-2585.771,1753.9739,3157.738,673.748,347.00436,6806.65771484375
510,-13616.444,-3714.2336,16953.146,-1549.1707,1131.1343,-5550.009,28866.81640625
511,-3322.567,-1258.0118,-4820.7783,1691.8096,1429.0476,736.70984,5093.28759765625
512,-2935.9873,6749.8276,787.05164,-721.33105,-458.0511,6.9469934,8591.03515625
513,-1075.9138,364.84427,1224.34,1489.9365,475.19467,709.5862,3591.732421875
514,12183.628,13639.01,10536.491,-1302.4865,-2209.3425,6005.9697,11626.5390625
515,-8588.814,-19198.963,-709.7079,1970.1448,-1260.8363,-6491.1616,20026.810546875
516,6922.307,4315.3604,1015.35223,-2013.8563,-909.3085,-54.41272,6398.861328125
517,-8196.106,-2258.391,-14074.5205,4291.074,-2253.919,302.4022,13246.55859375
518,-5696.515,1995.0038,-327.32712,661.2583,1485.6538,-8.685175,7390.80126953125
519,-9768.357,-8652.346,-10235.366,1341.9714,2890.2788,-3312.092,8084.45556640625
520,1281.8912,-5611.6274,-6396.4004,-1880.3883,-3138.415,-418.80978,9707.1650390625
521,-9912.806,-8915.414,-7338.5684,-3723.3452,984.5738,966.36957,7235.5810546875
522,-1184.692,2746.8562,3695.2905,-7122.596,81.63117,121.222824,13127.970703125
523,-2724.6716,-4509.076,-1270.3105,4030.476,820.57184,-4944.7305,11489.1142578125
524,15133.821,10721.462,24970.332,3040.9412,2940.622,-2304.5332,15140.8203125
525,3196.4207,-7799.909,3808.0837,-2114.177,1878.6674,-2687.1802,13178.7587890625
526,-10481.296,-7372.492,-3554.8843,-4236.76,-969.88934,-2689.715,10699.6796875
527,2142.3374,-3240.609,2849.6555,-2515.6702,1738.2258,1468.3188,8234.1865234375
528,-4372.247,-6084.9126,1481.7067,-1889.9524,528.9225,1061.5906,7884.40380859375
529,-382.30453,9360.881,6462.8306,932.64136,-651.0072,1008.4888,9056.7197265625
530,-1444.207,-4690.8857,-2562.0063,4528.152,-379.2448,-502.03168,8417.9169921875
531,-2045.0885,1059.223,1442.4595,-33.918587,215.34343,153.02466,3344.56665039063
532,-259.66296,3691.8684,4076.2732,372.18906,1833.1606,-87.957726,5272.7197265625
533,1068.0599,-1600.5765,-378.88086,-5321.7476,-192.48766,-269.91254,9520.8515625
534,-4185.321,-4080.3838,-384.65903,-3118.26,-1815.2279,121.52555,7290.90576171875
535,737.6943,-2871.651,9723.978,3149.8457,-3796.7183,-4406.6978,16046.2470703125
536,-1161.4355,588.34357,-1758.3447,-1092.1924,-122.0221,-1488.386,3838.18774414063
537,1608.0823,776.84467,-545.0522,219.70529,949.0514,-487.93353,2664.26782226563
538,-5983.268,-1003.4703,-3266.2905,-2231.3108,2911.0645,-599.51624,7751.62841796875
539,3409.2256,-682.1678,2496.7236,-109.230354,-2723.1162,59.06906,6010.91552734375
540,2751.152,1721.0605,-4469.591,-1176.1753,2167.1248,-796.3363,8118.13427734375
541,-707.30444,-3270.2334,-1621.7175,-341.93732,-1978.8512,-673.865,4303.69384765625
542,-6202.8564,-6062.4995,-615.3278,-2141.9976,734.5539,528.49457,6832.05810546875
543,7220.244,2889.891,9062.998,2622.3972,-1168.451,385.88123,7436.458984375
544,-6926.375,-3328.5488,-4681.0474,-1965.3629,-1160.041,-379.8012,5095.619140625
545,-6430.2666,-5457.8467,-11796.807,4445.27,-298.67532,-718.67676,9801.1357421875
546,1906.3333,3171.0964,-1517.7117,20.181595,1986.8623,1419.131,5961.560546875
547,7205.7627,9435.444,11089.15,2302.9111,535.6167,766.3241,5470.47314453125
548,495.70758,-849.2297,-818.9183,-1954.4559,2821.0376,241.56749,6105.6142578125
549,-1761.0695,-4097.842,-8650.776,456.77927,-836.55,2413.3914,7551.6650390625
550,-6658.16,-6713.245,-5600.6064,648.0641,-94.2869,817.8145,2114.90014648438
551,-1409.7318,-4002.3306,-641.3451,-2571.1284,-1780.2657,-2728.7053,7809.0810546875
552,-2604.7852,-2244.2568,11181.453,-3504.2107,784.0546,-452.56784,14983.896484375
553,-2126.7283,-1534.8904,-2024.1036,3622.4722,-1367.2911,-1380.9971,7141.2109375
554,3010.8967,-1518.5479,500.39194,556.7848,-615.09686,-435.1004,4252.0947265625
555,1904.2461,-1611.1978,3523.2244,3622.6353,853.67426,-487.51917,7933.5126953125
556,-1449.537,-5606.864,-191.08421,2201.918,-986.32886,-645.494,6543.14306640625
557,6932.4453,1683.9653,-2466.3857,1539.2677,329.0256,1214.5621,8855.126953125
558,-3242.3076,-11703.213,-6513.8667,-2164.9795,1711.1759,3026.8982,10244.109375
559,-1283.8318,-7444.1143,1520.6942,-3943.918,-65.11508,1210.2217,10684.625
560,-4869.3696,-9020.88,-3707.8125,1764.5449,-1059.5619,506.3174,6073.25390625
561,-3926.3828,-145.20863,-711.92,931.2577,-2629.2803,-1514.0312,6534.02978515625
562,798.65656,8292.617,2419.195,3279.5996,-1963.3618,-508.26553,9552.3837890625
563,-6647.4326,-6826.5757,-6277.6313,-5239.914,-925.2444,-1042.3987,9403.8935546875
564,958.3104,6193.024,5320.6646,1073.0233,-2267.7866,-998.3037,6743.0869140625
565,-8165.7876,1111.9843,-5841.1655,-4249.5825,428.6292,523.81116,11201.1064453125
566,-6314.6675,7233.579,4363.1914,-5283.576,-871.31335,-1884.4294,15798.25
567,-9789.383,-4678.2656,-3125.331,4810.365,351.86435,1459.0801,10613.640625
568,-3707.2744,681.9577,5996.5664,2571.5337,-429.74915,-944.5439,9690.5302734375
569,12899.332,12242.234,35232.25,-3210.7441,2135.721,2458.7805,24012.7734375
570,347.1869,1135.8954,1585.0203,-3436.187,812.5754,-2531.1526,7602.708984375
571,-6848.729,11740.224,-9049.495,8540.548,536.3752,-1445.81,24844.708984375
572,-13734.545,-2898.567,-3049.9749,-3908.1882,3577.0364,3249.4802,15221.216796875
573,911.42365,1565.2511,-4881.7983,5225.4653,-185.73994,-547.6888,10986.197265625
574,-2774.2346,2119.7102,-11847.606,-2564.3242,-2034.3527,-5217.9277,16263.6005859375
575,-4345.6646,4685.66,11039.524,844.3849,-69.06882,1688.1361,13784.880859375
