Element Label,S11,S22,S33,S12,S13,S23,Mises
1,2802.6765,3041.3032,5886.768,-460.55463,-443.25336,2921.3206,5971.6591796875
2,-8237.493,-7287.5093,-13066.529,85.92361,-511.21683,-2952.8298,7468.15576171875
3,3726.4553,5001.8335,7377.0044,-660.237,-816.92645,2297.7969,5426.4833984375
4,226.22913,5338.6963,770.70276,-2816.633,-2939.1738,-904.94946,8707.6669921875
5,-10728.813,-18873.125,-18228.203,2619.0715,655.3652,5352.9556,13012.41015625
6,-3966.27,-3441.9556,-7920.2847,-611.26794,-288.17123,-330.93088,4436.31640625
7,12345.65,12360.026,18711.486,-1622.9108,1643.0037,1262.4729,7823.93603515625
8,-2113.4734,-797.05273,-11374.24,-3445.312,-890.69403,157.15842,11736.71484375
9,12260.995,10231.377,-4579.6797,-3978.9373,5424.517,-4819.5728,21424.38671875
10,-1894.1632,-15891.341,19917.266,7066.7363,-2657.3948,606.264,33897.81640625
11,-2049.0767,-659.2605,-3595.4092,1088.374,179.83966,-1065.4669,3678.07177734375
12,1308.8193,3157.4365,9390.38,2235.434,-1604.075,784.51306,8851.3466796875
13,-12429.458,-7103.4336,-11540.044,6444.9946,642.08215,1959.0297,12719.4580078125
14,-14352.224,-12798.15,16491.352,9794.292,-5278.988,-4026.3674,36411.95703125
15,-43645.246,-23426.252,-7340.461,10705.578,-118.02801,6227.176,38118.265625
16,-6723.4004,-11878.706,-277.3369,-5156.3184,-660.6324,2410.9763,14137.5712890625
17,4748.766,4575.591,12541.613,1021.85223,-323.7954,-36.141438,8096.85009765625
18,14620.228,8564.676,16113.273,-2673.0056,485.143,-3201.9587,10041.84765625
19,10795.121,10373.906,10353.054,-112.04204,-874.57764,584.1285,1882.17346191406
20,-92902.98,-76539.68,-55567.387,-12598.985,-2836.7932,2452.3582,39612.59765625
21,-5345.4243,-5988.8286,-8592.939,427.73734,1950.1483,-2144.1892,5884.01318359375
22,4221.6064,5914.005,19686.95,3921.7563,-2741.918,797.388,16925.419921875
23,5410.496,16636.576,25854.363,3922.747,5874.7886,2417.1973,21947.75390625
24,-16684.562,-11771.564,-11662.232,78.730804,1531.8894,-1502.4529,6206.23828125
25,-4693.0674,3141.832,2629.289,-2895.4998,1254.2667,5878.185,13826.1748046875
26,-12096.3125,-11974.102,-13317.781,3185.9797,-1908.0137,-1314.6609,6943.640625
27,11241.39,3233.552,-3347.9438,-1381.2982,3711.0142,314.88638,14404.21484375
28,-1078.4585,-8113.2256,-9183.243,-273.35178,-1500.3954,-1211.6548,8339.2001953125
29,8950.287,8657.961,35948.805,1468.3203,-2186.9636,1112.7347,27593.99609375
30,751.0781,-2722.6143,-4268.7617,-3369.981,206.57011,-686.6413,7445.8515625
31,5289.491,6832.229,4916.0386,-2123.769,-997.5913,2394.4646,6067.353515625
32,2458.6501,3985.3496,5421.828,283.57187,802.979,2595.9116,5383.23193359375
33,-1114.5643,-1568.8694,-5549.134,-1604.3154,-1010.4713,643.1363,5466.50390625
34,-10173.015,-11291.786,-20804.865,522.8491,-411.8566,1486.0918,10504.650390625
35,381.42004,1222.145,2482.3247,-943.4002,-3485.296,-925.7152,6710.96533203125
36,10649.056,9982.564,11446.321,-220.92763,1372.2212,3991.9133,7430.52685546875
37,4884.2153,3931.9854,8129.884,439.66208,2752.8203,777.0119,6297.37548828125
38,-4953.8325,-787.7446,-2410.914,-1132.2589,-3277.938,-1389.0283,7422.7734375
39,-65.125854,1705.5259,2153.3235,-591.6122,-244.3101,3538.6648,6551.65234375
40,3634.7532,10327.035,4679.0684,1544.2716,352.16245,-4127.466,9875.357421875
41,-6957.1997,-6077.3784,-10199.175,-501.13196,513.82166,-1332.4089,4583.47314453125
42,-26242.947,-21251.982,-30130.225,-2376.195,-4202.0547,-1227.751,11569.5615234375
43,-27489472.0,-27490142.0,-27491652.0,170.9772,-237.55861,-59.835556,2002.10961914063
44,-107521.53,-140115.39,-107685.57,-4583.8184,-4277.6406,-1300.0719,34351.69921875
45,-337462.94,-312071.12,-350908.9,-202.56215,-10985.534,-1934.6494,39247.3359375
46,11211.262,4049.632,-15976.641,13565.973,-12002.18,-96.166214,39749.87890625
47,29546.207,38113.312,61783.406,15087.7705,-4071.9138,-371.0076,39617.2890625
48,24627.764,19060.11,-9054.26,-8368.991,6765.3027,-7806.8105,38835.73828125
49,30718.727,53476.973,51473.043,-1217.5507,-5210.8916,140.21912,23713.162109375
50,3239.209,42365.285,27615.701,-8375.505,-1023.24915,-284.72095,37217.4453125
51,3529.5708,16150.742,4304.215,-5493.1807,95.80629,-11013.361,24587.642578125
52,15242.574,15850.395,-613.583,1800.4783,3851.7854,1105.8851,17869.744140625
53,-22142.613,-6999.124,-24650.816,-2232.558,535.82794,8254.846,22222.533203125
54,3963.5347,-5572.312,-2212.6304,-10376.945,-183.1798,-2752.5325,20397.435546875
55,-39843.1,-38245.453,-27901.945,10467.402,-5534.5283,-6348.4424,25837.310546875
56,-19394.852,-3100.4658,-28325.664,591.4218,-4565.8066,-3938.0715,24513.318359375
57,-2357.3455,-7128.713,-1583.814,2441.8633,-244.5564,-3868.1494,9487.37890625
58,-3981.502,51.09497,-5628.056,2298.0278,3010.2754,4131.944,10948.05078125
59,6044.7227,-179.64282,903.7666,-646.68286,-2506.615,-3584.6338,9582.5732421875
60,-6253.625,-4603.733,-5976.7383,-363.2269,1579.3778,678.5646,3406.23413085938
61,23187.719,21703.6,37091.305,757.32025,704.75146,1886.2367,15166.7783203125
62,11503.827,9694.231,13408.919,595.8461,-2529.6687,-911.8425,5754.0068359375
63,14399.18,11336.536,20738.543,679.0338,-687.964,1647.3523,8940.1884765625
64,-8898.984,-10182.537,-20410.615,499.37234,2264.2168,3324.7864,12987.69140625
65,-14881.801,-15420.275,-30168.188,-141.6711,414.10324,-819.4291,15110.3037109375
66,-24486.291,-13762.477,-12782.756,-7298.501,-889.403,2910.298,17721.55078125
67,-13137.933,-18222.936,-18879.955,-5690.3276,3499.649,1508.6538,13051.4404296875
68,-54386.344,-57135.516,-91054.164,-4425.0674,2382.1384,1659.6473,36541.9140625
69,4899.883,7747.744,-7381.795,1240.7374,-13620.154,586.5806,27497.322265625
70,19726.195,11037.781,15809.126,-4520.8975,-2647.8767,-5423.2363,15079.2119140625
71,73154.734,61017.984,92263.26,4601.46,14005.152,-7053.7964,39313.77734375
72,74791.1,92486.734,99339.55,14735.237,4765.489,7552.4844,37040.41796875
73,38071.594,14057.6045,13062.921,10547.901,3855.9104,-5799.743,32876.08984375
74,43758.727,27716.633,71598.586,-4442.293,-1399.694,-2452.769,39523.96484375
75,-46769.934,-29615.572,-72485.055,6143.1846,-4417.402,452.4792,39611.06640625
76,-84489.53,-120981.984,-89527.164,1398.692,-9899.525,-4076.7205,39025.26171875
77,34168.977,28338.852,52727.258,696.90265,-6549.3237,-5377.1504,26523.130859375
78,-2535.6714,-1315.2015,-2664.3318,-533.8058,648.3402,2582.936,4877.876953125
79,-7137.095,-9335.886,-18397.605,-1660.1608,570.73645,3657.0146,12499.646484375
80,6170.575,12507.953,14975.234,-305.9312,-567.00397,-1452.6598,8334.3779296875
81,-7518.85,-12714.655,-15850.524,2159.7334,-950.6958,-3691.226,10521.58203125
82,13411.605,17770.58,15656.236,322.89496,-3949.658,5012.6045,11693.82421875
83,490.23218,512.40314,-1038.5854,-465.0712,2247.1396,2999.5251,6720.1865234375
84,2008.2795,1736.9512,2169.746,432.47488,1145.6654,2054.4336,4159.84912109375
85,-134.43262,2693.758,-396.67188,-251.3401,-2724.7656,1947.8643,6531.0166015625
86,16349.271,16262.553,30292.754,734.4224,2745.46,2289.4402,15349.0322265625
87,1812.9233,2611.0654,8828.252,878.18097,-2097.968,-1859.288,8375.052734375
88,-1532.6326,-3843.0552,-2739.6443,18.47307,1154.8862,109.780334,2836.31591796875
89,-3304.12,-4603.1,-9597.362,-364.2804,243.32393,2165.8174,6911.25634765625
90,5647.844,4827.191,12277.748,-1640.0244,-2872.6128,-4436.11,11913.517578125
91,-15858.8955,-10228.638,-16689.041,1338.4674,-3385.6033,-3393.7734,10553.548828125
92,-6347.176,-252.71387,2548.042,-1262.3849,4430.721,1305.0676,11438.537109375
93,-8059.281,-8777.911,-15380.414,334.24655,-2265.466,-895.1825,8184.76953125
94,7730.3076,6901.0845,13496.264,339.2408,-44.48336,-66.32138,6251.36083984375
95,-12917.051,-13515.564,-22652.914,1497.3351,-614.94543,-483.19125,9893.388671875
96,-7204.415,-12697.87,-14534.966,-3643.3887,-2494.2861,4388.709,12645.73046875
97,106959.94,118444.7,103767.55,20276.955,7970.8247,1452.043,40114.17578125
98,7577.6855,26993.643,-2181.8818,-12297.493,4769.265,2140.8086,34603.34765625
99,12341.99,8959.156,9025.76,-2323.6619,-1770.9291,-1307.0471,6477.236328125
100,17540.088,22003.867,22053.025,-2749.2039,-610.4358,-67.87584,6629.72509765625
101,-9855.8125,-14120.413,-14460.284,-911.7094,-2378.289,-7.303407,6262.13427734375
102,-18702.924,-19697.941,-34440.734,-963.32117,-4139.7295,-778.5289,17000.697265625
103,10918.963,15130.189,17174.986,-2424.0852,1692.9321,-3.0330133,7533.48388671875
104,-3374.5889,-4197.4663,604.60815,-1306.7196,-640.88544,3046.3245,7347.146484375
105,337.73535,-1761.5392,-4345.806,1964.9471,1365.5236,-4785.8374,10119.298828125
106,2726.2915,2002.303,4655.8403,-1208.7869,2605.4204,-3768.3557,8543.6494140625
107,-5198.7515,449.79712,-3332.272,-652.86536,-2780.957,-3551.3076,9336.068359375
108,-10378.46,-13347.622,-13571.845,-2127.2627,-329.50098,-1349.4458,5375.53857421875
109,-4357.721,-3021.844,-10295.489,-560.907,576.68835,442.64917,6892.25341796875
110,-4786.288,-3645.5679,-2660.9023,1326.1394,4413.3174,-2319.5962,9123.796875
111,4462.6074,5572.443,5823.1533,-2178.179,-904.66406,308.88455,4306.705078125
112,-7838.288,-4436.197,-9546.99,126.70834,1220.7794,-5.0844593,4982.58984375
113,-558.0388,-5600.917,-5131.3745,-2957.8264,-1812.3635,-4727.5537,11244.23046875
114,26941.242,20060.748,53075.547,-8286.988,1837.149,3536.3655,34114.88671875
115,33441.68,7538.5967,17118.756,-9298.441,12014.29,-1869.2607,34892.52734375
116,-123747.016,-119526.85,-144663.02,-10730.25,-14487.158,5010.805,39924.05859375
117,-24132.639,7446.4844,-16617.145,-10015.726,-6919.363,-8922.113,38726.99609375
118,-263555.9,-258811.81,-293232.44,4872.111,4429.985,7329.628,36541.05078125
119,-86641.87,-73990.63,-62709.11,-5507.672,-5007.5664,7710.149,27832.021484375
120,16703.135,9001.046,-616.55273,3682.9802,3641.4001,2412.4973,17995.244140625
121,237.75818,-1714.0533,-113.528656,-1286.4238,1112.5247,2489.236,5523.94873046875
122,-9896.682,1824.3848,-572.03296,455.98453,-115.27524,-2832.6206,11822.5419921875
123,-3616.8884,-773.14844,-11746.618,247.53435,1127.2302,3589.9443,11830.345703125
124,8225.209,-1855.7339,6356.344,-6822.594,9380.396,1897.9548,22376.41015625
125,-228635.0,-218874.05,-226368.56,-5697.178,-8664.977,4368.826,21404.88671875
126,33023.168,15811.394,40450.16,-18915.887,-2635.3245,-187.69283,39668.75390625
127,-11779.755,3789.4316,-27349.205,-1354.8363,-7304.798,9255.126,33908.26171875
128,6710.689,9851.729,24394.527,285.81558,2477.876,-3112.9077,17741.869140625
129,-29993.256,-43304.223,-34443.836,6062.404,4517.388,-4033.423,18921.736328125
130,8766.792,13547.474,13371.578,2694.9216,1787.5511,-2298.1143,8322.42578125
131,-2358.1177,-1904.3195,-5700.3027,-753.2618,404.5951,1629.7546,4801.50146484375
132,11754.076,12140.854,10533.413,5962.544,3792.8757,-4210.7686,14321.9052734375
133,2556.551,5835.293,-20.39087,-577.8674,290.80713,6378.772,12213.173828125
134,-790.86035,2190.9966,11186.023,-1758.3966,-320.384,-454.8976,11261.814453125
135,-10105.882,8146.92,20290.66,-15982.861,66.35835,-5574.3486,39520.64453125
136,5466.38,5445.416,-168.19922,1846.1454,-808.5074,-1854.7886,7357.8076171875
137,-72034.19,-97299.3,-83817.92,287.55484,-13771.837,1508.3584,32488.90234375
138,278896.97,277698.6,259928.19,2177.388,-15056.219,7717.5986,34806.5390625
139,-2210.545,-27075.283,-16553.922,-10104.071,-8270.265,833.9297,31319.294921875
140,-107316.71,-117814.04,-146798.5,-5175.1562,-917.15594,-2492.8945,36824.8046875
141,34091.094,26125.95,47434.297,-2646.9502,-9425.138,-63.89742,25205.080078125
142,10161.988,5431.53,15418.389,-2247.586,1796.4456,-1118.9945,10171.7841796875
143,-10698.661,-2572.9636,1031.4592,4558.3315,-1301.8307,-2101.5474,13746.8623046875
144,-1549.696,919.3042,1369.9451,-1087.0424,5658.797,1325.2185,10596.7548828125
145,4364.307,828.5532,5554.19,-1576.9166,474.6138,-1171.1051,5511.32861328125
146,9349.821,9714.035,13721.779,174.5194,-248.10619,-920.14557,4524.4208984375
147,-3217.9268,-7220.4736,-7373.477,-440.11203,519.45166,3253.0552,7056.478515625
148,-3244.4607,472.00317,5499.6074,566.2103,-1055.6735,1308.3762,8198.4443359375
149,408.3213,-956.561,-1874.1711,-4.9174175,1957.6161,-360.2147,3980.38452148438
150,-60105.633,-59589.004,-27260.1,-11486.125,4829.2285,3135.7744,39463.703125
151,46922.53,88816.87,59604.69,-4065.4363,365.49994,6865.1724,39699.34375
152,3472.1016,-4665.08,-23407.256,5450.0576,-3790.4756,3064.2288,27025.40234375
153,20684.24,13953.521,21203.62,-9130.234,-1336.2319,18772.078,36900.9609375
154,-11287.34,-4879.231,-15365.803,-1502.6315,-1653.8737,6267.5737,14719.375
155,17902.244,14577.023,26985.912,-43.086052,4932.5107,3862.5762,15541.1826171875
156,-2729.4277,138.40894,-6022.604,-1056.9889,-3899.1016,-2058.434,9496.625
157,9815.532,5065.026,4139.651,-2782.9785,2274.5386,1549.8174,8589.58203125
158,-8812.248,-8758.372,-13480.97,-825.71643,-2209.997,-1099.0768,6509.4541015625
159,2050.1235,451.68994,12347.893,-2308.9075,743.4794,1469.0791,12214.146484375
160,-11769.625,-18512.37,-16483.852,-61.40996,-347.6482,521.1239,6090.181640625
161,18281.861,17997.484,23236.19,2734.3904,513.58014,-5081.3843,11256.9306640625
162,2416.1362,3287.866,5953.099,-729.33624,-1146.5071,1802.2367,5046.79541015625
163,-957.7754,-5207.635,-11155.433,301.0304,-747.35864,-1907.3154,9569.533203125
164,-4455.0107,269.56372,-7360.589,-1506.701,-1766.6417,-3580.7874,9956.466796875
165,10348.867,4272.7476,-3174.4194,-1151.2441,-7346.6836,734.64343,17468.42578125
166,24230.623,32249.293,12806.726,-9558.492,12775.199,-1783.0195,32552.38671875
167,4404.8604,25270.496,-3208.9678,-2430.5024,-2540.0337,-14131.902,35894.59375
168,91.41411,991.5684,-215.14706,1888.3451,2768.9775,-2002.8025,6849.31494140625
169,10826.951,6948.4995,8675.907,3320.133,1695.955,-2418.8086,8401.0234375
170,-10430.2,-9490.558,-10057.801,446.1672,-24.504795,-6966.6357,12119.10546875
171,-29968.396,10000.182,-16395.553,5501.885,749.6709,-968.75464,36531.296875
172,4326.6973,35811.336,-5158.634,905.90295,362.1818,0.05858124,37185.3671875
173,-1320.7236,-1762.3533,-682.20966,-232.51628,1998.1252,823.0876,3880.3154296875
174,10691.3,9913.328,18277.547,944.93005,2237.3179,2853.167,10304.14453125
175,-5715.351,-5496.1743,-9834.925,-1191.6257,20.402441,906.6867,4964.80078125
176,-53591.793,-21364.648,-11475.807,-3116.4912,-315.83664,-5946.932,39882.3515625
177,240.98935,18904.56,-19374.389,1544.8413,4195.5474,-3129.2566,34475.05078125
178,-3434.9185,-1636.19,-7932.254,86.14322,-309.91742,-1.6651793,5644.5859375
179,-3902.3525,-3706.7395,7040.33,-3145.6128,723.63025,-1320.0432,12414.634765625
180,14629.719,7820.825,23341.873,-738.68854,574.4436,-3942.1028,15193.099609375
181,9192.085,7620.7065,15110.217,2199.0825,-1527.6539,-2971.6555,9736.2421875
182,-25899.146,-19171.758,-31290.18,-3281.2676,-2483.295,807.4734,12780.650390625
183,25652.586,18883.465,14473.541,839.6314,729.38226,579.36456,9991.8798828125
184,-3102.6538,-4723.081,-13457.131,3638.931,-6651.591,-7657.0503,21009.759765625
185,-76212.195,-75228.58,-107276.65,2268.479,-7126.545,-7093.5176,36266.76171875
186,-4191.1777,-6358.588,-9565.08,86.76516,-5304.73,-784.8985,10402.8994140625
187,3088.0774,3850.2175,1940.3733,-417.53708,789.44324,482.6587,2421.64111328125
188,-2299837.8,-2299856.2,-2301416.0,-163.18289,-681.8205,150.35677,2001.09033203125
189,136.80371,-8655.145,-20455.287,-2164.4827,-5262.269,-1132.1616,20524.685546875
190,-35199.926,-32543.684,-61049.75,29.748514,-2999.186,733.19763,27794.48046875
191,5017.5264,9272.707,10271.327,-162.21217,-4488.2515,2398.8428,10056.271484375
192,-1278.9954,-2473.2131,-11803.163,79.720856,-1244.1283,103.101204,10213.2578125
193,379.30566,-5892.309,-9732.093,-1188.2091,-720.6688,-638.6322,9229.0791015625
194,6.5058594,-1859.0999,-5135.738,-171.17361,-1581.6852,964.4461,5541.958984375
195,-9864.093,-10705.565,-20346.305,-1399.0212,-318.84445,1285.9562,10625.54296875
196,9950.463,6284.6885,5780.8506,-1073.1227,-3991.389,10.224629,8172.35302734375
197,-1690.3569,-1438.2676,-3815.8687,-1505.8025,2262.852,3827.7527,8440.1455078125
198,-3526.0544,-947.6979,-4128.8325,674.59045,5724.039,4943.101,13473.2060546875
199,-5910.387,-8301.935,-13400.105,-710.4056,1114.71,70.14219,7011.4111328125
200,-1260.8607,-2881.6716,-1185.6444,-1372.4819,-2305.8235,-5791.1772,11178.970703125
201,2706.7766,2058.8237,-344.91846,372.68057,-2731.2651,-4283.5415,9251.8974609375
202,-12057.123,-10705.022,-15014.26,-783.8876,654.1324,2773.4019,6385.41796875
203,-687.0844,651.1236,-1318.4514,-1546.3538,-557.9933,-549.33655,3470.92749023438
204,-12741.453,-13361.48,-23814.031,-1108.0433,4713.6934,-798.0688,13724.86328125
205,12982.926,14098.189,17040.795,1223.6023,313.6595,2177.108,5673.6826171875
206,-14283.864,-16953.059,-18138.408,-1655.0448,3864.761,1815.9926,8637.923828125
207,-5026.4565,-7936.6006,-16817.191,-1639.9801,-2577.5686,1237.4943,12073.607421875
208,-4233.464,-392.52246,-10120.623,2879.2842,2624.2124,243.28311,10850.41796875
209,-8575.85,-10649.4,-18018.846,-736.7361,-1194.3344,-2879.9548,10231.291015625
210,2528.5876,146.36108,-8113.3184,-120.28238,1172.2837,-787.2704,9979.943359375
211,20315.215,19998.496,33637.91,-2555.5872,3569.3481,1921.1055,15833.5029296875
212,-72996.31,-73531.94,-106303.0,-191.59435,-262.88293,13.985569,33046.9453125
213,-36109.9,-32640.043,-49716.08,288.76578,2268.3884,1333.6979,16291.18359375
214,7154.085,4882.2993,-4417.0654,2322.6565,-707.9185,-2473.6008,12198.7333984375
215,-1921.6599,307.85034,-4816.9106,-1789.262,1119.7686,224.70125,5772.83935546875
216,-9203.63,-8113.2363,-21122.56,78.73612,-1102.9413,-883.3344,12737.9384765625
217,-2607.7173,-1020.0121,329.05884,252.24109,-921.9399,1460.3442,3952.38403320313
218,-19075.2,-17331.861,-32167.072,120.670944,-3686.696,-2932.0342,16244.0537109375
219,-9123.527,-7507.841,-18265.703,-669.75946,2012.4039,-310.87244,10711.94140625
220,-4751.828,-2466.3782,-8687.418,-857.7509,-1957.3278,499.6926,6645.02978515625
221,-14060.893,-13702.557,-24687.188,-698.4302,-163.64516,385.05676,10901.5087890625
222,2067.5,4333.2954,3193.0337,242.3932,2329.8506,-342.74948,4545.73779296875
223,-5314.052,-2290.2734,-13111.571,54.83998,1448.2605,-696.799,10063.8212890625
224,1510.8121,4183.2754,2197.508,2207.942,1620.9115,-3927.7534,8635.234375
225,-13764.127,-13443.32,-25157.188,-228.18484,-148.32932,-332.61908,11580.751953125
226,58.013153,-1333.4678,2973.505,3239.3655,-5038.919,-7955.8394,17664.423828125
227,-17052.137,-13752.951,-24580.096,454.56934,-1393.5168,-5684.177,13991.6435546875
228,-18625.639,-17070.65,-30401.633,555.7702,1750.6461,-721.44147,13079.9814453125
229,-9254.816,-9349.741,-18542.537,163.8279,-228.15712,1447.0778,9586.8623046875
230,1379.8484,4537.5312,608.5392,-1509.9286,-3852.6785,3798.5828,10375.845703125
231,-4537.03,-4735.2754,-10046.87,-42.91172,-1557.8761,3851.4878,9005.2021484375
232,-6610.546,-3513.9531,-9581.423,1846.7218,-2596.157,-2590.8574,8843.271484375
233,-9506.182,-6929.577,-14873.992,-1125.2888,-1759.1665,-3800.7754,10281.2216796875
234,-5280.688,-6360.2373,-12007.247,458.4372,-1462.6416,-2846.0022,8396.3095703125
235,-17479.865,-19140.043,-17094.203,-68.971146,-85.354836,-2356.9854,4499.7177734375
236,10107.726,18331.533,9126.924,-129.99072,265.03574,-418.19766,8800.2841796875
237,-5802.4585,-4214.473,-14628.988,-5161.128,2561.8337,3072.609,14912.0498046875
238,6276.412,3362.2683,4117.3125,4022.2026,-834.787,3647.935,9869.61328125
239,-3766.7314,-4187.2974,3254.0974,-4698.701,-3819.7527,2307.304,13356.552734375
240,-4713.5815,-3723.375,-8452.781,1022.2538,1469.0894,-1464.4474,5891.36669921875
241,20823.559,12397.936,23528.518,-1699.6483,5606.6616,-481.45786,14309.6005859375
242,-25300.725,-26616.664,-48341.203,-4672.9717,3218.9443,2987.9036,25013.056640625
243,-7411.6045,-8675.393,-11355.036,851.7553,-2835.543,-2270.6443,7343.63671875
244,-9842.464,-7099.9194,-19755.824,-146.48187,-1181.793,-1187.168,11893.9677734375
245,-5993.545,-12252.513,-17490.012,-1695.7606,2563.8833,-994.9707,11432.611328125
246,56044.97,36499.74,63491.805,1593.0863,1753.2196,-744.6161,24525.904296875
247,-6145.967,-15298.324,-28473.492,982.00574,-3674.1042,-6186.923,23155.1015625
248,-44104.6,-38499.93,-65930.84,17174.791,1438.4467,2235.9504,39195.0546875
249,-23563.441,-45876.28,-39006.875,-16467.701,6872.3228,9061.438,39916.74609375
250,85036.18,80972.62,120023.14,-7037.813,330.23703,1563.7778,39230.44140625
251,-19083.984,-52770.332,-18777.033,-10758.931,5856.1406,1569.8606,40034.29296875
252,217699.89,223737.75,199583.48,3050.9075,1030.7784,-14450.709,33639.6328125
253,-29413.502,-43403.074,-70402.84,3341.7888,3575.5774,4531.508,37892.89453125
254,-716259.7,-716363.25,-717804.5,-152.28036,430.28342,-545.971,1938.15344238281
255,232292.45,232219.0,234031.19,13.1116705,-134.45287,254.26268,1845.265625
256,71926.45,68205.85,39286.816,-3196.4775,3779.3635,-5785.071,33640.06640625
257,18801.611,32519.736,16903.49,3189.684,-12224.814,14671.269,36639.1484375
258,-142640.5,-115332.88,-150278.34,3909.9685,-8296.294,9610.441,39268.87890625
259,-74440.484,-50108.383,-93018.34,-6066.796,760.2387,5404.8955,39862.4765625
260,-36466.15,-14643.109,-11028.164,-10797.217,9390.487,-6917.1504,36414.64453125
261,-22051.135,-36783.453,-38876.79,7099.521,-14389.273,7839.006,34770.33203125
262,67634.914,105294.35,73582.695,7959.9243,627.8205,-7998.485,40159.80859375
263,-7109.0674,6624.186,6490.5176,-8333.921,-2064.886,2866.2512,20798.66796875
264,6518.75,11092.678,9039.643,-6881.681,-13774.413,7106.3726,29639.88671875
265,-22845.234,-9763.993,-30691.658,-8114.8984,-762.62134,-1253.271,23223.646484375
266,3303.2764,4426.7896,1525.8701,-2170.7026,-1706.7936,1660.7205,6129.24560546875
267,19576.404,11231.69,14890.702,-9484.427,2805.1013,-3311.1416,19464.04296875
268,4337.339,8565.274,-2542.598,-8419.012,-2214.1748,-2335.78,18385.087890625
269,17834.617,19672.37,1921.9814,-17824.771,-3823.7498,3979.412,36474.24609375
270,-598.77246,-5371.1025,-27808.047,-7880.828,-2485.463,-7354.286,31628.77734375
271,-2049.2385,7515.051,4446.081,-5051.4326,-3444.344,-1910.527,13951.109375
272,-12219.545,-8445.64,1181.1133,-5716.183,4099.074,-4158.2886,18535.17578125
273,14050.029,12324.035,27634.658,1658.4144,-2594.4753,3205.0278,16438.666015625
274,9024.457,5080.3125,9048.021,-485.35745,-2644.5562,2940.998,7955.24560546875
275,-4716.5693,-4966.454,-12837.062,-1583.8873,-1689.694,23.63583,8948.107421875
276,16052.061,11441.6455,20727.3,-8172.904,-9785.506,9251.065,28444.203125
277,13505.013,3524.666,18161.213,-4890.087,-1180.3624,-1076.1702,15721.0380859375
278,-12307.632,-12278.673,-25545.793,469.01306,-858.375,-1770.6437,13707.990234375
279,-4628.4204,-4943.5347,-11471.811,147.79593,3121.0354,1001.7353,8779.14453125
280,-994.3142,-2407.2144,-7774.0107,-141.18755,2640.5715,-410.66367,7737.255859375
281,22574.008,19086.623,31019.996,-2459.2654,-947.8817,-1488.7832,11850.73046875
282,-13954.521,-13003.747,-24404.135,70.0449,32.587955,364.9936,10975.025390625
283,-16383.103,-15776.455,-27483.01,-530.6576,344.28308,57.616966,11468.21875
284,-8412.913,-7629.191,-12591.017,-1091.9229,1035.1884,-202.08006,5315.96484375
285,-62877.375,-67538.375,-97618.91,100.11291,-7491.5327,-488.20053,35155.125
286,4001.615,-228.62463,-9708.196,5.8607316,1879.282,167.94667,12591.18359375
287,7129.6577,5867.568,7961.2407,-538.9248,-1868.9132,-2399.5364,5653.06005859375
288,-1818.4009,-1417.7787,-4149.4663,-45.411163,494.0294,-109.880775,2702.37744140625
289,9391.468,7279.8604,8613.538,1449.19,-1330.5321,-2063.4802,5273.19921875
290,2860.8113,257.9652,-8392.213,1667.409,630.3965,20.532907,10660.662109375
291,-2810.3223,-4599.07,-5873.3564,-709.66,794.03516,1402.7834,4050.74462890625
292,10781.052,9443.646,16701.373,1020.9534,-459.86353,-1310.5879,7326.056640625
293,9325.716,19162.066,10378.009,-1226.9556,114.58163,3056.2085,10958.43359375
294,-6508.6357,-8258.13,-8254.715,-745.69855,4423.57,-154.55443,7968.59716796875
295,-15963.214,-11892.05,-24312.598,1190.0215,-3073.3433,524.6419,12397.12890625
296,-23324.07,-16126.192,-39302.71,-185.31741,2244.3926,3218.513,21643.24609375
297,-14759.533,-14520.891,-24062.68,-112.44575,47.32399,327.7819,9444.1826171875
298,-6964.9365,-7433.3203,-14389.764,-3309.3394,2428.8171,-1179.9177,10324.6806640625
299,4174.4297,6701.101,4537.985,-1902.0992,-1518.1705,1399.4694,5407.556640625
300,-16876.098,-16977.21,-28328.904,300.9099,-236.75262,-1232.2855,11619.5673828125
301,27030.516,21987.553,-1427.0371,-6698.556,7918.883,-1317.2382,31932.69140625
302,7644.506,9151.14,-77.220215,-11478.982,-1308.9805,2728.2183,22277.78515625
303,-1928.959,13842.248,17531.678,-2016.3462,-4299.8237,-1085.8522,19792.150390625
304,-8552.398,11913.361,21769.621,-4967.993,-1994.343,9704.391,32957.6953125
305,5736.289,2870.7517,-343.8916,-7334.41,-6147.842,-345.27475,17403.5390625
306,70145.42,69685.695,57749.594,1740.8132,-13529.838,-339.54233,26585.2578125
307,-955.3605,-3079.5798,-763.5223,1116.6847,452.7307,-4530.2017,8419.064453125
308,68691.234,78228.83,79377.23,13850.241,845.8219,16821.26,39111.8359375
309,-70324.62,-59223.15,-92185.33,-10332.081,-1100.73,12124.845,40109.16796875
310,2392.3545,-6453.5693,4731.0195,-3953.888,18808.42,-8642.357,37903.140625
311,-174008.92,-172270.64,-145724.81,6670.1606,3907.7102,-5405.5903,31949.830078125
312,426.02643,3197.0923,-5155.4844,-2912.712,-71.016685,2025.7343,9595.64453125
313,41174.37,37468.11,72778.66,-682.57556,-1024.1608,951.3246,33718.84375
314,-34709.816,-35361.426,-57161.84,-1170.8379,691.34216,-645.97314,22286.458984375
315,1159.6306,3966.3481,10387.619,-445.9281,4537.8125,3164.5352,12631.2197265625
316,20068.922,17111.795,28935.074,-1295.1622,1839.0536,3652.3555,12991.126953125
317,5608.494,1302.7197,11187.6455,-1512.2823,965.939,3751.9324,11206.2607421875
318,2402.8667,-369.5868,1076.3489,18.8083,-297.1583,-3183.9153,6037.08203125
319,-9084.457,-8617.849,-13698.648,627.8355,-2539.0583,-4676.0815,10477.67578125
320,-16037.632,-9941.042,-24232.318,-992.96295,-1442.5028,-1554.2472,13066.306640625
321,-15308.24,-21056.031,-27627.979,-491.72665,-426.18097,125.510414,10738.68359375
322,-55170.965,-53317.45,-60116.56,-8926.403,-6138.5664,-8933.894,25071.74609375
323,-6226.9326,5960.4077,-4971.262,3661.659,-1624.568,-1071.1642,13652.390625
324,-2658.8877,2047.5786,-981.3539,-1588.5602,1826.8802,-2421.878,7228.36181640625
325,7556.94,6322.9897,8824.757,-1795.9194,760.1291,466.8352,4093.603515625
326,3580.6616,3807.7375,4592.0376,10.797235,-1121.191,-1162.7046,2944.82421875
327,4188.12,5105.656,15366.492,722.1999,-1499.7844,-741.5536,11202.84765625
328,-474.23486,-3307.5725,-5730.175,-730.1232,-1618.4283,-604.795,5596.0126953125
329,18179.264,16649.045,27602.926,919.7917,-254.74857,-843.59247,10508.8017578125
330,7395.414,11582.827,15251.992,-1476.6046,-890.82465,-643.0309,7518.22900390625
331,-12133.064,-14940.291,-19505.186,3419.3015,566.63666,3239.8376,10443.23828125
332,-5002.9287,-8320.174,-12977.768,5738.9775,1768.9783,4612.6777,14838.2451171875
333,13706.874,29559.527,-12058.456,8146.5786,5181.649,1012.4609,40079.06640625
334,-11608.731,-42012.227,-28342.035,-15694.369,-4572.2163,2453.7437,38927.40234375
335,35626.973,76677.26,64353.918,-1414.2397,-8404.839,-754.9944,39379.54296875
336,3972.788,38355.52,2359.3682,-6863.2544,1752.2941,-8004.3447,39786.70703125
337,-259.06396,-6291.618,-18422.459,-5461.947,-850.29285,-4280.2544,20083.78125
338,-2909.5928,3570.525,-13639.014,-3555.7244,-1528.7493,-3702.976,17683.810546875
339,6164.545,7357.431,7967.399,921.0554,1370.5631,-1407.0703,4079.529296875
340,-8403.902,-2783.83,-16442.336,-2891.7495,-1467.9723,1057.0529,13277.1142578125
341,3763.3135,3520.5088,8126.0146,2321.4897,1148.6011,3700.7424,9020.181640625
342,-13100.326,-12044.611,-26557.2,936.4567,-754.5431,-1840.8684,14522.8720703125
343,-13592.024,-10532.928,-22276.512,1176.3557,881.4882,756.0106,10933.5380859375
344,-9272.035,-9489.262,-18358.443,65.19494,363.8718,73.577515,9003.4658203125
345,-6225.8037,-7020.1973,-15346.963,-721.3788,1413.0603,-871.74945,9295.8076171875
346,36134.973,29267.44,8489.26,-13094.152,-6352.3066,5822.6323,36860.89453125
347,-15763.326,-13126.736,-26258.598,-290.1768,374.13608,-3185.5415,13262.337890625
348,-18972.783,-18316.791,-32138.453,-574.3536,-1415.7803,-328.92126,13774.224609375
349,-3379.7617,-5620.4854,-15899.654,119.477585,-5508.334,-1228.6608,15143.044921875
350,-75821.086,-74553.42,-107121.21,-517.24023,-204.64354,1227.7915,32038.001953125
351,-10440.787,-9435.721,-22711.982,-1039.7712,-3367.926,1253.0431,14349.50390625
352,-14975.229,-13023.756,-23732.521,-311.6529,444.50174,678.553,9992.6708984375
353,-14667.752,-15463.543,-26445.0,-3.7305498,437.68924,1106.8615,11585.1123046875
354,-10804.612,-9842.931,-23899.402,393.2866,-316.19748,105.81075,13630.44140625
355,17082.475,13488.664,28745.094,-5180.4004,3272.7185,-1092.5576,17523.359375
356,-11756.799,-10634.619,-11728.18,-2947.623,7473.613,-4422.4326,15922.6826171875
357,6314.162,10937.233,-3795.337,-1793.1406,-835.29596,987.6577,13600.63671875
358,11579.125,13582.931,9206.16,-3811.23,-2178.0798,1710.1393,8999.078125
359,2473.6882,-1590.606,-1041.5166,-4538.3296,-2337.901,-50.084396,9632.3671875
360,-15406.321,-15336.374,-23469.707,-5.9578915,-23.192053,-33.39729,8098.8984375
361,-4722.894,-4580.066,-7103.325,17.425694,92.532646,-86.63051,2464.94555664063
362,-7055.5225,-2570.646,-11051.812,-1572.4287,2906.6726,1886.3453,9871.4755859375
363,-4917.634,-4877.8525,-9236.848,-108.4962,-478.3426,354.26385,4463.9970703125
364,-9631.122,-2615.0276,4746.683,4992.696,-15857.197,13382.569,39006.19921875
365,-15363.184,-15246.316,-23788.176,-61.622414,-161.33138,-34.58131,8489.5126953125
366,-268.557,2683.665,-5118.1167,-702.2357,1965.1097,-1771.3362,8308.314453125
367,-14364.44,-14316.997,-22869.824,21.369719,126.1475,-127.37938,8534.935546875
368,-8927.445,-9014.232,-15103.32,-130.24309,-98.81376,70.97425,6140.7060546875
369,-4573.2505,-4939.025,-9001.259,-366.46417,-351.51822,1083.523,4734.6640625
370,-6238.295,-7038.115,-11986.924,-118.552826,-711.63556,476.73395,5597.4853515625
371,-11566.598,-11738.803,-19230.521,-161.53041,276.90338,11.954062,7599.62841796875
372,-8057.077,-7827.2373,-14435.043,50.382816,75.6902,-27.44506,6498.0185546875
373,3297.3784,3383.433,5803.471,-19.645071,-18.32732,450.8444,2585.38061523438
374,-733.3554,-759.0468,-722.1699,23.927921,-355.97614,558.1266,1147.80798339844
375,4316.5063,4408.3027,7416.544,-85.874504,-843.48975,-171.65535,3402.7978515625
376,5265.1553,-4540.285,5950.773,-1056.0237,7970.9355,-5788.425,19945.177734375
377,2668.0256,-5639.033,2760.3364,2382.4805,6125.37,-3488.3782,15358.322265625
378,-12894.529,-12629.998,-20473.674,20.238134,-431.44357,382.0364,7779.19287109375
379,-7788.12,-7880.595,-13929.056,13.993663,-164.92828,-400.28082,6141.22314453125
380,-22928.629,-20541.771,-38073.22,982.64325,1037.5586,-1293.1011,16803.1640625
381,17298.406,17691.504,32693.262,246.5792,378.6197,-811.01385,15286.92578125
382,-8181.547,-8213.458,-15028.664,-55.231274,586.5988,-591.81775,6982.67333984375
383,-4227.4746,-3622.4805,-7366.7676,95.89822,311.80396,-699.5605,3729.32177734375
384,4685.033,6099.333,10246.561,-271.70627,-115.57209,449.9111,5092.54052734375
385,-12925.174,-12762.037,-20069.21,-19.08848,256.54062,-61.803432,7241.50048828125
386,1151.7725,1087.5013,2083.1545,99.544716,21.946846,17.2269,981.594177246094
387,-10190.105,-10099.184,-16950.25,-50.188995,193.25694,-165.45905,6820.86474609375
388,-16032.73,-15960.227,-24276.143,-43.01981,-71.57526,66.96823,8281.9775390625
389,-14298.268,-14088.263,-24327.656,-111.50734,34.57662,-156.63673,10141.6689453125
390,-62847.062,-62814.03,-89682.734,-15.262849,87.89998,200.01434,26854.8828125
391,-13986.203,-13832.248,-22487.166,-94.34658,130.7391,-38.464046,8583.779296875
392,-1360.9565,-1452.7374,-3056.4119,69.26798,-110.26703,199.74298,1702.3349609375
393,-10205.662,-9879.139,-16900.4,-173.38179,572.01526,-49.825924,6942.0
394,-13186.647,-13289.17,-20597.6,-99.69486,-204.09134,242.37933,7382.67919921875
395,-6250.3516,-6162.497,-11495.356,-187.02423,-543.3798,749.5676,5536.68359375
396,-16615.0,-16412.248,-25219.145,-66.11581,48.058807,31.717548,8708.6142578125
397,-17302.139,-17196.139,-26039.316,-0.6719787,-15.423348,13.821304,8790.73046875
398,-16486.363,-16516.084,-25261.75,6.3016143,-146.69325,-2.369922,8764.255859375
399,21.194336,3232.3215,7100.921,941.95166,183.87442,-2431.2227,7628.61328125
400,1233.531,557.21313,6767.28,-323.83395,-516.2927,89.92832,5996.74072265625
401,-820.4562,-228.17818,-99.569,331.88416,-656.32184,363.55057,1569.30847167969
402,11077.809,-6603.5933,-2794.8535,-380.88016,14002.762,-6980.32,31537.857421875
403,-3683.022,-4559.1646,623.6926,1808.0162,1151.6416,-4801.028,10296.791015625
404,849.2693,-6181.1294,-1678.8555,4067.03,-8217.895,6369.9785,20297.724609375
405,-16118.616,-16051.206,-24522.55,-3.4747639,99.112305,57.149723,8440.169921875
406,-3370.959,-2762.336,-5193.8296,101.78515,-614.6828,672.40234,2706.22998046875
407,-15881.322,-15805.752,-24495.555,-49.963787,134.67567,152.8135,8659.8876953125
408,-13085.808,-13144.12,-21160.799,0.97153866,254.90004,137.08772,8061.5947265625
409,-16330.525,-16264.139,-24563.629,-38.030178,-51.926426,105.15257,8269.2548828125
410,-66341.04,-66335.805,-94500.83,-28.126614,65.0839,227.28574,28165.42578125
411,-15478.635,-15464.168,-23435.91,-49.011833,-11.175661,-19.198322,7965.064453125
412,-5021.4814,-4623.579,-9418.158,-18.146952,-126.961685,233.67676,4631.59814453125
413,-4805.368,6153.7217,-8855.341,2141.6245,-310.41904,6317.3823,17738.7890625
414,-4820.0063,-4021.0366,-8834.436,409.50714,-742.43274,1028.1222,5028.83837890625
415,10539.377,21346.752,20983.334,2881.3052,-5319.7915,1528.317,15159.728515625
416,-13344.453,-13708.951,-21943.19,172.82613,16.85689,338.68497,8448.1640625
417,-9003.861,-9541.503,-16729.771,-350.77942,-914.15735,392.12866,7691.71337890625
418,-1684.008,-1274.2983,-3723.8037,-237.39821,-548.75806,103.98217,2503.85083007813
419,-10114.755,-9670.367,-16665.86,14.157778,25.72782,375.17947,6815.4638671875
420,-7453.0786,-12723.082,4381.1978,5859.545,1097.9528,-945.39935,18425.263671875
421,-64111.54,-64077.555,-91221.86,-14.525536,18.129267,238.08867,27130.4921875
422,5480.6987,1954.448,4880.159,-3634.783,-6782.456,6760.753,18039.978515625
423,-17129.014,-20125.525,-16234.885,-2183.537,-17956.248,14309.245,40103.68359375
424,-15387.615,-15232.566,-24275.299,-39.7395,-20.799557,-55.609375,8967.0673828125
425,1593.2139,-2199.948,-4418.8154,2035.9865,-3515.4678,3655.3418,10831.611328125
426,6865.8203,-5314.5737,-7164.6357,-2041.5729,-10068.987,5462.095,24093.15625
427,-17704.262,-17509.836,-26761.47,-5.1282053,-20.4848,-94.09858,9157.494140625
428,-16232.793,-16153.504,-24484.166,-10.141998,-43.83186,-3.6947575,8291.669921875
429,-14348.732,-14383.082,-22103.525,24.88636,-80.03575,-45.36941,7739.4365234375
430,-13884.273,-13797.607,-23157.922,-1.9485295,97.355545,-18.787888,9318.8671875
431,-16630.219,-16534.416,-25405.65,-45.524284,-20.452473,-7.7879395,8824.1572265625
432,-7667.843,-7899.9727,-10640.699,56.295338,-3650.8372,454.18094,6986.83447265625
433,-13499.161,-10527.967,-4440.2607,5327.3516,-7827.6,7297.9272,22197.09765625
434,-12512.317,-12659.629,-19877.725,5.351678,-70.33906,252.23215,7306.962890625
435,-15758.709,-15720.614,-24930.121,8.817214,157.26678,120.74469,9196.9453125
436,-2519.46,-2835.7834,-5247.155,343.7703,-804.6373,504.1795,3120.41577148438
437,-3533.5107,-3617.152,-7003.411,182.75304,-556.27075,755.6306,3807.6787109375
438,-13254.448,-13251.699,-21520.486,-143.16174,142.2696,37.453487,8275.0546875
439,-3600.7988,-2465.7595,-4550.413,177.99792,-1052.1001,-863.0198,2986.32446289063
440,-16639.021,-16677.95,-25737.334,152.28218,193.84631,87.28236,9090.203125
441,-3721.4407,-3448.2288,-5493.474,686.5787,-88.42903,-271.14468,2314.53588867188
442,-44.80605,-66.64412,-255.65407,-4.0915413,-251.32323,-40.054073,484.440460205078
443,-6684.72,-6574.395,-11172.866,-97.061905,81.520325,-158.55684,4557.89453125
444,-7232.204,-4785.6777,-11431.227,-210.03079,1101.0245,-1537.5576,6689.66748046875
445,-13458.124,-13411.919,-20552.805,-21.013704,24.79874,-22.863724,7118.228515625
446,-14135.361,-14239.42,-22416.078,-22.781485,77.35873,-86.25745,8231.72265625
447,-13364.873,-13309.602,-20444.016,-11.613854,33.831215,109.093025,7109.720703125
448,-15208.706,-14154.044,663.9092,7776.383,12679.205,-7026.1094,32374.583984375
449,-2504.9993,-2449.3923,-6807.2075,-63.5122,-580.84595,-882.75134,4702.47998046875
450,-2273.12,-2155.6453,-6477.863,-169.51819,-1056.6815,693.51447,4802.7529296875
451,-5829.7056,-3541.6257,-6711.9805,-318.13977,-3923.1448,3866.6038,9968.005859375
452,-16320.136,-16300.025,-24803.314,-8.320952,-116.479004,53.85155,8496.171875
453,5270.2275,3226.2104,-40.935776,-4456.839,4163.081,-3342.7295,12908.7509765625
454,-15741.18,-15623.502,-23615.814,-80.997246,10.592964,20.870892,7935.47216796875
455,-14805.105,-14690.096,-23230.28,-22.949648,71.35054,21.790186,8484.3408203125
456,-16626.564,-16569.799,-25214.209,4.069502,-3.4159157,64.364296,8616.8935546875
457,-7007.2563,-7841.4126,746.3076,3291.497,4643.3594,-3127.7065,13921.677734375
458,6690.2744,2467.9333,-3805.9893,-1101.3242,2738.8323,-1880.1498,10973.9755859375
459,6972.4517,6255.839,12363.265,179.28754,1141.4495,-873.0379,6303.115234375
460,-14658.16,-14770.586,-23471.59,-52.5329,-76.94905,-71.648026,8760.1240234375
461,-16008.875,-15985.649,-24710.477,-8.619944,156.99289,289.64615,8731.916015625
462,-5283.4346,-5186.7695,-8556.809,118.33023,-386.7065,290.39343,3432.83544921875
463,-14912.669,-14815.772,-22601.607,-41.253876,-28.017925,-75.95772,7739.44189453125
464,-16128.89,-16054.317,-25136.424,-9.176151,-124.85738,100.05456,9049.3095703125
465,-1533.7528,-2250.2556,-4236.7676,-28.825874,1010.72797,-997.22406,3454.49291992188
466,-15792.042,-15696.007,-23870.766,-49.296513,4.7183347,-11.567456,8127.64453125
467,-15149.138,-15035.619,-23007.402,-29.509079,51.51529,-51.006046,7916.79541015625
468,-4751.528,-9550.193,-6757.728,-506.50684,-5640.3965,1104.5632,10830.373046875
469,-1891.4033,-3000.7869,-6030.2637,-536.96,-539.5392,1363.5527,4591.88720703125
470,1571.2451,-1061.3472,-1450.9303,-386.50806,-545.5155,508.58408,3197.62890625
471,-13741.861,-13682.375,-20791.1,-31.653133,-64.31402,204.56271,7089.11767578125
472,-14713.575,-14575.467,-22621.992,-19.928286,89.89683,25.126102,7980.080078125
473,-16024.574,-15979.289,-24664.854,27.553978,-23.959427,30.036358,8663.3974609375
474,1334.1635,2770.9607,4088.0498,-1319.1835,3303.9578,-3111.9785,8527.2431640625
475,-2800.6118,-1747.5697,-6050.979,-325.1648,-675.1173,696.25305,4270.2939453125
476,1915.3634,-2273.0315,7066.5034,1088.5735,1938.8733,1940.1747,9580.052734375
477,-13805.716,-13821.937,-22019.908,-44.739285,-38.56322,72.26721,8207.6865234375
478,-681.5442,-2380.5898,2883.8975,3468.9949,-834.28235,2825.0466,9153.66015625
479,-13320.334,-13140.329,-21837.143,-57.482624,-5.6676545,97.61462,8610.4638671875
480,-4978.0566,-5435.8833,-10803.86,-65.908325,50.530636,622.87744,5715.505859375
481,1354.7992,1315.7422,2266.1035,46.193447,26.216177,-154.25372,973.365234375
482,-17658.305,-17659.812,-26557.861,-7.363228,-135.74797,-66.25692,8902.6572265625
483,-2295.8784,-2319.159,-4939.386,118.46609,40.54047,128.22862,2650.1875
484,-8724.947,-8617.09,-14485.351,52.837505,-72.90833,211.33334,5828.67822265625
485,-13681.626,-13570.854,-20684.143,21.952227,96.5566,23.38267,7060.75390625
486,-16611.047,-16699.46,-25675.494,6.9253035,-162.60664,71.27714,9025.8134765625
487,-17162.934,-17120.871,-26877.252,-21.509483,-812.0647,-254.19469,9846.41796875
488,-2145.1133,-1576.2518,-3644.0957,-494.77563,2624.4336,-1659.4302,5751.673828125
489,-13418.873,-13291.899,-20847.72,-16.060286,-58.285866,-18.894503,7493.9443359375
490,-14001.946,-13907.306,-21727.387,-26.352476,101.74339,-123.59693,7778.2705078125
491,-21454.459,-21448.896,-31939.709,6.804161,-145.35344,-13.647553,10491.0869140625
492,-29203.791,-29460.375,-45995.48,-158.88426,393.72946,-318.46835,16690.21484375
493,-647.3494,620.5609,-1301.8964,-568.39105,-1607.4119,1415.6095,4195.0341796875
494,-20603.97,-20622.219,-30532.346,18.87206,19.660503,-44.648815,9919.677734375
495,-12765.892,-12731.95,-20751.926,6.2326784,-162.33997,49.544373,8008.4638671875
496,-3253.694,-2768.6396,-4883.9775,94.99207,62.21902,-280.12827,1989.46667480469
497,-4826.141,-4177.292,-11692.558,-277.2639,-260.7088,192.78922,7250.51611328125
498,-14750.977,-14702.443,-22324.734,-15.611202,-60.680748,55.462173,7599.52294921875
499,-531.36584,-467.54266,-1499.0704,174.81187,-38.181683,-462.51794,1319.13122558594
500,-14929.438,-14943.178,-23199.422,-45.258476,43.384285,-3.21335,8263.837890625
501,-3439.2146,-3456.0115,-5304.3643,51.43012,-540.5555,68.01164,2084.7421875
502,-15864.031,-15854.976,-24081.9,22.627325,-3.0876024,44.62535,8222.8583984375
503,-16329.815,-16302.059,-24795.926,-27.121847,-20.234543,-10.215992,8480.244140625
504,-4733.949,-809.391,-2567.4119,536.5307,-1889.7756,2351.847,6305.8896484375
505,-15937.072,-15773.856,-26161.885,-199.49995,593.42523,-269.50284,10374.779296875
506,-13571.296,-13535.255,-20768.762,-18.411663,-14.354472,-59.366375,7216.39990234375
507,-3324.2021,-2810.716,-8837.511,335.34027,-774.906,-544.09894,6043.02685546875
508,11759.372,12216.113,28540.916,305.2682,-398.62918,1324.919,16738.7734375
509,-298.19553,-401.78827,-852.72284,72.07685,-13.927909,-505.21265,1021.11389160156
510,1902.5243,1784.4652,3177.194,30.945095,-313.76175,409.55374,1609.541015625
511,-14527.852,-14551.586,-22156.021,-24.56614,-71.2498,57.74876,7618.10546875
512,-14051.738,-14136.768,-23071.26,-5.3418264,-149.41357,-78.97165,8982.0849609375
513,-4839.4463,-4803.1665,-8038.9077,38.81278,977.39764,-855.0136,3926.51611328125
514,-11204.322,-11013.907,-17716.482,-14.653256,-25.234655,-18.548298,6609.6962890625
515,253.44186,327.19574,643.001,55.762184,157.53976,44.01288,466.969421386719
516,7906.527,9749.902,17931.068,-871.4974,-1065.467,1416.3457,9854.5810546875
517,-5228.3965,-5195.131,-8332.987,114.053085,-94.26977,207.11746,3152.33959960938
518,-13935.8,-13867.246,-21399.908,-24.83352,10.329127,-16.03774,7498.81640625
519,-3191.272,-4959.988,-6346.0996,-618.3898,-1135.889,-835.5329,3822.77319335938
520,1493.1584,597.1164,-2572.4998,-423.43787,2668.2917,-3317.7632,8283.0771484375
521,-616.5064,-534.01245,-4581.306,-620.42096,-3441.9883,2822.2317,8754.71875
522,-15606.045,-15607.761,-23734.74,0.29561463,41.29214,20.271006,8128.22802734375
523,-562.3544,-716.25006,-2111.8872,-295.28873,-2574.7097,986.4979,5025.41357421875
524,2710.6729,2783.2764,4659.1475,-38.9696,-16.239906,223.73618,1953.42761230469
525,-5752.3994,-5541.2993,-10025.533,-46.2266,374.0382,-1193.6047,4889.4267578125
526,-5185.91,-5269.5615,-8532.417,291.01624,-219.24757,-201.27197,3383.19018554688
527,-14617.139,-14677.996,-22148.79,16.203196,-171.40968,35.722504,7507.58740234375
528,-9211.435,-9019.588,-14861.886,48.629616,139.95557,66.55505,5755.65576171875
529,-18202.457,-18217.143,-27114.697,4.0555606,-48.806236,-61.604324,8905.9501953125
530,-8108.426,-2141.1,-5580.975,1858.8948,3701.166,-5014.3267,12401.9208984375
531,-3219.9602,-3463.5125,-8049.5605,1.3594763,213.21057,144.68732,4733.63330078125
532,-14918.835,-14831.436,-22696.291,14.648991,-28.352962,-74.68691,7822.78662109375
533,-7462.029,-7500.5166,-12924.876,26.07525,-299.1636,-162.36548,5475.7236328125
534,-16946.375,-16930.287,-25458.248,-3.2780142,21.0759,155.19296,8524.2470703125
535,1032.5496,1007.7481,2988.693,81.932556,-617.5579,443.95337,2373.01147460938
536,-705.4041,-822.6485,-1411.8955,76.283615,235.74622,151.5992,826.545532226563
537,-20016.396,-20000.324,-29881.02,13.510414,-12.788932,29.72454,9872.85546875
538,-3597.9836,-3022.631,-6021.4614,225.38626,-628.5643,476.30063,3101.11157226563
539,-4463.574,-4522.9443,-8979.062,596.0591,677.7225,83.669014,4752.8779296875
540,-3663.2043,-3477.325,-4680.6636,53.93126,41.71825,-58.475037,1132.74182128906
541,-8876.729,-8938.4795,-14041.076,21.378584,12.728687,-126.31694,5138.59130859375
542,-13652.141,-13576.897,-20896.494,26.440994,-14.449347,-215.91417,7292.04931640625
543,-9641.56,-9555.009,-16190.102,50.539257,38.476456,-256.48193,6608.11083984375
544,-1714.1349,-1537.6313,-4407.305,213.56076,-408.36932,-863.3307,3260.79956054688
545,-16077.135,-15978.247,-24093.562,13.981624,58.034508,-11.410414,8067.01318359375
546,-10937.883,-10962.598,-17044.592,6.3193984,-209.3253,-28.304039,6105.37060546875
547,-19670.414,-19704.46,-29367.203,14.742536,-186.85068,-11.856814,9685.275390625
548,-30190.123,-30523.1,-46399.684,-101.638626,312.4469,-211.14705,16059.9169921875
549,-1303.7981,-1541.7605,-4073.3213,-844.82574,-2312.4802,2290.5986,6402.51953125
550,-888.0853,-787.7577,-1058.4066,123.31851,-680.54333,-274.38293,1310.36669921875
551,463.61887,521.9651,915.5343,35.069813,-189.91623,74.26999,556.512878417969
552,-5899.4453,-5522.0625,-11513.453,355.44562,-2604.3452,622.503,7461.06787109375
553,-4936.205,-4842.5347,-8152.7437,-26.02348,-127.203255,59.07113,3273.71826171875
554,-21550.506,-21527.504,-32020.758,-10.345711,15.165433,33.588924,10481.9814453125
555,4135.1367,3821.4417,6132.169,-176.20128,470.54306,-503.7638,2496.33911132813
556,-2124.5212,-2252.1965,-4150.9707,-51.387066,314.64218,-146.40242,2057.49682617188
557,-4065.39,-4112.888,-9277.275,-165.85423,-1517.7959,577.5516,5908.7041015625
558,73.18486,451.23206,563.38763,36.777134,47.838737,105.19828,491.957305908203
559,958.704,1058.305,842.4973,32.189365,-1702.8287,-422.3511,3045.0166015625
560,-17783.11,-17791.719,-26614.867,-11.864879,-17.36039,-56.769096,8828.078125
561,-26587.277,-26545.838,-39292.39,-16.877026,-395.2388,-111.84658,12745.7890625
562,-5416.5127,-6726.0884,-8692.669,794.2804,1095.4773,-1677.338,4700.11279296875
563,96.979324,1127.2977,-381.43484,-233.86845,327.41403,302.7358,1594.98754882813
564,-3745.2908,-3762.7761,-6854.2656,23.842579,91.438324,-50.35724,3105.8115234375
565,-2730.1138,-2663.837,-5461.0376,9.686912,153.58838,145.26826,2788.8515625
566,-1307.1447,-1261.2626,-2899.029,128.92604,155.35446,198.99876,1688.28686523438
567,-1777.5605,-1848.6853,-2373.2332,120.87368,126.13734,249.67293,772.068908691406
568,2292.3718,2099.4148,4438.8745,133.94379,6.998214,-236.85588,2298.07763671875
569,-1616.3597,-2079.7368,-1349.8738,-212.6958,677.9879,317.70697,1492.23022460938
570,-2869.0818,-3155.0442,-2691.5515,55.465427,2820.8638,-143.37424,4909.86474609375
571,-17851.592,-17860.537,-26814.186,-51.642166,319.0969,-101.99328,8977.341796875
572,4220.2075,3450.1174,6344.536,115.217476,-3374.2146,1622.2406,6988.02734375
573,-16368.681,-16411.797,-24911.152,3.5222342,486.70743,51.113594,8563.0537109375
574,-7436.9663,-7181.5845,-12634.73,-2.4108326,-197.34505,38.806107,5341.41943359375
575,-4061.2954,-3979.4841,-7528.157,165.23001,691.20435,564.225,3844.43701171875
576,-16051.129,-16085.426,-24595.67,-18.07727,-92.16755,136.54701,8532.2744140625
577,5017.032,1122.8816,5563.906,1237.2782,-684.8955,2009.0284,5975.072265625
578,-15030.389,-15176.927,-23911.027,-82.8566,52.57958,-76.04704,8810.908203125
579,-15393.019,-15529.057,-24189.361,28.666136,-169.9597,32.91012,8734.408203125
