Element Label,S11,S22,S33,S12,S13,S23,Mises
1,2306.146,3062.4487,1259.5724,527.3848,-246.34752,-35.915806,1865.25390625
2,247.05405,1148.9976,-1484.2014,748.6593,-64.283,94.92102,2663.29516601563
3,1397.5863,2931.9302,1555.2656,343.59705,572.32574,-485.7089,2044.92700195313
4,-706.2972,3083.6814,-2376.6616,1349.5176,-744.3105,744.1528,5680.80810546875
5,1015.05414,7066.6255,4069.044,1166.7308,636.59607,-1514.4641,6296.60888671875
6,-315.99548,723.56213,-2571.6812,551.7395,-257.1479,-390.1483,3175.2138671875
7,2642.7358,1823.1932,2840.4282,1041.2612,671.2198,-99.88817,2346.69262695313
8,-672.2487,1331.0996,-2586.741,1112.613,-1079.216,233.25742,4345.70458984375
9,2982.9468,2603.7998,3259.2993,1951.7517,1849.6519,304.8343,4721.79150390625
10,-4595.7314,972.6049,-2590.5293,1093.0153,-1707.375,643.9653,6118.4208984375
11,1780.0011,743.50397,937.7841,898.8966,119.93773,443.51456,1991.98803710938
12,2245.7786,1170.228,-606.09625,132.00165,-436.78796,-492.30865,2752.16137695313
13,187.61446,468.1152,437.06445,795.6155,583.02313,-342.43213,1827.96997070313
14,5108.7285,-762.5316,-1140.3851,1638.659,-1832.2063,367.19357,7440.69775390625
15,-5671.807,3932.9382,-66.62168,3555.798,1404.3275,23.248562,10662.17578125
16,4130.8457,1285.6537,5388.3213,833.30054,-1341.3395,1332.0784,5104.7197265625
17,-77.85408,-201.19295,424.7997,557.8409,319.65173,-33.09178,1254.29113769531
18,3965.0215,-14.521628,-1367.7468,2187.0417,-1648.7283,2014.3693,7598.06689453125
19,-447.22388,-16819.17,8315.184,7176.201,-3515.5183,-1810.4019,26261.77734375
20,-10471.019,15.221671,-34882.668,-1383.5088,-1846.2455,-9762.161,35549.17578125
21,1329.5938,1205.8375,-791.9417,738.323,-613.2685,579.02325,2832.51416015625
22,-2775.3184,9397.079,-188.09071,-4970.151,286.88406,-763.985,14123.5048828125
23,1899.3499,2426.9626,9309.7,3298.7957,-1144.9912,-1181.1753,9594.08984375
24,837.2283,-949.98334,-14609.35,3571.8552,-974.6079,3275.524,16955.701171875
25,-632.8631,1575.4558,-5953.739,3535.3296,-783.46173,1495.8069,9538.7626953125
26,363.23502,-734.0512,-15440.051,3854.5708,102.29122,1168.1409,16801.9453125
27,3908.757,13953.59,37168.633,6717.3154,-880.0776,-1066.4889,31845.421875
28,-7843.3174,6935.6543,4694.066,-1691.2804,-1202.0646,-757.0898,14316.0771484375
29,1147.784,-6477.213,-16134.386,-1121.0367,-434.69882,1958.4792,15520.3564453125
30,1357.458,2424.2854,-4421.7363,-1135.9344,-231.16318,2124.1895,7633.51171875
31,-1415.2069,5919.4507,8581.206,-1613.4974,-1899.0326,-712.36127,10027.7958984375
32,-342.5776,1952.5255,1312.8578,857.73596,-805.13776,-846.9196,3242.26171875
33,135.4026,2105.0808,-899.11615,-137.13315,-407.474,-262.4985,2783.66088867188
34,2450.9465,3768.5479,853.3744,-103.376144,-395.55548,-674.806,2874.16333007813
35,904.19385,1403.9727,-600.3305,261.33484,-433.07257,-341.3951,2093.44140625
36,-532.32806,1894.5239,735.5897,525.11395,-1368.7784,719.0727,3524.0986328125
37,1530.72,3409.7244,2620.2869,1293.9694,233.84926,825.9703,3147.11303710938
38,75.033516,590.4957,-2546.8333,-505.2452,473.54102,-485.55316,3261.47021484375
39,140.97363,2203.523,-389.85834,500.1341,-77.51375,514.9054,2682.26953125
40,794.17377,4937.6475,1468.1831,1315.9332,-575.0265,148.77827,4591.6591796875
41,-1489.8992,1213.5406,-2221.154,-1772.6846,-561.66943,1504.9121,5195.0126953125
42,-2494.0054,4586.4897,11281.143,1711.1152,-57.012794,1491.1493,12562.5361328125
43,-20670.63,-12425.647,-7542.748,3640.536,16007.838,856.73596,30705.0
44,10295.903,-8398.814,4481.1436,10902.364,-1695.784,8048.052,28881.19921875
45,-16678.064,7045.479,-5138.829,4315.013,375.56088,-4406.819,23167.87109375
46,-10868.974,1400.6229,-23252.686,5091.0464,-6137.3696,-6080.6616,27523.15234375
47,6046.3384,6301.827,15889.703,-5664.6694,-1957.4432,3949.3613,15779.568359375
48,3285.1475,3442.7668,6031.943,-1588.2632,4714.3013,-1296.7208,9296.390625
49,5391.7007,7854.6743,21736.127,-6385.567,-177.0286,1175.0778,18960.83984375
50,-2071.591,6140.491,-9615.036,-2318.4722,7525.843,1590.4834,19491.51171875
51,-15293.006,2009.6133,-35229.617,1206.8502,-2380.2449,-4027.0686,33344.00390625
52,1941.0721,6756.969,111.68858,-2725.3577,-1466.5552,46.54128,8005.6982421875
53,1008.5943,3786.0493,3884.9775,-1646.5679,-155.26253,-288.33374,4056.365234375
54,-5010.3955,6433.4536,-4928.7056,6196.824,1945.1249,105.11618,16019.3349609375
55,-731.6033,-2021.0457,-12367.099,2488.6616,-1346.7377,11.362672,12085.7734375
56,9128.787,1346.7297,14165.935,-3154.8894,3261.5156,-1638.0375,13962.61328125
57,-2747.57,589.78827,-15902.097,3973.4275,-2413.654,284.3924,17122.064453125
58,1467.9976,-755.7926,-3241.1343,3339.4355,-284.7048,-317.7296,7116.9208984375
59,2390.4377,1672.4844,2371.5935,887.3325,-1217.9485,-1984.8319,4374.154296875
60,2957.2847,862.6758,2769.3596,561.0792,1030.7285,691.83374,3097.83911132813
61,3878.294,1479.6952,-30.722725,576.64655,116.683174,384.99622,3624.99682617188
62,2151.3818,1018.27924,662.88153,223.11844,12.021687,347.13446,1524.53833007813
63,3799.5662,1796.5624,-1122.339,-300.99066,-427.92392,139.54738,4388.40966796875
64,1458.5082,3677.6782,2126.2542,-236.32498,64.97459,-227.36926,2055.25244140625
65,3268.4668,3173.626,-2108.3062,-273.51236,-161.02599,304.4098,5384.1396484375
66,2128.4553,2568.3936,-2170.8645,-206.09377,-139.52278,-669.74457,4701.13037109375
67,3203.354,3066.9153,-279.37317,486.38123,87.044495,-1023.0449,3942.72973632813
68,3318.7932,2135.824,-408.24933,-316.17487,888.7484,-509.6808,3785.51586914063
69,3284.9602,1815.8917,5878.5024,-2139.8794,20.928701,136.07193,5146.72998046875
70,3720.0024,-229.09393,3016.4004,-2443.4946,845.998,2269.1956,6987.03857421875
71,1516.5463,-1829.4895,-10928.162,-313.41046,1112.2004,-3396.2644,12768.5458984375
72,5460.4624,-284.21954,11373.396,28.12148,6670.497,-11886.889,25677.138671875
73,-2508.2385,-155.18236,-3745.1226,688.4217,11218.766,239.89848,19726.98046875
74,4230.5674,1910.3265,1754.6244,-2144.354,2345.3289,1403.8375,6479.025390625
75,3433.863,-15094.7295,8568.645,10083.369,-5312.6323,5397.562,30690.57421875
76,-1143.1945,767.77136,13562.933,-5879.398,-11859.988,-392.95334,26794.818359375
77,-2635.6492,-6424.441,-22540.555,1334.7587,-5318.036,2919.4436,21234.484375
78,-4720.562,-17019.863,-11104.19,-5203.301,9365.204,3529.8088,22253.8125
79,22963.664,20636.89,7742.0874,-15079.289,970.1573,2177.4397,30014.91796875
80,3766.8699,2846.1235,-1344.8011,-2312.6367,-776.68304,221.2014,6346.00439453125
81,6284.2324,14359.642,198.82207,-2142.1243,1630.5028,-596.1261,13198.2744140625
82,2434.003,-9513.617,3258.9172,-588.2655,1241.2471,71.219,12607.8291015625
83,1128.0692,2485.7903,2094.512,1294.9338,522.04315,-3036.8972,5914.52783203125
84,6090.2305,3106.6477,901.43286,-519.4452,543.1287,-733.855,4863.56298828125
85,804.44037,1417.505,-1102.3026,764.5996,477.55914,-46.322754,2761.32885742188
86,-326.31757,1545.6702,-336.96695,-413.22546,-934.738,374.1402,2660.41357421875
87,838.80237,1555.1803,2647.6562,209.22733,629.7393,399.56076,2071.06640625
88,-952.03973,-225.33392,213.30478,395.82248,150.78343,-398.33466,1433.0078125
89,1216.4541,1405.5803,3002.2522,611.5095,538.8626,1189.8896,3021.18603515625
90,280.80267,-981.6155,-723.45294,1576.2916,-117.675316,-584.3529,3139.18310546875
91,3232.4475,898.1124,2641.549,2073.2715,-6.296407,480.55655,4243.49072265625
92,1085.8458,875.5817,1180.8026,998.07544,-1910.3533,39.47649,3743.61865234375
93,80.052734,2309.6858,2235.5144,-683.77637,-1114.6305,588.26843,3313.52124023438
94,246.44402,2137.263,503.68323,405.48666,11.833008,-259.98544,1962.50634765625
95,134.06775,3546.639,3329.4758,873.40326,583.1603,1110.36,4237.82275390625
96,-1202.9641,1939.7896,-1784.8779,106.35749,-626.0012,-1200.0895,4192.201171875
97,898.2394,727.76544,-1205.7885,851.08685,229.65472,-83.194244,2539.55639648438
98,3471.9946,-263.90533,-932.88696,-692.81366,522.809,-780.9684,4581.85888671875
99,5223.698,-828.93866,-2327.4194,-5605.555,-2573.4792,-12526.502,25156.001953125
100,-16492.586,594.1543,-37842.598,3072.309,3745.4873,53.79847,34394.67578125
101,2693.0928,4614.542,19236.559,1723.6248,-3630.2017,-2181.9282,17559.0703125
102,4360.0073,4522.2695,8945.056,2156.1775,-1009.72107,-3446.0435,8540.291015625
103,-4174.964,2000.4236,1638.2358,-347.86377,-207.11844,711.3213,6167.62451171875
104,371.23007,4303.2456,2114.2625,1333.3811,66.00415,-1497.5281,4870.30126953125
105,1118.5824,2310.0642,-3762.0808,-500.43338,-153.53894,219.46146,5658.8193359375
106,49.84232,3249.8982,1916.5059,-641.7966,376.68143,-730.9347,3318.96606445313
107,890.5079,4512.9746,1698.6177,-1717.445,3047.9304,-1455.3823,7343.08251953125
108,1208.6942,3049.1848,3790.0828,-353.70963,1405.7394,-1537.2753,4323.5673828125
109,8173.9355,-3782.5903,-3053.706,-3605.734,-266.4765,281.56693,13199.609375
110,3208.119,559.0375,-143.3704,-107.09759,-276.27625,-441.77142,3196.97143554688
111,2143.5535,-472.5683,-3955.2212,1077.6002,426.08966,1902.6282,6555.3271484375
112,2779.5437,2343.4219,1196.6123,-300.45575,856.6419,886.2187,2614.19213867188
113,1325.1516,1140.1162,-1551.8899,-93.14165,-962.8336,-349.22162,3309.42456054688
114,1757.2056,-244.02452,-3637.6968,-416.72098,5460.374,758.9191,10677.515625
115,1617.3406,-3203.174,-4808.2783,-289.03418,3013.002,3166.3284,9545.32421875
116,-1191.6906,-9922.582,-21931.914,2540.1616,-5559.212,13485.588,31352.189453125
117,10147.313,-10514.655,-21176.664,46.04562,-6709.9307,7840.7803,32869.48046875
118,-17754.668,-23596.867,-25115.738,-4518.998,-2636.2966,-11693.699,23187.36328125
119,2475.131,100.97256,-680.0398,807.5162,254.35852,397.69705,3275.00952148438
120,1079.5499,1262.209,2164.218,724.2914,650.1102,1180.8785,2834.94116210938
121,201.00189,1934.5133,-604.3811,430.75372,-592.0096,-1885.8431,4162.5869140625
122,2846.7107,2027.1593,1577.3907,846.87067,339.21957,-854.26025,2434.876953125
123,3941.8198,2306.6064,4034.6772,366.9637,1668.41,-1034.2161,3846.8115234375
124,5332.924,1724.7834,15797.912,-1373.2748,-1450.2507,7675.267,18681.283203125
125,-8659.865,5073.6826,-27748.254,3557.875,-1754.0146,1955.8198,29560.26171875
126,-4163.1895,3333.494,-10391.994,3449.5532,-2924.038,2839.847,15074.3515625
127,5235.8325,5846.7236,17474.965,1082.4156,744.00635,-400.01953,12179.83203125
128,922.5096,824.49866,-9593.891,1255.1566,-2003.482,192.62772,11245.1298828125
129,3170.3896,-5028.162,2065.4885,3786.6287,249.7288,40.794243,10128.4853515625
130,2898.482,497.97693,785.7241,-179.11662,-570.55646,1115.8264,3156.349609375
131,800.58405,246.63591,-2358.9395,-816.0155,-198.09319,1583.5529,4263.51025390625
132,2333.82,922.3707,3549.3135,-451.02383,4401.595,-1615.8126,8470.546875
133,40.519184,1938.22,1291.2852,-410.3132,-136.69194,304.10016,1905.42907714844
134,2064.0518,325.93488,-1743.7526,1805.0696,-260.17285,-291.78732,4597.31787109375
135,-10007.088,5078.396,-526.69275,7903.2793,-7535.818,459.4716,23082.84765625
136,1971.3335,1525.83,-995.50916,663.21857,194.6733,110.91293,3024.7421875
137,-15370.817,-23205.373,-11557.253,4970.7334,3143.708,-8604.233,20776.73828125
138,2963.4402,7007.7993,-2901.6606,-6241.6035,89.327095,-1038.1824,13950.1640625
139,-16089.642,-18250.959,-23927.9,5365.342,-2509.6038,533.74347,12461.0712890625
140,-12409.32,8227.433,-9889.122,5673.868,4014.6538,11782.674,30686.205078125
141,5777.6167,471.75653,7701.0103,-2441.5806,-482.82486,-2156.3574,8636.5380859375
142,1232.1796,-2675.5186,-6435.116,177.1324,958.96027,954.76935,7048.669921875
143,3252.7554,2386.237,2321.4412,153.07968,-330.91266,-350.80655,1256.66418457031
144,1087.9501,327.45575,-1400.9644,363.82828,-317.32837,-25.007858,2362.482421875
145,3163.0056,998.9896,663.0812,336.8725,-859.496,-615.03564,3035.48461914063
146,1572.839,778.9439,-479.3347,1901.6353,-676.8864,-740.4768,4132.86474609375
147,2587.4534,1662.6007,-167.04,1372.0876,-809.76715,-468.60532,3764.16015625
148,1843.7378,1177.1416,-1314.8798,1034.8097,836.6839,1317.5106,4340.02392578125
149,8192.324,145.12466,27411.258,2227.1704,112.18916,-1389.2366,24687.892578125
150,11363.418,3808.0269,28070.393,-2050.427,4872.438,-1125.214,23453.521484375
151,-10016.321,814.7025,-24474.068,1664.2572,-4484.9053,4579.454,24789.03515625
152,-1655.6406,3112.6626,-11932.575,2327.0378,2855.4827,3030.753,15672.2265625
153,3108.4822,8182.197,17560.926,-1169.0707,2625.855,-125.9687,13642.6259765625
154,-2506.5474,6612.6733,13452.273,3636.081,64.373344,206.0218,15235.326171875
155,1233.4178,214.76279,-3588.6033,754.7621,-1710.7258,371.5047,5502.75927734375
156,3440.6218,3016.2866,3436.0537,-185.02194,212.10657,254.80206,781.3974609375
157,1618.4717,1482.5608,-28.145655,259.05432,-166.5355,265.04944,1732.42907714844
158,2168.023,354.41003,-2833.2322,1372.4232,-692.3226,-1290.1277,5595.8251953125
159,669.7736,4491.3076,-355.57523,384.90033,2216.8208,376.89047,5931.8916015625
160,-951.36066,4003.2092,7075.849,1528.0742,-2018.9662,-7.770557,8273.232421875
161,2343.9539,820.0827,1890.2606,-186.92023,-471.1937,713.16956,2033.06945800781
162,-1632.9165,1375.9757,3113.1465,-191.18523,-274.81458,-548.009,4305.2666015625
163,2487.7805,486.84634,4319.718,633.62213,-456.66913,2633.7622,5802.19775390625
164,3850.0798,258.83624,11126.901,-159.67207,1088.9868,-1610.5428,10168.4658203125
165,766.0967,-794.3548,342.93106,353.24664,5.271256,743.6157,1996.76599121094
166,4970.2334,12623.9375,-6703.3315,-833.3428,491.8272,-1349.348,17101.712890625
167,14513.253,-4741.6357,12081.372,-7076.316,779.9464,799.8239,21995.591796875
168,-8278.541,7776.851,-15197.197,1373.1458,-4504.1294,-3884.3235,22989.283203125
169,-12364.645,-6821.096,-42170.473,-3629.7546,1418.2867,-587.7401,33629.51953125
170,3791.9429,2695.6704,-5544.327,1975.6357,1345.268,-1037.581,9924.7685546875
171,4693.269,-324.6791,-510.28177,-1572.8607,1202.3539,-1464.3699,6658.6318359375
172,5521.468,-926.9293,2581.4968,-4248.237,922.77515,-118.91379,9381.1865234375
173,5669.0195,1930.1101,998.2055,-2499.148,-83.04537,-26.731094,6090.3408203125
174,15681.445,6362.6987,27150.24,-6989.3,-569.1847,1768.7843,21958.044921875
175,12997.627,4852.0366,24764.775,-408.1862,-956.7785,-1325.0989,17583.53125
176,-4891.1616,2835.0183,-11875.191,1678.2876,-1600.5835,-2401.5554,13995.2978515625
177,2412.3345,1314.6992,1331.7555,-343.95285,-466.62183,-555.19617,1766.13110351563
178,2735.4001,3127.5505,2184.896,-960.7079,-1414.625,-136.85658,3082.4140625
179,1356.2798,1280.3539,-492.23047,1286.6604,-604.1174,-314.97964,3105.06030273438
180,3717.906,952.4707,-381.57416,1028.0785,384.71295,-396.94034,4147.77734375
181,10332.492,10780.668,22857.623,423.57187,4387.829,-622.3876,14523.2841796875
182,-12309.359,3186.2766,-20849.014,2741.6006,-460.54147,-1186.033,21743.349609375
183,2887.2383,1271.602,5039.152,0.2752143,1132.9095,7.7328186,3816.85131835938
184,1465.7517,1371.0525,-797.62616,-827.1404,-1352.6649,825.70825,3808.474609375
185,1461.2921,1122.2341,-383.04163,2085.5667,-944.40356,707.0384,4485.01513671875
186,2148.4285,582.724,-626.9187,213.77611,-911.95135,61.2087,2907.2177734375
187,18977.125,-2294.6853,6690.9214,78.05485,-238.70331,2829.7869,19139.048828125
188,-4548.603,-33614.445,-26681.668,2420.1287,5200.581,59.064163,28108.705078125
189,-2228.8152,-4265.522,-11846.847,4062.9138,2128.9543,-1961.4388,12317.7294921875
190,-965.4874,-4591.5337,-7076.0186,1350.5464,3664.9155,2427.9905,9580.287109375
191,-43107.242,-42850.367,-44238.742,3906.7822,16270.115,-2855.5042,29428.513671875
192,2051.1965,-4545.845,-16849.15,1275.2559,598.52277,4103.216,18235.140625
193,-10065.9,-14984.036,-39127.215,-9159.513,-510.01508,4081.896,32066.751953125
194,1225.8744,-7950.702,-14258.976,2344.0464,2693.6528,49.362892,14837.46875
195,6437.8813,-2088.3079,10646.4375,-5284.1577,-2361.3604,-1201.1488,15202.4375
196,3.3146172,-6764.703,-7923.4644,29.915083,374.192,-152.87207,7448.76904296875
197,4167.561,-3139.1194,-2305.0442,1247.7263,-499.6814,-768.0511,7428.19970703125
198,3972.0947,-1816.1017,3987.1733,1071.1002,-1024.2076,3514.4153,8788.2216796875
199,-788.17816,-941.2859,-16174.799,469.87576,-789.4294,2904.6904,16194.423828125
200,1952.5126,-1599.5387,-1402.2821,326.66367,1421.8906,233.21109,4301.61865234375
201,2492.4521,-280.30627,-6691.881,-256.73163,2267.948,-1089.5367,9260.884765625
202,1155.5294,-814.8389,-1499.3619,-87.52369,-940.80414,82.711525,2898.02124023438
203,930.3276,-1574.5511,165.07254,221.7421,943.91064,-889.2553,3183.6923828125
204,1637.0282,-442.99368,1778.3466,-782.8538,355.8816,-223.03006,2647.29467773438
205,1091.8467,-1852.402,-2232.5027,-1113.3324,-1488.4991,-320.7277,4539.4052734375
206,4000.9724,-535.16473,2872.3657,352.06387,-33.31999,-4.26039,4135.94140625
207,-1090.6667,-4860.453,-4467.0923,3574.6726,-656.6757,637.3311,7330.0908203125
208,2964.5647,-4426.374,-3172.0723,-1062.4664,-595.6739,1910.6144,7895.00537109375
209,-688.2943,-4279.6406,-7244.502,387.44263,918.07214,-908.37756,6147.38720703125
210,1730.3013,-4690.2397,-3697.7446,-1977.3956,-1088.879,-4548.3857,10638.92578125
211,-12.235871,-4428.0903,-2892.101,-2269.67,-1256.0765,-1042.6156,6206.83984375
212,-3162.5015,-6554.7837,-9869.875,-1026.1416,686.32587,2847.7869,7914.84912109375
213,-2008.166,-5210.5317,-8931.831,355.82257,475.12524,1598.5634,6689.0546875
214,-872.3106,-2911.8767,-6658.064,688.4153,-3782.3079,1466.1066,8753.40234375
215,-27540.168,-7349.755,-21903.457,-2820.9995,913.8071,-290.29233,18768.3203125
216,-67499.79,-31641.428,-60655.367,5673.1016,706.3956,13.452439,34428.015625
217,-7238.495,259.85873,-3596.6003,2317.237,-762.69464,3.8212504,7748.18701171875
218,10099.652,597.54407,5051.5503,-1932.0775,-1370.9032,-1457.0715,9540.013671875
219,-2164.6973,830.18396,-2107.263,568.32574,-786.3963,-135.44377,3417.58374023438
220,-3238.76,4174.3945,-892.1673,-953.6674,-1547.3739,1357.7163,7649.0146484375
221,-1899.7372,-509.68845,1899.7959,343.66537,323.70807,819.37866,3710.79125976563
222,-680.377,-2025.9236,-3187.279,1453.7817,-2192.913,-355.77808,5086.12646484375
223,-5398.7876,1439.7719,-8411.504,-2427.6416,3124.4182,95.806046,11110.302734375
224,-4942.3115,-834.99493,-6529.1353,-1444.1979,-410.5498,411.3257,5759.8603515625
225,-2315.6309,-1111.389,-3649.6843,103.54831,888.1467,2026.3593,4421.92236328125
226,-2998.3,1170.8851,-239.8871,-513.2994,-894.91547,88.39698,4087.4326171875
227,-1738.4016,1785.5746,-4036.2705,837.64,986.8933,180.16702,5560.61376953125
228,-2257.953,522.5201,-12119.535,459.74,-2959.6904,2071.1426,13121.8896484375
229,-2779.6929,-561.863,-8982.21,645.8595,-1214.4277,-880.5941,8071.45361328125
230,-3379.539,-2949.11,-7426.946,-367.5177,237.83148,2826.4478,6546.00732421875
231,663.77673,-433.39572,-35.636074,500.53995,302.90314,-289.7756,1484.71228027344
232,-2263.6072,-1084.7343,-4193.5645,1032.6279,-7.1155286,-595.14417,3413.40795898438
233,-4576.9766,-2407.4849,-10660.216,1944.3895,2636.01,2493.1196,10283.2177734375
234,-1644.6996,-956.4728,-1238.5082,1263.6022,551.9741,452.1032,2583.8701171875
235,-3327.573,-1134.2065,-4299.353,1834.3065,1139.2206,1749.6964,5573.01611328125
236,470.51242,-2203.251,-7869.8003,847.58624,2588.1213,1269.0093,9027.251953125
237,2794.6692,-1229.6188,-5045.8228,51.667065,1437.8737,589.27637,7305.3408203125
238,1479.286,-2849.889,-5826.6562,1865.004,772.88165,576.34296,7328.92333984375
239,1247.3687,-2032.3915,-5042.6133,562.7583,1762.4817,1887.1807,7116.49755859375
240,898.8705,-3102.8684,-8194.197,-812.3121,933.778,1423.8817,8543.2666015625
241,2358.719,-824.27997,-6503.2065,654.01263,2921.1353,10.027204,9345.603515625
242,1456.9877,-727.8953,-3610.909,593.62854,3095.7886,1354.0868,7395.54541015625
243,2336.0781,-402.19968,-1562.1025,258.4308,-587.512,-638.6098,3805.1298828125
244,2778.2021,338.9204,-1478.9646,118.63775,906.07263,-19.424084,4024.35034179688
245,1716.0779,-1042.6127,-1460.9253,-147.2592,-16.281263,277.26544,3039.05151367188
246,1571.7997,-1607.7123,-3259.2097,151.0443,704.5631,-299.62982,4462.5888671875
247,2112.2668,-1159.9022,-3485.4504,-1023.58875,-2068.1277,-3062.7979,8236.607421875
248,2147.855,-55.791706,-340.4001,-854.42554,-879.19055,-617.0785,3348.97778320313
249,70.53981,-2301.1902,-2738.8333,296.52368,-5335.523,-983.2877,9768.4375
250,254.08347,-3088.8562,-3871.894,-1499.4247,-5696.408,-1504.1166,11193.0849609375
251,-3779.9377,-1081.6481,-11431.439,1011.146,-8141.5566,1793.4259,17263.93359375
252,-382.02115,-6093.002,-13803.808,1074.4061,-7541.042,2181.8665,18012.626953125
253,667.5915,-4314.6616,-1982.5726,-6112.713,4113.7036,7316.4956,18495.923828125
254,2595.5286,-3574.1562,-6453.9043,-2317.4224,-2600.527,-496.63596,10063.03125
255,-3407.7244,177.93967,-4388.4585,-2035.6008,16035.267,2511.9558,28637.134765625
256,-2939.623,-7961.0234,-6977.0625,-6004.7983,-2698.442,-7411.8105,17778.193359375
257,-14434.394,-12982.256,-13295.006,-7038.8706,15234.489,10858.322,34646.328125
258,10037.756,-298.53958,8535.115,11567.128,3938.3174,15047.103,34939.0546875
259,939.0832,-2369.1077,-12407.785,-3098.8018,-4455.8193,1460.5281,15482.2197265625
260,3916.0598,-6800.322,21777.383,-2565.5679,-1086.2922,-13264.959,34299.27734375
261,-40301.027,-57998.055,-65776.27,2000.9346,-10787.141,-7934.599,32577.734375
262,-21321.139,-20656.066,-40120.23,-6197.867,654.28485,-3812.323,22945.09375
263,-12114.499,18362.746,12575.814,5851.29,4218.9507,-10763.881,35912.0625
264,-14740.736,2979.168,-10510.64,-2639.5845,-3223.0808,-9900.576,24557.33984375
265,-17028.373,-6704.321,-43856.996,737.0639,1811.6621,-2810.7434,33741.9375
266,10177.951,5843.462,-219.07991,-3956.398,304.20526,-1140.6187,11530.8349609375
267,606.79443,-2888.0085,-7637.4946,-854.9188,5675.4214,-15852.122,30067.640625
268,-5626.4644,7479.5854,-24974.465,816.17896,-8504.913,-237.0867,31919.54296875
269,-5067.8896,4411.0234,635.07086,1859.116,1478.0668,-1411.1069,9550.5146484375
270,2163.3313,1617.5938,-7321.265,-5614.84,-4027.9194,-6239.768,18577.8125
271,-2769.901,7849.468,926.1694,800.7149,5426.4194,10186.558,22107.49609375
272,-3589.476,4024.309,-4567.089,-338.4602,261.25513,-3645.5566,10333.8017578125
273,-1828.7699,5960.1396,2776.541,554.4196,1719.9014,1963.74,8207.9716796875
274,485.80975,4868.032,3280.5447,871.78503,1239.9147,-1054.9124,4999.7978515625
275,-4488.0474,2510.8794,-10630.349,1652.1926,-430.982,-2295.7388,12420.1474609375
276,-3372.9878,1098.7583,-4448.8223,2817.5503,-424.5254,-2534.0898,8341.826171875
277,-1128.7882,3504.307,1878.8049,3806.4456,-833.2376,-1254.8328,8176.2138671875
278,2048.097,-710.77625,-1889.635,994.3519,-1898.0309,202.7634,5113.7578125
279,2620.2502,-6836.4087,-15804.635,3127.1414,1444.5624,-1891.7605,17349.3671875
280,783.6642,-2398.6096,-1425.3577,-337.6477,371.80777,894.6622,3336.90502929688
281,-5546.1216,2449.2134,-11837.153,1859.3508,2985.5522,-7400.269,18846.89453125
282,-2676.887,2661.4438,-3009.323,2441.2302,-2295.883,712.2799,8099.19921875
283,-2658.2363,-5512.311,-9476.494,1567.6259,3101.0247,2467.984,9469.361328125
284,712.2298,-1892.5858,-5481.2974,-3.06581,1858.9464,1625.2717,6877.75
285,3547.78,-973.1209,1312.4971,-1213.0804,-139.85959,-3949.437,8160.703125
286,-2543.692,-461.79117,-5241.2427,-770.20984,1264.6956,2526.0725,6553.49365234375
287,-4803.4766,-3531.0884,-7683.74,238.32639,2105.4014,3333.271,7770.478515625
288,1468.0023,-866.4761,2239.318,1283.0491,1373.6185,-2362.3792,5931.8603515625
289,-14166.983,-15113.371,-47469.582,-1375.3354,1557.8647,1601.8865,33152.60546875
290,-632.38086,-3240.3008,-5782.91,90.75236,-1117.8202,292.0844,4891.4462890625
291,1246.0981,-1519.8997,287.17426,1251.3004,-481.16855,-808.1768,3642.68774414063
292,776.4225,-2509.5884,-1635.4011,1387.8689,210.0208,830.62775,4082.91259765625
293,206.69965,-470.60547,-871.2112,845.5136,612.05426,1879.4761,3841.40087890625
294,-460.7949,-1243.962,-2498.1208,-992.04724,-287.0871,-3073.5989,5891.455078125
295,2250.2334,-1659.9885,-1618.497,-267.2692,410.7856,-500.59732,4074.51123046875
296,2025.7642,-608.7782,-1578.2374,-191.8303,1266.585,111.43141,3923.65966796875
297,3081.1973,-1803.3085,-2320.6614,-1436.7145,-1084.432,-353.74023,6062.0859375
298,3220.701,-2188.1804,-3485.1243,-89.31418,-6462.4834,1316.8579,12979.615234375
299,2346.5015,-616.6449,-3587.0872,-637.63226,624.8493,1217.313,5765.60546875
300,12118.813,-948.9017,-5183.837,3162.5984,2869.4622,-2164.333,17686.189453125
301,-1228.3926,1825.5994,-559.9211,709.8392,-136.69391,-680.20856,3269.24096679688
302,-1671.7562,3512.4307,-297.35693,1925.6548,946.3896,-1434.2566,6451.53466796875
303,-3084.4795,1568.4496,-4092.7397,848.0604,630.0919,556.32513,5624.48779296875
304,-883.3819,982.88654,-5092.252,1366.1736,-3722.6934,3180.8464,10323.7783203125
305,-354.56128,4563.7065,-2110.715,-667.647,-4131.2,2574.9534,10408.6279296875
306,-3782.7146,2899.2305,-6816.7886,-599.75555,825.6271,-696.25946,8871.6376953125
307,-2554.1868,1118.0417,-3248.71,3041.3926,-1335.5364,-2721.736,8476.0126953125
308,-2354.835,3098.6418,-920.173,3233.0305,-671.0796,7.9666862,7528.84228515625
309,-11847.183,-16626.422,-13620.357,1828.2615,13208.461,2022.167,23731.755859375
310,65.37401,1802.2002,-3861.486,984.46686,1120.4,-2263.048,6877.10986328125
311,-7449.4253,17797.055,-2410.2258,-1928.3446,5331.9214,651.9576,25164.95703125
312,-12227.168,1374.054,-7100.2446,-15011.654,-7075.0894,-349.1979,31114.818359375
313,3116.44,2436.458,334.56033,-1473.9175,1648.7175,6070.2627,11468.4775390625
314,-47977.344,-31097.285,-52191.13,-743.64294,-77.22947,-1966.5409,19674.859375
315,-36699.457,-31274.027,-40877.613,-11820.048,10095.735,-6730.3457,30501.892578125
316,-1822.4305,1520.2363,-1594.3112,1818.776,696.9909,-110.23966,4677.67236328125
317,-2675.1702,-1013.86804,-8602.478,-586.55164,3424.7107,-1304.7168,9437.41796875
318,4759.1597,-82.38562,714.3484,-461.53918,424.37186,-1476.0571,5285.2138671875
319,2503.4368,-11059.239,-10012.363,3542.3381,3335.478,1812.1854,15865.5751953125
320,-1211.0193,-5137.0806,-8973.407,1631.2826,1129.0498,24.520605,7549.98876953125
321,1162.36,-920.03375,3435.1992,-48.67887,865.2734,863.85706,4327.47705078125
322,-965.56104,2605.2083,-10407.624,825.14557,4197.795,-2450.8535,14441.1025390625
323,-565.1326,-3602.2195,313.70087,3822.408,-4077.5415,4301.053,12722.9697265625
324,-3672.868,-2037.7316,2421.6973,-2500.8647,-140.9776,-754.04626,7097.90869140625
325,286.08078,-2507.7788,-10911.461,919.5798,2990.1846,2554.4902,12281.8154296875
326,4047.4248,877.07587,-5027.827,2215.691,219.15277,2702.0742,10020.736328125
327,-4020.7383,1231.7782,-3483.7117,460.16864,-747.85803,376.16364,5272.02294921875
328,-1139.5758,-4656.3057,-9738.417,1728.7213,2991.4133,1761.7518,10059.3271484375
329,2979.3584,-53.266193,-1417.1075,113.79767,2149.2478,-622.6219,5500.228515625
330,2211.8154,-2049.388,-1710.5386,-595.2319,1395.128,949.2554,5141.40771484375
331,1258.6534,-1848.8398,-4536.8164,699.48615,1565.7008,-158.62184,5842.27587890625
332,2895.969,245.96768,1343.2617,-543.0022,18.84174,-39.514286,2491.79321289063
333,2594.5986,-1519.7772,-7410.8657,-987.9867,2897.7815,2063.3264,10805.6875
334,-3168.2634,-10397.182,-13677.649,-467.1148,7717.052,-10459.302,24376.98046875
335,11232.832,-1132.957,22631.236,-8571.21,-671.19995,-5395.1616,27071.357421875
336,-16254.601,-1532.137,-11859.054,-1125.7642,-8470.873,4894.393,21500.99609375
337,-12187.27,3350.3052,-33047.137,-458.33307,3526.6233,6777.4985,34298.7890625
338,-2429.7432,2976.1653,-2417.2844,785.1653,-1738.5078,801.0277,6480.607421875
339,-1092.7876,1769.5354,-1751.553,1793.5353,-521.12384,916.63324,4847.48681640625
340,-5481.0083,974.40204,-9063.454,990.05493,986.6462,2401.7917,10039.8828125
341,-2109.0583,1749.7748,-3349.2778,56.435635,2422.8816,-102.98792,6234.3388671875
342,-4964.25,-1173.764,-10292.605,-1023.4753,1147.9133,2755.7332,9635.0419921875
343,-5093.2803,-7002.796,-16116.521,4500.794,-238.40715,1961.2979,13288.7568359375
344,-3207.3445,-3650.553,-9888.176,2540.5803,1772.9661,4053.1494,10952.025390625
345,-1021.0494,670.50604,1437.3538,2340.8682,-1011.93463,575.11584,5024.92626953125
346,102.11855,-3381.273,-2648.4126,-787.8624,-1704.7455,-222.01746,4565.82861328125
347,1446.4086,-1803.4386,-2961.5344,700.29254,1365.5458,583.2768,4873.63720703125
348,561.7136,-1364.1841,-5319.409,1307.6536,1159.6122,-4507.4307,9853.1728515625
349,-6240.905,-3186.6553,-9212.054,358.30942,2928.4905,1813.1296,7950.24755859375
350,-1650.5833,-4887.2363,-6987.3394,1458.615,3931.547,2773.696,9875.1044921875
351,-16328.342,-17889.139,-31775.24,-1641.1465,2189.6445,-2550.6345,16090.8115234375
352,-2544.6184,-3617.453,-7928.5293,939.4119,2183.8323,2710.398,7959.58837890625
353,-3196.0012,-3551.1116,-6626.862,-11.382683,3853.2957,839.9764,7572.27197265625
354,-76.66162,-4267.365,-5469.469,1344.6387,-255.06052,2900.2437,7409.33740234375
355,-1169.5692,-5101.505,-8486.188,607.5695,2557.3193,5843.2896,12782.1640625
356,-2924.042,2200.9456,-2768.0464,2535.5645,-36.753075,-881.89557,6864.02880859375
357,-1227.5817,-993.12885,-2039.0695,543.2097,-99.99796,1388.1594,2756.79614257813
358,1899.7787,873.326,478.38687,127.89483,-520.71783,-158.84554,1597.86633300781
359,-2518.7778,-3079.1362,-5685.927,277.27072,-1084.0844,-515.8181,3622.79663085938
360,30.20388,-435.8208,-576.9243,253.29657,293.49695,278.40173,993.110473632813
361,1102.8513,-3221.7402,683.20306,-4976.124,77.179985,-3636.7695,11447.4873046875
362,-1233.9608,941.5689,-1298.608,-774.74524,29.335733,283.88586,2631.12084960938
363,-585.892,168.6656,163.40973,-912.2547,-730.366,142.0646,2173.22241210938
364,-1431.75,-745.1135,-144.19717,-354.96072,1214.8236,-154.15274,2474.23754882813
365,564.2193,-1910.5798,-65.95311,-413.72006,-140.66237,116.887085,2361.36303710938
366,481.9589,-902.11096,166.45737,199.02568,-763.6531,-405.62378,1985.0537109375
367,310.5029,-1365.1444,-2346.1365,295.8036,-486.7255,105.85876,2533.92163085938
368,-6.9399204,-1360.5759,-2996.5254,368.79062,442.14493,625.35376,2981.7509765625
369,-1921.7725,-567.85376,-795.8475,-277.91107,-486.38022,-228.19403,1635.240234375
370,-838.9555,-117.100044,-533.5843,-554.31903,-381.75308,-492.12326,1574.63134765625
371,-8.459041,1137.0066,233.6837,-478.49252,393.90826,-241.21127,1555.71960449219
372,361.52628,-850.4201,592.5368,-82.47892,650.478,-235.10257,1804.92248535156
373,-2723.7017,-2975.6316,-3425.4832,-886.0191,252.01541,3674.0562,6589.45068359375
374,-2009.3593,1990.5988,-894.4616,986.34546,-517.4557,1334.998,4674.5791015625
375,-925.5245,235.84656,-453.16562,528.11884,-128.52446,-930.4726,2122.95629882813
376,1674.157,-1136.6521,-2297.4744,555.7086,-572.1906,553.3314,3916.39819335938
377,-9335.089,-5492.07,-8014.4746,-170.36691,1190.772,-1251.3741,4525.08251953125
378,1224.2513,-1921.3468,-748.3235,-1031.1276,1241.9536,1342.9711,4561.6494140625
379,2.0265772,-3319.197,-3715.4006,447.6528,785.7054,999.1349,4236.90625
380,-349.95804,-2842.7622,-2997.8345,990.61896,1634.7745,894.4992,4470.6279296875
381,-1312.3353,-3324.162,-3593.4172,-644.2833,1494.7751,1264.6589,4172.30029296875
382,-1068.5444,-486.1143,283.5,968.22076,-876.89355,-448.7847,2665.1796875
383,1613.4148,546.05786,-470.85336,-207.56602,30.828655,155.65536,1861.06274414063
384,-843.7732,-400.61856,246.92587,1453.9918,-612.6008,-1073.2789,3438.97680664063
385,-700.38513,163.88297,356.34137,-771.56146,296.94394,-500.0564,1936.73754882813
386,-1979.6625,115.86226,-574.2034,-626.0951,-510.51157,503.65775,2477.94873046875
387,-13572.232,-15265.6,-26900.238,-1107.2723,1739.2368,2300.1238,13658.650390625
388,-475.9771,-770.10767,1193.0846,-975.3895,-30.59412,990.68634,3027.29956054688
389,-755.42426,-3567.931,332.36703,-81.21408,136.1758,-318.58408,3540.1708984375
390,2274.3936,-465.4344,931.38367,179.6215,-669.4808,-88.64872,2663.77514648438
391,374.16934,-1188.5986,-382.85806,-417.15552,1185.7831,-22.500885,2564.0
392,334.515,-798.26685,638.98126,95.9892,-543.9344,-404.37616,1768.21496582031
393,1531.0109,-2111.2542,-857.0465,809.4951,-772.75336,285.96515,3778.04077148438
394,-2982.1165,-1174.5717,-3713.1555,-977.81213,455.66425,2224.898,4844.04541015625
395,-5784.6836,-5141.364,-8750.349,200.37778,2208.7107,2848.1265,7085.7626953125
396,-4001.1118,-4529.842,-7517.2876,690.8421,2401.5557,2834.036,7322.1181640625
397,976.2242,-2859.9443,-125.56063,-2045.8412,1068.0288,-648.34174,5379.86865234375
398,1164.3875,-2708.2727,-2242.6382,-1308.7004,690.6592,186.93532,4481.6318359375
399,2433.0278,-1227.0297,-988.4518,136.0917,819.98975,-141.82146,3835.72485351563
400,-3210.4622,5382.5063,346.88846,-1954.2343,46.175026,2603.523,9366.1162109375
401,-1085.7545,2023.4552,-827.40985,602.83185,-232.01874,338.15515,3244.2939453125
402,-950.90405,1980.0741,-701.9311,333.33008,802.7613,-2195.884,4965.4013671875
403,740.8964,-692.7744,-1025.9717,-48.02657,216.02495,-292.83636,1745.94018554688
404,219.7867,-981.70795,-1583.0017,-276.11584,253.42343,249.80869,1770.93139648438
405,1347.8306,219.83994,-69.582375,373.8642,-1041.6595,388.9914,2410.6064453125
406,376.15668,-1719.5482,214.85275,-738.4299,-813.81396,996.17645,3267.99194335938
407,668.6096,-919.49493,-30.750864,-127.82051,-453.27283,-737.44354,2048.74975585938
408,-15109.247,-13574.62,-28210.305,-967.95105,-2530.3474,-1240.4946,14857.095703125
409,-607.20807,-154.23726,-347.86942,37.57098,351.0232,-369.19153,968.380065917969
410,112.09,112.846344,-77.51872,1009.3976,151.5249,129.09712,1792.10034179688
411,-5451.0933,-2227.9373,-789.47833,-4747.9897,643.8015,-291.3715,9285.6142578125
412,-273.28943,-1964.3405,-1496.8945,-1319.6337,147.43007,-153.58818,2765.494140625
413,-4414.103,3696.812,-1335.495,112.03385,1415.0814,-1101.0085,7744.42529296875
414,443.1889,481.1303,-144.0392,1551.0219,-18.00993,29.361553,2754.83618164063
415,287.22714,-879.3139,-965.69653,737.6477,900.1352,28.776747,2352.58056640625
416,-1140.2976,-1962.2875,-1173.5731,1129.8634,516.38,819.1706,2700.4189453125
417,-1052.9895,3757.0535,-1924.5751,1546.373,964.5991,992.9649,6404.033203125
418,-978.09955,-1282.9185,-1772.2843,383.99228,-131.95953,-243.51195,1074.26525878906
419,-10918.551,-11511.533,-22507.896,-618.2126,-1963.4043,1283.3978,12060.0595703125
420,1853.7063,-1156.2643,-1536.2847,-1019.38336,-425.87717,-3590.092,7257.82470703125
421,-6444.833,-16207.38,-9014.925,2640.4507,390.78247,-5720.895,14013.6376953125
422,-482.34558,740.45825,514.8257,-108.67287,339.76492,-842.10693,1944.07739257813
423,-1247.8097,742.3212,-493.7669,1738.451,560.4472,-251.55197,3636.93994140625
424,-1023.7296,379.21295,111.94717,-1768.886,-141.55873,-7.2408047,3333.44677734375
425,-4213.2144,-3920.99,-7201.734,-123.76818,1247.3018,3059.7073,6533.65380859375
426,-4178.0854,-2309.7234,-4585.3755,-98.24785,418.20404,1667.1396,3648.19580078125
427,-1875.5701,-2024.4767,-2445.3518,-485.16412,98.6838,-681.7342,1546.49060058594
428,128.23724,-1773.2249,-692.5243,1361.4355,15.275912,-37.65953,2879.93676757813
429,-2717.9353,-1877.319,-4030.7964,-797.8723,1299.3104,1592.9575,4256.85546875
430,387.104,662.0985,940.37286,814.5871,328.2928,748.60315,2055.4287109375
431,-517.5771,-1553.459,-2089.6716,-420.7678,647.53455,-3676.0808,6651.75
432,307.17557,-1050.9637,-253.57805,391.9175,-577.0825,-541.7127,1933.29614257813
433,1123.134,-476.9771,250.1645,-465.67468,92.81343,38.72204,1614.46057128906
434,-300.58032,-2155.9783,-2508.6099,-139.85942,997.2033,-73.563805,2698.0146484375
435,-503.59692,-1256.6058,-993.2873,-903.76483,-502.54666,-203.2718,1941.66638183594
436,-1245.9391,-778.1815,-705.92413,-342.37015,575.3867,-487.3722,1521.60241699219
437,-2651.0576,-1107.7566,98.505455,-2877.239,688.0012,91.017204,5654.98681640625
438,-1156.4854,-694.15686,-924.1019,-360.57004,-481.96713,-320.77243,1247.35974121094
439,147.29123,485.83502,-23.195995,670.19946,233.72287,131.54405,1328.41552734375
440,397.44003,-216.27899,986.607,522.90405,58.407898,131.50267,1402.76550292969
441,117.90832,-467.7733,-215.38571,-755.48254,-197.37589,-490.6492,1676.37915039063
442,-1605.9503,-971.03064,-529.37305,-591.9623,-116.10886,-144.15121,1425.70764160156
443,-615.4512,-807.58905,-901.9522,-685.99084,40.090275,245.71295,1289.04956054688
444,598.3931,462.32645,1945.8926,-1164.2211,-811.5024,-116.233154,2846.04809570313
445,5934.754,-61.913315,4073.727,-1784.433,-1149.9692,4139.246,9653.1572265625
446,-1686.2756,-2063.5356,-510.5733,-873.9625,978.5382,43.306087,2671.6689453125
447,-72.5779,287.31662,1004.4999,1353.6228,358.61243,802.49445,2952.40087890625
448,1409.9208,3299.6118,1040.0999,1533.627,253.41628,959.80975,3797.228515625
449,-4785.264,-5507.4336,-8660.953,949.9902,2191.698,2156.168,6618.82421875
450,407.0816,865.1021,226.39288,-194.59071,168.22496,1277.7822,2328.49047851563
451,-855.4028,160.69855,513.2484,-644.28894,481.49316,-312.22495,1936.04357910156
452,161.57875,-326.9515,445.82028,159.77052,337.5156,-48.005215,939.978332519531
453,-5733.829,-5242.4453,-8684.916,-84.54451,1165.656,1960.6802,5102.0576171875
454,2078.821,2104.1807,2614.982,-1115.0193,-475.43204,1377.9314,3221.56958007813
455,-380.66223,761.84326,162.85205,-1262.6014,-115.65026,-475.7027,2545.830078125
456,-403.14316,-383.85107,-2582.9504,-832.3909,820.3294,-193.01453,3000.5322265625
457,-126.39866,-1639.4851,-2120.61,-504.42926,-747.2283,411.46118,2489.01440429688
458,1576.7554,154.37834,895.65137,-460.07297,620.2666,-125.40746,1831.56945800781
459,-610.4553,-402.42844,-238.7141,-429.7743,-138.26578,-487.92474,1195.74926757813
460,-1033.2632,-1245.9331,-1235.3634,-259.37317,716.16895,-279.66956,1420.65295410156
461,1039.6089,-68.51701,29.125332,-440.40457,715.96936,-476.80975,1982.68115234375
462,1011.24176,-1467.0514,-1996.42,-756.0651,793.0636,-54.94635,3368.22045898438
463,-129.30342,-349.7631,-956.0361,-1092.4579,161.3986,-140.14449,2065.7421875
464,-15.106186,897.4118,-51.845444,-220.16026,399.03662,109.93374,1235.68713378906
465,-1092.0813,-115.93271,-800.6477,231.16577,24.454863,-386.57996,1167.7998046875
466,-486.59637,744.2263,-65.137665,135.53658,420.23907,-1375.0555,2725.99658203125
467,-377.35303,407.63538,299.23746,361.0192,-303.93652,733.23413,1680.4462890625
468,-994.05554,-1547.439,-781.6485,60.377384,-462.01843,-98.589035,1072.08728027344
469,-1214.7983,-1466.2609,-2959.4705,1335.848,-29.993006,134.39769,2842.314453125
470,-6721.879,-6575.4663,-9422.06,838.6803,1624.0236,1984.9219,5435.9921875
471,199.47714,834.18274,-816.1244,559.65173,-690.8152,-1272.1553,3050.46704101563
472,1366.377,4370.179,915.59045,-707.1181,-51.26877,78.61183,3479.45141601563
473,-766.0261,-3876.555,-1061.9946,3072.404,-486.87885,1092.1412,6438.232421875
474,3429.7307,1549.5046,2466.5576,-469.13205,618.6459,386.69986,2215.626953125
475,355.29987,674.47186,-159.18086,-442.71707,-435.48346,-51.9243,1302.22509765625
476,3018.4463,3160.5208,3191.6702,-1700.4609,-395.4445,289.89368,3069.45068359375
477,-1967.2992,127.82893,-881.54755,-523.5823,-418.2122,-324.6753,2226.43017578125
478,-600.8767,956.89075,279.0424,1399.7018,572.81537,25.3907,2948.55395507813
479,1420.5789,-1444.8903,-794.0977,-421.34915,-394.70786,-527.0559,2933.08203125
480,2136.3708,-247.426,876.3209,6.510558,191.33295,-121.22799,2102.5107421875
481,-1080.8269,-201.77295,330.72104,78.07274,-45.842175,-115.601265,1260.57849121094
482,-2423.3596,537.4767,-1306.931,1130.592,-339.4197,-178.21986,3314.06420898438
483,-517.55994,-817.2277,-865.6559,-641.29425,-451.4038,-506.19287,1649.37048339844
484,-3608.8171,-688.7063,-2490.9424,772.0552,-715.3287,288.25745,3175.67993164063
485,-346.12332,-1639.7338,1090.4645,1205.7731,-166.53531,179.9677,3183.96484375
486,1382.4209,1165.2896,-532.13324,-675.46387,1298.6455,-887.676,3476.93188476563
487,-235.71977,-1378.9973,-791.4895,122.48476,-111.32744,-283.44824,1141.83276367188
488,-1855.496,-981.93396,-395.8134,3.7617433,-581.94275,472.76782,1818.02185058594
489,-9171.552,-8471.559,-12521.271,-87.17209,272.89047,-114.99834,3786.9873046875
490,-466.76193,-1097.6443,-982.9952,716.5265,29.749693,-1146.3113,2413.25537109375
491,164.85278,-849.3844,-292.92557,438.1326,-594.8395,-106.5153,1563.76513671875
492,-1790.6261,-1779.6954,-3682.7441,121.77351,567.12756,219.88174,2180.67504882813
493,-492.44452,-409.55533,-638.1637,555.1624,-553.0531,-231.42595,1429.36218261719
494,-717.0216,-404.047,-554.90625,-347.72363,205.78958,-17.234678,751.113037109375
495,-1894.6915,-2124.7573,1217.4678,-244.35974,-65.434395,-116.17134,3269.08764648438
496,-389.30795,-653.7952,-701.0113,-1016.59247,-329.36963,582.2646,2127.81616210938
497,-654.62024,506.69104,639.5863,257.06094,541.13513,141.08209,1630.05310058594
498,-18.067755,-1726.4521,-278.0551,341.0371,-322.864,188.0772,1819.27844238281
499,2575.5623,4011.6318,1641.2273,809.83636,317.29074,-364.07126,2635.18798828125
500,-1129.3348,-1914.6693,-164.09172,259.44467,1196.2231,272.88174,2650.40771484375
501,-1414.7863,635.4835,-1127.7875,688.43744,-55.609676,-421.42004,2379.38012695313
502,-5579.8506,-4358.9727,-7178.8154,1106.3062,1038.3833,2341.278,5417.61767578125
503,-429.5279,-290.55298,-112.39621,721.8288,599.94653,-297.6488,1727.57507324219
504,-474.788,160.27696,-1115.6638,-597.1188,241.9615,-443.31714,1748.11499023438
505,-2211.398,-164.92413,-3018.7607,98.6475,-333.14612,261.3443,2656.9140625
506,451.3102,1069.87,794.18317,-106.47656,-431.10022,617.53467,1422.56518554688
507,-313.12656,720.9465,2258.2268,-869.11975,153.17839,187.18477,2731.99755859375
508,-3335.093,-3616.9033,-5419.822,-118.296776,1730.4344,456.48016,3672.64599609375
509,-1053.9723,2307.3044,-778.04767,1457.8276,37.52881,24.059181,4102.26806640625
510,737.64734,3476.1624,1791.4253,963.0857,-192.97464,27.878555,2936.11596679688
511,-8.841931,-547.0819,-520.3571,261.32077,-106.387794,-263.47363,850.357543945313
512,-948.5012,1529.5751,1112.1989,1184.7025,480.7012,528.3008,3319.9189453125
513,-1456.521,984.8559,-1400.9429,779.50885,556.22736,37.97112,2929.69580078125
514,-1017.5428,-57.48999,-264.68887,1280.5796,708.59,161.94894,2696.35791015625
515,3438.6963,3217.4858,272.9829,839.3007,98.44187,351.09888,3447.10693359375
516,1059.3243,325.91653,-769.57965,-48.734657,456.16254,-725.362,2179.74145507813
517,-2483.3164,-2313.389,-3221.816,160.80536,930.39844,-323.22766,1920.33215332031
518,514.2997,777.57196,-297.47757,-873.28174,1117.6891,-622.9936,2853.40600585938
519,896.4468,-408.6087,-131.43166,140.82935,-358.61792,466.6753,1586.48742675781
520,-1003.9767,166.8281,-1721.4521,-575.28577,-234.15791,-404.14105,2091.15258789063
521,-295.82318,665.5273,56.26689,-926.8633,31.33596,192.23924,1844.10424804688
522,-921.5234,-1139.9657,-1271.8828,-404.63406,379.4622,-373.884,1198.52575683594
523,2551.0994,-31.636257,230.9322,208.88895,466.87396,-70.63705,2619.37158203125
524,621.3323,-599.85236,-947.4506,-839.21234,-786.4079,-212.04912,2477.8291015625
525,-2015.9314,-2844.6125,1814.7769,346.554,-61.622322,817.8469,4573.1591796875
526,-3561.3445,-3590.8164,-1799.511,-1200.8699,132.99692,232.75015,2774.65283203125
527,-1778.9468,19.17386,233.36934,142.4578,-334.32132,-11.570686,2015.15844726563
528,-258.76837,-133.1527,62.840816,-244.73842,-146.396,-299.47363,769.319152832031
529,376.09662,115.23142,83.50864,-668.5522,-482.87775,-43.515865,1457.19323730469
530,1996.1962,-364.2915,-289.3207,2131.6716,-475.07797,-106.1399,4443.3681640625
531,-2184.033,-2003.026,-4862.8057,2152.0488,891.00995,1558.4673,5590.66748046875
532,-1154.6392,-2034.0322,-1832.8706,217.44377,-127.87449,-248.78822,1006.72033691406
533,-418.7835,-753.3405,-201.51988,741.23334,34.328793,323.7928,1482.61938476563
534,698.83344,2206.6772,452.65442,757.95355,199.22595,270.18512,2183.33471679688
535,-581.8799,1641.2351,-679.0885,760.0582,-265.53757,120.72881,2675.09204101563
536,-4017.8062,332.59225,-5456.9463,831.6351,-9.646224,825.9736,5601.76318359375
537,-2187.1611,1182.5984,-271.02533,988.55347,-356.9895,172.6769,3460.26440429688
538,3580.185,997.78174,83.96123,654.5911,-324.54977,300.97787,3425.92431640625
539,3965.3777,292.19977,1106.5303,839.0458,783.34106,-246.32246,3911.40356445313
540,345.60342,1932.2566,-667.9039,-1797.7982,380.07083,-177.5455,3921.3408203125
541,146.71375,1970.3539,311.8464,2308.8826,319.8219,-137.60945,4405.48193359375
542,662.43854,1429.9489,484.51788,2942.884,616.9696,-489.38605,5347.84375
543,-151.95697,-851.15094,716.58826,-649.8709,-89.037575,564.73926,2024.37524414063
544,4575.5522,919.60956,-1762.8657,-218.50197,753.006,174.07527,5683.6396484375
545,-14.91342,-810.71735,-604.8039,-1356.7672,314.74557,108.45241,2523.24584960938
546,4514.329,414.16287,-1214.5631,-371.8125,-696.82855,-95.523125,5295.37255859375
547,136.59904,-3575.939,-1376.3029,-2427.9111,296.10587,-16.097296,5329.462890625
548,3718.0088,-2288.3992,-5727.8477,-2218.5215,-194.14827,-212.01205,9142.150390625
549,4007.085,2452.3052,616.387,-116.921394,-331.94,-262.6499,3036.59399414063
550,5384.7017,2091.0637,-329.67062,-325.77176,278.23016,-35.473454,5023.48681640625
551,-2217.5125,-2124.486,-4251.1294,-1796.7504,27.706877,-389.21146,3804.619140625
552,208.10918,1671.0421,-213.38127,-626.9329,826.26807,-691.2083,2755.90942382813
553,-5251.4727,-4546.121,-5042.3193,-57.336426,168.06406,318.2952,890.097595214844
554,2362.4773,2494.7754,1795.1011,-195.72617,220.12312,-601.5007,1326.71752929688
555,5598.4443,1600.2189,1932.6189,-1730.271,427.07224,-39.66563,4929.5732421875
556,183.00327,-1938.0359,-2414.1396,-1452.4022,-0.41483,-321.54913,3517.65771484375
557,1337.7375,2691.5562,164.83127,731.29266,-401.01645,-282.74283,2668.9091796875
558,3975.2974,3164.619,3640.1367,114.192215,890.10724,-305.34747,1787.04455566406
559,-767.32214,-1393.1436,1137.6998,146.7148,-130.83499,-434.57248,2428.0556640625
560,-4955.8975,-4193.938,-5139.17,588.39557,-1400.9192,539.17145,2924.42919921875
561,579.92004,-1513.5363,-861.131,-155.55936,196.3996,-747.3524,2303.54760742188
562,812.1964,-643.82947,-99.28252,958.2428,-174.93523,822.84863,2549.78491210938
563,2173.0789,1112.8325,-167.06047,1077.451,-327.11163,-765.8921,3111.70849609375
564,-4147.1323,1465.507,-1010.7949,130.20316,361.61786,54.0637,4918.041015625
565,3581.2942,3121.7083,513.633,849.0295,-340.86667,-477.8884,3377.59765625
566,2183.7385,1234.2241,356.061,-146.42607,428.87537,455.81073,1935.45629882813
567,-527.3775,-2758.2307,-167.28955,130.04765,-989.1213,750.2101,3253.29663085938
568,-2088.06,226.21082,-2099.9392,791.56946,-857.3111,-174.18167,3091.79467773438
569,900.11414,1934.4335,-394.69174,780.1548,-1491.0349,929.2365,3895.06127929688
570,1271.07,3552.2395,-861.5663,-1091.492,429.86148,-87.000404,4332.1923828125
571,622.5044,2094.9075,-302.12125,-956.7471,-361.9271,475.24918,2863.73510742188
572,-875.9085,425.71725,-264.86774,393.9775,46.25272,-101.11693,1332.29150390625
573,1444.2765,-380.92523,357.25323,263.16867,357.6549,711.3028,2153.6767578125
574,-1750.1375,-1507.1274,-1770.2882,-309.92456,-350.90152,-96.9076,866.074645996094
575,45.713425,-162.4106,-857.2551,-38.685825,-223.02121,-146.07774,942.581420898438
576,-146.78821,-45.74315,-1635.2388,-455.0221,842.84283,117.80276,2273.76684570313
