Element Label,S11,S22,S33,S12,S13,S23,Mises
1,5641.262,12383.621,5677.2046,1343.525,996.1124,-3779.8667,9822.0380859375
2,18630.27,21581.113,550.37524,620.44635,3363.4104,-1336.0237,20721.6875
3,31198.918,30456.486,577.7288,-1999.3867,-1266.4824,667.3769,30555.115234375
4,27157.145,25873.104,940.29193,-8543.648,-1874.1143,12013.861,36301.87109375
5,2154.871,8475.009,-1954.8346,-18917.941,-3895.7722,-7675.6123,37131.515625
6,9336.46,14923.603,2043.8705,7642.4316,-2347.4177,-3677.089,18906.53515625
7,14964.455,15518.669,-2865.596,4678.801,-2339.9067,713.80383,20291.060546875
8,25405.668,20454.914,2777.5002,-9096.755,-2579.819,-6191.7812,28420.96484375
9,33543.29,29059.695,2662.431,-11233.016,1903.5924,8001.652,37639.9375
10,14406.541,24644.137,5523.1685,-19533.918,30.268488,-2391.6704,37901.87109375
11,7228.789,-551.8054,-712.79926,-4232.211,-1366.108,-3897.064,12911.6650390625
12,22352.232,-1685.5665,-603.86914,-3599.7986,-367.2249,2457.3318,24705.8671875
13,24893.973,-13100.484,1714.5817,3920.131,-4976.778,-796.5096,34964.0546875
14,21366.234,-7762.2563,-11922.335,-243.8641,-8915.2705,6054.372,36545.08203125
15,20338.367,31519.234,16894.389,-18766.76,-1856.7688,-5515.8276,36518.0625
16,-2619.628,-20727.834,11467.559,229.49174,1054.3425,6224.6543,30019.685546875
17,20919.986,17297.07,26180.375,-1592.8635,-9344.578,7063.255,21888.328125
18,5517.0103,27730.361,26370.113,-4562.0977,11863.546,9582.442,35002.94921875
19,-2396.773,-765.52527,3750.8892,3095.694,-828.3065,748.1472,7931.8203125
20,33409.332,28970.25,43369.863,3636.5215,2359.2058,-6404.4194,18508.19921875
21,14608.43,4975.3496,5237.013,-5170.49,-11158.501,5053.5625,24913.80859375
22,-7879.66,-7552.1265,-7099.7646,65.55586,-387.41068,714.15106,1566.28930664063
23,-39571.062,-61255.164,-27162.262,4062.4353,-2180.02,2238.542,31177.765625
24,18002.684,8465.354,27057.836,-4714.85,-1125.5555,-11182.213,26550.595703125
25,37380.234,28563.174,55341.71,-1981.8289,-8336.419,-5774.6953,29648.517578125
26,-45074.496,-27429.8,-58196.59,4679.836,1827.171,5302.868,29582.755859375
27,20883.408,10275.382,-7255.071,510.67627,-10831.04,-208.28192,30962.19140625
28,12721.539,8693.034,12177.708,-5705.1367,-14996.844,11579.417,34481.0703125
29,25098.934,23860.244,6789.006,-17414.344,-1987.921,2781.898,35481.796875
30,3257.846,1010.2363,15416.904,-5146.27,-15371.938,-10885.572,36387.52734375
31,13211.913,9756.683,31905.414,75.38047,-8601.971,-15088.156,36481.94140625
32,26537.725,14715.405,26905.451,-2404.5137,-17297.994,-7282.889,34905.2734375
33,26567.611,22589.719,34811.35,636.53784,-8775.601,15734.655,33038.8046875
34,-22912.412,-14836.712,-17037.84,-10748.126,-16523.266,-7693.1367,37355.8671875
35,11609.154,-5804.0483,-17533.309,-4699.012,4011.6538,-2985.6536,28041.109375
36,38193.008,47857.06,55845.09,-6778.848,-12892.937,-7508.7427,32250.34375
37,6176.197,8333.892,42088.02,4491.9556,1679.0161,-9451.3,39418.26171875
38,-6337.632,2952.4731,17549.875,-2011.8251,-11823.929,3225.2861,29962.763671875
39,14675.336,-7111.376,-10368.253,-9803.885,-12214.75,1470.5118,36036.9375
40,29776.104,29931.814,56661.91,4353.3335,-1112.7383,1292.2415,28004.69921875
41,11647.688,15296.694,28886.725,1435.4993,-7239.478,9956.999,26616.384765625
42,-4202.853,-3185.16,3796.9937,1513.2992,214.24973,-5986.0234,13091.8759765625
43,8795.912,9124.887,12186.617,1144.8905,95.13198,388.45422,3860.28637695313
44,7661.44,2293.3152,5774.5684,-28.953499,4105.878,-1405.2686,8874.099609375
45,-88.00842,-6147.7837,3914.2793,1279.3018,-12627.722,-8805.118,28157.955078125
46,5958.5645,3103.2214,28043.166,5124.534,1880.3215,-9334.147,30161.400390625
47,9695.436,1739.6924,21347.41,1257.071,-7419.507,-14480.585,33025.9375
48,15637.32,13238.145,28321.39,3526.8035,-7259.7134,-10760.979,27201.0
49,11183.419,11625.485,19028.383,3812.2947,-3453.2058,-15903.684,29940.390625
50,11466.367,10102.421,12202.838,4048.2036,-2139.6926,-14936.494,27121.994140625
51,18806.805,18425.447,23267.533,6796.73,-5835.192,-15508.908,31369.70703125
52,17102.36,4745.196,17129.898,8158.304,-6339.606,-14835.237,33668.0703125
53,7972.0044,-3393.717,17844.328,4753.874,-6780.452,-14696.354,34532.859375
54,17425.328,10991.265,32830.062,4643.1724,-4012.9539,-14439.811,33411.5390625
55,30628.338,25620.012,41687.945,9327.357,-7880.034,-8342.905,29306.7265625
56,66749.445,47440.45,77372.45,8190.3384,3079.237,1014.22687,30390.48046875
57,17163.037,20446.695,18063.963,-1833.4163,-783.0575,-978.52905,4840.67041015625
58,-17292.77,-30214.307,-14322.054,3887.7446,11149.677,-4729.822,26449.587890625
59,-2025.3372,14409.274,24397.486,-101.20902,7306.7856,6578.0415,28705.8046875
60,9265.291,21154.838,39815.293,6629.5444,8099.4775,-3944.4001,32966.19921875
61,230.33269,14645.753,19419.852,-493.77103,15435.902,3764.454,32518.65625
62,18583.965,29531.035,40921.152,-466.759,14525.436,2367.1062,32010.76953125
63,33629.758,45380.855,62206.574,-2503.0593,12227.928,-2549.0947,33253.12109375
64,-665.18567,5822.4673,9847.394,-552.4925,19038.963,-261.15952,34248.62890625
65,3486.421,12790.514,27053.898,-1.5900141,14133.783,2758.9487,32324.0625
66,-23751.225,-21296.635,-10412.815,-3635.855,16185.124,380.2483,31259.6328125
67,5305.433,19892.912,25523.97,-33.949467,14417.3545,-7939.876,33754.3359375
68,28547.932,41036.887,61246.684,2460.2,-5256.297,-9066.238,34123.93359375
69,12921.105,13385.203,27461.309,-7083.5625,6727.9136,-6297.634,24702.033203125
70,-2900.9412,3654.4995,19342.049,988.6291,13948.686,2040.8811,31480.7421875
71,12603.102,21015.912,46502.234,979.44403,-2082.7612,69.60661,30832.54296875
72,7045.155,9501.481,21439.604,-283.40634,7517.886,580.49054,18673.080078125
73,7004.371,16404.586,17669.578,-2100.5317,15420.542,31.350626,28783.232421875
74,15085.7,11738.446,13174.962,5276.8164,3302.3262,5711.772,14919.208984375
75,-41601.477,-41099.152,-41852.81,1082.7216,-1920.1132,-1291.1577,4474.4130859375
76,-20106.533,-7727.4004,-7465.7183,258.54486,2082.224,-1611.47,13324.7451171875
77,13313.038,-347.20273,-4157.8643,-2078.7961,171.64001,2430.2375,16850.775390625
78,10185.553,6756.8843,16803.035,2367.043,13753.389,8436.155,29597.599609375
79,1235.5308,489.06635,1472.4344,118.04776,-131.19418,-88.99124,952.56103515625
80,2320.7217,1750.8591,60.992607,1422.7759,3575.4106,2786.5515,8477.119140625
81,-51213.746,-48483.523,-38053.99,-5209.2886,-1151.4816,7826.169,20343.029296875
82,56855.023,43938.54,65324.934,706.1453,-6539.738,5883.8394,24117.12109375
83,870.7632,-18733.182,2026.8665,20.87871,8193.062,14531.381,35258.73828125
84,11331.387,1690.7462,22906.578,1652.1045,-3648.4958,14421.048,31789.025390625
85,24505.266,24293.834,48724.434,-3358.8818,4227.899,11049.902,32334.2890625
86,45303.324,35424.688,55248.938,1578.439,5007.2134,15362.079,32945.76171875
87,20563.61,6576.9023,30284.275,1907.1869,-10529.068,10974.513,33628.78515625
88,14381.405,13309.417,32369.93,671.35834,-5991.836,14041.609,32319.939453125
89,48217.93,45488.875,58755.75,-1866.772,789.59735,-7889.3516,18609.197265625
90,-15976.447,-2349.0586,-16154.124,-422.4008,-251.13782,4184.4316,15537.4208984375
91,-1839.8787,10796.324,24652.803,-7660.3086,-7395.2153,2874.9702,29860.91015625
92,-23224.805,-14983.362,3124.1506,-4597.8086,-8191.67,2765.844,28856.80078125
93,21330.2,38706.633,45459.676,-1794.9961,-15235.423,1900.9612,34376.578125
94,-28719.428,-9444.293,-18079.676,-13240.023,-14555.275,5618.1226,39189.3515625
95,12399.361,14235.84,10282.353,3346.385,2305.1138,20567.04,36473.1015625
96,4778.9604,11678.633,21854.516,408.76276,14936.589,-4407.5747,30813.158203125
97,12424.796,18523.291,26945.902,1835.3698,-3605.8,1397.3704,14644.669921875
98,12321.339,11861.537,20553.957,2756.1614,-467.88406,-14345.08,26693.87109375
99,30939.297,38474.137,21824.018,-4206.2,-1964.4893,9091.979,22829.59765625
100,35007.633,34400.434,49391.766,-12678.94,-7227.86,-6663.8096,31435.927734375
101,4396.7563,16574.398,32653.457,-8311.034,-6147.7163,-3808.8762,31092.794921875
102,-7920.4814,-488.53738,16291.534,1811.1052,-12488.615,9761.193,35001.32421875
103,10236.414,19807.873,9354.871,-16099.14,-8491.789,8149.5664,35971.546875
104,15103.368,21270.309,40993.562,-3575.0364,-9604.513,-2356.7942,29671.80859375
105,61490.473,79396.24,90065.555,-1057.2914,-7078.093,11012.841,33808.1796875
106,7440.12,15530.838,24436.23,-4168.7236,-4297.6387,-8999.218,23818.4453125
107,3069.5967,17362.453,38231.24,1723.1427,-290.35312,1759.7677,30927.615234375
108,-8561.391,3756.6843,-2193.9836,1913.036,-3156.237,-177.90524,12442.0341796875
109,7788.81,3467.606,19812.031,4428.529,14822.98,-1387.7908,30642.474609375
110,-445.37296,11731.003,23343.725,785.3729,11596.033,3115.2644,29306.814453125
111,1914.8922,17356.236,28954.033,3733.4487,1727.4977,-3247.8894,25188.18359375
112,-27052.844,-7356.8486,1362.3931,-6681.0273,10387.007,-8571.24,36244.5625
113,-2445.848,15159.651,18432.031,-2631.2021,14229.657,-8085.1973,34678.5859375
114,10672.249,13035.407,17271.574,4269.507,16336.334,-1013.05,29865.2421875
115,-32334.373,-24422.06,-10023.787,4851.7964,15933.389,6004.4385,36390.06640625
116,12358.879,15225.675,19043.197,1167.8314,-5069.8613,-1190.6805,10917.4716796875
117,-3563.0942,5672.618,18004.807,5675.643,-10719.84,-2346.3015,28446.03515625
118,14257.172,26855.04,39463.266,553.3301,6917.1406,4580.594,26151.767578125
119,-10154.711,-12016.157,15429.772,2972.0466,4793.4624,-2221.3232,28563.767578125
120,-8627.6455,-6247.0703,4550.4624,-3971.819,13956.047,-3120.6946,28439.658203125
121,16623.816,15797.437,34351.516,-6332.9663,-14978.792,-3445.1177,34038.546875
122,35263.22,48553.363,67710.3,-4598.059,-1010.4798,-1893.8146,29588.236328125
123,12543.065,21168.73,27799.268,-2424.9011,15322.191,3135.6584,30446.7578125
124,-9959.938,4484.331,11848.668,-3198.3005,16264.833,-3526.8403,35083.90234375
125,14843.659,15517.5205,32056.082,6930.9443,-879.25977,9043.806,26017.826171875
126,2982.0752,-14232.37,15048.388,561.6142,-3760.1646,-8002.8657,29751.44140625
127,25752.436,26491.908,44991.19,6575.948,-8449.488,-11639.65,33268.68359375
128,37711.418,22966.44,48345.105,3449.3306,6552.263,-4443.0757,26664.509765625
129,12378.925,6580.8926,21978.973,140.54068,1548.213,-14365.79,28422.12890625
130,4545.61,2193.0134,14274.381,4911.577,-1271.0967,14884.679,29410.0390625
131,14038.595,10245.967,25138.396,7185.867,-8528.759,12147.388,31551.439453125
132,58416.273,38817.65,60942.562,2060.5867,2767.7505,10043.41,27898.560546875
133,43296.53,44365.02,57461.727,358.926,3337.8599,12984.641,26949.4375
134,-11295.506,-26431.297,-34.318073,1746.4337,4017.0564,8661.753,28442.779296875
135,45515.86,29761.844,61616.547,-543.8687,-2703.233,-9446.18,32427.95703125
136,-1638.4296,-867.8805,909.5121,-1460.4446,4977.5903,5991.514,13912.0478515625
137,-15663.866,-12671.57,-15623.464,-691.9815,-4470.71,3655.8438,10503.7333984375
138,1100.2291,91.93001,-91.49326,-42.693832,-163.9486,-909.6602,1950.33520507813
139,25725.162,20180.053,19165.756,1966.2671,15858.674,3783.5227,29093.603515625
140,-4729.187,5580.4014,6704.1562,-7087.9775,13209.639,-2599.511,28523.853515625
141,15453.886,27145.395,40406.727,2258.6858,13099.77,454.7884,31596.46484375
142,15504.967,-9209.817,-13535.648,1166.2882,-5352.452,1960.3386,28948.24609375
143,8197.027,25694.238,29494.695,2402.0664,12289.322,-17.343512,29282.865234375
144,34036.56,34878.812,47579.637,1827.8167,17472.473,-2420.7393,33409.3125
145,-1992.1401,1706.55,21325.84,1736.1034,13540.194,2461.8484,32378.96484375
146,8109.129,13142.683,30056.871,27.51802,11869.834,-5453.0015,30140.53125
147,22804.242,8705.1875,19071.516,-3165.2476,-7146.1753,15261.048,32280.7578125
148,14900.296,32210.986,34856.38,465.42255,-1015.4229,7083.4473,22510.451171875
149,5633.613,4827.122,30049.686,-1122.7815,13063.42,-4658.7188,34602.57421875
150,41096.848,32899.137,64779.11,3099.1238,-4930.8633,-7672.5,33174.5078125
151,12559.612,8720.957,21107.191,3509.622,-583.7087,-13067.276,25900.640625
152,3699.3555,-11876.656,12075.151,6100.9854,-6420.459,3473.4502,26734.904296875
153,7118.3716,-9138.113,12557.921,-2126.724,-10253.204,-10636.811,32414.017578125
154,23678.393,30233.63,18310.031,-7642.0117,-6799.526,9593.616,26400.671875
155,4417.4126,12867.874,27226.393,-5266.9917,-12969.667,-6466.6104,33350.0390625
156,-10179.597,-869.48065,-367.782,-987.38763,-9079.017,-7613.23,22708.921875
157,42387.785,42719.855,71506.08,-4588.564,-5841.1074,-9736.988,35892.3828125
158,18089.674,29796.646,44771.63,2004.4802,-6487.56,1007.4816,26038.033203125
159,-21030.363,-11219.8,6162.4453,6132.93,-5710.7217,2250.5652,28192.017578125
160,3726.006,-10615.635,8004.7124,-1928.7721,543.7648,5127.9,19398.125
161,41845.035,21183.9,58774.734,2628.4353,-782.628,1940.7013,33123.203125
162,30668.68,36043.695,47109.4,-7727.0176,7292.4917,10796.98,29986.74609375
163,-29498.654,-27008.182,-6196.936,-4358.9116,4534.8833,5856.5806,26697.091796875
164,1522.2915,-5214.548,4078.0872,2331.4268,-744.04565,5539.338,13384.892578125
165,2621.555,-13024.602,10742.686,7073.8027,-5031.3003,-11844.914,32936.05078125
166,4422.339,-6359.521,11206.234,10551.161,-9897.601,-9329.129,33531.76171875
167,10769.34,18474.89,12384.539,2265.2727,-4545.4453,-18831.104,34507.20703125
168,2117.4194,9348.597,17406.482,3320.36,1388.3099,12197.22,25703.318359375
169,-7109.774,-15831.859,-21104.213,-7058.6665,-13935.847,6895.5645,32009.4140625
170,25945.713,23245.111,37876.016,7498.9814,-5676.9844,10307.989,27676.650390625
171,14890.839,12864.348,24498.775,2723.7898,-4060.9592,-16506.361,31701.74609375
172,-4764.731,-2189.1958,16805.371,-3454.3953,-5607.511,-15618.088,35752.66796875
173,1346.1667,13557.1455,15249.684,160.71194,16775.092,1007.9496,31937.07421875
174,-9220.378,-4900.693,-12918.735,1848.0927,7640.825,13825.268,28409.86328125
175,11699.1875,21072.82,36446.855,-5126.015,13602.379,8091.007,36036.53515625
176,163.96423,-5511.984,22378.27,5699.456,-6941.311,-13085.291,37516.00390625
177,11838.774,6174.107,20493.951,1941.1582,-12630.568,-11611.934,32410.466796875
178,12075.4795,6306.9316,12585.613,2498.4324,-3446.7778,-17949.463,32517.62890625
179,72711.46,65409.348,95441.195,-3083.499,-2113.6594,8197.088,31296.0078125
180,33242.77,-2678.8542,19294.2,3925.6418,-4790.8003,-3499.719,33700.171875
181,13542.099,23536.879,45425.66,-2737.846,-9792.954,2380.4355,33540.73046875
182,4152.268,16143.4375,35856.227,1055.0148,8561.062,2427.311,31775.015625
183,40229.01,46050.26,58608.33,-3808.9456,13877.984,9394.414,33923.15234375
184,-11643.478,-11711.354,-12333.973,-785.7737,695.9356,218.73955,1970.62512207031
185,24663.438,35499.105,24348.03,-4628.576,1365.6813,-8765.318,20525.294921875
186,6053.6655,12695.12,16442.777,8400.135,10639.385,3507.5916,25908.1015625
187,-1179.2792,8295.94,14611.859,9284.572,-3475.3545,-441.66153,22021.458984375
188,-9758.942,27173.113,-8802.671,-4218.756,3917.0217,841.8716,37830.1875
189,-54593.137,-46279.754,-28598.898,-1252.6415,-14643.436,1005.9446,34347.4375
190,49526.824,60990.94,59809.9,1121.424,-13071.691,1324.3656,25316.4609375
191,24697.654,9588.565,5717.972,-5223.8257,-13079.875,-2759.0457,30326.533203125
192,8156.934,24643.756,29987.79,-9158.998,-5510.4473,-6130.526,29051.455078125
193,1108.1104,19222.96,35478.59,-2801.0244,-2380.914,-938.9151,30496.71484375
194,-7729.327,12252.282,32737.27,-2238.791,2977.8223,3651.612,36192.046875
195,-6046.0195,-2371.0122,4456.388,4548.671,-7957.2017,14795.677,31527.263671875
196,26074.504,25794.65,40813.027,-6600.4683,-9339.736,2355.789,25109.09765625
197,-6616.817,-612.77783,-19639.568,-14.364586,-6881.1445,5034.9956,22403.890625
198,45133.035,53429.863,65290.19,3594.9854,-8650.787,7277.2026,27019.642578125
199,-2552.8816,12077.244,15932.948,6821.9624,-11910.716,5913.6694,30910.25390625
200,22686.809,26104.084,42849.23,-7911.435,1860.63,-10809.374,29966.421875
201,19826.63,27184.793,49010.66,-6870.292,1179.0681,1878.5989,29111.337890625
202,37865.18,49421.312,72698.34,-1751.9902,3212.8245,647.94147,31397.31640625
203,756.624,5405.4717,18271.217,-1539.5299,-1607.7053,-15031.535,30653.806640625
204,-21793.436,-14.804643,-13076.482,-3969.318,4718.8555,13797.694,32336.498046875
205,1935.4908,9064.239,11848.561,-1536.3892,8853.969,13723.345,29760.216796875
206,12553.367,25511.416,36967.293,415.20715,7456.546,599.26776,24819.119140625
207,-34733.9,-33613.082,-25774.21,-294.4624,9512.577,-15880.344,33162.83203125
208,-23924.195,-27313.332,-9331.016,7399.9688,5993.5083,-870.0018,23414.123046875
209,-15978.001,-18113.104,-35238.176,922.9867,10869.015,-2772.875,26728.62109375
210,18221.068,11469.848,26165.72,5951.9443,7183.885,102.593765,20578.28125
211,6705.2617,-3679.728,8966.54,-2712.7056,721.6188,7018.5547,17546.041015625
212,-22286.367,-18072.914,-16780.771,-1171.0856,14129.722,7432.213,28171.65234375
213,9309.504,18795.275,15026.47,-490.26907,8848.64,-4105.49,18831.23046875
214,6594.145,6951.512,5682.535,-573.4325,12.798676,-60.49411,1510.78381347656
215,8110.899,-876.23,6357.177,-10103.597,-12453.46,8755.43,32704.27734375
216,-2518.2673,-18228.498,15971.518,-4313.8003,-6599.6353,-5291.338,33906.4765625
217,23401.492,3405.9287,32865.707,4415.3335,-7659.141,6306.6367,32131.44921875
218,3290.6875,-17604.744,11087.469,-9015.132,-7079.816,-6521.2563,34381.61328125
219,-20971.908,-38899.965,-11085.877,-176.92203,-6297.524,12563.1,34481.16796875
220,14360.64,17151.666,19749.676,-1727.3641,-17082.006,5655.127,31655.45703125
221,8668.019,1660.8167,15404.138,-7303.4395,-1125.1998,-19391.148,37862.203125
222,-3588.5044,390.3278,15455.637,7437.805,6015.285,12790.923,32681.400390625
223,7511.9,-8137.8623,19997.996,-7505.6523,-1985.5742,8498.366,31523.3359375
224,-12946.706,-5442.2656,14052.091,-6238.112,826.7137,-2896.715,26955.6328125
225,4449.7407,12064.302,18383.877,2228.3337,-1006.5361,10661.55,22471.783203125
226,-13623.298,-26681.709,-13469.523,-4858.9126,2467.1768,5910.0825,19142.3359375
227,-12533.652,-18527.129,-409.1708,2383.4856,-7737.3247,9373.3,26754.634765625
228,2253.5251,-7589.0166,-16101.776,6156.6304,-919.25024,-965.1823,19291.759765625
229,14994.179,14244.188,29767.594,50.155663,-9999.222,6462.9253,25596.1953125
230,-1317.5885,-1849.6981,5060.798,-2654.2505,3396.1235,8966.555,18474.154296875
231,39829.0,36222.383,47030.523,-2500.551,6627.522,-12610.023,26803.1953125
232,19352.834,24770.828,38361.76,8328.451,11101.301,2427.3064,29718.431640625
233,-6668.2383,4398.598,18436.043,3878.828,2566.961,-1850.8215,23453.255859375
234,19163.162,25276.12,18787.598,6115.8296,4226.5894,14119.211,28348.96484375
235,-1246.2806,-271.05756,8331.534,7604.6924,11429.36,8647.715,29547.908203125
236,-14326.619,-13721.941,-12292.972,1498.2377,18567.322,-3939.3774,33027.234375
237,36600.227,45037.402,21634.287,1493.4733,11574.814,102.58608,28811.23828125
238,11750.32,28102.533,20133.379,3465.2014,3455.8623,5466.3774,19028.521484375
239,8266.743,31706.246,24749.215,-4877.367,2475.78,724.0474,22936.185546875
240,16552.008,-7198.7554,-7252.0254,5660.017,706.969,7112.1567,28543.33203125
241,-12094.531,-23336.754,-47320.965,2172.28,4025.1094,4643.5415,33146.85546875
242,-13083.906,7897.625,8118.3687,1250.7313,-488.2165,-6934.7974,24384.16015625
243,10181.237,3911.37,14597.901,3565.917,-7492.5674,-3485.7676,18152.81640625
244,-3372.8018,2744.2458,15284.748,-248.73422,14294.064,1102.4279,29802.4453125
245,36125.31,45530.703,69112.13,3923.1836,-847.9603,4908.763,31415.873046875
246,-5751.938,-5542.0073,8468.354,4270.7446,8697.146,-8298.419,26220.328125
247,-17224.553,-4927.2305,-7932.485,-767.31256,18328.545,18.370214,33658.1796875
248,11402.492,-2381.36,17958.053,-1323.7506,14962.248,6923.797,33823.234375
249,42999.227,52529.258,63443.418,-1995.7217,1563.5582,1955.365,18566.2578125
250,-46414.688,-57860.586,-66827.18,-1242.8324,7800.811,-10730.742,29097.72265625
251,-10499.715,-17541.947,8525.604,-1688.6624,-2504.197,10114.146,29661.291015625
252,-17504.697,-11188.105,-12490.07,11123.55,-8754.335,5503.757,26932.50390625
253,9786.48,-11821.435,-11179.119,17298.42,-82.58391,3264.8142,37190.57421875
254,33085.273,26365.893,47369.453,4370.012,2951.4756,3934.686,21795.380859375
255,41502.86,23988.96,39607.582,-870.8127,-7366.6436,-4740.8066,22575.1640625
256,5005.48,4873.9478,8231.462,-11578.307,2745.8384,4722.422,22417.466796875
257,9072.554,7717.1426,5269.6733,2210.8994,-214.71707,1140.5222,5463.46826171875
258,-12104.745,264.1558,3363.1206,323.519,-10491.038,9004.6455,27832.9765625
259,29845.797,26858.338,26761.611,-7258.8115,-531.47424,-12045.491,24564.673828125
260,10411.123,3343.956,18163.688,2395.547,2564.3418,-2106.043,14665.7939453125
261,-2180.6099,10270.207,-14360.6,2410.8372,-412.34384,-12241.201,30372.904296875
262,19546.031,21310.316,27597.123,-1153.7451,-9417.68,-11175.37,26428.515625
263,2598.5862,193.43779,24629.469,2655.1404,-877.37537,-10483.106,29954.587890625
264,-12063.8545,8341.179,-12040.871,9549.057,1568.5477,-470.32126,26410.130859375
265,16794.076,33144.004,27757.64,5510.375,-9615.099,-4228.0796,25106.560546875
266,-857.0903,21237.814,-4071.953,10694.454,9435.488,975.423,34389.0390625
267,-11451.809,-4599.7153,-2285.6873,1397.0472,-11202.607,-15425.62,34122.7421875
268,13773.699,16287.573,11866.597,10441.256,-6741.1685,-10885.112,28872.083984375
269,15088.644,9754.442,3036.0852,10362.959,7007.185,-793.7573,24099.625
270,13561.64,38710.645,24319.496,1041.8019,3164.226,-1612.9751,22776.140625
271,-3755.3428,16396.176,15611.248,-328.20944,1601.772,-17211.145,35882.76953125
272,43671.207,35945.344,44719.324,4370.5083,2753.1594,-9299.706,20208.474609375
273,-4439.386,-12489.729,16514.494,5187.189,304.27234,6130.793,29433.271484375
274,34858.41,43697.65,62045.39,-1296.8206,-10639.223,2663.5933,30706.033203125
275,-15997.065,-12220.853,-11966.472,704.29596,18600.703,2966.8105,32880.65625
276,-6897.721,-2770.609,-31762.965,3823.235,260.2992,3782.23,28721.16796875
277,9847.397,14690.375,-11033.393,11963.734,7276.0635,-5470.7974,35193.63671875
278,-15127.418,-17924.191,1908.9227,-9824.305,-6574.5063,8306.822,31175.931640625
279,-6868.442,-11796.145,-32965.676,2117.7534,-291.70282,6665.5605,26902.5546875
280,-13654.68,-13311.79,-24638.33,-5202.907,4931.143,-9865.197,23888.28125
281,3977.3843,-710.74097,2862.2795,1943.6094,8858.396,5342.855,18718.412109375
282,2410.5098,12284.03,-11785.391,-8484.822,204.84889,8463.825,29498.8984375
283,-6974.7075,17509.826,-433.5192,3018.979,-3662.1382,9465.395,28609.07421875
284,-30404.896,-41306.5,-60718.812,4708.0073,9664.968,-4187.554,33266.28515625
285,15963.299,6109.9834,-9816.74,-2791.9211,-5057.47,14723.087,35469.78515625
286,3275.8906,14111.691,1109.3206,395.96017,5587.1245,996.8687,15578.3369140625
287,-22170.27,-15839.04,7300.364,-5012.5,999.19244,2103.8105,28524.83203125
288,11243.528,29510.96,29565.3,12238.585,-10684.025,1915.628,33726.80859375
289,-16153.714,-12784.614,4578.599,-800.23834,2650.157,7344.013,23582.3046875
290,32105.605,37929.062,62193.02,-1419.5626,-838.0654,-1603.3237,27925.201171875
291,-2735.865,10866.927,6356.0093,2709.1682,10278.369,-310.95712,21983.328125
292,1231.2823,-10027.324,18126.623,-6140.3564,7609.1113,625.52765,29839.708984375
293,-1271.87,12013.563,8729.654,2599.8347,8441.14,10754.381,26919.59765625
294,31822.662,44459.46,63028.63,-1204.9249,-3408.7869,-1254.0929,27983.759765625
295,8534.3125,-4521.649,-20384.902,2098.3792,-5986.276,6806.188,29814.421875
296,2850.881,1225.9053,1748.6619,-554.8569,503.59555,292.9515,2001.55932617188
297,15544.917,19052.746,-2274.791,-9297.5625,-7937.2954,-5487.5093,30512.77734375
298,35539.188,26113.158,53993.44,-759.5163,630.9816,-5658.388,26501.640625
299,19714.658,10751.661,34256.08,-2712.3315,-1315.66,9086.017,26401.763671875
300,3430.1848,1954.2498,8756.488,1690.9224,1680.7349,307.96878,7466.322265625
301,13318.923,3464.7847,23072.846,-5477.5576,-1207.9862,-14863.496,32334.482421875
302,11283.037,19455.88,19445.008,2658.4907,-3979.9597,-17515.285,32492.849609375
303,1807.2511,-1109.882,12018.725,9411.593,-13616.217,345.4296,31062.33203125
304,-34353.555,-19682.805,-39848.715,4180.766,-5975.704,-8486.923,26489.486328125
305,-3404.0825,-2633.9875,-17901.893,4498.538,-4494.3823,-15191.642,32180.91015625
306,22318.16,-267.6599,9700.545,15213.144,5560.526,-6582.198,36074.89453125
307,29754.39,21518.166,52357.195,-4307.882,-4820.116,4898.5117,31020.0625
308,-9082.572,1785.5356,-16827.838,5257.379,-8833.63,-8642.06,28343.53515625
309,16599.127,13953.641,-8566.738,7517.519,-3310.758,-267.018,27863.595703125
310,-4337.3906,-4298.553,-30333.645,4460.53,3620.0754,-1991.5709,28066.3359375
311,6426.2993,-18563.66,-26468.467,2645.176,-3784.231,847.3757,30832.3046875
312,13433.331,-1337.7844,4801.9517,558.7281,-8535.428,-5996.6816,22193.8984375
313,-2925.2725,2131.4553,10771.608,-5689.337,-9860.533,-1396.2899,23206.86328125
314,16690.287,12903.419,10398.944,5198.3867,-424.11536,1101.6599,10739.978515625
315,-64348.44,-59530.348,-88672.6,-9976.263,-1720.1627,4600.068,33211.609375
316,11951.865,17882.424,36705.52,-4990.51,-4703.5186,-10502.558,31194.677734375
317,33808.465,42213.477,57261.63,7756.6743,-6270.0127,12122.673,34101.11328125
318,1521.0713,22296.695,24658.547,-6951.598,645.4852,11990.15,32615.779296875
319,21005.832,13769.991,25101.424,3720.316,5130.358,7846.4634,20098.5390625
320,-1886.0868,11959.028,1295.8948,-1571.8037,7205.4644,-4432.1934,19489.951171875
321,12227.021,3764.4912,24551.822,2337.84,3122.202,-6556.246,22414.462890625
322,-5821.605,-1255.2155,-7185.1323,-11755.037,2160.6487,-1731.0635,21598.03515625
323,-5645.5586,-3995.9788,-3921.0732,-473.44547,-327.63113,-228.99236,2000.51928710938
324,2434.5134,3548.149,2758.1182,-700.6867,129.73727,-558.5515,1855.76025390625
325,14355.962,12576.153,34787.207,-8059.205,3361.7446,-4348.2173,27247.8359375
326,20985.232,6985.912,5991.677,9543.266,-11983.685,560.0415,30263.45703125
327,19216.912,16062.832,33217.734,-1670.9613,12240.997,-4324.858,27643.201171875
328,7280.0493,3350.9136,-8995.44,-2144.4592,10474.592,-2133.458,23937.0703125
329,-15021.166,-28809.107,-32532.12,4614.0303,-7251.764,3515.2576,22671.65625
330,25191.248,21902.604,28980.018,-5900.526,401.05194,-13468.581,26206.279296875
331,-10012.441,-3280.8137,-10232.258,4954.5347,7043.614,-16542.22,33019.05078125
332,11371.061,10601.718,834.58545,-5018.4927,-13824.351,-1967.2153,27640.669921875
333,32732.797,30278.145,49304.668,-2551.6743,347.5802,-13608.153,29946.14453125
334,-2941.0864,17045.764,588.8739,15327.82,-4356.7075,-662.43097,33233.52734375
335,326.42172,19504.63,5892.222,-6816.2935,6306.251,-2486.1025,23859.4609375
336,-14514.625,-14798.102,-6234.3545,6529.469,40.573902,-15661.61,30573.771484375
337,-876.20374,26882.8,20363.363,5376.659,-8323.13,-12982.944,37845.89453125
338,-30670.518,-19411.709,-34853.516,6443.438,3819.1113,3343.032,19829.06640625
339,58289.598,40470.312,67249.3,-2295.1914,591.2768,-3831.2202,24866.560546875
340,35246.875,24824.861,58404.617,2216.0046,-2649.711,-7521.23,33041.66015625
341,-14771.028,-14971.227,-15162.435,-411.01562,691.1653,1045.2174,2309.17456054688
342,6703.107,-7909.838,22827.234,-595.6045,2874.1267,-2905.8174,27573.97265625
343,575.3443,-8760.976,4668.8047,-1285.5565,-3658.877,7805.2163,19236.046875
344,791.7531,7674.397,2273.6047,-6161.9766,-19376.168,-455.3424,35779.98046875
345,6724.8438,-4060.2236,22883.242,1580.587,-2015.8566,345.0857,23910.75
346,6356.168,7111.5376,-8091.145,4648.945,1488.9387,3004.9482,17854.59375
347,2079.4329,16987.193,12319.07,-7618.2593,4724.8535,2966.279,21021.9921875
348,-8657.113,-3466.0664,-21.371353,-11250.851,7018.552,-1884.441,24390.017578125
349,-18905.432,2419.3704,-23436.95,2261.5688,-3951.1726,4690.07,26459.123046875
350,-20410.633,-12599.43,-19812.22,-410.3609,-5977.674,13024.463,25948.24609375
351,6942.9385,-2294.386,20600.701,-3595.6086,4059.4973,-5407.248,23957.515625
352,4168.2485,17401.904,-6836.0312,3801.399,8165.3027,495.8675,26190.775390625
353,-12002.44,-20648.508,-21702.512,-6841.0347,-12476.765,-4924.495,27661.138671875
354,16406.92,25770.502,34799.773,-6334.8296,5586.439,5249.948,23461.70703125
355,25529.748,7346.2695,20739.371,-3759.7627,2579.0918,-11381.858,26785.884765625
356,83224.45,81985.25,58345.426,-7688.905,-881.74994,2461.074,28063.005859375
357,-14971.29,-9501.286,-18211.639,5460.669,-9892.984,-2873.1204,21586.572265625
358,50354.566,29852.434,32567.621,774.05225,3365.2969,-2571.092,20679.6328125
359,11834.292,7541.5947,-10070.775,280.17795,4390.974,10504.336,28166.080078125
360,111.78758,935.0252,-2307.884,1698.8976,-1271.8525,1652.1561,5497.72119140625
361,-627.05835,5864.853,-4468.903,1178.589,160.20886,-412.95578,9305.9873046875
362,-14334.388,-23087.506,-3112.205,-772.84375,-295.69336,1581.1068,17616.396484375
363,1377.1974,643.08386,-959.8739,-4331.8228,-314.3063,-247.15918,7814.015625
364,-3237.8308,8391.948,1068.0769,-2239.0266,637.4012,-619.87445,11005.77734375
365,-9130.568,-1260.2589,-2957.7937,-5215.4844,-1619.877,1771.2638,12261.779296875
366,1987.1041,2934.0615,-67.560005,495.86105,904.528,-232.81885,3227.81884765625
367,-4963.3447,-13954.414,-2811.9749,-2888.4226,-24.960997,-7249.664,16956.25390625
368,983.5805,-19691.47,-5745.6274,-5735.79,1824.1129,-1010.9283,21103.53515625
369,-3663.8098,-16691.885,-11286.096,1375.5996,4898.4624,4578.486,16403.51953125
370,-8187.2583,-11658.675,8726.077,1370.5199,4339.2964,-3958.7231,21586.171875
371,6306.5825,1559.9128,14916.211,1608.4309,-2529.1077,297.56293,12835.091796875
372,4020.2231,3628.594,5856.707,3068.415,747.25464,-891.3972,6045.6357421875
373,7919.0703,9757.988,45.24102,6704.8213,12.115561,430.74637,14672.3916015625
374,5045.1826,2717.7273,-633.0019,4361.4014,581.40576,362.53995,9105.8759765625
375,4411.045,3234.1157,-670.6234,-5266.2075,162.15263,-50.667614,10223.16796875
376,-773.4045,-4206.9326,-5732.0283,216.01836,358.12817,-448.87234,4525.5615234375
377,7003.972,14457.686,4320.7354,5079.295,-605.9569,49.69778,12698.990234375
378,1311.1903,672.46875,-3994.2764,4108.759,2296.4092,2104.8816,10243.2890625
379,-724.99994,4765.098,-1636.3398,2390.2427,-296.5388,254.9913,7319.40673828125
380,-3039.188,-14730.422,2021.2144,-42.97011,504.6723,1869.0532,15254.6611328125
381,4419.411,-1454.4956,4351.501,3605.8064,2344.7683,864.6897,9583.88671875
382,2132.0596,-5211.6934,-3544.8018,3895.596,-1922.2177,892.61194,10172.021484375
383,2308.1694,-4776.983,4426.9756,4206.86,170.01892,-1579.9409,11417.931640625
384,9330.108,1442.0806,6873.431,3626.3389,1525.157,3930.9175,11902.25
385,116.476776,3019.7332,8012.9697,3083.4373,-1606.6935,1180.8138,9397.2373046875
386,5251.5034,1821.7869,-813.67804,3881.818,-290.2795,265.54062,8568.39453125
387,-4524.68,-2658.0176,-6987.6187,2666.8982,2465.8354,-201.43312,7338.10400390625
388,8376.637,10516.843,3864.834,-1207.4474,531.2269,-1094.9974,6588.66357421875
389,3841.4194,10435.385,-1865.0164,-1958.2078,1649.8821,4755.2314,14183.7431640625
390,13899.885,5979.3315,4014.3557,-1131.3878,-1912.1295,-6481.369,14932.9580078125
391,-3998.9207,-20707.197,-4075.7258,-3621.2568,-503.68097,1874.2349,18125.369140625
392,2692.807,7319.8105,-552.85126,-3486.7607,-131.46164,-593.27405,9194.6396484375
393,-668.9439,-9476.438,-7080.2847,-4963.3643,-8648.447,-3742.247,20062.763671875
394,3995.6858,6362.5435,8852.874,326.98578,1066.8551,2298.9714,6106.482421875
395,8045.581,-11145.161,8642.011,-276.04727,-4114.691,-2445.0076,21190.587890625
396,-2762.084,4388.129,1100.8977,-3503.9006,69.28279,-2101.7583,9408.8017578125
397,3008.885,-8266.392,3078.2769,-183.22708,-656.76654,-2146.404,11963.90234375
398,-10760.44,-13743.338,-2709.344,3781.2087,164.47278,-2002.4541,12358.66796875
399,6364.283,3976.4797,-517.29114,1661.6462,-759.54486,-1861.9678,7552.517578125
400,4205.401,-8588.248,343.1257,1479.1486,-3548.7395,874.987,13259.83203125
401,5523.965,1749.7716,716.3977,4373.964,956.83264,-2891.5486,10219.4404296875
402,1268.3375,13645.797,622.1398,2470.7341,37.571796,-1587.3987,13692.8701171875
403,1113.8193,6085.5493,-5899.2144,1867.1394,-155.57825,2220.975,11580.029296875
404,3466.4614,11814.683,-424.03745,3232.2961,-1564.6998,1832.4606,12886.7890625
405,4219.556,5585.9365,803.328,-1821.0417,1382.8302,-2304.1008,7058.14111328125
406,3693.274,1592.8662,78.888275,3155.99,-418.519,-358.62097,6377.7685546875
407,-254.31357,1179.3765,8312.364,1409.0936,-3928.5012,-199.23167,10748.79296875
408,-12296.843,-8966.0,1778.6464,-5597.6387,3901.1736,6025.7764,20271.130859375
409,1411.2098,-1996.0289,6971.2446,-3070.6938,-1590.4607,3986.1277,12042.0693359375
410,13583.641,15162.747,5308.8496,4001.5667,-3495.202,-2194.048,13533.6982421875
411,-13879.798,-10773.213,-1896.6014,-376.37805,-452.00027,-1846.4614,11282.162109375
412,967.5739,2765.0388,3326.066,4827.0376,1502.7318,-1610.5603,9434.578125
413,1507.6755,-2913.114,2196.3142,-2473.473,-628.2112,-816.388,6678.28955078125
414,10131.784,-1700.3718,98.7393,2796.2178,-361.83563,733.02124,12141.2763671875
415,-8815.122,-10605.698,4285.797,-2238.1028,881.42194,-1874.7579,15039.9677734375
416,-7253.591,-8220.426,-11122.456,2633.1147,-4612.614,-2145.338,10516.5703125
417,-6937.1416,-15851.458,1570.2677,-6.7998924,-3769.9111,164.79288,16443.755859375
418,3814.4106,-741.1778,-6264.623,2535.9321,-21.729261,-677.6709,9853.7490234375
419,-2693.0452,-8421.945,-840.3818,4359.5405,-997.6156,2651.7393,11312.119140625
420,-8238.268,-3746.2334,-2755.1443,-5297.5806,-507.0972,412.3175,10539.7900390625
421,19770.377,278.6631,662.9947,-968.2968,-1639.546,-1052.046,19666.744140625
422,-1561.5999,2727.5808,1129.2607,-1137.9329,-458.9427,-3244.68,7084.95703125
423,-10832.796,-9067.6455,2521.2705,-8605.168,-1280.0021,3143.1934,20361.13671875
424,5016.498,5103.5415,1718.2677,2131.979,-362.70462,1346.9232,5535.90625
425,3022.9976,-7305.0967,-3582.328,9040.647,42.267662,1223.5599,18214.71875
426,4459.535,10856.371,4249.8994,479.48602,-564.5659,385.10397,6662.97998046875
427,-1075.4518,-7664.9214,540.76086,-2906.846,94.07543,571.5074,9112.568359375
428,5735.822,1896.873,2447.375,1583.6403,-2228.081,-2822.6223,7697.11669921875
429,5325.898,5456.3887,230.71227,767.33185,186.40561,-2154.1543,6514.1845703125
430,2621.4229,6424.2915,5140.098,2790.9963,-604.1706,-902.1199,6175.18017578125
431,-1875.8668,5213.4287,-2427.7092,-255.06502,898.24945,2894.4155,9067.7158203125
432,5465.2734,-3407.0334,3683.1062,3081.9,-665.808,-3607.895,11617.0966796875
433,5870.7217,8808.546,3831.1135,-3431.5388,1818.8207,-1364.4086,8343.76171875
434,-1631.4796,-5001.049,-9833.016,1409.2946,12.565728,544.49963,7604.7216796875
435,3325.4983,-1024.4669,1048.2766,2221.6155,776.46606,652.8433,5665.345703125
436,4697.0386,-3384.9988,-5473.12,4563.05,163.47209,-1681.6917,12553.2685546875
437,2457.9387,938.79333,56.425117,-698.1718,-624.87115,516.6795,2803.822265625
438,-4883.2676,-4594.483,3123.5525,544.06006,4329.3887,7247.247,16630.30078125
439,2701.0972,-8361.288,-5868.3003,-667.52026,826.73267,346.96735,10235.298828125
440,-5141.5996,-7860.553,-600.4938,-1289.4689,3602.66,526.564,9225.9892578125
441,4296.372,-2057.1196,2133.3357,-3134.3535,3094.3318,173.99838,9465.2392578125
442,5465.58,7054.377,1610.8483,7039.3896,146.6108,585.99866,13162.8759765625
443,4733.1895,-947.3948,2937.4795,4565.4683,-1524.6406,-192.19296,9742.0654296875
444,5233.425,6757.363,3354.3914,-2288.6086,-703.4616,-1652.3683,5839.98388671875
445,10222.337,8661.7295,-2926.2827,-573.10205,1707.7008,2152.3115,13357.8916015625
446,2553.2546,5797.3535,-3315.229,4187.0806,-2236.8008,2782.92,12443.46875
447,19729.643,10426.629,6220.2876,-3917.2598,-548.6724,-353.80124,13808.853515625
448,6750.554,-3562.626,825.3714,-8050.0073,1214.2124,-3160.7673,17583.064453125
449,-14796.708,-11228.01,2648.3103,-1508.5793,157.3335,366.67282,16189.9140625
450,300.7648,-4702.1987,-3814.6992,1441.4078,-1662.5742,-799.43823,6149.7890625
451,275.31033,-5704.264,33.97599,3320.1743,955.679,2462.7612,9400.8876953125
452,-63.851265,-8412.022,575.39905,1777.7021,396.59497,1473.0986,9586.4365234375
453,4768.136,966.68274,1563.6527,-3194.4934,-542.84204,3211.965,8659.4814453125
454,5662.715,7402.77,34.39159,122.59414,840.07306,-1977.7838,7641.76318359375
455,4681.5767,4715.9634,-2115.8142,1845.4625,-1459.7166,807.4428,8062.55859375
456,5307.496,-5905.6143,-5616.255,2082.2053,1441.0215,1706.9124,12269.880859375
457,4279.7065,-1108.8353,-6147.224,2636.2163,521.0915,-3077.2258,11473.5693359375
458,1995.8315,4605.3755,-418.80884,-140.88145,-304.35574,-535.6677,4487.71435546875
459,-2281.3237,2014.5757,-1555.5142,-417.20624,-1404.7466,484.32666,4796.81005859375
460,-3423.5867,1729.0372,-1882.9376,337.959,2093.9258,3719.8418,8717.3759765625
461,-6606.2007,-5207.568,-2929.9414,2306.234,-1329.7592,-546.7512,5699.74169921875
462,-6081.2183,-6866.486,-5522.814,-274.47916,350.4369,372.50372,1541.96911621094
463,-2118.4197,3579.827,-9842.557,2041.4388,-2111.194,298.65668,12739.2216796875
464,-1824.0988,-4502.0503,7715.5146,-1707.9414,695.4649,1149.5836,11742.619140625
465,2600.7036,2683.5483,-956.71735,-3416.9795,-495.8083,129.66498,6983.6943359375
466,1651.4987,388.00003,-3648.129,1779.1066,662.1551,1557.121,6408.68896484375
467,379.12592,6147.707,3270.1926,451.48474,1730.2338,-71.41223,5879.23291015625
468,-4518.406,-2103.7,2944.8687,-4396.603,514.65027,-2248.137,10837.755859375
469,-3522.147,-657.4229,-3606.3657,-3732.5627,-99.664154,-1641.6632,7639.767578125
470,774.1296,-5171.15,1069.2822,2141.062,986.3538,-530.68964,7396.23193359375
471,3744.3904,-4710.755,1585.991,458.43155,-2346.62,-558.0286,8716.830078125
472,-1819.7498,410.04816,-5167.3076,1011.58203,-819.7854,264.7787,5379.4873046875
473,5601.5107,-5182.81,1232.9633,1514.1554,-1794.8036,-118.86635,10240.03515625
474,3986.564,5121.2617,184.6317,2845.807,504.7024,-1313.5402,7091.7177734375
475,11611.903,5891.394,-796.7863,-5843.1855,670.9511,-803.52795,14880.58203125
476,5692.18,4282.572,477.88654,-887.85754,492.09778,477.19052,5059.6669921875
477,-1727.7262,-4614.6753,104.59561,-3482.7349,3198.6538,2400.1582,10067.09765625
478,852.4072,-9382.992,1919.741,-2116.261,-1807.1847,-450.0817,11860.369140625
479,13363.156,3146.3857,-2059.9778,-4082.109,1644.7867,256.4883,15587.9765625
480,49.00741,8339.564,1823.2648,-948.10315,-21.260448,-206.42868,7745.814453125
481,13177.901,11530.019,1496.9817,-4510.27,405.92224,806.7449,13541.9736328125
482,4787.446,-3792.887,3647.9465,1292.1235,305.92007,-291.43015,8407.5908203125
483,3488.278,-9853.382,-891.8088,735.08057,174.60088,400.87112,11871.900390625
484,3475.107,9515.366,6901.8555,560.7638,-1077.0197,-389.9349,5692.83056640625
485,-5803.431,1247.3582,-7058.1904,1692.738,102.6211,480.92374,8334.064453125
486,-16053.54,-14608.844,4221.698,2267.4863,-513.08777,-1590.8989,20191.28515625
487,-1190.5826,10456.695,-1652.6776,-1918.9124,83.92771,-110.16681,12343.3779296875
488,4997.6333,-998.6031,473.16357,-299.8256,-720.31,-2326.7017,6882.05908203125
489,2614.6228,-10414.046,-5985.0117,-1397.2561,-275.40292,-497.94147,11768.0283203125
490,12397.125,1077.1868,3164.2817,-1070.5244,-62.808758,-820.8568,10693.1044921875
491,-15134.969,-26881.49,-147.90225,-2964.9277,-206.30501,237.74977,23776.216796875
492,-24720.107,-23382.031,-5993.234,-1562.825,884.69916,1427.231,18526.05078125
493,5642.6426,2220.9907,3145.7253,2116.5166,12.122126,958.2311,5058.92333984375
494,244.60469,-6805.4873,5941.219,-4689.385,-756.6671,-1015.1949,13895.947265625
495,-1932.9226,-19249.598,556.87494,-3349.6833,545.99725,-210.22646,19592.5859375
496,2497.773,5588.4644,6409.2827,-1967.1875,486.56607,388.84564,5053.34912109375
497,-9346.949,3644.393,-1250.4095,-2064.6064,826.4411,1429.4324,12251.9658203125
498,-9762.671,12487.036,2589.2751,-1999.4214,159.72813,941.5125,19685.57421875
499,9057.257,-896.3112,3747.0608,-3050.5273,-481.42368,175.17845,10154.8427734375
500,-1899.7476,-6467.671,6000.1455,-7399.791,1915.7936,3340.8613,18114.24609375
501,7119.034,715.6387,3769.7202,2204.791,403.04614,531.5976,6833.21533203125
502,13381.36,-4994.459,5320.621,-2724.98,901.991,1874.6208,17023.02734375
503,-16987.604,250.6017,-3256.0515,1968.903,337.7829,-980.17914,16243.7119140625
504,8145.297,5168.549,-5790.6777,1941.5232,1467.7831,3275.4138,14544.5947265625
505,-15674.006,-1677.6843,3157.4841,205.62741,-1029.9729,-1224.1465,17168.443359375
506,8524.539,27984.31,7380.961,4828.523,-331.0604,608.991,21763.03125
507,8360.103,20650.693,-3389.6719,1861.2401,387.31018,-1082.8275,21163.357421875
508,-5530.4556,-8384.018,3221.7388,-6207.23,913.67664,-3194.8638,16075.87109375
509,5929.707,3756.7166,-1855.2101,103.36655,-175.46976,-539.6888,7029.1171875
510,4006.6863,2421.9521,-2040.7424,2281.388,-373.3802,285.25787,6765.7783203125
511,-1478.0482,3608.6313,2921.5815,5510.8394,1301.9507,209.18303,10916.7802734375
512,7565.1997,14185.935,581.166,-346.3623,202.79782,148.72566,11806.7744140625
513,-3129.8416,-152.1161,839.5593,-143.08795,215.6839,108.60392,3611.03466796875
514,1927.5199,4994.786,-1205.3921,3568.101,539.6299,226.01941,8249.4619140625
515,-2776.515,-1715.8932,-1150.2152,-660.9848,193.93298,97.97607,1870.08312988281
516,4810.96,7666.8438,1686.1205,-556.41064,425.16742,-1772.2858,6143.20263671875
517,-23147.78,-21862.62,-4271.841,1845.0251,-261.81235,896.7806,18615.17578125
518,11364.696,7183.1567,1769.0729,-4223.5894,892.5713,-2346.5994,11910.6064453125
519,21029.34,13396.482,10067.796,-4621.244,-2668.5798,164.2025,13426.1162109375
520,6195.9644,10523.287,4649.0605,751.75586,-773.0179,593.4509,5688.3408203125
521,6216.126,1355.665,-2981.191,-3036.789,-804.4497,3058.8972,11008.6220703125
522,3924.4126,2074.2388,2068.9365,3416.6533,1270.5016,1453.2942,7045.01611328125
523,-1880.9879,2038.2147,-6156.1377,390.44897,765.40375,562.2608,7318.16357421875
524,-1204.4609,6515.134,-3415.6091,1204.6224,-394.69482,848.3072,9409.041015625
525,4168.7466,1537.9836,-2017.8761,3031.8574,1840.3732,-445.829,8200.814453125
526,-8835.0625,-18601.023,-254.43303,-296.895,-584.0589,61.571354,15940.466796875
527,-18583.312,-25797.766,-2900.1577,-1794.6809,227.69635,245.02347,20522.021484375
528,1356.8662,10664.304,1445.2627,-635.10144,601.29004,-77.06035,9387.5439453125
529,-1582.0845,2613.7908,687.91437,-719.2652,1438.5098,1859.4618,5600.5703125
530,8767.06,9257.976,3860.366,1878.5841,-1712.0098,-809.32007,6933.294921875
531,4167.4253,-888.485,5019.8696,2866.2397,1614.4888,1328.5446,8267.9853515625
532,1715.4318,1469.7668,2534.7266,1214.5505,1399.5474,646.28534,3533.7685546875
533,7657.13,-8314.94,350.1205,555.02936,138.59062,399.2372,13901.486328125
534,6619.3193,-2816.858,-4391.837,-1065.1333,285.86597,68.08067,10490.298828125
535,2120.18,-2962.2869,1539.5773,2424.8582,277.7019,-66.44144,6411.09033203125
536,7022.7915,2447.179,2145.8901,2346.1633,120.16668,-126.64251,6245.83642578125
537,-21687.428,-3834.5308,906.57074,301.90808,-123.961975,-265.20673,20648.896484375
538,-19506.256,-3355.8772,-808.8941,5222.5874,751.32513,-489.65872,19816.548828125
539,-1570.7786,8303.507,5858.7344,-1137.0215,-8.125725,-301.55228,9137.2587890625
540,1087.3486,11292.376,3756.6018,-100.842766,430.56137,-577.0323,9252.7431640625
541,-15030.564,6600.9424,-60.64298,-5082.006,1.244019,-60.500805,21111.373046875
542,-5805.6147,-8809.545,-5003.078,7598.8027,1384.7052,240.35748,13828.5712890625
543,-6127.2026,-12373.199,-7736.6064,6585.5854,-1181.9249,-1368.1997,13094.537109375
544,10434.715,-19413.666,-4125.704,-597.18994,-504.75116,-982.30347,25943.318359375
545,-15685.271,-944.2906,-3032.6128,-3285.8186,-350.35846,-782.1817,15015.564453125
546,-4328.232,-21720.771,-338.95007,-1319.9951,-574.2296,-289.98245,19856.162109375
547,-5699.2817,-22478.965,-1526.0847,-5327.672,-1058.9519,431.48895,21402.64453125
548,-5814.825,-22267.229,-3927.977,-4535.2603,-849.33795,-116.32258,19214.458984375
549,4799.706,-2641.8472,-4154.7183,2569.7188,547.98975,-3672.3513,11405.8466796875
550,3912.4905,4461.8027,2140.5002,7058.0874,-128.62454,96.84567,12407.361328125
551,2945.629,5358.8193,359.69437,6238.066,577.98816,-171.90828,11686.837890625
552,-8618.353,2002.4253,-1154.9163,-3969.2297,-1374.2719,-346.44482,11938.4501953125
553,6212.7114,-2158.403,-2928.536,-3443.374,331.80832,-598.7396,10681.375
554,-28944.271,-21311.395,-10308.132,2011.481,-466.376,-730.30054,16664.62890625
555,4232.0396,12782.187,1031.395,-3182.6956,115.66619,433.6824,11904.123046875
556,1680.4584,10742.979,4617.1436,3976.3755,887.86896,-154.21378,10677.57421875
557,-149.98494,5707.8545,6273.7944,557.254,66.6395,-95.27899,6238.7421875
558,15217.373,13594.365,6063.3643,3929.7004,-957.22266,-399.4885,11005.8271484375
559,16951.354,14217.259,4354.2295,4201.499,727.5889,255.28622,13655.1279296875
560,-22463.365,-21628.91,-1161.2701,-4119.619,-109.09842,667.36115,22113.015625
561,-27484.492,-14924.953,-5626.9346,-4940.798,-346.02786,594.18713,20871.67578125
562,-3602.9253,-3113.0647,-3570.853,-4119.3223,99.78933,-347.05957,7177.94921875
563,-2774.042,-8459.007,1054.3387,1134.4839,-152.73148,-749.25085,8622.923828125
564,634.63574,-4823.2383,1959.233,1121.3214,-372.30835,-169.18092,6560.9619140625
565,2179.3884,6922.741,-1235.2924,-2561.5906,212.46455,-473.74527,8417.2705078125
566,4300.3774,-2778.9087,-332.90564,3354.788,-51.228554,279.20865,8531.63671875
567,8657.28,-3247.9756,1213.1895,2687.9888,-105.48104,-456.21613,11439.380859375
568,11600.441,8317.443,508.86298,-4466.065,15.412216,609.5671,12583.330078125
569,-8034.4165,829.8888,-2833.7905,1861.7617,-518.78687,-2601.191,9540.8046875
570,3664.2766,6136.949,1968.0828,-3038.756,348.58636,346.7208,6450.78369140625
571,-26522.17,-7048.696,-1993.781,-4128.15,213.40605,450.16617,23560.01953125
572,11663.922,16694.63,2604.6763,-4307.0,-58.3911,1281.4564,14613.0
573,1518.5944,741.5132,-3253.0583,3470.0964,-1878.7743,-64.08091,8148.06494140625
574,562.06775,2245.3787,739.92706,3371.3118,-1560.9325,-407.59488,6668.6533203125
575,-216.04607,5063.764,-2597.139,1322.4596,-936.73944,-935.68896,7524.8525390625
576,-1370.2914,-2682.7444,-5051.715,1433.0505,1907.6898,-1496.2249,5851.36962890625
577,-6117.3604,-2003.8114,-1145.2009,313.95273,-354.75537,1139.1234,5075.08544921875
578,5176.679,-10558.454,-457.3768,-4876.384,-2746.5002,-21.098791,16871.658203125
579,-6956.7427,-11596.113,-14288.855,-653.3373,-613.68256,-3153.008,8573.3310546875
