Element Label,S11,S22,S33,S12,S13,S23,Mises
1,7518.1113,5550.865,181.16861,1527.4977,-1904.3448,50.52322,7820.11572265625
2,485.99738,-3855.4734,-9945.422,-3784.882,1477.4073,-1686.5215,11850.4189453125
3,3962.4465,1656.0826,-97.34441,-2756.2896,-1110.505,4401.656,9851.5302734375
4,12304.565,9031.699,15423.465,-2165.6746,-306.59113,-1097.532,6972.30859375
5,4212.919,2839.3396,3340.1235,3138.114,-340.31897,1130.827,5930.9931640625
6,3481.8867,350.6574,-983.15576,-441.0721,-414.11145,-2045.4028,5423.029296875
7,1729.3956,-1798.0051,-3492.9695,-5420.5386,-55.562542,-485.02567,10495.5234375
8,11521.484,10352.351,22105.402,-4737.8364,-1244.2911,6047.1875,17534.30078125
9,-9774.639,-10622.478,-19724.352,-4079.689,-659.01355,-1136.6454,12099.18359375
10,-27223.883,-23897.076,-36239.89,-2027.9904,3199.735,-4056.0283,14654.6171875
11,-7613.4824,-5890.912,-7217.7466,1946.4629,404.74185,-2366.3767,5576.64697265625
12,299.8448,-1493.4232,4850.76,-1363.4276,1079.032,979.12054,6635.767578125
13,2380.2073,2666.3616,12541.574,184.84077,-2672.2568,3309.4421,12442.271484375
14,-20863.896,-19687.303,-41779.973,-1521.099,2176.4927,-6822.836,24985.640625
15,36947.35,43163.99,62980.2,-4206.9326,-7603.8223,-13942.971,36936.26171875
16,5774.907,21182.094,9363.705,-5997.8794,5741.173,-10670.457,27264.453125
17,-16673.082,-13100.344,-21094.861,-2356.459,-4653.176,2644.0767,12276.1025390625
18,-3501.9346,-10846.4375,-5417.6416,4236.579,6161.1426,-264.9623,14542.255859375
19,-795302.9,-804558.0,-781489.6,-499.3329,-1241.8702,-74.59981,20240.998046875
20,6509.2417,18732.09,12048.421,-8298.215,-6964.3765,-10425.936,28116.990234375
21,-837.7106,-55.241116,-5863.1196,1306.3466,2399.2437,-696.7224,7324.2216796875
22,-20852.156,-21633.11,-11672.297,-2184.945,-1878.1957,4272.4717,13104.0302734375
23,11845.542,19273.312,-811.82135,-2164.6445,-4688.5645,8342.097,24457.58203125
24,-7653.1694,-28675.004,-3115.029,4546.7266,4903.153,1288.7429,26401.43359375
25,-35486.44,-31651.916,-35132.99,-10847.386,1252.2769,6777.1177,22560.208984375
26,7825.0596,19987.514,-2171.176,12188.04,-2124.982,-5668.7915,30414.240234375
27,-4124.2476,-13206.984,-20157.396,5518.4688,-2863.3335,11318.89,26348.4609375
28,4847.266,16517.738,-9947.6875,-653.4946,2944.6995,-12277.509,31737.37890625
29,-4343.726,-3620.868,18754.023,4392.299,-4473.8633,6584.3296,27664.337890625
30,21707.145,3278.7126,12065.213,2156.9316,10945.317,-4279.6143,26137.9140625
31,-14764.55,1227.4707,-9284.207,5953.0034,-9517.612,2738.9219,24468.587890625
32,-7621.3096,1273.4397,-10407.304,-1006.07306,-4255.7495,-1742.9106,13347.0234375
33,5594.9297,-5705.5933,-1900.4639,10335.422,-873.08215,5231.869,22451.009765625
34,31651.809,23047.336,9463.072,387.15677,2289.6672,3324.4893,20610.40234375
35,-9473.045,-1313.4291,-4779.005,-750.1478,-6339.995,-178.45107,13140.85546875
36,-5007.048,2836.0906,8437.021,13479.003,-3514.8738,-1743.8563,26982.41796875
37,11644.913,8462.416,6146.8857,-321.6324,11166.92,-1497.556,20099.697265625
38,-22109.582,-10803.76,-1012.9973,9901.215,-3385.248,3292.8044,26370.111328125
39,-3124.5083,2110.6157,5413.064,1479.3257,-404.4243,2330.6055,8885.5205078125
40,5962.0396,-1301.5834,-1751.1267,391.1491,4847.832,6874.381,16400.072265625
41,2678.5793,846.2393,-3133.8245,-1709.1599,3717.2048,-3944.4421,11107.81640625
42,8306.418,8593.41,-4025.8923,-4521.1724,1127.041,3293.8223,15918.1962890625
43,704161.1,704385.94,706171.1,-61.045017,-287.30743,-226.62619,2012.8740234375
44,122962.79,149845.06,148961.77,6689.9673,4149.787,6923.264,32084.5078125
45,-172460.39,-187033.8,-210797.7,-7920.799,-2650.078,-3420.7258,36984.03125
46,23200.94,39771.055,50459.57,-1015.2025,8262.354,15399.288,38538.6640625
47,59210.934,56660.684,94803.484,-66.10369,-3731.1768,-7228.0464,39529.9296875
48,44945.02,53917.316,50438.723,-10135.812,11523.448,-12279.618,34933.25390625
49,26221.818,44343.062,25291.498,-11042.13,-2624.6174,-15884.157,38593.7109375
50,33365.586,20872.238,20815.246,-13913.29,-522.7345,-10625.289,32818.40625
51,6314.3096,23525.592,17103.293,-8035.2285,6347.873,2443.4216,23652.27734375
52,8084.971,10138.944,-215.99152,7272.0845,16810.271,1938.9974,33284.515625
53,-8637.182,-592.40656,-3653.5652,8256.324,-9461.063,-2650.8464,23314.79296875
54,-17646.47,-11634.49,-32813.715,-2686.733,-5337.4536,-4056.9993,22668.765625
55,17246.822,11419.083,-300.82617,1384.577,-243.0725,606.06146,15705.0859375
56,6931.86,16448.785,10594.344,6263.603,-4277.01,-5114.3677,17893.48828125
57,7201.9263,14739.32,-825.4581,-2092.0908,204.31763,7533.477,19112.099609375
58,-4618.793,-8359.186,4627.088,-5796.2095,-12438.811,-6609.703,28811.19140625
59,241.56773,-2523.3755,17668.424,1279.072,13822.466,-8164.4854,33728.1875
60,-10608.51,-9885.3955,-4663.767,-4168.769,-6692.793,-1199.7166,14913.0283203125
61,12428.404,13999.038,-797.59204,3347.037,206.94638,13060.533,27269.69140625
62,-8456.109,-1288.3492,495.1087,-1971.7427,-6845.2715,6046.092,18145.056640625
63,-14177.116,-18303.316,-989.52704,-1297.0946,844.5514,-4075.1855,17388.537109375
64,-2490.7678,-14082.595,751.79224,2004.1389,-2498.25,2296.4802,15134.953125
65,25446.537,29138.838,30119.805,-6723.193,4591.797,6268.8896,18302.2421875
66,-33711.906,-20892.076,-24218.307,-4509.7646,-8536.196,-2119.5127,20636.400390625
67,-3650.2,1667.9191,3143.5005,-9238.172,2690.197,1158.5117,17890.6796875
68,-12447.45,-6555.6562,2065.3958,-765.1628,585.67505,4542.167,14983.609375
69,26490.688,-8716.515,968.33026,450.863,13437.184,1873.0354,39308.71875
70,16710.766,19613.277,29665.822,-4354.7197,2445.357,2785.8267,15387.2802734375
71,-109250.586,-101584.875,-142695.16,-2905.6335,5851.3945,-3549.315,39993.953125
72,-1642.0636,16877.75,35253.22,-10090.562,5409.56,6161.7783,39090.953125
73,74730.36,75264.414,98659.78,404.66418,-5280.8145,-17709.438,39813.9140625
74,-131552.03,-119777.766,-159131.3,8191.5034,-1399.9197,-3588.379,38337.78515625
75,112536.29,110963.99,148889.2,-2767.5598,-3708.964,1934.6029,38165.9453125
76,69392.484,50644.76,63271.24,-18024.701,-3388.844,-8558.37,38769.1484375
77,-40331.523,-43296.594,-19802.51,4729.838,-10306.507,14162.385,38452.66796875
78,10356.493,13447.1455,2982.5986,214.08127,-1358.9445,5229.489,13207.45703125
79,91.09366,5410.7603,-8389.359,1388.0314,-3297.693,6813.3564,17972.197265625
80,-13316.59,-6656.1587,-11222.78,1951.5126,11838.002,14465.883,33082.09375
81,14911.357,-1427.8519,2922.8374,-7407.6396,5467.246,7838.2866,25562.068359375
82,8670.829,3498.6226,-5966.056,-4100.0283,5126.6255,2549.038,17721.611328125
83,9694.459,15448.142,3543.1838,527.204,-631.8697,-4769.5513,13289.5830078125
84,-9107.977,-238.23833,-17019.76,3312.8125,1965.7025,518.2294,16023.916015625
85,8899.07,14681.928,3759.506,-1281.5374,4418.941,-98.95706,12373.982421875
86,-3095.7427,-4740.4014,-10758.073,1664.6112,-1324.8638,803.92847,8020.70947265625
87,-250.01634,-5163.991,8614.8955,-2345.4104,1360.906,-1861.2733,13369.66015625
88,2884.4739,824.9708,-4823.327,1434.4695,-5015.953,6310.9106,15776.9697265625
89,11711.895,4909.03,14694.338,-1210.9686,-5091.14,-8539.63,19400.96484375
90,7336.129,-4945.177,3837.3025,5059.727,-1031.0671,-4722.922,16340.498046875
91,-27876.541,-24392.27,-5154.8457,5520.809,3749.3645,251.53343,24146.38671875
92,14443.751,12466.38,4957.544,1816.1597,3447.521,-5702.548,14773.25390625
93,-1721.0706,-83.66513,1759.3136,7350.0723,9585.045,-1976.8961,21412.83984375
94,-16114.176,5128.1826,-730.138,6784.216,223.84578,-4845.6284,23870.078125
95,13633.06,5802.3193,13685.905,-958.4948,-1932.9774,2673.5742,9856.2900390625
96,7707.275,25817.367,-3167.0505,-836.5629,2441.856,17615.96,39926.37109375
97,11104.381,-9087.284,-2041.7562,13.12496,9673.495,-5552.1123,26235.27734375
98,-22382.955,-20149.686,444.79556,-6723.8726,-2256.5247,-16395.188,37847.4140625
99,-37529.355,-54453.85,-41545.324,6072.212,-2352.1196,-2204.111,19400.65234375
100,7652.849,5316.844,-16191.091,-3293.686,-7517.633,8259.382,30414.34765625
101,-24176.408,-38538.785,1666.3109,-2791.4985,-1203.0298,-5437.66,36901.36328125
102,-50334.535,-42263.47,-46379.555,-1804.6177,-15730.892,5742.86,29999.28515625
103,24546.324,12417.563,17317.742,2446.8152,3453.495,-4872.9297,15383.8359375
104,5955.335,7874.4395,1005.80835,4340.648,-1223.9858,-1971.75,10505.28125
105,5475.8984,17055.607,2087.9065,-2725.1785,-3068.2546,-7302.762,19882.4921875
106,3470.5283,5191.7026,-5163.532,-2244.7004,8863.7,-1643.5208,18742.60546875
107,7237.8115,1075.0352,2179.9207,7838.137,-219.80652,748.4322,14782.6259765625
108,-4016.5154,2216.651,5422.2646,-1377.5963,2762.4434,-4698.8174,12803.6201171875
109,7025.9146,2743.8193,7014.1035,1983.4243,1926.2784,-2482.763,7727.34130859375
110,-7387.0693,-6079.603,-8327.511,4759.629,-12379.209,3266.5361,23738.806640625
111,-36617.574,-19973.152,-32777.113,-535.20044,7637.2837,2029.285,20397.580078125
112,-3247.5596,-6382.892,-6130.636,296.68814,2225.7927,-583.7904,5025.13720703125
113,-17041.422,-10519.193,1887.1226,-9888.092,-3468.711,1509.031,24771.423828125
114,-48546.4,-34890.37,-52136.668,-12021.909,-598.08777,-2435.0225,26473.49609375
115,-19284.053,-1544.0546,-18132.861,-3910.2864,8573.455,-2160.1558,23999.8515625
116,-7667.08,1287.7601,-21330.027,2408.186,266.27222,-9415.762,25938.296875
117,72212.305,67839.85,99347.65,-6674.792,-11729.623,-339.69543,37694.1640625
118,-26334.754,-20055.562,10102.556,1650.2034,3771.7969,-7677.999,36959.609375
119,-290132.03,-302578.4,-289255.22,-5115.6177,4760.17,12240.442,27614.591796875
120,4405.68,14986.053,23055.525,-3580.209,-12053.211,-7276.817,29926.380859375
121,20495.867,-574.4073,6560.4663,-2402.1514,-11299.749,10786.506,33074.75
122,-12318.492,-7001.627,13294.235,10918.161,-3069.548,4309.8623,31459.67578125
123,-11845.412,-4416.6885,1925.7303,-16089.647,-8983.79,-4945.866,35137.85546875
124,-8062.837,-8314.568,5973.5127,-4278.4434,3290.5386,1239.5632,17106.244140625
125,224699.9,239926.55,241585.25,1276.3745,-3656.504,9352.675,23817.501953125
126,-22410.45,-27788.297,-48091.09,-3849.6638,17337.125,-3413.3005,39133.734375
127,21417.17,32313.441,37478.56,3879.719,-11025.226,16871.035,38280.6328125
128,-6281.322,-11379.646,13412.467,1849.0354,-5233.079,-6140.9414,26828.88671875
129,-14928.199,-3141.3196,10943.281,14152.912,-666.7271,10542.106,37933.84375
130,43.602703,-678.1183,-11896.097,-3009.031,2184.8843,7645.2397,18742.818359375
131,13601.658,19081.557,1717.8267,-5156.7314,-1061.1702,39.094,17875.552734375
132,1291.3082,131.04807,-768.0184,-669.3132,667.9071,9255.296,16213.0009765625
133,-2450.2078,11247.979,8337.273,3664.5247,1249.3524,-4747.1416,16395.611328125
134,-3547.933,2735.3967,-4089.1973,-5316.4907,5848.592,1506.6606,15407.7099609375
135,44862.016,45489.81,58688.75,16084.335,-5559.6226,8753.079,35799.26171875
136,2515.2734,2390.4016,12313.748,-2520.5842,1898.0328,-1994.4518,11791.962890625
137,-960400.5,-971462.4,-955528.75,7058.403,-4512.716,8674.686,25224.931640625
138,1577647.8,1585117.1,1607338.6,123.05302,-975.87915,7084.6978,29479.62890625
139,8854.654,5869.8228,33053.566,-8866.961,-6725.16,-2909.1838,32613.931640625
140,-4051.997,-1296.2286,14507.757,-8675.666,5013.3833,-12672.788,32922.859375
141,-4053.3987,-6862.808,17264.598,-12978.477,-2638.2412,-10583.021,37208.1328125
142,-4701.6055,-9396.376,-4770.042,-2368.5557,5383.254,154.75175,11205.55859375
143,-21268.652,-15174.139,16317.596,-10819.491,2204.3374,-756.2606,39853.1875
144,9173.265,-13666.91,13554.008,-5956.1904,-7564.0654,-7144.2363,32743.17578125
145,6191.9097,-13642.771,11374.261,-4371.8228,-10058.865,-8605.408,33258.10546875
146,6286.474,1222.9263,16127.328,2480.4592,-11472.575,-6489.2944,26682.623046875
147,-4895.191,-10964.9795,-11121.573,2205.1152,-772.68225,-6609.8823,13611.3076171875
148,1863.1405,-11876.4,3129.7014,-4864.076,-5463.869,-4939.2734,21012.1328125
149,-11865.783,205.43326,-8107.04,3626.6133,6795.464,8141.398,22165.48828125
150,-55958.61,-36412.54,-75772.04,4290.7607,-3034.9736,9199.397,38712.3671875
151,-3345.4238,3347.66,-26639.451,-2714.7595,-7573.519,13484.475,38509.6796875
152,41982.94,40514.113,16650.541,-8351.218,-10232.923,-9668.893,37556.73046875
153,-14149.243,-46901.715,-48347.457,-2026.035,6489.193,9396.464,39060.0859375
154,30801.162,34272.043,23217.797,904.7967,-4929.8594,6224.2534,16954.8203125
155,-24652.37,5879.905,6905.2036,7061.263,-4881.982,532.07214,34445.76171875
156,-26531.006,-8697.839,-9274.561,12331.44,-11833.507,-11603.006,39852.828125
157,4016.9072,345.82358,9865.805,9751.356,13384.984,-5112.939,31150.0390625
158,13440.074,13376.038,4150.7603,4312.7847,5604.303,2700.5803,16050.078125
159,1623.5116,-2819.5505,-13629.252,9303.527,5465.707,-1566.3934,23265.169921875
160,-2452.5068,-10400.584,-10970.747,-5373.1216,-5018.074,-6017.774,18407.173828125
161,21387.023,34230.9,13244.426,-6347.63,561.44666,-3058.376,22039.361328125
162,5812.8037,16883.953,-5506.316,3087.3677,4405.175,2786.2007,22047.890625
163,10916.36,30512.422,13190.506,4589.8916,-6824.8867,4882.263,24880.9375
164,8180.421,11769.876,1603.1799,-3553.2908,-1908.2234,10622.262,21611.3828125
165,-12528.103,2846.1892,-1347.0764,109.57228,13002.261,11162.582,32718.5859375
166,3590.1785,7779.2983,1590.653,9330.591,-7314.2266,-12876.593,30806.111328125
167,-29358.383,-8583.108,-26137.387,1186.291,6875.4663,-5212.5566,24548.3203125
168,10133.635,18717.652,-582.16425,5001.7896,13845.992,-3094.6174,30974.44921875
169,-48.180595,2931.072,2307.7415,-2704.6887,20.731535,-3234.9568,7794.201171875
170,-3876.3057,5730.626,-11073.489,5126.1787,6328.8467,-4872.16,21987.388671875
171,34337.523,39573.7,47880.973,10000.944,2846.8162,18924.633,39226.54296875
172,-9047.054,-18968.248,-34185.582,164.44205,-6095.6074,-9347.479,29234.361328125
173,-25749.69,-29919.635,-11730.632,-1641.1667,-510.9648,4729.99,18664.48828125
174,8926.0625,16948.11,3872.6753,1277.1514,-7454.3438,-4203.2935,18842.1484375
175,-14197.824,-17541.855,632.7305,-991.62286,304.57108,-10709.617,25060.6796875
176,3046.7751,-8892.855,-9663.102,-3883.463,13780.273,-10074.483,32737.7734375
177,-8125.318,-88.67155,-3668.8948,8970.077,-1600.0354,671.6405,17293.154296875
178,10928.717,10510.7705,9615.306,-1568.563,-816.7814,-3246.558,6507.97802734375
179,10758.212,9269.534,-18730.256,-4436.3633,2515.3438,6027.615,31857.625
180,22049.525,27921.527,35834.5,427.09146,-7651.419,-10507.428,25513.888671875
181,-6502.488,3844.339,4259.097,1858.3304,5196.7095,3731.4343,15641.88671875
182,4006.4612,-11803.929,-17971.303,-9262.614,7568.7007,15429.036,39101.44140625
183,-6452.136,-13995.251,-8520.142,-6115.536,10023.05,10212.307,27785.4921875
184,-30772.018,-36765.83,-10384.977,4940.865,-4511.573,5212.6577,28099.251953125
185,-20797.352,-16528.365,-3625.0051,-406.75085,-5114.305,9944.987,24808.833984375
186,4158.4067,13593.855,-1262.8202,-6166.121,-3945.0388,-5462.7134,20490.142578125
187,-5389.2773,-474.3157,1775.9749,-1386.5582,2326.8203,-3620.0159,10079.890625
188,95154.03,95431.41,95207.9,36.63616,-63.667397,-1063.721,1864.29370117188
189,12488.684,19229.164,-4061.1902,462.653,5042.572,-4929.452,24097.919921875
190,28601.61,40930.688,38907.27,-7768.037,1578.266,16096.963,33120.83984375
191,4905.6245,2686.4192,20434.348,1469.4498,13479.196,13237.069,36847.41015625
192,-42708.902,-41988.82,-27308.988,-512.60425,-612.9108,1138.0773,15244.2646484375
193,18684.72,9663.523,29608.484,10420.744,4855.606,-395.99216,26386.2265625
194,19359.184,10922.453,-12852.084,859.2636,-3722.1528,-4014.893,30481.515625
195,-27983.246,-35869.03,-42240.496,14470.001,4632.1655,-7618.6553,31932.28125
196,9037.09,18349.014,7718.384,-1887.3676,15649.419,15026.639,39032.41796875
197,-46461.49,-47542.348,-32706.596,-1035.8148,-6043.9614,-2845.4666,18502.15234375
198,29773.738,22666.584,36511.87,-2291.0847,-12442.385,-658.2915,25005.78125
199,-12371.147,-19779.172,-12700.858,2215.8855,11124.239,2622.1238,21427.7421875
200,-6357.735,-954.085,-3155.1074,-1393.7339,3139.3418,-1669.95,8118.525390625
201,-30512.682,-31398.93,-14239.815,-1392.387,-9223.175,-319.4144,23266.640625
202,-16825.152,-16981.992,-1737.8934,-55.76758,-6302.2725,-1428.0057,18849.37890625
203,-32808.64,-34653.395,-19861.906,-217.31593,-7694.962,1234.9528,19423.154296875
204,-34182.62,-33753.887,-19946.488,-889.1137,-5222.1597,1398.6293,16935.189453125
205,-33583.727,-31362.34,-19483.965,-746.17163,-7129.503,645.6831,18106.001953125
206,-30755.701,-32965.02,-21228.168,-379.36667,-4302.109,1162.4801,13293.404296875
207,-38919.51,-36467.16,-24906.115,-910.9093,-7526.181,1720.143,18690.095703125
208,-10736.289,-15050.946,-2930.5981,-97.103065,-7145.2666,1228.5457,16460.3984375
209,-48499.812,-48926.676,-39071.652,-1037.5408,-6367.806,3377.3726,15880.5927734375
210,-40863.45,-38425.793,-29677.352,1117.5286,-6150.1196,1677.8429,15148.1708984375
211,-44221.105,-40614.098,-34981.574,130.52756,-3286.6821,-588.02124,9927.1162109375
212,-38806.195,-38679.824,-30920.596,-973.6312,-7450.7036,5684.1216,18097.310546875
213,-38486.53,-35445.855,-43759.523,824.89185,-797.2599,-2907.9387,9077.453125
214,-4701.442,-14046.246,-14095.413,-3384.768,-5301.285,8881.016,21049.59375
215,-8196.077,-3813.8374,-18803.94,-1216.9435,-3367.9548,6370.929,18397.15625
216,-9420.513,-4650.931,-12987.322,2212.3813,-565.5842,4721.703,11619.3896484375
217,-16876.895,-4726.7007,-21269.682,-1801.1088,-75.23398,9033.986,21791.849609375
218,-15248.201,-10344.756,-21094.002,5345.166,-6811.909,6262.376,20723.236328125
219,-522.7862,711.3969,-9702.075,-355.1643,-2868.4087,1327.4205,11289.7890625
220,-701.1268,6215.0522,-7248.985,-5592.889,840.08966,2756.1113,15960.609375
221,-6853.639,-7218.1235,-8572.135,-25.874212,-587.85944,2028.9733,3981.03662109375
222,-1391.6035,7721.7573,-2820.9004,-2326.09,-669.4405,1174.0984,10946.87109375
223,1905.2734,696.6888,-2980.5396,-6044.1406,2990.051,-2259.3147,13082.681640625
224,-2100.6953,13685.756,1230.6547,-4651.6504,5164.8633,7734.6045,23068.009765625
225,6642.4795,7995.382,3884.797,-15.187068,1550.2535,812.36066,4728.25244140625
226,-12475.866,496.8076,-7328.9116,-2593.5613,-2145.1863,-5849.8594,16268.35546875
227,-10462.968,-8691.097,-1927.7559,-1874.5024,1025.656,-1163.5762,8867.0732421875
228,-10624.778,-5034.8516,1981.1895,-3690.585,-350.6835,10200.633,21750.40625
229,1408.4492,-3478.3662,-12562.772,-895.1723,669.7338,-2992.7476,13469.2412109375
230,8950.444,16139.469,-8672.322,-1800.4418,-1815.2056,5474.9175,24463.611328125
231,-7589.091,-5099.4307,555.6507,2115.2285,1127.7155,5512.668,12675.326171875
232,-34968.58,-37805.984,-5463.652,925.8992,10613.304,-2596.4927,36373.51953125
233,-6473.385,-17217.176,-4452.574,1584.5272,11241.354,2343.2312,23330.931640625
234,-21734.303,-7645.037,-14900.788,1617.1234,2062.152,2878.6584,13942.3037109375
235,-17986.96,-15552.059,-9049.9,4037.5469,4887.609,10496.15,22696.2109375
236,-1743.6619,-8577.864,8819.637,-1411.0319,-13576.1045,-5800.35,29838.203125
237,-12999.21,-4733.207,-18879.547,-12283.43,-1143.233,3226.0461,25284.44140625
238,14700.814,18581.254,-2220.0415,-4416.572,-1509.7998,-1300.604,20915.6640625
239,-4021.4675,-9265.464,20273.06,-3433.745,16321.178,2093.4314,39909.72265625
240,-44782.465,-45676.36,-79844.23,2494.4185,2260.0686,4590.5654,35999.92578125
241,-11222.702,-20255.422,-27191.676,328.15134,-5771.5312,-1244.9331,17241.20703125
242,-7093.4087,-4047.237,-24663.363,3525.0486,14790.04,9474.131,36528.0
243,5431.546,-11630.21,-14226.13,-10.999981,890.89984,-1554.962,18755.4921875
244,23501.002,27462.947,10451.329,-8262.385,-4666.859,-8810.488,27215.931640625
245,-3195.8215,-19639.648,-11507.486,-8941.825,5141.27,13310.806,32457.7734375
246,-28165.432,-23038.684,-17462.758,-9461.693,9789.268,8255.575,29094.41015625
247,-5524.5566,-11906.332,7702.2114,-12373.648,-3865.6558,1173.8651,28431.84765625
248,-14481.902,-10407.664,-11786.395,-1255.8376,-10644.439,-9379.146,24928.53515625
249,-8541.308,-12326.667,-42489.688,457.8869,8147.2427,9510.085,38851.015625
250,-7575.58,2203.3562,-18715.652,-5928.9844,-9815.87,-3420.0146,27536.681640625
251,-43886.125,-30607.703,-68431.086,5048.4756,2431.1926,-2461.1433,34886.31640625
252,-130481.7,-128172.85,-159026.9,3660.0364,10450.593,-587.592,35425.046875
253,-34818.484,-39906.984,-74518.3,515.28326,1395.9052,4188.154,38199.73046875
254,586169.0,584254.1,599991.8,-6808.535,-3781.2217,3201.9324,20830.849609375
255,101853.32,102024.81,102177.27,206.31718,-569.4538,-1070.7802,2149.19604492188
256,-1098434.6,-1119432.5,-1101682.4,-800.48114,1151.8693,3648.3286,20714.642578125
257,1247185.5,1259549.2,1281301.9,-1639.1381,-5793.4688,4596.0176,32666.59375
258,-27108.344,-26203.984,8834.541,-7534.5503,-2023.611,1151.4812,38036.4921875
259,-76554.336,-80361.305,-105861.43,-4681.6035,-5205.39,-14085.731,38782.6171875
260,-29056.248,-24091.32,-64321.645,823.35626,-1194.7574,-3556.5896,38570.1015625
261,-9688.308,-2364.7773,-28326.182,6891.0596,237.49936,10676.576,31970.24609375
262,29722.504,25373.672,61042.094,-9636.528,2528.6636,-4100.623,38525.9453125
263,3245.3726,2019.505,-13252.743,-4923.273,-9799.259,1765.1254,24972.091796875
264,-10789.532,-30463.752,-48428.234,-4168.9097,9022.137,6469.253,38537.31640625
265,-16775.514,-16399.398,-39120.453,13386.193,5855.5195,10345.755,38332.46484375
266,-48612.902,-46388.887,-82084.76,3361.2727,-3513.7517,-3876.3076,36273.46484375
267,3683.677,22320.355,25840.133,1414.7535,2345.7253,-10440.752,27836.15234375
268,3018.227,5902.725,-18271.549,-6854.0625,-7662.707,-10819.991,34515.03515625
269,-23677.148,-16404.81,-40141.793,549.2094,6309.311,3335.2383,24441.8984375
270,3118.631,4538.2393,-16876.33,-13022.551,-11750.137,-6721.1016,38583.36328125
271,-412.58295,10814.087,-1920.4376,551.7021,8805.747,5764.5913,21873.9140625
272,4320.415,-9454.996,6415.9033,-947.57227,-16609.408,-11934.49,38478.91015625
273,-22858.152,-7470.2314,-9670.953,13624.641,11738.289,-1233.115,34388.70703125
274,-22196.006,-23740.254,-9572.975,14367.842,1719.7726,-13991.748,37372.4921875
275,-31877.25,-32868.297,-18140.184,-545.5724,-5846.0596,1060.5132,17609.642578125
276,-18776.395,-2366.7012,-14072.662,5310.2554,-3558.9766,-8833.026,23893.0703125
277,-50469.36,-45827.766,-81224.2,151.32349,-3151.6128,-5995.6987,35325.1796875
278,-8524.679,-5734.0947,10844.615,5149.433,-2020.9407,-4084.9736,21697.208984375
279,-5480.656,-1878.5017,-10496.213,4208.2656,-9049.093,-2608.9624,19375.369140625
280,4481.7773,-2091.7886,-1681.6324,-3475.688,-3867.3035,-7187.247,16636.185546875
281,-66539.164,-68290.3,-103142.87,-2239.0693,3719.0369,4579.9243,37393.32421875
282,-2952.346,7452.8228,-3868.3772,-2280.3896,-2199.9805,-940.1608,12304.880859375
283,-2887.271,-6204.2095,-3478.897,-4803.743,-3167.8157,-1526.5195,10757.021484375
284,9036.021,-2779.3035,2649.725,6917.069,-346.5365,-812.7362,15836.98046875
285,-16644.496,-21592.637,-28963.617,11854.12,2062.9478,-15091.516,35112.35546875
286,-43637.586,-42888.414,-32506.291,494.50644,-6424.7217,2363.7046,16045.3662109375
287,-12904.823,-13275.834,-21319.771,7449.085,3043.6743,3324.8735,17182.833984375
288,-13094.208,-10610.867,2962.9033,671.80347,5381.8784,71.28814,17674.43359375
289,-1519.6953,-24172.322,-15213.055,-386.80304,17151.582,5256.357,36828.33203125
290,-9033.695,-22153.36,-1273.373,-4138.557,3450.8657,-1296.0916,20647.25
291,-30572.383,-30925.338,-14336.264,-1990.3645,-7274.664,-1362.59,21111.220703125
292,6359.821,-3854.9456,4366.0513,-9946.481,2103.145,4549.5903,21450.271484375
293,-5380.83,1843.1733,-8408.289,-9155.908,9892.72,-551.79095,25084.361328125
294,-63369.684,-85971.414,-90546.67,1893.878,15322.643,-7179.5757,38793.41796875
295,-80560.13,-80492.22,-111630.78,286.10568,2647.8247,1926.2728,31621.353515625
296,-811.5884,2367.9734,-12835.411,-9291.61,4399.438,-4325.7534,23793.193359375
297,-13474.685,-11655.21,-18622.17,-2716.946,-3365.0474,2256.9612,10515.248046875
298,-23627.924,-18197.512,-32022.281,1422.5787,-6977.1196,308.08267,17260.822265625
299,3712.3428,10531.383,4191.6416,-5279.689,-881.9314,-971.7558,11500.103515625
300,4814.543,6375.1084,5348.3193,301.92004,2917.947,-1925.0734,6230.7080078125
301,3351.5295,31952.648,18885.928,-4101.132,14728.15,6945.765,38222.828125
302,-10289.414,-16801.54,-29611.201,-5659.666,-5679.6016,4344.368,23225.05078125
303,-25326.447,-13104.833,-17512.205,4056.7546,1632.5532,12545.449,25386.21484375
304,16257.295,22671.588,22232.54,3640.3096,6470.2153,1513.398,14516.7998046875
305,5360.0317,5343.3423,4683.4575,2937.288,-12915.323,3439.8137,23711.671875
306,2438404.2,2432384.2,2432780.0,2268.8943,8042.456,-0.2934746,15604.5361328125
307,-256.8745,7277.1313,-15964.088,-30.819414,1772.6858,3828.4192,21799.4609375
308,43643.555,59514.14,79765.88,1838.6161,9312.585,-10070.303,39471.0390625
309,105531.57,102007.87,98848.11,1047.2627,20303.059,985.83154,35726.50390625
310,-52668.836,-63392.64,-77883.64,-5633.671,2030.5548,-8978.593,28806.548828125
311,-1794145.5,-1794923.8,-1795600.9,1539.256,-1651.4576,-11901.457,21019.396484375
312,-26872.309,-23660.701,-3499.975,5620.5483,-7814.8013,-8618.9,31342.60546875
313,18399.227,7700.803,16811.56,-2909.024,5832.7695,545.33386,15110.7392578125
314,-1284.4417,-3068.663,20741.979,4892.457,-8855.895,7504.5938,31681.10546875
315,22189.008,-4676.3013,10648.756,8113.772,-6994.661,3773.3625,30526.71484375
316,-3267.6414,-11924.253,-5940.1025,1157.7826,-3399.0942,2492.1318,10782.3740234375
317,8810.643,4529.1113,30674.62,-2026.9825,4777.524,-3493.9084,26596.966796875
318,-28110.13,-27519.354,-11999.816,-650.4632,-5977.6587,-12.754996,18943.08984375
319,-17006.145,-18922.742,-7318.496,-1711.0828,-12088.532,4395.463,24924.541015625
320,-46082.03,-42859.492,-34674.633,574.3545,-6246.881,4147.785,16535.576171875
321,-49612.06,-50208.008,-40783.164,-836.15826,-6691.9517,5000.247,17176.078125
322,-47723.863,-54681.703,-32477.086,-2606.0583,-6382.464,13261.358,32513.587890625
323,-13450.146,-5723.0205,-8163.4297,-9497.082,-7026.2817,13789.307,32185.884765625
324,-9548.136,4657.264,-10158.743,2463.1174,-1851.7893,7812.441,20553.126953125
325,-15715.605,-9285.814,-22620.225,2576.866,-471.0526,8057.7915,18675.697265625
326,-6557.666,-11251.671,-2907.205,5838.53,1617.0468,4109.2144,14603.4775390625
327,17929.816,19053.83,36432.82,-10346.754,-13746.256,-4025.3079,35489.1640625
328,-5526.9404,-11217.883,-9249.331,-3240.7178,639.615,-6922.64,14197.25390625
329,-9053.516,-18026.422,-12736.022,-2834.7732,5607.841,8799.075,20291.716796875
330,-27251.625,-14306.172,-12519.559,-10548.735,9928.061,-7313.5493,31367.11328125
331,-73970.94,-75450.67,-106449.83,-1158.9899,4622.188,5300.9165,34079.76953125
332,-10875.34,-13786.85,-16124.484,4179.8306,-5629.6016,5021.9185,15617.19140625
333,58303.64,53095.832,93037.47,-5547.7886,-1026.5325,-1501.199,38944.87109375
334,-2065.07,-12611.234,17214.787,-15486.361,-4439.26,-1349.9254,38344.921875
335,-733391.6,-741817.25,-773189.7,1130.2643,-4041.8093,-5033.502,38057.890625
336,79974.375,75186.22,115878.195,-1073.3722,-915.3481,223.73137,38601.0859375
337,10131.18,10079.314,-6295.9277,4603.3774,2552.778,808.0446,18817.083984375
338,-21116.113,-1061.8473,-15280.844,-4552.294,-3378.6125,13625.959,31186.814453125
339,9472.6045,3380.4214,1706.1118,-4374.1543,-4910.9385,-1659.5306,13716.12109375
340,9083.84,7287.299,5099.6074,1582.8882,-1403.9329,-5278.38,10438.265625
341,-17602.5,-8264.51,-10068.29,7001.2676,-922.4442,13248.627,27382.3359375
342,7583.003,7514.148,13759.295,-3633.0217,3735.1682,-326.9855,10970.3388671875
343,6951.9453,20893.85,23415.602,-1598.6204,-1751.5436,-5660.094,18678.181640625
344,-38993.555,-38849.016,-25897.195,928.8996,-8227.623,2395.4246,19812.28515625
345,-13509.1455,-26621.576,-41070.793,538.3967,-3027.0713,641.5343,24490.28125
346,-84881.51,-79565.64,-117856.27,-1761.5382,1323.6744,-2965.669,36494.30078125
347,-1644.3193,-3830.2324,-20643.775,-2155.0852,-9638.494,-4260.1045,25909.587890625
348,-7528.8027,-21055.535,-4891.4844,2680.9175,-8390.3125,-3618.0793,22307.5703125
349,-3875.6619,17867.07,20034.236,1015.01074,12203.497,7972.2563,34133.5703125
350,-23332.225,-21645.854,-23705.887,-1443.672,-5919.7324,4040.048,12804.7578125
351,5824.8706,653.9741,7818.586,-2148.4717,5999.613,-6991.4106,17592.48828125
352,3003.8696,-5228.1797,-2211.884,-1143.1273,-2115.7476,918.216,8480.16015625
353,-11988.602,-12415.088,-21296.68,-76.179,-7234.826,-1719.4579,15772.3681640625
354,-12780.179,-11168.866,-15798.736,-1997.9187,-958.6503,-1828.4363,6429.11083984375
355,6368.765,-16425.693,4686.5347,8369.646,9196.069,-4745.286,31866.61328125
356,29413.172,12879.034,22349.664,-5834.991,2411.1956,-5558.0605,20463.16015625
357,-10919.213,-19359.094,-26745.656,8207.926,2500.3696,-1.014637,20223.755859375
358,-11962.304,-6296.5776,14300.216,2878.3193,-6372.275,-2854.1565,27278.830078125
359,-73039.85,-67243.95,-91368.055,4604.058,-8850.082,-12486.588,35242.765625
360,-11261.679,-10335.638,3888.0317,-4080.7024,1237.1558,-662.10156,16498.642578125
361,-3315.119,3287.3696,2441.7053,1633.9756,428.95798,180.04713,6883.56103515625
362,-158364.97,-158284.45,-195308.94,54.291862,284.21542,-2035.8131,37155.38671875
363,3946.7515,17186.809,-1833.8105,-416.8351,138.92807,-95.92729,16907.26953125
364,166643.61,162565.42,157504.56,2574.9895,11273.076,944.7543,21603.22265625
365,-7262.57,-6009.5283,-2868.4583,-365.7208,1670.0839,1419.3412,5494.0615234375
366,-12114.185,-9186.897,-11295.797,-1251.7357,-27.817566,-643.62524,3576.13208007813
367,-39936.133,-40120.082,-18975.41,2.611566,-8906.236,3949.9229,26981.666015625
368,-30724.906,-31116.559,-13622.216,-371.30963,-8386.751,-973.06195,22663.19921875
369,-50733.902,-53361.26,-47144.42,-396.87808,-6657.8833,-4507.1284,14953.783203125
370,-58370.81,-61090.082,-61595.83,-1287.7355,2041.8933,2820.2253,7097.13134765625
371,-54538.188,-55459.7,-57151.33,-290.06708,-8122.56,-3903.3716,15784.76953125
372,-9842.335,-1971.2668,7701.9316,2730.2583,1106.7095,1493.3064,16260.0771484375
373,23750.012,15645.296,1615.3184,393.06107,275.60855,-5.7118764,19414.611328125
374,-11618.802,258.07764,-2400.0051,6765.101,-1625.2267,324.87457,16189.3916015625
375,3956.7615,-3763.4746,2282.8877,-6026.029,571.2659,-659.22626,12676.8701171875
376,-44439.254,-42923.863,-65511.473,403.19702,1309.8534,-1637.5206,22179.87109375
377,-52807.758,-49559.625,-80748.32,-1616.6238,-2848.6455,-6243.2993,32110.763671875
378,-22449.484,-19331.455,-17002.656,875.0358,-3901.8896,-1170.1885,8630.5263671875
379,-8567.478,-3069.5217,-4184.205,3184.7031,-235.02568,-115.77101,7481.609375
380,-207344.73,-207070.23,-242490.98,347.6825,6488.434,-2912.655,37377.73046875
381,-85251.11,-85245.01,-117690.82,21.641178,3892.9888,2162.4717,33347.1015625
382,-20753.012,-26146.129,-43382.145,-566.23914,2420.9883,2808.145,21478.4609375
383,-736.17334,-8535.78,-2181.6763,720.79456,1115.0355,1142.451,7800.84130859375
384,-14715.082,-22666.285,-36463.69,431.9242,4533.9067,773.8486,20671.748046875
385,-2280.5515,-3617.9924,7069.403,2138.7358,540.6204,-676.55786,10848.4091796875
386,-11153.463,-2435.533,1345.1711,3009.873,577.1661,384.8822,12323.8671875
387,-2466.5347,-7032.7417,-6015.0913,2206.2727,1767.2932,832.3777,6579.55224609375
388,-10574.431,-8974.195,-1290.6587,2341.484,-523.65906,540.3525,9593.7060546875
389,-8654.319,-6685.19,127.76123,371.96088,-25.268475,3647.4705,10199.9248046875
390,-9164.52,-9526.72,-3534.2063,-473.5505,-3704.5754,954.67883,8857.1748046875
391,-13576.451,-14153.492,863.4209,144.24924,1504.1428,-934.0541,15054.6474609375
392,2345.5146,-1778.655,943.7303,-3713.2117,-241.39276,-150.32051,7402.63427734375
393,-35376.918,-36216.492,-17373.473,-199.14302,-7759.5425,730.0073,22853.73828125
394,-35718.55,-35314.598,-12710.458,-196.85893,-9915.826,710.23267,28580.44140625
395,-40120.24,-41084.45,-27654.11,-925.6928,-8149.5513,-2680.253,19791.95703125
396,-4974.0825,-2611.8018,478.26196,-2108.7192,-418.9307,-851.49835,6202.43603515625
397,-3025.3909,-5400.5728,-7528.991,-2029.5559,718.64154,1414.1752,5927.33837890625
398,1126.9052,2478.9014,4914.3906,-1983.8246,-832.37335,-1177.8403,5394.38720703125
399,-110543.305,-110512.71,-133716.83,-347.21518,11070.664,-1392.6836,30192.404296875
400,-94557.46,-95591.64,-130850.55,4.8468475,4499.0264,1146.4576,36679.5703125
401,-54296.703,-54363.254,-85865.22,-761.2182,4988.787,1149.8589,32784.80859375
402,-94063.92,-93788.516,-129561.234,-1499.9916,583.83777,-4389.731,36544.3984375
403,-12312.016,-9079.976,-8219.64,-2458.2065,346.57593,-1862.626,6547.03857421875
404,-75956.086,-72458.516,-107618.48,-1637.2825,-906.0905,-5917.5864,35228.39453125
405,-4375.7773,-9700.386,717.7129,-1191.5847,1931.775,-1701.3711,10273.9873046875
406,-8294.178,-14637.605,-16132.986,601.86993,899.94366,1753.4067,8043.68212890625
407,-1942.3795,-4167.8745,9131.419,-4840.3994,-940.60596,-847.8241,15077.3193359375
408,-42076.59,-41368.312,-25936.66,63.9271,-8052.499,3141.7097,21765.0859375
409,-35441.73,-34405.973,-6356.879,-186.66747,-6815.8813,3397.8364,31479.923828125
410,-22381.219,-22434.281,-9181.619,110.47442,-306.5118,762.6251,13303.98046875
411,-11327.013,-9397.279,-9248.091,-131.29022,-2551.185,-783.41895,5045.05712890625
412,9609.603,5894.359,13005.025,1416.6018,-4.4434085,57.476337,6631.51611328125
413,-157067.86,-157424.53,-192109.2,374.5628,7124.2935,-2443.453,37230.6796875
414,-41943.4,-44783.55,-72026.19,133.65134,4361.788,1994.311,29944.314453125
415,-75795.59,-75369.05,-88867.77,-977.1719,17053.777,10470.863,37160.66796875
416,-53617.742,-54666.73,-66484.27,-930.29706,-5386.7056,-1667.8853,15847.486328125
417,-81032.99,-79706.7,-101719.44,1050.6194,-2242.9407,-7754.743,25611.25
418,-254.66113,-8092.6465,-1712.5458,1471.7837,-800.5057,1223.2728,8064.90087890625
419,-1185.519,-7053.7197,1349.678,840.44855,276.3974,-295.0448,7638.68115234375
420,216.39891,2021.844,-13889.686,507.3242,16762.385,9865.426,36924.16015625
421,-4208.3267,-6023.207,4102.7075,2064.7134,2285.6062,-204.65852,10772.0654296875
422,-10282.988,-7208.7144,8461.381,-1341.5349,-591.0788,1008.3931,17682.619140625
423,-149987.56,-150330.9,-155747.42,2143.7349,8704.969,1076.0267,16610.41796875
424,-16372.947,-12338.188,-5174.9746,852.69293,2768.5896,-2171.6677,11654.0849609375
425,-50818.438,-49932.027,-70123.12,-350.7925,-7948.869,-13500.231,33574.6875
426,-21526.09,-22678.26,-32966.902,-2681.0425,1556.9688,-4164.8135,14139.0009765625
427,-2106.7698,-1561.5952,-1013.7574,-1612.3488,-666.7373,193.68472,3184.5205078125
428,-9116.837,-9001.266,-3191.4072,-1813.8408,-1083.393,1005.61163,7131.92138671875
429,-7130.999,-9680.178,1551.8896,-850.369,-1387.2566,-1117.2625,10756.986328125
430,-3406.2031,-3859.6318,-1701.5862,984.6402,-957.58453,459.85214,3190.31103515625
431,-3811.4697,-1915.1943,5096.7593,-1740.0231,-1239.7661,-1319.8134,9218.447265625
432,-41423.695,-41864.13,-59428.113,-370.22614,-6543.8765,-13303.686,31245.25
433,-6407.8105,-9623.693,2680.694,-1945.5939,172.07626,1113.606,11719.0263671875
434,-43348.145,-44265.71,-30829.436,-865.79626,-9142.804,-1408.5159,20688.640625
435,-5712.2534,-10886.569,6963.109,-329.89355,447.37274,-925.77905,16016.330078125
436,-52279.88,-55083.492,-87764.52,-273.12003,3499.5583,223.40591,34708.05859375
437,-11936.055,-15752.362,-11911.053,992.3267,2568.386,1203.1439,6461.181640625
438,-43025.95,-43593.586,-19540.336,-6.263323,-9288.007,2189.94,28955.419921875
439,-127788.35,-126935.3,-149156.27,-321.17545,14001.782,-2898.9282,33003.2421875
440,-41787.598,-41548.754,-62736.062,890.9935,-4272.6504,-2383.7966,22761.685546875
441,-65337.36,-66606.22,-99445.02,276.97845,4629.87,2374.2908,34685.93359375
442,20672.527,10653.095,1228.546,4366.2974,79.92851,566.0929,18488.2109375
443,1536.5123,-3808.5583,1499.7755,2074.382,-1755.0604,73.263756,7109.203125
444,6393.3994,1648.3137,18368.734,-3406.5034,-500.187,1245.1125,16216.126953125
445,-4688.8516,-7801.9014,-560.54834,2513.0356,-1737.8163,1388.085,8565.7451171875
446,-8621.796,-13118.038,899.682,4059.1426,-1227.8959,-813.6392,14478.4228515625
447,7375.1084,-2818.3757,2382.1816,-5163.6895,-140.25256,304.2141,12580.494140625
448,-51931.855,-55315.438,-84354.96,916.2295,-153.55638,-1239.5874,30987.080078125
449,107.72222,-6342.7905,-2536.6372,-6887.74,1257.9022,-446.33606,13387.0
450,-8765.864,-4634.862,266.9819,141.8007,935.6754,1223.2439,8277.5927734375
451,-806.86444,-1254.9358,11770.558,-550.7784,-1657.036,1142.2822,13307.505859375
452,-9872.361,-10387.134,-14422.646,-2118.5806,1052.4479,866.4622,6137.43310546875
453,-7898.5415,-2567.9124,5255.155,301.05014,419.63248,-101.91573,11495.615234375
454,-12584.09,-11078.106,3870.3657,3766.6387,1175.5542,-1231.0598,17305.8359375
455,-6600.8833,-4083.2786,1433.1543,951.5829,862.733,-315.78452,7477.04296875
456,-13568.646,-20275.008,-28317.178,-2543.1501,2974.0376,3179.1292,15486.884765625
457,-2955.556,-3801.8442,-6838.5254,1815.2716,-1533.2592,137.22563,5431.60400390625
458,-9003.056,-9357.469,-4901.608,-2720.6814,-234.12152,-384.21933,6419.86962890625
459,-46859.547,-41744.71,-71876.695,1905.4863,-145.05766,-970.70667,28173.75390625
460,-20045.258,-19540.12,-26399.94,-1315.264,-6127.497,-956.38354,12822.619140625
461,-20028.398,-18830.293,-2280.937,3222.481,-46.04531,1175.3712,18178.2421875
462,-17766.951,-17239.03,-7055.264,-480.26413,1074.1516,-4.1701307,10654.4560546875
463,-13932.457,-9217.453,-13567.847,476.31433,-3712.5615,1527.7639,8347.2880859375
464,-65681.98,-66767.23,-36547.613,555.34534,-4613.2495,895.0033,30802.296875
465,-9094.187,-8482.357,-6001.692,1231.1143,436.51068,1732.5599,4708.462890625
466,-9508.669,-6489.035,2966.3574,1735.9543,-844.87396,1557.7013,12063.822265625
467,-11693.898,-7417.4736,-3566.432,856.29297,1679.1561,1452.4413,8159.30078125
468,-11336.4795,-7735.745,1594.997,-1414.2771,1713.7551,-1022.007,12311.396484375
469,-11061.535,-6417.714,2616.881,-3680.9724,517.6733,527.1437,13690.5185546875
470,-23007.066,-25003.387,-24156.436,2832.1025,-220.64897,275.09433,5239.02099609375
471,-12155.333,-11424.872,13.398747,1949.7458,-1821.6255,1242.9276,12873.1083984375
472,-5169.443,-4641.8716,3791.615,45.51334,310.1238,-319.48117,8743.6982421875
473,-24857.523,-30277.502,-38675.71,-2742.0173,3671.2715,2920.651,15297.2373046875
474,-11289.504,-9279.239,-8532.074,-1866.0255,1169.2919,-61.41426,4545.3955078125
475,3016.509,-6475.4814,-13644.376,-3678.742,1305.9221,640.56555,16015.1396484375
476,-36069.617,-40836.87,-64254.84,2873.9565,533.1539,-2462.2195,26955.26953125
477,-11300.45,-14031.252,-4374.5415,5069.604,-635.3349,868.97107,12446.59375
478,-44990.32,-48868.98,-77703.27,357.7188,4227.6064,-1316.1399,31898.234375
479,-4732.9785,-5416.4697,4456.9727,446.0734,857.75354,562.533,9744.59375
480,-4709.4727,-9399.657,-5211.4663,-3992.3794,-425.71713,-129.97456,8264.8076171875
481,12167.699,13453.77,2432.1213,-400.59454,292.1469,-201.41592,10479.2783203125
482,-4753.9316,-11905.342,1103.6696,-733.8057,-290.6977,-71.94044,11367.880859375
483,2282.5444,-12576.837,-3826.9397,1831.4464,-104.540054,-1150.795,13468.9345703125
484,-13933.187,-9597.831,-1087.2706,-3796.549,-2278.2947,-1154.4124,13817.8330078125
485,-7757.149,8282.906,1236.8479,-1284.0917,103.53196,-560.20306,14136.1748046875
486,-9279.776,-15442.821,-10807.536,-1869.1523,536.9111,132.02844,6503.83154296875
487,-10629.538,4773.4277,-159.40964,1580.799,-1505.6857,-1289.5857,14314.015625
488,-8734.083,-9551.597,-315.16837,-2202.4883,557.50385,354.96414,9710.4228515625
489,-8954.303,-9260.854,1656.9941,-4678.229,2999.5005,-1645.12,14721.2177734375
490,-5030.795,-9252.012,2409.5957,-1185.561,-45.941902,522.23883,10470.28125
491,-39936.793,-32441.68,-3991.1375,-412.19034,1184.862,1238.7413,32987.49609375
492,-33431.465,-27805.361,-5745.776,-393.23438,856.5057,874.128,25442.97265625
493,-12153.039,-6792.2686,-7916.07,-1922.8171,-801.6576,-244.8845,6097.2041015625
494,-5501.0405,-19324.816,-395.49496,-2585.1768,-460.5375,-638.1905,17596.841796875
495,-15738.699,-28426.234,-1815.2014,-787.61554,445.92996,-120.39932,23108.29296875
496,-7659.9917,-4738.3843,5707.497,-181.61458,-24.431978,-2110.12,12713.361328125
497,-13014.611,-10.114261,-1096.4348,606.33954,-140.09439,686.2742,12599.39453125
498,-17160.955,-3137.261,550.9379,1246.1594,927.403,465.4961,16427.96484375
499,4671.484,251.00642,-1517.3251,1197.991,667.36,-405.7663,6051.45263671875
500,-36289.406,-35618.016,-12365.089,593.8809,-66.67261,-307.86908,23624.498046875
501,9538.947,7164.5293,10312.934,1394.6868,-319.24017,584.2393,3903.82958984375
502,-14200.1875,-18967.797,-8389.045,-4237.741,1674.2668,1695.9558,12454.6533203125
503,-33710.035,-22949.521,-110.968094,-2470.254,2287.286,-153.78764,30285.55859375
504,-81.514854,-3100.1716,-3396.5303,-2069.5747,550.49854,-1186.7589,5298.91259765625
505,-22309.193,-9747.502,-3716.429,820.6655,116.46896,1182.9078,16618.947265625
506,-6935.436,8327.426,7151.2314,5845.9023,1373.2896,-475.03534,18034.54296875
507,10952.89,17191.977,24900.242,1671.5677,-820.8421,-290.31442,12533.6630859375
508,-154201.92,-153742.8,-188414.19,65.21665,3514.4514,-1472.6644,35070.9375
509,6094.121,5065.625,2222.8345,172.82068,432.39523,152.4875,3575.37646484375
510,-2770.0652,-5485.7153,-9901.861,2156.844,-273.1288,687.9475,7380.33544921875
511,-13505.476,-6300.695,6189.0635,3995.729,1213.5707,-168.98985,18716.046875
512,-2836.5442,4784.4395,191.04694,-1722.1648,697.1807,-290.21072,7401.41064453125
513,-8415.923,-6299.0054,-2822.328,3058.6287,-1129.1426,-459.73346,7513.5244140625
514,-2069.9116,-2507.272,-768.94073,-695.27313,-520.95825,388.8701,2273.95458984375
515,-3789.5544,-4318.8794,-3242.3354,3548.4458,1706.8068,-278.15753,6900.3896484375
516,-44047.03,-39949.465,-60750.785,-4.767577,629.73413,-2338.2947,19540.798828125
517,-20425.729,-25417.139,-13274.087,2054.4062,932.14746,707.26917,11336.93359375
518,-95.56279,-2435.113,-1341.6323,-657.0716,-971.0741,771.68506,3165.6943359375
519,6274.1763,2749.9102,3583.1328,-7542.232,724.36206,-191.14499,13509.9111328125
520,-1575.6658,3798.7112,5381.3286,1701.6685,-846.19196,-392.66968,7154.85205078125
521,-8180.8193,-10665.052,1224.5358,-2829.0522,167.37506,-660.02716,11974.921875
522,-11972.765,-4354.3013,-4768.9043,-954.75964,1295.4397,892.81744,8075.568359375
523,2189.577,-1135.5892,4502.0693,-2106.6802,1076.1365,743.0827,6522.177734375
524,2173.6724,2830.7864,-5043.1533,402.2387,-572.12286,60.746807,7663.8818359375
525,-8936.456,-3895.5479,-7670.8833,3355.168,814.1229,-908.7973,7672.703125
526,-13889.958,-10930.475,5258.906,170.71176,281.67682,-125.813286,17864.482421875
527,-20730.898,-19310.842,-1765.2566,-2464.1902,-11.451339,245.65572,18793.029296875
528,-13353.582,-4655.069,2035.3993,-6147.398,-334.52423,299.67975,17105.5625
529,-12341.581,-7903.1694,5508.346,-93.31228,-945.95496,-505.269,16204.029296875
530,3384.2969,4255.092,16418.014,-2788.0637,-671.68634,210.20668,13568.0615234375
531,-6080.5435,-6128.6187,2408.2886,3819.0332,1319.8832,-956.5633,11144.3720703125
532,-13796.817,-16107.983,-5606.6333,281.09192,452.62967,-299.05502,9616.103515625
533,6491.3623,-11906.204,7435.478,1190.4501,210.64099,-589.6105,19030.470703125
534,5791.341,-12206.163,-3093.8127,-1720.7205,912.4847,-235.45935,15952.81640625
535,-4614.941,-2734.795,-4590.0967,180.16675,-14.295919,891.8514,2443.9814453125
536,343.72913,415.32513,9588.655,3264.6475,-1031.9027,267.70862,10963.353515625
537,-30511.584,-33435.656,-4543.5947,-886.47815,875.84875,374.48578,27638.712890625
538,-27294.45,-23905.365,3305.6877,1117.1459,-472.9093,-285.6993,29134.3046875
539,-6409.649,-7174.252,-3315.0198,-2733.1753,-1324.4321,-539.36755,6408.8505859375
540,214.76036,4086.4739,2393.765,-347.15848,664.9047,-114.02219,3609.51513671875
541,-37659.87,-24869.957,4095.2854,819.8344,736.5146,108.69653,37104.03515625
542,-10316.49,-16474.975,214.83076,3376.1438,-378.89966,-398.67792,15773.2431640625
543,-15934.382,-15626.141,-5889.952,6093.046,249.03201,-217.36803,14477.3232421875
544,-23883.738,-35206.57,4364.0273,-5453.504,-436.48233,285.4009,36551.68359375
545,-20038.31,-6804.8384,1345.044,252.59637,-447.83072,999.2918,18793.228515625
546,-27216.602,-34161.727,2064.0886,-4008.6472,-107.935005,-185.56883,34019.078125
547,-30341.703,-31213.078,98.085365,2002.9631,-755.9294,353.52402,31112.52734375
548,-24550.209,-28603.617,9785.754,1081.2036,911.1965,213.9328,36615.5859375
549,-11832.944,-10314.921,-7689.9604,849.4898,347.7935,-2506.4817,5878.32421875
550,17603.877,3410.756,1748.5132,1325.6998,1664.1785,474.10928,15558.1298828125
551,14714.021,3871.9468,-2196.1487,3133.8667,-1315.413,-440.54343,15981.2275390625
552,-21515.65,-12923.612,-7028.2163,840.90204,-606.9931,-944.4606,12850.4853515625
553,-1461.0986,-7306.7393,-2098.5044,-1643.111,-76.29876,1373.8745,6680.66259765625
554,-28456.15,-34395.664,-5733.682,-607.0625,-640.1764,-102.43938,26247.197265625
555,15049.3545,15425.77,4747.288,-5653.4663,1595.9557,100.80294,14618.7841796875
556,2843.1772,5566.889,5953.944,-2778.097,-934.95795,764.1188,6012.501953125
557,-3164.5676,-2650.3215,-757.19995,-343.50592,608.77954,1057.0922,3104.84252929688
558,7916.9375,7991.8223,547.71423,3428.1658,99.452156,-6.201831,9494.716796875
559,7090.6216,11455.0,2699.834,5238.5146,-797.5445,784.8243,11982.15625
560,-12399.435,-16951.162,2320.6199,1128.8176,-617.1432,-665.6692,17626.529296875
561,-20136.318,-27320.975,-6696.678,-354.354,934.72015,1359.383,18366.927734375
562,46.837955,-9580.915,1142.6442,-7156.523,-1227.333,311.79242,16214.275390625
563,-4170.428,-6277.0396,-2179.5466,-4431.861,-137.12505,-441.81396,8494.7998046875
564,-4096.1367,-7776.18,1588.398,-1171.7577,-1034.3744,837.6173,8729.8134765625
565,2111.1191,1078.2281,-3073.8516,-2567.406,-450.06302,209.18044,6565.7392578125
566,-13057.228,-7813.8926,-2560.774,974.59454,-198.31847,650.7482,9320.3857421875
567,-10762.358,-5751.5156,3299.137,6877.435,-1394.8606,418.69702,17338.8125
568,15858.952,20341.209,-840.5216,1113.514,400.55023,1.8958553,19442.62109375
569,-5297.4883,-5517.4126,-2988.0945,-4088.6555,384.8948,-272.87732,7530.51708984375
570,6113.3564,15336.955,-163.29247,802.59924,-912.65314,316.1714,13678.2880859375
571,-36117.824,-27292.152,-4551.3853,3211.487,-485.19595,-689.01495,28789.041015625
572,14965.097,6742.994,5683.2607,-5256.9204,1306.2317,208.19632,12868.3193359375
573,-3555.1877,-1446.455,3389.2979,-4184.444,2628.1362,-1102.7292,10720.3828125
574,-680.0156,-6807.6357,-6902.704,1517.5757,621.11285,376.27753,6828.65380859375
575,-4459.226,-2877.3245,-4855.6426,-207.95238,1862.8861,280.40176,3750.10571289063
576,-567.993,-11788.562,4675.423,-3370.4556,4147.2183,-649.31067,17296.580078125
577,-10719.655,-9850.618,15069.098,-593.1801,91.564156,1248.2782,25478.59765625
578,-46027.324,-46757.73,-15842.545,-74.19854,-9298.312,4292.034,35332.1171875
579,-39036.32,-40270.125,-4000.8064,-269.79495,131.10938,-77.48072,35672.4609375
