Element Label,S11,S22,S33,S12,S13,S23,Mises
1,17690.273,20104.705,3520.7148,-3663.0066,-210.7542,-59.90982,16769.44140625
2,11606.426,15432.238,-5023.7734,-5247.767,-2176.4822,-1185.7263,21351.126953125
3,11467.555,19032.002,10811.891,-5796.264,1883.3103,-3451.691,14483.9091796875
4,9755.285,16648.03,-2780.5493,-3199.956,-2879.7505,7712.5435,22915.30859375
5,11873.82,13267.23,18754.15,2103.6099,4934.929,-4717.7666,13885.296875
6,20227.617,14860.234,-2344.4746,954.98505,2012.8698,-3220.523,21521.18359375
7,16720.057,14000.451,1571.375,-3346.0808,2978.418,3810.221,17304.203125
8,7185.173,13142.297,-7299.6787,-8078.2266,-2954.9792,-809.2425,23569.46875
9,15229.837,11689.767,-4681.2964,-4140.279,7457.864,-3409.0332,24323.814453125
10,13545.383,16804.504,-7395.3506,-2591.439,-4337.894,995.11975,24432.642578125
11,-1931.4021,9774.772,1683.5713,323.823,228.27052,-1279.8921,10638.1533203125
12,12372.358,11654.071,1844.3511,1139.1495,-1397.9148,26.14745,10655.9970703125
13,9586.804,14662.279,8703.553,-7052.1465,-1433.6584,-1738.4579,13980.509765625
14,12905.073,14253.336,801.77637,-260.86487,-3102.8203,3491.7227,15175.27734375
15,17740.836,10735.254,15925.633,1251.0114,-593.3579,722.2506,6853.6728515625
16,26025.12,20893.416,11774.998,-1060.6421,-5312.7246,10489.93,23967.453125
17,30754.03,32363.621,31682.758,794.5415,206.08871,-86.76338,2000.58447265625
18,15585.485,9625.498,-2488.1875,-3650.4956,10352.734,-14463.822,35264.46484375
19,-15273.725,-8965.343,-8843.078,1993.3698,5090.7344,-964.2322,11534.2294921875
20,44887.83,36444.67,51407.715,915.6172,-1812.5703,-13158.217,26469.4453125
21,13298.886,3599.2148,12038.48,2880.521,-4414.773,2300.3228,13516.06640625
22,7839.813,11656.845,9112.744,-5418.774,-9567.444,-2004.7926,19649.07421875
23,-55392.24,-50079.203,-41931.348,-1129.2325,-8169.553,-6675.605,21809.3359375
24,5596.5728,15036.814,13899.266,3132.321,-8436.882,4095.7092,19312.564453125
25,25325.365,10198.528,-3961.0027,-5843.5767,-1723.9784,11047.264,33481.14453125
26,36519.57,48120.824,54848.418,-3637.5696,-15982.246,-5535.9463,33997.5078125
27,28139.227,35850.414,38250.246,-1633.758,-19525.916,-193.10678,35151.5390625
28,18719.43,20792.25,26570.834,2124.5388,-16336.765,11114.758,35135.3203125
29,9563.098,-11569.874,-33444.27,-2246.0713,-1763.1584,-831.18066,37601.80859375
30,2848.8262,3944.1475,-29033.777,81.47764,-204.35541,4004.365,33179.390625
31,360.5186,1475.1985,8807.3955,-4170.0615,-16056.789,-9988.609,34469.1640625
32,11274.456,3970.5283,-6359.5205,1846.903,13210.532,-15992.862,39199.61328125
33,13788.713,22979.62,29492.96,2066.678,-14988.027,2860.1157,29967.265625
34,33197.38,42660.84,52676.1,1085.8329,-13702.12,2572.051,29517.271484375
35,34354.527,42372.027,54065.88,3188.3384,-13274.552,8360.795,32613.314453125
36,9441.539,-13549.092,-8280.511,-6132.575,-2016.1602,12.565433,23668.958984375
37,13761.448,8877.38,-20682.646,3391.3416,9181.835,2682.8352,36756.45703125
38,32724.246,36062.75,44582.395,-193.51648,-12917.108,-6294.136,27049.74609375
39,15271.588,14402.895,-10832.194,10152.208,879.75336,2229.3413,31399.357421875
40,24142.107,36449.137,45068.07,234.40135,-12990.426,10789.744,34460.0703125
41,9677.192,10543.123,4152.1787,-5479.6235,683.17334,978.7843,11419.8486328125
42,12894.926,7264.316,-9784.976,-1303.9224,2020.4655,-10222.9795,27372.53125
43,-5486.108,-14544.527,-12629.411,-1656.8922,-13055.2705,-6304.9277,26592.9921875
44,12912.213,-7140.1685,-29522.375,188.74376,-2896.9175,5494.8154,38311.09375
45,15496.169,12822.512,15839.96,486.31354,-14140.698,5422.8843,26400.689453125
46,47923.766,52373.207,59719.305,2895.9421,-16542.08,-3395.5967,31418.4609375
47,-14495.499,-13932.201,-13061.863,595.9354,260.84583,624.32715,2000.98571777344
48,-15347.243,-13688.413,-15942.825,6846.231,6353.905,-2359.6426,16808.54296875
49,-11731.423,-4301.9414,-3118.059,-468.14157,-1787.9736,-5759.208,13234.34375
50,-203.52496,-592.06085,12124.361,-2862.612,-9592.421,-12135.135,29988.818359375
51,25742.031,21194.646,32272.92,418.5533,8722.971,-16312.347,33467.953125
52,20712.07,23824.912,40893.5,2958.8271,-2707.8909,-13500.887,30809.771484375
53,-7751.5894,19760.367,-20534.48,-1295.7985,8.962542,-7517.3765,38033.70703125
54,17593.809,10274.947,22474.771,-4038.276,-654.18616,-14417.17,28051.451171875
55,31805.42,24558.527,35600.133,-2894.2566,-739.20807,-16301.655,30305.419921875
56,41559.254,37153.125,49819.027,-368.6619,564.2187,-14702.962,27819.517578125
57,-5618.539,14339.297,-22213.105,2231.6191,450.97723,1753.2137,32088.2890625
58,32704.256,25670.994,50462.15,850.71045,-7034.0737,-12828.087,33674.77734375
59,28820.418,20730.621,36640.684,-174.03485,-2953.1975,-16903.21,32760.896484375
60,30574.967,23949.62,40301.707,-1239.8899,2968.0867,-17094.625,33326.671875
61,28114.104,21508.727,37731.19,2744.5552,6396.3125,-14517.664,31261.283203125
62,12928.478,8569.99,14241.57,-510.06143,-2487.0576,-7320.885,14372.42578125
63,93771.164,92014.45,93540.52,-259.37335,235.55908,234.35028,1807.51416015625
64,364890.72,364360.3,365058.44,-802.9188,-351.67706,-658.3847,2000.97399902344
65,-27644.707,-26792.701,-26650.336,-807.1166,-67.99791,624.04126,2000.98547363281
66,194843.08,196526.75,194764.45,568.023,-33.05667,140.6018,2000.96154785156
67,2368.6064,7920.829,4537.986,-749.0028,-550.04584,17468.773,30684.740234375
68,49173.645,12941.664,22854.38,-3289.7903,-467.76334,1430.1544,33032.12890625
69,-2606.8948,2142.9392,2874.7173,16377.98,8658.885,-5016.775,33641.046875
70,22081.38,-2110.986,-12172.202,8745.089,4902.532,959.4386,35131.171875
71,31747.602,24370.672,41443.88,1356.478,9477.166,6717.676,25106.12109375
72,-9991.0205,6324.0327,4196.939,2375.821,4797.4287,10187.789,25166.53515625
73,6897.9663,7771.1875,21223.762,677.2804,9976.634,-11205.339,29498.068359375
74,18503.314,9955.009,-7800.23,-3289.5461,10042.8955,-5273.866,30960.98828125
75,-8994.752,9987.158,-5723.4814,1499.8215,7771.3286,868.5432,22340.80078125
76,1873.9099,21024.977,20099.814,2528.2576,11500.839,6192.185,29680.212890625
77,14158.583,8260.542,-11964.499,10658.978,7213.2646,-487.00354,32569.521484375
78,6883.606,6773.0415,19659.953,6795.671,8936.757,-9636.312,28659.650390625
79,2856.8691,16414.783,13904.114,7573.9185,12122.619,-2421.4602,28047.064453125
80,18665.053,-6029.651,-18519.496,-3774.796,3431.493,-6983.123,36036.40234375
81,11783.888,6282.152,17272.107,3867.6467,17708.867,-5249.1177,34043.08984375
82,46372.02,58325.797,71779.9,4838.935,10953.173,-1715.9363,30392.896484375
83,30912.547,30417.305,47431.43,-4342.7715,13162.036,-3397.9348,29870.287109375
84,-26600.61,-25469.1,-26265.414,4446.8154,-10109.919,-63.83971,19156.708984375
85,11039.933,1967.8788,11890.895,-1005.3544,-1304.8964,12547.291,23899.587890625
86,68610.71,52769.496,75584.055,-10500.969,-2130.8394,12486.14,34959.7109375
87,-9149.959,10377.428,-21639.506,-855.41113,-5591.5933,8506.23,33079.55078125
88,44703.438,24179.09,36497.82,-6487.186,-5055.967,912.81586,22926.07421875
89,-2177.399,6446.367,-10875.689,-3570.3945,3703.9424,2026.8706,17797.947265625
90,18516.38,17480.863,14821.409,6684.588,-12390.975,-335.08838,24614.947265625
91,-1476.465,-4760.0537,-24304.787,2896.114,-2803.3337,7495.008,25965.732421875
92,13538.178,-17633.145,-11133.525,4746.656,-7569.397,10277.129,36981.51171875
93,41997.066,41629.035,41202.94,-777.72455,-637.2941,407.0733,2000.9853515625
94,99430.82,98315.4,99037.96,921.5093,-400.81894,-67.95747,2000.91491699219
95,37792.582,38678.848,37854.984,454.72583,-344.04352,-873.0693,1999.05737304688
96,46809.516,47410.023,46424.215,957.0178,-289.18484,-294.58038,1999.82702636719
97,4563.74,11931.391,14577.305,-3481.0823,-18597.295,-2661.7803,34292.33984375
98,9023.992,5319.9355,24744.451,-4513.7495,-7455.8955,-107.07444,23388.23828125
99,15683.978,19657.666,32214.945,3584.001,14333.327,-8263.972,32910.81640625
100,-58499.547,-34176.156,-49401.14,66.1212,8209.726,-4613.035,26817.091796875
101,16239.108,10997.08,27240.768,-2890.6565,-2600.3938,-14538.792,29760.201171875
102,-9386.414,-5967.848,-39376.793,-2394.6655,-9780.5,-1157.975,36357.03515625
103,1401.1038,11124.579,16375.267,-160.23601,-17254.463,-4332.426,33506.81640625
104,11339.964,13350.068,13774.495,-2970.2253,-11984.82,-16992.418,36450.99609375
105,1277.2838,1440.2561,9526.649,-2348.5442,15651.245,10433.539,33834.03515625
106,54173.797,69953.64,78480.24,845.68066,-11882.558,-5010.148,30940.11328125
107,45638.645,46215.492,53392.945,-2948.771,-16259.112,-6100.327,31413.259765625
108,9770.285,3206.5735,15166.664,-1087.0271,-8628.8545,-14368.495,30885.283203125
109,26191.588,34219.855,34303.023,986.4141,-15217.013,-7173.327,30283.4765625
110,23036.654,16065.261,12660.308,-3372.6008,10947.87,3149.4543,22525.083984375
111,3806.2368,14181.326,-5898.6406,10961.778,2104.1763,-3238.8257,26603.58203125
112,29093.742,29618.217,29121.117,909.4179,417.71436,-495.82956,2000.89611816406
113,5041.586,7645.8926,-8663.699,1980.5396,16381.514,-7221.1846,34692.59375
114,18236.281,8484.311,-12834.461,2693.943,2590.0557,5808.41,30010.013671875
115,15195.396,-2285.6543,-20595.19,-5293.7056,8161.423,-2726.4297,35596.24609375
116,17411.496,34962.234,47872.566,172.02075,10685.847,4952.15,33429.22265625
117,24079.385,41164.902,49814.12,-169.34178,9327.627,443.27618,27860.1796875
118,6300.6763,2773.8833,14564.065,8694.909,13250.813,-10912.312,34937.90625
119,8793.175,7609.5103,15689.378,365.0488,12070.712,3777.209,23182.525390625
120,-4340.0996,-10049.642,-33964.637,-9373.343,-10184.697,-4970.5522,37282.0546875
121,11730.488,17023.496,26765.172,-3075.348,-15545.737,-4054.4434,31259.841796875
122,11896.003,19037.664,26966.314,-3694.7385,-16453.166,-2551.146,32296.88671875
123,19338.033,30941.508,35674.203,771.5525,15523.136,2828.3645,30994.23828125
124,15827.884,-2990.87,-17595.25,502.17313,-547.2761,1052.5854,29107.533203125
125,7063.483,25387.299,29591.545,-7404.9795,12118.308,3989.2756,32913.21875
126,60063.105,63809.688,76344.67,4363.399,5128.38,-17995.342,36409.359375
127,-19868.934,-18826.984,-35605.168,1738.2968,-2111.5881,1701.2322,17211.482421875
128,20301.465,11406.725,17798.674,-5455.9463,-4893.7188,18946.525,36071.85546875
129,18903.564,32499.1,16194.6,-1527.2473,-7065.3926,8368.348,24410.06640625
130,20513.855,23995.814,11112.22,1141.8165,-13022.377,14498.784,35728.88671875
131,-6946.1416,5806.538,8047.2153,-12327.891,6456.965,6325.183,29954.26171875
132,32192.562,39927.723,29963.432,729.15704,6397.0903,7445.983,19306.36328125
133,6181.312,22015.72,17941.865,12100.566,-218.9278,7449.3354,28437.833984375
134,21341.273,22964.049,22390.465,-603.5944,469.53052,-269.42508,2000.93127441406
135,-10005.848,-9762.086,-9301.776,441.36383,464.2463,-19.639896,1271.08129882813
136,2102.775,-2030.4208,-27036.893,-3980.1846,8134.046,50.846905,31492.619140625
137,-6367.1987,-6563.41,-6162.415,602.4339,185.61847,-947.1333,2000.98547363281
138,3674.3281,-2699.3142,-8496.696,2012.2096,-4301.716,2627.235,14126.27734375
139,28373.902,41632.72,55665.83,1583.7673,11800.792,-3060.974,31815.037109375
140,5254.4775,24234.672,34098.066,748.2054,12189.466,-2849.1685,33414.44921875
141,7763.5947,-1103.2739,3037.573,-1725.3069,-686.52405,-2358.9473,9278.4443359375
142,6967.988,-2024.0867,4485.0986,2919.6973,6654.805,894.95844,15017.71875
143,32505.797,46741.12,45122.984,4715.901,8010.908,12794.124,30537.521484375
144,211456.34,217213.25,215708.42,-6155.2197,-4342.6724,4036.4429,15679.8759765625
145,22652.979,54140.93,33851.35,12215.531,-10050.645,-1016.42694,38962.59765625
146,14017.438,15015.276,13897.748,1139.8799,-1130.944,-333.27777,3032.77783203125
147,2029.962,989.125,-4706.001,1561.8834,-1274.4171,-5791.2217,12339.0078125
148,61700.094,52539.473,66319.23,-4043.8267,-6406.55,-16572.656,33818.86328125
149,-3894.159,3293.2197,-5058.174,-5006.889,1759.3497,-17868.592,33222.4609375
150,2088.305,19575.395,-18023.715,-7073.2085,1292.6349,8480.059,37852.7421875
151,3831.3481,749.6029,10296.33,2038.6469,4172.8237,-15207.375,28804.7734375
152,10245.946,19035.475,1067.8883,-4415.4897,10575.755,-10777.044,31378.765625
153,41239.434,49886.68,56036.152,2674.2214,-16988.334,6862.323,34558.734375
154,4361.147,7724.1826,17135.754,-2780.1663,-12961.547,-56.052433,25665.962890625
155,4838.7217,8134.764,18020.414,-879.6273,-13750.399,-181.14127,26661.08984375
156,11424.009,22114.5,30579.682,2091.7317,-14531.921,-433.52942,30391.822265625
157,-12460.526,-7858.327,-31062.307,-11405.855,-8960.643,5688.5513,34366.47265625
158,29181.15,42259.004,49596.273,-2746.865,-14382.86,2780.7498,31420.61328125
159,1259.5054,-13076.356,-21851.596,-1128.086,-15561.391,-774.74774,33769.98046875
160,50547.004,55777.953,63213.418,2154.7012,-15801.45,1474.4807,29850.484375
161,11432.519,17279.37,15409.373,-2102.3315,-15020.923,7990.3716,30140.185546875
162,15732.997,21027.21,15245.838,3997.0168,2103.2275,3518.6084,11366.005859375
163,8796.697,20257.781,4940.183,-6454.8755,-10.590996,18837.271,37147.73046875
164,7729.9097,15022.389,26.114466,-1859.1621,7499.375,19825.092,39075.6015625
165,16612.627,23692.316,-7988.138,-5998.8057,-1348.1891,-132.50685,30707.45703125
166,-8922.211,8347.336,-9871.36,-8319.783,3069.1372,7534.14,26865.1171875
167,40251.895,33884.867,45662.086,-9251.541,-13250.17,12531.462,36862.484375
168,37982.133,27655.334,28728.893,-2998.8806,-3040.1042,-18090.44,33663.14453125
169,-5827.962,-5809.908,-14019.438,2173.081,-12622.33,-18179.139,39380.55859375
170,9907.247,16400.244,-8363.734,1098.479,7297.2896,-8385.937,29478.19921875
171,13385.5625,14016.73,2913.5408,-4148.055,-6634.8687,20218.379,39073.05078125
172,24557.834,30616.99,28471.24,-6881.0054,3289.3247,20714.443,38601.609375
173,-12454.965,8031.8853,-11093.878,-5890.2773,10928.419,-10133.162,34118.8984375
174,6999.9785,31232.836,673.6701,-5341.8457,514.93353,-13572.575,37677.62890625
175,14349.678,-1103.5781,-6830.328,-438.08536,11502.818,6011.2935,29428.267578125
176,-405269.62,-415615.4,-398275.2,-12519.846,-7155.7754,-3688.8533,29883.07421875
177,28959.5,27197.488,36495.496,298.35553,320.36523,-11944.442,22399.966796875
178,-12148.821,-17265.178,-45203.68,-753.67194,1588.1378,-10333.443,35767.1796875
179,-6821.1255,-1491.101,-14756.424,8778.599,-10367.59,-13792.101,35468.1796875
180,12241.829,13723.141,-13369.727,-9384.065,2810.0024,6231.0312,33172.765625
181,6061.2456,17314.676,-15027.104,3767.692,2939.451,7960.168,32669.173828125
182,406.40976,5283.1196,-13857.6455,-3694.3228,3650.2954,-11938.404,28377.83984375
183,5721.148,6357.807,6217.613,-84.42506,-607.8419,-919.8572,2000.98559570313
184,9078.069,16415.95,-6214.2695,-10151.074,-925.08954,11012.613,32794.00390625
185,-6071.4033,17722.873,25271.9,-1549.3153,14675.508,3891.3906,38749.4609375
186,19643.305,14315.453,43058.992,-1618.1936,405.0857,-7248.646,29451.865234375
187,10741.472,4801.421,20259.3,4255.4233,-2285.863,8430.456,21578.435546875
188,11308.589,-3483.3203,22468.021,-2313.2368,13661.291,-9194.792,36578.42578125
189,-17520184.0,-17521070.0,-17520344.0,-524.1076,-557.50366,-10.8782,1557.46472167969
190,952704.44,953385.1,952203.6,-960.08,-234.06998,79.447,2000.90185546875
191,-24578.96,-8320.422,-590.1948,-7620.358,941.33405,5481.999,26773.1875
192,9000.08,10677.923,931.8374,12451.005,-518.6307,-8655.427,27786.46484375
193,-79.99317,-6905.6064,-22602.623,-2763.3352,-2887.4465,9521.201,26832.947265625
194,7088.223,-12019.415,-19593.658,5433.144,-8314.426,-4825.939,30545.248046875
195,-2448.0222,-6691.225,-22105.605,-8445.123,-4683.033,-9058.315,29101.99609375
196,5796.2695,-11755.678,-20792.734,5629.2603,-9423.243,6670.711,32300.318359375
197,7121.3887,11206.099,41918.98,-3870.93,5533.839,-5630.921,36295.5
198,-1403.1954,-6470.864,-16816.057,-785.47015,-13872.591,10876.202,33454.48828125
199,18804.258,9679.639,4624.5776,1499.1877,-18887.451,-2394.8152,35342.515625
200,7964.38,-14271.747,1051.2385,4040.865,10149.952,-361.43552,27330.525390625
201,8454.282,-10873.585,-1160.6215,-1986.6877,15426.001,-9262.309,35542.55859375
202,20181.62,12627.576,-9022.075,3262.4863,-11289.762,-1415.491,33311.13671875
203,19061.914,6114.7744,-6349.714,2238.298,-11258.729,-10007.892,34353.33984375
204,-12194.728,-17462.523,-36617.64,4125.0605,-13070.122,-10422.369,37215.3671875
205,11689.927,-11341.857,-7978.209,2344.0317,12805.817,8468.391,34465.890625
206,-595.55,-5460.0767,-27961.898,5655.672,-10538.696,-2341.8533,32940.26953125
207,32308.121,24604.762,2985.875,-7258.9883,-3243.1511,5940.988,31444.791015625
208,22105.492,-11157.231,-13154.864,2816.3352,-5340.1333,-1623.3444,35973.578125
209,25935.23,9647.917,-6598.7397,-10384.023,-6093.196,-6172.6074,36647.140625
210,8803.9,-13095.935,-10292.4795,2551.621,-13620.249,14214.334,40103.30078125
211,18295.576,16440.617,657.13385,-4793.5044,-13879.117,1367.0917,30565.771484375
212,18148.57,3663.2522,-2818.8535,6102.851,-13993.43,-4473.308,33240.8125
213,20958.842,204.01869,3021.3943,-12057.237,-12006.329,-2267.5923,35556.13671875
214,-17376.543,994.7886,-10261.372,-13357.34,6859.709,7904.0747,33485.25
215,-35636.4,-17826.332,-3960.9973,12816.16,785.8543,2032.8126,35544.33984375
216,12150.758,4095.4907,-965.0341,-738.4744,11334.216,-8850.399,27445.9140625
217,38176.383,37163.26,48152.926,5283.111,-4748.2715,15677.5205,31613.1484375
218,14781.354,22561.367,13965.922,-3307.6306,334.64438,18211.166,33100.37109375
219,1139.2555,3749.5164,-27411.982,2283.1567,4435.1133,-1369.7427,31253.6484375
220,5610.1265,7986.6587,-213.80026,-5597.753,-12049.108,17569.428,38845.9609375
221,34608.062,24985.373,42205.863,-132.9832,-3785.8694,17894.463,35030.28515625
222,16741.418,13690.551,18346.373,-642.6105,-1174.8403,18403.998,32222.369140625
223,12355.686,16198.393,16299.072,234.20787,-9213.176,11731.015,26130.9375
224,11870.831,24617.66,2349.1875,1049.1656,1668.4463,12060.805,28680.24609375
225,17947.328,8976.415,26353.645,-2111.1614,6990.912,11939.499,28534.193359375
226,23047.383,15676.278,23737.617,1363.194,-8643.776,7964.8213,21907.3515625
227,35276.426,15560.794,33715.812,-7197.213,1289.3142,10756.008,29459.037109375
228,-465.02597,8156.8506,-20341.78,13380.398,3151.6948,9307.044,38308.80859375
229,-119745.37,-125819.12,-158639.17,6825.6904,3935.738,4992.6445,39678.796875
230,10450.163,28558.434,-1117.5935,3801.7966,-1429.4958,12089.844,34046.71484375
231,11435.752,12967.849,11034.833,-251.20303,-127.58503,463.1401,2000.98522949219
232,57080.51,55486.44,56343.25,-173.5953,584.2769,-571.3339,2000.79479980469
233,13998.367,14193.367,13732.065,-894.6221,261.34146,642.1651,2000.9853515625
234,13270.552,11220.547,11909.907,277.90912,-254.35796,323.31845,2000.98583984375
235,-2652387.0,-2650274.0,-2651410.0,-399.06238,196.3921,131.10736,1999.98156738281
236,-27169.514,-56841.445,-67894.49,-410.42508,7959.0806,-1427.6145,39079.65234375
237,-699200.56,-707879.1,-688051.9,-7629.1606,1575.9852,12796.778,31140.029296875
238,123686.7,88771.164,121152.62,-9474.979,2851.7542,-2731.4043,38120.10546875
239,107628.52,81622.69,76888.6,9696.167,9211.56,5645.9766,38132.2109375
240,40681.81,43209.855,55364.77,1521.5251,3531.6997,-7593.3877,20055.013671875
241,46697.87,33341.09,12080.157,10352.878,9960.049,2928.0537,39487.7578125
242,17215.46,19722.135,14884.681,-5258.1006,8703.195,-367.35455,18114.716796875
243,5934.024,8086.533,-4495.6084,9199.757,1568.5743,-1939.9178,20209.8515625
244,-10753.157,-8908.204,-42293.125,4784.6943,7009.0747,-247.95062,35673.64453125
245,4433.1694,3863.6494,-6709.035,-3299.0437,3145.1895,-1585.0321,13711.0205078125
246,14483.558,-63.78286,-19571.586,9203.946,9113.485,4836.502,38071.59375
247,11393.512,8117.1055,2354.754,8859.517,-16577.201,3248.6255,33975.9296875
248,42.40332,2503.832,-22575.723,850.30664,-3923.9722,-7987.8755,28514.7578125
249,7261.423,-4046.836,-27121.656,-2076.283,5317.543,7694.1147,34592.1953125
250,16236.032,-7105.5146,-17342.322,2542.7852,5112.5195,4722.06,32454.080078125
251,32225.71,9906.024,8561.911,10082.045,-302.75305,7659.6904,31799.458984375
252,890.3493,-4854.653,-28169.293,-1240.8528,9299.325,11255.674,36805.46484375
253,8602.007,-10522.843,-2955.6458,-1536.0353,7695.576,0.34788346,21518.474609375
254,2072.8179,2837.899,1686.3286,-4475.137,5759.587,2624.321,13464.4228515625
255,5996.8125,-7947.0723,-18426.441,883.6386,5414.581,12429.409,31688.140625
256,-2149.249,-12475.521,-12978.311,-18103.02,-4910.6934,5690.474,35562.95703125
257,-5416.3315,-7260.289,14284.57,-10575.915,4134.707,1219.8784,28620.8828125
258,-8751.976,-17697.936,-8101.2183,-2026.8312,8004.8066,-9587.463,23803.12109375
259,23551.387,11844.233,2017.0282,-625.8232,-874.1389,9003.961,24400.025390625
260,-6625.078,-10324.914,-24167.582,-2323.881,9423.777,5218.017,24916.478515625
261,-2449.4897,10420.922,19463.201,2500.5852,9348.124,185.28458,25393.15234375
262,5126.001,8230.365,-2683.5671,-2236.1099,-8374.766,-11462.768,26729.49609375
263,-39913.684,-17316.332,-41636.984,5555.094,-1183.9802,-16315.694,38051.8125
264,-4052.4438,7605.883,53.523438,8700.825,-10747.71,-1304.7174,26147.01953125
265,-11861.524,8507.534,-18410.822,-10231.18,9178.681,2807.0137,34374.53125
266,16313.231,35491.074,15420.193,10142.979,-9582.693,-12280.598,37713.0859375
267,-300.63184,-7177.309,-18102.252,-473.63925,173.71465,-8141.539,21009.234375
268,-25324.412,10756.465,-22728.45,2518.802,-4620.355,294.591,36031.10546875
269,4094.146,17675.967,243.20937,2078.0732,-613.8141,-17502.963,34420.125
270,-8877.753,16428.355,7224.166,-6474.419,4490.529,-7943.5527,29457.4765625
271,4896.464,19832.182,-11759.473,2551.611,12542.514,1887.8245,35375.5859375
272,-10491.098,3622.3223,-34514.16,-1135.3407,2212.3613,-1925.6829,33838.1328125
273,-10437.852,11222.295,-15060.648,1726.3796,9118.22,-4451.495,30140.951171875
274,-11085.626,2988.2341,2374.9597,7095.6997,-6665.0317,-2759.4612,22292.984375
275,-15339.232,17875.615,10627.723,8880.765,-5164.3647,-6630.633,36926.0390625
276,43085.453,18956.61,33850.703,-2272.987,-4989.279,6433.148,25670.84375
277,-22530.084,5239.0874,1820.975,-1093.1328,8807.122,1216.4713,30473.146484375
278,4460.214,-17954.637,-16890.205,-3244.4233,-11640.308,627.41815,30314.181640625
279,16802.615,-11694.658,19516.973,-5682.2036,-6086.3613,-2117.9158,33440.4609375
280,-10442.955,8762.217,-28201.393,-2139.3904,-2256.0437,5127.6543,33662.04296875
281,-21825.041,4346.4653,13982.293,3019.5896,-6337.562,-3271.8645,34784.25
282,2476823.2,2476804.5,2477517.8,922.2397,-522.6082,201.71826,1997.17565917969
283,114284.72,115028.09,113851.24,709.55444,-251.11732,642.31757,2000.01049804688
284,452372.56,418955.8,421214.66,1298.9423,13269.503,1565.6858,39836.58203125
285,19199.912,-7702.3735,478.61426,1362.5967,1103.1891,-2643.2083,24510.302734375
286,-58925.727,-62192.574,-95177.0,6610.0957,2815.0625,7283.5156,38992.3359375
287,265928.12,276591.3,295627.66,-6995.854,-12000.762,-6315.33,37116.1015625
288,9662.131,1696.7837,12952.216,3247.8987,-2323.1191,1681.985,12522.080078125
289,-5669.4937,-3827.5652,-33493.32,-3380.5642,-1785.1097,5249.692,30908.41015625
290,20242.072,3139.8005,-6153.2373,-2814.959,-4550.642,2555.062,25362.6171875
291,-5530.5156,-12287.354,-37245.24,648.4892,-10425.003,6589.7427,35982.84375
292,13173.936,261.3319,-12157.365,-901.6549,-13457.643,1565.1078,32162.54296875
293,11336.273,4410.0044,2601.3298,-3592.316,-19605.434,-3228.8394,35873.12890625
294,16382.486,11410.619,5462.028,4094.281,-20362.28,-262.05627,37202.734375
295,15337.087,-13110.185,4719.173,-3929.3242,-3106.4768,-3827.1438,27187.259765625
296,-12481.501,-11309.098,-43427.816,8085.952,9435.15,-4642.162,39028.11328125
297,-1371.5137,-4935.159,-17088.24,508.24857,-776.8386,3612.5876,15666.65234375
298,25366.984,-6786.027,-15115.633,-554.04865,5103.18,3772.9924,38636.44921875
299,9786.769,10396.746,20466.406,-1682.7242,-1833.1178,-990.6544,11376.8291015625
300,-10864.509,26620.742,-1609.0658,-7999.4263,5423.6626,-1723.3495,37854.92578125
301,2987.6736,12323.217,-5938.0,-3002.1443,3247.3716,8487.602,22911.548828125
302,25804.254,30012.21,29851.033,1767.4883,-7613.323,20303.246,37907.5234375
303,12680.446,13694.928,10302.245,6895.048,1181.5413,2024.1155,12969.26953125
304,13698.38,16166.028,12993.215,-7364.1387,10394.08,-7164.9307,25478.181640625
305,862.2498,18587.84,-2524.4263,-2188.1848,-12936.6875,-7087.8916,32447.64453125
306,-137.93945,20218.3,-6473.5186,4865.16,4618.9297,-7394.8525,29707.728515625
307,-21330.184,1668.3511,-31737.453,2278.9138,7880.432,-12163.436,39017.01171875
308,-32866.664,-2335.5378,-24349.648,6741.822,-9431.747,9550.337,37702.94140625
309,-1367.0685,5360.1626,18349.36,-4100.455,-3962.8972,1368.8037,20112.978515625
310,31018.855,-6725.001,18052.227,-1962.9459,5176.8066,4977.297,35631.44140625
311,1467.3832,26101.23,-4139.074,-8349.927,3256.8535,-12362.244,38416.50390625
312,4885.4854,2566.4707,4641.365,-5244.111,-4071.438,2377.9153,12412.359375
313,-1729.6895,-19825.596,-30091.611,9239.713,-10683.634,-2826.2476,35229.61328125
314,-17285.498,1656.8901,16262.355,3719.7427,9756.34,-1815.5813,34434.765625
315,-1067.0325,-19468.115,-15392.496,2261.6846,1652.3751,10640.85,25366.009765625
316,-18836.94,-27043.29,-7437.961,-8751.346,4846.044,777.03577,24348.447265625
317,11711.26,4955.748,8035.92,8905.671,3500.8745,-10837.313,25716.9140625
318,9523.355,-10510.124,-14582.794,-1166.3511,-3415.9949,7010.2134,26192.25390625
319,7718.4805,7504.713,-23231.613,6278.2925,-8697.495,6922.278,37951.046875
320,-2227.3623,-8821.454,-32206.477,9405.544,-2121.946,-2530.2922,32290.126953125
321,12604.243,647.7097,445.56342,-652.8051,-18856.291,-4229.783,35595.609375
322,20239.959,464.2562,-16804.582,-701.76385,-10320.48,-533.59985,36778.5703125
323,-1337.055,459.08685,-14790.521,2552.221,-16138.185,1712.4797,31906.873046875
324,11746.485,-9258.801,-15511.595,2176.862,-15066.57,2031.8506,36321.71875
325,12052.536,-22959.76,-22187.89,-4484.7393,-1807.6261,-4093.3833,36329.60546875
326,10727.022,4969.6724,8361.266,540.49133,9907.346,5650.3945,20402.13671875
327,10509.02,4796.38,17532.459,-4894.382,726.2795,19000.465,35757.31640625
328,1645.7809,5220.7886,-6475.217,-1973.1554,10305.145,11496.048,28887.875
329,1085211.0,1087055.1,1086759.1,64.55701,137.25542,575.1006,2000.9482421875
330,12687.738,-51.90886,11457.316,11097.32,17336.475,-7253.513,39712.5859375
331,57756.766,44203.133,25069.328,14285.653,4829.6523,2969.0894,38958.9375
332,120268.664,93936.96,78193.67,3617.8945,7598.867,1744.5822,39716.29296875
333,1548.8229,-4768.064,-2884.434,-1949.4944,-897.1507,-4116.748,9808.7470703125
334,13800.502,-3505.0002,-5525.7793,7930.17,-9597.2705,-4087.01,29216.96484375
335,-3756.1023,6600.9746,-20787.125,7379.7227,-8974.624,1666.0577,31417.44921875
336,-17226.14,-25488.36,-27103.207,7706.348,7271.8164,4594.415,22007.759765625
337,1490.5046,-19052.152,-24686.473,-15745.395,8235.241,4428.0923,39692.87109375
338,-4678.485,-718.3189,-17976.555,-13977.059,11024.705,-9386.584,38212.7578125
339,-15874.115,5042.5767,-16928.844,-4523.889,-5940.8706,-14204.785,35118.203125
340,9177.612,36243.973,9418.669,-2111.662,1833.65,2122.179,27624.203125
341,-14487.786,2394.3179,1852.0073,672.14435,-1404.3356,-1800.8153,17121.47265625
342,5540.1924,-1984.9976,37879.707,1727.5094,2845.6465,2236.9292,37337.53125
343,-66855.76,-43062.527,-75850.695,6439.538,3689.5225,10496.826,36835.25390625
344,251437.11,250367.56,249859.58,664.1967,-226.23615,-440.31372,2000.98486328125
345,-2363381.5,-2364800.2,-2363363.2,-378.21402,-565.9135,436.697,2000.275390625
346,286926.53,285873.1,286394.72,541.8041,-844.0016,-226.53662,2000.98767089844
347,18090.275,157.88086,14198.851,3850.2075,-7159.473,1695.4492,21766.982421875
348,417425.9,397617.1,398812.38,-5648.813,18488.207,3863.0815,39192.8515625
349,8368.956,14972.49,1216.3965,-7664.1387,2674.3127,-4753.866,20185.849609375
350,42802.062,41848.81,42479.926,-734.7415,-21.686235,-747.70807,2000.88366699219
351,73185.03,73547.61,74924.516,-489.18268,-483.45654,139.36954,2000.98254394531
352,-13717.824,-9126.204,4387.328,6361.0737,7134.3877,1234.3407,23332.521484375
353,-17928.426,-54271.066,-37810.617,-6764.7134,-1583.3125,5645.3745,35127.3828125
354,-4229.6846,1538.959,-19026.28,3822.8303,-7453.3657,3178.0662,24049.388671875
355,-1572145.5,-1570868.5,-1570340.8,29.691874,-498.96786,456.48486,1989.4404296875
356,118087.65,117990.086,118014.37,-829.85504,-438.5442,-292.0325,1704.85461425781
357,463142.53,464870.44,463450.7,-297.1762,-19.051542,128.35162,1692.2197265625
358,6701.3906,-9926.782,-31632.873,302.9689,3400.0784,5520.5415,35142.12890625
359,-12494.007,-3394.3691,16630.322,6486.086,-1806.9755,-343.95172,28326.091796875
360,-16436.48,15342.521,-5088.576,12343.501,-782.8942,4647.561,36080.17578125
361,-263.8921,-12209.322,1523.6926,16794.906,5663.6733,5052.0713,34441.98828125
362,-13459.764,-10662.184,-3090.9453,6140.4497,-2206.631,-771.60236,14691.5078125
363,-3514.7424,-1848.9615,381.63635,2856.5686,-1721.2195,-793.1389,6835.2783203125
364,-802.2033,-1607.8704,3474.672,1476.6289,-403.70154,903.263,5644.85400390625
365,2989.2007,-49.845947,2658.179,-1960.274,-532.82556,6543.752,12213.974609375
366,753.4853,-653.9108,-734.5981,-561.2491,271.45593,1430.4545,3066.83862304688
367,-6384.429,-25.885132,2280.6975,-6347.441,3302.5205,-1925.8561,15004.486328125
368,19434.934,28445.564,25990.28,4306.553,-6005.416,-4346.5117,16899.91015625
369,-1959.1436,1428.9946,2069.0244,1145.4634,437.19128,645.069,4451.47607421875
370,1993.0015,-8414.3955,-3633.466,-8515.917,-101.542915,2569.9702,17855.583984375
371,13919.304,5347.052,1018.5371,-190.54097,136.39986,810.28577,11465.560546875
372,1950.9828,-4436.4336,-3621.759,538.8553,-534.611,2225.253,7269.3115234375
373,6119.0513,-4356.3486,-3362.8245,3793.1272,934.93427,61.113564,12087.6171875
374,365.71265,-2970.3945,-1236.0576,3477.1702,1871.4296,1616.9775,7935.63671875
375,-1061.3431,-1615.6522,797.7579,3425.7961,-532.7498,-460.33652,6441.23193359375
376,-1758.234,-304.1609,-2172.2375,-74.476456,1108.6632,117.03766,2575.43310546875
377,-1237.8242,1440.8583,1191.1433,684.2581,-971.5174,-3.1663094,3287.09375
378,637.57513,861.1067,720.7382,-2457.8013,-2310.661,-341.39142,5876.0322265625
379,4019.818,4876.8066,949.7517,-2951.5244,-2401.8147,3527.1724,9672.3427734375
380,-1959.521,5435.43,3117.379,5394.8433,-1101.5505,1536.0663,11872.1748046875
381,-2729.473,138.99683,-663.0453,3708.1106,-1517.0299,-14.956797,7397.68994140625
382,-872.9127,548.42413,-1631.8971,188.76244,-328.98468,-18.098358,2026.72082519531
383,558.641,-3364.5576,-1507.0522,-5952.4756,-527.3634,-7479.024,16926.076171875
384,23873.166,24550.676,15233.64,-1765.8951,216.43005,-4694.248,12512.2890625
385,157462.75,165394.22,173582.47,15745.009,12380.884,5184.0347,38459.04296875
386,885087.0,887529.4,888809.2,-3011.0322,-2972.1816,2912.5276,9480.39453125
387,-98324.0,-104677.055,-136521.0,4782.3677,455.17526,2372.547,36644.59375
388,-224474.56,-228138.86,-263628.8,2766.0474,-1290.9586,-162.12674,37829.10546875
389,-2585.9731,-2269.9402,-301.4181,806.10614,1410.6484,708.3074,3744.51318359375
390,349756.8,352616.75,387761.44,-6464.6685,-3708.2034,-5203.4263,39896.05078125
391,10121.455,20920.188,17916.2,-4501.3745,-3957.6287,-483.55942,14201.2099609375
392,342.8418,10919.36,3022.8103,-4653.351,854.526,-2008.0546,13036.439453125
393,-6594.402,-6394.8623,1322.7278,-4775.0693,-3027.1045,-1914.9781,12962.8837890625
394,2956.2124,6705.8623,6368.095,-7424.1934,797.17267,-3876.2935,15008.224609375
395,1177.447,-1487.655,2032.7227,-1625.1152,-1011.7523,55.69021,4595.31201171875
396,9791.721,4946.7695,6868.0254,4280.1304,236.1264,-3935.467,10929.130859375
397,10353.002,5155.181,-2413.7056,816.6258,-432.20703,3207.142,12532.57421875
398,7672.3335,-5817.288,-4010.7368,2042.3309,-1246.5576,2545.9937,14052.9404296875
399,9565.325,3782.5054,-660.2544,2426.5364,-1388.8185,-414.89624,10140.90234375
400,-162778.77,-168322.48,-202542.1,-497.3186,1181.5232,580.26025,37381.2578125
401,312534.1,311005.84,344756.38,8686.889,-6876.418,6446.294,39783.91796875
402,-7957810.5,-7957948.5,-7957453.5,485.06775,-719.34644,717.10266,1999.17932128906
403,12949.87,5708.1836,2401.0737,-6321.7974,-2214.822,-2789.793,15661.6904296875
404,9923.774,11951.029,3272.269,-6484.3945,-270.22794,-2642.8738,14462.091796875
405,-43284.652,-39877.223,-77483.57,-1970.3315,895.5753,423.54016,36225.65234375
406,-3293.8684,14495.368,-388.39014,-1046.6969,-1061.9138,600.2328,16761.951171875
407,-3503.9446,5798.7173,-2615.4827,3562.8257,2564.7532,-1171.4492,11874.1640625
408,-5686.6597,6647.7866,-1128.6947,1125.5088,-1330.6443,-1655.9211,11577.2197265625
409,5986.129,-2136.9832,425.8227,2208.8582,539.5479,-572.94666,8260.162109375
410,-133292.14,-135872.44,-171178.1,-2531.3877,-1560.8208,740.412,37046.23046875
411,1615.8179,-2060.6667,3879.8804,3579.814,120.21419,-283.03256,8105.2568359375
412,6829.0386,552.1294,4163.5894,-6305.5415,-1397.8575,-3073.282,13536.9931640625
413,7704.522,-4088.1802,1064.0754,-1453.5704,-1052.8658,1624.3752,11065.0126953125
414,-12253.607,-17260.191,-7590.292,-3359.1792,3643.1384,-388.39194,12011.73828125
415,5051.497,-2044.47,486.5393,-1871.393,896.8227,464.22925,7236.333984375
416,-196526.84,-202698.9,-236577.45,40.10867,-900.6267,541.0356,37393.41015625
417,-2887.3516,-1998.2756,-2807.6807,-6477.662,4913.07,325.48123,14118.7421875
418,-18642.273,-11442.437,-44980.32,-3623.8308,1011.1898,5488.483,32680.18359375
419,-2932.8894,-1052.0829,6561.0244,-3478.947,-4362.194,-4638.767,15289.392578125
420,-5258.923,-2230.5857,1025.3909,5780.571,-791.09534,-1052.8762,11622.4150390625
421,1052148.4,1042021.25,1079930.9,703.70386,-10441.871,-3125.694,38905.9921875
422,-7670818.0,-7672345.0,-7670974.0,-133.95963,-534.083,559.8404,1991.90551757813
423,-5020.3765,-4263.396,-3232.7004,555.3065,-2985.8687,4730.73,9860.3408203125
424,-3646.9346,-1428.0522,-1765.7849,1794.6488,2326.0059,-235.46036,5508.86962890625
425,-2597.8154,-7974.802,-2689.3135,-542.5179,419.2115,104.744255,5465.47998046875
426,-3631.537,3041.9941,-2871.7876,-870.9569,2320.5496,-985.7469,7835.09228515625
427,1954.0293,261.47546,-5423.335,-2555.6729,4417.272,488.5018,11119.83984375
428,-372.58344,1354.844,-27.909729,-4695.0327,-2699.659,1438.8799,9834.27734375
429,-3755.714,-5038.858,-1718.6467,3561.175,-2214.822,313.69626,7840.11376953125
430,-5440.4595,6282.0654,612.8351,-1247.6394,-2839.1343,-1686.1604,11852.482421875
431,1183519.1,1198424.5,1220385.1,4201.7695,-9459.766,5974.939,38213.82421875
432,-9245.587,1250.7051,-12274.941,-3117.2603,33.421097,-1296.6504,13614.158203125
433,-3494.4895,2530.2864,2093.6414,-6383.4697,1916.4934,-123.81873,12929.376953125
434,287558.9,286645.1,287775.84,-92.175964,-801.66943,568.3659,2000.74633789063
435,-75742.805,-74739.12,-111637.31,-2059.7273,294.8154,-813.789,36611.81640625
436,-9767.762,-3300.23,811.18896,-469.53226,-1079.2578,1463.3464,9793.02734375
437,-2416.0613,2294.3525,-2672.966,-2539.2976,562.0497,-2061.141,7516.70361328125
438,8425.191,-75.28296,3118.6318,2869.3782,-2795.5144,-952.4198,10304.1435546875
439,1195.7297,-3216.048,-1765.9642,2166.8484,-183.46623,69.85479,5419.44580078125
440,-783.3489,10070.965,-23247.875,-3208.9749,50.421997,555.7277,29968.896484375
441,18928.643,8748.76,17022.127,419.8477,-828.8982,447.58228,9541.8935546875
442,12636.018,2083.4478,4566.083,-4458.102,363.7562,-2765.3167,13201.6640625
443,3119.949,209.61655,-4079.2046,-6266.422,-3957.2686,2255.1343,14811.7138671875
444,1545.2114,-1500.2649,1951.3352,3587.3203,19.253254,1041.5393,7248.36767578125
445,-1235.3217,-3838.8958,1819.7373,2487.116,1997.4818,168.63528,7394.48486328125
446,2314118.0,2322203.2,2348346.5,4270.8994,-8248.322,-7478.151,37239.8984375
447,2725.9795,-1282.4849,208.90399,-3354.2087,-17.69255,406.00156,6823.5947265625
448,-3999.1304,-162.05432,-169.84644,-2050.1704,-2411.5706,395.02295,6724.43701171875
449,3034.3809,-3513.607,-1263.15,-6346.5938,3355.5298,2312.8652,14278.279296875
450,-1723.9524,-3239.125,2793.824,-1183.4932,-48.952744,-113.59401,5813.7021484375
451,-3550.28,4035.4548,3697.6196,-1568.4287,-83.627335,-822.7253,8032.82568359375
452,-2643.144,-221.59003,-246.81873,-720.33923,1142.4531,-800.2202,3632.73828125
453,-4949.1055,-2946.3015,-3860.8564,2036.8104,498.2878,-90.21526,4028.7763671875
454,-1638.7096,-2207.5923,-197.49084,3304.9565,3819.8596,-318.91428,8948.0693359375
455,1111998.5,1095163.1,1139521.4,-3960.0752,-1690.9915,4074.6226,40121.42578125
456,-2125.3372,1046.5762,309.95715,-673.5936,-405.60104,627.5701,3362.0537109375
457,-3470.9963,2451.1406,-6627.7256,-8765.112,-3012.2595,-3869.7573,19140.505859375
458,-3540.5522,5681.7075,116.496704,-3235.371,968.6128,927.5498,10074.541015625
459,-69111.85,-64462.273,-101828.234,-824.1794,118.69928,705.64856,35322.39453125
460,-2215.1775,917.376,-2619.5647,-1174.8112,1046.206,-2074.3286,5619.24267578125
461,-289.88965,3164.129,1282.7017,2953.7937,-26.256046,410.50974,5971.08349609375
462,-530.2416,-3407.4697,-2355.0637,-4384.546,-4241.43,490.7982,10895.98828125
463,12218.083,3478.7632,6716.0977,-4155.738,-524.68585,-2588.2866,11458.533203125
464,749.27246,-5458.8003,-9269.476,4548.4565,1252.5127,-1565.7322,12281.8828125
465,2276.3286,-1201.8865,-625.64496,1139.611,530.6187,-784.51447,4124.67431640625
466,-2857.2415,-7004.3184,-2200.7678,1837.4244,-2029.4586,-32.97045,6545.18212890625
467,1936.059,-2740.5435,-1329.782,-4059.0881,-943.94434,-685.1996,8412.6962890625
468,5305.3228,-3806.7495,1791.4702,96.3034,-2324.7249,-789.5651,9026.0537109375
469,7099.668,-2035.4436,835.05725,-1829.6106,-1323.5779,-3780.5771,11119.5322265625
470,-6604.9907,492.3064,-413.1869,166.37848,1130.094,-789.0816,7109.6640625
471,-1278.9894,4284.0347,2232.214,182.3777,-1513.4856,167.75607,5549.68505859375
472,-2066.1982,-327.8502,1337.2277,1737.8197,-1011.78143,338.7562,4600.46142578125
473,-1514.4907,24.718018,-2776.5068,-1028.9966,-1565.6388,733.3841,4248.30419921875
474,-3452.6768,-71.2666,-2823.9092,-3312.4749,6231.3584,-2610.598,13399.8427734375
475,-65346.156,-44456.69,-36451.555,-3952.75,-15001.6,1065.3022,37324.20703125
476,-94600.83,-91927.336,-129247.625,2056.4224,1721.8553,7.3600507,36355.98046875
477,-2254.9668,645.6789,77.44348,5022.185,1510.798,-318.08356,9481.90234375
478,126.57541,2619.609,-1526.0553,-2005.5598,1939.607,-2981.6462,7942.9306640625
479,1544.5262,4514.485,2680.386,-2652.9214,3976.0298,-2392.4175,9615.0283203125
480,660.6293,-1466.8441,601.80493,-3837.668,-3310.3242,2059.982,9705.30078125
481,1154.0405,3482.8853,1983.79,-1558.2316,3977.0425,-464.6297,7717.65087890625
482,-3569.7722,222.75876,4591.502,-2571.0964,-281.63,2072.4165,9109.9990234375
483,-907.50995,-229.55573,569.10864,540.8222,-835.5275,-174.27711,2168.37426757813
484,2173.7363,1344.9878,-533.5368,1334.7732,806.2021,1234.8345,4200.20166015625
485,3745.0188,-674.5753,624.827,-1734.418,-1268.1986,484.30618,5480.1171875
486,3877.3816,-3017.227,1144.5376,787.2637,353.4633,825.6183,6359.34521484375
487,-7683.2104,-8555.593,-7807.379,2531.0046,244.7764,-668.3063,4626.634765625
488,-12649.064,-8215.18,-4635.397,2761.925,1330.2739,-1759.6716,9264.4169921875
489,986.9838,-685.2062,18.624077,2112.688,-604.8556,749.711,4276.5361328125
490,-1701.928,-461.17328,1576.8279,1684.4794,-889.55023,120.4649,4376.234375
491,-4086.586,-1332.5864,-1484.0195,610.1072,2608.9333,-856.6583,5561.3203125
492,977.61816,2471.497,2703.7808,-2637.8428,59.47987,807.45044,5047.15966796875
493,-5964.99,-3902.129,-2126.9302,-1990.39,1438.152,759.4452,5557.76806640625
494,257.0807,3565.855,1684.5273,-3575.6492,1781.4423,-583.51276,7560.44775390625
495,-1755.326,-853.91223,3825.5283,2122.3438,-1104.6891,-192.28868,6649.27001953125
496,-6919.989,-1725.1953,-2589.1445,721.9059,800.68756,-1463.7458,5758.35498046875
497,-2198.0933,-1153.8383,-34.19458,3106.2104,-2811.146,-29.556484,7494.607421875
498,1980.015,-1542.8204,649.9497,3033.1626,179.59729,37.5264,6098.77490234375
499,1381.3511,-1467.5247,6206.3667,2798.048,-2490.7632,679.5906,9414.201171875
500,-1468.488,-3355.125,1153.2957,739.3815,-572.15625,-1951.5005,5424.63916015625
501,2140.774,-3890.1873,2025.9962,-5449.5977,808.05383,-19.440123,11258.2314453125
502,-4046.9614,-1535.3857,-1109.9642,880.56714,-190.58188,1532.1246,4127.330078125
503,-4313.3203,441.55103,-2723.7761,1270.3927,2080.8462,207.3068,5961.35546875
504,2642.3633,-1621.052,-1742.6936,-1200.2169,1388.0431,-285.1288,5390.3212890625
505,-4410.992,-6788.106,-6106.8677,-5230.5317,-3217.6775,1812.1929,11290.84765625
506,274.63547,-1520.7373,429.843,55.5835,156.4606,-446.9338,2051.35717773438
507,9624.055,8077.504,17775.193,4685.5312,-3311.8333,-3235.5237,14546.896484375
508,-1936.001,3826.9219,699.1628,3234.4568,-1026.0983,232.50514,7724.9638671875
509,-4069.2104,-257.1438,-2251.0605,1247.2915,2108.887,1145.9241,5731.96826171875
510,-2263.155,2860.7195,4371.5503,1785.386,-675.98236,579.22156,6943.93017578125
511,-3620.1045,-3821.0798,-1284.6956,-1518.473,289.9262,375.01816,3681.74609375
512,-1331.2114,-3082.6753,1637.9873,-2276.7566,650.8153,-58.461742,5823.7451171875
513,10577.3955,-1838.8267,3041.3398,-2125.4058,122.3523,-1114.51,11606.4091796875
514,3197.8286,1457.8881,2024.6171,-304.2774,2137.0022,677.1392,4209.0546875
515,162.23544,710.1062,701.3223,148.30574,-994.2208,1426.4198,3070.96997070313
516,1079.831,-3040.0469,767.2223,-524.08856,-1229.8168,329.795,4633.66552734375
517,-4414.8066,-1451.1597,-569.95984,3528.3206,524.8891,896.4769,7263.32958984375
518,-194.60474,3574.3706,1802.8796,-347.14536,48.974834,126.60274,3329.18310546875
519,17187.762,19698.145,30533.65,2087.8801,403.48074,919.5792,12923.4072265625
520,-4263.0347,-2171.413,-2282.893,913.252,-684.0771,-1818.04,4239.80126953125
521,-3332.5386,-749.17816,-342.26,-1809.6628,-1739.0898,-1198.4691,5576.5107421875
522,-199.02075,-3251.135,-809.14185,-881.15607,1057.725,517.1368,3783.31005859375
523,1748.616,449.16632,332.75314,-6056.007,1065.5586,-994.70654,10874.4482421875
524,-6824.5317,-4144.139,-6660.9214,952.6425,342.017,-972.96423,3561.77197265625
525,-3358.0657,3662.8906,1073.2883,-519.8809,276.78052,324.14655,6258.93310546875
526,-5922.8057,-1130.2693,-1465.8633,-1751.2733,942.7069,-775.80756,5928.34521484375
527,-66.17723,188.87303,-160.64337,50.102154,-610.30615,248.33638,1186.60546875
528,-1754.9316,-3442.0923,-3895.1921,191.84564,108.72066,-678.6477,2311.67163085938
529,-3660.6406,405.64316,2473.55,-166.12274,-871.3833,1349.0652,6086.06982421875
530,-5316.0796,-5260.895,-544.2915,-474.4115,1445.3412,214.11739,5439.61865234375
531,-2820.9634,-2849.3232,-1017.19995,2948.6206,-2732.141,427.9271,7234.0693359375
532,-490.1964,-1497.7117,-140.09735,2693.5396,454.37314,-1002.9324,5185.83056640625
533,-2768.4944,3023.6238,912.36523,1811.7084,-3519.6936,86.10206,8532.9482421875
534,422.2339,2273.3906,5490.3047,2781.8884,-633.4263,-197.57013,6653.4072265625
535,-17571.607,-25523.361,-33317.062,6398.792,-2168.345,-1160.1178,18080.98828125
536,-1453.5096,-5439.479,-2088.436,1611.607,-36.536003,-1418.263,5252.6689453125
537,-494.57068,-3098.116,-1288.9043,1527.3906,382.216,-477.9052,3669.27026367188
538,-211.64075,-1574.0587,-2701.116,-936.8836,2450.222,1071.3383,5361.8349609375
539,-114.4607,-185.02798,-8.423935,897.9022,126.32897,823.114,2126.69189453125
540,-695.2428,728.02454,-675.31323,277.76627,-274.5005,563.00885,1845.58203125
541,-275.61414,-382.773,1056.3892,-98.63034,1244.067,846.5521,2958.15747070313
542,1265.4197,926.9283,2670.5303,559.8278,-455.4264,98.1977,2038.60729980469
543,1893.3875,-2896.6038,4806.726,903.9579,1331.3638,-1045.6176,7512.3486328125
544,-1012.76184,925.5313,-2571.747,-2023.3761,2671.9487,-1002.1299,6776.58203125
545,20777.508,13392.994,34233.684,-225.26927,-479.10745,936.4926,18396.7109375
546,-4038.2412,-572.14636,-659.322,3053.6575,923.5799,57.185574,6500.96435546875
547,-819.78076,4456.278,1801.3148,-2910.7405,137.746,-517.7761,6867.04541015625
548,1776.0278,-949.1253,-1974.2104,-381.10977,-1131.137,-242.88327,3965.0849609375
549,-5423.6885,-2188.4292,-798.3187,-1765.8634,1145.485,379.1439,5533.4580078125
550,4419.953,-2360.2524,-694.50543,-1787.3049,358.606,40.85429,6886.65185546875
551,-798.2572,-2359.4265,-574.89197,-1422.7231,13.607222,-407.30664,3067.00634765625
552,2571.0747,-0.020080566,257.2574,-1519.5437,-943.4477,81.40453,3953.78735351563
553,168.58179,1413.8768,5369.304,2886.7056,-97.26327,214.95058,6876.6298828125
554,3340.0566,2050.8013,-242.59119,-504.5852,928.70935,-331.73685,3682.3994140625
555,-1012.8546,-762.67084,-2518.849,1903.5195,-1165.276,-1128.248,4633.57080078125
556,-6143.9053,-4179.01,-4261.4873,-2026.7354,-362.26382,-2267.4436,5643.23779296875
557,519.4254,-4621.059,649.51355,-2494.586,-1103.4437,292.2354,7048.97607421875
558,1346.5674,1810.783,426.3714,-248.07637,1427.8693,-954.94257,3244.4150390625
559,-3192.1016,-2447.1362,1889.5249,-761.78577,-189.47003,1464.8424,5556.81591796875
560,-1580.3973,-2472.4448,-1065.2717,-301.63745,1257.9642,-331.50204,2621.19775390625
561,-5048.783,336.00415,442.4961,1809.4115,613.39325,1109.3525,6650.06494140625
562,121.231674,779.50006,-388.63013,1041.9015,-30.988932,-30.34727,2071.52661132813
563,-647.9204,-111.11865,6907.5625,2489.2192,-1551.4976,-2235.8896,9701.822265625
564,-1102.2834,-4722.0566,-105.41174,172.99246,-17.856295,329.93118,4257.02490234375
565,625.2921,679.3265,-391.5849,-3163.9258,2310.3555,861.7002,7025.951171875
566,289.69528,-15.258438,170.15468,707.4496,1938.6255,634.86163,3749.16552734375
567,1474.6353,-1779.4872,-157.88843,25.72277,291.28876,213.2882,2887.0439453125
568,3746.9001,-2181.1147,-72.45709,-6.231923,-1579.3911,-304.30316,5903.30322265625
569,-1494.5732,1319.4092,-2758.6265,-385.82816,682.47833,936.8615,4189.31982421875
570,1105.0995,-1018.2296,46.935555,665.04504,3447.2085,2434.529,7624.8798828125
571,720.9433,1432.5161,762.1485,423.71088,-919.61206,181.4856,1911.32836914063
572,339.27032,-3336.338,150.6347,-272.29645,-2045.278,530.8672,5144.8720703125
573,-2255.4624,3487.916,714.7937,1311.9371,-1463.0331,-1286.6327,6426.5634765625
574,-177.22977,2110.0188,-2225.8074,1518.936,-383.25357,486.23285,4710.11669921875
575,1231.0645,3113.8083,-874.1953,-1930.6134,433.70316,98.29893,4869.8662109375
576,-81.91748,1325.4697,1775.1069,-1651.8539,-664.9632,1951.0677,4873.20361328125
577,-49250.13,-52411.746,-83078.19,5472.913,-2402.96,2529.5972,34260.17578125
578,-4334.5186,-2817.9165,-1622.5054,-1896.164,1828.2135,1804.7257,6010.53759765625
579,24634.041,10281.132,22718.037,3219.2805,5387.6875,-2805.297,17998.85546875
580,1921.2522,8514.242,7278.938,-7193.9897,-2470.8313,-2279.9646,15033.9404296875
581,2204.2925,-1850.1052,-1368.909,1507.7983,-285.20026,-518.2423,4752.77197265625
582,5816.3945,-4619.656,83.8597,-6695.7183,-18.144669,3811.7703,16125.625
