Element Label,S11,S22,S33,S12,S13,S23,Mises
1,3723.894,5126.4883,463.14304,-65.46473,90.30822,197.58347,4162.65771484375
2,2663.7852,4502.811,-381.09442,517.6104,-43.643154,-379.87305,4415.34912109375
3,4450.992,5203.295,994.7844,468.34467,93.748405,211.08417,3991.18041992188
4,-1140.5594,-18.623394,-1322.2534,2036.6962,-740.4325,-183.75426,3960.55712890625
5,2928.874,4310.213,923.48035,2961.154,803.86975,-108.32494,6081.0322265625
6,2449.1375,2917.9917,-2837.7678,-388.49896,-255.39777,-201.73877,5605.40380859375
7,6811.0986,3006.6587,1455.4597,847.31287,293.76508,109.86924,5022.98193359375
8,-2241.799,2097.671,-1791.109,-52.604843,-334.7748,155.66934,4182.77294921875
9,9446.542,5256.59,2319.1074,883.5556,1397.3732,-441.11755,6875.76416015625
10,-7114.0054,-2953.9277,-1048.685,-860.93585,-1082.9851,1149.0867,6210.1171875
11,2275.5417,1876.2001,-179.168,469.37967,341.09225,354.98346,2567.65063476563
12,7160.8184,3556.707,2668.1924,-109.92747,-782.2695,-360.85855,4386.81298828125
13,-1127.1995,1922.6769,-1462.9374,789.9893,205.23923,-156.67587,3537.044921875
14,6320.9067,1709.2163,-251.66237,-210.02812,-1757.0924,595.329,6679.32666015625
15,113.68067,3285.1543,-703.3066,668.1539,855.6095,-711.5318,4286.15087890625
16,2178.1147,-183.81503,7833.773,482.65662,-396.99567,408.87296,7252.3564453125
17,8054.6553,2778.172,1951.9209,276.0716,234.74333,3776.602,8721.5703125
18,5441.065,7189.067,4289.7363,-2482.2659,-2696.9956,3058.6091,8646.6845703125
19,-16539.389,-3456.4744,-1111.5228,14691.658,-3323.0718,-1125.7926,29863.109375
20,-6679.277,744.0772,-38929.1,5569.263,-2987.573,-3836.7573,38711.0859375
21,1634.3461,4849.7744,-2373.9475,2417.3765,642.11536,-1194.0211,7895.4990234375
22,1450.5022,2121.6726,3137.9302,-1017.0821,151.54381,2229.2349,4499.56201171875
23,685.1521,12233.251,-5433.162,4467.1216,2686.0117,-1046.4176,18062.162109375
24,6678.8423,19691.346,5738.8457,7749.3633,4639.6772,5853.4316,23020.99609375
25,-4972.0605,22771.475,16409.865,633.1008,-3677.1624,1475.6881,26114.751953125
26,-2378.7886,5705.587,-3293.256,8067.0015,3103.8923,-2678.7498,17867.439453125
27,2849.2478,9078.721,10954.118,5343.671,501.98126,34.36516,11850.322265625
28,-4221.784,401.10135,-314.20624,-70.53372,-497.41486,-1533.7681,5137.16552734375
29,5596.196,1729.9795,-2414.6885,8014.3535,-61.300407,1420.716,15713.25
30,-10864.666,4491.964,-2717.3838,1991.16,2830.6572,-1273.8877,14761.09375
31,-1414.4695,4002.0828,-13281.915,4849.6646,-2375.1667,657.98114,17978.787109375
32,1021.248,6358.082,3004.459,2501.5698,1045.3512,994.95856,6844.8896484375
33,-197.88712,6772.459,-5243.8916,1653.5267,-105.71906,-87.04189,10838.7724609375
34,3311.279,5917.711,6075.0166,2406.0483,-605.5155,1498.5591,5694.94775390625
35,3359.9539,5982.375,1235.1085,470.491,-722.5756,670.24585,4532.375
36,1997.1417,6812.7456,-858.3461,2356.444,402.0145,-1483.0837,8296.7880859375
37,-337.4512,5907.7363,2147.1624,925.91815,-139.12067,692.94476,5807.697265625
38,1873.6638,-290.02615,1779.5461,558.14484,-264.21823,630.1866,2611.931640625
39,6707.1846,5593.1562,-1162.3042,-856.0366,-215.28001,-755.74084,7645.51806640625
40,5433.3184,512.43286,6857.202,214.85315,-240.21611,-2046.7141,6791.7626953125
41,2456.6692,4526.7593,-2595.2512,-3492.4236,314.0007,280.7171,8797.0654296875
42,7427.789,4574.0483,-755.3569,-2772.0144,449.36353,2318.4746,9567.6064453125
43,-10491.046,-13920.783,6110.055,-8173.6943,13500.16,-2265.9507,33269.9765625
44,2191.6953,-18084.06,-4748.906,-4053.4983,4204.0024,9407.991,26199.171875
45,-22916.654,1791.0056,2818.7136,3912.1677,10577.582,8098.6035,34860.43359375
46,8337.969,29386.512,16487.105,-1740.6354,-45.516964,1803.5254,18888.51171875
47,-9867.623,14767.327,-1784.8483,9290.341,4847.723,-1194.7596,28404.3671875
48,5864.026,6039.7485,17012.34,-486.53323,11931.726,-4484.319,24708.146484375
49,-33546.875,-19824.604,-18388.469,-13594.093,4322.1094,-6951.365,31072.087890625
50,1403.9249,6848.473,17545.607,8041.0854,-11191.096,-3080.9553,28292.91015625
51,-6943.903,-4725.6055,-4599.3037,4096.085,-630.636,-1769.9635,8132.78076171875
52,-396.39127,7898.6987,-4876.2705,6631.8438,3103.4895,1583.4553,17158.083984375
53,6707.197,5726.939,-1855.841,1542.6815,5175.066,-3635.011,13893.01953125
54,-8041.661,-10043.651,-11092.009,-1080.9796,-839.0699,2328.3296,5393.2216796875
55,-16306.579,-5691.452,-9746.901,5970.5815,-651.96655,-9259.504,21248.822265625
56,-1917.0586,11430.295,2703.4944,359.66287,-4847.411,914.9774,14533.4443359375
57,9384.238,-5946.0513,9452.557,335.15564,-1104.0541,508.65967,15519.013671875
58,2535.7722,739.13306,-11918.326,2013.7505,1448.7651,-904.3958,14390.8369140625
59,11701.272,-521.0663,-3589.4138,-1610.7261,-340.39917,-4957.552,16678.296875
60,848.1003,3135.7188,-4702.053,4520.746,-6530.5327,-3508.8142,16580.84375
61,9560.3,-2736.522,-14584.1455,5376.8027,3525.8083,-8407.163,27808.833984375
62,6446.032,2426.7952,22612.484,1885.0037,-229.76358,-2921.8198,19465.724609375
63,5411.564,-3500.2617,-28887.178,5825.254,1795.3301,-1190.8718,32647.890625
64,-1369.3197,-223.32024,-12732.172,-2715.6772,-969.4133,682.71313,13030.419921875
65,-1488.5156,-5368.585,-6270.1934,4763.4185,3091.024,1981.6665,11308.4443359375
66,2950.566,-4853.499,-6615.3955,3216.2754,9192.434,4357.408,20475.705078125
67,5075.665,1494.9855,1900.278,-1386.0333,-2749.6477,549.69806,6394.19775390625
68,2390.4495,3505.1091,4758.9785,1836.7823,-3290.644,-4224.7144,10018.146484375
69,3782.623,-7143.197,2350.418,-1800.2642,-4042.4526,6267.6143,16803.953125
70,6888.1997,-121.21902,25.240223,-3251.3906,1661.734,6392.4907,14516.10546875
71,-6664.066,-10107.579,4162.4897,-180.45958,-7451.2114,2213.5308,18647.037109375
72,14924.715,4761.1626,25568.11,4378.994,-4642.9785,-2479.9126,21573.1953125
73,878.8987,8579.525,1726.8054,-6893.704,2837.266,-1014.7244,14943.154296875
74,11237.681,13520.352,-6440.362,-4036.3582,3310.964,-8680.354,25804.77734375
75,8787.725,3889.6775,19546.754,-682.2872,-14490.779,-2102.3557,28931.818359375
76,10880.187,-7799.5723,-11052.666,7223.268,17594.01,-1330.068,38868.5546875
77,-5363.4116,3122.8354,-247.8956,-37.328564,-3273.6272,3545.6362,11164.3203125
78,5276.484,4874.7407,696.83765,964.18555,14.377932,2.2591884,4699.39501953125
79,3917.4294,8113.529,4012.6396,-584.42163,215.13559,13.908289,4287.29296875
80,2169.7258,2606.0413,3466.3542,736.64154,-769.5284,-1107.1215,2896.11376953125
81,-442.22733,162.66136,-2109.2544,1591.8801,583.55817,1159.7316,4100.248046875
82,3711.61,993.19104,4546.006,-1100.186,72.85079,-563.3379,3866.96948242188
83,3343.7644,3193.4749,664.6606,1614.9059,278.90707,898.8178,4156.716796875
84,1886.851,2117.0618,-4670.8164,-1621.36,-912.4167,-580.83374,7480.75390625
85,4016.1611,149.52443,483.98755,-180.38104,711.8038,155.83617,3931.91528320313
86,-2618.877,-378.20416,-6405.1255,428.1892,646.0668,84.025,5446.4169921875
87,5920.572,-422.4727,2841.415,868.8351,-1334.1243,271.8446,6165.2392578125
88,-157.24377,535.8825,-4584.5645,495.79715,4993.5396,-1039.0747,10096.1904296875
89,66.543495,5648.167,-7036.161,69.04354,-2011.2384,1737.006,11935.185546875
90,8850.075,10402.909,10542.661,-555.229,2194.7065,-2517.2678,6085.4580078125
91,488.0898,8755.274,20657.926,1321.3125,-2519.7732,1412.9636,18403.685546875
92,2678.928,3741.187,869.56445,1670.1699,3503.8257,2396.6526,8291.8525390625
93,-2761.7358,-1004.40094,3924.072,-1285.8699,-112.88745,-1264.015,6769.849609375
94,42.878735,5165.2197,-3903.6104,1670.7366,1665.588,1897.6438,9461.9345703125
95,9982.451,2533.3992,7539.2104,267.68484,-865.0229,561.9509,6831.18603515625
96,567.1962,4046.5095,-945.8775,-1604.6235,2846.043,-2293.0325,8213.26953125
97,11582.388,6654.633,15492.046,-3335.6377,5790.8696,11478.603,24250.5859375
98,-30423.803,-10104.49,-44663.336,-5735.0527,5037.053,10881.931,37881.57421875
99,4498.435,7991.863,-8792.05,7298.6655,-7891.022,414.5139,24133.0078125
100,-2506.6892,4326.5903,-3338.268,141.34743,555.37665,1734.366,7942.1025390625
101,-4843.889,1455.0986,13911.854,1560.5238,-527.7396,-1091.4364,16882.767578125
102,6552.8013,5629.752,5761.917,2510.0938,1675.1519,-1992.8784,6323.15576171875
103,1838.2029,7664.579,2896.3928,1131.993,-498.25,1395.4303,6271.4970703125
104,4627.296,3022.151,-7170.186,451.09732,-257.71515,-1920.102,11605.623046875
105,-335.93213,5465.385,10961.87,1628.6952,-1008.5894,-3036.7053,11594.3056640625
106,5726.6855,4313.7734,2543.023,-907.7578,-895.46375,-366.06668,3593.5283203125
107,2963.4392,-1248.392,5225.6113,1393.7517,-1956.6879,4604.264,10644.0634765625
108,1680.1661,4231.7495,-570.66003,-1855.3861,35.287357,-897.8984,5483.587890625
109,4504.292,1837.3925,-13005.89,2751.0925,2018.7433,-2174.311,17780.1953125
110,8012.3335,7869.763,21263.629,-2843.2615,971.98114,5930.178,17609.48828125
111,-5066.1616,-938.1174,-16070.4375,1797.3491,4758.278,4096.721,17650.08203125
112,105.05243,4950.0,6501.7505,3164.3308,-6297.811,1133.6041,13648.48046875
113,664.6029,4875.9106,-4667.702,-1053.2484,525.20844,-1065.7809,8728.5595703125
114,771.82416,-6489.1533,-22154.42,706.3364,5511.695,-6111.7886,24830.67578125
115,3702.4636,3189.1565,1087.9799,3005.949,2737.9443,307.0329,7458.95361328125
116,-7304.067,5377.68,-28672.074,9882.076,10125.291,-3842.6404,39156.48828125
117,-287.74213,925.9521,6639.136,-5758.659,2036.6486,-5333.1704,15437.162109375
118,20477.31,13143.655,-389.12418,5199.437,-19416.076,1195.0995,39401.80859375
119,4834.0444,-602.22845,9537.787,-7031.236,-13975.818,4160.3857,29384.705078125
120,769.7801,-99.421524,-9926.003,-838.7106,4560.9736,-3005.6187,14052.66796875
121,-2548.9543,6300.1455,-8358.128,732.99646,-615.6336,-1586.9735,13181.9326171875
122,7200.762,-0.71426797,2109.635,-619.74066,1806.587,834.0363,7358.5029296875
123,4975.79,-1853.0411,-3892.1155,345.80334,396.18442,-3722.7173,10349.916015625
124,3835.5012,5688.8086,-130.92148,-1991.4279,3429.6895,-251.65782,8596.1572265625
125,-23316.361,-20130.094,-6302.496,-578.5192,8858.117,17158.684,36946.94921875
126,-5159.0327,21117.549,-6527.5576,61.920406,12763.346,10974.443,39728.171875
127,-10138.938,-8088.8066,-45895.11,-1360.2275,1250.7736,-802.7353,36989.03515625
128,1272.14,5185.482,-14398.267,4682.4385,799.2563,506.25134,19765.1328125
129,1503.2034,8979.577,-3119.2268,3464.8662,-1386.3113,-7001.4097,17339.62890625
130,-374.7079,45.359364,-20275.855,-872.6845,107.44197,874.7462,20228.86328125
131,4152.8564,4801.2676,1377.5464,-436.53568,709.9552,-357.21524,3519.79150390625
132,1890.0868,3372.8887,2201.933,1396.6638,-760.08453,-881.77136,3428.01708984375
133,2641.281,3113.2236,-1063.2595,-417.39905,-1231.6792,-884.63995,4807.93212890625
134,5504.1016,3798.9385,-676.8507,663.7738,-1019.35034,105.297485,5919.8388671875
135,-8318.6045,15092.095,519.1975,5777.159,-5500.5347,-4315.439,25807.59375
136,2144.409,2183.6045,-1357.2892,1276.1292,1234.3275,-1994.9934,5813.5087890625
137,-431.17688,2190.2212,25942.562,3109.401,2544.788,-13547.324,35104.59765625
138,-37744.86,-27975.963,-21208.857,10691.214,-2514.2744,520.1841,23874.984375
139,-5582.862,-4282.71,-4807.4805,-3260.309,1395.0087,1138.1812,6549.5693359375
140,2017.4832,1352.4066,-7720.8384,5186.0083,4260.763,-2385.72,15524.8779296875
141,5104.933,380.02402,-2939.9658,-3683.8975,-3781.9666,-773.2669,11595.287109375
142,3282.5596,1704.3379,-1829.7961,1106.9314,19.810562,1576.2899,5629.35791015625
143,-1596.002,-11041.693,-25853.764,-2725.2046,-6013.921,3524.8855,24831.1328125
144,373.83096,834.6445,-1893.838,-2389.0535,-8471.891,-623.3995,15492.16015625
145,3649.581,9023.474,-4848.7705,-2338.9053,4936.83,11349.906,24955.146484375
146,1152.3031,2624.7747,925.609,-357.12057,4639.7505,1501.8811,8618.861328125
147,-633.4658,-4235.6885,-12461.942,3219.933,3595.3623,-1902.8964,13821.248046875
148,11632.913,10541.723,19163.604,1015.8586,-7982.5083,707.005,16182.5888671875
149,9274.461,4801.3496,9841.308,-1129.8842,-2707.9265,632.6631,7063.6328125
150,-1028.252,4263.9863,19429.209,5526.0747,3344.254,-6627.3584,24396.310546875
151,13830.999,4057.249,8887.636,4195.1426,-3484.2412,7356.9355,17978.84375
152,1809.9835,8813.505,30143.559,-8477.357,-4682.533,9444.378,34675.20703125
153,-17852.896,-8072.4053,-17107.078,13031.301,6863.4824,-729.16724,27226.482421875
154,8159.8896,14240.874,15469.862,1635.1544,1574.2974,1332.1182,8169.59521484375
155,3430.0522,5070.213,3635.3547,2354.0327,168.54529,-1289.5226,4908.5419921875
156,-1593.2253,5636.603,8033.7217,2823.6362,-1480.1604,-644.0623,10348.1005859375
157,2963.73,4225.6045,-15867.955,-3394.4211,1116.7877,164.4654,20454.265625
158,1211.8003,2778.8289,-9475.871,3139.1663,1561.4398,-872.77893,13137.4423828125
159,5287.318,-2946.249,-19880.818,-284.68744,145.41183,-1385.3732,22362.189453125
160,6079.0347,3608.6643,-2048.507,-356.71613,363.76312,1051.728,7495.2470703125
161,5701.617,6524.2456,18417.117,1007.7507,-479.75867,-252.75162,12483.1630859375
162,3664.912,3256.2727,1066.764,343.91937,183.0498,-512.2417,2664.2431640625
163,2358.1274,4253.8135,-2293.6216,-1877.6976,648.08203,-140.87592,6778.45556640625
164,1004.06573,5805.1543,-4456.2793,-925.4949,-831.465,1245.1605,9400.8681640625
165,-1514.2181,-6332.3926,-24693.129,3319.159,-9392.99,-949.38214,27372.173828125
166,-2154.124,-7087.2603,33062.895,908.6382,896.61383,953.475,38025.26171875
167,4103.4175,-1032.1843,-1152.2899,-6776.2974,331.36642,-1115.8152,12993.259765625
168,2002.4945,2555.561,-2655.1519,115.33823,-51.70299,-860.8625,5181.38232421875
169,142.19994,4164.2646,696.84674,-685.5378,412.16196,-510.4693,4117.6533203125
170,-1086.3372,4257.9487,-998.95514,-2356.083,53.04895,723.9331,6807.06201171875
171,563.07025,3116.7488,4926.628,-4240.782,2919.5889,2329.0361,10498.4150390625
172,7323.625,593.75543,-10076.531,-3434.668,2238.5847,1857.8503,17080.2578125
173,6611.3027,10993.035,20168.988,2341.0222,2437.3882,-762.71985,13401.986328125
174,3509.313,5814.462,1952.899,55.562748,2.5225332,341.44446,3418.03100585938
175,3731.0813,4190.7993,11837.676,521.12067,-4077.547,906.4943,10740.6025390625
176,13995.473,11431.536,-6317.5244,7906.1216,-8628.774,-5749.578,29617.0703125
177,-1994.1719,-13838.6875,26714.346,-6985.4683,-4782.2,1630.5369,39083.046875
178,7389.7837,3579.8054,9340.238,-99.8312,-610.23175,-349.1709,5221.513671875
179,4344.9263,3488.3655,-4886.059,-1700.2101,430.39755,-885.3883,9466.65234375
180,8828.668,8035.1167,21682.973,-4357.062,-4217.8335,4956.298,18975.78515625
181,7353.6343,5973.7974,4628.6123,1263.6534,-315.9212,1106.2734,3785.6318359375
182,-634.2531,1093.9457,6479.1187,-626.02673,-1472.0776,1547.3575,7493.53857421875
183,4237.134,11939.026,28840.953,1643.3115,1435.8546,-637.6402,22151.236328125
184,-236.43367,3408.3728,-1624.5278,-5688.414,4936.8413,-758.34125,13863.166015625
185,-1738.549,-1344.4805,1819.9656,-4333.666,241.09221,1812.7236,8819.8798828125
186,738.16003,4373.8228,7777.399,6646.425,1732.3673,1132.0098,13511.0751953125
187,3913.5002,534.0546,-812.28314,2472.6948,1519.5166,-1025.4762,6797.60302734375
188,-9192.68,-462.5302,-3557.5342,1375.9019,-6177.637,3302.6965,14548.78125
189,-1699.339,-9282.682,-22066.576,5612.0464,-1404.5997,-7453.214,24185.42578125
190,3692.9854,-260.22507,15941.544,109.799416,1895.8724,-2603.781,15659.9609375
191,11575.135,5963.088,5983.231,-4096.9985,2861.9363,-554.3703,10355.3193359375
192,-4938.0527,-7231.5957,-9128.497,2853.5227,1002.76636,-3970.7852,9378.4326171875
193,-2802.7131,479.80542,-92.847404,2776.0244,1188.9327,2610.3694,7551.4775390625
194,-312.15128,1272.8588,2418.5894,2481.023,-1313.0393,-936.4873,5648.9482421875
195,182.1386,-2385.883,7539.957,2987.3416,-820.64124,1816.7417,10877.5869140625
196,3862.065,-134.94225,-555.8986,3291.9907,1844.1609,-4225.7656,10682.767578125
197,631.1698,761.46533,624.2003,2292.2546,553.3368,-2187.9985,5573.31005859375
198,100.162865,-5810.5376,-7707.8535,-796.5122,-623.4613,4266.029,10364.220703125
199,5915.8105,-3588.5789,-10784.869,-1879.1736,343.74326,-893.0849,14961.869140625
200,330.87656,-879.2683,-1062.0804,3558.0254,1467.705,1284.024,7148.87158203125
201,238.88298,2428.5503,-778.53644,450.46338,-3672.4233,1985.8549,7807.5146484375
202,-1384.3558,-1414.1168,-3102.0676,3792.541,1891.9806,808.5916,7664.89599609375
203,-3501.3132,-6877.847,-1757.6589,5368.233,588.9983,422.8784,10409.6025390625
204,7606.0854,577.94543,-1766.8058,-609.15625,-1875.7468,965.9901,9264.974609375
205,733.2662,-1421.187,1552.4719,2337.8145,-1171.6267,-452.74704,5311.01708984375
206,7643.6187,3233.3162,5468.3813,-176.79816,1482.9563,-1065.6965,4968.63671875
207,-765.62634,-4803.615,-4208.9146,-2862.3376,391.8375,1219.3102,6614.931640625
208,-1692.5201,-2232.4695,1568.0562,-1044.3278,832.8651,2157.3547,5656.751953125
209,4977.2925,-4160.048,-1921.2024,-4177.1416,-224.81232,-262.4002,10988.6328125
210,2248.6494,578.17487,880.7966,-1811.5493,-2193.23,-212.25212,5175.67431640625
211,2547.4783,-3964.679,1214.5919,-4320.3936,-174.97498,-3389.0625,11227.2568359375
212,-3475.4111,-5409.404,1063.4738,-5376.2197,444.28925,1908.6924,11460.919921875
213,-8730.751,-1533.519,-3108.0732,-6339.434,-3170.082,-2398.3438,14522.96875
214,1161.4988,4069.5823,-8956.883,652.54846,-3653.0679,4568.1963,15626.2958984375
215,-3151.6301,4037.372,-729.6673,-1107.2313,-339.75488,902.6821,6826.7744140625
216,-413.17023,4188.5776,496.3229,-154.80002,-643.8788,438.1872,4439.5556640625
217,-709.1491,4194.3657,658.47125,-2016.3306,432.64432,-359.08554,5688.04296875
218,59.4059,-1324.9854,-5875.864,366.234,-518.70123,1858.6145,6363.9697265625
219,-1439.8232,5684.8193,-10661.041,-1362.3273,-786.711,124.03625,14455.447265625
220,933.91736,4284.7275,-1739.5928,676.31354,883.02496,270.68423,5591.53125
221,1954.3118,3470.599,6292.983,-686.0135,210.93085,-610.2089,4148.12060546875
222,809.42224,1971.3986,-62.491478,-805.6745,-355.28625,-163.1817,2351.482421875
223,668.17993,1261.193,-1210.8782,-1490.0465,-443.09766,70.27502,3501.62353515625
224,2944.1743,2509.7058,-1904.5863,-1016.68353,201.42041,450.13947,5042.1357421875
225,-1577.5702,1232.7904,125.01227,-999.0031,602.3445,523.16516,3303.88061523438
226,4238.403,639.57477,9180.814,656.4535,-360.95667,726.82733,7644.23828125
227,-805.5314,-5528.0527,-7576.0107,1587.2001,389.5845,-1126.3198,6927.23583984375
228,4559.154,1965.0669,-213.71953,-1007.30334,1016.46313,385.88712,4870.18017578125
229,2310.0557,6775.917,8159.027,830.5184,-2351.6912,887.58704,7004.1240234375
230,-3784.1685,9681.55,-1306.2113,4665.4844,-761.4465,2277.2092,15384.896484375
231,10901.353,1529.9005,1942.3237,2345.359,2401.6675,-570.4581,10904.66015625
232,9332.862,-1990.4432,-12269.695,3184.2856,-3002.6492,-2247.9211,20564.5703125
233,2640.9153,-3138.973,3332.3855,3822.6206,-527.7906,-2580.4143,10125.732421875
234,2425.4072,5736.9434,-2169.889,1782.1381,-4184.854,4870.0513,13435.7646484375
235,18701.293,6695.6626,23850.098,3625.5325,4647.7686,-4384.163,19858.53515625
236,-179.46068,16794.404,5313.6885,-2899.2168,-1783.5394,-634.7925,16155.9619140625
237,592.8597,-11530.357,-24527.604,-7246.9414,-5251.849,6149.678,28761.521484375
238,1636.2051,-1542.4808,1183.0063,311.5524,-1448.4376,-426.50293,3999.96020507813
239,1717.3352,3754.0007,7755.366,687.2258,-1866.9982,-4339.7886,9832.779296875
240,1200.1669,-2389.8782,-538.374,2380.9438,-1003.99713,-185.4709,5459.2509765625
241,-903.72095,-9162.91,-8186.4565,794.08466,3075.1077,2497.6318,10491.806640625
242,-1120.15,-6378.3374,5314.054,-3382.2817,65.2397,2951.387,12780.61328125
243,5214.5293,-154.55293,532.53314,941.09625,274.333,-230.61514,5352.79541015625
244,8611.173,1751.1426,-1906.7845,-4324.993,-3300.38,1932.9232,13621.1865234375
245,6465.6543,-702.2636,10038.722,-3318.3655,2364.4868,-10163.356,21200.13671875
246,-764.9198,3177.7864,-418.37946,983.8832,160.14096,1249.0485,4686.16015625
247,-10713.662,-9708.463,1017.01276,-2415.4521,-4428.02,4027.4968,15868.6796875
248,10312.773,4307.4473,-898.0718,63.296543,-2070.339,1291.3408,10596.97265625
249,-4399.3145,-228.21461,-8660.062,6330.115,-7744.914,6069.909,21541.06640625
250,-4843.4214,1982.7166,5813.779,3093.0156,4780.843,-5237.544,16339.822265625
251,6871.3545,4965.9526,9176.928,1163.5681,-10100.339,-8788.889,23562.3671875
252,-11379.275,-7055.918,14643.983,-1860.8383,15132.671,6208.4624,37368.56640625
253,6138.5083,-575.7943,-4842.2383,2639.6047,-480.13812,4204.4863,12905.7294921875
254,-27499.744,-45631.152,-17766.795,-799.67566,9757.494,10246.1,34676.25390625
255,-16555.99,-7468.2017,9618.466,-159.54706,-670.5109,-7371.25,26348.685546875
256,-36305.367,-19356.697,-20652.627,-5294.2974,-6730.1343,2225.511,22400.984375
257,-11641.938,3006.6401,15063.717,3400.0786,66.242325,11776.626,31421.87890625
258,-29678.271,-1927.4103,-11468.803,-9050.279,3366.219,-14147.801,38426.08984375
259,1377.2538,21160.297,2896.7273,2299.7234,-16476.096,-2317.8926,34784.8671875
260,-1184.059,12823.917,-9213.478,-2359.6055,-2629.3982,-3622.4607,21212.77734375
261,-2612.6018,14195.473,26799.15,7216.347,11412.835,-4559.296,35532.4453125
262,-8069.982,12059.546,-10342.333,2578.2974,-8141.536,-2607.9277,26368.60546875
263,216.73854,-7589.54,-14592.81,2588.4346,730.68756,-4336.7407,15581.2998046875
264,-2834.7832,12058.171,11130.029,-8064.342,6637.8667,6863.4927,26027.79296875
265,13834.935,-21075.857,-16010.491,270.4274,-6244.343,2493.9197,34690.62109375
266,-7995.0166,-6657.366,-5243.5615,1115.3387,3803.391,-1537.833,7739.7294921875
267,-6362.994,5485.6416,22837.625,4446.7124,-1170.762,399.6864,26664.392578125
268,-6705.436,-17875.406,-1827.6301,-2086.5518,508.11823,681.0239,14774.072265625
269,-7755.7236,-5433.677,-29673.459,-306.37744,-3756.7466,-6020.6333,26230.48046875
270,1973.8412,-294.01492,140.31564,-162.39717,1505.7242,2583.057,5589.64208984375
271,-2980.3447,-3554.3264,-16297.182,-793.5119,301.01355,-3670.0735,14580.5732421875
272,-2022.3638,8691.176,-13959.204,-358.93375,-2662.951,2245.6868,20541.267578125
273,4664.3926,12081.385,8285.812,6005.7827,-3423.956,444.6489,13610.2265625
274,2522.1309,3115.306,-12309.604,3119.7578,1680.9258,271.8881,16340.9599609375
275,4433.2866,1139.424,1091.4232,-2751.2627,1267.9375,-336.14517,6235.40380859375
276,-17374.523,-2221.1758,-20871.967,8288.733,-439.12476,723.7636,22430.1875
277,-10925.1455,787.95245,-13703.052,-939.9101,-654.3402,-2924.2747,14388.8935546875
278,4922.3066,2102.5903,9885.813,-3396.5796,-962.58923,559.1857,9214.7138671875
279,4682.9014,-2939.568,-2230.3198,-975.4966,-528.8219,2433.5125,8640.517578125
280,3606.4106,-5369.3286,12944.061,518.90155,3912.5352,-5257.1113,19524.62890625
281,-2632.9702,908.70404,1385.9915,4853.3047,2306.186,-3317.5894,11580.1572265625
282,-27.101835,2033.1097,999.7599,-256.20822,-140.28441,-340.50055,1946.06091308594
283,3900.529,343.47626,5462.356,-54.332066,-398.3388,-231.25735,4614.40625
284,2624.1714,890.63025,4022.0586,2668.9553,-624.1091,352.59998,5504.00146484375
285,-13001.497,-1751.1106,-19577.969,4715.727,1359.4329,-238.68643,17783.091796875
286,3736.9097,-8443.597,-3178.6284,-1088.7743,952.21674,-952.9343,10997.9697265625
287,-3578.567,-5970.052,6482.149,352.04684,-4176.432,184.51765,13557.2470703125
288,-4703.7,-2570.1982,-3873.1052,-599.3538,-430.52545,-96.383705,2265.22485351563
289,5682.113,-1615.6423,-4009.3086,5739.5005,-3900.477,14.416366,14863.466796875
290,3160.3936,694.7472,6989.8516,-503.94498,559.3017,-3310.427,8047.56884765625
291,5251.5063,4120.7036,8819.316,2190.9778,359.9878,-7.6774573,5729.9716796875
292,3182.0056,-5293.578,4112.3438,977.07086,2821.1926,-966.80255,10494.3662109375
293,-1862.4219,1569.4614,-94.56951,-2266.4038,1255.208,3076.6033,7574.2275390625
294,7882.903,671.3963,1999.0461,-4448.07,3408.0999,5105.6875,14717.3251953125
295,4509.9023,5802.237,-3713.5688,-3927.514,648.1659,4192.9023,13423.890625
296,2502.3147,-624.59845,769.23126,-1281.5651,2735.5664,5262.404,10854.392578125
297,-2215.0542,3917.2686,230.90277,-2879.173,-108.85987,-187.53929,7321.111328125
298,381.29877,8434.302,4856.836,-113.710625,249.4647,-997.7744,7214.7021484375
299,1249.1141,2480.8535,-833.8216,-888.9658,475.97382,135.48294,3395.13452148438
300,1331.4766,355.14688,-3373.5178,1695.5703,-1097.1508,211.83011,5555.83251953125
301,20487.111,18964.848,57198.74,522.58057,25.722654,1610.8843,37610.52734375
302,-16726.1,-11908.901,21496.027,419.4264,-2027.1893,-6.7090907,36233.5390625
303,-3677.2002,15417.531,34573.71,-98.878395,1952.3762,7581.6416,35794.671875
304,-3120.1394,-3026.7937,33007.227,-5089.5356,1680.1692,5172.401,38317.921875
305,-4202.1597,16092.569,-1058.928,353.81284,380.481,926.51904,19009.2109375
306,-23025.473,-14668.99,236.85255,-6009.7295,-758.1043,-4287.183,24120.3203125
307,7733.003,2283.739,20364.426,469.39984,570.82324,1273.206,16265.9453125
308,-10494.509,19694.19,-2791.2834,-3772.1172,-802.1243,2320.5244,28265.138671875
309,-357.30826,-3580.2112,8824.226,-12324.836,3079.5276,3469.6711,25387.98828125
310,5093.0835,19155.412,-6355.835,330.30783,-4905.067,-449.34607,23726.30078125
311,-19431.205,-17427.729,1419.1106,-9395.359,-14017.949,-9106.121,38730.70703125
312,-3759.7246,10172.363,7291.132,2329.3896,141.41884,-0.06304856,13364.1748046875
313,124.63575,-1939.3344,-9241.848,2155.2444,1767.7576,-4371.6914,12381.6005859375
314,180.14655,8088.189,22087.637,-3661.8726,-1649.6549,7848.9077,24544.611328125
315,-6165.1436,2447.0698,2157.723,-1223.8103,-3363.4138,5300.2524,13945.2802734375
316,-1651.092,-810.19147,-1867.828,4540.8364,-57.949375,-266.14053,7938.29296875
317,4421.8755,-1778.2845,60.315502,2202.0798,-380.1228,957.4544,6939.302734375
318,-1136.8223,2261.8066,1680.8748,-2262.814,799.90796,-1001.9221,5495.98681640625
319,3535.1228,-4588.217,-3265.152,1627.1757,-7.767554,284.5115,8073.2626953125
320,7657.028,1703.2227,6974.2437,-2163.3308,681.9783,596.3853,6953.498046875
321,4336.604,-4143.185,-2526.246,-2481.2363,-183.03569,-14.45679,8909.5869140625
322,-10304.514,-17926.436,-2630.3892,4651.249,1436.6737,-1251.3541,15851.4853515625
323,-1220.8446,-198.22162,7113.1597,-2402.426,-2360.2214,-4693.936,12732.0400390625
324,2135.4333,6383.6084,4511.6816,82.796104,1589.268,-3115.6086,7093.50146484375
325,72.40668,3345.6265,-2768.5894,-1594.4004,-113.85561,288.27844,5999.9140625
326,3616.9172,518.315,-5129.489,1151.3141,-582.5876,-179.87466,8005.69677734375
327,4402.8965,-7072.6177,-15749.275,-5243.9746,-4379.3594,4915.157,22782.69921875
328,-8523.211,-1231.3619,1294.4991,2780.1553,2513.966,-357.55194,10977.2783203125
329,6560.3066,1684.9465,26001.826,-51.93524,-446.31924,-7873.758,26136.56640625
330,-2434.7578,-537.7852,9534.177,-906.80023,26.602266,1236.2047,11454.376953125
331,-748.0361,3491.3047,-4286.56,-1899.7765,-2180.1719,-4716.371,11718.0859375
332,13278.489,-6192.9707,-2201.1187,-509.57993,3431.6755,1107.0038,18897.8828125
333,8822.908,2496.4734,2014.2152,3992.401,9586.93,5140.2324,21121.5234375
334,7159.1997,3196.097,-2189.2292,1005.0881,2965.6826,2781.4246,10893.84765625
335,-12249.185,-11340.447,9587.36,-10220.37,-3052.0715,-2476.0557,28592.353515625
336,-14124.016,4437.392,-39290.777,-5957.9683,-2863.1667,-2672.0032,39969.06640625
337,-7748.403,-1248.6932,6343.6084,-1524.9579,1973.0647,1087.1766,13093.4462890625
338,-5567.934,9039.267,12075.967,1029.3705,-832.68945,-1550.3524,16715.837890625
339,4145.718,2625.4395,2071.7407,1280.9963,126.58017,-1502.5319,3899.14501953125
340,-5449.616,566.17267,-17490.174,1553.1536,381.7139,-34.703304,16164.0263671875
341,-14174.99,-8323.482,-24181.502,-86.258316,227.7672,-2119.3643,14372.775390625
342,7570.3223,2749.8271,7937.603,2004.5066,1289.7985,-784.6424,6635.84326171875
343,-3213.3928,-2173.8345,-7258.1377,-1708.6986,-2005.3203,-1748.3468,7185.98779296875
344,3121.4983,-3074.5122,2703.4248,-2712.6099,-553.55994,779.89233,7797.0302734375
345,4088.4624,-4816.179,-11418.876,-23.030718,-170.65834,4027.9111,15180.3837890625
346,-6479.472,11102.611,-3851.792,2991.0127,-2415.0095,-2982.299,18462.173828125
347,2254.1582,3113.958,232.91313,-493.4676,1210.6965,348.25204,3471.927734375
348,-1435.0193,4350.9907,-8542.816,3225.9736,720.2884,-1457.2346,12816.8740234375
349,-5089.429,3237.6067,1256.5791,1824.1725,2486.987,1578.6469,9632.36328125
350,-1557.6865,-1069.1964,-196.91519,-3037.911,529.7116,455.21655,5529.53466796875
351,1865.9598,2620.9932,1998.9583,1020.7499,-654.8554,209.57007,2243.07861328125
352,2637.8108,5269.679,2797.1438,2234.0503,-30.88931,-1211.7358,5090.529296875
353,-23.459053,-3248.925,-4962.622,469.9725,1192.3179,234.2362,4894.89013671875
354,5856.065,-3030.662,-1167.0219,-1369.4816,-750.96655,2032.1873,9251.6513671875
355,-4949.2554,10869.93,12353.582,372.3112,4581.9043,-1076.9194,18514.71484375
356,-4001.5625,5197.913,-8999.052,-735.9471,-2157.886,-217.44446,13088.7607421875
357,-4850.535,13036.017,10488.083,662.95575,1890.2494,881.7736,17181.884765625
358,-5906.204,109.249855,-20625.154,1131.0507,-483.1812,-369.0016,18609.703125
359,-4075.9924,6715.914,4190.9604,1065.7948,-766.62964,187.28973,10043.2919921875
360,208.5467,-296.13904,-198.51898,-562.1973,93.71569,133.37961,1114.84790039063
361,-396.14764,2795.3918,-2505.9263,1132.7036,-328.37186,116.14141,5058.01708984375
362,5306.303,-1338.428,606.96124,-327.6448,-3824.1943,715.5844,8985.6572265625
363,153.68988,-1593.2274,-518.8187,-490.40234,-112.49815,244.88457,1807.90686035156
364,4338.4023,5436.2456,-1833.8878,-431.0759,1004.79333,-246.5361,7060.2607421875
365,-241.94818,2744.3105,-1033.1481,-1197.294,-220.56502,204.42047,4059.34912109375
366,-220.54373,-2451.7085,-1483.0646,-601.8874,1180.3407,-156.23701,3015.76025390625
367,-3425.4763,3552.4258,1580.7103,-5550.546,-1081.1293,844.66473,11700.125
368,-42.248425,-2207.991,-2647.83,546.35394,-1596.6442,75.08913,3794.30078125
369,154.34401,-1377.2733,-1271.8741,2947.2188,-1048.608,-45.198322,5617.7119140625
370,2011.863,-1784.5493,1013.3883,305.53467,981.4834,-96.238625,3849.265625
371,4730.4023,-1547.9951,4592.008,2136.3284,-768.4204,-320.94232,7371.611328125
372,1185.3992,82.50687,1734.4852,389.62494,304.3143,-135.22511,1706.32690429688
373,-1751.0808,3853.404,-505.85812,2693.7988,100.99214,-81.38774,6913.908203125
374,510.61563,-1662.0667,-191.21538,2240.2727,-71.467606,-45.643925,4332.0087890625
375,1210.9441,-2531.356,-129.14644,-1892.349,-17.748026,-99.62394,4643.19970703125
376,-2851.384,-700.9511,975.931,-1905.1006,-1721.2566,649.2909,5664.2255859375
377,-196.83514,1613.7417,-94.6302,-739.32654,-50.71809,137.97357,2192.76586914063
378,-2002.4397,57.02306,-941.56366,-776.2486,-344.79587,-262.11975,2356.36767578125
379,1278.0619,2703.5693,-855.0853,1865.5604,-8.673586,4.7733197,4479.33544921875
380,-13973.365,-8814.104,-437.3484,1507.6913,4961.8076,-1359.0552,15040.7763671875
381,-8697.51,-2023.5281,-3495.4521,1784.8865,-957.894,-413.77243,7050.44384765625
382,808.15436,-1007.0755,-3874.1118,-107.05335,-1508.932,-90.24102,4858.880859375
383,6660.6895,1043.7354,5437.2085,62.91308,1467.6385,-428.5491,5761.90673828125
384,4739.2666,289.05762,264.1468,-406.01364,638.06757,487.5377,4727.03369140625
385,-673.3449,77.106155,2005.6086,1597.504,48.830723,-87.795135,3662.76953125
386,-440.33115,-432.38153,248.84349,1390.7848,142.68515,-48.674927,2518.05053710938
387,115.445114,-786.68713,-1370.5497,982.9799,-100.14293,-196.59818,2173.9931640625
388,1376.2765,1772.1543,468.03098,-608.6939,274.86633,277.9714,1706.21423339844
389,489.98288,1827.2363,-3.4569046,-2077.6028,305.05313,-65.73866,3991.61889648438
390,1275.8756,-1039.5499,54.376923,-2272.047,-604.419,76.150085,4541.46728515625
391,2111.7563,222.25183,-752.7204,-3319.0403,-1189.5165,960.13403,6813.333984375
392,-528.62085,2040.8115,712.3285,-2675.439,45.45746,20.232857,5141.4736328125
393,1756.2279,-809.3921,-159.93239,-408.51135,1118.9207,-124.80243,3105.03759765625
394,289.2745,3938.5305,4806.699,-215.03569,917.1108,-188.88503,4473.02880859375
395,374.9013,339.42093,720.7484,1902.8699,1265.8374,538.7564,4083.34301757813
396,310.46515,2171.8645,86.70202,-458.98245,80.83483,-3.9591575,2140.80249023438
397,497.07623,-935.55536,1717.3229,-148.95686,312.27823,282.0663,2426.39672851563
398,658.1629,364.78992,711.2101,625.2168,144.74263,27.462456,1158.55358886719
399,8167.655,6264.767,4440.7,940.871,-48.066853,-190.05193,3631.83154296875
400,8259.796,-589.4807,266.67017,1715.0927,-1574.3617,712.2936,9447.1650390625
401,5417.637,-1697.3125,5107.0244,879.89404,1303.692,-227.27646,7489.021484375
402,-1172.7239,-1680.3485,1930.4384,428.76257,-713.3794,236.11285,3702.435546875
403,2382.9285,318.3051,-1359.3591,106.556984,317.86664,110.75843,3303.77880859375
404,293.56183,-1193.9814,113.81061,1055.4266,-411.28284,679.84973,2685.8017578125
405,7573.1157,377.06427,453.39047,2282.634,1876.4974,662.797,8874.267578125
406,2830.3823,1505.3173,26.868544,-75.62246,218.26305,-187.43895,2483.16772460938
407,2539.3843,1753.9033,884.63495,-156.48285,-406.15863,-358.8925,1734.98364257813
408,-181.71492,-904.78284,27.367525,-2572.683,-870.12604,-370.53445,4822.55810546875
409,-11826.177,-7125.899,1188.1459,-4384.6836,-1574.3887,-476.1684,14003.1044921875
410,556.5423,783.5985,-136.10521,-3437.1865,1353.6227,-683.05035,6559.56494140625
411,-2539.9585,2812.459,-429.86014,-1235.793,-419.9964,-592.367,5288.68603515625
412,2343.4497,216.50635,-3.725762,728.3192,212.08798,-12.857059,2601.46069335938
413,809.5346,-1489.5958,-1870.0079,-8638.6045,-31.72348,-151.7875,15174.1201171875
414,3475.1975,1246.6335,1120.6593,-397.75864,-1099.206,205.93774,3080.54174804688
415,-5558.4062,1654.0835,1688.258,689.1919,-923.3602,567.8489,7564.24169921875
416,1819.793,-1712.6989,-3931.9587,1893.0806,1672.722,713.8439,6776.216796875
417,-3190.191,-1609.2378,-1316.2864,1357.2938,-767.3786,-153.67082,3226.85131835938
418,2497.7092,-1070.1976,-1931.2389,-199.87215,-269.32123,-136.25803,4115.41162109375
419,766.42206,-783.14386,-4763.0303,1083.3401,-1095.9553,175.129,5623.52099609375
420,43.2837,-3853.7358,-2097.4565,651.5875,411.52695,26.642454,3634.68237304688
421,1403.0668,504.6769,57.673218,-580.7569,-512.24335,-211.91245,1828.17834472656
422,1644.5764,-1320.0264,-287.3207,-951.4369,1763.0458,-29.993916,4340.181640625
423,-1237.3252,-1348.9867,1121.2628,-571.1354,3719.7468,32.05439,6951.97705078125
424,1572.7273,1197.508,1112.9377,-882.55084,276.51398,-106.05328,1667.17846679688
425,-1225.1072,3610.6414,3488.4414,670.37476,-311.5677,149.81705,4951.2861328125
426,3028.4114,125.99214,-872.51385,1284.3173,908.649,-642.25256,4580.60498046875
427,-103.10047,-442.7271,-1540.7738,-314.1233,-79.42661,66.11648,1421.98413085938
428,1759.9536,1279.3394,645.75104,741.73785,27.392355,-222.47699,1654.75073242188
429,2715.4858,1441.3442,-1160.267,-753.46716,-400.87936,81.567986,3729.859375
430,2209.6584,1252.4552,3947.1567,856.8989,821.4656,-129.16588,3142.54248046875
431,525.6462,1479.1492,299.58588,-206.7397,-176.3731,-302.43536,1292.96875
432,91.98016,-0.53112847,-349.42236,-471.28824,189.67963,-245.97932,1057.52075195313
433,1453.3446,1243.6788,-232.24916,-1431.941,2257.6343,-51.69431,4897.13134765625
434,-4178.2812,-2874.2356,-2611.1245,5695.657,-284.35602,-362.52148,10003.5615234375
435,987.7779,2027.9609,-244.92094,-1752.8783,407.16757,427.16086,3761.15185546875
436,255.00685,-1066.7583,-1508.2944,-275.3933,252.45204,-384.13986,1840.39001464844
437,994.4314,738.59894,-506.51657,-453.25098,-135.86119,59.90565,1617.63842773438
438,318.35477,2410.8313,-1936.4792,4239.143,-67.161865,-0.7300453,8252.6025390625
439,-5104.715,-10942.72,-2976.958,-2106.4448,2302.7559,312.35645,8974.6083984375
440,1974.7388,944.208,2682.5923,-251.12524,-72.58328,328.10995,1679.42858886719
441,1939.404,-1281.5078,-437.78278,-2480.544,2410.1606,-443.00864,6696.51171875
442,643.1697,4688.2817,462.37506,1714.2144,-165.14655,-15.579474,5101.4794921875
443,3706.262,997.2832,1773.6282,398.45566,-12.109089,307.97873,2568.94311523438
444,532.69446,1107.1593,2014.833,-2875.7046,-460.18665,34.06218,5207.98779296875
445,2119.8477,157.30493,-1347.2565,-158.83554,65.608246,-327.95215,3078.84741210938
446,1714.482,106.01768,-551.01166,-921.194,609.26025,367.57162,2853.13330078125
447,272.98456,-1139.0248,2930.064,-2041.4183,-197.49689,-5.0835223,5042.31298828125
448,4812.34,713.85754,-336.08264,-1625.2651,-3364.736,-701.8294,8097.50537109375
449,-5369.4937,-487.4174,2116.419,-1408.0182,374.09598,382.80032,7080.51904296875
450,1856.2014,1523.7167,387.28235,933.90393,-200.0154,145.72984,2140.12524414063
451,2889.896,2975.246,-1715.749,1116.5272,400.99722,464.38574,5146.02783203125
452,-183.6097,-352.81546,-130.93405,985.6739,-364.4613,-361.3281,1935.23840332031
453,1102.7231,-516.1203,2633.0024,-378.19833,-2297.2004,394.18927,4915.9267578125
454,1626.0233,1257.3615,592.1639,-1539.6211,-371.98068,-363.05743,2957.2744140625
455,3698.9229,931.4684,208.3613,388.12836,53.590397,-25.85271,3262.72998046875
456,-309.4535,-1755.9849,-3114.5188,1084.6246,-188.78662,266.31488,3122.84375
457,-90.643585,-1375.5642,-2200.395,-1087.2628,-1270.7997,-422.8786,3509.82958984375
458,1531.5425,-1648.7892,-17.478815,-813.75183,-677.0475,-135.02473,3317.23168945313
459,-1344.4725,2542.2595,-2827.5059,-958.23334,1084.6064,227.0061,5432.1787109375
460,2604.5127,499.81613,-1197.3433,1022.9154,-1245.0624,-460.6099,4394.10888671875
461,-999.86145,-66.6382,-1500.8842,-399.94485,156.60991,150.07777,1486.77954101563
462,-595.4587,-1477.8997,-1682.6532,-154.92574,-28.639303,-94.09322,1049.92199707031
463,-3340.0115,2912.936,-4626.773,2050.598,1273.8412,56.244022,8142.08349609375
464,-7084.3677,-20028.184,6281.6567,6218.677,-708.5803,1501.014,25366.939453125
465,1205.7948,1294.7936,716.8859,-2033.8909,-649.5617,84.9142,3740.056640625
466,779.57684,313.9294,-1541.8374,-446.79346,-118.09732,187.82376,2295.9482421875
467,-325.70547,813.51636,598.4528,517.5742,-76.05184,-32.019657,1386.77685546875
468,-2944.4646,-1681.9921,-165.66187,-940.3466,2078.0635,33.55381,4628.02294921875
469,246.55725,-2160.6194,-488.79465,-834.1503,-894.8067,-129.31671,3017.4072265625
470,-522.46497,-1827.3263,54.492237,982.21643,-2227.5315,71.42774,4536.9189453125
471,1876.2677,550.09546,-152.99202,-237.50134,308.96463,284.3395,1970.69152832031
472,-1837.1715,-379.248,-4109.796,1746.2616,-418.76938,378.87936,4550.68310546875
473,1147.5222,-2904.1042,272.02866,685.32587,98.77198,-149.03,3891.00317382813
474,2165.9653,2092.1433,219.65031,72.34989,34.399757,-546.8879,2136.91918945313
475,4878.2754,2266.0024,-795.15857,-1978.0626,416.67554,384.6982,6074.0673828125
476,751.73596,-1007.06335,1553.6836,550.0177,-839.47003,562.0535,3019.3310546875
477,1901.3584,1396.0955,265.81946,-231.64856,172.35773,-125.97037,1549.71337890625
478,-583.64636,-306.8538,363.0401,581.8289,3830.167,-963.3798,6965.716796875
479,4427.441,1135.625,225.28305,-1281.7867,54.937363,223.21376,4443.97509765625
480,155.63527,6321.011,375.69107,-621.1863,95.08574,129.57587,6159.4375
481,4544.268,8586.146,-881.57355,-1770.3735,-1.567525,-185.0299,8787.0654296875
482,4615.3213,-3479.8962,1513.7068,-1028.8433,30.969757,-23.316387,7295.50439453125
483,4386.1167,-4352.21,762.91675,-520.6666,-132.91588,524.74615,7714.763671875
484,655.455,3605.4963,2813.6323,824.1154,-75.37288,258.15836,3041.091796875
485,-4896.269,-3364.515,-2050.899,1998.4287,-460.3555,285.2668,4352.59228515625
486,1780.4315,2050.5952,685.55414,701.6859,-401.2694,-234.50624,1921.6298828125
487,-5939.257,-4249.923,-1402.6841,1378.5927,334.38913,-94.116745,4672.70068359375
488,1142.1642,-1831.2197,-211.14186,98.21951,744.358,-342.98865,2948.3251953125
489,3273.5093,-520.48004,-2034.0554,-1360.17,-179.83203,20.770735,5298.703125
490,3456.077,1496.703,1550.1764,171.17564,-221.35248,-292.09174,2056.22900390625
491,-10553.366,-12808.956,-1250.6401,-1948.8068,-26.969366,122.44227,11137.8740234375
492,-14848.584,-10448.9,-1512.7123,-2005.6165,38.42039,-74.40011,12272.6357421875
493,2213.1274,2051.794,-174.52219,195.40776,56.35242,-178.47655,2358.24780273438
494,3387.6,-3862.2983,1667.8876,-1249.5391,-84.8608,229.22713,6921.99267578125
495,5007.778,-4918.5396,568.1114,-729.801,371.53415,275.61172,8741.435546875
496,496.73782,1221.5001,1350.0795,-233.9317,491.9216,-10.291597,1235.09228515625
497,-5514.763,280.25986,128.15224,47.415054,-733.22345,98.614655,5862.826171875
498,-6127.0713,3097.9202,394.5433,187.49936,30.454716,68.2165,8221.453125
499,6691.4795,7.505897,-1213.1846,-2022.6624,-97.85618,-549.86865,8217.9033203125
500,1744.3643,-581.93304,-1129.6177,-7170.2866,2522.041,-1702.9459,13747.9775390625
501,3296.0032,-889.1006,2527.7668,770.6875,-105.974884,-22.660746,4087.44921875
502,7761.3022,227.7508,2555.4482,-1951.725,74.23433,-179.89856,7495.2021484375
503,-7040.853,3384.7803,-459.10815,1128.8845,-83.14001,-177.051,9345.1728515625
504,272.12994,2215.5967,-1215.4628,413.93262,-100.302,48.39718,3071.20678710938
505,-6180.2847,2105.062,732.2295,-1407.9633,356.69287,-9.847147,8092.36083984375
506,1322.1719,10914.189,3517.117,1775.0682,-288.94742,220.01357,9253.0498046875
507,389.6488,7328.401,1154.2373,-848.1779,-781.63007,-258.73322,6900.541015625
508,-1619.9437,236.94469,3373.162,-5801.3027,-4138.2524,209.1141,13098.8330078125
509,2978.2852,2242.2092,1213.3353,-371.5119,91.027016,605.2794,1973.76013183594
510,-530.47296,-549.76025,-2306.273,286.83438,88.64904,169.89975,1864.55969238281
511,-728.6765,2260.3333,1432.0985,1049.2252,-43.56636,46.633457,3234.09790039063
512,-1301.9376,667.8146,994.50995,1798.0833,-592.7732,141.8667,3929.88427734375
513,-2223.9648,5053.701,1567.3839,-1516.0012,127.65357,81.07834,6834.46875
514,-1474.5693,717.39874,201.78986,2637.1736,5.8544135,381.28195,5024.0087890625
515,-1914.6764,3049.731,-37.911488,-1251.0713,222.75424,-79.59742,4869.69873046875
516,1578.2529,634.66925,-162.06844,-146.86154,788.6971,-265.332,2102.13403320313
517,-11602.855,-9135.432,-2077.5452,768.26514,374.40143,-195.11024,8696.1015625
518,5118.8354,-2488.9678,1667.9291,186.21309,-841.5597,158.75647,6770.3701171875
519,377.00537,2006.9785,2988.8625,267.6506,-266.09045,114.249016,2384.91821289063
520,2803.8748,3095.6118,2982.395,-1297.1459,-1210.0356,413.9571,3165.32788085938
521,131.50803,462.11554,-1066.0461,-935.1003,1257.7994,-19.375546,3051.212890625
522,1812.1244,5312.255,780.675,3558.0273,283.88553,264.48087,7440.11474609375
523,2187.0754,50.576454,-3172.8887,-58.98569,220.42877,-297.8607,4718.54345703125
524,-255.56729,2727.1814,773.5577,-168.2093,4.864922,-40.59859,2641.2431640625
525,-928.7157,3478.7202,-1560.5552,1810.2192,-413.27298,-106.21528,5743.38037109375
526,-5367.8496,-5658.851,21.398481,-970.08954,-421.8264,-9.948996,5835.60498046875
527,-6047.904,-10437.358,-1162.7391,-1484.2197,-30.08694,-24.010725,8437.3291015625
528,-1098.1154,1902.466,-664.9334,995.43317,274.05942,-400.6032,3401.58374023438
529,928.81445,3240.7812,1291.4431,1288.7024,-102.599106,-129.54733,3114.88256835938
530,3463.6738,1815.686,2343.4182,547.69635,-483.6249,344.2363,2020.33605957031
531,1354.8893,-629.7997,1380.3792,2822.3347,-246.97774,65.13588,5299.30859375
532,1818.091,-1180.2101,3168.2864,3340.79,372.31317,-6.9300385,6982.81884765625
533,1214.6826,-6135.86,-496.7396,639.33984,-77.76037,-437.8732,6796.9970703125
534,411.1817,-3849.2917,-1239.6833,-621.0923,5.5581455,-137.38525,3880.400390625
535,-1061.0072,-2274.636,-1300.6705,1744.0732,-277.59256,-466.75668,3354.04296875
536,1210.2401,-2314.282,1441.8365,1532.6492,-69.920296,-228.4613,4528.84619140625
537,-10765.101,5115.277,-813.3403,659.4944,-18.464724,37.342583,13946.1904296875
538,-8377.829,-145.61937,1543.2861,4198.4487,40.382423,491.5397,11753.1162109375
539,-241.23305,629.1273,2971.47,246.6232,-161.98111,222.63867,2948.33251953125
540,-1717.229,2985.5793,-360.31723,116.9187,-44.29403,43.135017,4198.666015625
541,-3766.9604,6735.165,1760.325,-2829.488,-57.954327,235.99329,10343.71484375
542,-4990.5293,-4705.37,-1769.1302,5746.169,-175.9036,-273.35236,10436.1142578125
543,-3839.6052,-5237.683,-3306.5269,4841.859,283.36392,-26.108135,8576.5849609375
544,6884.4863,-4624.439,-1694.8793,1863.9346,13.690747,-48.792675,10851.3623046875
545,-4490.3623,336.822,-696.7465,-978.2947,12.684775,-35.838,4717.65478515625
546,2918.4268,-11608.038,1649.2786,-873.3344,151.88441,-95.83911,14020.61328125
547,475.00626,-12577.175,-259.14542,-2291.5469,-25.6854,-58.26004,13307.2099609375
548,6186.106,-11075.973,-2636.0918,-5230.946,-49.96217,-184.8472,17484.833984375
549,742.67096,498.35495,-1567.6923,1058.2924,451.75824,-59.93324,2969.17333984375
550,3655.4473,1718.8226,128.01048,1678.2084,-243.29819,25.576628,4241.54443359375
551,-409.54715,2957.8796,152.26607,1508.6405,-383.56714,84.83233,4129.68310546875
552,-4177.1206,857.0099,-839.2801,-734.9533,903.5108,-209.43646,4886.8779296875
553,8625.398,2192.2053,128.56944,-1800.8317,132.54083,116.80451,8291.13671875
554,-14397.166,-13942.068,-4425.081,-876.8466,175.48373,-159.12624,9878.5751953125
555,2064.8962,5514.375,1530.713,-3181.3901,301.2275,64.990326,6683.97509765625
556,338.6392,1526.3564,22.872643,1871.2965,-8.62989,87.09988,3523.30200195313
557,360.84897,3335.8503,3000.211,394.94922,-151.11455,323.01782,2968.87890625
558,7040.2466,6250.0654,2602.9963,2352.387,429.18765,57.4399,5828.46630859375
559,8191.045,6682.3174,2106.2346,1815.7867,-1.6277198,44.34412,6325.97900390625
560,-5944.2017,-9375.512,-1634.1682,-2108.3728,202.47234,-498.954,7703.56396484375
561,-5255.4287,-5092.336,-1525.2814,-2391.3062,-89.96401,-37.217155,5524.10205078125
562,-1392.3923,-2452.4607,-1673.9536,-2078.0574,448.1417,-417.8878,3871.16235351563
563,-858.09827,-3536.8276,-1233.474,1920.0939,-265.28842,-561.29767,4304.36376953125
564,4862.966,-2012.1227,1222.0934,1661.1782,-81.32856,-37.870102,6617.71533203125
565,-4289.045,7466.631,-1461.5609,1886.7273,-160.02493,92.64321,11123.55078125
566,3053.6174,-2364.1572,-664.02783,304.6204,212.21927,85.280106,4844.28662109375
567,1233.3356,-1199.8074,280.33527,638.2653,90.822845,99.98713,2405.51342773438
568,2834.6074,-3235.2998,-633.5596,-2092.5964,-1.4548455,24.154602,6399.9326171875
569,-4274.7935,-652.8925,-3731.751,2588.1326,-309.439,-166.16403,5649.03466796875
570,955.14294,2871.18,1580.0671,-446.59824,295.60315,-210.51811,1964.12768554688
571,-2757.0652,5877.873,-271.13818,-2760.5876,117.25724,23.121302,9065.404296875
572,5258.851,5366.8193,1834.1909,-1700.7278,-557.0887,42.549854,4660.859375
573,14.947971,1611.829,-1415.1609,1020.69727,689.4083,311.65274,3423.6904296875
574,885.9151,436.95074,-587.05334,1410.0972,9.137746,-176.34354,2787.21337890625
575,1765.0419,1340.0697,765.8931,803.096,-215.78278,235.46661,1730.66430664063
576,3379.1682,1295.5809,-451.47302,-347.99777,-249.43565,-0.072899185,3403.47387695313
577,-590.7506,-624.03455,-283.59607,-371.95975,-621.8507,617.2089,1680.37878417969
578,-14340.519,-600.0637,1006.45044,803.09924,1506.8302,-933.3963,14993.8466796875
579,3198.3943,-4722.559,-5991.946,-929.5341,-2177.9136,632.3868,9614.01953125
