Element Label,S11,S22,S33,S12,S13,S23,Mises
1,21911.9,-17892.584,-937.95135,-595.0055,1112.7223,1505.5853,34764.39453125
2,-1993.9614,24026.057,697.73,16614.658,3067.7358,2723.805,38637.80078125
3,2334.77,-617.42535,-3585.0532,4789.202,15356.543,-13762.028,37023.546875
4,21934.018,7648.118,29829.387,15537.417,6890.7246,10399.227,39627.3671875
5,-31142.736,-25836.867,-43440.13,-15656.153,4781.968,13624.912,40068.54296875
6,33789.74,34163.863,4238.848,10848.546,6127.836,3597.2493,37269.23046875
7,-9784.024,-29520.465,-15851.003,8503.859,-419.71744,-916.42303,22947.5390625
8,17977.223,11224.585,37844.906,10706.869,-14358.431,-2545.268,39450.25
9,-13591.897,-30844.945,-49316.9,-11924.231,-4847.093,5200.54,39188.7734375
10,37263.945,46874.17,25074.283,-6397.9004,3974.7556,-4139.0913,24076.57421875
11,2522.4395,-18089.295,-32000.293,-10333.142,-4952.2544,-7513.4126,38318.91796875
12,2660.017,871.6709,9776.701,-20261.904,4274.8525,-3258.3472,37213.98046875
13,4442.26,-6792.35,827.28955,-21682.824,-4194.1577,2423.036,39742.828125
14,-12013.709,12335.725,-4942.714,-11304.533,6245.976,-1892.3763,31334.908203125
15,12830.684,13575.143,12541.369,-33.754604,1001.91376,212.72342,2000.99230957031
16,-11301.391,-2624.0793,-9605.443,5826.3857,1653.3412,3379.9705,14414.2021484375
17,44231.676,45118.047,44156.47,-431.3398,-958.40234,2512.491,4807.24169921875
18,7600.978,28723.225,6377.717,-12380.955,11606.393,5989.889,38014.59375
19,-866.069,360.6406,947.29156,-86.02678,542.9836,419.45734,2000.78845214844
20,-27756.307,-8874.093,-14565.995,2608.7793,1160.0858,1333.6589,17642.294921875
21,6442.5454,-12571.481,-3293.4182,7018.778,7540.076,-17545.537,38898.4296875
22,-151458.86,-152052.78,-152735.25,-495.85437,270.1911,-779.5995,2000.94738769531
23,-192062.77,-193502.02,-193373.34,-3.8268256,810.9633,204.7729,2000.40747070313
24,79838.76,81015.73,80081.84,192.0839,-924.74896,-238.58728,2001.29553222656
25,-13119.353,-12357.058,-13226.2,-834.8115,-502.23306,-401.1892,2001.0654296875
26,-215153.34,-241583.78,-218921.88,-8287.344,1059.4742,1569.8462,28809.14453125
27,13556.013,16595.398,12176.24,-4715.628,-2094.089,1861.1204,10275.8779296875
28,-19990.367,-20572.365,-5422.627,994.5697,1138.8019,1525.2765,15325.5888671875
29,-6710.1997,-15099.736,-24564.994,-8849.413,-10063.643,2635.2954,28266.33984375
30,-10239.394,-8524.408,3656.218,-9660.368,-4816.0747,597.1421,22865.2578125
31,10351.89,13060.1875,18549.05,5198.3726,6241.5063,2341.446,16331.3662109375
32,-4789.574,10055.168,14401.148,-4173.7344,-826.98944,-4718.4106,20612.3984375
33,7611.5566,14659.5,18362.857,3283.403,-3005.4285,10013.326,21206.828125
34,9276.775,5250.9365,23573.812,-5958.6035,-9588.302,-3489.6157,26401.2109375
35,-6480.205,10382.948,-16278.04,1104.7263,13677.655,-12776.254,40002.24609375
36,-10615.078,2332.2468,-19113.084,-15751.143,-4361.4033,-8658.594,37096.50390625
37,-9042.378,31091.268,20366.791,6451.2437,-3439.4807,2678.4656,38434.09375
38,187.141,-10472.926,-2996.606,-3104.6787,-4973.9375,6612.0044,18003.5390625
39,9290.778,-17403.629,4337.8687,-6017.5884,-14081.278,8120.398,38809.94140625
40,616.97943,22732.062,23528.5,2434.606,-610.62805,6389.4873,25469.623046875
41,6061.5737,22076.1,27661.299,1791.5597,-8105.177,4653.954,25471.40234375
42,-61798.902,-44137.62,-56567.824,949.88477,-9825.667,4143.4956,24305.16796875
43,6696.891,7276.2783,8122.4536,219.72948,705.05676,524.57404,2000.91418457031
44,22106.385,21923.018,21635.365,195.5667,804.81586,769.44666,2000.79541015625
45,17646.693,17484.004,19307.234,-508.23987,233.43092,-61.26967,2000.91784667969
46,-2846.1455,-5782.858,-5706.4814,1954.6906,5520.8174,9300.551,19256.357421875
47,971.3761,397.35046,661.6749,-874.27875,-630.8239,-299.70013,2001.00244140625
48,-19825.25,-22865.967,-22228.338,3158.6301,-329.3214,7836.9683,14907.1826171875
49,-21051.275,-13115.114,-21590.408,7795.086,-4366.6816,2533.7158,18063.912109375
50,-1790.5083,3114.1685,257.2211,7491.5596,438.64233,4630.013,15857.6259765625
51,98368.67,117280.52,83018.55,-2615.2332,2975.9834,5747.298,32089.96484375
52,-16417.652,-4079.3406,-13527.118,-642.0383,1776.3107,9006.136,19466.86328125
53,164.95845,909.3356,-336.90314,-340.07098,906.72406,-61.40936,2001.05981445313
54,138856.6,140022.77,140130.84,424.89038,-653.2813,-303.8487,1896.46313476563
55,151701.98,151647.75,150987.73,482.60837,-601.8599,765.06335,2003.93676757813
56,299506.3,300635.9,299655.75,815.00867,-519.0049,166.44177,2003.35571289063
57,35257.24,45038.035,44002.633,-2465.9343,10.874567,3130.053,11586.3505859375
58,1618.8818,649.36597,1420.6003,2203.5886,1574.0538,-464.62094,4840.97119140625
59,33659.254,15056.347,23506.736,7572.5967,3053.7942,-9342.844,26872.873046875
60,-25349.592,-37134.48,-27787.215,2994.857,878.49603,82.5315,12055.7744140625
61,17564.617,14745.475,16394.885,-1032.5656,5224.1484,863.0397,9660.5625
62,7825.2134,8775.578,12229.082,639.6688,5695.889,3999.136,12753.361328125
63,4551.068,5412.126,13476.942,-172.96075,7126.3516,-3934.1414,16480.40625
64,5382.615,-16906.1,-31652.863,1748.1572,11459.358,1947.7435,38176.43359375
65,5632.7505,8960.327,12744.602,-3004.356,5613.4717,223.62895,12639.1318359375
66,-718.46686,712.99945,569.4091,-991.6694,3186.869,63.478676,5940.94970703125
67,12896.257,15308.33,11677.212,-1692.318,10788.952,-561.395,19209.017578125
68,-11522.4,14440.6,-628.2546,9368.4375,766.6552,14241.303,37194.42578125
69,9602.586,4955.532,7353.8057,7026.356,11168.772,2464.1982,23595.59765625
70,10474.517,14639.393,26413.963,-2075.8508,1948.4761,2513.7388,15757.5419921875
71,-47014.51,-24197.963,-35579.746,967.9612,10453.727,-5873.13,28715.5
72,18582.285,4048.7195,21332.04,2870.5752,4576.7896,3364.0293,19500.28515625
73,12878.768,13833.737,13534.69,-39.449352,1043.6194,73.33532,2001.01037597656
74,-3102.6772,13233.816,-2826.78,-7395.77,1006.0098,3987.7515,21846.849609375
75,24561.246,29590.383,36361.457,-3912.0566,-12190.21,-3903.2275,25349.833984375
76,13548.766,14791.306,13901.875,779.4247,407.9777,388.2648,2000.98327636719
77,12854.74,13252.965,12020.38,-805.1411,503.54102,-192.81119,2000.98693847656
78,13713.221,-4599.17,7569.9233,3216.7605,-3250.981,17636.465,35446.7109375
79,8163.532,8448.605,7410.5137,-2868.2224,1764.5272,9907.66,18148.5234375
80,-13131.646,1768.2935,-3587.2556,3313.83,-119.55352,7274.8843,19043.419921875
81,12288.25,-2730.9202,297.3023,5634.613,11311.142,-2359.724,26173.296875
82,2781.6367,2668.3635,291.56573,6958.642,3974.197,6073.988,17585.84765625
83,25909.03,13426.724,23762.473,8589.844,11467.159,11939.792,34309.4921875
84,1957.8583,-1379.269,15290.157,6131.3945,-5198.4062,-1031.7638,20746.666015625
85,17054.291,-3463.944,9825.84,5426.8135,10920.769,6270.1304,29816.396484375
86,2399.5725,6878.522,9293.427,10944.981,-1793.4979,7252.1074,23738.490234375
87,6242.1255,-17648.053,6162.522,5156.6704,520.7298,-1029.2372,25546.2421875
88,-6685.0757,-16821.623,-11426.046,-6541.1973,-10069.773,2583.1501,23016.30078125
89,5578.406,5990.787,5289.495,939.98975,270.2239,-503.742,2000.93530273438
90,-14727.258,-13743.528,-14965.277,524.7779,179.08064,779.5082,2000.95178222656
91,-4385.606,589.39014,6898.8276,-2053.407,-3069.6323,-2964.6614,12776.3076171875
92,-4986.875,5415.1577,16090.421,-481.15775,-4085.262,1763.4233,19831.783203125
93,12297.363,20628.918,18810.297,-111.683716,1302.6989,-10771.45,20267.490234375
94,4410.4272,1508.0789,34737.03,4942.726,-7582.4243,5302.459,36691.47265625
95,31398.607,51186.1,9134.912,2281.142,3677.2505,7833.7446,39598.48046875
96,8359.233,8724.742,12301.541,3179.775,11633.022,-3564.8438,22105.95703125
97,-33520.465,-24601.516,-28260.904,14874.916,-1028.269,-660.28796,26992.0390625
98,-19115.098,-11710.13,-20235.824,8291.459,-4620.9917,-453.23462,18311.482421875
99,5722.9326,9566.128,11774.247,-6247.704,-6103.473,4450.591,17788.03125
100,-18408.209,-13251.638,-11114.17,-7632.4224,-2274.049,2741.0122,15968.5927734375
101,18002.848,29425.951,28372.09,738.67236,4080.0051,1023.71027,13201.5048828125
102,-2212.5452,-7296.9927,-187.72679,-7488.172,-7721.998,7779.2964,23851.7265625
103,-9270.396,23745.414,-1567.8671,2293.0762,-9012.646,-7352.016,36286.109375
104,9907.395,14491.484,15383.466,-6245.811,-9984.229,-6208.406,23613.900390625
105,847.8602,29320.424,30485.451,4685.277,-514.6343,1643.0475,30330.9140625
106,2592.5056,7552.676,20475.05,5215.807,-8778.624,7895.03,27486.16796875
107,-15159.059,-20191.027,-15439.566,-4419.748,-4636.935,3186.895,13325.26953125
108,233.30037,6645.0596,2166.6099,-754.54193,-3596.6626,-448.89142,8577.4638671875
109,-25390.564,-23175.223,-28404.88,-2254.3213,15358.141,-16509.395,39512.21484375
110,-60633.29,-64404.336,-61858.72,3224.724,936.48303,-546.3173,6769.36083984375
111,25832.76,-4178.3926,26143.533,-3087.229,2014.4753,-7741.322,33625.05078125
112,8224.582,-1716.3037,34634.504,775.7883,11034.443,-2172.9846,37948.53125
113,13415.482,916.01,17351.26,-6786.3823,4246.103,-10211.549,26944.435546875
114,-25388.3,-15592.66,-14056.901,6957.7207,-3226.24,3049.2754,17824.326171875
115,3295.8115,34259.016,9855.382,6268.7427,2807.5803,-726.8913,30688.21875
116,30023.27,19788.025,33042.598,-8777.5205,2588.738,7557.7524,23819.703125
117,-5019.425,-11811.103,-12254.36,6506.953,5356.956,5935.8423,19187.203125
118,22664.795,22955.21,22835.406,427.82397,-1050.4424,164.01692,2000.99816894531
119,36958.242,38853.074,37639.508,101.954025,484.13864,410.8325,2001.08264160156
120,2763.7847,8148.897,10389.915,111.29914,9362.53,-1729.4081,17834.52734375
121,-5995.664,-989.36115,-2462.6592,1853.09,-669.81964,351.86353,5645.9833984375
122,3419.9172,12953.944,21004.379,-2127.741,-5956.9023,3885.7688,19944.765625
123,3498.5527,3145.8005,3621.3472,-2387.7375,5970.0464,391.13998,11165.57421875
124,10882.37,19762.346,-2270.9521,-11659.95,-9006.134,-13476.055,39555.93359375
125,12010.6,10998.883,9880.908,-7.751485,-400.73193,196.8171,2000.66516113281
126,36609.742,31293.68,29931.8,2898.279,-853.9907,3757.485,10348.8701171875
127,4150.181,-2433.0474,2754.9314,-2457.0137,186.14429,2188.1455,8287.2802734375
128,106581.11,106821.62,106788.53,16.618055,1482.3917,1507.4746,3669.01953125
129,102204.32,102748.49,101301.38,778.10046,-307.98306,321.60086,2003.48083496094
130,-13472.266,-111.55072,-18372.068,11617.793,6647.7603,7086.599,30921.494140625
131,1346.2395,8753.042,-1305.0836,6588.3696,7266.87,-1045.453,19324.830078125
132,3655.8464,11293.967,18318.473,-1172.6124,14885.005,4181.1987,29708.6015625
133,12426.261,16559.447,12314.771,1628.3297,1153.5085,5274.327,10628.177734375
134,-8390.116,-13683.395,-9636.122,1097.1012,10440.512,-9853.183,25394.0
135,10600.345,12330.883,10305.235,131.81165,307.75623,-158.22955,2000.98071289063
136,18898.152,33282.734,25656.865,-2743.0967,-2405.5896,3205.1472,15037.5654296875
137,1930.296,1299.3928,1929.8568,998.75775,-138.34505,430.74658,2001.08935546875
138,-71470.086,-69864.62,-70492.53,-765.9957,296.12073,74.63446,2000.93249511719
139,27292.248,44491.25,28641.559,511.05246,5039.5366,-1634.1758,18957.990234375
140,-32059.102,-11066.235,-19312.43,2113.266,4613.286,2261.0225,20692.28125
141,-8218.701,393.19705,-213.56125,-2856.572,8877.787,-4205.775,19578.01171875
142,20669.695,16410.14,8996.831,-7663.1616,1904.2161,-17491.316,34778.828125
143,10280.053,6587.7017,10524.975,1241.6035,8626.265,-1471.294,15778.2744140625
144,12461.184,9899.214,11719.38,-1437.5876,2707.775,508.65738,5846.861328125
145,13044.232,14681.884,17169.86,2252.4846,7337.144,-1471.641,14005.9150390625
146,20139.805,14625.629,16880.586,-367.58487,8299.536,-1768.578,15475.548828125
147,-7175.756,11538.195,11682.35,-6176.448,-2032.4097,17725.316,37713.7734375
148,-53.284607,-31797.06,370.08545,-2649.4214,-6534.3516,-3037.3047,34613.76953125
149,-24179.99,-54094.895,-24607.762,618.15906,9852.692,-8123.716,37049.22265625
150,613.58344,5472.127,2028.1157,4972.971,1547.2811,3396.0576,11606.3330078125
151,11553.641,19804.145,14107.974,5639.5615,752.0739,5965.3857,16043.3525390625
152,451196.47,451292.84,449718.12,116.69678,-551.29596,-487.89035,2001.00244140625
153,344488.78,342794.78,342382.75,245.08261,-154.78714,69.46841,2000.98425292969
154,60197.613,50608.137,57433.117,408.23056,2282.7126,1805.5448,9950.009765625
155,1199.3933,1800.3694,1620.7523,1055.1013,165.01122,314.67004,2000.98559570313
156,-622.45233,-1171.4342,-538.85345,1084.1545,-202.41434,-14.028454,2000.9853515625
157,18533.156,3036.111,13324.336,-6997.0474,3544.5823,-12527.052,29015.826171875
158,7154.406,23224.21,18834.525,-1713.306,-5680.5654,-3209.8198,18533.431640625
159,26207.527,33061.867,40577.27,-5597.8667,-6001.7617,2307.2764,19313.69140625
160,18801.234,18387.742,15941.335,6620.038,6174.325,9195.304,22509.328125
161,3459.2678,-1878.8499,1548.5088,3799.0435,6921.96,-8118.4995,20167.189453125
162,-348.57474,853.99927,-3401.0984,-2504.2395,-3097.6147,-3856.9248,10327.7236328125
163,-10023.097,3423.9028,-7213.388,4787.048,-4118.464,6487.241,19920.333984375
164,6236.9077,2276.302,4634.1255,6786.433,9562.507,-1277.0669,20719.353515625
165,35043.594,27274.613,32472.082,445.00558,475.74936,-365.9571,6976.1435546875
166,-58621.51,-40811.375,-48105.41,11232.223,-431.4331,-10706.844,31039.53125
167,8814.842,13252.281,-19425.062,-6544.492,-2808.96,2013.9288,33268.98828125
168,-3721.9084,5320.639,11755.199,-3853.277,-7248.2783,-6459.0176,22553.68359375
169,-4612.079,21561.057,7796.351,-2719.4805,-6744.449,3210.6633,26529.40234375
170,16459.568,11809.022,25105.836,8916.72,8007.446,2008.1965,24074.3671875
171,-9638.929,3969.9287,-8966.12,7826.4077,5153.446,8733.789,25860.5234375
172,-31476.443,-14452.7,-17476.861,9951.5,-9475.54,5100.8423,29866.0546875
173,8750.614,-3158.7402,9551.111,7010.914,18939.514,-4833.294,38021.87890625
174,15599.776,-4239.3174,21141.719,3499.8203,-3218.7183,-8831.919,28915.1328125
175,-27353.967,-35895.227,-22993.463,727.2818,16686.531,-12654.765,38033.515625
176,-64856.992,-70262.016,-61610.32,3912.2363,622.11206,3719.2722,12078.091796875
177,17433.62,28686.133,17990.617,6508.5635,11440.869,4483.8623,26471.51953125
178,26362.008,8701.072,12419.968,6938.273,14861.527,12093.803,38805.33203125
179,15418.321,11855.613,25601.428,-1719.4119,11906.248,14300.6045,34645.85546875
180,-11916941.0,-11915497.0,-11915738.0,-457.2122,520.58746,85.9577,1804.86633300781
181,9466.718,-3126.344,25424.473,3058.6672,-11700.57,2945.0237,32847.953125
182,1928.6344,10413.38,12025.611,1040.3066,14234.264,-3909.9072,27298.740234375
183,-6029.4805,4983.34,1955.5083,-2663.3398,10099.675,-8758.523,25583.796875
184,25320.47,26188.49,24905.855,646.32806,299.23575,-631.61285,2000.97680664063
185,-3204.2888,5934.431,-1294.6993,-1770.9631,1693.7291,-4263.3105,11927.0302734375
186,-10008.005,-34471.2,-29786.166,9697.108,941.35315,4526.2534,29189.169921875
187,-2579.988,-11337.8125,-2427.8948,11670.65,-10081.063,14554.742,37776.60546875
188,-80079.79,-70546.38,-82387.71,3105.9983,3434.1326,10255.927,22317.890625
189,170317.23,161875.52,158933.97,-16763.652,6893.0986,531.8468,33033.3203125
190,-6150.3105,-37511.668,-30382.746,5418.663,1806.4532,6132.7373,31960.765625
191,30974.836,39857.77,37545.805,12775.551,9158.039,-4195.7563,29287.896484375
192,4879.2754,5648.9434,-6599.3687,-8111.2036,4870.635,11547.527,28456.400390625
193,-10919.473,-15308.49,-39938.48,-9717.108,-6349.2246,1293.1487,33811.57421875
194,-11594.608,-24191.412,-38562.37,-8328.675,12484.825,-4657.193,35874.96875
195,-5553.079,-2395.8372,6665.496,11573.323,7649.031,8018.4795,29848.302734375
196,8028.1772,2691.4822,10232.884,9930.619,-238.437,-10229.906,25594.5703125
197,-39847.48,-58219.145,-62304.92,5617.847,9415.81,-15876.724,39320.96484375
198,-19761.21,-15306.828,-8940.712,206.42554,4608.109,-16854.627,31698.474609375
199,-7226.656,-1069.2333,15548.106,14994.844,2648.7834,-276.2541,33349.40625
200,-21879.69,-28787.633,-29211.305,8704.323,9138.401,-12066.26,31071.474609375
201,-13805.856,-19826.271,-12015.48,1913.1628,2435.476,-17845.676,32162.236328125
202,-54131.76,-68560.13,-59251.01,5837.6274,4630.4175,-17052.564,34633.046875
203,2116.786,-6509.62,2476.732,-845.0305,-3345.909,-17636.154,32349.326171875
204,-4677.4756,-5120.2266,8184.368,15218.773,-4545.364,-10111.468,35140.53515625
205,25296.996,19832.498,14845.205,-2395.849,11385.777,-15722.527,35067.19921875
206,-4711.78,-11501.974,-10879.018,10517.546,1691.0785,-15223.694,32832.6484375
207,-19100.242,-28381.91,-26676.83,1518.77,4858.585,-19112.45,35310.4140625
208,7177.3364,15786.428,-1818.613,5219.0215,-3204.416,-13238.338,29508.82421875
209,-20909.123,-35985.73,-32480.275,730.3023,-77.054596,-12365.332,25437.455078125
210,-32408.307,-43436.812,-38557.977,9139.979,344.69858,-16527.607,34089.35546875
211,24504.682,19823.736,25634.338,-1380.9576,1172.333,-1882.3275,6996.35107421875
212,26112.09,23179.598,19686.508,-1881.9922,7798.0825,-11942.667,25533.947265625
213,8607.388,8978.239,19442.979,1802.6981,1364.978,-9124.508,19458.6171875
214,25612.969,20328.314,22766.123,-7418.736,-1544.0072,-5531.0664,16882.84375
215,23573.0,6094.0835,13815.32,-606.0183,-1487.8433,-15755.973,31347.50390625
216,10205.054,15584.289,-2370.4978,3874.1372,4220.2456,-17753.152,36037.60546875
217,34442.68,42687.055,36067.0,10771.509,-4309.1816,-16092.345,35183.671875
218,-15243.135,-6787.043,-32292.895,15063.106,-1525.0969,739.3822,34578.65625
219,-5867.0864,9549.017,-30323.828,3576.7827,1693.2115,-1498.4396,35588.3828125
220,664.61646,15036.607,-18345.158,9434.787,-3957.9778,-8256.491,36873.9140625
221,8160.4287,16245.196,6835.6226,2960.4849,2236.2507,-18301.52,33525.54296875
222,-3895.1753,12931.203,-3513.9534,9222.671,15023.887,-6255.4517,36422.16796875
223,-11799.956,-14208.208,-34219.484,-1886.5736,7195.144,15446.312,36554.01953125
224,33667.832,18775.26,47735.016,109.81967,-1700.7916,7992.437,28801.427734375
225,25552.094,12083.732,14465.373,1142.992,2023.1066,-19793.21,36694.7421875
226,8823.286,7373.0493,26351.053,12395.872,3577.6265,1561.5376,29007.439453125
227,24103.818,19288.883,22160.314,9562.6045,-2128.7622,13438.024,29107.89453125
228,20989.271,38661.273,38051.94,-384.2729,13158.125,-11837.614,35244.03515625
229,8277.362,23082.645,15710.255,2196.763,-2494.278,11564.156,24468.9375
230,7396.166,7435.086,7982.21,1422.6804,-25.122381,362.99484,2606.03173828125
231,15610.141,7398.19,6819.1074,-383.5312,-3014.565,18776.928,34028.6640625
232,-33231.223,-38921.367,-49362.637,-9574.691,-2496.0813,-17326.354,37351.48046875
233,21417.352,6364.5576,22132.758,9495.746,-937.2583,-2436.0825,22995.94921875
234,-10939.27,-16188.608,-35648.258,85.40677,-17362.945,2963.4773,37936.3671875
235,-2449.7693,-5371.0137,10651.707,12535.341,11630.424,9328.345,36833.59375
236,6467.4277,20463.836,12774.916,7436.028,14672.809,-10804.02,36184.80078125
237,-11305.912,-29840.66,-24807.11,5913.003,16003.204,10472.916,38442.453125
238,-11272.86,-10056.975,-38549.016,-6017.896,6746.605,-12436.272,38572.13671875
239,20999.299,1832.6152,-730.8628,-6622.243,8050.5854,5199.367,28812.58203125
240,-12618.168,-4387.001,-3606.5642,-3515.5251,-7872.2456,2218.1304,17678.76953125
241,6310.335,-1123.4865,13570.284,648.8202,7562.0156,-7585.4907,22524.91796875
242,-22298.701,-19576.834,15031.506,-2058.625,-1183.6088,-1734.0284,36404.42578125
243,-2890.7827,-7612.465,28351.98,-7137.4976,-3370.5684,-4986.892,37515.91796875
244,-14984.812,-2147.8806,14542.492,1308.896,-16260.737,490.09042,38166.78515625
245,-18617.049,-10940.457,-6676.408,2243.915,6520.279,6198.2563,19176.763671875
246,-10572.403,-16202.377,1417.0474,-4342.438,8849.555,13651.368,33068.6796875
247,23356.643,22857.5,14032.147,-10145.148,1304.5565,-10967.234,27518.349609375
248,-9092.7,8640.019,16698.127,4705.5913,-6504.059,-3981.6394,27625.55078125
249,-3879.4705,-29771.078,-17312.725,10319.101,5009.5474,5378.3936,31377.359375
250,3775.169,27475.51,20489.373,7539.1514,7641.03,13254.768,36299.828125
251,10910.659,9525.508,20775.523,-4547.7905,1246.5331,11339.242,23776.931640625
252,6706.0073,6302.7646,6314.728,-782.35205,-804.999,-147.89296,2000.95861816406
253,-17922.014,-34380.29,-26949.88,-396.58533,-18380.576,-1964.0956,35062.453125
254,-9212.117,-8949.892,-8207.203,669.45496,-782.2984,52.08388,2000.93005371094
255,-11288.001,-9572.9,-11060.719,457.1333,25.73293,507.1584,2000.98559570313
256,63858.92,71637.195,70016.33,6979.167,3673.8813,10172.54,23400.458984375
257,25269.848,39109.23,14053.455,-5668.6724,2299.0474,5002.6426,25688.55078125
258,35070.984,4337.2188,2848.5486,3322.9507,-1285.8778,-300.81918,32107.490234375
259,44043.17,66920.266,43449.91,6805.038,-5300.4707,-2378.0522,27882.99609375
260,12113.677,18375.77,26574.865,18223.094,-6734.7935,4354.9043,36701.4140625
261,-11205.193,7641.501,-13896.914,7435.9355,1004.01105,-14688.611,35061.984375
262,-18323.45,-17477.646,-6223.711,7564.2856,6438.299,17367.031,36575.08203125
263,-22770.912,-7213.264,-31775.174,-1652.6389,-5565.2397,18668.406,40122.80859375
264,-8687.983,-3273.001,-40776.26,4738.603,-6228.8237,6859.905,39467.32421875
265,-50722.832,-9421.096,-27708.014,5130.4067,-1661.9694,4309.996,37788.109375
266,-21677.77,5032.7163,11142.253,3199.9695,2687.1655,14234.595,39676.41796875
267,-77332.43,-45302.883,-47372.94,-302.29797,-1090.1543,7739.972,33873.80859375
268,-20076.053,-32294.01,-40413.035,-9584.865,8553.857,1993.6589,28660.658203125
269,17289.434,15944.537,15660.015,-71.04314,679.237,-267.6018,1971.39929199219
270,308607.8,304362.16,291348.78,-1743.5305,-917.7682,4811.634,17992.384765625
271,26983.678,26455.865,26661.81,-1037.3384,422.96005,-94.4196,2000.9853515625
272,55277.312,53929.215,53619.457,200.13124,-372.2374,-615.64154,2000.94580078125
273,-118292.266,-125213.04,-111491.22,11296.596,-5832.044,2275.3025,25330.3828125
274,-79731.49,-89018.32,-63824.19,14544.789,7871.682,7120.8755,38205.75
275,-12901.601,-19701.062,-17342.8,622.4926,2197.246,-18965.125,33621.9140625
276,-38868.984,-11511.348,-15307.936,11382.381,5484.0415,-12573.181,40151.50390625
277,39764.887,41100.184,36733.844,12909.935,-7693.5767,9042.65,30625.1328125
278,-10516.376,-23053.17,-33235.223,695.1356,-6436.386,-9971.537,28504.755859375
279,15883.068,-7778.6816,-485.78384,-12587.547,2327.7217,2688.4312,30883.310546875
280,-13754.453,-19428.24,-8562.738,19328.996,6557.734,-7871.902,39042.859375
281,1567.8635,-28874.506,-2831.0696,8124.484,-6097.979,1794.8518,33636.5390625
282,33987.51,36328.914,39713.293,3749.3416,200.6251,-19471.488,34706.921875
283,19063.744,13832.717,27738.078,8697.627,-1034.5701,-17354.287,35800.203125
284,13578.236,-3320.828,-9843.721,16581.725,4324.9917,-6062.1323,37809.828125
285,28894.1,12539.098,41916.88,-5200.65,13986.311,1441.4421,36390.8046875
286,-58320.57,-73638.74,-67434.086,2828.5293,2536.7866,-16396.865,32062.1171875
287,-22458.277,-1258.9996,-20101.49,6574.5396,-4171.779,-730.5713,24258.767578125
288,15062.894,-5557.1226,17761.148,10693.519,8308.455,-6967.9766,34407.953125
289,3567.5679,10631.631,16516.482,14082.529,4631.493,-8628.788,31761.240234375
290,20378.648,36681.49,27411.48,15977.522,2869.3599,2001.4558,31672.52734375
291,-33305.504,-48067.36,-38194.227,7240.322,8612.072,-17473.625,38280.51953125
292,-4323.997,-1433.999,-25243.514,551.09204,-12721.051,9110.2705,35239.37109375
293,-7031.5996,-10030.509,23071.053,3512.5522,9405.898,-6704.01,37982.84375
294,214.88194,-1426.2563,-6687.8496,9368.193,-10864.502,-7132.452,28443.4453125
295,-24628.932,-16858.057,-9914.384,-1314.4994,-9903.693,10244.752,27872.1640625
296,-3770.467,-20978.307,-3097.1548,1080.129,-180.66377,-3146.8516,18478.509765625
297,-12268.186,-9953.274,-29154.617,-1826.2876,-3656.3354,-9586.183,25600.7421875
298,-6314.2383,27313.41,-4642.251,8966.039,6023.3906,-3232.8506,38193.671875
299,-10531.201,15740.981,-14919.606,5139.791,2217.676,12992.617,37751.9453125
300,29856.703,14802.764,13182.602,19569.13,-1563.3418,4800.447,38457.1640625
301,-15077.048,23707.262,7551.463,889.05475,-4050.369,10129.953,38704.9921875
302,-78425.195,-39679.87,-57359.387,5340.4565,1696.1549,4616.082,35873.16015625
303,23967.98,31411.957,33010.812,3452.3003,-3162.7463,-1697.5366,12011.65625
304,112793.19,112741.71,112740.484,215.47258,298.38498,-94.413185,660.183410644531
305,51418.258,57058.355,52881.02,-5189.9297,-2024.0706,-4266.8994,13168.7607421875
306,-38388.152,-28091.242,-29245.74,1039.0171,12049.687,2362.866,23474.333984375
307,13834.499,-13127.245,15071.887,-1871.1785,2176.93,4963.1675,29333.412109375
308,4200.483,4284.617,-4172.134,-1317.8469,11099.187,9127.579,26373.0234375
309,32051.191,54487.57,41255.57,9161.004,12670.248,-10971.571,38420.078125
310,-23771.184,12796.522,8394.473,2166.7185,3156.6465,9112.404,38583.51171875
311,-158781.78,-160949.22,-161605.08,-231.36078,5161.017,1036.5272,9478.4765625
312,64395.574,104598.07,89563.17,7164.028,1986.5593,1149.8917,37518.3203125
313,-184746.19,-205308.52,-206373.33,-10947.417,-501.21915,-1954.4318,28593.515625
314,-50040.77,-57732.86,-44080.86,19525.197,3424.061,-2926.7883,36675.65625
315,-12737.855,14657.533,-18226.049,4921.6143,-2971.4656,-11425.048,37705.83203125
316,-10255.29,-36264.523,-5554.702,-2366.2043,-6451.274,-7411.8096,33575.18359375
317,8089.9326,-8380.198,12368.61,8841.002,2978.7952,12381.844,32879.8203125
318,20765.355,11019.763,4795.922,14304.708,1594.803,-10154.122,33543.859375
319,16464.398,14250.416,787.76697,1278.6051,2958.105,-14046.909,28966.41796875
320,68385.79,51984.426,55446.82,-282.38956,-8.293538,-14175.871,28763.001953125
321,21910.396,19402.75,12479.849,-2718.1702,-1707.7439,-10086.944,20192.298828125
322,8254.961,8282.044,7917.1465,480.42792,959.9538,-465.77673,2057.13696289063
323,-29232.832,-31008.0,-29562.129,-7.33554,-224.08658,-1467.5277,3047.42822265625
324,-18635.947,-18387.322,811.48364,-4881.897,5038.37,-6627.87,25551.310546875
325,15042.996,31946.658,9327.995,5145.981,4246.2153,-16611.775,37099.69140625
326,24783.783,12203.783,32508.652,9082.042,-8037.7915,14274.458,36981.859375
327,-581.97845,-7470.225,-10771.875,-8300.889,12801.642,-14594.638,37662.4765625
328,-9797.007,2429.3389,-22538.299,6902.2544,-12701.908,-12675.78,39706.0234375
329,394.223,-2360.6707,-2176.41,8144.7354,20517.83,-3412.0957,38781.40234375
330,-4925.5024,1384.5662,21672.484,2379.9062,8314.385,-1889.2567,28539.822265625
331,-19091.852,-14200.67,-9251.095,2096.2905,3239.7644,9579.995,19814.935546875
332,-9911.585,-7332.61,-18846.143,9491.199,-13243.199,-14443.712,39137.9296875
333,-52352.312,-24168.896,-32666.742,-3777.567,31.162931,8601.386,29862.759765625
334,15096.676,14359.901,7163.718,3962.131,-3956.2148,-4506.0674,14580.609375
335,-56078.098,-46561.16,-68774.65,5672.0186,-5071.6543,7083.2417,26397.048828125
336,16219.57,10585.241,8079.9717,15690.867,681.4848,5764.8994,29863.73828125
337,-27223.062,-6214.8213,-31225.586,9812.201,1028.8461,15706.749,39668.26953125
338,107529.914,103990.32,85332.71,9046.637,-2462.7864,-643.93994,26299.0546875
339,23393.58,38239.594,47205.023,6357.712,9692.821,3369.8687,29513.82421875
340,-6215.4775,-5230.9233,-15466.915,11634.753,181.43748,16314.785,36060.84765625
341,-50886.492,-36459.1,-39324.836,-1139.51,-1589.0127,1714.8182,13975.302734375
342,-44787.344,-19537.34,-56368.055,1811.6636,-1053.6895,7252.1274,35143.21875
343,3223.0352,6659.773,4417.874,7338.4233,1246.8274,4220.108,15125.5244140625
344,-24374.617,-32275.766,-30576.81,-3409.8862,6307.477,-17503.309,33544.34375
345,-9371.817,-10357.538,10641.933,8863.387,-7507.056,15890.884,39793.9296875
346,-22496.996,-50422.734,-34471.36,11096.719,-5561.9727,11988.897,38500.109375
347,6957.7163,-15252.757,-6794.4253,1649.7439,-100.05477,-17244.973,35739.99609375
348,-79683.74,-72909.25,-76707.77,20780.848,8084.045,-789.02216,39090.1953125
349,18368.725,39996.22,25500.102,10016.285,3887.689,-6377.3027,28856.568359375
350,-35012.89,-15902.383,-39897.754,-2126.5369,-2134.0398,-6116.9424,24938.03125
351,-28354.36,-42940.88,-17930.92,-12884.969,-3501.5164,10032.494,36197.4921875
352,4597.25,6045.632,20333.555,12889.492,15923.18,4058.9897,39184.47265625
353,4769.3726,-16177.211,-23952.152,3146.3945,9647.628,-12146.102,37597.61328125
354,10644.097,-10266.778,-28015.63,-7125.0674,659.764,-4158.5273,36454.30078125
355,71932.664,73023.625,72145.95,105.09526,-992.07825,-70.25777,2000.89953613281
356,256394.84,273008.03,261322.3,6005.196,6458.26,-3046.2358,21899.091796875
357,-149439.88,-131729.98,-130169.61,-10221.387,2141.5383,-4458.726,27028.4765625
358,194582.39,218499.11,183930.64,-870.9664,7804.489,705.7495,33566.71484375
359,-373588.62,-385418.16,-372808.3,-16251.5,4617.1753,6058.5527,33409.34375
360,-711.7531,-10314.895,6656.581,-8962.103,382.0278,-5153.2773,23202.076171875
361,-3464.4766,-11054.888,-14485.924,2021.4364,1132.7396,-1469.4038,10863.4560546875
362,18561.92,47570.375,63576.85,-737.44055,453.5006,-3142.5063,39923.62109375
363,-2369.397,411.2954,-7355.0938,-100.40767,2787.7676,-588.0633,8416.3974609375
364,-69925.03,-62285.25,-53930.273,-3375.2852,16813.023,11345.597,38214.9296875
365,-214187.62,-211636.03,-209721.42,497.09116,1918.6694,-16800.344,29556.75
366,4508.287,4053.9595,-6459.797,-701.66046,3155.2363,3338.5308,13427.6982421875
367,17138.65,10127.316,13210.116,-5186.4116,3048.3777,-19985.299,36658.6796875
368,-163805.11,-173876.8,-163421.84,-538.3743,4502.942,-21335.215,39149.95703125
369,9262.396,9156.557,17967.625,-11246.567,5520.467,8861.346,27985.111328125
370,-30139.148,-17425.168,-33682.023,13400.714,79.18825,2210.8506,27796.78125
371,-17634.105,16528.004,-16913.965,-7801.2964,-308.20532,1947.1528,36567.8359375
372,-2686.3818,-6994.4697,-12294.33,2172.027,-5457.6,-438.0643,13174.4228515625
373,-4508.395,1528.1411,-4687.821,236.15721,-1367.6718,122.14006,6586.251953125
374,2178.74,6062.0923,6168.348,383.55963,677.5707,300.5354,4194.5166015625
375,724.9192,3395.3499,4246.6265,-472.25922,-243.17993,1922.6638,4697.3984375
376,2702.9443,16216.469,34772.75,7917.5728,6739.25,-8894.187,36597.09765625
377,-37783.85,-61456.926,-25623.527,5805.764,-944.72864,11361.675,38564.51171875
378,1187.8818,-11341.8955,-19800.555,-1866.2915,627.7636,3749.5105,19706.2734375
379,-502.4914,4805.965,-1569.8572,-168.50632,-956.0843,-1830.3357,6918.3017578125
380,-33627.062,-36955.824,-10469.711,-14195.993,-2025.7435,-9902.619,39185.5078125
381,31426.445,10701.552,21180.508,1069.6357,-2057.7537,-136.875,18394.185546875
382,-15732.152,-33973.215,-48557.473,9541.99,-4536.1406,-1799.5874,34000.9296875
383,11597.3545,-15930.5,-19803.762,-4088.8914,-6465.6143,-7807.2812,35182.921875
384,20496.805,6529.6016,34577.78,12554.343,-8943.243,-5490.702,37326.28125
385,18108.133,24744.162,39907.53,-2245.4897,-7672.6094,-3997.5242,24784.3359375
386,-2090.053,-1792.6923,-4739.612,2239.0623,-891.247,1855.0958,5970.240234375
387,7974.371,4517.162,9642.348,-920.4876,-10236.158,332.56268,18376.927734375
388,80345.49,83280.445,86607.125,1778.7388,2942.9639,-21706.287,38450.0703125
389,-61751.383,-60303.38,-72862.07,2022.7421,-386.95126,-11768.518,23871.53125
390,64876.004,75982.47,55634.137,-1840.8851,4520.5044,-8338.11,24319.82421875
391,-35484.492,-41851.35,-39680.652,-4047.5627,2730.9949,-19866.854,35875.16015625
392,1173.1333,-875.9547,1304.2332,-837.9557,680.1663,352.37967,2889.89379882813
393,-394014.5,-395693.56,-394578.16,-674.6197,5074.581,-19559.541,35050.4921875
394,26533.377,16578.371,38043.6,-6714.6777,-560.1966,-18252.21,38494.19921875
395,27785.094,12.257813,29377.602,-3216.72,1741.2908,-13074.294,37027.6171875
396,-317201.8,-314929.03,-309530.34,1430.0153,535.82367,-18479.568,32833.8359375
397,11155.763,13764.474,13772.774,4132.3647,-4955.3896,-21898.28,39627.36328125
398,-25530.695,-38732.066,-24287.295,2088.132,-13544.219,-16740.967,39955.4140625
399,-5351.9663,-24457.443,-8005.197,6814.8257,929.84503,5602.3633,23610.3046875
400,-31091.47,-35983.55,-26525.469,4750.184,-3299.131,2410.6226,13597.6806640625
401,4537.892,-13966.922,415.625,-3145.0845,-5995.8164,-1566.2631,20688.71875
402,17195.166,-3822.3438,-7358.2617,3507.0386,-15829.81,-526.211,36304.70703125
403,-62658.47,-75868.695,-53238.4,16628.594,6959.4067,-610.8957,36927.484375
404,24730.504,38259.46,62512.78,11263.445,3184.3289,-261.34668,38866.421875
405,-5472.2344,-11646.023,-20028.45,-10939.328,-6550.6416,4587.234,26664.576171875
406,2279.1062,-2275.165,7722.4575,3235.0344,6207.9185,-2507.2078,15525.18359375
407,18033.926,10241.166,40538.46,-2744.8845,-106.43737,-142.38008,27663.181640625
408,-671027.0,-672208.56,-670983.1,-684.67847,3768.4907,-17142.607,30447.787109375
409,-3697.7974,22825.01,-824.0049,-7062.311,1724.9369,-3018.189,28659.732421875
410,-226255.6,-226405.17,-228106.05,1072.8666,6264.791,-14015.3125,26714.279296875
411,-2258.706,10516.802,11930.569,-2699.7634,-3256.9817,-3250.7944,16391.060546875
412,-20452.842,-10455.485,-42154.3,5256.7114,8427.337,-7112.406,35150.7578125
413,20603.938,-12976.085,4048.7566,-9708.791,-1725.4072,8744.752,36971.52734375
414,9538.23,6465.1846,13172.587,3264.1582,4018.624,-1930.5497,11198.837890625
415,-140796.02,-138591.1,-168250.67,4529.2993,10393.865,5723.716,36098.18359375
416,-27154.287,-37451.457,-4971.332,-11083.818,1167.372,519.5132,34640.83984375
417,4505.9844,42860.855,27186.3,-8585.19,-1565.6722,-1705.7269,36780.3125
418,3068.4648,14614.277,21561.877,7934.9097,-3663.964,8507.539,26609.9140625
419,13614.166,-1364.8115,18212.41,13940.6,1685.9548,-425.4247,30107.837890625
420,-128391.555,-133213.56,-150631.36,700.72546,14223.834,12324.588,38402.23828125
421,73367.234,70627.58,63263.363,387.07657,9137.958,-14016.052,30368.046875
422,-10010.579,-21080.918,-21787.598,6065.026,2113.0708,2503.662,16535.681640625
423,-221460.1,-225873.78,-234833.25,-2785.5352,13398.915,13619.755,35463.5078125
424,-36886.44,-34569.01,-51949.883,9968.32,-2598.2231,18394.434,40007.578125
425,-55763.02,-69070.37,-45911.453,-15740.203,5635.932,10310.212,39530.89453125
426,15855.998,11850.938,24.765625,13269.565,-8289.522,-2255.1824,30869.296875
427,-452010.25,-449668.28,-435590.5,3181.2952,-4627.422,-17771.49,35759.15234375
428,9380.784,32730.49,-6930.2324,6202.5693,1902.5569,6243.3013,37885.70703125
429,4087.2463,-23144.717,-13040.042,-18067.719,2644.7834,-1394.7313,39682.01171875
430,-8338.863,8741.119,-11015.054,9923.756,10107.222,4032.417,31548.19921875
431,-724.1709,7182.544,6899.756,4487.898,398.40723,-22196.738,39991.8203125
432,-11224.054,-17582.87,16830.123,-10378.189,1769.6663,-4273.512,37325.15234375
433,-17901.418,-19105.926,-41599.71,6685.4194,9344.49,4190.831,31356.775390625
434,-8511.281,-7898.309,21121.633,-9876.242,-1643.9803,8157.4414,36887.41015625
435,-24506.824,-27286.004,-35513.266,-5395.2607,4028.9993,2825.5283,16070.2392578125
436,-25903.941,-18213.291,-20640.875,-5428.7505,-9273.337,1707.2393,20037.76171875
437,290.19922,893.1714,16638.898,2562.2131,429.09772,4267.549,18239.2109375
438,-6870.097,-11892.616,-10470.491,-6711.293,2198.5222,-21141.152,38866.12109375
439,-12808.032,-4961.6978,16124.274,2517.5884,139.1604,-6954.76,28910.373046875
440,6649.6626,-15149.645,-14848.371,-12783.215,-615.2813,-4422.45,31918.25
441,-9468.153,-15465.731,-1675.3433,-4380.329,3936.279,1627.653,15982.15625
442,620.2473,1663.8645,6740.5645,4554.3257,-1414.3972,676.32825,10087.5966796875
443,-22789.812,-823.5,-11547.49,122.41838,-10443.463,-1772.598,26431.521484375
444,-3343.4985,1114.7135,6783.482,498.92245,-5595.3296,-1680.131,13432.111328125
445,16304.159,-11913.151,-11561.175,11995.147,-1537.6132,4134.758,35727.3125
446,-25231.176,-33087.508,-52126.9,-7054.098,11803.776,-3700.7664,34382.48828125
447,15893.614,16971.152,10214.877,-1589.2142,922.54846,-2573.9207,8338.6748046875
448,38086.195,45274.75,76156.62,6300.809,-2576.7537,-1824.9137,37099.48046875
449,-3606.3447,-11706.277,-9503.796,-2111.861,275.6641,-2120.309,8928.3173828125
450,-3899.9302,-8909.204,-17874.01,4638.457,1231.7355,-3554.2793,16042.5625
451,-19477.447,461.63968,17936.195,-2264.5173,-2247.0571,-37.271477,32892.09765625
452,66432.92,57785.285,66622.47,5413.9077,-11499.2295,-16948.617,37720.703125
453,11871.481,21921.8,11846.042,4461.699,6082.0586,2903.8425,17241.134765625
454,-51129.016,-46412.86,-66274.945,-2635.917,4944.6953,-16735.357,35461.00390625
455,78949.32,111669.54,117457.02,8298.668,2829.977,5291.704,40101.26953125
456,-31755.117,-27912.104,-63688.12,3122.8193,1717.2306,8130.518,37331.26171875
457,6694.901,12065.9,794.9038,-938.93835,-5217.969,-7664.6777,18865.703125
458,7063.6597,-2869.1807,13390.549,8530.594,-589.27637,-2074.2285,20827.79296875
459,-25425.086,-10787.602,-13587.254,-185.99823,5744.1357,6097.1035,19792.099609375
460,31044.664,12518.873,20197.945,-13404.425,-1987.5133,-6442.967,30583.232421875
461,6822.2056,-1557.5903,4154.846,-8435.357,-11.483503,4419.581,18084.470703125
462,-2975.0771,-5932.063,-4798.7173,3874.6416,2926.1543,-3737.663,10923.048828125
463,-8669.825,-1508.1821,-7079.5605,11244.979,4998.008,-1446.9825,22427.646484375
464,-39291.527,-12202.598,-17103.623,-14386.77,86.41519,-2611.5542,35587.73828125
465,-7242.2236,339.9751,-5973.9688,-1051.1504,-2331.5378,113.626015,8315.271484375
466,-57561.35,-30950.705,-58531.473,-6977.4697,-5448.9663,13030.581,38462.97265625
467,49486.39,43730.266,48541.87,9746.456,-1062.8064,-10288.869,25190.072265625
468,-2203.152,-4447.867,-6587.6533,-3223.6284,663.97217,-1384.4951,7257.34375
469,-2007.3848,-2480.3552,-942.5496,-4111.547,-2862.5957,-1219.6787,9034.482421875
470,6970.227,-16417.578,5974.3423,765.0917,1744.9781,-2518.5498,23550.15625
471,46140.98,52355.457,57535.29,-19159.273,-15.175392,-11554.219,39992.17578125
472,-19316.145,-6754.1816,-19652.334,-4322.646,2806.7007,-1054.8748,15657.7744140625
473,-1648.3525,-7518.651,-22705.275,13614.734,486.9714,12123.818,36769.54296875
474,72860.32,37940.14,72909.98,-1795.3104,6437.3677,-1978.2886,36971.40625
475,-7651.1777,-11416.995,-7452.4346,5997.088,-1734.2131,-4385.319,13768.8076171875
476,36143.855,33981.7,65129.22,-3948.9763,-3483.0684,-10484.221,36337.75390625
477,-60146.758,-52873.008,-93099.16,6863.3306,-287.02756,5166.11,40001.05859375
478,-7354.423,12209.913,23180.28,15736.228,335.56244,6655.654,39923.1484375
479,11922.555,13429.042,10344.764,-6066.461,1252.4772,-20120.373,36561.40234375
480,-955.4569,2337.0466,347.4744,-20.360157,433.09036,-1035.0745,3467.90795898438
481,16203.661,14063.482,14537.647,860.05664,1177.7661,-372.1589,3253.67456054688
482,648.5664,995.7676,-12262.482,-1440.5502,-661.9568,1246.6646,13546.2578125
483,188.00293,-1471.5793,-1448.7595,1753.4049,-3311.3855,1859.1982,7430.06201171875
484,10070.6,10381.161,12505.198,5042.0396,237.34088,-4102.053,11497.11328125
485,-8924.99,-15277.82,-14428.49,3981.5654,733.8209,-5121.4595,12788.521484375
486,13355.169,6120.7407,17853.46,-10764.255,488.64917,-1151.7904,21387.330078125
487,-265.46265,-1861.6719,8114.214,1329.0865,2773.7903,1031.4913,10849.6845703125
488,-19735.346,-12780.325,-14853.452,-283.80447,2460.7166,5038.1763,11524.244140625
489,-22240.934,-16370.287,4807.157,5709.4707,-226.20062,15289.678,37503.921875
490,-46452.38,-18632.84,-39420.234,16670.143,-2859.4666,3300.3457,38969.66015625
491,-744.62573,1383.5153,6355.817,1901.5472,1270.0056,5365.8794,11912.1318359375
492,-10039.548,-1279.1055,-15323.684,374.2748,2075.9192,-253.18237,12825.7431640625
493,-39823.836,-32584.742,-58568.242,4488.8477,-1371.7491,-3944.0505,25538.416015625
494,3075.5137,4913.715,4354.1865,-2133.6257,-671.8393,-3127.0586,6856.39794921875
495,4285.5933,-1652.5492,-3135.0208,4214.888,-2589.4302,2315.1936,11651.353515625
496,5655.504,7324.1772,6177.491,2682.0142,1135.2285,2046.7853,6340.326171875
497,-5829.0566,-269.12866,-4965.7144,-520.13226,316.71106,-3387.1775,7898.70068359375
498,-13556.136,-4631.091,-27892.314,-4824.4995,3334.5183,6962.8286,25724.712890625
499,-460.7089,-2090.7012,412.42584,422.29257,-422.3361,2373.1582,4775.791015625
500,4798.9824,28570.73,34573.11,-10440.298,-2320.4397,11463.64,38486.484375
501,8611.691,12984.606,8884.692,-8.447159,912.8605,1080.8441,4899.7890625
502,17751.975,33688.05,21588.834,2561.1667,354.64264,-5634.8164,17967.888671875
503,-11613.816,-8496.714,-31624.434,1774.7023,9.979291,9648.312,27590.486328125
504,-8725.383,-5539.8936,824.7739,-759.0652,1915.9188,-1567.0876,9541.435546875
505,5476.216,12747.604,8904.075,1116.6108,-778.80743,-1526.7693,7228.49658203125
506,13020.763,13173.338,4118.015,-6128.4585,-3378.7593,1748.9275,15386.3193359375
507,7438.3887,4043.1558,4161.2446,-1036.9711,-5501.6074,-4837.507,13242.884765625
508,2408.0566,11216.2,16300.2295,-11537.276,1733.8997,384.29922,23600.849609375
509,7507.784,7212.7104,3226.8406,630.86316,2393.6108,210.39592,5972.0380859375
510,7740.795,8162.62,10202.325,-1689.3451,396.91855,449.6252,3852.208984375
511,4499.427,7226.7646,3619.834,-3969.6936,-5464.408,-94.34595,12144.6435546875
512,11543.264,289.19678,2107.6497,661.85114,-3688.134,-309.5484,12324.9501953125
513,-998.30457,6358.331,392.07922,-147.08784,2596.9966,1423.5914,8497.212890625
514,1904.5664,18933.719,15776.461,-6376.4697,11769.588,1867.5692,28181.66015625
515,1328.6953,4744.3604,6782.5938,1007.3581,3122.9956,-923.01245,7592.26953125
516,-12726.989,-30674.654,-32110.97,-6875.319,-2062.0808,1092.122,22541.18359375
517,-5114.7554,-6830.5815,5536.382,2522.7644,602.406,2911.622,13426.861328125
518,-21093.488,11716.734,-17904.148,9497.892,-2994.2312,7278.5137,37927.5078125
519,-8099.5503,-4436.1167,-16072.742,-252.56299,3817.5918,-1891.3848,12682.5546875
520,8566.545,12278.304,13725.297,932.46405,-4786.0684,-7689.781,16430.697265625
521,-16649.674,-10658.665,-29643.486,4014.221,2057.9714,8611.571,23792.908203125
522,20830.393,18790.344,27137.965,-18138.59,1487.1433,-10381.571,37064.890625
523,404.09326,420.08984,-3890.7603,-549.0418,127.994225,2239.0552,5874.3779296875
524,6109.17,-4385.2705,11034.028,-2972.065,-25.584854,450.74362,14600.7578125
525,2205.5703,5364.9487,6914.342,-1582.4601,1081.0333,-778.4579,5487.60791015625
526,-2484.274,-5149.8335,847.3767,-932.1698,1771.0658,668.927,6359.642578125
527,-18245.176,-15127.4375,-23063.164,6168.4487,-2135.7283,1093.2552,13393.037109375
528,-4476.4316,-7.64624,-2141.8599,3574.993,-5728.1025,-726.2134,12383.2509765625
529,5701.95,7237.313,9683.257,-4551.1943,-1263.0779,-2813.1863,10137.240234375
530,11610.738,11090.71,12773.451,3953.8892,-2835.615,-1066.7297,8755.7158203125
531,4937.5054,5517.16,16092.188,3541.0398,2668.3499,1791.0635,13671.0634765625
532,2077.9473,5366.174,3457.583,-2556.937,-2.403205,2769.7507,7127.94677734375
533,-600.82007,-3719.0742,-8599.611,2869.1555,-200.69614,-3194.8303,10207.826171875
534,-8572.87,-12006.941,-10472.549,-2836.8735,184.1544,4307.57,9422.7783203125
535,8063.615,6350.3457,3321.8242,320.57474,1005.5717,955.15344,4834.73828125
536,-3096.0527,-5243.6445,-6678.3794,-1582.7452,268.92734,-2422.1875,5923.26171875
537,-4799.3687,2599.7568,-10686.233,-104.976265,-1067.1674,291.9124,11690.3857421875
538,-3355.7593,-6782.375,-3983.8474,324.7927,-446.95538,1015.3593,3740.67041015625
539,3208.2742,3005.227,2987.9705,-994.0725,-1459.3062,-69.597885,3068.03271484375
540,1782.7173,-6490.065,-6681.8926,-2138.8862,1722.6493,-3582.0251,11453.4912109375
541,248.54785,654.9701,-4924.47,-362.5619,521.3445,43.81444,5499.38525390625
542,-10607.366,-12191.4795,-9505.314,214.48859,9917.886,6012.9604,20227.90625
543,11853.295,6383.525,17069.014,6828.6143,1242.5613,1498.8956,15391.9697265625
544,4009.847,71.81247,-4756.7812,245.37949,-2044.9703,-2001.7739,9087.697265625
545,-6761.222,9748.337,-31055.61,-202.34155,184.91011,4888.2817,36548.375
546,20773.53,13922.556,20225.611,-708.32733,-2380.0708,-618.3209,7945.353515625
547,1746.1641,324.857,-2958.515,-338.31784,-1953.939,-2184.9766,6602.0224609375
548,7178.362,5221.148,6502.593,-1869.0492,355.00552,-692.86224,3906.79174804688
549,32174.686,26920.508,51208.508,449.1889,948.22687,2553.845,22644.40234375
550,792.94104,4862.351,-1704.0498,499.93146,-1155.3976,906.3214,6338.392578125
551,10179.429,8028.125,11606.958,5188.3496,-822.7651,-141.59145,9622.103515625
552,-918.6929,1141.9597,9882.125,-4268.56,3681.7954,5235.1045,16619.111328125
553,203.65479,-4355.5728,-16145.734,1349.9873,642.47754,4243.1494,16561.013671875
554,10356.334,6581.3794,8944.925,-1488.0255,1863.9281,-3054.0063,7480.67919921875
555,1216.3792,-2946.3,2131.9517,1520.8005,2704.3467,1860.9565,7825.97314453125
556,9366.5,8253.494,19567.094,-1602.5635,-4946.479,-1932.4512,14455.2724609375
557,2181.6863,4032.1658,1416.4214,424.83618,-69.810074,1137.3169,3140.47094726563
558,-59.876465,-4309.437,-3121.2087,1048.1735,-158.55908,-1002.3306,4561.42822265625
559,-4083.3193,-728.396,-1621.322,841.72046,496.5562,1422.5446,4241.8408203125
560,4322.8633,-4529.4478,3625.8677,4787.6763,-2442.6206,-1069.8796,12758.4423828125
561,-21490.404,-24580.63,-25531.604,1188.8901,-1666.4514,-1416.181,5655.16015625
562,-9331.191,-17385.889,2405.9736,3976.8875,-2638.4219,2283.8042,19523.23046875
563,1557.1555,456.4336,7672.3555,-87.76499,-2627.9307,-5517.7334,12546.541015625
564,9352.8955,9028.869,14586.168,1151.2156,-1057.9,1815.0698,6812.0947265625
565,1774.751,-688.6677,-8706.139,-397.3814,2428.6353,1230.4955,10621.1845703125
566,-379.60925,-406.5658,-5754.2656,4609.7515,640.8161,1107.1177,9869.2080078125
567,-419.73804,5205.1426,-2007.6738,994.86847,-2004.4614,1607.1184,8115.6728515625
568,-3165.4233,-2496.1035,-7856.0156,2437.9744,-2295.38,1123.5276,7938.10791015625
569,-2750.788,-12361.349,-6640.628,2426.3613,-2032.1416,-1030.7343,10166.017578125
570,6248.9473,5352.3696,3858.95,123.7147,-1476.7164,-1291.4979,3995.62377929688
571,4554.2007,6561.6987,12650.636,-207.36893,1606.6901,273.91263,7837.5498046875
572,-2071.3608,-14162.609,-9933.545,2307.831,-600.50494,7503.766,17289.5390625
573,4689.0786,-5522.491,-861.7261,-3717.92,704.6643,2881.5493,12094.3623046875
574,-2114.8044,-7457.6167,12429.287,4813.0117,-2404.825,-2001.0386,20411.7578125
575,-25610.645,-14226.502,-30977.281,-7692.4624,-4769.5215,1571.6847,21741.01171875
576,6536.1665,-8806.241,-14716.291,-9982.794,-2034.6262,-1602.2303,26078.375
577,-19008.477,3217.1096,-5896.7397,-1020.63257,-2739.9062,2783.2205,20575.80078125
578,-36242.844,-38085.344,-20882.916,-16596.285,-1307.4205,-11629.704,38791.89453125
579,-27669.852,-33845.465,-13752.4,-8486.935,4185.1006,15440.16,36077.796875
