Element Label,S11,S22,S33,S12,S13,S23,Mises
1,-266744.94,-267614.12,-280507.62,-2979.6824,14207.521,6692.6265,30737.19140625
2,153101.66,154196.88,184014.86,-357.5803,2097.9648,-6583.625,32658.677734375
3,-42223.25,-49384.64,-42213.68,-14083.067,-471.3686,13260.338,34271.3984375
4,24517.215,35349.453,9337.713,11370.508,-1617.2784,-12060.276,36663.953125
5,-13532.065,-35090.918,-691.987,10760.873,-5926.807,5611.095,38127.3203125
6,163674.14,161847.9,194423.06,-2932.419,-5612.291,-49.76554,33545.25390625
7,-6145.8755,-15206.812,-8103.3804,3538.1492,49.27066,-16125.237,29762.865234375
8,34720.34,28155.38,6978.552,-500.4723,-4472.4814,9154.805,30704.62109375
9,22842.04,11295.805,9760.695,9363.947,-8484.572,-13729.891,34611.28515625
10,27200.078,17416.555,25969.957,10137.331,9791.365,14374.922,36069.6484375
11,-12961.286,-8089.392,-28805.479,-2850.33,-3690.1333,-8294.149,24971.345703125
12,113512.47,109624.41,114164.69,-103.42135,551.01556,-4655.119,9166.876953125
13,9124.515,9570.385,7576.7305,253.63719,-796.7825,-991.6877,2886.6005859375
14,6119.2593,7338.845,7382.0786,1416.3783,-8349.251,185.21913,14723.900390625
15,-14759.744,-12881.431,-18952.795,218.12587,1258.5685,-5541.721,11225.521484375
16,-133766.61,-122085.5,-152746.67,3437.8052,1669.761,-4565.647,28718.5390625
17,-38778.56,-31498.756,-23992.996,1342.477,1513.3287,-10404.261,22382.9296875
18,-140229.0,-141628.9,-141030.86,703.96735,-372.25235,-455.0943,2000.986328125
19,103460.16,103128.234,103432.71,-204.10513,-1121.9149,18.905977,2000.98571777344
20,21061.205,20910.504,22604.574,-239.47997,381.2323,-502.85495,2000.98522949219
21,121449.18,118933.72,144391.05,1683.6301,-11148.006,-6684.0728,33252.58984375
22,1400759.2,1400922.6,1402517.6,-170.23723,582.87946,-149.04083,2001.03137207031
23,-88161.43,-102800.31,-90127.91,5221.9556,-8227.849,3606.77,22656.173828125
24,68518.74,61052.56,64452.55,-8692.215,-2926.54,-8940.647,23110.216796875
25,68797.695,66915.625,48877.043,1172.5255,-7308.3647,-7305.5107,26217.45703125
26,-29119.668,-17465.139,4742.568,217.7694,5396.97,-6953.4023,33472.4375
27,108455.336,88827.34,93847.6,-1266.0822,4402.9414,14240.072,31356.484375
28,-60586.582,-83096.74,-58869.316,-1608.1462,-7846.1035,13290.177,35646.05078125
29,-13810.169,-175.4365,18188.67,5689.7705,11053.156,-6549.255,36957.4296875
30,9094.436,-14528.532,-4341.121,5163.344,1699.8016,13349.787,32318.259765625
31,-109712.516,-83439.945,-106193.72,-1079.4089,9916.994,-1471.5363,30252.50390625
32,-94921.73,-94959.82,-102089.1,1292.5181,16923.244,-9001.619,34035.08984375
33,85884.75,88032.92,114508.5,-1794.8668,10480.127,-2381.725,33445.875
34,-46219.66,-59326.977,-51913.18,700.9845,12238.17,-3412.2776,24805.53515625
35,35748.62,54662.15,64297.906,6169.77,3356.975,-10544.929,33382.75390625
36,32536.422,34625.0,8764.842,1656.2313,9431.18,-470.46802,29913.7734375
37,-12805.159,-24608.666,12493.27,6527.4736,2173.862,2635.058,35224.6328125
38,21940.6,21683.389,-9842.384,-3230.6738,-2781.8623,349.3615,32510.666015625
39,67384.88,65884.26,96799.766,1702.559,6068.395,3393.039,32639.521484375
40,861044.56,852987.75,882452.9,-2343.3196,8288.012,3690.0051,30969.4375
41,-217108.25,-213656.0,-194189.11,-4344.8647,9095.695,-8179.363,31042.1796875
42,1929809.9,1930472.5,1928837.9,3559.217,-2505.286,2769.3,9048.119140625
43,73443.34,74832.13,74780.76,39.42059,-843.5837,-38.06267,2000.98327636719
44,196231.14,197578.3,196897.64,98.53643,-900.86127,244.26723,2000.98815917969
45,439730.5,441119.38,441010.62,-109.48833,-849.4746,-67.02652,2001.00537109375
46,-370238.7,-370122.34,-368643.16,-672.4439,-300.09622,-34.07323,2000.95581054688
47,81958.16,81347.16,83357.1,-210.96048,267.85144,-395.8443,2000.98706054688
48,-240895.84,-242318.6,-239831.64,2159.4282,-2398.7378,4305.5117,9567.3583984375
49,-292876.44,-308295.06,-286924.8,-3036.2385,3748.0566,860.7532,20903.21484375
50,-45015.12,-65182.625,-49784.168,2706.3328,-3158.6785,495.66028,19645.197265625
51,51251.79,40851.07,64448.617,-7774.196,-2783.6711,-12994.418,33626.078125
52,11993.515,30580.201,16054.928,-6985.9033,-1724.2195,-8212.242,25379.556640625
53,-51041.527,-44797.574,-66609.96,2160.7886,-962.65216,-5153.328,21795.162109375
54,-29064.674,-21912.568,-31420.98,-4503.928,1285.2289,-7723.1987,17841.30859375
55,-255557.25,-257449.73,-250450.53,5491.488,-561.75757,2268.5022,12090.4423828125
56,50159.656,56939.766,73563.31,2796.2117,-5265.308,-1720.6486,23463.3828125
57,35379.125,49455.984,47111.3,-4141.9683,-4606.996,-8399.846,22303.875
58,-19006.11,-21946.988,-28902.78,-1365.2616,8137.859,-4160.9673,18267.318359375
59,4284.868,4994.3384,5565.6147,625.943,-671.11707,-284.2107,2000.98571777344
60,15668.815,16241.672,17698.135,-260.27954,115.55912,398.6872,2000.98608398438
61,-97920.21,-98575.93,-98398.42,-747.9242,365.08557,-725.90826,2000.98571777344
62,-64855.207,-66175.98,-65355.79,-309.9881,-876.53955,-160.05186,2000.98815917969
63,80583.56,80579.375,79479.0,614.65546,44.483887,741.4319,2000.98840332031
64,-382885.53,-383914.66,-382951.3,-423.16772,458.39694,783.2775,2000.9736328125
65,67281.9,66846.22,67096.734,322.35242,354.05255,-1028.3837,2000.98522949219
66,121962.07,121728.484,122656.61,957.9026,-406.39853,-137.29906,2000.98620605469
67,27927.402,27819.49,28667.953,-530.95575,-805.0075,-365.32098,1957.09130859375
68,45996.895,45749.97,47281.85,81.37572,779.4264,209.91194,2000.98657226563
69,-99601.72,-100321.71,-99775.7,360.83337,-366.74307,-94.75762,1115.54138183594
70,91396.664,92712.19,92555.14,70.22497,134.68912,518.9767,1557.52856445313
71,6253.8306,5742.7764,6176.749,-167.34433,633.829,910.492,2000.98522949219
72,35503.203,36615.41,35789.54,-482.21603,107.31747,237.07191,1378.87097167969
73,50119.51,48233.773,48353.707,-427.72906,191.7239,13.753856,2000.98168945313
74,53098.664,52954.453,52457.34,868.14545,-188.07756,657.5677,2000.9853515625
75,33098.42,32977.453,32665.84,934.7474,-547.0415,334.40985,2000.98547363281
76,41018.062,42054.8,40964.22,-814.01544,418.62485,-344.86365,2000.98571777344
77,908417.6,909015.6,908914.6,-444.67838,473.96902,899.8681,2000.96264648438
78,86880.67,84697.586,90285.414,-604.449,-70.53503,226.75813,5005.62060546875
79,114873.72,113631.37,108670.29,2290.1948,-4435.737,3429.5833,11931.7861328125
80,384208.72,380831.9,389525.34,1632.2196,-3196.9558,-1193.8074,10027.5693359375
81,160874.62,172123.67,173100.8,-11014.062,4833.427,3090.3862,24518.435546875
82,-299161.2,-316860.53,-308262.53,8689.448,1124.9509,-1931.8298,21829.4609375
83,-158695.98,-173350.16,-198165.92,-1019.8443,4375.3887,2572.589,35701.9375
84,-64110.76,-39208.95,-57988.344,-4810.7695,5007.217,-9915.836,30736.6796875
85,-67275.875,-91085.84,-53175.023,1296.794,-7374.057,-1748.0955,35760.76171875
86,35984.406,32047.367,36794.816,-6587.86,-10204.314,-8075.551,25643.2265625
87,56247.3,68174.68,73329.22,2695.2542,7294.178,-1587.0592,20476.23828125
88,-144553.06,-156005.2,-155873.9,3982.7107,-3627.689,-6521.151,18555.529296875
89,41061.85,44275.9,33747.023,1170.665,7834.4062,-5709.007,19322.794921875
90,112272.76,104707.74,92437.15,6144.686,781.6099,-1996.9847,20680.72265625
91,11631.558,-6731.0723,10802.796,-4202.991,-8542.743,-2657.9023,24814.89453125
92,-129115.92,-97168.32,-119832.09,8332.941,2785.8606,-3628.1377,32883.57421875
93,60748.543,43496.56,24654.596,6437.4214,-2379.9211,3423.1304,33973.203125
94,147739.03,143261.7,179235.27,2797.6663,1958.5594,-5226.309,35637.19921875
95,-70402.48,-69668.805,-82392.164,-2224.3616,-7354.705,9284.604,24265.55859375
96,125827.195,126625.89,126889.32,-798.5504,-570.27765,-256.60355,2000.98571777344
97,20965.473,21502.213,21649.387,138.39691,-1065.7285,223.9091,2000.98559570313
98,-62989.5,-68539.32,-52152.62,-1958.145,1800.2794,4327.6157,16905.3828125
99,-8344.392,-19642.076,-23700.297,-2291.0032,-9642.294,10378.973,28421.68359375
100,80250.09,93349.48,77033.91,-91.15607,2768.0015,-17729.482,34497.5625
101,-4413.9766,-2894.4094,24491.018,-4160.745,-723.77313,-806.03577,29143.451171875
102,122738.445,120269.67,110187.414,2176.912,15612.998,2280.996,29895.826171875
103,-19300.139,-30627.914,-57469.023,3946.151,-2237.9841,-5527.417,36141.56640625
104,-36059.465,-48361.645,-74358.47,756.63873,-3848.3252,365.57755,34547.6953125
105,-158618.19,-151906.42,-183040.25,-713.465,-7689.707,-2569.8171,31688.0703125
106,67159.28,55795.92,51402.14,136.22588,-1171.5446,-10853.642,23578.3203125
107,384509.22,382644.16,409945.3,-1287.9133,-3032.6753,-4399.143,28080.919921875
108,191941.69,191586.08,191965.64,183.52028,-1064.294,-350.80746,2000.98767089844
109,10014.481,9940.878,9566.303,-830.3294,433.03207,-632.3916,2000.98547363281
110,15773.743,17238.037,17828.777,-997.75073,2504.606,-1983.2375,6079.7626953125
111,-62806.1,-63145.715,-61604.797,582.67,448.53815,372.11783,2000.98388671875
112,78888.65,79845.24,79186.16,-838.86847,560.0391,278.64163,2000.98571777344
113,55650.5,54127.344,55647.48,-69.26687,-138.7843,225.0238,1593.58056640625
114,35798.57,34256.184,35963.848,-599.3003,-39.08977,144.13309,1950.79077148438
115,122194.0,124221.97,123962.555,140.95473,-285.08896,124.734085,2000.99401855469
116,2568.8057,2850.2725,1749.6624,-603.36755,-801.4481,36.72974,2000.9853515625
117,16974.652,17344.846,15421.379,-10.245822,-389.65796,375.68243,2000.98474121094
118,-267207.7,-267969.84,-267976.3,1001.04144,365.0072,63.526646,2000.97570800781
119,-132576.33,-132663.52,-134414.64,-345.9784,167.84473,-333.45865,2000.97961425781
120,149635.64,148799.39,148832.77,773.788,-707.57104,-105.23842,2000.98913574219
121,-128570.195,-118432.8,-134266.02,-1432.8346,8516.517,8633.148,25304.0703125
122,71402.8,83201.52,100873.71,-1509.8383,-145.58571,1638.8842,25980.486328125
123,133759.38,135616.62,134752.75,-269.5524,-394.05667,-492.93668,2001.00048828125
124,39343.047,39674.613,38522.17,-749.12976,-637.953,-120.357475,2000.9853515625
125,277464.4,276895.2,276336.84,-120.62376,68.037506,-998.8026,2000.98352050781
126,1032547.7,1033302.5,1033045.5,430.52097,292.1063,957.4506,2000.990234375
127,-90044.45,-93134.06,-94053.9,-9459.806,-7825.6167,6587.794,24405.232421875
128,-169405.36,-149004.02,-169689.81,-619.688,4390.31,-13164.532,31638.4296875
129,5197.1504,22857.783,12400.0625,9621.447,-8049.271,-3896.987,27463.07421875
130,175890.81,165936.89,198548.05,3556.577,-2226.0527,-2789.199,30234.28125
131,11899.3125,-15169.974,12360.73,3177.6465,-7606.8984,-6795.4336,32982.87890625
132,-30228.152,-21556.354,-27226.914,13581.101,1130.8011,-5617.1855,26646.099609375
133,-98541.836,-103515.67,-95308.4,-11904.438,1394.9618,5350.316,23835.669921875
134,289051.9,301997.78,310236.5,4045.0688,5113.832,-10570.74,28370.6328125
135,67662.58,68175.234,66462.984,421.36942,381.95032,-488.8096,2000.98486328125
136,1848854.9,1848593.5,1844678.4,2304.7993,1020.72656,-2632.086,7501.02734375
137,739744.8,740129.44,739671.8,-893.59686,-682.5299,99.150856,2000.98046875
138,209369.95,209813.34,209735.36,691.57263,-852.7586,270.4518,2000.98522949219
139,64832.957,66452.266,66342.2,-608.9681,65.841705,-375.22195,2000.98852539063
140,6818.228,6198.8525,5591.2476,-464.60187,278.5646,27.732416,1418.38354492188
141,226928.03,226996.03,227139.48,257.35037,-908.69434,-656.53705,2000.98571777344
142,66788.57,66016.734,66216.55,2.2774904,-1082.463,49.377728,2000.98510742188
143,43045.742,42111.6,42883.54,-672.0922,-430.64972,669.58453,2000.98461914063
144,-275396.72,-276235.2,-276249.88,-717.4379,-574.683,-501.14178,2000.98046875
145,-100749.0,-102489.086,-100687.5,-16.093584,-74.59011,-531.5934,2000.98461914063
146,17509.14,17079.133,17030.205,1104.6598,-132.95428,165.07745,2000.98522949219
147,23100.143,23802.74,23182.598,639.5381,3900.7566,2080.428,7765.42236328125
148,85572.56,83283.5,81453.17,-537.4117,1396.5305,-1325.2528,4976.5302734375
149,4427.924,4529.3984,5229.4224,208.47958,1045.8632,83.06108,2000.98559570313
150,-1693540.5,-1695044.8,-1693244.4,-214.32698,-387.39032,-454.51224,2000.91735839844
151,-275294.6,-279540.12,-276094.38,2980.6538,602.1088,5476.6763,11532.1787109375
152,143893.95,134621.61,145017.84,738.76654,-2201.8838,-1973.3993,11203.826171875
153,114027.836,129991.58,109476.62,-3518.5486,-2332.1633,3985.9202,21197.390625
154,64237.97,68669.055,70176.56,1056.3671,-9940.785,-10954.185,26236.8984375
155,90639.41,90902.48,107436.68,3249.2703,2603.7131,-2481.1958,18662.234375
156,161698.14,162441.23,182240.7,1037.8778,-3200.5957,-6485.6416,23820.94921875
157,-157037.89,-137150.52,-158893.67,-6783.171,9894.785,-344.41998,29461.306640625
158,207975.72,209748.0,239011.94,2910.1267,-216.01894,1322.7518,30694.92578125
159,-444216.66,-443352.8,-472959.72,-698.8247,-2076.0134,-312.27454,29435.123046875
160,3829.6333,9423.212,20858.592,-3859.9465,-2929.8992,-9893.307,24292.05078125
161,-330804.9,-318466.25,-344992.1,2607.8938,-4633.1836,-4448.58,25937.263671875
162,-150642.67,-144479.19,-174497.83,-4849.4536,-6573.8574,783.8144,30921.341796875
163,341554.22,341248.03,317963.53,1638.4109,3805.6165,3369.0505,25198.09375
164,176624.16,172698.16,164482.16,-619.183,5797.6104,-2298.591,15264.6552734375
165,126139.34,136355.58,126071.69,4290.42,-8242.463,8245.477,23834.1875
166,-23363.514,-13617.824,-27228.193,3559.8945,4834.797,-16391.26,32584.39453125
167,-52949.117,-76817.71,-60935.973,-6687.3853,1299.7035,-15057.73,35528.8828125
168,127580.7,128483.06,128635.555,234.28807,-972.8424,-91.08705,2000.98461914063
169,-119842.7,-120117.805,-120240.484,-8.1895685,1136.1537,47.34821,2000.98559570313
170,50344.55,51907.23,51674.746,-294.2648,699.8208,217.7157,2000.98510742188
171,180762.55,202821.33,181660.11,-199.59404,-4371.2646,5077.9814,24543.78515625
172,-171596.5,-167392.22,-195665.6,680.3394,-39.97398,9991.499,31608.1328125
173,52493.035,53384.89,52699.254,-1049.199,122.03281,30.544096,2000.98608398438
174,185350.14,183381.44,173049.22,2577.6482,-3618.9338,-2191.1982,14303.7939453125
175,19772.814,18931.83,19052.236,54.223705,999.3629,-355.17648,2000.98547363281
176,174691.98,173542.31,172545.67,-244.4035,15.359241,347.95908,2000.99499511719
177,203021.5,231562.08,210402.42,3483.2354,-2528.5698,-4319.4766,27747.796875
178,32534.344,58363.78,67172.27,-2730.976,28.936941,-9088.072,35248.0390625
179,126522.18,137431.89,109488.766,-783.45886,11127.321,-2365.7239,31385.853515625
180,176215.16,175552.38,192170.08,-13897.925,3955.851,49.550587,29866.1015625
181,290898.5,291564.78,322517.25,-1889.697,2208.9683,3203.1204,32175.359375
182,-183214.7,-183847.66,-183941.17,-319.7458,21.964523,-7.794785,881.423583984375
183,27415.861,26031.695,27720.44,-378.55884,571.9014,-232.76312,2000.98486328125
184,1937203.1,1936665.9,1947900.4,2760.2993,-3013.3926,-255.31877,13067.5869140625
185,-41342520.0,-41342616.0,-41340600.0,3.0964298,205.32568,-26.156092,2002.12219238281
186,77368.484,71747.19,85613.25,-1084.3885,-7822.0034,-2314.9214,18683.599609375
187,32074.133,31975.861,31903.979,114.23461,-1052.806,-453.7635,2000.98522949219
188,91075.3,90549.78,89354.69,302.66818,621.1526,-282.34955,2000.98364257813
189,-44814.344,-56445.31,-35065.723,2947.4927,6569.5703,997.57556,22410.42578125
190,99772.26,118855.8,94827.83,9442.623,1459.962,279.68625,27515.533203125
191,-73463.61,-61585.703,-67707.79,-6128.632,3297.6025,-16702.53,32985.95703125
192,-67342.555,-73947.71,-81260.49,-10006.748,-1836.7606,-11719.867,29461.818359375
193,-66036.65,-65621.266,-94476.875,2188.7947,-8905.745,-2480.5132,33039.3828125
194,28732.934,41352.223,69797.72,5574.587,5916.106,384.11838,39064.38671875
195,-79035.695,-82117.74,-80075.336,-6458.1104,5007.74,13000.128,26734.61328125
196,102853.55,105121.43,88643.945,1391.6113,2788.4302,4125.539,17873.94140625
197,35644.96,45763.93,6175.5215,-1887.6937,-2680.0,3345.4358,36535.6640625
198,-17723.225,-25247.53,-12467.561,-7431.545,7442.7124,4776.327,22892.962890625
199,-70309.516,-69677.34,-103484.45,1214.0048,-274.8927,-782.4363,33592.15625
200,-90875.61,-103361.41,-103159.6,10678.822,11982.262,5230.5015,31754.150390625
201,204779.75,215866.02,236694.52,10544.905,-2493.4104,895.31976,33797.6796875
202,114221.664,113276.164,146897.6,-2032.7969,-2260.459,-431.31577,33582.57421875
203,-366653.4,-355828.56,-395237.62,-2211.0442,3338.6016,-3808.9075,36541.51953125
204,335178.78,339397.97,371588.78,119.48938,1414.0718,2267.8481,34804.3125
205,-370952.5,-379304.1,-342127.25,2592.3525,-3951.4019,-1669.2123,34881.81640625
206,305498.34,321535.75,320310.6,4252.65,-15814.625,-2924.6184,32699.748046875
207,-361664.22,-375652.06,-337178.1,-4942.3335,-1645.8916,804.09064,34944.0234375
208,576131.4,571736.7,549923.75,-5467.8823,25.827372,6980.64,28755.205078125
209,280546.53,273793.16,281643.97,-7032.381,-8812.029,-9690.301,26781.4921875
210,1828236.0,1825336.1,1854680.4,1084.9059,802.6797,-195.62668,28106.5546875
211,439790.62,439210.47,441112.38,-253.47537,-397.09033,403.02966,2000.87878417969
212,-97941670.0,-97940610.0,-97942984.0,138.7998,-273.53732,1204.3926,2980.50146484375
213,1325931.8,1326532.1,1339941.9,20.909555,1476.4375,2272.256,14500.451171875
214,223848.42,223391.3,223156.36,-303.03445,1053.2538,98.09975,2000.98608398438
215,25686.49,26557.807,26317.61,-102.55101,-803.0696,-690.4181,2000.9853515625
216,-1665172.1,-1651616.5,-1671739.4,-5876.956,-7666.699,9079.804,29037.666015625
217,-947089.06,-943610.25,-946600.94,952.8387,-5021.0044,-7598.4395,16192.7861328125
218,400444.28,411581.62,401967.16,1959.0504,-11398.883,-7832.3335,26358.15625
219,173953.58,168589.48,201029.98,1282.1451,-3592.7437,-4625.831,31858.998046875
220,369292.8,369206.94,402315.0,3393.827,-612.67725,-2322.252,33840.31640625
221,-230256.02,-228566.25,-266120.7,-1738.1233,-3570.6248,2633.6006,37654.37109375
222,61729.926,73432.625,93578.234,-10727.119,-1361.9647,4237.881,34397.875
223,-35177.043,-46977.73,-63939.445,-10193.908,1165.159,-2633.044,31044.076171875
224,126275.7,113815.38,140069.89,-4508.135,-4615.101,6941.5293,28050.685546875
225,151418.55,160702.78,177439.83,3465.8364,7159.156,-13581.802,35565.55859375
226,76949.664,67173.49,58423.516,660.2397,-3757.3706,-4389.434,18950.978515625
227,-21871.514,-6822.335,-19696.922,534.0667,-1381.8564,-6674.355,18403.970703125
228,27258.236,10155.105,23201.396,-4778.639,3278.681,392.62094,18460.9921875
229,118018.92,118522.38,128417.71,7704.3677,-5365.9873,-1607.3026,19374.119140625
230,-94034.125,-85012.484,-111224.55,3770.0342,2764.966,-5486.7397,26227.3515625
231,-44995.79,-45502.297,-45953.54,350.47473,-783.18756,-607.3358,2000.98571777344
232,113426.06,111986.625,113000.98,-425.00436,-436.96774,-645.0936,2000.98461914063
233,13248.692,13509.376,12024.237,-733.6682,-11.509468,409.18494,2000.98559570313
234,15101.171,16365.338,16485.682,364.72556,313.8714,717.53894,2000.98522949219
235,129868.87,131648.7,131496.14,-579.04065,55.327423,152.04741,2000.9892578125
236,126123.05,126287.17,125157.69,831.54443,290.30127,431.82468,2000.98364257813
237,32389.22,31329.639,31114.758,-331.37796,812.12823,315.84857,2000.98571777344
238,123363.234,123640.4,122329.52,-440.7081,236.52525,779.214,2000.97790527344
239,69554.45,69091.97,68884.74,189.18733,698.54626,-832.6662,2000.98693847656
240,12028.699,11692.492,11408.371,-19.436405,-446.69205,1018.9742,2000.98571777344
241,50438.723,51866.902,50874.695,116.3385,766.4583,444.905,2000.98034667969
242,24606.727,23986.89,24438.691,-746.202,-791.83014,115.87244,1974.84045410156
243,57681.234,56152.598,57409.684,-211.41959,-684.56976,395.20535,2000.98254394531
244,121820.53,120948.82,122315.086,-909.7713,-167.10147,22.88271,2000.99072265625
245,187386.72,188554.95,188083.34,986.593,22.127548,124.01569,2000.9853515625
246,-305619.0,-304792.06,-304080.44,-399.08978,763.1866,-5.3943214,2000.99267578125
247,164351.27,164539.05,164439.36,450.89127,-402.52954,-314.79974,1191.54333496094
248,-60951.043,-59916.47,-58842.8,-45.068916,453.80124,-124.009254,2000.98254394531
249,3839.1824,3801.0642,4595.4336,700.1273,160.36003,786.14374,2000.9853515625
250,17155.285,17302.512,19100.963,-95.19939,-331.0557,-205.8107,2000.98449707031
251,3692.8398,3183.0317,3733.648,-1005.6132,436.16763,197.54224,2000.98547363281
252,138813.58,139405.52,139418.16,-468.37463,924.0595,376.88562,2000.98547363281
253,2705.436,10075.197,28556.29,-3210.7944,-1874.3431,-3137.2742,24557.27734375
254,258765.06,259162.02,260798.17,335.9426,-1.8938339,245.85884,2000.99450683594
255,48419.473,49025.035,48965.14,-96.49311,-1034.0754,-380.3723,2000.98510742188
256,864909.4,866428.44,866704.06,412.65543,93.82089,-470.6809,2001.02319335938
257,710541.0,710262.4,710720.7,695.5732,885.3991,116.48605,2000.98791503906
258,591996.7,592433.4,593008.1,178.96977,868.9291,-538.7336,2000.98095703125
259,929527.5,929795.06,930033.06,810.4564,-75.19995,779.8545,2000.97900390625
260,785447.3,788678.44,785578.75,-1072.6082,5910.3667,3469.087,12425.1845703125
261,-201912.33,-201195.75,-201556.69,1001.3388,1547.9263,1876.3739,4598.23046875
262,79378.86,80344.53,80851.89,-247.8019,-214.00139,816.9982,2000.98571777344
263,4628.867,-6003.718,-20238.45,-1989.1251,7007.348,-6072.822,27144.9375
264,-171365.02,-173395.16,-152063.81,-1107.1774,3221.3167,5192.1797,23054.857421875
265,47340.96,41233.367,39683.746,-7823.5176,10259.74,-4869.9565,24894.31640625
266,-45490.324,-50722.82,-83116.96,6344.71,5174.143,2959.9998,38387.859375
267,46925.05,57853.85,49252.387,-13192.616,-6444.976,10007.972,32351.927734375
268,-49350.484,-47410.645,-41861.32,8894.72,38.32087,14516.928,30247.294921875
269,44605.01,38332.066,46885.457,2443.9563,4505.315,2761.5798,12670.7021484375
270,-27785.51,-34011.312,-45215.58,-1279.707,-2541.653,13456.112,28311.580078125
271,-82299.58,-82754.02,-80721.19,-5240.8203,-2692.5413,10009.6875,20202.58984375
272,49731.734,50614.434,61246.21,-5403.745,-8844.998,-4386.138,22432.48828125
273,-38826.42,-32576.857,-56331.598,1440.2098,-4098.257,-3697.7214,23505.681640625
274,-47990.63,-27527.36,-62477.496,-2109.5876,2544.5627,1592.3986,31071.62890625
275,-541494.1,-552251.7,-576550.4,-5050.6533,10485.011,54.60313,37066.00390625
276,-184013.14,-180472.98,-179534.75,-5647.1436,16896.059,2418.613,31406.76171875
277,54834.824,66272.55,71744.836,4195.8564,18334.469,-3305.3462,36296.11328125
278,57916.46,61402.625,83027.805,2969.264,422.48712,-5259.0024,25790.4453125
279,8271.554,7462.317,7557.795,154.8963,-256.89233,-1024.2505,2000.98547363281
280,36929.58,36424.395,35980.85,239.20772,599.87683,-832.0082,2000.98522949219
281,94653.234,95105.8,95420.27,108.44378,839.833,684.7575,2000.98620605469
282,105843.09,105770.61,143424.8,1134.0986,618.77405,-2375.511,37908.4453125
283,-35907.613,-63029.254,-62727.633,-5545.443,7804.6436,-10624.646,36621.53125
284,98209.16,87920.01,103790.414,-3584.433,11248.682,16758.771,38146.50390625
285,-50486.523,-74929.805,-53897.895,-737.27625,3463.2427,-10904.983,30333.0703125
286,-2412691.5,-2412328.8,-2381027.0,-84.92891,-2539.4907,-1227.1844,31861.771484375
287,226087.64,214337.78,208768.66,194.98758,9147.478,-7293.5547,25401.607421875
288,-90410.64,-107129.18,-116244.56,-7510.5747,3328.9878,12055.138,33962.44140625
289,31451.55,20437.014,24184.193,-1748.854,15793.219,817.3257,29215.48828125
290,-2450.0984,-20730.64,-37888.91,696.41095,-50.222958,-943.56506,30763.296875
291,228142.72,230591.12,266421.53,-280.02332,-854.99615,-2267.7202,37355.0
292,44037.273,43473.516,42520.58,249.54774,-791.92834,239.80353,2000.98217773438
293,53832.95,54869.633,54403.184,267.99,-215.5345,-973.03644,2000.98693847656
294,97786.95,97330.31,97481.78,-230.22025,1106.7783,-50.89629,2000.98645019531
295,67462.41,69252.03,68918.54,-551.2944,163.78055,-313.33563,2000.98352050781
296,26178.275,26335.072,29263.422,-296.46768,238.4396,151.87547,3092.31469726563
297,970796.0,971235.06,944536.06,-110.35335,-2104.1228,-725.1341,26761.966796875
298,645734.56,631902.44,646211.7,-1098.8606,-5614.789,-8048.323,22151.33203125
299,19275.08,43604.6,24122.633,688.5129,5807.4233,-14242.776,34765.734375
300,-82964.68,-103853.6,-89599.34,-8518.936,-5631.2393,8809.641,29790.158203125
301,246364.56,262597.2,252995.22,4960.789,7064.3013,-5852.2314,22937.259765625
302,124987.32,128007.875,131506.97,13723.133,-9219.44,-3525.0813,29819.1640625
303,-93101.47,-102037.555,-80847.43,3200.828,-2753.4954,1604.755,20018.119140625
304,284001.47,290488.4,282695.72,-666.6293,-182.02492,6875.0845,13981.724609375
305,-10920.719,-13947.214,-3998.4893,7987.1055,-168.912,11269.505,25504.890625
306,-797395.94,-797386.56,-799245.0,-91.93917,222.1818,-362.41473,2000.98498535156
307,172075.72,161987.23,181094.64,-1918.0211,8300.823,2314.5396,22537.1796875
308,396793.3,396963.56,395103.03,233.57611,-395.84473,-255.84926,2000.98352050781
309,-581983.8,-582522.94,-582007.6,-56.428284,1047.5267,375.97427,2000.98571777344
310,31208.084,27193.988,37241.273,3071.226,-2998.3755,2469.5999,12259.4853515625
311,-183128.6,-183834.53,-185138.03,12.67921,533.2241,104.65033,2000.99243164063
312,-37578.99,-27015.34,-44532.434,5564.2886,-4312.371,2742.5422,20115.4921875
313,15273.207,14703.526,7162.146,-6683.6123,4481.4824,-2425.735,16535.076171875
314,-92002.98,-80025.414,-96891.01,16018.347,-194.99104,-5018.3164,32731.15234375
315,-35716.766,-19005.705,-55781.895,-1315.8197,389.7275,1116.8666,32040.138671875
316,97599.81,68570.56,103588.24,-2878.8389,-7516.918,-503.11142,35320.43359375
317,-63632.25,-68468.69,-34827.01,5072.2393,92.78858,-2120.1804,32911.12109375
318,280774.8,282441.2,318531.72,978.9022,159.34767,-256.67953,36994.48828125
319,648565.6,658218.8,677054.44,4125.831,309.67563,-2905.3447,26579.443359375
320,-861387.8,-861201.06,-845137.6,-5400.721,-6350.0137,-8374.311,26075.41796875
321,2294965.2,2290835.0,2288146.8,3208.6938,-589.7083,4318.2456,11102.294921875
322,310775.88,310506.6,310701.1,-436.81732,168.6371,721.6549,1509.3271484375
323,359292.25,359480.9,359215.4,-251.89175,1107.2614,-162.80959,2000.98620605469
324,-85452.07,-83807.625,-85472.46,-171.03777,-181.2058,-599.87146,2000.98803710938
325,-123606.3,-127694.484,-106834.3,2630.4995,-8642.691,-3643.2756,25519.5546875
326,-65858.695,-59018.426,-77529.5,-2246.6865,7004.916,-9705.278,26603.666015625
327,37112.523,36697.902,36890.215,855.81537,746.9576,-35.06134,2000.98522949219
328,24837.242,25258.393,22997.35,-64.47782,-1732.7498,-159.61125,3665.18872070313
329,39661.59,39936.668,38159.746,113.031204,-637.7218,-20.163109,2000.98522949219
330,58008.652,58729.184,58847.242,951.6972,357.2954,-308.55405,2000.98657226563
331,72367.16,71772.17,72844.08,-183.51685,-937.23615,366.2663,2000.98596191406
332,67182.08,67371.164,67617.05,-714.41833,-311.36334,-824.4618,2000.98449707031
333,4152.878,5196.38,4996.4585,445.152,447.21988,793.5572,2000.98559570313
334,-62082.48,-61361.625,-62048.234,515.2714,-889.3169,-335.98373,2000.98522949219
335,640152.8,639978.3,640952.06,426.4451,803.58575,-487.30783,2000.98559570313
336,-1635572.0,-1637071.6,-1635237.5,137.01048,539.7341,265.2981,2000.94812011719
337,138152.48,142284.08,159678.97,-1361.2258,-3827.92,4701.9346,22524.724609375
338,-20064.86,-30939.78,-17406.488,-5113.8696,9011.893,-9535.764,27370.248046875
339,-320878.3,-322799.5,-336585.9,12217.678,35.42593,2764.2644,26286.58203125
340,-133933.0,-117419.98,-138292.22,868.2069,2168.1965,9472.467,25479.6796875
341,-131330.2,-139525.12,-147001.11,3156.4175,-1858.4906,-5398.2207,17663.109375
342,80780.016,90468.586,84575.79,-4846.1104,7620.8335,-15296.397,31908.08203125
343,36424.746,43212.84,59232.73,-380.8571,-6212.4663,-5591.738,24929.533203125
344,-47787.355,-40935.56,-76828.28,9072.4,-2078.1938,-3018.3257,37101.45703125
345,-44509.547,-52125.51,-63216.594,-505.78766,7010.266,-4929.2446,22058.458984375
346,-428319.38,-434855.9,-462116.7,1112.8337,679.4301,-8217.784,34231.03125
347,-103481.71,-106231.74,-132203.75,3188.7444,-3242.5994,4689.792,29691.10546875
348,39742.223,36861.098,62533.543,-847.0152,-15060.705,-7087.1743,37771.95703125
349,3961.848,-17820.875,2291.9238,1208.3296,3815.489,9633.687,27701.587890625
350,-24864040.0,-24864896.0,-24847728.0,-626.56354,2876.9802,-3280.3843,18413.818359375
351,19462.652,17160.734,39575.242,-2646.1606,-12291.583,-1078.7174,30559.107421875
352,26633.982,34278.168,9687.294,-10167.379,9493.194,-7202.3926,34803.4453125
353,-11681.493,-11601.643,2724.5671,-3527.111,-3643.3628,-5911.6187,19707.26171875
354,28656.738,57495.438,30504.027,-2871.6511,1914.3021,2793.6335,28999.234375
355,28064.46,48526.76,46031.008,3918.2422,-5436.4136,4779.2456,24023.1328125
356,-50635.273,-65561.69,-79162.88,-333.4482,-202.73422,-2223.7234,25021.97265625
357,-3373.0896,9429.141,-12569.633,10703.714,-7953.685,2582.3135,30326.6640625
358,46628.004,62618.4,49466.953,-3533.3857,1464.9888,-11977.218,26317.498046875
359,-2750.9119,6469.835,32016.625,5001.222,-6748.1523,-9638.164,38256.4140625
360,14873.705,11222.119,25873.559,-1045.2396,2004.2365,2153.0325,14273.5029296875
361,-13510.251,-2664.338,-18568.871,1589.2097,-1541.671,2404.118,15170.20703125
362,20577.21,6420.567,-21669.08,8018.133,-2047.5542,-1568.2307,39999.01171875
363,-14733.904,-11953.194,-35632.484,713.67633,7442.2812,2111.6157,26146.95703125
364,5992.6157,4626.9834,435.79742,173.74821,19159.648,-2306.134,33800.53515625
365,-1155302.5,-1156039.5,-1195023.1,-11.6465025,-365.6653,158.88751,39363.36328125
366,-15186.99,-10615.876,-18437.93,882.63666,1571.9825,-3.006662,7488.3017578125
367,823313.6,823057.2,863022.7,-259.61368,-1314.3191,-1796.803,40026.59375
368,500806.72,500264.12,539821.94,0.32226506,-301.54074,-196.48273,39294.26953125
369,-8522.414,-10912.357,-33988.523,-1195.4927,3644.4463,-723.9769,25279.9921875
370,36833.953,27323.832,61441.055,4278.435,-2384.305,-1746.935,31797.6953125
371,22833.455,27878.895,49281.734,-6739.1025,-7632.832,-8263.373,33277.64453125
372,-1433.0332,-2180.5562,-26085.443,3940.2327,6723.919,-1332.7921,27882.08203125
373,-703.75244,2779.3047,-12487.301,3786.729,-432.51974,-2038.9614,15750.4833984375
374,9625.13,3507.5146,5413.3086,3338.8772,4390.2515,-1925.6217,11479.966796875
375,17945.662,21095.865,21482.723,1345.42,-8484.566,-3965.0833,16728.7734375
376,-16013.913,-22266.596,-42834.074,7079.988,1581.2119,1683.0751,27515.390625
377,-6315.548,14758.083,6000.088,-9748.269,-6038.22,-7277.292,29825.845703125
378,10445.873,9836.049,23228.703,747.63666,1519.5892,1495.0902,13670.337890625
379,-9375.213,-9761.591,-31482.822,487.84244,1318.5253,-523.2013,22070.443359375
380,58922.953,50172.934,36178.14,7752.0874,2690.243,5577.388,26271.47265625
381,422352.34,427171.66,437904.2,99.82884,1141.2786,9618.0625,21716.244140625
382,-98993.96,-106237.57,-112349.57,14956.08,4876.3047,10585.361,34822.9375
383,77127.484,90486.56,74516.59,1380.6528,2266.3794,16934.342,33190.4296875
384,85899.18,86238.96,102831.4,7400.8096,5617.198,-17444.855,38118.3125
385,70209.01,61675.46,64153.68,6223.0723,5286.014,-711.71075,16104.046875
386,9271.044,7659.8096,13750.935,3594.9055,-2955.6045,-1324.5997,10006.20703125
387,-20794.893,-34143.863,3852.8438,2513.8872,-9176.868,-4589.44,38072.56640625
388,-367543.2,-367921.44,-406462.6,463.7406,635.0259,50.807217,38755.70703125
389,1929121.1,1933338.0,1954921.5,18.221369,5683.733,4704.4414,27165.330078125
390,-8525718.0,-8524436.0,-8522067.0,567.6231,-501.42255,5823.6694,10665.78515625
391,2186636.0,2187447.0,2224717.5,-251.1435,-1626.1752,-2286.4924,37997.1171875
392,-443.02856,2459.3542,484.01392,-4789.813,863.09656,-708.5387,8897.2138671875
393,-1437059.1,-1435501.1,-1475191.0,-24.59438,182.50119,-381.96732,38941.1875
394,262789.3,262632.12,300600.34,-282.09012,-977.03217,340.08475,37935.36328125
395,-91319.836,-93794.39,-129374.734,2116.213,2734.5457,239.75163,37365.3671875
396,257510.2,257715.14,295580.8,-21.819502,442.92545,97.87976,37976.703125
397,-19760.238,-18942.156,-47766.223,450.95828,-2761.473,4162.5073,29721.748046875
398,43302.652,44933.688,71728.6,3231.9724,5806.179,2257.2441,30200.806640625
399,100418.21,103344.31,78585.22,5891.614,-2687.7944,10756.585,31969.447265625
400,-245732.0,-223797.08,-215332.4,7240.4707,1756.2161,-9731.436,34483.21484375
401,121188.32,120837.93,138559.33,-1718.5215,786.0016,8655.033,23311.015625
402,49959.457,52222.656,89060.98,-3747.4863,2806.3982,4899.6772,39791.1484375
403,19246.52,17758.945,43322.816,7556.963,-4708.2646,2022.2979,29458.302734375
404,-18159.346,-3638.123,-17616.645,-1858.0391,-13897.837,-6492.6924,30324.107421875
405,-1137.9069,-3015.0684,-1860.234,3361.0784,-160.52603,4948.7305,10494.15234375
406,56910.28,65306.71,98498.25,5391.647,4841.7354,-318.2304,40108.71875
407,-2618.6653,-1218.6514,-12911.806,84.09686,7972.176,445.88776,17708.859375
408,2123672.0,2122872.8,2160615.8,129.9399,-1585.7959,-2972.859,37803.640625
409,-60487.97,-61040.367,-98542.64,1282.9556,-1233.3206,-1416.1785,37986.30859375
410,-14073433.0,-14073506.0,-14049310.0,-38.994717,-1376.6616,-536.24097,24294.818359375
411,-21751.115,-23284.99,-52749.02,842.46063,-2606.091,-1435.6252,30730.494140625
412,-151212.9,-150437.67,-183027.88,-1218.0128,-4378.1084,4610.481,34105.44140625
413,-58629.91,-71466.88,-41438.312,-11527.921,-11787.511,468.57935,38693.6796875
414,-6150.5674,-7482.9287,-37884.47,4833.979,-6019.649,3574.684,34404.65625
415,32994.17,40306.91,43964.145,-7279.015,10834.276,9359.702,29453.43359375
416,2641.5425,-190.5437,6380.924,-1765.2001,325.07828,-1195.8552,6822.6806640625
417,-37429.3,-40623.46,-68265.95,6934.392,-1827.4885,-1002.9941,31935.857421875
418,-84287.54,-86683.27,-93333.37,7006.1455,4307.1025,6074.3794,19480.787109375
419,-67944.52,-40913.863,-46196.973,5160.403,-12367.678,-12029.683,39858.11328125
420,-92408.734,-93009.77,-90803.766,-2298.4995,13562.874,17936.783,39201.91796875
421,-11047712.0,-11047148.0,-11036420.0,-514.0772,-816.15826,5008.3174,14124.431640625
422,-5274.86,-5584.072,-23000.002,5276.326,-5616.9185,2874.5093,22621.935546875
423,-69252.93,-68969.586,-76753.05,-149.22363,16926.611,-480.45074,30310.841796875
424,-378592.44,-377097.88,-415229.0,513.5802,180.08272,1068.0568,37463.8203125
425,-4528.083,11055.477,237.5299,-5414.6914,-8676.86,17778.701,38122.9609375
426,-37610.457,-18916.307,-61991.21,-1217.5126,-1177.8374,32.156593,37527.08203125
427,-43109.137,-43908.816,-65185.766,945.9636,-4511.9067,1384.4188,23235.083984375
428,6351.895,3301.601,11365.911,187.3784,2245.9014,106.89222,8062.92138671875
429,-1226615.5,-1226232.6,-1266097.2,101.45999,-130.3935,178.16464,39676.8046875
430,-7118.2666,-6639.961,-43972.34,-1318.4423,-1008.8888,845.56946,37235.6328125
431,208834.89,209207.42,246774.56,50.18438,994.331,-10.62206,37794.1484375
432,19027.693,8612.954,30070.227,2720.872,-9549.888,-6857.5947,27969.62109375
433,-17333.133,-14874.638,-37844.17,-5583.294,-9426.933,-2362.8105,29224.005859375
434,-67812.055,-70448.625,-105273.24,3905.5024,1279.3865,-1115.8292,36958.45703125
435,907.64746,-1726.6147,-6113.4653,4082.5637,1134.8085,6429.0845,14683.482421875
436,-65663.445,-70942.57,-76244.61,-5706.6787,10083.511,16420.951,35995.0546875
437,12790.92,-3925.766,-12790.382,11445.861,-6588.811,3619.4636,32692.171875
438,-454615.4,-451923.6,-492708.38,1825.2969,492.46725,255.07004,39645.64453125
439,-38198.113,-55043.895,-31314.453,9093.395,2521.2158,-7314.2773,29576.35546875
440,-1519.5574,6117.835,-10579.471,1480.5226,5049.203,-3993.0225,18452.58203125
441,149631.33,135752.77,119012.445,4806.0283,-13921.511,-2906.5845,37165.1484375
442,-2003.5234,-3325.4497,-17300.062,5906.701,-1440.2979,-1080.7295,18163.296875
443,122481.99,120366.25,102812.125,8981.429,-3526.132,-5231.8433,26667.943359375
444,-21400.232,-11196.247,-39122.54,5608.961,-2682.3809,-3714.0593,27502.529296875
445,-320156.88,-320550.4,-358309.66,-4.339197,-663.49023,-635.86993,37990.90625
446,1830275.9,1826815.1,1844422.2,247.10678,4965.1763,4971.4956,20232.232421875
447,37540.81,32772.184,64234.906,-1176.6189,-626.42004,-1971.477,29658.041015625
448,68976.195,76847.88,108126.125,-558.88214,-7467.885,5687.4565,39392.77734375
449,2281.74,-2828.281,1589.9954,1081.1815,4785.9907,-2917.3096,10991.4541015625
450,29895.672,23891.352,44134.36,4613.728,1181.9683,-4371.8774,21205.572265625
451,-757.6992,-8791.625,-26264.639,5580.3774,-2410.4585,-2359.221,25254.2578125
452,-15776.32,-8016.6377,-6256.0264,4408.7456,1239.9214,-6630.037,16485.439453125
453,-13791.167,-8688.408,-18376.488,6657.6274,2155.314,-6241.34,18282.01953125
454,125558.93,125722.8,164410.44,-704.30304,4046.1382,3555.4585,39895.18359375
455,379414.25,379296.78,418404.78,-19.685963,15.840972,36.25924,39049.47265625
456,-39739.062,-35881.836,-74613.8,-1019.5941,2579.3477,3834.8816,37852.8984375
457,47482.598,48494.09,78392.055,-8705.329,709.11926,-8345.966,36918.4921875
458,28451.41,37623.246,66965.62,527.58057,-1536.8479,-6850.197,36917.70703125
459,21122.508,4595.294,-2466.8535,-15105.415,-4352.429,2118.6736,34562.3828125
460,3563.604,5538.9976,14260.058,-881.47974,-1548.1287,1861.4315,10821.390625
461,-3149.306,-3429.1948,-9035.78,5084.9277,-683.5374,3617.4592,12300.8349609375
462,22840.871,23009.033,25512.678,11995.106,2170.8025,3029.8684,21909.876953125
463,293111.16,293152.66,331403.62,-52.261158,102.52418,-15.086802,38272.265625
464,334132.3,334018.3,373425.06,-162.43297,148.07149,-94.04236,39352.0546875
465,-54124.9,-93430.03,-77590.71,-3625.6755,1018.2288,996.90497,34910.4453125
466,51114.96,49507.492,86678.734,1424.1799,-3287.8118,1004.4277,36960.44140625
467,-750.83936,-3321.8237,-11775.82,-1052.1279,5479.1475,-4768.4424,16168.28125
468,-23131.36,-15293.541,-33187.6,-3122.3093,7518.737,14245.813,32389.01953125
469,-2790.877,981.9575,-15953.105,-3046.0156,3808.777,5884.863,20307.3203125
470,-12861.538,-15412.633,-38646.777,-1546.288,-1198.1053,-724.8734,24872.912109375
471,417319.28,417393.0,456286.38,257.3121,-3101.3303,1563.0023,39394.7890625
472,-24740.145,-4386.1816,-22756.07,48.5683,-3164.2124,-782.29456,20241.451171875
473,25268.568,20462.703,47643.5,-550.0111,-5921.751,-6078.304,29124.0625
474,7784.0366,5057.162,9343.62,-460.2589,3754.0212,12202.231,22443.658203125
475,8998.944,-1039.514,-3317.3237,1745.7086,-4146.384,5958.1045,17205.865234375
476,36606.867,61197.92,59107.81,-6056.744,-11983.864,3738.8005,33771.5546875
477,1939362.8,1937008.8,1973778.0,229.49081,-6596.8906,3127.8367,37828.9453125
478,75397.57,64686.22,57348.227,-4191.33,-13926.475,-12343.782,36589.9921875
479,1910939.5,1912782.6,1947543.4,-863.25684,-6571.7764,3591.8726,38029.9921875
480,-5814.5244,326.2749,-8543.07,-325.54352,9160.249,-3352.5164,18646.080078125
481,-10258.671,-8475.674,-28847.686,-4017.164,-674.9142,48.895126,20776.458984375
482,986.17065,-9394.489,388.6731,-662.36096,-1635.7526,-719.82605,10621.22265625
483,-20370.88,-48267.14,-37240.02,-5340.9585,1924.4917,3454.9663,26919.921875
484,2211.8506,10450.853,22813.033,954.70575,-6629.335,-252.5873,21385.19921875
485,8474.251,7242.6426,-4092.0378,184.49986,1130.8513,3598.4504,13665.169921875
486,6699.24,2018.6892,6199.517,52.424442,-2237.08,-5168.4985,10722.884765625
487,1921.0117,15676.09,8000.9897,1628.4034,705.2634,-2254.9233,12932.09375
488,32173.09,1558.5752,16658.514,6186.9277,2571.072,2278.5215,29209.92578125
489,-329164.16,-328805.53,-367156.94,-329.019,456.5161,-409.66437,38192.390625
490,-1268644.1,-1268390.6,-1308073.5,-113.92365,20.885746,-79.43444,39557.48046875
491,-19011.217,-13188.851,-15540.088,-3876.7737,-2739.3535,774.9416,9753.994140625
492,-13803.768,-13242.238,59.698242,-4293.2554,4155.429,-108.57481,17083.92578125
493,-22319.154,-30212.213,-58467.156,3002.996,8255.449,1959.7312,36423.796875
494,4349.1,-8058.6973,-2221.7056,-1464.1449,-1702.9625,156.33539,11436.9765625
495,5813.846,-1076.2739,-3441.2485,-3223.5957,3419.4775,-5521.0273,15068.517578125
496,22465.768,2680.4033,8508.786,-2098.4468,8669.861,4129.353,24494.4609375
497,24134.008,28761.947,48309.598,-9678.437,-10572.777,440.12466,33330.80078125
498,-32763.309,-23741.527,-61101.33,-3439.2449,-3674.2708,-3638.7686,35437.3125
499,1898.2567,-7909.616,17069.62,-3730.0505,1353.5486,-4185.666,23978.30078125
500,-1333738.6,-1333853.1,-1373303.1,355.69855,335.07773,163.66525,39517.45703125
501,12780.811,3649.9443,2486.0662,-964.8152,1521.5516,-2599.1619,11196.4033203125
502,3758.3813,466.9292,12927.172,-1387.3842,-2936.2087,-2581.16,13293.0302734375
503,2040.9756,8339.389,4933.1934,131.00769,2286.7117,2769.5051,8280.5595703125
504,22875.309,19883.309,25521.748,217.40639,4960.5967,398.704,9915.3974609375
505,-23189.951,-11913.005,-25575.031,1253.5209,1116.0437,-1810.497,13343.1201171875
506,118057.945,121283.52,156428.4,1535.722,447.00623,-462.79016,36976.3046875
507,19042.486,39831.01,42750.914,-9128.059,-1537.3743,-3084.298,28053.212890625
508,27753.957,10751.704,46371.527,-6829.357,2423.8267,-10976.029,38356.171875
509,5694.352,5982.763,-4901.853,7059.8066,-4412.512,288.00684,17988.9140625
510,1289.5889,-1023.68726,-11038.189,2625.3904,-701.5477,-930.5607,12391.939453125
511,-32628.549,-30375.229,-57956.54,4898.1934,1912.5409,-2850.6572,28477.80859375
512,-16962.506,-8745.5,-36916.215,2157.0654,913.43304,3391.42,26088.244140625
513,6714.87,4825.698,12418.904,-1763.7527,-2340.9688,-55.03152,8524.25
514,-6056.26,5422.344,643.3829,-5292.3154,-1547.5797,-1281.6985,13995.716796875
515,11893.355,12082.315,24764.527,2468.2517,-737.0144,-39.49938,13534.462890625
516,18218.926,7283.662,-8905.15,-3638.702,4374.3833,5324.2134,27218.642578125
517,-2429.6367,15589.002,16697.648,-7856.6255,-1636.9722,1735.9069,23412.296875
518,-1166247.8,-1166555.8,-1206186.2,171.22379,-55.503498,258.19464,39789.12890625
519,26348.586,30011.434,51752.61,-5428.005,-1463.0463,1097.0096,25771.1328125
520,-16075.9375,-7630.576,-7535.6143,7550.13,3162.744,-11157.491,25428.845703125
521,-42634.33,-32387.715,-33407.043,3924.3464,1349.6445,3968.9023,13946.6884765625
522,290875.12,290835.97,328841.9,-21.558794,-107.189026,56.655174,37986.97265625
523,2341.5713,6592.0273,-4627.841,-5626.6855,-741.03314,-429.28952,13908.3173828125
524,229.17188,-400.28394,4391.36,-1641.6583,1405.328,3769.9626,8774.2666015625
525,31393.791,18174.176,20928.13,2183.909,-2508.7092,-4401.361,15402.6435546875
526,-16804.91,-21852.414,-20751.18,1443.3406,-9882.431,-5396.357,20192.337890625
527,-6614.191,-10115.228,7188.0,-3331.1511,-833.55865,2994.6821,17701.92578125
528,-5124.8066,-11420.154,-21412.967,4494.746,12162.925,-1104.2703,26654.69140625
529,13551.675,12121.164,19319.506,1780.7897,-1514.9467,1508.4725,8172.54345703125
530,9662.7295,-1799.5632,-15748.265,1647.8625,2805.5732,-5762.966,24844.111328125
531,7442.5317,4486.102,4828.235,1566.8407,-2079.845,873.636,5520.68798828125
532,1899.2822,3807.0803,426.98755,-5142.6157,-664.119,19.914797,9448.810546875
533,3546.2412,-8860.341,-1783.6135,5595.924,-3581.7368,1300.8948,15928.337890625
534,11873.159,2773.9497,10937.846,1053.9056,1824.9905,286.06668,9419.6201171875
535,9896.994,11510.959,5592.128,4395.5137,2247.1277,-938.77356,10190.1376953125
536,6898.291,5456.8887,7244.6343,494.2019,591.18384,2830.6304,5339.98291015625
537,-20841.75,-5015.694,1655.3867,830.1509,1692.8777,3118.158,20985.18359375
538,-34172.54,-8625.212,-13109.779,-7217.6333,-1180.6858,737.986,26838.5390625
539,-5618.708,10190.985,3445.055,-1262.7235,3219.799,-1419.0767,15189.7646484375
540,-20001.617,-22650.715,-43934.32,-937.48145,2986.0054,-3079.99,23963.2265625
541,-12181.836,3839.6567,10201.797,-6772.275,2639.439,-1532.8949,23762.078125
542,-30106.627,-28019.25,-27179.57,-11035.846,-1657.5479,-2074.6577,19832.791015625
543,15231.504,16643.824,29940.621,2149.1013,2559.7827,-2349.0054,15736.7607421875
544,-1629.2795,-10557.394,14610.204,607.25616,2295.1875,743.14343,22516.3671875
545,75090.91,76725.79,112613.92,-1659.3939,-1039.29,233.27843,36891.30078125
546,1280.5835,-14417.1045,2061.6045,-2492.4084,-496.37234,-330.31677,16703.005859375
547,-5045.2,-22509.104,-16834.756,-2657.4214,-2653.018,-3239.4785,17659.947265625
548,-965.2124,-11820.888,10591.25,-1980.3855,-5002.1836,-1444.8873,21678.216796875
549,-9188.058,-6125.494,-19999.844,2889.9924,-9305.933,4560.2427,22508.455078125
550,24133.146,23348.252,33884.75,2777.198,-1380.3455,3880.2344,13318.671875
551,1043.9794,1932.7784,-6706.0474,2987.5532,2834.79,2241.591,11562.86328125
552,-33265.004,-23489.691,-37887.25,-3689.2917,-17.872076,7538.7407,19324.5234375
553,11209.032,8124.034,18525.889,-1758.2197,2512.9275,-3602.056,12359.97265625
554,-18497.578,-7692.2144,2132.3208,-247.8638,-514.38336,3082.8062,18679.513671875
555,27024.648,26574.477,45792.914,-119.46295,-2920.7883,-5963.1816,22208.41796875
556,12808.465,13466.272,20817.357,1313.8679,222.56755,2289.4722,8964.3271484375
557,-5053.601,-1640.9048,-9224.858,8747.728,1961.9412,1915.924,17187.474609375
558,20999.938,28093.912,28729.906,3049.4646,1479.3804,355.15033,9491.1796875
559,5520.8765,4619.7026,-9927.483,4591.4907,-1477.5913,-2028.5287,17540.875
560,-17894.783,-19030.047,-24252.902,-5637.2896,-1257.4338,1566.4133,11913.7666015625
561,-27650.893,-16301.488,-17177.275,-1285.3179,-285.47632,-770.13434,11252.388671875
562,3865.7947,7298.716,11984.137,-1226.9111,4756.3643,-1988.2081,11578.71484375
563,13468.139,-4203.0225,6778.44,6544.6333,1356.0383,-1830.4243,19567.111328125
564,-4440.1343,-7423.637,-10565.9,1449.8112,2511.0415,-1152.8894,7573.5966796875
565,-8732.311,-645.5835,-9541.035,-3942.057,183.3115,-584.93506,10969.7685546875
566,677.5027,-2662.8406,-7031.044,152.28238,1236.0276,2060.9048,7888.29736328125
567,-1596.435,-7989.039,-15145.852,1754.3848,-3568.0493,2690.2673,14386.630859375
568,20649.773,20111.582,19207.35,-827.11615,-3398.931,1078.595,6464.8740234375
569,-3243.078,-5866.923,8323.129,797.34265,-2758.6953,6513.363,17972.751953125
570,1668.3138,8659.662,-5700.5186,1724.7504,2375.2249,3221.8186,14549.4482421875
571,-12579.506,8575.836,2305.1216,-2653.872,350.9077,-132.33304,19384.58984375
572,-16848.633,-17222.21,-41067.12,342.55972,-3664.378,2752.0518,25317.654296875
573,6604.97,10789.072,10780.285,457.16934,1103.1632,-518.544,4749.16845703125
574,1819.3481,7319.8906,-2092.9578,1127.8665,490.81735,6586.2344,14204.0947265625
575,55357.113,38687.49,44096.55,5414.3765,5836.011,-10426.561,27078.224609375
576,11126.756,10241.763,8066.067,1608.1698,7605.461,-306.796,13748.1796875
577,13522.443,7855.3906,40231.004,-4599.0703,-1792.7983,11079.751,36581.42578125
578,-224896.95,-224212.33,-263296.5,1987.6387,2479.9617,61.41386,39135.625
579,160251.27,160200.73,198996.14,-71.46491,-155.21565,-361.28632,38776.34375
