Element Label,S11,S22,S33,S12,S13,S23,Mises
1,376.44043,5316.474,3222.97,1189.3336,-824.86505,1338.3514,5486.62158203125
2,-1176.534,701.10785,-4714.7754,2460.0767,1311.6283,-1349.5671,7174.208984375
3,3858.1753,4986.6646,4163.6816,805.13715,-1169.8718,177.53726,2677.15478515625
4,-1561.9889,1793.2034,-4734.722,1189.3271,622.5456,9.573588,6113.52099609375
5,6044.398,4754.829,3978.3591,4010.5825,-258.06226,61.901352,7192.5517578125
6,1069.5707,4714.2295,-3156.7246,-2268.4573,-468.87585,-1023.19446,8110.88916015625
7,7529.5254,4541.1973,4528.8027,2704.2864,268.15073,573.34045,5666.45068359375
8,-8650.349,1763.9554,-4148.357,2127.0598,-236.59662,852.165,9887.375
9,10329.857,5364.5684,3382.243,1821.8373,777.6233,-1201.5575,7384.38330078125
10,-1877.6078,780.96027,-1523.7039,2853.343,-903.1779,1295.8512,6177.53466796875
11,2044.7706,1348.4966,-1033.5897,1344.5146,792.0053,-368.44174,3940.8046875
12,7192.5337,2293.0623,153.5513,-814.7458,-884.21216,418.45633,6627.748046875
13,-4689.442,1045.7395,1299.419,2620.9868,869.8635,-1217.0226,7857.0791015625
14,7723.127,2106.5718,-3314.9277,1932.335,-1866.6775,1355.4905,10888.33203125
15,-2427.038,5333.845,2643.84,936.27966,1347.1742,-1077.737,7625.5927734375
16,6263.6147,1490.7156,7474.8257,-4453.9575,1926.2234,2857.8481,11188.150390625
17,4423.8267,2827.9138,-8936.023,1239.6963,1054.6206,-221.70882,12953.998046875
18,1935.0061,2665.694,-1191.8059,-1241.4991,-508.12457,1883.0493,5350.86328125
19,-15942.628,-15030.296,-5462.9277,7054.7314,-3825.0178,1940.3502,17481.142578125
20,-6125.4097,13170.118,-3305.563,-11059.515,-2270.102,9171.184,30993.37109375
21,2837.4312,-11.227445,3475.175,1134.6598,827.1435,1063.4209,4432.35107421875
22,-16556.621,6150.6836,11723.4375,-3028.997,8108.113,-595.61993,29983.875
23,5754.329,3442.3037,2938.4622,4962.4717,1360.4492,235.34412,9293.0732421875
24,-469.2159,1532.5304,-7780.8193,2967.4958,-555.7025,-862.33813,10083.546875
25,4062.8008,4100.9585,12510.597,837.04443,-1128.5792,-773.1301,8874.7138671875
26,681.7181,-457.39505,-14298.228,7542.2373,1315.703,-2153.6172,19959.857421875
27,4449.974,8217.042,17242.979,4793.417,1518.2074,-2446.126,14948.4326171875
28,4998.831,-1613.632,-4919.5435,2124.0264,-667.4441,1328.734,9832.6728515625
29,-3634.8567,2384.1394,-3304.5913,-1533.9674,-216.83432,-49.082825,6446.4697265625
30,828.6133,122.490456,-12503.757,1646.3043,-704.9298,947.0971,13459.1640625
31,4196.5225,5665.1924,6236.702,1389.2908,4542.147,195.76709,8433.3642578125
32,-1504.1401,-500.4829,168.1067,1276.286,-1330.8347,114.983246,3516.4072265625
33,-499.97864,662.3945,-3456.4617,790.1128,440.94446,350.0972,4043.79443359375
34,4978.2593,702.117,826.1628,2989.3853,543.5427,-2762.3103,8267.8291015625
35,620.2158,7415.2246,1034.8495,-1207.4529,-536.3387,-34.30757,6983.3349609375
36,-1074.9673,-3555.2458,-1008.09644,4535.077,-1392.1697,804.6893,8705.1630859375
37,-1198.9663,8139.8306,5175.4443,1019.1154,109.02202,-944.7687,8610.8134765625
38,1478.0198,-4628.226,-4189.6904,-193.78731,-3226.939,1193.9974,8392.240234375
39,4877.215,-1145.1896,-1662.6879,6902.6357,664.5267,1247.6608,13732.7216796875
40,-7979.627,-3891.232,-10150.549,5148.3325,-2156.426,-766.5962,11204.1494140625
41,6842.9243,-3860.905,2779.587,2942.2957,-179.61166,-600.44037,10711.6328125
42,-691.2253,7367.0986,25533.637,-3519.9998,-4355.323,4640.2026,26457.9609375
43,-5824.708,-10588.825,13374.974,-677.7276,7758.2666,-3103.867,26337.1640625
44,-40032.684,-15300.356,-8207.088,10820.636,4414.019,-1898.1765,35467.6484375
45,490.30908,-7060.8604,-33534.08,-9190.54,-2129.8992,-6622.2573,36828.32421875
46,-4741.896,-1843.1487,-26644.562,-5194.613,1639.3567,-6534.652,27726.1484375
47,-9353.927,3137.1533,-7395.667,879.00836,1501.7256,-878.5169,12116.103515625
48,-11077.433,-4590.824,-31253.754,657.80334,821.00195,-17103.723,38222.61328125
49,-11911.892,193.26369,-18337.387,-2176.9836,1811.3834,-4294.456,18573.947265625
50,5379.9395,7788.9644,4385.0977,-713.0763,-6935.047,1627.5405,12765.046875
51,-4076.21,2920.4534,2568.039,3701.5234,2258.6128,-198.38983,10155.671875
52,-10025.543,5791.9644,-19585.123,-1055.1757,811.2774,-2422.7935,22709.30078125
53,-3091.0881,10936.142,2425.2446,5240.3853,-1924.1971,788.8955,15658.02734375
54,-1510.692,-3106.2554,-4061.9639,1216.3799,3049.4028,5112.616,10758.0634765625
55,1278.9698,11945.1875,25470.55,-437.75842,239.82997,-4261.4,22275.416015625
56,-3779.1865,7315.6816,2274.979,2854.5266,-1994.7296,-1207.6785,11547.1259765625
57,5210.667,-493.92654,-4838.8125,2362.6843,1839.4683,-291.72116,10166.5771484375
58,3963.7544,2798.9287,128.39267,1369.4647,-2100.4043,1805.5641,6343.5693359375
59,4446.7256,5442.6294,14085.814,2636.1511,278.59186,-19.114182,10265.771484375
60,2744.0723,2896.3965,5665.946,2094.0056,-1312.024,839.71936,5343.1884765625
61,-133.97487,-52.53544,-790.79376,1516.1627,-495.1916,-698.0126,3095.97998046875
62,3578.4365,298.9515,1667.8789,617.34753,652.28815,16.436739,3249.64794921875
63,6686.974,1458.323,-2314.6016,-602.03015,1076.9579,-351.832,8138.75
64,4630.0166,-918.914,-2400.25,425.15936,98.307884,1305.1847,6847.38037109375
65,4618.9126,3102.377,-2832.4946,68.37325,-1358.6896,173.31038,7222.55322265625
66,876.8049,615.1629,-5295.5415,-433.5533,293.65277,334.62534,6140.83837890625
67,295.46475,3743.877,7886.68,-890.4954,-1232.2167,188.91028,7097.9951171875
68,1257.0121,1912.2006,7011.0566,2064.9868,1580.2473,-2817.324,8594.435546875
69,9471.154,-8789.1045,-2170.6719,-2402.144,-7926.0205,-1160.637,21591.755859375
70,-1209.3073,-2827.4912,-4148.4995,1293.9858,-767.7525,4124.434,8020.3251953125
71,7054.8335,-12756.359,4208.9497,27.348232,3666.9497,-10295.019,26504.83203125
72,-2495.3247,-5551.8335,-4634.352,1689.9971,9199.968,-4888.1675,18481.0390625
73,10072.086,2562.3616,15609.888,-5255.7295,-6973.286,5391.997,21086.005859375
74,1414.995,-8971.709,5774.202,4459.858,-2365.5952,763.6707,15823.171875
75,-9385.355,-1339.9312,9926.821,-2916.9717,-1847.1802,400.03513,17848.16015625
76,-6870.8438,-5948.858,-26249.648,2636.0942,-6898.1753,-2026.9214,23878.48046875
77,-13381.463,-15616.876,-15185.873,1339.4929,7188.983,10975.186,22934.919921875
78,17798.12,-98.54298,7974.9946,2876.0457,5249.0684,3444.6282,19597.259765625
79,1962.5935,10598.382,-6715.1333,-11102.709,3800.9294,1084.012,25327.765625
80,14019.623,3212.1968,-11202.09,-1316.0424,-7940.5107,1520.8031,26108.29296875
81,13059.889,23984.244,12707.567,-13228.121,-59.162155,-7023.2427,28217.9453125
82,-1406.1654,-153.47093,-10926.557,3229.1082,211.20692,-1368.6212,11881.408203125
83,6096.6562,2017.2173,10646.486,645.8302,-1605.1747,1339.2762,8382.4560546875
84,7218.994,1237.0354,7925.606,-778.1307,-627.31506,1206.2095,6918.953125
85,-389.54697,383.3012,-84.22399,-632.3758,-1012.2569,870.0741,2645.62353515625
86,1453.2799,-236.17267,-3570.3125,219.70573,-604.86975,-1297.5564,5088.9072265625
87,-2519.2903,2990.42,-15414.0,-286.52496,925.848,727.348,16494.89453125
88,-203.35825,-3600.9688,-3309.0085,2404.351,203.4979,591.812,5399.50927734375
89,2002.9662,2652.1836,-1239.5757,575.9987,-221.26093,-351.08936,3814.794921875
90,4739.5645,3133.99,2098.8467,1142.2284,862.11676,-413.39435,3459.46069335938
91,4245.5757,4125.979,5363.3765,633.6445,-2054.3816,1946.9043,5160.8857421875
92,3336.7966,7830.58,11319.626,1285.1396,2531.9011,1771.6119,9035.966796875
93,-1706.25,-4381.7227,-2699.7883,2421.6277,556.8817,2321.7175,6338.8798828125
94,2054.0264,-537.39044,-5878.085,-3594.7244,1289.4188,-700.1896,9710.9814453125
95,-3889.2732,3515.4888,-320.20175,5185.8716,-1246.626,1833.1704,11686.068359375
96,9744.645,2013.4432,12660.318,900.901,-866.199,718.2435,9851.27734375
97,1580.2372,1159.7081,7540.089,842.37494,-599.2971,-447.25018,6481.46044921875
98,11159.128,3828.0015,3344.0574,2543.226,-7764.1826,2649.987,16698.693359375
99,-2967.0227,6367.0117,-22696.898,952.43756,7657.5264,323.95068,28974.142578125
100,-2110.3025,5504.178,5161.9414,4193.6426,-1818.2402,-219.45668,10877.21875
101,2265.8958,2935.6257,7823.849,-254.4152,929.3792,9.890117,5513.87060546875
102,2575.8215,7962.539,7896.0283,-696.6566,-1935.8348,-1377.7451,6859.7216796875
103,-1876.1678,-1624.7275,782.36316,2841.6396,-3224.9836,1382.6796,8223.3974609375
104,176.09938,4426.492,3626.8535,2633.2517,557.7178,-1075.914,6365.095703125
105,-143.08853,-490.73697,-2626.928,-3624.2395,3316.5498,1029.0469,9000.4150390625
106,6325.6436,-1765.399,-2577.8564,2778.7373,-1106.5636,-3051.4622,11290.28515625
107,-1733.6284,1970.9452,-3404.0515,-10940.038,484.70316,-1289.3615,19683.6953125
108,2429.8154,5105.1523,-6614.1177,1205.7839,637.2345,3490.5178,12461.01171875
109,-9521.033,-14956.435,1937.8672,17051.324,-2993.2485,-696.3274,33521.78515625
110,3471.5632,3298.6584,-424.3153,692.956,242.43817,-1280.1437,4589.91748046875
111,3435.4265,4342.507,3251.6016,962.3167,1522.3811,-1355.6056,4033.28930664063
112,3425.7432,1279.2975,-6329.409,770.7796,-451.89948,-232.28705,9021.537109375
113,3798.0608,5384.4985,2651.0244,-1224.7905,-583.4532,864.5425,3662.79516601563
114,3829.3984,2434.273,1246.4812,-103.379456,1643.2845,-609.0814,3776.30737304688
115,-1036.7302,-658.3609,-7283.977,2353.1855,5433.539,713.705,12175.6162109375
116,4672.8433,-7082.237,-3596.5095,2636.2253,979.37646,3159.7097,12768.51953125
117,1473.2638,2496.3962,-9365.027,1541.9927,3214.658,5026.863,15606.015625
118,23801.424,-437.18173,29511.316,-3793.8022,1849.659,-736.74426,28523.38671875
119,-16251.131,-15976.597,-697.4231,-8308.811,-5542.7344,-4353.404,24369.125
120,-2514.253,1584.2695,-7906.329,-6001.4175,-3931.429,-4027.4902,16463.69921875
121,3419.1763,4346.304,-2624.3752,-663.7959,1395.8779,683.1279,7180.1474609375
122,2492.914,1446.7112,-3513.3152,2542.564,1115.9762,31.686222,7349.7421875
123,1666.1344,570.45886,6589.4644,1840.8429,-921.45135,-1319.0884,6983.36328125
124,3017.1772,-162.09537,-3679.446,-393.06384,1411.9457,-1858.3678,7104.013671875
125,-149.84363,3778.455,827.27295,1512.7479,968.61444,653.5997,4848.64111328125
126,366.2263,-9061.301,-3345.6128,5510.8076,3850.9453,11749.883,24848.302734375
127,-7163.471,-8273.006,-12120.93,19330.852,-2057.2393,-2350.733,34214.42578125
128,-15364.12,-11929.848,-10391.979,3155.813,-2665.1042,-6656.7627,14267.5849609375
129,695.6162,7173.6104,-4070.3223,4956.5425,800.1879,1304.297,13276.9990234375
130,7505.3486,11563.985,3899.4946,4568.646,-215.23291,282.90512,10349.2138671875
131,776.3223,-201.87227,-9663.299,-1577.2185,-429.52087,1332.4061,10633.5703125
132,4254.5327,3804.5063,3583.952,-323.59583,-892.2875,11.332347,1747.42150878906
133,-9423.013,1062.3867,-8851.753,1691.6174,538.519,2529.9792,11529.837890625
134,1138.0387,-2075.8237,416.50272,2887.5542,547.2489,-425.57706,5914.92236328125
135,179.73967,207.75023,26.429152,1114.6729,2066.9363,-681.9224,4238.84423828125
136,-1799.1434,7940.157,32794.48,-1395.1483,-1566.8783,3194.6543,31598.689453125
137,-6428.667,13412.738,-5257.429,-17069.875,-660.12354,-5967.4463,36798.0234375
138,-5455.534,9168.638,15473.8545,6734.965,-2849.0579,-972.7006,22563.240234375
139,1770.1609,7982.763,38903.266,-4803.064,-6044.3994,332.9098,36958.296875
140,6116.4824,-4616.1523,4122.5195,-5092.168,-4737.6655,-413.01752,15601.396484375
141,648.38947,-2819.681,-2890.2815,1777.5553,190.80655,-989.24347,4980.10888671875
142,1887.2563,1136.2245,-5695.8145,-268.91867,588.03937,-1062.9086,7550.86279296875
143,5402.8384,4538.6694,10001.429,119.25062,-901.11066,656.6308,5444.2568359375
144,3199.2893,3048.4985,1103.396,614.0288,-1105.9696,-181.65034,2999.8427734375
145,2110.041,1599.3666,2675.2039,927.46356,921.8618,-697.01666,2730.63403320313
146,2694.943,2421.9075,-1068.6619,1634.2277,-1117.8877,1244.2653,5442.18505859375
147,4450.729,-773.99634,-4811.0376,3251.1729,938.8104,-413.98196,9977.80078125
148,2266.5686,2124.557,-1267.8209,2160.7314,912.65594,-715.0874,5481.724609375
149,8026.3438,4386.752,20409.494,-2518.456,-413.97394,9090.244,21888.3125
150,1467.0602,10133.283,28461.955,-8725.972,-1140.9474,6319.7734,30365.0390625
151,-6545.9087,-1451.5613,-24687.795,-1451.3438,1888.8239,2483.9397,21978.0234375
152,1556.3374,2262.8723,10572.545,-5244.778,-451.62192,1746.8206,12950.291015625
153,5553.6396,11500.235,13758.996,1723.9476,-121.921455,1901.4618,8585.056640625
154,3249.943,1017.3234,2907.558,2989.97,-799.64136,1145.1118,6083.525390625
155,5045.0796,6291.368,9432.229,1894.7349,104.91123,1281.8707,5573.626953125
156,3968.3042,-3165.351,-14759.995,1122.2305,500.61945,-2116.0808,16911.548828125
157,-1103.4844,3160.152,9364.794,7716.7397,33.172222,-1801.6648,16477.744140625
158,12503.309,-5056.227,-2014.0419,2620.907,3095.8728,328.31592,17716.0078125
159,8892.056,1250.2946,10705.525,1727.8011,-53.71762,-749.9392,9284.1298828125
160,-240.00534,2852.8389,1007.87823,1451.9122,1726.5464,-2296.085,6192.45068359375
161,5904.7173,2491.8276,2130.394,-872.6383,-1170.9226,-611.886,4531.32080078125
162,6436.097,3071.1006,-430.6121,-469.78577,1611.4274,2143.324,7589.60791015625
163,16385.979,10987.293,11183.844,-9649.079,8351.918,-137.9675,22732.318359375
164,-1063.0269,-1991.9001,6624.803,-3472.6003,1401.7998,7959.183,17298.1015625
165,-6977.371,5307.8438,-6389.2637,-2646.014,979.06573,-3019.289,13974.1025390625
166,-396.0949,12281.062,-16790.568,1852.745,-1395.6434,5829.9556,27485.103515625
167,22889.395,2740.7834,-20918.826,-1310.5936,826.0446,-3292.1729,38498.921875
168,21831.47,11268.838,31059.576,8285.03,-6004.1826,37.095,24663.337890625
169,3567.797,7793.94,14330.96,-2866.659,2876.486,13968.49,26889.611328125
170,-2212.6272,3296.2378,21855.607,-5972.7363,3472.376,743.7933,24937.751953125
171,-5120.753,7020.4136,-782.6525,57.86781,-148.53981,-6451.0737,15442.8857421875
172,4701.0703,2561.1545,2099.5469,714.3654,921.969,-622.9484,3320.4443359375
173,-282.95248,6744.2764,-2568.411,-1018.4021,-1642.8917,-1616.6433,9471.80078125
174,3879.1997,488.25833,126.26594,-516.51984,-559.1271,-473.69476,3907.48291015625
175,2637.1616,189.09702,-784.2513,2077.2996,-245.98946,-899.70844,4987.85791015625
176,-12789.153,-3062.647,2927.7393,-1333.0967,-4160.5103,-460.35797,15705.15625
177,-21329.652,-15268.434,-12115.477,6424.677,-810.0107,6207.2734,17526.515625
178,11298.45,1676.8082,2760.6484,-440.8427,574.6527,264.15637,9225.259765625
179,1453.1123,3663.7837,-1698.6292,-792.04535,-1648.3959,-1081.3999,5943.89697265625
180,-3922.9524,1127.8645,-7980.0557,3763.0063,-1584.2062,-2868.145,11711.1513671875
181,2845.6477,327.6256,-5685.3877,2191.8894,567.6971,1055.4435,8738.3935546875
182,4686.7373,1183.0151,7816.846,5077.266,1060.2451,155.2012,10668.7021484375
183,2759.5286,406.1286,-783.97186,-2231.7559,-730.29755,1421.9816,5688.92919921875
184,-319.88004,-9197.681,-4286.066,7147.002,-2231.645,6985.0166,19336.130859375
185,12547.745,9343.157,35.576904,-3951.3535,-10690.763,3367.7427,23462.08203125
186,1889.1349,92.07726,-112.35171,1758.0525,-845.8475,-357.0211,3929.32446289063
187,3141.8196,-287.62442,-1474.2177,1260.9526,676.33923,155.166,4842.828125
188,-11508.746,-14056.062,19276.281,942.47217,-503.0279,-8303.393,35254.62890625
189,2359.9006,682.048,-8982.349,4280.069,2581.7969,719.0247,13745.4052734375
190,5999.4546,255.33688,2443.2239,-4167.527,2330.5635,538.9892,9720.349609375
191,504.23837,-2468.6921,-1286.1089,1948.141,898.94354,732.59357,4705.44580078125
192,-4911.3555,-27.6121,-19228.682,2588.9363,-1580.4675,669.4197,18102.615234375
193,4476.727,-3722.496,-6027.5293,699.56537,1887.3112,1838.9769,10664.869140625
194,1828.4788,-3059.0632,2640.9102,1423.133,359.6204,-1092.8289,6210.12353515625
195,690.69836,-3386.4653,4189.0947,1272.0919,-4721.3022,-989.319,10853.0439453125
196,1526.2797,-1906.7256,-6994.1133,667.05145,2913.2014,-6587.08,14563.517578125
197,1371.4491,-891.2423,983.07837,1195.3683,-860.90027,-297.16016,3341.69384765625
198,644.59576,353.79318,2112.2664,2692.9722,2918.5872,3434.7651,9239.53515625
199,2659.3882,-4016.3445,-9579.949,391.18515,395.56085,-275.6015,10668.486328125
200,5455.118,-1203.3284,-2733.8794,1185.2622,1635.2377,-868.87866,8448.076171875
201,-6124.5586,-260.7085,578.18335,5490.7007,-4054.2402,870.57874,13492.0458984375
202,-1177.0494,-2091.615,2313.2734,3346.9639,1258.3353,-313.31726,7406.89794921875
203,4920.1733,2578.6343,1553.9634,-4943.06,2679.4575,-361.91647,10206.1259765625
204,3320.1067,1768.1002,-1167.8591,1661.901,-3479.2546,1659.306,8273.2392578125
205,11869.476,-6830.926,-2991.733,-1799.0845,-1341.6893,179.52046,17545.859375
206,4041.082,-4176.0757,11966.791,3164.9805,114.00324,-1579.0011,15265.49609375
207,4951.5356,-11776.98,-6689.1206,420.8086,-960.54517,577.10645,14997.185546875
208,2954.358,-5376.302,1082.5146,5934.482,-2542.26,-235.02197,13509.9658203125
209,-6780.6094,-13482.408,-3677.0269,15473.068,-3097.6304,803.41345,28710.900390625
210,-6109.9155,-11688.745,-5823.4873,4247.987,2791.3796,-1868.1022,10990.19140625
211,38568.1,22400.928,38270.51,-8597.753,5545.834,-12684.418,32455.6796875
212,2969.882,-23454.086,-16396.717,5168.961,600.31555,8523.424,29338.212890625
213,-8522.383,4280.9473,177.2084,-8015.985,-5722.295,-323.2482,20482.671875
214,10665.146,3969.6956,-14719.881,-1650.795,-5481.202,13561.44,34195.15625
215,7619.6807,17547.557,-23737.701,855.8399,2263.0576,2003.6279,37719.56640625
216,6575.438,3351.228,2100.0066,7686.2095,384.6414,-486.84494,13942.1533203125
217,15221.985,10881.896,21974.484,-1451.5251,1735.8672,-1552.6647,10785.7236328125
218,-18.201796,-13708.697,-38466.7,2809.816,-1209.0238,5501.072,35471.0234375
219,7247.476,10311.857,12291.319,201.79265,-88.82099,-3734.1365,7832.7314453125
220,2269.0535,-2781.7478,-7500.1973,2364.2131,-1769.9097,1529.7931,10236.86328125
221,1643.5887,3410.5486,-186.28021,3632.0151,880.29034,487.6424,7233.02099609375
222,82.88188,2421.1514,4744.1504,2079.9272,-33.854496,-1476.819,5985.009765625
223,-281.81845,1065.1198,-142.19872,2784.1091,195.78894,-246.08067,5019.5751953125
224,-4225.4683,3179.1216,12618.607,-1849.158,-2494.6846,1974.6113,15951.587890625
225,2693.0688,3966.052,2853.124,-823.2288,-739.95996,196.93916,2287.89208984375
226,7248.913,1354.224,15406.657,1736.421,-2848.3577,-1752.6136,13855.806640625
227,3826.437,-1967.7947,7559.053,-664.1235,-466.30673,-90.60172,8434.056640625
228,739.9875,2930.3945,1112.5752,1596.2583,63.219116,-236.33868,3456.04760742188
229,4635.2676,2115.1738,3365.419,1006.1419,990.4441,873.4444,3609.9677734375
230,2138.5984,3060.375,-1677.5264,2409.805,1804.2527,964.1167,6993.29150390625
231,5035.0605,2687.7012,952.02124,3345.1545,1726.9257,-2084.9111,8255.57421875
232,2361.1758,-120.50145,-5051.0747,401.60233,-687.36584,209.96109,6688.712890625
233,2773.4038,427.23215,-174.46239,576.9074,1055.439,803.6627,3681.87158203125
234,1891.7672,299.09677,-577.516,1324.208,328.46365,54.3666,3208.47583007813
235,2089.0752,1076.3539,-966.71295,290.74542,134.1925,614.96985,2951.43505859375
236,1484.5116,-1495.7765,-1014.5431,1959.5604,-187.66994,2344.524,5982.90576171875
237,4820.3613,778.68933,-98.32892,461.7966,-305.35712,1355.4277,5203.83935546875
238,2250.2,529.13983,1816.486,2743.1035,-577.2028,-1013.5428,5390.62646484375
239,-640.2669,1253.0403,-1272.6046,66.95682,-421.74573,496.79102,2543.44946289063
240,9077.389,-2586.081,-1079.2336,-1910.226,307.10696,-472.4252,11516.572265625
241,2625.0427,-1781.1603,-450.5682,-67.38347,-157.20967,-296.50723,3959.00952148438
242,6473.6943,5082.965,4019.1187,-1288.4133,-334.1586,276.72675,3176.50219726563
243,3828.626,-679.72107,117.670906,-833.29376,2240.2002,695.23584,5996.2314453125
244,1351.199,474.35846,1295.362,440.43143,892.1667,131.55835,1935.13659667969
245,-4409.6177,-5718.951,-708.3991,1209.7457,844.068,-2124.8098,6350.72900390625
246,3085.4788,-3167.6165,6429.5522,1648.9733,-55.52834,-4904.8545,12309.923828125
247,3779.7566,-2139.8984,-4148.7275,497.71387,2659.64,-989.9081,8710.525390625
248,6837.1,-5848.255,2757.0203,-3402.8115,-2653.8684,2180.121,13997.615234375
249,5928.047,-4431.8066,4147.619,-4151.411,-1054.5774,-1628.2655,12451.6787109375
250,5605.443,-7105.2754,-27142.014,-1020.6901,-1667.9099,-2226.9226,29052.765625
251,4578.88,-5966.819,16429.875,-7172.807,1101.4497,1252.2256,23223.396484375
252,-23419.66,-16045.296,-15881.681,-5032.0796,6698.917,1943.2212,16659.376953125
253,-8222.308,-11494.6875,-15715.04,11935.589,4859.5625,4621.048,24588.890625
254,-7470.4883,-2061.6216,-5947.2324,-6271.27,-1523.5717,-1189.5413,12350.400390625
255,-740.9651,-11793.514,28216.133,-4622.1675,-3218.2444,-5025.8535,38100.7109375
256,-15818.853,-39442.69,-41823.58,446.6545,6156.715,-4834.689,28362.591796875
257,-11944.716,6857.899,-3768.9138,-5986.344,7704.583,7020.539,26459.595703125
258,4350.017,15643.197,26903.803,-1468.0817,-7318.491,-17114.26,37780.2265625
259,-19890.426,146.99573,-585.4586,-2361.0273,-14365.888,-12560.478,38684.8125
260,-12241.056,-8661.368,-46948.453,741.53564,372.72318,-1003.66077,36698.0625
261,-10161.409,7134.2554,19067.941,-1998.2756,1572.9995,-4828.174,27153.08203125
262,2061.0466,8021.9946,7169.134,-5796.353,3031.1716,3415.526,13947.4365234375
263,12180.7705,-1816.7426,-18576.72,-3208.938,1922.7632,42.542866,27448.380859375
264,-4492.59,3842.1145,5029.2324,-1588.9012,634.20905,2254.6304,10237.2548828125
265,-7891.553,2964.2383,-10155.12,2578.345,1196.8862,-863.62213,13191.7958984375
266,827.7112,-2755.5503,5492.2544,2075.234,-2518.3533,5800.0522,13571.2900390625
267,-7090.14,-6.5559535,-5145.8496,2215.1252,738.5748,256.6318,7532.54833984375
268,-5714.5107,-6968.9907,-6102.2705,2001.3088,-393.18896,508.39383,3806.90673828125
269,-3431.0618,-989.0204,-199.65863,-4448.657,-543.1815,1896.6575,8919.8115234375
270,-2833.1543,915.66705,-10184.011,587.17664,-4966.2896,-4351.028,15081.994140625
271,-2481.339,5470.089,5078.232,3225.4392,1962.2526,2317.093,10914.7314453125
272,-4473.8877,2320.8533,-2295.093,1267.5844,-1152.3268,-1729.5273,7340.912109375
273,-7941.7134,1714.7239,-7454.853,3092.2136,-543.2865,-693.84467,10945.2080078125
274,-790.7348,3091.737,5026.2715,4389.7744,787.4419,600.9863,9331.7138671875
275,3753.8674,-4993.9185,-14732.582,1352.0417,-1688.1649,-680.2933,16491.79296875
276,1206.3463,2383.6052,-1840.3102,-3200.8567,1239.5173,196.54732,7050.9794921875
277,-6587.4756,566.7722,-13250.068,638.6899,1061.8398,-568.156,12198.931640625
278,-4230.6367,2738.0513,-96.83305,701.8559,57.89464,-1362.7744,6625.93994140625
279,2406.4414,341.88177,3335.3098,1207.1564,157.08354,-234.34962,3413.70361328125
280,3490.3157,1085.2095,645.9346,612.5304,-684.06573,-675.80994,3306.59594726563
281,5701.862,1370.6375,3015.2727,-34.539875,-1477.4406,-1217.749,5034.0693359375
282,912.7327,1987.8893,3986.6997,219.64984,-45.91946,496.4323,2861.92919921875
283,2416.2302,-686.6276,3652.8157,368.63,530.80566,-61.851967,4032.14892578125
284,2095.3516,1361.6595,9118.531,1319.9596,457.31873,30.254107,7802.13134765625
285,-12177.343,-5384.691,-18913.17,904.1926,-1994.6477,1616.1373,12628.9296875
286,-7250.4062,-5688.069,7337.6914,1908.4084,-959.497,-4220.0615,16111.384765625
287,-1684.6622,-501.7841,4040.5679,2025.7257,-6390.4272,4035.885,14529.0634765625
288,1997.0944,-4148.3467,-1221.6497,3078.6958,-678.1772,989.74493,7816.63671875
289,1219.9658,302.7821,-2973.2004,396.61884,-1972.1985,579.7254,5265.62744140625
290,-1440.0049,2952.2134,-2541.907,1053.0231,1906.6095,-1710.0856,6953.4736328125
291,1049.9843,-1686.6749,5883.8906,2827.4553,-362.11063,-360.40295,8297.666015625
292,3312.529,-98.81088,-349.6276,-386.66394,226.43124,246.04974,3652.35986328125
293,2950.5718,2747.0435,-4179.6885,-1146.1448,-1366.8734,429.09152,7715.51416015625
294,-2515.5496,-2119.1335,-4759.2095,-3159.5645,-1127.3945,1383.4657,6751.60009765625
295,1767.6471,2603.537,-3119.666,-3067.87,-338.24893,2410.4143,8641.6904296875
296,112.601425,6018.682,2445.1113,-1952.6465,8500.428,15764.108,31627.171875
297,23226.055,8262.076,217.8067,-5017.5693,-4537.497,1677.5338,23552.96484375
298,6177.6533,18269.262,38351.34,354.2753,-1114.9337,-5911.378,30021.0
299,-904.228,-790.92474,-8718.705,684.4697,616.9654,416.4348,8064.2412109375
300,2203.9094,2293.771,4141.281,881.3104,-464.82452,-561.65857,2740.81713867188
301,2857.7517,1120.6274,536.76764,695.0394,869.9519,31.761562,2845.24951171875
302,1493.6904,7905.864,15185.684,-123.60704,-2148.5908,-6015.216,16224.513671875
303,-2476.2122,6391.117,18869.96,1735.5405,-1345.1388,-2289.9075,19370.095703125
304,-3451.4565,11545.965,2731.4092,1849.1887,1559.1285,-545.3602,13742.8828125
305,-6082.9897,6013.297,543.7793,99.27603,-213.25322,1086.7759,10666.9658203125
306,-9872.032,-14355.411,-9395.5205,-10251.606,7174.4116,14888.354,34017.0
307,5177.0835,291.16766,6244.4834,-1893.7002,3991.271,-327.71823,9439.171875
308,-8410.1875,-1710.7181,-8266.2705,11898.822,-7668.9688,1755.6277,25580.681640625
309,7993.831,-7172.2646,-3726.3342,1500.3093,-2060.244,3959.545,16004.5048828125
310,-1953.8766,9639.17,31926.652,-1848.0051,1496.5983,-1262.5237,30187.037109375
311,-16118.637,-17251.977,3768.9626,-15054.819,-4634.4575,10898.137,38987.51171875
312,-3885.7437,851.67194,2328.669,2695.0376,45.71227,18.812578,7308.81591796875
313,1365.1394,2304.3774,-47.140247,1398.117,-2097.8228,-128.76544,4829.0458984375
314,4364.1235,-756.9247,4148.7314,1293.6954,-192.63995,-221.57906,5517.97607421875
315,6184.5063,-5671.533,18450.594,562.2239,-516.93225,-377.42114,20943.42578125
316,2463.466,-1622.1453,-2192.453,-899.55334,-1736.805,537.72424,5629.56787109375
317,-2669.3958,0.3079252,-2570.4739,534.7284,1890.4723,-1054.5266,4667.82080078125
318,-1718.922,5811.3545,5347.3125,-266.86304,1617.7345,-2365.2905,8847.2978515625
319,-3623.4807,-4062.2327,7952.8887,-356.52917,-756.2596,7635.004,17783.7265625
320,-20504.531,-16926.277,-13020.612,8761.9,706.2295,3079.0852,17386.341796875
321,-8940.258,-3458.8386,-8750.227,5207.784,-2756.8445,-456.55035,11568.46484375
322,-9073.537,9089.515,-7269.3584,8371.739,2386.426,-2442.595,23358.59765625
323,14682.205,16857.156,3384.157,11025.577,10603.989,-815.79126,29342.279296875
324,-6134.7026,-15899.351,8517.095,315.8713,6576.0396,-16034.812,36803.13671875
325,8443.474,-4749.0317,-24657.156,744.9208,1814.7251,5083.45,30365.810546875
326,5542.494,971.6523,3185.656,548.6616,400.8068,370.07047,4179.7646484375
327,4431.0513,104.927284,229.16061,-830.9481,295.25827,-248.80334,4551.0439453125
328,3120.161,-481.6288,-3685.9739,586.8715,210.52191,-682.97424,6111.2734375
329,-1658.3024,191.68213,-4797.8496,587.32935,-1226.8947,253.83308,4983.10009765625
330,-26.18806,1993.6697,4006.1372,-3341.2825,-78.45145,-122.6029,6763.93505859375
331,1447.0575,-5145.909,-5328.9355,-2258.74,2859.3472,911.3078,9329.1025390625
332,11028.268,-9084.303,15038.06,-6389.294,-4768.4634,2753.2883,26733.25390625
333,1261.5151,-7440.1626,25404.287,-8068.6143,-4096.1406,-5708.503,34814.921875
334,-9186.86,-21019.635,-24920.354,-7655.186,17499.44,9122.812,39313.6171875
335,-3353.4128,17504.195,29086.408,1980.024,-2181.5513,1678.8262,29073.33984375
336,-930.8588,938.34656,-1560.51,-3470.1548,923.3991,653.6499,6710.66552734375
337,-3510.1475,-1062.9407,-2987.386,3414.8323,-245.6932,33.427746,6336.4404296875
338,1706.4293,790.06854,-5193.4995,2244.3284,-2658.82,821.3469,8970.4375
339,-4358.792,-1993.1515,-16196.618,-2751.2766,-294.67462,1692.0366,14328.0302734375
340,-845.14496,-1644.4049,2513.2505,1214.8169,-1225.3877,-1800.2451,5766.85205078125
341,1611.0066,25.370749,-1889.1959,2278.9312,-587.46497,137.6981,5088.06640625
342,-1129.8335,-3997.5688,-562.85876,5986.609,-544.6826,398.7885,10911.3193359375
343,2989.6973,-958.3307,960.5311,367.3587,65.24929,818.0307,3757.44409179688
344,-4225.3755,5399.1304,-7349.0586,-4473.1206,-1524.9954,1340.953,14312.5859375
345,-999.70374,-17.795984,-6279.8105,43.103573,-60.824265,85.70723,5836.69091796875
346,2985.4167,953.49994,292.2531,630.5071,-386.85434,-219.6704,2774.1455078125
347,11766.386,5834.0815,9409.319,-1669.4957,11927.447,-6066.4634,23923.30859375
348,-4968.2734,3189.5132,2975.6597,1163.6335,457.5268,421.8048,8371.052734375
349,3717.44,6347.082,-84.2782,1116.7235,2426.9158,-104.21113,7266.9658203125
350,3519.4214,122.262794,-695.26544,1773.3091,114.80174,1755.0355,5805.18505859375
351,608.5375,-196.68898,1280.5576,292.72864,-952.1248,396.32465,2255.89086914063
352,2424.5166,1816.4243,280.41696,881.4522,11.612218,96.19292,2454.01025390625
353,1143.1569,-1834.2593,-443.5284,-224.8602,-1998.4928,628.8307,4469.703125
354,429.1256,-348.93915,-101.65634,-541.4166,-129.57953,-32.61519,1186.20874023438
355,-4556.143,3357.7324,-1646.4946,-1947.1157,1120.1423,-290.74973,7966.20556640625
356,-614.7966,10112.027,248.43378,885.5988,1354.4349,1879.8616,11180.705078125
357,-663.39777,-636.8505,-597.73566,-270.79874,492.76422,427.21472,1224.44104003906
358,-5332.6123,-6281.528,-3206.4026,-10488.935,1651.1625,874.97156,18653.89453125
359,4893.3726,-3809.5757,37.19425,-102.06624,-3751.2256,114.30062,9967.2578125
360,1439.2782,-1676.0448,1376.5695,1544.8721,-2358.2986,240.59517,5790.6884765625
361,-184.37044,-2979.0022,-3514.8135,453.20834,1488.1602,-145.34328,4113.1357421875
362,1969.5566,-2309.7756,2047.4001,251.74496,-434.29617,111.003006,4409.625
363,49.31504,27.351175,1419.1152,353.82312,-436.5653,168.63478,1714.51867675781
364,-1061.1232,1303.1687,70.34884,949.27905,-65.64574,175.18228,2646.38647460938
365,-559.7841,-883.3778,228.1321,370.0037,-42.70097,-76.16454,1189.14721679688
366,-1343.853,-1611.2386,70.90051,-965.6505,139.8497,57.30482,2305.921875
367,-1675.4222,-1510.4402,1520.39,-2758.2139,-1221.0339,456.78317,6134.74853515625
368,-2595.3494,1890.1636,1381.6024,747.90204,-413.4178,-224.13802,4520.9326171875
369,-1586.1578,-980.84607,-3677.2644,73.0944,215.12257,-109.31331,2489.09814453125
370,2617.5886,1738.3945,564.6268,-113.82517,77.83823,178.61176,1826.31701660156
371,-6471.212,-1804.2778,1424.4508,-101.3555,1629.7867,-393.70682,7465.76708984375
372,-223.52913,-2216.432,531.4501,243.28554,504.65735,-260.2286,2681.6064453125
373,2106.068,-2201.552,-188.37381,131.29689,166.43849,-106.891685,3755.73828125
374,2246.3416,-1556.5769,-488.428,468.07,-115.32427,91.50108,3501.90405273438
375,3110.591,-725.49725,2772.0352,-743.4017,-546.64484,155.87892,4019.7958984375
376,1227.6035,1438.4943,383.823,1033.6467,14.747723,-99.72803,2042.09497070313
377,-1034.7406,-2200.5679,-370.31747,1074.5116,266.4409,90.84459,2505.32836914063
378,55.651157,194.80563,-3229.646,791.3485,82.17717,-348.54654,3678.73828125
379,1097.0192,3459.8987,3503.1416,456.35522,-1686.9833,-279.22003,3883.76806640625
380,-1609.1222,-7864.799,1986.1803,399.65134,-2911.0408,-3337.9258,11570.5498046875
381,-10176.006,5326.907,-3690.251,-4644.9854,5945.887,3644.4717,19811.4140625
382,2789.8547,23511.844,1996.9828,-3184.591,-4250.7485,1193.2338,23137.89453125
383,-986.0627,-2532.8337,-830.2639,-934.35785,-144.63968,60.979664,2313.16870117188
384,-6373.097,-6100.162,-1941.0518,1720.8091,4668.7964,31.14932,9632.6162109375
385,-1508.6262,-758.1816,2973.05,-2048.0017,413.75195,146.59933,5517.818359375
386,-334.86475,-1722.2145,-1276.2838,775.955,2709.754,104.36669,5037.0849609375
387,1257.9973,-2769.7937,-1757.0121,-78.832664,-620.513,-1427.0255,4522.4453125
388,81.818665,-172.40822,3362.8945,552.8978,-468.95328,-44.38897,3639.63989257813
389,-109.80082,-1968.1979,-1227.4954,933.10486,-607.77374,-721.23987,2811.857421875
390,203.13583,-1527.3351,557.97986,-3097.1404,-1283.1752,-82.334145,6121.37890625
391,3398.4194,-2905.6082,1354.6095,-1606.2657,-954.76385,275.04428,6460.3115234375
392,3249.2366,-2107.0693,186.75247,-1055.2362,-102.45632,25.841728,5003.92724609375
393,-3035.4106,-1566.702,2100.3188,-1787.9723,-723.62555,-893.5662,5877.6484375
394,-1888.0847,470.91913,-2144.5828,-633.7517,-377.18295,-94.09424,2809.63623046875
395,-2029.2122,1008.94934,862.3322,164.99306,399.7352,441.50864,3154.72631835938
396,3575.3643,-318.16626,2459.4268,789.5918,554.4402,374.11862,3907.99609375
397,653.8914,-57.23033,-490.8331,-853.896,-81.435104,56.06607,1794.0986328125
398,205.5752,693.40656,333.80017,338.99808,-202.99019,-136.66264,846.329223632813
399,17056.428,-8132.67,-620.6543,-1087.3927,-7819.8687,-374.2936,26251.0703125
400,-4522.61,-2080.3545,-903.5594,-1079.8021,-292.66888,-525.98364,3848.162109375
401,-21978.705,-28034.549,6724.5117,-6717.461,5625.145,-1212.536,35624.15625
402,-1683.8383,504.69894,-5098.0205,-284.0748,-317.32904,170.83139,4954.8095703125
403,1180.9355,614.56104,1063.5311,-324.26633,184.66684,-86.61798,841.62255859375
404,-4608.117,-252.67421,116.48393,-6411.658,2383.2644,567.7107,12729.83984375
405,1416.1503,-364.26617,37.698833,-1563.8853,117.04382,-49.710407,3162.51733398438
406,-3966.7712,6201.46,-6.0579057,321.8149,-1591.4025,-904.7108,9443.01953125
407,274.69266,-566.17426,1333.7584,1590.4763,750.1538,2.5579367,3463.56274414063
408,-1651.5457,-688.95197,1378.4012,1580.3761,-1186.6455,111.37105,4352.57568359375
409,642.705,-598.25745,-1702.5413,281.81436,491.0286,-73.2687,2259.97680664063
410,2015.1493,-998.3704,287.0086,1393.589,186.76562,-223.6965,3597.36328125
411,-3868.6309,-4346.4785,-375.0964,2530.3132,-648.72266,627.7266,5979.51513671875
412,7427.42,-7345.3794,-8889.074,-1473.0857,2512.663,-312.6629,16406.30859375
413,1164.0016,-1219.4973,-1153.9027,-274.42163,923.9557,-436.35165,2981.14697265625
414,-3738.8418,-7835.8555,-4543.4204,-416.4094,752.61194,1426.5273,4739.29345703125
415,-906.8423,-1120.615,1498.6001,-559.20514,147.21068,-1125.3768,3338.95678710938
416,-1307.5776,551.42523,-3799.6296,1641.275,295.99966,538.58545,4849.05859375
417,-954.2248,-470.25577,-1385.6454,-206.90392,672.27057,446.3206,1646.51782226563
418,799.0343,2730.4304,771.1992,1521.504,571.91864,890.51154,3753.67211914063
419,-2256.3713,1065.1337,-28.82743,674.2895,185.16724,-209.05807,3192.72998046875
420,-2097.38,-2929.6047,-5584.294,206.09662,3851.3518,94.83687,7389.3447265625
421,1245.0021,1109.5713,1078.7552,1794.7719,250.17339,397.1317,3216.828125
422,729.2587,446.79855,-2301.7488,896.3484,967.32153,337.7465,3737.68969726563
423,-466.0737,953.2855,1697.6318,782.18713,695.113,-218.09647,2655.71484375
424,58.540485,-511.1438,-3685.073,194.7424,597.224,732.1139,3872.76147460938
425,-275.55402,-2912.414,-1521.7445,2096.257,-281.98184,-322.15228,4353.4765625
426,1502.6371,1285.0472,4243.513,-666.71387,52.944084,116.51342,3088.49340820313
427,587.46576,-1857.9286,-2597.4705,-866.8384,564.90643,-56.3615,3399.4794921875
428,-47.94362,468.69778,378.17746,-955.4817,194.02707,15.654589,1755.23681640625
429,1924.3503,-6474.562,196.43224,-1176.6577,-403.31647,-364.41415,8003.421875
430,-6424.8965,-4888.5303,-3082.6946,-2827.2476,1173.243,63.708965,6042.97509765625
431,-649.58746,-1166.779,1124.852,-168.99797,-347.50665,382.1849,2284.73364257813
432,382.62808,-507.86972,310.71594,-2812.401,292.4068,-70.64238,4973.3681640625
433,-743.2418,1803.8177,945.007,1664.1254,-144.02792,-60.00653,3663.14086914063
434,2207.0173,357.8566,1755.7163,-101.61865,-295.21674,221.93399,1796.8701171875
435,-331.18774,-630.77264,120.606,-2150.0493,291.56934,44.334373,3815.53271484375
436,-1066.027,-2472.3613,-1521.1548,700.0105,-255.19417,-304.8711,1867.91625976563
437,8472.157,-4084.105,8180.979,-4529.3354,-7938.8203,-577.2312,20142.173828125
438,-134.66736,-406.2026,665.9836,-1917.2366,-321.7677,-56.786705,3504.2607421875
439,4119.9478,-1546.7811,3958.4753,-560.5746,-1072.923,-1267.6353,6359.22900390625
440,-5176.2417,-2786.2986,244.26219,298.3686,165.1461,-4.7982297,4742.146484375
441,-773.0251,376.41446,-132.2256,781.53314,93.103035,194.77785,1722.63659667969
442,82.32018,1134.6381,1343.3073,374.70422,-724.11615,-128.40225,1847.75695800781
443,1187.2925,-787.4331,-2239.2344,1235.5752,783.5097,39.003216,3911.56518554688
444,367.44052,-837.97125,1400.8029,-117.59577,-1097.1206,-125.15816,2732.39526367188
445,-4440.465,-1624.1344,-3904.0706,-3044.3762,2775.5364,1231.2245,7884.92236328125
446,447.74432,-2158.8748,2906.3108,-389.24353,-2424.3132,1319.082,6523.33544921875
447,-667.6305,-785.2471,-2075.028,555.4671,38.11361,17.698343,1661.32385253906
448,732.5774,-621.7618,3015.0327,-160.0404,-209.8046,-24.320759,3216.47680664063
449,48.236996,-1237.6229,698.4203,-1366.2617,-316.61252,-57.040344,2970.30688476563
450,-1309.2361,1487.7814,-1512.6694,-1010.3211,446.8091,171.9223,3490.49145507813
451,-223.72961,-1650.2943,-3738.0378,-387.95908,-433.00323,-121.65336,3229.6240234375
452,-244.14278,790.5862,1136.4296,-545.4506,135.97116,159.29074,1603.82666015625
453,-891.85693,-24.073126,-464.37695,-962.1629,-196.69098,-107.441414,1868.90161132813
454,-130.91821,149.38141,2820.8633,761.68896,755.005,-30.592697,3378.99609375
455,-603.4181,-3164.8838,7854.792,-53.990074,-1563.4723,464.2307,10380.580078125
456,-170.04007,1270.6561,-148.99097,-1790.5493,-174.05122,9.598438,3428.568359375
457,-2547.5415,927.4722,-824.4701,-595.27045,-245.63214,294.78372,3249.8828125
458,-483.11832,-165.50757,-1374.0869,-78.92017,1522.5452,-649.4535,3068.57763671875
459,-1513.0623,-1073.4423,-3188.7595,652.6169,786.3018,128.6551,2630.60668945313
460,-802.75885,-32.321964,2109.3264,-200.5113,-337.93628,-46.57094,2701.84375
461,-2257.2505,-676.75775,-878.17926,2121.118,-2493.9192,514.8402,5930.572265625
462,4860.904,5727.864,2460.59,-2497.457,779.1251,498.7081,5465.63916015625
463,512.95703,889.5782,1662.2429,1340.2145,-57.962486,101.230705,2541.49609375
464,-1095.9713,-1102.6587,735.4099,425.51303,-472.31952,-36.717583,2140.73217773438
465,-264.9885,1039.5724,221.18665,120.5025,551.2338,74.4293,1508.5615234375
466,1446.2701,4320.9824,-75.559074,-582.7507,-128.58415,-469.41345,4084.62963867188
467,3005.7478,-888.71735,1354.633,1308.667,660.709,-103.06192,4235.8154296875
468,888.49445,-1903.5317,558.2525,6025.652,-4745.062,-1566.5266,13813.642578125
469,24.25629,3633.6553,801.3152,1007.4653,3266.0806,-1143.6238,7056.72021484375
470,1382.9369,5186.146,5684.127,637.1842,236.1912,-186.04472,4253.8828125
471,1458.8801,3638.103,99.27257,1056.1118,-466.96683,-144.35706,3690.96728515625
472,2432.075,5312.9956,386.88434,1386.1078,-744.56006,-191.7414,5090.3662109375
473,2929.6033,-373.63156,461.26233,-916.288,-224.35004,-28.732452,3394.52270507813
474,2323.557,-1779.3234,-62.047516,-833.1785,81.2966,-400.333,3914.08618164063
475,-253.66109,985.10406,1788.6669,958.3546,285.9409,242.14241,2520.35595703125
476,-3455.4944,-2626.5554,-1057.8298,268.3944,-263.9747,74.552155,2211.39013671875
477,-967.46765,10.329251,-3493.8276,-56.131897,-191.43587,56.052727,3152.40698242188
478,-3110.1091,-1975.6891,1143.1439,656.6359,67.96553,-17.51567,3982.51000976563
479,591.15576,-1030.0071,656.61017,-369.98944,1325.8604,-150.32913,2913.89013671875
480,-2756.6362,-730.04645,-1493.7434,-34.894276,-240.36238,118.844475,1833.56103515625
481,-1930.2377,-478.27808,-1883.5834,-1229.7556,3941.276,979.36554,7487.18603515625
482,-4759.8354,-5070.4297,-1337.8232,-1507.786,88.15231,-133.73712,4445.9775390625
483,-5956.557,-3199.8777,-2340.071,-488.89572,-53.255005,-52.013092,3382.66772460938
484,-1053.5282,233.87074,-1294.0955,208.06723,-101.63572,16.294588,1478.72802734375
485,247.51076,-1321.0782,201.6858,905.4589,-212.0639,-195.35663,2258.24365234375
486,-438.89093,-2282.6865,-1010.18,-651.58936,208.49722,-284.668,2078.42260742188
487,-167.40971,954.42114,278.63654,-616.3822,286.84375,159.78659,1555.72741699219
488,-1475.7642,-799.354,-645.9304,623.6443,-889.43195,-34.65455,2031.87438964844
489,844.1453,-1494.4319,32.577873,-392.35556,135.77936,135.408,2191.30444335938
490,2275.7168,1119.1042,-284.9931,-91.44981,-193.7663,217.9782,2283.310546875
491,-1748.0012,-3330.7664,-3518.7122,4715.8867,2604.601,-1078.2118,9664.1689453125
492,202.60477,257.1315,-178.22952,1447.4254,189.41823,238.33473,2594.59887695313
493,-1966.98,-517.2379,1037.1017,1032.1013,877.8912,-75.252716,3506.54858398438
494,-1455.5524,3122.8784,125.22264,966.67194,-106.67131,57.357628,4367.0107421875
495,-1281.3372,-639.48627,-3483.745,2.729719,-36.30687,-220.25963,2612.60620117188
496,-2572.2173,1387.0465,1190.7413,526.0518,598.27185,61.249542,4105.1572265625
497,1249.0746,993.24396,2969.1182,145.14174,-57.632317,184.47601,1907.69396972656
498,-227.53802,2409.1157,1642.9365,-1122.643,-431.9611,-274.63608,3175.82299804688
499,-2482.13,-320.6835,1567.7504,-1426.2445,-652.0021,1.3296014,4438.201171875
500,-617.984,1448.8295,448.25864,460.96933,203.64795,-180.13446,2015.96313476563
501,-825.12823,532.51117,546.25397,812.8895,-246.91501,-238.25073,2048.80224609375
502,-153.09418,1937.7107,-502.71933,122.2444,-250.73438,-241.11919,2373.29956054688
503,-1805.9685,240.18239,-406.25943,761.12897,-97.71734,7.030282,2246.919921875
504,-557.6405,1417.914,-325.1218,-835.8409,17.259144,-59.277203,2367.45678710938
505,-434.74188,913.3541,1946.1553,1029.307,23.341097,177.54019,2747.90307617188
506,-1572.0536,5498.3296,-1403.4623,-437.88348,237.52286,45.13526,7041.11669921875
507,377.17258,896.5965,-188.37038,839.0096,-139.69174,-194.94081,1779.81872558594
508,-4206.8296,-4611.812,-1454.8707,226.4499,346.6463,725.78094,3308.53247070313
509,2549.162,-3842.604,-6585.0415,1123.3253,-999.20276,312.4742,8542.73828125
510,-528.9197,-716.4646,1444.2574,-540.0291,-192.56314,49.234573,2300.44970703125
511,1017.7809,-15.709947,1323.9698,-338.8688,-515.2173,-139.66315,1636.35534667969
512,-250.2766,-146.77779,-1268.3634,357.3113,36.78417,-104.14078,1253.87109375
513,-35.97836,3055.6875,2720.1333,750.7398,-1935.3407,-655.3427,4780.11083984375
514,2850.5664,0.69079953,-488.63074,-1224.074,515.04974,-106.1525,3883.35375976563
515,-1091.4722,-2776.0222,-2279.4062,-608.62115,-534.7872,-128.97835,2065.65234375
516,-537.5375,210.94353,-790.4495,921.64484,-725.6762,112.04457,2231.42456054688
517,-4549.1294,-2038.974,300.34662,97.71092,-626.2664,-33.582386,4342.12109375
518,-6408.0483,-4716.2783,-1329.42,732.56305,1157.246,430.83493,5123.1962890625
519,-889.57623,-64.41043,-889.16455,-190.03284,157.81618,-175.5997,977.813903808594
520,-901.1204,1627.0585,-770.1068,852.19696,-145.34134,-108.868645,2890.54931640625
521,892.7942,853.96515,3094.9358,-74.84436,-92.82977,-99.22785,2237.99877929688
522,-679.9028,-1013.3008,188.19337,1874.7098,-239.474,-172.01729,3458.11962890625
523,821.8198,59.015926,-102.39591,1367.3291,52.345943,61.3027,2521.76733398438
524,-1170.9395,-2783.6272,43.361385,-173.44997,118.36696,313.3014,2541.71923828125
525,-1846.2236,-930.07056,-663.2736,399.50546,8.873826,247.77219,1348.39428710938
526,-625.1246,-63.35547,156.78233,-971.0273,-141.0239,186.70355,1865.64501953125
527,-418.1765,500.80447,-462.71066,-1079.5756,194.3324,313.894,2189.23950195313
528,-2561.0833,5340.0415,1088.6027,568.1526,-172.62257,-105.90104,6928.40478515625
529,-2232.9573,2953.1665,882.6957,2226.0737,-128.16278,-415.97662,5989.958984375
530,1612.4069,-20.17928,911.5188,481.894,-510.76535,39.25021,1869.82690429688
531,1592.371,-811.8933,2023.0848,1999.435,550.81134,132.49951,4467.39501953125
532,670.0119,5034.9326,126.260445,-1989.1849,269.3903,-16.253893,5814.69775390625
533,-963.1288,63.297783,-1941.6951,3146.7356,249.53444,2.5826824,5736.5693359375
534,-2865.9565,-1572.9814,-1256.4238,2418.6746,469.47934,-49.808033,4516.6279296875
535,7058.1763,-1948.1716,-861.95917,1238.1053,539.3987,-6.979027,8830.8017578125
536,-2304.6914,-1812.9508,-419.22043,-1445.9521,-98.55482,-395.41537,3104.86376953125
537,5796.259,-5.090306,-1588.4517,-306.10065,-548.57184,-44.107693,6821.87939453125
538,2952.1992,-6828.629,195.69923,-3225.2654,-170.53194,-118.932365,10374.908203125
539,4728.0806,-1196.7428,514.3839,-2581.103,60.486595,22.631592,6920.416015625
540,409.40845,121.24284,1244.9545,847.7279,240.36795,245.6019,1879.40710449219
541,2725.293,1367.1665,-48.945385,-1075.2747,127.23081,-200.52292,3067.73168945313
542,2756.8352,-407.26724,-351.02704,329.391,193.3143,169.52548,3218.78564453125
543,-2114.764,-706.6738,-95.157326,-28.573639,1103.6052,114.67594,2629.34887695313
544,-304.14108,2133.6052,269.2691,-446.0454,144.31372,35.543125,2353.02294921875
545,-3652.9402,-5162.476,-2233.7468,-77.990105,59.892708,4.5977983,2542.47973632813
546,2414.2034,4690.9116,458.70383,-373.34186,-256.07373,-221.50676,3771.14721679688
547,190.9696,2044.6952,2181.0676,-1445.708,565.3694,219.66869,3328.90356445313
548,3636.5125,-380.18033,254.17381,-1207.6167,-355.02438,147.60674,4336.671875
549,3445.3042,4463.17,1065.0963,856.3649,163.25612,-79.41782,3379.8125
550,2475.5366,1820.785,179.92145,-508.4519,-327.83817,140.3366,2313.56372070313
551,-809.7069,-5980.9526,455.37442,-1334.5002,35.850212,-62.937195,6343.71142578125
552,-1114.035,-5312.4106,-756.8442,-670.8562,100.99389,413.7642,4598.685546875
553,43.884575,-2223.4941,-436.72375,-504.4971,-170.51149,-188.38802,2288.99853515625
554,331.13745,-1518.0756,-618.85565,779.3108,245.77342,250.30934,2180.93774414063
555,2307.0503,-857.6811,-687.9194,1551.9635,-165.45921,77.51407,4102.806640625
556,127.16219,5144.5674,1111.7673,219.55011,254.88031,-8.833389,4641.48388671875
557,1403.286,-1100.5966,-8.908096,91.83094,-66.29505,-30.501482,2183.81005859375
558,1313.8656,-967.95996,-970.3427,566.8085,-98.05785,215.8105,2518.83984375
559,1279.9198,-1497.573,713.9355,-1353.3599,250.04356,-35.394615,3485.521484375
560,-800.0054,807.57794,-1068.5284,2840.3347,211.72273,-204.94667,5248.91357421875
561,-1002.5576,1745.5154,368.63065,580.9265,409.33286,227.17139,2708.10717773438
562,15.64267,6916.433,1237.6102,-1971.016,-220.59381,-249.68019,7257.36083984375
563,725.2909,3970.8638,918.7381,-1269.6196,112.70485,456.15027,3929.560546875
564,-761.7713,718.6577,2797.3445,358.52084,109.24592,171.4715,3177.98364257813
565,154.96059,1207.1278,743.1727,242.76292,230.56691,216.6166,1145.07861328125
566,450.82684,-151.34819,-1205.695,-418.2155,-158.50227,24.283455,1646.515625
567,1091.7496,-391.06046,-232.31053,-627.06494,-59.46524,-87.01436,1789.26953125
568,-210.20883,-1554.7451,333.00714,85.68382,-82.7863,310.3384,1778.97473144531
569,-6845.216,8915.197,2514.5728,-1387.6274,-376.07047,-814.4187,14024.0068359375
570,-74.374435,-2988.9116,-5442.0537,852.8521,-587.7655,649.24866,5113.24267578125
