Element Label,S11,S22,S33,S12,S13,S23,Mises
1,1774.9703,1811.6703,526.7539,885.7583,-310.22525,281.61185,2117.90893554688
2,552.1922,1039.7024,-1106.7758,229.77257,412.18378,-54.914913,2115.5908203125
3,1187.1167,1320.5343,1424.2357,23.713806,-233.71964,-540.84485,1041.86901855469
4,79.939964,919.5522,-1948.1898,387.74933,-465.65414,623.9999,2964.9248046875
5,2055.937,2622.98,1607.9626,1189.3923,667.1399,-1213.3782,3282.11645507813
6,-615.057,1795.3235,-1422.2101,-503.39316,106.28761,-537.98157,3173.22436523438
7,3191.7983,1231.4697,931.3342,1229.532,144.02774,53.548794,3021.1611328125
8,-2771.1409,1779.0061,-1284.287,115.830475,-767.03235,151.32251,4245.36572265625
9,5126.0225,2714.9204,1376.5485,921.05206,1587.8162,-457.27002,4644.06982421875
10,-3211.9958,570.8249,240.21501,174.1497,-1593.3297,2009.25,5743.408203125
11,-573.9692,794.37756,-577.0386,730.9701,84.88707,354.30505,1969.19970703125
12,3875.077,1432.8374,-211.38913,-445.71265,-65.722435,-30.719692,3646.283203125
13,-1777.7228,577.1141,1874.3518,1815.3348,401.94998,-10.29231,4544.68896484375
14,3400.9146,431.35214,-3728.0461,443.1673,-298.6459,-459.1268,6321.36376953125
15,-3252.7717,2566.1987,3657.999,-37.50372,280.39774,-1250.7274,6807.2490234375
16,1953.1489,224.33586,-2157.0847,3071.537,-2810.7402,3658.792,10244.0751953125
17,2970.1123,1137.8387,1177.2701,-1216.791,-467.2531,-534.07806,3039.56713867188
18,-1219.0154,-6454.3076,-13769.528,-3579.9355,8307.477,-5522.1777,21358.64453125
19,-3662.8628,5440.2104,4901.668,651.0654,3315.2683,3416.7542,12145.8173828125
20,1988.6669,1406.4418,-296.34576,436.61057,314.58942,-31.106464,2258.66455078125
21,1170.3478,-2929.153,-2882.458,-831.1904,4927.746,874.40137,9686.6435546875
22,478.4593,-3941.8865,1976.9131,2369.8186,-59.07419,299.72324,6748.0810546875
23,697.2209,-3161.6365,-3461.5354,1980.8826,-201.03174,1217.2833,5698.79345703125
24,1371.1748,2010.2219,-5949.367,2037.5172,-24.526863,406.78574,8463.423828125
25,3179.828,-568.3752,-9626.476,1286.8391,-701.7725,-831.95166,11771.642578125
26,4161.4043,3596.695,15444.794,2500.6677,166.3973,-3337.3743,13647.81640625
27,1542.7395,-322.76215,-3161.2415,-32.297806,-296.03555,3304.5073,7060.9912109375
28,-3674.7632,2152.9958,-1623.2762,-790.0245,-302.5415,-182.47215,5335.04443359375
29,1413.6345,1751.9115,-1369.44,374.19376,-327.46643,508.4258,3212.26391601563
30,-173.53014,1627.6853,-3318.7405,99.13489,-303.5427,151.48318,4379.1171875
31,-1110.4366,2384.6199,987.35474,813.55096,230.19849,166.15854,3392.88159179688
32,-331.25125,1424.7612,-813.1169,-1210.1422,355.2207,372.4079,3057.7568359375
33,3776.275,3413.6362,5457.6167,-26.447006,198.70284,-729.94977,2299.38330078125
34,299.79324,2460.077,-458.68317,-355.96417,55.992542,-317.16898,2751.7197265625
35,-114.491135,325.7058,-685.4696,235.44173,229.22566,623.989,1504.37731933594
36,2174.7585,4127.276,3872.9607,989.47217,-675.03827,-759.0928,3068.111328125
37,-1374.7881,302.9419,-2136.013,418.61304,1232.3268,-275.1157,3159.11938476563
38,2576.023,120.41628,-228.47676,881.7474,-425.01752,258.59476,3175.44384765625
39,2903.277,-688.15216,2453.1548,-2274.6548,1945.1051,447.70514,6241.6484375
40,3688.6375,-1468.9755,-823.0232,-339.23846,-237.4919,271.82755,4941.94091796875
41,4307.2354,-4996.8774,-2417.05,-19.610416,-861.4628,2809.8257,9753.5576171875
42,11676.591,1802.365,16703.832,-13538.964,3466.9878,586.77997,27557.5234375
43,17393.979,3100.3813,21883.066,-3005.4817,11771.728,3786.919,27829.224609375
44,-15190.446,6868.6787,-18657.607,-3740.5781,3744.1045,-17736.906,40036.64453125
45,-11605.216,-10276.543,-20971.525,-2288.2778,-13926.482,-17226.13,39871.1171875
46,2150.204,-2256.7786,-11339.628,10668.261,2017.7019,2996.0264,22858.802734375
47,13072.747,10097.15,-24558.299,-123.84389,-6802.3003,7292.87,40142.15625
48,49.66672,-2721.7249,13783.923,-5051.539,-1076.9841,1650.8055,17960.587890625
49,7774.6675,-21302.527,-19491.568,3029.1948,-3429.0554,-11210.716,35156.06640625
50,-6921.078,421.6254,-18149.523,-114.940056,-4432.1333,-2327.4622,18375.599609375
51,1046.3666,8941.68,-2155.111,-7350.1455,1967.2963,-4934.8467,18563.537109375
52,345.61154,3495.331,884.1475,-260.5672,178.20686,-1235.0411,3659.16064453125
53,-2288.4304,-3563.0579,-4309.054,-1204.2529,-3907.5208,-438.71445,7339.3662109375
54,-552.11346,6331.473,7695.1924,-950.22754,-2451.4207,-2752.761,10104.505859375
55,235.56097,1288.5082,-1195.8423,100.37861,-1208.9349,-1050.4922,3519.97241210938
56,3656.1838,1787.9827,2361.6497,-2319.6409,2868.7334,-3198.7183,8618.23828125
57,-1107.2478,881.2374,-5969.893,859.1125,-314.3586,-737.9688,6435.30712890625
58,64.85572,818.1361,-2888.8103,3041.037,502.33514,142.21239,6330.71337890625
59,3268.7737,2134.5286,2258.5735,-216.2039,72.83609,422.35187,1361.06311035156
60,2991.3188,2754.6365,7963.381,-102.86147,-36.361584,-307.2136,5125.72607421875
61,339.98257,791.623,3284.444,427.53934,90.26186,-1124.0128,3450.6552734375
62,-1696.8586,-2436.329,2043.3268,-775.4708,-356.26163,-860.9112,4659.38818359375
63,-7364.1562,-6291.7954,-11620.321,529.079,1242.335,-437.60468,5465.66552734375
64,2021.2301,1709.2977,-566.993,-242.97902,-42.45135,-128.85443,2494.22998046875
65,2436.4038,446.1065,-5847.8306,1466.4806,-488.49774,539.65686,8008.93310546875
66,2326.5037,474.96994,-2505.5532,-297.57523,150.91075,333.67154,4300.95556640625
67,1067.9197,965.62286,-1994.5822,-0.37977085,-743.9799,578.07153,3426.23950195313
68,1681.6404,1886.0691,-480.40796,-416.0668,1370.463,-158.90549,3374.5849609375
69,1156.3008,2724.2268,2338.6677,-826.9185,637.84564,-632.6157,2544.6123046875
70,1779.766,838.8343,5110.8887,-2201.7805,-252.21617,-1550.8481,6088.17138671875
71,6896.2754,5047.062,-1957.597,-663.70636,3854.6086,-1059.433,10709.8408203125
72,-911.9785,-488.75073,-5199.7925,-1249.1757,243.16963,891.0018,5255.431640625
73,11475.448,-4551.592,4673.9673,7854.5566,424.66605,25.424232,19487.013671875
74,8430.924,1608.075,6745.7188,-384.59485,3005.4978,-3170.3003,9776.9365234375
75,-6108.1724,15296.505,10142.89,7777.7266,-456.55365,3890.8013,24534.21875
76,-21367.79,-15698.655,-33155.613,2034.5782,16728.953,11361.495,38433.859375
77,-29373.531,-28028.43,-43510.426,-4993.8926,20173.172,-1315.9259,39007.16796875
78,-24779.271,-31941.059,-61839.22,1526.2645,1511.3573,-11026.261,39215.96484375
79,3656.1377,-4187.5835,-1578.887,2652.0266,2768.8174,-7982.2686,16826.05078125
80,-2376.0125,1827.7069,-4048.9565,3144.1426,2397.114,-1748.2611,9141.509765625
81,-1736.556,4608.69,2190.5374,335.5658,-426.15125,1792.5262,6425.5673828125
82,1375.2491,5027.904,-916.5865,-1607.0747,1454.5466,-2842.6616,8081.02978515625
83,-218.76195,646.40704,-2063.3325,1068.8016,-691.70544,1032.74,3716.02709960938
84,7107.562,6915.0444,7832.444,2551.9756,44.25146,-1224.329,4974.19580078125
85,3710.6006,5902.113,-2787.1628,2536.4148,-1609.02,2128.314,10095.5322265625
86,2304.769,296.6478,-606.7329,-69.338806,120.23171,-539.07837,2755.42236328125
87,343.27594,941.18964,664.6279,-736.19855,-53.691875,623.378,1751.86779785156
88,2337.4446,156.33029,3425.6628,-1145.289,-349.87198,271.41208,3583.05615234375
89,-649.15576,-2528.969,-1903.9554,805.45087,1159.1912,-737.2404,3218.29565429688
90,923.63135,2119.5566,-1043.5277,71.81521,-504.4739,222.48433,2929.16015625
91,2062.3884,2064.307,2182.802,318.39444,113.46139,-182.32985,675.832885742188
92,6323.2163,2996.1707,4107.451,-107.59692,282.75964,-311.80078,3028.72021484375
93,629.6636,1630.8064,-2297.886,923.3267,102.9587,625.6344,4033.28442382813
94,998.99725,3327.3652,3563.4924,-749.05316,-407.5141,494.89844,2990.49536132813
95,408.56738,1689.5312,-1223.7913,1032.7227,-1114.8585,-439.46198,3728.82177734375
96,-648.5566,181.2854,-1204.1888,-1198.4675,-446.09375,-111.11461,2530.111328125
97,42.11057,2550.785,-875.64453,1032.191,506.7893,-4.7934303,3661.27026367188
98,1395.4391,1288.3824,-322.48267,1817.3756,514.35077,-470.66913,3761.06665039063
99,-9921.385,7279.744,32115.16,3229.4324,2104.037,6551.921,38900.1953125
100,-13048.855,-2648.3345,-33976.176,2559.3235,6843.7305,2455.3953,30692.439453125
101,-978.6574,2822.3477,4216.523,179.92389,480.5924,627.80865,4864.47216796875
102,1547.4672,1003.5538,7459.14,-1094.8497,-425.76468,-687.76624,6634.6171875
103,-1275.9781,1655.0314,2926.2913,-534.55133,820.7422,312.7125,4135.7529296875
104,4094.0876,1537.8655,7685.2217,657.65546,-158.27734,-698.0942,5607.57958984375
105,2206.303,675.5585,327.53064,403.5521,436.00717,1010.93506,2668.685546875
106,1602.3071,3200.1365,1768.5828,-56.4135,-1.8870025,-897.47174,2177.37255859375
107,1450.8921,2795.3567,6959.9185,581.01074,-277.84964,-799.0178,5282.97998046875
108,1948.0912,-2097.1372,-3834.105,-1230.0938,1453.2584,-1376.8108,6555.109375
109,-378.4874,-4443.569,-4801.744,325.36285,370.02698,953.40735,4643.75830078125
110,-3705.772,-6290.845,1298.5139,4768.8457,657.58075,4754.668,13490.9384765625
111,-37.37578,3291.197,809.8496,307.9705,497.35925,-753.4262,3421.50903320313
112,1853.061,1408.2362,-680.7225,226.29164,-473.11356,-214.30338,2540.42309570313
113,7283.6104,797.133,5550.902,1615.2933,-486.72437,-362.4677,6539.8671875
114,1437.9531,1572.7896,-1163.5005,533.71857,191.06349,579.7058,3018.07397460938
115,372.81656,1300.3096,80.04243,2180.9304,-4931.3716,2347.6902,10245.8330078125
116,-1228.4404,-3377.18,-5843.4155,3224.434,-160.41705,1357.6469,7266.11572265625
117,703.19556,2729.1094,23114.48,8517.94,-4005.4165,-14145.917,36429.16015625
118,25464.176,-19659.11,4255.9053,1010.35986,4343.697,-700.1718,39875.4453125
119,7814.1304,-7731.222,13649.86,-7396.943,11254.914,4963.732,31376.9296875
120,1434.4402,2086.039,1459.7981,-552.996,-586.96735,-808.14905,2078.22534179688
121,-1814.3801,291.3895,-1880.8413,322.16095,-1062.8555,-93.0807,2881.83544921875
122,1702.5658,2142.7314,3727.4934,-355.9957,1484.9263,78.65195,3227.46801757813
123,2878.5273,2986.918,559.0941,-707.1391,-1408.2637,44.16458,3619.18920898438
124,1946.397,-514.3598,-4745.6436,-147.96709,-814.55786,1265.3931,6421.14453125
125,-1499.8772,-3494.3633,-4279.391,11273.037,17939.697,-8172.792,39411.74609375
126,2263.489,5191.6265,10290.24,-342.37094,382.65442,-631.0435,7175.29541015625
127,-186.2723,3219.4453,-15634.733,1037.5165,-3413.0525,-616.941,18498.240234375
128,2005.8041,972.22687,861.1748,1086.5306,-988.51874,2081.364,4545.8525390625
129,1148.3359,-888.0203,-5725.587,-1345.842,-702.4131,956.3585,6859.86083984375
130,1982.56,4586.364,-2431.9985,-277.31384,1438.9408,-2933.3887,8367.76171875
131,970.155,2100.8906,1213.5781,-1635.1943,440.63083,-67.274925,3111.30151367188
132,2037.8121,1245.4104,203.3817,502.33362,-277.9714,-281.51907,1940.62109375
133,-3549.0405,-7975.4263,-12941.168,349.6618,-4201.8965,-21895.445,39468.94921875
134,3830.3464,649.7308,1678.455,181.11314,-947.0761,160.24936,3281.60302734375
135,-23112.363,-23916.584,-43998.38,-3966.9937,-9068.385,-6069.3145,28714.162109375
136,4059.4292,-660.8765,4716.707,-1866.2694,-1564.8485,-1302.7943,6978.73974609375
137,-15687.105,9679.265,-6344.591,-8648.274,6710.1567,2005.8635,29415.583984375
138,-3110.5557,5298.292,5478.5815,-8126.726,1994.9966,-3869.323,18089.8671875
139,10013.773,-4344.0938,-2592.2273,3142.2769,3279.0159,3025.1665,16534.71484375
140,241.11913,3708.7988,435.67816,3409.5247,55.60393,-2465.8054,8031.962890625
141,1808.1965,480.4097,-1038.3212,-687.0085,-1260.1672,313.98257,3544.2734375
142,411.82938,-3.0564938,2026.6501,-648.8867,1239.0641,-350.5627,3112.46313476563
143,1007.95935,1029.0514,3137.6255,-657.2661,669.28217,-219.86635,2697.37646484375
144,2844.3882,300.0141,3031.2703,321.48364,1418.1044,183.19585,3664.431640625
145,619.38135,-783.2036,-4235.6475,-2484.045,389.94165,1557.9377,6706.5693359375
146,347.15237,1241.3776,-3129.757,-384.33875,344.51627,456.02103,4173.8193359375
147,883.34827,2251.5889,7369.7124,1682.349,-539.0008,1532.6273,7174.9140625
148,-1377.5634,142.85464,-6118.353,2180.942,-45.45667,-583.5581,6876.923828125
149,17665.328,25148.37,34311.23,556.8332,-498.31015,3500.5874,15714.8798828125
150,13830.552,-6564.7485,13567.085,5271.6147,-5188.7046,-937.53253,24029.95703125
151,754.5817,2407.0461,787.9966,489.63034,-1672.9381,427.7465,3512.9501953125
152,-1899.2845,4446.8867,-4346.8154,632.7677,-2941.6238,750.50934,9520.880859375
153,3440.3647,932.5962,1309.2366,1732.8961,1296.2904,364.9361,4464.93701171875
154,2163.541,3870.1646,2115.3757,61.775517,1672.0713,534.39343,3500.38989257813
155,3983.77,3981.9285,11909.903,981.18036,110.74178,-158.39365,8114.08642578125
156,2415.4404,-1587.7738,1385.2039,970.5563,340.5939,798.4706,4248.466796875
157,2987.5366,2255.2065,-503.87064,401.1843,115.29187,-155.14575,3280.89990234375
158,1517.0387,345.05923,-3897.0469,-1350.3867,-501.46884,-449.5264,5583.1826171875
159,4339.214,-397.0827,-2104.1978,1286.8472,-359.10324,56.024162,6228.67236328125
160,2551.5662,-3154.3835,1570.1462,1382.1283,570.7473,387.56097,5922.82177734375
161,-1129.0922,-2970.2861,-2162.6177,-1665.093,-1762.5085,172.0182,4503.435546875
162,4953.1206,900.57916,2831.4463,871.19116,-327.15213,-1328.2227,4496.32666015625
163,5748.551,1734.6887,17249.826,894.46423,2816.3225,-2286.8628,15376.5859375
164,-1169.1849,416.2303,890.46155,-137.21237,218.03131,523.91534,2124.34619140625
165,-976.1073,5258.0117,545.03864,-474.91632,-1119.2242,431.6225,6057.11474609375
166,-1789.9421,2348.071,4315.7285,-311.40717,-3586.608,3132.3247,9871.8583984375
167,-2960.2158,-2594.1387,-11286.017,2873.8313,-1065.9558,2373.1223,10843.5
168,5967.6865,-1361.398,-975.8114,-4516.935,-6293.869,2219.2295,15679.9091796875
169,-4825.7183,113.28569,-22922.34,-2681.3179,5344.504,-51.652336,23420.681640625
170,3783.1663,-3156.1157,1229.2078,-730.6367,3193.919,-1921.6115,8957.47265625
171,-575.99976,-296.3438,-3015.8093,2482.6907,1473.961,-4034.1714,8974.7275390625
172,11365.43,9246.474,24278.826,-7746.582,-539.48535,1085.2505,19571.50390625
173,6627.7554,1775.4944,16042.548,-221.72441,1507.3296,-1519.4457,13105.5537109375
174,-4446.6426,-15650.608,-6998.218,8.147859,-1430.4672,2351.5718,11232.99609375
175,3784.9507,1935.8564,3768.6924,929.7803,453.51477,-1475.209,3623.33764648438
176,-1596.1729,1794.3003,1563.8822,136.29326,1065.5443,234.2274,3793.8955078125
177,2450.7312,-32.541794,-846.385,48.2933,-384.90854,650.1393,3251.07446289063
178,3256.2925,-6153.585,412.5137,540.6485,-92.56468,-1447.867,8778.6572265625
179,2058.514,7932.6387,3967.3696,-2280.254,2561.1506,1071.0079,8102.7490234375
180,-4683.5645,16883.658,-10798.5625,9450.212,90.341515,-9679.529,34401.2421875
181,5100.661,2137.5647,7323.0063,1573.1716,2817.076,509.28558,7232.859375
182,945.3784,4051.4656,-97.78679,3343.9407,-180.41031,205.99289,6909.91259765625
183,-1921.4288,484.19513,-3181.6375,2532.3218,-2705.769,1469.8132,7621.63427734375
184,49.152332,1726.7426,-7146.583,1826.7589,-262.2725,-629.6307,8835.7919921875
185,1302.8008,2724.6355,-832.01276,-1156.4456,-805.9677,153.36914,3955.47875976563
186,1826.5992,348.5168,2041.4899,-121.016266,-240.8178,-1207.4886,2672.17749023438
187,2279.4612,1678.4991,4528.3667,-1219.2208,304.8596,165.94124,3404.57983398438
188,-16277.831,-3029.0398,-1818.9276,7207.9727,-4163.0205,-11570.581,28328.76953125
189,-9476.927,-12204.303,-3109.2688,3523.9573,-7007.0073,-686.73303,15852.97265625
190,-835.3889,-463.51123,-302.87546,759.55743,-17.009712,-74.40103,1404.3115234375
191,1947.5605,-244.55045,-329.22012,-156.87383,-209.19528,57.384808,2283.22583007813
192,-1872.301,77.79074,-2372.7478,1251.1522,-350.54373,1700.2054,4331.986328125
193,1708.678,-5031.5825,-13621.258,3594.0774,-1336.1339,-904.2596,14955.6435546875
194,3189.1428,-8417.642,-4793.6577,-4695.9326,3458.933,242.48111,14422.630859375
195,-1735.8307,-3015.2656,-3741.4753,1189.5189,-287.43683,-281.8132,2797.22241210938
196,-3607.6572,-6930.8496,-14273.18,2562.3005,-1652.7802,-742.6855,10904.09765625
197,2726.5403,-4010.4846,-7802.3545,1343.7864,829.1282,530.7637,9676.59375
198,1347.0667,109.04052,2894.3792,534.55524,-86.660934,-216.21645,2619.64208984375
199,3872.2073,-3494.7305,-1041.8604,-944.94934,-1117.0024,-484.68408,7024.58740234375
200,1875.8268,-9015.469,-3504.2095,-1017.1331,-718.6543,-1741.7539,10135.2724609375
201,1783.5621,19.999014,2414.6616,-287.56595,250.61041,312.97995,2313.39453125
202,1640.1188,679.0534,6488.003,-1476.1364,-105.58268,1036.5767,6235.27197265625
203,1995.0073,-3062.078,-1235.0065,-854.94653,282.9134,-402.6387,4753.095703125
204,783.0434,-2453.94,-3661.2915,1646.4551,161.55296,54.226204,4905.4560546875
205,-4341.8086,-3026.7717,-542.4834,1360.6146,-546.7038,74.52235,4199.41357421875
206,2432.7195,-538.06305,1901.9323,-1423.2606,-425.6236,333.84177,3805.95068359375
207,-366.76843,-5269.54,959.217,1193.1007,-871.94104,193.0641,6241.7578125
208,4076.8997,-6841.008,-3892.44,-1778.2878,1227.9918,-223.86487,10481.58984375
209,-2016.4904,-4411.612,-2092.9243,628.548,995.5021,-923.309,3503.59399414063
210,-461.8941,-4061.2136,-197.83546,-106.32784,498.17636,-886.2139,4136.404296875
211,2346.7056,-3229.8394,2866.8154,1438.0918,52.08874,1086.2451,6634.8349609375
212,3307.379,-2541.436,-516.19904,-874.4475,-375.21866,72.964516,5403.4521484375
213,2313.3064,-2519.9004,-156.06291,-386.8195,-1117.7268,266.84406,4683.28369140625
214,4542.9893,-2155.3228,-3381.6433,701.66113,-749.3552,-865.2716,7745.52734375
215,-1053.6757,-1510.2943,-3709.181,444.45175,-2025.2262,-1639.5906,5197.08203125
216,-2973.7185,1582.2307,-1658.2937,-5416.612,-2260.0442,-2613.8613,11846.234375
217,-11798.246,-2264.3845,-5909.8916,-1500.9283,-3203.8975,4544.901,12998.080078125
218,-11586.266,-1487.3542,2583.0637,684.1188,-134.67372,-7634.7983,18330.083984375
219,-8002.118,4767.894,-3959.408,206.40205,748.10254,-1394.2208,11637.4228515625
220,-3133.2317,1199.7867,1622.6956,-2084.2441,1171.1476,579.1167,6240.150390625
221,-2992.5562,4025.5518,354.78702,-1076.2969,-299.8996,950.2937,6589.443359375
222,-209.50102,3341.686,976.4478,-358.67224,-1152.9929,1051.2386,4182.73828125
223,-2777.5017,1590.8031,-715.2045,-17.932768,-526.025,-24.751158,3893.49731445313
224,1054.9435,156.1867,4324.622,-330.61084,-602.6017,14.5878,3981.85180664063
225,-1116.9551,3215.1096,132.97194,-89.53126,246.852,555.55426,4005.88500976563
226,-1377.302,3472.293,254.71194,645.3181,224.6327,-201.15482,4448.5400390625
227,-5472.7793,-255.54752,-7234.623,-446.82587,574.87836,219.63225,6422.6689453125
228,48.82773,-36.49591,6777.721,983.49817,234.10808,-406.99158,7030.119140625
229,-636.2821,32.17238,-1532.7006,101.065834,-3.5077088,687.1709,1815.73791503906
230,571.0271,-1730.8402,3997.903,-663.44464,-265.83936,1423.2789,5704.37890625
231,450.70084,1295.1335,-1209.3191,-704.8209,-268.8601,-279.23434,2609.90380859375
232,1185.9772,176.10503,514.6989,505.49313,-416.8864,251.33086,1506.65368652344
233,-280.04697,2320.725,-595.70013,-5.407629,159.53766,404.5674,2872.64038085938
234,-2627.4963,-195.07564,-2201.5437,587.1169,-315.82013,-886.68555,2958.71411132813
235,1038.4023,609.6096,2032.4071,1333.7062,-63.38151,-118.10402,2643.54760742188
236,-341.0003,-383.1492,-1894.909,-87.55879,725.9047,691.6814,2321.63647460938
237,-3371.504,2274.1155,-7998.189,2433.835,-2622.7751,121.99848,10855.9619140625
238,1194.7244,10.515585,-253.83194,176.97876,-935.04016,306.51608,2187.234375
239,-1704.293,4584.0566,3402.67,-1756.6051,258.18622,-743.788,6680.3193359375
240,-1774.6532,677.1778,-2269.7793,4009.2236,1079.0608,190.46669,7700.27001953125
241,8790.144,5312.8877,6113.487,1071.1443,1174.4475,-1154.6343,4639.822265625
242,1635.062,206.5262,2557.2612,6015.3335,-1688.0548,-383.83838,11034.1220703125
243,1729.8129,-260.26627,-1236.4829,-777.68854,443.42822,-717.8498,3287.30444335938
244,56.61459,-350.80093,-3376.5156,-9.555673,-654.2745,1038.1655,3882.20581054688
245,1267.1156,495.55347,599.0011,-9.661199,307.62744,62.934612,906.785278320313
246,1150.3673,425.6321,2302.2961,14.062776,415.58054,-977.42676,2464.10815429688
247,655.01,88.768074,-5391.019,-1447.6519,-1790.2971,-60.1539,7026.02392578125
248,1174.6696,363.96906,-1065.649,-372.91998,-689.50616,190.98225,2411.00024414063
249,1441.6588,2589.451,-1041.0538,-367.66763,515.9158,-1016.8852,3825.8515625
250,658.0902,3780.735,1820.4586,-425.58008,-2179.7207,-1532.929,5414.689453125
251,5432.028,-3570.45,-1072.6067,-2858.3677,-5265.382,4103.629,14933.1806640625
252,4123.2935,-4392.9585,-10648.337,-516.6361,-348.7506,-1999.1252,13344.8046875
253,2512.1,-16073.521,-27366.117,-5057.125,-221.82599,14180.923,36918.76171875
254,-3492.9343,-18289.39,-28422.99,-8099.2334,-15476.907,-6876.9346,39100.37890625
255,-4245.247,-11669.268,-20226.498,-3991.7117,-8328.784,-5851.394,23462.62890625
256,-34936.965,-40011.566,-53147.562,290.99496,-17324.744,11542.911,39564.83984375
257,7326.776,-5552.152,-8930.163,-3069.5818,-18457.137,2756.1218,35969.93359375
258,-13024.854,10302.904,11059.821,4814.888,11920.883,72.80195,32531.5546875
259,3816.6323,-8269.1045,-22993.484,-1941.8441,-4983.1465,-2655.1892,25451.62109375
260,4997.493,-8099.1436,-5066.764,3100.584,-909.0732,4196.8184,15005.439453125
261,-7211.3276,2871.8608,-5728.2705,-13881.424,-2084.1582,1825.8434,26268.42578125
262,-9571.625,5046.623,8448.236,-3276.5938,-658.4711,-10553.559,25350.177734375
263,-1598.0374,-8660.669,-1992.6543,-5331.708,-6026.7573,657.0537,15581.763671875
264,-18532.006,4080.472,-21842.35,-6688.6694,13462.488,10246.941,39875.65234375
265,-3913.0063,3091.541,2293.273,-2711.8901,-1432.1987,866.20044,8635.7939453125
266,-2209.7146,8038.018,412.78305,-860.0997,9152.748,-3589.504,19421.900390625
267,1271.2118,14349.064,-17283.38,9848.679,-9916.887,-14.256892,36660.3515625
268,1307.9633,-225.93655,97.728546,-294.91492,-1955.7463,3088.6213,6505.04736328125
269,-775.91766,10015.962,3213.1782,4247.446,7076.3574,-1953.4187,17467.74609375
270,1323.8821,-1225.1411,6362.932,865.05365,705.63385,2898.5928,8583.6142578125
271,-2168.9246,1395.2501,-2252.3474,801.7414,-900.9193,61.95343,4169.23046875
272,-2908.8887,2889.796,1962.8284,365.26978,820.13464,576.38763,5702.9482421875
273,-656.4387,497.20206,832.6289,-1310.289,-71.139755,210.44733,2670.0146484375
274,-2227.534,833.08514,-2025.2509,36.174667,-1475.9644,886.7815,4205.67236328125
275,-1143.563,1567.9194,910.1363,1560.486,1397.9941,-1091.3805,4768.97216796875
276,-1812.8596,2169.4382,3140.1226,1905.1714,950.00055,625.8828,5952.99951171875
277,-5170.899,-2761.288,-2119.2827,1362.4247,317.5447,614.2637,3842.97338867188
278,-1145.9214,-528.5311,1123.2583,2048.1633,-1037.7612,777.48846,4664.6123046875
279,2626.247,-5282.8477,-6446.2603,996.988,-76.71741,-610.31604,8787.828125
280,2413.591,2102.3662,2159.922,-1314.0748,-461.2966,-74.47825,2432.62475585938
281,-572.1355,-250.28499,-2272.1543,436.99036,1722.06,-4006.0483,7820.193359375
282,-2374.2832,314.9595,-1282.0874,701.5144,-722.6083,5.587756,2920.73413085938
283,165.21921,-716.0839,-814.7459,906.9222,143.3092,55.249443,1847.07165527344
284,952.2809,597.9869,1434.9059,225.13866,-71.52674,-624.038,1365.69519042969
285,1523.943,3323.0437,8859.712,-100.91239,1841.2257,386.19742,7382.466796875
286,3919.7522,3355.7905,3028.822,-3620.1787,-1990.5038,483.75888,7246.71142578125
287,165.03384,2611.456,572.67865,595.04553,5.6609664,-54.208527,2495.00170898438
288,-63.780552,-158.0632,229.18913,-643.60297,695.2748,-22.965483,1678.33850097656
289,797.47095,695.08405,6130.4985,702.58795,-54.42785,591.27765,5615.7197265625
290,-5802.297,-3621.9377,-15538.338,-2640.3772,-133.51938,1856.4409,12332.068359375
291,2788.423,-5232.935,-7144.3594,-971.7887,513.3417,-1443.6194,9654.208984375
292,-2265.5476,-5903.831,-2187.2017,798.4585,1155.0281,-1071.0804,4783.806640625
293,-84.48938,-3554.5857,-201.11324,680.27826,-201.39949,-48.353836,3628.70629882813
294,-597.2704,-2704.2827,-2557.1,280.57907,-1781.8613,737.43463,3942.55517578125
295,4318.1494,-3768.5623,-744.18414,-1000.93353,2053.4138,-497.60568,8153.677734375
296,638.0856,-2045.336,1127.8367,472.7641,255.96367,-2.2260852,3101.9189453125
297,1139.1024,167.70299,-510.5879,-117.909744,-427.49402,-36.14653,1629.86743164063
298,2058.0127,233.79634,360.04056,-752.64246,689.33777,-97.466774,2503.373046875
299,2272.6516,2126.908,3898.8516,-1479.3173,2473.8352,279.00726,5297.2666015625
300,1047.0042,431.56195,-1245.4712,-146.56532,-866.70013,1442.0314,3574.86254882813
301,-2179.6538,-5110.3955,431.12958,3367.6318,4835.812,3295.802,12642.0712890625
302,-7789.309,1135.5558,-365.23575,3349.2314,-2587.1824,488.29483,11088.693359375
303,-2129.92,383.48676,-2161.3745,260.03983,-559.90906,-370.45636,2819.98779296875
304,-7463.3354,-1679.3351,-11947.949,-1423.4144,2093.8057,-78.16067,9937.5126953125
305,-942.6212,4121.566,-561.9577,1582.4656,-189.62605,-16.549759,5611.0986328125
306,3642.0183,1737.6704,7422.689,-607.10266,-2170.8274,-3167.51,8394.181640625
307,548.59796,1378.2101,2859.6316,-2553.583,2038.4025,-418.7757,6055.212890625
308,-1099.8783,2085.138,2955.9492,-849.60236,1889.2512,89.25441,5154.9365234375
309,-3636.8826,3459.5073,-2691.5142,1071.1053,-911.48846,-215.12512,7114.55078125
310,2131.3809,1483.1028,3035.7593,754.62634,-63.87633,337.56375,1971.52844238281
311,4866.9727,-10923.105,18967.482,-1011.55566,2016.2617,-319.55563,26198.685546875
312,-853.17645,-1587.0675,-2844.5312,1641.805,1297.7017,-1248.1346,4566.708984375
313,-4954.9824,-4524.207,-18261.809,-2533.7576,-3585.603,21070.754,39657.8984375
314,-3659.2559,1078.2545,-11407.53,-527.2701,2853.8423,-254.9853,12027.037109375
315,5004.2153,-2096.9404,6657.35,5795.5586,731.2339,-808.4631,13008.7998046875
316,-3206.3015,-713.3074,1450.2959,-2271.259,975.73737,4047.502,9152.53515625
317,7044.7554,1444.7352,15911.064,1744.181,-1149.7561,-444.30264,13164.638671875
318,-1847.2216,-678.3271,1197.2043,1472.195,94.636696,-259.9363,3715.89477539063
319,-938.8559,-2949.0178,-1657.1115,236.19186,-144.15794,361.73273,1932.63757324219
320,2998.639,719.0127,4683.3794,200.84328,871.886,-50.190586,3779.51733398438
321,7201.4414,901.86523,18341.648,-238.01337,-1471.1404,-96.03478,15513.150390625
322,-308.79358,-2782.5686,1745.9954,908.49,110.2322,-430.95697,4300.5224609375
323,-1121.0297,-1629.4221,-2852.3252,-452.52795,-74.69693,-468.01834,1914.12548828125
324,126.176544,-2733.571,1913.3221,-1017.64453,-564.85364,314.356,4565.443359375
325,5100.9453,258.9545,5483.3086,-1279.7172,-1664.0662,-491.66626,6275.990234375
326,1869.6196,2452.5208,6947.6025,-248.36804,-124.75989,3429.8806,7660.92138671875
327,3904.96,1209.1187,5003.4087,-1487.8837,-128.18916,-1558.1157,5040.759765625
328,-9001.958,-5866.542,1839.9382,-119.04517,2377.222,20227.035,36575.65625
329,-1525.5737,5032.3877,2738.9497,-1780.5887,-449.7884,761.2791,6714.423828125
330,-3496.3916,1562.3839,-823.61475,-1113.9161,325.91647,-205.01999,4835.40673828125
331,1222.3999,-1215.3984,-9712.277,-1924.4983,1483.6584,1366.2478,11052.97265625
332,4098.77,2848.5784,6643.216,-683.22406,-70.4841,-257.34964,3582.20654296875
333,-523.1409,3652.4453,-3213.0571,-31.923735,22.056349,-490.65457,6052.26318359375
334,2678.855,-476.43652,-1046.7052,117.73719,336.0361,920.26764,3873.171875
335,1103.9583,1206.5076,1293.9819,14.593171,-143.6497,291.27264,586.687683105469
336,5675.53,1705.3762,1887.4446,-716.1008,-2110.0364,435.46008,5525.98095703125
337,-13529.236,-19079.73,-29708.861,2046.7516,-21543.123,-889.4321,40125.3359375
338,-14856.875,-19963.217,-33222.2,3502.523,-15009.049,-14383.853,40036.02734375
339,-2406.0552,-9739.415,-17549.705,-2354.2214,-2894.6172,20390.943,38225.51171875
340,-13502.902,17498.113,-25680.723,150.65724,4021.4905,3583.9255,39673.7421875
341,1292.7672,-1887.0829,-1720.3159,-1329.3787,56.816147,1666.2723,4821.802734375
342,-2605.751,-372.41617,-1671.7114,1222.3165,113.344345,-391.64795,2958.89672851563
343,-3168.281,-415.6532,498.889,2706.3193,-106.51891,235.31104,5753.5546875
344,-1348.1354,482.80188,-3856.203,76.90573,-765.3557,1574.7712,4842.47998046875
345,-859.7614,-1198.3636,-2251.1575,-739.977,-2085.32,738.973,4231.56298828125
346,-210.4903,1496.6847,1037.6603,1076.8232,-288.9484,258.95956,2504.35864257813
347,-1337.15,1489.7279,-1113.0485,1496.9962,558.0618,-481.9986,3970.16528320313
348,2443.8188,-2381.422,3161.5122,-179.60188,-868.27966,545.7402,5523.8642578125
349,1194.3646,-1266.6337,-4013.8262,910.111,-375.15585,223.34814,4839.5458984375
350,-2234.422,4908.91,-1404.4509,1293.6403,-3348.4014,-653.11444,9258.6640625
351,-126.224,1293.1292,644.8906,165.13045,-125.55111,-101.85882,1294.185546875
352,-49.965668,107.85129,-146.3689,867.5688,438.03003,-385.5946,1824.58239746094
353,-2637.0325,-7449.3037,3946.2053,2122.8503,4772.8823,-429.83673,13438.462890625
354,-688.31836,600.78503,-1811.0881,1242.8572,-442.985,23.15452,3097.44458007813
355,-415.76205,-404.84412,315.14465,524.75146,199.36823,128.25629,1233.30786132813
356,1195.3359,1680.3464,349.29318,-520.8542,-104.566635,-128.10176,1502.41906738281
357,204.33537,41.132664,886.36334,66.92325,-958.748,376.15234,1949.00158691406
358,523.03595,-1232.6471,-13.355381,-216.61734,161.70267,32.852898,1628.14489746094
359,-1388.5303,1981.5579,2411.8562,-1509.6729,-484.16846,-220.89262,4547.5009765625
360,-1378.6356,997.85834,-1889.111,-990.14966,1.4700907,-60.514618,3173.89868164063
361,-197.30273,-500.22318,399.28198,-110.13636,290.51758,104.41291,975.033020019531
362,554.80884,-565.8184,545.06396,-1851.0684,303.0187,648.78064,3614.21533203125
363,1303.802,-1504.3044,1314.6335,-358.74442,-244.89923,-123.829704,2920.27661132813
364,632.921,-1645.8428,596.8833,400.15506,-158.3178,-61.254063,2383.015625
365,-116.475975,-2487.1995,-1992.9314,279.58765,264.39844,-246.20634,2306.2822265625
366,826.6775,-1241.8384,1384.3683,168.97787,-16.625021,-50.798187,2416.11279296875
367,-337.9912,-233.68492,982.25995,-40.017757,109.484085,14.432019,1287.48669433594
368,-1177.9021,290.23895,-174.7251,-79.820656,-62.164433,110.965515,1325.38452148438
369,-823.0287,-889.19763,-57.96242,654.67255,-1.8960088,76.865944,1394.22119140625
370,-1340.7601,-505.71957,221.0871,-227.10579,-55.621464,-47.282562,1415.3349609375
371,-295.18878,-4.149073,-1591.8322,-837.8036,472.95428,32.170135,2218.84423828125
372,-1008.6445,-47.02943,-971.6486,846.3203,274.3831,-105.21111,1816.13244628906
373,-996.7123,-315.35873,-706.6033,122.86867,-85.27536,30.37222,648.546264648438
374,1472.6813,1368.6261,98.30776,193.13393,-57.59556,53.182655,1373.70251464844
375,-2284.1082,-2404.274,-68.479294,-1172.5409,796.411,-31.855162,3349.64282226563
376,1313.7406,-12.672763,254.24411,-20.232811,-0.34899014,-403.68854,1402.3896484375
377,1145.5624,-904.6083,-310.68976,207.1554,-91.49124,24.571878,1869.2158203125
378,251.39938,-455.74448,-68.12638,354.97433,266.6599,63.079117,989.685913085938
379,950.5997,-352.02893,1016.8361,219.95708,-359.53345,165.97678,1550.19067382813
380,-938.03143,-77.33343,-574.8603,202.86707,-53.26934,112.58617,854.469787597656
381,-764.46606,-532.81213,56.639626,671.00226,-81.18408,17.249928,1381.6884765625
382,-525.4177,304.6944,-181.25964,723.7681,221.99146,121.78698,1511.85278320313
383,-961.83234,1176.004,1266.5277,-912.10986,-142.35867,29.941801,2707.65283203125
384,-1268.9884,2209.6501,1030.4281,-1808.9027,365.27914,242.28516,4447.716796875
385,-3458.8035,-4050.3452,-2016.1597,-997.45123,-1079.5981,264.48062,3158.43310546875
386,-560.49506,915.44904,1585.0,-2372.271,-136.86668,-468.5876,4605.7421875
387,-252.89967,-1379.3875,555.8182,-492.97287,61.06398,-95.6784,1897.82153320313
388,-153.4667,-2149.0845,-2495.9402,-541.084,481.43018,235.57849,2556.388671875
389,-26.243746,-722.3812,312.05716,-107.16825,116.78549,61.20895,959.776123046875
390,-56.984066,-1468.607,-1420.8741,102.535194,98.52227,-30.517542,1411.0390625
391,-516.7609,1440.1791,1223.0337,-422.0536,187.49782,259.9146,2072.28051757813
392,-968.57715,-136.90762,999.6625,-8.311913,-78.57339,19.482716,1717.14404296875
393,217.55548,274.55045,1240.7412,599.09216,88.40336,341.44855,1562.62023925781
394,-557.301,276.7693,-348.08615,-1751.9496,448.97922,912.2158,3588.04760742188
395,976.3181,-1956.5835,159.04337,-93.06426,-295.8468,170.5674,2692.34130859375
396,1092.9086,-898.4742,91.68396,164.57155,182.24571,-171.51332,1800.93774414063
397,-909.6092,1303.716,-119.76391,146.20218,598.9567,144.38484,2231.00708007813
398,-353.90903,305.2863,-1252.2655,522.783,-205.58704,70.234955,1671.90856933594
399,-456.84915,1108.1198,1273.2573,133.46805,144.65924,-153.89148,1709.41552734375
400,1040.4084,-764.9079,748.3353,53.33945,24.398933,-163.7566,1705.27392578125
401,288.5034,-664.14923,-141.00092,-94.24056,-193.65962,55.498497,911.728454589844
402,235.60909,-389.2533,559.43463,-72.96877,110.23232,104.57235,884.813720703125
403,2734.842,-2782.1577,1314.2538,-1043.9353,-545.3405,-210.0397,5376.97998046875
404,-1392.3477,-1182.6516,-226.42291,-530.3486,-160.90715,150.93318,1465.84033203125
405,-2802.0676,-4389.7466,-2249.1301,-1610.0592,713.2761,167.7619,3618.27905273438
406,-510.05136,-50.86826,-1008.7171,-224.4091,138.43282,22.7947,947.957580566406
407,205.01778,142.86568,598.5691,-0.92274326,-61.97568,-108.81131,479.844543457031
408,-1398.5713,362.13486,776.2403,-520.8445,646.476,-1688.9149,3824.34545898438
409,588.43225,-905.39996,-216.31401,-520.816,181.7115,-250.69382,1666.83605957031
410,-2636.9194,-3180.4875,-1485.0292,-407.05768,-151.22916,330.42874,1772.48315429688
411,-225.96425,-379.2514,187.58919,721.8959,139.45107,167.77686,1401.46484375
412,-678.9802,-1274.816,360.50064,473.62018,-224.57896,136.7892,1713.26879882813
413,126.6662,-130.34929,-612.8285,351.08728,57.18435,35.501347,897.900756835938
414,222.30609,-136.32074,141.85751,549.63513,-166.52716,-241.68654,1127.36926269531
415,-956.6947,-2116.6108,-23.443287,366.80478,-343.42535,-109.818954,2022.99230957031
416,-4069.945,-3575.1177,-814.03326,565.827,758.1923,46.542675,3453.43994140625
417,-368.13782,175.56393,311.57382,814.1134,-69.32713,2.539285,1546.23388671875
418,578.8529,179.3754,1178.511,-464.95862,-16.775331,249.57278,1262.92736816406
419,-1851.2897,-3332.465,-1858.6218,-1027.36,206.9419,-209.29083,2368.4091796875
420,27.011312,865.73224,131.46532,-621.3719,-36.586807,24.56762,1338.24182128906
421,-318.30304,-70.01074,-280.82245,675.08356,-164.73395,71.350365,1231.92761230469
422,-493.27203,809.13525,-176.11818,-362.25418,-564.69824,-59.03096,1656.67700195313
423,-291.6742,-132.52925,-1142.0674,-12.587226,-257.41678,-40.463318,1043.07666015625
424,-1563.8434,176.2749,511.14313,93.315895,-73.240364,-31.604029,1941.15209960938
425,-183.38463,-1013.5234,-1574.84,67.441666,-328.76016,-42.138817,1346.62512207031
426,106.26981,-403.4479,-610.76404,818.69147,241.09613,121.45042,1624.150390625
427,-944.99603,190.46999,-891.7908,-608.7018,101.11102,-263.60617,1606.98156738281
428,-420.0037,-412.9948,-153.76344,-32.962624,94.166985,-169.15631,429.849273681641
429,225.29135,-35.156563,-830.9966,-382.35742,-81.46489,-302.80188,1281.42016601563
430,-169.96562,-1518.5349,-314.69495,544.4192,36.787323,-62.817913,1596.71008300781
431,544.4164,-379.62772,798.5614,-456.78415,-245.38928,-128.44518,1417.52807617188
432,1489.5294,-580.0777,-616.52515,-14.323994,218.60143,55.61117,2124.44970703125
433,157.9377,-183.51184,-21.066158,-407.941,221.01976,-56.187134,861.84521484375
434,387.47052,-63.81291,998.38995,-737.32794,36.742447,-108.67569,1588.400390625
435,-713.57715,-2072.0361,-207.99803,-884.417,-249.19292,182.94907,2328.32836914063
436,194.7922,-137.05951,1028.0364,-257.8802,-2.2135997,-42.21287,1133.93212890625
437,575.3588,-1199.032,48.743492,-1003.3442,-389.23734,89.662346,2447.4677734375
438,-1396.4651,-212.17293,301.46976,-53.939312,195.93916,-25.455044,1549.36389160156
439,394.6076,-124.387535,454.30588,300.23364,-101.74655,95.54087,795.465209960938
440,131.43854,-811.88464,-123.65149,-828.03766,-234.71762,-52.055054,1715.99609375
441,-476.18124,361.54492,314.21588,-335.0656,-138.01436,-79.661995,1037.96203613281
442,1817.0109,-1380.8676,1900.3688,-939.71735,650.4182,49.50443,3798.10913085938
443,-738.2122,-753.7518,-80.91049,-736.8456,-416.74057,184.38295,1641.44287109375
444,1033.0691,-192.4917,1229.8926,-895.82086,-194.58829,59.40824,2076.9267578125
445,-2207.9546,-1977.9274,-382.65906,-669.2957,4.555202,281.37564,2132.18139648438
446,-375.1382,-118.6417,-310.02286,874.478,30.459805,83.39084,1539.8408203125
447,420.74576,270.9286,803.3637,392.91376,-64.84342,-76.80299,848.303161621094
448,-900.19415,-1183.9463,-977.09045,510.4888,-13.780365,-255.43544,1021.13507080078
449,-90.66247,-91.85915,-279.9492,-324.2116,113.90034,-217.62305,729.344299316406
450,-473.10498,454.44965,-513.6347,-1459.8928,-49.677277,-209.42476,2726.2490234375
451,360.1801,281.8476,1234.9148,-242.2048,264.1379,160.11281,1141.0615234375
452,-1265.4543,-1143.2831,-1042.8345,-73.88551,98.878426,-112.47502,347.775207519531
453,286.23108,42.75316,47.901978,-306.52924,305.59808,195.78284,857.378723144531
454,453.4584,89.66682,274.05716,-229.47513,255.20084,-203.48761,759.503112792969
455,-344.47403,632.53284,27.292503,-73.74495,-12.335165,72.94177,873.079162597656
456,171.36693,-686.3533,-1997.8334,-375.41833,74.93478,18.701902,2005.3076171875
457,431.13544,-102.26222,-481.6817,-379.77502,11.870006,-28.837412,1032.69470214844
458,-362.78403,-585.447,176.04364,-515.9497,32.83191,-31.014963,1124.55456542969
459,220.74605,117.3417,594.9605,70.00361,-1.0759753,-79.21242,472.179138183594
460,-188.64374,3.7363334,99.297195,-828.5574,64.84797,-22.46401,1462.25085449219
461,73.89871,573.403,-591.83,-321.30722,84.185455,44.266384,1167.08557128906
462,-1079.4246,303.526,-644.8938,303.59634,-249.84409,-9.338891,1401.59729003906
463,-629.41504,-120.84961,-157.00404,-63.014793,-451.6424,-20.795341,930.973449707031
464,409.14072,-941.1771,33.85692,801.39844,-608.95374,-116.03448,2130.03002929688
465,-1127.6886,-229.12102,-994.9133,654.0479,519.6893,-145.74652,1692.05151367188
466,-695.86035,130.48573,307.04495,1212.9021,-229.29222,-9.064003,2330.51196289063
467,-1920.2894,-1499.4578,796.79193,611.33167,-46.62695,64.13802,2748.86157226563
468,156.07664,66.103424,225.64899,210.62354,-22.402176,-25.476759,394.632415771484
469,342.94983,2970.8906,-385.3231,236.6014,324.89804,414.22076,3217.08959960938
470,928.7705,-1049.0096,446.9769,614.37164,74.12016,-61.003746,2085.87182617188
471,1203.3057,-1189.7178,688.828,1033.2921,-488.42535,-59.93832,2947.81713867188
472,-406.91443,31.081984,-13.37299,770.5496,1051.3749,8.434865,2296.07641601563
473,-1064.5116,1504.3241,1748.1987,-201.56833,-444.18787,293.07803,2873.38623046875
474,-554.3437,96.13136,-383.47968,-44.242107,110.057686,-94.81293,640.584289550781
475,1700.2952,2962.7944,-548.144,1823.525,-156.3505,82.505646,4422.38916015625
476,1418.122,-1138.1636,-88.514404,-721.98157,237.67302,86.94082,2590.18725585938
477,1279.9817,-767.02185,-42.719482,128.04138,-129.28763,176.59047,1850.69445800781
478,-1184.0729,-724.0746,-127.15264,-31.643305,-7.3302193,106.0874,937.777160644531
479,-2131.851,-1301.9244,-74.14611,346.4066,62.63175,-74.34343,1898.29553222656
480,90.06477,-667.1529,-438.21692,-338.74808,-98.82765,-1.7272947,908.843444824219
481,-2644.0881,-1398.0458,-109.45032,25.280167,57.861523,-95.66047,2204.123046875
482,-135.4213,-966.0653,-18.762829,783.8067,178.52103,-293.91284,1731.56079101563
483,268.48853,-847.1226,256.0158,309.3828,275.9178,-91.283455,1330.92907714844
484,-2776.2092,-2592.1172,-944.6783,-224.4231,10.563711,-183.95934,1817.74047851563
485,-3134.1682,-2597.5557,-430.85187,-29.062641,153.3185,-94.79128,2499.04956054688
486,497.8913,-180.63283,137.60036,785.0797,0.5797545,-74.91498,1487.15380859375
487,525.6016,-1223.5657,-129.11858,361.43735,218.60786,238.62866,1746.17846679688
488,451.71628,-306.3861,261.2433,-514.9988,148.23636,164.75546,1187.27734375
489,-444.07382,-1366.8413,-376.96457,2.2580395,-16.981012,-2.8532488,958.558532714844
490,17.744055,82.290886,-352.43835,-442.021,-20.013483,68.757065,875.572570800781
491,-391.10745,-184.06174,-627.6041,-141.0986,-262.03745,-6.320381,643.118469238281
492,-1570.5552,-270.65048,-147.92361,360.10736,-27.38229,-192.36557,1538.38952636719
493,28.517801,-451.7821,-271.46237,244.63416,-27.053446,-122.06757,634.846740722656
494,1727.9329,2088.8062,-381.99878,286.09753,-69.63336,-182.86166,2388.27880859375
495,-196.03307,-663.7438,-2069.7656,-569.0428,93.99923,39.987167,1963.6689453125
496,450.93335,2183.2915,1419.051,191.1968,-159.72041,-101.033936,1574.1708984375
497,-2186.5896,-1833.063,2.4512057,975.2401,-125.753334,-28.521465,2654.46020507813
498,-945.5981,168.6258,867.00665,625.5991,16.705,-401.43817,2041.02941894531
499,-164.06555,-292.57257,-830.6653,291.07962,43.49593,-51.523678,801.890441894531
500,-2293.1238,495.88028,-48.035652,-127.621826,-33.83369,190.99426,2592.1298828125
501,-258.16257,659.88525,408.31796,71.00292,47.26476,-18.179964,835.442932128906
502,-444.6499,-780.35046,268.6114,-631.6683,100.87004,-116.62136,1459.18432617188
503,-1946.7278,-1564.5316,-114.45534,-1120.082,471.66776,-492.83536,2821.84887695313
504,-1511.5667,2515.0095,225.67162,887.2886,107.75732,141.18304,3833.10131835938
505,-523.426,1760.2869,-1063.9823,-37.577625,134.94978,220.46959,2635.66137695313
506,108.39833,151.60707,788.39935,281.46655,-96.84638,77.867744,847.870544433594
507,-1425.5989,143.4247,-20.934454,434.17044,-6.5445776,17.056454,1672.56665039063
508,-76.6488,1885.2039,63.97173,-534.71014,101.50257,-94.55797,2123.26171875
509,-1111.3601,466.4206,325.2373,803.0617,0.61792636,102.7406,2062.27075195313
510,165.19672,1725.4658,-480.09088,-519.1776,-125.054245,61.921852,2173.640625
511,94.020645,-239.73596,-351.9452,223.94116,107.658066,-258.53973,739.718200683594
512,-1373.4854,-827.3606,78.79061,301.9532,-185.27536,-179.89044,1444.93029785156
513,96.0852,-178.6609,-1421.1992,-107.95716,-39.334072,0.56807286,1414.34655761719
514,-485.14224,-1067.7656,868.33966,462.0805,-86.19353,-186.7461,1930.64733886719
515,-1325.618,1072.524,-502.5671,-300.21243,-169.71883,162.42586,2211.48095703125
516,-162.67584,231.7687,-431.58374,-80.93976,-46.964684,414.81964,936.196533203125
517,-796.2959,329.9556,75.55709,381.39542,179.29404,173.17615,1292.068359375
518,-128.0305,-250.87054,-174.56354,-391.34494,-11.004547,-24.452032,687.85791015625
519,2207.1016,-1047.9785,-887.6618,-156.08504,72.238815,128.52043,3199.640625
520,1485.2837,-1325.4823,-894.7917,-249.48935,-191.19293,58.365448,2679.91577148438
521,-3145.577,-2492.6716,805.5461,746.37134,129.89023,102.34913,3900.15380859375
522,-2713.325,-1885.9983,-117.175804,-81.34581,-5.309145,-171.1375,2320.43017578125
523,-1092.2338,747.12463,118.16048,-174.03032,-141.90823,-146.6924,1684.56945800781
524,-720.32043,-450.90158,-114.10753,-85.79878,55.871597,-23.586315,556.662902832031
525,386.327,-75.06584,788.74615,-25.54003,212.82721,85.64303,848.731506347656
526,655.83966,-390.0228,464.23978,1450.5123,-25.482302,-24.69362,2691.818359375
527,-1129.7471,-331.25772,-123.50533,1051.0502,253.85582,19.013288,2086.90356445313
528,-1083.1832,-1347.3862,107.60629,43.87254,-18.467962,-98.25633,1355.78527832031
529,-897.5461,-924.17395,-318.89752,260.87546,-204.73964,-283.97116,960.621276855469
530,307.01297,2039.1267,165.53864,-434.72894,-77.05135,-60.37584,1964.94201660156
531,-406.46918,1460.4388,451.7201,-148.47946,-313.61377,-196.03401,1759.59118652344
532,-2329.206,2681.0383,-1167.6902,558.33124,104.45863,128.19583,4652.89453125
533,-1580.3613,2133.1868,681.1685,1554.2992,207.19473,235.60281,4248.4716796875
534,1675.4624,690.2935,1057.2595,793.32184,-174.22243,-43.371727,1651.81127929688
535,1767.5809,779.9553,1012.96924,769.9681,105.125305,165.02007,1641.02734375
536,735.0471,3581.8394,14.56843,-2204.6133,-29.864452,117.30598,5029.83935546875
537,-1685.6239,-52.33493,-358.52084,2019.3258,-85.75795,-26.153698,3810.30688476563
538,-1873.8186,-1062.1832,-1077.0184,1821.0431,-77.82804,-7.132559,3257.89038085938
539,695.7496,326.6309,911.7756,-532.18146,-28.220474,9.276331,1055.91369628906
540,4458.6733,496.72128,-678.7289,320.29828,77.73472,-41.895123,4697.5517578125
541,-1158.7941,-585.6918,-103.11243,-689.704,56.788033,-351.52893,1626.45739746094
542,3348.1113,-428.16998,-361.84705,947.93024,-74.36357,-17.277084,4089.919921875
543,4069.3987,-879.3215,242.36313,-2281.384,64.77954,110.80579,5988.3779296875
544,2956.1907,-1663.5692,56.64383,-2141.6052,-134.06334,166.67294,5500.0927734375
545,-13.046351,-1105.3113,-138.88628,699.02924,-44.736233,115.69121,1607.33032226563
546,3328.4888,1061.1345,105.02268,-411.83884,29.174667,-155.87245,2967.68676757813
547,3556.5254,944.5121,-98.66343,-483.29108,153.97319,53.264706,3378.75170898438
548,-1211.4467,-324.64883,-447.799,-906.2683,20.670904,8.555883,1777.02990722656
549,936.3921,1307.2448,383.38458,-381.67227,385.26306,-14.117782,1237.47131347656
550,-2673.8215,-2127.477,-375.25708,-119.08796,-129.53,-8.714885,2102.18701171875
551,1479.7014,2279.0312,591.2464,-165.5907,-41.47208,414.79584,1655.90954589844
552,2448.4692,550.074,419.9725,-710.74316,164.04918,216.32217,2367.3623046875
553,2648.1267,648.9118,703.977,226.04456,-13.061661,-97.24978,2017.91430664063
554,1173.0455,1448.5726,31.40865,-104.40285,-173.72916,114.971054,1362.60864257813
555,1784.3801,795.438,422.58282,-46.101295,136.56133,88.83137,1253.69689941406
556,-1265.9155,-3182.3625,323.7504,-454.1719,63.747475,-96.46655,3147.25952148438
557,-1973.0527,-3240.61,-181.94527,-500.354,-30.050812,-98.520996,2804.99365234375
558,1175.3392,-1391.6033,152.52168,393.45285,48.100674,206.4921,2368.35571289063
559,957.98444,-601.2147,-686.1355,141.83716,-236.9691,-408.8116,1816.84326171875
560,2397.6853,684.98083,1741.806,1594.7126,-77.38997,-219.25098,3167.2880859375
561,-606.4713,2052.672,23.726055,125.21195,8.135534,84.33529,2420.94555664063
562,662.892,-871.50226,-350.3312,10.684852,-88.81404,-91.85479,1369.53332519531
563,1029.6089,-881.017,-352.72534,-201.56155,-39.67583,-6.712187,1745.552734375
564,-168.78825,-1166.066,-1474.7216,-484.43,-18.735022,156.60822,1475.22717285156
565,-1419.4207,1286.7943,-856.8485,2506.1707,-31.041367,-365.8017,5036.33251953125
566,1443.408,3354.6858,243.50693,863.1318,-152.64221,57.409462,3114.62133789063
567,1007.2338,4287.2837,317.65726,-1851.5294,65.47804,4.0162945,4877.8564453125
568,1433.3273,1724.655,614.27167,-1261.1517,-67.96182,-393.077,2498.64624023438
569,-419.9067,132.94719,135.04843,-353.62866,19.45587,-101.49515,844.99267578125
570,-557.64233,-536.3449,-122.79756,50.33479,219.40431,194.88524,668.011047363281
571,71.45167,-647.5019,27.923254,195.25122,121.8673,110.2503,826.367614746094
572,-284.4324,-1177.5895,2157.6792,-408.67465,6.550024,125.392624,3080.7744140625
573,-787.5874,-1283.0709,-816.4827,-1022.91895,-127.93744,-388.74307,1968.14086914063
574,-490.96152,-1830.6216,-1116.9026,-448.03845,-171.59058,-180.76088,1461.68115234375
