Element Label,S11,S22,S33,S12,S13,S23,Mises
1,-3262.7524,-11860.085,-9725.624,7433.4087,-13281.532,1883.3568,27671.728515625
2,9982.988,6921.5977,20686.09,2287.2393,9278.25,-7565.5796,24543.044921875
3,-8916.71,6283.189,-5091.89,-840.91455,-11370.481,4551.122,25291.3515625
4,-32378.027,-61508.887,-50589.844,-2149.5806,-665.09106,-2768.9465,26228.642578125
5,30791.938,37295.125,38147.04,-5584.9497,-12242.749,-10975.092,30873.046875
6,63342.11,34121.504,26397.828,-5635.6743,4641.9873,-8239.369,38765.67578125
7,13563.179,-10979.452,-10882.936,410.0512,668.87384,-3135.2896,25126.041015625
8,23635.78,-1406.1075,-11604.713,3077.877,8084.35,9660.726,38613.1953125
9,18735.555,7673.8716,42713.98,2541.781,2879.0232,1419.1718,31825.4296875
10,18656.885,19558.63,26894.43,-4767.735,6608.4795,-2234.5276,16596.125
11,-43769.77,-30707.219,-4996.66,7485.817,-4512.005,-7269.0693,39436.1953125
12,-14866.773,-5064.7036,10667.807,5946.986,-5135.319,4568.099,27306.0546875
13,-33836.0,-15895.45,-41187.758,-1121.1423,-478.55685,-16108.618,35926.6875
14,48293.5,47117.45,45441.426,3327.35,-10200.444,1545.0548,18939.001953125
15,11935.729,11439.883,10965.815,10.081268,-175.75208,1033.6511,2000.98522949219
16,17268.287,9331.041,46946.484,1675.9843,470.43576,5329.8066,35688.5078125
17,-96800.08,-89813.89,-123639.72,-2533.5833,-1848.2412,10830.828,36580.125
18,-69332.234,-71231.03,-45223.77,10030.67,10775.803,4848.404,36760.28515625
19,61506.86,63456.06,62595.035,208.93837,429.85376,381.82904,1996.27197265625
20,20285.49,21179.85,21504.441,-340.45566,-656.7672,-621.37195,1998.90197753906
21,11034.835,-4048.3484,-4812.275,5566.5024,-4200.0825,11111.723,27493.626953125
22,51391.08,82059.43,62299.875,7993.2144,2015.6079,12173.513,37059.95703125
23,-51799.88,-70082.4,-87084.13,2735.5652,-3071.621,-2.30167,31383.09375
24,157229.19,172420.02,172999.53,-4738.8984,-1042.3977,16355.92,33362.85546875
25,64670.156,37987.293,74611.81,2237.6316,-3620.9385,1946.6194,33790.62109375
26,41371.305,14129.736,8203.339,-3525.6572,1621.1667,3793.9834,32047.2734375
27,-85699.26,-80859.875,-63092.184,241.87862,10415.241,-2624.3242,27773.43359375
28,1136.9835,28617.824,-1270.0779,6604.8564,-1839.6667,10879.944,36376.96875
29,-42324.75,-45080.695,-68979.44,-879.3839,-9442.154,2268.04,30493.0078125
30,32669.223,43489.22,53523.586,-11635.133,-3408.201,10916.874,33538.6875
31,-68598.85,-83662.875,-98704.11,5269.1606,-5343.1543,-8810.503,32887.078125
32,15972.596,5353.145,10605.357,-19540.734,-8609.726,6423.1562,39702.09765625
33,38439.426,22139.037,58178.105,9711.393,7073.031,-4150.651,38233.05859375
34,-18093.678,1985.6482,20209.295,-4055.1956,211.72063,-7257.5215,36175.71484375
35,-9642.087,17065.127,6552.5684,6810.0625,5470.601,-7434.7183,30622.97265625
36,-22657.908,-27277.504,-8801.161,95.682816,9917.616,-766.17377,23963.06640625
37,21204.291,28028.852,55562.176,-10876.747,1565.1906,-7935.0903,39290.1875
38,-32101.775,-21679.36,-33855.47,12203.97,-676.4491,-3113.7393,24642.431640625
39,-3763.6619,10300.435,-3889.74,5497.648,9354.216,-1292.8375,23617.337890625
40,5189.681,-19121.04,-37895.348,820.0682,-2523.9187,1124.7621,37746.8671875
41,9651.584,-10009.153,24167.465,2644.829,3192.3486,-7428.0137,33162.2265625
42,21177.102,-8482.46,11927.444,-4496.7485,-2806.873,7813.253,30957.125
43,66484.375,67178.57,66732.484,-555.10645,-333.32904,889.74896,2000.98547363281
44,2264.2834,2675.3784,3949.0178,182.14592,-279.33008,-650.5849,1979.42736816406
45,45246.37,45455.758,43639.03,98.12341,306.59796,-477.6817,1989.81677246094
46,69322.18,70817.31,71539.86,-112.28627,-202.54376,-41.833935,2000.98645019531
47,-101638.25,-102642.75,-102310.445,-260.28564,-60.45298,1000.6819,2000.98693847656
48,52626.41,54433.12,54685.61,174.96147,108.79844,-175.55963,2000.98413085938
49,7268.9565,7986.9536,7784.857,-605.99915,-617.8746,-668.25555,1999.49157714844
50,151757.64,150848.77,150931.08,-126.19562,967.34985,-359.67203,2000.29565429688
51,-30731.918,-32951.867,-52706.996,5979.651,2796.276,-5464.449,25677.91796875
52,16905.488,15777.514,15460.509,151.39871,837.5299,182.76624,2000.93383789063
53,17093.43,16453.463,15604.031,599.7058,336.99417,-550.63586,2000.98364257813
54,-7168.9995,-6530.84,-1609.2134,-10.890437,422.97388,3312.891,7825.16845703125
55,4182.0015,8216.542,9730.205,-1874.7587,342.36703,-644.54016,6067.76171875
56,-37679.31,-20753.13,-8761.198,194.48094,-832.6045,-5515.0366,26957.73828125
57,-43007.906,-43803.227,-51420.133,6749.3003,-967.06525,12220.156,25537.603515625
58,25511.76,38946.645,61089.895,2683.042,7618.9814,-7161.078,36302.859375
59,44009.926,10622.384,42787.64,104.51081,8288.597,3688.603,36364.33984375
60,26080.625,43622.67,16819.86,12285.832,4983.9805,-6677.167,34886.0546875
61,-36670.16,-36334.83,-67657.34,8987.066,-5307.058,946.8971,36058.22265625
62,-47584.406,-37486.23,-70448.13,-2510.4731,8192.968,61.74965,32800.88671875
63,17686.674,12655.292,16574.352,-823.15137,-14508.309,14932.289,36378.30859375
64,-96336.85,-72418.305,-102406.21,-13001.803,1879.6268,5164.5156,36767.65625
65,-56704.496,-21049.69,-28647.33,3704.6104,-426.05753,1537.6038,33270.20703125
66,58868.242,66267.86,76810.54,-6620.054,4094.2183,10755.499,27797.837890625
67,-6646.8433,-5676.498,-32038.291,12135.562,4406.296,-2727.2185,34535.2109375
68,-49915.195,-52073.61,-34466.29,2153.5798,-5615.8687,-10795.606,27107.8515625
69,4133.095,3756.6177,4366.5156,-58.32638,-767.7933,-804.3815,2000.97778320313
70,-3422.3284,-9635.882,-4644.8447,7195.874,7373.249,-119.863785,18734.619140625
71,8011.408,8240.249,9036.833,1019.2113,76.17432,15.271365,2000.92150878906
72,-269850.3,-268950.3,-270336.4,305.56558,621.12146,-600.7456,2000.98571777344
73,50617.668,51080.555,51482.547,467.04898,-815.2809,-514.1617,2000.86950683594
74,8431.48,8171.494,9117.425,-919.92914,17.866463,499.24167,2000.98522949219
75,20834.275,22165.8,20727.0,422.03293,615.94684,-176.05362,1921.66564941406
76,-2091646.5,-2090539.5,-2091026.2,-251.5346,884.7193,241.91876,1907.12084960938
77,-53910.094,-87877.77,-62521.582,-9423.841,6148.7427,716.79767,36288.25390625
78,-259.872,14071.37,21400.818,-2838.3406,1255.7639,-4665.439,21408.96484375
79,67624.414,54759.504,50632.234,11918.45,-4343.166,-12062.328,33983.4375
80,-57044.598,-41915.83,-22597.959,-4148.7134,6134.7183,-5600.8,33955.29296875
81,13530.034,12640.349,34299.656,-9817.234,8841.07,-4140.409,32026.615234375
82,77984.37,81298.45,106805.8,7967.09,-3279.9768,2257.7786,31370.8828125
83,15146.715,12959.355,-2080.638,-19323.148,-7001.012,-3641.8115,39634.1640625
84,-10492.917,-12911.327,13886.529,7086.6006,4596.142,-8662.894,33141.15625
85,616.5999,24462.871,-14305.131,-10066.819,6741.586,1476.1493,39925.390625
86,-2898.2876,-15084.835,-7989.0786,-19226.096,-3393.5198,-4085.7642,36137.8671875
87,-91585.664,-97330.84,-130597.15,6109.7393,1832.205,1151.2539,38168.1640625
88,12760.852,18324.934,29018.824,20380.914,220.34494,-5411.649,39229.6875
89,19974.1,26984.102,20036.22,-8750.917,4090.629,-688.302,18167.697265625
90,-9750.143,-253.96713,-23425.125,8360.395,4068.0857,8989.042,30146.10546875
91,-91849.39,-58098.094,-65243.363,-2271.6077,-7759.76,1437.9381,33931.8125
92,-12141.951,5583.489,11573.886,-4413.5693,17579.244,-3147.0989,38360.12890625
93,102306.805,72413.984,96126.87,-6069.6597,3377.764,7205.3994,32365.724609375
94,-74046.21,-68771.41,-97490.41,-1396.6171,10963.253,-3504.0605,33232.2578125
95,-5821.782,24420.096,9196.735,7949.498,463.71127,12637.2,36813.91015625
96,49411.953,47670.71,51137.95,1731.8152,6901.2827,15207.781,29235.7109375
97,38510.496,37110.934,36904.277,59.77325,389.19626,-645.0043,2000.98522949219
98,77852.1,78207.65,78640.984,-485.1754,-765.67926,-592.2892,1996.41271972656
99,50322.047,51993.73,76571.52,-9515.618,-131.55806,-4197.9746,31185.103515625
100,-128405.3,-147395.47,-110413.375,2205.616,-955.1633,7624.885,34896.32421875
101,149112.92,165307.16,174063.19,-10954.054,6952.7886,5335.511,32727.95703125
102,-170682.56,-153788.83,-172288.03,-13778.7,10512.613,-4400.8438,35697.3828125
103,70993.34,57974.934,35972.816,1129.8126,-7666.6094,9838.243,37557.12890625
104,-25144.209,-248.3323,-25388.502,-9141.87,7306.2075,-12018.717,38342.64453125
105,28625.344,4144.1226,13791.66,-11385.221,-4848.427,-9522.945,34462.625
106,-18573.078,-32470.594,-44703.074,13060.513,7647.9316,-3719.2656,35234.61328125
107,6382.2944,13613.235,4781.851,-7932.891,10741.542,-13877.971,34338.74609375
108,2361.7886,-2049.1987,31171.668,-14279.216,-928.1095,602.436,39898.70703125
109,24738.041,10106.915,35556.168,-12778.01,8090.1953,-2389.2576,34535.41796875
110,-43891.188,-46458.363,-42232.91,-10683.876,16332.613,-7853.8516,36624.37109375
111,-55109.297,-80483.0,-67364.63,-14005.784,-5386.47,-6723.1426,35974.78125
112,10923.041,-14434.301,1457.387,-17250.152,2941.2825,-4556.05,38386.18359375
113,49964.53,78860.18,48731.016,-9855.011,9968.32,-5831.258,39542.3828125
114,45032.76,44753.617,46052.59,115.076416,-675.10126,-630.94635,2000.98559570313
115,-55073.285,-51069.582,-40814.137,6318.888,-3911.4653,649.28516,18144.201171875
116,168083.05,165895.3,166927.08,127.51591,347.09747,1.7672895,2000.94067382813
117,75858.23,76703.05,77038.56,-185.38255,-314.3501,-911.86475,2000.94543457031
118,121156.3,122971.52,122884.38,-79.7581,524.34656,72.054344,2000.984375
119,193224.42,193155.92,192361.73,612.07355,-205.7891,-828.8205,2000.40185546875
120,22497.14,7199.4507,3630.1616,1041.2406,-6520.78,-1289.7078,20908.498046875
121,18670.031,42075.68,53036.64,7477.0376,9092.543,-132.71933,36610.23828125
122,-21229.871,10045.573,1644.8969,-6919.053,4846.864,10989.111,36910.265625
123,53476.426,33094.16,46654.035,-14207.971,3138.7068,542.1238,30967.103515625
124,25551.26,25337.559,50570.156,-3890.1091,14127.11,5532.5664,36976.8828125
125,-114465.67,-113481.14,-113153.234,-875.2301,234.17957,192.13663,1993.24133300781
126,271.1176,1146.6431,379.0162,1018.39594,-136.18707,-214.95366,1997.33959960938
127,79232.13,77394.32,77913.805,-656.5076,-50.751667,59.186005,2000.98645019531
128,-55182.723,-66634.15,-81417.52,10978.277,5035.6724,1339.3639,31016.08203125
129,16906.11,14452.833,38282.707,6266.5723,5026.4277,4789.1064,27889.630859375
130,87545.125,108444.36,71687.26,-3111.0007,7252.4453,-1065.2987,34783.625
131,-13891.092,-2446.2473,-33821.5,4221.1807,3967.283,-15080.268,39232.92578125
132,15079.595,39085.984,10560.448,8270.555,3681.887,-9675.73,35099.17578125
133,-115065.16,-127363.97,-139799.89,4877.9336,-5323.3564,12567.448,33001.203125
134,17312.594,3043.4292,13904.162,16824.62,4239.6987,9836.041,36877.671875
135,244228.95,245521.48,244774.89,-112.03584,561.7711,-765.182,2000.99230957031
136,17549.516,10936.334,7133.7183,20012.2,4357.6855,-3024.1538,37002.84765625
137,-89514.01,-89489.49,-91353.195,21.450945,102.91681,413.74405,1993.74230957031
138,-113893.57,-114154.61,-115448.4,-257.08966,399.39798,644.8097,2000.98498535156
139,65293.766,66054.55,67414.05,-203.96864,213.27586,-306.22906,2000.97680664063
140,4491.2197,4840.194,4859.344,-924.89185,602.4647,270.76648,2000.9853515625
141,-11573.917,9741.105,106.40672,-3992.9873,15893.014,901.4835,33909.10546875
142,-55900.855,-14757.045,-37691.734,-7572.46,3092.7334,4691.8096,39267.7109375
143,-101155.516,-96610.1,-89628.07,10394.31,4277.94,11135.711,29192.212890625
144,56179.22,50260.426,64367.305,6791.8022,15779.708,-6417.712,34051.20703125
145,1500.4686,-10870.756,-6489.9443,6493.028,-17229.773,-8943.717,37082.15625
146,-69984.625,-43973.49,-70996.89,-7895.623,10966.864,-3382.2886,35862.1328125
147,18380.98,20842.342,26912.172,10489.787,5171.965,7285.0493,25048.185546875
148,42121.113,62858.117,80655.23,169.25409,-3561.3,6101.1074,35575.61328125
149,29163.367,42276.65,66265.9,-4662.31,6506.1353,-8056.7715,38065.1484375
150,256153.9,255807.23,256731.73,-294.08612,1005.88336,146.12535,2003.32360839844
151,245111.33,245928.38,246347.28,645.0995,12.557554,722.8589,2000.45556640625
152,50349.09,53682.527,52742.9,-2261.77,-4332.5684,-3595.811,10923.0185546875
153,-127857.875,-131225.34,-117616.45,-2193.1736,2077.0007,1747.5331,13683.84765625
154,-53171.535,-31444.39,-52498.97,5465.7173,-5593.2524,12548.969,33373.84765625
155,-66621.766,-93010.52,-100041.125,5589.02,-2353.8103,5676.689,33739.171875
156,70079.12,72629.77,52563.645,-12346.202,11179.74,4528.449,35379.9375
157,26035.0,33270.68,30861.414,-17506.889,7456.5005,-7503.956,35998.98046875
158,43800.812,46643.832,60531.934,-3579.1567,8817.543,15516.794,35134.55859375
159,51509.184,30506.582,21444.21,5075.8022,12866.543,-965.0008,35920.71875
160,-34999.656,-69476.42,-58186.473,-7478.234,2000.7838,5596.532,34649.8828125
161,-56292.59,-82351.43,-55894.766,-733.43335,11026.046,5884.4424,34055.8828125
162,59193.18,38685.484,49541.27,8541.824,-7532.667,17342.771,40090.0625
163,-52363.83,-40225.945,-12056.363,371.17505,5740.104,1601.5459,37279.046875
164,-32197.678,-68682.87,-48496.58,-6770.657,76.98816,1453.1722,33853.109375
165,199.80762,386.17444,1457.4009,-631.4629,-631.0753,277.4757,2000.97033691406
166,27524.078,27086.682,26949.193,-341.16385,-1008.3983,333.5672,2000.98400878906
167,74607.8,73249.24,73995.02,-57.136982,489.9157,792.7613,2000.98315429688
168,110098.33,93318.77,130487.945,10312.409,2529.087,-5136.7915,38168.11328125
169,18807.648,2442.4795,-5591.369,18125.064,6711.1006,-1570.7108,39898.73046875
170,-23032.877,-53244.22,-41680.06,-15802.443,-1640.6783,-2587.3728,38397.875
171,30356.168,30724.559,30720.635,254.59251,-99.073044,1102.5573,2001.26892089844
172,133653.27,132840.6,131587.72,300.22806,-191.64198,353.34088,2000.86169433594
173,68290.06,35998.69,38781.297,-13233.638,164.00865,3079.437,38917.0703125
174,-63685.38,-79637.875,-79678.78,-2093.9375,-1090.4202,-12643.17,27411.79296875
175,29020.906,15369.13,10852.004,-546.0124,1539.7278,9830.152,23797.994140625
176,27148.18,26616.346,28739.205,-35.99149,-315.67023,121.46595,2001.86450195313
177,119405.24,119393.375,120862.9,-395.19565,679.47,50.6911,2000.87145996094
178,6268.455,-26187.717,-30628.223,-3465.6448,2796.3184,-8559.248,38684.82421875
179,-22862.076,-4309.6406,-40145.35,-12089.565,-2807.6565,1484.5164,37845.53125
180,52405.746,55610.492,65752.484,5176.9995,-1080.2769,-11450.12,24957.03515625
181,10154.853,41776.242,46780.94,-3609.6387,-8961.174,-2817.953,38562.078125
182,-59710.746,-28818.389,-35672.68,8314.885,6663.0273,-3026.5212,34024.30078125
183,110596.51,103300.69,116108.62,-13496.703,2744.2815,9406.558,30957.29296875
184,-11354.342,-9928.341,-23295.17,15475.815,-8309.301,9999.656,37245.9375
185,38232.652,33032.996,17627.51,13475.084,-5967.172,-14253.396,40068.7109375
186,36143.895,27556.486,36269.812,-6822.553,-13602.255,3161.0476,28275.83984375
187,-10205.312,-9709.675,-1708.3025,2615.897,2716.0957,506.52615,10567.08984375
188,103787.664,103787.52,104555.266,873.69476,0.28911215,-612.60583,2001.30090332031
189,-55986.266,-67735.81,-68378.305,-364.34326,-4920.1064,-16163.493,31667.171875
190,68689.96,43756.96,63029.355,-641.79315,2101.3662,-675.62195,22987.244140625
191,37505.645,17543.537,13468.777,-6448.4414,-2959.8755,-12471.153,33377.37109375
192,230177.12,221138.7,243659.22,8366.975,3734.1477,-4078.4094,26211.970703125
193,-102900.91,-106776.164,-139456.17,-3877.2773,-1320.9631,-1436.3629,35583.25390625
194,45410.973,50492.668,76627.83,-10602.404,-9947.252,1346.5706,38486.32421875
195,-116721.6,-133206.36,-125900.234,12389.023,11511.481,-4805.73,33644.88671875
196,-19331.004,-22557.94,-32553.729,-12139.387,8806.245,-736.2619,28617.388671875
197,-36651.867,-38569.57,-46312.7,-10196.887,-17510.268,8482.896,39065.578125
198,43354.547,63683.45,46372.027,11891.0625,4282.997,-4366.6724,29957.5546875
199,13430.892,4724.6104,39584.45,-8922.013,2894.128,-9747.578,39198.0703125
200,65057.28,55338.387,79655.51,-296.7883,18844.002,1127.3733,38971.91796875
201,-12194.13,4033.03,-36228.36,9035.46,-694.1748,1973.1945,38587.78125
202,7808.5967,31854.943,41585.234,-12652.282,-2485.6785,-720.55304,37512.89453125
203,3997.6829,21647.521,22908.15,18176.457,8312.749,-2732.7236,39448.89453125
204,-122329.6,-102015.266,-118266.836,-14788.557,12098.115,-3317.8333,38404.00390625
205,-325.72638,-869.3102,12873.967,-129.651,-3586.4915,20800.36,38965.453125
206,-120342.2,-87369.37,-120769.75,3627.3508,6253.783,-6882.204,37421.71484375
207,37746.617,29108.58,60037.062,-9862.75,-10764.249,-1903.0284,37607.42578125
208,39828.586,43454.324,70561.74,6507.2417,8914.159,-2974.178,35188.05078125
209,50755.676,17241.85,9978.942,1702.5583,6083.327,-183.77095,39232.03125
210,-1179.9009,26939.406,-7506.705,3362.8704,8595.943,-1064.3934,35603.7265625
211,-17505.572,-21418.773,-37539.562,14355.278,-13699.102,3297.138,39396.80859375
212,663.9895,7744.9688,-649.76886,7364.5386,16084.525,-4350.939,32508.552734375
213,-770.12555,-2748.503,-32904.29,8590.516,-2003.3042,-10119.814,38905.109375
214,-119087.59,-95006.87,-122585.93,-6167.228,4511.9917,-6815.444,31478.427734375
215,-18660.662,-5150.9043,-41302.24,9584.811,-4654.156,2602.8823,36904.62109375
216,-12810.212,-7095.84,9781.2705,-13946.247,5501.3945,11476.122,38513.9765625
217,-8834.728,8590.432,-8683.846,11588.539,9161.66,-67.38869,30914.94921875
218,-25293.44,-40613.293,-4747.137,-81.18855,11343.159,-3958.7317,37478.67578125
219,20051.271,29663.033,27379.123,2684.2886,695.18945,-1470.0238,10256.646484375
220,8626.596,31641.533,33533.0,-4447.214,5694.595,-6991.9844,29666.123046875
221,-11511.89,-20103.725,-41517.465,12286.008,2421.8364,-6410.241,36194.73046875
222,22826.264,22557.977,3686.093,-4319.1953,-1183.4692,-974.17847,20598.501953125
223,15031.254,7886.156,-18201.709,-14495.697,-285.58835,-1287.9698,39416.0703125
224,-89607.81,-129421.58,-109647.516,713.6958,710.3183,4826.765,35521.88671875
225,18814.586,194.60873,4172.02,11638.476,2396.5698,-3960.2998,27551.931640625
226,5517.632,12712.593,34600.742,-10886.724,-254.9328,-3373.9917,32836.7421875
227,98447.57,91216.52,128224.32,4346.866,-1535.3483,-3021.4436,35290.296875
228,46049.47,9313.598,33587.67,5426.829,-10810.336,-2692.49,38829.31640625
229,-12335.157,-7217.464,17208.379,1329.917,-12736.245,-6850.6724,37155.80078125
230,165026.42,162882.05,183081.94,-7101.3286,-9486.319,-15240.032,38566.1875
231,-12896.5205,-14838.868,-9070.755,4479.295,4735.556,-8385.811,19085.97265625
232,5914.7275,-7790.4087,4261.042,-6156.376,-4418.9062,16930.91,34643.20703125
233,12208.87,17450.514,12708.469,16878.379,-12825.387,2024.5392,37222.4765625
234,48784.086,78447.36,58813.426,1265.2819,-4699.524,14158.773,36816.66015625
235,64440.992,58032.55,59899.137,-5376.9395,11934.19,11052.848,30217.4765625
236,84235.32,64302.59,78809.305,-1872.0397,-5171.6973,3944.9773,21355.12890625
237,9886.198,15558.638,40195.113,-1818.0188,8628.78,3525.4585,32395.232421875
238,-54696.65,-62441.57,-53855.668,13376.084,12922.67,-3673.5078,33844.25390625
239,133114.5,132013.47,152975.8,3714.758,-5655.087,8150.4106,27462.28515625
240,3595.4585,38219.78,947.94995,2558.967,-1388.4426,913.01514,36406.734375
241,9316.28,14477.082,-19159.482,2226.494,3005.6763,2456.675,32319.353515625
242,-134826.6,-133458.6,-115363.09,713.5677,1519.8608,-1006.1338,19119.822265625
243,15462.039,38514.043,17252.586,-2113.1445,5768.727,-2260.1838,24937.548828125
244,-6047.214,-9319.554,5934.292,-604.56683,7334.405,-5838.4053,21405.84375
245,24857.809,22807.723,22735.2,-3541.6333,6866.392,2091.2144,14019.5517578125
246,14432.261,15913.609,15359.225,-162.1472,864.3332,-33.11883,2000.96984863281
247,653.74506,1661.4193,2155.5562,-282.19815,786.3236,225.51454,2000.97473144531
248,3169.4216,2502.554,4488.756,195.92319,-402.97726,-321.09433,1994.1943359375
249,28448.55,27693.775,28242.525,570.24396,-760.60864,-557.27954,2024.70288085938
250,119548.13,119563.37,117804.42,-554.54425,-48.211308,-5.1868467,1999.23388671875
251,1225.3563,1468.1517,2307.1365,-949.44617,132.39159,294.85156,1996.06750488281
252,180923.53,178941.7,179640.9,305.3181,-36.62964,479.987,2001.41772460938
253,38226.797,38588.938,36878.176,-102.76852,551.47363,454.53397,2000.54296875
254,-179438.9,-178996.98,-178030.77,692.9546,437.08896,-380.39465,2000.91613769531
255,133393.95,131303.47,132903.69,-308.85062,-190.63353,87.64044,2000.95593261719
256,7363.817,8470.515,8688.145,-905.0477,5.974532,-5.117548,1992.61450195313
257,118374.484,116696.0,117025.79,600.0845,253.19243,359.825,2008.37512207031
258,117529.89,117964.95,117830.695,844.87506,-308.41104,-684.832,1995.66333007813
259,140087.39,138906.44,138359.23,-389.57434,-564.1768,-278.5028,1995.79174804688
260,56196.27,55834.805,55594.562,73.5271,-579.37463,-949.6842,2001.03869628906
261,916.9879,794.92285,259.3275,724.1291,572.5795,599.7126,2000.68395996094
262,296797.6,297071.84,296044.62,-813.67993,-620.908,-104.0004,2005.9736328125
263,17623.766,18175.72,17167.209,144.20312,202.33195,1008.9727,2001.09301757813
264,130800.67,129421.375,129964.05,90.940285,798.94446,-450.03424,1998.94641113281
265,14359.053,15410.653,15013.175,383.94427,-135.11778,936.9254,1994.08178710938
266,52217.61,52514.445,52559.84,-256.8031,1010.28827,-462.0441,2000.99780273438
267,39203.785,39712.754,39455.637,-444.4537,868.85,-563.4221,2000.98608398438
268,27926.662,27703.82,28781.096,-315.19876,-634.0237,-714.0927,2000.97802734375
269,51292.47,62808.453,54241.848,-796.56714,2614.9722,4151.201,13470.966796875
270,-44576.863,-44957.78,-57829.14,-11038.79,-3483.7607,2240.546,24243.6484375
271,-69703.16,-50010.21,-49535.305,964.4213,3010.0078,8631.959,25512.6015625
272,166633.72,163939.64,139656.92,2217.2886,2636.2012,-6452.9194,28685.298828125
273,-27865.26,-24540.492,-26548.176,14813.696,1268.9874,-12497.201,33765.62890625
274,-20904.264,-24844.883,-49264.035,-478.67972,-13441.88,-2449.1826,35620.01171875
275,-4487.029,-3492.6006,27273.205,4045.0464,-187.36743,8948.789,35602.7109375
276,6172.7,4510.354,5039.7607,-444.21292,414.55634,494.2557,2001.00500488281
277,-71795.42,-78758.46,-81119.72,4887.6562,-2706.8643,6550.8403,17114.041015625
278,-43910.734,-32306.383,-19977.002,3704.7588,-5811.712,15943.314,36535.1953125
279,25384.594,20842.205,22988.352,9360.499,770.4571,-1693.2078,16992.03125
280,-53010.414,-54303.12,-76365.86,12125.644,-10639.046,2873.6072,36364.6875
281,-81671.25,-83282.57,-94229.445,3270.7383,11003.716,1313.6595,23250.482421875
282,-6941.7896,-164.99219,-7277.243,9282.222,3581.9272,-9464.614,24779.369140625
283,7571.537,-21959.96,12297.6045,4903.7305,883.95404,4667.0693,34261.3671875
284,49648.797,42934.004,33024.84,13450.792,-6501.9966,11572.298,35793.45703125
285,172663.58,169713.44,156422.34,-9979.149,-353.68875,8727.338,27426.1171875
286,68202.1,33368.85,32853.08,2079.5686,157.10481,1882.5281,35429.74609375
287,-113509.445,-95607.95,-92594.07,-3453.292,16457.477,551.2974,35110.296875
288,-31549.621,-19841.95,-55453.36,12441.768,-277.31143,-3736.3813,38662.90625
289,-22575.564,14475.744,9131.834,974.792,1528.8391,-5690.5757,36199.01171875
290,-27612.773,-56284.543,-17232.281,1780.4163,6429.2256,-1443.1582,36975.8671875
291,23702.586,2600.4363,-11583.741,11349.739,-2611.3691,1258.0194,36843.7734375
292,-49426.668,-39524.945,-47116.746,-8433.767,18662.85,-6631.353,38350.01171875
293,39502.62,64096.39,54652.55,-4174.0527,2176.678,14650.435,34236.93359375
294,-970.3699,1948.3644,6181.817,-2088.3987,7686.1704,-5163.2505,17580.9765625
295,36626.777,6324.638,19413.818,3012.192,-11741.422,-211.84497,33672.7421875
296,29458.258,30999.291,60137.44,1631.2405,-4751.8643,-328.78064,31182.640625
297,-8439.645,-1353.5034,-2422.4636,4655.1978,-5570.438,616.3291,14248.6064453125
298,-48586.754,-24500.297,-35135.676,15756.571,7395.976,-5766.162,38023.09765625
299,-28712.867,-17220.756,4663.5273,13125.694,4815.4473,-6890.84,39891.79296875
300,2821.6165,30887.256,24787.715,4156.945,12909.163,-10762.64,39407.87109375
301,28445.863,28306.268,30145.121,-147.3261,-5.4030566,514.64136,2000.9853515625
302,42687.277,44157.977,43202.19,509.87723,-393.74402,602.0821,2000.83605957031
303,-33022.75,-39714.016,-36321.58,-857.78284,-2914.8235,1489.9863,8242.4580078125
304,103361.54,87907.734,94544.84,-116.93075,-3599.542,-2419.8196,15387.6708984375
305,43621.457,53602.04,33874.758,-11811.726,-3905.1917,-4926.9116,28792.59375
306,20552.115,20336.666,20539.812,-1076.708,-262.36804,298.03165,1998.69934082031
307,87005.64,84548.695,113252.85,7791.921,8636.968,-808.21594,34166.26953125
308,-445150.12,-445002.9,-444420.25,-905.1923,-575.39764,-165.42389,1995.09423828125
309,-467550.7,-467717.4,-466646.9,-135.95105,-85.613785,-988.4684,2000.98461914063
310,102953.53,101763.24,102093.6,501.63617,770.27203,334.55176,2000.83740234375
311,23718.49,23790.31,22450.518,-732.9377,-459.85825,133.14276,2000.79028320313
312,-91919.69,-80278.36,-115209.5,-399.4816,-9181.941,912.09534,34712.51953125
313,-128360.03,-105972.79,-141975.42,194.82681,-3629.542,-1522.6696,32217.521484375
314,85649.11,74412.49,104514.25,4530.806,8130.69,-10054.767,35458.984375
315,-333390.47,-330064.9,-348265.25,7199.2964,3916.4937,-1700.2336,22180.267578125
316,29592.764,17473.375,42726.207,-10809.14,-5368.3354,-10867.77,35634.6875
317,125056.91,142868.11,156660.0,10629.241,-8369.038,2259.8828,36297.26171875
318,-3661.8074,6649.6987,39142.516,-43.81059,-3859.6228,220.50333,39268.33203125
319,-44793.26,-17919.18,-9357.121,1285.707,4124.727,1601.3159,33004.76171875
320,-124539.91,-96873.34,-109286.086,14253.535,-753.74896,-3763.798,35068.35546875
321,24324.96,16619.65,47515.223,-8307.378,3373.7134,-5453.0786,33260.18359375
322,-40735.367,-20321.45,-4783.272,-7091.023,-1216.8406,11238.378,38852.9453125
323,23493.145,45881.176,28475.307,14010.351,-1309.5406,-2196.0579,31984.17578125
324,143519.2,109662.85,119051.01,1810.4202,9068.019,4848.625,35264.55078125
325,28079.395,30937.129,29357.941,4631.5513,-5021.9697,-4509.966,14393.7939453125
326,-14895.629,-27838.957,-37406.82,13180.964,-2773.8962,-13937.359,38858.2109375
327,32618.402,7610.692,7833.3286,-7107.7056,-3843.6372,2709.7258,28944.333984375
328,-43082.44,-18727.258,-30478.678,16510.953,-3891.852,5774.3535,37528.2109375
329,-87223.875,-60936.28,-63003.89,-2922.6902,2283.2874,10906.616,32234.912109375
330,-104362.08,-104814.5,-131805.81,-10112.148,-6091.1797,-5136.402,35187.625
331,42400.094,27367.234,40421.93,1058.2502,5163.5503,-11335.423,25864.732421875
332,15498.164,17906.39,27204.615,2979.2727,1108.8882,1919.9088,12490.95703125
333,10763.407,11955.569,10642.407,736.8799,339.40097,-386.9742,2000.98608398438
334,129280.91,127850.29,128611.83,218.40039,-861.7599,-178.71654,2000.98522949219
335,310588.94,309279.25,310456.88,-331.77457,-723.4053,-425.83032,2000.98083496094
336,-212369.73,-212652.03,-211996.45,-948.3087,-343.92413,-456.5205,2000.58972167969
337,109018.36,110236.02,111068.84,-137.30109,-439.23456,243.73195,2000.9853515625
338,-29926.38,-55289.67,-28453.855,4263.223,1807.5642,-1154.5629,27406.916015625
339,7087.2256,9154.262,43352.227,-925.1741,-2551.6597,-1076.5905,35637.6171875
340,-76561.664,-71684.65,-89053.83,-10085.894,-7629.831,-13242.613,35308.3984375
341,-102238.89,-74791.82,-89460.92,12809.555,-1278.6525,4276.171,33435.25390625
342,-24723.879,-39836.875,-46401.16,8885.762,-15384.749,4174.944,37012.57421875
343,-63065.82,-60755.914,-60485.27,-15317.482,-9324.687,-13192.03,38637.39453125
344,-41217.19,-5986.9688,-1474.9724,6168.341,1612.5446,-1054.9176,39316.28125
345,37789.785,3076.5044,35940.625,5097.439,1999.9833,3583.5376,35675.16796875
346,86763.586,87364.23,85383.04,-57.891903,-33.74595,-546.0709,2000.9853515625
347,-18682.63,-25295.83,-26885.494,4396.113,-3581.654,-4606.428,14727.318359375
348,-1266.1058,26198.873,32730.98,-10278.694,-2857.2578,3175.3748,36716.38671875
349,51170.008,79249.64,50788.547,-8785.901,758.30145,-3341.3923,32651.470703125
350,939.9492,-14229.924,-8179.5137,-6718.735,-369.61078,-7079.747,21474.427734375
351,60425.863,87709.086,49244.94,-4686.547,3210.156,81.38396,35654.8046875
352,9268.706,-16019.683,3081.7349,10963.482,3955.0872,-1703.0787,30619.375
353,-52009.49,-62357.336,-78982.63,14922.418,-8274.633,-998.814,37841.13671875
354,85759.75,77998.234,112568.086,3146.9775,-10362.038,3617.3833,37122.55078125
355,-50443.035,-49752.242,-40988.887,4204.7686,-9505.58,-11924.68,28879.5703125
356,-16088.721,6911.9087,9762.124,4678.037,532.9516,-486.6633,25882.892578125
357,-31175.932,-55196.56,-42911.17,-9321.747,1476.3116,-2463.0745,26800.0390625
358,153206.86,128016.305,155596.7,6948.8076,-4228.702,1348.3939,30073.82421875
359,-34804.504,-37560.742,-30639.355,-15628.025,7631.2856,-1594.6217,30845.892578125
360,1519.0176,-11909.189,-17335.785,1086.1693,-692.65173,2577.975,17537.12109375
361,2122.727,-8886.555,-13913.231,1402.9891,2106.2083,-1448.4734,15077.12109375
362,76878.02,68337.734,56631.348,-803.9008,2345.6553,12069.53,27666.18359375
363,-3268.8037,-2860.3696,-11657.136,-1424.6744,-2326.3284,5017.5454,13107.5859375
364,68680.48,68465.414,67709.01,574.5264,439.0851,-742.5684,2000.98217773438
365,2560.7095,-2022.8436,-10970.579,-2497.8625,292.3565,3835.153,14324.20703125
366,-49313.83,-64422.375,-81376.516,6875.4644,3436.5781,-3912.137,31544.005859375
367,-20713.494,-29457.182,-21663.375,-9053.3,1991.0055,150.3439,18080.2578125
368,-23414.81,-16019.934,-21898.71,-16758.7,1403.4722,-5006.1523,31135.625
369,-19468.473,3663.0479,1623.3413,-8217.906,2680.6,5197.4863,28235.5546875
370,-25419.135,-13937.779,-46604.53,15043.498,-435.14655,544.2508,38784.75
371,45740.46,64977.895,57695.137,-13801.515,-3064.152,-1370.6245,29803.76171875
372,-18927.434,-11401.941,20804.111,-4357.276,3690.405,-128.93166,37869.43359375
373,1422.9609,4422.322,-8750.8125,637.86774,3206.2778,-178.79416,13235.3251953125
374,19358.514,5516.947,4723.4546,6314.5713,-433.7886,-3290.5017,18864.515625
375,1857.8672,3529.523,15615.654,1061.2808,2458.93,-391.46512,13822.103515625
376,-38485.508,-20704.373,-37501.285,-6327.14,5703.298,-7968.7515,26604.900390625
377,-67189.875,-78304.57,-49849.33,2849.1116,-9532.514,1715.8143,30376.91015625
378,22550.424,49858.06,22762.777,6954.308,755.49615,-1761.5658,29934.294921875
379,-1193.6426,9873.008,13405.013,3982.454,2083.7202,1994.6929,15702.7109375
380,-27352.299,-23931.252,-11304.792,5151.7256,-263.3029,4120.2437,18576.458984375
381,-57681.164,-89553.83,-69445.82,-2977.325,5787.667,-8786.478,33734.16796875
382,-37026.77,-31219.816,-66846.68,-10860.6875,-1183.7046,3908.4631,38729.91015625
383,43390.945,24606.73,39424.02,6549.982,-1241.3916,6659.82,23673.978515625
384,-19586.438,-22602.143,-57787.996,-1828.8575,-1204.3394,-5240.1772,38079.03125
385,-18840.512,-17555.24,-9551.885,2628.6028,5604.5083,3982.7808,15444.73828125
386,-1673.8131,-2709.331,3672.6206,5137.375,-28.016867,-14.900878,10694.5712890625
387,23818.13,34087.43,64476.938,2519.7031,2527.88,868.3237,37169.05859375
388,16011.348,12167.741,12542.575,260.3287,-3253.096,-579.4419,6814.0712890625
389,14651.619,23610.844,15906.986,4407.0327,-3201.6042,-509.05743,12664.5400390625
390,-6146.8857,-5605.214,-5922.7393,4105.9927,-25.243248,3504.2417,9361.6669921875
391,-8333.619,-20098.27,4878.2354,-4326.7837,-713.4998,-2991.1946,23514.361328125
392,5855.022,8575.753,1842.009,-2986.0657,777.24176,-1043.4596,8139.6240234375
393,23454.938,19528.93,40052.797,230.83728,-63.865864,5783.11,21367.521484375
394,27784.213,29843.725,26395.125,-5718.22,-6013.2686,1061.7903,14798.1923828125
395,10243.338,2203.649,-6581.998,12749.12,2087.472,-1599.4297,26848.19140625
396,2156.8628,6980.2915,6953.995,868.73206,-2030.4092,-2412.1533,7431.4560546875
397,7811.6,-1691.1157,-1635.6941,-4992.096,263.3821,1435.6309,13074.1083984375
398,3570.2593,-6189.694,-8395.8545,2629.4285,2484.6926,-656.4346,12736.2216796875
399,60312.96,63686.668,50508.613,29.806862,13267.136,4276.0166,26897.77734375
400,12174.578,3469.5264,-24099.754,-3358.245,-9278.037,-12.5151825,36985.3359375
401,81425.9,98057.734,96251.945,-2126.228,7485.162,-1881.0039,21026.298828125
402,19720.625,19599.904,19349.896,-63.41439,1129.0082,-142.16032,2000.98217773438
403,-21252.268,-6340.1147,-8515.109,14032.853,-8354.85,6909.2954,33735.109375
404,28131.76,27074.04,27605.781,-790.97,9315.57,-1255.9121,16364.212890625
405,-8250.532,-11013.011,-11545.829,3353.9597,5478.1475,1959.3618,12028.375
406,20713.105,10767.457,16630.139,-3540.979,-17029.215,7259.0225,33773.61328125
407,25063.703,11936.98,-2151.4727,-654.9993,-7072.9727,-1410.4807,26703.310546875
408,-36372.473,-34730.082,-66207.43,506.11453,-3753.6885,-3535.7305,31974.45703125
409,16625.97,-2095.856,8566.583,-2843.89,7025.813,-3937.86,21987.349609375
410,20286.59,24170.889,55506.96,812.33014,1382.1412,4010.6697,34274.23046875
411,-8492.996,-3079.096,4935.925,-145.95186,-2313.9846,-6312.7915,16511.35546875
412,18029.969,4112.1494,3149.229,2248.863,-10596.057,-6078.361,25901.263671875
413,22721.398,22914.086,22245.207,-35.98598,-188.49281,1085.9448,2000.98596191406
414,45282.61,45583.89,62237.676,-5837.9727,3046.9387,1162.3401,20410.958984375
415,-122578.06,-122899.83,-122585.99,4.3142405,748.6564,860.5006,2000.98559570313
416,-72055.07,-64459.7,-47902.582,-16966.125,5634.7036,3347.3347,38078.828125
417,-1584.8618,13731.11,40358.145,1771.9393,-1442.5446,3398.5732,37439.4140625
418,-5478.4863,10110.064,-4006.6333,-6875.2827,17339.916,1578.026,35686.4453125
419,10157.742,-22000.088,-5056.492,5688.9653,-1901.8707,4922.7695,30935.21484375
420,33444.504,33348.797,34364.188,-18.46369,753.07837,-672.9352,2000.9814453125
421,2826.619,4735.4434,-17617.844,105.03011,2209.7573,256.24872,21806.5078125
422,43725.152,26012.654,11105.949,-11860.684,5507.943,3749.9692,36813.09375
423,38530.746,38911.035,38572.18,-109.55996,1120.6139,-152.7567,2000.97985839844
424,3792.04,16601.91,38215.17,4217.5146,-93.65479,-4136.4316,31824.640625
425,138142.48,135167.53,107604.94,271.80347,-690.85425,-348.2453,29198.658203125
426,-58221.395,-44025.13,-70249.234,3773.5317,-9169.879,-7732.5063,31485.02734375
427,12776.908,6512.0146,-10856.825,551.0151,-3941.9377,-179.24942,22301.642578125
428,8331.479,-1972.7311,-17051.688,-1897.7919,-1713.5264,180.76143,22553.04296875
429,-5742.2964,-3821.529,-10606.947,4271.352,-5132.7217,-162.31697,13059.28515625
430,3956.621,-3535.6802,6363.086,2618.7468,-2879.9575,-3816.6448,13004.3037109375
431,21553.73,14291.304,17299.566,-1942.7948,2176.6765,-2262.0156,8990.6875
432,-74944.64,-65395.24,-55183.85,17484.426,-6972.866,-5464.878,38020.375
433,25057.064,15486.294,27937.5,-2900.5525,-7878.569,3598.2175,19436.080078125
434,-4096.537,-18471.904,-12758.674,6106.904,-6344.3184,-582.41785,19769.015625
435,-17513.275,-10591.261,-10472.566,-6874.516,-791.0609,4336.484,15774.013671875
436,6719.9614,13385.27,47372.457,-2415.567,45.072914,-4439.475,38765.0390625
437,5697.7285,14352.013,20851.361,-5696.957,12876.872,1249.413,27800.646484375
438,-9104.25,-18595.125,1483.2432,-4393.4966,4760.3413,-2213.6155,21053.4453125
439,-7139.0435,-16956.064,11753.396,6511.6733,1645.4633,-14077.092,36994.42578125
440,14410.398,39851.242,10457.544,-7564.541,1386.3856,-1206.1079,30744.474609375
441,-34319.895,-32180.635,-53797.94,4599.7183,-3933.2043,3487.4944,23916.72265625
442,11028.285,8571.5205,5405.2646,9148.302,-3738.3093,532.55304,17823.849609375
443,-36010.29,-26284.502,-37816.438,-2116.7534,11186.39,-604.1359,22480.26171875
444,-26066.787,-19962.123,-49746.492,-62.16987,-250.7318,7225.841,29989.83984375
445,-10349.37,-8152.4307,-12395.038,-6314.3643,-233.40813,1104.3379,11702.189453125
446,17509.115,12798.133,33635.453,3274.4277,-14.072065,2835.023,20359.3046875
447,5148.7974,4661.5737,8472.425,-7025.4497,372.839,-79.1777,12704.7197265625
448,-38124.125,-7478.5557,-25597.623,8945.033,-5092.925,-4348.977,32966.3125
449,-5239.8926,-41739.195,-28065.127,-5020.446,-3365.0598,-714.90393,33633.37890625
450,57558.867,28973.734,36821.508,-13652.342,2892.5154,-1318.8823,35268.19140625
451,-32648.607,-52523.918,-67007.195,-10008.689,5055.039,5919.375,37080.33984375
452,8921.459,7606.0366,19764.438,-4835.9434,885.9749,-265.50116,14362.763671875
453,-24072.984,-55989.367,-25255.219,-3742.8396,6591.042,3089.7476,34399.3046875
454,-29259.066,-18882.367,-40745.703,6442.397,1045.6847,-114.18489,22060.033203125
455,-25861.05,-12095.219,-22150.752,3113.9333,239.85048,3571.0642,14822.5810546875
456,-7637.461,-4111.491,-2880.8813,-1989.0399,1764.5569,2491.7139,7623.75830078125
457,-11607.56,11225.233,8996.126,2181.3264,2492.6387,-206.80154,22548.861328125
458,63630.48,82523.43,80186.83,-7137.348,-3863.643,176.67726,22714.75390625
459,4809.081,-3295.9087,16953.396,-4706.7725,2031.1637,-2753.918,20327.19921875
460,3925.4072,13599.078,22067.236,-17353.72,-10016.258,4422.9697,38862.92578125
461,-1493.8987,-1338.4741,9207.836,-9343.41,-614.53595,-1829.1359,19645.765625
462,20890.037,18202.834,18792.33,-295.56076,-12637.338,-1030.3234,22102.8984375
463,-19787.62,-10481.039,-32095.96,685.76013,-1493.6791,2660.4548,19544.67578125
464,31932.885,28333.484,62714.777,6324.0234,-4252.148,3156.8298,35712.68359375
465,-17259.65,-12016.422,-15541.604,-433.88293,6701.6694,-4550.8857,14794.2080078125
466,932.2296,-624.8932,-5090.389,702.695,221.94658,-1643.2383,6248.8740234375
467,2834.5112,9262.964,17878.875,2836.2122,1427.3938,1960.2268,14584.8564453125
468,20349.47,28166.047,24158.51,-5099.982,-4096.5757,-1588.6093,13482.591796875
469,81471.64,57083.965,83739.03,16016.17,2833.0803,-2602.9563,38329.55078125
470,-9600.215,-2054.689,-33843.445,-5812.592,-3782.7188,-793.22516,31205.291015625
471,11618.285,9333.849,18955.27,1493.163,-1016.72974,-3391.8525,10959.6845703125
472,-7046.5273,-16970.068,-37356.29,-1407.0103,-946.27747,3282.6108,27519.630859375
473,-4193.4937,-7246.498,-17581.61,-3147.7773,-526.70087,-2338.1677,13951.607421875
474,45141.383,46394.92,20970.465,13018.295,-1805.2141,-8165.9854,36528.8671875
475,11685.727,26785.908,26524.088,-4645.056,4453.431,101.054085,18665.20703125
476,-43392.79,-36248.027,-67281.69,-2084.9092,-3759.8523,-7280.546,31731.318359375
477,-170.64648,-9924.829,-17420.05,-2231.7405,2518.4714,-2331.0073,16574.169921875
478,76277.35,71537.39,102798.56,-5165.015,3867.8801,2640.1445,31581.26171875
479,-7428.8887,306.37207,-13588.236,-1243.3774,-4395.2256,-2449.5176,15033.5751953125
480,-8653.658,-2711.2593,-10819.742,2693.9226,-1151.0249,-1655.2516,9318.8818359375
481,3682.0676,-2182.3542,5546.6484,-2477.9548,427.51028,1089.0513,8445.70703125
482,-7404.5513,-19118.709,-9790.495,-7636.309,2122.682,-1056.4683,17514.857421875
483,13595.074,7739.826,5535.0225,-2463.105,3157.307,-5444.5913,13751.0693359375
484,-11785.712,-18852.492,-41776.094,-3683.1401,-7056.984,3484.8208,31047.6796875
485,6514.402,8699.487,-1214.0884,2036.9359,2133.312,906.7642,10486.115234375
486,-2649.877,19111.314,9040.995,-1412.2556,1036.1129,385.6947,19117.2421875
487,7256.927,4223.149,20636.805,6294.027,-65.8048,885.3322,18708.962890625
488,-4240.851,11655.334,5345.5996,-631.10974,-2371.6843,4029.6663,16093.0087890625
489,13847.421,5162.84,5341.541,-2745.4995,1542.9261,-1005.1295,10328.986328125
490,12096.298,-1215.0725,-1429.8381,-2941.6096,2152.3152,1301.9082,15001.2998046875
491,-7603.9824,-12821.374,174.25098,-5404.146,-2860.6162,1506.0214,15724.892578125
492,-24657.781,-21371.965,-22006.268,-8476.635,-3557.0706,5164.131,18510.4765625
493,-51977.168,-79551.79,-47508.25,-11527.986,-3533.2332,5095.875,37651.00390625
494,10759.364,337.34326,3146.881,-8345.541,-1862.7017,3283.4236,18409.962890625
495,-1276.8599,-8373.265,12222.278,-4192.5317,2366.9775,-1850.3209,20203.7578125
496,-5321.142,-2869.6711,-2201.996,1440.335,-9447.276,590.71277,16826.048828125
497,-38966.92,-38651.008,-57244.152,-12165.622,1757.6482,-180.9381,28165.658203125
498,-1161.0762,15694.145,16438.967,-117.78651,524.02246,-451.9951,17282.525390625
499,4234.536,-2942.6357,-17276.295,1490.2506,1764.5525,1615.9713,19587.70703125
500,-34683.883,-30360.76,-27937.63,1261.1249,3909.749,-112.09068,9257.63671875
501,7383.616,-6636.46,3107.5884,-4391.659,3794.534,-183.12459,16001.6494140625
502,9506.003,5622.107,22636.248,2418.7349,440.61505,529.18884,16045.494140625
503,-5905.8916,-8417.828,-11948.439,-2725.0347,534.50433,614.2103,7204.859375
504,-69508.88,-54238.64,-86776.81,15908.69,1032.1531,2269.619,39660.5078125
505,12457.987,-289.30078,13022.72,14095.287,5710.516,969.34344,29439.623046875
506,13284.57,30098.863,10995.082,3148.552,1776.7809,2125.135,19473.51953125
507,5147.1353,5991.7256,10178.019,-2019.0502,-2735.2898,5023.383,11495.7529296875
508,14583.257,16849.555,6208.5425,3392.024,1589.605,1528.9286,11973.404296875
509,19574.412,19923.74,20812.064,6694.968,-151.72644,1233.9128,11845.9248046875
510,13088.282,1447.3501,-1635.6304,-1259.9507,125.33887,540.7284,13659.8515625
511,-13686.969,-460.0249,-360.64648,-4733.974,-908.4596,425.18036,15701.1513671875
512,-16735.654,-30171.121,-28979.393,1979.0753,-1703.3495,-1184.1335,13805.1259765625
513,-16602.705,-11054.428,5367.1035,1865.6921,-2362.6235,-834.75116,20514.38671875
514,-6511.3237,-9246.355,-15610.517,2151.1128,-3293.615,-1165.7004,10765.2802734375
515,4367.4404,-2213.5867,-1918.4115,1568.2124,2448.5176,-502.1941,8220.3818359375
516,-1325.043,-3857.127,-12615.839,-5096.396,3334.5938,-5052.3105,17121.91796875
517,5443.3203,651.11035,19257.754,-1774.7457,-382.94867,-3297.265,17958.576171875
518,7516.1523,18256.805,22470.682,-7943.571,-91.423355,3279.8967,19999.43359375
519,-26233.756,-37328.86,3793.442,-570.0527,997.7692,-8042.6426,39444.9296875
520,-14926.48,-10223.022,-51811.93,145.22513,-2258.4387,398.1725,39648.3125
521,30427.521,24566.148,62797.387,-6877.842,-16.184658,4851.876,38528.3359375
522,-7962.4033,-16154.447,-7163.0176,3293.3271,-1673.0808,-1267.341,10956.791015625
523,31656.488,26894.518,10454.537,-5036.203,6264.201,5589.5195,25666.611328125
524,-4734.117,-1474.6006,-19833.73,1510.3011,-1731.8011,-395.36703,17439.884765625
525,-47326.94,-41891.406,-14349.014,12503.561,4506.734,1080.2529,38357.34765625
526,61305.08,31657.043,35501.793,5681.271,-3627.8655,-1238.1123,30343.2421875
527,-20213.082,-21607.076,-231.3916,-1960.8119,609.1963,623.71094,21044.720703125
528,12083.608,11536.954,28390.52,-1255.151,5546.2925,1488.6809,19462.45703125
529,4522.929,8669.36,-11680.748,-1869.6808,-118.89081,-171.25507,18909.177734375
530,47486.766,56421.668,81596.03,4234.089,8956.608,6189.562,36713.6015625
531,-40642.242,-16521.8,-24599.47,2090.685,1919.2758,-749.26135,21864.478515625
532,23611.268,23647.443,36795.484,917.9166,487.94934,4075.7615,15047.439453125
533,-1604.3726,-4984.321,-13185.874,-438.41766,5396.3853,3799.5925,15416.2451171875
534,13114.886,-2916.3252,8321.889,-4826.349,-2142.2434,473.6861,16954.548828125
535,-3317.505,-15641.176,-23641.682,5215.161,756.7268,-1372.0796,20085.71484375
536,9901.719,301.188,-2097.4424,-3483.141,-2177.7388,2109.0427,13598.54296875
537,-24280.98,-5237.9414,-5677.882,-1307.2892,-221.93843,1297.0381,19099.078125
538,-9226.169,-13031.438,-785.7822,2543.8293,-1833.0436,13.477764,12138.041015625
539,-11069.544,1634.8335,-5925.9106,7111.2227,-13339.141,-2518.4878,28758.4140625
540,-7043.6377,10619.764,10385.464,7998.1636,742.3038,667.9393,22423.546875
541,1976.6494,24085.184,21035.514,-2024.2903,-1928.5747,1998.1632,21589.19921875
542,-7551.149,-8508.272,4668.2207,4857.72,58.92022,313.4935,15265.0625
543,-19159.32,-10522.048,-6358.587,4221.5825,3138.1025,-7086.868,19015.185546875
544,24840.484,-12736.377,-7282.9033,4464.964,5570.0605,-1259.6584,37342.75
545,-29646.8,-8643.673,1529.4287,509.25238,-9.1375265,-1360.5852,27651.802734375
546,-1519.3325,-20327.568,-5565.7915,-2908.5967,-1731.2043,-790.7201,18173.154296875
547,11090.747,-7907.0557,1029.4658,-8913.066,-3281.6343,3197.4424,23923.005859375
548,-1087.1328,-24435.225,-8817.539,-9723.479,789.9551,1393.7704,26753.322265625
549,79873.52,74478.09,45049.555,-10031.114,-9226.274,394.43472,40145.2109375
550,1288.853,906.89404,-1398.8816,1783.0756,217.80359,2524.588,5928.2568359375
551,9044.204,5723.0474,1966.0222,4019.0535,926.23895,728.0665,9499.755859375
552,8960.006,13631.632,46340.883,2417.155,-3862.598,-5239.811,37271.68359375
553,-946.35254,-9029.338,-13192.792,-3683.632,-186.66248,-232.10728,12541.759765625
554,-19874.43,-9083.476,4314.4365,-329.428,1553.2568,779.0668,21211.064453125
555,-3878.6016,-11480.694,-1480.7876,-5314.3315,-5420.747,-8685.154,21930.46484375
556,22226.256,20357.365,12464.094,-1284.295,3143.421,827.2811,10825.5654296875
557,9908.135,15930.501,9895.826,20516.914,-1460.3784,176.73428,36134.00390625
558,13327.117,1444.1355,-3899.0103,870.467,1246.686,-1070.2003,15608.291015625
559,11281.068,19019.592,6622.741,8942.627,-1377.1782,777.29956,19106.216796875
560,-10597.294,-9136.404,5980.3496,1156.8706,-26.432367,951.12213,16107.9296875
561,-29105.375,-26169.805,-17487.502,455.69427,1545.8749,-1379.8529,11090.158203125
562,15044.437,7476.4463,4147.1387,6216.0596,-5093.045,728.4589,16996.541015625
563,-9359.563,-9050.461,-16689.232,-500.60318,3834.913,3353.786,11606.0478515625
564,6299.5967,-5162.839,8112.4053,-658.64056,-1159.9033,-2715.764,13524.6650390625
565,1379.7007,12391.666,93.52539,-2102.7532,489.77478,-2302.1206,12921.4765625
566,-5793.114,-7811.773,-16689.086,-586.2131,199.64445,-1578.0026,10460.5322265625
567,19126.744,-1794.7964,-145.07227,5944.619,-154.3244,105.00807,22628.248046875
568,13464.197,1556.7373,-3540.2026,-1899.2776,30.582006,-188.06825,15472.19140625
569,-9896.191,-17921.242,9158.37,-6563.134,6157.754,2733.062,29082.26953125
570,-13265.117,-4228.1763,-4271.483,690.5789,509.89932,1601.708,9549.0263671875
571,-1791.7642,9697.343,8472.409,1439.6555,774.90094,-3254.7998,12618.5205078125
572,17001.71,23069.219,43384.758,4745.626,1785.7882,-4201.0967,26511.84765625
573,-4328.3535,-7173.1016,-2924.3696,6417.7,-3935.797,1669.7539,13872.783203125
574,-17964.123,-17864.725,-40890.99,1408.9397,-3491.7148,992.7009,23946.14453125
575,6096.314,4508.9873,-12939.469,5129.733,5107.989,1027.8907,22249.751953125
576,-8000.6416,4383.127,-6019.4766,126.441185,1031.5592,-3915.0825,13489.7138671875
577,-45476.62,-33537.406,-47837.105,-1617.6353,-100.84306,-5754.664,16838.296875
578,4963.129,18206.004,45375.11,5777.6636,3162.4902,-1634.1747,37569.81640625
579,-47010.582,-37761.887,-62870.83,3057.2896,-7044.473,-3412.8662,26374.80078125
