Element Label,S11,S22,S33,S12,S13,S23,Mises
1,-12225.856,10884.475,23956.293,3380.7502,4198.5737,2026.8655,33264.859375
2,5177.931,4094.4727,-4154.255,5954.954,-1186.3616,-2500.0554,14405.212890625
3,-97900.86,-71009.46,-90106.96,5541.8984,-1830.1426,2089.269,26259.943359375
4,-89878.445,-86111.87,-124493.78,-391.84485,-782.1624,7056.406,38658.3046875
5,130061.48,133960.05,124105.49,7281.0215,-12394.691,-1496.6965,26467.671875
6,-19670.768,-6687.9766,-36036.766,1128.0669,2961.5925,-258.00735,26061.5703125
7,8361.585,-7534.802,5885.0557,466.3948,-3043.7244,1915.3938,16090.7431640625
8,30346.29,34519.785,-4502.728,-4039.896,5873.6797,1805.0692,39237.12109375
9,273715.03,269374.78,308094.16,-1908.5516,-3687.0088,1196.2576,37496.38671875
10,-108623.7,-112979.01,-81082.72,-330.32834,-10814.522,-3885.6804,35970.94140625
11,12127.723,14887.747,16597.494,-14879.127,1601.0336,3396.8674,26865.056640625
12,-57196.81,-56765.402,-93004.77,-3463.2825,-8769.255,980.78235,39590.5625
13,196140.62,199598.81,231571.36,-2824.9368,9720.38,-2298.4602,38314.70703125
14,-135139.27,-127982.63,-112119.94,-11087.425,5654.844,-1477.7695,29793.32421875
15,174348.86,173382.14,169038.33,-1216.1318,-908.9428,-8151.822,15174.7998046875
16,111287.28,138527.95,119447.23,-7534.8574,3491.648,8874.597,32086.2734375
17,-14227.908,722.253,-5550.327,-5816.63,-12657.915,1744.8348,27574.94921875
18,-130672.57,-153579.67,-141763.58,-17595.549,662.77704,-7109.26,38411.3984375
19,99770.61,98892.266,99571.83,-564.43616,-452.21887,-774.051,2000.78454589844
20,-29622.396,-54304.785,-24438.791,-4950.768,-6262.497,-1412.7782,31003.365234375
21,120105.28,112290.15,154161.56,4355.054,1062.2262,-3563.4553,39817.5859375
22,-19647.098,-21310.441,-19745.97,5799.446,757.14813,1912.3092,10779.765625
23,-52855.418,-57711.535,-34692.996,-13127.59,206.89987,-661.4686,30985.419921875
24,-56587.812,-44243.082,-72499.57,6856.4116,2028.3973,-9390.583,31936.28515625
25,42435.203,8396.066,26272.979,-3556.0269,-6341.717,-685.53876,32089.408203125
26,85844.41,84027.734,111484.164,-7123.483,-7173.6543,1385.307,31931.955078125
27,789051.8,783795.4,800081.06,-2487.1875,-14850.11,-1597.1364,29917.171875
28,-22328.467,-42680.734,-10255.5,5338.4126,-9048.873,6804.2104,35717.19140625
29,-440497.97,-427795.38,-463146.22,4120.391,611.7483,-8516.129,35094.4375
30,-68730.22,-95934.75,-103416.125,11649.374,-2911.5024,-492.3932,37853.22265625
31,23134.63,1176.4506,-6109.8105,4235.164,8440.687,-12410.451,37747.15234375
32,-36987.07,-14350.223,7139.7305,-2825.2324,3122.9177,-5288.8516,39972.85546875
33,113331.14,88327.45,127650.05,9994.198,3724.8381,-3216.341,39503.8046875
34,-96494.6,-128828.28,-136916.39,3373.9355,-3282.085,-2308.9368,38142.6640625
35,29307.982,10577.109,53428.47,1038.8503,4264.899,-771.3971,38000.421875
36,-36497.93,-24660.658,-66347.37,2684.8684,-3146.2473,-6617.1587,39586.97265625
37,30850.033,12090.288,-344.63174,-863.0503,-9982.507,2973.218,32673.1875
38,-50215.12,-19064.662,-6523.9727,-2136.2688,-744.3226,1191.7059,39215.8359375
39,14297.918,19002.062,-22294.553,-2626.9888,-4330.643,-326.32538,40131.78515625
40,26958.207,13556.023,23087.264,7812.8433,-14830.861,12833.949,38468.6796875
41,8496.146,-1176.4554,21079.021,8731.389,229.60645,-2340.2651,24877.64453125
42,-113155.164,-120158.03,-114477.5,-4939.8076,1554.3862,282.0423,11055.345703125
43,67186.83,66660.7,67587.02,-816.37335,-322.16168,-590.38635,2000.98608398438
44,-177811.6,-175936.92,-177664.75,297.09515,-103.99612,-385.5905,2000.98876953125
45,49692.21,49659.383,50581.37,-783.02264,-492.0631,-453.62134,2000.98522949219
46,-87603.44,-104475.234,-103204.53,-11750.635,9185.081,6811.3423,32731.41796875
47,5872.7505,1844.6028,4834.032,-1955.8748,459.11975,-5064.7046,10108.5712890625
48,52176.41,31325.734,43244.105,-4525.953,-7207.1157,-13831.46,33458.93359375
49,2566.1958,17331.54,-14644.885,-2153.8167,336.65903,4367.1826,28979.955078125
50,22228.559,11039.413,-6771.829,-8225.397,4589.609,-7137.869,32569.041015625
51,18211.357,4844.9243,27460.172,-5622.0166,-93.147995,7733.547,25731.23046875
52,18299.371,27527.584,1752.2894,5814.8364,9708.139,-584.2701,29947.80078125
53,-68417.04,-59242.883,-60942.363,-9346.635,332.0386,6575.9966,21531.4375
54,21667.604,14791.275,10130.781,2762.1118,-8791.539,8923.745,24386.720703125
55,24869.723,11536.448,33664.047,-10618.526,-1277.108,-294.7254,26754.185546875
56,-60922.145,-75191.7,-49559.465,-11320.937,2816.7122,-1916.0393,30235.365234375
57,1648.5751,-3502.7683,9614.8955,4813.4995,-3222.8562,4538.548,17131.8671875
58,29034.053,43353.68,12642.28,-2736.179,5045.219,-14132.913,37503.41796875
59,5812.8286,5844.734,27007.379,-4141.836,5323.4004,-10993.518,30782.888671875
60,71989.266,55620.95,85465.15,12061.013,-922.82294,-3946.8018,33996.90234375
61,-23741.33,-37192.723,-21491.14,1412.1552,-6528.25,-5409.1074,20925.666015625
62,9900.641,13204.783,26501.543,2594.3179,9834.019,13439.8125,32921.9765625
63,151210.66,145606.03,177334.75,6714.9263,7618.685,-318.16803,34205.3125
64,-76840.02,-59746.95,-79886.17,-6015.696,15526.866,-7628.406,36877.01953125
65,-42095.074,-53241.684,-64647.355,16919.932,2047.1844,891.57306,35429.94140625
66,-81414.74,-100716.09,-105220.086,-3967.6746,-8568.799,7655.416,30382.193359375
67,-56775.438,-56318.01,-37966.805,-18477.336,-190.42825,-145.91986,37010.5234375
68,446315.47,453941.9,443077.62,4010.9812,7190.2666,10012.379,24442.71484375
69,-256112.66,-248614.31,-255786.27,5746.7275,-8359.679,7060.784,22631.298828125
70,110377.12,113659.55,82093.9,3547.8555,1432.5278,-1839.8507,30945.53125
71,165436.58,166131.72,165527.7,-223.15237,99.249115,1064.0826,2000.98413085938
72,512103.16,533697.0,515945.38,3558.167,-2820.6277,3753.1926,22409.759765625
73,272657.4,271393.34,271937.94,35.172245,174.0705,-949.264,2000.98852539063
74,125357.055,124553.766,126090.914,-35.878067,35.20444,-860.8174,2000.98059082031
75,89544.13,87883.3,89528.64,560.52576,134.47011,-302.34644,2000.98486328125
76,-127379470.0,-127380350.0,-127378500.0,428.2825,-436.2479,307.3893,1997.70434570313
77,-21786.117,-17740.143,-20111.77,-6637.9575,7734.9233,-2699.931,18599.52734375
78,30496.22,20752.969,53176.086,-940.0321,7924.0034,-6843.779,34085.41015625
79,8023.2583,8061.5684,8762.46,-173.36473,738.96497,765.0706,2000.98486328125
80,-31968.645,-37392.22,-28792.305,1465.2242,-3223.3079,561.9777,9761.5908203125
81,-40147.047,-13050.88,-26358.078,-11139.746,7335.667,-1915.0612,33097.28125
82,-8991.979,-4609.395,-15263.891,18535.09,-7651.3823,934.5388,35985.1484375
83,-20364.396,-15636.181,4733.827,-6016.1577,-6386.2275,15650.465,38721.47265625
84,-12196.039,-14608.033,-17592.16,5857.2817,-7970.8877,-3185.2468,18598.017578125
85,85981.84,66259.91,59175.04,-12052.175,7749.617,3146.9397,34993.1640625
86,-226.98242,3160.857,-28689.322,-8538.238,-1007.7431,-11329.094,39048.7421875
87,-7060.4805,-17775.291,-13190.382,-2366.202,9508.112,18931.545,38077.8359375
88,44794.293,57244.176,58799.2,20140.781,3441.3745,3268.764,38227.14453125
89,-26104.904,5541.279,-33960.99,-5651.89,286.72433,2575.058,37786.04296875
90,-13201.628,-22898.904,-6592.939,18249.117,4779.3633,5978.6665,37103.2265625
91,89271.97,77573.766,94957.53,16078.904,9134.873,8856.448,38690.125
92,-32615.012,-43730.52,-63001.895,-16654.508,1816.8433,-2629.955,39647.47265625
93,153530.28,144926.42,183053.44,-320.70758,4283.667,3120.0437,35835.9921875
94,-19579.12,-12985.009,-22475.336,-5464.2847,226.72755,5364.9233,15717.6650390625
95,30724.07,32696.506,56865.434,-7794.548,-14559.768,5633.9683,39359.23828125
96,-56589.176,-28413.139,-64455.703,-6848.7295,-5680.898,-4452.5513,37073.2734375
97,92608.21,93661.56,92415.65,-768.24005,-112.30037,509.9078,1984.41320800781
98,31835.506,54478.215,36549.383,-10665.363,5015.8066,-536.9543,29082.0859375
99,-283269.88,-303323.44,-292576.2,-11035.536,-4666.705,240.31111,27073.693359375
100,-14974.532,-26960.508,-21688.062,-16888.861,3147.5625,11199.402,37013.09375
101,118028.24,121537.12,154716.47,-6346.2505,2719.7417,-2516.8535,37304.46484375
102,207217.02,184792.89,221685.11,-10714.218,2236.9502,3411.0325,37827.265625
103,-41393.703,-1510.7477,-6837.0425,-573.1657,-5657.139,1700.8206,38887.84765625
104,-105239.16,-111320.71,-143189.06,-10291.253,2464.936,880.1131,39807.8828125
105,36701.766,9224.276,-6436.464,-1731.553,2110.3027,-4505.0327,38907.96875
106,16143.62,773.62195,5211.164,-3924.2202,-5933.3857,7610.384,22655.9296875
107,-134285.03,-100321.49,-140851.48,-1393.4244,-462.6987,-1141.9943,37815.8671875
108,22434.209,18677.799,23309.666,-3255.1536,9190.209,7354.1953,21577.443359375
109,27551.324,25395.639,12797.556,18573.197,3012.6648,-6676.1777,37233.71484375
110,-53150.027,-43128.434,-60915.67,-5089.821,-7086.3984,2091.8286,21910.24609375
111,14586.89,18491.455,-8246.844,12504.681,6983.8833,2282.4463,35451.86328125
112,-28518.814,-30983.844,-28365.152,5452.3896,-14996.097,3321.522,28344.5
113,26472.121,12107.877,-5327.163,12041.1045,9509.863,-956.17596,38337.62109375
114,72175.96,50526.043,66566.24,8754.795,-3758.2498,-7357.8706,28521.3125
115,-529681.7,-524044.34,-520385.0,-3865.4775,8736.613,3407.479,19350.533203125
116,62027.97,63747.26,62384.664,656.8909,49.432537,-278.17822,2000.98315429688
117,40059.94,39356.33,39359.93,801.66864,719.914,-52.664364,1995.92517089844
118,59863.26,59897.98,59009.75,431.93335,58.877773,-944.0447,2000.77001953125
119,12121.837,12082.616,10993.39,304.26358,489.34552,769.638,2000.95141601563
120,37891.36,28360.97,56603.32,12688.455,-2843.556,117.43349,33564.67578125
121,52071.64,49104.47,22789.076,-14404.838,-3855.7031,3718.406,38574.12890625
122,-92814.11,-119379.195,-95885.46,15761.085,5842.7446,3049.3896,38847.01953125
123,-18935.346,-15430.906,10239.752,3977.5168,3916.4885,13350.494,37274.80078125
124,196841.03,201469.34,185708.6,10158.703,17250.521,-2724.9006,37702.66796875
125,6031.786,7779.496,6773.71,341.26437,610.2091,-276.4171,2000.98522949219
126,82518.45,92671.58,80706.26,-8771.434,-6238.145,-5051.1484,23427.958984375
127,-129077.05,-98748.96,-118109.2,-2612.7056,2991.665,-1443.679,27586.849609375
128,-192121.72,-194668.67,-169215.84,-1295.165,11533.187,-4894.816,32641.376953125
129,96722.664,119851.3,94465.97,2071.2966,7180.3364,-9182.898,31823.576171875
130,-79087.28,-105410.87,-81738.72,9015.304,3226.98,2430.8616,30380.265625
131,22052.486,-8885.228,5811.3984,5911.732,-3036.6685,315.5155,29176.384765625
132,24822.088,21402.395,480.03113,12550.138,-1571.5745,9735.882,35850.76171875
133,-118809.52,-121313.81,-147845.81,913.00916,6720.5127,-9142.278,34137.99609375
134,-104940.11,-78814.01,-103962.35,10452.493,8245.778,-8842.777,37740.04296875
135,6026.378,2244.1267,4845.383,-3477.9216,-881.4122,-7186.634,14310.658203125
136,-25144.838,-31969.455,-40624.957,-851.514,6416.201,5010.861,19533.763671875
137,-107461.82,-106846.83,-108030.99,825.9827,-141.00386,530.82837,2000.98291015625
138,81205.586,81127.77,82020.875,997.81665,292.9897,91.856415,2000.98645019531
139,-373302.47,-384491.12,-375679.44,-4216.5356,2580.939,498.5478,13353.1953125
140,541204.2,543826.2,550255.1,1522.8848,-1114.1006,6598.5864,14365.515625
141,-137463.12,-110835.46,-153691.23,-2467.9604,1011.6927,605.04425,37774.8828125
142,-69598.695,-74131.3,-105277.02,5483.898,8167.4346,2643.8533,37987.921875
143,28734.521,29420.623,61868.438,-1726.0579,2478.1597,1663.5331,33335.53125
144,-24085.262,-50214.004,-63216.633,464.1003,3446.201,265.90454,35042.9609375
145,10714.423,18091.82,-2409.8442,6088.337,3325.0085,5309.9185,23504.2890625
146,21525.973,18488.65,26590.65,14076.393,-5282.57,-5977.073,28906.515625
147,-40881.918,-19588.63,-54921.77,-6142.19,-3192.541,11050.151,38204.05859375
148,-8838.745,-27180.307,-43535.324,10496.241,-2582.5908,5165.7227,36530.16015625
149,-51697.586,-21478.283,-46652.43,-6773.149,5671.917,-3254.584,32436.310546875
150,7077.317,1900.4069,317.68817,7906.024,-6972.1743,4792.1245,20970.017578125
151,48484.406,50550.918,30843.91,-13769.679,4780.474,2873.694,31844.263671875
152,6641.649,-18623.88,8788.677,-3752.7512,740.88135,-5493.297,28837.955078125
153,9887.984,38811.035,22005.629,4867.4336,-7189.629,1176.2559,29380.259765625
154,135010.05,148987.03,121529.914,1797.7788,5929.7627,1413.1909,26204.107421875
155,32222.729,59406.0,23413.123,7799.629,7037.5825,1211.9628,37302.88671875
156,-97523.45,-60503.336,-68554.74,-9542.639,4916.8213,-2167.0286,38691.72265625
157,43293.24,63506.645,65575.4,19019.664,301.0701,1734.3425,39360.08984375
158,14506.697,25786.064,24955.459,-10577.477,3973.5432,3534.0742,23217.03125
159,40252.297,31295.104,24534.176,4299.969,15855.369,-4458.051,32492.62109375
160,29879.936,12832.254,12040.458,-17727.72,934.2744,4918.543,36369.765625
161,31455.783,59040.86,31246.771,4660.5347,2958.9055,5288.3164,30693.1875
162,8260.781,15199.911,19550.99,-1519.1428,-2390.4055,1378.2267,11271.2080078125
163,13989.43,12113.778,12021.793,-158.08118,-194.8995,-196.5994,2000.98522949219
164,19214.727,20341.545,19682.125,170.84813,66.43413,990.2234,2000.9853515625
165,-12056.424,5354.7188,-3910.4985,-5607.0894,-7563.008,-1987.565,22482.015625
166,-26684.398,-17813.412,-27741.107,-9501.899,5245.582,12073.641,29663.279296875
167,156697.11,138385.03,152052.3,-3818.8523,-12529.3545,13817.6045,36869.14453125
168,38898.188,47077.547,51263.625,-2687.1719,-7702.6772,-663.1152,17878.482421875
169,-14371.785,-34669.41,-18548.115,324.07742,8011.4053,-7829.056,26859.095703125
170,-47086.844,-56563.816,-35033.887,4295.729,10054.47,4740.595,27845.44921875
171,-96403.04,-86686.65,-117227.55,7940.4146,3149.2393,334.86844,30816.3515625
172,-5532.183,-7326.8174,14675.213,3500.5972,-14527.282,3956.4785,34127.3203125
173,14680.451,30998.812,31286.008,6924.2495,16841.205,2265.7385,35793.47265625
174,2969.8918,3728.9133,-693.1051,-4764.169,-9918.224,-117.57042,19494.123046875
175,-49528.418,-32189.76,-38764.52,-4237.397,-7471.4736,-2246.2053,21594.693359375
176,17623.22,31376.072,33701.742,5747.098,-6804.96,3685.075,22478.509765625
177,-143462.31,-160051.88,-179533.33,-4975.151,4717.5586,-1174.9686,33512.5859375
178,36136.07,70963.24,65121.305,-1179.0546,-1475.1035,-11187.742,37812.65625
179,-44090.953,-32281.717,-38517.664,13161.651,8462.256,6091.965,30831.087890625
180,-104047.6,-89710.234,-108706.43,-13888.963,-5645.1475,-950.7002,31162.228515625
181,14344.099,8924.366,6241.8486,2303.305,-4561.093,-1201.0284,11565.5390625
182,-21879.65,825.54987,-5773.0693,-15497.6875,2761.2761,5639.257,35327.85546875
183,71168.74,39440.664,69219.81,-5209.298,5974.293,-663.35077,33740.78515625
184,137945.28,134118.6,146826.2,-3438.9644,3247.0603,-2266.1355,14491.87890625
185,6967.29,7237.971,7655.8145,-36.84147,-875.48956,-668.1971,2000.98559570313
186,-12577.318,1780.7355,-23691.143,-1675.1566,5355.7256,-3634.1794,24966.68359375
187,-2312.7905,-7183.6875,-9689.09,3190.8247,-8414.708,10299.941,24564.98828125
188,97752.03,97242.66,96932.82,790.5899,-217.10403,-700.1538,2000.107421875
189,-9815.893,-9349.562,11720.3955,-8928.06,2358.1155,7072.137,29323.103515625
190,-33902.29,-35600.28,-25839.746,14680.739,676.7259,8429.929,30703.66796875
191,5741.2744,9345.278,-10175.699,8619.272,-789.3178,10728.341,29895.48828125
192,103316.81,94934.61,126632.11,-7004.6074,8556.184,-2434.6255,34552.8359375
193,-46425.316,-54917.723,-32896.906,-6031.152,17021.533,6552.9775,38434.0234375
194,89641.13,87027.51,126243.555,2189.4377,4337.536,-2066.1511,39062.30859375
195,-68404.766,-78283.266,-94023.664,17318.625,-3518.0093,-433.7956,37925.37890625
196,3123.9705,-12417.426,7477.625,-2679.0137,-14044.697,4643.632,31719.599609375
197,29616.186,19967.379,3381.6523,-15000.323,718.81836,5598.178,36039.09375
198,16418.068,-20778.943,13993.057,2412.4985,5033.508,-2259.8792,37524.4609375
199,1689.168,-29587.041,-33425.31,-9848.384,2622.0078,3659.6228,38272.12109375
200,-70527.414,-88396.09,-62081.637,5286.3447,8329.577,6653.9087,31086.029296875
201,60397.688,54756.555,41971.746,20851.207,-166.57999,-513.4178,39655.85546875
202,-147453.8,-154610.03,-185401.67,-9685.848,-4304.9204,-1448.7742,39535.171875
203,-3744.2615,-2642.8066,-21631.807,20021.977,-1475.7317,4535.271,40146.703125
204,-106458.6,-110388.016,-146015.16,-515.2867,-6820.8936,1387.0352,39634.19140625
205,56785.098,46306.76,89853.164,265.87787,-234.94743,1716.0713,39484.21484375
206,-79632.83,-64319.496,-98860.305,13791.967,1300.1189,-297.0261,38400.80078125
207,143812.11,148623.66,183633.44,123.8517,-1525.3486,-2814.1064,38053.5234375
208,-12567.61,-31975.021,-47339.234,-11165.958,-2276.9387,-5396.9634,37253.953125
209,-26799.85,1060.1377,-7548.481,-5182.418,417.0998,468.8659,26309.7890625
210,-160461.72,-147336.31,-158366.61,-19303.229,1138.6471,-2777.2754,35972.765625
211,21534.615,21180.27,32133.873,933.57947,-714.05194,-648.9907,11028.7587890625
212,-30830.965,-30758.75,-30760.996,-8.097965,-1114.1699,-302.5254,2000.98571777344
213,-47174.43,-59840.52,-62905.598,-3697.0332,5906.617,3401.1865,19723.5859375
214,68951.67,77304.99,57577.04,537.63403,-2916.345,7001.854,21624.904296875
215,-5629.2295,-16762.494,9646.94,-1654.6798,-5215.895,1.8857433,24843.814453125
216,24006.764,13301.19,25407.482,-5317.4424,-7713.308,3913.8923,20996.033203125
217,13964.172,-1692.7899,4705.9316,-6392.24,-7381.584,776.5748,21765.8984375
218,-115104.72,-115203.055,-115400.65,-864.49854,270.80554,700.8849,2000.98547363281
219,53770.93,39327.707,64888.844,4975.938,4313.3726,4138.7256,25966.8203125
220,-16205.805,-14272.816,-13474.31,-598.70966,-15427.527,10326.019,32262.9609375
221,-14617.885,-32792.523,-42865.848,-10443.482,6425.914,-9450.685,36522.46875
222,8890.563,6040.685,-17306.963,2252.6035,-3069.534,-14839.946,36385.89453125
223,18344.123,34517.523,42065.64,-3969.5178,12925.549,12597.422,38277.8984375
224,-116649.39,-141287.53,-115272.414,15056.06,6183.487,2312.3,38126.9140625
225,-53497.895,-62565.36,-81077.125,5107.7554,-4174.105,10847.926,32807.4453125
226,1915.0566,16839.832,32853.54,-9523.544,9388.488,-6766.3945,37310.3984375
227,131497.5,117437.1,128841.14,301.33142,10746.633,-17637.752,38044.91015625
228,-30600.156,-22634.166,-35994.152,9023.616,-5155.585,-1087.4076,21519.4140625
229,-70493.21,-41926.754,-80490.43,5702.6587,6641.1265,457.6811,37842.765625
230,73432.805,93635.945,110472.875,187.91924,-1354.9832,-11499.872,37870.34375
231,-28796.463,-34691.74,-37419.46,7308.8916,651.0521,976.8704,14922.1162109375
232,11216.203,15503.174,26240.83,3983.812,6545.208,6811.233,22248.990234375
233,-6672.28,-4152.307,-299.43948,-6843.7896,3931.163,4592.1665,16764.3203125
234,-18726.334,-24422.387,-9073.791,755.9945,2456.8508,-2808.7288,14969.5615234375
235,-10259.069,8179.89,5070.597,2446.2178,12279.968,4997.3486,28941.251953125
236,-131395.61,-122082.51,-152337.4,109.653046,9421.217,-5384.9463,32766.3359375
237,-12752.893,-18945.455,-29427.562,9169.025,13644.086,4847.7344,33080.68359375
238,-18778.23,-39721.086,-51228.633,8010.046,3769.2087,-5403.797,33685.8125
239,37570.55,61053.64,50627.25,-7713.4053,12832.327,-1633.4749,33103.19921875
240,-55380.98,-35804.48,-70951.12,1214.6234,4641.7095,-2547.3452,31921.8828125
241,78002.04,80742.56,85940.81,14993.144,-5877.0635,11952.158,35430.8203125
242,3606.568,-3639.2007,-33356.26,2770.2612,2858.291,-5804.327,36049.0078125
243,29869.082,50032.887,28508.803,-4114.0757,-161.89154,826.8599,22108.015625
244,191904.94,164741.97,189350.05,4257.9854,-5197.3228,-12367.065,35626.06640625
245,-304592.2,-293696.3,-324174.3,2700.5437,8335.502,9225.309,34658.09765625
246,211018.2,211179.7,211949.33,312.6986,-263.59827,-959.066,2000.97863769531
247,-688000.9,-697913.1,-704409.25,-5258.2603,9938.555,4366.613,25324.2578125
248,505964.25,506141.16,507694.97,-154.13475,454.01675,-444.73486,2000.88525390625
249,128724.37,129074.59,128614.195,-998.0032,170.69011,-501.7057,2000.98571777344
250,178634.28,177501.92,178011.95,-155.33205,244.13434,964.0053,2000.98449707031
251,146651.98,146988.28,146941.67,-62.357063,305.70898,1003.0949,1846.68090820313
252,307808.62,307852.2,307776.56,-665.4948,-363.68124,-870.66376,2000.982421875
253,363448.9,363828.06,364700.34,-286.7192,-440.14206,804.3163,2000.98425292969
254,18929.717,19992.729,17957.566,-184.03969,457.53555,233.91718,2000.56420898438
255,-221438.67,-221448.53,-219936.31,-755.3109,42.834362,69.64385,2000.8828125
256,122152.11,121013.16,120658.82,555.2418,544.67053,347.71606,2000.98425292969
257,47824.35,48608.6,47500.926,713.91223,-692.3478,-145.59155,2000.98425292969
258,-382718.47,-382935.4,-382476.0,-331.2197,-26.715582,-1082.305,2000.96655273438
259,-238393.77,-224547.33,-240718.42,-9966.651,88.71217,-7113.989,26060.86328125
260,-33767.95,-19201.799,-17024.559,2957.8245,5926.1533,-16450.066,34526.0078125
261,78827.586,97726.52,95740.65,4160.9355,10651.152,8431.484,30481.6953125
262,4914.215,-13339.54,11023.909,-10386.074,1813.2264,-6470.4536,30677.810546875
263,40083.574,32011.578,51663.65,-7355.365,9429.401,12750.14,34777.47265625
264,-20292.059,3071.3008,-18212.33,14803.668,-4848.468,-1456.8494,35155.62890625
265,20626.863,-1830.5596,27030.135,3748.8315,-2420.8157,-4966.9165,28686.08984375
266,-16303.654,-28981.49,-21271.818,-11112.848,12098.075,13021.896,37956.69140625
267,10571.618,-6470.114,16234.936,3730.9001,-7021.3926,1233.9639,24763.546875
268,-31437.42,-41501.367,-26419.71,-5676.5425,4280.481,-1423.7954,18294.177734375
269,15117.291,28211.248,3840.3506,-6167.325,-556.94525,3305.7644,24374.236328125
270,-4911.4043,9413.913,-21217.293,-10831.662,-2313.4094,6953.5947,34896.58203125
271,24466.4,16599.941,10266.207,-11591.009,-9415.992,11079.709,34483.88671875
272,98788.48,103233.23,110472.02,11114.567,8205.32,9873.913,31135.12109375
273,14910.092,25107.477,43430.094,8977.3955,-7334.0894,5752.3774,33600.0703125
274,-8886.359,-9873.576,-31733.947,3524.7825,-7134.5273,-7140.6323,29040.900390625
275,10008.561,-10841.708,-13630.689,11149.059,6432.2944,-161.90689,31587.48828125
276,2956.34,8439.324,-11635.633,-3522.5605,9177.879,14951.198,35826.484375
277,1329.2634,-15085.913,-3878.0742,-7507.197,6616.7144,16386.033,36290.7421875
278,-32095.697,-37515.965,-65215.21,3310.6565,10592.22,3202.966,36701.61328125
279,14677.053,20737.053,-1433.2026,-5251.804,-5345.8237,-3973.1455,24692.662109375
280,-21644.783,-36192.92,-21217.846,-3758.2705,3553.3882,-14048.2705,29838.849609375
281,-3222613.2,-3222517.2,-3219378.5,214.97873,-479.51556,666.84845,3510.66967773438
282,26027.105,21788.11,39640.688,-10159.919,-2885.4004,-128.04413,24407.0546875
283,-16425.219,-6699.0283,-45777.21,2736.1602,3924.1526,2749.4846,36509.68359375
284,12910.69,17877.805,50673.855,-4672.5137,-125.001656,-2470.1418,36701.55078125
285,-295376.9,-311097.25,-283245.8,1921.7317,-4329.717,-2059.907,25788.48046875
286,-57554.113,-50901.457,-55030.996,-7577.5913,14674.285,9034.413,33120.4453125
287,125763.79,153703.06,112859.14,4489.629,-2197.7793,6234.035,38719.890625
288,48838.3,74651.99,43134.1,12814.06,-2138.7825,-6727.004,38577.3515625
289,148453.11,167027.69,186805.17,6530.872,-3803.964,-9285.081,39160.28515625
290,98473.766,65897.07,67958.52,1256.6226,-4345.8647,11406.011,38079.171875
291,-26243.914,-41525.03,-35139.55,10648.295,8435.491,-1334.0903,27123.421875
292,41171.37,56736.938,80979.1,2348.7878,-7417.2046,-1012.69885,37309.3046875
293,117454.34,118427.8,127236.21,13473.012,-3421.1282,-15791.493,37615.19140625
294,88899.695,66527.08,102627.38,7682.048,-1476.036,4884.586,35373.1953125
295,124135.16,111438.87,82797.23,4920.723,402.5946,-1473.1187,37746.7734375
296,-97728.52,-106830.7,-123597.59,1502.574,-7163.792,-1017.7038,26085.123046875
297,-6896.198,-20771.662,-9249.973,-10393.374,-6401.812,-1830.1008,24949.412109375
298,18226.7,17921.953,17116.504,-33.697865,895.99524,449.08728,2000.98559570313
299,-16893.594,-10296.742,7943.9224,3110.9417,5137.077,-15359.842,36229.10546875
300,4592.24,16320.518,-16962.225,2857.0745,-3845.907,968.01074,30440.3828125
301,7311.046,-8208.929,1814.5753,12314.294,4111.316,-4872.7964,27615.982421875
302,31639.775,14482.28,45744.086,1409.7823,-3394.9834,4036.557,28718.068359375
303,-7628.0127,-13841.36,-11345.14,4156.909,8208.226,1056.618,16930.470703125
304,-11555.532,-10082.392,5242.2656,-4621.887,-5336.7246,10719.26,27455.884765625
305,-19471.145,-10641.189,-31990.463,4105.6123,-2394.892,3637.649,21277.185546875
306,18701.244,16558.441,17958.89,382.2426,62.068233,-7.401348,2000.50610351563
307,110357.98,113429.67,138423.03,-6725.1426,11738.869,-8074.7915,38151.90625
308,140538.84,126465.88,151681.48,-3366.51,2733.665,-925.9955,23194.998046875
309,-536045.4,-536757.44,-536044.3,-108.55334,-295.15152,-1032.7047,2000.98046875
310,31623.17,8575.718,21622.955,6787.7915,-7083.2637,-12544.421,34081.33984375
311,-76211.24,-75948.336,-76554.875,22.947699,-568.08777,958.5833,2000.98559570313
312,-3114.1863,16740.19,3577.6511,-6344.1167,527.7017,-5759.838,22961.287109375
313,-6451.113,-11327.704,-25519.645,-9070.4795,-5617.159,9796.75,30394.20703125
314,84747.984,79281.945,112836.83,-6173.2856,-1395.8837,8254.1,36013.328125
315,-142877.56,-131217.7,-158215.42,-2501.704,-5500.241,11792.319,32813.859375
316,-29056.281,-22394.502,-53236.113,-14048.693,-3756.0684,-4693.7817,38608.81640625
317,-110909.68,-91781.195,-131747.14,5783.122,-6686.027,5433.9365,39009.140625
318,85255.016,77364.445,106151.03,-2607.0227,5904.212,-357.3587,28091.6015625
319,175178.1,155926.56,147665.44,15093.534,-2302.1238,103.292656,36017.80859375
320,11563.232,-22273.67,-2980.7412,4556.776,4284.4453,902.1432,31371.06640625
321,-2933.9214,3997.5713,3404.5222,-4924.59,8082.191,-2293.8955,18132.640625
322,11195.367,12123.255,12570.938,-28.471363,-917.3645,-3.7672644,2000.98571777344
323,-37077.926,-29063.918,-50357.95,2160.1018,-7416.199,198.02716,22937.421875
324,172044.12,164861.77,172734.88,9476.431,-2245.713,7872.672,22967.35546875
325,-22881.232,-14890.059,-12138.203,687.7707,-676.0991,-334.35684,9825.880859375
326,6452.402,37643.875,23823.549,2269.7627,-621.90686,-12190.793,34573.0390625
327,91748.13,119244.17,112465.12,-6840.344,11322.75,-3584.1865,34338.23828125
328,14188.696,2123.5967,41105.875,1111.0984,2196.306,3889.6614,35474.2578125
329,-59837.164,-57129.93,-77079.03,6267.443,16244.22,1876.9529,35655.6328125
330,-23910.623,-35879.66,-2286.7163,1156.9188,-4898.6724,1707.6849,30893.744140625
331,42983.043,60106.574,80088.71,5987.0,-7169.8765,-2731.007,36315.21875
332,8320.008,19980.94,4425.038,-712.60803,16008.23,354.0959,31100.75390625
333,-306008.84,-306276.53,-305913.4,-1020.2404,-339.73688,378.01984,2000.98583984375
334,558460.75,558451.3,560412.9,16.82261,-160.18965,179.5239,2000.95520019531
335,60515.758,60955.07,61660.44,-969.93,221.25137,107.04425,2000.98645019531
336,-2647.566,13056.457,-5904.24,7664.3594,7268.1216,-4691.966,26629.171875
337,-10058.315,-26624.24,-44834.465,-10593.071,-2716.01,5533.672,36855.73828125
338,-17123.436,-33317.887,-27766.887,-12664.183,9386.279,6153.501,32591.81640625
339,120022.27,82096.71,100125.016,-9464.244,1474.7253,-4516.174,37630.6015625
340,25854.91,38634.406,27460.242,7337.008,-6091.1567,-9641.198,26401.458984375
341,-42055.586,-37771.016,-71481.52,984.1116,-7024.78,7897.69,36720.421875
342,48452.7,47754.19,54272.676,1094.8276,-1651.1482,-449.74234,7127.89990234375
343,12461.988,16486.977,-14423.308,-13283.82,3318.7202,-2283.4587,37753.1015625
344,-11225.433,10216.072,1042.9921,-6575.0767,2650.0068,-5667.2046,24378.53515625
345,27817.395,8291.396,38530.5,14269.448,-3109.2048,6682.41,38458.23828125
346,29839.758,36061.35,62717.76,-6678.2456,5947.808,3667.9683,34574.64453125
347,-5362.456,6143.564,-34759.6,-4083.1006,-7427.7764,-563.48737,39386.6484375
348,-19280.852,-20602.21,-17122.93,-705.1459,4138.337,-9023.327,17503.841796875
349,-56335.992,-31591.254,-38122.234,-5158.4966,-13212.069,-1699.0748,33249.29296875
350,22477.443,22575.275,22609.42,176.46606,-1028.7463,-490.40216,2000.98425292969
351,-50425.1,-34012.723,-70881.7,-12096.679,-599.3649,1386.3607,38332.921875
352,26188.402,13169.036,24263.58,6774.7236,14743.789,-3562.298,31241.755859375
353,28216.008,23273.336,8458.205,44.00867,1908.3546,2966.5183,18827.54296875
354,-16737.729,-20121.93,-19906.613,-96.931694,-4608.3784,1366.0154,8950.3154296875
355,-21638.227,5212.8022,-10031.35,11845.437,3874.006,3452.8105,32338.41796875
356,-34988.195,-50977.67,-18655.426,-8296.444,1888.7703,-9041.086,35298.64453125
357,29047.803,43289.477,34841.64,-5029.8154,-12637.096,-1462.6941,26744.79296875
358,-44327.67,-33357.273,-28718.32,-601.6186,-740.7945,-9679.801,21830.90625
359,11303.113,29897.707,39364.883,-15388.891,-6227.454,3801.6113,38491.28125
360,-1901.3629,-6648.2725,1861.1135,-2649.5315,1383.4264,340.11133,9038.705078125
361,-2306.406,6047.6675,979.11554,3100.5845,-865.6153,135.43016,9180.494140625
362,29555.043,22801.09,39276.664,-2443.695,2943.6064,-1059.3704,15907.90234375
363,3165.4004,10192.22,11640.066,-9883.682,387.44266,344.82336,18855.09765625
364,52726.305,52671.0,54013.062,-19.496523,131.47716,860.4228,2000.98706054688
365,29086.32,22229.662,11305.604,15211.024,4628.982,-5901.6895,33228.7421875
366,727.4293,-10668.338,4615.109,613.5484,1146.3616,470.93643,13964.8759765625
367,1156.5598,20301.568,-1407.8445,9335.916,-4674.325,1323.4287,27467.861328125
368,12410.844,2301.8608,16575.367,-10499.46,3630.367,4205.0933,24185.470703125
369,-17046.441,-18837.588,-36803.312,-1873.8015,-7956.6665,-4650.4717,24969.869140625
370,-7586.6743,-8530.589,4809.774,1340.9655,-2124.6902,-2580.822,14324.228515625
371,15940.84,14115.225,11480.08,-2973.6206,-5344.579,4165.605,13392.7314453125
372,-18.212402,13532.294,2875.7705,10407.63,1309.6295,-370.1776,21983.83984375
373,11666.563,8853.608,-2769.8164,-1378.6964,1982.6372,-423.2441,13919.240234375
374,10618.406,1421.6519,-732.7114,-2839.2253,3496.2566,-1222.4369,13205.029296875
375,13686.851,29974.967,-3746.4902,2614.1912,-1088.6547,-1428.5466,29721.375
376,-25892.535,-35081.797,-54014.723,13163.412,343.9718,-2059.7383,33908.50390625
377,23333.596,-860.81934,2498.8472,-12242.662,878.19727,3060.0981,31550.380859375
378,-16372.191,-3735.8203,-21137.59,5946.6914,-160.06326,-1808.9236,18936.396484375
379,-7808.1753,-14269.441,-11202.306,8075.2656,-420.95956,-884.28906,15160.638671875
380,46405.83,58021.527,49485.875,-6311.8247,1249.6161,3074.1125,16161.2734375
381,26002.73,-3515.1118,14994.338,10317.323,-21.706615,1264.3329,31490.98828125
382,26554.045,7949.248,50636.816,644.03265,763.4168,2683.0327,37400.02734375
383,-11284.225,4847.062,5335.204,7965.2812,-1125.3093,1330.7125,21628.2109375
384,-1298.2117,-9014.538,13655.511,13774.845,-631.20123,-3089.4014,31584.9765625
385,-11430.623,-8432.426,-17771.729,2121.1577,2173.4082,4059.599,12054.90625
386,-9400.938,5252.777,671.0448,2736.5466,491.1913,-1920.5527,14242.1796875
387,-13463.646,-12201.663,-19470.693,225.50555,628.49445,-514.3724,6883.98974609375
388,-4533.658,-22041.129,-17331.393,8059.785,299.37134,-967.26294,21075.90234375
389,-14548.554,-8087.7646,-13286.724,16440.264,-702.1409,3540.8208,29750.958984375
390,18038.021,18063.41,18139.436,-76.672104,-1058.4126,-453.59317,2000.9853515625
391,13472.153,9281.495,22225.805,5487.1523,194.23235,-2311.382,15405.8017578125
392,-46.605347,254.15088,-1995.7712,-1820.1906,925.6646,-808.1055,4352.5712890625
393,15668.566,4699.9746,43114.47,-3173.6619,-4641.6084,-4848.3105,36605.99609375
394,4775.181,6423.6343,-840.65234,-804.3167,2269.8813,-249.33337,7816.44287109375
395,11385.021,660.6709,24183.402,-12222.194,-2152.2732,2802.2898,30027.75390625
396,16127.664,14907.346,448.625,5233.6943,-1215.2546,2068.5522,18100.55078125
397,16089.204,8774.231,3749.893,1459.1914,605.566,521.1024,11126.9130859375
398,-3558.314,9089.42,-7947.9805,240.80069,-3361.303,-182.44902,16398.859375
399,-1981819.1,-1982018.4,-1980866.5,1.2056327,-717.1268,664.3742,2001.00024414063
400,-56359.992,-40344.85,-11597.166,1368.5618,-3789.238,2330.263,40103.57421875
401,-40574.523,-5364.3184,-41104.164,365.29312,5796.8125,554.04443,36889.26953125
402,-2000.0547,-26098.158,17787.912,-1987.2203,1380.9758,5529.0874,39476.7734375
403,-726.61523,-18351.572,10274.413,643.9419,-1549.1897,-3324.4941,25829.345703125
404,25245.615,-10531.449,-9132.759,5218.2285,6643.532,-296.0533,38029.93359375
405,4479.9785,-8403.277,-3083.9392,1475.2784,-524.6931,-3822.1536,13301.318359375
406,-985.09814,-3222.0093,6905.888,-4258.211,-3880.2168,1783.6014,13929.533203125
407,-9759.247,-13276.541,-13111.475,-892.26587,546.64105,-1332.8319,4520.19921875
408,-31070.781,-12032.375,-47195.594,5180.801,7432.71,3302.104,34762.48828125
409,-11569.309,-28296.152,-51618.688,-724.4372,-4708.2354,3800.5046,36403.96484375
410,12517.695,12500.883,12328.108,105.03546,-1069.7853,-410.07477,2000.98498535156
411,-35147.387,-35372.883,-46934.688,-2392.1826,-4535.5415,-550.0286,14701.0869140625
412,688.3855,-8528.041,5507.6533,-2628.9756,-4552.3687,-592.14374,15379.951171875
413,-1617568.1,-1617546.4,-1616906.1,-102.11123,-758.6919,779.1856,2000.95703125
414,21532.068,19360.17,-14010.568,10557.026,-2647.8018,-1783.081,39442.671875
415,-24295.643,-24173.037,-25137.51,54.794525,-213.9984,-1005.0803,2000.9853515625
416,-8780.506,-12978.096,-1671.7246,-2829.7026,2813.2944,784.2965,12149.287109375
417,-21043.13,-14819.079,-38542.348,4603.3843,147.43558,988.49915,22813.318359375
418,-14738.97,-11016.442,-25686.36,6370.767,-5217.9253,5599.6763,21724.73046875
419,33083.9,15411.817,21706.602,1651.5554,5662.6763,2449.7217,19054.365234375
420,2835.4377,2786.9255,2619.4224,58.043686,-360.09256,-1090.3057,2000.98571777344
421,-47147.16,-47305.824,-47351.156,2.0592248,-1065.1775,-434.2416,2000.98510742188
422,9728.014,8797.406,24097.896,10532.56,-4282.189,-1787.0107,24862.1875
423,-70864.7,-71079.28,-71254.65,-135.38655,-538.55005,-994.0518,2000.98522949219
424,1592.229,9678.768,5607.094,10163.773,1247.1097,3567.6328,20044.98828125
425,24772.527,6662.5566,4555.395,-889.1137,-871.10394,-4326.7905,20769.765625
426,11974.824,7691.76,-1854.981,-1297.7449,751.9616,-2357.241,13183.046875
427,7051.0103,7120.9375,976.1023,-879.99866,-3562.1487,-475.12302,8854.4521484375
428,8677.221,2588.55,8784.714,7549.2725,530.2643,-2252.3955,14992.52734375
429,-12865.904,-5164.081,-28645.793,12266.759,6908.6797,1345.148,32091.9765625
430,6857.8516,5674.02,4886.8115,1899.4742,1643.9293,1023.7192,5002.85888671875
431,6544.142,-4519.702,-190.77838,6052.6597,620.2142,1510.8054,14531.3232421875
432,-11978.848,-1282.5369,6879.661,4424.608,-1494.8815,-3392.9773,19191.412109375
433,-21766.23,-16923.426,-39790.855,6189.3477,4793.2754,-5081.6636,26399.8125
434,-9222.032,-12209.174,-8408.5205,-4252.332,3801.469,1966.3857,11009.7861328125
435,-15703.884,-19897.615,-7018.9834,-1391.1027,426.20468,959.5488,11770.712890625
436,-37615.543,2687.3467,-13.2734375,-1930.239,1104.6636,-3233.216,39610.26171875
437,-4167.053,-6389.033,4806.956,-2580.6497,886.902,-530.428,11339.89453125
438,-38561.383,-40972.727,-25275.273,12211.484,-8764.497,1189.6299,29940.41796875
439,111789.35,122533.875,152235.22,-3777.9077,-1804.7102,-2304.4807,37219.10546875
440,-24080.32,-23361.0,-30252.479,4469.6255,-2968.72,2983.7913,12495.37109375
441,57611.86,17416.098,25055.27,5670.7305,-2781.2107,-5524.1455,39726.80859375
442,17697.574,13806.013,989.6299,1347.9359,-1466.2938,1422.5251,15724.224609375
443,-6869.67,-11498.704,-6130.6377,730.2551,-455.508,2227.0547,6518.95166015625
444,-10363.334,-11756.823,2852.9297,-741.12036,1294.1947,156.47456,14204.724609375
445,5712.5234,-9000.483,9031.967,-6272.6665,2212.1123,-525.04095,20245.41015625
446,10781.968,12913.281,19610.926,9529.106,-4112.766,-1945.3152,19954.564453125
447,16084.867,6847.64,-2383.7217,-12393.305,533.3548,648.3377,26808.822265625
448,17889.473,17765.715,27890.281,-749.3481,9223.5205,3531.459,19889.376953125
449,-6074.767,-4451.9927,-11484.584,-6641.8315,3531.5813,-1862.4191,14860.7607421875
450,13079.141,13521.525,4170.1455,4118.003,1716.4795,1183.0844,12141.619140625
451,5217.6143,779.12305,5640.7812,-5177.0264,-1219.3092,309.45993,10339.716796875
452,-27652.61,-12677.158,-31173.8,-1121.4728,3412.1028,733.2574,18157.857421875
453,-12813.697,-1599.5581,618.6001,5642.484,-4044.7683,5208.532,19532.8359375
454,-2248.156,-5463.347,8479.095,12034.603,2100.3296,3445.5686,25362.3046875
455,2043.6294,9047.351,14317.221,9397.114,-292.08124,1502.5032,19638.689453125
456,6333.4023,-4520.2725,-12845.425,3441.1318,3061.6545,371.74475,18480.5
457,-13893.2705,-3712.1787,1402.3706,1530.9309,-2425.8762,2688.9253,15108.333984375
458,22412.686,14788.783,24399.113,-1114.124,-2942.4573,7.13293,10339.837890625
459,15171.767,17753.748,2070.293,-1241.6095,767.67413,1010.4362,14886.19140625
460,-5279.2017,-6947.3296,-14094.786,-3498.5852,4273.543,1570.8025,12833.6943359375
461,-9174.998,-15251.102,2381.2397,3308.766,-803.52905,496.69666,16619.37109375
462,-8546.886,-4061.5737,3899.1206,-84.27513,773.9554,-1142.0211,11177.1123046875
463,-64520.71,-49048.64,-74913.91,-5754.596,-323.29303,2093.7112,24920.23828125
464,-103089.914,-107929.63,-142153.92,-458.00134,2562.9644,2031.2295,37323.91015625
465,-8599.393,-11452.937,-16884.873,-5693.0933,-1956.0925,-1880.0302,13132.603515625
466,6361.1045,-230.6781,-2651.5752,4434.181,-1294.9303,-1228.8085,11567.916015625
467,-5548.5547,-9704.997,-9864.367,2331.8818,-2882.8723,-3299.5798,9584.9560546875
468,664.5635,10643.182,21286.598,3918.305,-2399.04,1118.0063,19650.37109375
469,5025.788,2499.001,-26892.28,610.4111,1156.7054,-1421.8657,30914.306640625
470,-30152.896,-13590.559,-5384.8945,-5051.7466,-4286.958,-2038.2125,24934.0390625
471,-36813.58,-7505.913,-5455.575,-3704.6284,-2393.308,279.86237,31334.091796875
472,11734.014,13697.359,13445.83,1850.6371,3969.89,5103.077,11794.193359375
473,-56048.234,-44213.594,-72285.125,841.24133,4532.5723,1794.3875,25870.220703125
474,10031.266,-2486.5876,-19630.006,-6801.637,5259.8926,1876.535,29959.015625
475,14559.787,-10291.486,6883.308,1247.4938,405.01398,-759.58435,22195.39453125
476,-15974.529,-5857.086,9735.717,6668.9004,-5508.0317,-454.2894,26987.302734375
477,6792.0605,24417.23,18827.793,18754.71,2666.7075,643.7582,36347.87890625
478,-60191.39,-23592.83,-29463.795,-10122.144,-2152.3337,-3629.2244,38985.109375
479,14079.043,12581.355,21891.293,-8132.8677,-650.5473,-2965.669,17351.09375
480,6677.725,19785.44,-6772.9326,-1927.5757,585.9524,1931.4757,23503.3671875
481,13410.196,17181.934,9713.311,-6714.549,319.778,-826.8714,13395.896484375
482,-6922.8643,-14238.959,-5202.9717,-4326.2954,1550.178,1058.0972,11652.662109375
483,-7951.4795,-12696.649,-458.94482,104.6716,2258.9119,3047.0125,12545.9892578125
484,-18601.57,-11184.701,-7577.424,40.11141,1457.046,-3501.3745,11744.349609375
485,-10151.811,6746.3516,-8510.147,1494.276,2697.705,2093.8076,17383.48046875
486,4467.957,-6987.742,-7356.448,-307.76465,1188.7181,-1569.8899,12145.359375
487,-2231.046,12974.396,-1976.7842,5580.662,-1752.5005,-532.6127,18190.66015625
488,-18774.97,5562.785,4154.435,-7152.026,2377.1824,-2609.6409,27402.041015625
489,-16069.486,-5449.1978,86.05859,-4609.561,352.6796,-839.47424,16384.353515625
490,-12160.254,2274.1797,-4844.2896,-1017.8883,4720.2407,-493.24207,15065.0107421875
491,-33201.586,-30415.285,-11505.046,509.54263,-1711.1252,-808.67676,20726.1875
492,-13062.129,-15198.716,4178.3086,6801.6577,-2974.7087,-2790.4639,22963.619140625
493,23689.479,12626.842,-2926.167,-1927.8678,3544.3347,1540.4961,24337.04296875
494,1119.5186,-15926.689,644.397,-3408.3003,-966.8321,538.984,17922.7578125
495,-2795.669,-16144.506,-10559.772,1577.9756,-340.30573,-1178.4823,12116.7197265625
496,-5622.368,-8366.98,941.6006,-3696.3318,-1615.1318,2819.6907,11886.9951171875
497,-23142.959,2504.8564,-12905.694,-725.8845,-458.45392,1356.2296,22533.927734375
498,1970.6772,17463.535,2742.649,2423.241,-1164.6729,218.47694,15826.984375
499,-7429.235,-8694.796,-9611.172,1530.8856,2252.6516,-591.7363,5187.07275390625
500,-25143.477,-56986.918,-58614.83,-6209.7876,711.85846,-3479.5706,34957.40234375
501,12261.271,5119.681,5714.434,-2804.7478,848.34155,-282.01593,8550.20703125
502,-24528.398,-33782.625,-44567.13,-9026.822,1002.7687,1845.6564,23652.37890625
503,-3259.8843,13725.102,4243.908,-234.88783,-454.08432,263.20663,14776.2236328125
504,21752.086,-890.65625,2516.7168,3674.038,-4061.471,-3790.527,24088.13671875
505,10129.637,17919.604,9463.618,4297.0176,343.9045,-871.24915,11150.8095703125
506,600.2197,14352.694,19585.594,700.08386,-432.69907,-3919.623,18346.703125
507,7406.5386,21115.834,11214.755,-58.99829,2475.9219,-166.2918,12989.353515625
508,-64499.867,-91147.945,-83696.266,-7121.088,-121.92759,-6914.582,29371.470703125
509,2256.9814,-2329.794,-3319.5237,3801.928,1497.1111,3169.3428,10333.4375
510,12878.801,162.0415,635.4219,-2208.3389,-158.15784,-19.91163,13062.4169921875
511,-22313.047,-19392.645,-16235.385,1661.2162,-555.8282,-922.7319,6283.1171875
512,2117.1514,20243.598,2862.0947,8095.2114,-3003.1982,-2576.058,23647.048828125
513,5512.0293,-1238.5552,9180.711,2249.1965,-2907.9521,-325.5309,11165.056640625
514,1125.1768,-1798.9447,-9310.957,-691.2226,-37.875675,2962.292,10710.27734375
515,-1938.2512,985.6892,-3819.1465,4618.257,-26.447765,-641.90234,9099.99609375
516,-4241.8027,-29905.195,-19333.014,1704.8916,-3614.017,-2601.185,23817.31640625
517,-15953.652,-2162.6494,3449.539,-1650.2096,-1214.2834,922.71875,17726.62890625
518,-12920.644,-14854.33,-11880.445,-1168.0737,1002.72656,-44.76526,3734.72290039063
519,34186.547,13335.993,7458.172,7634.9844,-162.71475,-3881.702,28495.814453125
520,15297.499,11961.981,23858.562,1076.4414,-1543.9268,1178.6311,11303.4462890625
521,-13900.04,-12103.868,-30872.38,7313.572,-2903.8425,-885.50916,22580.658203125
522,-5283.7534,7396.1074,2172.5273,-2231.6577,-1845.0836,-589.49286,12166.6259765625
523,1927.2422,28554.08,15017.618,2473.3406,-771.5718,982.6972,23554.751953125
524,5810.0605,6083.7524,3860.4912,4221.092,-1377.7156,1.2304682,7972.23095703125
525,-17039.734,-12213.004,-4228.205,-11832.708,588.6557,-2601.497,23811.271484375
526,-57005.715,-63602.676,-38724.723,-4758.8516,28.964035,-2606.024,24220.44921875
527,1610.8986,-3814.2397,98.753296,-13813.655,1974.219,1147.7151,24730.763671875
528,-19146.635,-8655.229,-10634.275,-4132.3174,-2041.2155,-1332.8488,12738.9375
529,4408.6484,-6292.117,5954.1255,1910.7432,-1647.1454,-405.59277,12370.0546875
530,19152.807,6536.96,-9355.7295,4666.087,-2858.6025,-1762.3456,26671.828125
531,26502.916,19209.705,11426.492,8178.5767,2572.1494,3191.5613,20533.078125
532,1691.6067,237.39453,5570.6177,5538.785,742.5918,-1073.6274,10952.1298828125
533,17117.795,6839.3936,22953.32,703.2137,2944.738,15.702068,15072.4072265625
534,912.4429,-15772.456,-764.66943,-2145.2378,-2514.591,-484.74863,16932.12109375
535,-7630.177,-7920.136,5812.098,3226.1196,2863.4111,474.93076,15529.7822265625
536,327.4038,-11001.928,-2254.4126,-2040.8693,-814.1079,2140.1125,11575.546875
537,-13262.657,-11282.929,9279.594,-6498.7783,1809.3708,501.21307,24591.103515625
538,-25119.121,-8715.385,4110.788,-3084.9773,1216.3414,-395.72104,26027.869140625
539,2572.7432,22638.95,-4486.9097,3840.6218,-2355.6453,136.5838,25595.0390625
540,-15419.68,-7367.828,-5983.5215,6385.67,-1022.58295,1537.8828,14507.15234375
541,-24584.895,-14309.06,208.9668,6096.519,2794.9692,-1448.7251,24633.013671875
542,5044.643,2219.5518,20856.24,8951.915,-827.84595,-863.07996,23395.68359375
543,-4690.793,-5590.2856,-11068.092,11371.786,-724.84924,2337.381,21015.744140625
544,-60815.617,-48845.18,-31420.598,2858.7322,-285.23712,1832.3296,26273.955078125
545,-12100.249,14085.877,207.01923,4153.9736,-839.7223,1469.9752,23984.71875
546,-9432.561,-24716.908,13433.959,-5828.213,-295.0891,905.1395,34793.8515625
547,-25214.312,-25844.182,3542.6807,2644.8474,-675.99994,-2775.261,29848.572265625
548,-7596.9795,-11568.613,897.82275,3243.2554,-974.22943,-727.5631,12556.484375
549,24692.607,7303.003,-4529.582,3721.317,2096.033,483.19174,26525.412109375
550,-3658.842,-12002.2705,-4467.51,6748.953,839.4274,-859.7684,14300.220703125
551,2598.9905,-6663.869,-5501.0186,2464.0686,-1843.9381,213.9087,10243.728515625
552,-7519.965,3563.0127,-16721.695,3205.3967,-4055.4456,-3540.804,20670.32421875
553,-4900.3857,-10327.542,-1524.7158,-7820.5117,-1360.959,-795.64294,15814.75390625
554,-28686.846,-27376.113,-10698.215,-5261.1885,988.7089,1343.4492,19827.20703125
555,-5145.5464,7398.298,4423.0083,-4157.37,-1035.8949,2004.8662,14000.2744140625
556,2019.87,4240.881,-189.5686,4931.5586,741.2973,888.0248,9575.8466796875
557,5776.4556,10783.517,-5469.988,2717.5503,-1364.8759,1397.7657,15539.302734375
558,4807.8477,10359.567,9351.553,8109.612,1079.3817,2577.1218,15714.9208984375
559,20379.92,17309.61,10598.029,13955.556,-1772.6813,-260.90775,25864.701171875
560,-31795.078,-29632.377,-20033.805,3478.9246,-1032.6942,1074.4807,12670.451171875
561,-27185.693,-14205.126,-325.07422,626.5944,2726.5945,1462.5038,23900.19921875
562,-17094.637,-11818.984,-20576.97,-2193.0295,371.1359,15.914751,8554.11328125
563,-8023.564,-21178.893,-5672.8896,7213.349,1587.9633,-214.72758,19321.30078125
564,-4099.682,-11179.134,-6211.218,-3532.5593,3282.4612,266.0955,10469.0830078125
565,473.0337,-5214.8696,-8238.383,959.7925,1968.8398,844.26825,8673.078125
566,-19713.648,-17055.396,-1497.9209,2002.313,-483.62045,1466.4811,17596.5390625
567,4956.457,-11000.766,2474.7954,9887.744,2018.4003,493.36954,22966.185546875
568,17318.684,18418.104,1859.0469,-7066.6875,-1650.159,293.13663,20382.51171875
569,-9971.686,-11065.58,-17530.844,-7142.223,-449.0083,979.65625,14373.12109375
570,-2734.7847,-4899.603,-9180.645,-11745.709,-2022.1827,43.619938,21411.208984375
571,-24543.363,-16867.508,2011.4648,2868.5364,405.02493,989.24585,24256.134765625
572,16202.806,18678.752,18590.385,-9777.479,705.0111,1614.9797,17379.07421875
573,-12154.754,-10443.326,-18968.723,1771.9781,-1162.945,1775.1777,9162.509765625
574,-19793.086,-12267.018,-6278.965,175.66142,-3864.9546,-6027.316,17072.10546875
575,17785.695,16207.404,24606.18,2765.8853,-3025.4192,1941.552,11022.40625
576,-1797.499,-17630.555,-17283.28,-3000.6113,304.4367,-1407.3257,16689.474609375
577,43892.156,41912.207,39112.508,1374.6134,195.1703,311.64294,4834.8837890625
578,37834.27,-374.72296,18138.158,1256.5525,3131.542,-3453.2842,34135.42578125
579,-7098.8887,-12068.315,-26089.818,4559.481,5338.522,-1807.4332,21181.1953125
