Element Label,S11,S22,S33,S12,S13,S23,Mises
1,2112.4265,2563.5498,4265.5996,-170.89879,723.8125,-121.28402,2360.46240234375
2,-8877.282,-8864.857,-13870.23,-170.30093,-113.97246,-276.41724,5034.572265625
3,970.7,1886.939,-312.61493,95.90027,210.99396,443.61777,2100.89282226563
4,6067.0312,6067.968,13366.42,315.96375,593.458,-632.05457,7471.86669921875
5,-2924.5422,-1626.0634,-387.85706,135.18997,433.08716,2302.475,4620.46337890625
6,-4187.1367,-3559.787,-6299.451,-261.31238,-109.40556,-236.7551,2567.005859375
7,3159.9717,2959.8508,3322.6956,-186.63179,-172.38565,-313.9144,767.048400878906
8,4121.889,4753.7114,8879.867,25.242071,-186.9066,198.96942,4500.759765625
9,-3383.1094,-5161.9014,-6719.4053,354.38025,-733.3492,-478.9432,3322.4560546875
10,-208158.72,-207907.14,-245191.27,78.01731,-1429.4822,1820.8125,37374.91015625
11,-4951.4727,-4096.264,-8700.816,1.2620984,-31.502941,74.56308,4244.4189453125
12,5733.7393,5081.5596,9221.911,-121.398125,31.051807,-147.08261,3870.34912109375
13,-5524.2485,-4576.4927,-6460.554,-29.213417,729.6093,264.35065,2114.59008789063
14,17774.44,15374.451,28327.264,-15.309002,1600.1046,-286.2954,12262.8017578125
15,-221291.48,-221386.11,-258454.88,51.039326,874.3152,2325.6694,37364.921875
16,-644.5896,-3339.2793,-7402.997,-512.1443,1897.8022,2317.7805,7901.50439453125
17,-2787.5386,1896.0074,3827.7185,818.63104,510.43018,1197.7252,6466.07275390625
18,-1221.8519,1637.458,3314.7393,-481.5637,1174.3986,1641.0475,5356.9814453125
19,1143711.4,1147979.2,1155847.4,-2773.218,-6345.8228,-13737.369,28700.677734375
20,3850.5422,-312.71045,3014.1553,2329.146,-5039.4087,3192.5142,11729.8017578125
21,-9808.751,-8750.785,-16623.357,-163.26837,-296.4334,293.3089,7441.0654296875
22,4844.0605,6466.527,5982.198,-984.4968,-2390.5857,-2179.4688,6031.89990234375
23,6865.259,7424.5703,5870.5566,-1443.9327,1472.9619,-1602.5004,4725.072265625
24,3746.493,1766.2024,2157.5388,-475.98386,1663.9615,-417.66437,3578.97338867188
25,-6784.8296,-7590.4517,-12969.104,-604.2176,-1330.9775,501.36038,6409.048828125
26,-3019.7937,-932.32275,-5471.714,949.7767,-419.1697,-1798.0521,5331.0478515625
27,-32103.07,-33081.87,-52595.055,-202.41525,-1446.6,-747.84155,20221.291015625
28,-8488.43,-5726.4814,-13582.104,65.573395,718.82166,-957.36017,7207.97900390625
29,18649.943,20336.582,30058.328,-24.652658,765.5069,1528.313,11068.9296875
30,2086.0364,5475.909,-1515.5698,4180.574,1001.39435,-1557.2632,9969.30078125
31,-948.85315,1835.1735,-4561.2876,-98.60541,1392.5536,-513.3018,6123.30126953125
32,-3210.1843,-3533.665,-9075.941,242.45636,53.831467,-137.42738,5732.0146484375
33,-10901.318,-11129.974,-19856.648,-9.892479,-831.5745,-942.21356,9107.1767578125
34,6724.2705,3582.9019,3271.7583,268.63104,1342.1818,-1820.3513,5148.23291015625
35,731.9436,-880.344,-3064.8123,-542.34296,-1398.7007,219.56642,4217.75927734375
36,2928.7192,2119.9128,1644.2878,-1420.9637,-1197.3092,-1996.0013,4855.43017578125
37,560.6399,2534.976,6553.3115,698.7101,686.2284,1765.0986,6340.55224609375
38,8131.005,7032.682,5260.8037,-2199.4336,-1826.1401,2375.1667,6908.91455078125
39,298.5083,602.22754,1172.8386,-201.25182,-1927.2714,29.680403,3443.60595703125
40,1502.4053,-2107.4688,-3664.0288,979.78485,17.50847,-1375.4279,5443.28173828125
41,2033.1357,2818.2644,1137.1179,-604.29333,719.04834,142.00294,2197.69458007813
42,-3444.8816,-6061.0156,-5971.2207,-396.6925,733.2192,103.41534,2955.38745117188
43,-16532461.0,-16532974.0,-16531093.0,-480.14456,240.81755,318.36197,2001.50842285156
44,-64434.832,-79857.195,-103722.06,3090.34,1487.1655,11027.805,39693.28515625
45,503.4121,-34240.453,-34970.44,5512.166,-3695.6414,5968.0425,38366.7734375
46,13872.41,20853.791,20534.762,-2408.6409,4399.9194,-6379.0933,15626.107421875
47,-185529.08,-182445.8,-219670.06,726.112,1767.7928,-6959.493,37903.0390625
48,14453.559,7304.5264,24947.936,-668.9925,-114.26614,-6884.8833,19489.791015625
49,-5724.6885,-12982.933,-4548.486,976.579,602.7213,-142.03157,8161.75146484375
50,2888.3442,1284.0415,14469.884,1686.6917,-6434.795,-1023.32477,17064.0625
51,1059.5677,1513.9583,4990.7905,-277.5587,-926.52484,-5112.549,9751.697265625
52,12471.555,10858.5625,21539.727,-4135.3784,3639.1772,-3078.066,14795.90234375
53,-1519.0061,-347.27075,-2269.937,-935.9352,-1217.5681,3623.6047,7020.22998046875
54,-17594.367,-16562.873,-25237.72,-15.082023,166.00287,74.90992,8213.95703125
55,2432.1582,-3830.2002,1811.4961,33.95395,1250.8372,-62.87335,6358.0380859375
56,493.3999,3296.1897,2483.6394,1600.8617,-256.27884,2198.8875,5350.61572265625
57,6367.3027,2173.1768,-1811.0503,1029.561,992.503,1347.559,7858.62744140625
58,6200.403,2371.0942,2815.6438,-869.2793,1954.4177,-601.8779,5288.84375
59,1527.9666,1769.5259,3316.0923,2080.5718,1236.3495,-531.13873,4608.92041015625
60,368.6494,393.7954,-6289.951,-824.85724,161.00691,718.70105,6940.7177734375
61,8382.194,5850.336,12873.817,901.7187,811.76605,-1031.0856,6750.01708984375
62,-5024.5273,1264.0515,-347.55304,-1388.1733,-442.99188,-140.74374,6199.84033203125
63,1398.2341,1178.9167,11432.239,1731.9176,-521.33093,1064.4424,10776.9697265625
64,-8697.61,-6550.2656,-9694.234,458.283,400.56427,729.2409,3232.8388671875
65,4843.0723,4700.7915,5542.695,351.65842,67.45002,-716.0207,1591.21166992188
66,-5826.626,-1765.9321,-7036.4023,862.28015,788.8957,2817.9717,7126.4208984375
67,14298.974,11695.667,12747.918,2329.4429,-482.8139,1135.6423,5098.27392578125
68,7466.538,7772.2524,11755.379,3.351015,321.7886,1579.8685,4997.50830078125
69,1314.627,-375.143,-3460.6,469.29816,2371.6821,-232.97125,5940.30810546875
70,8449.554,3595.9656,6064.953,1583.0326,-2066.1194,750.55023,6299.54541015625
71,-3452.3435,-1215.2631,-91.45764,2837.5872,400.37616,-821.6644,5953.4453125
72,-9400.174,-6057.0215,-8164.1016,-1291.4127,3404.9019,-365.6008,6982.5830078125
73,-30985.648,-26104.766,-41852.89,1201.3673,-3680.194,-1283.5844,15648.1884765625
74,-7880.021,-9712.605,-21713.875,-1718.766,6703.3574,6456.4834,20931.033203125
75,-49182.863,-58971.406,-86329.945,-315.78134,9050.293,412.03284,36859.69921875
76,-21206.436,-11478.114,-14076.49,20977.021,-2895.096,327.24155,37705.25390625
77,91528.69,96382.86,129678.14,-5162.7505,-2951.2817,-823.1774,37441.75
78,-266513.66,-262430.12,-303333.1,-2325.4329,588.0518,-465.075,39250.58984375
79,4325.229,5407.38,1242.0366,-85.42206,1191.1965,2462.8413,6040.62109375
80,1307.2463,948.6047,2585.1584,-19.437988,-828.5634,316.27005,2140.27124023438
81,-343.84283,6392.376,-4828.5405,-2746.8765,828.0261,1248.668,11183.4453125
82,4530.2593,2718.0823,-2747.5464,1891.3958,376.92752,2571.6462,8605.8251953125
83,-1414.0215,-6687.371,-8801.449,2940.1355,1212.2047,-25.901613,8588.908203125
84,10255.751,12573.727,6972.7266,-4368.6675,481.2595,490.19348,9079.2451171875
85,6197.979,7638.5796,11309.284,-238.84776,-521.64166,-102.99382,4675.1171875
86,3904.1382,4915.1885,6472.7886,-99.08879,-835.7227,887.06274,3083.59301757813
87,3401.127,4562.8105,5848.6313,-147.10287,555.66113,-231.01215,2376.52197265625
88,4388.759,5687.034,9277.377,-323.70883,579.60803,-1244.3354,5020.4228515625
89,-116.966064,4179.8867,4282.3706,-699.32874,-308.64465,313.34763,4578.3544921875
90,3454.8264,2111.1084,1945.0559,-1250.4382,-420.09613,1003.6513,3209.12084960938
91,-2744.471,754.76794,992.7191,-743.38293,-60.417747,-1250.0474,4414.81640625
92,1101.6929,2048.29,7253.8525,-1226.8607,-334.87033,1647.6239,6776.2431640625
93,5411.728,5303.159,8327.296,-1218.7596,-673.8778,-2976.6755,6420.990234375
94,1844.9484,-76.21942,-37.07013,-85.85938,-1673.336,-1488.1162,4322.3779296875
95,-5007.43,-4526.9077,8264.568,416.8719,-575.9285,-3806.6274,14662.4365234375
96,7043.864,5049.9326,8338.431,-181.58865,1426.2448,654.1002,3964.58422851563
97,1033.5941,1274.8258,2153.1538,520.8635,-219.84317,1910.7845,3599.126953125
98,-10688.768,-9932.867,-20942.732,-1225.3208,705.97406,2922.6055,12045.3505859375
99,56378.477,26005.121,61713.625,6735.726,-653.65717,2419.323,35609.015625
100,2107.9658,-1326.7368,-6557.745,-170.0023,3619.309,3581.3945,11618.5908203125
101,-10022.983,-6378.7534,-18574.467,709.33325,-872.50275,-993.7363,11150.23046875
102,-5341.179,-6248.6855,-2745.5613,-509.30637,-281.9402,1212.4844,3917.05810546875
103,-13697.564,-12924.639,-13971.423,-1051.39,376.61252,23.894903,2151.17919921875
104,-16705.248,-15351.265,-26096.422,1567.4895,928.26715,1301.4344,10852.66015625
105,1713.8673,313.67477,183.11877,-175.23308,-1173.1835,-91.50217,2531.14672851563
106,-2766.7446,-5432.046,-4125.394,1430.0679,-3171.493,-1253.0033,6808.0087890625
107,-2090.4736,1291.956,-433.57266,2038.7118,-576.45526,-45.701252,4696.1689453125
108,180.76064,-2829.0254,2179.6387,6.7405715,128.58275,1400.1035,5000.11279296875
109,214.56409,838.24963,-4189.177,-2460.7666,-1009.3278,-1379.4026,7032.7138671875
110,2370.3926,1875.0112,3994.3066,-369.11264,-1621.9476,505.4367,3571.30639648438
111,-1705.2615,-1016.72754,-4179.0703,216.46881,1207.4945,961.2573,3947.64013671875
112,87.130615,-1161.2808,-5163.9688,-1869.1019,2390.8987,-1056.9789,7318.365234375
113,3293.8584,5136.792,5877.0264,403.30624,927.451,-671.6632,3119.36083984375
114,7081.254,3599.9658,3666.9966,652.5606,332.59064,6.523115,3674.23315429688
115,-5250.416,-2312.33,-5653.1104,27.984612,4.821154,-220.08995,3182.04345703125
116,-14131.994,-12746.42,-13506.877,977.79675,4979.338,-166.05891,8875.6318359375
117,30765.643,29328.143,51479.76,-691.2436,-2313.566,-99.43992,21873.23828125
118,40599.18,41261.09,70902.484,-506.5104,412.59448,-2782.753,30383.908203125
119,23258.516,18473.656,45796.32,-269.938,4358.298,4729.1274,27622.17578125
120,495768.25,485110.12,528865.75,-2131.7002,1637.5476,179.52812,39794.11328125
121,-141484.22,-146182.64,-160154.0,-392.75067,-8492.46,-19032.94,39830.9453125
122,10243.999,8769.585,11596.276,-289.49454,-6.7683544,-1823.439,4027.74340820313
123,1194.0061,-2430.9958,-880.093,-1135.044,-440.6051,1048.0864,4203.18212890625
124,10096.701,4902.003,13183.43,-1127.3339,-2564.6616,-1190.7552,8963.60546875
125,-4873.7295,-4945.951,-14212.227,288.5796,470.22522,-1742.4232,9826.4736328125
126,1074.4358,1608.5883,878.7848,280.2215,-1339.3025,-673.20245,2721.11669921875
127,1069365.6,1060225.5,1045357.4,7846.1113,12710.748,10471.291,37931.7421875
128,-94637.2,-95149.45,-108795.59,-12574.792,-1223.181,-6627.9517,28357.076171875
129,13320.59,16670.93,28550.727,-352.50247,-651.3267,550.589,13953.8740234375
130,712.2898,1741.7168,5693.234,-1113.6223,-216.84428,-2725.7446,6847.81591796875
131,-11481.188,-10657.932,-17310.16,-86.811295,936.6948,-197.99559,6498.13916015625
132,4949.524,6478.447,12764.672,-686.97284,-455.57846,-1171.5131,7590.8603515625
133,5692.2456,6592.87,10017.431,-508.42133,-994.5225,2450.8088,6114.33349609375
134,-2711.7097,-1572.849,629.82544,3035.574,1253.8986,1222.1185,6745.291015625
135,2590.6504,9408.294,5842.539,-962.25635,809.3409,2319.482,7467.779296875
136,-196.30067,-567.3834,699.08856,541.94214,-1284.9036,-838.26733,3035.42407226563
137,-11786.08,-35680.145,-44324.25,1779.5566,8122.5366,974.3059,32595.47265625
138,5566.7305,6780.6895,9379.996,962.7011,-1417.665,-693.7733,4651.79638671875
139,-307707.1,-315682.97,-350306.8,1867.7712,2405.2578,-884.3616,39607.4296875
140,-295866.47,-263935.5,-304873.34,4833.741,-643.6338,-7070.8823,40120.3046875
141,11769.035,9036.943,26020.127,-584.6058,3226.8162,-2036.4781,17152.181640625
142,10916.011,8891.469,9927.542,1319.4655,1411.6781,-3317.4822,6877.00341796875
143,-3805.5986,-2383.3608,-6596.536,478.0447,501.7955,633.81415,4053.09838867188
144,-5830.2227,-4665.901,-11042.299,2093.705,-990.2137,-1228.3204,7430.2490234375
145,240.55249,3633.2847,2547.26,995.4244,1678.2638,771.53687,4713.1318359375
146,8864.606,3716.4956,6410.1978,38.711304,2526.334,-945.19836,6459.3642578125
147,5778.017,5613.8364,9353.031,-32.96689,1163.2141,-421.74033,4241.54296875
148,4159.859,1447.6838,1764.6697,1012.4183,-1538.7792,-202.7699,4110.77783203125
149,-1187.1483,717.2748,939.6841,282.01627,-177.01035,-530.8361,2297.34912109375
150,-1506.3461,-488.44104,-3027.998,-469.35635,-1046.6399,-1298.7314,3729.31811523438
151,581.1375,397.0088,68.93536,-235.20699,1728.8729,-924.6321,3449.60107421875
152,36011.297,55752.29,69219.02,11156.654,-1264.0083,-7621.7046,37274.43359375
153,13252.12,24089.117,7981.258,3982.004,1529.4368,-595.8426,16062.20703125
154,4055.7866,5640.5156,9656.438,-1263.7487,901.0325,5142.2334,10562.0830078125
155,-5520.0127,-5340.4824,-13202.703,-843.63135,-2655.6687,312.89456,9166.341796875
156,6146.2056,7639.171,13420.809,-891.5931,634.0404,-1309.2372,7281.56640625
157,-10846.571,-10426.591,-16117.723,172.57996,561.9331,-229.83241,5600.921875
158,7223.3657,6938.5464,22196.242,1121.9602,1535.9648,-1825.4133,15791.8671875
159,-1594.0533,1828.7197,-9458.295,-1348.2595,-4976.07,6285.0327,17283.556640625
160,3859.396,5989.057,2156.1343,-834.6042,-559.6437,4057.2913,7967.31201171875
161,-8505.77,-6791.591,-9647.928,-2635.1191,-1099.0786,-72.420044,5538.23193359375
162,5206.1353,1944.145,11343.668,-4073.2012,-1200.8048,1655.6052,11430.3212890625
163,-7327.3066,-3709.9763,-8241.617,-2946.7695,751.2522,967.2334,6912.20068359375
164,-676.68286,-1080.8811,-3806.4778,-919.51044,444.4205,579.3052,3581.86352539063
165,3590.2542,3035.5122,5038.688,248.92538,-355.53574,574.89825,2183.080078125
166,-6831.17,-4795.788,-5663.004,1031.9099,-2641.2307,-1685.762,5981.46484375
167,-3143.6318,-11190.529,-6157.6836,4115.0005,856.9417,-1715.602,10555.373046875
168,12168.779,10349.989,19254.244,-1091.9032,352.50247,-1738.4187,8911.4873046875
169,2809.26,-268.5063,-1064.5339,-1827.6256,-1355.9645,1212.9257,5701.4404296875
170,-252494.9,-252912.34,-289445.72,-113.122505,-1452.2084,-4178.808,37534.84375
171,-2460.6895,-3827.645,394.62573,-392.84396,-216.74864,3826.1418,7645.02978515625
172,-490.5264,-177.62863,1477.6572,-419.82715,1020.4628,1049.0928,3210.98071289063
173,-480.41046,1511.0828,-681.217,323.77274,-868.8222,-269.76236,2683.9580078125
174,14447.237,24909.977,18650.86,-4061.086,-1143.474,-1299.8196,11900.689453125
175,-243488.88,-244002.28,-280183.75,78.76147,-297.01413,-5148.393,37519.8515625
176,4089.3022,4454.269,8992.177,-1188.8989,556.60187,-308.29193,5276.076171875
177,1477.7341,2034.4912,3783.5112,-193.27313,-520.6066,-133.61353,2306.84692382813
178,-303148.22,-308438.12,-342176.22,-2593.4072,849.8987,-5119.518,38022.1796875
179,6814.878,18694.684,2438.9873,3092.2363,-1697.7117,859.45404,15868.5654296875
180,2014.1327,3293.9133,4431.1304,-467.21915,-10.320366,-304.14026,2306.337890625
181,-3356.2458,-4779.5938,-3133.4824,544.4595,-1760.2758,179.46786,3560.0927734375
182,3041.9395,600.7027,-189.69824,-167.20027,2364.6462,-1537.6139,5697.82568359375
183,1055.227,-44.703247,487.88177,31.217915,-494.73575,-1043.6838,2216.4677734375
184,-3339.1973,-8863.88,316.09692,-54.59421,1790.346,-1542.2413,8991.001953125
185,-1769.7177,-2588.2334,-2244.2424,272.53195,-397.77835,-1242.2831,2415.3759765625
186,923.2058,2458.8623,5582.622,-77.74544,-332.70706,767.06055,4362.1669921875
187,-5407.4326,-1732.5239,-5351.4517,1280.3058,163.22237,-1831.841,5326.04541015625
188,-3073159.0,-3074524.8,-3065458.5,-3551.266,-3591.1404,-6905.229,17066.04296875
189,3600.2031,3759.4563,1158.1125,319.4041,625.0041,725.78064,3071.85595703125
190,-8426.4375,-18009.043,-20820.213,-4318.289,2971.6558,3579.2112,15733.234375
191,11664.361,9938.379,16274.342,1287.3575,973.31525,1373.8438,6757.5078125
192,132.4253,-2194.9197,-12852.216,860.42584,-870.31165,-2257.3015,12789.732421875
193,4814.383,5946.502,4140.6987,-284.08896,1130.3735,-566.79126,2745.42236328125
194,1672.074,2238.1458,2752.9097,1252.6805,-1269.036,-272.34216,3261.6416015625
195,-2171.003,-9233.0205,-4941.4507,-2060.3503,-2170.3672,-1076.7426,8266.0302734375
196,-8392.392,-4745.9424,-6736.9946,1936.1895,-609.63763,-1720.5217,5589.51318359375
197,-401.72177,-1146.5719,1219.5851,432.91028,-1293.7335,1003.5175,3604.95263671875
198,7971.0566,47.06787,4553.726,-4500.1587,-380.40942,2284.8252,11146.2353515625
199,-2096.6143,-2940.9988,2027.1122,58.633167,3292.663,-694.54297,7428.49169921875
200,995.1288,-822.2947,3384.6582,427.67865,206.71883,-2521.997,5754.4765625
201,-2727.1677,-5918.5605,4484.4683,-1926.5062,2505.5767,-2009.8877,11282.5009765625
202,8479.27,8571.221,-1428.9326,2962.7493,-3538.8203,-1250.3966,12949.357421875
203,2371.0784,-1026.4702,-1557.9482,-284.08395,-1035.0348,-1066.4224,4527.615234375
204,2683.6213,-3394.1748,-9265.307,1732.8455,-437.0458,-1954.9089,11319.876953125
205,-551.1078,-1884.1838,-3201.4907,1082.0013,1067.9951,-1404.6539,4256.95166015625
206,-7504.655,-4917.6475,1778.2776,-1416.7797,2980.5667,9.92159,10075.904296875
207,3966.7744,1946.4984,1427.269,-147.47562,-2003.4453,654.0199,4334.73779296875
208,-7478.9844,-2626.9153,2669.7578,2167.3684,-2465.8103,151.52763,10473.736328125
209,1864.9893,2725.7122,2215.6125,-1153.419,-1231.9648,219.33528,3041.48852539063
210,5410.508,-5047.8887,-6067.1143,-2153.5762,-427.2605,493.6562,11673.4208984375
211,1274.0049,4125.696,9864.688,-1534.2993,-999.05457,-497.1053,8260.2607421875
212,-4155.0923,-3485.8484,-6712.426,-619.6035,-900.9814,-673.1611,3694.0205078125
213,8115.493,13688.685,11547.269,1103.4711,-474.62424,108.97911,5298.67724609375
214,3139.3154,3757.064,-27.217285,1544.447,946.1808,-1270.0282,5200.509765625
215,3675.4165,4857.7856,4109.1724,550.0722,517.291,-1351.5554,2874.69921875
216,-1422.7832,-3752.7651,299.76746,-1368.0266,872.07874,154.39015,4514.0966796875
217,-380.21155,1256.9357,31.155426,-186.99188,-1022.7384,443.62894,2451.38818359375
218,-1121.7386,-1591.4552,-902.90686,-329.00082,-1524.0931,-827.8937,3117.82592773438
219,-1674.3118,-3207.3022,2164.1099,215.65031,90.54927,-1067.7684,5152.89306640625
220,4946.3945,1498.6876,4002.1648,-685.5082,-2542.3635,-14.508795,5506.728515625
221,-1063.3318,196.80621,-1610.5249,-316.2313,266.53424,701.24695,2136.65087890625
222,-2610.5325,-1594.449,233.07117,415.3617,2410.2563,-249.25803,4935.70068359375
223,2639.0146,4634.8945,3036.058,-1474.5312,314.18417,125.085464,3196.01782226563
224,469.4502,2365.1016,4435.9004,-1013.6964,-153.76459,1610.9799,4769.34521484375
225,193.99487,1640.0137,282.0852,-700.95935,405.1208,-2105.7632,4152.1640625
226,-450.1439,-630.82697,-159.65163,932.29144,1201.269,-1246.2213,3430.06787109375
227,-7525.523,-10843.308,-5834.1436,3138.728,-212.40736,1583.4319,7529.41259765625
228,-14998.002,-12290.148,-15560.961,-2126.9321,-163.23329,624.47186,4898.48486328125
229,-3116.997,291.59875,-349.3263,904.32684,412.65558,-328.53232,3623.91088867188
230,6656.9653,287.615,2895.052,-1599.2336,-1086.0367,-1680.7052,7102.4677734375
231,1488.7021,1421.5898,227.5907,-1098.4977,1084.8987,79.13039,2946.21118164063
232,-5127.5244,-2577.7908,-2525.6917,397.72058,721.284,-105.51258,2950.48974609375
233,-5362.59,-2894.2095,5437.611,245.47006,-1197.9502,497.10577,10065.068359375
234,-2339.195,-1989.4607,5629.285,755.99817,-1482.7921,62.835407,8315.9248046875
235,-1784.2488,1638.2855,2450.908,-485.616,1.8950231,61.065216,3984.2177734375
236,-1525.1405,-1829.9224,-3606.5708,1397.098,-196.62056,1020.57886,3589.87939453125
237,-626.3186,5640.4707,-2889.775,1801.0592,1679.0626,2769.1418,9988.69921875
238,4904.3467,-5273.9473,2333.879,547.6439,1849.762,-738.86914,9840.953125
239,-3903.0886,-1359.8188,-6063.283,-1815.4248,1271.8806,1226.2699,5990.00634765625
240,119.504395,408.62903,-5445.7144,1823.2091,-1472.0835,-492.9055,7061.62353515625
241,2685.4797,5472.7085,-3002.7856,258.6923,-476.28247,639.311,7621.47998046875
242,836.5383,2979.4812,2349.0015,235.79276,1232.3287,1719.0492,4150.5078125
243,93.966484,1962.4667,-2429.5774,1478.259,443.99716,580.26843,4767.81884765625
244,-2032.8248,-4838.516,103.12305,850.2513,3315.5884,1149.8652,7585.62548828125
245,2528.405,3540.1553,3956.4973,881.2646,-466.97607,1961.9878,4018.76635742188
246,-7111.4775,-7625.925,-12799.311,-112.85413,-3188.2527,-444.91586,7798.521484375
247,-350.5857,-2056.5596,-5247.5425,-357.17276,-4046.339,868.5939,8384.576171875
248,11334.904,8048.455,9501.399,2387.6,-1363.1156,-3857.32,8686.177734375
249,-8316.023,-9481.762,-26907.379,1131.7585,0.11766127,412.63202,18157.04296875
250,-7955.9917,1293.0874,-14871.323,-2833.3867,-1806.6449,512.02325,15231.2294921875
251,-82772.164,-85978.055,-120827.16,-2238.1738,-488.9718,1365.5375,36848.33203125
252,-46317.656,-48967.824,-73121.055,1448.1912,2625.5059,3172.7385,26675.501953125
253,43862.86,44156.69,54336.207,12159.443,560.36346,-9595.804,28765.1953125
254,350643.38,338635.25,372714.7,-12547.774,8507.811,-18.63494,39822.88671875
255,-13691.952,-10261.349,-13608.521,874.6036,1579.3751,5249.968,10195.80078125
256,774548.06,768677.0,779203.94,2804.847,-9208.683,-10819.91,26696.326171875
257,-639769.9,-640931.25,-640371.94,71.73958,-244.20969,965.65784,2000.97241210938
258,-342450.38,-349324.47,-385243.75,2296.3325,-1033.473,-398.191,40048.21875
259,39436.53,55264.027,57336.67,7857.123,3024.6836,6576.193,25099.76953125
260,-1504.3691,-27416.484,-27500.566,-10539.485,-4774.562,-9789.491,36915.54296875
261,23555.96,29308.367,24133.84,15881.023,-481.3487,13529.608,36559.0859375
262,26923.035,20501.52,47742.312,-3213.7595,-4243.2485,-8965.231,30569.525390625
263,-39581.715,-31791.338,-29608.502,-3700.1472,7663.922,10444.539,25040.078125
264,2801.2637,2425.8298,-7462.4805,-6865.32,-2548.8506,-2645.6428,16837.994140625
265,-461.93884,-2368.445,-1063.2842,-1398.2894,2129.6096,1775.1577,5636.916015625
266,-35768.375,-39468.8,-63431.95,2414.7173,4913.6855,-572.7255,27703.953125
267,-21259.146,-17732.59,-33822.797,-437.20294,-983.0407,-460.11118,14788.3740234375
268,-4021.2021,-3626.5234,-7342.9316,-544.6482,2987.1624,-403.5997,6375.63330078125
269,-3229.6782,-2600.4893,-3058.3342,-726.64233,-2877.4062,-1234.7399,5595.85595703125
270,-11882.262,-11570.457,-20168.408,-1247.2816,1127.9115,112.706635,8936.6044921875
271,-707.133,1385.2037,-3619.56,-1031.0948,4927.257,-1937.5134,10307.220703125
272,5901.6177,3341.4849,5603.557,-2333.567,910.0543,-289.10526,4995.19677734375
273,-2202.4114,548.18134,2952.2427,836.8421,-1132.3038,183.64938,5099.63671875
274,-535.88617,-5543.107,5353.265,-1174.4462,1960.6147,281.96603,10254.32421875
275,-706.3115,16.870392,1893.8674,-471.60864,-162.59814,221.75227,2509.50219726563
276,6657.94,4226.304,5870.3706,-158.49316,883.52673,-29.020979,2652.88159179688
277,-2363.8918,-2.5820923,-517.79834,32.211693,-2428.836,-27.291,4725.22216796875
278,2652.996,2973.817,5386.0464,1520.4419,718.8997,-1737.4382,4923.15185546875
279,6071.836,7135.1367,11332.667,86.64135,-1222.1079,-3411.0986,7913.47265625
280,4295.82,2477.6394,2242.0208,-183.84917,712.7661,301.10876,2384.78540039063
281,2893.3818,-1283.0964,-4443.091,-1258.9615,29.452908,-892.89825,6911.9853515625
282,-12720.6875,-5547.416,-8401.001,-401.7274,-907.5137,-1610.4026,7061.46728515625
283,1258.397,883.1493,2837.8684,213.74448,-624.38574,485.58978,2289.59814453125
284,-853.1374,-1424.7498,-294.16846,33.38043,740.4646,-688.53143,2007.27014160156
285,536.8176,1774.6885,4874.075,147.51578,-316.99545,719.7818,4110.494140625
286,4794.2417,7012.526,3217.212,-197.63312,2603.873,-2522.2766,7102.7734375
287,6182.4688,5749.5967,9835.424,-1327.3763,944.17316,-472.21548,4872.5615234375
288,5181.811,5508.5806,858.8762,2525.899,-85.27525,-551.9843,6346.93017578125
289,-200.74377,2639.0566,-1880.7231,-124.01452,1057.081,4242.7935,8547.5078125
290,-13760.934,-16455.803,-11857.549,351.88205,1866.6755,924.1105,5422.30615234375
291,-3876.6636,7905.364,407.06348,1947.9557,2069.0723,-1066.8291,11590.369140625
292,-2744.767,-2803.5137,-4753.3022,354.1574,854.4213,-44.591545,2547.9453125
293,-3543.2178,-2868.6436,-2808.3337,-455.37573,-1174.9535,27.827473,2294.63330078125
294,7764.2344,9784.655,12739.689,-1814.9032,-1036.3291,-1887.5007,6525.04931640625
295,-2897.7034,-2169.0361,-7126.436,1296.0754,-209.55943,1774.3826,6009.2392578125
296,-5850.082,-5519.1143,-10261.894,-259.50073,1745.4767,-1530.0992,6115.51220703125
297,3471.2437,-4905.33,-4914.102,814.72473,-560.2503,-743.8685,8650.638671875
298,141.3167,-639.69385,707.50665,-100.68423,152.4513,-919.1471,2001.84387207031
299,1305.1537,3130.942,-1031.4993,1512.1284,-1527.9479,-231.32382,5204.19873046875
300,-1707.1653,-2227.9316,-3560.6519,-175.53856,-443.28564,549.6468,2080.78344726563
301,-577.5999,56.527954,-4247.4937,96.91678,147.85382,388.6651,4091.98754882813
302,-14101.761,-17579.55,-27070.176,-785.8416,-3101.3262,-2150.1538,13407.0947265625
303,-805.9878,-2361.5828,-7110.2925,-526.9192,-2429.0981,1232.3962,7446.3466796875
304,-14503.824,-14239.361,-23224.398,-537.4147,255.91211,2538.8076,9941.03515625
305,-2521.7463,373.60425,-1968.4495,2232.7278,1176.6104,-481.99594,5185.8095703125
306,-3453.816,-2476.142,-5701.805,1183.8424,1387.2504,982.4414,4591.35205078125
307,576508.94,567865.3,559198.94,4981.883,12774.534,13326.599,36353.06640625
308,7748.5005,2801.1626,13751.431,-928.5008,53.720116,91.37777,9634.8271484375
309,-80732.9,-61289.465,-91918.37,3958.121,6075.621,8117.271,32803.2890625
310,-186397.9,-196807.16,-194143.19,-1064.2953,15864.42,15451.465,39527.2109375
311,3564.1226,9993.807,-1250.9224,-890.3263,-4248.765,-1245.4043,12516.86328125
312,340833.06,358425.72,358380.47,-12059.894,11542.612,8122.293,36642.0703125
313,2175.025,1721.9031,774.8835,-32.703575,1057.5542,-144.96646,2225.48803710938
314,-1252.3701,-2751.8118,1690.7676,2662.4705,336.93515,-251.21419,6092.58544921875
315,-250.58136,-99.743286,-596.4839,-1655.2035,80.43826,158.86157,2916.98364257813
316,5690.142,-1611.2041,19785.13,-597.7361,531.45056,2818.7725,19510.16015625
317,4195.549,697.21484,12288.459,-1219.3557,-590.90344,719.4224,10635.1279296875
318,14074.394,15441.805,18365.438,608.23175,830.843,-1013.8012,4547.45703125
319,-3504.27,-3379.712,-6963.423,-553.995,211.54553,4154.9526,8078.2421875
320,-12218.663,-10372.7,-14321.532,-547.9986,-460.896,-1746.9352,4733.390625
321,-2608.0688,-826.5258,2405.7087,3344.1042,2336.0403,-301.47797,8341.0205078125
322,-1227.8867,-3362.0344,-3086.853,726.2027,1075.1385,335.76883,3071.01538085938
323,-2655.7742,-858.72046,-7673.704,2064.5828,914.66565,825.52936,7400.564453125
324,2072.1326,-2673.8364,3031.4355,-2594.1477,-1687.7499,-4520.253,10864.146484375
325,-7967.8076,-4944.8643,-5417.891,-689.6645,-1000.5651,-1540.9076,4414.23828125
326,2640.293,2484.5479,3320.4846,269.6459,58.178482,-1431.6378,2640.05590820313
327,4371.3765,4898.25,-4305.255,-1396.0479,1198.5677,-1006.24646,9660.59765625
328,-6356.1255,-3269.7024,-5255.0083,336.03516,-1147.5372,725.8987,3634.5595703125
329,-10182.928,-4560.9053,-4622.5957,-506.66406,-1681.3038,165.6289,6371.56884765625
330,60.563477,-1724.9753,-1512.5244,-696.92395,51.927086,-80.87923,2082.970703125
331,8109.5703,6059.419,18115.111,-69.656204,886.2754,-1094.8859,11436.5283203125
332,-7237.7544,-7230.187,-13951.1,-1589.7161,-3248.6597,424.26505,9214.2734375
333,2431.5945,-664.4695,-1924.5153,-4705.1475,-9193.978,3395.9902,19226.951171875
334,-204699.05,-204504.97,-241561.62,3714.6758,125.1049,1347.2194,37588.9609375
335,54991.367,72315.734,79797.28,-5156.097,2942.021,12629.124,32709.740234375
336,37009.812,43553.773,64063.277,6257.9927,-7204.1475,3002.7007,29965.17578125
337,465.7937,-409.90796,-3146.336,-423.3289,3790.0754,4672.188,10943.9873046875
338,-340.75146,6874.302,-331.7085,240.72383,928.3681,-3036.9822,9078.6044921875
339,3168.8442,2819.2441,4167.27,-437.15866,43.202003,1746.4102,3346.17578125
340,1136.7451,7614.969,-6018.494,-2004.9661,1030.0865,730.3771,12504.4521484375
341,909.55945,163.05597,-2474.928,-1498.931,-92.211105,671.742,4195.8427734375
342,-7199.3965,-3848.9844,-1500.4417,658.21063,493.46817,-1012.18475,5450.99169921875
343,-3012.421,-2435.1855,-5301.93,371.352,1570.5677,-383.97055,3892.64624023438
344,3148.0342,-137.18344,-1951.7394,850.15985,1284.925,-688.07465,5346.79638671875
345,-12376.896,-14947.873,-25022.95,-1194.2411,-1344.3787,-1204.6074,12168.5576171875
346,1414.0261,3734.8164,-1840.083,-157.15288,-33.318718,-224.36168,4873.99560546875
347,-1490.8375,-1767.9171,-4397.294,306.2531,-947.57324,-79.54089,3273.06909179688
348,-667.80396,-941.1686,-2348.395,-72.890465,-1315.6876,171.02467,2781.45458984375
349,-1023.18445,-2531.9253,-3000.7654,-178.46262,-2904.7617,125.658554,5353.43896484375
350,-2722.0107,-3608.0251,-3699.8835,-333.85297,-770.77576,-170.54686,1754.64111328125
351,-82.24661,1178.5311,-302.57635,166.40161,-86.13819,259.0104,1490.79833984375
352,-212.36041,-134.26857,-764.8774,217.59215,-146.13431,-748.56146,1497.21667480469
353,-933.62463,-3904.9578,-1425.021,-257.55496,-2571.8289,3225.595,7672.384765625
354,-2946.8484,-733.67676,-11741.6875,-269.82584,-2365.2502,29.24732,10895.6884765625
355,-3486.9004,-6194.864,-6429.2676,371.55704,-329.39944,3280.8306,6407.3388671875
356,-5002.8945,-3171.0457,-3460.0117,-9.693599,-512.5377,-167.62901,1944.86364746094
357,-1588.2644,-420.73834,-447.29742,920.6125,169.66785,1006.81494,2646.27783203125
358,-1797.3936,-2091.507,-3699.5366,3.0839906,-260.7182,338.49426,1921.689453125
359,-403.96576,-378.79486,13.133087,24.420322,289.86804,-630.6288,1269.26892089844
360,22813.592,23647.818,40268.047,84.94314,-3153.9595,6261.5723,20935.111328125
361,192.91876,255.40918,234.1101,-35.56655,389.35858,611.4257,1258.23181152344
362,143229.0,142190.62,139404.77,2660.1072,16213.279,15719.868,39533.71484375
363,-21.590408,215.86978,161.93816,-151.60104,-274.73553,-53.838688,592.091735839844
364,838.1373,882.08887,1315.3842,-125.07578,-377.99936,-1210.9054,2254.59057617188
365,-487.3746,142.6781,-680.798,15.980995,4.437186,-220.84917,838.68603515625
366,38.476654,-28.98616,-778.1022,-192.65672,639.0431,413.5731,1570.30883789063
367,-889.17017,-1380.3522,-1831.7991,15.969957,-291.89862,-495.2505,1288.02380371094
368,1885.7874,1859.4897,3810.1567,-65.65208,-286.08514,78.49835,2007.84619140625
369,-1669.4391,-2036.1647,-3234.5232,-2.1675785,11.131265,-56.224724,1421.22802734375
370,-1591.929,-1559.1438,-2828.1526,-136.52638,194.66676,-206.58966,1366.56323242188
371,-239.42993,-246.01585,-419.30432,-29.64038,298.6401,54.22883,556.982238769531
372,-410.32318,-495.5216,-974.5747,33.805275,-111.05526,186.29051,649.696716308594
373,864.1576,738.35803,1750.5747,-77.46484,70.81931,-327.31552,1125.84484863281
374,-5989.242,-6157.4917,-9308.739,474.78735,-7000.7803,-3733.7708,14142.8798828125
375,-2897.3462,-3187.185,-3514.7136,-483.7935,-1628.1024,-1986.4011,4558.2783203125
376,-1619.4683,-1582.8398,-3521.5166,-4.3936872,-177.3019,-30.95266,1945.77453613281
377,-481.80533,-329.18088,-870.6395,-26.462376,-221.0862,455.66757,1002.73065185547
378,13576.824,13725.534,23744.084,-211.06981,-731.5188,474.6096,10212.6435546875
379,-4370.1836,-5204.6436,-10439.05,-60.08282,-967.2522,106.96799,5942.65283203125
380,-207.99756,-776.267,-1646.8849,85.63915,283.8284,-567.9366,1675.40588378906
381,-1237.0559,-675.40924,-2668.836,-17.48588,-140.05775,322.80453,1882.01220703125
382,193.0528,401.43018,1165.7399,104.35626,-271.47037,-543.1807,1387.71398925781
383,283.84125,569.7694,1190.002,-145.58235,-213.66318,174.32689,967.209045410156
384,-636.7521,-771.39185,-1684.5496,33.46869,348.28067,-127.75651,1179.47277832031
385,-1687.785,-1299.0298,-2419.217,-5.7615952,-247.93298,428.80893,1306.37463378906
386,-2159.055,-2034.8514,-3883.068,-119.45709,-161.49095,477.35742,2001.60803222656
387,317.1992,423.66974,399.91693,-115.066444,-20.88788,216.38687,436.887634277344
388,-139.84541,148.41632,-149.34085,4.560972,-376.16132,331.65567,916.767639160156
389,969.29114,808.19025,2472.7627,26.842144,145.56494,90.15162,1618.24035644531
390,-631.5323,-669.3357,-1442.0905,86.06122,338.08057,116.07554,1016.52709960938
391,858.5469,984.7118,1439.4641,-76.58612,654.2674,-622.43353,1656.54919433594
392,103.96324,510.98364,275.68472,4.289078,-718.20526,-295.72827,1391.09204101563
393,38.61756,362.51474,-312.35822,-45.328583,195.42183,-27.651415,681.7626953125
394,53.189957,66.204094,-336.5027,83.72428,605.2634,184.59424,1174.47314453125
395,638.0309,546.2208,588.4949,-46.213284,-306.32446,44.776028,547.960510253906
396,-2240.7969,-1666.4792,-4069.1719,60.09273,746.581,194.34453,2553.263671875
397,13997.73,14464.975,23296.645,238.26074,1131.1172,-1176.0142,9513.1943359375
398,-8162.1367,-8240.007,-12461.928,45.191063,-974.64355,-65.288704,4585.6455078125
399,3321.2417,4178.1143,7776.5,208.75362,-236.15729,852.26294,4386.6923828125
400,-12372.654,-13236.262,-22774.848,-79.10926,-5135.3926,-7169.1274,18256.306640625
401,-2498.063,-1853.408,-6102.0986,-13.90261,923.03906,2092.1646,5605.00244140625
402,-2360.4104,-2286.4275,-6099.979,-38.269268,3121.1638,6561.7534,13140.232421875
403,-1112.545,-897.75073,-2548.702,9.269997,-13.249314,261.7125,1619.69934082031
404,-2623.691,-2698.8926,-4751.5303,233.63872,-588.2202,-61.615868,2363.57739257813
405,-17.452803,-189.74025,205.5834,-67.10817,634.5844,-306.199,1273.0791015625
406,107.83727,134.74438,50.487022,28.203224,287.40637,250.2909,666.097839355469
407,-1310.5568,-979.1957,-2163.1826,-19.591913,47.300255,138.39513,1088.40307617188
408,-2485.943,-2865.3315,-5092.9434,109.42835,165.95164,-48.68898,2465.15234375
409,1609.2095,1455.31,2375.6318,90.72547,124.9176,270.43835,1009.92944335938
410,-465.98517,-781.48376,-1919.8845,147.44194,-197.33374,-521.7711,1659.34741210938
411,-19847.645,-21413.562,-36148.71,906.8356,-3732.3813,7354.2373,21193.494140625
412,-1003.13,-1180.3981,-2426.112,179.33357,298.28076,380.01996,1612.66674804688
413,-69526.305,-64943.742,-86284.46,-990.9024,17381.533,-5632.3438,37190.046875
414,688.21173,663.7828,1458.1393,173.50471,-314.7996,394.92365,1211.48498535156
415,-318.07773,-101.34909,-58.226044,-45.359444,201.4142,33.71563,435.273040771484
416,-2763.9324,-1858.3456,-4325.6426,107.91017,232.3662,-196.71407,2233.00146484375
417,3449.2373,3596.3872,5920.5566,-136.08606,-271.2158,-656.6384,2708.35229492188
418,-35744.21,-35529.11,-32909.203,2766.225,19298.143,-8717.213,37089.80859375
419,-888.426,-958.79785,-3039.7625,-51.760784,426.29523,571.2626,2452.35620117188
420,-2159.4246,-2320.2888,-5193.0474,17.96637,4035.5376,2957.4692,9156.32421875
421,-38414.027,-34499.535,-35826.145,423.07184,17122.691,14779.23,39335.2734375
422,-3381.6504,-3173.5317,-6115.639,-26.658716,24.112705,-221.3149,2870.16015625
423,5230.819,5410.8887,9110.499,-135.48389,928.5087,1225.4858,4640.326171875
424,-8225.729,-8176.4863,-14035.399,-263.82523,2109.4253,1459.8912,7347.95703125
425,-1247.8423,-859.59546,-2006.076,-140.15755,-417.4658,389.70395,1434.36706542969
426,726.38605,969.10504,1341.103,55.92665,-331.37448,59.556843,798.146301269531
427,-770.82385,-933.83594,-2016.387,-57.866096,-38.796207,258.38242,1260.87426757813
428,-228.84836,-215.08493,-1341.2615,-168.77663,-551.8107,260.9954,1567.24621582031
429,171.71927,72.08092,217.99811,15.983877,384.1517,156.74,730.661987304688
430,-2734.9421,-2449.461,-4852.868,-115.25849,-5.57888,-393.9991,2382.72778320313
431,-1304.451,-883.254,-1553.3595,263.1921,5327.84,1328.6818,9539.6982421875
432,263.00946,455.99252,-161.29282,-53.572285,-272.53082,-101.80329,749.452392578125
433,-888.40936,-1017.09595,-2103.6086,-4.596024,181.35844,-560.95526,1542.60754394531
434,1667.8612,3093.4585,4502.822,396.98477,-330.0558,297.39185,2663.220703125
435,1886.6599,1731.856,3040.3328,158.94913,-153.69322,-251.87848,1367.66442871094
436,-4497.0312,-4459.957,-8827.979,135.30739,-815.8491,168.66458,4588.697265625
437,-4585.379,-3813.6455,-7623.923,293.9473,-129.58572,-791.5668,3789.80126953125
438,1094.5089,670.33014,1708.4286,43.92097,-82.19171,174.65152,966.850463867188
439,2162.065,2083.9082,3989.9143,5.5728436,-283.1097,61.462822,1934.39404296875
440,890.4519,1067.71,2221.4695,-14.909028,-800.8743,-129.45406,1882.08276367188
441,4223.9253,4715.8413,7808.579,-93.00505,52.09107,71.78856,3373.1181640625
442,-6106.198,-5790.111,-9643.514,6.808347,-580.8973,39.79892,3840.29028320313
443,1158.3546,1232.8759,2459.8652,-64.63378,89.211586,-366.20123,1428.70983886719
444,1633.8063,1450.086,2553.7102,33.961567,-421.16635,-627.6766,1663.28540039063
445,-246.00525,-172.65991,-202.79405,10.649322,83.4355,157.07574,315.151458740234
446,17130.852,15927.542,26700.682,-285.11377,-9285.1875,3146.6516,19827.689453125
447,-1422.0992,-1243.9546,-2861.1733,108.67894,-105.39323,112.138336,1570.19580078125
448,-841.623,-581.1856,-1245.3541,-286.26096,-6.850861,-204.11926,840.799621582031
449,2904.1936,3313.0317,5773.4854,84.89644,149.91052,305.3467,2756.0224609375
450,-1283.9915,-1001.71875,-1430.4849,-30.623442,-79.868675,48.325394,414.06005859375
451,-3930.7778,-4620.5654,-7856.4185,-113.68138,-1443.0253,-1785.6316,5387.92919921875
452,-1551.1843,-1433.1666,-2112.1501,0.5189839,160.09581,25.73498,688.254577636719
453,567.6713,623.7742,1041.4241,-85.42057,72.06162,215.06209,614.19384765625
454,2274.691,2369.057,5075.6685,-34.132725,25.579975,-402.84772,2842.95263671875
455,-6759.638,-7205.0356,-14072.582,-251.5726,-1799.4861,-1335.5219,8104.0439453125
456,-3619.269,-3940.364,-8156.7705,-336.19867,701.4822,939.7646,4868.24853515625
457,-3349.7996,-3809.2854,-6658.1445,121.64541,176.02068,-645.88824,3320.390625
458,821.2532,544.6268,1267.4191,42.82185,624.433,-461.91818,1488.07373046875
459,0.9290044,34.598515,119.692024,-68.25024,-130.94353,-361.666,684.879089355469
460,-280.45627,-285.43567,-71.42165,223.11943,140.93085,-151.24554,567.730651855469
461,-194.39352,-414.2804,-811.025,-119.95253,-34.385918,-8.525577,583.032165527344
462,-3070.5488,-2825.1826,-5282.0854,77.63222,-280.43127,122.708206,2406.84692382813
463,-633.4205,-854.58826,-1370.5146,9.639214,-219.31245,568.2037,1241.90991210938
464,646.937,941.1243,1710.3606,-23.14905,211.62651,-172.7456,1063.0419921875
465,835.43604,871.7916,2222.1675,-72.912,-71.22446,277.73572,1461.68017578125
466,-537.3069,-578.94324,1665.9531,199.88692,625.68994,735.8511,2804.74267578125
467,6032.131,5809.7666,9774.144,-112.68876,335.37973,328.81406,3947.66821289063
468,2002.0146,2458.9194,4590.2446,-104.60814,-233.84525,-483.74582,2573.71948242188
469,993.088,977.1189,2039.7628,34.97797,-164.95581,-480.69492,1375.13720703125
470,2509.191,2278.2493,4823.5493,-185.63649,0.8003548,-175.55511,2477.88500976563
471,883.9392,1352.057,2893.105,-181.83015,-178.35262,68.198784,1877.21166992188
472,-2168.6807,-2043.5103,-4362.881,-161.4556,-838.2437,-1464.9454,3705.2919921875
473,793.4452,700.2204,1809.9764,-193.15553,60.845974,-739.2727,1702.76220703125
474,12106.247,11132.5625,20885.914,18.963022,-3285.4587,7338.1,16748.318359375
475,1324.0961,1050.787,2022.2382,141.19078,322.7653,-331.0612,1205.83996582031
476,15280.79,15901.047,28541.23,305.86115,-3607.5884,9295.952,21600.1875
477,-85.77488,202.36722,-278.8654,-91.98824,-155.31721,30.607971,525.845642089844
478,-481.33603,-580.4382,-1155.9094,21.22889,-124.169014,-7.0057116,667.661499023438
479,-702.38824,-642.08215,-1310.9037,40.154602,-457.21594,-339.66556,1178.439453125
480,99.049324,111.82263,323.24402,60.771877,117.98986,252.24857,539.717712402344
481,-14.341813,-364.5235,-507.93246,-94.642105,-334.87988,-67.24883,755.171997070313
482,-805.0267,-728.3275,-1021.6621,121.73867,77.19383,282.22757,608.871276855469
483,1656.6061,1874.8104,3449.9814,63.82831,638.0729,-190.49669,2053.04321289063
484,449.89972,491.41486,745.0886,12.342143,-227.53012,525.99817,1030.72509765625
485,951.62695,972.8127,1961.8905,-69.30539,-290.8067,59.280445,1130.63513183594
486,-2501.6917,-2054.2834,-3992.9033,60.962555,144.28683,-1257.9221,2812.7880859375
487,-679.41504,-753.8393,-1903.1991,37.660614,-187.97366,264.93326,1316.40930175781
488,634.42896,549.3595,786.0013,11.163668,-16.067274,470.1927,841.12841796875
489,-284.25656,-107.68527,1986.3257,-66.44196,-275.33984,-85.36906,2246.85229492188
490,-5054.2695,-5095.5786,-8577.573,-86.04435,132.56494,-133.2359,3521.08203125
491,-136.3495,56.32603,685.81464,-378.229,163.65683,-11.685132,1031.7939453125
492,-1356.188,-1312.7611,-2742.6514,-74.93283,212.89949,315.85477,1560.92687988281
493,29.541899,-201.3674,-115.23153,-85.49943,-340.58887,111.73315,669.503234863281
494,-627.0806,-540.3835,-748.4021,181.02193,118.67568,297.24722,662.102600097656
495,2779.9058,2786.5933,4761.222,102.93217,-113.686935,388.52576,2106.13989257813
496,-866.9787,-666.95233,-1686.4286,-120.69699,7.822567,-367.63,1150.98327636719
497,664.4837,472.68076,1287.31,-83.10942,103.753105,-225.80708,866.108032226563
498,-1753.7028,-1856.9755,-2925.1538,26.064482,15.233631,100.84451,1138.08032226563
499,718.99316,504.15622,1590.4401,77.55675,-160.16647,14.452703,1043.27624511719
500,-1322.7122,-1630.3971,-2863.8909,-284.48196,241.681,366.30154,1678.16979980469
501,-1771.7032,-1514.5334,-2213.2832,27.796343,54.55374,-89.7527,640.392944335938
502,1114.7145,1233.621,2339.6418,-207.122,-134.23256,306.678,1354.19421386719
503,-2655.832,-2855.6392,-5338.0015,-96.01392,-287.63382,36.371803,2641.56469726563
504,127.5314,152.0737,336.36734,-28.919228,196.38747,-288.01965,637.3134765625
505,-1649.0912,-1390.087,-3861.719,227.18227,-181.56076,398.1559,2503.03759765625
506,-2720.1616,-2687.841,-6712.9126,290.02838,745.04,-1452.2228,4931.1875
507,293.84625,29.315016,545.88586,-48.527767,265.3686,-75.57019,660.024230957031
508,1272.9884,1066.888,2216.7178,43.443893,-121.319374,-206.78307,1142.67260742188
509,2204.702,2271.0803,4522.0635,42.615204,5.0617385,386.74402,2382.22290039063
510,1200.8158,1214.3297,2581.486,-95.46409,-658.03,28.55495,1793.48022460938
511,-255.42352,-194.34737,-383.94418,-27.813286,-345.84525,-45.86746,628.932739257813
512,2578.8064,2467.4597,4807.5063,-79.03092,11.681286,-650.0057,2552.318359375
513,-728.17426,-867.0137,-1772.6375,152.77963,828.81256,153.55443,1779.52795410156
514,630.536,180.83694,226.15083,-70.474174,1079.597,-3059.0864,5636.43701171875
515,99.20261,57.630363,1381.2054,26.734352,3.7057288,379.92886,1460.74584960938
516,735.77344,799.4223,1439.3616,-145.6861,-161.03732,161.3278,820.888061523438
517,-4548.142,-4775.1914,-7761.283,-344.618,-132.43898,-61.80836,3172.79858398438
518,-2476.9778,-3019.538,-7482.481,60.442574,-995.9598,-91.97406,5064.16748046875
519,-3712.032,-3058.8115,-4325.0063,2.5990038,2447.972,-2914.5298,6683.1142578125
520,-113.709595,-184.25418,-688.45703,-3.6320875,-427.6022,-313.34952,1066.72399902344
521,-1809.5724,-1845.9148,-3924.1235,1.2745297,167.3305,-228.65549,2153.28881835938
522,663.1951,737.29535,1275.5552,137.57869,356.6633,107.33382,898.927795410156
523,585.1429,601.8334,1938.378,-33.647778,-248.58107,444.38522,1609.39318847656
524,633.25824,677.37177,1359.0314,-8.982101,143.1354,708.3785,1436.58679199219
525,1010.8949,1152.7267,2213.592,77.94095,574.45135,-376.39142,1652.03955078125
526,-1137.9434,-1077.7704,-2198.7197,-41.37714,-734.0325,-230.97533,1724.61401367188
527,-2388.918,-2354.4536,-4773.5015,-101.48548,89.17887,214.86346,2441.89770507813
528,-2073.764,-2043.9001,-2316.4924,-306.7464,-635.00323,-238.69655,1315.27685546875
529,-2697.2659,-2522.8408,-5031.1914,-59.130863,-241.30586,102.98561,2470.166015625
530,-1417.709,-1639.5385,-3354.9219,-6.4716854,488.903,-188.16429,2048.33911132813
531,551.37335,198.22882,752.69507,-56.521442,-54.172146,-242.55653,656.678100585938
532,837.9159,803.09094,1807.9344,-6.5309973,44.517353,-295.91708,1115.66296386719
533,-394.2981,-598.4661,-867.2325,-53.62875,-77.184006,-207.97629,570.136901855469
534,-1404.2047,-1552.8402,-3321.9167,-23.548317,-152.61339,240.49821,1913.04113769531
535,-687.113,-686.11383,686.65063,-12.363509,-2.8826804,-260.91577,1445.88012695313
536,-733.48926,-480.5135,195.43845,133.61084,768.20734,723.8094,2021.77905273438
537,-618.0779,-591.77997,-1217.5106,-2.9188833,-139.57076,-171.72266,722.984497070313
538,-391.04263,-306.76175,-751.2949,116.60467,-635.827,285.2362,1290.32727050781
539,-912.9886,-936.3596,-2127.9368,-55.73398,228.22618,150.52077,1296.84265136719
540,-971.95,-796.56964,-1377.9008,63.986122,-758.8192,47.27489,1418.85778808594
541,738.4093,761.5012,1286.2224,-23.639359,299.1123,79.191925,759.524475097656
542,-132.38469,-114.61902,-239.86786,1.8279804,44.98541,-179.0598,340.655364990234
543,516.30505,553.8539,784.0037,-51.014706,267.48935,-159.07808,601.163391113281
544,-525.8062,-422.97757,-941.24774,186.2062,750.9899,199.30678,1463.22595214844
545,-530.2106,-735.0673,1152.751,102.50323,-107.497955,250.69032,1863.81787109375
546,-944.7574,-1008.68176,-1443.6665,-97.296074,249.18721,-20.716658,661.115783691406
547,990.1708,1387.2728,2431.8315,-188.03967,328.9922,-56.53988,1450.50463867188
548,255.24829,296.22168,484.96805,-71.378105,75.3196,-162.99815,396.290832519531
549,11.497255,-60.892113,385.54132,-47.763596,-460.92953,74.196144,912.662780761719
550,991.92053,1215.0797,4606.698,14.353084,33.39617,-188.4376,3524.23559570313
551,-1191.5974,-1195.5452,-2239.157,-6.3683243,-137.8357,337.6536,1221.64184570313
552,-4010.0652,-3922.621,-6919.353,-17.596094,116.57747,-108.42633,2966.98022460938
553,784.1118,644.89966,1269.2155,-15.385434,832.95807,864.45264,2155.51391601563
554,-415.5554,-288.4781,-636.033,226.11272,-193.79352,-75.790405,613.235656738281
555,259.01697,239.30432,171.55974,-42.846577,164.7687,-196.44725,457.210632324219
556,-842.38513,-684.825,-1855.0857,141.68797,-53.505928,396.5544,1323.07604980469
557,201.03786,267.6758,245.65483,-51.07672,460.01508,-306.0344,962.858947753906
558,-278.11478,-226.58247,-702.734,-100.40939,-444.33337,-246.78876,1005.03497314453
559,-539.12946,-476.8546,-1081.0591,-53.03408,20.68137,-7.9843793,584.146179199219
560,-3502.6265,-3420.2354,-7210.7046,208.97203,-92.21501,1183.1136,4291.6123046875
561,-1625.912,-1480.188,-2895.6313,-111.281845,-860.1185,-1338.9983,3074.697265625
562,669.46216,553.4537,1271.6082,20.091688,-158.11426,304.77994,894.860717773438
563,-341.65488,-288.4513,-686.2551,129.75987,-886.20245,245.14236,1651.29516601563
564,660.1799,354.07797,1162.6982,20.07879,317.58243,387.6057,1120.06457519531
565,803.43396,717.16516,1333.135,-12.308422,-192.39561,-194.24974,747.277587890625
566,1512.8231,1501.3347,2979.1191,13.546085,-100.90988,-317.5711,1581.345703125
567,324.58148,117.04759,435.01523,34.364063,-919.80597,-1582.4122,3183.07104492188
568,-632.1404,-704.9807,-1819.5001,55.16417,-453.9256,296.48453,1489.84057617188
569,916.82886,859.77594,1435.9304,-0.60286033,-61.766323,-33.303074,563.126403808594
570,-296.14545,-716.48615,-1169.0156,-205.23598,807.3309,1237.5273,2692.17797851563
571,1043.9077,1204.6908,2412.8152,-44.23321,365.87488,-406.06238,1606.79321289063
572,-1754.7643,-1943.0745,-4103.7925,-66.716995,-68.212906,591.86926,2487.828125
573,-21.326302,-56.694572,104.70157,100.98411,672.12317,195.62932,1233.79333496094
574,-3.9753458,88.24017,402.19138,-176.77115,-819.485,186.78142,1532.67517089844
575,1699.1786,980.1355,2108.4338,-98.63463,1883.5293,-4167.9062,7985.32080078125
576,2246.1094,2328.3425,3861.1355,-406.85895,960.9043,232.53621,2431.27465820313
577,3800.3093,3552.3457,6004.3174,1.748727,204.36145,60.16684,2366.81469726563
