Element Label,S11,S22,S33,S12,S13,S23,Mises
1,3610.7766,2592.4011,1041.9368,-454.0294,-175.74686,-253.92867,2434.03198242188
2,-464.2604,2069.866,-1944.3508,869.92163,-381.43848,395.75638,3942.06127929688
3,2425.2004,4094.6333,2362.0002,146.02185,988.01874,-902.7738,2886.87036132813
4,-31.954536,2373.9001,-3670.3774,-254.91418,-1910.1912,1142.1914,6544.84619140625
5,4073.1558,5548.8813,3413.71,2617.5728,1410.7252,-1015.6247,5762.44482421875
6,-722.1544,2287.138,-4078.651,-922.5551,100.365654,468.80972,5802.1962890625
7,6882.5264,2268.876,4475.786,927.1702,504.285,-547.2684,4496.07177734375
8,-6376.057,867.0856,-4181.5703,641.7589,-1484.2738,910.9197,7191.5224609375
9,9112.225,3966.6482,4052.2788,1864.3524,3157.612,-1022.7283,8337.8994140625
10,-3311.6536,1536.3019,-1250.5212,910.33057,-2459.452,903.15894,6390.505859375
11,-571.7492,1301.6345,-2920.2068,1133.6138,1.9374611,-266.20865,4182.3720703125
12,6882.182,1635.5588,2614.8706,-712.73016,-370.28537,3.7668734,5028.255859375
13,-4616.9004,2362.5435,-2394.1694,1334.8969,965.13104,-196.27867,6811.431640625
14,9258.677,977.24097,1910.1075,1236.099,-2246.4106,-217.8593,9032.8427734375
15,-4882.677,2321.384,-2724.2708,-225.12086,1285.098,719.6401,6904.2041015625
16,5123.076,-1335.9004,16403.129,475.31073,-490.39404,422.39252,15612.49609375
17,386.5518,3123.2256,-1885.0125,395.27054,265.44135,67.57824,4422.63623046875
18,2791.559,4666.23,5730.6396,-882.269,32.392254,307.5978,3043.84130859375
19,-606.1751,-8685.397,2129.2224,-1300.7057,-8492.698,-2466.9043,18291.150390625
20,-14436.723,4285.2603,-30968.465,-1030.1504,3342.0688,-7297.9907,33612.37890625
21,1735.3718,1370.8375,116.97029,-656.74646,42.9,1400.1483,3056.609375
22,2404.4146,2171.3892,592.105,-1025.5162,-5900.302,-1027.4685,10662.0478515625
23,1668.6104,1293.2645,7078.28,2735.3638,-170.36096,-548.7732,7407.63623046875
24,1421.2399,-473.87842,-8538.409,3964.7993,969.91876,309.69434,11583.619140625
25,-377.28195,2279.3298,10542.824,2641.1396,-1863.6082,-352.3535,11358.443359375
26,2410.5156,-663.64764,-12277.494,5815.2915,-55.27572,-501.8151,16800.365234375
27,5025.502,5679.3047,20024.912,3487.0708,608.83325,-2103.5532,16323.8759765625
28,-3599.4194,2508.2039,1110.3694,-2384.645,-117.27839,-287.5316,6933.140625
29,4704.6465,-1307.5396,-8612.92,335.1857,44.742786,1447.5803,11834.939453125
30,1898.6577,503.23947,-6191.471,-687.12964,477.527,796.636,7753.2373046875
31,3643.1807,6324.07,3210.281,523.57263,1177.1995,-595.3762,3818.1572265625
32,871.2823,775.2499,3495.4092,1104.1672,280.30963,-352.2984,3378.2958984375
33,-1638.4531,1228.9233,-1402.5265,766.74023,444.41592,-403.7521,3232.06665039063
34,3147.6104,3180.0044,2919.622,7.647861,474.6423,-2740.913,4824.34033203125
35,1054.7931,4001.1162,-84.700264,-930.991,-389.69955,-751.85455,4253.0302734375
36,-136.61996,2299.0916,-1710.2356,1526.9791,259.08368,1382.2921,5017.01025390625
37,955.21686,6226.4253,4334.7676,-264.73178,1497.9672,1049.7144,5624.9755859375
38,1524.2013,-162.35374,-6747.4478,-414.4421,-888.45996,-555.1282,7818.05126953125
39,2490.8247,1429.3676,1201.2078,767.1536,-22.594433,-3.9878507,1785.52038574219
40,3599.271,2654.8984,3121.245,-1754.5779,-685.4753,-188.80508,3379.51416015625
41,-73.410034,-267.78714,-2221.113,-1175.2057,1252.4305,583.8371,3755.61108398438
42,6525.4165,3499.2913,-202.86612,-2661.8113,7406.221,-1191.3658,14971.1962890625
43,-10322.984,-13476.526,-17717.924,-212.07991,8807.642,4749.754,18489.15234375
44,-391.72412,16070.944,-23713.193,-5870.2305,1230.8805,2707.9575,36452.2578125
45,-9301.103,6548.604,-14124.818,2308.0168,-3348.7207,-10067.171,26544.345703125
46,5928.43,10773.189,-185.92706,-898.3617,-6267.1523,4262.597,16286.240234375
47,557.78174,723.46,-12968.755,3485.5537,3639.5256,-2246.4688,16630.130859375
48,-3987.6506,5467.8003,-12424.48,-1562.5667,7148.204,-2180.3835,20377.369140625
49,-12116.579,-1656.4811,-24437.775,-317.29102,-4992.0547,2084.8608,21868.017578125
50,-1806.6171,-1051.4868,-5292.0566,-1444.0795,-7245.6396,1154.6528,13531.5966796875
51,-1396.97,3740.285,4837.2095,839.1516,512.09064,-687.53876,6127.5751953125
52,-4882.732,8183.063,-4721.9873,31.122068,-1659.3871,-2872.0608,14200.365234375
53,-1763.5356,1527.3658,-9677.154,1633.3997,-413.78223,304.62384,10406.4560546875
54,1464.759,5377.1445,8289.333,-34.189785,1560.8711,394.21826,6554.37939453125
55,1148.8959,3914.1196,-2810.8335,980.7613,371.9635,-1277.7449,6517.2158203125
56,-1480.5524,331.35117,-13630.581,3350.1992,-567.5043,202.70364,14411.169921875
57,3148.3762,2471.9475,444.1811,2583.4841,244.05501,-950.1018,5371.31005859375
58,1941.8279,1992.2704,743.93097,242.23572,-418.96527,164.13608,1510.42333984375
59,1881.5696,-281.36218,-6421.3013,1937.3119,421.4899,-1086.6475,8425.6923828125
60,849.66,1467.7545,3964.4678,1813.3165,-1088.7144,-183.1825,4656.150390625
61,1561.9337,-786.1434,-5464.0044,1305.4652,-30.97432,-950.22687,6797.36865234375
62,2589.033,605.9874,-989.128,-122.30637,-609.81024,142.62296,3295.68725585938
63,2466.0994,634.0911,-2052.081,464.11935,576.12463,941.49884,4449.056640625
64,136.17564,-698.10803,-4751.0317,12.52123,-93.723465,-597.2563,4647.63134765625
65,3565.1086,2615.245,-432.8749,254.82573,-487.60938,624.11707,3894.2568359375
66,1483.0663,1718.4604,2348.7788,608.89197,-861.4235,532.34436,2188.5283203125
67,470.92133,828.4137,-3067.4763,677.3384,-233.895,4.683283,3931.10131835938
68,2514.1182,-1712.0437,2899.5942,963.5761,777.2557,-179.73651,4932.833984375
69,6069.0747,3206.713,-4802.586,-265.85794,384.18112,-1238.021,10025.986328125
70,2652.8413,1162.9736,770.17395,-507.98386,-155.14806,1048.1677,2664.87133789063
71,2235.977,-463.573,-1919.1631,-1210.4966,1236.343,-5126.496,10057.841796875
72,5576.469,5750.1104,9596.125,2146.5674,-2504.1978,-592.98553,7012.9150390625
73,-5127.4873,-1207.5663,13691.247,4990.7695,-947.91956,-2221.3604,19696.82421875
74,-1729.8252,-3971.4387,12405.595,-2714.7146,-2225.4993,6048.896,19576.927734375
75,-4642.378,-308.71854,-6512.3228,1119.5892,-92.521904,-1015.85266,6104.341796875
76,-10871.076,-19718.72,-22601.854,2872.904,3614.8596,3618.063,14674.3212890625
77,-1008.0668,-5666.288,-2979.8286,2762.437,-148.7961,-2027.3727,7189.734375
78,-357.42636,4533.894,247.48055,-135.66837,270.3645,-47.9319,4649.0361328125
79,2445.1392,5646.668,-5212.0356,-686.6358,-1529.8739,-627.20435,10149.5263671875
80,871.8778,3751.2231,4947.0537,-905.2136,-252.4826,918.6167,4283.09423828125
81,2033.3104,1356.3273,1472.5834,666.17145,-904.81476,-683.45746,2362.60083007813
82,-1266.718,2266.1821,-4164.786,1121.4219,-177.87599,875.9071,6106.39697265625
83,3927.9705,1164.428,7394.1914,-544.62415,93.935425,1156.6243,5844.70361328125
84,119.98277,2916.3916,2160.105,-92.50661,-330.01358,1188.4404,3296.44604492188
85,1407.2505,-1077.7563,-1802.1084,-1905.6866,-302.87848,-1741.8024,5363.927734375
86,-6371.574,-1334.683,-21647.924,95.63745,190.69165,-3108.7065,19100.029296875
87,-610.37933,-585.59094,-1416.0182,220.56653,-968.20276,2980.357,5502.31005859375
88,550.61957,961.1234,-955.0086,612.60187,532.536,-1225.926,3088.49584960938
89,4530.695,3650.7349,949.81683,2356.1646,-583.1939,254.31624,5321.17431640625
90,1545.879,2718.344,-102.91487,1019.2833,-232.99025,1029.2891,3533.31665039063
91,3864.6787,5117.1367,11907.865,479.89493,730.29755,1968.7083,8372.9375
92,1080.1558,172.18044,-1624.5309,749.91266,-494.91138,-176.7544,2863.49536132813
93,1652.1193,3076.4504,2006.193,-1747.6261,196.58623,954.6889,3696.29418945313
94,-812.4263,3963.5317,-573.21216,1044.2981,-529.017,-1053.1542,5400.2939453125
95,10540.775,1341.0481,15084.618,-358.5787,-78.30348,825.72974,12228.3779296875
96,1669.8785,1509.299,2193.6511,-1255.785,-1220.5056,360.5675,3158.1875
97,-5800.205,-9826.437,-19272.545,-1976.544,-2095.7249,1465.8138,13221.7216796875
98,-14006.852,-8039.1445,-23361.729,2496.2175,812.8707,-7778.128,19522.49609375
99,-1096.2024,1242.7902,4997.9404,754.5225,-2778.5667,998.0729,7497.53076171875
100,-3613.5767,2489.9888,3103.0896,-1361.4796,631.6938,150.10707,6942.41259765625
101,4370.561,5772.729,7147.3716,37.84736,-1859.7504,-1222.5688,4543.95556640625
102,4133.6235,782.5361,-3328.8157,1449.75,-802.52765,1471.0746,7525.96533203125
103,1389.007,3169.0256,3207.5374,1285.2836,489.55118,-1022.4689,3471.26391601563
104,1060.8665,1481.3707,-2212.8027,-556.4958,-1404.8625,1474.403,5063.78271484375
105,-711.097,224.13448,-3691.2295,-1267.4274,-67.56882,1660.4705,5064.31298828125
106,715.87494,359.85645,-1075.6029,-2127.5918,-3521.09,-80.718506,7313.82666015625
107,882.8995,5828.838,5123.7725,480.96466,-140.52167,-635.5143,4841.18505859375
108,-1287.7716,591.5359,297.86935,893.8471,905.7597,273.45108,2854.56884765625
109,3070.9854,2110.6404,-1567.8976,361.3236,324.90903,23.909811,4323.9619140625
110,1433.8453,3489.9749,4062.9626,238.44412,724.2856,367.06046,2807.60693359375
111,68.99424,806.0844,-4405.822,1109.2488,220.51024,644.4407,5380.400390625
112,2224.1304,4075.666,1087.5554,-672.2616,-251.868,-585.446,3065.7392578125
113,2868.3384,2556.019,2208.73,-319.4003,-23.2476,239.52974,898.004821777344
114,2738.4421,2090.8577,-1564.7339,4334.936,-171.85716,-327.59402,8540.2333984375
115,5766.751,-643.9037,-3960.559,772.2982,1075.9047,2014.5144,9528.666015625
116,3418.3923,103.28724,5556.248,-7559.2554,-2258.725,420.85287,14488.3212890625
117,661.0175,-2816.1265,8224.289,288.2001,694.66895,3892.257,11947.3037109375
118,4269.916,-8155.257,1620.3827,-1413.0085,664.83044,-4452.1553,13973.720703125
119,1459.4084,8736.325,35012.305,2191.2275,946.9284,11613.635,36828.15234375
120,2997.9065,2902.4045,6652.664,-117.23107,-495.34302,173.7571,3818.80981445313
121,-2674.939,223.63425,-7572.233,637.8422,-2790.7485,-1146.8871,8666.7060546875
122,422.77316,1139.9337,2232.4414,-631.0049,504.9499,-1690.3441,3608.68530273438
123,2439.2324,-1076.771,-9335.319,-206.64758,841.21814,-861.82275,10680.9287109375
124,829.0804,194.16101,-25.62499,1129.3893,10.010415,-136.22185,2115.06616210938
125,-15301.906,-13352.282,-26507.3,-4307.3833,-5738.9243,-18698.084,36803.93359375
126,6759.794,-2035.7322,-979.4083,7438.8975,-106.47848,8677.583,21474.009765625
127,1270.7422,6092.8096,-11239.739,1460.2677,-2115.3638,974.93317,16209.990234375
128,-2835.3716,3863.3718,-8474.251,3737.3381,-524.7475,-39.251575,12537.037109375
129,4033.4424,4588.117,13988.888,1625.3004,573.93445,-376.83502,10160.4892578125
130,-7533.894,-1529.59,-35320.098,-848.61597,-664.3252,-212.54608,31282.2890625
131,625.02234,3518.6965,1762.2887,634.3159,-376.56464,24.358158,2830.21215820313
132,-4800.192,229.51431,-12764.48,383.5267,1606.6202,293.96463,11714.5244140625
133,-726.2226,577.808,-608.9401,1563.1099,1274.4442,133.3078,3717.1474609375
134,1323.4362,3547.7798,5576.3926,-478.20065,1327.0646,777.38715,4621.43115234375
135,7750.2363,-5511.5835,19774.8,-2149.4324,-5391.178,2719.0942,24559.4921875
136,3377.066,-1563.9624,1128.261,-1100.1217,218.61581,3320.4983,7430.39599609375
137,-3334.493,2391.0024,6186.9985,-6541.5034,-3731.7354,4627.329,17415.875
138,-7744.675,13055.744,8132.3984,2137.4255,-230.50218,719.37054,19232.958984375
139,4944.6978,-193.77473,4046.5803,-1001.8807,-1208.9009,-2652.9326,7148.7998046875
140,7587.2373,6599.207,3432.9841,362.0714,-160.6901,-1845.0022,4981.19921875
141,409.9123,545.4504,-3632.6384,-508.2973,750.2476,-16.993916,4401.48681640625
142,2070.6921,1655.2262,-1199.8147,429.1968,-206.5222,770.5267,3460.02319335938
143,3218.0034,723.28564,-7890.114,134.7043,820.7876,95.95024,10198.3037109375
144,370.35474,3256.907,2752.4866,-760.8992,423.3862,531.6835,3202.08056640625
145,2492.048,252.09677,-1780.608,7.555208,507.7733,-766.51056,4029.72924804688
146,1735.3408,654.19653,993.356,1969.1768,427.42822,-266.19873,3648.40551757813
147,2186.5435,-271.1711,-3388.633,2979.4856,1138.2587,-1259.4105,7661.462890625
148,3285.4373,6264.3325,11862.494,2196.1628,-810.4862,1038.6249,8750.19140625
149,255.7914,2974.1365,-219.23366,1414.1322,-36.0584,-194.26387,3875.92016601563
150,5694.674,7563.4365,13709.679,4275.428,867.1577,-4107.2,12667.1015625
151,16980.832,5108.669,29765.299,-2660.6975,-1189.3663,7233.7056,25271.15625
152,-3344.659,3816.492,-6027.806,2611.2312,-2736.2961,845.60144,11079.640625
153,5787.979,4652.753,5487.15,-551.56396,4205.044,-2435.4382,8531.802734375
154,3209.3245,7114.7627,18583.64,1399.6638,2452.5476,745.1748,14736.57421875
155,2350.5632,1759.8196,2692.274,2241.0432,1358.0453,3113.3804,7095.541015625
156,-206.7675,1861.6212,311.2653,-838.3914,-551.2071,992.66705,3074.32080078125
157,2023.9779,1267.7355,-7620.9595,-1426.6985,-447.45477,-1798.7781,10134.9228515625
158,-1026.4105,3356.2686,3299.0261,-820.30896,682.63934,-605.96844,4845.47021484375
159,1982.3815,3931.3254,-1018.34485,-573.2481,-14.270275,1203.3652,4897.11181640625
160,4430.257,837.65424,10051.073,-1440.5264,-2146.1592,-1329.2313,9488.81640625
161,9942.514,2512.0486,29543.8,-82.31126,1575.0809,-723.8063,24374.240234375
162,741.7367,1757.4934,-321.71945,-426.2789,349.37234,-1077.7843,2763.89111328125
163,-1318.6506,4195.8,-3138.3135,-845.2075,-572.2485,2082.8289,7739.17529296875
164,-2048.1848,5442.4272,2156.279,-1642.3281,922.3602,-646.0871,7361.31982421875
165,-4097.1562,-2249.7937,-17718.176,1432.3208,-309.29224,-1483.8213,15071.6513671875
166,-1202.7653,4549.8545,21366.12,-2701.496,2050.0679,2882.0479,21726.439453125
167,300.02783,244.6657,-10666.804,-3559.1345,-1938.9683,-1432.7522,13232.791015625
168,-2857.2017,2435.3005,-8181.7397,174.97261,820.2875,-248.16904,9318.6181640625
169,-1624.1533,-1909.6444,-4000.5642,-756.3612,-1031.7491,1266.9806,3843.94018554688
170,-1438.6765,3874.892,1314.581,-2768.9133,-126.035484,-1555.3862,7175.7080078125
171,10930.029,-1812.0999,24343.793,-7557.663,-1201.8693,8697.232,30262.595703125
172,3793.5955,1840.7592,-5355.1445,-1232.7462,2544.6868,-3080.4104,11049.845703125
173,2648.0776,1611.6808,2249.9846,1341.6886,193.73418,-860.96857,2925.20043945313
174,-28.358868,4012.3472,2177.7434,223.42952,-372.22495,279.5382,3616.60375976563
175,2332.7832,3581.6934,5192.697,1161.7428,-472.6323,1179.2875,3880.50854492188
176,5145.263,4401.5513,-2347.536,2677.3306,-382.06882,16.39668,8547.84765625
177,10004.102,-1955.1012,27618.8,-2313.5576,8055.3647,1328.7014,29664.43359375
178,9596.894,485.27213,13750.079,946.01953,752.87286,126.33184,11939.2646484375
179,299.83182,1797.0713,-10054.253,-547.25214,-308.77377,-642.4744,11286.015625
180,-3680.9375,4229.6157,-5056.246,3453.7263,-3105.821,1901.8839,12285.0439453125
181,3305.957,2019.0505,-319.02103,-733.74164,959.894,-754.1385,4027.04370117188
182,3734.177,102.84008,-2652.3977,411.3176,-149.12254,-22.485191,5599.90283203125
183,2524.0735,3362.743,3163.0774,1017.0051,473.9094,-46.00923,2087.7734375
184,-3191.6704,-1979.7751,5968.395,3285.4102,1576.0201,972.1788,10814.0244140625
185,-8925.164,-9075.685,-1642.5254,2358.9993,-546.273,-753.0685,8570.115234375
186,1524.6974,653.292,-1181.2494,2055.808,447.1588,-287.64035,4387.55322265625
187,1235.3462,660.4824,-594.77875,638.63965,-16.334518,-129.75743,1975.51171875
188,-7883.8584,-7607.4834,8377.054,2525.176,-797.941,-456.5023,16782.859375
189,-965.04553,-4641.257,-14537.574,4395.733,-211.88075,388.54047,14366.1953125
190,2001.5181,-8850.583,-2002.0555,-3779.3684,637.0177,55.084446,11594.2607421875
191,2252.277,-2651.2012,-5435.026,1344.6416,259.43613,-664.94666,7238.5615234375
192,-3417.482,-5783.291,-15086.598,-507.17572,-2850.4917,-295.42422,11813.8828125
193,4015.707,-4605.5137,-7358.5605,2459.6448,2098.0266,1373.2289,11943.6728515625
194,2483.913,-382.99417,3684.661,1799.4353,60.09141,-537.85913,4867.853515625
195,-1552.0277,-1150.8158,278.28732,805.19604,-1575.1356,308.4365,3528.49243164063
196,1083.3162,-1789.7561,-12125.282,525.11084,-55.218533,3613.289,13593.2451171875
197,490.03912,-1565.3486,-720.88214,-138.69041,520.77625,862.39154,2510.880859375
198,246.20915,835.10034,3479.2893,1482.3312,719.4183,-1854.9868,5230.98486328125
199,2972.7197,-3888.28,-7326.125,-1027.4052,-296.3579,-971.3924,9420.1982421875
200,-370.61072,-1916.0747,-1560.0035,947.5945,-1080.4489,-248.46742,2888.95727539063
201,-1950.7056,-2759.0486,2056.0686,1057.6189,508.28638,-817.126,5106.89013671875
202,1561.6321,-2296.2568,-980.28595,52.295288,-1261.6467,795.7064,4268.62109375
203,468.05106,-1870.1877,-1022.32715,-1036.6372,490.97427,-173.00882,2870.63427734375
204,476.7596,-3300.7764,-2632.8875,-9.882949,-588.2099,-413.16415,3707.18994140625
205,548.2046,-3046.8225,-2782.0024,-725.3873,-195.7423,175.1649,3718.583984375
206,2089.4011,-3010.5017,550.8619,-1772.7352,219.78036,-395.2426,5529.10888671875
207,3026.0234,-1707.135,3192.946,-462.34906,241.18552,-407.73376,4953.3095703125
208,2751.2092,-2709.6345,-5144.499,-2267.1846,-943.63025,81.85259,8194.9736328125
209,2122.3435,-2129.4321,114.88954,-1067.096,-236.78375,309.0296,4176.48193359375
210,1031.9379,-1413.3545,-3041.699,569.5019,-666.51154,1756.6752,4916.92724609375
211,3964.694,2411.0828,-1118.939,-4506.9536,-1250.8223,-464.12643,9307.8916015625
212,-1971.4667,-1372.5432,-924.75946,-3621.3887,-505.14294,1408.7042,6847.60009765625
213,-5181.109,5478.159,-1334.0913,-2493.7332,936.3625,1709.8142,10838.3564453125
214,1822.0204,-681.02545,9263.286,2364.0657,2982.3152,-1343.6567,11363.484375
215,-239.46999,2361.2107,1027.1808,-1237.2557,-467.35574,-129.45645,3220.51806640625
216,-2191.6997,4412.373,-2362.949,1340.5615,-1354.701,1313.5479,7800.4638671875
217,-395.23898,3421.2751,1302.6189,-1228.4147,-98.89222,-266.73697,3967.16455078125
218,-1569.7039,-2279.6147,-7033.1943,-931.1408,-1120.1167,731.1026,5868.875
219,-7285.1226,2875.0476,-15155.408,-846.00745,-1045.9572,253.7652,15835.2880859375
220,-3167.4468,-151.47324,-4956.345,-621.5206,303.24277,-183.79405,4384.9287109375
221,3161.0823,2197.7249,10346.889,315.61087,777.1268,-428.6117,7883.40673828125
222,-753.3282,-1478.6124,-2411.998,-902.70056,-702.77057,-505.37738,2601.28784179688
223,-2521.8623,1543.1344,-7957.7754,-1173.0566,497.6991,-925.25256,8695.3955078125
224,-7658.5664,1670.7234,-6221.0435,-2113.4404,246.16202,-266.02206,9459.6533203125
225,543.77344,-838.5329,1774.7316,-665.73126,-575.0215,604.8622,2923.47534179688
226,8148.63,2200.0557,21890.143,3023.3508,-584.8213,1246.7407,18413.8046875
227,-2088.3342,-1034.3319,3729.4011,-112.27156,-99.26785,-2330.0361,6721.580078125
228,44.386272,1437.8579,95.59528,231.90657,-370.0628,-531.9849,1815.00207519531
229,-1523.7744,761.53284,-2447.7273,148.53714,-178.94495,470.40408,3002.32055664063
230,-1691.5391,1714.5023,-1102.8632,761.9192,903.1745,910.2974,4076.42749023438
231,2442.035,1152.6742,-4623.593,873.4487,-371.25885,329.31253,6745.58935546875
232,2840.749,912.82025,361.38852,1024.6514,485.40247,980.31885,3438.56958007813
233,577.6307,-93.34917,52.573902,1466.0581,20.12618,125.66769,2621.10034179688
234,1162.0426,1139.2097,1369.3961,1029.4305,-400.2997,503.10373,2113.64453125
235,2545.758,2482.8809,6701.057,790.0811,106.39177,-649.0749,4549.97509765625
236,2499.804,3865.1316,-1540.661,361.82013,76.01593,-1854.063,5867.6025390625
237,2787.7383,-702.3939,-4400.9854,936.70465,-644.81464,1493.7006,7024.400390625
238,465.65472,1817.4307,-2614.2378,295.36154,48.44353,-78.14659,3970.31958007813
239,5669.28,1422.9783,6395.9673,36.26054,-329.028,-269.44214,4710.775390625
240,2161.1462,301.87457,565.6239,277.19553,122.37201,66.22553,1823.36706542969
241,4132.1455,1262.1877,-431.14334,-686.119,-331.58075,45.94083,4208.59375
242,1592.4576,649.44006,-1669.3297,-561.8347,1819.3698,1249.457,4900.3408203125
243,2107.5916,1039.9297,1177.2417,143.3466,131.27296,167.75015,1099.96203613281
244,3928.676,1571.9512,-136.81783,-1004.66644,-236.146,-303.7344,3996.65673828125
245,3174.393,3601.563,-56.812214,1414.6885,812.8168,-1102.6031,4861.7568359375
246,896.61505,-2723.299,-5058.4946,-1637.5303,-225.53683,1130.9591,6248.5556640625
247,6563.615,-5905.5137,-3485.4465,-3609.9392,666.2504,2225.7332,13654.599609375
248,-1938.348,-1626.4786,-10422.734,-2280.6733,-870.779,-1146.5018,9826.0205078125
249,1567.7452,-3284.1067,1823.8772,-2045.5627,529.7466,-1685.8009,6838.818359375
250,827.50635,-1900.9044,11128.5,-1742.223,2730.0237,1593.25,13443.9765625
251,-9382.828,-1828.9597,3997.4204,-4107.6396,4782.8384,-2432.131,16492.720703125
252,3379.0525,-7141.0747,9443.606,-4383.2104,-117.65354,3409.62,17430.072265625
253,-5436.1704,1306.5237,-6552.336,-1504.4279,-1241.8627,1007.8344,8288.515625
254,-2415.3652,-8810.363,-13275.941,-1943.1116,262.70267,5683.569,14065.4794921875
255,1282.3162,-884.0845,2163.3135,-2708.2278,727.73926,3726.044,8521.76953125
256,-6066.99,-39.489563,1350.5253,-3982.6138,2821.1873,10600.306,21335.453125
257,-7245.654,11156.748,-758.66223,237.66072,-1275.8691,-8658.53,22165.6640625
258,-2654.421,7985.3096,6264.7124,-2863.0122,-3861.839,-6924.7817,17636.53515625
259,-21857.176,-8288.313,-14088.848,3098.9976,-1763.3739,-2885.7822,14218.8828125
260,2855.686,-2770.5513,3997.2837,-5193.318,590.43494,-792.5704,11100.5712890625
261,-705.0233,9675.165,26631.902,-6680.082,743.96094,846.8025,26626.595703125
262,546.98444,8565.154,-9265.251,2232.0525,1875.1017,-5931.1646,19242.595703125
263,-2953.1443,-6192.9634,-4264.5986,1114.1985,1304.8049,673.8146,4261.6201171875
264,1889.9457,6442.3076,1191.0348,-3444.9277,-1121.8922,-2193.498,8843.470703125
265,2387.6375,5789.8833,21941.764,-1236.842,3039.7688,599.9032,18994.755859375
266,-4579.206,1956.6556,-3259.457,-751.9915,416.23804,48.978462,6169.03271484375
267,-2936.899,1771.3456,8116.6943,678.77765,320.61584,579.7576,9747.0732421875
268,-484.79797,469.0201,5530.941,-1104.0339,-36.98516,-2059.4495,6909.8291015625
269,-1134.0042,3737.4114,1231.5963,1056.2135,-2094.1858,-2528.7144,7313.6669921875
270,-96.86821,3205.0366,4261.5923,2944.6494,266.86533,-396.98703,6496.6806640625
271,-1377.4813,3388.6658,5842.3057,2439.1199,468.28116,-304.18182,7695.0810546875
272,-2461.3708,2130.8342,-40.440155,1591.0044,-198.65814,189.1233,4863.27294921875
273,539.42834,1325.9795,-4154.075,2266.0444,-1172.6897,1645.3682,7347.89111328125
274,-1567.7852,-8834.675,-11231.863,1643.9539,-358.583,-519.634,9234.6015625
275,166.0036,-825.4156,1328.1305,-844.73474,-43.238316,229.11824,2406.12353515625
276,-3661.0676,-1643.2004,-1835.3174,-2029.0969,-825.48456,-437.36096,4323.29296875
277,-4210.08,1110.2472,-5945.2236,990.0208,-456.82446,-155.64459,6647.35302734375
278,1021.57806,2185.0952,1340.5546,430.78174,-651.96765,-256.90854,1764.73620605469
279,1954.2683,-224.06987,2510.9146,565.36395,18.732622,-201.02586,2710.86181640625
280,1829.6794,989.57275,-1268.1554,528.09595,176.94281,-694.11945,3174.24584960938
281,2984.2,837.1254,4946.402,-2417.3455,-126.82934,-1509.1813,6089.7431640625
282,-632.1459,1779.7496,-332.22742,-227.34084,-177.02164,-360.65338,2413.10864257813
283,515.2817,213.95491,-399.42676,667.7937,254.83427,-162.63116,1504.61840820313
284,482.18625,2572.326,9597.738,1681.9448,-518.8699,351.5944,8835.98046875
285,-7989.544,-6381.8604,-18727.605,-399.51096,1162.5176,1475.6862,12092.15234375
286,-217.96411,-2660.537,-2191.4304,-1072.809,513.3682,503.14325,3169.109375
287,114.691765,272.1072,5915.1895,-139.41064,3807.0828,204.91571,8742.046875
288,79.219154,-2535.9656,507.73407,330.76315,-467.49277,-639.12067,3217.56884765625
289,-115.80836,-1904.5237,-867.10236,211.6738,536.44794,307.90308,1924.12414550781
290,2620.7432,-1190.4647,275.36566,45.892616,-383.7374,-1637.1528,4424.5078125
291,1620.3257,100.57029,4554.3027,71.545555,301.05392,658.4999,4118.85009765625
292,1329.6476,311.92337,-450.07077,269.37387,-60.627865,-201.19005,1655.91174316406
293,616.4299,2433.667,4674.33,-50.220425,-558.46185,68.077934,3654.01782226563
294,1044.3014,2356.6191,4855.042,-641.4754,-1889.2932,-62.310505,4816.37060546875
295,2022.497,994.7971,-283.82355,-341.1574,157.23087,621.81616,2363.9736328125
296,-2294.5854,-434.80923,-8445.74,-1428.0964,-1495.7905,-4151.8555,10829.56640625
297,-1326.4214,2842.4653,-1415.5536,-1615.6249,466.82703,-17.937649,5122.95068359375
298,662.4727,8717.805,9787.891,-521.8989,1555.5796,-1833.3029,9633.94921875
299,1467.4204,3820.3025,4162.5933,1008.1221,437.9945,639.25385,3362.88134765625
300,273.85413,894.5007,864.7515,763.1183,182.49043,-32.587864,1489.21667480469
301,2017.9067,-6174.234,6858.048,812.68164,-910.9726,1283.4839,11815.337890625
302,-82.16963,5572.867,-2636.1953,-1898.8109,-949.25275,-348.5532,8174.94677734375
303,1554.325,3559.2043,7125.6665,-233.12952,1573.5433,2350.9636,6932.65966796875
304,-3019.464,3372.1863,-9888.228,1934.1466,197.63853,2249.6133,12588.013671875
305,222.11967,3086.7874,401.90378,2086.2195,0.29679897,96.84023,4561.654296875
306,985.2558,-7331.3145,-10377.79,-4120.458,3682.7021,827.99133,14052.0712890625
307,4071.3503,-2474.2185,2229.571,1244.0759,-582.53094,333.52704,6338.4580078125
308,-20467.295,-14384.731,-20896.107,2590.7031,-228.65903,624.54694,7826.365234375
309,-2213.4712,-418.4948,5787.9834,1145.4445,-2110.505,54.53906,8377.9794921875
310,7675.926,9522.777,9485.169,1871.0078,174.41052,3122.174,6571.14892578125
311,-914.2956,-951.8971,1470.0802,1371.9783,1195.6725,-4738.877,9114.9912109375
312,-2395.433,821.3119,3792.8171,2052.8408,189.4028,164.42992,6447.25244140625
313,3660.9177,490.1869,6440.9663,1700.1462,367.97678,-951.88715,6196.20654296875
314,4118.218,-993.7569,3770.6,-1249.6704,940.5109,907.68445,5855.466796875
315,1325.799,-2829.4658,18269.93,105.24371,-1994.31,-573.1459,19690.802734375
316,2348.258,-2401.558,-2159.06,977.871,-583.4635,124.38331,5040.251953125
317,1742.1611,324.20572,1620.3967,-716.9851,18.271536,-809.00543,2315.046875
318,1508.598,-1042.8076,3070.1833,47.64923,385.1076,-57.669872,3659.80419921875
319,-1229.4292,2399.6086,9414.258,-2605.5398,1593.66,-3541.1335,12386.94140625
320,1260.7749,2224.409,1026.1786,1297.544,-169.28416,-795.461,2871.37548828125
321,1983.0026,-859.7564,1081.8287,-326.93924,499.8319,-399.79407,2807.35498046875
322,-2182.4197,601.33374,1655.3481,-3503.5112,416.67352,-593.6377,7084.9267578125
323,-2093.3296,6704.922,2086.8071,-1754.1653,-3604.383,2015.5989,10885.7158203125
324,1175.2961,802.23944,2316.5847,-970.541,1378.1575,1898.5658,4604.8818359375
325,-663.6495,2438.4314,-3189.1,-481.72302,335.82254,356.96512,5025.1103515625
326,657.9255,706.46704,-761.92487,1098.8113,13.052719,305.35336,2447.375
327,3526.9126,1086.0471,3915.4407,841.6608,414.65112,-421.14456,3198.4677734375
328,2018.1316,-99.13631,-2423.544,-395.1814,-59.521126,-75.53945,3911.94848632813
329,2472.8298,467.27988,892.6877,401.62924,-72.634186,362.03906,2059.85131835938
330,468.2163,285.0826,-5033.9395,268.0026,-85.48173,-401.30347,5479.0654296875
331,1122.0878,3564.37,-2125.979,441.68326,138.07123,-1168.5652,5402.44873046875
332,3140.358,-2358.1428,-2913.6519,-712.414,834.76245,789.971,6251.544921875
333,-15.723502,-1511.6094,-6314.328,-3042.4395,-2698.8115,1458.5786,9406.9404296875
334,-3024.349,2534.3418,10042.352,-2873.5972,-2933.2917,-2355.4397,14008.337890625
335,-427.98895,5487.044,-1118.0488,-1361.3829,7925.8755,7761.916,20354.51171875
336,-9052.886,13821.455,-19047.12,1397.1046,1683.0266,2446.77,29732.8984375
337,-292.52805,3886.513,5925.1914,1991.8599,-958.2631,-642.0108,6784.8486328125
338,-1690.0457,1416.1738,1984.9708,1122.935,-59.096977,-1112.3954,4386.87109375
339,-568.4771,172.95897,-3393.7292,669.6266,597.04,1176.5077,4146.51708984375
340,-5621.147,-2487.4707,-13010.852,-3001.3657,630.53204,1412.4019,11035.693359375
341,-1928.0818,1472.0574,627.95154,2669.9673,308.40253,-1000.3178,5837.53369140625
342,633.49554,1258.8795,-1524.0945,1051.0455,-142.47055,349.77975,3183.96655273438
343,-632.40967,2542.49,2734.9336,349.00482,-375.0129,-565.3612,3531.88745117188
344,942.84973,-2259.0244,150.98253,-877.091,219.717,-338.34656,3337.62182617188
345,2093.2136,-638.0488,1313.1029,7.54525,29.66341,-188.72615,2459.13452148438
346,-5726.6816,4696.2134,-7849.945,377.45154,254.96265,241.74602,11665.044921875
347,-578.11365,345.1275,-138.81209,-776.0539,599.07965,766.8477,2299.4375
348,-1394.6384,-694.2369,-691.3229,1813.508,-68.55861,-1401.4957,4033.07788085938
349,-1534.7355,-579.26807,-572.24927,1644.4783,1411.4607,971.5121,4223.833984375
350,49.86862,-1499.0948,2374.2722,-2766.3792,-104.30091,-138.81729,5869.54541015625
351,2059.7825,3399.2256,14306.232,2266.818,464.84512,123.35554,12307.5380859375
352,952.9989,539.4966,571.65497,1546.6953,205.76678,-144.45055,2743.19848632813
353,732.7744,299.10605,-1058.3566,1340.4,124.90558,-160.76566,2851.9853515625
354,1281.6759,1302.704,235.09972,1398.096,-434.8186,741.3813,3032.80883789063
355,-4154.6616,315.3105,4802.21,25.394352,331.83542,165.98775,7783.58349609375
356,354.69693,280.6862,-4798.6597,1798.4166,196.98053,219.66986,6012.09033203125
357,269.30475,1969.2505,5444.541,2247.7046,230.8152,76.46576,6017.40478515625
358,-833.0746,-611.3809,-6379.0356,2387.8364,-662.35376,-111.42499,7105.98388671875
359,-1149.9154,652.5298,423.44034,2978.1248,82.98262,-3.3130364,5432.93115234375
360,918.8311,-774.9956,295.23352,1350.4303,61.046185,-156.72075,2785.22998046875
361,1378.3182,1241.8281,155.83243,357.6618,30.83173,-36.408405,1317.8916015625
362,592.8706,-733.82056,186.45021,-316.781,-1119.0142,-480.86975,2477.38354492188
363,861.8518,-602.638,41.267406,72.23824,48.916203,35.197342,1281.75720214844
364,-2021.6862,165.18625,90.07153,-1744.3484,515.8445,-339.99207,3859.67749023438
365,-1393.8551,1725.4806,-472.58392,-352.2988,-72.92368,55.3386,2846.52880859375
366,-1175.2522,-56.031925,-706.9334,45.0311,-29.023428,-74.42955,986.435180664063
367,-192.92264,-1362.7888,-850.761,-863.7533,-265.5684,-10.117714,1865.97192382813
368,83.4421,-2380.1414,-1241.3838,-79.01554,-42.603195,-82.38662,2145.95556640625
369,479.7357,-2382.0967,-873.7448,1012.22595,-114.28139,139.94473,3052.91625976563
370,321.76157,-2736.8892,-923.80597,333.81985,240.1199,-44.479378,2758.66674804688
371,1422.179,-1318.9064,2134.7036,262.89566,-230.9981,-18.313587,3216.01635742188
372,-336.21738,277.0068,588.8937,380.98932,-137.47003,-235.34256,1150.16735839844
373,-1374.8071,773.66095,-346.29416,277.44846,30.173506,41.385998,1924.27368164063
374,-1244.9552,-1872.4844,-16.453287,939.3025,-58.95678,-62.590088,2311.48828125
375,-1630.2805,-216.15245,-365.34424,-789.37195,-5.928623,-48.94563,1920.32727050781
376,290.8019,-327.5262,411.58298,-808.7803,-467.9866,279.7035,1823.65380859375
377,-1732.4381,917.9654,-1355.4855,477.25394,69.30429,258.1339,2658.05908203125
378,-705.14417,398.1732,-307.6082,506.25027,66.63577,-136.8792,1332.34094238281
379,2723.1204,1546.5344,126.65642,118.14781,-163.03798,189.90108,2302.35205078125
380,-2038.4941,-2528.4392,445.22244,-1313.9147,1127.819,84.3628,4079.48193359375
381,978.6085,-1464.872,-842.6508,298.83478,-461.09323,14.669283,2396.61083984375
382,1711.8829,-1408.655,-303.66754,432.2216,-264.38593,78.5791,2880.84521484375
383,1494.0604,-1170.9742,-367.03732,490.76636,225.97693,19.616917,2546.1953125
384,2335.3425,-590.15753,1004.6191,373.49332,-380.83875,57.423737,2701.822265625
385,-917.17615,24.53946,602.6572,943.2566,-50.26059,-140.49014,2121.66479492188
386,-983.1572,-1156.439,-136.62643,1198.0977,140.9291,-47.46952,2294.77368164063
387,-532.3818,-413.15973,-596.1332,987.7234,31.862164,-26.172117,1719.8173828125
388,-1162.7324,889.056,103.426476,-547.1946,17.736578,138.96008,2042.60693359375
389,-1387.2373,1316.2659,-790.56244,-1500.2054,-155.27957,-69.88117,3590.3583984375
390,-331.95837,-672.8161,576.7682,-1318.8418,104.28341,95.537315,2555.337890625
391,-413.86865,-929.0658,377.58862,-1272.1382,154.23364,203.80518,2520.03369140625
392,-1466.7476,-1945.1813,138.0076,-966.40717,-86.03009,126.30621,2538.4638671875
393,655.03625,-2231.396,-831.0186,-250.76741,-55.916348,-14.29243,2539.50756835938
394,324.61005,-1148.6676,1800.7982,431.23767,-107.56909,96.75214,2673.05224609375
395,842.2615,-2048.338,382.3894,338.81952,61.52092,-128.84088,2764.650390625
396,-1245.9226,493.358,-317.71045,-181.04333,0.30732477,96.40453,1548.69799804688
397,-1543.7446,-1212.5833,-109.98663,236.13757,164.30327,99.188286,1402.96435546875
398,-952.687,-44.463142,-255.53558,1077.3662,-15.875353,-1.122714,2039.76354980469
399,307.41687,559.9877,758.37274,-2084.339,138.07874,-131.75839,3646.36010742188
400,1945.7983,-1987.1434,1128.5613,-327.20557,-460.36148,97.448524,3729.2412109375
401,2335.4238,-1299.2123,298.66382,267.39432,375.65793,21.694773,3255.05102539063
402,-1563.2559,1753.4998,-73.410324,-531.92474,-124.09688,212.25267,3051.10473632813
403,-643.10266,518.22144,-1405.0928,37.043613,67.36148,65.46377,1686.6552734375
404,-743.1115,1409.6561,1688.0444,196.26369,-55.147495,-190.2061,2354.66162109375
405,1073.9044,-587.47516,713.159,-230.93321,56.286953,97.18901,1577.59826660156
406,1084.6042,-677.6932,-81.65724,-48.24759,-12.959864,-12.2047615,1555.150390625
407,177.36166,-237.43697,-194.65607,-219.58246,-29.130821,94.13908,574.390380859375
408,432.18808,-1659.9312,653.07306,-1412.8983,-45.575615,-45.262676,3299.86254882813
409,-394.27338,-1205.8954,443.84494,-561.5936,-73.60463,10.040446,1733.24133300781
410,-840.7667,-1234.8988,-355.95877,-1417.9663,70.807976,-105.37347,2581.02587890625
411,161.56946,238.73146,-605.07007,-787.2065,29.782597,-57.285313,1588.8466796875
412,323.29623,-122.78223,110.02208,392.02298,12.927974,-25.320835,782.819091796875
413,-338.68265,77.4463,536.4894,-2053.1343,436.96304,36.367973,3714.5341796875
414,1068.7681,-1052.9834,-133.01146,-460.52075,64.16213,79.32589,2015.86010742188
415,-2537.3252,573.37463,-912.7162,-2022.8639,-290.1664,626.81854,4579.23193359375
416,-71.14501,-438.3058,86.83518,815.1786,242.11511,-3.643842,1545.06188964844
417,-515.5631,-1304.3002,-934.2825,1107.6387,-102.03116,173.51122,2066.2314453125
418,1058.7948,-601.7004,-386.4064,665.1325,200.89598,-100.35318,1981.05895996094
419,218.44576,-1057.252,75.03933,1165.4701,-168.75037,30.722889,2372.39331054688
420,-1409.8274,-1475.7819,-173.16039,1281.7,81.234634,358.78088,2636.18896484375
421,-928.68115,-1178.4207,-458.5845,-312.95975,96.31922,-8.924354,850.097045898438
422,-31.010424,-121.72701,-94.209175,-415.13513,433.13113,-13.186541,1042.51196289063
423,-969.84265,-3689.0098,-2553.1672,-615.0034,41.41365,-206.33334,2619.73583984375
424,-447.48758,-335.47455,-891.9259,-584.68,-266.43793,-220.52164,1282.28869628906
425,-657.59283,1123.5906,1567.26,1496.0507,-77.656784,-212.4545,3320.80102539063
426,-398.09137,906.31586,-411.27896,-442.11945,79.83302,-189.65918,1559.58154296875
427,-870.3892,-72.511154,189.39677,-98.048996,-86.95884,-0.7572338,982.702392578125
428,-2203.2646,-231.56117,-415.36078,681.7044,-65.50468,-137.41833,2241.134765625
429,630.12775,99.03278,219.95145,-616.83887,27.131886,197.29662,1221.85131835938
430,-190.90657,-419.27292,45.23114,1010.3632,70.01039,-35.46626,1800.78247070313
431,-615.4871,584.5375,466.41595,-302.07397,28.881319,-164.30154,1292.08996582031
432,-57.72752,-908.6642,-418.97726,479.27863,34.214054,156.76541,1146.10461425781
433,-208.30432,-490.1969,-1913.2992,-174.21948,41.241997,-129.40076,1628.56958007813
434,-114.45348,-2147.9998,-925.8765,664.7624,146.75058,-35.75911,2130.21630859375
435,229.33292,-217.61455,-773.81335,-344.1608,12.559346,51.35743,1058.97900390625
436,1203.4662,-1257.0472,-913.89185,-192.00606,443.0804,-132.13187,2465.66015625
437,454.5432,-110.30988,-52.71357,-254.11792,-27.190836,6.8776107,697.087219238281
438,-366.73288,-1124.1229,777.3796,-278.69208,309.85635,90.16408,1815.10375976563
439,-2191.9556,-3354.6492,-1722.1366,-912.1304,258.27274,-18.756351,2194.52880859375
440,28.582884,-165.6094,1651.3125,-59.82892,-162.68353,-58.819477,1756.8720703125
441,1237.5817,-1180.8232,-200.87164,-1094.8778,-24.348396,-14.973833,2835.09985351563
442,-2186.641,625.8522,-173.64285,161.99872,-97.76151,-5.125575,2531.44580078125
443,506.8131,-431.77042,531.863,483.89398,-101.06709,70.66859,1285.75415039063
444,248.02222,-1707.0583,-239.62375,-1296.8988,-226.59073,-204.43837,2903.79174804688
445,82.99196,-958.3406,235.3453,-221.52272,138.43465,-84.97605,1221.72326660156
446,-505.91302,-420.2133,-630.686,-839.2203,-120.68465,35.313004,1481.18640136719
447,-1426.4509,-2504.3215,210.84604,-1195.096,-103.25308,-84.069275,3153.61547851563
448,1344.0753,-952.7722,1892.4886,-469.90186,-109.56532,-8.305683,2744.91015625
449,-3765.184,-2824.0718,209.21819,-433.62238,120.645355,224.8144,3701.42993164063
450,-898.0591,-42.08243,300.37772,1158.6732,26.478342,250.66933,2315.44653320313
451,55.899334,175.20212,-497.5124,399.1935,24.925293,-60.364567,936.687255859375
452,-814.89087,-806.56805,330.1274,708.1281,-32.51401,-94.91025,1684.08374023438
453,-168.79659,-5.6427655,904.8838,-87.17083,-346.17407,124.52795,1197.10522460938
454,-279.70132,785.9592,1021.8096,-598.14594,267.76108,-53.116535,1655.13806152344
455,1233.8793,-110.63349,593.90826,403.05313,262.45755,-52.801563,1434.9912109375
456,-1544.4379,-1040.49,-82.687996,227.6039,-195.99907,296.48138,1479.3212890625
457,164.75432,-422.4858,926.36786,-155.31378,-38.198635,-17.380976,1204.07934570313
458,327.1663,320.88257,125.51892,-164.10635,-7.935931,-45.55341,355.866577148438
459,-346.56204,219.09898,-822.9537,-222.67729,-211.68065,113.2769,1066.80554199219
460,253.7818,-935.038,-2132.363,-137.60379,-9.3788,-28.25264,2080.80419921875
461,121.28925,398.14166,494.23636,-496.24188,-141.67679,141.85406,985.818481445313
462,-736.3078,-586.27686,409.05222,-776.47156,-0.16208042,-29.074894,1724.46496582031
463,-919.2685,-1018.6415,-1440.4518,-20.776747,-46.72387,-149.45233,551.876647949219
464,-979.7365,-1447.3365,3046.6086,364.05832,70.598,282.75964,4354.9111328125
465,-197.68806,-217.78659,224.57977,-1201.9362,54.247887,-50.005398,2130.13671875
466,77.56419,850.6991,7.1875052,231.83182,16.121183,109.064575,924.55615234375
467,-1181.3893,-246.91861,-129.14067,628.92523,-52.441654,168.16832,1508.94006347656
468,-730.93304,-196.1748,-1311.524,275.657,214.90106,-94.25324,1151.81896972656
469,88.71661,-479.98883,1052.9141,301.66565,93.50551,103.91272,1460.50573730469
470,-1170.8582,-767.16534,-904.46533,889.0575,-462.67148,-94.950714,1779.57958984375
471,-683.6825,-893.8381,-252.06905,-4.3529105,229.3364,260.85977,826.527282714844
472,-1248.3492,-420.01053,-91.27393,1405.7812,43.75614,141.20444,2657.20532226563
473,-3263.4497,-1922.2471,-258.23364,980.9398,-28.517794,-250.65103,3142.7998046875
474,200.27951,826.1513,914.0875,536.7217,-76.66439,-133.71452,1178.96838378906
475,179.98293,4840.27,1120.7267,-249.06905,215.62077,283.02322,4334.169921875
476,1086.9048,-613.2465,906.79315,130.32353,-120.364914,-62.481007,1650.11047363281
477,280.8687,43.478527,566.7144,-290.80667,-156.2974,-64.44286,738.491455078125
478,226.66011,638.3879,468.57007,349.66724,860.4165,-241.82527,1700.47900390625
479,409.37155,-321.21735,361.44363,-348.98914,-204.6981,-169.40904,1038.37573242188
480,395.62534,475.46075,822.4042,152.93622,-57.424454,55.278824,493.629638671875
481,2429.0964,2646.0332,823.26025,1617.8853,-144.76701,-25.89235,3300.25439453125
482,1796.7892,-1173.1844,-169.16751,-1750.3972,-245.6086,19.107708,4027.48388671875
483,2982.4087,-1142.9047,1312.8794,-859.70605,-37.60333,100.19556,3894.84936523438
484,-582.7946,-76.16476,-254.63431,792.1086,-49.814743,41.80372,1446.755859375
485,-3199.3293,-1717.5245,203.35997,343.86804,-76.20553,284.9903,3057.40649414063
486,4.8482122,-629.6678,148.34688,-99.17665,-47.512054,65.786415,750.678649902344
487,-2553.3667,-2111.3245,-59.8814,534.04816,-106.14752,-100.81973,2496.10961914063
488,432.234,-264.35336,385.7381,-174.94688,34.557186,-107.306816,764.822509765625
489,268.4627,-585.315,-264.40292,-128.30087,-337.1409,-69.36024,981.193786621094
490,-450.31088,-165.10695,-212.98619,-939.8663,200.08711,-122.06954,1698.47924804688
491,-3058.2402,-1947.4194,-119.66106,-8.833064,-118.296196,89.62576,2582.87622070313
492,-4409.879,-2530.5273,-1280.7069,-265.79474,501.95285,-151.74983,2912.00268554688
493,-338.90955,-95.01148,-960.76685,783.2567,63.674202,-117.461914,1578.57238769531
494,322.2215,-1444.4,243.6562,643.92096,-272.5594,73.14169,2114.50854492188
495,-346.60495,-924.3397,887.488,-396.76443,93.757614,7.1118994,1751.72204589844
496,152.9675,-198.94832,-613.74475,-680.5513,26.498838,74.73355,1360.21557617188
497,-1849.3821,-994.76996,-575.2634,286.23798,282.6952,60.102886,1327.11950683594
498,1274.3934,-1595.4042,526.8706,569.9335,317.35324,-49.822216,2816.61987304688
499,1555.9294,1755.1895,-473.85147,1044.4655,21.722715,-143.98177,2810.78295898438
500,-742.68353,-1730.3823,3.6699696,-519.7798,161.98004,-87.35019,1783.78283691406
501,973.0183,1494.741,1560.492,1786.0114,84.34318,39.568398,3147.43872070313
502,-3448.0505,-2093.8623,288.4463,2529.391,223.7773,-3.679973,5484.4365234375
503,-2243.9487,383.73828,-459.72076,1560.3994,-244.56146,54.71659,3590.64990234375
504,-537.98083,-175.43417,-1269.0917,429.6291,213.55171,-22.08899,1273.98791503906
505,-1533.0011,1568.1283,681.1908,32.86111,-500.4888,-27.693531,2900.02783203125
506,-112.91913,423.77518,1231.4865,-274.8866,12.8535385,191.43369,1308.07348632813
507,-161.31624,-762.4726,1322.9546,-968.53436,173.03755,-62.86515,2524.39819335938
508,-2428.425,-1415.8477,998.9591,-1422.5088,50.148087,-29.755161,3922.06298828125
509,-1907.0498,1654.2205,597.9075,1298.5847,18.49568,63.676983,3887.001953125
510,-2240.3928,569.87915,-900.2911,226.988,-19.870668,1.797299,2466.41748046875
511,-162.59819,520.89453,540.1094,-344.92188,101.97062,-71.89616,940.361206054688
512,-1790.7742,205.88348,413.7998,820.4665,-111.11419,239.7386,2583.40234375
513,-732.421,2756.1877,147.5988,-342.55173,173.28342,-76.36273,3214.71313476563
514,-1205.0475,449.52582,85.29348,1232.518,56.052734,258.55643,2652.34057617188
515,889.2627,3156.5757,-320.3818,-661.2406,-19.840008,41.14061,3265.66479492188
516,575.642,-218.23686,-337.98615,-126.96598,224.63245,179.51682,1017.87481689453
517,-2627.4294,-2641.2534,-1728.8868,955.90393,-129.59528,-146.66678,1917.33312988281
518,381.81345,-1140.2834,-543.3521,-25.148012,-113.458916,47.350685,1346.01672363281
519,-1865.0264,-1043.5771,720.0192,1350.2256,-244.08069,21.790348,3298.974609375
520,500.40643,-295.9702,1276.4788,-246.65826,-175.48158,88.230354,1467.24438476563
521,-285.56842,-536.9996,-633.34644,10.651392,165.34825,139.58255,487.375946044922
522,-402.75375,1861.038,577.2413,385.42822,138.03534,201.51053,2119.26489257813
523,2182.7126,-379.91525,-1116.9036,-905.8378,-252.78906,-67.27612,3415.51635742188
524,-744.17487,-403.45123,-1052.6417,-463.86514,-236.03717,16.059668,1062.90795898438
525,-1517.5813,-449.1468,-990.1961,-289.00436,209.17262,-9.511794,1112.794921875
526,-3709.3916,-1530.7698,540.1923,-420.91373,-132.005,1.5399479,3759.11010742188
527,-4007.571,-2292.9114,-337.3397,361.45636,287.72815,31.037613,3280.34497070313
528,-1274.9005,530.7046,-81.90983,123.18431,11.646733,-221.22156,1649.8828125
529,-770.91797,763.1817,51.12486,418.3705,183.45161,-211.29088,1590.00537109375
530,-4.5865026,322.7446,1698.4161,169.77899,-154.47343,115.7159,1627.3134765625
531,-20.52848,-337.12717,281.43683,1359.4504,-56.526146,-146.81555,2430.14111328125
532,-2148.3677,-88.37871,38.84215,1055.1276,-32.774246,144.39508,2815.57592773438
533,-2345.2935,-1585.8706,-1205.7584,21.42612,-51.261917,-28.765705,1010.75085449219
534,-1913.869,-833.09045,-709.97766,196.11623,204.34262,-96.490524,1258.92041015625
535,-673.28705,534.5335,-369.91772,-481.10522,-41.45485,-5.036187,1372.61279296875
536,1476.9803,822.02783,927.2935,-729.3036,66.78136,38.502354,1408.75036621094
537,-2710.217,5125.3843,-775.25287,870.1072,-43.394108,53.72606,7229.4326171875
538,-1674.3126,3048.8428,612.78156,1470.3676,52.539856,142.91252,4826.19873046875
539,1373.7036,1021.98096,1422.8214,522.72015,181.28278,62.55717,1036.06787109375
540,1446.78,85.28156,1237.0848,1749.171,330.38916,36.075687,3335.01489257813
541,346.4587,4270.3984,276.22232,-3037.6838,-69.82315,87.594154,6587.7197265625
542,-2077.8818,-449.48007,-510.09485,1719.1886,-2.4687326,-119.78229,3386.2294921875
543,-2512.929,-1269.1562,-1145.5103,2449.4473,226.24806,80.86596,4459.6640625
544,5186.1323,-951.1204,-1146.3759,1645.7412,-10.270791,-12.017061,6857.73046875
545,-2163.045,-772.9307,-705.98553,-1688.3235,-433.85248,-117.25859,3344.7275390625
546,4692.0767,-1255.8848,-642.4275,520.44684,-272.69815,-57.51508,5757.72216796875
547,4805.1772,-2595.0435,47.66046,-3045.8643,54.141495,-66.53015,8369.2587890625
548,4332.77,-1278.6414,-88.19668,-2744.4507,-389.07645,56.75439,7020.3173828125
549,-958.47095,-720.75476,337.7754,993.3148,-27.694735,22.171207,2095.81103515625
550,3585.6455,1075.6233,177.95941,-999.9995,-50.61032,-96.90939,3520.65673828125
551,4117.9087,-215.16101,248.57216,-339.2339,-39.947617,70.53051,4164.865234375
552,-1799.1398,-665.63495,-205.66922,-647.63104,-216.2866,-94.23293,1855.54089355469
553,2162.1846,2769.2192,-406.90695,-400.1659,-28.102093,77.53217,3004.837890625
554,-3418.781,-4431.6323,-1001.66284,-86.27092,27.985231,-155.00899,3068.10522460938
555,868.90027,3018.399,736.8286,-130.9334,-195.09846,206.04964,2283.56420898438
556,2322.8752,212.6384,869.8288,-2160.3994,151.87851,-1.0129434,4191.5810546875
557,1685.909,-500.7093,1048.4357,-882.8396,384.33383,83.725746,2568.29638671875
558,565.94244,2237.675,236.47345,131.18788,17.675575,-101.51165,1880.82580566406
559,2034.1271,1386.6034,370.6586,-440.3589,32.325905,-92.38845,1649.17211914063
560,-241.05357,-4037.719,-691.42,581.4269,89.83143,-265.0669,3762.54833984375
561,-1619.3657,-3773.6963,-423.11963,275.24023,107.613914,296.58386,3029.0517578125
562,1181.8413,-1520.1105,-111.95781,-23.913073,-36.22363,-176.98422,2361.84228515625
563,2046.2075,-1501.9468,-778.1424,-97.69521,-27.482304,-191.88316,3269.01782226563
564,2764.1665,-133.50476,1044.1638,1674.1808,58.089615,32.74606,3846.15258789063
565,-1799.2496,3727.0935,-322.53232,379.88733,196.60103,41.95528,5011.43701171875
566,2292.8118,-199.86574,50.71023,-508.3653,44.335598,50.79546,2537.82739257813
567,1741.3097,-1174.7859,27.798313,493.93845,19.253899,210.9312,2703.60595703125
568,1135.3553,-909.0833,-700.19965,-1161.7585,25.43069,-192.08746,2820.99169921875
569,649.1303,1262.4171,-470.33002,3044.1829,141.01566,-111.060715,5496.69580078125
570,-785.9239,2458.7825,-277.33984,1022.8723,20.079824,-102.63357,3508.30224609375
571,-123.6891,4759.421,-264.8244,-3026.4226,-8.7806425,-325.4202,7235.294921875
572,1362.6615,1872.4323,-392.04318,-1837.8837,-28.030869,-114.43432,3795.84545898438
573,-747.3952,-229.3491,-644.9779,-321.96262,71.738556,81.07686,756.26953125
574,-670.84454,220.63112,22.983742,582.2289,-15.588654,-111.32268,1308.61535644531
575,-202.88171,-325.5893,-53.06956,292.52264,26.955164,125.216835,601.506408691406
576,448.28604,-58.52405,677.8205,-406.56287,-19.890488,-165.38638,1002.49578857422
577,173.40475,-1370.1853,372.07907,-146.02576,29.517448,263.42978,1733.0849609375
578,-683.4875,-1615.6378,237.5451,-716.1379,-87.818344,-110.424164,2043.04260253906
579,-959.57916,-3128.482,-3152.6807,-123.079285,-65.77198,-147.2736,2209.23095703125
