Element Label,S11,S22,S33,S12,S13,S23,Mises
1,2107.1677,1613.641,426.54703,-24.93957,-423.15344,14.159939,1666.8134765625
2,-327.82416,1226.9319,-1241.0304,591.99725,1188.9689,0.635864,3156.47729492188
3,3108.2344,1876.1763,1059.6417,-42.384132,-708.5539,-194.78543,2194.55517578125
4,-944.6287,-590.5178,-1364.8741,1821.744,265.25363,194.78566,3275.96875
5,3179.9307,7205.0127,1108.8323,2604.9927,-65.560646,-957.72705,7207.61083984375
6,869.2377,3402.3005,-2192.8728,-846.1016,-26.278482,-915.3542,5311.572265625
7,2819.3503,191.65079,1920.1389,566.34705,-561.3263,692.0055,2948.66943359375
8,-4107.9536,1712.7593,-1319.4496,-485.17175,-114.84049,42.25994,5116.29443359375
9,11299.811,2566.2468,1141.6168,1844.3699,915.63336,-271.8101,10182.7646484375
10,-8546.5625,-5533.55,482.25528,3000.6401,-1372.6887,1379.8363,10088.1142578125
11,-1865.1146,-308.98663,-2696.4531,160.25266,-187.22295,555.589,2348.31103515625
12,6652.3096,2609.052,2557.6057,-743.6088,152.41092,-575.0813,4390.8193359375
13,-5745.2734,-264.75397,-2908.2253,1050.1235,-3.6452363,-34.241344,5084.1201171875
14,11858.51,1503.1193,1910.478,-1508.211,-548.1195,34.26056,10531.4111328125
15,-8436.506,63.739902,-2278.3064,-2387.1243,964.28577,-503.78113,8858.7470703125
16,4422.1924,1629.359,6750.635,1902.6377,203.60008,1510.0281,6127.76611328125
17,-50.176205,268.7079,-1786.0107,738.50415,860.412,-255.59457,2778.74365234375
18,2517.9766,5999.8228,2088.5793,-1180.6411,52.234325,1078.6156,4634.9638671875
19,514.9887,9259.216,3261.0154,-2851.439,-2789.3352,6830.806,15738.5927734375
20,-8497.851,6338.859,-16979.512,-3526.9226,-5853.6343,7849.1274,27255.19140625
21,1357.5814,-505.71906,-410.87854,-61.24085,-777.068,168.48422,2282.99877929688
22,-3465.5295,-1794.1653,2168.709,934.52356,-529.41095,1042.9506,5643.16455078125
23,78.44956,-853.5364,3424.5293,1245.4576,-411.65234,-279.04266,4536.38720703125
24,1999.5773,-703.23553,-5556.1987,1637.8171,-460.80685,-40.404545,7256.8837890625
25,1401.7018,1381.0067,5258.642,1023.17017,537.74115,-618.67737,4484.712890625
26,3035.887,-1984.4182,-7769.2095,2831.2046,-170.61304,-524.938,10614.6064453125
27,537.0098,6862.2793,13899.047,2930.573,735.89105,-2278.9182,13304.298828125
28,-1425.4437,1430.8495,-1906.2041,428.3463,-493.32535,74.919426,3325.6767578125
29,1409.9132,-4890.63,-3659.9023,670.05347,-139.92247,2255.425,7079.8134765625
30,-1330.303,384.2456,-6840.7236,631.061,-1107.7583,1707.0065,7507.99658203125
31,672.7568,2629.117,5712.816,526.04504,82.49593,-547.7781,4595.66552734375
32,-1970.0542,1531.7089,743.1757,835.554,907.29803,840.379,4099.4638671875
33,241.40947,2368.271,-979.0948,1666.8134,-1314.4182,-400.99585,4754.9228515625
34,1608.427,860.5269,6219.9263,909.1635,-242.0977,736.3242,5436.5712890625
35,1155.618,5760.739,1467.4546,-140.71361,675.0825,-887.7381,4864.0703125
36,1271.8129,-1636.724,-3772.8853,2882.1956,-1681.8052,-500.70337,7307.1572265625
37,-569.7308,3675.1287,2322.2283,209.02682,709.576,232.8246,3988.79565429688
38,19.678007,-639.8818,-3966.3674,-636.87823,253.35062,-438.06757,3959.75390625
39,2196.6526,1296.4744,3362.3213,1080.3868,-1196.6145,1852.9061,4616.8779296875
40,1534.4104,83.080376,3455.279,-1318.0549,-2478.6602,-1077.5881,5975.83251953125
41,1493.9913,608.20807,-4039.4995,-1091.4349,1416.1072,645.58014,6110.87158203125
42,2781.3733,-1105.6619,4684.774,-178.77135,854.2929,1806.3595,6180.99462890625
43,11510.311,9933.78,-1412.2604,3470.8508,-7541.397,2745.047,19454.298828125
44,-6746.68,10092.126,-23455.154,-2354.3955,2318.0056,-3684.057,30290.841796875
45,10.405252,-16541.332,-12847.056,-1028.5947,-413.07034,-4096.76,16748.05078125
46,2196.869,-2190.5916,-3938.6304,115.23321,-928.9012,-5587.0737,11236.0791015625
47,-4879.703,-4639.431,-5844.7993,2920.2415,-1397.749,-1036.609,5990.7626953125
48,-5611.063,-3846.8357,-19452.398,-1956.641,3678.791,-6193.3706,19653.84765625
49,-15203.629,-10483.645,-39238.23,-5669.2935,2623.0054,1169.2866,28888.546875
50,-4889.285,-4022.3057,-22991.75,-2971.208,-5002.5615,4042.0566,22242.328125
51,-1407.3488,5638.3745,438.4384,454.58047,1216.9495,-448.785,6761.0126953125
52,-9502.035,-3379.3582,7790.9507,-2169.2153,1145.1492,-1471.6885,15975.0849609375
53,-2556.84,7244.9175,559.84314,1582.8933,-2292.751,-1095.4447,10105.7392578125
54,-822.5359,2224.8044,-1292.1962,271.77573,560.5242,1140.5865,4000.63012695313
55,-428.2503,1473.3224,8425.745,1147.0453,243.51845,-1179.9382,8571.7265625
56,1234.0907,5699.522,-985.3751,2333.8655,-464.5869,314.80264,7215.44091796875
57,1487.3762,-2056.6353,876.86237,1467.4222,330.64938,-313.8479,4225.2275390625
58,1485.4524,-1453.9073,-647.4933,317.00546,97.8401,77.692604,2695.94165039063
59,116.80814,-315.3739,-1055.3632,-312.7111,-688.1611,8.928459,1663.87377929688
60,2637.0383,1921.415,3861.4785,277.04648,667.4295,-150.532,2126.5556640625
61,1446.6653,-1503.9889,-1512.0198,445.09445,-175.41444,-148.32045,3079.40844726563
62,5567.1113,238.49814,2444.291,711.0439,531.0812,-132.41562,4890.9423828125
63,1835.359,-198.58144,546.6434,-691.21674,204.60028,-683.7884,2477.53002929688
64,-786.73785,-2206.6677,-4853.1885,674.2623,29.50048,792.493,4003.59619140625
65,1566.3634,-709.7736,-954.4954,119.2741,-68.59076,140.20782,2431.76416015625
66,-499.8935,874.2177,2116.3306,146.33508,-597.7046,-34.959076,2505.49169921875
67,-1544.2007,-801.92474,734.2496,1119.4568,-634.4726,-819.15436,3321.34448242188
68,961.5242,3708.6018,-3308.839,1096.015,289.45773,-842.5691,6595.326171875
69,1715.3712,336.865,-457.14993,1213.2308,370.0092,-953.2804,3343.35620117188
70,8892.125,2461.255,2417.6138,-1000.8863,1480.6318,-254.42859,7170.423828125
71,2044.7645,3940.6838,2118.9668,-1591.3441,-806.63367,1047.4999,4037.35107421875
72,-2532.9226,-366.07,-6109.722,-3819.6978,2398.8171,-336.35135,9306.544921875
73,2757.3057,152.49367,1452.075,-1119.9093,-1895.6146,557.8888,4534.88330078125
74,7349.5522,702.7525,-849.384,-3251.169,725.16785,-935.16595,9634.1748046875
75,-3383.78,3668.6929,6455.5405,-1588.403,-2189.5771,-59.293243,9955.923828125
76,-3434.469,645.66614,3504.9639,527.9575,4613.915,83.11771,10060.3671875
77,-9.46146,8679.462,20696.81,-5116.3203,-5825.858,4327.0884,23682.37890625
78,1517.5231,-1572.078,-18621.104,997.63965,1752.8214,-103.59041,19108.23828125
79,4259.705,8196.618,14607.86,-5729.371,197.19974,1639.2534,13729.494140625
80,1182.8341,2067.6348,297.8346,26.758486,-2338.5417,-612.4374,4459.0205078125
81,4421.2725,7492.291,5524.9424,-1322.05,-524.61273,1389.9509,4373.1962890625
82,1246.3013,-2116.3188,1159.3241,1895.0437,-147.6489,-653.9842,4810.859375
83,4865.3086,8368.705,1911.8184,3737.0024,2691.756,-112.956726,9747.544921875
84,3195.7988,9535.821,5232.7354,2589.2825,-1691.2349,1325.8358,8086.919921875
85,3519.7544,3737.1304,2946.4978,443.56747,258.69128,283.56656,1238.03771972656
86,187.86136,-223.02467,545.81555,-134.0679,158.42427,585.4006,1265.43896484375
87,2346.0623,-1011.1832,743.98596,1087.196,-488.77,-898.4486,3891.462890625
88,-4131.65,966.43774,-17027.79,-749.88416,-514.55023,-1002.32733,16233.970703125
89,87.92535,-1334.2805,3551.4976,32.61847,329.8221,776.6604,4591.73828125
90,-648.9573,-1010.5507,-2468.9902,-304.47998,-326.1439,-781.8249,2283.88745117188
91,3188.3875,2640.0408,6356.591,1691.6835,-979.0671,-7.32515,4851.466796875
92,-1422.114,2759.5742,-4501.0264,1042.2783,-390.3662,130.9702,6603.705078125
93,4260.763,6168.2695,11353.777,2220.662,267.0977,-1783.8013,8060.6044921875
94,1461.1388,1442.7676,-1382.8771,1502.211,-2686.3398,1450.2102,6539.4970703125
95,235.24063,1183.2495,2084.711,-249.53365,-949.6136,1365.6938,3324.666015625
96,564.17993,2480.3374,-1414.5487,871.94763,1274.5309,-1681.6022,5197.70166015625
97,6940.2373,78.08338,11922.906,-41.843956,143.47023,132.21022,10306.6689453125
98,2145.2678,2403.1272,175.67827,-997.5598,-201.87045,-1183.0582,3429.3095703125
99,-4513.2754,-3801.9868,-14477.877,-2652.1936,-5923.436,-412.29504,15289.23046875
100,-2462.3962,676.3157,14273.015,-1405.9346,-761.4479,-3514.392,16796.4296875
101,1090.5382,4509.1606,3500.0488,517.2946,-697.1603,377.88556,3456.123046875
102,1846.431,1724.8987,5333.502,-293.87305,594.0219,151.28735,3739.59350585938
103,-625.7087,3483.4465,1824.2717,-590.8281,-81.67935,-1651.5841,4697.94091796875
104,2491.5066,329.32825,-1096.6632,1936.6392,1143.8075,1500.6481,5632.41943359375
105,169.97893,4123.761,1498.3887,417.86548,181.44029,-734.0784,3792.62915039063
106,200.61713,2180.2966,179.56271,-1616.7273,1855.6282,671.96747,4846.37646484375
107,125.10949,1274.3367,-3485.2068,2280.4941,-2584.699,273.75894,7373.8037109375
108,3519.0874,2117.421,3331.468,-436.6284,-1201.3108,127.5422,2585.9365234375
109,800.6562,4203.5283,7060.04,2129.0571,-2569.0764,916.2195,8085.6064453125
110,2556.4858,-1980.6713,-5677.2544,196.93066,614.2775,-1214.537,7529.68505859375
111,2503.1206,2052.164,-672.65045,1010.8028,141.94768,-961.8223,3841.57104492188
112,-250.36772,449.5588,-2798.362,319.50378,-732.47437,634.1876,3447.89282226563
113,2157.3076,699.23596,-1002.512,-1211.5684,238.59145,1059.4487,3930.00708007813
114,677.1431,1598.7407,2820.124,-720.97144,367.0174,15.645454,2330.44677734375
115,-102.25185,1797.0797,2485.9604,-1639.3441,-17.07629,-126.89225,3674.5009765625
116,2174.6594,935.09357,-2317.637,2360.313,935.4515,1559.9011,6541.1826171875
117,5424.604,-1444.5931,103.93365,-485.50833,-900.5344,1084.5542,6753.923828125
118,2006.8549,-1086.4696,15334.783,-2166.551,-1707.7565,-2451.9048,16410.2578125
119,-11672.563,7305.4844,5742.2417,-1915.8533,872.61835,-3424.4375,19529.94921875
120,-6176.749,195.36743,8907.519,-1490.5721,3648.4048,927.77374,14872.8125
121,-5532.116,2968.899,7798.888,5576.05,3555.8635,383.68887,16380.0791015625
122,1326.0214,-688.195,83.44422,-243.13043,-86.12464,608.40314,2099.59497070313
123,-1454.9603,1322.4385,-4922.303,-1786.4851,-2149.017,-1332.6696,7623.91259765625
124,1381.0485,6133.178,7586.0024,847.08325,773.45624,1482.7799,6491.58740234375
125,2187.4,-410.54532,-2698.435,71.93701,279.79907,-562.88074,4373.60986328125
126,1396.4293,5803.422,1046.9263,552.2393,478.8448,73.81612,4764.779296875
127,2899.4302,-996.09216,-487.9744,3084.4236,1901.2122,-3350.042,9300.91796875
128,2029.4545,-10983.833,-1398.5525,7668.1245,-5591.5854,1686.8732,20376.990234375
129,2.2961667,7778.2144,-11762.833,1072.513,-2844.0378,366.88574,17846.236328125
130,1233.3606,2293.221,-1222.1558,4257.307,199.66609,335.92636,8036.634765625
131,656.3364,6372.528,2221.4329,2243.0188,-340.4132,-255.31987,6466.419921875
132,-5775.4067,1978.6332,-23821.684,87.43642,-4365.6587,-1587.8564,24299.96875
133,1352.3339,3326.45,1760.578,992.4891,-749.0554,1325.8074,3628.984375
134,-4107.3706,-1330.411,-12720.726,-1641.746,-37.322433,-426.9139,10698.4697265625
135,-1461.4694,-1445.9708,-9927.029,-1692.7817,250.79192,-1783.0193,9493.1474609375
136,-556.37244,1364.8412,4828.7817,-21.11708,200.43683,1391.3844,5317.3896484375
137,5465.053,-895.8556,21565.57,1226.5654,-4196.1626,1125.091,21522.916015625
138,-635.7727,3613.681,-5008.1914,746.4676,1596.0406,-826.4994,8192.634765625
139,2125.1753,9663.636,-14274.046,14706.467,1656.6613,4843.5737,34305.13671875
140,6137.6724,21506.457,46406.473,-6475.5044,-743.7512,4158.0493,37659.2265625
141,203.8449,64.80908,-1609.3254,-3276.968,1521.9496,-489.8025,6552.79248046875
142,1257.3903,483.84415,-3151.893,-627.7433,390.37692,-308.4959,4307.4638671875
143,1577.9601,3075.097,7989.186,1877.426,139.29582,1237.4943,6998.0947265625
144,318.02502,1768.5509,-3140.1235,2756.7336,1167.5449,1483.9906,7250.783203125
145,-571.37085,-160.48695,-3766.4175,1276.6315,-530.37854,-346.2563,4216.97607421875
146,-458.16464,1295.3082,2590.3171,1168.2136,-126.85015,158.87338,3352.70678710938
147,2143.1143,-627.03625,-4228.023,343.97855,2.7075164,-1166.8612,5920.79345703125
148,4225.776,1915.2538,4193.827,1758.4902,948.4615,836.85455,4397.9873046875
149,184.47385,1238.5192,2127.388,850.42914,860.65857,148.24411,2701.07861328125
150,4360.365,-3300.7217,10167.052,226.95663,-5574.0537,4477.3037,17041.09375
151,8666.257,2741.2615,24480.258,-3052.0447,6622.0933,4338.677,24389.74609375
152,-3325.2683,435.94608,-4853.8584,697.86066,-406.5566,911.171,5165.29443359375
153,2564.192,-43.05994,642.37915,-391.31378,1498.1167,-1062.4828,4007.43383789063
154,-3447.6301,1700.331,-1624.6362,3239.6138,-1811.052,863.8031,8000.224609375
155,1122.0736,6605.2495,8202.774,2235.197,-480.385,632.3578,7632.6318359375
156,2933.5,1336.4276,-914.70337,466.98444,2733.793,542.8581,5930.65185546875
157,-687.6112,1658.1494,-3776.2534,1146.6808,-3396.948,-4220.9395,10691.06640625
158,1136.5933,145.96878,-5225.194,-1025.0319,1375.4453,1539.6581,7147.7822265625
159,3688.7188,5180.901,582.44055,1117.7826,2637.63,-1604.2748,6989.376953125
160,-3003.6018,-86.63565,-77.29128,-242.74123,2669.5305,3542.3584,8230.2431640625
161,6379.7847,-2170.8083,7893.323,-29.487581,-345.75647,-761.51245,9510.3125
162,9962.691,3946.0,21186.826,256.32236,5047.2344,-1342.9854,17656.318359375
163,1047.0238,685.9036,697.77234,307.50888,-162.71974,1117.4736,2058.06274414063
164,2980.441,-822.7031,-1453.916,-613.46484,417.99594,-1267.8241,4872.1904296875
165,-363.415,4624.0767,-6307.5083,235.32793,1393.5991,-7.829834,9790.1025390625
166,-2580.6235,-3302.4136,-7420.812,852.30646,3303.7356,-607.4589,7515.6572265625
167,-1414.843,6235.3584,8903.843,-3003.3186,-743.853,5253.591,14056.3583984375
168,2771.176,-3946.4856,-4837.1396,-3967.51,1417.9739,-2233.5305,10960.140625
169,2876.0847,2924.1895,-558.8927,-1522.4951,424.56174,62.699192,4412.83935546875
170,635.6072,5240.6885,1845.7406,-2621.4705,574.71893,1083.8583,6498.4541015625
171,-1231.2427,-972.52014,-2655.8608,-502.3778,3051.7634,-665.559,5700.078125
172,3036.9126,-1509.982,11629.136,-1643.1212,-1792.9133,7356.5996,17710.740234375
173,-1465.7106,-1157.7511,3785.7925,-4048.6846,772.99976,-1253.7991,9041.01953125
174,784.766,1047.8473,1856.1516,488.56396,83.93484,-473.8154,1531.64611816406
175,696.43787,2184.026,2416.27,-97.7644,-984.79224,420.5821,2465.994140625
176,-1570.4885,-423.48755,-3742.582,1738.1453,127.65878,152.95549,4208.0302734375
177,-1425.7352,-10106.16,-17640.188,2553.607,4771.6763,-1603.0854,17119.841796875
178,-363.64816,-5950.5293,14438.086,-9148.199,1121.5492,-724.50665,24277.9140625
179,6708.9507,2505.915,7991.6904,1092.5885,3271.1084,274.98154,7785.29833984375
180,472.82883,1818.6572,277.08667,-410.48563,-2036.4607,555.4793,3998.21069335938
181,1935.0552,604.9613,-1931.7845,535.24634,810.2666,-198.31076,3811.21801757813
182,1396.1292,4350.6084,-2436.514,1035.8015,2070.7053,-4192.226,10175.8515625
183,1682.493,1222.4822,-4485.5103,122.70167,251.88501,-705.55176,6094.8701171875
184,-833.1771,-1320.944,-5498.6343,-2721.2048,2697.8289,-2363.4797,8974.216796875
185,-5014.8066,-2501.4998,2452.4092,-2333.9172,-645.6699,1717.416,8351.607421875
186,-263.3293,-581.22003,-1199.4689,646.5216,-440.70685,-172.57874,1614.25219726563
187,1710.7881,-828.3897,2549.9773,1186.8324,410.22775,-43.64763,3744.1689453125
188,-5957.388,-2941.6584,-1205.3029,-2174.8232,1153.4502,844.0883,6137.12451171875
189,2725.4521,-1432.2314,-4567.0522,2587.446,-1929.0646,-36.69257,8449.826171875
190,2916.9211,-3313.1643,6176.169,-3050.222,2651.399,-30.513306,10897.0703125
191,-552.5957,-3761.0476,-1665.7296,1323.6254,561.3077,-358.7483,3814.3212890625
192,-5219.627,-5098.204,-15598.225,2217.5725,-2420.6265,454.91772,11913.9521484375
193,2426.6265,-4903.1855,-1004.17706,363.2865,156.95973,940.2478,6593.2880859375
194,1321.5565,-2548.1726,1848.2195,2063.5254,390.16223,-282.80862,5546.28271484375
195,1201.3707,-4098.0586,607.4774,1170.256,792.867,566.47235,5678.595703125
196,-5102.81,-7939.5366,-4995.926,2344.098,2281.4438,-171.37238,6367.81689453125
197,-818.7894,-1679.4941,-1092.6483,1061.7378,593.2483,-204.8373,2267.96533203125
198,-6221.5845,-1301.5704,1822.8125,1004.43054,43.710793,-136.79163,7240.77490234375
199,2774.5073,-3717.9622,-8119.141,26.76965,680.7815,330.5995,9582.1435546875
200,4056.7148,-1399.9462,699.4593,982.34863,-273.07986,565.35706,5177.31005859375
201,-727.51825,-2596.818,1506.8646,299.62234,-5126.3306,2168.8677,10289.92578125
202,-3146.5173,-3044.159,-2.1090372,2232.1812,2501.7827,101.48039,6582.6640625
203,851.7822,-2960.7542,-439.75186,-164.66975,302.91873,620.5268,3576.48706054688
204,1187.6661,-1143.0778,-1727.5729,1152.7792,-1062.3191,-1180.9988,4323.52294921875
205,-888.14044,-3455.315,-2895.4128,-611.54517,-352.00238,-357.246,2709.80859375
206,-1522.4624,-3630.7317,-2590.5325,602.7728,-332.01523,-1353.1763,3201.21215820313
207,823.96375,-3673.5881,5922.4854,306.1429,508.88745,895.44604,8521.578125
208,3250.8772,-10.067815,-2089.5398,313.44864,-564.71045,357.8734,4834.736328125
209,2511.481,-4233.6455,2668.834,-2243.8354,161.4515,860.27795,7999.10546875
210,2513.4087,-5512.324,-5417.1846,-772.20874,1387.3369,-752.6746,8539.34765625
211,5136.892,-6486.753,7157.691,-5998.8286,-3057.6348,1112.1283,17389.580078125
212,352.0459,682.46857,1796.6917,-4602.255,1109.5804,750.89844,8405.1259765625
213,-9086.117,-598.7591,-1935.8662,-1643.1683,-6683.1206,-2706.5825,15051.3681640625
214,6002.825,12335.495,10622.031,-1339.8578,-2814.0518,-9733.093,18588.421875
215,-1840.4379,222.8788,2695.772,-612.5351,-172.56062,-340.30402,4127.61279296875
216,-2094.1663,1296.8112,-295.79822,209.39853,38.618015,-711.1764,3207.4853515625
217,-1845.8026,1966.5305,-1833.9948,-374.52618,175.83893,461.99918,3955.11108398438
218,-1255.5996,522.4417,-178.34169,-336.74658,719.15546,387.2863,2179.04272460938
219,-5669.7554,1835.6641,-15388.065,-810.5597,-1183.6606,234.31348,15167.587890625
220,-1802.2384,2803.3604,-288.96405,475.23242,-304.88293,-254.72148,4205.1220703125
221,1663.7614,1584.457,7606.489,-200.63704,486.61676,358.46628,6083.603515625
222,147.19012,1737.7988,331.45697,188.81848,456.7845,822.4711,2243.47583007813
223,-2330.9268,491.24146,-4757.9253,1464.957,439.04745,1129.3837,5616.71240234375
224,-2609.3425,2792.4788,-6682.324,-407.08917,1259.9817,1937.1761,9180.8583984375
225,711.013,314.0364,1588.4155,-87.29887,185.7336,-234.80183,1251.99194335938
226,5256.093,2376.9292,15908.376,2808.458,784.55585,270.6433,13347.6220703125
227,-2358.123,262.1419,1493.4078,214.70311,-821.0423,-493.1712,3807.66650390625
228,263.3254,1163.3556,1309.4839,37.14069,182.53267,-206.14336,1092.9345703125
229,-2655.2317,-1490.3005,-1165.9481,82.434235,1.6332864,476.85684,1594.58117675781
230,-664.71204,1910.1482,3428.1755,1397.469,208.13524,45.718613,4340.27734375
231,1328.2803,186.92543,-870.4371,1816.5746,478.54327,-2147.2893,5295.93505859375
232,488.66675,-1348.5226,-3935.2874,437.2852,-602.1586,86.45185,4062.37060546875
233,2327.6482,-1393.1696,-754.4859,382.57285,-194.88115,-322.75583,3569.52563476563
234,719.2145,-372.36655,2960.672,252.33444,267.8524,-49.411095,3012.638671875
235,1851.14,-1395.3958,1476.9825,1474.3666,466.78983,256.78152,4103.4169921875
236,1088.1732,1154.9758,688.5919,-54.305244,567.0546,509.80966,1394.28784179688
237,1370.0437,350.7663,428.26367,-109.28412,-561.17554,2117.2393,3923.59912109375
238,1112.2881,-1535.575,-382.4485,-460.90338,822.8096,-785.7639,3131.80078125
239,-363.64908,1940.465,-3039.5723,1777.8801,704.1435,310.62222,5467.59765625
240,2164.2163,1967.307,2839.4207,1599.7852,-63.99736,-591.0317,3060.36083984375
241,826.83813,-1140.8104,101.161835,1448.3309,159.78685,-117.83887,3062.94165039063
242,1528.3918,-8.915618,2570.3577,589.68646,-321.84647,746.26514,2841.744140625
243,454.78174,539.0806,3238.2349,-1190.9747,1981.7406,2369.2515,6355.8857421875
244,461.884,-289.474,1084.3143,1317.0701,181.9554,414.00342,2690.1982421875
245,3892.1003,984.5482,-396.59866,-1451.9934,225.90248,-256.54626,4588.30908203125
246,1700.8013,-1866.2548,-993.11536,550.1525,212.09256,-808.59454,3657.34252929688
247,-719.672,699.95374,-1363.5503,-848.7602,-152.56311,263.97562,2405.00317382813
248,1778.7549,602.27435,2174.4807,-3518.7197,620.7452,139.54314,6353.33203125
249,-4843.44,2011.7332,-12415.901,-265.46503,-1704.7566,1308.992,13050.5361328125
250,-635.5506,-851.9825,-8611.464,-6068.2734,4776.361,1051.009,15625.6953125
251,2035.8882,6936.097,22295.041,725.5048,-1746.9004,-1619.8243,18808.955078125
252,2450.0493,6259.219,4665.51,-433.4618,5115.2344,-383.85144,9512.1787109375
253,6630.2534,3017.3489,-978.2648,444.49237,1943.7015,-4193.2754,10398.6103515625
254,-2524.0754,814.7651,-6652.852,-1191.4728,-93.71668,-34.08047,6802.10498046875
255,-3230.5186,-11262.08,-13884.583,6172.943,-4682.4116,-15357.738,31306.82421875
256,-3758.6487,-9737.407,3388.1646,-812.4744,1519.6729,-5016.229,14626.9541015625
257,362.3934,21608.604,-3792.3713,-820.6872,-922.9837,5222.536,25364.09765625
258,4771.86,12884.91,-13137.816,4913.504,2156.5815,-6567.495,27343.3046875
259,15944.656,5340.257,3541.8142,-3691.299,-6730.037,-2936.06,18367.84375
260,1284.2811,2670.2703,5882.3716,6722.4014,7822.0864,-1951.1481,18634.337890625
261,1497.4757,-665.0226,15273.433,9292.662,3231.506,2191.2422,23000.806640625
262,-866.92487,-2410.708,-2475.1724,3678.9932,-7220.771,-2066.8765,14571.4267578125
263,2336.5464,3186.4343,2359.8438,1223.7677,5693.7603,8319.157,17609.0234375
264,-1763.0708,-1371.6956,5272.621,-4014.1807,1562.6942,-4112.3604,12381.5205078125
265,-1304.3134,-566.05676,-2065.0837,-656.5868,-3000.9802,880.6856,5685.3515625
266,-623.7047,-7887.2124,19117.232,-158.70741,-467.18945,-5203.8345,25842.24609375
267,-2994.0093,-4006.9912,-4200.436,-1290.9279,700.4805,-111.483154,2787.16674804688
268,-4687.095,276.08044,917.7081,812.4373,1331.8026,1256.4897,6345.6181640625
269,-3877.1685,5533.7275,4575.0977,-1524.1001,-701.1699,-904.34125,9558.212890625
270,-2746.3364,3487.7551,849.1364,3197.8347,-979.09985,-879.2271,8077.76513671875
271,117.74588,4958.3745,4402.477,3046.34,531.5692,298.98203,7071.509765625
272,-3251.5332,202.37071,1631.2622,-11.355276,-64.72029,-693.61896,4512.50634765625
273,-4270.0176,2305.149,-5769.941,3525.2766,-396.24612,-831.8581,9755.7451171875
274,-1903.9142,-2082.4636,1320.6848,3139.1672,-649.6173,-717.3063,6586.22607421875
275,459.52377,-6059.257,-6657.5586,1751.6838,325.13068,-388.34354,7531.7607421875
276,856.7083,-1596.8005,788.6371,-1128.2448,550.53,517.43414,3374.69970703125
277,-1658.3174,-8496.712,-11068.051,-2329.9336,1040.3785,2373.2007,10362.8388671875
278,-4992.176,2140.925,-2426.915,309.7308,-788.1358,-295.36584,6447.978515625
279,509.93777,-545.83826,-8.610075,756.02423,41.653282,-1.4032532,1598.75378417969
280,372.8988,-1308.3519,-550.20105,599.71924,-314.3892,63.038998,1874.61682128906
281,894.97906,1313.2195,-263.75067,-1882.548,-56.755306,-228.59923,3577.79321289063
282,502.63788,1383.2662,936.22876,1171.2292,-110.82842,171.54509,2195.9375
283,63.0427,127.82515,1481.5709,842.78876,109.70169,78.81997,2027.34887695313
284,641.0806,-1450.0764,4723.4507,1701.4869,-10.286811,657.8423,6289.61962890625
285,-6711.4297,-5862.887,-16313.984,-928.95044,-936.0586,1068.9735,10474.8671875
286,-37.28215,-5741.763,-4199.194,-851.6321,-592.6052,2705.6829,7163.28125
287,-3506.4277,-4200.542,4254.375,-885.3144,-503.44162,-1529.0565,8730.6630859375
288,-7.987444,-1035.197,-246.75943,1188.7743,249.66142,745.1732,2638.04809570313
289,4222.5146,-6008.994,-6027.457,1250.0161,-4701.7593,-436.40347,13283.5087890625
290,-3146.2285,-2779.1467,-2850.5928,647.52686,5523.136,-1878.6659,10172.2548828125
291,1376.5314,743.3455,6208.1865,115.700966,-213.07921,-315.01706,5222.9521484375
292,1722.865,-464.64087,-385.58612,718.298,155.4076,-71.246376,2500.80737304688
293,162.48859,2677.276,1115.7013,-126.93232,-114.022995,33.92538,2219.55712890625
294,2197.8699,2047.7775,1753.5258,-2013.6245,-883.04834,1014.8365,4212.63916015625
295,1592.974,5144.588,572.4411,-1539.7491,450.81262,671.2812,5133.61669921875
296,-1794.2172,6379.1616,-4603.576,-5601.4272,8434.496,2549.1997,20608.34765625
297,-2453.3093,885.20197,-183.57216,-796.1763,123.01882,-256.9173,3296.19970703125
298,-1791.8093,1607.8268,-1413.7754,580.73694,-374.91846,348.72354,3494.78759765625
299,-858.7213,2864.2192,-420.9015,1132.0089,-229.38167,-635.3888,4199.4443359375
300,1697.7838,-748.6503,1894.3822,-4.4226513,-29.915482,51.311623,2552.50830078125
301,-1725.3207,-5599.964,3050.2896,-1022.2194,-267.8834,3362.6096,9674.4306640625
302,-1200.6658,707.1827,7201.6724,-6636.64,-3180.3083,420.76746,14873.3984375
303,-1666.3757,4322.5825,165.7705,876.3357,1959.9597,640.56757,6581.10400390625
304,-5944.2046,2239.688,-6639.223,255.26416,-377.4512,1219.3529,8844.7978515625
305,-4452.1714,855.065,713.11206,1301.5948,868.28265,1392.6432,6371.505859375
306,-481.65887,2850.5356,6241.424,2613.6062,-2770.6694,-2672.9272,9942.685546875
307,2668.7192,-1688.2279,9382.64,1117.5901,-1320.5455,-811.6652,10211.1142578125
308,5135.508,-13412.456,-22678.438,8081.916,1510.7212,-179.22263,28366.279296875
309,-12466.56,-3652.4487,-872.0352,-674.92804,619.112,-2410.123,11395.994140625
310,3223.017,1054.3405,5641.9976,2722.4062,3084.4097,-7586.233,15467.017578125
311,-2947.706,1521.193,8054.1675,-3638.5603,1635.6964,11611.66,23325.5625
312,-4546.311,-1849.4359,799.255,1656.4492,157.65372,143.97392,5458.947265625
313,1126.8097,71.97905,2770.0076,1402.6725,1598.2958,702.65326,4537.9892578125
314,2676.57,-4751.3647,446.46997,567.3812,-79.09282,-663.7993,6774.13818359375
315,3887.7139,-6071.9634,10669.435,-1540.9508,-539.8036,-1223.6409,15007.3408203125
316,496.65286,-2562.207,-3093.744,1051.7415,617.3211,469.35858,4048.17016601563
317,1979.3727,-1910.8999,765.86426,-386.1896,-1783.0134,-491.44025,4753.45361328125
318,1641.6993,228.81004,1168.1345,38.892994,418.6866,-254.3889,1508.64172363281
319,1581.4324,472.84543,10118.637,521.9335,750.01764,1904.3578,9846.9091796875
320,1656.4978,-3558.076,609.99866,-1494.4376,-1139.1603,-4250.26,9360.4013671875
321,-3253.4167,-4372.306,-8909.055,-1277.6073,1288.7598,-1381.9092,6520.63525390625
322,-6226.636,-20296.441,-10742.399,5518.944,2286.1377,-2062.6614,16572.111328125
323,-3076.611,-6412.16,3119.1108,3977.1821,353.06845,7561.5522,17015.8203125
324,1349.5105,-2134.1194,-1088.7216,2255.8066,-4426.5273,3472.8157,10946.0732421875
325,-1803.4277,2419.642,582.4151,-61.228653,-255.0045,-59.58682,3697.02124023438
326,2211.157,582.7081,-244.6598,-355.07944,585.5833,-300.13245,2522.08569335938
327,1816.9055,397.63104,-155.62234,-203.49629,335.1951,116.87708,1899.45471191406
328,1895.3044,-760.4524,180.68604,711.0202,423.92468,-46.122017,2738.88989257813
329,-9.624552,-123.35392,-6136.055,2000.4308,240.2749,-918.878,7180.57861328125
330,76.91691,3588.4102,-2606.6958,-233.49771,-239.55873,-1809.9121,6254.51220703125
331,3536.888,559.06085,-745.3111,-1151.9817,41.53537,232.5324,4312.95849609375
332,-6421.8477,1185.509,-15740.897,1644.8892,-4940.0425,1498.2833,17426.23046875
333,-1846.278,5512.072,8871.412,-3095.403,-5951.785,849.0297,15077.40234375
334,6492.5947,-13703.407,-1966.8,-9431.356,3784.6646,6408.6196,27232.841796875
335,-189.47797,-11387.12,1655.5135,479.06082,4447.848,-3630.6086,15780.787109375
336,-86.91327,2879.027,6408.7505,-562.1175,-1466.1343,2088.2383,7225.1982421875
337,-3359.9812,618.92194,6245.6763,2385.46,-66.56845,353.46063,9345.5712890625
338,-343.01642,-2486.792,-5514.9795,1299.4021,-257.80273,-1624.0065,5782.24560546875
339,-3567.3015,-1383.0914,-15077.214,-1516.3545,374.1644,-471.6983,13052.7548828125
340,-3553.516,-2753.861,-875.1169,124.330765,-396.88535,-604.4877,2699.3740234375
341,-1288.0183,-1630.3701,-4401.3594,297.726,177.85826,124.77109,3025.18872070313
342,-3265.4624,-374.585,370.66367,-642.7993,-354.10468,-512.6364,3670.302734375
343,675.38556,-3978.6562,-278.59158,-1333.9128,281.13132,-1517.5918,5533.05126953125
344,1258.0908,-593.41846,152.04794,716.8057,79.38827,66.00134,2043.76513671875
345,862.32153,3473.745,-6964.145,788.7277,776.3857,812.7371,9703.9970703125
346,179.87813,-695.1363,-929.83136,177.07407,458.29608,60.601505,1327.13330078125
347,826.03436,-209.4446,360.39493,331.09323,-286.63898,-240.80093,1247.47192382813
348,-3119.3389,-1964.9502,-1434.166,2071.4236,-100.68476,630.64874,4040.17700195313
349,-3254.1292,-3971.486,-1660.245,2577.3455,-234.80382,-5.332608,4928.6982421875
350,-289.45648,-1714.175,-757.2389,-2973.4316,1763.6471,15.675601,6118.67333984375
351,-2741.0264,-1035.6067,2186.346,2538.808,-72.48103,-106.692566,6178.24951171875
352,-1232.1224,2865.8223,11507.293,799.3489,-889.7154,350.7474,11469.1396484375
353,242.8424,-55.56937,821.26794,815.82184,3.871434,1312.6082,2786.0
354,-3847.7874,-174.50833,-2579.154,1968.9883,-518.0353,15.444272,4783.18994140625
355,-3686.6494,1327.874,782.69635,1629.3064,-2.356531,267.07956,5557.58837890625
356,-5088.229,-1546.0455,-5173.897,3485.8054,-16.08684,-92.04655,7023.99951171875
357,-3841.39,88.053375,792.83734,2081.367,59.98022,-178.10283,5639.935546875
358,2089.389,-491.01993,786.8338,867.49945,53.5255,33.51332,2695.11889648438
359,2115.7764,1869.8676,-258.23026,402.011,-103.03954,-48.88071,2374.1201171875
360,1482.9318,-1705.4484,327.41812,-122.31139,-2949.8381,789.4334,5986.30908203125
361,825.53174,-1007.69543,-27.730536,-658.191,-16.75669,-222.83005,1993.49011230469
362,-1467.7655,-1310.0403,819.8682,487.37488,14.225191,536.7327,2544.5595703125
363,-925.7484,1488.954,-652.0807,-360.5164,-34.21003,-52.05671,2376.21801757813
364,-222.0745,-1182.7794,-811.60645,79.811584,423.1043,58.227478,1127.15051269531
365,-1828.7039,-659.2563,-483.05,-1256.035,-208.69716,-161.72862,2558.65673828125
366,-121.81857,-2411.3755,-2171.0256,399.00778,-330.83365,-175.78683,2376.5986328125
367,-254.46707,-1853.3955,-533.3525,1267.3136,-302.4142,87.25652,2702.57055664063
368,58.11748,-2278.639,-99.29987,546.8351,255.96997,-186.28134,2512.9892578125
369,1145.8943,-1937.9847,1289.6841,682.64453,-344.00528,-19.322596,3424.69921875
370,-310.4562,35.758854,-8.828395,375.00388,-194.87631,143.95418,839.284545898438
371,-294.28424,2338.9106,588.40967,1322.6782,74.30716,46.062855,3264.95336914063
372,-1385.7645,-1665.1371,-325.0585,762.4961,-57.891834,-72.747536,1808.20642089844
373,-1839.1931,-2307.5571,-326.48395,-375.6053,82.94001,139.74786,1928.37133789063
374,706.833,-963.6764,32.24415,-17.200445,-63.14762,-518.1657,1713.79760742188
375,-1600.0791,-86.954445,-1376.4309,253.67038,142.14934,75.03413,1507.22021484375
376,-629.89777,729.10046,142.49483,271.33823,34.625492,-139.97072,1295.00268554688
377,2886.0637,1689.5515,-224.83849,83.08514,139.49683,166.01083,2747.52392578125
378,-4765.319,-4795.2935,248.49118,-585.5673,3415.0286,17.05692,7829.83251953125
379,-2525.439,-2035.6503,-1638.6368,1868.7423,-352.04367,78.63166,3385.10131835938
380,465.9171,-897.08386,-1435.47,464.5144,-156.2134,46.155914,1899.57165527344
381,1496.7108,-386.47714,821.503,390.92792,206.24489,77.02074,1826.09985351563
382,2228.099,-64.84516,1228.242,114.13924,-512.5888,63.858925,2191.86010742188
383,257.34802,1516.6357,803.95374,305.1208,-73.13267,2.9090085,1221.3173828125
384,-388.34308,-2764.0276,-223.3287,861.8107,191.46828,16.086088,2898.626953125
385,-1097.9515,498.29062,-1220.238,658.3759,159.93994,-80.12459,2038.26403808594
386,245.07253,962.8081,863.1569,-518.2246,14.566824,154.47493,1153.88293457031
387,-689.5516,-34.381187,-386.8561,-1123.2388,-81.10188,37.06974,2032.58618164063
388,437.51172,-1397.6809,427.0308,-799.91376,-315.12442,4.5123043,2359.314453125
389,1496.5973,-604.2093,135.72491,-575.50195,49.827873,87.8033,2104.90283203125
390,-249.1547,-1356.4651,-796.2718,-1218.4268,-1.4929905,104.9371,2325.16186523438
391,-95.640915,-2127.3765,10.50507,-356.77884,286.80713,-42.30894,2233.58349609375
392,-853.3358,-1227.7428,2650.375,284.60794,170.54196,301.21765,3785.55688476563
393,792.23334,-1754.4142,639.97363,1060.8389,337.85672,77.227135,3139.63623046875
394,-284.19766,945.7725,-690.0456,93.11783,-88.92929,-18.098097,1492.46130371094
395,-473.1313,-1282.2236,928.2339,391.28287,-5.102774,84.93027,2057.50170898438
396,-39.86905,-784.0296,-429.719,784.57715,-44.29346,-33.982372,1507.20971679688
397,1427.873,2645.2825,2068.5125,-1760.5575,56.72227,-337.1521,3280.53955078125
398,2808.5088,-2312.4631,847.3548,434.8643,-290.8918,445.60617,4630.802734375
399,3175.3352,-1303.174,1517.4852,439.28555,383.09653,98.44375,4053.28173828125
400,-1755.3423,-1516.476,-653.4006,-654.51874,-289.96933,-466.69772,1788.56567382813
401,-608.1871,-495.80695,-1715.8816,-222.71162,77.70393,-218.1992,1293.77233886719
402,-1098.7626,522.1931,2316.677,-31.814821,-124.690956,-14.169469,2967.61352539063
403,2429.7783,34.48369,538.3423,821.02484,550.3237,388.82675,2858.10986328125
404,585.83716,259.52682,-281.03506,-130.40688,-86.46677,39.852757,808.2626953125
405,294.2613,544.86676,395.8376,-131.70734,-209.13515,-91.77787,506.149963378906
406,-318.135,-1765.3281,-108.08895,-1780.3741,-265.91562,285.82877,3522.625
407,-2880.4878,-3533.1704,663.2782,-1012.20294,-577.79517,-353.6509,4443.83154296875
408,465.19678,-184.95914,489.84314,-1095.3395,28.254272,-200.64584,2040.0517578125
409,-6.3309164,1616.1091,-398.74252,-552.50977,36.742092,159.16225,2102.09692382813
410,1.5226717,486.4311,226.45674,109.90225,322.82846,-162.8609,777.894775390625
411,-134.03099,1487.7064,-548.7295,-1586.2461,675.6202,405.66318,3589.72778320313
412,906.3011,203.79245,-10.699166,-806.51904,292.26172,108.66303,1712.68786621094
413,-3414.263,1101.1135,-190.37878,-1892.2124,-860.9885,-1115.0919,5737.6474609375
414,-3.074463,-783.69934,-370.87378,658.0126,564.95074,319.26697,1737.751953125
415,-1235.6033,-718.8194,-260.7032,941.82446,-299.0285,-105.474144,1917.39709472656
416,277.0886,23.820623,-729.562,238.76303,363.543,-55.634274,1182.93579101563
417,-353.37518,-287.44754,-988.32043,695.28253,-106.57063,-200.45116,1433.25842285156
418,256.01962,11.722669,284.14023,119.05433,438.28934,-212.06015,906.126159667969
419,126.939384,-508.29333,-517.876,-69.99238,-0.8974569,6.7273154,651.563232421875
420,720.0196,-625.56573,332.56934,72.22207,123.49126,-101.92346,1237.71313476563
421,-1487.2661,-202.53915,-1359.2559,-302.92575,311.83447,-11.499783,1438.70178222656
422,794.40906,-562.3458,-551.39215,-460.76178,-88.11439,-76.92026,1582.39990234375
423,244.77176,592.60895,1051.2932,896.5692,-106.476204,3.0147648,1713.615234375
424,367.30267,-439.60056,-320.7304,-214.4828,443.62,501.42767,1432.48046875
425,533.8636,-318.30194,-116.18789,277.4222,37.82623,110.45806,930.906127929688
426,-795.35126,-246.13864,-871.78326,739.57776,-203.76486,-100.24823,1464.61218261719
427,1095.8094,-784.85114,233.79732,-690.42316,-99.83235,19.85712,2029.76147460938
428,257.97232,238.89244,857.0498,841.00055,151.1106,76.07181,1605.73913574219
429,197.30472,479.1783,366.2549,-247.00743,145.35376,-28.612825,556.103881835938
430,-66.47809,-1097.9082,-544.58234,-77.25467,224.33392,38.28553,986.194702148438
431,501.54996,-498.13443,-691.92084,-277.62204,234.51704,265.76453,1356.00756835938
432,-369.5032,-2251.1704,-955.70605,1612.3857,20.30024,-141.84923,3262.2431640625
433,-116.8863,618.20447,-306.08734,-734.28937,-96.81797,-40.891224,1538.1533203125
434,855.608,-1086.3601,-1044.4698,-474.91257,501.11517,-205.43861,2290.90283203125
435,251.01846,650.7236,-7.1334047,-233.09927,-14.261249,20.004656,703.141296386719
436,-486.59116,-1381.7023,-40.868416,148.1297,176.27887,-65.59035,1253.32373046875
437,-4489.9263,-5799.1816,-1884.4849,591.0813,-592.5977,-282.44852,3775.53198242188
438,-467.26465,-362.576,514.8806,-287.83624,-45.706726,212.44688,1123.81799316406
439,2335.8828,67.4443,-80.71564,-1616.617,-348.52728,-123.23264,3708.66284179688
440,-599.60626,2882.5286,176.00546,1546.6672,-155.275,-91.465096,4159.3291015625
441,711.8009,448.51,1125.2627,320.2655,-221.78133,296.3318,1033.36437988281
442,-41.472393,-1348.4509,-291.1545,-1777.8096,173.51929,465.58774,3415.65063476563
443,-447.5054,-991.6178,-1007.93054,49.909954,173.6991,7.533412,635.104553222656
444,372.84232,-878.1056,34.346268,-256.9078,131.04184,110.29444,1241.78283691406
445,-906.6924,-1330.506,934.605,-1461.2614,-147.37442,-20.844109,3289.78369140625
446,742.19867,-589.65326,511.78033,482.34763,-214.99826,204.33664,1575.42053222656
447,-5491.3833,-2447.1384,284.4797,-412.18686,421.60944,-320.13443,5137.63525390625
448,-459.3701,-56.9655,71.244644,496.42465,-26.260332,31.509604,987.076171875
449,-218.95074,-20.921951,154.48775,414.7541,-33.211243,-166.55522,841.01953125
450,275.87625,-1057.2008,-156.7139,916.4267,41.98627,-14.273656,1978.12182617188
451,141.66989,-246.90051,489.17664,170.44188,-300.86026,-191.97537,935.972412109375
452,709.3699,-160.29868,83.76936,-349.13327,43.57501,-128.59186,1012.2353515625
453,1394.122,-829.81134,302.5138,-71.6254,21.273844,56.21394,1932.88696289063
454,-459.00278,-1288.8997,-855.375,234.38426,165.13309,9.568845,873.945739746094
455,361.3748,-1288.1656,-228.66634,225.42043,3.3008006,111.49765,1511.822265625
456,1025.9261,-813.2274,65.700386,-0.7099259,-260.6358,141.94398,1674.14331054688
457,-852.38055,1252.7561,-1365.4789,-405.4068,-327.2255,169.06061,2583.61206054688
458,248.99664,-481.79196,-1005.37714,-185.37364,-406.80817,-390.70148,1499.44506835938
459,-336.55423,810.2701,-82.40197,-617.6065,151.67703,42.453186,1518.90405273438
460,-540.5644,366.42017,-195.32114,-796.2724,-126.153595,-83.58988,1612.30859375
461,-1398.8914,-2412.4924,-2897.575,707.3568,443.08243,322.8491,2038.89526367188
462,-1896.1866,-1029.0554,4575.863,1780.5463,-209.25893,-370.8029,6861.640625
463,-401.21768,638.89215,286.20093,-1481.9166,325.97696,-12.87728,2783.32421875
464,925.8021,662.99475,-265.93958,345.08646,76.60478,79.95248,1253.0576171875
465,-731.7159,-633.11523,204.33801,413.3013,28.849436,-48.630733,1147.02624511719
466,-854.026,-459.7911,-166.90765,549.6746,406.23376,22.989428,1326.55810546875
467,-481.0046,-1205.4565,662.26776,123.08773,-362.68887,172.06903,1785.79187011719
468,-616.0176,-427.75198,-217.975,346.93118,-2025.5565,-3.477307,3576.12939453125
469,90.63663,-7.178729,531.3056,-371.5404,161.45705,177.43806,913.042114257813
470,-563.6381,689.1529,-317.8482,1323.4038,0.5344004,48.152283,2565.76000976563
471,-1337.7404,-1776.166,-194.28047,469.774,-210.56567,-132.29686,1687.78662109375
472,141.48146,148.93004,559.644,-61.04876,82.78429,53.25884,460.489654541016
473,2064.0706,4227.1724,584.9253,-234.78523,220.06274,-939.3918,3608.93994140625
474,221.81216,215.13875,693.9222,35.720585,-436.4036,120.19398,919.018432617188
475,886.6657,-308.87912,100.17929,-231.90749,-40.85933,-111.61049,1145.13366699219
476,179.59145,-294.89243,-830.49524,241.0319,3014.5671,111.766525,5314.20263671875
477,803.65686,69.83242,-87.85116,-141.73743,-72.70436,26.178883,870.204956054688
478,1957.8741,4701.955,483.4551,-138.2845,-202.42152,-234.14922,3754.27587890625
479,3130.1619,6101.7183,347.24588,997.11383,-88.2513,122.59584,5281.62158203125
480,2687.648,-529.83844,-264.2827,-881.556,-197.14612,-79.479385,3469.19165039063
481,1351.3765,-2384.6655,481.6563,-786.111,211.09525,-472.55408,3758.00854492188
482,-863.19116,1789.5612,889.29266,991.25946,215.3782,181.66606,2940.296875
483,-1918.3477,-2255.4004,-504.42786,881.52936,-292.07614,115.72805,2284.01513671875
484,375.2179,250.48447,255.36803,143.57204,-175.94115,94.78998,443.433441162109
485,-3946.4873,-2425.0564,-556.0094,270.09995,101.290306,-62.929287,2985.50415039063
486,1254.1898,71.094765,55.697563,-326.58755,1098.4126,328.13187,2383.41918945313
487,701.7573,-533.5632,-512.6939,-564.9106,-300.06543,-116.64667,1664.02563476563
488,-129.63817,-364.4564,-309.7409,-886.84937,96.083,7.201031,1559.69299316406
489,-3684.5918,-3596.4321,-155.15404,-1405.0607,193.11523,48.876213,4265.5810546875
490,-5978.2783,-2757.3652,-889.80133,-351.8888,46.303085,9.176608,4500.61083984375
491,-550.42267,-588.52563,-796.8882,378.32977,103.5638,147.99323,761.635498046875
492,107.3409,-1767.8153,-840.34174,664.164,-271.51465,-277.2558,2100.56518554688
493,-528.85583,-2993.226,-101.07886,-841.5599,285.6935,-349.06635,3169.44604492188
494,-570.27295,1184.8435,-129.12126,-624.38654,140.64804,89.85756,1937.50366210938
495,-730.8134,-1045.1418,-291.42682,825.58167,-609.69366,-14.334685,1894.86828613281
496,1276.9084,-1352.4067,463.9945,-236.63144,290.8162,232.88226,2453.798828125
497,3533.5317,1365.6184,21.863537,453.27444,38.591816,238.1299,3195.2509765625
498,-462.10217,-1224.8307,-711.20306,-789.0021,550.8539,131.51335,1812.06774902344
499,130.4322,863.7488,80.35385,873.9444,108.637375,92.72338,1711.583984375
500,-1138.5961,-1688.9825,1017.7291,1623.2748,119.79917,140.14034,3761.18481445313
501,-2524.7334,1775.0791,-1023.0243,1329.3701,-378.92358,-130.23056,4479.927734375
502,-158.68353,-537.3433,-1694.6869,877.6071,258.28583,-64.28012,2108.12231445313
503,-3407.7197,343.9258,-137.9035,1829.7483,532.5742,-224.61026,4852.375
504,359.95013,1202.5565,2484.0073,521.2148,-138.36418,-98.67479,2081.70581054688
505,-265.18442,1204.6808,1485.0474,-1332.4347,-106.471985,-94.44727,2835.15893554688
506,-3719.324,-1231.7765,1369.2957,-1587.5763,311.53778,137.23999,5228.0615234375
507,-1888.3052,1742.3965,50.51404,571.95514,136.1452,-242.45084,3333.93041992188
508,-846.68207,739.18274,334.56952,427.6379,-95.66604,-213.70056,1658.34240722656
509,-52.382935,1103.7738,405.32104,-266.46207,-60.962097,-141.8345,1140.841796875
510,-1401.7363,794.038,564.56494,410.01685,-49.278183,-74.15629,2213.21826171875
511,-342.07382,1209.0515,-610.7354,-1052.7397,-59.791435,-113.627495,2503.82470703125
512,-1322.37,816.3025,671.3437,566.432,150.57307,204.7233,2332.63818359375
513,-1113.0168,4553.2207,-686.26526,-306.43207,58.16099,47.04306,5492.611328125
514,441.2604,-16.88932,13.347634,278.2202,371.747,-694.30383,1513.25573730469
515,-3332.3262,-4011.3447,-1322.8462,365.70844,45.00562,683.65186,2770.01708984375
516,1806.7311,-579.4932,766.75055,346.8371,-447.64297,-161.00063,2309.5029296875
517,-153.58487,-728.7452,1616.2136,613.1285,-270.20587,-50.651447,2415.662109375
518,1910.4825,336.52548,1240.5121,-14.252849,-643.5571,166.86072,1788.3876953125
519,-48.51206,-229.15967,-488.606,206.7755,579.48193,-523.8263,1451.09008789063
520,-185.95993,2295.7156,762.9332,534.8152,146.75565,154.6891,2387.20483398438
521,922.31195,-1753.3843,-1494.19,-1027.4995,420.10742,-26.981382,3198.73852539063
522,-1678.923,-2824.263,-1825.2238,-273.32684,-269.39224,-147.30997,1293.28393554688
523,-931.9547,326.74323,-639.7354,612.8049,-558.6558,19.750578,1834.65124511719
524,-4169.164,-1830.3961,322.48538,-653.9992,-571.8564,-47.20164,4172.6142578125
525,-5077.69,-4929.8994,-942.6276,306.5603,277.5882,-44.32414,4126.55517578125
526,-926.5101,822.8961,-516.0213,-272.80252,159.0851,-191.38393,1708.76647949219
527,85.20982,1991.8668,453.51242,728.15247,51.2316,-81.31692,2164.96899414063
528,1061.0479,-9.427546,2183.2937,263.44342,-243.74144,-190.24318,2025.26635742188
529,-777.4084,-807.335,586.78125,1805.3224,-49.24986,-175.69688,3432.22778320313
530,808.1845,607.6432,517.9336,988.22406,138.96695,106.436844,1757.25280761719
531,-1050.6718,-3214.4016,-397.9484,-21.773964,-145.46321,392.9061,2654.82934570313
532,-1262.1967,-945.32227,285.85718,165.55228,20.076305,206.07143,1489.01635742188
533,294.07672,332.52588,432.78577,-715.3448,-69.393005,198.31732,1297.29541015625
534,958.9833,711.4641,-269.32523,-858.40094,161.90439,228.59282,1926.63891601563
535,-2191.0898,4694.82,851.29645,604.7855,-72.5156,-181.75014,6077.37109375
536,-3110.3499,2551.3604,355.88782,2793.178,-31.642061,-419.4105,6955.658203125
537,646.2804,1110.9896,1751.3372,846.00635,-388.9319,24.705072,1877.86853027344
538,1893.535,-301.5195,1590.9988,2038.4657,202.86139,75.74962,4105.16845703125
539,498.21826,5856.829,-156.53636,-2533.8508,96.131546,-167.1882,7212.81982421875
540,-2022.3824,-341.39365,-1236.2793,2847.6543,-50.508255,-147.539,5150.0107421875
541,-2599.3198,-799.9731,-693.908,1896.185,325.43762,-20.417627,3813.82739257813
542,5895.548,-2399.499,-1210.1611,1889.5394,469.91412,15.79829,8469.416015625
543,-3252.194,-1514.9241,-642.62463,-1902.3215,-191.60445,-211.73834,4049.14184570313
544,5455.8086,269.90622,-955.7473,84.27926,-191.82156,-47.932972,5906.8193359375
545,2721.3604,-6304.425,-438.87042,-3230.676,-106.78576,-106.648026,9711.2529296875
546,4785.761,-1317.491,-124.00782,-3008.1758,22.346773,-22.404072,7651.16552734375
547,283.33426,-787.5303,-61.94835,932.2906,54.774353,65.56405,1877.66186523438
548,1094.8572,504.73184,-276.68204,-1094.749,115.68058,-189.88066,2272.3828125
549,3165.7183,-132.22115,-76.17024,-261.82495,153.8034,36.927967,3312.91552734375
550,-2771.9062,-685.9862,-464.79425,-358.33447,1028.827,-136.1744,2911.64428710938
551,-175.38437,1465.3746,-112.01015,-126.83072,-56.897358,-190.79161,1661.11376953125
552,-3838.6245,-4445.731,-2087.0017,-95.791756,184.00423,148.49062,2166.89453125
553,1477.9536,3974.3784,-5.941605,-915.4167,9.774045,-352.57672,3876.29931640625
554,744.1316,1687.9929,2277.428,-1967.3315,426.5678,136.26517,3742.64868164063
555,3393.4834,471.04193,1665.9281,-2601.981,-295.71857,109.686905,5204.40087890625
556,2640.2507,3393.6062,949.6286,216.77081,210.7498,22.664215,2230.5029296875
557,2249.5073,1852.7942,540.76917,-66.0524,-305.86493,69.12805,1645.40979003906
558,-1914.3491,-6413.1245,-381.16675,-544.8038,-73.91719,102.54447,5515.92626953125
559,416.97015,-2584.9062,787.33685,-1206.6317,82.60025,327.52502,3869.15966796875
560,1779.8971,-1971.2701,-725.6778,-73.397156,-271.96124,44.29553,3345.78369140625
561,1377.3502,-1308.1005,-582.81335,4.064314,-77.40138,602.21564,2626.01928710938
562,2468.9954,271.5598,-362.95312,1648.142,-47.36072,242.97057,3867.63232421875
563,-378.12872,3119.8386,855.587,414.60416,-48.010323,-19.396069,3156.90771484375
564,619.4739,-859.1028,340.79114,336.1945,-84.96126,120.22848,1501.96520996094
565,2282.163,-199.24666,-268.82004,-133.73384,-121.53417,77.97773,2539.89819335938
566,69.11231,-1916.5,641.7313,-864.4137,142.31708,-246.7512,2809.37768554688
567,-1820.5942,1210.4138,-1075.9747,3756.6199,125.52163,40.457123,7062.1015625
568,-1902.225,2760.3435,670.2684,559.67126,210.19092,399.06067,4232.3544921875
569,-1056.4321,4191.541,384.64285,-1229.0579,-83.1161,-235.88528,5174.41748046875
570,1798.469,2811.4795,1076.2432,-1442.3113,-66.663864,474.77142,3034.75927734375
571,-931.9546,-341.3808,-642.1801,-321.4318,115.589966,50.128597,786.886535644531
572,-321.43713,914.9168,-133.92696,172.59457,-192.7005,-24.5976,1238.74304199219
573,-91.96518,247.96375,14.200982,-15.116007,-48.078133,158.61363,416.927856445313
574,1084.0242,-362.57706,-98.55912,-272.6364,140.20462,-110.05684,1448.70056152344
575,254.86832,-1089.6548,930.33453,180.79114,-79.74453,-17.484177,1813.89855957031
576,-2366.8398,-746.4197,992.1478,-124.09352,49.45887,76.874016,2921.78930664063
577,-1285.519,-2879.2727,-4432.632,214.97763,-284.2892,-13.868554,2794.69677734375
