Element Label,S11,S22,S33,S12,S13,S23,Mises
1,1511.401,1949.3171,-408.68753,1389.5311,-75.032616,-51.054806,3245.98950195313
2,1824.8916,1690.5331,253.50058,332.63242,158.97537,-97.0749,1646.88049316406
3,1379.534,1619.6381,-418.5783,-218.12744,-93.43096,-53.300247,1974.85229492188
4,1348.7281,2139.0042,-360.7286,283.61807,141.18115,131.92645,2291.5166015625
5,1246.9246,1592.4084,-233.03053,399.48752,-58.08033,88.61166,1825.7529296875
6,1296.2174,2201.8708,422.7475,409.1261,-49.560825,-55.04567,1700.83227539063
7,904.0125,1915.4749,-316.01895,358.161,20.49225,180.05493,2056.43041992188
8,1497.9043,1915.2223,468.71167,168.68082,47.870197,-81.55207,1332.32080078125
9,1282.4142,1874.3245,294.21533,123.20743,-0.6569237,63.05324,1403.31335449219
10,1518.4741,1823.703,189.53813,-6.3849883,0.6152921,-176.95332,1535.87951660156
11,1083.0149,2048.318,-167.68832,309.54767,23.772865,28.828749,1998.755859375
12,914.94147,1948.0636,32.359207,327.6025,3.5083046,-122.51634,1767.80822753906
13,1473.52,2360.4026,-262.88226,323.02,-20.175356,14.189207,2378.33740234375
14,1171.0269,2075.377,-389.76776,-231.99117,-56.877205,-71.14125,2202.67626953125
15,1286.3771,1899.1562,-150.21123,26.02389,53.06485,95.32733,1832.3037109375
16,659.8204,5416.1523,-2482.075,-1157.3761,-698.98926,1341.0717,7636.611328125
17,501.4589,2472.3386,1269.0734,-72.24632,51.212566,-130.12149,1742.13806152344
18,1263.0103,320.91544,-1229.8356,408.15985,937.8335,-1013.8714,3312.9306640625
19,735.41833,2963.9194,-803.6117,-787.3194,-5.6250124,332.18314,3599.34838867188
20,2703.443,1995.2797,1300.9142,-548.1459,298.71606,-3.147715,1626.18518066406
21,1428.7388,-7357.317,-14259.1875,-38.77608,5052.225,3574.6094,17331.58203125
22,958.8882,525.938,-241.96552,2516.13,416.22916,371.0738,4586.408203125
23,1252.5541,594.48553,2056.0898,2285.545,-726.3467,-418.2976,4402.98876953125
24,565.4118,2355.9065,1901.903,1056.2009,421.977,421.34045,2648.12353515625
25,-306.1204,1609.3611,-4229.4453,1492.181,-161.1519,260.09775,5791.13818359375
26,2495.5212,-832.7896,-1525.8883,681.5965,464.98242,444.3771,4061.97583007813
27,-243.00816,-134.31583,-680.83496,-1026.7413,-424.65616,251.07385,2035.6328125
28,2464.197,2694.0781,2433.3125,828.37115,-102.85127,-282.90714,1546.39562988281
29,2118.7656,309.32077,-2353.5127,284.84998,263.10056,550.422,4067.30883789063
30,4512.8022,2307.307,-690.0998,347.4829,-261.01608,-451.7356,4651.6923828125
31,-2487.2444,452.11642,-605.2142,-209.0051,-260.2025,668.724,2885.42114257813
32,-854.3745,-695.298,1211.6628,-916.02466,-139.3834,-458.24487,2677.81811523438
33,3691.1719,-231.30482,-394.62357,182.6606,-711.14624,998.0387,4545.17724609375
34,1683.539,707.34094,-636.4436,250.59682,-78.53219,244.23985,2111.01318359375
35,1917.2688,3030.5422,-1582.3159,-573.8899,-745.3668,-780.73883,4676.09765625
36,2805.8962,1200.2292,3273.028,658.83777,51.372463,-21.452232,2204.07275390625
37,2130.111,798.0382,-1607.7802,1.5074859,7.7592316,-270.66214,3314.67431640625
38,2446.0225,-538.6174,-1519.0204,1744.2126,64.11477,323.4091,4716.81689453125
39,3037.336,-756.1954,2157.3823,-140.4432,-224.70863,-1116.7965,3972.33227539063
40,2724.8772,-1416.8042,1960.8788,2304.9207,-599.09656,-365.90118,5655.91357421875
41,4244.117,-9683.489,-6418.7393,3941.855,-1889.3423,1536.4762,14952.3388671875
42,-957.5818,-2095.6096,-100.01474,525.08563,-327.41034,-93.404076,2044.8408203125
43,1660.4508,3014.12,1822.3776,-287.63162,-328.52948,461.30356,1688.14660644531
44,1242.5043,3603.3518,-1474.8788,-204.20497,826.2825,-344.1636,4679.93310546875
45,959.15314,1100.018,-2161.4001,-14.058714,-125.50826,213.5823,3222.10717773438
46,1788.9457,993.09424,-532.8736,-251.55096,-335.92984,17.13658,2169.25390625
47,1402.1246,1995.1293,-460.32944,-452.62177,-84.18634,-331.21277,2426.89111328125
48,1700.4265,1915.3716,79.98255,-224.86713,144.0615,-14.403558,1798.58984375
49,1690.1584,645.7332,-237.02954,801.10474,6.089436,-516.78314,2349.1884765625
50,714.8989,1851.8164,483.52673,525.8827,335.26328,-4.871962,1666.16296386719
51,2510.0276,1626.1434,1568.7007,143.91107,-388.27423,89.60042,1172.09643554688
52,1602.8707,1221.5419,-419.6241,397.0906,97.1526,-28.128931,1992.08288574219
53,1017.2406,549.4223,-2695.631,58.707394,420.23703,130.8448,3585.91943359375
54,1891.2389,535.79034,568.5142,639.3983,-154.1127,-137.64084,1774.41076660156
55,1361.6344,1796.7728,-1991.7828,432.44818,128.00197,-128.82643,3681.56616210938
56,866.551,380.60626,-1317.9935,1905.385,-109.332756,-14.7877,3856.78662109375
57,-247.11679,868.36847,483.46555,1586.2747,-1246.7993,-335.0971,3675.908203125
58,2419.304,1198.8136,-101.84201,904.5765,1371.1095,-216.74731,3606.14428710938
59,1141.2638,1374.6473,-6.4828672,1108.487,34.508564,119.73998,2317.859375
60,719.194,2135.4558,-533.8383,1003.54535,191.94814,-25.237383,2912.77563476563
61,490.53864,1496.3568,-366.82092,669.04236,82.10933,-248.2324,2038.87731933594
62,1707.1007,1192.1172,-137.20457,366.55704,-22.117085,-7.543149,1766.80871582031
63,1495.0747,2581.3767,-390.1327,477.31735,-6.0733123,184.19551,2750.88232421875
64,1019.07434,2378.1636,503.71515,672.21747,443.1712,127.04019,2192.34716796875
65,655.5835,1980.578,-301.02307,395.91885,-52.420734,506.81543,2277.56225585938
66,1701.9473,2475.9358,-58.880825,490.77042,25.690987,253.55737,2445.37426757813
67,1010.0667,2471.6963,732.72046,30.095446,114.44061,-290.57547,1707.03515625
68,547.4391,3260.0361,-291.0012,175.04196,50.3929,204.84972,3249.76049804688
69,1327.4039,2897.8,1186.4877,498.281,-3.7034795,744.4256,2261.56958007813
70,1303.9088,3220.5615,298.61438,-56.54342,-258.53735,195.3906,2633.55712890625
71,605.2424,823.2209,2178.667,-1838.8461,-701.2597,-330.26898,3758.5634765625
72,148.72437,2327.6624,213.49522,998.61,338.82462,-467.46756,2932.99926757813
73,1350.6178,2094.9033,-131.93173,71.725426,119.34387,-36.75611,1979.28515625
74,670.5129,1939.0667,-2607.734,32.999615,1135.2622,-347.6103,4554.88623046875
75,2184.511,2455.0344,460.69907,-580.35315,-1620.9503,877.29645,3835.734375
76,2008.0133,2689.0178,586.6278,-327.29263,-125.33679,-53.602528,1956.82971191406
77,1334.7716,2053.4695,626.16895,-555.01624,-826.17,673.63586,2420.96484375
78,2142.239,1946.3458,668.03534,-1108.2511,1001.6455,-859.3282,3291.31323242188
79,1128.2085,1803.35,-773.8038,-642.8682,521.1136,-167.01366,2737.84448242188
80,-6302.4814,-9072.389,-10226.312,2961.0667,1780.7605,-2078.489,7808.81591796875
81,-3767.3477,5998.426,637.64325,219.5641,-1981.7112,735.3033,9236.033203125
82,323.37344,18493.922,-6280.768,-921.29254,608.5895,-2690.3855,22785.00390625
83,3740.945,-365.68082,7754.629,619.9731,-3200.8142,1709.0133,9492.5048828125
84,1338.0216,1799.0891,-1502.606,-145.26758,-869.5269,1121.4564,3961.81811523438
85,-1036.6984,2033.413,-607.8884,1906.6492,-2633.1865,1916.8159,7143.0009765625
86,1861.8629,2011.3947,-1696.1617,570.9505,547.3267,-548.62085,3999.19287109375
87,584.2225,2076.5815,-211.84988,-106.628204,388.829,333.85483,2207.02099609375
88,1132.9935,744.754,2152.3748,465.15546,-388.80853,-17.24236,1639.86254882813
89,878.10815,2116.6328,-675.169,269.791,-111.11173,-28.582947,2475.52709960938
90,1402.3596,1780.941,1285.5656,729.016,113.06389,-125.89296,1371.66735839844
91,827.8771,859.251,-1068.2777,825.6929,94.8419,255.85292,2434.0400390625
92,2193.2178,1235.7607,1388.7677,608.4175,-149.74187,-187.80013,1441.25891113281
93,464.43164,272.28333,-398.46082,496.734,-338.42038,178.19171,1339.69287109375
94,2490.016,1560.471,2744.1301,558.0204,658.75995,873.3761,2385.21484375
95,579.599,712.1419,-142.44054,-1613.9738,30.127476,472.06534,3020.03393554688
96,643.6667,-1903.2703,-4294.1416,-376.9053,-1368.6573,179.66945,4943.201171875
97,2947.329,648.07935,672.1729,-471.31784,198.9861,-450.84714,2574.24365234375
98,1920.3993,2374.1653,918.8653,460.41016,-3.9076672,-167.34674,1543.83581542969
99,670.08655,1353.6323,-2525.708,-204.00189,139.98164,-290.2935,3647.08862304688
100,2676.3257,2785.8154,-793.93756,-288.29416,309.21082,-110.87769,3606.62280273438
101,1279.9652,1048.3091,264.61984,-394.63654,-337.9265,65.90936,1293.13916015625
102,2593.5044,-831.2395,-159.82089,159.10255,616.5157,-1037.3777,3784.826171875
103,-36.03497,1421.0887,-334.35873,788.4848,797.51917,-496.26675,2675.62670898438
104,-1064.7189,1083.2266,-1011.9025,582.05975,-208.81497,-75.67324,2380.62670898438
105,1055.7911,2506.7048,6053.2505,104.327545,722.59454,260.17636,4650.91650390625
106,797.363,94.38102,-1197.114,1020.93085,-294.51697,2327.6787,4765.650390625
107,1638.6638,1369.8403,1533.8151,1030.4763,287.4201,-927.9714,2464.13110351563
108,-2385.2622,-1464.9988,-5277.4766,3062.8252,2260.6643,-1110.8368,7684.384765625
109,2356.1777,-2895.532,-2128.5278,-1494.1785,2313.9614,386.42294,6881.10400390625
110,-3318.663,-1836.4702,1343.0465,5245.8057,565.8741,2455.0745,10891.1494140625
111,794.39935,2636.6877,-285.90326,225.74524,-27.288345,270.24387,2631.63842773438
112,1714.9714,1454.7544,229.26706,968.10364,-460.28595,4.2382298,2309.92236328125
113,1100.2517,3046.95,139.86641,173.29024,66.436,-176.64389,2603.55395507813
114,-379.76566,1242.4937,-1965.7462,-1155.3766,856.0969,508.6413,3833.98876953125
115,992.80786,2532.3447,1078.4905,-125.51792,27.149368,-62.496525,1518.81420898438
116,1287.7244,2769.3572,103.73157,-320.81116,49.03935,157.75467,2396.23681640625
117,1250.4215,2205.9214,369.84824,265.69785,-1096.282,159.07573,2534.35986328125
118,1087.8562,2169.5674,-214.59604,-972.2026,-765.9194,416.86255,3064.65551757813
119,1348.4763,2339.0571,-862.931,10.276087,2.5092177,47.20205,2840.62841796875
120,667.2435,-29.84378,-1223.9204,-869.0426,-100.08337,-1163.3914,3016.67358398438
121,1724.4359,-286.24835,4194.9043,-98.78078,374.3031,398.5497,4004.93505859375
122,1438.1179,1728.0172,324.31244,-445.38867,-219.16594,195.68433,1581.640625
123,1251.5012,1612.4565,-230.13245,200.41359,-297.75635,-261.37842,1857.89135742188
124,2305.3884,2246.0586,755.85095,1363.7667,76.557014,-3.3057072,2812.44506835938
125,1471.579,1759.9178,-1.1820782,4910.999,704.61975,431.23352,8779.40234375
126,4951.334,4571.8667,5218.252,-287.58762,-1210.7021,-1697.2439,3688.35400390625
127,2648.3713,1681.6079,244.03929,840.2494,-1114.1086,1472.6774,4091.34838867188
128,2206.3074,2667.1658,-4867.7183,-766.18365,3544.0654,-336.426,9658.9970703125
129,-720.3661,2094.9343,-1036.177,1425.5731,980.32,1169.6412,4690.28759765625
130,1429.9537,1416.0919,2388.4045,819.49445,-59.105698,-386.35278,1845.29272460938
131,1147.7113,2474.9004,-537.38586,-1202.576,-769.2325,-191.1228,3613.96362304688
132,7964.638,2193.2397,14645.594,1023.0173,-2190.9517,-521.90845,11612.9375
133,884.56696,1279.9684,-2539.0432,-125.80123,585.737,-39.66159,3783.20092773438
134,555.9584,4295.1987,4215.4683,-203.93904,-463.86966,252.5854,3827.7724609375
135,1265.4315,2242.5105,-1894.0098,-201.42073,-84.579956,8.530708,3763.9296875
136,186.46268,2093.7634,-836.30414,253.49342,360.58746,-250.24844,2721.2666015625
137,663.841,2439.015,1846.6947,844.85144,-479.5828,152.81517,2313.43725585938
138,1559.1394,1917.0475,1607.2097,141.53238,13.653665,-153.72618,494.725128173828
139,-3.1709733,2849.3806,896.5777,-62.39595,-38.934917,269.23187,2571.71215820313
140,410.54868,1632.231,-222.41754,1192.6565,439.7998,-239.9766,2772.50122070313
141,1080.7501,1099.3016,-1756.9296,561.8119,-151.72029,308.21863,3066.97973632813
142,1224.1443,1443.6812,256.51346,1113.5166,408.83926,-62.360012,2330.19506835938
143,-126.13257,1436.2305,27.100248,1831.7146,-596.7897,260.24274,3682.69482421875
144,1021.2075,1437.1873,218.87234,185.86253,262.39532,-184.45459,1250.11804199219
145,3283.7485,2787.7124,1643.9888,-99.89342,-256.39523,252.29578,1593.61059570313
146,2089.6072,3410.0437,905.96063,1227.1841,383.09583,368.05212,3173.66015625
147,2124.1758,1909.2123,1184.8972,1176.8079,-437.89578,70.92319,2339.12841796875
148,2555.716,1148.3813,1335.8892,556.69415,4.2080855,112.7387,1649.17321777344
149,1681.5468,1234.4529,2037.4628,814.4994,489.79797,187.32224,1816.837890625
150,-790.47955,1488.2694,7630.112,-541.996,-1140.943,177.68724,7860.78173828125
151,4923.9585,-56.22647,5080.0547,140.56169,685.9634,-1223.5098,5618.34814453125
152,2928.835,115.47642,-2325.2761,1502.2047,-2173.8118,2925.23,8207.0771484375
153,2938.8708,860.1082,-218.07864,-583.8844,2223.6357,-1163.4655,5257.6064453125
154,2981.3613,-1285.8418,-2174.7622,-208.59297,861.455,611.5301,5125.5400390625
155,4619.425,809.3842,1885.3302,894.60974,833.4864,6.542774,4007.47778320313
156,5043.0703,-540.32513,1813.6953,1524.0659,-562.37256,329.7534,5640.53369140625
157,3308.3735,-2559.653,-3017.6682,-384.4657,-2438.9958,2111.8552,8306.654296875
158,5730.6475,-1421.9357,-419.7394,843.76935,2365.4817,160.26335,7999.6845703125
159,-558.7933,1020.3416,2122.1707,1005.5918,-1399.1146,-1434.2917,4530.4990234375
160,4118.8345,3136.886,4283.9355,-515.43164,1138.2552,-3240.7517,6111.0478515625
161,-5658.361,2443.1226,-6006.471,2948.3125,2826.8584,-1361.6357,11143.994140625
162,-2541.3806,961.607,672.02936,1068.071,-579.0942,-671.9057,4138.01171875
163,1526.7623,-7062.4497,-95.3762,3097.169,216.35484,3229.2532,11075.8759765625
164,3866.6372,14805.808,3421.455,-1780.1014,-1489.1488,-620.85223,11918.427734375
165,1717.9359,1449.8986,622.26263,727.95074,-283.88217,375.03598,1797.810546875
166,2460.6687,1947.0896,82.51289,585.311,297.57086,-344.60834,2519.46313476563
167,1783.307,1527.7455,357.33893,122.95312,-60.177452,32.384674,1339.26721191406
168,-1615.0084,429.77695,-2092.821,3223.336,888.5161,-1536.1685,6782.6240234375
169,1153.5193,1153.68,-1470.3866,-631.24445,213.22838,-9.079531,2866.59350585938
170,1223.0916,1481.3411,-598.07904,-47.99536,268.57944,5.4415717,2019.17712402344
171,1289.9457,2619.2566,-95.89023,485.8258,84.72667,-55.66515,2503.74267578125
172,-2443.9229,3978.3223,-885.12964,-694.6359,1234.299,-784.374,6444.21337890625
173,1377.811,2151.2168,64.05578,560.63824,-143.65884,-274.87833,2138.15551757813
174,1248.3798,2097.2542,902.62964,508.7394,-150.81995,-202.8711,1449.75402832031
175,1825.1735,1996.7137,167.44678,-142.14503,-31.705198,51.16679,1770.12316894531
176,2431.6638,1906.7389,1114.8651,19.118557,-271.474,184.88797,1281.80578613281
177,546.82263,2863.8047,-1963.7,144.65337,880.9419,398.2185,4511.61279296875
178,-733.09674,2194.197,2430.7952,1763.8557,-2127.8564,1531.0145,6266.30029296875
179,1464.1742,886.64624,-1947.723,844.9896,-464.29672,-378.08844,3636.16625976563
180,1806.069,1431.4072,-1643.1736,781.07684,-98.13539,373.3739,3608.69848632813
181,843.9755,2174.7844,913.75616,177.00095,137.1048,96.902596,1364.40771484375
182,879.03723,1250.2253,-1351.8041,179.61641,-124.27535,-306.15292,2523.25244140625
183,1610.6486,2760.0283,494.2149,425.60645,-36.73917,-147.94742,2112.78051757813
184,-8957.325,-10020.416,7996.6895,1507.4418,-3200.7783,-346.59116,18560.841796875
185,-11814.779,-13763.613,-3670.8643,793.2481,-5275.7627,-241.12111,13097.923828125
186,-2378.8293,-346.86667,1028.6923,1873.4684,-896.27203,-55.515377,4665.28955078125
187,1051.7477,312.18365,-333.11588,989.81616,-277.00446,-7.4699354,2147.13208007813
188,-1363.1744,-1086.2623,-368.82788,-1203.2065,269.2543,505.00363,2473.00561523438
189,-1679.9941,-7587.5894,-3879.5896,1478.0735,392.25317,954.9714,6041.12451171875
190,413.58362,-3090.5286,-1928.5602,1817.9208,2422.5254,-1896.5361,6918.6884765625
191,1381.7397,-1335.0372,2729.597,44.194695,44.81197,259.08218,3615.61572265625
192,3206.7595,-4212.437,5270.401,-557.794,-2514.3398,-128.3586,9724.3095703125
193,-1029.419,-4775.363,-8428.884,1879.1328,803.34485,-227.81995,7331.53515625
194,1118.5754,-1266.213,3155.022,22.460827,97.718575,224.98857,3856.53247070313
195,-449.4272,-4094.789,-8014.02,933.7497,-564.281,634.78064,6907.66162109375
196,630.13434,-6181.893,6337.495,-983.41187,-256.31445,-2337.8647,11719.7099609375
197,446.59247,-717.97687,2249.0752,566.2642,105.45642,-45.466614,2775.9345703125
198,-1423.0461,-4803.3667,4024.0842,-1517.9868,963.50653,-782.8184,8428.947265625
199,523.8368,-4387.6265,-5021.8564,203.7527,560.0267,-930.5142,5594.88330078125
200,4737.3325,-2817.1367,-1114.1995,857.9644,-198.78539,193.21902,7038.7548828125
201,2302.294,-3219.113,-269.03564,170.41539,-809.1294,422.08316,5048.36328125
202,4097.68,-1077.8442,2813.998,-1265.7355,273.95657,430.10266,5232.26025390625
203,2202.9365,-2615.239,507.1381,40.777725,-428.76593,634.8124,4436.81884765625
204,3095.2012,-1190.4973,421.1208,-136.33916,1090.6426,-1161.991,4661.818359375
205,3964.479,-1970.8214,-2345.7837,-920.3825,578.131,-485.08868,6468.68212890625
206,5475.5713,-1920.147,6874.8945,-50.995514,-1395.5948,-415.92664,8565.8388671875
207,4241.3022,-3397.0796,-3894.012,-2157.3308,323.13132,691.7403,8837.3388671875
208,4853.238,-3737.945,-5138.8423,188.00327,1428.4347,-1492.093,10035.568359375
209,-165.18459,-10830.257,1125.1925,1048.9712,1996.7845,-900.22754,12118.7666015625
210,5357.432,-3844.364,3103.3894,-2327.8794,1342.842,-67.73301,9523.2880859375
211,-7007.497,-11920.2295,9854.958,1411.1371,3442.2214,-4900.298,22469.4765625
212,-8455.996,-7410.3286,3817.1604,-3125.899,-2067.3032,-816.1534,13528.615234375
213,-15421.938,-5833.9604,3077.2651,-1683.2297,839.90027,-2007.3132,16717.771484375
214,-7560.32,5584.325,-1216.1094,2778.9128,-1585.9811,-729.49756,12725.875
215,-12850.297,7614.573,-3016.9016,401.85648,-488.7594,529.5254,17785.09765625
216,-1868.6503,2391.161,1418.6825,-2898.9036,58.310837,470.28146,6390.12890625
217,-6522.804,4201.2065,-3505.9885,-2125.4053,679.07404,-128.40535,10331.416015625
218,-167.37144,3781.539,4134.8857,747.4036,-389.13388,1783.0035,5364.83935546875
219,-1321.7395,1825.7355,506.78714,-1996.068,337.42096,-897.162,4712.11083984375
220,-1354.3431,4679.9805,3024.489,209.4696,-74.96485,491.89355,5480.7216796875
221,-1335.3954,2022.0958,-2104.679,-1083.7236,-33.427948,65.26117,4241.09765625
222,-2430.4336,1527.8547,-980.0841,558.7023,-187.74823,2.101348,3615.6416015625
223,-988.2473,2653.2776,3286.6306,1667.9747,1310.8672,1083.8535,5744.037109375
224,-2541.3809,3694.335,-3677.0347,-677.9106,154.38974,441.6205,7020.73779296875
225,1793.1122,3677.9124,7153.551,-168.11449,186.78369,-486.6167,4804.50390625
226,-1209.2534,2612.4705,-3443.335,-1815.5092,-387.78125,36.062576,6203.0625
227,93.29827,710.5736,523.09216,-356.4165,-635.4646,-343.79617,1499.19372558594
228,-171.83719,1085.221,-1042.2125,855.1118,-57.431793,171.06018,2392.31884765625
229,490.0623,273.8592,-53.983078,1616.2793,-381.86368,117.8067,2922.54614257813
230,242.73073,1597.912,-581.6344,1135.5588,-360.36765,-75.177475,2812.16821289063
231,-2383.6562,-462.5255,-2301.0405,1514.8203,581.8269,123.111694,3388.794921875
232,1637.3021,36.79433,274.6844,756.3583,335.06265,-271.2443,2123.96484375
233,1135.8394,-1176.7416,-338.83167,127.791374,-536.4204,19.165203,2241.8125
234,-529.7615,-1213.8629,-259.20862,1180.7773,-248.97774,-77.80581,2261.21997070313
235,-1211.8606,-1434.0251,-912.6886,912.16437,592.4486,-56.929035,1940.14599609375
236,1060.994,459.38165,1159.6873,348.7756,488.9798,-137.68892,1253.06213378906
237,1515.0889,1377.0085,106.65521,855.8323,-223.42188,316.84793,2111.05444335938
238,1579.1804,-509.75455,-1922.3322,848.3512,421.33975,-41.432705,3465.05981445313
239,277.96536,-373.36212,791.14905,787.12994,70.05266,-502.14227,1910.947265625
240,826.7564,1574.6174,752.7502,7.6693997,-631.2181,-316.3526,1454.59326171875
241,547.5334,-1050.7539,192.65988,427.85083,45.43813,-82.98516,1639.90551757813
242,534.5115,-618.0212,-894.85767,713.1195,123.21648,535.8905,2038.80700683594
243,1032.9972,1297.1665,1223.5187,537.1066,171.5592,331.63104,1157.34167480469
244,563.1372,28.660046,-263.55753,-80.24191,-97.04118,69.494514,767.656372070313
245,-734.85266,-1047.2852,-1093.2402,722.5193,-209.13826,89.490036,1354.77966308594
246,116.91292,-1861.12,-1572.1539,-252.16946,-327.69254,-203.06134,2015.22924804688
247,1347.814,321.99234,2091.8972,-465.1637,-318.37848,245.74017,1871.80603027344
248,389.66516,437.68106,-32.076096,135.79602,-142.8161,-158.96013,626.687683105469
249,1319.8364,-71.3183,-356.77563,-450.29474,196.47191,-433.68274,1924.12438964844
250,1348.752,-249.29785,-100.67672,-668.3962,-616.2544,202.42175,2222.7998046875
251,1770.7913,199.78316,671.0593,-359.04843,182.6799,-61.63342,1564.6240234375
252,904.9684,-99.5041,-42.26311,-800.1204,-253.81023,19.694809,1752.06884765625
253,2015.2611,-588.8062,581.5911,-852.00104,15.992166,43.246815,2699.49975585938
254,877.05347,-135.75629,-98.35263,-873.71643,-87.106476,69.57466,1821.18786621094
255,888.6455,2185.1648,2347.4807,-2866.2495,-158.24402,2192.9736,6408.31005859375
256,-1377.4758,1057.3296,757.5413,-1584.7183,528.1973,35.148598,3696.33666992188
257,-1137.6154,2086.106,-374.52744,-535.053,332.32788,1242.403,3786.23364257813
258,-466.9747,2872.5405,-993.6524,56.58983,-421.06802,-545.927,3824.16137695313
259,-633.73444,2578.6855,521.9732,-552.02747,163.0544,-408.44754,3071.99194335938
260,-933.0632,1429.9407,-1788.7843,142.70685,-40.66991,247.8614,2930.61108398438
261,-1596.9722,1241.9082,-503.103,160.105,-96.87172,-46.65681,2502.40112304688
262,-1400.1547,1510.9572,1197.5826,203.64572,216.37091,107.6656,2821.373046875
263,-1684.8384,1770.9125,179.14388,-97.07825,78.046394,52.298603,3004.98559570313
264,-1762.165,912.8871,-834.7155,82.99057,82.91039,-90.31052,2366.61010742188
265,-1604.1119,1796.0669,-473.98077,154.34138,-224.912,11.3058195,3036.34106445313
266,-1637.6627,1020.2866,-1308.5416,537.34515,-102.7891,-339.1806,2746.13818359375
267,-2036.0612,997.96295,-1231.3649,616.2631,163.31828,-49.84808,2939.07885742188
268,-2181.4595,765.35834,-261.88794,671.8012,101.433876,125.41945,2853.74658203125
269,-2452.556,752.2229,-270.89368,999.30853,190.07512,-151.41092,3348.36181640625
270,-2661.019,1291.2942,-1864.44,613.6193,-417.97946,41.812782,3842.6474609375
271,-2342.3386,1122.963,2036.3372,1189.8715,27.117878,-413.5395,4557.4462890625
272,-2853.618,627.1856,192.12401,958.3452,185.13155,-9.877123,3694.49560546875
273,-1408.5842,-735.479,969.44867,2518.7185,259.9142,-522.3102,4955.84130859375
274,-697.7663,-4294.8306,-275.9499,1885.4489,152.6093,-762.058,5206.814453125
275,-737.3337,-5378.876,-8804.07,1726.5636,141.78008,-195.09647,7634.89501953125
276,2486.6228,-2846.4746,-1285.0638,-329.2316,392.31216,614.6417,4947.02294921875
277,-1425.1215,1187.9696,887.2275,68.65316,-27.6414,172.34723,2497.67236328125
278,-2176.8699,982.46533,293.35663,840.5164,-110.871826,28.369287,3230.7646484375
279,767.3931,-575.2114,173.59515,269.44415,-161.19524,126.41472,1304.46984863281
280,1282.9321,-765.92596,1117.1404,1237.2871,-269.25565,116.0136,2955.6953125
281,812.8399,-916.8195,-1279.4785,-7.08589,91.63829,17.624435,1943.39782714844
282,-612.1902,2642.8035,2570.3174,-255.03673,53.71264,96.05262,3255.11303710938
283,-675.59515,550.35974,-349.62637,277.0035,-178.2514,-116.36058,1255.28125
284,-496.9203,-536.36426,3316.9329,1878.6655,90.352295,-44.61159,5031.5087890625
285,1830.092,-1558.1936,30.334042,-1186.448,-1314.0712,136.33235,4252.12890625
286,5966.8276,-7372.729,-1623.4623,-1914.1205,-2407.269,-732.7277,12817.654296875
287,-5431.8286,-6099.331,-6757.7036,419.3677,-297.7353,1584.5664,3105.57202148438
288,3324.2378,-2873.727,233.82463,232.78857,-99.1873,-523.8371,5461.35986328125
289,168.98495,-3323.6482,830.7439,-1829.7888,-2104.6814,323.4395,6212.484375
290,2977.1035,-5202.255,-3733.9248,-311.0788,1599.1796,-1259.6974,8352.8955078125
291,1013.7256,-1722.4689,2371.8152,-124.557144,15.420296,579.10425,3755.06420898438
292,2068.1633,-353.90417,81.25558,454.3162,48.312393,-113.933395,2380.5341796875
293,1478.7174,386.66608,-379.99985,-138.8036,-122.964745,-79.48037,1655.20471191406
294,1237.0159,-220.86044,-670.3927,232.08563,116.17606,219.0223,1824.51062011719
295,830.9808,648.6855,1572.2131,-241.486,152.99933,147.98183,1014.22326660156
296,-7351.6787,-3334.183,935.6252,2657.1274,-250.76154,5815.498,13204.3603515625
297,-950.7358,8228.834,4885.409,-1272.5981,-106.575005,-807.3899,8461.6787109375
298,-4886.6304,-527.9438,-5678.148,2944.8425,72.41801,-2038.4331,7846.80078125
299,-2093.3281,1442.9905,-2499.4927,578.5911,16.391624,-469.87268,3971.68701171875
300,-1954.667,1640.243,243.7369,358.585,87.30141,49.07205,3204.54858398438
301,-1767.1128,1556.1417,2403.6174,54.455013,-251.2894,57.147575,3845.35400390625
302,-2829.266,746.3334,-826.81683,786.8135,118.05786,-212.61191,3416.0517578125
303,-3315.2515,1585.2816,-2056.9783,660.073,-6.335234,138.74113,4560.3974609375
304,-2092.3225,-738.2547,36.975018,1367.2084,-37.90594,118.375336,3022.96533203125
305,-404.49832,623.52966,-1875.577,1454.4312,375.07605,-24.902443,3391.64282226563
306,-965.95,1786.0662,951.44104,-806.7969,-144.51802,-764.34717,3121.11987304688
307,93.36271,2968.2134,-2250.527,-3.0705547,-347.67432,1.9757643,4567.23046875
308,-753.98145,1864.002,1307.7446,-436.55023,51.45431,-227.41063,2538.07080078125
309,-1567.2817,1869.8628,-516.2716,-206.68399,-74.472725,90.691505,3078.24291992188
310,-1802.3672,2081.0664,245.22583,-32.328064,140.39366,-54.59431,3375.3828125
311,-9702.383,-5490.721,-1493.8163,-825.98395,220.75755,2843.4614,8774.720703125
312,-1127.5627,-640.98517,-2191.609,-1384.5337,139.73259,-1189.9458,3456.0068359375
313,-1798.4288,-1454.2566,-137.79211,1720.4775,-287.5385,67.76567,3383.27734375
314,1440.2565,-6275.2314,-3087.7769,836.7191,117.19546,1065.277,7116.30517578125
315,1805.2234,-1528.2853,5456.246,441.66486,34.229965,-947.0163,6316.02734375
316,1394.0292,-2640.0713,168.086,-1003.6863,623.13104,477.09036,4207.2802734375
317,3316.7117,-3640.4329,2093.6396,-1169.1368,-138.64186,136.16258,6752.97021484375
318,-1217.1835,-3853.1738,-1571.1284,-895.3037,-105.39202,-1183.4707,3574.99145507813
319,1872.3229,-2139.3418,2842.285,17.052313,-818.4763,-414.64325,4842.70703125
320,5834.089,-8294.404,1957.9635,1197.7057,-3113.147,1011.2989,14011.48046875
321,2574.8694,-10036.062,-1117.3557,1393.2843,968.43915,2272.1846,12256.8974609375
322,2586.6062,-7529.0903,2749.619,601.38104,-3582.4648,-283.17493,11992.9384765625
323,-7304.82,-74.19069,1621.0447,6708.327,1655.3337,1012.65533,14619.0009765625
324,-4082.6143,1418.1488,-1388.7418,4409.2744,5682.5537,1873.1561,13726.70703125
325,-4622.26,2860.2974,1893.9084,-260.35614,366.88016,824.76575,7234.59619140625
326,1505.2695,292.86005,-1.8868089,1576.6707,339.47873,227.38948,3142.083984375
327,1487.2059,256.0308,284.52615,579.602,104.038864,25.20087,1588.62023925781
328,1178.5121,-396.5314,-425.9243,286.05807,-39.446453,120.550064,1679.78381347656
329,1179.3871,-909.10254,862.7124,533.514,97.3234,221.03749,2197.63500976563
330,1623.0535,1219.7311,246.80312,-51.69366,266.57745,412.01028,1494.03015136719
331,901.1107,-892.2601,-480.02133,-726.0113,65.23464,-398.2827,2171.80883789063
332,1935.0615,-162.9527,1675.5656,187.70161,355.7489,-26.492716,2100.48779296875
333,1984.48,-189.09639,-707.9346,-340.88284,168.48087,341.1306,2627.59057617188
334,1104.4369,-51.334427,69.74653,-1094.02,298.85886,-252.67508,2293.61059570313
335,-323.02203,2221.7317,651.2686,-489.716,432.18762,395.03333,2587.21118164063
336,-1232.2391,1452.4264,-191.86679,-118.35408,-289.47192,-352.37064,2482.46899414063
337,-1830.7351,1359.5696,118.105415,-140.35815,32.413033,32.32632,2797.14428710938
338,-1449.9381,-1924.3365,-515.8513,1107.4335,-171.5607,405.09946,2408.43188476563
339,-1212.1216,-286.102,-5278.82,-396.93842,-1284.5908,-1199.7594,5559.0341796875
340,-97.157776,1734.5808,404.95615,-252.79321,659.35913,470.46436,2201.7333984375
341,-2673.7524,483.19977,-2367.343,2480.8425,-173.70532,331.08087,5289.23583984375
342,1552.6503,616.03064,4196.1484,1098.6407,-565.25116,234.78162,3884.09838867188
343,-133.79811,1720.3002,-1073.4401,1203.0265,137.20306,-342.05548,3288.17504882813
344,4591.284,-3411.0532,1691.9863,-3455.3909,-261.7692,348.16278,9253.6787109375
345,1013.1895,-829.4705,-213.48187,766.3142,51.8155,-180.24559,2122.97265625
346,-1492.7383,1828.8785,91.53646,138.86856,97.40038,-29.607992,2893.03564453125
347,64.08686,1147.5845,1468.8298,812.2477,329.64417,225.93355,2020.79357910156
348,824.9751,1691.7023,2048.231,819.43475,479.9054,-16.749441,1973.20324707031
349,-13299.223,-10899.679,1728.0408,736.3455,12.830315,-913.67065,14129.734375
350,-140.86124,49.014164,-1106.2592,1068.4377,-37.92268,-89.08062,2145.72827148438
351,-282.77676,812.4464,-86.74873,1523.8799,-414.36203,231.42615,2943.74560546875
352,1072.8838,267.99677,-922.54565,224.62862,487.3225,-672.14886,2289.68603515625
353,-4.263198,-67.33426,1524.1088,579.19025,104.56589,78.621315,1869.23107910156
354,2184.077,1666.7126,644.3645,-342.87192,-10.323045,65.83951,1485.865234375
355,-451.73715,-2358.991,-859.8421,-548.72156,-15.690966,-18.189554,1982.63061523438
356,722.13354,-1178.1652,84.13243,-360.76688,64.04396,-117.24926,1802.71826171875
357,-1186.8018,1361.1953,243.18175,-357.3621,43.19803,5.83676,2298.34106445313
358,-1834.6687,1731.8475,-2174.1475,-904.1886,-107.39383,-473.73944,4148.083984375
359,97.102875,-744.5935,-288.21082,346.6004,-75.74883,53.464993,958.533752441406
360,-367.08334,-2604.4446,-1874.3961,-2488.004,153.09293,1119.7072,5129.07470703125
361,2660.3838,-2039.5176,1953.2134,-167.31923,-682.2927,-206.07448,4568.75146484375
362,1069.1572,-2273.76,1142.0659,4.34535,-372.2445,-88.60528,3444.33520507813
363,-336.44382,-2603.6277,-2959.6064,474.09927,227.3325,-11.3368635,2627.4794921875
364,-44.676155,279.50824,1390.6057,423.59833,-39.553703,7.0865345,1497.65966796875
365,-730.27795,220.12541,350.4454,-29.384514,-29.692701,-45.399616,1027.38745117188
366,-1445.0997,160.03711,1.9949559,150.91035,82.00749,-17.119545,1561.13391113281
367,-1960.395,-1172.451,116.08511,593.82465,-50.216415,41.70278,2089.7705078125
368,-1610.8323,-657.4915,-85.26233,-309.84827,-33.471245,92.68069,1448.78649902344
369,-402.6666,713.1017,-36.021866,-386.08942,-40.911335,12.000515,1192.86413574219
370,-486.55185,-82.61776,279.8626,947.79224,-33.049065,16.274548,1771.99743652344
371,-916.5654,-77.21867,-1162.941,446.5878,-52.99224,53.07157,1259.83923339844
372,916.09467,1508.011,-344.753,96.54946,70.76218,-67.66548,1656.24304199219
373,293.68143,-1595.1454,830.535,-730.396,42.9565,-58.716434,2546.80493164063
374,356.9583,-925.4327,-598.3885,128.6841,59.49175,18.47864,1180.42663574219
375,911.2349,-966.0965,-313.97113,619.3508,68.71955,43.824615,1973.85424804688
376,288.66336,-825.40424,365.59863,668.1576,-31.513426,22.01266,1636.00537109375
377,1311.604,-904.5792,1323.5153,252.48964,43.61991,-66.78759,2268.99755859375
378,-469.09732,-34.283077,885.46857,1090.1045,-13.806058,-37.465767,2237.1171875
379,-644.9485,-855.35864,39.5014,820.8856,42.40914,-33.697033,1639.24401855469
380,-876.3623,48.76603,-219.62598,1108.9034,25.503078,52.979618,2092.59936523438
381,-879.6868,2074.045,808.11304,-1357.6583,117.63507,364.79077,3543.7734375
382,-1880.2258,2677.562,2217.6917,-2950.0337,93.99385,546.09564,6776.29541015625
383,-2510.549,-4900.845,-3194.0657,-1695.8503,31.811495,-151.33553,3639.556640625
384,-1016.5715,2404.964,3501.145,-3142.6223,213.63159,-1348.6344,7202.8271484375
385,-560.96173,-1053.0698,289.7678,-892.94464,-75.45081,52.713776,1949.87866210938
386,308.47983,-316.10236,1499.8389,162.42477,29.91397,53.14747,1625.99047851563
387,1144.2063,-2137.7993,-3305.9504,-702.79846,841.9745,2.6988087,4424.76904296875
388,925.7477,-652.17114,543.58875,-427.30084,84.11119,241.08173,1666.19348144531
389,267.38358,-1997.1642,-2461.4717,243.34964,399.7951,109.95465,2662.44995117188
390,-1163.4213,2457.2012,1746.1174,-683.6742,68.84395,303.38223,3568.27026367188
391,-1358.4508,-811.527,1230.475,8.4771,-61.446465,111.56959,2373.73193359375
392,-82.05378,431.81406,2066.062,1041.1205,13.715302,191.15189,2671.43969726563
393,894.52893,-739.50085,608.81476,-95.39623,-105.025604,-65.995224,1535.6689453125
394,593.17175,-1082.5017,1008.45276,196.65543,91.61936,9.455874,1953.88989257813
395,852.0143,-905.18915,333.11508,281.27924,-70.85557,40.83116,1643.96655273438
396,-878.15784,1102.0771,-62.150806,147.16838,-25.685934,29.229712,1743.79772949219
397,-188.35994,104.04034,-197.98543,492.45456,4.4914136,34.996925,905.358764648438
398,-889.9416,758.2707,220.23097,525.6513,-21.29621,-33.114532,1718.39025878906
399,960.37,-11.570533,1048.717,234.35065,77.24682,-1.5563858,1104.99365234375
400,439.7411,-484.5494,283.10263,67.567215,17.612093,13.925174,865.608093261719
401,120.23871,352.93915,637.97064,-10.810085,19.516466,6.277849,450.922271728516
402,3799.6072,-1583.9827,4311.8613,-2536.8813,-1399.1943,-666.3776,7649.5703125
403,-194.71979,268.9999,-1255.6343,-544.28577,-25.154173,46.585506,1652.17810058594
404,-5887.14,-5140.6865,-3547.1348,-1545.0745,1013.338,1019.3987,4200.70947265625
405,-645.3501,-2213.0432,-1574.9641,-414.48993,41.20211,-6.868692,1544.38806152344
406,-162.9143,-386.88177,-272.3958,275.97635,1.4239739,-183.59264,606.004150390625
407,289.84634,-707.86584,-599.7838,-626.2671,167.10632,73.24759,1475.05163574219
408,82.08006,-1735.2947,-63.605476,-215.37181,-64.24194,2.5386233,1791.888671875
409,-241.92474,72.55818,921.2513,-933.0784,-212.6177,58.549034,1960.58361816406
410,-297.94495,-705.5609,1316.3018,471.96686,-160.17743,-55.425247,2045.57580566406
411,-12.394774,-893.5641,-1297.2935,629.6261,-68.08795,14.278325,1580.82800292969
412,323.97174,-851.4843,-122.737175,852.09534,81.86561,-74.14858,1808.5791015625
413,-889.9574,-13.19118,-119.75631,-688.74915,4.5147305,-66.66629,1457.10778808594
414,-319.12988,-50.95061,665.33344,184.80066,49.791508,-167.09439,985.255554199219
415,-5780.442,-4742.4907,-2417.6572,2062.434,799.86945,-797.85736,5048.29296875
416,41.415558,408.93652,664.78864,-19.004232,89.409836,95.43743,589.027770996094
417,-1036.0944,-297.22495,-216.81706,-639.8864,-161.85437,-55.614204,1388.53796386719
418,228.63834,388.13162,209.51643,-794.91815,0.51890475,362.53873,1522.7744140625
419,-288.72485,-543.96246,-974.97186,777.90295,144.92113,-8.812084,1496.51708984375
420,-509.914,516.40643,-92.34578,100.42503,34.556595,-45.554558,916.079528808594
421,-920.26044,-599.91766,-1919.4592,-21.525768,7.552652,-203.42635,1243.70886230469
422,-1978.773,176.97089,210.16708,306.85034,-11.767758,48.071976,2238.23950195313
423,-162.72954,-713.07245,-2724.466,173.89001,-40.10306,-236.22202,2391.333984375
424,-298.3035,-846.30444,-992.14374,1045.5116,-132.18307,-102.95735,1940.35961914063
425,-943.6039,610.7413,-607.7912,-623.1695,-10.45581,-227.65573,1824.17663574219
426,-459.36508,-438.91623,-279.64944,109.20136,106.228935,-22.459843,316.516662597656
427,195.16429,348.91937,-430.07205,-392.4769,-120.22015,-130.11537,1032.93640136719
428,970.74646,-443.75272,119.33687,111.216515,-44.629784,-124.49388,1269.23876953125
429,1108.9038,-337.62024,1154.9756,-388.95804,2.010606,1.8138536,1617.12255859375
430,118.06114,-1289.4739,-1126.7246,435.90387,-97.02535,-17.151964,1541.98828125
431,-86.08331,-379.1005,-455.9051,-206.27545,27.368986,-27.757809,496.457885742188
432,2348.463,-1460.0741,198.45242,-897.6314,16.935768,-61.99112,3656.32592773438
433,-79.89507,-1309.4143,-1021.8655,-151.34729,-101.34342,95.632904,1169.5390625
434,-5.0873485,-136.4816,474.81006,-312.07498,68.30018,4.4736557,785.397338867188
435,-1390.4205,150.94794,362.17722,-424.80917,-16.108545,4.764419,1813.35375976563
436,421.93704,-303.17657,1227.5961,405.0026,18.96758,111.00585,1513.00964355469
437,-540.7808,-1946.2943,-1748.7471,-1195.7582,149.30067,109.9983,2475.787109375
438,2238.3694,-1503.4681,3214.3765,-1276.7831,444.47183,412.52066,4959.80908203125
439,-956.43427,-2104.7659,14.421843,-310.18027,-18.195667,31.111782,1915.36535644531
440,-88.88163,203.84935,-1.7537408,-300.5011,61.336224,30.278496,593.899963378906
441,-2679.0234,-1870.7394,-404.7958,-659.81024,286.13,251.64815,2393.50219726563
442,-745.9474,-193.53938,-130.54384,932.7151,63.902477,24.827763,1722.7578125
443,194.91074,-64.49674,1030.1252,402.83063,-160.98631,20.956612,1243.95385742188
444,-1204.3885,-1280.5502,-1288.3851,643.791,32.335365,-141.31732,1145.82189941406
445,6.6093435,518.6157,805.22437,196.54651,-141.51364,33.082973,818.714721679688
446,-235.22429,-289.98157,-913.98975,-1591.7675,-179.9873,-596.3789,3031.81713867188
447,506.62357,548.2604,2455.5596,-248.51947,87.670425,1.4994594,1981.73876953125
448,-1737.058,-1513.0343,-1346.4374,-81.92941,51.24889,-1.0146036,378.526763916016
449,-171.20302,-364.6702,-1084.9656,-134.79082,114.1224,-53.793247,893.234069824219
450,-45.320305,48.712982,-643.6727,101.73377,-101.88921,-37.87192,699.735168457031
451,-419.19537,-628.47974,-421.2632,-280.9635,33.097027,55.508713,541.038635253906
452,-67.49644,-433.7186,-3157.7214,-217.43466,-59.194828,0.72403526,2950.29614257813
453,-152.9437,158.25537,-353.2789,-600.0067,50.699596,51.282833,1137.9580078125
454,28.807737,-472.1906,755.19635,-442.11816,-21.774271,-29.462008,1316.43115234375
455,303.6612,-535.5942,1565.9749,-761.61945,-312.0274,-180.44522,2342.4658203125
456,128.09026,354.62595,1474.7069,-2203.3433,-162.59898,-540.4698,4132.72802734375
457,741.5846,-947.088,-133.70238,20.414347,85.21793,50.904976,1473.2548828125
458,336.42847,-166.10945,389.7057,-566.04913,-106.36711,44.28733,1132.7919921875
459,-126.47821,775.5916,21.324686,-402.75732,11.399612,-166.81068,1128.16430664063
460,-1421.699,-122.22082,-2222.946,406.3248,-79.99389,40.96748,1972.65686035156
461,-489.19437,216.80074,251.25626,10.302693,52.41053,4.4210186,729.766662597656
462,246.27863,-610.2781,5.7502604,-161.02733,-113.22333,42.673042,840.968505859375
463,-1922.048,-904.5628,-1546.1138,1229.2661,849.7653,-306.0903,2788.3251953125
464,-784.8144,-265.10156,394.72433,1386.776,115.267105,57.254673,2620.59692382813
465,-2084.0403,-1912.4523,1384.778,631.4692,8.798579,63.798603,3560.2861328125
466,-257.23953,-176.14452,-409.14236,473.77762,68.890335,-31.84786,855.947204589844
467,684.0673,4040.2012,826.7944,369.1937,297.8007,-59.54624,3389.77856445313
468,451.59924,-233.44037,471.21237,-258.8924,98.983665,-20.608988,845.48388671875
469,2807.4602,-420.2529,2750.3723,1404.1525,-1143.3616,277.53098,4506.10205078125
470,-70.098915,-1238.2242,-246.37233,-239.30331,31.129827,124.175476,1187.70520019531
471,-957.1728,3218.1575,3080.4062,-66.29349,-1034.8766,893.4001,4743.18310546875
472,-356.4547,471.62616,293.45447,-457.0933,35.621964,-252.42438,1179.69750976563
473,1921.3049,2527.5542,350.53326,885.2105,-155.79677,-85.93439,2496.57885742188
474,1460.4946,-162.94835,543.2144,-775.5432,-135.15343,201.17253,1992.09191894531
475,1616.8005,-474.0902,534.8744,-17.94201,19.653994,185.0535,1839.85278320313
476,-1449.7231,-654.0363,-574.17755,184.9244,-131.03209,30.95224,927.367736816406
477,-2355.6025,-1810.6687,438.6218,741.9467,-76.19427,168.96057,2887.29809570313
478,-463.75516,-604.4451,-1262.7562,-510.8205,32.562687,40.95948,1156.20568847656
479,-2547.4285,-2113.224,-205.21649,215.80772,46.062973,-83.17837,2196.43627929688
480,-505.0037,-19.478006,-232.88445,-89.34734,36.806377,146.76596,519.90087890625
481,318.88242,-411.8231,730.14355,206.85336,-415.6713,5.674153,1284.67370605469
482,-3829.2446,-3085.8264,-812.1362,-392.9061,233.92398,2.3686938,2835.4794921875
483,-3025.3335,-2377.4392,-419.8039,-407.82352,-128.00473,85.2546,2467.86645507813
484,112.2023,-425.78992,-378.6975,683.91797,-85.47096,-38.175777,1302.2431640625
485,1194.1697,-1480.5225,519.06,99.451614,-10.040146,-30.459887,2415.94653320313
486,-118.52205,-1077.4109,86.82102,-208.30775,120.867355,193.3613,1201.95825195313
487,-430.45404,-221.92375,569.6586,327.674,-44.348698,191.73668,1128.47534179688
488,-319.19595,-660.4631,-942.20825,-442.6724,148.16,44.56894,975.542846679688
489,-312.7435,-286.34048,-565.9759,117.84713,113.85357,-97.94702,425.255767822266
490,-1219.5287,-646.6365,-206.6056,677.4377,-310.31345,65.27872,1565.99987792969
491,-102.563194,-501.56232,428.2553,241.29262,436.43686,-114.22097,1199.16711425781
492,991.29205,1389.6848,-912.0583,480.4008,27.078846,-257.3037,2330.8603515625
493,-1085.3539,258.59348,-3412.9482,-57.211765,68.32992,591.32904,3380.07275390625
494,-711.56116,1013.83026,182.01814,1050.2928,199.80244,-143.6122,2392.62768554688
495,-2334.5403,-2305.3948,-410.25647,931.99146,-96.1939,-75.53098,2509.64770507813
496,-1051.6213,885.44354,129.56358,40.402367,-391.13635,-18.45714,1823.25756835938
497,135.70807,-329.0912,-88.27709,373.98663,-41.680973,98.00795,784.682189941406
498,-2619.2065,727.25525,284.5271,434.85733,336.8023,-95.58892,3293.67041015625
499,-398.2688,-1358.5653,-315.81613,-540.5462,149.21141,307.83707,1495.25939941406
500,140.18416,-663.71985,1152.23,-730.79004,-46.717777,-115.366554,2032.91027832031
501,-357.93524,-2064.7185,20.639854,-388.7783,23.68588,-48.315163,2040.76110839844
502,-949.34937,2709.4207,1006.6255,942.8335,48.06466,203.41832,3585.22583007813
503,224.86522,1677.6177,138.6773,279.73712,-69.35503,53.262867,1581.400390625
504,276.5052,890.36694,728.2595,-744.4275,26.126354,-83.32326,1410.31433105469
505,-1576.452,836.47687,310.30945,762.0947,1.0977226,110.1304,2570.6474609375
506,309.0463,2359.644,-481.02515,-394.99893,-47.836323,49.606186,2632.79370117188
507,-1591.0693,615.2342,-46.618988,1036.7611,-54.198833,13.984945,2660.75122070313
508,-638.3221,2245.7327,-741.7759,-487.735,66.838196,-74.868454,3061.16235351563
509,347.225,-113.49696,892.25494,-162.72575,-23.41703,-11.0726385,917.541015625
510,-1948.2917,-2086.9636,-637.55707,118.95842,-208.79971,-64.916756,1450.8291015625
511,-453.8736,-711.1599,-2371.9373,-378.52826,430.98364,-381.44644,2162.23706054688
512,-570.2835,-1165.2607,-561.51953,699.3643,79.1306,-51.68577,1361.40356445313
513,-1722.1628,50.45141,-913.30615,-622.5457,52.290264,-47.75023,1881.58239746094
514,-818.12384,1064.5549,784.6957,554.07367,95.03786,109.89202,2019.95886230469
515,-1113.5906,-811.9408,-1922.0804,-892.512,477.39526,-69.97288,2019.07641601563
516,1158.3179,-1219.2318,-44.345913,-636.87103,248.56952,-105.09408,2382.23828125
517,1303.6335,-78.64902,-445.90732,-87.90044,-306.7996,146.67534,1709.77685546875
518,-3282.591,-1339.5253,1336.8168,329.55972,-350.2387,-102.62419,4106.58544921875
519,-2532.1543,-2228.772,-878.43506,435.77814,133.0135,10.945247,1717.05090332031
520,-1315.6613,844.2949,-58.811844,-176.19563,111.86423,-151.3965,1931.26379394531
521,-548.0207,-169.3896,498.61307,369.62994,-36.01866,-23.035984,1121.5517578125
522,-188.18256,-151.39743,1093.63,332.33728,46.260044,22.505877,1391.59216308594
523,230.74666,-590.7547,661.0927,1434.7179,-35.751526,42.689068,2719.9521484375
524,-1476.732,-837.29675,-441.69577,1294.9875,-148.05147,4.7843657,2432.10668945313
525,-1390.8676,-2301.6086,-456.6073,117.41522,-64.4564,-152.96146,1636.20764160156
526,-1824.1299,-1675.0555,-817.5682,311.39825,-37.014256,-85.85369,1096.5703125
527,36.492462,1325.4132,-765.13043,-129.9001,-96.21908,-162.57962,1869.44836425781
528,-971.4627,1462.813,89.92811,-147.92543,68.18678,3.8430474,2132.64379882813
529,-1232.31,5347.5117,211.277,1001.5493,-8.701742,306.35306,6258.63720703125
530,-934.953,2523.6355,952.5238,1702.4448,-42.960052,201.63162,4221.23828125
531,884.3464,807.082,770.9543,1037.5193,-152.25229,-57.17555,1821.74487304688
532,1722.1295,-712.06134,217.29515,994.763,223.29875,33.743465,2765.57788085938
533,1039.3875,4581.367,701.8981,-2664.4663,-6.6867123,296.4731,5951.20703125
534,-1765.0334,44.020752,-650.0533,2161.8247,91.70522,4.6023283,4067.49926757813
535,-2463.7278,-1157.137,-1244.7847,2277.9473,-84.33217,115.148834,4150.7333984375
536,674.29083,368.28094,1568.6732,-466.1925,-132.71642,5.094582,1368.27514648438
537,4409.4224,209.64491,-1091.3553,688.2652,180.43416,144.2905,5135.7470703125
538,-1199.6356,-507.33072,-170.7467,-1082.6273,-324.959,-32.76547,2159.13305664063
539,3215.5508,-21.920105,291.21597,292.48138,-144.44327,-59.167686,3145.66870117188
540,4551.182,-1522.1798,634.18066,-2179.8652,-169.91045,25.688923,6540.89306640625
541,2811.671,-1239.9407,784.75476,-2057.016,107.42506,-120.0616,5008.3408203125
542,3609.8748,951.2351,149.75694,-279.93207,-102.6743,-29.610249,3179.7666015625
543,3433.1338,1212.6016,-254.99864,56.176598,-187.5473,93.94861,3238.04516601563
544,-1140.8445,-604.95605,-703.5959,-1169.5242,258.03848,39.910774,2133.52685546875
545,1483.221,1960.1073,400.73288,-74.05626,99.76598,112.63557,1414.14208984375
546,-2421.1292,-3284.8064,-641.06793,-406.11484,-73.40286,-484.06616,2581.833984375
547,1407.0021,2593.674,453.44302,58.563717,-175.40295,417.13803,2018.32287597656
548,2102.4087,-229.0669,106.03606,17.772314,274.54868,-69.22041,2237.90991210938
549,2276.1738,338.76303,-190.92018,-670.94147,-250.972,195.8535,2591.30517578125
550,1728.624,1809.2458,95.02799,-152.82935,6.2414002,-34.323326,1697.22155761719
551,2511.4749,1837.3712,684.4125,-339.91028,45.95094,-61.570038,1710.34130859375
552,-1645.5594,-4201.7666,72.935585,-70.61547,221.89241,-359.2238,3798.689453125
553,-2557.7412,-4827.1177,-633.3273,-219.57756,-16.454758,148.98282,3665.06494140625
554,1684.2743,-1943.3337,546.5728,-1.0459132,-256.77658,47.421806,3245.19995117188
555,954.44135,-1469.9341,-918.19904,102.39035,39.85369,-153.34062,2225.11840820313
556,1926.8617,569.8005,-261.73853,743.0408,-63.071796,-50.7593,2310.30615234375
557,-1278.486,2120.426,-389.69055,895.7954,160.75787,58.973095,3437.57666015625
558,443.8228,-1349.2845,-517.6717,-53.39366,50.863167,-104.13563,1569.86926269531
559,2638.6895,-1291.401,-330.0612,114.51618,3.402205,39.90394,3554.68530273438
560,332.8022,-586.2683,-265.11057,-74.83228,44.565937,-39.651253,824.706604003906
561,-844.3934,1431.0918,-1170.3076,2375.5808,349.50272,-594.11224,4937.73046875
562,802.29974,2595.9019,74.75383,1116.903,-149.00932,333.8659,3032.27416992188
563,511.24377,5386.232,296.0737,-2402.0674,23.341625,-107.51307,6496.68017578125
564,1549.1288,1151.1024,591.56744,-1405.4016,-190.83955,37.281654,2594.82250976563
565,-791.4253,-292.78796,-652.5808,349.6115,8.666113,-35.977295,754.636962890625
566,222.4259,-609.27344,-239.30885,-12.037324,10.883632,-157.1958,771.893737792969
567,-113.03813,-1239.084,252.15315,166.59714,37.76708,-138.59987,1399.19226074219
568,-183.72133,-468.6274,598.89014,-617.53784,-195.01192,84.016136,1481.87280273438
569,-1132.1743,-1000.8103,801.7745,1134.9225,-14.146684,-53.885994,2716.03051757813
570,553.425,-752.30774,354.07648,-271.10468,-80.5027,-47.676796,1315.7265625
571,607.4121,-77.31594,3263.083,-1192.3275,125.51631,98.690674,3698.82006835938
572,477.00406,-566.4832,-1284.21,-452.94336,-103.279526,-129.23158,1746.5712890625
