Element Label,S11,S22,S33,S12,S13,S23,Mises
1,1842.2808,516.51807,-1581.244,1972.1523,1351.9557,529.7592,5189.68505859375
2,4639.4395,4732.445,2878.5955,-1687.6078,-2779.1265,-51.76728,5915.71826171875
3,5022.336,3554.8674,-5807.8086,428.44028,4309.8564,2583.6436,13410.947265625
4,8883.755,7920.113,10343.112,772.58655,-7078.0747,-502.81598,12542.3759765625
5,10990.148,-2091.1753,5758.8906,-6417.592,5495.6484,-3155.5466,19341.421875
6,-3709.241,794.4049,-802.448,-7351.8667,376.85275,1130.6368,13492.6650390625
7,-2849.2964,12335.094,-4710.2466,-6295.324,-4252.643,-3352.0017,21659.69140625
8,8688.367,5531.8525,10737.784,-5515.023,1606.9686,5085.18,14042.912109375
9,-2649.217,-3703.8125,-10300.937,-4490.256,6445.9473,-9992.288,23157.4375
10,-10170.409,-18498.357,-29158.55,-9702.15,-7186.543,9856.864,31631.94140625
11,-14256.657,-5534.35,-7571.86,2430.3096,3282.6724,-1838.3466,11074.4697265625
12,11094.941,9882.4,7950.7466,2531.046,-6960.958,-1704.329,13447.7265625
13,-10721.169,13304.625,1874.5055,-1078.6875,8741.178,897.7264,25853.466796875
14,-13497.623,3600.5059,-20922.193,-6238.279,-9110.193,4523.6094,30025.669921875
15,69014.76,67540.945,46960.953,-9271.569,11151.136,-9698.941,37002.39453125
16,-3249.1226,-3153.5908,-21983.396,-2226.5293,9532.043,-5158.5337,26833.841796875
17,-13551.776,-6500.911,-4378.549,12754.07,4355.192,-4410.101,25931.3046875
18,-8527.439,20674.508,4042.7324,6215.5356,-1120.1752,-940.36,27676.80078125
19,253207.19,253964.97,254016.14,-616.74084,17.402035,-865.24286,2000.89477539063
20,-7916.8403,18884.082,-7941.698,-14974.755,3213.6335,-4547.2847,38531.828125
21,-388.1941,2420.6614,4674.102,7116.527,-4552.595,8162.8623,20816.037109375
22,-8514.883,-9772.67,-12746.159,1265.6471,-7423.142,-1642.7811,13869.916015625
23,4588.174,-907.92676,-13281.114,-949.0459,9206.636,-5078.863,24200.830078125
24,3462.8254,14467.32,688.2329,-6995.4595,-8912.796,-1975.0126,23582.947265625
25,12160.316,12435.309,26.123535,-5091.043,-12237.077,-1609.088,26180.392578125
26,14952.065,11404.47,9035.433,-11776.147,903.2328,-9888.695,27174.279296875
27,1519.1537,1569.6835,-4198.0405,-6073.3438,-6543.38,-5426.9927,18985.216796875
28,9982.636,9578.102,6587.7646,-8731.434,-13089.366,10408.325,32833.265625
29,19991.78,1509.6431,-2951.1938,-1772.1255,3654.5771,-559.2136,22234.240234375
30,1637.6787,3902.4856,7045.11,-5542.2256,-2006.1912,431.3327,11265.177734375
31,-3878.5007,2706.0417,-6490.668,-1539.7738,-6605.3447,6919.4805,18682.119140625
32,-1441.5979,-7339.377,-1703.1714,-880.5292,329.27817,-2029.2682,6950.8681640625
33,2305.8257,-2066.755,493.2167,-642.8339,1688.3668,-570.36285,5024.6025390625
34,-748.0093,-7861.629,-2574.8735,1843.8193,-3341.1165,-5716.1206,13515.017578125
35,7269.544,2623.3975,1782.0688,-780.63715,-4617.2246,6177.3154,14368.91015625
36,6869.804,4507.3696,-3421.23,4493.9917,1338.7961,5106.2974,15210.6015625
37,6435.046,-4575.6104,406.90152,273.20218,-3226.6052,2869.4092,12139.0546875
38,3303.2346,-292.13208,365.4485,9184.6045,-10396.992,-3730.6653,25102.0234375
39,7495.94,-3947.9546,-5930.6465,-3282.2085,4982.1626,-3880.131,17593.5859375
40,7588.582,-5617.227,-10216.239,2628.8093,780.91144,-12937.029,27945.294921875
41,7235.666,1778.3464,3731.634,3913.2952,-473.95862,1627.3237,8803.2978515625
42,10974.88,-2414.955,615.749,4458.1406,-3267.6438,1994.5043,15858.244140625
43,-306814.72,-306340.66,-306792.0,-552.29865,475.8027,-853.4865,1998.51574707031
44,150791.3,150818.62,152691.36,21.075544,-80.241005,-376.05112,2000.98742675781
45,257994.55,258038.55,259900.81,-42.542088,84.87674,-357.2788,1990.45092773438
46,-1032699.9,-1033475.8,-1032066.06,306.2885,-858.20703,-73.86592,2000.73999023438
47,-31894.525,2378.024,8747.886,2279.5498,2390.186,849.2493,38319.5234375
48,-52137.152,-64251.38,-53319.406,4952.168,6206.1885,-7235.604,21909.2265625
49,132518.08,125763.695,133771.95,367.20978,12397.921,-8378.517,26977.61328125
50,-6064.6626,14141.491,-8327.485,-8028.529,-15240.887,8485.878,39564.984375
51,16007.763,-6888.8096,5048.2373,-11114.056,5775.295,-34.88486,29394.916015625
52,6540.4146,15001.013,-8428.946,-18788.871,6020.0474,-1039.8909,39916.73046875
53,11321.525,7288.936,6345.267,-6830.317,10907.505,-4416.6577,24007.478515625
54,14638.697,8638.683,-6176.5225,-8568.997,-1771.2374,-6722.4097,26639.244140625
55,23033.691,11463.024,21982.922,-7273.0815,-99.621704,11065.876,25473.712890625
56,4097.8027,15282.248,3267.8633,-1754.3503,-4157.237,-612.76843,14045.3037109375
57,5138.1035,23965.508,9901.662,-6303.431,3446.0203,4832.4414,22635.361328125
58,12308.974,9911.735,-4142.646,-1731.4156,7465.0645,5879.128,22733.927734375
59,5417.403,3131.597,-3166.9019,-196.13872,-983.25366,-5109.3604,11858.56640625
60,-7298.675,-1334.7144,-4832.7515,3282.7595,-3871.2585,-3489.7776,11864.5703125
61,-6909.5933,-3282.1123,9568.82,4042.3933,-3779.3179,416.19064,17813.3046875
62,-13176.046,-4138.2754,-21008.191,9647.8,-5588.5693,-591.2421,24244.46484375
63,-849.8679,8.424072,-9371.66,-6234.0107,-553.13385,3532.8245,15349.9462890625
64,13017.523,-907.71045,-4931.459,1791.6825,-5544.785,12330.48,28707.50390625
65,-6985.96,1814.5828,10410.88,7870.4204,122.087105,2611.462,20816.63671875
66,1886.2,-180.44086,-4827.185,7691.754,-5528.9907,4373.756,19027.71875
67,-9376.847,-4562.933,11437.293,9350.49,-361.8407,6865.5674,27573.546875
68,-11414.671,4155.127,-11125.46,-2823.5544,-2084.3066,-9634.088,23524.3828125
69,-7226.02,14053.65,-5234.7236,3735.3735,2846.7825,3907.6753,22943.33984375
70,1722.2505,-9977.284,-14784.092,1893.2865,-2315.108,5185.253,17992.087890625
71,7727.756,572.42505,-17736.393,12395.127,-3657.1414,4208.6846,32735.26953125
72,7159.6343,3563.8608,5273.7637,21497.902,6895.6206,3809.874,39779.12109375
73,13955.598,13639.824,25058.582,5213.6367,3593.5557,-1192.242,15856.6474609375
74,8615.643,-288.43115,34041.285,-3527.2478,-8785.128,-6887.651,36923.1171875
75,8277.701,-13468.082,14720.015,3367.1152,-6512.7173,5784.804,30267.58203125
76,-3985.7144,-4953.347,-2842.7336,-690.68317,1480.3539,10002.0205,17648.666015625
77,-46605.758,-15485.031,-22420.607,4090.6914,261.71017,-7576.456,31990.255859375
78,1563.3485,26899.488,35298.547,-2443.623,-1506.884,3927.1526,31563.546875
79,-13991.001,4470.254,26543.973,3918.8054,-3556.9124,3083.815,36716.90625
80,382.55676,5994.138,8075.613,3438.633,1424.6798,4112.931,11824.2578125
81,-5207.137,-10374.353,-5417.646,1508.2277,3317.9685,-5605.0693,12639.544921875
82,1122.9089,-2526.0608,-1860.1462,2137.77,-1042.7932,-2220.8506,6564.86767578125
83,5022.523,-6761.279,-4921.2515,10570.906,6815.643,-5365.6426,26105.98828125
84,2019.023,6303.831,-830.27905,1693.9011,391.99396,-2049.1287,7768.68603515625
85,5013.6914,-3291.042,12934.133,-4224.93,-3850.399,1450.3899,17372.876953125
86,-8692.278,-5673.852,-12386.266,-3849.9824,579.0489,8399.976,17060.427734375
87,-8155.3955,-5615.6826,-12599.4375,-3831.3523,2207.0115,1302.9697,10061.3076171875
88,-4078.7117,-3164.916,9254.345,-2043.6266,359.98267,969.8342,13496.7197265625
89,-6713.7607,-15956.771,13761.946,-1987.1213,2592.3352,-4203.022,27909.634765625
90,2737.5825,-8353.479,-1393.8875,5340.2705,9217.918,2123.1113,21171.833984375
91,-24309.828,5152.1064,3056.6143,4821.5264,3890.672,1422.8846,30526.818359375
92,-9472.154,862.2134,-4011.5093,4269.247,-18.263433,-9157.668,19658.447265625
93,-3503.365,-454.15503,7905.758,11808.525,-11176.565,-11759.54,36229.9296875
94,-6920.2773,9149.018,-3294.9946,10324.066,-7457.1436,1997.8931,26677.142578125
95,7088.975,-3422.4678,-290.06335,3578.7024,8394.224,-2755.5073,18972.74609375
96,8322.91,4103.187,433.021,6547.1826,-3180.1262,837.67993,14415.4365234375
97,2284.4402,-1526.5137,677.10706,-391.51355,-5583.628,-1212.3724,10458.5615234375
98,5319.7314,-7622.032,2054.5327,-1269.8232,6048.4883,271.09854,15833.62890625
99,-402.51788,-7109.123,3706.6797,-3012.511,-1909.2214,-104.949196,11296.765625
100,8972.833,647.19385,9322.96,7160.8433,-3407.17,4203.951,17720.974609375
101,-30203.371,-10640.07,4791.92,-4602.5347,-9029.57,-2887.0703,35439.02734375
102,3423.1233,3262.218,22805.934,-11124.477,-12658.053,10780.746,39742.32421875
103,9379.179,8511.061,-11926.708,-2775.1807,-5615.27,9287.429,28507.298828125
104,3807.045,9628.908,-4266.8096,-4821.346,-2414.6843,-11463.729,25051.2578125
105,1513.7358,1232.3926,-4830.8755,-1598.8857,499.42548,-4609.5806,10521.90625
106,6037.487,1630.2488,1583.2731,-2543.282,-9565.356,-11346.288,26452.61328125
107,5888.8564,4468.576,-12503.595,-5078.8066,420.54105,6736.773,22983.53125
108,738.29736,-2924.7473,-5069.759,-75.596725,-2485.6245,1569.5178,7198.5087890625
109,5416.206,-2849.9565,1306.1526,3346.7615,4921.367,5063.374,15310.875
110,6790.424,-97.12134,-3153.4941,658.8285,-173.60432,-518.88196,8945.9990234375
111,6654.838,-4330.3936,7479.8447,-2298.6174,-3625.9292,5375.7295,16504.763671875
112,2169.6333,-11392.019,5370.75,3669.8882,-5080.626,13525.847,30071.017578125
113,-1837.129,-328.54108,2360.6582,4207.819,-1890.9172,-4908.7007,12234.96875
114,-5819.3975,4353.974,3778.667,226.18617,8846.903,1842.4777,18523.40234375
115,-5080.8506,10545.258,21227.996,7462.235,-10707.716,-7136.5273,34482.40625
116,-8459.434,1448.0898,-6637.1006,-5740.282,-3132.076,-5505.4834,17396.50390625
117,1649.7041,7220.4556,15656.097,5049.6206,-5845.3784,-326.57224,18124.775390625
118,2884.3745,7017.8867,23118.5,14598.116,1874.1089,4538.726,32473.369140625
119,7619.1514,10109.435,-10887.582,18210.805,7224.688,2980.656,39660.171875
120,-15854.684,-4473.4805,3284.5593,-907.99457,9504.725,-17436.984,38257.71484375
121,95335.23,96718.06,96370.81,-39.94016,-210.11572,878.27167,2000.9853515625
122,-9882.684,20293.592,13102.143,4488.1953,2279.6294,-10011.018,33496.21875
123,-5769.8096,-8706.515,1248.7075,1153.8956,-4189.263,-3455.4028,13075.1201171875
124,1388.1138,-6570.5576,-8210.317,231.37949,12116.529,2181.3303,23107.263671875
125,4820.1675,23138.56,10777.246,14467.23,-1259.0098,-3569.211,30541.80078125
126,-29004.318,-44026.26,-9948.659,-995.02246,705.93066,7230.939,32192.462890625
127,24697.623,7756.461,-3077.1143,-6475.633,174.57166,-1230.9253,26801.884765625
128,14868.939,9048.821,996.1572,-1872.4153,4920.642,615.2467,15161.734375
129,7471.3057,-10775.908,-5457.008,2752.3406,-11360.977,4237.789,26981.7421875
130,-11605.459,-2305.1465,-3297.0461,-1306.6022,-6319.645,-7162.1206,18896.5078125
131,3637.7644,-819.7031,15273.424,-8192.107,5729.8525,8268.876,26684.669921875
132,-12808.657,-16366.736,-15160.29,-4679.248,-5037.4043,8869.405,19688.4296875
133,-2730.9211,-2371.708,-13116.657,-147.4507,14554.101,7499.232,30264.986328125
134,-10233.792,-5986.258,14588.592,-13005.587,-1720.3187,-621.7476,32345.517578125
135,-13115.873,560.67676,-2591.6785,8515.915,-574.8199,-3842.5374,20413.744140625
136,-2134988.0,-2135132.8,-2136705.5,-188.39543,-391.46027,488.39255,2000.98327636719
137,4724.732,-1942.9768,9268.263,5198.2783,3472.103,539.8989,14611.783203125
138,-5539445.0,-5539503.5,-5541458.0,-89.43158,117.25745,-4.2524533,2000.78161621094
139,313171.22,313188.4,315153.34,-12.587137,-32.91992,-39.281273,1975.70300292969
140,-10154.791,-36712.242,-31536.574,2323.9207,2240.9814,-8037.97,28630.890625
141,3791.242,1223.5428,17901.11,7531.9194,-12557.328,-750.4665,29780.0234375
142,-4317.217,-25605.066,-18960.475,2891.6162,3430.152,-2041.0223,20706.365234375
143,515.20514,732.22876,-179.73349,-5420.039,-190.2174,2999.3372,10766.0546875
144,-5077.0107,1082.5657,528.3357,3599.7952,-2624.5134,-4232.796,12170.587890625
145,-3093.9297,2232.6377,-11122.648,2032.4006,4533.994,-5618.7207,17446.24609375
146,-13290.205,-8273.338,-28914.969,7411.074,14407.762,2088.9258,33886.625
147,-11994.065,-3500.2336,-18196.072,10834.838,-3856.4717,4993.741,25197.2109375
148,-5292.654,9064.569,10448.075,4051.1516,-151.75148,-3571.2883,17761.591796875
149,5923.1484,4114.941,15362.021,2932.9746,15210.407,2631.6943,29156.1875
150,13860.657,-4.5837545,28559.566,-11715.881,5900.059,6364.141,35352.953125
151,-5379.553,22975.047,-7807.0015,-6836.5645,10397.46,-3973.184,37290.765625
152,5184.0938,14567.331,-36.622036,-108.99828,-12630.255,-16104.985,37696.2265625
153,8432.795,-4357.5005,5948.9434,-2251.1902,800.9398,4472.344,14667.162109375
154,15222.192,4119.9355,7203.007,-6257.618,2252.5366,897.7159,15285.5869140625
155,16042.944,10043.204,-1492.4965,-2439.2903,13459.364,-197.37892,28279.166015625
156,12454.609,9253.465,-11706.19,447.77417,1567.0524,-3650.4045,23761.189453125
157,3569.6787,1912.9976,-6346.116,-1232.6187,-7070.2256,-1510.5607,15684.640625
158,-5259.325,-4089.4646,14872.312,5167.369,117.05295,-16804.201,36199.30859375
159,11947.373,-19167.02,-2086.5073,560.49646,-9820.639,3988.7336,32655.88671875
160,3802.141,-151.93274,2543.4685,3738.0964,10379.112,-2618.967,19947.859375
161,8522.253,4357.699,10001.755,10403.932,-6210.5454,-12931.948,31110.08984375
162,15712.141,-3791.2334,4073.8188,-6163.603,-755.1229,9360.031,25833.25
163,3539.1855,-4122.761,14.764324,-1333.5303,-5225.9224,-1404.8312,11717.9091796875
164,5603.4507,1362.7263,4498.3823,3080.4858,7293.6846,710.7438,14286.2099609375
165,-2390.0615,-9235.875,13181.862,1466.292,6624.6084,-265.77905,23114.296875
166,10077.265,-12984.245,-8875.513,-3111.4639,6571.751,-1404.0771,24869.318359375
167,-153.9951,-2730.0347,-9466.804,-4869.9688,-3652.7778,-3067.9087,14449.5185546875
168,7811.8467,-16088.876,6762.387,5266.5215,6744.607,-1311.7476,27786.7421875
169,3915.1494,-6516.3564,3458.5586,5284.554,3465.8594,-4004.9949,16498.421875
170,3212.9678,4286.917,21647.88,-11859.615,-5876.4385,1399.1793,29199.71484375
171,-2369.7876,4538.235,2813.9849,-11296.832,3687.4504,5988.807,23875.2421875
172,5312.7964,-288.6855,-5389.369,-13734.565,3143.881,128.98157,26107.119140625
173,2871.837,-1647.6119,-2626.436,1231.3802,-5076.936,-10322.3545,20672.08203125
174,11995.584,21712.094,30748.693,-12723.434,6633.835,-7041.2554,32098.181640625
175,-677.3661,-2422.6445,-39016.57,-8029.756,1007.5924,-226.37608,40033.21484375
176,11601.66,-2950.9792,6379.9946,-2067.2666,2739.9602,-413.73804,14103.6357421875
177,-9168.395,14856.701,570.5365,-4531.5884,8047.7446,-437.69803,26354.36328125
178,-11914.592,9902.264,13084.941,8935.44,-8842.317,-1468.052,32188.38671875
179,4186.232,2315.2212,-13576.005,-16085.887,-2349.65,9599.205,36810.70703125
180,-4457.166,2669.3281,13783.151,-3591.9958,2303.1467,3019.5332,18316.115234375
181,-5651.933,-2059.324,16953.744,-1691.5292,-3219.3716,6554.9663,24724.275390625
182,-6531.348,8650.173,-12553.765,-3469.5144,714.9803,5006.286,21702.8203125
183,-11232.462,6343.7314,2223.4329,198.81331,-2007.8354,-10045.853,23842.201171875
184,-11597.412,-8893.079,5935.43,2060.7197,-2595.0295,-3819.5105,18547.44140625
185,-3264.8433,-16277.746,12057.681,-467.77216,-12578.8125,-3461.908,33388.56640625
186,-470.36734,9478.8955,3438.85,7244.6846,-1536.8584,651.40924,15530.330078125
187,10065.566,-4401.5474,3248.2405,1924.8035,-2330.1282,-488.82858,13611.2548828125
188,-28579.553,-28048.5,-27700.889,601.44977,-685.4643,-555.0818,2001.65112304688
189,4680.0264,10938.535,2194.955,-1174.831,17171.238,5267.6714,32137.787109375
190,11001.446,9294.209,-4825.6665,2947.9229,-12591.244,-77.25517,26983.298828125
191,4791.346,6835.2607,9096.663,-4692.0933,-3011.4658,-2281.605,11080.830078125
192,20207.877,6375.716,9176.017,1727.6846,-19010.488,559.7593,35419.30078125
193,4829.0225,5003.5,-924.05145,2545.6978,2711.5051,6604.25,14369.3759765625
194,-653.0842,8560.3,-3961.522,3147.3308,-3502.5986,4546.0415,15963.560546875
195,9896.828,9876.786,12164.015,79.43856,167.86324,-1061.6573,2944.62060546875
196,5186.8716,2956.4539,5047.7764,8284.45,-1260.8308,-4295.7485,16453.255859375
197,-739.9376,-6582.074,-5934.0376,2288.1953,3920.956,-7539.6504,16221.3681640625
198,1620.3442,-2169.823,-852.48,3782.9937,-4745.068,-2322.8801,11737.7705078125
199,6585.8247,-14561.635,3802.8909,-859.7882,2483.498,-1403.1167,20560.51953125
200,3083.6597,-6500.75,-6373.3604,6003.96,-137.00418,8075.5527,19861.994140625
201,1400.9232,-2653.9785,-5744.698,1334.8184,7477.8794,-7748.7104,19792.830078125
202,-354.36945,-445.61002,6632.1333,-1999.4882,-1731.252,4681.259,11669.837890625
203,7024.16,-3140.104,-4356.2324,-1313.732,-1922.2971,6461.803,16083.5419921875
204,-2199.8303,-2824.202,-10372.336,-2671.618,-1534.5713,-634.12225,9579.1806640625
205,7227.706,-6265.603,-6654.7144,-911.4476,6941.19,6623.981,21590.162109375
206,5870.06,-8539.829,-2654.6802,2748.4155,13310.132,1016.08057,26734.1171875
207,3190.181,731.4346,2295.3628,-7183.632,-4668.6567,6542.2783,18795.025390625
208,2568.3247,-4310.711,-2680.3809,5226.5366,18373.035,3294.1223,34146.34765625
209,5266.486,5239.43,12417.542,-3958.2275,-1987.0629,1719.3899,10910.9423828125
210,9580.478,-363.22882,34.7851,-1201.7344,-6902.596,884.5,15642.7294921875
211,4400.066,-1508.2034,17137.951,-4342.5225,3131.6528,7665.5815,23123.53515625
212,8853.316,810.22833,10600.594,2326.3286,5954.1416,-5708.9053,17382.84765625
213,-971.9474,-5232.5283,-4596.034,225.47255,-4641.5903,8343.757,17014.296875
214,-18292.734,-9208.092,-10210.399,4708.1123,-4374.9355,2694.2297,14836.626953125
215,1481.6602,-7286.457,1098.424,-1507.1211,8671.592,1744.3583,17753.833984375
216,-2589.983,-5477.8745,2956.9836,1969.5273,77.45696,-11398.868,21367.861328125
217,-1908.953,-4108.2803,-15155.708,-554.95105,7733.7227,1.9674376,18208.1015625
218,-234.87051,-2352.6357,4491.317,2746.1902,2557.8174,5249.0845,12717.7578125
219,3636.9253,-3713.612,16536.195,-2214.5642,3373.8352,2782.7856,19680.7265625
220,1644.6661,-4529.4746,5804.735,-190.9096,7350.2695,-1782.3165,15900.6201171875
221,906.73535,-11352.875,-10574.919,-4147.5566,-2079.5615,-3492.4163,15573.603515625
222,2202.191,-5533.665,5109.8965,110.850746,-4032.4634,-6100.921,15851.6455078125
223,-1308.3306,-3359.5417,17768.148,-3737.664,-2803.724,164.81897,21744.513671875
224,-8837.828,9133.354,26727.447,1476.9688,84.36362,-10330.523,35713.1171875
225,-34546.062,-2295.4207,-20005.16,-5457.912,4936.9644,11774.667,36891.7890625
226,-7555.019,446.73886,10610.407,-14123.614,5766.1304,-8915.967,34428.37890625
227,-19323.766,-3054.3801,10916.122,9405.447,6212.9473,7471.2793,35154.0703125
228,-28111.824,-24453.826,-59588.12,-8344.536,-6077.207,-2048.064,38099.2578125
229,10122.422,17506.508,26719.605,4866.547,-369.67484,-2243.2686,17146.216796875
230,-2021.6777,3862.554,-2451.4443,3404.5063,-5397.2456,4000.876,14405.607421875
231,-6367.9517,-2644.847,-11586.506,4747.4463,3256.9941,-6648.192,17104.33203125
232,-597.68756,2557.3,-756.24,-2990.111,3190.441,2715.9402,9485.111328125
233,-4969.531,-5148.645,-9061.169,-575.1561,1558.9595,-5505.6562,10735.96484375
234,-14183.039,9095.826,762.1729,-459.58267,5785.6255,-2240.7288,23097.056640625
235,-7195.7925,4816.739,10744.247,2355.381,-2608.503,-950.7609,17041.384765625
236,1977.3738,4194.9336,18493.535,3779.8508,6782.2886,-2470.833,20982.154296875
237,5643.7056,7993.121,17282.314,1330.8728,-7986.755,-1896.3663,17919.265625
238,-11686.131,223.63013,-1929.3201,4272.0127,4213.3896,-3364.7058,16211.3681640625
239,449.58826,1343.0299,8547.93,-2574.5283,-3035.4426,-3836.1758,12280.9208984375
240,-4666.7188,3803.536,-3222.5745,4558.813,-7102.285,9852.222,23800.693359375
241,-1572.9581,13700.46,29589.11,7569.7197,1591.5526,4129.677,30968.763671875
242,2974.0396,-14073.518,-1682.789,12035.733,1642.5913,2186.7249,26266.59375
243,-1735.994,-4201.33,-16299.8,3997.29,-2262.3503,7240.3604,20070.76953125
244,8054.837,-23404.238,-32591.273,6403.3867,-1214.3021,-3862.483,39182.65625
245,8063.5146,1438.671,3355.1216,10659.451,1040.7882,798.4655,19516.638671875
246,10085.188,-4254.185,-24160.264,10773.799,3538.6763,4365.7246,36473.00390625
247,8431.264,-25521.885,1136.4926,4642.155,-8342.4375,-3822.5325,35715.85546875
248,25574.83,-3952.4683,18584.094,-818.52386,1367.645,9318.943,31344.275390625
249,-2632.8928,-26936.227,1030.7474,-4857.9673,1705.2821,-790.76215,27830.0625
250,-14109.871,-16540.467,17119.854,2867.078,-2890.3184,3817.198,33919.6953125
251,-18913.713,-25260.014,-6412.5103,-7039.837,-1293.9336,8278.912,25203.44921875
252,-15857.023,-11579.971,6666.875,155.88266,-2762.656,4565.8643,22689.080078125
253,-40711.78,-24627.135,-34419.824,87.86156,4797.622,-175.5659,16317.71484375
254,-32721.947,-13455.608,-21802.617,6956.6455,13671.693,-1746.4109,31545.65234375
255,-190996.36,-190891.88,-191436.23,316.13116,659.73865,-845.52905,2000.1767578125
256,87.15702,-7489.324,4405.8535,16675.422,2810.547,3767.5984,31768.94140625
257,-209519.34,-209692.53,-208520.6,296.50006,278.76285,-875.03723,1998.599609375
258,35194.668,34415.08,35015.26,-452.58124,-792.43787,579.77185,2001.71228027344
259,213710.97,213835.81,214978.34,-166.63725,706.7436,-572.3119,2006.98461914063
260,113710.234,113651.94,112745.74,-68.121284,-313.4034,973.06384,2006.6298828125
261,330152.84,330465.4,330027.75,-77.54804,723.3755,-868.959,2001.39196777344
262,56980.44,53756.58,79542.984,12436.688,573.68005,-708.8699,32537.802734375
263,-47164.805,-52616.977,-78957.68,-9789.703,3161.4343,331.67545,34423.85546875
264,12678.682,12357.648,40867.684,13902.2295,-954.5296,-132.97038,37234.0546875
265,-12572.096,29708.28,-1892.1305,-6138.656,-2236.9585,1622.4581,39825.8359375
266,6702.1323,-10546.366,9306.0625,-16860.703,-1213.4099,-7476.6733,37069.8515625
267,-17970.764,19838.568,16354.67,9191.878,-3044.634,1994.4901,40039.66015625
268,12546.449,-6115.893,-8335.628,-2610.3909,6458.4097,-6846.869,26093.103515625
269,10381.56,-6943.728,3323.0637,-1275.0282,-7366.883,3866.1719,20981.642578125
270,10053.236,9655.862,-5297.237,-9923.936,603.33405,-4826.1187,24415.462890625
271,8381.437,-574.92847,-24492.002,4516.553,-2207.9712,-10300.521,35504.62109375
272,11922.953,7233.4453,-4081.462,-1467.3677,1873.6755,-8565.32,20980.123046875
273,28431.914,15125.683,24672.8,571.23004,-10614.006,4385.849,23191.041015625
274,13106.799,6553.1973,-11493.639,3048.5083,-4356.6133,-5215.515,25560.41796875
275,3814.0847,14903.293,16251.368,-5425.3945,-1714.2552,5455.156,18059.17578125
276,13608.168,7046.074,1731.2781,-8158.842,4965.163,4461.307,20965.513671875
277,3726.9756,-6774.617,9574.811,-221.99655,-1825.9167,9310.0205,21819.060546875
278,9264.741,-14337.168,13008.104,-13176.584,-8863.254,-1606.0321,37731.8203125
279,14422.335,7814.531,-7471.266,-1147.5438,-3142.9333,-6280.9976,23027.412109375
280,-8507.773,-6447.8887,-1868.2985,2113.8323,380.48834,-3027.219,8716.681640625
281,-10161.894,5033.322,-21151.441,-3810.654,-6112.63,-5461.4688,27636.7890625
282,-12807.163,-22081.172,-14572.582,2125.0781,823.11505,460.40152,9432.2724609375
283,-11660.79,-3565.9622,-6844.684,-977.41504,1671.8228,3477.5605,9862.3955078125
284,4089.3525,1786.343,16396.035,-3762.6172,3967.5571,-6209.3916,19760.23046875
285,4295.5044,-1618.8243,-6674.614,-2070.148,-6955.4478,344.85764,15773.0771484375
286,7169.3115,16537.07,-525.511,-3209.0305,18.088295,1765.1494,16102.4931640625
287,2391.7542,-4789.187,-3314.5273,-3773.38,-9432.169,5667.8784,21192.8828125
288,-6329.854,-3282.9014,2272.8,1319.4451,-4172.2383,-9748.607,19990.73046875
289,6912.33,-3206.8088,-1116.1521,4176.241,11484.232,4621.279,24447.220703125
290,3624.858,-1458.7676,5829.6885,-326.742,-7021.6826,8958.815,20758.771484375
291,-2199.7893,-8493.579,-559.7012,-262.53348,4430.474,-8459.838,18067.2265625
292,5851.1665,-5089.6465,-1158.9845,4594.1626,-6536.267,1832.0825,17137.7890625
293,-3198.2368,-8866.51,-4557.6763,488.19815,-5973.6284,6087.801,15659.6103515625
294,19557.283,3170.5361,20330.904,11478.04,-4752.5337,401.11246,27299.810546875
295,25618.25,2714.1533,4661.313,6796.8433,-15074.257,-8202.869,38806.484375
296,18848.156,1243.326,-5573.331,3472.0762,-1562.5365,-1605.9314,22970.208984375
297,-4370.6494,-5075.0977,-10014.646,3369.9246,6048.466,17446.504,32944.4609375
298,5192.091,-5250.6606,-1366.9424,-372.6041,-2987.2808,764.39935,10607.4775390625
299,3246.7534,-6437.914,-6430.1377,1731.4573,4541.9585,7615.3125,18400.501953125
300,7976.116,-8063.3926,2265.927,-210.43654,-657.0844,289.97903,14140.857421875
301,-11906.692,-7603.24,-13050.402,-3358.1118,3278.7632,482.26367,9567.080078125
302,7466.5967,-174.92358,-13442.587,-14433.247,688.14233,-867.16144,31055.455078125
303,12455.479,-3783.1768,-2781.1602,-12245.928,-2516.0837,-405.67395,26791.80078125
304,20958.41,6232.898,11189.363,-2802.9407,-2491.8726,2439.029,15115.0615234375
305,12404.101,11602.706,-4397.144,-4223.1855,-2021.3573,-483.80203,18328.267578125
306,12736.716,-1154.3335,5233.3823,864.7076,-9758.469,-13901.22,31822.791015625
307,123635.94,123665.98,125634.14,-51.865845,-78.21886,-88.33587,1995.87780761719
308,-9664.57,13543.367,8048.518,-5766.62,-6240.462,-3232.061,26252.7734375
309,-261461.86,-257521.33,-276162.9,-7351.718,7631.222,3515.9812,25758.78125
310,166937.16,167205.44,166669.97,-143.8408,-713.0127,856.672,2000.98425292969
311,-19133.115,2125.5117,-35119.875,-12540.879,3266.7913,470.86652,39393.70703125
312,16587.717,16540.322,18052.17,247.4361,701.27966,-206.90292,2000.93872070313
313,-10037.616,2541.3716,-6491.747,-1365.6769,3429.6729,5398.595,15953.6318359375
314,273.3147,378.6963,-7469.0635,-5147.1997,-7259.29,-697.66846,17314.865234375
315,8477.447,9930.617,2716.439,871.41205,5782.5737,-5577.5996,15478.826171875
316,11394.981,20551.402,8363.678,6044.8486,-9929.229,7453.3154,26321.66015625
317,1306.084,10801.902,5760.3164,-2281.114,5703.352,1704.7434,13770.5390625
318,-994.15625,5599.8784,8736.799,2982.5623,1150.7369,-694.66205,10301.15625
319,-3962.3723,3334.3694,-9417.856,1973.663,7765.548,5273.9775,19971.322265625
320,1346.8125,355.6057,3021.1653,2033.6774,6661.86,-8326.258,18946.607421875
321,1556.8615,-1238.5396,3266.6033,3444.835,11919.913,-4403.6196,23141.869140625
322,-9747.221,-2147.8547,-8564.196,3300.9219,5492.7617,-16454.275,31394.087890625
323,1026.9973,1241.9443,7457.316,2446.35,-7747.004,10402.151,23719.80859375
324,1620.6749,528.144,-522.22595,-1055.3855,4368.381,2001.4761,8720.77734375
325,1420.992,7376.675,-5450.218,3650.5513,-3015.6216,5158.524,16452.93359375
326,-6246.8335,2827.161,6740.6416,3332.1465,5959.1626,18078.373,35404.671875
327,-7358.325,-3400.8462,-20265.938,-2751.3237,4716.719,1634.2391,18188.28125
328,-4285.184,-2447.7554,3155.705,2105.3271,-3340.13,1577.2832,9964.986328125
329,-17531.285,2404.289,-21274.646,7364.948,1995.9855,5695.887,27533.154296875
330,18115.797,5905.756,29266.736,12814.482,-3954.817,-5306.042,32149.630859375
331,-11559.6045,5478.2847,9365.159,-4272.141,-4828.7026,2410.0527,22666.041015625
332,75557.11,70066.586,70265.266,1190.8461,2893.2249,3029.1626,9273.0
333,15078.421,15700.905,14859.191,-276.49924,713.8077,-746.6008,2000.54321289063
334,-31973.588,-20875.754,-45970.234,-15334.115,-5469.9106,-5105.133,36711.75
335,15056.785,3688.4722,5476.5137,-18787.863,6695.0015,-5138.6797,37212.19140625
336,-4941.7017,1014.49316,-8925.852,1027.1803,6579.157,4422.5854,16333.3740234375
337,-38329.348,-33481.246,-61845.047,-5196.0566,6218.0903,-12209.344,36533.46484375
338,-19053.832,-1272.463,-17386.697,7090.944,-152.77263,6924.907,24167.953125
339,-1668.0287,3230.6306,2476.369,2976.3462,-5381.7505,804.8138,11673.8896484375
340,2409.5095,-267.77966,-5061.9126,3435.028,7152.592,6906.358,19363.810546875
341,-3355.908,7740.1396,5688.5693,2443.9265,4771.806,1328.6617,14003.2724609375
342,5928.3096,-2545.2302,-4582.395,2773.8513,-7127.0234,2309.2847,16872.38671875
343,-4604.025,5369.6895,-86.35312,-3177.3623,1972.075,-6524.926,15636.638671875
344,32614.24,33788.605,27077.26,-22710.043,-803.8685,2673.4253,40114.3125
345,-8994.979,2958.6086,3263.0789,2522.2532,1096.1876,-1894.4799,13419.306640625
346,-6584.6533,11033.214,6885.4014,4745.407,-4299.7437,2704.6553,19987.083984375
347,11703.014,4473.8086,14858.035,-2134.7856,2600.1243,7948.1587,17564.09375
348,-11820.357,-16974.092,615.958,12146.102,8630.358,-4205.1055,31054.75390625
349,2787.671,-362.08643,12425.244,-24.38254,-2354.0344,555.115,12276.419921875
350,-2247.6738,10183.196,5258.9443,4775.8857,-4351.98,528.2359,15609.1513671875
351,1391.012,13689.86,1006.126,-1098.7887,5136.8774,3648.367,16699.09375
352,-3804.992,8259.027,6207.867,-294.80368,-4403.5615,-7747.743,19066.19921875
353,-2304.9133,5769.56,-3427.2795,-975.9111,-2978.157,4409.005,12778.998046875
354,976.6477,5789.72,5132.8735,-52.31885,-1495.1166,954.43036,5466.51708984375
355,-2323.5557,1694.0801,-516.8856,-1313.0126,-683.3078,662.512,4476.205078125
356,-11934.705,-14216.445,-528.2363,-4472.7417,-5284.7993,3562.8364,18526.34375
357,1441.2792,3440.774,5441.1084,-500.3055,-640.7294,-1047.3973,4156.0341796875
358,45401.53,19689.879,30120.916,-3651.1226,11676.694,-11716.512,36912.7890625
359,-3730.586,-4283.0493,-4025.0813,-5671.0986,424.8709,101.2139,9863.3466796875
360,4763.7837,7050.547,21338.973,198.61833,544.75,-1006.55225,15687.916015625
361,-4964.5728,136.7926,-174.51575,-4461.7617,2876.8513,-1263.2755,10671.041015625
362,-1189.4258,-10673.026,-386.92285,6015.415,2012.0397,-1231.2013,14947.9580078125
363,1156.2959,117.425415,1596.5194,4106.093,-2561.9841,2971.6157,9924.3720703125
364,-176.77283,1499.0151,-85.98053,-3045.5193,1022.5949,-6122.947,12087.119140625
365,-5136.8203,687.34204,-406.57715,1433.1104,3208.2224,-3448.6184,10072.9716796875
366,-781.9407,-6282.797,-5439.967,-2857.7522,-847.1201,-5054.0977,11385.0029296875
367,-1102.6984,-985.55554,371.64392,-950.43713,67.59228,538.2532,2368.02587890625
368,359.5487,-3544.6292,-291.28223,-1651.4465,271.54437,-786.36816,4835.63720703125
369,-5621.9756,-8310.215,-2912.656,946.80457,1132.6965,-1077.0255,5645.2294921875
370,-28776.129,-29281.457,-7598.8125,-14477.872,4727.921,10203.379,38309.90234375
371,-9992.651,-28447.299,-39328.31,-1465.2319,1521.3273,1399.8934,26058.37109375
372,1307.3184,2529.24,9621.028,5714.915,-324.14258,1734.1803,12952.6162109375
373,4015.27,2227.0544,2041.3257,-112.756775,-350.27414,-1163.9485,2834.58642578125
374,-18794.379,-17893.094,-850.43164,-282.8065,6120.1304,-10170.095,27009.7265625
375,-15521.664,-10772.512,-20557.562,3234.7905,8766.894,5363.422,20496.26171875
376,-9783.63,-1215.396,-13106.308,4442.37,-2636.742,-2100.749,14360.533203125
377,4254.8564,3293.1868,12511.455,5795.8027,-347.25296,946.8212,13448.4755859375
378,-1304.8403,-9634.302,-3565.6782,3109.791,2295.7026,3769.251,11962.6357421875
379,-5993.3096,1288.3845,-1869.783,1484.5051,4271.909,2298.6707,10826.3955078125
380,1077.3567,531.31854,-129.039,1718.0851,1256.3833,187.05838,3845.87158203125
381,-3040.6965,-3783.1394,2302.7637,1435.0668,-2919.3257,2115.1506,8845.2373046875
382,-2515.6243,-715.7547,-478.4209,-2892.283,2714.1812,-1506.47,7597.86962890625
383,685.0879,5507.33,4710.6416,-2426.0447,-864.30273,-3447.846,8695.2841796875
384,-17859.027,-13103.006,-5617.0464,-525.05237,163.2897,-1161.2881,10918.5859375
385,-3216.516,6248.367,3305.8247,-7573.504,547.78894,-3347.649,16642.900390625
386,-4159.824,1714.0608,1110.4363,-2145.5784,449.77478,863.08276,6926.28466796875
387,-4606.3066,-5143.295,-294.20972,4591.967,-3794.733,3317.8323,12675.9853515625
388,-780.4302,-7491.9805,-2110.4194,5062.413,-5462.393,3442.7717,15486.859375
389,-3415.0388,-8914.809,105.5896,474.84134,1378.233,-3529.4854,10283.56640625
390,-3353.4724,-7613.291,841.22,6276.856,2767.6838,1463.5691,14184.96484375
391,-765.1846,1500.191,3777.3176,-860.15845,1090.9609,2040.4312,5809.99658203125
392,1021.56335,-2713.7944,4750.541,-1173.2604,1786.6758,1411.0935,7840.09228515625
393,-4390.485,-2170.2346,2755.8604,5387.9995,-2011.8468,-554.7661,11844.4326171875
394,1182.7357,10818.297,20437.701,-4548.722,-808.018,-12225.51,28115.580078125
395,6372.639,-12926.726,7742.547,5069.7275,-4495.044,-607.8728,23229.54296875
396,16155.325,-1636.7373,21418.08,-1004.45984,2244.2834,-4093.4136,22500.9921875
397,-12361.9,-45771.645,-53142.15,1572.3395,-501.19525,-4929.69,38702.16796875
398,-13030.185,-7530.4043,-21557.553,5919.1777,-2080.6584,3008.892,17179.0546875
399,32729.242,26679.05,45333.52,9540.381,-1153.3455,5821.176,25503.654296875
400,-39.32251,-2113.2502,-1265.969,-974.1189,1989.1636,-1857.2379,5322.3017578125
401,797.3008,-4444.991,-346.82043,2735.1174,-1350.0516,3750.223,9638.25
402,-3212.9963,5450.9204,-1430.6788,-574.08563,-834.85223,-3755.1953,10401.0771484375
403,12349.011,4023.023,4145.6025,1965.5394,-3203.2168,-4788.379,13396.79296875
404,543.0889,2674.2756,837.5073,-1095.8364,-253.01048,-819.6059,3132.26025390625
405,-5353.7583,-12401.86,-4822.606,2124.652,4702.2017,4609.8604,14047.3642578125
406,-1874.894,1487.1902,-1613.5818,-804.2971,-184.03403,-716.7849,3751.9287109375
407,4868.2124,148.97168,8811.848,-1417.3679,-386.81107,-672.9966,8016.7880859375
408,26253.576,6006.817,16839.791,5481.9116,-5748.947,5793.254,24452.86328125
409,6687.553,-3776.5674,9096.396,-1840.002,2683.486,-2133.538,13635.3525390625
410,8498.213,9125.791,9113.636,-762.7889,3581.5603,95.88286,6375.125
411,1501.4872,1904.6388,1524.8029,-6462.81,-438.35144,2185.1992,11847.3271484375
412,3774.0747,-3405.5298,-7096.232,2170.6572,3087.5012,6.5793715,11593.0654296875
413,-7711.8545,724.77,-8961.073,2797.6367,897.211,-388.11954,10470.126953125
414,-13638.852,-11061.586,-10297.091,1108.1088,5090.6914,1309.2454,9786.1416015625
415,-4464.8037,-1171.1428,1927.8927,2024.9614,2257.8984,1153.0459,7889.46533203125
416,-13730.598,-9883.845,-2305.3643,5141.862,2474.5557,1267.4188,14278.9697265625
417,12095.642,2828.095,1773.3132,-1277.3861,-2944.9482,-2688.7375,12221.9658203125
418,-446590.66,-447961.78,-444491.16,2722.7483,2480.0784,-1919.6024,7804.7177734375
419,-2854.2551,-1282.651,-2365.7864,1513.0929,1078.4148,747.67004,3738.33911132813
420,9831.712,28014.271,31671.154,1547.1763,-1072.1455,-5231.7886,22432.439453125
421,33666.41,43496.746,46534.61,6423.465,969.79266,-779.0639,16252.7646484375
422,-5570.621,-2787.4775,-5539.061,518.19214,-259.41605,300.90784,2989.67309570313
423,-4264.788,2771.932,99.986694,-72.60725,-3036.584,-1509.0488,8506.6455078125
424,-897.47253,1184.3983,-930.41144,-2030.3588,1953.3357,51.104973,5312.75
425,-3757.5017,-7294.7554,137.66309,3612.9246,1827.7643,1778.8251,10006.85546875
426,-4273.3237,-6269.346,-3254.796,150.7732,1100.3827,-212.5103,3300.1083984375
427,-8458.565,-13848.5205,-16327.298,-3881.7805,252.12694,4011.45,11925.896484375
428,-51374.72,-33663.055,-73039.13,8627.336,804.50586,-4030.751,37957.0546875
429,-5041.3857,-3908.689,-980.83203,2963.5132,-98.17904,-1230.7478,6640.1875
430,-468.13794,6605.7007,-846.09595,-3048.1985,1563.9601,417.77023,9412.31640625
431,-2055.3813,6108.9985,-6868.6787,6110.5137,-2627.284,-1096.9661,16292.8056640625
432,1702.1667,-5826.5283,-6429.7866,-905.94305,-411.24908,1150.2559,8278.0283203125
433,2326.5686,618.2244,2197.3718,-4038.8264,2634.0957,3949.6936,10920.916015625
434,-6196.9155,12519.323,-10037.784,5639.75,8480.945,348.95352,27358.75390625
435,-5763.09,117.12477,349.91373,451.95847,2477.081,-737.50586,7526.77197265625
436,-1313.9803,2571.7053,1627.9896,1840.2583,849.12177,-521.6227,5045.90087890625
437,1189.1564,5199.3013,4606.882,175.8761,-491.8411,-2290.7163,5533.28125
438,-9168.724,-6363.193,-3728.1487,2011.733,-882.3228,-1378.995,6510.6630859375
439,585.4717,-4281.653,3444.84,847.429,579.06866,2501.3086,8228.7177734375
440,2694.948,1577.5367,-82.997284,-2334.677,-819.2716,-63.530815,4923.34814453125
441,119360.23,101212.27,144991.94,721.1651,1125.9888,6990.0273,40042.9921875
442,-3667.0671,-697.8813,-384.54324,873.037,-839.82196,2498.6904,5742.599609375
443,248.54337,3589.5354,2490.0657,-369.34387,-1897.2845,1712.8916,5357.9892578125
444,-4879.1963,-1735.9541,-4467.822,1032.3953,630.46295,-3349.4858,6841.29248046875
445,-3257.6162,1316.5986,-1217.4586,2076.371,-2761.5867,-3302.0376,9180.248046875
446,5117.8813,-2885.853,3289.1914,601.2375,-2943.0427,-1357.9072,9239.4921875
447,-2764.8145,-4718.3813,257.18314,881.4959,-1066.6984,-220.33557,4974.21875
448,616.07874,3951.118,1554.7338,-2288.1096,1391.512,-1327.523,5972.88134765625
449,-1491.8987,261.51465,-3053.6875,1934.0978,535.23364,1752.2295,5435.49951171875
450,-26259.38,-21634.096,-27374.396,-10988.6875,1264.8811,-511.24237,19890.486328125
451,-7202.282,-7518.67,-2805.1584,-3638.8633,-2173.2993,730.161,8736.0791015625
452,-6955.9844,-3639.1858,251.3187,725.0846,-1648.9318,674.9158,7081.0947265625
453,1219.9198,4309.8623,-1553.1829,-689.6942,229.35356,-521.85254,5311.158203125
454,-2247.176,-2075.6614,-1852.073,273.0578,-392.7689,3189.1816,5596.14892578125
455,-592.8231,409.7735,3089.0579,952.94916,590.32837,882.6349,4120.30810546875
456,-9250.358,3471.997,-1105.0929,-3708.2678,1563.1063,892.6335,13249.556640625
457,-781.5176,-8097.728,348.73026,-2434.922,-535.3097,2429.494,9971.3115234375
458,8967.049,2088.4387,4972.42,-1781.6453,1965.231,-2162.6128,8422.2744140625
459,-460.31403,474.8157,-2516.485,-2428.538,-971.89606,1345.3287,5742.9921875
460,-18388.486,-23759.525,-36409.55,7219.6655,2051.831,-4305.858,21941.671875
461,-17223.84,8589.33,-11080.309,7813.0205,485.09464,3398.849,27640.02734375
462,-418.77054,-3986.6323,-1747.6681,525.52606,-167.09135,189.57068,3282.43603515625
463,-5028.6865,3746.7642,-1441.8372,2819.6736,3030.8389,-4578.6553,13141.525390625
464,444.5846,761.601,602.7812,2912.6394,-2891.5857,-57.73565,7114.744140625
465,13428.952,4878.09,11605.645,1843.386,1625.8253,-1550.576,9283.740234375
466,-2673.074,5606.873,1558.8467,1117.4169,2956.29,3035.9946,10442.3759765625
467,924.6088,-5090.0977,33462.383,5748.8057,-4450.2646,4177.328,38749.1875
468,-2325.2344,-4155.466,3515.6196,-2028.3298,-3391.7754,1125.6307,9940.390625
469,12989.879,18687.254,-2283.7368,-7621.6235,-3141.4697,-10756.182,30061.986328125
470,-7209.208,2435.059,4251.6865,4532.1704,-1377.3359,1042.9102,13579.6875
471,908.89923,1261.286,3344.6907,-133.841,66.10875,2056.2375,4236.7568359375
472,875.79535,311.4518,-1269.2467,137.12326,571.13153,650.57184,2452.31762695313
473,1245.9246,-2560.1514,-153.04944,1397.133,1454.114,-1487.9114,5473.54248046875
474,-2746.7847,-4803.8955,599.3107,254.57295,66.91885,771.5641,4930.0244140625
475,1060.4785,3816.9973,1208.8298,-516.5737,10.852751,817.95135,3165.35961914063
476,-4200.1577,-2245.055,-2306.2498,503.8868,1134.5126,301.87796,2933.083984375
477,2832.4014,1147.0073,-41.37114,-2563.5222,-261.37402,1080.1096,5447.5205078125
478,-3403.636,-4934.7085,1354.1124,-863.4649,-548.11926,3000.6353,7900.27001953125
479,-16960.785,-7029.2456,-40219.035,-6437.981,810.79285,881.17773,31610.3828125
480,4814.223,3129.8325,844.16565,13.920819,744.1315,2424.808,5586.79345703125
481,606.91766,2719.6716,-2732.7698,-4753.555,-660.3783,1201.6501,9803.1748046875
482,-6809.1055,-5687.3433,-2090.4268,107.31015,-555.534,-578.63226,4493.98388671875
483,-3868.648,-4425.9443,-2116.9897,-1648.5068,476.36255,-308.3994,3670.6806640625
484,-4051.2058,-637.51276,-4892.0073,-3011.894,-627.5517,-2603.5986,7997.6650390625
485,-839.20685,163.50278,-911.4243,891.2378,-39.577454,1468.1263,3152.27758789063
486,-3481.4697,-1810.402,1570.7747,-2480.314,-1143.1838,-1003.48926,6728.48046875
487,-5634.6235,-5884.464,-2537.624,-2034.2241,3116.4932,-1320.5254,7563.77783203125
488,-2166.807,220.04303,3118.2566,6909.8804,-283.08264,1258.622,13009.474609375
489,3728.4487,1434.1888,3785.2402,3626.9377,-212.72978,132.1431,6711.87939453125
490,2738.368,-2182.9556,2798.814,-767.46924,1170.1647,925.5223,5741.5341796875
491,1159.0378,-999.59485,-2052.3962,2560.6116,487.23227,-951.92224,5580.46142578125
492,-3176.2854,2548.3662,-2899.9785,-4280.5293,-386.63876,-1142.1261,9518.2373046875
493,-3793.8691,746.75885,-1253.7216,2811.9932,-869.84625,-972.19763,6660.5634765625
494,-2372.0535,-17.352184,-3349.148,4053.5261,1928.0719,-108.78634,8323.533203125
495,-5476.4634,-1682.8066,-568.1134,716.9769,1810.0375,112.93154,5592.16162109375
496,3600.1472,-9302.705,-1044.6869,-2332.8228,2522.0066,-3424.0188,14096.30859375
497,-6004.9673,-5778.6177,5559.3726,1305.3405,-2127.161,896.5455,12339.5771484375
498,4348.064,-525.17566,-1460.5648,1084.2391,1131.7794,771.3757,6191.6357421875
499,-5715.599,-1363.05,1781.0155,1517.7648,72.826584,-923.6308,7211.14111328125
500,3695.1255,-1764.8701,-9212.93,-1028.4019,2105.925,1558.3406,12235.783203125
501,-308.0947,150.57416,2611.2373,-817.3746,2898.3152,-55.149525,5882.85546875
502,-2725.89,598.2987,636.6448,1636.469,-1610.7538,312.0964,5223.892578125
503,5201.303,918.6293,2749.5579,647.5031,709.72,-109.476875,4081.31958007813
504,336.80435,-5013.7285,-216.54308,-2218.1614,1341.048,753.42395,6916.1103515625
505,-1056.7986,-638.49725,-1263.3198,-2647.7102,-1266.0441,1328.285,5606.84814453125
506,1890.9728,5080.8057,1123.4292,490.67578,-586.4652,-2341.6008,5604.98779296875
507,-1773.9911,3645.1196,-662.2402,-467.65924,-1344.7786,568.7407,5624.0419921875
508,1703.3961,13745.621,6047.4224,1534.8368,6999.0146,4066.409,17754.06640625
509,-8808.348,-5133.081,1410.436,3931.0317,-550.8577,-694.4061,11361.79296875
510,-8878.913,-2071.6228,-4194.711,3865.722,-463.38052,729.66907,9136.03125
511,-7197.2554,-7327.36,-10979.528,-3483.949,2298.2864,3302.6165,9940.4384765625
512,-6290.943,-1488.7721,-8428.518,-1782.4523,-1175.3197,-1882.0934,7886.53515625
513,361.31134,546.5823,1891.2424,-383.10226,958.3182,-880.801,2759.42333984375
514,-2026.6858,-4121.0293,-232.1766,161.98856,728.09125,3657.1216,7290.921875
515,-1334.6412,-217.14369,-1560.3601,-410.70993,-61.96828,127.83805,1455.53625488281
516,-4197.709,-835.49536,3054.919,-663.40594,1943.7123,-326.16348,7245.255859375
517,-4750.837,-5469.5874,-1027.4014,-848.1453,582.8475,7.655,4498.2392578125
518,286.2493,5143.795,1567.6125,465.22885,-1422.3553,-4379.646,9125.560546875
519,-909.5946,3830.4395,535.62695,-1236.1373,703.81177,477.53006,4945.7509765625
520,6187.7686,7914.005,6280.8774,-627.6751,-1140.0564,-4813.193,8798.2626953125
521,-4755.011,-11333.714,-499.09012,43.779137,-76.66754,5066.198,12900.1201171875
522,-4606.9434,1735.6505,2228.9727,1177.7266,1039.7472,-43.41495,7142.1845703125
523,-3911.4834,-2191.1572,1168.8883,1024.1597,-958.2606,153.12686,5099.1806640625
524,-879.49164,-101.68227,616.8509,2718.828,316.30615,819.2475,5115.65087890625
525,-5345.307,-3093.7988,-4353.3496,-3410.331,1218.2365,-1015.5568,6801.27294921875
526,394.64703,311.39713,1467.4755,-158.79318,-143.05641,-514.7342,1476.17724609375
527,-3610.2908,5402.6597,598.9128,716.30853,764.64667,526.92847,8070.91357421875
528,-730.0513,2494.1912,1197.0021,4790.356,-1158.0518,-2328.135,9849.9951171875
529,3738.5696,4558.684,4990.458,39.160637,-669.4181,-520.5335,1837.10327148438
530,-1848.4465,-120.6023,1611.9359,742.3211,-241.03444,511.74658,3404.9609375
531,-430.2741,8404.15,3522.1072,-3526.341,-1338.7189,-538.70355,10114.5302734375
532,-1576.2135,4558.351,6325.947,2087.565,-737.9636,1738.3221,8681.7939453125
533,-4540.249,-7515.7515,-1323.542,-642.8108,2842.5688,-2432.0742,8485.1220703125
534,22261.797,6063.7866,32218.764,4127.5796,60.629467,1644.4496,24125.384765625
535,4766.04,-1321.552,-2307.9392,4124.249,868.7728,-2774.882,10974.0126953125
536,-7975.2573,-5275.3804,-2328.1575,-3794.4465,-1726.2997,-1162.5922,8951.0478515625
537,3719.738,-1217.2223,-218.61008,52.977596,309.85037,-648.94977,4690.4736328125
538,5371.1177,-1923.1886,1306.9802,-2503.8743,225.60556,-201.92426,7691.69873046875
539,3217.8623,-1338.5505,1716.168,-4151.707,3636.8557,-2003.8779,10936.654296875
540,4369.8184,-9894.986,4924.693,-1437.012,-385.85016,2400.8076,15350.6025390625
541,3973.6318,3913.5784,-1063.3809,1183.2571,634.6467,-874.6499,5725.056640625
542,1606.9373,1968.932,-1491.227,-505.40134,1197.4666,-968.5244,4328.2060546875
543,-13769.754,-8456.936,-14338.064,634.48944,1924.5717,-2152.9062,7602.171875
544,-3483.392,-5723.9033,-1259.326,1784.0369,268.4829,-422.71603,5024.94580078125
545,-3449.3025,2217.3083,-2947.4185,232.36134,206.63231,-1450.1838,6009.7880859375
546,-244.9683,1378.1165,457.8025,-3194.1445,188.38242,-15.109469,5718.6064453125
547,-6793.9565,-5968.2725,-3533.045,-1446.623,-236.24385,-476.75766,3968.66430664063
548,-556.09534,1829.029,-1629.5919,-245.42853,-1020.9658,2267.7217,5304.4453125
549,2995.1167,3804.2068,483.17575,-343.5796,641.455,-3240.5908,6487.65625
550,-2734.9382,-2396.2488,1033.0363,332.6607,2452.535,-875.8318,5806.3916015625
551,-506.1245,-1179.9366,-419.52432,907.86865,-585.4359,83.32512,2010.36962890625
552,1700.6241,-373.71326,4878.524,303.03333,-1109.8851,-3380.5105,7697.30712890625
553,-1322.9825,-1306.4927,-2724.825,-211.60378,-193.71962,1487.7473,2979.20068359375
554,3843.7368,7192.22,1500.831,676.6342,-618.16907,285.57687,5226.0205078125
555,3893.8718,3975.5613,948.23254,2599.5535,1209.5496,534.1199,5868.7314453125
556,-1853.0894,2837.6416,101.09501,647.599,-546.90607,-1762.5958,5303.861328125
557,4438.458,4611.463,-1376.0203,-1131.0992,-227.64836,105.43101,6234.6611328125
558,1217.5388,-169.59393,794.663,-1543.0953,-1084.3474,650.06464,3668.10400390625
559,-497.4299,-1988.9396,-1614.4198,-413.77924,-41.205322,263.53195,1591.64916992188
560,685.4463,69.998886,-1528.1434,5376.254,374.8152,-162.08704,9546.150390625
561,912.9908,2264.9485,-3324.6655,417.08142,213.01378,1749.6633,5946.142578125
562,155.59145,9205.712,-1243.9272,-3106.0916,-952.8051,-2473.4373,12105.7734375
563,966.9512,1830.95,497.63712,3312.7256,1142.0215,-117.42121,6184.552734375
564,-497.30615,-4737.7324,-11154.856,787.8329,-1489.7301,-4439.2754,12410.216796875
565,-414.19357,657.6158,10010.187,2857.3762,-1977.4818,-514.5887,11647.447265625
566,5138.0757,-1441.9141,1423.025,326.7506,486.5898,-1436.4874,6314.58349609375
567,5593.5737,155.2012,2771.8674,481.87332,932.18256,-1798.5292,5932.96337890625
568,24503.773,16346.32,43381.37,-4570.8022,-534.90796,2679.937,25729.013671875
569,-2074.2102,382.6208,2282.625,-3083.0354,332.29782,-921.96545,6760.966796875
570,2947.5957,6753.9136,3431.7961,253.67647,-1033.3201,1362.4302,4673.80322265625
571,15493.325,-1981.3306,-9366.218,-1972.8983,-1111.2728,-2686.3704,22934.255859375
572,-3104.8174,1824.7566,1240.5331,-2677.2083,-146.54916,422.27026,6622.970703125
573,-7933.0063,-5971.8496,-1429.7845,-3448.0728,-2680.0547,2931.4004,10787.919921875
