Element Label,S11,S22,S33,S12,S13,S23,Mises
1,13813.541,10204.841,2467.6606,-3386.235,2907.542,1908.3259,13095.576171875
2,10533.902,7067.7397,1700.7842,2547.417,-2375.7896,-2431.2961,10656.2646484375
3,17905.307,8108.5444,-1721.1172,-27.967863,-841.8812,544.5894,17085.548828125
4,9442.974,14962.932,2932.379,-694.464,6049.2827,3528.6667,16043.02734375
5,15674.459,12289.304,6601.2705,-7191.8228,2340.4126,-5161.4526,17736.662109375
6,8327.266,-1082.2471,4441.2886,-149.7758,-723.7469,-1768.8429,8837.4052734375
7,10960.567,4127.653,-8469.665,-1897.9551,1746.9553,162.40729,17649.33203125
8,18159.65,702.6299,10643.292,1286.4315,1137.8984,-364.83157,15468.6279296875
9,6031.297,4890.5654,-17524.66,-243.72653,5386.389,2069.8872,25087.53515625
10,15678.65,3265.2979,5749.952,-1480.5929,-5632.6406,847.0663,15275.171875
11,2476.4973,5491.4497,-2643.1707,2359.5667,1559.2268,1145.5615,8869.591796875
12,17021.475,2157.1606,5765.6846,2277.3604,-881.64685,-2415.9597,14687.83984375
13,8250.138,3839.5452,-3411.6465,-5739.622,1119.7982,2933.8447,15245.6259765625
14,15946.736,-2143.4878,5311.179,-543.1911,-2992.857,-3092.5544,17447.638671875
15,19196.197,5009.0566,12111.44,8664.153,2265.702,5947.0767,22308.345703125
16,-9506.833,-7315.492,-37085.934,3468.3142,-5816.568,-2968.6443,31462.16015625
17,-3892213.8,-3913468.0,-3889846.8,-8544.896,-232.89127,1495.2726,27084.509765625
18,4333.4307,2345.4348,3377.0737,322.51755,16243.193,-10526.181,33573.84375
19,-2373.3618,-3207.651,-1940.0269,-460.65842,-265.12344,-798.14557,2000.98559570313
20,1625.1826,6754.5366,3809.2595,811.86487,-8071.108,2250.3694,15247.15625
21,15566.97,-3679.1235,-4096.9575,2870.8052,-2768.418,-2385.3943,21057.4375
22,398.99384,1733.5869,-49.054413,614.34454,307.50772,-52.13639,2000.98559570313
23,37.01833,802.1269,-741.1677,730.12616,400.0313,214.6732,2000.98547363281
24,7007.969,6239.972,8119.6997,514.4852,118.46381,403.39432,2000.98413085938
25,-5728.2256,303.0225,9598.404,-3202.2212,-13440.739,5908.7407,29262.69921875
26,-5385.5537,-5152.847,-25938.617,-4093.3464,-4091.2097,13740.99,33078.546875
27,43411.566,37147.473,48100.66,282.44675,-18373.957,2694.2585,33547.3203125
28,10833.608,15841.346,18940.049,6092.981,-15321.259,9698.7,33881.9609375
29,7178.6562,-9940.771,-17783.209,-6971.621,-12121.035,3873.3303,33472.58203125
30,-52316.258,-33387.67,-54002.215,3015.7996,-14196.481,3056.7485,32449.701171875
31,37895.133,39460.527,38189.59,5389.5234,-16549.182,-3229.8762,30694.29296875
32,6283.161,11410.679,9285.415,3510.2627,-18230.268,-12220.714,38754.8984375
33,8157.004,6527.8955,11106.554,2266.3018,-19861.855,5729.0996,36242.44921875
34,1956.3628,630.3173,-27008.473,2804.892,-5187.4326,1321.4695,30197.365234375
35,14343.509,-7983.033,6115.285,-3460.625,1961.3002,1887.3258,20991.052734375
36,17332.1,-15834.56,-15114.897,575.98895,-2855.671,10630.351,37962.47265625
37,1916.9084,-18835.566,-26772.473,-3229.1914,-7352.563,4971.0996,30429.7421875
38,17816.133,27745.041,37163.723,12584.1455,-15029.989,-1176.3077,37917.63671875
39,15459.483,-10830.686,-9296.537,1006.48,-5155.2314,-6158.983,29150.66015625
40,21505.576,3640.8147,17076.17,6994.0024,-13454.141,-2790.3828,31189.546875
41,13770.383,-9082.766,344.92114,3765.2395,-12398.521,4802.714,31122.251953125
42,931.2267,-678.7563,779.4913,-517.2168,-445.48444,-280.03363,2000.9853515625
43,6505.802,7668.4814,6150.235,-491.29105,-641.7265,-225.64009,2000.98522949219
44,26860.535,22465.166,23105.605,775.7408,-2394.5195,-3452.9504,8466.96875
45,26730.393,28323.104,27707.975,-4886.461,15925.824,-5285.737,30303.14453125
46,34173.664,20669.11,47868.383,6384.9995,-7313.933,309.04953,28947.046875
47,-20076.078,-580.5479,-19263.248,5667.424,-5435.161,-10246.961,29408.712890625
48,4675.5493,4066.544,-3144.6023,6291.62,-4620.301,-13073.539,27428.27734375
49,42717.902,36108.21,50524.727,-4738.7935,3080.939,-14426.735,29605.275390625
50,24471.41,22299.617,27131.291,-6000.363,5422.9355,-14477.985,29028.302734375
51,1304.2123,26980.15,-12354.491,1530.6511,-5817.118,-9957.66,40031.54296875
52,22498.133,23371.926,34283.855,1849.8899,-4002.7336,-16982.492,32448.66015625
53,22150.305,19952.084,31687.527,3218.4187,-2830.1375,-16410.705,31301.646484375
54,42173.85,21319.387,48086.816,2005.9432,2944.406,-11400.276,31955.6328125
55,1805.5422,-1249.0209,6963.6216,7291.5137,-13631.213,3487.5925,28374.462890625
56,10331.759,9783.73,10939.044,-323.45908,899.46906,-294.95197,2000.98486328125
57,244084.42,242368.4,244125.67,99.880325,46.957848,418.9792,1892.18688964844
58,-122628.41,-123563.36,-123504.945,424.6356,567.69867,-746.81836,2000.98474121094
59,19210.021,-20869.64,4410.7095,-873.68646,6244.632,2851.689,37093.3984375
60,7245.847,-7115.033,19916.092,-1826.5613,11629.703,-437.7008,31065.408203125
61,17482.684,25419.408,30706.25,-10918.55,4617.061,-3236.2466,24205.75
62,8787.851,15894.23,27044.918,-13366.203,7257.7334,292.8948,30794.921875
63,23353.29,32437.723,44921.074,-7504.5503,9388.636,-6727.3027,30346.81640625
64,22675.639,-11666.259,11667.195,469.15524,2528.8018,-2202.3481,30933.748046875
65,5450.1406,15044.133,24009.348,-9472.196,11362.429,-70.02505,30247.787109375
66,-16605.82,-13941.784,-6414.701,9122.598,14813.985,-3281.866,32002.28515625
67,15599.821,19383.021,15403.344,-1019.6595,5475.9233,-4622.153,13124.927734375
68,7541.9697,11926.787,18087.475,-7837.0137,11037.484,-143.23735,25179.162109375
69,20969.318,33399.16,33259.59,-7292.249,11931.252,-9321.377,31623.486328125
70,315.37192,1391.6772,-3232.784,13503.353,14635.537,-690.72473,34765.16015625
71,-6082.658,-381.9251,10851.101,-2129.5647,18157.957,2782.9604,35336.80078125
72,21510.225,17969.188,34626.258,-7810.134,13226.095,3871.6304,31365.037109375
73,-2291.3647,-4750.3286,-11295.465,16034.672,10463.253,-6600.283,35992.24609375
74,9978.76,18880.207,19263.217,-5590.8223,11984.816,-3532.808,25395.14453125
75,19378.268,-889.127,-19932.93,159.40794,-673.9777,4135.8296,34816.03515625
76,30487.031,36060.992,35285.387,-7797.698,14474.892,-7023.6987,31405.798828125
77,16235.585,25649.014,29158.008,-3953.5376,12625.11,-2888.9797,26154.685546875
78,11890.96,11785.144,17872.693,-8283.767,13726.951,-3012.5696,28892.939453125
79,-2217.2563,-905.64435,-2489.9863,-105.769264,-519.00665,-580.1878,2000.98522949219
80,-9122.697,1661.6406,-16959.707,1539.4761,2594.5137,-2598.6904,17601.18359375
81,39687.934,26582.791,52537.473,-1421.0951,467.00473,-2348.4958,22989.337890625
82,11457.362,-9866.459,10927.0625,-3516.4326,6836.872,-385.10562,24928.857421875
83,-14630.039,-4559.0293,-37194.043,4658.8066,5090.042,7379.7153,33823.38671875
84,-7052.587,741.75775,5984.473,4167.797,-4861.0063,16005.928,31947.9296875
85,3456.7827,5444.162,-3340.8076,5903.2617,1653.2064,-13603.3545,27047.455078125
86,1313.7124,-5301.449,-15356.025,-2173.9934,3409.5906,2298.7708,16621.529296875
87,5410.2324,6652.3037,-2626.7283,12108.402,-8099.2935,10715.575,32514.98828125
88,-11560.451,12738.338,3635.5337,6813.9683,-7166.337,-41.24969,27303.29296875
89,-20177.977,-31288.238,-29688.7,-8328.674,8716.905,9847.489,28899.79296875
90,-3475.1018,16753.729,13188.09,-18801.18,-6099.859,-89.8529,39011.4453125
91,22838.404,34524.773,23177.246,143.74191,-2677.5376,-1736.523,12780.5458984375
92,628964.5,622346.4,630085.94,3284.5266,-721.7262,3129.7214,10760.6455078125
93,17536.576,26163.115,35063.57,8489.954,-16434.865,2533.437,35724.2578125
94,-1940.5938,-12781.029,7283.4873,8880.49,-14972.2705,6614.87,36646.3828125
95,10602.081,20540.959,32740.215,4841.0957,-17683.291,-5179.9834,38180.515625
96,6003.9697,-9883.571,-17881.076,9798.722,-1388.1825,-10075.602,32277.142578125
97,8794.544,1933.2913,7334.0215,-760.3335,6134.0986,-2255.6685,13002.6474609375
98,21992.14,35119.113,42337.418,-4604.027,12247.859,-9674.409,33370.34375
99,437.47858,6625.5015,2629.7244,-7908.465,15398.667,-5843.9355,32108.798828125
100,5836.09,4814.145,22332.037,729.2045,-307.31665,-12837.705,28041.34765625
101,21477.193,26877.629,27502.203,-8119.149,-14769.404,6638.38,31895.13671875
102,24800.11,32604.992,29869.28,-818.2034,-13750.463,-13065.967,33592.27734375
103,91855.81,86231.85,92533.055,4510.315,-17567.03,-3258.1848,32474.20703125
104,29928.143,30189.145,38636.105,10701.599,-17082.344,-3799.1895,36550.20703125
105,16324.699,-10021.341,-2298.0256,-4348.6914,-7899.794,4833.0073,29399.185546875
106,28093.027,23038.273,35686.664,8364.297,-13479.598,-13435.015,37657.3984375
107,-3137.6868,-9144.691,-6967.002,15521.651,-7312.46,4507.1562,31174.82421875
108,18713.64,3390.6165,1151.2786,3887.9263,-10158.752,-4975.9893,26520.8046875
109,14056.076,19598.215,24452.39,14069.053,-9195.931,-12415.453,37297.73828125
110,3833.2021,8303.482,-3737.0254,-4549.849,-807.6724,-1417.149,13461.7275390625
111,12681.936,-6971.8896,-3442.3271,6100.6655,-10577.981,-5038.02,29203.453125
112,-7213.585,-7402.7812,-95.60399,-7735.388,-13232.597,-2038.3955,27736.7421875
113,-39346.703,-4630.35,-7681.9966,10430.442,5236.9854,-963.70026,38987.71875
114,-24753.633,-18271.016,-28589.451,-5251.88,15872.629,3730.1904,31014.75
115,12438.073,4111.695,-22012.545,-4544.446,-8885.603,3701.5144,36183.5078125
116,9780.596,7019.8887,18727.379,-8064.3423,12423.686,1274.0972,27845.65625
117,21159.387,254.41284,-9016.449,-5978.1396,11401.212,2113.881,35033.65234375
118,15887.186,13676.259,29765.473,-5782.1187,12243.356,1427.9843,28005.255859375
119,23363.986,23566.107,35564.645,-8528.238,13333.772,-148.833,29967.62109375
120,11053.153,7646.2573,21643.527,3774.4548,9310.816,-5868.1743,23789.978515625
121,-19901.307,-21649.318,-20828.295,190.07913,-727.3584,-68.156,2000.9853515625
122,18155.992,25522.438,26070.27,-9994.623,10817.115,-2112.1438,26882.9140625
123,27510.318,25680.57,30824.275,7773.8394,-15409.39,-13002.783,37699.55859375
124,21877.814,18705.203,27218.053,12379.171,-15968.384,-5296.835,36937.71484375
125,12551.303,23091.13,27711.95,-4784.9385,14144.62,-712.8956,29181.5859375
126,16809.445,-13802.439,-19402.09,1431.2495,-1529.5021,885.6678,33990.82421875
127,2472.374,2881.874,1967.5338,-523.28345,-858.1284,-338.63788,2000.9853515625
128,55213.324,61231.6,75511.766,12014.7295,222.88629,-9936.276,32488.208984375
129,48788.0,41043.027,57003.855,1339.33,2103.9834,-14919.572,29623.623046875
130,8547.916,8597.568,-10586.251,-2217.9148,13259.056,8925.753,33885.70703125
131,7216.131,-8626.288,3027.9363,-1508.4147,4339.3613,-1499.1672,16499.4140625
132,6012.584,1077.5029,12543.854,-2690.3245,-7451.503,1580.6716,17176.3984375
133,1120.3789,15615.72,-520.56494,-3042.9417,-823.1049,12978.637,27780.203125
134,3765.5967,4676.9077,-4427.4365,3057.0442,-3313.729,13698.785,26445.638671875
135,-11709.164,-10726.241,-12422.81,7114.2793,20426.115,5015.9375,38486.01171875
136,-5650.6343,-4636.6445,-8105.427,4183.018,11856.479,4417.5625,23287.53125
137,41628.953,50033.95,64684.79,486.6006,709.4987,-13997.811,31598.54296875
138,-262.2498,-2176.3235,-1602.9927,49.465805,-348.3501,-473.09552,1984.39697265625
139,20386.121,18703.553,19464.709,-242.07196,87.13838,-747.35284,2000.97033691406
140,31486.85,22906.326,31804.55,895.61743,-4775.142,-3205.177,13344.818359375
141,28081.852,33050.273,37673.18,-4074.6248,15992.296,-2847.9119,30173.251953125
142,9516.773,16359.107,17511.572,-3141.6672,14691.481,-8935.854,31188.28125
143,18842.182,32210.234,41423.03,-4727.7188,14211.854,-3288.2388,33047.8359375
144,-20555.418,-2636.7817,-11563.776,2090.0903,19521.783,3317.1624,37818.3203125
145,-504.43448,9477.135,10291.35,-6384.163,9898.952,-5144.624,24577.70703125
146,25395.828,21145.781,36018.05,-9267.874,11111.068,-3133.3528,28871.111328125
147,201.38419,16563.426,21932.537,-6542.774,9763.797,-8415.532,31800.5625
148,3339.1472,14803.885,18000.658,1620.3741,4944.0264,-3730.9436,17357.3203125
149,-2690.61,4890.599,2699.8003,10978.822,-13284.095,725.9656,30630.89453125
150,2253.3752,-28679.861,-6880.3213,-5875.2305,7701.5396,-12935.347,39258.3828125
151,7831.9536,-6071.2734,-6272.25,-9248.451,1624.8433,7479.624,25069.712890625
152,55686.105,47649.27,70586.18,-2521.2258,-4456.5493,-14731.234,33705.078125
153,39136.13,10661.382,42857.37,-2343.7712,1776.4049,1733.3739,31073.794921875
154,-7345.284,769.6879,-15139.394,875.07465,-8414.433,4102.458,21331.798828125
155,20200.447,21221.91,20765.475,1352.9113,-14590.186,-12082.605,32906.91796875
156,-3447.2747,-24309.596,-23079.5,-1297.0608,2139.0308,-16243.694,34949.0078125
157,29651.432,29671.047,37934.945,-10790.817,-13245.1,-186.1605,30727.5390625
158,17208.988,28420.543,26849.762,7462.4053,-18315.262,-3662.1848,36389.546875
159,24331.076,44122.91,42789.51,4630.447,-16363.405,-5902.6245,36595.5390625
160,-1610.1614,-12461.202,-29239.377,2806.7905,-10607.307,12376.436,37443.5625
161,16371.904,22502.352,30638.607,9619.311,-8646.082,-14697.344,36104.75390625
162,-6464.2915,-3089.4119,7600.6323,13949.482,-10435.935,-8153.216,35660.3359375
163,-18094.219,-991.8901,-15197.523,2666.1116,-1202.374,1180.4213,16768.482421875
164,-3006.735,-833.7812,-9107.541,3401.2354,-7660.468,19238.336,37098.41796875
165,4903.4204,-6465.1885,-14855.351,-2257.9863,-4829.137,6262.1104,22314.20703125
166,15078.87,3600.177,22465.848,90.193115,-9253.778,3358.3523,23703.96484375
167,-867.6096,2080.8333,18116.018,-3907.7,1444.9426,7840.672,23443.583984375
168,52641.65,43001.938,59430.773,-3561.3943,-5910.688,-15008.171,31985.251953125
169,-24044.195,-27677.992,-30183.906,-5512.2656,-1492.3291,-17321.516,32039.525390625
170,-4440.8633,18518.758,5223.557,4522.4478,3991.4912,-8899.685,27302.390625
171,-4047.4526,-14223.367,-7033.4443,3771.7927,-5421.2393,9367.454,21821.470703125
172,-2259.8076,-5609.7373,7489.928,7812.7485,-59.984936,5392.378,20231.201171875
173,8674.122,-2421.3586,5590.2056,2547.5364,4243.2886,8493.971,19706.130859375
174,13776.778,24915.492,25169.467,-5577.295,430.779,-18033.643,34590.12109375
175,-10264.296,-306.9805,-14654.384,1678.2379,5628.8105,-18915.703,36592.9765625
176,-4132.9956,1968.1489,-2124.2327,2726.0671,5942.9746,888.7775,12634.2509765625
177,1900.138,-12201.63,-13735.531,2074.9927,8209.494,-2424.5496,21344.38671875
178,-30296.025,-33511.293,-43263.246,3217.1035,-7987.587,-14355.845,31265.291015625
179,2752.4675,3852.185,16701.777,1212.6265,157.22464,-19782.111,36863.71484375
180,229.43394,5185.8867,-4384.5967,1386.3844,57.619625,139.83063,8634.7978515625
181,824.0313,2068.9707,-5071.4116,1544.5597,20353.889,-5477.1426,37197.34375
182,12242.7705,333.35245,3255.2666,1094.7186,5067.1963,14795.711,29205.091796875
183,3954.0933,-10826.414,8874.61,-3337.6172,4489.12,2489.39,20685.005859375
184,2288.9563,3046.4526,2570.9746,-133.17505,828.3523,-695.8269,2000.98522949219
185,-2280.723,-3009.1018,-2332.399,45.118805,-369.14505,1015.458,2000.98547363281
186,-937306.94,-938154.25,-938186.9,190.72948,53.54118,-1023.2696,2001.40490722656
187,80639.48,58577.676,100057.5,135.40236,2816.743,-3718.339,36844.46484375
188,-5237.5605,-3978.608,-5696.8,-720.3995,-80.52523,-133.59311,2000.98571777344
189,-8599.549,-585.7949,17104.889,-6248.364,-2103.5037,-2344.13,25803.76953125
190,29946.236,20199.988,6001.2617,8971.602,1100.3314,11661.678,32985.796875
191,11587.651,-12243.0,-13465.798,5853.299,-5978.193,-7151.498,31015.587890625
192,-10197.194,-25706.525,-38858.695,-340.80185,-8516.791,-7836.7017,31932.705078125
193,-39482.055,-51545.062,-64871.46,2601.1663,-16079.92,1251.6382,35840.6875
194,-118.31184,23936.502,19615.809,12333.387,5594.957,2404.2244,32572.345703125
195,25321.23,20428.756,23832.686,4347.882,-21099.443,2103.1375,37741.3671875
196,47022.785,51626.273,54480.527,6203.6763,-18634.09,-6264.2734,36295.26953125
197,18873.857,13939.385,-18679.338,-2804.581,-4125.5405,2643.6677,36673.0234375
198,-2836.0974,-8278.715,-31448.045,7609.9365,-10268.031,7833.201,36968.2265625
199,19321.977,16984.084,27575.555,7460.7812,-18978.975,-2756.8074,36922.5859375
200,6544.727,12143.876,4623.544,5503.9067,-18038.746,-10227.792,37771.546875
201,1652.428,7247.01,1791.8885,5583.3984,-15877.304,-13689.875,37981.125
202,-13407.959,-7949.572,-25875.127,11859.481,-13223.742,4445.467,35483.875
203,5881.823,13552.66,11606.049,2425.178,-15366.525,-12812.935,35584.37109375
204,17318.58,9777.292,11526.874,10226.542,-18743.197,-1795.275,37736.9296875
205,-3058.623,5705.2236,-6620.562,7362.342,-16849.021,9298.454,37341.30859375
206,17059.986,11174.537,30209.652,8423.804,-15416.755,-2180.815,35001.74609375
207,6190.3384,7010.1504,-20985.453,-1897.5087,5314.058,-640.16766,29295.451171875
208,7311.4316,8038.051,17020.82,13883.378,-9247.487,-2658.5144,30720.365234375
209,2274.9712,4889.5405,17176.902,-1982.0461,-5278.3945,-10203.26,24446.48828125
210,1976.3206,-5151.924,-10872.2705,5929.475,-11223.31,-6855.9033,27362.1015625
211,-1358.0419,-2259.1753,-251.0016,-549.20935,20.799036,144.4314,2000.9853515625
212,434.5296,-1391.6025,-137.64427,459.42215,496.77206,66.11354,2000.9853515625
213,726.5914,2036.3817,1691.35,-352.4512,513.9288,-696.71387,2000.98547363281
214,-360.6288,-1031.7802,462.0798,402.98123,-773.8279,-116.73161,2000.98596191406
215,11676.166,6692.733,12935.178,-3812.5273,2580.608,6683.3403,15174.9697265625
216,-14817.855,-13136.6045,-1815.0618,1472.8638,889.93677,18447.377,34348.7890625
217,12089.026,-2950.9172,6434.53,2991.1055,-7440.2646,7760.5273,23382.044921875
218,23972.182,22665.867,44511.9,5281.585,-301.7888,1443.4746,23251.392578125
219,14581.349,-337.92426,23917.783,4748.536,7765.3687,-11841.678,33440.5625
220,9333.056,-2291.496,20616.594,3620.0342,-954.6031,3255.0273,21620.54296875
221,-15663.483,-646.86005,-9584.01,-200.24304,-2327.846,8992.31,20739.517578125
222,7867.299,-9872.616,25621.092,-721.25555,4687.478,3309.1794,32329.283203125
223,19739.96,8675.724,35091.277,6871.247,9703.8545,-1454.2417,30958.2265625
224,8041.7573,5699.959,6723.1045,2880.135,3691.7537,-8732.676,17282.544921875
225,5674.344,5142.144,12356.372,1463.5276,6203.6323,19094.236,35554.73828125
226,6866.638,670.1492,1878.9999,9633.03,-1543.2596,5763.949,20434.462890625
227,5546.7017,-8682.394,8969.859,1681.9076,-1237.7133,-8456.141,22147.1171875
228,18331.023,46576.633,41558.86,1785.9946,1525.4419,-8341.433,30108.98828125
229,-1297197.6,-1293638.8,-1282228.1,15776.235,-5326.551,-901.5469,31901.419921875
230,-67875.484,-55850.605,-44742.96,-7047.1763,-6210.3164,-7815.904,29146.232421875
231,-7950046.0,-7954221.0,-7949846.5,1839.7533,-138.83345,1018.5527,5623.8408203125
232,-5220523.5,-5219937.5,-5219879.5,-214.54886,996.2867,-372.726,1978.22570800781
233,3762.4438,14579.129,-3187.3071,-702.0386,12330.688,1448.049,26540.154296875
234,35471.64,15815.19,18068.08,-5865.3237,-9369.934,-10602.824,32419.4453125
235,19340.768,7296.147,8766.837,-9063.76,-1634.5507,-8532.113,24543.49609375
236,-2163.0747,-5013.011,-8365.5625,885.7577,12024.611,-717.4393,21600.6484375
237,-12759.456,11552.586,-11348.174,-6594.24,-1809.8287,11219.684,32812.77734375
238,-42831.18,-22125.777,-47496.996,8052.865,5358.617,-10653.174,34179.69921875
239,-13901.07,832.3299,-22327.627,-13118.522,5221.5957,-8159.674,34785.83984375
240,2947.6628,4910.3594,4045.7703,11590.931,-351.67596,-9946.874,26516.857421875
241,1336.6372,26257.727,-5973.837,8183.078,-3311.13,11802.274,38837.46875
242,3458.1067,770.1256,-9103.41,2619.592,-4258.7046,441.34854,14381.6787109375
243,-15770.462,-11734.402,-46474.14,4592.643,7035.2207,-4260.624,36730.7265625
244,5364.9116,2288.6873,-19468.62,7413.189,12764.988,-8390.229,37612.00390625
245,19664.793,-2257.7876,13578.586,8498.212,-15592.589,-3161.3381,36881.48046875
246,-13036.88,3601.1868,-22781.5,-1821.1913,7933.74,-3819.9106,27865.2578125
247,26494.842,14704.42,10486.216,-11254.68,4349.3423,-3265.9177,25986.421875
248,28850.484,-6775.337,-6369.863,25.396872,6285.8135,-8911.488,40145.9609375
249,27128.203,-10742.384,-224.81554,4555.1807,4471.0327,2879.9739,35966.59765625
250,-18191.21,-13335.711,-14823.404,92.50997,15107.408,-1696.1874,26681.900390625
251,-5272.8354,13757.355,-2848.2056,6511.0293,13716.971,-2085.755,32040.337890625
252,-9015.076,-34755.457,-40986.51,-495.91837,-6965.3657,2549.902,32055.822265625
253,-13326.04,-46298.332,-19427.148,3265.3823,6152.824,10899.053,37751.23828125
254,-12070.446,-14693.424,-12876.568,460.72498,669.91364,951.7558,3180.578125
255,3878.1147,8702.864,-840.16864,-2154.3154,-5181.8213,-736.3698,12822.1953125
256,-190.87192,1077.933,-56.394676,416.88696,-523.1235,-633.5769,2000.9853515625
257,-1976.3508,-808.5186,-1615.0833,227.72987,-922.1364,-273.805,2000.98559570313
258,-2793.4048,-12617.63,-7509.994,1839.2189,-4550.862,-3451.547,13432.9267578125
259,-22429.785,-10086.881,-14477.371,-6263.392,-1982.9178,-4627.39,17639.6328125
260,583.19214,17482.756,-11444.3955,-3338.277,8042.788,-6676.8467,31539.681640625
261,-36678.805,-29824.012,-30079.975,11646.745,-4184.4595,-15604.09,35145.85546875
262,-16907.95,758.5498,-23570.42,3787.496,-3254.1018,6746.9536,26183.263671875
263,-2361.2095,3935.836,-15028.338,-2493.3618,6390.8394,16281.294,34875.421875
264,1601.3796,1278.2848,-2725.6863,5804.884,-6704.317,-11927.643,26080.05859375
265,6308.3213,5936.524,6362.9463,-9091.992,530.1942,-8126.8657,21145.58203125
266,-28561.865,-9068.838,-45224.086,-249.48462,3559.2205,1727.5471,32086.5859375
267,3483.8125,-6598.7363,7335.1006,2620.2192,-734.6899,-20334.354,37656.26953125
268,-23061.766,11903.325,7846.827,-3013.8738,3058.9883,-3709.0703,34550.9921875
269,312.90375,16737.914,-20718.494,10783.398,1733.1177,-7842.1133,39998.67578125
270,-8262.173,12899.713,-19567.115,-7853.7573,4208.3267,-6547.162,34374.8671875
271,-13603.106,-19031.613,-23419.74,18739.553,-353.7742,-4668.141,34522.5703125
272,-376.50253,3965.4597,-29548.031,-7399.1816,978.6446,-3277.9854,34580.9921875
273,8769.894,15611.279,16955.348,3372.5996,4781.31,-8773.821,19785.15234375
274,5984.357,7818.431,7733.7876,-18.76701,45.984657,-510.16574,2000.9892578125
275,1467.2301,-160.7818,-198.19214,93.42734,49.98101,647.1153,2000.67028808594
276,2409.747,-30292.355,-24661.814,-172.8931,-1779.0171,4590.2744,31461.02734375
277,10093.048,7458.319,-24287.008,274.84543,-8104.2515,6943.9873,37950.86328125
278,-8375.647,-9522.949,-44055.527,2797.942,2096.1042,-403.4191,35645.32421875
279,-19087.986,11867.614,4504.4653,1612.1042,-4987.917,-1231.4098,29521.486328125
280,32778.9,17836.424,6821.781,-6547.8535,-3450.2256,-7367.8364,28920.171875
281,832.6108,-17498.846,-25840.205,-10327.786,3.028348,4697.448,30736.255859375
282,25714.316,6744.139,-13252.094,857.0454,59.685757,6539.6226,35630.93359375
283,-10118.003,-4378.4395,-22468.328,533.48035,11095.611,10146.128,30584.013671875
284,-1371.9865,16455.615,-1632.972,8927.033,11973.476,2532.26,31795.4296875
285,6369.078,25336.586,15094.641,-3141.6013,-6160.0117,-3183.6377,21077.296875
286,-8500.703,-13305.36,-38296.098,-1526.2928,-12785.871,-2461.3538,35823.0703125
287,-3187.8171,2961.7256,-10501.34,-756.63965,-9283.271,6627.3374,22984.755859375
288,18447.162,27304.986,24181.717,4685.206,-16982.938,-7636.041,34155.40625
289,4830.1353,4571.3027,1110.5957,3565.4265,-20706.342,5128.3457,37632.87890625
290,22997.35,22503.861,31320.764,8625.814,-18751.406,-1503.0914,36857.3984375
291,55246.67,57906.133,62957.438,7240.5547,-19157.68,-3215.751,36542.74609375
292,21637.93,2596.1348,-15521.481,-4851.111,-3113.3054,-6512.832,35535.31640625
293,4126.767,2717.8997,15138.39,-3933.5393,10692.462,6972.203,25961.392578125
294,5410.1855,2256.9937,-4875.643,6123.4106,17168.158,7728.1064,35485.265625
295,25652.588,5981.5776,211.10269,-1987.5947,10491.089,-9731.174,34057.09765625
296,9212.386,-16640.229,-3012.858,-2957.4968,1498.862,-156.62474,23126.033203125
297,-3601.791,-4560.3037,-5208.5093,12.005877,-818.24384,-107.56574,2000.98547363281
298,-7042.6577,-7034.807,-22154.992,-5402.052,2555.2236,7303.656,22263.546875
299,23442.31,-1162.393,27528.13,4196.495,-4506.0146,1932.2855,29112.904296875
300,17394.076,-1395.4745,29600.754,2707.6123,-484.18323,-6491.495,29673.6171875
301,-6959245.0,-6971796.0,-6968239.5,-1212.52,2719.6274,6521.437,16725.005859375
302,27224.102,11691.433,7384.255,-16299.504,6141.0107,-1958.8586,35332.51171875
303,18407.326,37399.367,-9.956263,-11094.101,-4771.3784,-500.3029,38574.109375
304,17483.45,39452.164,10478.16,8835.172,2808.293,-10691.858,35866.19140625
305,7305.5874,4202.757,-1414.0428,14490.331,2703.3882,-3705.7112,27415.958984375
306,6316.5415,12949.996,22931.969,1965.7007,-6993.772,-1561.3003,19377.845703125
307,3162.2979,2414.0088,1802.9053,163.8743,-672.99884,-625.548,2000.98571777344
308,4858.0615,12643.216,10031.237,-3416.819,-5107.4536,-9752.737,21112.23046875
309,-10489.896,12177.894,-2340.8438,-2937.356,2447.665,-17301.445,36570.37109375
310,20765.658,3418.227,20760.117,7472.0444,-10500.147,2114.9976,28504.572265625
311,3811.7131,-714.1181,244.46687,17396.6,1569.3594,-13852.301,38833.4375
312,-57.153618,-340.14557,-541.10815,326.23074,622.7071,-883.9364,2000.98571777344
313,5390.6694,-2695.9229,2493.7397,-13.695739,-1676.3613,-3756.1572,10055.6533203125
314,6317.175,-8009.5933,-7799.7188,-3150.0579,-5122.012,1632.9412,17854.037109375
315,-246.123,-274.72305,-9425.97,4184.306,6964.284,-135.10808,16795.583984375
316,6429.88,-24581.896,-10661.102,-12271.867,3279.7898,5576.5913,36071.76953125
317,22396.285,15407.847,11004.397,971.55756,-12820.323,-12401.228,32500.5703125
318,17164.355,8178.338,4705.4478,-5191.608,-20000.438,6645.2397,39209.76171875
319,14047.21,3029.803,1568.7952,7437.728,-18382.008,7342.0205,38483.5546875
320,24748.975,41920.63,32599.139,10171.752,-4103.7163,-9161.834,28886.3828125
321,21393.291,-1792.3278,8722.752,4299.932,-5603.013,-7496.0557,26880.537109375
322,-1121.1683,553.8435,-717.62103,-446.67654,-235.73454,561.5758,2000.98559570313
323,-1318.7379,-1478.9641,-1106.2706,-24.322687,-247.82825,1091.8138,1966.48449707031
324,1113.9532,-453.02753,727.7701,673.4034,-462.64276,-25.718086,2000.98486328125
325,-1209.8047,8153.145,-10879.074,507.3602,-1290.7311,5097.527,18852.5078125
326,2277.5574,-3892.7131,-11352.446,-4789.7007,6781.987,7673.662,22873.859375
327,18005.477,17871.016,21666.904,3147.77,8230.289,9938.304,23305.888671875
328,14609.623,-2377.088,-21082.271,4027.3977,-6207.36,-4787.5146,34484.58203125
329,2161.675,-17413.102,-674.7648,12375.191,5258.4634,-720.1847,29658.7421875
330,-17568.492,5443.213,-3234.9817,-5467.5854,13612.945,-4527.163,33350.49609375
331,2744.1433,-1107.4574,-30902.062,3137.9438,-349.76245,9711.043,36470.953125
332,7030.063,-1643.8363,22411.916,-6038.843,-2879.0374,3584.8054,24861.224609375
333,13650.505,12799.165,28083.506,-10563.362,-3865.4077,-7044.392,27381.96484375
334,18474.37,-16578.068,11280.885,-5732.71,1383.6642,-3629.054,34236.1796875
335,-19202.73,-4645.3125,-32786.49,-8536.5625,-4844.4556,-10694.15,35018.578125
336,-30287.902,-24792.875,-20191.27,730.61487,345.5142,-13633.947,25224.375
337,9576.806,23206.98,2112.0369,-5487.4316,3953.506,-2456.4915,22328.904296875
338,10995.013,19483.139,19571.332,-448.40247,-7694.6665,444.51654,15862.669921875
339,3908.8887,-2348.7192,12208.875,-3201.5347,-8145.03,-10264.733,26567.908203125
340,-5046.704,-5467.915,-7006.455,2466.974,-11126.805,9926.297,26238.556640625
341,-20449682.0,-20447080.0,-20448480.0,-260.7781,-243.08383,-352.44876,2416.9296875
342,82496.07,111920.984,100422.164,3970.912,673.9727,-2890.66,27081.94140625
343,3981.5637,3724.2183,21707.252,-3409.5217,487.99002,-8252.766,23637.70703125
344,5442.9937,9711.558,4655.917,4137.975,-3264.5642,-1780.6704,10726.2685546875
345,4156.7583,10845.692,15407.663,-12661.635,868.7367,1248.3331,24165.2265625
346,-75460.8,-43984.508,-40853.977,10141.854,-3976.6233,2641.6028,38419.27734375
347,-8804334.0,-8804525.0,-8806042.0,-458.08438,289.6424,1283.4469,2906.9619140625
348,3410.991,10461.101,5369.9067,-1461.4064,195.03485,-3613.1938,9242.1630859375
349,-9423.308,-11545.783,-10384.793,-27.731987,-392.84863,223.61852,2000.98486328125
350,5771.6416,5133.4243,4862.564,1669.3845,-796.76306,1763.6678,4500.01708984375
351,-1285783.6,-1309310.1,-1284114.5,3139.0618,-1454.8481,11535.536,32104.01171875
352,-1622923.6,-1614671.5,-1623618.0,-2345.125,2249.9736,8567.664,18061.294921875
353,-2468.3765,1752.3544,4814.1123,1345.751,6775.4707,7643.0283,18934.455078125
354,9404.142,-664.33203,13693.329,-1054.8563,-3257.411,11600.619,24532.63671875
355,-11839.654,-948.94507,-7555.428,641.09656,6699.943,-1017.6639,15143.03515625
356,-8267.134,-9903.315,-3888.0916,5987.945,-72.36697,-2373.6072,12389.6005859375
357,-5640.0127,5129.014,593.0103,-2139.1272,-1708.8523,6657.5254,15593.4267578125
358,-657.2499,1868.6868,13202.722,-3598.2139,-2417.2341,902.4677,14909.177734375
359,3414.1235,2186.8015,4736.9937,2522.143,153.44214,-258.63315,4922.88671875
360,-3272.6733,9231.938,1632.1506,-3027.7966,-944.935,11964.425,24056.462890625
361,-884.0313,457.5999,-2017.849,-905.60205,-282.23456,-136.18056,2713.23266601563
362,-13970.553,8763.48,19124.16,-2489.2456,2397.4158,1009.07874,29976.767578125
363,4322.3384,-8774.535,-17890.348,7335.5547,-3412.6638,-859.02435,23929.029296875
364,-2354.3997,3607.988,1584.1073,2808.7185,424.52496,528.6267,7254.2880859375
365,-21211.26,-3993.6394,4121.307,660.60565,12383.198,-10572.028,36036.95703125
366,22343.047,8059.429,5732.3247,-2030.9232,7461.862,5871.721,22924.224609375
367,5960.8535,-1485.4607,-2651.7214,1670.5573,5685.1436,-705.87616,13127.1376953125
368,6898.633,231.63976,-4270.9097,1258.0729,-1898.7106,1236.3357,10718.64453125
369,4527.662,1452.4785,2820.464,-926.4356,-2866.0076,-426.1468,5906.181640625
370,-4410.649,-546.7977,2016.9161,1254.4473,-224.38127,-125.80505,6027.20703125
371,-1241.2405,120.75514,-68.28044,776.2812,89.45985,63.44447,1864.73132324219
372,-666.9796,451.67358,314.6266,-191.3228,8.988018,-75.022194,1115.25756835938
373,-604.2987,-1077.9523,769.7564,-123.64459,230.43275,143.98134,1740.84887695313
374,-7181.9463,-7757.6943,-17322.928,-10697.569,147.20775,-1658.2676,21188.697265625
375,-7135.4683,2730.616,-18738.78,581.54895,-435.36005,1426.4778,18818.697265625
376,-4984.2734,3224.5168,1461.5654,4557.501,29.030514,133.53662,10880.6708984375
377,-936.1235,-988.4472,1598.0049,1710.5492,296.94995,-369.52164,4001.15625
378,-10435.243,-11072.203,-17331.834,-6138.7563,-4924.438,-3504.7012,16316.4912109375
379,11920.404,1167.367,12478.763,1218.5271,3769.9902,381.55505,13018.189453125
380,6695.0835,4739.609,8408.821,62.374992,679.8536,1538.0566,4313.59228515625
381,3826.9944,1062.2916,9741.068,4356.869,71.33378,2951.538,11919.2041015625
382,7204.6167,-300.6496,-6777.815,-1695.7418,-2764.5962,110.73613,13359.9375
383,-1412.1504,-1200.1116,-1354.5645,1263.4653,1113.4907,-71.63525,2925.76123046875
384,-1374.6774,-370.06708,-359.78543,720.693,172.94077,23.164349,1633.77075195313
385,-1790.3821,3721.7705,3670.5886,1550.367,411.93686,-1094.2322,6435.55322265625
386,-4514.086,23370.656,3801.4995,5696.829,1585.648,4453.133,27914.611328125
387,-1978.0532,11613.942,19808.297,-2496.6094,5396.6064,-9105.392,26796.662109375
388,-14510.255,-963.5494,-9152.082,1345.9052,14.05677,8790.431,19413.59375
389,7388.0933,27887.504,29606.3,-5363.547,-6255.588,-9230.634,30294.029296875
390,755.542,-1087.477,-92.685555,98.55857,-316.59467,48.07544,1699.90625
391,-2047.4393,3185.9329,-6564.5356,908.76855,-1349.2616,-8311.875,16930.236328125
392,16247.329,-1525.658,-143.22311,165.86403,-1773.2413,-2239.9795,17826.62109375
393,9379.713,-941.91736,1477.0719,-123.55971,-4511.664,-719.8706,12250.9365234375
394,2760.4077,8641.593,18121.867,3541.3892,-2864.595,148.34317,15573.2861328125
395,547.4186,10873.558,2064.5515,3803.8733,1753.2026,1508.2356,12357.9345703125
396,39557.504,36067.48,70443.49,-59.436974,53.286858,758.6621,32797.3046875
397,12856.429,2253.6565,-10806.841,2281.0444,-4273.243,-4794.306,23681.64453125
398,8228.53,-518.33856,-2958.8943,-110.04582,-2713.208,-448.49185,11248.7998046875
399,1705.5414,646.4445,-8804.437,1143.9442,-1437.9028,-1682.1252,10911.80078125
400,-6538.4814,1269.4368,-23419.105,-3808.2378,582.6244,-200.58899,22855.38671875
401,-8886.398,101.3342,-14884.89,-1443.721,975.91095,253.48688,13415.5517578125
402,-4537.892,17075.764,20061.104,353.27557,-965.8655,1348.3505,23435.30859375
403,10689.376,1942.1698,10547.635,3312.2405,1493.6139,2678.2898,11679.85546875
404,4789.285,-1275.4122,2311.9053,832.8267,934.104,604.08356,5804.0166015625
405,1099.2601,1088.6733,-907.16095,3377.7017,-141.25923,1858.0464,6974.8173828125
406,19271.46,1832.2866,12273.784,-11612.077,3876.172,2715.9817,26510.060546875
407,7137.5225,-2499.8547,-14819.691,-2278.9302,-2842.799,1689.0088,20292.158203125
408,7422.0923,-6903.6606,-15237.109,5505.7783,-1208.6637,8256.169,26341.466796875
409,6906.811,-943.36475,-1953.4846,1574.1405,-475.4236,-2177.839,9639.294921875
410,-1251.3363,1707.828,-2574.656,133.82906,353.60974,-1024.22,4242.60302734375
411,-5190.0396,1647.7461,19389.912,-2912.4546,3549.715,3669.2034,24217.65234375
412,10169.745,-864.69196,7479.0093,156.30412,917.7558,-489.65155,10130.5234375
413,-7474.709,-13023.639,-2359.8574,-10437.604,1066.1372,-7283.8354,23973.6875
414,3124.0503,-2220.4202,8937.255,4169.054,3715.1284,1368.007,13877.6484375
415,1674.7711,-3827.569,-2675.3022,5122.3486,998.59564,1126.4141,10525.0498046875
416,2892.4868,-1366.6138,-5539.839,-527.4225,657.1239,-2671.7312,8767.80078125
417,29805.26,36267.164,65576.04,2130.2688,1258.8862,-1813.7931,33442.421875
418,-4554.7354,-5911.2896,-14615.626,-1005.7637,-777.4036,-4654.489,12619.5947265625
419,-3101.5493,-4573.0957,-23212.336,-4875.962,-1016.83673,8010.204,25375.818359375
420,4693.085,10425.315,7675.6235,519.7073,-2092.2183,3502.1912,8683.0791015625
421,-31148.154,-10798.427,-22544.373,-6007.466,-2017.847,2869.1768,21406.365234375
422,2117.2515,9519.756,-3828.751,5954.6377,2018.5905,5315.9634,18372.34375
423,-11332.182,7323.6006,8324.17,4580.0137,2178.5757,-748.50385,21131.83984375
424,-3437.267,15919.792,18027.61,-1359.8541,-950.3341,-786.09155,20737.662109375
425,-341.66617,-3625.4358,-12695.765,674.23126,-1800.35,607.41895,11620.3828125
426,-870.1409,16033.068,7611.8843,3148.0366,709.09296,911.4808,15748.68359375
427,307.77017,23212.531,-11297.782,8582.868,9994.697,-3441.6958,38488.36328125
428,10149.631,10584.483,31757.234,-1134.3344,-202.74567,2102.523,21792.814453125
429,-1359.7286,3530.7463,-5961.924,-879.8818,-66.421585,-3247.4504,10078.5654296875
430,-13600.999,-7978.668,-5451.533,763.25696,-1429.8878,-697.96246,7845.271484375
431,-18528.973,-5700.8384,-29011.771,3530.4148,6317.4556,-819.15845,23834.01171875
432,13520.776,2268.1013,-1639.8209,2527.3445,2491.4119,-4.389489,14955.0322265625
433,6157.5366,-187.12744,1805.5018,1876.162,-284.3817,167.47716,6516.86181640625
434,7342.379,942.2112,1563.456,-664.6897,1797.7216,398.2132,6990.607421875
435,3032.09,-732.5824,1562.8062,-96.00211,337.5823,132.02458,3349.92651367188
436,13630.39,-8510.809,-2918.2012,-13297.952,-3349.3613,11434.62,36798.0390625
437,13049.931,-7153.375,2242.5312,-4729.9727,6167.4766,5805.6147,24268.806640625
438,-2894.3364,-157.66248,2982.6733,6076.3276,35.126072,-1192.7333,11873.5830078125
439,3063.9253,-2361.6477,-7122.6333,-2882.924,-638.0403,147.38268,10205.640625
440,-929.1812,-620.7475,740.0791,873.844,-123.891075,97.09796,2175.28076171875
441,-20.418213,-2632.7832,-4775.519,3146.944,-537.4203,1686.8827,7491.75048828125
442,-5018.773,1176.3754,-298.86304,-2262.4812,888.76373,5658.619,12050.0185546875
443,3907.9194,2957.1401,5816.49,-9992.434,-2835.0125,-1732.5604,18412.62109375
444,1832.0667,-16013.78,1841.6414,-3647.6294,-8438.01,700.9974,23950.6796875
445,-5489.4556,-4786.621,-4404.9575,175.28699,772.2069,-609.0667,1975.3134765625
446,30721.031,8252.851,32293.387,-5082.314,-2774.323,-2559.0916,25745.806640625
447,-2767.353,-1594.2804,-5875.424,-1574.2388,-898.59106,83.55682,4955.8271484375
448,-5303.659,-2272.913,-915.1382,1660.8529,797.8737,-255.73424,5052.26171875
449,-4552.14,-4013.1987,-90.37109,1681.1761,338.63522,470.7628,5223.13525390625
450,-2628.1567,-7676.819,-14501.326,1876.3525,-1544.4769,-1182.5841,11332.755859375
451,-3562.647,-1069.4648,987.41797,-5004.8774,-994.2494,-867.4089,9795.10546875
452,-4950.0635,-15425.633,-3525.0103,-4066.6348,-1737.1033,-3488.068,14895.0185546875
453,-1016.75977,951.0093,24844.303,-9760.762,-9922.295,1647.928,34800.83984375
454,1012.70557,-5618.666,-7240.6914,695.30585,-2292.7134,-908.3454,8778.2421875
455,7755.63,8188.7715,25401.479,-9360.228,-1493.2573,680.2306,23975.8125
456,-5344.8643,-2930.4067,-8041.2656,-6517.836,1409.6989,-718.5059,12432.521484375
457,-2032.1284,745.46844,3661.6147,-2464.4531,1937.8745,1065.7673,7563.93212890625
458,-1833.8755,-3971.314,-15511.87,5583.509,-2646.7615,-3275.3508,17582.5703125
459,2542.4473,-1663.3818,-2426.4268,3138.1316,845.34784,-286.03986,7308.44580078125
460,2493.764,-2778.0264,2369.7727,-21.04032,-177.97148,699.6865,5358.966796875
461,2553.7478,2090.9714,1241.8142,-7672.181,412.82706,-333.7866,13370.146484375
462,15999.35,-1565.8867,32693.576,1603.274,2483.7815,-812.5973,30144.1953125
463,4373.936,-2087.1345,-3301.6243,-3021.255,-1501.275,-281.73883,9243.96484375
464,-4736.3936,-20375.744,-4465.9805,-12519.8955,-1638.4838,-1975.7223,27182.69921875
465,4772.9604,4225.689,-18710.3,7488.359,5560.914,-2226.6184,28544.3984375
466,-5500.2173,-5690.5737,-22671.096,3198.1655,2094.988,-895.33923,18381.05859375
467,-4602.0605,5689.6494,14581.305,-25.231363,-828.2031,574.81354,16719.51171875
468,2315.9155,4844.653,-9137.93,-1254.4633,-2656.8794,-2730.883,14656.7412109375
469,-23580.56,-16534.469,-3632.5957,4737.4204,-1089.9226,3056.926,20147.982421875
470,113.91992,-1754.0198,1549.7776,928.1706,560.64386,624.896,3596.099609375
471,1587.918,5921.941,13434.1045,3614.706,1274.758,-299.47894,12333.5576171875
472,-3125.2656,5327.861,14583.15,5920.194,-804.4336,-605.7568,18534.8359375
473,-311.74475,-1471.8928,-4706.3965,-1707.5428,-370.61432,-2940.395,7117.4013671875
474,-728.6793,-9762.58,16346.733,4870.228,1863.8694,4624.4277,25945.59765625
475,-6593.101,23043.799,22433.502,3338.347,-1488.2406,-1997.3262,30210.546875
476,2665.009,3253.8303,14153.725,4897.5137,5723.4473,-1783.09,17474.015625
477,24247.898,12287.26,6867.3364,-3937.6526,4109.9507,-11793.8,27417.689453125
478,-746.1201,2665.0654,-183.39331,16.423258,-243.93906,-181.89166,3211.20922851563
479,-133.0379,817.79675,882.3939,1547.2347,-295.77905,-396.0083,2980.67260742188
480,3334.1028,-3486.5835,-1240.7927,-2141.6992,147.3938,-312.65442,7096.94091796875
481,1049.9067,-3221.2322,-3037.567,-759.84894,-585.3227,-294.91934,4529.1005859375
482,-1981.142,-3344.9524,-5145.965,835.5188,1041.908,-437.88602,3672.34106445313
483,-703.70496,-3277.7756,3044.6892,2725.4917,-38.53007,1057.5543,7481.28076171875
484,604.58295,558.2687,-638.1516,4278.6235,-616.9516,943.37036,7760.19140625
485,-2769.4697,-131.56,691.13666,2216.573,-358.80017,130.58214,4998.2548828125
486,-2483.9092,-3862.974,8185.7236,2112.3035,2402.171,-213.73163,12700.03125
487,554.2715,7867.131,7187.322,-5889.899,577.11743,2453.8896,13118.892578125
488,-8229.416,-24352.908,-14581.537,-4822.1274,7030.795,-2723.4062,20933.318359375
489,-4556.776,-3577.5542,-4574.9805,663.47363,-541.2601,-441.49884,1939.40087890625
490,-7921.705,-3329.3198,-2279.7004,1483.3624,-841.1854,-179.86815,5986.0576171875
491,-9022.267,-3849.526,-11017.515,491.85254,-22.741838,-740.10645,6590.12451171875
492,-89.390625,-3646.787,-291.82312,3439.4878,105.59044,-174.86269,6898.646484375
493,902.1918,-3602.9463,-596.01245,867.2396,328.87085,-311.34012,4320.0517578125
494,-1616.9045,-1131.8771,-1606.7181,-1822.6184,1400.0104,326.47632,4049.20703125
495,-6805.262,1607.6481,1488.3522,323.26443,-489.3237,902.6183,8559.41796875
496,-4445.456,-2957.881,-2349.0273,-3475.6172,-200.04428,-626.11804,6405.08935546875
497,1161.7097,-600.6341,2158.6738,-1102.1575,364.44406,451.57742,3242.10815429688
498,4335.3047,-9917.161,-38279.11,4409.091,-2214.7395,-2303.398,38739.03515625
499,99.34717,-5953.1387,430.70337,953.9176,-205.08202,108.25805,6452.83837890625
500,-1403.0681,-1102.7605,-11231.931,1278.1061,1801.0696,198.14568,10695.7197265625
501,19.401367,5714.978,5338.6133,3197.7278,-242.57632,-50.52049,7829.3173828125
502,-3039.7556,-1996.3812,-4823.3525,-2307.1821,-239.78442,1032.1339,5046.62939453125
503,-5371.326,244.23474,1194.0569,1405.0413,688.9583,-674.2912,6817.689453125
504,2322.4668,1740.8306,-2679.9631,-380.975,818.12335,-515.512,5068.892578125
505,5084.1514,527.05237,1980.9419,-2171.5024,-1299.9565,-624.36066,6053.16748046875
506,3409.1548,299.06494,12209.521,-9510.452,98.02979,-1772.1272,19881.783203125
507,-52.528564,-1942.6353,-1285.4086,-42.06994,200.72493,76.32198,1704.66357421875
508,-2.376587,-4155.9424,166.72205,1103.474,20.984392,-262.83325,4673.8203125
509,4901.2607,-1148.175,3458.1494,-1219.103,-1359.5996,1785.9464,7037.13134765625
510,-3968.2183,1888.0132,-990.387,4030.5483,223.75021,158.57216,8642.0859375
511,-2280.9028,2082.8835,-14.449661,450.19553,-18.310057,162.5516,3870.06811523438
512,-1073.5029,305.65405,-1322.6799,3623.5168,-1510.6384,495.71027,7020.02197265625
513,-710.4653,1469.0251,-555.82794,687.56586,434.07727,321.10385,2594.20385742188
514,3947.9902,-4712.75,-6108.064,277.03275,-1162.9696,-9490.616,19066.80078125
515,-405.51077,-3039.9448,2958.68,-2144.749,164.0404,99.39381,6405.54248046875
516,-3040.1914,-8320.313,-3085.5786,6815.8896,1216.7736,7010.9336,17858.1171875
517,-4848.4097,-3365.3596,-9609.032,-135.25214,235.21918,-1077.2115,5968.68701171875
518,1148.0103,-1542.1423,10753.477,1343.9587,211.64229,-53.033833,11441.3095703125
519,-1515.1418,1843.9126,-15982.861,-5075.042,-3778.8125,-227.29999,19734.67578125
520,-1985.1943,190.06912,3304.347,2671.334,-2882.1257,-1619.4062,8683.3359375
521,-3780.261,-1702.3679,-3199.598,-922.2594,233.44194,247.95074,2519.49682617188
522,1712.1572,1720.0555,-718.6275,-348.3909,-491.3961,160.86156,2663.4833984375
523,-1823.6819,1899.7083,-4472.254,-2983.399,-683.56384,495.80392,7718.90478515625
524,-5200.855,-2599.8838,3036.5469,612.53326,-235.85312,-326.9095,7403.220703125
525,-3893.012,-2125.1284,-828.51306,-817.84314,-84.09214,255.99138,3053.40795898438
526,-632.31256,-1279.465,1933.182,1705.0125,-268.60962,-668.11285,4351.73681640625
527,-1261.7456,-1590.8298,718.9453,3574.4526,-323.32288,-364.14374,6612.47314453125
528,-4066.1267,6670.528,8110.133,3549.6375,-1294.161,-51.266174,13252.8095703125
529,-3363.0725,-668.3352,-928.2905,2763.9622,-418.58173,82.80909,5485.73974609375
530,-3576.5955,-3143.276,-3992.9568,3327.744,-245.56444,-400.9159,5867.3916015625
531,540.2903,-3726.774,2045.2422,-345.7254,-277.41687,-174.5988,5251.22412109375
532,-693.02844,-5945.013,902.5403,2831.6653,43.586376,170.18422,7915.595703125
533,434.4594,-1717.2554,395.3236,221.66862,118.35445,-109.28934,2184.59741210938
534,-633.97,-1334.6843,-344.25845,838.83655,-378.43082,-60.13105,1824.65222167969
535,342.64136,506.4973,-154.19908,-541.2913,75.56102,-31.258938,1119.89196777344
536,-1382.4739,1547.7955,-2224.6294,-110.87048,-253.79065,156.72453,3473.79345703125
537,-2375.2334,243.4727,3445.6306,717.8903,-34.869385,155.89311,5207.6484375
538,1896.7922,-878.75244,895.5442,21.198957,528.4705,415.27972,2698.8330078125
539,389.2727,822.4747,-873.2364,-1349.7365,-163.16931,-28.880104,2806.46655273438
540,-573.09595,-460.80957,1191.1569,2848.0515,-570.39825,-258.26398,5332.677734375
541,-5008.119,-115.25598,-313.79834,3888.5813,451.23047,-88.82407,8306.9716796875
542,1314.5852,-831.2032,-1966.3293,495.3006,333.28973,-13.945162,3065.6904296875
543,786.84674,2903.0674,-394.73096,-3723.745,975.6156,711.6313,7372.14794921875
544,4189.927,-438.51892,-367.3391,-410.61807,-463.95453,127.80209,4722.150390625
545,2867.9873,-391.8683,-404.41357,-187.3746,-388.04593,333.91147,3399.89233398438
546,145.4353,-2090.6555,-816.64044,-1190.6292,194.0932,245.35608,2884.58178710938
547,90.15088,2068.2004,11512.569,4285.3145,-106.76306,61.662106,12920.044921875
548,1506.1211,1593.4462,-301.38464,361.7884,46.78803,-138.00623,1972.03454589844
549,2156.529,-672.7368,-651.9973,524.03265,680.6129,305.16202,3231.00634765625
550,-6019.1235,-706.0266,-4183.3887,-1518.1273,174.05057,-139.7971,5376.720703125
551,-821.87494,1903.0239,1207.894,-1768.4539,159.44066,1039.182,4325.77978515625
552,-981.4994,-7233.3184,249.95117,-4397.4053,122.64326,61.15178,10313.5048828125
553,1815.5143,2187.5586,1695.2449,266.93155,261.70557,460.97864,1119.98120117188
554,-779.0786,464.71088,163.3619,-868.0565,713.3944,408.36475,2355.98291015625
555,-4084.925,-302.02206,2315.673,154.96136,-132.94661,-283.25525,5606.32958984375
556,-1692.5345,-1922.0339,-2962.4707,1610.3126,-420.99655,-322.3058,3161.74560546875
557,-1236.368,158.10956,-517.6951,1374.1346,-291.07812,-193.04822,2736.71435546875
558,-1109.9288,-3831.6956,2043.936,898.9526,-300.9481,325.78052,5380.837890625
559,-3015.4365,-4826.3154,-12.888672,1937.746,710.52496,321.78564,5551.71875
560,3827.6782,3878.002,9105.252,356.44742,1216.2405,-943.6145,5922.82373046875
561,439.04102,1592.5656,2770.6838,-528.9669,333.9339,721.4729,2610.19018554688
562,669.7831,-1891.7245,-777.20044,-810.1608,-73.51644,-524.0892,2785.3056640625
563,800.9463,1945.9371,5.2807007,836.8743,643.20935,19.22306,2489.669921875
564,1208.8467,-784.1654,142.6265,841.1612,-170.0748,57.49309,2281.0703125
565,321.41495,140.49806,-585.0699,199.94693,-103.76661,-29.371124,919.387817382813
566,-395.90762,108.88765,-118.64618,44.142784,263.25873,113.654655,666.517272949219
567,-2414.9805,-100.45761,1076.9001,-520.0348,618.7373,-259.64023,3410.31713867188
568,-101.22223,1570.2236,533.4057,465.6431,178.64392,364.79202,1811.39978027344
569,1332.0703,2838.086,616.16437,-899.3232,-305.64465,-321.06604,2621.9501953125
570,-1883.3092,-2578.0527,-4263.824,-4245.3765,-1404.2285,-259.7613,8042.595703125
571,-2066.889,-303.35522,-1175.8868,4278.4326,879.29443,-687.1952,7809.2109375
572,1636.533,-1260.1542,-3570.0647,2063.789,2052.1956,-241.41685,6782.669921875
573,-1839.4987,-3802.96,113.59131,1897.0974,-863.3689,1225.7507,5389.35107421875
574,4391.239,-3476.4932,306.44766,4592.175,1339.3171,-2231.386,11403.1328125
575,-4573.3574,-8942.325,-6089.133,-4794.1504,-1749.5422,3895.8064,11765.599609375
576,6222.584,29962.684,9433.524,9945.373,-2997.8643,3716.7275,29373.619140625
577,6435.1997,3413.3281,-4003.6106,-6314.4688,2150.4019,-3277.0322,15882.7822265625
