Element Label,S11,S22,S33,S12,S13,S23,Mises
1,9413.963,9834.78,-7595.11,-1295.0265,367.20245,-692.9055,17421.810546875
2,12762.715,6580.0986,-1068.9541,-5356.5127,-1227.4105,1717.95,15603.6611328125
3,14743.569,5537.283,1169.6152,-6696.8447,3876.899,621.4639,18023.181640625
4,28480.715,21714.652,29855.586,-1944.4847,-1596.3406,232.05478,8724.7841796875
5,16962.791,1955.3563,-20241.527,-618.8925,-265.34116,-5881.3613,34002.56640625
6,5370.8916,6485.764,-10410.346,5439.0923,-324.87772,-1477.3131,19065.666015625
7,12361.205,6654.1777,10726.335,642.4475,678.6808,355.12857,5376.904296875
8,6702.034,3234.001,48.65039,843.6767,1328.0842,3376.3857,8651.4365234375
9,-6733.365,-7739.416,-24097.615,893.27405,904.762,-146.89732,17028.6328125
10,12083.259,10245.669,-10174.401,-6447.9766,-3926.5215,-1964.5225,25306.908203125
11,13493.425,14574.398,6522.7207,6680.443,-483.5523,-599.2178,13890.9306640625
12,4114.6074,-1986.3046,-8785.699,2339.3232,-3877.2732,1185.1173,13808.1845703125
13,14909.424,7327.118,-1115.292,860.27136,-740.15674,-3631.5408,15369.01171875
14,38385.617,15694.651,26150.084,-921.66565,-3933.3176,2151.691,21208.5546875
15,16483.963,8451.517,-1083.8994,-8017.905,-7793.5537,8586.414,28780.12109375
16,-980.6017,7626.4116,-33268.477,72.79298,-6067.811,5298.345,39864.49609375
17,26269.893,17768.582,26240.803,1156.385,2481.6426,-3153.2302,11150.86328125
18,22364.75,10063.391,-10967.08,-1179.6771,-4802.5806,2558.774,30746.03515625
19,25548.053,18007.465,10534.444,11149.165,739.5443,-13819.887,33415.23046875
20,-51945.773,-59874.14,-70132.98,-965.98895,2145.3489,-19391.195,37337.66015625
21,-37949.22,-48947.664,-78080.89,234.2085,-2363.6274,4250.0317,36895.0390625
22,-43771.84,-34007.223,-48754.844,-5860.015,-18697.918,161.22357,36342.3828125
23,-150691.92,-150202.28,-154949.88,1139.1857,87.71116,976.0438,5218.14892578125
24,-1002439.44,-1000737.3,-1001766.9,-2794.5024,-2538.7327,-2266.1633,7770.1025390625
25,-47367.863,-52618.31,-52262.453,2285.7375,-6778.7754,-10286.415,22288.6875
26,-495906.47,-483464.34,-466934.72,-3460.5808,2883.979,-15259.87,37325.171875
27,305997.28,311181.8,284747.44,9120.023,-14603.481,3433.8237,38901.0078125
28,-209731.83,-230242.39,-226573.22,15814.149,-12468.952,1006.2397,39731.765625
29,122919.19,134726.23,166067.77,-2103.221,37.66395,-5599.067,39988.40234375
30,187124.06,172565.81,205794.23,3762.4707,13765.468,6652.606,39699.2109375
31,-199232.0,-166999.27,-202471.0,10133.092,93.3741,-5960.4946,39604.16015625
32,18542.982,4125.16,-8830.755,4364.4937,-10537.344,-12935.631,38141.44921875
33,-13759.672,719.31445,-35692.285,-8710.871,-517.0491,6896.635,37139.91015625
34,-24503.416,-2436.0554,-26032.438,-3631.7769,18153.791,-3723.6174,39911.0703125
35,19613.324,23915.297,34723.11,123.93822,82.36691,-4307.8945,15412.689453125
36,64088.258,44383.812,69648.88,1742.364,10732.998,-2883.0068,30139.494140625
37,6916.162,-9178.809,-7605.17,8744.078,-3300.1594,-1139.5829,22408.5390625
38,-11628.161,-4446.412,960.17755,17060.307,-4620.523,2575.1199,32813.73046875
39,7058.493,14331.59,4780.0996,545.3161,2627.0847,-3946.8218,11957.8017578125
40,28409.727,15992.992,20955.34,2362.9456,-5804.2925,1759.5094,15629.8310546875
41,12105.9795,12655.971,-6015.1426,4849.143,-13664.334,4126.8403,31944.029296875
42,-8859.956,22538.236,15149.788,1268.4595,-10308.129,5216.0522,34837.80859375
43,23637.092,-1567.4489,16747.533,-4293.6987,1386.3497,2850.0571,24382.958984375
44,5287.847,13457.231,-12657.952,447.59695,7641.8354,2045.3235,26902.4296875
45,-23684.604,-31274.623,-10301.78,-8108.9272,-7552.49,7453.945,29552.5390625
46,51193.152,52333.688,59714.242,6330.5107,-9368.045,-1901.326,21413.623046875
47,13922.097,26499.3,25448.682,2482.5564,-336.70773,-19038.139,35387.25
48,-6805.3633,9053.127,26473.162,1974.0576,14071.517,-4556.465,38719.53515625
49,-10877.995,-11912.279,-37984.53,4583.6533,4086.9187,-3769.7898,29386.5703125
50,90127.39,102318.78,99952.29,13603.395,-2578.4963,16653.04,39146.56640625
51,146583.48,147377.48,186277.98,-560.18176,-2622.975,3668.2058,40083.84765625
52,78357.71,76355.21,102073.39,12177.765,-12112.041,5160.7246,39734.515625
53,-46077.516,-33850.75,-77440.1,-270.23764,-4562.4106,1983.8949,39887.8671875
54,-89199.75,-65710.05,-95137.76,-12213.901,-9857.019,-598.3724,38296.25390625
55,292480.7,308747.06,284684.8,-9410.537,-12184.027,914.3097,34142.57421875
56,324678.75,326853.4,314134.25,2957.2056,-5051.361,6430.149,19122.517578125
57,10781.48,22383.434,19151.127,1753.783,14833.462,4411.011,28900.609375
58,-10217.08,12493.164,4433.6787,3892.3093,17675.035,-3478.7598,37638.4609375
59,8060.845,4891.6846,-6100.722,4516.165,-1806.4463,-21212.293,39831.828125
60,13329.951,21730.95,32527.428,-6234.0254,8525.124,-3589.739,25517.111328125
61,29222.031,14720.884,18236.053,5026.22,13680.778,-4022.675,29282.951171875
62,-1021.7667,-245.77649,11693.189,-4909.614,629.4233,-4007.5562,16555.619140625
63,28829.59,18975.693,34276.75,-4270.105,-1717.4174,-11101.208,24773.109375
64,29517.23,14863.642,26551.066,1627.0771,1442.2046,-4007.0825,15569.6171875
65,-5271.281,-7964.381,-8516.932,381.3485,15139.229,3006.025,26910.587890625
66,26405.438,1307.4873,-5447.453,-5501.066,5010.3887,6887.605,33963.0078125
67,170.47195,-10705.535,-17499.465,317.77658,16445.47,-13442.187,39900.83203125
68,27157.428,-4293.1494,7915.343,-3963.813,2289.5562,-15569.173,39297.34375
69,3832.8013,-1974.6178,3009.9006,1453.2529,21056.713,-8337.289,39681.8203125
70,-958.6201,-5809.931,-28172.33,-142.78772,14623.12,630.4989,35705.1796875
71,49816.426,38047.24,15319.079,7057.6465,-1090.8173,10310.211,37342.69921875
72,54442.727,33683.56,29776.945,-2933.3965,-7838.9956,-660.2459,27180.40625
73,-576.91724,4260.097,-15634.611,-12026.015,-2671.1384,13171.261,36037.36328125
74,13319.532,-12931.876,-8727.554,485.55432,8643.625,-12815.001,36248.58984375
75,-19804.486,-17360.482,4544.411,2215.3733,10324.501,-13301.326,37478.2421875
76,4214.8184,-2231.8953,-11926.737,-6691.9233,11582.104,2532.1038,27460.25390625
77,42097.207,25074.352,59825.977,-5367.474,-6637.89,-3313.4636,34021.05859375
78,-14503.509,-25384.414,-10872.639,4093.5046,-2046.1945,-17911.104,34588.125
79,5792.176,5893.6055,-717.0873,-1726.3188,-19704.37,-1908.6233,35038.50390625
80,14668.488,13881.505,15975.268,2376.778,-12768.567,-1917.4125,22813.17578125
81,10121.643,17169.19,-15813.7295,-1337.3389,140.18205,-2066.426,30386.29296875
82,24810.121,31734.4,12369.378,-8454.494,4833.667,-9959.477,29512.080078125
83,2926.6362,29468.857,8747.744,-5615.0283,-9884.804,-8457.681,34440.96875
84,4705.423,-668.3378,7523.5405,1315.126,-12292.961,10923.885,29470.2578125
85,2812.5933,5396.7593,912.6626,3001.5369,-5741.613,6743.854,16660.1953125
86,11773.203,19539.719,-5350.8,-2823.2988,-9888.329,8157.9473,31677.287109375
87,9964.666,20821.248,4027.3809,4781.5654,9838.844,5777.07,26013.412109375
88,-3673.5237,16211.142,-17982.521,-3544.8523,6739.882,5262.2104,33789.4296875
89,1701.9658,17692.562,-16657.63,94.242004,4178.6743,4398.466,31572.21875
90,-14302.479,-8756.203,-5538.6064,-2688.033,-5423.7124,-506.90836,13025.251953125
91,9112.656,16711.436,-7161.547,7157.5645,-7881.3433,-15084.9,38326.97265625
92,-1941.6674,1260.3395,-5697.206,16442.623,57.32074,-46.446796,29111.4765625
93,-46066.168,-27464.32,-20929.861,15520.822,-8202.649,-5744.461,39163.95703125
94,17133.432,-766.6045,-14939.068,13495.354,-6286.468,3279.4468,38368.66796875
95,10245.528,2560.898,-17892.184,2820.975,-725.10986,5955.091,27683.873046875
96,2227.5063,3636.8413,927.39233,7921.1357,3309.845,3458.084,16201.3037109375
97,16806.742,17964.723,23509.023,854.3115,1234.1366,2478.8147,7980.775390625
98,16200.948,18224.402,9272.124,5606.4526,770.2571,-6494.5254,16992.248046875
99,5419.171,-19534.625,-13030.449,-57.9376,-6185.6763,16477.518,37841.984375
100,-61328.684,-55327.598,-82849.875,2017.5964,7295.392,-10392.122,33529.00390625
101,42646.34,30811.627,32473.723,-19273.467,-3846.574,-5265.444,36947.46484375
102,-45238.293,-16517.568,-27748.486,-14081.306,6675.803,-8377.249,39592.1328125
103,-133498.72,-147138.28,-112856.41,3939.6973,-10958.806,9117.656,39369.2734375
104,-26343.05,-9242.924,1360.916,7224.01,15238.783,-7270.196,39974.625
105,31322.832,-5122.4414,2254.6787,777.14557,2.9945796,-478.41885,33411.3359375
106,3528.706,-20893.635,-406.34424,11786.2,-5172.241,-563.8339,31840.001953125
107,15336.674,16337.9795,44794.66,11662.554,-6876.556,7509.839,39476.3046875
108,12268.209,6747.333,12547.926,3320.6326,186.40605,-3242.921,9840.541015625
109,21551.043,10609.792,-17263.385,3930.219,8782.437,4369.8213,39199.640625
110,43674.633,15066.859,4717.57,3361.985,5223.9395,-8136.976,39191.72265625
111,14455.0625,16296.194,13571.841,9873.223,2387.1982,1417.612,17926.587890625
112,-7462.4067,1315.379,3199.598,-233.04169,12700.054,5883.2637,26172.78125
113,-20698.607,-31319.678,-33803.594,-3278.8323,1938.8296,220.07504,13748.9462890625
114,10313.077,1064.9069,-26355.06,-11342.116,1823.7484,3883.8625,39142.4296875
115,6762.1675,2395.3079,1914.8545,-7062.658,7521.0747,-5296.601,20613.185546875
116,13700.583,6443.757,7227.281,9824.311,-2312.4238,-13440.07,29918.041015625
117,8170.22,8738.776,-16115.122,8459.542,7749.158,-3779.3333,32273.806640625
118,34269.46,30335.73,58751.168,-12546.038,-1636.197,2559.842,34799.87890625
119,5814.969,-768.29706,-12764.211,5908.904,-3498.0334,-16574.773,35097.5390625
120,40039.83,6246.658,27094.1,8974.9375,9529.827,7528.51,39449.078125
121,21497.139,142.51929,16238.489,8563.593,3294.8804,-10909.096,31320.53515625
122,-24021.004,-9101.11,-14263.517,-12944.312,-14674.626,2464.7239,36594.46875
123,-8105.8457,18003.969,25542.23,-6499.5503,12214.876,-3953.2498,39453.734375
124,5628.427,-2896.2302,-8929.114,-506.06488,14498.24,-484.0657,28152.4765625
125,-2169.9116,-13628.121,4260.1816,3760.2742,1228.3787,71.22032,17125.2734375
126,-1089.0156,-9463.656,-9077.286,15038.5,-5526.451,-13954.433,37700.4140625
127,-51059.05,-54924.766,-66103.016,-4023.7083,-979.2233,-3922.77,16754.720703125
128,-56931.703,-50433.555,-68044.805,465.34406,-14800.936,-121.14593,29930.55859375
129,419128.06,426454.97,414105.47,-1870.7056,-7170.171,925.02136,16822.892578125
130,16333.132,-262.78125,38323.973,-4544.401,9806.02,2560.7542,38653.33984375
131,27682.31,28991.477,5004.5684,484.52493,-12839.459,-535.928,32276.986328125
132,10379.209,31754.002,6151.594,4955.9375,8990.837,5703.8203,31287.51953125
133,30519.008,32282.473,18508.348,-6541.3887,-13575.103,-8470.879,32634.84375
134,-22381.246,11714.721,-19509.793,9234.283,2485.3237,-9241.508,40042.953125
135,-11955.118,-21955.71,8043.626,-4493.886,-4188.3125,12917.204,36245.47265625
136,26061.916,29059.062,12829.08,-3120.206,17456.816,-2288.2915,34393.15234375
137,22125.37,29945.73,22562.951,7189.533,-4303.434,2012.5927,16754.279296875
138,16000.73,29573.148,3853.0127,-1377.2638,2279.8745,-335.65927,22765.62109375
139,17991.41,18684.035,6049.3696,-5385.028,14837.829,4899.144,31158.423828125
140,40986.76,28210.172,27670.537,9542.268,14245.207,-6311.7754,34232.80859375
141,29212.662,12811.885,22730.361,362.74542,9071.636,-519.84546,21278.630859375
142,2140.7878,-3443.8037,-1303.4641,2953.3533,16258.413,-8008.5093,32177.62109375
143,13787.19,14602.102,29273.623,-7658.195,12308.269,3055.463,29770.8828125
144,10843.493,5094.916,4946.5415,-6943.546,11909.688,6373.199,26943.173828125
145,537.99567,3365.3652,-9328.817,-2666.0723,15457.049,-3070.8542,29993.673828125
146,5574.3877,13226.798,7290.4463,-5887.665,21740.89,1016.3161,39666.91015625
147,-8708.441,2085.7588,-4792.8794,10385.808,135.54681,13340.613,30775.755859375
148,1677.3358,4976.7803,-8119.6494,6652.6377,-2669.2458,8795.594,22922.185546875
149,12371.004,-1543.353,1749.56,-9926.514,1085.7045,3812.564,22391.607421875
150,13068.01,-103.46874,21478.74,4995.8237,-2370.1934,-17655.615,37173.921875
151,2088.5024,14768.991,-2348.5725,10339.058,4719.505,-16640.586,38144.24609375
152,-270272.16,-284782.88,-277232.3,-2268.6362,-14978.966,6452.136,31168.03515625
153,-257151.1,-239871.83,-255495.88,-6753.1616,-11048.8955,8706.043,31672.5
154,-260516.95,-257335.64,-255132.36,-10641.251,-12474.2,14414.643,38103.2265625
155,608554.9,621057.8,598483.7,4960.3066,-7462.9966,-12406.245,32959.359375
156,97872.13,61102.01,94390.16,-8523.981,-4576.298,3137.0293,39325.03515625
157,28772.875,27572.943,10974.981,10819.164,-17084.193,899.4028,39064.65625
158,-14758.176,-36944.77,-53298.95,-10768.031,-1278.5627,5890.0854,39741.4453125
159,3291.9546,4779.088,-15690.176,6087.576,9288.965,-7252.971,30308.5625
160,15597.425,4114.7417,-6770.9,5388.415,4185.277,-3528.7754,23502.27734375
161,8250.306,19119.156,-5148.9536,7927.385,-17480.312,1646.9355,39454.50390625
162,-10952.129,-9248.039,-41930.312,-3127.1978,4964.817,12688.023,40019.8125
163,19356.666,16980.79,1734.7129,-677.949,6386.8857,11548.151,28251.470703125
164,-20462.814,-9552.312,-130.18762,-426.04587,-2328.0964,19996.926,39077.50390625
165,-32235.084,-10189.112,-12302.518,1360.0037,-3248.088,-1971.0417,22198.048828125
166,-209405.61,-212733.03,-245788.23,5413.605,-282.04843,-9593.3,39723.55859375
167,105777.84,102670.766,139335.56,5173.2793,-9442.86,2259.6501,40039.359375
168,-14942.709,-4136.0234,-34404.984,-19.451012,-2952.7878,-4691.0396,28250.005859375
169,21385.1,3186.3455,-3478.2021,-7478.0874,5447.7495,-2251.5034,27729.125
170,4938.3135,16942.639,1432.4541,5208.018,4583.6484,-1788.3854,18774.322265625
171,23683.172,29433.951,-6009.7334,-748.8184,9465.08,8120.4053,39417.8359375
172,58387.09,86300.36,94794.56,11573.217,3833.4548,1694.065,39279.98046875
173,-8789.37,18132.176,-4212.1978,-1206.7616,-1098.1229,-11727.061,32296.34375
174,10132.318,16649.498,4809.3975,5626.946,-1092.9813,-6151.0835,17820.673828125
175,33935.67,-1239.3838,11625.028,-6357.231,2134.969,-4400.4497,33812.4296875
176,-278.93604,-7395.837,-7181.704,1085.476,-1397.1564,3091.2588,9339.7392578125
177,15340.336,23304.764,2691.498,3395.3577,-18043.44,-5097.536,37595.25390625
178,-5810.156,4177.0884,-28213.637,6670.935,-5394.286,-13461.748,39873.11328125
179,17673.352,32230.656,5954.3027,872.7572,4350.596,-773.2153,24097.939453125
180,-6435.5225,1976.9062,-30695.775,3844.8901,1904.4003,-4539.752,31312.525390625
181,-14743.508,-3741.307,8890.735,1728.2257,-13697.579,-424.41562,31495.5390625
182,-11181.615,1027.1543,-28826.457,8424.806,-10322.516,-4032.8696,35457.06640625
183,4965.3706,-6673.0063,-11032.926,-958.81256,5979.7344,3348.3623,18677.990234375
184,4319.08,5623.071,5767.9272,527.5681,-229.64539,-605.6624,2000.98559570313
185,-1888.8525,-3154.3499,8900.556,683.7821,3249.122,3351.0369,14086.453125
186,-13466.083,20920.854,-16244.692,-2226.596,1994.007,7079.991,38248.0078125
187,5883.9473,-6626.2886,-15900.475,8187.2974,-2955.347,6475.651,26676.556640625
188,-1635.4066,-11215.136,-12198.725,-1719.6193,9759.044,-12250.612,29102.951171875
189,-10815305.0,-10814981.0,-10814187.0,-770.98883,-598.3935,-226.13832,2000.89465332031
190,-421236.6,-399961.4,-394887.5,14655.216,-73.720856,8155.2134,37817.87109375
191,558736.1,539963.0,564694.2,-4444.8433,-12167.212,-7392.853,34163.37109375
192,554573.5,548204.94,564585.5,-14409.392,-9675.462,-11458.22,38757.8203125
193,-11273.709,-20531.03,-35006.21,4853.3745,-18641.988,-1952.8905,39419.64453125
194,-79588.36,-119638.16,-97372.31,-9938.802,4784.3364,-66.47095,39661.4921875
195,32863.547,22289.482,31707.57,-13635.36,-16364.404,3540.5989,38725.72265625
196,138007.61,136271.17,175410.86,4966.9863,1040.2505,318.72928,39300.51953125
197,55496.984,48603.207,20021.834,11263.671,1471.1166,-2121.5608,38236.8828125
198,-54094.562,-57570.027,-88985.44,-3817.942,-11144.261,-778.82263,39068.1875
199,47602.406,19379.14,39275.363,-2580.7676,-7630.126,927.40765,28776.619140625
200,-38616.367,-31059.469,-52608.24,-14387.866,-7001.0474,47.587467,33566.30859375
201,-2562.676,-8786.814,-7092.956,15184.948,-5204.0054,-9240.352,32560.888671875
202,39502.125,9194.138,26638.395,14565.282,-4167.9883,-8696.68,40120.2109375
203,-8050.4424,-5630.903,-9726.849,2654.252,-13172.273,6830.541,26350.541015625
204,27340.297,13661.355,46147.85,-14274.349,95.624695,-7638.125,39804.85546875
205,19092.084,-288.72754,14656.261,6445.498,-14260.056,-187.25319,32312.669921875
206,17218.78,-4501.3403,-18798.482,9456.677,-8029.4863,-6722.2725,39799.23046875
207,25588.21,7052.7974,19288.322,-7234.73,4112.171,703.2305,21810.927734375
208,39343.97,31967.852,40979.863,-13183.507,-3024.0552,-1227.1012,24950.279296875
209,7716.3394,2968.3184,-11975.77,3695.0312,-10697.901,-7448.2056,29454.14453125
210,-51565.047,-38338.215,-39831.355,-7196.871,-16837.088,-9240.181,37675.1796875
211,18641.076,42562.082,52613.895,-7362.463,5079.6733,-7829.0986,36573.40625
212,-4045.76,15628.48,-21680.441,2444.6353,-4036.423,-950.7646,33384.5078125
213,-2722.702,102.5782,14125.52,288.11304,3528.3242,10809.403,25146.9609375
214,10790.638,10894.484,9383.036,353.93756,-130.94728,692.43195,2000.98571777344
215,31711.379,21848.547,13872.919,-3638.594,-16686.506,9867.667,37505.96484375
216,12366.77,-4855.3364,-7411.9062,-11446.179,13552.058,9981.708,39875.9296875
217,13080.14,2555.9253,5238.252,-3270.4468,3428.0156,10910.4375,22675.513671875
218,3603.3965,-1449.0836,28553.574,-1779.434,1.2064607,-1168.6798,28065.919921875
219,6706.04,9814.975,36335.715,-2463.101,-704.10486,-10823.566,34155.5703125
220,18298.139,12373.569,9909.01,846.978,-1057.0192,11750.722,21806.384765625
221,1541.062,9429.355,-14225.051,-6407.033,-3477.0981,17965.506,39533.05078125
222,16955.629,16746.375,3139.7744,-8565.564,9816.271,10707.278,32266.890625
223,5825.4316,27975.678,9688.538,1240.8988,-198.8269,14464.238,32440.236328125
224,501.17136,-2183.0544,2110.0854,-299.55435,-2439.2014,6296.4233,12294.9384765625
225,-14781.395,11838.022,-14354.05,-9253.74,-11332.351,-759.9464,36623.6875
226,4644.861,13254.745,3417.6414,-3621.2056,-3581.4946,391.5106,12825.0908203125
227,5188.33,17287.557,17120.506,3487.0723,-10406.772,3889.6638,23476.97265625
228,4865.0713,11956.306,20926.6,-7170.7607,3289.7698,-90.63883,19522.142578125
229,12629.005,10755.332,8036.4854,2579.8076,8249.986,-1251.3861,15647.6181640625
230,13487.896,5307.0283,26419.951,4912.964,-9642.652,7275.0264,29156.337890625
231,14106.582,42043.902,31726.984,-2288.9985,7202.403,5762.758,29490.271484375
232,24374.125,11401.956,10778.25,-2030.9207,254.1586,1152.9181,13903.681640625
233,17941.066,327.67264,-5768.507,-1811.9435,-13162.674,298.08582,31379.1875
234,12736.722,8328.415,-13429.197,1284.1707,-3110.3308,-4444.5146,26114.591796875
235,33822.004,12354.426,8384.063,-1614.2429,-1193.7207,3098.9922,24551.134765625
236,19769.41,-9904.448,-7991.298,5526.506,-14113.468,4030.9756,39564.76171875
237,-9821.885,-15943.074,-26086.26,3649.2458,-9036.825,-1450.7555,22219.34375
238,10256.072,21420.47,30029.162,1536.3734,13419.954,-138.26927,29022.20703125
239,26360.047,-13794.504,-7674.6104,-4748.0576,-843.689,-5342.4595,39490.4140625
240,237.72966,-16448.81,-6757.0806,-2290.7527,-7487.2446,1631.8195,20063.80859375
241,12200.279,5501.9136,5828.2964,-3398.7878,-2869.29,2997.0803,11361.7607421875
242,20425.344,17540.19,16401.197,-1896.264,5509.643,-5892.608,14796.3515625
243,11311.159,-9440.083,-1503.9363,-484.35297,3761.6218,-894.591,19351.115234375
244,26826.768,-9695.744,-6516.7437,-302.18912,-376.52475,3159.396,35475.8984375
245,15287.891,7499.366,3329.8813,-8053.3955,12418.793,-2924.626,28167.90625
246,16001.479,-403.02002,-7292.2563,-9758.694,11159.643,1121.5913,33055.5078125
247,31731.998,4600.9087,-2286.5977,-7388.3887,-11315.019,4314.76,39674.984375
248,10883.238,8409.041,944.6587,-22037.307,-39.63775,-2985.8,39547.25390625
249,58371.42,47178.426,49167.984,-396.9114,-15457.526,3535.2842,29355.494140625
250,22534.188,9812.678,12873.315,-5184.3813,17574.656,11092.461,38841.16015625
251,-16827.545,-16568.455,-43289.95,6691.998,9230.951,-11191.458,38378.48828125
252,38024.445,33300.582,38266.242,-15074.717,-6973.8306,6979.112,31579.80078125
253,-33608.31,-37659.57,-27778.506,-6959.904,-1107.6035,-11249.5205,24549.412109375
254,19368.156,25491.186,37964.336,-6705.585,-4451.268,-7393.396,25055.28515625
255,2614.7625,11320.77,-11488.753,9227.298,-14225.044,-1763.9042,35627.34765625
256,-1380.8103,-1773.4846,16784.992,314.96954,2639.5051,-13200.466,29685.67578125
257,21067.598,20080.717,29379.559,-2652.7288,4154.4766,-717.77875,12357.228515625
258,11587.496,5945.0195,-1121.4502,-8288.29,1771.6207,6346.9976,21400.962890625
259,7147.5513,14044.047,3733.795,-1888.3767,-3227.0432,-4708.6514,13827.9375
260,20568.549,25718.81,26746.896,6357.2056,-17129.238,5504.0713,33544.5390625
261,-1469.3201,16335.667,156.02644,-13217.57,-4933.684,151.2981,29798.068359375
262,-31239.525,3234.4182,-31555.197,-1682.7301,-7668.7056,1873.539,37348.19140625
263,1956.7622,18151.047,-4275.5728,3907.0425,502.68637,2529.8699,21628.1953125
264,23663.82,22957.453,19432.99,1211.8577,-8464.857,-8115.3633,20793.146484375
265,4519.759,25096.984,7771.748,-6316.3853,2578.7427,2157.558,22818.541015625
266,-15802.342,-12390.26,-41020.418,9232.314,7509.952,-12304.45,40158.9765625
267,22594.414,10727.91,31754.438,1197.874,-3526.2708,3196.3064,20141.375
268,-27440.775,-5830.4355,-36484.867,-8839.419,-219.2298,6079.0703,33010.0546875
269,-17653.496,-26051.379,-49170.88,-9925.061,-4245.2583,-12259.337,39995.64453125
270,116869.21,122045.42,97562.695,-3948.1704,-8209.354,15585.792,38433.8984375
271,-361399.4,-363998.34,-325990.06,6886.6543,177.25133,-1552.4268,38758.2890625
272,-98614.0,-80381.81,-67611.164,6815.154,-14318.989,-3948.1973,39109.37109375
273,1313223.2,1302040.2,1322326.0,-1083.5076,7558.035,10677.068,28750.80078125
274,360439.62,358822.62,358566.47,-257.77527,205.6096,440.92587,2000.9814453125
275,584367.7,593317.7,575592.2,6288.9277,-6582.5566,-2015.6907,22281.912109375
276,3081.8652,-3602.9912,-14486.016,9241.503,-18243.613,3018.0833,38960.36328125
277,40066.145,60289.88,35618.98,8199.839,3959.7134,-5550.0386,29323.60546875
278,122018.94,133962.0,166344.44,1394.286,1579.8701,-2097.029,40056.42578125
279,21683.14,-3870.651,-509.3003,-3957.7083,6077.006,2417.1313,27453.736328125
280,-7841.584,5294.7764,-14662.051,-1556.111,4594.185,-1881.0166,19745.31640625
281,-18730.082,-4434.7866,-553.0386,-3785.3914,5742.29,-1512.5886,20583.6640625
282,11716.395,25146.387,1245.8398,-2905.55,-4326.6987,11730.75,30412.7578125
283,1464.0178,11852.087,1329.1006,1780.4702,1481.4503,12757.216,24772.27734375
284,290432.47,276742.47,293731.5,5602.0215,1659.6797,8269.133,23473.6171875
285,-307983.25,-333312.25,-349170.16,-1592.0764,-6575.745,-3911.068,38443.609375
286,11038.201,9018.272,39573.934,9402.407,-9501.77,-5031.619,38574.9453125
287,13087.112,13825.995,35313.664,-1972.5977,-18376.082,4564.1445,39564.5234375
288,32818.312,10104.408,47550.81,-4703.654,6744.8765,9134.805,38997.27734375
289,11218.236,4809.9775,-1604.438,803.08563,-3023.9285,1933.4668,12802.26171875
290,-25971.35,-1566.6531,16131.381,8235.017,3151.2703,-760.4798,39695.05859375
291,-58070.84,-69707.34,-71170.234,-7569.1553,-2714.484,-1179.3684,18780.98828125
292,19152.203,-13243.275,373.43713,-9918.607,-3122.1624,1031.677,33486.34375
293,8047.5493,12013.273,-26056.918,-2309.682,5441.827,7336.132,39754.13671875
294,18012.824,9097.408,7088.37,-8543.868,-10417.066,14426.123,35641.41015625
295,-1140.7778,6973.6284,447.0338,-719.96265,-3300.5615,1243.7441,9713.7763671875
296,6797.1143,-791.93524,-2242.6477,5071.289,-1439.3319,6683.8237,16973.427734375
297,14421.779,12376.38,-982.80865,4446.7915,-2514.3408,-4.126306,16978.341796875
298,124.79624,-1967.3911,-6763.829,-13753.736,-1058.9376,-10759.434,30912.36328125
299,10864.448,21631.924,-2113.0664,-248.269,-1486.3137,726.59,20796.2890625
300,2613.112,-8828.496,8178.616,2532.3022,2695.4626,629.35895,16364.169921875
301,-81352.33,-88877.055,-119461.74,-3560.875,2801.0415,-9708.746,39579.56640625
302,49525.715,60241.082,83022.24,7582.5635,-1549.579,12720.12,39281.0703125
303,-13715.333,-41012.58,-53308.074,1380.5262,-10578.8545,2205.9407,39849.77734375
304,433802.12,413570.44,448902.78,2743.4756,1542.9235,12520.984,37985.65234375
305,-387495.6,-394691.72,-398866.2,3953.4011,-167.18398,17668.105,32904.53125
306,-10269.545,-6619.8643,-1940.5986,-2339.8142,-1331.5851,-8556.632,17137.23828125
307,11486.581,10949.84,23961.152,5716.069,13292.284,-1948.0134,28320.62109375
308,-14197.383,-8799.801,-36110.54,5369.648,10930.563,5071.0776,33906.8828125
309,-3603.7483,1213.4845,-5040.0825,-7191.4233,-1696.5868,3990.705,15612.49609375
310,-15775.172,8319.75,-22398.146,-1769.3428,-10779.327,-6658.5044,35706.99609375
311,-10307.432,-7859.1924,-23644.164,-1518.2731,14442.31,2556.7224,29475.0859375
312,-61013.516,-51620.754,-64097.69,-2561.4695,5030.4204,5748.399,17928.638671875
313,111471.59,110928.62,112065.15,-119.00714,-450.82697,-288.24768,1367.80847167969
314,57264.098,58243.598,56066.426,197.83356,25.294909,47.267384,1921.71655273438
315,366826.44,393321.56,381753.75,-8927.003,15868.634,422.0586,39043.109375
316,159.00063,7874.6865,4664.858,8630.719,-18288.336,-10236.687,39828.328125
317,104693.664,93724.75,96000.28,491.2836,-5462.0405,15442.251,30102.328125
318,19352.08,14701.683,-1006.3418,13695.08,-11952.2295,3254.1448,36938.03125
319,7137.5425,-6635.467,-29514.088,7569.7983,23.763338,3977.4272,35321.40625
320,44855.438,24326.021,45740.46,11118.66,6192.8984,-9447.724,34556.00390625
321,-10539.62,15646.669,-12152.616,-7454.3506,-9160.099,4782.4766,34894.16015625
322,-18388.846,14700.528,5166.3745,5781.581,3071.2405,2844.6196,31987.19921875
323,5513.97,6213.1655,4123.395,315.90866,77.145164,311.89627,2000.98571777344
324,8777.171,12123.897,4313.7812,3203.699,3433.6792,13059.449,24977.376953125
325,19430.43,8217.775,11415.463,-688.1983,-5944.8735,10047.8,22592.353515625
326,7508.003,15253.764,-4543.236,1262.8942,-276.40152,4225.25,18898.341796875
327,224.1748,8322.827,8815.682,-8693.742,4123.144,-3419.6165,19561.3984375
328,-2042.4078,9805.911,-6129.6113,343.21585,-5766.0166,216.7297,17485.6953125
329,30540.53,9759.9375,7182.17,-2671.1035,2058.984,-3730.8586,23831.197265625
330,-4802.809,-575.5764,-3994.933,8599.922,1977.1262,-3185.8171,16708.03515625
331,15207.997,3938.2397,-14062.884,3452.4895,3899.0679,-8463.469,30824.8984375
332,15024.893,-8051.7593,-6605.179,4562.8223,10593.923,-10212.824,34832.4453125
333,7525.484,11617.994,8992.274,-16872.879,-276.29987,-3700.5762,30137.87109375
334,-26805.232,-34922.254,-57079.914,-1566.7076,-4702.572,-2880.9934,28901.70703125
335,-34556.387,-43399.875,-57488.98,2171.0012,18358.799,2569.0933,38031.35546875
336,-14888.919,3997.6719,293.4793,-10950.819,4743.167,-8174.906,30466.478515625
337,18341.117,17812.89,25255.283,15287.445,-10846.884,-5457.904,34571.45703125
338,12189.199,24719.125,-2852.4912,-5892.392,2605.9985,-12174.709,33777.625
339,-581841.5,-571129.25,-576938.06,-3178.8196,5557.3936,6855.289,18714.23828125
340,-310440.2,-304680.53,-325874.28,3897.1208,2042.7507,-14827.036,32831.14453125
341,18469.584,27402.309,18542.482,2713.6094,9834.585,8828.399,25004.357421875
342,-433.77243,13365.732,-9890.013,-4422.9717,8937.209,5203.3467,28104.66015625
343,4532.323,12889.1875,41.19544,-13359.659,2848.7563,11233.812,32648.46875
344,-20349.363,-36477.746,-5927.1685,3535.0193,-779.1844,6967.664,29760.48828125
345,-2483.9207,-11018.543,-33478.68,-3262.2466,-2621.4932,5038.4883,29961.455078125
346,-9471.882,-12825.085,-20446.578,-154.7771,9928.762,2286.0598,20158.833984375
347,17446.564,4157.4067,2544.357,1262.9373,2928.9285,2078.5051,15624.376953125
348,18852.223,-1914.4514,-12982.166,-2288.5984,-3579.347,3214.4045,29474.294921875
349,1242.7117,11582.998,-6619.867,-2607.1084,-1829.0809,575.7941,16776.92578125
350,-5818.4272,-35434.465,-5860.3535,1774.742,-1948.3173,6576.276,32038.240234375
351,101368.81,100684.414,100197.266,94.60342,-804.5608,-521.0635,1955.10693359375
352,-6813.774,-14226.2295,3009.2366,-1694.3292,5235.2563,1376.7666,17910.083984375
353,-1006.04456,-6729.926,5691.3247,-12026.985,7017.6357,-2538.6538,26776.36328125
354,3193.1309,14630.845,-7989.9985,-17259.547,-4705.625,-4080.7954,37334.38671875
355,-206931.77,-183444.34,-216798.72,8280.404,-8033.7285,5644.8213,37090.08984375
356,-132747.03,-155588.92,-163900.72,-13318.324,-3069.2117,-7003.712,38577.76953125
357,583223.2,571501.6,609423.3,6590.0396,-605.0006,7605.3105,37892.66796875
358,-121871.59,-141043.73,-127718.78,-2791.4524,17180.895,-5151.6855,35751.96875
359,-161099.14,-132667.69,-172317.67,1517.7916,8862.963,1763.6787,38795.1171875
360,-4834.381,-2419.6638,-8467.805,3025.826,1173.0563,3309.2783,9604.9638671875
361,1249.0559,7263.0483,1931.1752,1666.1421,-524.70844,-1809.5172,7176.923828125
362,-2410.417,-8272.552,-7679.068,849.703,-3237.4658,2072.7524,8816.814453125
363,-1589.25,-2896.8418,-1354.5889,-3654.1082,611.25323,-79.18627,6577.912109375
364,8945.954,26294.225,21426.465,-717.1772,77.575874,-1696.5305,15824.224609375
365,1251.5085,3315.5823,-13940.71,-4985.6396,-804.95764,-5181.694,20578.7578125
366,-5567.6216,-10363.55,-20565.305,-1488.236,-1421.9088,-2503.5034,14405.4228515625
367,-7772.7383,-28851.316,-40438.805,-11848.844,-2866.158,1604.1677,35726.37890625
368,57563.105,36259.566,50795.574,-4057.7085,7105.133,-1931.5447,23822.345703125
369,42363.203,42152.156,73958.33,7163.3804,10988.974,-1376.7448,39075.125
370,-208624.94,-207193.11,-184032.62,8291.404,-14787.031,-2265.091,38068.66015625
371,-18758.846,-17946.703,15782.832,7453.8,4418.512,-3193.913,37703.91015625
372,26550.633,32851.016,53459.83,2834.693,-740.53577,-177.33789,24901.955078125
373,-7057.389,-1018.7871,-12578.963,2535.2527,776.00336,-431.33585,11042.748046875
374,7339.0913,5797.8145,12134.191,2597.2852,-141.21356,-19.707285,7284.07568359375
375,530.1176,-891.3861,611.5157,-4484.523,-390.01556,-232.52716,7943.197265625
376,-34533.215,-37798.906,-61438.79,-6037.954,-3297.0457,245.94398,28086.8828125
377,-30734.18,-40066.047,-53562.24,-3386.2395,10608.445,14191.908,37032.734375
378,-30930.086,-32747.04,-46031.492,-470.82095,15381.773,12179.965,36870.47265625
379,167.94214,4507.1978,2936.9321,2227.7285,-714.1469,-753.8208,5710.005859375
380,-10144.06,3222.0723,8612.207,2492.634,6598.6924,-4908.641,22389.828125
381,7756.0537,1057.3776,-5788.482,69.044525,-871.1941,3128.7756,13009.8115234375
382,12488.142,-3999.4365,-2390.5889,-8465.714,-3243.927,2033.3055,22513.990234375
383,13604.785,-1655.7964,4239.705,-6790.251,-972.0146,-1003.2754,17940.181640625
384,5677.4346,-14132.692,-257.32104,5276.9414,1540.6985,4765.4766,21653.70703125
385,-5289.6914,-6824.6167,-5043.744,3771.4873,-2067.8901,-2540.481,8812.3203125
386,2976.3,1934.2568,1175.9675,3819.704,-71.79138,-356.32483,6827.7236328125
387,3570.27,238.15552,4295.9653,7135.889,938.3867,2970.806,13997.47265625
388,1274.7333,5307.5796,-5129.095,-619.8315,-86.76025,6529.847,14566.755859375
389,3987.251,11430.146,8304.095,-2237.0127,-1416.6035,-8587.567,16857.458984375
390,13281.979,18953.969,8660.932,-3562.239,-4487.309,558.7988,13384.6669921875
391,20686.195,16350.133,45744.637,-8025.0674,-7102.508,-5891.4136,34699.42578125
392,-5717.704,-2103.8315,-7138.3447,-2553.9094,25.552307,-840.5853,6473.12744140625
393,-42696.773,-43986.41,-59402.13,-5151.8647,2685.7354,-2536.9841,19487.4765625
394,-23155.51,-25011.018,-23301.254,4923.3896,-467.17694,271.91293,8762.966796875
395,-51054.48,-31178.621,-11003.652,-732.6329,-8105.614,1266.8833,37504.6953125
396,9626.125,19244.09,16458.887,-956.71326,-375.94742,-1811.0658,9299.69921875
397,-12681.367,-12507.078,-12708.7295,2828.2185,-515.99713,917.80084,5230.50537109375
398,566.0064,-5445.36,6619.0835,8367.319,-656.2264,-1609.7971,18118.109375
399,12719.77,3887.074,2228.9146,-9535.53,-80.060585,-2557.4814,19693.4609375
400,12643.206,-2747.7954,7798.6636,5482.8135,-3321.7356,6737.6494,21101.265625
401,18348.115,-4047.622,-627.09375,1028.7859,958.9037,-5361.6978,22996.541015625
402,-1106.0449,-7055.242,-22243.918,-4179.422,515.30853,778.18823,20284.607421875
403,-35967.113,-36753.45,-43390.242,1135.5654,916.9679,102.83177,7503.7880859375
404,16812.352,31013.734,30577.555,-2605.7207,-6307.5244,-4941.39,20215.12109375
405,16917.924,12986.038,7271.6353,4136.2104,8870.27,-6283.753,21826.79296875
406,-1855.5085,1165.3835,3449.8442,1208.4384,-1842.8693,1048.1572,6253.88134765625
407,-48972.242,-50695.832,-38307.406,-1368.6906,-20341.248,-1381.4243,37252.3203125
408,46853.0,37075.31,66975.03,-3736.6506,6383.615,2280.883,29614.068359375
409,-20833.473,-19533.91,-16575.031,3409.593,-7129.056,-1206.838,14352.865234375
410,-37995.793,-27053.977,-65442.85,-968.3198,2035.8564,8522.272,37503.59375
411,-1846.7087,-6815.0796,-3080.3513,3543.8196,3164.0708,2550.321,10358.5615234375
412,-7918.3623,-5795.7607,-4797.828,-652.05475,-2240.5974,501.71442,4971.01904296875
413,3838.616,6227.034,-4430.676,-6858.3477,-622.3014,254.00374,15372.1298828125
414,2022.4136,-10733.671,-420.80347,-343.522,-3846.31,2205.6035,14030.3779296875
415,-9272.835,-7119.5664,2606.04,-4776.087,-3998.9604,2033.5657,15779.1025390625
416,107463.53,106657.836,121915.5,5898.6426,19838.748,-4058.1003,39441.94140625
417,109097.21,116567.47,116667.04,-1133.5905,-19669.924,-5463.7896,36203.45703125
418,9415.516,-3725.276,-3056.709,3365.2646,5267.472,2956.9666,17543.849609375
419,4789.0127,3595.3916,-1447.2241,-2412.8877,-2716.8064,-3635.599,10589.31640625
420,28279.69,35253.555,42798.32,-966.8396,-1022.476,1022.5719,12932.599609375
421,752.38635,3262.4663,2321.1738,-2809.9622,6894.8057,-3753.7812,14608.1865234375
422,-17919.316,-12370.468,-25077.951,-1067.4977,1444.967,114.63555,11466.46484375
423,-24322.668,-27529.287,-17546.639,-3421.7505,1346.4806,-2071.0266,11461.0966796875
424,-9568.785,-8654.775,-27609.285,-1755.18,5507.063,-7517.522,24749.724609375
425,109472.2,109963.47,95258.305,-3337.8335,-16641.076,-12898.779,39655.94921875
426,46260.02,47056.61,71812.4,-2379.4666,2090.6213,370.5912,25762.638671875
427,-10242.43,-5565.696,-13022.639,4393.9985,906.6979,-2521.5066,11048.3330078125
428,-5863.3657,-5235.5454,-5608.7393,1341.3765,814.1426,-3674.7402,6942.3798828125
429,4638.8765,9612.773,13710.479,-981.47675,-8893.399,-1447.648,17560.3828125
430,-6855.283,-5988.145,-4886.6343,1043.8848,2093.9211,4037.8928,8261.7646484375
431,3858.062,11601.775,12736.354,-124.07133,1766.1543,6293.049,14080.1171875
432,-59619.48,-55502.273,-72018.98,615.1313,-15702.863,-14642.561,40072.91796875
433,23393.803,33377.184,57738.02,-2089.633,2255.6296,-65.174095,31059.583984375
434,27906.465,23437.943,-5598.1714,2479.8718,-1905.38,-2145.324,32186.333984375
435,-12739.376,-16199.094,-20202.883,1652.2963,-9727.487,-4316.0254,19743.3125
436,10412.386,27.14247,4075.8582,7208.633,3400.4167,-6379.7134,19871.646484375
437,3452.4602,3006.0671,744.4023,2630.1653,2585.82,-912.20264,7045.0712890625
438,41609.254,33731.11,70881.08,370.47028,-4072.767,-2222.7742,34849.8046875
439,-8047.3276,-15087.291,-10904.028,-2831.714,3986.9675,1366.6763,10721.833984375
440,-8093.3774,-3673.1074,-18283.48,-891.9106,20558.66,-5522.9297,39118.92578125
441,-42.894398,-9149.954,-4816.2866,-6271.589,3177.9124,-1958.8147,14901.6435546875
442,1027.8121,3331.885,-1558.8813,3862.74,-498.11844,345.32022,7988.99560546875
443,8842.504,-206.38757,1383.99,6252.2637,831.8741,-3107.9368,14776.5634765625
444,-198.31985,-1184.012,-1458.7997,-4183.4033,226.46066,-201.05147,7354.9755859375
445,9160.798,10657.108,14491.269,-2578.1467,-240.06403,-2408.338,7758.25439453125
446,17884.834,29041.098,27816.34,1449.3256,-733.5055,-1289.3599,11189.3525390625
447,-1588.2028,326.74362,1580.0985,-3770.695,1603.5162,1391.1395,7988.24462890625
448,14068.761,20943.676,18498.01,-3872.365,-1907.1641,2526.8022,10558.58203125
449,-2052.3938,2480.7405,5365.3755,-778.12036,732.9639,-289.46143,6754.72802734375
450,34811.883,38197.844,63920.945,4170.935,-1904.551,-1229.6119,28772.34765625
451,-77423.61,-70588.92,-77311.48,-2513.4324,17284.838,12530.312,37844.87109375
452,3320.7197,-7048.793,9183.452,6784.1675,2058.9314,-2228.2744,19193.23046875
453,7693.9106,7396.9487,23888.29,-1939.8439,21.484266,2405.7131,17199.068359375
454,3579.858,10618.231,-8902.473,1982.56,-1005.0074,4691.4404,19340.455078125
455,-3961.2769,-6089.335,-12392.772,1909.1931,867.2298,5681.4478,12950.0537109375
456,-8764.088,-11708.053,-11112.103,4773.231,-1171.0475,-1035.0078,9107.5029296875
457,-8382.626,-2197.4973,6501.304,-428.83484,-1909.2839,-963.3097,13490.732421875
458,-10589.664,-12067.973,-37658.797,1290.5703,-2090.0479,-1842.6453,26892.275390625
459,584.1988,966.1417,-2664.7244,-3921.0383,1206.5245,-844.9927,8035.8603515625
460,-33793.63,-34514.918,-52865.535,-7322.8237,-16293.303,6716.5596,37988.4765625
461,26618.857,22920.164,47736.285,1690.9015,1868.5928,-1724.7433,23784.6484375
462,2593.248,390.67444,348.7972,894.2473,-679.34784,343.774,3013.87451171875
463,-21895.582,-21909.807,-41681.383,-852.5766,518.9568,-2095.9102,20183.255859375
464,30582.2,25543.457,36862.58,118.176956,-181.62082,-480.03955,9864.5556640625
465,4134.006,252.48889,185.99431,-1805.1638,101.36892,-415.38626,5064.8798828125
466,8993.764,12388.702,19426.496,-1251.5735,-1853.6915,-4071.413,12234.6259765625
467,-1147.4331,1639.8544,11422.092,2233.4517,-2072.8428,4125.3296,14478.8486328125
468,-14846.782,-10660.708,-14759.355,2393.628,1847.4163,-399.76184,6713.53271484375
469,22120.748,21535.129,45236.23,789.7452,-1623.1986,-4568.4414,24911.697265625
470,8245.29,3857.8535,6267.5483,-338.03885,-2294.1938,-577.29504,5622.85009765625
471,-13782.541,-15783.412,-38041.645,-5082.0527,593.35535,2140.3667,25223.9921875
472,-4031.9736,-2670.7559,-1179.4922,-220.21779,-1233.2527,-6136.107,11125.212890625
473,8004.5635,1486.6715,13413.476,5373.056,-1103.3835,1543.584,14296.9736328125
474,32882.33,26441.805,19492.541,-4767.038,-5439.896,-13989.011,29640.48046875
475,4776.407,1380.1012,500.30908,-2916.8032,86.59711,-871.7426,6566.7724609375
476,-7629.01,-12921.659,-15763.282,-561.53723,-2109.7502,-1552.6434,8523.9599609375
477,-35659.645,-26274.81,-61916.16,-4559.993,-1945.6853,4025.9146,33856.37890625
478,-7736.368,-14064.598,-30195.428,-1954.0619,-109.597336,-1490.3055,20505.703125
479,55201.21,51970.336,83524.19,-2560.2307,3367.5164,-5938.245,32613.04296875
480,-7666.4937,634.4727,-2711.4656,-1713.4514,242.18542,334.6527,7851.52880859375
481,-3332.6284,-2344.4302,-17356.387,-2058.4197,-259.71005,-1946.8923,15355.3046875
482,-4017.304,-16442.873,-17379.914,-1394.6875,-1488.7988,192.48723,13398.21875
483,11385.075,-4339.985,4920.9546,-57.882366,-476.4231,-815.3229,13787.6357421875
484,-1062.6685,5470.585,5067.998,1722.965,-1395.6044,333.98416,7436.3212890625
485,-10642.02,-9527.853,-721.0042,3132.3464,-565.6999,-1886.302,11387.865234375
486,-21240.352,-18351.035,-36959.156,3387.843,5754.9717,1564.6406,21023.353515625
487,-11738.93,-6663.7847,-13884.613,4531.0894,900.4211,-480.06717,10294.0126953125
488,3834.1921,-222.28815,238.12996,-516.7455,2103.1526,-1699.5985,6126.66943359375
489,90.76261,-2167.0205,-8338.842,-4487.4155,-5966.6377,-452.7488,14998.3837890625
490,18494.031,18412.021,34191.844,-5318.516,7050.0083,-1300.6117,22062.591796875
491,-15489.165,-18049.91,-4528.1895,-1293.1294,-576.0873,394.12598,12698.3017578125
492,-24412.496,-21176.297,-7512.7,-2700.096,-198.24983,927.34924,16308.107421875
493,788.35895,6154.639,7075.857,3597.0232,-3649.1943,145.27711,10649.7900390625
494,-5210.0596,-15530.761,-15073.418,922.4252,-1785.1094,810.2892,10774.4189453125
495,-1541.9038,-15154.518,-1298.412,-1479.7272,126.492134,-219.82613,13979.9453125
496,5039.3926,335.96527,785.9519,-46.92963,358.29297,-2603.1445,6397.58154296875
497,-11974.343,156.88425,-5962.7495,2745.2378,253.83522,2512.1223,12333.388671875
498,-13121.307,4382.1167,-3267.912,61.04584,1561.1031,-1030.54,15540.251953125
499,8130.505,-5139.0605,-2517.6658,-89.05809,-402.71365,208.45634,12198.7294921875
500,-43664.367,-39302.254,-70813.46,-7808.4478,-5673.6357,1641.5411,34089.56640625
501,14363.109,7010.769,20958.635,-1641.1317,65.26884,702.739,12474.9619140625
502,8574.622,5084.1875,4920.4673,4384.9775,1155.6333,-1115.5616,8843.3798828125
503,-13454.245,-1441.5035,5504.668,1072.1353,73.08216,-2302.3567,17186.181640625
504,-14078.443,-11352.6875,-33302.832,1007.4122,-1613.8606,2957.169,21598.626953125
505,-14139.22,75.56798,-4231.955,2641.7937,1027.5844,-2754.1328,14361.23828125
506,3856.9678,12380.572,1296.8184,1754.0233,-2860.2383,1295.4141,11825.1796875
507,6489.0757,10658.897,1436.7214,-1949.6068,-294.66742,-123.97931,8700.03515625
508,-9442.682,-4509.007,2135.1648,-13665.695,-1494.844,333.66656,25856.482421875
509,5353.362,-4630.1636,2211.0908,2235.86,458.01764,-594.15735,9739.5751953125
510,4426.7495,1609.0732,5400.6455,-788.8413,360.7544,-1460.0142,4503.783203125
511,-3010.4846,-4267.0596,-6488.521,3937.6235,2074.047,-1524.9788,8700.6689453125
512,-22173.137,-12909.67,-29423.299,3003.7502,-1771.3091,-734.33997,15608.8505859375
513,47.940533,3345.8018,4982.5444,-762.33704,261.4949,-242.08794,4590.96923828125
514,3614.5251,5802.7744,7017.393,3781.5469,-1230.4359,-444.66763,7546.9873046875
515,-3913.9492,1173.5824,1189.1971,-1167.8296,1005.4068,371.43384,5787.96630859375
516,8269.426,6368.1655,8944.82,-3159.2341,-397.26102,302.3626,6003.75244140625
517,-20946.908,-19726.12,-7494.036,1368.6956,555.18854,230.70811,13143.490234375
518,8337.366,6814.1265,16608.799,-3942.7183,-1279.5461,384.27573,11632.9716796875
519,1272.9492,1037.5498,-6648.619,-1410.9926,-2179.888,3915.933,11277.1435546875
520,-3389.7844,193.07173,-3099.816,-2887.978,156.94276,-835.0116,6250.51220703125
521,-16417.285,-13814.205,-29868.508,-2597.6208,1172.827,2441.3862,16278.1025390625
522,4892.5522,14341.289,15174.055,-1427.0219,653.0952,2913.3193,11432.0498046875
523,-3147.64,978.20496,347.36047,3008.6565,-1165.2754,1953.268,7582.42724609375
524,-3363.5107,1546.173,-3539.9363,913.07996,-710.56195,-1217.8951,5785.14990234375
525,733.59296,4587.0957,290.89432,-173.46513,-2405.1807,-1374.8989,6314.0634765625
526,-6931.273,-8876.357,4045.1323,-1233.8821,-91.42813,1779.3898,12637.484375
527,-25015.28,-21973.377,-24216.82,-2916.7864,648.14484,639.74054,5955.91162109375
528,-4711.3994,3924.039,-6109.533,4960.835,-380.03058,655.84,12812.1962890625
529,6428.042,6121.7017,6812.9883,4807.5244,1681.6213,781.3733,8944.943359375
530,43153.39,45919.16,71316.914,2973.9084,1128.9795,3428.3604,28081.25390625
531,-18612.6,-24981.318,-40491.867,4028.7783,894.0979,392.71335,20771.955078125
532,-6942.8306,-4669.5537,-7028.8604,4007.986,1077.8218,4147.024,10423.10546875
533,3167.9663,-11120.947,-3741.0203,672.5251,762.4079,-868.9757,12591.71484375
534,-20934.057,-30655.34,-44004.645,-238.11528,-1146.5634,956.6896,20232.13671875
535,6175.2617,-2281.6177,173.77036,2021.8954,-309.8535,667.45764,8406.6357421875
536,14017.521,8005.3647,24637.395,4049.446,-480.05188,334.22696,16217.1689453125
537,-25570.812,-14151.42,-17417.12,-2602.1523,-26.027184,-888.2061,11245.326171875
538,-8467.255,-6.6292324,2367.9717,5163.8506,67.357025,957.4306,13419.0615234375
539,-4527.732,3492.235,166.76686,1125.5078,944.72797,-1750.0962,8023.3916015625
540,-2799.8289,1337.5018,1860.2253,1264.3478,212.11696,-823.70135,5149.716796875
541,-14353.771,7703.6924,1754.0966,-6151.253,564.7592,-436.17682,22488.61328125
542,1426.4458,-2003.3121,1607.8514,5702.7437,3062.5159,2535.235,12545.97265625
543,-15996.162,-17621.355,-21230.266,5076.2197,3642.8606,154.52898,11777.8447265625
544,6333.532,-10013.849,-1337.8096,536.3896,-658.7148,529.0332,14271.806640625
545,-10748.235,3027.1057,-4849.513,-2551.9727,142.13849,-1844.9229,13157.0341796875
546,11162.696,-3078.467,8117.9893,-2997.1738,592.12085,-1222.8248,14184.76953125
547,2713.7986,-15302.981,-2923.8892,-4204.551,-781.8475,588.9295,17627.365234375
548,7316.6104,-11190.5625,7718.0024,-6910.403,-144.56293,-602.0978,22237.7265625
549,-8088.7393,-10215.83,-14174.58,3101.7295,4469.3545,-1886.9602,11317.5205078125
550,-8304.212,-7811.747,-18105.037,3746.563,-1228.1132,761.6278,12227.0390625
551,2911.5408,2583.95,1137.3273,3286.9258,2.5635147,-1624.291,6557.4814453125
552,-7364.127,3357.475,688.77905,-809.8332,1300.2936,-1166.1299,10226.501953125
553,16123.876,9484.349,20818.8,-2993.6768,-1203.1965,219.59068,11343.3564453125
554,-5616.2935,-2246.6658,22105.744,-2703.9548,903.43713,444.0068,26672.587890625
555,2586.461,4822.355,-339.4172,-5436.7515,304.9533,2222.4639,11129.859375
556,3186.1204,9537.126,4344.694,2336.2847,-514.7289,-311.10175,7195.78564453125
557,-4132.0796,5220.082,1110.3474,3002.261,512.12177,-556.4426,9730.07421875
558,7289.4253,5789.359,814.1748,1289.6339,-992.34106,105.88258,6514.83544921875
559,24152.559,23634.057,34457.92,2995.184,-449.3671,779.36194,11880.8291015625
560,-15518.745,-19774.254,-1627.4095,-1696.4708,480.42947,728.4758,16766.388671875
561,-15672.551,-10404.541,-8261.699,-2453.5334,-714.4214,-59.7164,7951.95458984375
562,1309.9547,2360.2205,-445.75775,-5389.8223,-393.64188,2091.5688,10332.90625
563,4717.9746,-6996.767,1238.6239,554.8965,-443.18182,-1009.3815,10637.240234375
564,-6810.049,-14015.055,-17969.727,1395.1628,505.3407,-206.14026,10137.9482421875
565,858.3102,10333.513,7645.2354,-2085.6743,-816.94946,-271.79263,9317.095703125
566,5378.252,-1639.4849,-1580.2496,2294.8682,-681.6423,-795.5361,8241.859375
567,4706.9937,-1494.9651,4824.0537,3049.1597,275.78442,-139.35011,8208.6875
568,16125.705,10417.529,17718.357,-1053.239,188.86295,1261.1915,7240.0078125
569,-6974.486,-2687.195,-9762.2295,694.5149,-1196.7101,-3904.274,9464.5498046875
570,4646.9336,6382.745,4849.8203,-2171.936,684.773,-639.0766,4414.2890625
571,-6285.2725,6761.231,1078.4769,-4011.765,562.11053,785.7621,13395.8134765625
572,5072.7095,5369.6895,2611.9204,-3843.3918,-205.28493,942.91376,7347.32275390625
573,40267.68,45271.164,66254.85,-876.5484,-5493.729,-5600.726,27518.978515625
574,-334.91846,2702.802,-609.4591,3889.028,2393.4727,0.68263125,8526.244140625
575,-225.68675,2984.9746,-68.7635,5078.1997,1652.5029,1240.582,10000.1455078125
576,33187.887,32901.68,56670.574,1404.0049,15347.463,1179.7584,35706.6171875
577,4609.385,9281.93,2941.318,-4368.2856,2389.1084,1885.4513,10837.1259765625
578,-38636.504,-41499.574,-74897.69,-659.9964,-5210.91,-3041.8735,36466.1328125
579,45650.574,29567.547,65730.586,999.57855,5373.3647,4103.8086,33540.3984375
