Element Label,S11,S22,S33,S12,S13,S23,Mises
1,40099.27,17812.299,51231.68,1019.3094,-9964.866,-1862.4548,34353.546875
2,127919.13,143570.45,102851.43,9520.41,-879.7287,2976.0,39579.06640625
3,-133935.05,-166050.62,-172190.16,7052.3887,-1564.9797,4416.865,38488.453125
4,140635.44,151106.19,181573.81,530.80743,2427.5159,-3624.5518,37614.7265625
5,-61484.71,-79739.15,-101586.875,-4944.4297,495.4895,4409.802,36630.359375
6,-87075.23,-99840.5,-77590.625,-1145.7253,-997.1395,-5579.9946,21778.736328125
7,-21736.88,4148.509,-7443.274,3068.6174,-1661.7225,-15526.8,35554.78515625
8,134429.03,121470.65,136006.05,8790.31,-13892.258,13586.736,39438.98828125
9,-113392.46,-94806.19,-112402.53,1756.5746,-11327.819,5965.9404,28792.7578125
10,70898.02,61171.684,85003.695,11645.301,-12221.706,8402.209,38697.66015625
11,100221.42,94414.3,102103.54,-7.0272884,-625.6928,-2279.1272,8059.3203125
12,-75699.516,-57775.344,-77397.055,-784.7409,2894.074,-13570.246,30561.638671875
13,164451.05,134876.22,165973.56,-221.80637,12203.11,4839.283,37936.3671875
14,-144509.03,-124213.36,-136383.44,-3438.987,-6039.7163,9525.874,27021.591796875
15,55643.543,65171.125,83303.61,1398.9061,-1639.5355,9636.943,29746.724609375
16,15911.867,42382.53,14824.538,1067.6787,-635.5536,-684.0697,27142.146484375
17,110183.12,111230.12,110393.8,745.453,-671.91864,-144.23517,2000.98706054688
18,23730.666,8052.8716,44829.766,8628.952,7815.678,-1746.226,37914.79296875
19,10376.153,13868.351,6543.0757,6209.1265,-3870.8174,4785.8022,16419.345703125
20,-388.05734,-26395.48,7503.7065,-7897.174,499.1562,1461.5364,33736.66015625
21,68173.37,32961.96,69796.07,-9960.703,2138.3843,-208.9007,40138.62890625
22,84195.89,86073.34,85001.68,-601.20044,291.4224,-34.316563,2000.9833984375
23,-2673.1887,15638.715,24135.795,1220.3356,5567.265,12461.563,33562.578125
24,-7016.5977,-13544.122,-19832.46,-2145.1345,-10.450174,-4972.139,14531.7138671875
25,-12562.574,19694.473,2401.0005,714.9473,-5924.7095,-10806.756,35198.6171875
26,62425.965,50431.566,70472.734,3478.5034,7510.479,3131.2534,23239.37109375
27,15049.2705,30850.8,55990.04,4133.9287,8581.629,2440.9768,39610.41015625
28,-35467.902,-13352.854,-22446.023,-2372.2627,235.224,-8465.248,24549.85546875
29,25840.84,-14926.197,-10731.058,-5368.2603,-2125.0422,-959.88324,40140.91796875
30,-28329.61,-37345.11,-63188.28,12092.085,-3288.4102,-3927.3225,38723.45703125
31,21440.928,421.66672,-4055.4434,6993.0,-15974.523,233.03806,38319.5078125
32,-44256.2,-37711.81,-5183.319,-2452.7822,-8914.186,974.9666,39662.3125
33,9549.685,-24325.295,-17948.682,-4177.398,-12907.407,-4975.5234,39982.37890625
34,-119.8943,22502.566,21877.463,-5477.6445,16222.267,4917.938,38079.95703125
35,-16881.008,-6035.5464,-41463.375,1197.0935,5888.4087,12663.407,39723.15234375
36,25878.66,16054.622,22703.537,3675.1855,21416.086,-1146.6112,38675.7265625
37,5454.76,-3085.998,-5782.3047,16727.008,6671.495,10252.985,37303.0703125
38,4856.2314,-13044.845,-18760.094,-14232.043,-6056.4907,2228.735,34467.6640625
39,10049.15,11004.89,10381.658,-137.48598,1008.89545,249.94073,2000.98388671875
40,2004.4323,3071.5679,3014.129,841.05176,-332.82114,395.1577,2000.9111328125
41,12358.763,11973.096,11457.621,-1031.7222,-149.40279,208.46524,2000.98571777344
42,-47243.52,-46960.016,-48646.94,-197.12384,498.37186,480.32242,2000.41711425781
43,11348.288,11170.321,10856.847,-374.34338,20.908722,-1064.0342,2000.98559570313
44,5803.291,6028.9224,4959.0957,63.37716,299.07098,-960.8175,2000.98559570313
45,-17920.203,-4224.1777,-12205.238,11194.671,-7159.3965,-12837.509,34148.31640625
46,-15272.322,-651.3518,-21821.74,-6491.586,3697.2427,2946.031,23364.388671875
47,-98836.62,-81066.74,-111611.016,956.9799,-4103.8433,1685.8501,27708.328125
48,16000.393,-2479.2349,-3394.601,-473.55945,-15832.557,-1051.7367,33395.37109375
49,80250.96,74058.92,99403.22,6860.84,9026.963,12291.85,36914.5234375
50,-10563.012,-15146.785,7812.8896,-3931.997,-331.66312,-14326.747,33247.4765625
51,10325.069,-22140.309,6442.3706,-6127.722,6597.065,1802.1099,34582.890625
52,3309.282,-3884.922,16803.383,-10501.93,-13060.11,5072.0127,35364.86328125
53,-23415.115,9487.2,-33272.19,2732.9836,3598.292,114.691,39564.31640625
54,18999.93,4726.665,18419.582,-13256.878,2606.1194,388.40628,27273.466796875
55,44968.887,28021.62,61197.04,-2989.9949,4282.576,10557.956,35239.73046875
56,19683.691,1297.1925,41536.555,-5283.296,-1020.1782,893.70953,36147.84765625
57,-23472.658,5579.373,-24243.943,2806.7402,-1067.8575,-11104.169,35552.56640625
58,-152.73569,-25747.107,-27063.787,-4174.5894,51.574062,-11313.375,33567.42578125
59,210312.84,211435.25,211634.17,166.58209,-836.38763,-315.93155,2000.98889160156
60,287010.06,287529.94,287300.7,1088.218,124.663506,-67.630875,1953.62341308594
61,220304.03,220494.08,221859.45,-222.06506,633.6,-395.05463,1995.07946777344
62,-253131.11,-251345.9,-251174.38,-114.79472,-230.95392,306.48276,2000.98449707031
63,203422.4,175623.78,204058.14,1508.9347,6079.3345,-4037.2988,30942.611328125
64,21751.547,21558.354,18007.574,-1166.0316,6494.514,-1206.6908,12178.451171875
65,-239129.12,-239456.3,-241278.0,-13192.079,1987.0016,-13713.326,33198.265625
66,-470811.28,-476993.4,-490744.66,-7730.432,13159.241,5183.5,33041.0234375
67,457799.3,449788.84,445651.06,-17911.785,-6239.8184,-4817.52,35543.8046875
68,35986.96,66561.65,30574.375,-5145.431,1238.9072,1740.7778,34967.3828125
69,98736.58,114114.13,123311.055,5926.1885,-12045.112,4959.5864,32815.921875
70,-15470.62,3147.8826,20717.604,-5916.885,-5635.423,4350.764,35207.3203125
71,85348.03,103114.54,127020.695,-5196.031,3457.7756,-3507.8167,38283.953125
72,-53831.54,-50495.406,-41662.367,-15951.965,6529.4097,-7915.445,34610.3828125
73,-44077.67,-39232.94,-30975.762,-15869.897,10978.856,-3728.544,35923.9375
74,-8002.0767,-19057.139,-42558.113,4795.283,-9207.448,3339.6794,35931.75390625
75,-22050.97,-417.86188,-27426.861,11389.791,8880.414,73.08625,35199.03515625
76,51269.816,15816.73,18660.854,38.886257,-2081.5823,7.162026,34310.07421875
77,-3651.9407,-24908.438,-31893.34,783.04517,-5724.0864,5689.6987,29092.181640625
78,38266.81,33019.906,43253.723,-144.83546,-14472.287,-13906.689,35876.9765625
79,-39877.43,-18206.758,-20583.941,12631.466,3675.0125,-10107.233,35346.87109375
80,39942.977,9382.77,11017.816,4978.3345,7287.407,-1801.4216,33616.03515625
81,14877.664,16322.738,16090.297,325.0142,525.52893,-592.2069,2000.98596191406
82,66963.734,51460.41,66917.695,-4415.178,-7572.711,8466.655,26176.58203125
83,15765.253,25622.943,32885.56,9923.562,-3628.9868,8217.2295,27550.330078125
84,-21825.746,-17728.258,-22600.031,906.2923,2221.4958,13371.713,23963.283203125
85,275036.97,279597.66,271814.2,-1516.8793,-2352.0525,-732.328,8425.7001953125
86,283179.38,284542.94,285143.9,-363.10535,325.29498,-289.26987,2000.9853515625
87,107826.71,109162.48,108882.56,806.9525,422.13867,-95.058266,2000.98742675781
88,-822170.6,-822413.94,-821528.3,-353.83087,536.6569,625.54205,1744.00354003906
89,-114854.586,-114812.45,-115004.34,-121.62495,887.7516,-715.97253,1994.25390625
90,45151.883,45234.777,46523.824,441.4102,-431.13043,347.26562,1810.88317871094
91,514775.56,514829.06,513815.97,-165.47801,645.3768,752.1457,2000.96789550781
92,176786.53,177174.28,176480.55,424.91318,-970.4798,265.59924,1985.29541015625
93,79623.08,80353.51,80388.52,-502.5433,-945.5145,-36.375244,2000.98522949219
94,-7548381.5,-7547283.5,-7546899.5,-619.8712,404.62067,-441.6758,2000.94958496094
95,7228.01,17804.299,-12253.172,-1012.3497,-14967.28,-79.07528,37048.140625
96,-22452.252,9858.976,-5738.13,9511.08,10573.448,-2012.2076,37446.57421875
97,47904.2,45908.96,29897.426,-11103.696,-2192.9128,2931.8755,26502.595703125
98,-33986.766,-38227.87,-38709.473,4258.3706,5919.8013,-5543.7666,16492.265625
99,3440.7527,3254.5623,3844.6643,15.840604,-251.9287,-718.07196,1418.11669921875
100,-29510.861,-22386.28,5926.02,-3917.8628,-7300.3335,-1209.1805,35558.109375
101,36734.965,37537.31,52447.05,-2627.9548,-1765.128,17198.953,33946.7890625
102,2320.1372,-19753.82,6911.7305,1374.5536,13441.264,-1729.9526,34151.80859375
103,-10967.726,9936.851,24147.51,-2903.8916,10305.577,-6588.539,37551.9765625
104,-18680.072,-20798.775,-15019.986,-5894.99,-3841.6167,6448.213,17288.8671875
105,29869.035,22211.748,59582.098,-4160.405,2937.29,-8646.905,38355.421875
106,-4709.67,-12683.922,-40501.504,-2150.3113,-12607.492,1022.94415,39409.2421875
107,-32860.76,5519.2754,-13950.794,-3740.26,11083.234,-5619.2114,40125.53515625
108,13427.017,18859.658,828.034,-10476.649,977.2276,-6081.341,26453.4921875
109,2848.9414,3070.203,2546.0176,-257.53192,926.4793,-583.7059,2000.98522949219
110,-151985.02,-151791.27,-150671.55,336.56122,1.0366125,-847.7109,2000.97961425781
111,15982.54,15590.043,15930.157,-177.50269,-504.18414,1001.76135,2000.98522949219
112,17407.324,15949.7705,17339.99,-354.36902,-551.7869,475.5885,1999.88635253906
113,-143578.83,-156318.28,-133808.9,-6890.8213,3179.508,-1839.0387,23772.521484375
114,74293.75,74451.92,74502.68,443.59286,759.23566,-740.92664,2000.54504394531
115,272083.34,271531.75,273652.75,314.1441,-67.231834,142.6642,2000.9111328125
116,277061.84,282861.75,271827.56,-15191.887,-5962.873,2384.365,30124.712890625
117,-361633.4,-334480.53,-323115.3,3183.3218,3501.3464,1751.0833,35375.45703125
118,-95488.055,-105005.4,-118967.97,-15041.356,6063.8794,-5654.788,36102.4765625
119,1538.9404,25934.572,-7342.679,-2352.18,9446.736,-4289.5635,35074.55859375
120,100036.836,108631.88,121856.16,7924.158,2861.8804,10290.824,29884.287109375
121,-50824.723,-32980.273,-18968.625,5992.862,5058.088,-8539.777,34176.89453125
122,47920.41,11082.325,17091.387,-2385.4292,-2277.5396,-2449.1272,34963.09375
123,-33326.668,-40069.707,-15289.152,4843.707,2571.2483,9361.799,29079.142578125
124,49802.645,66193.32,66979.35,3456.2517,3095.0151,-11481.806,27243.818359375
125,-31725.71,-20196.941,-54699.867,-9911.81,-9379.686,113.01896,38526.53515625
126,-29623.506,-11026.289,-46746.027,-6508.287,-10467.959,2091.6619,37767.73046875
127,200.18153,21385.29,32383.588,2832.1868,-10079.029,-1492.611,33738.3984375
128,-218380.3,-209085.69,-210717.73,-10568.406,2251.7034,12501.367,29883.453125
129,-12735.714,-11923.758,-12187.483,470.72476,454.3963,-857.33685,2000.98547363281
130,27165.217,7824.787,33985.61,-2035.5283,13293.966,8785.482,36423.234375
131,21860.713,5280.5522,31349.543,4354.248,-1196.2275,14825.53,35253.7421875
132,39998.65,44773.24,9417.532,665.6065,-3110.432,-1326.3196,33758.62109375
133,28316.883,-401.13367,30150.209,-1813.0079,-9963.462,-1197.902,34535.671875
134,28828.86,27281.992,27469.645,-2654.5938,-9618.076,13082.517,28535.193359375
135,17017.332,16225.5,6037.7534,-14194.683,-1142.7854,9698.337,31670.841796875
136,137881.02,138113.58,138312.2,221.15648,1109.561,-89.637764,2000.9853515625
137,21937.908,10646.069,23776.21,-3093.2417,4933.964,3930.4187,17312.533203125
138,140467.47,141690.53,141866.22,-85.3139,863.4424,-36.075504,2000.99047851563
139,116620.414,128050.13,111678.71,7784.656,155.89511,-16673.87,35035.2734375
140,-113147.79,-114257.48,-112518.33,-240.21515,-626.17834,318.48764,1994.95446777344
141,-6560.1704,-17286.04,-16953.45,2544.0994,743.05927,-1822.5302,11942.619140625
142,2943.3887,-8176.5205,8228.665,-1722.9297,8057.682,4144.825,21577.33203125
143,-75544.14,-43051.996,-48195.133,-659.44464,10406.052,1243.3572,35297.0234375
144,154841.05,138964.66,169015.72,12047.461,96.3871,8743.532,36644.55859375
145,-52874.164,-22149.105,-45274.266,973.3919,12266.324,2239.2205,35178.875
146,151966.16,112630.555,138758.22,-1131.5237,3143.5437,1858.4459,35299.36328125
147,494545.28,478932.72,481210.38,-163.05849,18198.14,994.9251,34784.28125
148,11689.665,10534.682,11144.937,-783.987,-589.0227,189.302,1998.45422363281
149,219885.17,219935.28,219939.08,682.6641,610.2916,-703.4978,2000.72534179688
150,154956.11,155227.47,156008.23,275.4369,685.6438,-521.72144,1830.19055175781
151,148792.88,148628.06,148017.6,-984.79156,-444.09555,-6.3050227,2000.41821289063
152,15422.906,-5649.7417,19749.195,5785.7866,-41.6545,15879.92,37561.76953125
153,25695.621,25709.74,24634.723,10246.504,15952.706,3542.3242,33424.8984375
154,8461.423,-4645.0435,-20882.896,-5756.629,-2805.7021,-11448.475,34124.81640625
155,20896.63,28967.305,10249.681,-18165.361,-2767.2366,1307.3645,35811.4921875
156,4681.7295,32303.842,-2996.3345,1226.5271,-2615.2097,11685.937,38324.046875
157,-24055.098,4468.2036,-15565.627,13678.168,1341.694,7440.7017,37098.1328125
158,14391.262,-19310.738,-13615.097,2400.374,-12018.572,-2853.601,38096.765625
159,21782.223,9667.854,-3333.3408,-2531.5066,-17149.441,3145.802,37476.84765625
160,-13191.602,6577.365,-4074.031,-9362.135,15527.8125,-7235.1055,37908.11328125
161,6983.8247,7646.657,6868.6567,-285.1839,-363.8891,-971.88715,2000.96899414063
162,10631.519,9987.354,10054.267,-542.24493,920.97845,-257.86328,2000.62390136719
163,43717.29,42564.316,42526.38,-780.33167,-430.9475,272.30508,1995.21337890625
164,88960.97,100654.72,76883.15,-2163.7422,-1171.0913,12687.864,30413.12109375
165,17914.135,23664.15,14355.306,-6391.225,-8190.951,16690.85,35010.8984375
166,38387.926,32666.576,30580.045,-14482.409,-4037.019,11652.314,33681.859375
167,10087.743,5397.3896,5536.9907,-4983.349,671.9539,16102.118,29581.322265625
168,5966.3545,-14775.233,17680.49,4567.0713,-2354.6326,11249.2295,35626.4921875
169,18354.875,-17384.938,12690.429,-3795.4473,-3463.843,5853.723,35902.40625
170,-73427.45,-45635.812,-90387.59,-1582.3296,-322.8957,1354.0264,39302.62109375
171,-13422.226,-775.09314,-22236.791,17.74936,397.403,3791.9275,19817.578125
172,594.77344,1461.5154,43.956802,20.247076,772.6448,475.99454,2000.98449707031
173,-34338.156,-33200.61,-33251.58,-664.945,676.3955,148.55147,2000.95532226563
174,8042.66,4635.125,7354.87,451.80945,-16969.547,1024.4834,29620.91015625
175,7208.3135,34005.438,33523.375,9528.48,10440.224,358.90417,36126.9609375
176,70765.44,62430.28,52175.66,-1340.737,-5742.2026,14341.488,31328.13671875
177,192127.64,191420.25,191584.77,926.62915,9.078266,-582.1427,2000.98291015625
178,3078.2102,7283.2295,20385.74,15386.574,-4484.1987,12394.206,38417.01953125
179,-1037.6813,24608.908,2533.1963,9499.355,-5557.339,-11844.161,36920.66796875
180,-20403.562,10283.091,-28093.938,-4452.5786,-5212.5107,5351.057,38258.2421875
181,48500.434,47295.273,66061.234,-1051.1362,-1363.0994,5351.8394,20635.23828125
182,206053.16,224188.86,224022.89,-357.33588,-9443.343,-3050.5964,24934.974609375
183,90389.37,89826.5,91181.12,-37.174305,-921.5229,-144.73056,2000.98413085938
184,23342.37,22910.86,22491.678,-863.2845,332.16797,546.00415,2000.98571777344
185,253221.47,280343.4,253915.22,-5539.34,5521.574,7391.826,32629.716796875
186,-287086.84,-255318.92,-263443.97,-3850.6094,-7300.83,-576.8202,31976.359375
187,19720.756,20489.23,20353.086,532.6568,682.9199,-629.8444,1986.17358398438
188,2793.1514,4207.267,3004.8823,342.58038,775.42114,-183.30286,2000.46472167969
189,-724776.8,-724566.5,-724701.94,152.0711,536.0672,-1006.37537,2000.98608398438
190,87014.445,88237.07,85989.555,-142.88135,206.3243,74.59445,2000.97900390625
191,-1112.5536,4121.875,-27321.271,-2284.1387,1913.2942,8337.687,32964.66015625
192,13874.974,-6866.2827,-2057.4902,5152.266,-15553.265,-362.23843,34048.89453125
193,20215.115,51798.527,33388.414,-13483.588,3956.9717,4283.041,37448.8671875
194,9092.185,10527.761,-19533.945,5991.9634,-12593.437,-5958.386,39403.2109375
195,-4887.174,-4189.7275,-7896.975,-5627.928,1048.2706,-14506.375,27226.2109375
196,-11921.495,-33374.97,1340.3783,-5721.2065,4607.199,7009.6875,35070.28125
197,2508.418,-11974.47,-9710.205,4023.3147,-14823.831,12525.766,36885.921875
198,36373.82,4929.005,724.2027,4994.879,-8125.3374,2412.5159,37802.73046875
199,41315.863,19958.244,17852.48,-4138.345,-14988.297,-347.1471,35089.06640625
200,-10841.453,15521.51,10469.126,61.416496,-16322.818,5111.1294,38275.60546875
201,17236.15,31081.361,27903.484,4856.6626,16511.479,-7391.144,34789.73828125
202,-5451.6226,23735.451,21254.621,6811.511,627.0949,10858.359,35773.078125
203,-1515.8885,10863.051,12669.789,10544.901,16784.346,5512.9136,38062.7421875
204,4055.2595,29814.947,5061.2446,-4.974352,-4406.3535,10352.019,31912.38671875
205,10595.023,6361.6694,-18999.455,8796.769,-1741.5856,1120.1954,31835.26171875
206,2628.2908,-1628.6993,-12135.096,-788.68384,-2311.2285,-6149.907,17452.43359375
207,43850.875,46306.13,22206.83,-7075.719,-632.56165,-3779.7332,26868.0390625
208,29636.44,27615.123,29321.29,-254.43768,96.22079,-279.15594,2000.94885253906
209,35000.438,35859.62,35492.617,197.57542,-817.0633,664.9543,2000.98547363281
210,-132338.58,-133258.84,-132743.4,-756.29016,423.8005,600.8353,1993.98583984375
211,19755.602,19392.473,19253.607,683.2144,-37.82908,-893.76215,2000.66076660156
212,18160.9,17595.041,18485.816,1038.5806,-153.69218,-11.056563,1979.09155273438
213,17101.21,15567.693,15422.222,-353.58966,-530.34155,-184.87158,1979.22143554688
214,12209.195,10816.715,12199.146,-455.1931,21.45664,661.8998,1965.30590820313
215,23246.457,23328.992,21543.455,16.121962,556.01355,92.901535,2000.42749023438
216,15137.696,16499.098,15084.365,799.1495,205.28218,-104.466515,2000.98596191406
217,5352.0977,5256.2617,5547.418,569.2465,-785.4532,-609.6325,2000.98559570313
218,3529.4507,11726.834,8053.135,-3631.8806,5018.0,-1199.8496,13038.7880859375
219,58088.53,44633.15,43986.06,-5468.23,11812.802,-9926.68,31529.689453125
220,-8966.269,12700.559,11574.182,-7908.0405,2022.0476,5127.5967,26927.109375
221,5395.0215,-6182.9175,-18129.887,3391.0178,-1555.72,15271.399,34007.421875
222,-45197.984,-46307.473,-18772.877,10213.767,3980.2222,-6133.843,34672.71875
223,158176.77,123730.89,125397.555,-1711.083,-98.02115,-2866.693,34137.2578125
224,24871.24,51821.69,21254.418,1258.1555,-662.7635,6152.95,30927.7578125
225,-30986.56,-28977.828,-24474.426,-14789.909,3962.1636,5975.4688,29048.25
226,102671.86,102463.48,102024.016,-270.23465,-496.0798,951.3292,2000.14331054688
227,58409.227,59092.91,58910.266,-93.24142,1067.755,-194.06651,1983.75415039063
228,-56056.637,-56124.816,-57629.08,112.63836,-122.11315,-719.058,2000.98522949219
229,43987.855,44856.902,45742.188,-187.941,192.90201,63.145393,1593.07482910156
230,130014.984,129566.42,130928.3,-137.29338,206.66327,870.328,1975.37731933594
231,83678.01,83014.48,82850.5,-553.1752,-194.99825,893.66016,2000.98291015625
232,45917.113,46201.266,45572.496,-49.10101,-916.7153,-468.21085,1866.39367675781
233,-6779316.0,-6777752.0,-6777520.0,-254.7856,-556.92084,-73.3379,2001.03295898438
234,151208.78,149285.58,151216.75,-136.90417,223.00256,167.76225,2000.9873046875
235,-184254.52,-183444.52,-185306.62,366.2446,434.32388,373.75836,2000.66137695313
236,261159.36,268556.75,249116.31,2850.6553,-1514.53,3681.542,18993.8125
237,109891.82,109653.6,109418.45,167.30954,233.37556,-1093.5284,2000.71057128906
238,24530.25,24046.896,25640.764,1142.1139,-62.9515,-1069.3207,3059.27172851563
239,132782.08,143115.66,133452.27,9139.653,-118.158585,-14006.674,30651.41015625
240,-126339.28,-131159.11,-109476.39,-4737.6997,-10848.812,-10448.661,33716.6875
241,357386.7,349275.25,361799.03,17139.488,2783.7478,1750.2684,32167.978515625
242,40510.812,58468.465,60935.695,-17877.34,-6725.553,-1190.4712,38361.68359375
243,-27026.078,-15898.726,2766.5618,10509.308,-11779.349,3278.1167,38206.546875
244,2965.046,-7105.8594,35770.41,4405.2954,-971.0995,142.71893,39611.9296875
245,-8364.132,-14120.03,-11989.899,-21859.584,1382.6844,-4721.515,39134.95703125
246,-57369.77,-29006.701,-53661.023,-5756.8574,12832.031,-6422.6504,37817.796875
247,10759.191,-29558.955,-2837.89,-5084.385,4119.8643,-3262.58,37717.7734375
248,28895.629,4166.302,11781.253,409.92786,17959.432,4673.7974,38921.3984375
249,3295.8271,-23527.6,-24740.182,8005.3154,13586.714,-515.0889,38734.21875
250,32683.916,3452.7666,17186.732,12127.764,8883.534,-8507.708,39201.59765625
251,14234.902,-24538.838,-13321.181,8607.204,4026.5496,5808.864,39577.875
252,3615.1646,34246.195,41885.832,-9639.713,1073.3108,-1540.7822,38986.9765625
253,4857.5566,16652.14,10453.984,-12802.169,-16711.25,-4219.7666,38565.89453125
254,20425.35,4382.3594,39730.17,-8732.381,-1147.2489,5342.7188,35469.80078125
255,-40451.637,-46259.176,-75387.234,-4424.634,11412.425,-2995.9531,39086.1015625
256,2934.5686,10416.174,-17243.406,-14156.026,7747.4194,-5103.3975,38385.796875
257,3992.123,36303.457,41841.84,7972.438,-758.9729,3025.9082,38386.51171875
258,-65543.305,-75116.41,-99132.516,-501.04028,-1549.3324,-9117.937,33995.45703125
259,-19068.576,-33160.31,-44248.77,-42.72957,-2407.7397,8194.926,26394.205078125
260,-8865.516,22220.004,22815.924,9696.975,-475.65936,5478.8867,36851.2734375
261,-20181.91,-14820.871,-31815.934,-255.19269,8571.856,-17190.469,36518.81640625
262,28332.002,1646.6542,-6032.753,10784.264,-1553.6462,7077.8306,38502.4453125
263,-5775.5474,-34663.066,-27802.33,-8853.253,2791.7544,-10205.918,35417.12890625
264,-6633.4106,6894.92,-21419.805,9243.288,-9255.328,-12676.261,39963.10546875
265,25618.184,-7626.127,-13735.629,4694.379,1579.6454,-6866.546,39505.21875
266,-3406.8503,11429.782,-3787.3718,10375.634,-17004.893,-3196.4353,38039.82421875
267,-10344.589,11907.89,-1044.7247,3560.1917,3863.757,-599.595,21415.0546875
268,-3205.972,14184.927,6828.5664,3799.6182,-10152.322,14880.031,35290.109375
269,-11806.801,17159.463,-5983.096,11050.925,-1177.3109,4321.677,33627.765625
270,-4346.1807,5652.9814,15862.606,10268.463,-2977.4248,596.0646,25500.83203125
271,10343.775,15971.615,-26168.498,-718.31836,-1984.0262,-3047.6147,40143.8046875
272,-13317.024,9843.631,-19554.65,-6221.877,-61.33952,-1639.2264,29051.6640625
273,-7878.8164,-33868.664,-21943.258,13733.165,6718.671,-9760.842,38662.53125
274,9775.385,1351.3301,9277.427,4994.7876,23.899462,16543.254,31030.646484375
275,1630.3267,658.0752,13719.902,3390.7383,-161.27362,12310.266,25456.9140625
276,-20460.62,-22792.404,-3756.6833,5230.451,-8811.037,-6875.455,27932.06640625
277,45128.258,21786.83,23296.887,6916.1943,10349.002,6592.6416,33272.37890625
278,8478.332,-1460.9757,-11418.407,8657.339,-15871.29,-5663.739,37063.2734375
279,-10393.786,368.95007,-19210.578,-10069.615,3137.294,9104.941,29510.75
280,-8519.736,13892.846,31350.316,2707.5122,4103.386,5574.533,36933.53125
281,19989.436,21149.852,11909.1,5297.0996,7080.4224,7339.5728,21730.115234375
282,88931.71,82381.85,81438.59,-1467.8481,435.85474,-1772.7249,8150.4541015625
283,-315667.56,-306055.88,-333477.56,-6006.8296,-4859.179,-516.1794,27579.79296875
284,38232.504,36148.4,69892.09,-8817.997,-7704.6084,-274.85602,38525.78125
285,175265.47,198678.47,184581.19,-8650.855,3174.3438,4145.682,26891.328125
286,167463.4,168289.52,166733.1,-62.940666,92.167206,-846.0618,2000.990234375
287,8623.829,11173.212,21075.191,5528.6616,14640.936,1616.4309,29536.423828125
288,9003.914,12583.34,-27250.887,1945.0715,-3841.198,383.53662,38897.94140625
289,18297.125,16997.902,16945.598,-324.30386,-801.87213,15.890375,2000.98571777344
290,28875.662,26399.525,6677.325,-8389.698,-16523.746,1247.8943,38456.03515625
291,-15624.371,-4976.655,22767.736,-4375.7153,-7666.953,66.36002,37581.109375
292,35024.254,31974.23,21325.227,9694.879,2176.875,-17595.32,37150.4765625
293,19326.303,55787.574,31945.78,6420.33,7781.4185,-3720.8374,37086.39453125
294,2708.2766,3864.8289,-3126.1338,4222.222,3170.3013,-8498.038,18504.3125
295,24889.738,-1283.4243,14553.537,-3899.3718,17798.0,1918.9941,39093.6015625
296,-17695.693,-52415.12,-24012.182,3151.916,12576.867,1408.7986,39195.94921875
297,-152630.06,-152641.3,-132683.64,-18394.82,-1852.7926,-628.1388,37744.859375
298,-4098.547,38047.684,29352.152,3018.653,590.3509,-2246.1497,39101.8046875
299,64586.27,62879.86,63777.14,-53.91404,-629.3183,452.3263,1999.11511230469
300,-13014.549,-12188.431,-7352.493,-4627.4736,4977.0107,6236.1816,16831.107421875
301,-37076.65,-7111.3984,-25596.441,-9039.491,1247.783,8769.883,34150.32421875
302,363259.2,369091.5,375555.56,3107.4805,925.88574,-1372.942,12275.8466796875
303,166665.81,166087.28,165601.23,280.70157,950.89526,-259.98276,2000.97277832031
304,-15401.16,-4552.7764,-39218.87,3035.446,1390.7831,-12747.645,38266.2578125
305,-9409.205,11439.636,-22447.832,-11806.108,8353.677,1840.878,38912.609375
306,-20979.838,-14198.016,-25244.74,118.99433,-1016.9777,-12087.026,23120.125
307,143.94862,-9014.693,10474.417,-331.3074,2950.7397,15447.545,32055.298828125
308,-18111.94,-33770.117,-25526.748,1670.5752,-685.2564,3655.8367,15294.8408203125
309,11066.932,47098.184,27943.604,-2338.917,-5539.4053,4493.283,33823.37890625
310,24761.598,24645.17,25540.64,-251.15863,-37.65777,-62.38509,957.255187988281
311,-35419.22,-17417.814,-20924.738,-13680.967,9848.512,6225.5874,35241.73046875
312,9276.937,23559.363,10140.91,-4595.1104,-13812.0205,466.1787,28787.27734375
313,10672.044,-11676.548,-30324.178,-3417.7522,-8878.552,1066.3939,39228.59375
314,-23248.67,-4182.658,16331.507,-2931.0366,-10695.454,438.19305,39306.41796875
315,-282.4811,-6098.502,-14707.07,10949.697,-7298.5103,-4695.7954,27269.85546875
316,47673.67,19321.568,15518.815,1454.918,6405.3047,-3339.4702,33000.13671875
317,-4663.859,-22957.484,-31567.766,8885.888,6145.0703,12241.66,36960.03515625
318,28554.99,-1799.4418,34249.516,1417.987,7866.429,5998.2393,37766.17578125
319,3243.236,59.02074,29971.229,-13692.4,-5627.9287,-3566.845,38797.75390625
320,10877.723,18795.887,40390.965,7312.203,3467.5793,12920.132,37380.5390625
321,17749.055,20792.326,-4447.9526,-10594.017,971.32306,2586.41,30481.44921875
322,-209700.66,-209313.16,-209372.92,1037.3427,-332.08237,-323.67722,2000.98608398438
323,26718.994,26190.191,26818.076,1003.40796,-415.12494,-81.52985,1974.65295410156
324,5466.401,7101.176,6299.231,-425.67355,363.91812,-593.9791,2000.98522949219
325,9296.323,8223.72,8847.03,-550.12604,-278.86874,801.23645,1984.33569335938
326,43267.066,41563.523,43015.016,-24.659332,-589.12964,376.24924,2000.98596191406
327,6946.7036,8290.359,8557.217,-475.67737,571.5303,-191.2599,2000.9189453125
328,8024.5996,30032.945,16035.197,-2742.781,4814.058,5256.8545,23393.044921875
329,-194088.38,-215954.05,-177162.3,2197.4634,-5727.5405,1403.4045,35404.9296875
330,-1874.998,-40113.13,-18527.205,5850.711,9171.611,-1984.4215,38334.87890625
331,17247.004,-4149.0195,-20046.363,6946.9106,5414.181,-2735.2668,36136.12109375
332,7912.1377,-18014.531,-12143.606,5976.6807,16365.289,-3679.223,38803.17578125
333,5335.1934,20354.307,-10427.256,13296.636,10092.328,3708.2427,39849.55078125
334,-3537.1782,23160.03,4144.026,-714.64,-18020.64,4788.475,40140.08203125
335,44116.383,13318.886,7268.6787,-1883.6755,10355.357,-317.03836,38782.32421875
336,6279.7915,-12603.197,742.2616,-6549.919,-17856.031,-8334.677,39702.453125
337,302.765,11364.651,5069.299,3908.888,-6934.1006,-2075.7527,17186.2734375
338,-13511.601,-1300.7565,5263.8037,-2126.8877,-1787.0262,-19044.38,37196.421875
339,-9860.147,14682.537,6061.1445,-1257.6565,8608.005,5905.7554,28226.79296875
340,5886.346,-3669.2878,-8361.967,14552.441,4546.381,-8198.271,32513.646484375
341,167499.28,166800.16,168036.06,-604.8969,-719.04736,-257.93066,2000.14001464844
342,-418827.8,-418734.5,-418102.12,-298.64658,528.1669,660.26154,1697.02673339844
343,138803.14,138303.66,138494.17,144.85287,997.1678,487.0819,1987.04443359375
344,145122.52,145644.75,146655.77,-663.19745,292.882,447.57657,2000.16870117188
345,255606.89,253874.75,253896.7,221.52274,513.82697,55.24056,1977.67358398438
346,38499.99,37429.996,36516.52,379.44278,203.52031,404.56027,2000.9833984375
347,-167418.42,-133417.25,-149476.28,-1732.016,-11929.721,-3674.0662,36666.01953125
348,12393.807,11439.172,15381.046,-9750.455,-3137.2034,1046.6124,18185.51953125
349,206023.75,204822.45,204826.06,223.40102,609.6658,-658.3683,2000.98449707031
350,75845.02,75097.8,74898.305,-750.28723,317.4759,649.5048,2000.98608398438
351,31779.479,11532.626,-3477.9192,4402.712,4910.802,3678.6345,33320.62890625
352,896.90375,4915.5674,18485.096,3926.1226,18495.438,-1605.7081,36538.12890625
353,25898.525,25915.578,25631.45,-697.1235,832.69714,-360.4032,2000.98571777344
354,-16880.879,-18208.314,-14736.838,8821.888,-8837.039,-7880.412,25753.923828125
355,89263.68,89206.36,89190.516,-328.14218,-210.59322,1061.5244,1959.85400390625
356,-64044.883,-64294.207,-62555.387,-132.43364,-657.1477,34.981335,2000.98596191406
357,3566.681,5417.971,11942.428,12744.219,8243.808,8596.006,31158.86328125
358,14458.084,-9483.693,4954.182,12742.497,-5769.1196,3965.9478,32713.00390625
359,-25687.54,-8626.117,7253.8887,-3650.3826,2554.1274,-4314.47,30489.224609375
360,-8121.0063,-15443.035,-3466.4531,5927.851,10779.308,6930.7495,26598.1640625
361,91412.59,86539.88,118289.6,521.14606,-733.61816,-518.1635,29670.11328125
362,27891.21,16892.328,38019.953,-2185.655,-1599.6848,3.9723368,18893.9140625
363,-38712.547,-43244.703,-74370.83,4225.238,245.33601,-1759.3605,34546.62109375
364,8293.437,3077.393,9447.805,1996.3247,-39.24173,-748.61206,6942.818359375
365,-9895.137,4942.0645,6777.813,3493.2554,-1811.4603,1706.5682,17491.130859375
366,-111017.32,-98335.6,-127461.836,3463.7112,-215.64725,2358.167,26317.4296875
367,4640.7993,6284.2183,9068.789,1940.1033,131.20305,766.3191,5304.36181640625
368,-41148.742,-42476.145,-35182.137,-8204.782,-5716.6943,-7048.8613,22233.734375
369,25669.162,6402.9014,12260.795,-10534.236,-10389.371,1317.3048,30896.236328125
370,-618.7988,-27515.297,-16403.436,-548.4463,-1264.5432,476.69623,23545.83203125
371,13800.955,6829.1743,6332.564,-457.27798,-1630.2252,1160.1554,8059.32373046875
372,4773.0703,-17256.84,-12013.114,-5949.214,3504.0598,445.63458,23257.37109375
373,21176.283,24400.553,25697.387,-197.88959,197.608,1493.402,4815.01953125
374,2207.58,1656.8625,2232.1606,2856.5947,-1374.124,775.0895,5680.208984375
375,2124.3691,-6599.2275,-2822.3164,3236.691,472.47034,2030.8251,10094.001953125
376,2085.917,-210.23824,-2343.9956,-2993.3071,-2019.4064,-965.2777,7525.53271484375
377,12290.101,6881.2744,-2867.4365,1560.2643,910.4752,-4581.463,15804.474609375
378,11552.127,14205.203,16518.71,411.77383,1502.6992,571.3464,5176.03564453125
379,-14775.994,-15405.33,-35061.105,-6419.613,-1358.0248,1566.435,23143.98046875
380,4002.71,14152.345,14855.3955,-5090.986,-1855.684,2416.444,14705.365234375
381,115943.02,118046.18,147363.97,-10646.969,-2921.0076,5223.9316,37056.10546875
382,27771.367,67411.56,62528.547,213.59363,-1564.2378,886.06805,37569.375
383,10959.398,11719.946,20699.902,15509.077,-15062.323,-2272.0544,38803.98828125
384,-10339.091,-15770.104,15442.116,1956.0122,-9219.894,6307.8203,34929.1796875
385,-46376.61,-54167.68,-78608.625,11738.953,10320.06,-430.00153,39773.81640625
386,-1845.2539,7175.8574,39623.78,363.62958,2903.541,-1186.7545,38169.0703125
387,-614.8096,5069.47,-7545.4224,1639.5887,-1011.5453,-148.23962,11442.916015625
388,-118419.58,-83671.805,-112365.93,1603.3135,-8172.6855,-10891.015,39970.4453125
389,49920.832,49918.824,89444.52,-557.1103,3076.3945,-1882.763,40026.98828125
390,20753.932,-3025.633,2225.13,10298.836,7439.696,747.8051,30888.513671875
391,24712.877,24618.709,25836.654,-165.84184,447.38522,-245.00401,1496.86975097656
392,45165.504,69952.195,78043.86,-1195.4908,-738.96454,2556.5227,30099.068359375
393,2228.1409,4412.4336,11726.642,-3673.194,-2009.4437,-126.86673,11264.2841796875
394,-34903.29,-35548.074,-41026.266,3634.5713,16538.14,-6371.842,31873.50390625
395,-6259.3496,-24314.314,-7517.181,3264.3865,6159.448,9997.345,27394.880859375
396,1550.4277,-3759.0977,-6119.1714,-5988.8433,3232.1182,-3627.9866,14990.5712890625
397,118720.74,90272.3,86862.65,-6627.392,4019.0898,-3232.8076,33608.30859375
398,-75956.516,-77533.17,-109994.48,-8151.3223,1156.8224,-2366.2742,36435.51953125
399,20412.008,22265.031,19334.379,2056.758,7502.2715,1784.8274,14060.287109375
400,-19219.975,-60438.39,-31929.496,-2334.0713,-1593.2396,972.94836,36924.546875
401,12874.94,10090.51,4476.2275,-4620.654,-1178.0302,1917.9027,11582.548828125
402,-31587.525,-74681.24,-59845.76,-188.19507,3523.7598,-3895.4595,38996.47265625
403,9086.17,10483.077,-7376.568,-1996.2305,740.53125,3097.8645,18394.572265625
404,6680.5366,13347.444,1710.0581,-3986.06,-2000.3558,3133.5022,13835.3837890625
405,-13799.715,262.00732,-9702.18,-4297.5615,-741.1619,4719.8447,16756.76953125
406,-16424.984,-19704.152,-45677.67,1554.9696,5682.208,3189.6985,30086.326171875
407,-116025.56,-112423.55,-152157.77,-1320.4502,1195.8915,467.53363,38194.71484375
408,25063.549,22931.867,31750.61,-1443.2994,-1617.4772,-3878.5325,11078.9267578125
409,10996.651,11801.014,15253.792,559.04004,2905.6848,-2510.1985,7779.19287109375
410,-12734.621,-19078.316,-10383.844,-2326.1084,4073.6653,272.1609,11265.8798828125
411,-39001.64,-38756.26,-39208.613,422.364,1019.45374,-256.30347,2000.98510742188
412,14087.279,15437.183,15912.633,-6971.6675,-3734.222,7017.108,18386.27734375
413,134384.56,116862.664,110128.72,16416.822,4788.395,9388.998,40151.421875
414,-39873.82,-21816.098,-63291.086,-1574.9723,1091.4318,964.238,36209.34375
415,38047.637,13922.453,25067.74,-11107.304,-9474.152,-4206.529,33613.08984375
416,29425.469,19229.465,56574.21,3000.642,-4274.978,1241.9086,34702.828125
417,1070.7046,5461.182,-28034.848,-8741.539,2316.323,-2301.3555,35431.9765625
418,2450.1807,-6187.7915,3581.4785,-2122.286,-5446.1626,3116.7466,14741.2080078125
419,65465.906,72956.984,102319.516,-312.46762,10589.495,-6735.797,40137.8828125
420,-59157.543,-65862.28,-65377.703,-2007.9647,14755.28,8128.729,30090.17578125
421,5858.8413,7742.0205,-492.0288,-2203.3105,920.1736,1337.7954,8849.4482421875
422,-44743.246,-45439.9,-46231.953,118.19419,515.7804,706.98395,2000.98449707031
423,5500.9043,889.3468,968.1411,383.78384,-982.39594,1244.2622,5375.0390625
424,-6502.332,-3932.434,-14863.283,937.8804,882.2469,3255.5247,11608.873046875
425,-27759.191,-5851.405,5857.999,11757.676,-7558.748,4931.2207,39149.35546875
426,1066.8496,-4070.787,-30945.875,2695.7761,4188.2114,1391.7571,31096.23828125
427,-4382.429,5573.252,9326.249,1010.6915,3967.927,189.81395,14176.3935546875
428,10162.59,20480.217,17959.889,2559.4387,8195.959,4315.0347,19074.423828125
429,-7611.784,-34182.34,-15888.654,-14496.4375,1874.608,-6735.0806,36491.73046875
430,42544.863,38327.496,13209.477,10916.422,3940.7332,3024.8015,34440.87890625
431,73796.016,68591.93,51779.84,2872.7585,13224.538,3923.6348,31509.181640625
432,-53935.56,-58760.875,-89520.32,-2927.2278,-5150.3413,1206.0209,35035.67578125
433,22839.424,29865.82,50318.027,1463.7788,1925.011,-173.87633,25079.951171875
434,4456.0693,6860.077,21393.557,4321.917,-2562.1838,-3303.6145,18984.5390625
435,46573.1,41861.234,48986.383,1948.6991,4025.4092,-2182.236,10662.4189453125
436,5620.712,6351.414,5718.39,2756.5974,-920.7569,-3366.7688,7734.16845703125
437,8218.615,45247.188,43928.625,4048.6824,-44.962635,-4720.032,37947.94921875
438,46220.992,36126.594,76549.27,-2973.601,1726.7982,-2027.8223,37089.8359375
439,-45252.664,-29362.191,-28409.902,12287.597,-12830.01,-5084.068,35956.53125
440,-42139.35,-51128.39,-76277.19,6849.4946,-4613.004,-4364.599,34656.3671875
441,13912.201,11449.56,-9.012695,3961.1282,-2736.2598,-4972.9194,17587.056640625
442,-22320.916,-22675.877,-5630.282,6371.7427,3217.873,3265.1646,21667.328125
443,16887.973,19782.139,22618.752,-2096.6997,-298.48575,1395.0223,6627.68359375
444,66387.14,78109.37,108105.945,3602.3008,-4547.538,-4096.484,39244.6875
445,-9868.498,-5376.593,-24518.314,1133.4178,-610.18976,-1505.6086,17674.03125
446,9536.05,15729.984,24728.346,3234.107,208.52176,4312.2485,16197.7109375
447,-59813.844,-54871.254,-55836.297,1860.5549,-8839.263,-4703.5596,18213.8359375
448,-2310.9968,-921.9132,50.784546,-3008.5706,-950.5485,-840.59155,6017.62060546875
449,-368.83887,8023.124,10760.369,7119.001,-3470.3108,-2226.3086,17433.515625
450,-3547.8853,-3358.2573,-5248.57,2507.1226,1382.1821,-3692.0757,8290.556640625
451,5181.4756,10379.875,7114.832,-1703.8953,-756.5575,2969.04,7588.37109375
452,-17707.81,-17085.512,-35883.66,-4366.4355,-4028.3557,-4838.3867,22763.341796875
453,68542.336,38749.156,51520.73,5815.706,-12991.049,2971.7456,36117.91796875
454,-19049.438,-20916.129,-43555.836,2940.4553,1800.3508,272.81335,24375.974609375
455,33377.01,2672.8777,-10465.122,56.357525,358.5688,-1626.0122,39077.7265625
456,4542.8486,-12668.75,17634.318,-10988.747,679.9351,-4542.638,33444.015625
457,13235.969,30026.818,100.90295,4801.42,3519.6155,-7157.7925,30578.380859375
458,11333.815,11846.78,25577.346,5929.933,528.05664,2746.0447,18021.8203125
459,-8030.6543,52.688477,-17.371826,-1834.091,1544.8784,566.29614,9110.0341796875
460,5225.096,16858.682,10018.605,-836.03204,-1516.152,453.90118,10590.7236328125
461,17774.723,11166.912,31661.89,-1870.4099,-9979.211,1084.3555,25319.10546875
462,3716.5022,7958.8545,8606.301,1928.6825,-4705.8457,-5060.6787,13251.009765625
463,-7225.721,-1413.7451,-15003.748,-1987.1677,3108.7952,411.59497,13447.3427734375
464,969.8235,5948.329,-1370.22,-13727.527,-1108.8778,-2208.446,25011.333984375
465,-5657.358,-6578.807,-4129.644,-3744.65,6546.081,-257.38074,13244.25
466,16832.71,7665.4053,-11965.164,-6679.659,-2932.8809,-122.118835,28444.013671875
467,40762.457,6829.537,42317.953,1492.861,2837.9255,4480.419,36023.8125
468,-68381.91,-59174.57,-100111.836,4241.1675,818.2834,-3019.5144,38301.8984375
469,-6132.501,-11730.721,-11597.349,2758.44,516.1126,2739.2334,8760.564453125
470,5833.1025,8582.592,18301.244,-188.83101,446.2408,2619.0088,12248.0703125
471,7440.882,10516.72,18177.322,-3855.382,-3281.9604,1369.0022,13199.87109375
472,-27414.023,-11618.287,-49538.906,-283.0957,5927.763,3986.7463,35239.64453125
473,-57845.434,-80317.19,-86348.51,-15193.873,-8648.762,1590.4933,40018.05078125
474,-23320.684,8836.708,-27871.541,737.01746,-3786.5386,-6444.076,37018.5546875
475,3217.3794,12498.624,6448.3477,-1584.6051,4464.045,-8004.401,18058.80859375
476,24299.018,26864.484,45609.953,-502.53595,-200.75139,506.96994,20191.9453125
477,-4345.6855,-8007.1533,-20400.926,4141.546,693.59393,3488.486,17372.40234375
478,65150.332,46760.793,76058.54,117.54244,-1866.3029,-6269.4927,28038.748046875
479,-7699.5977,9809.825,2739.5298,176.37149,-2759.6484,-3869.0664,17338.439453125
480,-15445.87,-13863.457,-31829.844,4139.556,-6172.9487,-9737.824,27332.474609375
481,3043.8499,17.765991,-8066.3857,-2587.42,669.0203,-1587.2771,11311.9111328125
482,-1733.6702,-2902.8274,-9082.309,579.4852,-1251.2196,-505.6543,7297.17919921875
483,5353.3584,-12585.312,120.8042,-7274.69,-2698.608,1006.58307,20951.392578125
484,15510.631,14039.762,14201.613,-3459.071,-4591.811,316.36438,10069.833984375
485,-14636.942,-362.50732,-8559.828,-3080.559,2620.742,2001.262,14664.0029296875
486,-30390.23,-30441.11,-61296.477,-8097.7344,-2986.1423,2790.8975,34647.71875
487,-1565.552,-2186.7046,-9598.651,1673.8307,5664.5176,1927.8687,13256.7783203125
488,2345.3936,5947.133,11687.381,842.6889,2189.84,1812.6249,9642.16015625
489,-31237.459,-26536.76,-50655.508,-1218.6727,3276.2615,-1227.4717,23056.73046875
490,14039.811,23801.926,40430.71,-4034.0757,-3352.0273,-132.78021,24834.046875
491,-7918.04,-15487.633,4402.3125,2455.0652,5881.505,2791.8567,21156.361328125
492,-14423.1875,-24581.424,-26921.77,2388.916,3783.939,-2583.5598,14578.7666015625
493,-14127.81,-4255.3193,-1854.4717,64.60904,-2186.7852,-968.7115,12004.427734375
494,6269.837,2671.746,11779.394,4289.9673,249.34763,-3116.9158,12151.90625
495,2907.31,-5195.548,10192.036,-1255.0044,-535.0377,1612.2311,13825.0654296875
496,31948.846,27630.51,45373.805,-4641.209,3022.5103,-2155.8113,19047.90625
497,1238.1245,6927.431,9967.018,315.25513,1252.6743,2716.5122,9276.0166015625
498,61.826904,79.86255,-6428.873,-1553.4575,-3818.6074,-1769.1362,10130.2060546875
499,4085.1016,7095.92,25529.785,7981.855,2259.081,1104.402,24788.5625
500,-788.21045,-1645.926,-9442.452,726.9082,678.1581,-148.73785,8440.3759765625
501,-3982.1511,6572.6123,-30606.754,8788.711,1983.5458,1756.5085,36797.72265625
502,-4608.2383,-12206.198,-301.52734,-1921.3324,1743.1283,1936.3989,11850.6513671875
503,14346.682,565.17554,44476.27,471.3995,-2325.4014,3169.4358,39496.55859375
504,-26032.637,-40103.055,-65586.664,4420.239,-3661.567,-2551.202,36391.1875
505,10681.226,13807.696,7672.3276,4913.642,-3463.6025,2037.855,12211.279296875
506,-2869.123,2903.418,981.6377,93.46011,2336.4377,1086.1249,6772.29248046875
507,-11865.016,-4652.9346,-9860.673,1419.6312,-1910.4337,-4531.0786,10961.9052734375
508,3686.6626,10131.221,2433.3306,-2686.9348,601.3024,249.29184,8608.7353515625
509,-1453.4468,8193.68,12376.246,-92.329315,8072.7993,-6452.047,21710.208984375
510,4823.0786,4071.338,5859.554,-1314.2163,-358.06058,-234.8929,2854.85473632813
511,3662.6895,704.33154,-3259.4282,-226.75839,808.6982,-1274.0963,6570.8212890625
512,6437.9453,-10368.008,-4451.4917,1575.5646,-477.66873,-876.65063,15114.556640625
513,14257.779,20773.436,23668.521,997.2069,-3106.2358,-906.73627,10202.6748046875
514,-5520.3438,-1601.6133,-5235.2344,-3572.0742,846.2886,-1266.7012,7717.63037109375
515,34193.766,53368.78,54989.254,5711.2144,4603.417,-3660.9583,24556.380859375
516,-16992.31,-12593.761,-24892.797,-3685.764,-3381.6604,1301.0448,14023.380859375
517,-14098.893,-10472.809,-17370.203,2353.831,2163.9414,-2240.5369,9024.4951171875
518,3078.2358,340.70837,1219.1886,-3241.848,1858.3485,1674.1437,7493.88427734375
519,8763.976,9353.511,15934.864,11740.204,5622.54,1269.8477,23679.427734375
520,-11881.396,-2221.8213,-10123.651,44.669575,2130.171,3684.2366,11565.365234375
521,21134.777,28301.762,42531.438,-2040.5372,255.20102,676.50146,19232.6015625
522,-12577.201,-9216.746,-22386.488,-750.86554,2673.5952,2870.0513,13723.1826171875
523,-27979.523,-27492.695,-54870.83,4531.0273,2585.4783,-1105.0901,28666.689453125
524,5527.3867,7068.268,4225.942,573.52454,-3607.9275,-1707.361,7406.54443359375
525,9789.546,-2433.7139,12393.766,1188.7439,1714.473,-612.0561,14219.828125
526,12459.63,13353.226,28531.29,-2360.5845,-1383.8779,1945.3567,16689.841796875
527,4372.4263,7071.7314,23940.547,-1213.5151,-2603.687,2690.3376,19591.998046875
528,609.89307,4852.338,18942.03,2094.8613,417.68045,-2802.7817,17707.28515625
529,37273.91,22969.363,46596.426,10687.099,-6352.8853,2811.9846,30204.72265625
530,-6943.235,-10958.817,-19980.82,593.86816,-754.16846,834.99536,11773.1064453125
531,-7599.634,-11906.701,-10193.563,-1656.3761,-3387.1143,4013.939,10251.369140625
532,-8328.375,99.822754,-8763.685,-3144.5056,1239.9865,-2024.2256,11020.970703125
533,13426.128,21089.395,14619.806,6101.668,6088.0244,-2768.3108,17230.115234375
534,1813.6396,-2329.378,-9115.97,-3889.0342,-1728.0225,-3218.9895,13294.9990234375
535,14790.807,14461.016,5841.5044,-3806.2515,539.43823,152.65585,11029.6376953125
536,-14579.925,-13452.058,-28387.885,-1827.186,-3193.9314,702.12164,15798.8525390625
537,1184.635,-1618.4089,-1590.1229,-1305.4442,991.3991,-2115.2615,5409.50390625
538,-4256.88,8196.771,-2310.1704,3792.6587,770.9955,-728.2145,13459.80859375
539,-5434.256,295.0581,-9903.867,169.61913,136.05162,-2357.6863,9758.4912109375
540,-4542.335,2115.9614,1234.5182,236.21434,4249.1094,-806.47144,9773.654296875
541,-8024.218,-4529.517,-18164.775,212.11859,878.09894,1145.6415,12524.68359375
542,-10733.421,6310.035,-14999.654,-1209.0912,724.20026,194.13664,19684.095703125
543,5440.0337,7653.568,3610.1677,-4906.4956,-2242.1755,5217.9443,13464.123046875
544,-23040.59,-22189.277,-33224.223,-3068.815,1513.5679,-4071.0125,14069.3115234375
545,722.35986,-6259.811,-6204.091,1152.3435,-4535.0327,-887.1017,10789.2939453125
546,14588.098,19061.557,19371.855,1882.8102,-1068.2123,1303.092,6375.6201171875
547,15891.948,10485.948,22723.68,-3769.6008,-2191.1582,-934.1919,13133.205078125
548,33490.42,12394.08,17488.82,-4591.492,2369.5916,385.35858,21072.908203125
549,2623.7476,-2516.9854,-8072.837,-3237.252,-2957.724,-521.8557,12014.84765625
550,-9205.416,-114.92676,-5950.3335,5071.069,4841.191,-774.5411,14591.1142578125
551,-248.39905,394.783,129.25671,-1254.6915,-2589.6775,-1860.1578,5961.208984375
552,6292.3115,6308.0327,5531.5884,-2120.8882,475.07013,-3150.469,6673.7431640625
553,-28173.688,-24140.441,-37868.23,-6278.798,3454.549,-2255.1582,17851.626953125
554,-4079.137,-4218.457,-12366.42,-2562.8098,813.4063,1160.493,9657.7939453125
555,8421.008,8259.738,2234.4333,163.41353,1007.4027,2044.0013,7277.39794921875
556,4379.502,2036.3698,3011.3286,-1332.93,-1543.9799,751.74365,4281.7568359375
557,9671.478,988.3135,8596.622,7265.4233,69.609314,-179.66571,15022.982421875
558,9402.868,10013.113,9768.072,-2181.4175,-31.59296,-636.69745,3972.1279296875
559,-8969.949,-13915.515,-25945.646,-8605.919,1229.31,-1632.5906,21526.580078125
560,573.9676,1314.6655,2726.6248,-3164.8782,3331.4734,206.91971,8189.14208984375
561,31545.889,25694.883,60504.42,21.069437,1034.6782,1441.3694,32430.126953125
562,-10256.967,-8780.069,-14318.61,-1799.41,-1355.0782,-1129.1066,6612.39697265625
563,1298.5657,2316.4045,-3901.8474,-1280.3324,-386.47635,2814.6,7906.025390625
564,-4674.478,-11290.14,-16658.377,1910.0618,1370.5955,4.386949,11166.0224609375
565,2473.145,4418.573,6185.326,-558.7884,-784.9557,-2096.355,5129.57177734375
566,-12940.197,-11739.682,-29966.635,-639.12805,2104.989,1153.7747,18173.97265625
567,-4935.123,-2107.4385,-11865.59,2240.6099,-416.97968,-2177.308,10267.861328125
568,6671.0894,4119.4883,4051.523,2047.9497,-602.2731,881.17114,4763.25390625
569,1185.6118,-2102.3647,4932.959,-2102.7544,-820.6958,301.43933,7261.71728515625
570,-155.63916,-1377.6465,-19201.822,4404.5835,3657.966,1185.7456,21060.318359375
571,5698.8467,6365.9844,8767.161,1414.7074,2416.7422,2804.843,7412.1650390625
572,620.7136,8272.137,1458.9141,-3107.654,1133.7963,-8.625019,9255.4130859375
573,-1099.2969,-14615.43,-13910.548,-3347.422,-685.97424,90.08528,14446.701171875
574,-8474.294,-7517.457,-11783.332,-4998.408,-2664.3423,3403.8423,12084.630859375
575,-9463.345,-26698.832,-35907.934,-17885.355,5718.1636,2015.1506,40131.3515625
576,-131172.06,-88399.75,-103316.35,-706.85455,-3696.359,-344.5061,38168.08203125
577,21824.328,6502.9946,11738.525,1637.8846,2609.5476,-7194.3315,19123.052734375
578,38762.0,34981.047,55903.824,7218.4697,3089.2207,-1285.0256,23724.51953125
579,44382.5,28685.742,30360.316,-13550.583,9249.724,1699.1471,32235.001953125
580,42034.49,14431.778,24743.742,-3457.7515,1528.069,-3884.2322,25918.00390625
