Element Label,S11,S22,S33,S12,S13,S23,Mises
1,2163.449,745.8677,11034.841,4508.6445,1655.8866,3545.5518,14149.5361328125
2,-9575.191,-7488.1626,-7510.7686,3919.2874,3096.2888,35.647797,8896.9814453125
3,9798.535,14271.35,4234.863,590.75714,885.58453,-1867.4463,9471.4111328125
4,-2702.5977,-12424.5,-1659.1475,4842.3843,-2123.1387,-3167.2922,14822.716796875
5,6541.4824,6944.8516,9626.487,5793.7256,-4429.247,8224.164,19258.83203125
6,-9675.786,-13754.553,-2726.518,2089.2717,-1118.8612,1674.0441,10887.19921875
7,11766.975,7891.922,10484.453,-450.08325,-4855.526,957.0008,9261.4638671875
8,-9947.971,-3515.3613,752.6924,4967.308,-7250.051,2871.4092,18533.66015625
9,-18861.604,-19626.748,-19943.232,4004.8801,-1458.3302,-2547.5486,8654.1982421875
10,-20164.354,-13403.957,-21574.334,6530.3867,12850.94,-1283.8995,26182.935546875
11,2539.602,-6619.4004,-2301.9895,2591.86,3730.7346,2713.2236,12123.4189453125
12,2028.6558,-852.30054,7182.8975,719.77356,499.18677,236.2885,7223.88671875
13,-32634.105,-31256.012,-29075.377,6929.7163,279.5901,2134.0796,12946.8037109375
14,10753.017,3224.7354,25177.01,6388.4146,7374.9907,-6518.5054,28042.720703125
15,17772.691,14906.604,46099.715,9062.919,-7896.148,2773.0522,36719.87109375
16,-6432.431,-6297.041,-498.23315,-2404.906,-3824.4172,-9168.615,18650.720703125
17,1782.6649,2168.6887,704.2494,-1058.321,-464.82513,-2748.9688,5329.83056640625
18,3450.42,-3901.5122,6764.4824,9081.541,966.2531,1466.3981,18603.056640625
19,42123.203,42823.777,41367.914,100.816795,-133.88606,-881.1505,2000.98706054688
20,2768.4175,34986.11,38504.49,-6882.592,-4874.1167,-4402.5967,37884.59375
21,188.72363,10398.813,2601.2566,1687.4232,1854.7701,-1775.5933,10665.59765625
22,1045.165,-9786.368,-14140.518,4626.602,-345.93237,4748.6646,17767.037109375
23,-1644.206,2718.254,-3840.9683,10592.931,-1576.7946,-3889.5417,20564.900390625
24,5466.798,1420.8618,-15920.9375,16060.92,-1265.237,3248.7947,34606.3203125
25,11369.863,-2588.5898,7849.073,7880.576,-7551.927,-7134.696,25849.689453125
26,18190.904,3003.813,208.34082,8035.578,-2723.7808,-546.599,22311.03515625
27,26137.46,25318.281,44827.285,5071.819,3829.5,-6452.0986,24725.390625
28,6628.1772,879.42664,386.73096,-7362.2964,-31.730509,208.3366,14102.01171875
29,-4647.917,-22396.88,-24630.29,6049.5537,-6957.3223,4517.5586,25997.765625
30,8048.958,-8680.828,-41.711365,2181.4011,7383.6343,2214.7375,20063.259765625
31,14705.984,2581.1123,18810.232,-582.8775,-6082.7646,4049.0076,19360.359375
32,42.448242,10688.223,14217.605,-2032.5841,197.70341,-2086.848,13745.484375
33,10837.986,9875.603,5282.3784,-4733.561,-7603.312,-2851.718,17073.138671875
34,-14450.724,1204.0894,-1491.4426,659.4747,606.1461,-2041.0984,15001.5400390625
35,8740.044,2090.2437,9340.832,3400.0342,-3295.812,4525.2666,13314.5732421875
36,-22874.531,-4212.924,2486.794,2660.2073,-6620.6953,151.27342,25903.068359375
37,-17306.404,1224.4209,10480.278,787.99554,9528.263,-2361.6653,29858.66015625
38,19441.23,10399.651,12050.316,2578.8347,-13526.184,-15548.032,36926.93359375
39,-11329.873,-896.41016,-3324.4072,5659.269,-8241.782,2833.2505,20331.373046875
40,2049.8208,-389.18555,12003.069,2723.042,-3332.3503,2843.242,14460.37890625
41,-7881.8633,-10706.2705,-9939.117,2547.634,5377.583,3048.0444,11853.1552734375
42,6367.9233,-836.51227,-5790.7446,454.76352,-4190.4727,-5002.3877,15508.482421875
43,151639.28,151951.61,153291.47,325.5497,612.098,-289.10593,2000.98327636719
44,72797.445,70501.79,77451.52,-6575.483,2192.7793,3592.9883,14848.5380859375
45,125228.27,96693.234,113240.96,-5531.077,-7968.277,-6371.187,31936.1953125
46,-3948.6362,2909.6653,-13226.323,18632.127,-2373.5784,-10547.992,39860.90234375
47,-64073.445,-69456.414,-39139.312,14380.458,1398.8584,-4416.06,38336.33984375
48,-30239.996,-4062.7021,-4300.625,-858.6859,677.37476,-3909.5947,26991.154296875
49,15341.49,13621.138,-3236.3635,15010.72,-1001.5267,1890.7883,31714.908203125
50,-11247.759,9335.129,-13869.701,10729.94,-9209.423,-11814.796,38769.83984375
51,-660.5322,8922.739,6910.658,417.40128,-2150.2893,-4424.3774,12236.1962890625
52,-10228.474,8146.582,-8828.138,2889.4404,-32.43578,213.27773,18413.54296875
53,-920.7073,-1709.1973,620.16095,9738.1045,2934.496,-11257.87,26358.21875
54,12190.186,19417.22,9179.396,3438.4275,24.185064,-10429.281,21091.08203125
55,-3722.981,12828.746,11836.067,2849.0269,1385.5938,-164.84117,16991.3671875
56,-11410.969,-8063.415,-20304.969,20593.09,-2438.0396,-419.23242,37558.859375
57,-15574.588,-15808.338,-7663.899,-5803.6084,-6837.731,64.61887,17487.26953125
58,-7320.9414,-14044.908,2641.588,-142.49171,1234.374,-12421.285,26056.63671875
59,6475.825,-439.22253,-1780.971,2024.2405,1095.7319,-9246.659,18201.45703125
60,-10104.105,1377.6508,5675.492,-2002.6353,-4393.494,5650.2993,19114.56640625
61,-3523.781,-7298.5054,5420.164,1870.5137,-5611.966,-4417.2314,17073.908203125
62,-4473.0244,-7917.2744,-8232.417,6227.058,-1213.3492,-5398.74,14873.8759765625
63,4560.3203,-6537.3345,7551.5576,-6261.161,1069.3876,-2677.8108,17545.6640625
64,7215.9204,-9864.727,10480.227,1997.9812,3316.1626,-2390.8264,20500.619140625
65,-16.129639,-342.19092,8055.891,62.914616,-5419.8843,-2789.3645,13393.0869140625
66,7462.6846,-4109.462,2561.6782,11581.867,5995.431,-7282.2563,27759.099609375
67,-16889.771,-20002.65,-18546.396,-1158.4818,2347.333,-4320.878,9156.6181640625
68,-18125.736,-24673.893,-41092.58,-938.83545,-7532.252,3616.432,25140.568359375
69,214.7283,-6535.4775,-37778.453,-77.09588,10411.614,1610.0972,39567.48046875
70,-23678.758,-14608.223,-17439.672,-6977.888,1635.1506,2885.9875,15610.5615234375
71,133629.53,130480.266,168059.66,-8689.6,-1331.9781,-1906.7373,39326.046875
72,-37444.402,4968.8115,-3483.594,104.51504,-3281.8552,-693.38446,39314.3359375
73,16121.342,4021.17,21458.402,4019.7761,-9570.772,16821.627,37571.984375
74,30686.223,37774.91,64244.53,-10353.641,-4799.2983,-121.34916,36459.0546875
75,-33311.535,-26503.9,-2302.421,-13909.973,-3893.716,439.2036,37727.09765625
76,-79310.49,-62966.348,-57973.16,5843.348,12104.303,6089.4907,32045.197265625
77,3295.0837,1378.6832,-5571.51,-3980.6484,7428.6406,9702.472,23681.25390625
78,-6349.0967,-7437.9604,-2415.1199,3221.9133,-922.8927,-1062.2959,7617.62109375
79,1190.7874,-4659.8174,-7560.9404,8260.072,-4786.3867,-1768.2662,18504.447265625
80,2544.14,17813.965,-4966.003,2759.149,-448.2307,-9859.888,26820.55078125
81,-9196.289,-2078.8306,-7066.5386,-7947.8604,-3204.3037,-2497.7988,16705.11328125
82,-11703.733,-30.052979,9833.198,-716.4753,-4848.96,-2310.9397,20899.703125
83,-14097.812,-13030.93,1708.0068,2898.8777,-11711.39,-3317.2144,26529.064453125
84,-3416.6274,-12858.255,5577.5977,1426.9822,-2084.7815,-5530.014,19127.244140625
85,-8131.495,-13954.145,-4480.108,4124.953,-1611.9186,-1878.8158,11744.2333984375
86,-13391.522,-22265.127,-11434.744,982.3811,-4065.6077,6382.891,16572.26953125
87,86.92529,-14623.391,-364.07617,3867.6794,-4123.1724,-168.48035,17490.7421875
88,979.7777,-1605.7539,9097.966,-3077.4128,-5577.197,680.0492,14720.5283203125
89,5582.466,-7489.102,3520.8718,3267.5173,-2191.3926,-3754.8909,15391.6220703125
90,2619.3406,-8576.026,521.06006,-4412.3047,4989.0713,-3215.3508,16442.056640625
91,-9092.033,-4385.987,-16776.053,-1744.003,-8598.667,-5185.198,20711.037109375
92,-13693.028,-3799.316,13980.007,5682.437,-3865.0825,-1671.3153,27202.208984375
93,-7067.253,-17150.094,-6167.577,231.75273,-3885.705,2189.677,13091.435546875
94,-10503.195,-28085.021,-21815.2,5251.4976,1153.7073,1812.5613,18297.00390625
95,9022.796,741.86084,8594.92,204.46962,4214.072,-5119.7114,14044.5263671875
96,-6149.1616,4773.6353,9555.048,3596.9534,-5735.954,-3115.507,19000.859375
97,-2729.9075,-336.35623,32359.113,-9498.103,-3477.6213,-2016.7498,38368.0390625
98,439.3474,12376.995,13158.1875,12206.405,-3637.2964,-14032.532,35069.33203125
99,19048.324,15521.163,19598.91,10715.248,-2427.6763,7056.4985,22939.029296875
100,8163.4062,6749.5107,7363.3306,3026.6697,-5340.924,6249.5723,15222.9443359375
101,5112.9595,7617.8564,1548.2402,-1045.5804,2134.8867,5924.346,12253.87890625
102,21078.2,16164.486,2596.9102,6439.586,-5394.634,6797.037,25004.021484375
103,-12006.663,-3904.1594,-39.510742,814.96783,-6841.0244,-2269.7068,16423.9296875
104,786.2488,7876.7925,-2971.2075,6638.74,-17520.621,9456.012,37582.1796875
105,8897.83,4850.8384,-6551.4966,626.3677,4919.7866,6559.076,19884.4375
106,-9558.591,-10249.484,-2890.6787,5616.1523,1167.84,-4130.5815,14122.5126953125
107,4946.6357,7719.5254,-12512.87,5513.9795,-1559.1582,-6596.2856,24289.38671875
108,-949.104,-12510.005,-4522.6924,-785.4356,1308.0865,2798.6057,11644.3828125
109,15073.35,11507.863,8732.679,5505.9287,-1985.879,2518.505,12333.4794921875
110,-11995.832,-1235.9932,-68.83545,-5213.3774,2484.265,-5282.5815,17704.927734375
111,10590.963,-3985.4402,3566.3635,-3309.2327,-3791.8958,-1021.37695,15444.7802734375
112,-15068.148,-6999.3604,-1882.852,3249.9377,3969.4546,-60.87256,14544.2470703125
113,10162.383,-1888.1973,12151.064,6409.379,2646.36,4606.6562,19520.501953125
114,-12880.511,-5204.575,-3984.9072,-12603.905,-10677.9375,-1961.6812,29999.076171875
115,-7943.031,-7947.79,-2785.12,-2823.7888,8666.73,-2105.057,17005.3046875
116,4380.5034,-21525.02,21365.043,4558.416,621.6408,-4321.4077,38975.43359375
117,-3600.2983,-20310.494,-47249.215,-239.0938,-3213.7004,-4513.547,39336.34375
118,-161272.81,-162904.95,-157396.77,4595.6,1931.4979,-10614.968,20894.908203125
119,43508.523,43647.645,45264.04,-428.9785,-192.61537,-400.5587,2000.41796875
120,5967.009,-16266.229,-7474.441,6009.552,-3086.7263,-2756.667,23148.8203125
121,-6835.3735,-5089.2715,-8522.396,-2827.3977,-789.76917,4812.7134,10206.9091796875
122,-3334.7358,-6920.787,-8641.189,-2674.24,-10768.388,-4824.4062,21474.23828125
123,-2943.5066,-17582.803,1152.0479,-2431.0913,6231.2764,3429.9714,21460.421875
124,-7641.8027,-16527.385,-9638.129,2839.4312,-4011.868,3270.5417,13029.27734375
125,-10491336.0,-10491288.0,-10493037.0,18.116339,549.44,19.64018,1971.07775878906
126,-47031.293,-6865.972,-13116.326,5447.3125,-2378.4065,2121.2517,38996.9453125
127,16820.258,3117.3047,-5358.117,-1011.06366,-4046.61,-2644.9775,21187.771484375
128,13789.365,4409.5796,4001.779,9579.123,-5323.793,-3065.263,21919.54296875
129,9528.23,5088.434,10467.311,11531.627,-3218.8335,1265.2563,21437.900390625
130,-12963.756,-6846.7363,-7917.659,896.1696,3591.5938,1187.0284,8794.8310546875
131,-3118.8306,-13719.493,-8465.862,979.5138,144.23514,-7482.7954,15974.9853515625
132,-9880.467,-10136.567,909.66406,2841.5217,-3893.4165,3316.011,14897.7333984375
133,2037.6489,3054.8984,8733.931,6384.91,2771.8867,-1000.3653,13690.021484375
134,-2517.3984,-10920.523,863.791,1667.0924,9419.215,5593.5596,21882.0390625
135,-44849.44,-20834.033,-11732.029,-3787.922,7202.7964,9694.703,36862.20703125
136,4004.2256,-11118.099,9989.906,2186.7227,4254.15,-1683.5813,20788.7578125
137,-31305.44,-31876.621,-31019.83,-533.4459,-22.982668,2536.8328,4553.32763671875
138,190427.77,173602.89,176844.72,1887.0708,-8564.516,2345.2576,22051.73828125
139,6213.3525,4005.4329,-22190.44,5010.5356,-2976.7058,3217.5166,29696.68359375
140,10156.923,23689.332,39301.26,6827.415,2386.492,8928.333,32158.943359375
141,-35180.758,-25040.33,-19214.514,-10111.785,-1695.6293,1411.1998,22741.794921875
142,-10767.366,-8373.35,3178.4722,6383.72,1809.625,-1019.57416,17379.0
143,1492.2041,-3756.934,-7665.456,549.9215,3964.2065,10564.945,21124.693359375
144,3397.274,-7846.874,9882.122,8609.534,-3600.0845,-1523.3835,22574.6953125
145,-14997.889,-593.7212,-5317.6455,-3233.3462,-9.651351,2622.695,14620.2177734375
146,-6077.1465,-9340.826,8402.535,-1655.6395,-7992.312,5562.6875,23669.705078125
147,2482.874,-8848.404,-3053.274,-2857.022,-6525.925,-5531.216,18448.55078125
148,6321.6367,-8068.9346,-6780.146,1770.9772,-1437.8916,533.0527,14375.92578125
149,-661.40234,-10328.049,-12149.195,3105.1196,-11072.244,5751.733,24704.68359375
150,3157.3735,-17874.623,23433.729,3609.5525,-7020.5947,5018.2676,39273.77734375
151,517.324,21839.002,17585.604,19044.176,2343.3767,-5094.7266,39552.50390625
152,3823.3582,-947.015,-7883.9463,16117.371,5483.729,-10870.512,36441.6796875
153,-11638.994,14097.322,16698.12,503.26807,3826.057,-7904.978,31115.896484375
154,19532.676,4732.208,1069.8525,7706.2417,-6631.27,1249.4104,24524.15234375
155,-7007.548,-3011.822,-7332.961,-1405.5061,-9121.038,2561.2544,17104.33984375
156,15081.187,9296.38,-3963.246,-14827.497,-4755.291,-4476.316,32764.318359375
157,-9270.187,-3000.9946,-3661.7317,7247.3823,-5879.545,-6555.869,20635.3125
158,3856.4678,-2453.7632,2442.9268,-2068.3245,5478.3345,9432.999,20067.6875
159,9055.496,6454.407,15689.004,2394.5496,5363.2144,11942.035,24481.705078125
160,-610.6853,-7664.1885,-567.3374,1081.9559,-3827.428,-3481.6091,11570.8193359375
161,-4569.632,-2089.2625,-1954.7849,-1619.511,-7377.11,5474.9287,16357.326171875
162,-9766.28,-12676.496,739.5747,-2947.07,-1840.8319,-5016.939,16160.0537109375
163,539.28564,-17516.83,2276.6973,4524.482,5641.8403,834.6815,22790.49609375
164,-4661.7773,-7244.984,-4699.2354,-68.26071,271.74176,-2344.2537,4826.97412109375
165,12926.115,13634.437,-2137.3354,-61.781387,2335.2021,-3854.976,17292.556640625
166,-11737.279,-2861.5562,-12026.477,-2291.4998,-9809.914,4833.822,21353.748046875
167,2844.3545,14676.954,3793.5059,1422.4011,-114.10937,-6047.2,15668.2802734375
168,-5343.712,-12471.729,-7337.421,512.454,5780.0605,-4185.0103,13933.06640625
169,-3155.0527,-10228.758,-7605.251,2177.5874,4050.9407,1455.7664,10400.767578125
170,-1369.4758,-9159.68,-1345.0698,-1547.5803,-2476.0386,-4993.958,12699.376953125
171,-6300.26,3734.7722,7749.823,-2048.2695,-3304.1233,13567.956,27472.1640625
172,-11662.743,-2172.6145,13162.59,9731.299,5981.3247,-4722.427,30480.998046875
173,14729.92,-8999.67,-4941.6606,5409.374,-868.6636,1452.7089,24075.8125
174,-1756.8086,-6947.451,2596.998,1826.1362,-3956.9998,-6708.7314,16139.9052734375
175,-9417.446,-5753.726,833.44824,-1043.135,-971.4757,-1775.2721,9823.326171875
176,-11938.271,8367.423,-25554.855,14658.047,-2232.1504,-3588.4329,39653.24609375
177,15825.958,15349.382,16646.646,-1205.9642,3093.0635,-5715.8975,11505.2333984375
178,-4692.4404,-14738.621,2423.4644,1914.4637,-3072.7012,-9093.149,22592.6015625
179,-3483.5288,3897.6704,-497.06555,-4226.086,2311.0654,5067.7896,13711.5771484375
180,-2387.2676,-2475.9395,-20162.742,7879.814,-4224.2207,3868.6042,24476.6015625
181,4327.5884,-1081.1582,-5267.2246,4494.299,-369.27335,545.6132,11459.3798828125
182,7402.545,-5786.9155,12355.598,412.49454,-10030.307,-306.56558,23799.921875
183,1980.3345,-8934.642,5986.602,2992.2947,-3207.8943,-6633.793,19200.783203125
184,-8015.854,-5918.1895,-9090.875,102.11075,-4567.5093,-9245.839,18079.966796875
185,-11815.334,-15851.715,-13853.472,-6364.305,-1318.5796,-2246.0085,12412.9951171875
186,-8727.449,-22402.074,-12219.557,-1622.14,-1817.5009,-1793.5638,13375.0322265625
187,-8976.859,-9468.173,-9423.989,-1205.2714,-2549.5706,11042.676,19745.953125
188,34962.35,34920.33,36674.33,-75.07716,-331.31137,418.7972,1968.9990234375
189,6214.9575,-1829.5698,-4327.824,692.126,9933.311,-1641.9648,19914.572265625
190,24905.898,19107.93,20743.117,2281.8062,4382.2153,-2917.6978,11206.2373046875
191,116.99512,-6428.5737,-5823.7827,524.19366,5215.006,3069.6213,12244.69140625
192,9838.806,7910.3955,232.56006,4385.7666,3563.9253,2796.1187,14026.34375
193,-2374.129,-8428.567,-22494.8,2096.664,6747.36,380.00418,21676.71875
194,-270.8662,-4488.5713,-2028.0681,3870.836,174.65353,-768.30035,7763.88525390625
195,5518.8994,-2021.3904,-11230.34,3177.927,-2558.6074,-6669.2847,19861.369140625
196,-2406.1108,-5814.9126,-13511.131,-4963.161,-9692.55,-8997.839,26376.2265625
197,-1775.7224,-3838.9805,-913.7407,821.43884,-3695.1177,2541.9775,8315.615234375
198,-2753.2126,-5263.4473,-7185.075,4232.847,13814.847,4135.35,26313.912109375
199,7230.235,-6309.405,387.02682,6674.5815,-5843.039,166.55019,19330.1171875
200,7657.3584,-507.5042,-10970.57,5157.1533,2263.28,-599.2458,18915.6953125
201,16486.422,15750.392,16937.328,5426.5757,11069.203,3566.566,22252.2578125
202,3778.8765,-9629.95,11590.865,-5481.1807,7905.9717,-5840.2197,26935.87109375
203,-8642.018,-12680.673,-7838.9834,267.4927,-4435.316,2436.2078,9860.7724609375
204,8759.991,-2614.1338,12267.519,427.2807,878.2509,-1076.1626,13707.8291015625
205,6073.601,-6560.586,-8008.688,5897.522,4690.8994,-969.22314,18793.333984375
206,911.0293,1864.0614,8820.651,2153.9226,-2153.5193,4288.0947,11786.7138671875
207,4464.5767,-5408.6255,405.7041,2031.054,-949.8522,-5077.4873,12895.9423828125
208,-3818.5134,-13688.837,-3617.5474,-4484.798,-8188.5015,86.759056,18999.072265625
209,-400.4961,-9947.379,-11659.103,-1750.6962,7072.2217,2005.528,16784.66015625
210,1738.4104,-4431.526,7362.751,3865.5747,8206.387,-4035.0962,20002.787109375
211,-10742.722,-4804.151,-1219.0234,-4900.3506,-1022.11597,-4819.8613,14638.236328125
212,-19484.586,-21774.133,-24254.72,-10218.754,-5415.7827,1430.245,20602.728515625
213,-6436.8564,-6288.3125,-7326.116,-2506.1497,-2800.462,7760.8853,14966.93359375
214,-3228.1626,-1929.4802,3230.6313,-8007.4087,3872.485,-9768.996,23635.962890625
215,10792.317,3244.2952,3935.349,-2504.153,-633.64624,-5534.3823,12811.6796875
216,-928.19617,-11902.104,6773.9443,-4186.931,3136.9248,-5235.9136,20703.34765625
217,-3836.9468,-9466.871,-1192.5605,-1319.6267,-651.8332,5025.5625,11655.224609375
218,-7776.7515,-5807.7617,-7392.803,547.3753,6505.91,-3700.5103,13123.6103515625
219,-3682.585,-1032.167,-2524.1765,4335.9785,-726.1612,-3417.4365,9915.494140625
220,-2496.9766,-4478.08,6463.551,1443.4596,9851.265,-5320.58,22006.50390625
221,-7076.1797,-7000.389,-6878.819,-4537.015,-366.8956,4386.3813,10950.2568359375
222,-5497.3564,-5870.3594,-5234.303,-2281.3147,-3905.3206,1611.99,8334.8525390625
223,1388.2388,2610.9397,1228.0834,4330.642,-5738.053,-6002.5933,16274.181640625
224,-7292.115,-12871.479,-350.6582,-6928.5586,-2673.7485,1062.177,16937.77734375
225,-7608.9297,-5910.359,-2251.898,27.198132,-658.6166,997.53784,5174.2080078125
226,-14886.935,-12737.359,-18195.555,-4012.9382,4611.934,-10731.005,21914.92578125
227,-6357.797,-10777.157,-14622.816,581.2134,-10056.937,-4535.656,20432.109375
228,-5668.995,-9362.56,-472.15283,-613.56195,-1491.4204,1021.23425,8412.8232421875
229,-6226.404,-6954.826,1944.5178,636.5581,8437.807,-89.81478,16972.802734375
230,-31.66333,-6897.7446,614.3467,-1369.8528,1598.3658,-5271.28,12192.1669921875
231,-2651.9355,-6455.785,-37.628174,3905.0256,-1004.5315,9168.087,18225.935546875
232,-595.27637,2030.6627,-6363.12,-5367.645,-15313.279,-195.4701,29074.87890625
233,2692.8816,872.0879,3743.7378,2124.298,-7114.81,-3548.8813,14474.6728515625
234,-439.23584,663.73364,-6232.331,1181.854,865.6909,11259.191,20686.0546875
235,5490.375,-23501.943,-15130.436,-2553.6467,-11320.273,8848.078,36149.7109375
236,4808.278,-8716.963,-5368.908,3418.1865,-1539.2003,141.84608,13823.1015625
237,368.2699,-7902.3027,10308.553,5049.9663,10158.863,-8074.3843,28829.228515625
238,14451.225,-5900.7905,-8968.502,2937.7715,-1499.4596,-412.90002,22785.90625
239,3938.1562,-12557.757,544.3921,-2030.4143,-1846.3683,4849.1987,17910.576171875
240,-6974.9707,-12748.366,-1230.3901,-3479.2778,-3985.1267,1752.7153,13880.7021484375
241,-3516.8047,-17873.396,7127.334,-5684.542,-9727.514,3360.0112,29780.9921875
242,-18021.273,-29208.992,-27897.814,3618.9077,-8935.861,-3994.9097,20950.689453125
243,7754.4014,-1791.0591,8278.351,-6113.383,4365.0156,441.33444,16317.3662109375
244,-5278.8047,14181.477,35759.938,-6431.265,2655.2532,5134.1475,38581.97265625
245,-12424.896,7137.412,17222.906,-7643.345,8539.18,860.0198,32831.8515625
246,-8981.398,19499.635,15100.486,-11718.2,9718.564,-2990.166,37780.32421875
247,7297.6113,28043.055,39669.098,-8256.506,4676.5034,4819.8047,33860.53515625
248,-485.08167,-745.97,23579.43,-7714.823,1636.6019,-436.8304,27795.8671875
249,56343.336,29388.99,72751.0,-4706.173,-510.47867,2292.4912,38999.98046875
250,-41237.81,-36617.473,-36023.97,-4938.383,10183.551,-12228.938,29280.70703125
251,-122125.85,-105693.06,-90622.15,-12910.635,-4914.0664,2246.1892,36502.875
252,163220.25,160251.6,174673.7,4806.363,3929.4368,-84.75316,17018.87890625
253,37518.363,12832.6455,43388.02,15157.911,-4416.5093,90.91868,39199.01171875
254,3424.4197,2625.808,2339.7883,158.22092,-302.40295,-949.82306,2000.98522949219
255,-5986848.5,-5986830.5,-5988536.0,84.113945,491.52383,-302.3641,1974.49768066406
256,179856.62,176519.92,171842.6,-1229.0776,-804.1631,811.0828,7554.02783203125
257,177532.25,165495.8,159005.83,10769.823,1753.4667,-2330.507,25270.48046875
258,-300584.12,-293175.88,-320214.97,-2281.7134,9498.0205,-3756.9302,30237.091796875
259,-82000.04,-44255.875,-43701.652,-4486.2974,-806.7899,-1760.2349,38954.796875
260,-11675.016,7855.8745,29001.07,9286.522,4959.4185,3571.9363,40153.9765625
261,-41901.324,-9508.098,-12624.055,13027.646,-6166.3223,-1523.2013,39853.28125
262,-1344.9385,1035.2778,9910.803,21186.662,-5138.603,4964.587,40066.78515625
263,-8331.427,5597.845,-18261.06,3268.2373,115.9469,-2915.7834,22102.59375
264,-20798.822,-2310.7002,-9406.687,8843.682,3759.732,-6245.7886,25593.763671875
265,-15418.516,-11727.708,6011.5884,14978.6,-590.9154,-1911.8811,32846.09375
266,1743.1016,10497.878,-4932.83,-1697.382,1042.4789,898.4572,13927.8759765625
267,-5528.6006,4893.0054,12591.661,10090.24,-4158.973,4579.0283,25852.3515625
268,-7387.911,8071.107,4196.5415,5608.93,1168.7898,4403.478,18728.236328125
269,-2661.914,12207.298,11972.095,7315.5776,3421.6326,5402.236,22380.341796875
270,-13523.003,14882.359,-7789.0596,-66.48846,9901.142,-3659.1587,31798.54296875
271,-8802.911,16442.26,782.42725,4732.8125,5113.8438,5490.807,26894.48828125
272,-10569.287,-2940.4956,8574.909,-1531.129,-2352.6997,-1529.0674,17587.052734375
273,7143.907,14404.623,6990.946,9763.037,2106.3162,8219.351,23575.10546875
274,-1242.4253,-9387.38,-15604.828,-439.4369,5126.058,840.3016,15400.1572265625
275,-5687.5444,-8616.204,-2411.1172,2986.547,867.69,5182.862,11769.060546875
276,-13251.447,12371.114,-9343.941,234.1898,-1326.8787,-4314.677,25158.689453125
277,-9058.35,18376.162,8864.525,9677.826,-86.623795,-664.12274,29402.435546875
278,-877.3218,-4733.577,1265.5607,-2767.9446,732.4107,3015.6606,8922.029296875
279,-1467.1938,-9799.218,-2492.1467,-258.95905,1962.1659,1408.264,8923.8056640625
280,8406.727,-4498.8213,15757.18,-100.963585,3308.5032,-1203.6223,18779.22265625
281,-3422.1748,22949.648,-1795.498,-2768.372,2305.7253,457.74838,26358.87109375
282,-7213.6206,-6800.3438,-7747.5874,-1356.3633,5007.972,8882.596,17836.384765625
283,1328.7152,2247.208,5273.9463,-986.597,-666.1038,318.74765,4164.23046875
284,2897.152,-1180.9131,1632.4414,3455.2188,2763.1746,2189.4517,9283.029296875
285,7835.8467,3380.1729,-10498.006,728.42896,2172.8735,-1618.7383,17260.08203125
286,3855.9658,-5147.5947,8987.409,-1432.4606,-3673.2935,-885.2005,14233.162109375
287,-4114.0356,-2503.3557,-9769.584,3705.739,2910.1938,3845.1384,12435.8056640625
288,7394.1113,-36.721924,875.1361,1819.1865,3123.9858,4708.1597,12449.072265625
289,-763.51953,-9592.175,-1320.4358,9184.83,7525.261,12607.125,31195.01953125
290,-2931.9636,-13103.005,8766.52,-934.25006,-18720.629,-3922.443,38202.765625
291,-3966.1821,-3421.2676,792.8611,2238.4011,2721.5474,858.95215,7734.16650390625
292,1127.0996,-13525.558,-11842.174,-2470.5652,-2069.5356,306.15213,14976.958984375
293,-6161.5347,-4318.875,5620.9243,-3544.3853,5027.0835,-741.10394,15351.2568359375
294,-4482.524,10361.396,-3370.4111,-15278.277,8490.149,-2179.2646,33702.27734375
295,18805.572,10939.307,26830.621,-11226.702,-212.92824,3507.6292,24587.998046875
296,-2536.0493,8179.181,11575.699,2764.567,-4307.4785,14660.134,29767.3828125
297,-4860.2505,-7035.9277,-1828.06,-1237.0769,-193.07,-654.1179,5148.916015625
298,-10470.7295,-7388.816,-4959.354,-5874.874,-6582.6484,2879.7368,16772.08203125
299,-2750.0283,2172.4192,-590.2485,-1388.1509,268.53836,-7153.3477,13333.12109375
300,-2305.937,-4696.198,-1985.9407,89.46165,-3717.817,-4488.943,10417.4345703125
301,4765.6016,2565.1296,13346.268,-231.47165,-6573.969,6214.6836,18521.076171875
302,-3396.505,-1101.9746,-702.7147,9586.711,9241.103,-4964.764,24742.595703125
303,3780.9644,5422.6426,3253.472,8682.341,-4202.0435,-1031.8079,16916.08203125
304,-7225.495,15027.677,-1546.4792,4002.9438,-493.21616,-1969.6415,21482.962890625
305,-1482.9141,12222.682,15151.223,4598.4136,-1198.6069,-558.1123,17471.0546875
306,-2126823.5,-2126498.2,-2128202.5,42.482952,689.1874,-72.53022,1975.36877441406
307,-20832.861,-18918.146,-22146.521,-2672.0408,-9099.445,-5194.8213,18938.974609375
308,85341.33,62821.29,99958.62,10614.436,-981.9897,-5393.5664,38446.87890625
309,-39349.707,-42162.613,-67650.195,7473.9043,2619.8462,-6420.792,32265.642578125
310,-16129.664,5452.4,26929.13,6097.6724,3795.1655,3621.1975,39807.55859375
311,-795583.94,-795825.1,-797431.7,-6.3314734,-535.3345,-197.80037,2000.98522949219
312,2550.8413,2425.449,-1169.1512,3762.316,-2735.059,-736.51733,8939.892578125
313,5976.8765,-7319.068,-5084.602,5774.3022,2909.8074,712.0329,16703.75
314,-1143.4536,666.0575,873.91223,-575.1577,1853.8823,1106.2275,4320.6396484375
315,6993.333,16826.553,11429.322,-479.0784,4025.1492,8534.865,18454.701171875
316,3064.789,549.77686,7701.6567,-1663.215,1251.9766,-7477.3633,14839.8671875
317,10475.975,3726.7117,9078.906,2740.0942,13218.687,5327.629,25883.419921875
318,12402.279,13549.423,10050.571,591.41815,12960.538,-15163.305,34702.9921875
319,7819.24,-8420.441,17112.064,-5441.182,2059.8877,1943.0498,24776.4296875
320,5698.6333,-3128.1123,7848.55,3042.3257,-1218.0197,3163.6543,12796.6572265625
321,587.46826,-12646.146,4940.241,-4636.341,2143.7024,-7873.579,22714.119140625
322,-27416.328,-35175.867,-44941.027,-2430.2341,414.3117,782.237,15855.935546875
323,8193.052,11201.653,-4556.7812,-3098.106,-2822.6738,-14197.79,29451.62109375
324,5956.103,-1090.0645,-4018.899,2048.5593,6989.8916,-893.3762,15505.595703125
325,379.1001,-5267.365,-3137.701,106.256325,-2745.8442,3296.9973,8925.04296875
326,-3846.7683,-10525.713,1109.8213,826.3832,-403.95566,-6580.035,15320.2392578125
327,7552.234,-16188.973,-8660.51,-1386.226,3583.1228,874.3702,22094.40234375
328,1591.333,-5334.362,-7333.0146,1103.608,-4297.8394,-10521.138,21376.4609375
329,-4495.2803,-12621.174,-5649.8564,1035.7893,-1870.4795,6232.2334,13719.259765625
330,-3110.8867,-28955.494,-22003.76,319.94153,288.7719,-3697.9165,24045.509765625
331,-17212.527,-12126.586,5655.581,-10769.997,-7057.5557,-7771.266,33333.08984375
332,21732.354,46620.895,63116.71,-1024.97,-8541.305,-28.907446,39040.03125
333,35299.4,66236.37,54706.617,-1662.987,5574.8154,11746.508,35338.49609375
334,131719.66,143042.86,164701.25,2799.3071,-5620.47,-7340.3457,33503.171875
335,-38030.883,-32152.49,-64567.33,6139.6694,-3132.393,9447.99,36125.41796875
336,-6362.034,4917.728,-38396.32,3113.3884,141.01205,-2853.2896,39602.15625
337,-20439.666,14050.754,-7285.8906,12211.163,4834.963,-7300.6943,39828.3828125
338,-11762.668,-400.18262,4892.4893,4552.202,7075.4854,-2363.52,21127.474609375
339,-3045.7056,-371.39185,-7475.969,2006.6311,-7218.7964,-4606.683,16453.099609375
340,-6310.3364,-7937.1367,-552.67236,-3343.3076,-1659.1986,7398.3174,15848.0595703125
341,-1210.1475,-15230.336,-579.16943,130.71388,-3544.228,271.70547,15613.0595703125
342,-550.49805,-8380.249,-2038.328,-780.19446,-517.4277,514.5274,7435.91455078125
343,4114.377,-3105.7612,3828.5894,1219.6619,-1449.8096,1404.3473,8175.193359375
344,1741.7478,-5963.6416,-1334.1475,-156.13158,-1507.5312,-898.28674,7378.6875
345,-945.3779,-10151.693,-8257.104,-1321.8263,-991.59906,3980.9353,11253.37890625
346,-36867.273,-4109.825,-1858.5293,8235.918,2399.928,-870.3103,37079.75
347,3471.6562,-2094.3823,7197.263,-160.34833,1259.9764,3077.8044,9942.6455078125
348,2061.3254,273.11646,2511.1465,3822.298,1293.2068,666.2581,7374.4931640625
349,-6841.721,4756.231,-3055.0051,-216.3409,-1163.7526,5512.205,14152.3896484375
350,-17731.572,-16810.943,-27810.326,480.55838,869.35126,584.25543,10756.013671875
351,-3747.7783,-3762.6987,-578.0193,-753.0524,-1082.9492,-4070.677,8063.8525390625
352,-5048.2,-9186.052,-1008.7234,-158.06598,-296.0892,-1096.3123,7355.107421875
353,-5563.3296,-11358.247,-4200.575,1392.2375,-3570.153,-1426.7134,9669.265625
354,-6534.6274,-14748.32,-6310.2896,662.06104,6935.067,3516.0386,15875.9482421875
355,-18876.02,7166.4976,5141.559,4753.9395,435.50165,3244.1228,27009.634765625
356,-9234.452,-1469.9233,1050.3962,7330.185,-4388.9917,1461.171,17652.158203125
357,6961.498,17319.8,10500.238,-3200.4404,7680.029,1072.963,17154.955078125
358,5027.4194,935.2549,7413.385,6661.428,5187.46,4245.757,17324.400390625
359,9094.699,9609.802,2933.229,-1459.0013,124.3177,4030.5842,9827.109375
360,-23977.172,-23871.545,-38385.27,-1172.8324,2003.6086,5260.635,17559.017578125
361,648.52765,2097.1301,-5282.2036,1252.1982,113.00757,771.0993,7238.0517578125
362,34362.285,28734.215,67097.99,2544.56,-486.50226,-3799.8403,36755.8359375
363,6979.762,329.13574,8200.465,-7341.09,1067.4836,977.93915,14893.0126953125
364,-69589.02,-66594.07,-54349.938,-627.7581,-439.1284,5369.822,16847.1015625
365,-4659.3657,-1603.9961,1324.7087,-1113.1396,-416.60336,-3232.5574,7902.345703125
366,-12672.194,-20851.17,-22461.178,-1461.987,165.12163,1150.026,9649.75
367,-2783.7808,-5567.606,-1335.3878,-2459.3962,105.55729,1093.8712,5970.64306640625
368,-321.54065,-6910.7617,2650.2432,1334.3344,618.4943,374.38464,8873.5859375
369,-3415.8042,-5410.687,-4860.1636,570.54156,-750.69275,-767.7898,2760.44921875
370,-133.43425,-5350.4204,5048.4834,672.3433,1151.9474,1729.0535,9767.76171875
371,-2437.997,-5923.537,251.81812,780.6381,-895.51855,999.8417,5999.3876953125
372,-10619.341,-11616.1875,-24858.857,2687.2146,-1023.81757,-1662.811,14921.9873046875
373,-6186.73,5230.639,1251.147,4013.3594,215.9777,454.12042,12240.796875
374,4502.4033,4951.9233,1427.1736,1542.0254,-268.3123,-515.8818,4380.5693359375
375,3060.6177,-2288.8562,109.11563,-2082.161,248.45645,103.39684,5895.990234375
376,24076.756,1174.8047,18035.238,-3018.2866,2058.6777,-5019.0713,23200.314453125
377,-11256.89,6168.4014,4083.084,4180.2476,1086.2444,1476.8474,18280.001953125
378,-20469.504,-22491.598,-38309.832,1124.0986,-1231.7238,-2112.3123,17550.474609375
379,-13944.117,-16364.115,-21183.355,1716.6792,-417.8405,-922.0113,7256.6572265625
380,-7042.2236,-15655.393,6156.9287,8583.484,4417.5254,1980.44,25562.265625
381,3835.9583,-897.0637,7891.084,-7526.1396,-4175.578,-3829.0024,18007.13671875
382,-12203.016,-18860.857,-26760.297,-1694.1359,-30.55118,-336.6646,12972.0595703125
383,2959.1162,-1747.763,3245.2866,393.1179,483.9387,639.8359,5096.85791015625
384,-5970.335,-10819.481,-12743.242,-105.00569,383.512,-991.714,6322.0634765625
385,2431.87,-4460.115,-1311.2861,1710.8811,1645.8104,932.345,7431.56298828125
386,4192.761,3172.8525,598.3135,808.5251,442.5019,-86.44234,3586.81469726563
387,3746.438,-928.34814,1415.6046,2692.0186,-159.04747,926.21313,6385.97314453125
388,-4817.0034,-3873.4172,1077.4124,-481.64105,-387.66348,-1.513146,5587.431640625
389,-6187.5664,-2429.941,-612.5725,-1029.6628,173.93512,-1710.8788,6025.3017578125
390,-21561.91,-22994.418,-30168.418,-2141.069,-2261.655,5280.2363,13286.6708984375
391,-3127.4705,-3752.1162,496.02368,-1744.489,-1083.614,2267.808,6623.03076171875
392,6233.616,2068.5134,6208.953,1151.9757,-569.72723,-788.8931,4905.908203125
393,-2115.2615,-6623.4487,505.36426,144.27037,891.27563,200.26437,6447.6025390625
394,-3924.5603,-7476.5664,-1192.6719,1106.905,-119.27282,-7.8695984,5788.11083984375
395,-2149.708,-7905.017,-1710.584,1292.0007,727.62317,181.79366,6522.18994140625
396,-6201.724,-4773.381,-1741.2188,-934.82465,-308.37775,-512.81134,4388.7412109375
397,-14893.35,-15002.152,-14379.567,724.22876,4482.6846,7221.834,14786.9287109375
398,-2944.8286,-3303.7854,233.69775,-704.334,539.05347,-191.58163,3720.61010742188
399,-25196.621,6662.6416,-2581.6655,-2563.8865,-1064.134,4309.7847,29745.4765625
400,2567.7173,952.8696,9977.468,-2008.3534,2078.8977,-2659.5889,10759.36328125
401,14639.517,7348.982,18341.072,-1332.5701,834.05566,-730.3741,10141.7080078125
402,-5939.407,12021.304,22515.096,-2706.4133,1463.7375,-3982.4177,26403.8515625
403,-10958.688,-2381.2983,-9679.224,-4408.1187,321.35086,1533.0042,11396.8779296875
404,-4443.729,2646.314,-11603.083,-7535.5728,387.76883,-447.72736,17991.44921875
405,-1395.0803,-1894.4749,28.284302,1099.4836,276.95444,-657.7104,2853.1796875
406,-2055.8862,-274.7843,-428.68906,-1989.8585,1427.6349,69.38356,4574.86279296875
407,-304.1183,-4286.5435,-271.29053,2582.3228,-727.95874,1116.8308,6428.716796875
408,-3004.6245,-9001.825,-2994.0044,-1985.6261,-800.948,-7.423803,7055.7119140625
409,-5729.927,-4402.783,-1558.7336,-179.959,-769.78937,579.4143,4062.8115234375
410,-19191.975,-22515.428,-26552.62,-2938.241,-1951.8918,816.4224,8949.3427734375
411,-3830.1362,-1113.8307,-1178.9596,-1166.3497,-144.26826,611.7062,3531.53735351563
412,-1678.9636,888.14844,-1798.0708,432.92487,-236.06752,551.1008,2924.1416015625
413,49647.676,22120.643,67206.05,1019.58246,1364.5623,-3432.9036,39917.703125
414,-3137.8318,-4005.5222,3073.3955,-1149.1726,-855.3951,293.95325,7151.06787109375
415,-407683.53,-409749.1,-437575.97,1528.0562,5060.35,-2826.0977,30722.41015625
416,-3061.3513,-8164.921,-5523.433,455.8893,-850.7526,302.14496,4755.1640625
417,-11633.307,-11129.428,-8377.69,784.8117,-5816.364,-3044.0457,11846.90625
418,978.05426,-1022.45703,1402.4601,1208.2765,776.401,8.440918,3349.56713867188
419,-1570.1765,-6014.463,2924.5498,255.57954,-15.64788,-2506.2542,8886.5478515625
420,-409448.62,-411095.53,-437304.62,-945.10333,4826.721,3463.0603,29005.904296875
421,-18238.582,-20361.773,-24803.336,-1075.844,-2264.6653,1975.5721,8014.537109375
422,-2741.6797,6153.0693,-8096.6553,-47.880188,-562.78033,762.9378,12574.845703125
423,-626794.9,-625505.5,-644884.56,-638.4543,5922.55,2224.4895,21760.546875
424,-7535.4883,-7567.535,-9233.328,-1100.9495,-854.4944,5514.3765,9994.0517578125
425,3154.2468,4404.944,3669.377,-4196.7983,2324.6655,-4295.5625,11206.8046875
426,-9171.669,-11094.316,1479.9639,-1305.621,1158.9706,-3925.6824,13892.79296875
427,-4508.4165,-3714.6997,1532.8411,-954.85767,485.98828,785.2963,6133.97216796875
428,-17454.125,-18174.688,-24523.438,71.78515,3436.8298,8240.982,16869.876953125
429,-9708.891,-11684.062,-13765.939,-1028.3705,-2389.8462,5696.2812,11401.630859375
430,-1198.4248,-4055.7622,-634.58215,1321.6995,-244.12994,392.78802,3996.96118164063
431,-7867.0005,-7153.5664,-3547.4106,460.19525,1026.7787,2274.2163,5949.8271484375
432,-35926.74,-34334.87,-53158.207,-3148.2583,-4988.9224,-4201.969,22005.91015625
433,-8929.101,-3822.3765,-21667.873,-4789.318,-1207.858,699.9977,18112.642578125
434,-3545.2827,-5157.9004,1235.1865,1008.09485,951.6488,119.92768,6242.70068359375
435,-1096.2704,332.7154,1445.8842,1242.998,-406.98795,-784.57654,3442.466796875
436,1192.9766,-585.0144,1866.5547,1513.7495,2376.4685,981.8353,5614.4189453125
437,-5297.314,-4372.882,-8884.71,-360.8272,3261.6287,-8.329885,7024.65283203125
438,-1841.4479,-5968.019,-1.001499,-325.66818,-698.97974,194.51245,5468.8173828125
439,-9286.467,7703.5464,-12204.861,7756.021,-211.74297,2981.531,23537.880859375
440,-7327.1587,-10527.046,-14535.753,-276.2578,-1739.182,-1729.8374,7577.37744140625
441,4896.7144,2852.52,15419.873,-2342.387,-796.96857,1523.6555,12718.38671875
442,5638.823,5550.1577,5683.214,3237.824,232.29817,-529.74677,5698.0751953125
443,-1520.1532,-4386.865,-2794.7402,1516.7712,1029.6787,-437.82764,4104.42626953125
444,-3624.3713,-5637.162,-4001.261,224.90746,486.7807,-1600.5034,3461.53466796875
445,-1853.3706,658.69727,-587.61035,-1714.629,-959.4534,868.1607,4309.939453125
446,-6962.785,-8817.981,-7494.087,-1152.2849,-4701.862,7964.971,16228.5693359375
447,-3918.0554,-4098.707,-8472.995,-3915.628,-2945.4285,1410.6552,9896.9775390625
448,33919.56,14793.757,48290.36,-614.2566,3986.2495,-3388.505,30502.748046875
449,-7273.707,-7982.5205,-13929.335,-1046.6194,1174.9368,228.66907,6904.10986328125
450,-5614.931,-1874.2603,-8652.183,776.21783,531.5285,-1177.9238,6434.01123046875
451,-2384.867,862.57947,1915.4631,-796.61365,5207.7153,-4290.144,12391.7041015625
452,-16125.997,-17110.842,-18587.025,212.21194,5979.221,7635.924,16938.51171875
453,2756.244,-8161.475,6370.4883,-490.32623,738.15186,802.5502,13266.7548828125
454,-7392.6426,-6743.2173,-3257.4722,-906.74817,-1269.7145,4950.626,9780.853515625
455,-14552.952,-14809.716,-21885.035,-692.21844,-1089.0992,4979.758,11460.044921875
456,-23033.648,-23083.373,-31791.45,367.106,6185.5537,10226.786,22476.990234375
457,9040.498,6856.1484,20257.88,-4853.3604,-215.13414,-574.24695,15063.107421875
458,12697.213,12499.656,18691.762,-1731.5913,-414.79028,-2092.689,7733.51953125
459,3964.224,1106.0048,5438.4575,-665.5271,-1739.6053,2644.175,6777.82421875
460,-3501.7842,-8060.3228,-1323.4889,2102.5916,-54.73904,332.33582,7004.1484375
461,-9124.693,-6181.878,-11060.069,-110.591934,-2508.232,-639.98865,6183.88427734375
462,-11659.537,-11210.412,-18687.758,1361.8671,1767.8114,141.61197,8231.271484375
463,-376.58817,2005.2397,2821.901,443.48727,1499.206,132.14886,3958.59497070313
464,-5673.9937,-2622.9175,1983.9258,-13.388532,-2466.1794,715.6236,8023.14892578125
465,3354.451,1037.9908,8717.913,-1685.5155,-64.53178,-178.6883,7428.87158203125
466,-10262.025,-11794.784,-15197.682,-793.79626,504.6771,5907.3896,11246.8251953125
467,-19006.326,-18395.87,-30156.441,-1146.4102,292.73734,3769.719,13354.2724609375
468,-1214.6891,1160.231,-1000.48645,-1312.8075,-825.3542,-252.24019,3547.15478515625
469,399.10776,-1283.5226,6133.8633,568.82043,1551.0947,-322.4167,7339.50634765625
470,11514.256,10730.201,21058.268,302.71033,931.47375,-1845.1217,10596.0927734375
471,1082.3362,1470.9587,4574.1587,-2566.2373,806.64575,-960.3694,5955.04296875
472,-6008.1543,-10068.305,-10659.817,823.80493,4606.8535,5276.582,12979.5439453125
473,-28868.398,-28607.074,-39631.316,359.56937,6449.354,8977.836,22038.517578125
474,-9397.004,-2065.6016,-1638.9221,455.40378,-1756.5048,322.86804,8200.640625
475,-1359.5454,-329.7826,-1999.1323,-1764.6653,-463.56036,-764.4091,3723.95825195313
476,13497.771,12564.132,36876.5,-559.1076,1485.9551,-1336.1146,24128.439453125
477,-274.0083,-3258.1008,-716.21875,-336.92087,-1280.8577,2240.625,5301.34912109375
478,35217.44,31136.107,61405.19,-7357.716,421.7401,-2060.9954,31385.044921875
479,-2600.6658,-446.45087,3391.9382,-1194.6593,-160.09735,914.33496,5874.44775390625
480,-1705.7855,-2163.0525,-6525.5117,2645.557,78.70068,-463.6288,6549.45068359375
481,-1212.3196,-3158.1294,-2870.4348,-1453.6759,453.3681,281.5203,3240.841796875
482,-11076.887,-16116.277,-20249.434,965.5782,-2082.1167,456.4616,8929.431640625
483,-15186.895,-20645.828,-30724.854,1587.444,1302.8184,55.04715,14109.1630859375
484,-12838.537,-8401.062,-23509.545,5122.164,1210.2477,-250.9928,16254.4375
485,-18791.336,-13576.457,-24346.084,333.16254,751.54126,-338.98505,9454.6123046875
486,-5145.6855,-3008.4438,-5744.8306,1057.9307,-1430.5872,620.88104,4106.23486328125
487,-24827.92,-22279.637,-42380.723,958.93225,-2103.26,-1356.7472,19516.05078125
488,6646.365,5561.7617,9752.123,-63.26591,1333.6884,1297.7421,4958.951171875
489,2480.7795,2215.9622,946.0597,-4720.0513,-1924.0339,453.97372,8976.62109375
490,-1793.5039,-5809.7417,-8580.12,-2569.9973,-2090.3784,3315.0217,10041.0888671875
491,-15794.473,-10904.808,-20357.648,481.3046,739.9596,1196.6746,8583.5576171875
492,-33388.42,-41439.168,-65330.816,-3567.828,-1160.0929,-236.3777,29501.935546875
493,4757.5317,4474.8843,16658.393,-1335.7147,95.48024,2157.1155,12822.375
494,-26469.082,-28671.184,-49024.316,-40.913296,-1409.9849,-403.66653,21688.17578125
495,-18393.078,-19927.02,-35074.11,1496.3158,811.63495,713.02313,16286.2021484375
496,-1916.3685,-1210.1472,4246.853,655.23663,1927.5358,-494.41122,6877.42431640625
497,-16225.259,-8184.712,-20009.422,-3660.2744,-712.35406,-1340.4441,12510.0986328125
498,-17066.287,-7764.51,-27307.496,-863.279,915.64185,640.6181,17106.986328125
499,-3246.138,-7630.865,-10764.632,539.50793,-1138.3145,554.78687,6962.10400390625
500,-2998.3774,-3416.434,-3.2962766,-852.61865,510.70456,-1097.908,4120.3076171875
501,6228.8486,959.66113,3571.0588,202.23631,-125.51722,-725.73486,4751.19189453125
502,-30591.34,-31716.48,-46281.977,-634.38367,4673.79,7297.467,21361.34765625
503,-15245.001,-7477.9893,-24633.502,-495.50122,341.40097,585.5453,14950.111328125
504,-1751.979,-3425.121,-3360.4353,-2813.5715,1087.6954,200.88759,5487.64306640625
505,-23689.695,-14222.66,-27346.584,-2098.5103,-474.5137,185.21788,12312.884765625
506,-819.01447,3170.8582,1058.996,497.7986,-439.92822,361.0405,3697.03344726563
507,3697.57,4173.3657,11695.507,721.7929,2300.64,-55.90001,8822.650390625
508,2660.1592,-153.62062,2535.1714,-99.03052,1238.1273,-5.8120766,3494.23681640625
509,8676.444,5230.832,6705.2593,1757.3842,-952.1464,-227.62135,4594.154296875
510,4395.269,376.5947,1512.969,1064.709,-929.1849,940.4157,4638.80224609375
511,-5228.804,-3012.0264,-2035.125,-1485.7878,-1505.7289,379.98645,4678.83935546875
512,-15276.642,-11547.771,-26564.365,3763.7695,-1703.1229,-1679.724,15590.7607421875
513,-2887.8835,2650.5518,712.88934,591.9371,313.0291,894.6389,5238.6494140625
514,3886.7566,201.61284,177.97409,3623.9038,1007.06555,439.20145,7529.09228515625
515,-412.71576,70.28187,-1020.54816,419.8711,879.5825,-940.2893,2529.5517578125
516,3021.238,-4611.906,-1424.1589,977.237,440.86035,2078.2053,7778.10693359375
517,-26273.396,-24654.975,-38623.78,2685.6992,1784.1256,-209.26253,14368.6826171875
518,-2764.328,-3246.8625,-3822.5728,-272.94672,801.3208,444.73453,1893.48706054688
519,5914.882,-2733.4075,-1451.8894,-4144.65,280.5464,-605.6235,10873.0439453125
520,1459.5607,-1279.7532,2422.296,-1659.5538,142.35338,409.71414,4460.34521484375
521,-3181.62,-594.25116,-3579.166,-2545.1418,-104.901726,1352.6659,5730.31298828125
522,-7642.9297,-7605.132,-17361.605,-2273.3403,-1213.2882,1794.3268,11153.505859375
523,1069.1365,9764.184,8918.236,-3194.0898,630.2428,-347.97482,10056.1142578125
524,3753.2756,5962.3584,7264.912,2694.334,-32.856068,-177.50912,5597.33984375
525,-8013.8423,-3333.2283,-13315.3,-1021.40045,5.343108,80.51841,8830.4580078125
526,-18410.67,-21255.701,-32034.486,114.34544,422.94086,1062.0055,12605.6259765625
527,-11555.388,-19941.75,-26604.514,-2862.8433,-807.95074,913.08606,14129.6494140625
528,-1175.5981,1904.0565,-7536.753,3438.261,812.3418,-29.81067,10343.4033203125
529,-15591.12,-13693.988,-27739.488,-41.77765,-2421.8655,-713.04724,13905.24609375
530,4303.861,6223.2104,18766.492,-3911.1292,288.9605,261.89688,15213.146484375
531,-6831.6523,-10835.076,-11958.314,1822.3281,-1150.4319,520.86835,6044.24462890625
532,-16818.941,-19954.771,-31433.797,3207.8354,3546.8682,4555.6016,17563.3046875
533,-13551.583,-19453.975,-28581.133,2133.3013,419.11578,-758.2109,13708.3857421875
534,-19167.23,-22453.717,-36205.184,1355.3206,-2336.5188,-241.3996,16345.0693359375
535,-1495.025,-2003.0706,-8020.92,482.7174,1562.7067,-612.4279,6977.13232421875
536,2292.4148,-1041.5571,-4906.242,-319.62097,351.34695,433.43634,6338.4794921875
537,-22181.447,-16316.693,-27955.992,1414.7878,1405.2593,237.20837,10663.251953125
538,-25777.607,-23004.365,-40385.945,2378.6782,-645.12396,-304.51804,16736.42578125
539,-2190.6016,-1047.1631,-13824.572,-1017.7664,-211.24141,-218.46425,12383.216796875
540,-401.23605,-1411.2876,-4032.5095,3310.9568,703.9714,-358.87656,6730.4521484375
541,-14364.363,-9290.306,-21978.168,-4722.9585,340.0894,-430.13925,13790.21484375
542,-545.6914,-7656.7466,-13219.815,4262.2803,814.34534,314.71936,13336.4853515625
543,-7286.544,-10941.436,-13031.221,5104.8057,-61.40104,-351.43494,10194.23046875
544,-2538.7004,-7443.362,-9762.911,4979.102,-142.4073,-446.89148,10763.22265625
545,-14555.8955,-7782.7944,-24695.709,-1650.3572,-48.83189,1077.7827,15133.794921875
546,3452.8813,-10605.785,-27059.93,2293.4297,-672.09344,-449.00742,26785.21484375
547,-4575.156,-8052.4487,1668.1133,-1222.9099,70.25815,662.97015,8865.640625
548,-34954.348,-41520.32,-70752.945,-3750.7983,-994.5697,280.78372,33689.88671875
549,-3811.5378,-6551.0107,-8841.2295,-82.048035,52.24794,290.18408,4393.72412109375
550,-12070.714,-10300.321,-7988.3193,1719.5165,21.33875,98.6903,4633.96044921875
551,990.2078,238.82556,-1144.6571,-824.72125,-262.73102,-53.49626,2402.974609375
552,-6360.2505,-3015.8137,-9138.284,-1463.0809,-327.4398,-700.4298,6033.98388671875
553,1058.114,2243.448,99.7239,-6293.772,-292.77322,288.29413,11081.548828125
554,-20850.209,-14501.385,-23819.236,-598.48895,-1329.4115,682.06573,8703.1455078125
555,6493.2603,8129.6123,9598.268,-4320.4385,654.82166,-457.25632,8071.556640625
556,-715.8564,791.0348,-5161.625,251.42049,-397.5247,945.04034,5663.73388671875
557,-2208.1052,7576.9453,2441.529,-905.884,-415.42688,322.41574,8669.5380859375
558,-3213.8914,-2795.718,-7648.277,56.11728,-444.96576,-348.77884,4760.39453125
559,14144.706,8780.631,21991.963,2533.7134,-1108.5032,65.02224,12466.1201171875
560,-23899.795,-21472.217,-33527.7,-2383.9023,-16.11655,317.161,11803.1220703125
561,-39337.49,-33134.496,-64522.71,-1453.9734,-466.47437,-354.3919,28920.02734375
562,-7132.769,-10045.203,-10231.69,-4738.9663,1164.9271,513.29944,9016.3837890625
563,-8716.391,-6559.378,-20049.62,-1963.0911,-280.1066,555.18207,13048.4453125
564,6893.2437,8197.87,4978.151,-1868.3696,752.39954,-165.1409,4485.60546875
565,-8633.52,-2335.4006,-7951.822,379.45782,613.3758,310.2512,6138.9755859375
566,-2862.8318,-2659.224,-9704.514,-1634.4437,239.16875,472.33923,7556.3369140625
567,3261.851,-2572.9275,-4613.834,-1600.133,-1073.3298,-986.2304,8010.83740234375
568,2841.0894,-7168.376,-6152.032,806.4857,-411.6819,446.4048,9700.8671875
569,-16744.586,-15163.573,-21563.287,-1572.8259,-82.28962,454.3118,6434.1875
570,-8892.363,-9232.096,-12941.052,-1158.2443,548.57684,1604.5721,5270.97509765625
571,-14575.038,-8107.1323,-42718.883,-4547.7153,-171.2814,488.3573,32844.94140625
572,5983.077,6227.0024,11327.48,-4566.097,-2814.6665,645.05505,10718.2822265625
573,-12729.702,-11577.486,-21276.328,2164.0203,-2170.968,-606.9784,10654.271484375
574,2686.911,2562.383,3330.13,3192.991,-635.6656,571.1281,5769.37451171875
575,-1848.0701,4665.4033,-859.7784,1614.4409,1218.9872,1382.6168,7414.63232421875
576,-214.4426,-904.1793,2418.109,1492.1825,-908.8561,400.96698,4343.044921875
577,1073.5801,1087.9495,6272.178,-2708.2402,2489.1975,2219.2332,9072.921875
578,-2561.0034,-5186.3794,-1511.2715,-237.48557,-69.70345,916.5344,3668.01831054688
579,-3066.7336,-5090.6074,546.74384,1330.255,729.1431,-294.4267,5624.07763671875
