Element Label,S11,S22,S33,S12,S13,S23,Mises
1,1337.688,-4007.5098,1838.517,3437.0444,-3246.2896,320.0291,9942.900390625
2,-21954.11,-13522.692,-18994.143,8920.3,197.32805,5625.9014,19714.9140625
3,2393.961,19762.986,27465.582,3174.446,5831.5054,-4437.067,26193.7578125
4,-14986.129,11452.227,5047.9717,-790.45123,-1791.4763,-5107.6855,25699.244140625
5,-5334.0684,4852.336,-5811.184,-11108.794,-7259.5835,19.762156,25242.271484375
6,-1965.502,-23174.768,-19667.508,5217.3936,621.48224,1244.8823,21799.515625
7,25971.742,22876.355,42153.24,14500.22,2195.2844,-352.61343,31098.39453125
8,-44872.12,-37133.24,-42302.703,16513.742,-2775.315,-6918.135,32115.537109375
9,-10281.125,18156.55,-12594.21,3904.7654,2236.1821,10217.557,35408.6015625
10,12506.528,6159.383,-13176.734,-15581.586,6782.99,-25.371595,37460.47265625
11,-2557.37,-29641.117,7683.733,-4130.694,-422.69418,6717.2686,36095.234375
12,3338.757,-3426.0725,-3376.4285,10682.832,7207.235,-5550.262,25219.9765625
13,3735.7095,-24853.676,6134.1987,7361.411,9888.643,-156.09044,36710.71875
14,9190.242,12332.378,23374.121,19387.242,-2783.8416,2234.106,36500.76953125
15,-8117.5527,-14513.73,11309.292,7518.2456,13000.229,818.14197,34945.2265625
16,-3219.5132,-9235.893,158.56439,-13238.021,-1983.9772,-5883.4893,26633.109375
17,2093.2612,2770.6782,-12702.063,1569.8241,7242.7627,7527.184,23751.3046875
18,878.78174,-20950.002,-1454.5635,3658.5166,-18571.848,-5432.2744,39930.3125
19,156015.27,157302.58,155065.89,99.24258,68.43453,244.3221,2000.826171875
20,5740.072,5023.601,5257.619,393.8161,-1018.5152,93.31394,2000.98547363281
21,-22191.086,-1767.6477,8621.009,-175.71912,891.4912,-700.1069,27224.26171875
22,-10238.064,-13537.493,-16689.543,-7686.2046,-18774.32,-9794.491,39416.69921875
23,-10407.896,-5472.367,-8317.753,-14204.17,-821.14465,17489.06,39285.01171875
24,8527.537,-11360.218,-12124.762,4431.8237,5300.1377,-1394.7576,23671.62890625
25,3554.789,-14692.162,-16664.188,-3110.857,-489.27597,17879.975,36900.60546875
26,-15410.43,1424.0298,10744.561,-1978.9213,1195.1536,-722.7536,23340.48046875
27,-23875.7,-7870.6973,-43160.016,2942.3618,-9357.748,10030.31,39079.234375
28,-6948.817,1115.5916,3265.5742,-20325.867,1645.3014,4207.6187,37251.19140625
29,19067.277,11866.554,35650.336,-2219.0608,14813.687,-9594.276,37356.62109375
30,-3857.2158,7977.1523,20105.982,3453.3296,712.9474,-2450.4072,22045.693359375
31,12597.612,-4932.3267,-17777.77,-11993.1455,-8280.706,4381.8613,37313.578125
32,-26166.342,-424.9619,-7466.378,-5607.542,755.3273,4232.8237,26090.994140625
33,-18701.88,-828.751,-15518.654,-17145.941,-886.8548,7586.3604,36464.44140625
34,-11773.456,-28153.453,-39765.477,-4489.485,368.35815,2177.472,25854.322265625
35,-3992.6172,-2463.741,-7602.503,5685.529,-3973.59,6468.376,17051.435546875
36,-9453.125,5469.321,15423.607,-6898.3413,1574.6876,-1510.783,25047.09765625
37,-5710.951,-7884.87,1635.7524,9280.489,910.8681,-1118.8579,18420.046875
38,-1283.0684,-13145.708,4796.8164,-1823.0564,-2290.1694,-3128.4897,17460.763671875
39,2435.8293,-3850.96,2112.4028,-1811.7062,-1699.7108,-472.6311,7535.1865234375
40,-6780.121,-5064.287,-4956.938,-2474.6948,2002.4746,-451.21713,5844.02685546875
41,1448.2441,-8755.57,6883.7407,-3038.9436,4173.3203,1060.2673,16506.15234375
42,11128.198,-10633.303,18931.855,-3219.3792,-10984.621,2963.7288,33521.7734375
43,362164.94,363989.3,362816.75,-504.7673,284.9433,-379.45587,2000.99011230469
44,200678.0,201055.86,201934.19,890.12396,354.53918,35.529305,2000.9912109375
45,95978.79,96776.96,96451.92,187.19273,1057.5854,141.50764,2000.98706054688
46,38478.58,43785.164,68112.71,9393.191,-2644.729,6580.779,34127.48828125
47,76314.836,75342.96,76139.445,455.96817,569.1883,-731.08466,2000.986328125
48,57069.83,55030.74,54615.117,625.8915,3009.9585,7040.9272,13500.25390625
49,-22323.963,-21163.906,-8279.92,1976.1481,-5037.3535,2441.2876,16970.826171875
50,32326.572,32674.36,33483.938,180.16441,-601.9157,-766.2808,2000.94409179688
51,-23262.248,-32424.361,-14374.847,-6329.238,-7502.527,6640.597,25801.0
52,12439.464,13753.525,13637.193,884.6473,-147.51974,32.21343,2000.90612792969
53,30291.969,5308.866,27415.076,-9934.79,5625.6504,-14646.522,39939.50390625
54,41961.45,4449.7256,19695.324,-5359.5034,1125.8179,-8944.836,37385.484375
55,20298.473,-1390.3627,-14557.785,1877.2968,-5618.044,-6804.075,34256.6640625
56,884.3915,9522.345,10954.385,1781.4475,4470.3105,8592.261,19493.265625
57,17694.43,20558.838,32581.13,-4405.965,-6257.2275,-2813.0786,19662.4921875
58,-5493.623,1405.4149,20456.734,7760.647,7542.319,-13796.471,38266.90234375
59,-6331.231,-3416.3677,-12889.908,-8775.226,-8955.054,-16615.562,37019.640625
60,-3163.5315,5313.109,-34310.895,4749.6987,5983.2837,-2115.124,38659.2265625
61,-33323.426,-1964.195,-27104.262,9827.168,7813.2905,-5248.558,37182.73046875
62,14219.2295,8350.905,-12301.716,12818.318,-2474.6172,6381.6763,34866.0390625
63,68375.914,69071.6,67762.875,924.7202,70.6292,-213.98477,2000.98425292969
64,44679.37,44777.957,45955.64,-261.1936,-474.09045,-733.08276,2000.98559570313
65,-20550.695,-21887.23,-28643.012,6766.4873,844.8352,1681.8652,14298.236328125
66,20830.543,13008.722,50224.613,-3184.4338,-2881.7554,9008.056,38129.75
67,-13287.05,-11076.881,16994.701,-2613.928,9420.341,4827.718,34807.87890625
68,2501.9485,11672.638,-24387.865,-5223.5977,5893.177,-3827.5894,35829.59375
69,-5562.697,7399.6587,21277.71,4190.7734,14072.268,11345.315,39666.58203125
70,-26382.951,-33368.957,4766.384,3327.799,-396.86078,8462.597,38538.76953125
71,38256.71,15998.411,10395.199,6806.607,-16104.415,2033.891,39761.8203125
72,-26269.148,-36090.418,-26148.328,18808.965,-7115.25,4666.5645,37097.18359375
73,56165.027,28670.096,34823.926,-7525.5146,-12555.2295,-6963.292,37588.63671875
74,-28354.72,-56660.51,-33975.637,3880.1233,-11571.983,3584.6604,34046.37890625
75,-42401.414,-56887.754,-75882.984,7024.895,2037.5648,-9340.321,35609.9921875
76,-15100.864,-20893.512,-5716.267,-17877.105,7568.847,-2724.2908,36453.91015625
77,-29619.996,-42985.24,-14862.926,-697.15466,428.2636,3378.7195,25097.572265625
78,43860.367,42869.38,43712.258,-928.0214,-163.52956,401.1276,2000.95642089844
79,53100.973,53007.65,52636.53,-838.21484,-750.06195,95.35431,2000.98486328125
80,108780.51,108424.45,107787.7,-1020.4115,103.04757,-172.65198,2000.98596191406
81,-12214.467,-8615.793,-36955.258,-6338.1094,-15156.433,-1551.6989,39127.76171875
82,3536.3923,-2870.0547,19696.176,1760.6108,-2345.6106,-5644.319,22958.39453125
83,-976.5845,-11234.217,-7556.6025,-2162.1685,191.3013,150.52072,9758.2236328125
84,-9228.26,-12183.098,-6726.353,474.68057,17412.371,-9119.955,34382.4375
85,2301.0176,-11684.097,-6549.001,-12071.238,6139.593,-3450.61,27130.90625
86,-20597.379,433.65955,-6251.93,-15531.613,-5294.741,-6376.3325,35723.45703125
87,3433.3213,-25922.322,-18353.98,-7137.526,922.0767,-10462.188,34360.08984375
88,16180.087,23303.5,10270.019,-10607.704,1056.6233,-1029.4928,21722.587890625
89,9707.856,-12212.314,-19323.533,-13128.554,-10318.853,-2007.5436,39186.04296875
90,22662.408,-2016.0934,13344.365,-4954.301,-3701.5667,-4686.6797,25427.03515625
91,-16091.64,8122.035,15896.603,-5081.57,4007.4836,3646.6355,31631.2734375
92,-593.741,-4760.8813,-24766.338,-1127.0736,-4328.3823,-1765.834,23881.353515625
93,-5750.9395,12579.204,29599.36,1416.6973,-4399.56,-2827.3965,32027.078125
94,-8074.8735,13379.552,16761.309,5055.7993,-7234.3057,4811.58,29110.56640625
95,-10016.949,658.1572,-7365.0483,8938.917,-2720.8289,1724.5133,19066.31640625
96,-17223.656,-5297.031,13831.922,-1351.6759,-663.8472,-6124.403,29251.208984375
97,3485.2908,508.35565,559.606,1021.046,181.02606,-264.7687,3485.458984375
98,-5125.366,-8549.416,-18651.418,7038.375,-4648.9375,-3025.6482,19730.23046875
99,16460.303,19188.453,-4600.258,94.180214,-3564.6943,-1649.1506,23553.201171875
100,1483.808,-20029.129,-25856.195,10758.529,-9798.817,8678.948,38514.66015625
101,101911.8,108836.46,107157.58,10994.937,-936.70496,2664.3232,20633.41796875
102,14232.322,25569.512,41020.53,9367.875,-11608.279,-1824.8322,34927.8515625
103,24144.027,24767.03,-1218.4424,-9632.551,-6277.0737,12265.365,38824.27734375
104,-16665.94,7738.1597,7501.2314,-4658.196,3043.1338,-5071.8384,27565.978515625
105,-1329.6365,14405.277,-18511.31,7655.8237,-7486.4175,7361.8184,36327.85546875
106,-5469.99,-23343.51,-44329.582,263.41046,-9044.092,3311.4756,37596.08203125
107,-17810.688,8541.197,22505.453,-2468.0862,4936.199,-1618.1848,36832.5234375
108,-15413.447,87.30701,9743.962,8951.907,422.35858,-2720.7058,27319.619140625
109,-2064.108,-3907.371,3561.6887,2706.6602,-4153.7515,1175.9377,11104.255859375
110,-253.67383,-14508.174,-1277.7368,-3334.066,-4413.2,-3959.2922,18123.10546875
111,4486.231,7298.985,8852.354,216.00656,-3467.5352,962.9001,7327.1201171875
112,-12341.103,-21867.096,-20507.668,-150.192,13522.487,4525.8994,26262.80078125
113,39946.695,23343.127,12008.304,5391.7856,3067.5518,13603.314,35538.0
114,-35425.09,-9585.819,-29496.361,15475.854,-745.4636,7753.147,38080.5859375
115,-237617.73,-241542.8,-244158.45,-11684.867,5381.2524,5093.223,24633.69921875
116,-7887.0493,-12507.692,-37957.48,-4574.8228,-9729.65,2622.6833,33971.4140625
117,-2734.8103,2784.926,-6388.1963,6372.1445,-19727.73,-2033.3451,36956.01171875
118,-24634.717,-18307.521,-15985.959,-12288.644,-16768.04,1198.5308,36891.125
119,-75173.66,-75408.26,-64866.594,-9308.313,-19730.758,2802.0652,39498.17578125
120,24149.486,29964.172,18327.676,1514.2397,-13900.733,6754.945,28723.0546875
121,170860.45,172386.53,174672.72,-1940.9436,-4885.323,-8204.04,17200.705078125
122,85188.18,84863.07,85803.76,189.29138,192.18373,1016.40955,2000.58129882813
123,178976.4,177883.48,178500.16,362.72226,322.5132,-893.76056,2000.98937988281
124,-43009.727,-19918.594,-2723.295,6751.1616,70.97921,3830.2317,37505.9921875
125,-13068.422,3272.2478,-175.90161,-4926.903,521.0772,6402.7876,20474.0546875
126,-2104.276,4105.2305,-10542.763,-1167.0258,-3477.0337,-7106.743,18815.880859375
127,-9722.78,13153.9795,30791.746,-3028.203,2199.2102,7837.093,38265.01953125
128,-6788.26,-27782.234,-3060.6484,-5575.9272,-17847.232,-562.5283,39783.07421875
129,266471.97,266444.0,264887.72,615.1699,299.46698,210.72897,2000.97082519531
130,2023.656,6917.731,5771.63,3364.1018,-4081.5833,6698.489,15433.5732421875
131,2312.0105,15199.717,-2346.6943,-17910.162,-8696.685,-4715.29,38778.3046875
132,6671.716,2136.1758,21689.867,-596.6836,10275.959,-18038.97,40103.6015625
133,6530.527,3411.4907,24022.496,6354.492,-14383.154,9606.943,37267.94140625
134,11105.367,-5810.384,28254.398,-1908.0173,-3872.696,-5381.859,31829.68359375
135,22989.633,-12417.693,11076.518,-4704.01,6137.899,6411.6494,35728.4453125
136,12218.754,-8730.216,26720.11,-818.9112,-5008.989,1474.987,32198.533203125
137,-14487.888,-10709.303,-17715.084,-15292.125,2247.7825,9611.442,32105.0
138,18433.08,-4258.877,27853.977,-7156.853,8560.522,-1560.0599,34615.99609375
139,30692.31,32401.396,30982.695,236.04588,-664.5861,-24.162909,2000.7333984375
140,-8280.015,-15593.449,-7809.8467,595.611,9018.068,-16611.674,33615.91796875
141,526383.4,524876.0,526602.25,-624.3695,177.30553,-173.21068,2000.96020507813
142,424984.47,426515.88,426375.3,305.70084,340.54904,639.2445,2000.97106933594
143,-16573.273,-32054.307,8044.2075,914.97473,-549.94257,3406.8555,35567.19921875
144,5781.8633,-5027.26,-6242.2476,-16651.615,-884.85425,-6231.4526,32895.546875
145,-696.3587,-20665.691,-34681.887,-6641.521,2382.1467,3024.929,32433.40625
146,-14676.8955,-19653.334,-45440.82,-10177.981,10545.054,-2748.7827,38537.3203125
147,-19552.814,23177.855,9751.028,712.26587,6046.528,-902.3848,39320.46484375
148,54047.543,30349.086,65045.027,4292.588,-743.69037,-2935.6423,32030.876953125
149,38344.305,13869.181,17057.197,-3845.8196,-1772.889,6192.7075,26457.83984375
150,29824.588,-406.24963,-4490.952,-9778.5,-48.48258,1731.3103,36741.37890625
151,-3145.836,-4148.7324,-24890.818,-6986.6357,-12065.593,-3786.9917,32836.578125
152,-6414.589,18712.945,4847.08,-9024.256,3447.222,-13291.198,35849.26171875
153,-129627.914,-150726.67,-120393.18,-8728.763,1102.2476,1156.128,31008.19140625
154,97724.0,82794.65,96649.8,7170.9287,-707.294,6865.2695,22475.888671875
155,3751.4656,-18944.584,-29538.883,-1576.2134,317.78525,-3011.639,30046.04296875
156,253.31743,-1853.5725,-5608.1045,-6180.659,-6626.5703,-15518.561,31547.7265625
157,13099.189,-5628.0557,-21132.87,-2621.8357,2813.681,12988.245,37840.81640625
158,-1364.7393,6318.1274,37869.934,4341.292,1148.8033,4892.867,37805.703125
159,-18819.781,-1627.4758,21777.107,-4643.7754,-4360.2495,-881.4277,37010.65625
160,-8108.343,-11349.666,-16125.373,5747.849,3285.296,-3806.9058,14958.728515625
161,13008.816,-9699.037,-3487.3008,5727.454,-8853.462,5558.5273,28972.94140625
162,-12171.482,-8477.686,-6622.5146,-176.85915,1617.8546,5249.9966,10703.8310546875
163,-8889.238,-7129.5283,-11117.789,-12561.463,-5277.2466,884.0319,23900.80078125
164,-4099.495,-15622.325,-46569.062,2435.1597,1282.5643,5373.8965,39451.6328125
165,10339.446,-13879.258,28633.234,-2928.6306,-2358.252,-5257.36,38595.26171875
166,-1263.421,-28416.232,-13289.462,-3343.0227,-3135.2732,7824.0957,28320.07421875
167,-1811.1494,-13109.052,-7654.186,-1889.4923,-6064.3174,912.65906,14809.01171875
168,64840.902,37410.645,55637.383,5246.834,918.7838,180.91478,25882.18359375
169,-35414.08,-26802.205,-60771.098,-12043.956,-2177.9575,8085.718,39762.44140625
170,19937.373,2061.3928,31625.453,-4773.969,-8169.717,12497.449,37446.78515625
171,1650.3286,-391.3579,179.57372,-1949.306,4918.2197,5863.8955,13800.3857421875
172,-18396.656,-20837.59,-12800.975,5135.2,4683.216,-3573.6462,15301.951171875
173,741.00134,-10321.62,-136.17224,-4221.7563,4672.927,694.08606,15292.837890625
174,-637220.06,-628280.25,-632196.6,-1103.1882,9970.43,5975.509,21662.08984375
175,11265.289,-17398.25,-12521.015,3156.7896,5875.3467,2030.0408,29178.8515625
176,269948.2,287155.4,285379.28,5375.668,-282.21494,-3939.2766,20054.099609375
177,57262.973,15562.63,31683.41,-7372.882,-1792.4788,4785.027,39597.51171875
178,377938.84,371402.94,370863.66,11357.853,7917.857,4088.1025,25918.162109375
179,-3010.4844,-17502.914,-18196.297,-19127.467,-5242.7695,7680.166,39718.4453125
180,-3395.0557,-36758.63,-12939.916,2690.6338,5041.2993,13699.337,39328.8671875
181,1463.4033,-25256.924,-19933.479,-8209.857,-1250.081,-9133.967,32515.416015625
182,15506.15,-10122.518,28178.988,-7995.611,8635.383,3609.0256,39959.875
183,5116.98,17619.637,-20332.057,153.58351,-3500.2214,352.2479,34049.203125
184,-5339.4116,24830.498,16221.891,-57.94851,9816.143,-9094.898,35522.41796875
185,4081.658,3958.5762,5425.187,8175.4785,4105.754,3582.3894,17075.51171875
186,-8616.438,16851.41,16874.35,-3949.1877,-4110.3145,2730.4863,27731.478515625
187,-22619.139,-20994.951,-44562.688,-8033.5503,-2983.2512,15530.121,38257.875
188,-63676.266,-62415.336,-93728.516,-3555.2139,2118.7063,5911.743,33148.953125
189,8302.102,29009.24,52057.1,6951.757,637.309,3039.7188,40139.3046875
190,3526.072,17851.959,2678.807,15134.603,799.76495,-1460.4514,30225.3671875
191,264326.9,263751.56,263990.44,318.19098,-436.4852,979.45245,2000.98034667969
192,-9937.3125,1460.5332,-18853.885,-17941.771,2210.3467,-6172.1646,37492.8125
193,17040.314,-3592.4802,-5976.0146,-16567.604,-7793.4834,5116.0684,39557.12890625
194,-13255.583,-27483.63,-27823.803,-1645.3345,5306.37,-822.1052,17378.5703125
195,-22356.855,-14274.436,-18668.238,3276.478,9959.481,2571.602,19968.4140625
196,-15119.643,-16493.355,-18152.875,-13223.92,2397.7776,2003.3927,23681.759765625
197,-16142.039,-9169.327,12262.434,2707.1907,1429.3241,-3247.3223,26779.236328125
198,19127.756,-6457.6494,-3231.2583,-922.97986,8509.1455,-4030.379,29171.53125
199,1035.5686,4191.121,-12488.198,3881.125,5470.346,-3485.9478,20172.84375
200,-24549.455,-13937.878,2934.2705,-2520.2273,1541.8916,-513.8632,24562.046875
201,-7641.711,-167.7456,11950.754,-8031.9053,-78.762566,-2357.07,22439.0703125
202,-22131.309,-425.15674,-3212.7603,-3532.0823,3975.7808,634.4262,22460.5078125
203,-11253.68,-6716.541,-5013.4746,190.39473,-4047.7131,-7295.617,15496.8349609375
204,-17939.393,-4152.2754,-7718.992,3730.5527,1663.6431,-255.41458,14278.6982421875
205,-6140.456,352.63293,10428.491,3554.2002,-5334.3174,7486.674,22372.287109375
206,-5050.617,2833.1958,1571.8192,1651.8251,1066.0297,-607.0593,8154.84619140625
207,-6246.832,-17754.994,-1887.3706,5378.6816,1850.5239,2311.71,17740.013671875
208,-1110.974,-890.6908,-5520.135,222.35573,4109.724,789.65686,8552.7177734375
209,6843.895,3786.4277,9690.452,-5278.8687,1722.3265,1135.169,11068.814453125
210,-9383.881,-1479.5063,-12370.769,-7293.758,-90.31946,750.3268,16010.0048828125
211,5109.782,-15692.195,118.156006,-1640.7257,-833.7012,243.8952,19082.517578125
212,-3809.6895,2698.7544,2639.2505,-9537.091,3404.8918,-256.43213,18703.517578125
213,-4016.1824,-856.9165,-2264.5833,-13436.637,328.27887,3708.791,24305.01171875
214,-29213.783,-20831.533,-50773.742,-3790.2668,6113.8794,-3657.5903,30185.853515625
215,-49544.53,-48441.906,-78471.88,-2848.3723,934.31995,5960.508,31677.19921875
216,-56667.43,-46351.805,-86037.875,-2766.1606,4012.789,2969.4292,37009.7890625
217,-1838.5643,-8253.64,-6679.891,5080.8135,4339.116,11644.789,23963.83203125
218,-16744.121,-17597.2,-18388.229,-9746.624,1482.6334,3300.8235,18063.755859375
219,7614.0605,-18466.889,633.03,-14017.346,4062.5342,6191.509,36067.34765625
220,-7875.326,-10039.064,22927.51,710.0857,-5858.259,862.76544,33568.57421875
221,6691.1577,-12941.128,13737.511,-7243.23,-3790.525,-558.0352,27836.044921875
222,2085.5015,-13047.841,-18532.947,-9021.634,8177.729,-8654.534,31805.828125
223,6316.595,-5258.6826,9292.52,-5690.82,-9516.827,656.03265,23397.6015625
224,-2319.1787,-17015.65,-5551.4004,-4867.6987,1785.8676,2360.4336,16622.203125
225,1494.1843,6935.783,25713.455,-5497.111,-2730.457,688.5765,24471.12109375
226,3979.966,-1082.3495,6603.265,-9161.213,5216.08,-559.1996,19496.994140625
227,26344.78,28053.936,19498.42,-16930.043,-58.05508,835.91504,30388.828125
228,-8065.5205,1672.0588,12998.055,-7741.972,-5345.868,-1589.4814,24627.52734375
229,-26202.041,-3409.6067,-29522.678,-3825.9192,2965.1838,-16551.73,38708.8671875
230,-8384.341,8247.516,20398.06,4093.2517,5136.7163,6821.2227,29922.392578125
231,23242.426,6423.3296,26209.977,-11336.939,12461.86,-3569.8694,35089.9453125
232,-4143.216,-5998.057,-16556.084,-2001.6104,-3793.9048,6442.5737,17726.154296875
233,-743.06305,11083.532,30196.367,-7934.788,-230.77701,-2540.415,30653.091796875
234,12951.819,27926.42,27608.236,13187.183,5772.304,10513.615,34246.859375
235,9522.224,2151.7507,16684.504,2330.5479,-371.94296,-47.783993,13233.5849609375
236,111399.86,111827.56,110218.44,618.48346,351.80832,364.3425,2000.27355957031
237,86127.95,70428.54,102182.875,-826.3463,2850.8552,-5077.327,29326.66796875
238,-648212.4,-648151.94,-649162.25,594.2131,1215.637,-5947.969,10610.8876953125
239,13678.407,12087.409,12442.858,-697.6019,-216.84827,321.8842,2000.98559570313
240,-83085.62,-75579.74,-88595.52,7050.3164,838.891,350.7554,16722.890625
241,49207.016,29406.375,45468.39,-8465.801,2976.981,-2949.2622,24488.90625
242,-17646.518,13370.863,-15957.45,-11175.655,736.3876,-7042.377,37916.19921875
243,-9727.282,2911.4573,-17291.146,-15337.209,11283.806,-4560.344,38243.9609375
244,-19187.385,10532.328,-21430.484,-11473.794,6718.231,-4873.7417,39453.32421875
245,-7490.337,8867.031,30733.412,1739.117,8545.223,-6235.7666,38054.81640625
246,25902.105,13576.072,43946.25,3559.7979,13117.583,-2069.2249,35595.07421875
247,-8914.8545,12674.53,7299.6704,-11605.664,3879.1353,14584.894,38292.62890625
248,-4565.0845,14108.587,5038.044,-12241.863,13248.968,-1270.1775,35251.03515625
249,-7770.4277,7735.5317,-3798.288,-9571.016,16697.53,-4454.7637,36951.19921875
250,148942.31,135889.31,167899.03,-10512.387,1544.7979,5488.704,34731.078125
251,-14030.529,-45800.47,-9554.774,262.3832,7093.6436,-4234.0405,37101.25390625
252,-61664.15,-57653.46,-77921.8,1814.539,11796.271,1886.0093,27992.9609375
253,161760.86,161094.75,160559.08,-646.884,-2049.1057,-9750.77,17325.46875
254,350521.47,329514.84,343002.0,5853.754,-9882.265,-7238.7886,29880.412109375
255,77006.36,76752.24,77682.58,-47.947315,1008.7608,289.00235,2000.98608398438
256,62320.85,61183.7,61906.59,-549.26886,821.5721,-163.56892,2000.98596191406
257,-268203.56,-268273.2,-246854.64,-2786.6885,8296.263,6997.6587,28878.197265625
258,176103.67,174337.1,175071.66,270.8327,-15.210863,-688.1084,2000.98547363281
259,371895.0,373538.88,373860.97,312.71576,-339.113,-60.071266,1996.18225097656
260,-21833050.0,-21832598.0,-21831666.0,417.56445,-454.46338,675.94037,2001.89147949219
261,190978.34,192201.2,191396.12,-46.77958,201.42001,-783.31903,1768.63781738281
262,124002.24,124541.02,122480.055,-64.07565,-209.95444,-379.43414,2000.98388671875
263,-169783.84,-165387.16,-162937.83,-2045.6755,8496.425,8908.099,22433.986328125
264,8081.822,18927.408,12667.386,9523.745,3591.1064,-6505.588,22949.560546875
265,99631.46,103788.016,124925.016,10240.318,3063.9875,2981.7424,30353.51171875
266,72818.32,74403.15,66338.49,700.2758,6442.5283,-8059.026,19380.470703125
267,19852.145,19901.244,20809.15,-155.02994,951.4771,338.93542,2000.98559570313
268,71146.06,41932.65,73658.95,5566.418,4056.7478,2587.8572,33099.3359375
269,31960.695,49694.883,54256.773,7734.442,499.7243,-14453.207,34973.03515625
270,69251.19,45697.55,31346.795,-7469.9277,2675.3374,-9157.076,39232.109375
271,28995.807,-8520.408,5237.3545,11834.921,5425.324,-1453.9572,39943.00390625
272,-8211.012,-24224.223,7724.7734,16136.41,-2597.225,134.28084,39585.31640625
273,22118.35,22076.283,33915.043,866.9248,-5345.3345,352.15863,15099.818359375
274,-21313.023,7066.4873,-14905.843,818.8639,9457.355,3807.1304,31279.947265625
275,-7115.712,-12943.095,-30128.938,-372.74182,11920.028,-5736.915,30901.046875
276,-15080.454,6627.9883,-1012.4287,-10608.256,686.4156,5837.5425,28372.880859375
277,-2858.6934,918.2607,7657.0894,-16475.31,7021.2017,-7887.264,35127.70703125
278,12166.467,2235.9375,27478.332,-14714.669,-5908.965,-3565.1926,35743.07421875
279,-11478.48,-2561.733,3599.8977,1663.092,-2052.366,1846.4739,14268.0908203125
280,15178.054,41291.3,36319.375,-8856.405,-9721.11,-4349.3965,33946.25390625
281,-35458.992,-24888.656,-4406.6494,14752.612,7434.052,-481.24988,39587.3125
282,20926.322,22964.13,15547.966,10161.423,-1369.8359,-5655.7656,21339.994140625
283,-1474573.1,-1470030.0,-1485138.0,-2735.8513,-4197.276,5215.7373,18362.240234375
284,33145.297,49350.24,60492.55,-16454.793,-1958.5916,-1373.123,37373.21484375
285,9087.833,928.08496,13472.832,-10669.132,953.8974,-1828.0596,21813.67578125
286,5683.747,4495.08,-5553.7754,-9292.355,-670.18365,2387.5317,19794.673828125
287,-11237.479,-6361.4326,20086.883,-9251.619,141.21631,-3204.233,33762.2734375
288,-3325.1694,6436.3906,-29120.348,-2627.7676,-7046.163,-6605.8105,36236.05078125
289,-4095.6719,-4659.643,2661.5547,-10409.503,-3644.3677,2125.6418,20694.482421875
290,-38430.34,-11990.033,-37187.13,13304.1875,-6313.2905,-6374.534,37950.5703125
291,-12573.492,-14126.78,7469.198,690.3073,1556.1165,1977.4565,21346.646484375
292,-15525.717,-15158.92,-19854.266,-3855.2356,1909.7048,3270.8132,10396.28125
293,-9916.7295,1432.0645,-4447.725,-2374.1152,-1211.8965,-2519.5679,11704.6376953125
294,-11165.382,-8428.917,-3790.9446,824.9995,-4767.141,578.43555,10626.0625
295,47376.242,33529.89,35483.93,-7547.0537,5313.5337,-11512.748,28665.111328125
296,-19782.684,5854.432,-18444.957,-2231.131,-3457.1833,-15883.587,37847.20703125
297,64626.676,59432.004,56440.523,-7827.48,8808.344,17040.111,36594.2421875
298,-18564.238,-33419.934,-6309.429,13134.411,10620.159,-823.3084,37561.42578125
299,-25754.059,-29340.754,-60922.5,-9550.366,7672.219,1833.0664,39797.5234375
300,-6625.549,-14505.738,-24257.31,-8958.183,2191.4827,-2180.7737,22437.84765625
301,-9791.909,-29495.588,-32736.21,-804.5055,-9656.623,5296.3955,28782.58203125
302,-17054.793,-6532.4385,-33147.05,-14528.093,1488.6237,2283.8274,34561.5546875
303,-5901.079,858.46094,-7842.1006,8098.5513,4501.1265,3010.7798,18636.35546875
304,18873.842,25052.664,29235.55,190.97742,-7829.367,-4502.7485,18065.16796875
305,-37142.64,-49303.312,-57350.402,14991.429,-8926.537,-9216.407,38452.5703125
306,-917.52423,-25713.635,-30410.71,-1402.8925,-2444.8008,-10635.494,33414.8984375
307,12570.543,12246.355,23618.146,3405.4482,3943.5256,-4780.2144,16605.20703125
308,-15317.63,-3187.0273,20606.582,-10121.647,-2117.1472,8543.726,39264.4140625
309,289951.75,290095.25,291170.62,117.74406,930.80707,-89.80647,1999.08288574219
310,-65.06095,28137.4,-2313.6335,-13008.474,6628.7783,4597.525,39582.1328125
311,-156639.9,-156392.53,-155957.7,86.65738,-721.9118,-827.2899,1999.26477050781
312,35230.965,36177.652,34529.285,-724.8619,207.43607,-283.16693,1999.68920898438
313,25636.996,25786.264,25767.672,-297.27777,-1026.1873,-431.7789,2000.86315917969
314,143152.17,144257.6,143381.55,7.64367,980.3087,175.60603,1999.17932128906
315,11507.202,-15506.341,-10575.347,-12191.638,1335.5571,2406.7185,33007.25
316,-8031.83,2208.34,9910.108,-19680.838,318.9309,-2052.5042,37656.28125
317,-8830.948,8400.541,19095.562,-13462.076,-675.0249,-1774.3385,33913.0234375
318,-6925.577,5114.893,30173.633,-5595.085,5768.0225,-6780.1753,37500.265625
319,-2455.7876,-4272.5444,12199.09,453.74042,8381.432,-3719.9895,22306.236328125
320,-7904.586,6786.228,16444.21,-5026.623,4160.515,-3333.4502,24739.572265625
321,-4996.5566,-9924.52,3680.186,4225.6616,-678.9122,2858.023,14892.46875
322,-15527.269,-13070.796,-13559.128,-9554.116,2887.697,983.1153,17516.634765625
323,-7857.361,10884.361,3640.296,-10100.12,3195.0112,5393.2915,26303.73828125
324,-17599.744,-7697.9663,-12649.016,-7684.785,12413.198,-2259.4807,26986.66015625
325,-55364.9,-49505.26,-85965.49,591.6483,3639.9902,5537.343,35816.55078125
326,-37543.348,-29160.324,-52281.992,-6396.875,15546.382,1845.9718,35624.5703125
327,-15479.702,-6706.805,-16430.31,-229.50047,711.3799,3209.231,10898.654296875
328,-7440.761,-23823.713,-5705.341,-5358.819,3069.9675,-2092.4177,20673.744140625
329,-12735.666,-11675.684,-23673.523,16231.959,5397.067,4920.047,32905.76171875
330,2846.0535,19473.324,-20230.322,-7036.6255,2451.3623,3933.4998,37492.2578125
331,58143.562,30874.441,65475.324,2286.1877,5664.19,-314.56998,33309.40625
332,16494.344,2358.9988,43602.566,2479.49,4768.5566,-3495.3494,37962.62890625
333,-45911.406,-23970.049,-25758.729,-11543.807,-7212.339,-2410.0562,31916.0390625
334,-40220.47,-3490.549,-11808.16,-285.29465,4693.4224,-8230.367,37179.4296875
335,4352.177,4410.6562,5458.497,-824.75323,475.37393,202.22128,2000.9853515625
336,23634.344,22849.295,22175.592,733.40234,-511.95477,38.355698,2000.8525390625
337,152932.84,151826.6,152911.16,-112.22033,445.91754,850.3631,2000.98168945313
338,266647.8,301869.34,289997.25,-467.44498,2543.5034,-2900.7393,31759.34765625
339,14623.803,15528.571,16348.552,597.91016,306.82233,-372.45468,2000.98571777344
340,20459.576,2922.0444,-5243.723,-15501.168,4625.582,8418.222,38924.26171875
341,-9442.525,-11100.6455,-35514.945,-13810.586,5694.9834,-7756.24,38590.9609375
342,14108.141,13455.828,1595.9946,2596.212,-3057.7615,-14.478396,14038.8310546875
343,28045.197,12296.332,12193.496,-13830.217,6192.8613,-13448.299,38485.14453125
344,34513.53,14949.46,19063.516,-18242.578,-4271.895,-4439.5107,37834.3828125
345,-13910.547,-18076.041,-32582.533,644.26434,7174.522,2643.372,21560.267578125
346,605.4927,-5724.7437,-6622.8296,-4911.322,297.78894,-1361.0898,11169.177734375
347,-16534.936,-12862.076,9068.496,14165.981,-1888.0656,-3095.0952,34877.58984375
348,-125181.54,-117387.54,-130174.88,-6364.2314,18140.5,-4635.601,36025.1015625
349,32972.594,18081.367,42791.62,11309.259,-7409.1455,-2200.726,32051.4140625
350,-3646.978,-6296.819,-6112.8765,-603.3935,-19701.371,-314.06766,34240.15625
351,-6413.418,2633.2056,-5986.334,-12221.733,-347.2371,5678.5293,24967.404296875
352,-1468.114,-6905.0205,-5734.3745,-16628.291,-7484.4263,-8214.385,34993.48828125
353,-44700.867,-44922.195,-70713.59,-1986.9841,2379.4583,4997.473,27833.5703125
354,-2459.3105,23002.807,9916.414,-12845.383,-2546.8765,-1693.3021,31771.66796875
355,-2460.2627,7413.82,-6157.977,13854.802,5627.5737,-1620.319,28747.76171875
356,25906.865,-3833.2793,13378.344,-15086.46,-1795.6349,8787.864,39912.359375
357,12456.356,5081.9536,14752.071,-15412.017,-1790.6163,15273.23,38711.83203125
358,29076.172,106.89844,8746.682,-12430.123,-445.5066,2152.4006,33787.484375
359,23909.305,1151.2451,18477.45,-14769.8125,-6674.233,-7892.9155,37400.37890625
360,20735.516,-2793.8394,-11732.073,-13562.815,-1131.8441,909.54144,37443.40234375
361,-7095.7285,-4950.2046,-4263.355,-1793.0068,502.05524,-2563.89,6055.58251953125
362,2642.2458,4070.4443,-1830.494,2496.6396,-325.67606,816.0087,7031.96630859375
363,40356.977,22769.56,1909.092,3499.6873,-11529.55,-287.45963,39333.71484375
364,-7031.858,427.68042,-5092.238,2520.609,181.74171,53.135464,8006.630859375
365,-124654.83,-131798.55,-125097.39,-1140.5364,9029.777,-6580.246,20651.37109375
366,801.06195,1606.31,2212.061,-5401.9688,-32.964516,-1648.8009,9859.3017578125
367,7676.1133,9345.181,10479.892,3007.573,1424.7632,-806.90765,6414.5849609375
368,-5854.89,-13370.133,-6509.0425,-1578.6442,2240.3372,-367.08334,8656.130859375
369,-7946.0444,-7127.569,-2330.3167,-2518.895,1041.7722,1385.0923,7460.27978515625
370,-9069.008,-2115.0232,-569.44824,1093.0822,-3395.8455,-2108.2617,10630.5556640625
371,-1480.5474,-2419.8186,5417.6553,4510.3765,3911.307,1990.2875,13181.650390625
372,-1442.7395,-1060.8792,771.11804,-2085.7134,3869.8955,4184.2905,10710.0576171875
373,-46879.727,-46129.7,-56655.957,-76.02906,-9219.8955,-13133.286,29596.5546875
374,5833.91,-3561.206,728.0837,541.3372,231.03592,-296.89456,8226.271484375
375,4552.328,-3468.7588,1337.3486,100.80834,418.95828,-43.91375,7032.0087890625
376,-3066.0288,5438.547,1890.6893,421.53464,1059.6187,-1467.3153,8068.61669921875
377,50443.168,40476.727,73622.79,-7994.6255,6085.849,-370.45508,34218.5546875
378,23126.656,45047.184,63296.27,8214.68,-123.096825,-4.7393937,37630.52734375
379,-52074.09,-51237.676,-60500.293,-233.19128,-11083.281,-14969.097,33461.17578125
380,6704.5903,4139.138,4415.7905,2873.6272,244.40733,-545.9435,5638.69775390625
381,-42097.68,-62338.016,-69444.555,14073.923,-10741.292,566.761,39310.66796875
382,41588.543,4778.0273,43796.23,-3532.9287,-2197.298,3219.0378,39040.6171875
383,17798.04,12470.564,48849.2,-564.88165,-3300.531,-7755.519,37041.3671875
384,-5887.8687,-4104.4507,8994.518,-1364.2554,4420.142,1573.1924,16423.94140625
385,-3959.8672,902.9761,-9631.295,-15213.958,-2106.0063,-75.23601,28126.640625
386,4749.356,713.21875,9354.476,4006.5574,-2874.4878,636.07837,11412.4384765625
387,-4486.5547,-1768.979,-633.45044,2002.2622,-74.31821,-273.79166,4901.953125
388,137.7503,1745.1044,-4082.6572,1815.6277,939.7135,-1167.911,6618.9013671875
389,-1734.2856,-1008.1529,4130.8657,-2204.6646,-193.10127,-1728.677,7370.67626953125
390,-4313.283,-6103.9053,-11780.043,-5367.201,-1356.534,1295.5978,11940.0791015625
391,-34960.855,-34547.04,-54052.3,-2128.3423,2716.3086,5928.2993,22665.25
392,1158.0657,3321.7305,5922.1875,-3496.5823,83.62738,1284.0022,7662.6083984375
393,11705.954,4194.6914,595.03906,761.3575,129.1713,403.71548,9934.41015625
394,-960.105,2237.623,11475.902,1748.7583,1142.8217,1329.67,11979.5419921875
395,-1653.6692,1564.7815,2475.2395,2058.1936,-2571.6855,1889.3623,7574.6865234375
396,-5239.438,-5074.8237,2605.204,-2715.5542,-1.9222883,-24.033306,9077.3681640625
397,-10238.26,-5429.016,-2405.4712,-5464.866,-1539.9178,726.2734,12045.84375
398,-6955.9385,-8301.26,-2594.705,998.3732,-1343.4471,-2712.506,7561.43994140625
399,-8645.617,-3596.2795,1570.8386,102.258995,-1645.9728,1409.0853,9612.546875
400,-54827.766,-17929.52,-40470.44,8773.838,-9478.6,-4947.0024,40146.53125
401,-16010.044,-9079.451,-16764.479,2409.596,6082.4653,-2255.99,14053.720703125
402,-21979.035,-7106.42,-50168.28,1404.1426,-3415.395,350.7157,38423.36328125
403,29616.459,51127.836,71251.766,7588.9053,4619.041,4650.08,40028.19140625
404,31441.43,6762.3433,-5897.96,8461.494,-1941.3378,2494.7903,36421.890625
405,-26831.992,-47482.164,-68597.4,-6712.1826,4320.735,-2127.019,38898.0078125
406,-2190.4739,-2238.0566,295.43628,-445.07996,2943.882,2574.211,7264.5439453125
407,5629.3794,3310.9268,433.17773,1821.722,1134.6938,-2944.303,7755.89794921875
408,-8235.59,-6111.085,-123.930176,-785.322,-6062.329,-6625.6895,17230.330078125
409,-13809.554,-17292.178,-19086.03,-2438.3455,2369.327,-1384.1193,7875.21142578125
410,-4383.3,-3045.8572,-802.06604,71.66146,-498.65424,-2441.9585,5336.21142578125
411,-24295.275,-24679.422,-43064.918,-1760.4445,1331.6001,4592.209,20569.853515625
412,-6649.684,-2548.4548,-290.24707,238.43066,-1916.4131,60.721603,6510.033203125
413,5716.06,-1320.1394,-160.67822,2199.3508,-131.05708,902.016,7726.455078125
414,-20896.15,-28714.572,-37689.1,10604.454,5767.821,12977.058,33973.74609375
415,-10690.9795,-9111.508,-5155.386,3321.8652,2874.676,918.09216,9209.6982421875
416,-153517.97,-153603.6,-153478.94,-387.60837,182.00153,1071.0542,2000.94055175781
417,-7955.8594,-6086.415,-11445.843,904.30304,-4000.3562,-1159.9781,8757.7177734375
418,-11163.548,-9123.466,-15807.4,1740.2015,-394.61978,-6053.6523,12437.578125
419,13862.408,8714.501,12850.083,213.76729,-2789.5405,-2467.808,8004.14453125
420,5477.171,-5081.4976,-571.9223,610.5049,396.5441,1710.9639,9725.1591796875
421,45228.31,46380.16,46706.71,-350.82495,-295.4982,721.85144,2000.98376464844
422,-24429.469,-23464.77,-42010.832,-502.88162,640.2433,4954.685,20065.6640625
423,-40001.21,-43020.758,-75851.22,6767.7046,-2189.209,83.74199,36577.23828125
424,-416613.88,-416357.38,-416232.75,521.3156,918.4957,425.96826,2000.96228027344
425,714.63965,416.39832,4408.702,-2822.827,-859.6942,-193.06654,6408.65576171875
426,-30563.902,-54522.008,-72508.39,3449.3586,643.6987,-281.0198,36953.953125
427,-6237.744,6784.601,29722.578,3225.2837,3339.3608,152.18153,32544.8828125
428,-11566.009,-9542.634,-1969.708,-2117.3132,1215.3407,559.4027,9776.7646484375
429,-7210.259,-1526.574,-4396.9717,-1957.6974,719.34326,3102.1606,8133.22314453125
430,-4374.586,-4969.11,-5135.7397,-2394.589,133.5928,1242.6207,4729.515625
431,-966.2165,1810.3992,-320.73682,4913.2734,757.67267,-1323.26,9259.0498046875
432,-7153.261,-5065.066,-2309.1091,-1652.7386,-2207.8474,584.9904,6446.38525390625
433,-50445.62,-50687.17,-59235.45,-1889.85,-6539.3687,-19063.266,36116.828125
434,-83220.21,-67122.94,-98018.67,-1233.0377,10339.984,1276.4542,32350.0625
435,-7451.1953,-5459.334,-6508.539,366.57593,-1490.8556,856.0318,3499.7041015625
436,-5426.607,-3133.3926,-2164.9197,409.11804,2068.5476,1407.6007,5263.126953125
437,19519.332,45469.863,15704.009,12478.304,3492.556,1701.8787,36047.2421875
438,-4917.053,-8436.187,-12585.82,55.83437,892.75854,-1403.1368,7246.630859375
439,-2960.2578,-7072.455,-1482.3635,3852.344,693.22754,876.5912,8569.7333984375
440,68658.05,58607.094,65594.59,14163.484,-10711.465,-11601.029,37807.23046875
441,-34723.56,-32601.773,-35780.883,-582.3105,-11307.59,-14004.533,31318.46484375
442,-1314.9316,3705.9407,-11562.852,5857.078,-6316.39,-1513.9585,20277.208984375
443,3950.9849,3180.426,4131.071,678.08905,-354.96707,-55.066456,1591.06079101563
444,-9184.534,-13205.035,-15289.18,465.8241,2035.8939,1988.8448,7337.53857421875
445,7058.986,-2401.17,-50.978394,1457.2292,-5144.7905,1107.1864,12737.328125
446,-527.79535,-122.72003,-1191.4928,-2263.848,75.25916,-381.80005,4086.90063476563
447,-22268.73,-22316.979,-32975.387,-1318.8574,2001.3678,5502.8843,14906.30859375
448,2232.8445,588.8037,1880.1675,-2711.6318,-1462.981,-188.49619,5552.81982421875
449,67652.4,70112.37,70831.48,-2630.9907,-4435.048,-10115.615,19876.8671875
450,-1615.8003,-3368.875,-14423.407,-4769.831,-873.1625,-175.27443,14672.7177734375
451,-24106.97,-24660.137,-26924.977,-555.15045,-7735.17,-11554.638,24241.296875
452,-31615.912,-40744.637,-44128.91,1887.0917,-788.93726,-12411.449,24502.322265625
453,-4682.0176,-8957.954,312.3872,1704.8529,251.63615,-1186.6711,8815.7568359375
454,8770.618,13308.648,13790.1875,-2772.221,1865.7966,-3541.3364,9702.2294921875
455,510.54596,-2514.8042,-763.32135,-3839.5247,-896.93146,-1822.9149,7970.56787109375
456,1186.6493,142.16455,5602.8237,-3231.5527,-826.4329,-1443.2292,8051.8740234375
457,-3313.3735,474.72443,1675.974,-157.30635,814.99023,2196.4116,6073.1103515625
458,8187.5654,12989.878,20516.742,-1874.8219,1639.169,-1486.5239,11878.42578125
459,-19276.457,-20993.277,-35485.277,758.8222,1635.0574,-5637.802,18518.849609375
460,-8275.003,-2077.7974,2029.4873,4436.7075,-5103.301,-553.91547,14793.0205078125
461,6325.518,4442.8975,15006.471,764.4907,2529.8499,-263.8337,10789.287109375
462,-2176.2075,-310.04102,392.3681,1534.5133,-1006.9135,-587.30695,4053.06958007813
463,-13047.265,-13799.642,-19186.14,2043.8561,1581.486,-22.737259,7325.9814453125
464,-4863.009,379.1648,-276.49084,1663.7003,-1562.2405,1917.3263,7150.322265625
465,-3796.8127,-394.6113,1564.9949,-399.8278,-2298.7974,1137.6106,6503.65087890625
466,2346.6497,-546.8168,4066.1128,-226.95451,-463.11078,787.19684,4354.41015625
467,-1494.4595,553.73083,-459.94315,-1550.4308,1319.3212,1147.6602,4419.4033203125
468,-4660.757,-3070.4268,-1146.9474,-1890.2267,1508.449,-1033.3362,5480.54443359375
469,-7710.823,-6730.45,-14892.41,2323.8362,2241.0266,2613.098,10551.2578125
470,-2637.7153,-734.726,2549.2007,-1292.7489,-1624.4991,-887.10846,5995.52294921875
471,4315.3486,9737.714,8589.631,-11790.922,15736.432,1372.7628,34498.28515625
472,-2946.2732,-955.9978,-2483.431,118.26037,-1101.2119,1054.693,3204.89111328125
473,-2846.8196,-4276.8013,7883.952,4220.9077,-648.065,2310.81,14257.1669921875
474,-7405.49,-3171.2456,-3700.583,2475.9587,1750.7396,-816.30115,6749.30419921875
475,-13322.186,-27761.81,-18498.857,3444.166,4865.227,1421.6531,16529.154296875
476,-507.7827,-4199.974,-13221.221,-823.99756,2934.0696,-2252.047,13092.046875
477,-32962.367,-11307.783,-9009.953,12814.843,-8559.051,-4312.9043,35947.125
478,-20153.377,-20930.676,-32903.758,-237.29425,171.01015,6403.631,16629.54296875
479,-6556.7837,-21868.918,-794.8927,-10788.686,-16259.276,-4230.7466,39393.71484375
480,-1338.7883,3335.627,3462.034,-757.1352,151.43558,460.54285,4988.17333984375
481,-4709.9214,-571.84717,-10510.703,-3701.8909,-1027.4183,-1242.0033,11121.2978515625
482,10244.386,10186.541,-20.112305,-2575.3596,1568.6221,-642.7901,11545.0517578125
483,976.13855,-289.6656,1851.0199,-502.50296,442.1466,1572.76,3498.5478515625
484,-1304.5044,-7883.2856,-2537.5425,919.04517,1058.3765,545.34247,6593.59326171875
485,-19747.963,-20689.18,-35788.555,975.0937,937.49365,-690.1571,15811.6044921875
486,-17407.96,-17088.76,-35212.215,-741.93536,576.63184,622.3708,18071.73046875
487,-2222.949,-942.37054,3176.239,-944.727,-2227.2488,-3007.3147,8280.5966796875
488,-21877.514,-20523.543,-29059.666,74.323906,-4772.1826,-5491.885,14898.359375
489,72.73779,7653.63,6248.3584,-6900.503,-2803.628,464.19592,14692.505859375
490,-1071.4695,-754.56396,-3682.6448,-2044.5547,-3.0111778,415.61966,4561.251953125
491,-8023.7285,-8560.228,-14189.757,-1830.4979,-48.546844,2014.5823,7565.3505859375
492,-15677.908,-10737.389,-26662.062,-1400.0187,840.56396,-94.62783,14399.80859375
493,-2802.1558,-7326.714,-3732.7124,647.2701,-1114.3909,509.6552,4784.2373046875
494,624.99365,-4169.8794,-3055.3389,1037.2129,-735.40314,-2665.3372,6711.9951171875
495,-3392.4148,-8608.012,-7277.9067,-347.70862,-3772.4834,-1888.1565,8705.5927734375
496,-28829.502,-32951.37,-52536.88,437.4517,-127.07179,-857.3555,22003.1484375
497,-4102.009,-5511.8633,-2603.4043,872.3026,264.1931,-1485.3657,3931.587890625
498,-10830.752,-2230.0518,-6897.0513,-1154.0864,758.47314,610.62,7902.7607421875
499,-5445.7573,-1006.5365,1505.1577,-1902.6348,-378.74673,54.953724,6961.66064453125
500,2532.3289,-1675.3953,-690.62415,-1727.2501,318.21164,24.88266,4877.1796875
501,-13.634399,-1128.233,3146.6724,-2656.7664,-1553.2428,2391.2366,7766.5498046875
502,4326.9966,8767.857,5240.9,-489.4817,-428.2388,-122.34404,4220.40234375
503,-4401.809,-639.6658,864.3325,735.6062,-1269.8862,-3275.0984,7791.91748046875
504,-5670.5605,792.27,-4012.2405,-2982.718,174.01126,-625.67664,7858.48828125
505,-2049.9453,-4735.3203,-5533.787,1351.8873,-397.74167,-72.07739,3995.74145507813
506,-11918.866,-6017.767,-10632.224,-999.16125,49.45683,-1119.6233,5970.66064453125
507,2061.0264,6323.1177,2657.2756,649.2413,-1462.7252,1682.2806,5670.37158203125
508,-1273.0181,-2701.0088,-11786.83,2851.5352,-2816.1191,1146.0222,12234.8359375
509,-30201.793,-26759.047,-1621.4375,-13845.754,2670.42,5361.6016,37590.4609375
510,6842.2827,1958.8779,6314.1514,-1098.0747,-627.20654,-2023.6694,6215.357421875
511,-1009.9403,-1629.8884,-5263.9536,777.24445,-693.0959,362.98395,4415.02490234375
512,-4034.407,-3717.6436,-1821.3881,1322.3323,997.0867,956.58185,3907.70629882813
513,-35893.906,-33864.08,-45934.0,508.04584,-8090.6436,-10230.292,25227.560546875
514,-838.48975,-6337.7334,-2772.947,-30.841486,1427.4558,751.8866,5581.89013671875
515,2408.691,170.34827,1155.464,4889.3887,-667.04297,-202.36862,8772.2099609375
516,-421.83984,-1679.5681,-8684.389,1211.45,238.93517,177.46141,8008.00439453125
517,5193.5186,-6853.6777,8773.769,13700.935,7724.348,4340.8667,31618.951171875
518,1573.1343,1189.2266,8138.6353,2302.4316,626.64777,-259.66516,7940.884765625
519,-5823.71,-4858.3926,-4778.2715,-587.53845,1492.208,349.0966,3016.10083007813
520,-367.81665,-3773.4224,-3224.117,-1508.9221,72.64182,251.90884,4131.0908203125
521,473.57715,7506.7114,9623.007,1896.2632,-1277.6187,1058.5176,9374.0927734375
522,-14871.139,-4655.2334,9432.967,-4330.6943,2350.541,644.0336,22822.138671875
523,-289.40546,1135.7059,883.03394,-2038.4758,1481.6945,-1106.816,4945.9306640625
524,4.295166,5382.8477,6211.2827,630.2785,845.5689,-1420.748,6592.66259765625
525,6657.964,2871.5806,3783.2422,1896.4602,-863.14703,-204.99037,4986.65625
526,-5069.962,4793.976,-5342.003,-2979.7673,3045.016,1094.1924,12573.7763671875
527,2427.79,1698.108,2880.5542,-2026.8907,3034.8516,-181.93591,6412.716796875
528,-1198.0322,-4061.9019,166.62927,-2326.8948,-1578.1051,1856.9329,6930.47119140625
529,3148.6855,1194.6664,-5738.9526,246.1389,124.70328,-770.4946,8212.8603515625
530,-9385.074,-9772.093,-7508.536,-716.0519,-5216.964,-4519.5317,12200.994140625
531,-15098.609,-15485.883,-28004.055,3221.035,1610.3685,-150.4409,14165.9990234375
532,-2497.718,-5777.981,-2039.8783,1334.4083,-3569.221,-4517.0386,10827.85546875
533,-6796.179,-3807.3042,-10287.928,5545.176,-206.16866,-403.8828,11154.6357421875
534,-13221.916,-19928.812,-24918.367,1775.794,1019.72943,122.96374,10768.833984375
535,-1207.3236,-4210.997,-721.4834,720.4843,259.4692,68.25827,3534.21020507813
536,1324.2686,-4482.3716,-8497.527,-826.8197,-269.91696,-187.31865,8690.6748046875
537,1460.1322,2880.1826,3940.9937,-2782.754,-1080.3002,-153.94493,5608.1787109375
538,-10612.886,-9964.461,-824.99756,-219.45871,-1826.497,1490.5092,10329.2841796875
539,-5829.495,-8823.41,-151.83643,341.03238,-1048.4364,208.75436,7872.42431640625
540,-3043.2295,-2132.0896,-5526.3003,505.15332,-892.5382,-453.2604,3609.70776367188
541,2816.1602,-2401.6494,-672.07697,-314.2431,603.794,404.986,4803.57861328125
542,-17262.363,-12885.38,-47649.383,-3492.4634,662.69824,514.4124,33380.16796875
543,-8776.626,-4431.378,-12887.553,6535.1113,-348.6869,92.10017,13496.560546875
544,-28483.533,-28467.066,-35197.438,1711.3746,-5756.3853,-8213.85,18862.228515625
545,3365.871,-4029.9458,7007.049,3054.7168,256.2505,4.1516323,11093.9931640625
546,-2479.2925,-2779.9727,-836.51575,-2438.5366,-630.4074,-867.20416,4956.89697265625
547,995.6199,-9244.718,-34.295654,595.9466,-359.3377,9.002892,9840.306640625
548,-10614.561,-14323.047,-28536.512,-1398.6298,-529.45667,-141.99498,16590.8359375
549,-6051.6016,-9822.863,1589.4971,-609.3408,-1973.0272,-831.77814,10783.939453125
550,-2591.345,-6926.582,-5225.3784,669.3054,-1244.9335,-872.6674,4753.03955078125
551,3436.628,5103.3374,1172.168,5096.8716,648.7969,1079.2612,9714.4951171875
552,2729.42,2590.828,2329.7153,1696.9603,-38.59048,-579.3247,3126.32641601563
553,-3897.643,3297.2969,7367.2383,-2505.4614,2235.9421,-171.97926,11468.810546875
554,2476.4138,4316.6455,116.71509,-715.4179,2045.0775,-1069.4988,5550.76611328125
555,-7749.507,-3429.279,-2082.3281,-2587.993,-1384.3156,-59.77108,7221.53759765625
556,7746.278,14472.418,6453.27,-3649.1404,-658.2245,1381.348,10128.306640625
557,-2014.0898,-331.8894,-5036.0156,3713.9128,-397.41562,8.285748,7674.5546875
558,-5722.3105,-2923.9248,-4557.708,409.26306,-1073.3655,-1272.7079,3840.109375
559,-1487.6378,2810.96,-665.48694,3468.3342,262.04373,5.9647284,7205.130859375
560,659.2119,-142.58862,-7851.6743,2034.7452,-2996.805,-1840.1135,10759.88671875
561,-36948.516,-35154.574,-63958.64,-2796.0107,-472.66718,-159.3594,28379.908203125
562,-10360.268,-7220.4893,-11268.167,2872.449,-1017.26587,-2171.698,7452.46875
563,2351.4404,-4908.374,-2285.1995,-5550.637,-6748.1743,-397.73703,16433.474609375
564,4488.845,1179.9475,-937.30664,216.35469,1579.932,1520.3763,6082.841796875
565,5373.1343,6857.2427,-275.2317,2031.699,-1646.3534,873.62494,8080.46435546875
566,10731.628,2845.136,-1078.5278,356.64688,414.62653,296.27563,10473.609375
567,1456.431,-266.27704,-4465.7295,3650.3853,-350.14716,-854.555,8388.8076171875
568,1844.7148,2402.6023,-1984.5969,3599.722,-442.86517,812.4518,7652.0458984375
569,12218.959,13263.639,-614.66016,-5214.945,-147.63512,612.7351,16185.759765625
570,9415.91,12514.613,16332.573,-6211.106,601.82117,1030.8641,12490.701171875
571,-3054.4236,1895.3833,-3443.8713,-2780.0332,-927.02386,478.68973,7282.255859375
572,-7906.9043,-1086.6584,-5122.2476,-3411.2515,-426.43204,-508.63248,8456.333984375
573,845.85693,1508.0669,-7149.6084,-6806.0474,1173.5798,-1032.5753,14695.509765625
574,-29291.607,-27764.965,-30791.31,-543.9837,-8356.392,-10306.766,23150.23046875
575,8061.6226,7553.2407,11228.533,-31.975939,-484.39935,2904.6172,6157.52978515625
576,2910.8435,-711.78064,-2453.6738,-1013.8106,-1566.2035,2121.1519,6812.3486328125
577,-2982.086,-430.8372,2783.4062,-1072.345,2440.7139,1535.9983,7310.22998046875
578,22338.447,17816.34,24337.322,1678.7277,6725.464,-1960.6042,13753.76171875
579,-1032.4432,-11510.077,-5334.7896,1844.0756,2078.5474,-317.82608,10328.53125
580,-6480.797,-1677.2175,-1910.3478,3016.4075,2515.528,-2500.2083,9329.6181640625
