Element Label,S11,S22,S33,S12,S13,S23,Mises
1,1188.2633,623.0484,1153.6594,225.43147,294.69818,1047.1404,2000.90344238281
2,209577.31,188869.03,225171.03,4732.4043,46.404804,7779.139,35265.48828125
3,-336342.7,-298990.0,-301419.75,-4038.054,-4356.6274,-1566.9717,37730.5390625
4,428041.8,394662.12,433640.12,-79.23222,-5847.873,3344.186,38322.015625
5,-212207.8,-196484.5,-239763.92,1802.9651,1205.8959,-3898.1257,38723.84375
6,-74244.24,-52918.5,-82461.1,3578.576,10925.697,-7526.147,35552.69921875
7,-809606.2,-817825.6,-778954.94,4883.533,-1029.9023,9558.799,40097.81640625
8,555726.94,560247.5,597150.7,-2465.6038,-60.561153,568.6703,39602.0546875
9,-42601.367,-56971.52,-83192.62,7202.4443,1647.4138,2759.6106,38176.7265625
10,-59534.625,-39837.383,-80380.56,-4865.37,184.18091,-5497.2163,37348.59375
11,39316.758,9562.92,51736.18,-1938.7118,6763.069,-4107.3223,40101.89453125
12,521387.03,522103.3,559396.9,-4989.1963,1643.3312,-2809.689,39044.80078125
13,-15630.989,-12484.127,-48665.3,8029.6885,1677.0358,41.84792,37509.91015625
14,-197340.1,-194792.39,-233536.67,-743.89764,-344.6413,-1773.6371,37687.59765625
15,73145.91,78946.31,111985.12,2976.1982,-2281.2766,-2282.358,37076.3984375
16,19397.67,42890.53,34476.07,-3965.0237,-3383.2847,-2239.0215,22838.162109375
17,-15314.063,-22505.506,-16496.613,1739.3351,-4505.3784,2978.7354,11882.7939453125
18,-97157.94,-109135.45,-139352.98,-3404.126,6012.0356,-2690.716,39792.0703125
19,-24600.084,-31074.035,-36570.414,-2296.4846,-3602.5596,1758.0696,13104.76171875
20,34148.84,31144.133,50089.746,3107.4578,5642.0547,-17570.176,36900.39453125
21,29169.277,28945.158,27637.793,543.8637,-489.0067,-339.98135,2000.986328125
22,743078.9,743092.1,744945.1,119.05752,364.9452,-185.80035,2000.9951171875
23,6983.637,6947.213,7298.7886,225.0275,-1115.8123,-39.699203,2000.96911621094
24,6609.368,5811.4243,6433.6196,-893.45917,421.45102,-281.65375,1921.7236328125
25,5984.4443,5274.533,4920.9893,823.4053,-596.3956,87.43823,2000.98486328125
26,74633.03,80720.5,108208.08,-6120.2095,3618.0044,2471.1528,33614.203125
27,50481.66,40791.176,69470.88,-1811.637,8148.839,-1491.9622,29227.478515625
28,-76078.984,-76850.86,-78297.22,-195.1544,-105.922386,-131.4925,2000.98486328125
29,2663.9526,9224.033,-19716.777,15765.168,-231.86168,-2578.7454,38163.90625
30,74166.98,74244.7,74801.69,82.19247,-441.24826,1006.6467,2000.98608398438
31,-50284.766,-50077.35,-49480.92,-18.3133,-777.50726,745.4146,2000.98583984375
32,17210.705,18185.07,17701.137,-560.53326,-169.39885,868.5643,2000.98559570313
33,15559.896,15557.748,16456.941,-177.17369,588.58575,828.3923,1999.69836425781
34,-36034.484,-36106.74,-36232.312,-402.0516,443.39133,-653.3178,1544.42846679688
35,21173.082,19772.29,21764.072,380.9798,182.3244,331.37582,2000.984375
36,13577.773,11822.198,12684.281,-712.19556,223.64519,82.55519,2000.98608398438
37,-75732.42,-92151.11,-74060.81,-4831.865,5777.0674,-2930.5576,22265.265625
38,131930.11,112341.44,132050.39,-9571.672,-1034.15,2929.74,26265.87109375
39,-1778105.9,-1778741.1,-1778902.8,-243.2563,557.01196,887.5087,2000.9150390625
40,121788.81,117644.055,129838.28,-7001.803,9788.296,-3897.013,24400.904296875
41,62258.703,66094.96,63260.707,-337.2688,2618.707,1460.5347,6260.23583984375
42,156630.52,156967.9,155242.83,-548.7219,243.89604,-328.83032,1978.34094238281
43,-6476.1763,-6324.038,-4525.6055,-236.2038,257.64478,-188.24297,2000.98522949219
44,-27657.758,-32089.473,-39320.9,578.18195,-3346.1792,-7471.7183,17494.416015625
45,-12976.455,-4660.0786,-5865.917,-4192.4805,-10947.165,-11622.925,29633.041015625
46,11882.347,15117.987,11558.872,10052.248,-1332.3492,-19855.533,38766.16796875
47,-9032.523,-3773.5864,10091.228,10207.401,5264.1353,4102.3633,27184.5234375
48,-1317.8802,9240.495,10316.342,-4674.112,-11277.405,-16003.653,36598.19921875
49,19951.438,6552.945,33365.52,9246.927,-4049.565,-14450.42,38358.09375
50,29419.96,28793.332,30808.627,8336.02,5168.342,-18615.988,36489.1640625
51,161366.4,144015.58,188417.67,-1142.7579,1130.1362,4767.541,39725.58203125
52,-13076.83,-2034.5516,-34854.145,-740.65375,-9551.023,-11543.134,38880.5625
53,-76319.38,-62801.98,-98026.72,1219.4147,-1535.782,-13087.345,38376.140625
54,-46713.152,-36278.273,-58275.363,53.00035,4083.279,-6144.6914,22946.052734375
55,5801.358,4341.121,5402.2476,720.5113,84.59327,-488.61594,2000.97473144531
56,609.1344,224.56348,-384.32007,-54.07188,-759.3717,621.4508,1910.5244140625
57,9136.012,12242.328,23591.186,-12198.009,-832.6595,-3148.8752,25532.3203125
58,-17181.926,-19379.924,-25248.182,9838.703,12119.43,-4372.119,28992.314453125
59,-17428.607,10186.995,27031.06,-1857.5753,958.4247,5413.9595,40156.484375
60,5840.497,-8118.618,6295.1323,12693.535,16501.629,-303.1539,38755.3125
61,-45004.57,-73308.42,-79597.984,2559.1113,12097.065,538.6775,38447.62890625
62,-90398.6,-93984.55,-114523.89,-14621.508,9756.112,4832.014,38798.61328125
63,94605.88,101891.97,125709.43,9199.569,-12746.014,1316.3184,39247.56640625
64,63479.395,43532.754,29146.004,-12485.752,7066.21,-3198.0413,39242.48828125
65,-20753.63,-3357.2004,16468.39,9098.2705,-8182.1475,3049.9883,38957.28125
66,50958.4,29866.744,72372.47,-6460.9077,-4099.789,2086.3655,39291.1171875
67,-39984.086,-16530.447,-10263.228,-13714.221,-7815.709,-2427.8923,38749.44921875
68,44068.527,21060.943,30871.672,-10453.304,14067.985,133.32983,36352.04296875
69,-4144.4062,20190.63,38585.562,-1296.5264,-5900.2856,-58.443806,38570.7421875
70,62867.715,29833.37,46241.844,180.69687,13302.395,908.53674,36768.16796875
71,596.173,24271.205,39991.785,1736.5464,-7394.115,1338.5374,36854.7109375
72,30236.748,34546.49,68054.555,3014.808,-8401.559,587.342,39061.953125
73,20978.754,32822.043,60028.2,11080.659,1079.0623,3505.7827,40141.70703125
74,9126.044,15869.249,-3347.1294,-465.8747,7173.5815,-4429.69,22339.615234375
75,10656.259,10374.453,44290.73,10268.238,-7116.276,1045.8615,40154.09375
76,-17679.938,-8187.0845,-24316.105,2435.6233,2911.1077,-6564.934,19226.666015625
77,26619.291,31911.246,31327.357,-2304.539,-3396.0007,7419.755,15522.412109375
78,-25101.371,-10046.21,-40752.645,-2456.208,7447.171,2887.7056,30277.865234375
79,559478.94,559787.0,559480.25,51.689365,-609.62274,488.16742,1390.09240722656
80,151868.72,152263.67,152104.7,988.4988,411.3396,385.35635,2000.74047851563
81,59850.277,59403.195,60120.223,-10.994118,-286.06503,-1044.2369,1977.5224609375
82,89783.15,90331.6,89740.77,1077.2289,-46.130707,251.9639,2000.98596191406
83,-4070.91,17261.768,26932.328,11913.694,213.45006,6040.001,35920.62890625
84,28155.287,-10463.51,9692.105,-4848.814,2120.9343,-3221.031,35134.42578125
85,93348.86,135472.86,107919.35,194.76057,1117.1903,-4552.6562,37934.171875
86,12967.294,8817.11,-26972.67,-3301.6025,3823.045,-95.66239,39028.7421875
87,40697.168,72641.69,31666.488,2450.9548,-6551.4414,2448.1216,39436.6796875
88,-85531.61,-43388.723,-51751.33,-4410.5947,-2058.2288,2070.2893,39717.23828125
89,-71178.99,-79753.555,-112323.81,7374.5923,-1921.2351,730.67145,39867.8984375
90,12364.643,56822.152,25203.357,-2417.809,-629.8976,-643.23413,39881.00390625
91,843.4819,12450.485,19.803072,6001.355,3158.5808,-7115.699,20852.806640625
92,-15785.127,3843.8718,-19638.379,-9112.817,-11713.657,5216.4365,34902.34765625
93,12893.008,12609.498,13223.079,-682.3952,-68.96574,877.4546,2000.98510742188
94,9691.627,10359.916,8367.632,-100.62885,405.75906,-362.97763,2000.98547363281
95,570937.5,553859.7,560639.2,-15788.922,127.17248,6170.37,32923.75
96,-869908.0,-882524.5,-868525.4,-10793.371,5915.423,-529.4086,25176.173828125
97,212191.19,179995.16,192785.94,14318.041,7663.3784,-2385.8188,39958.1484375
98,34147.598,42862.844,72843.11,2734.3477,-9162.914,4035.968,39487.1015625
99,-26507.273,-28205.928,-44630.746,-7405.676,457.83774,-2187.736,21910.720703125
100,24365.348,11927.667,34525.85,8647.918,-2315.604,-14517.326,35454.31640625
101,-34198.004,-35816.07,-48697.688,-336.81772,2008.1371,-5240.705,16859.142578125
102,-56730.797,-57473.516,-57795.65,335.72827,122.20075,-953.30133,2000.98596191406
103,-45222.55,-46368.45,-46486.566,-500.58606,-692.8272,-341.3522,2000.93408203125
104,6888.704,4831.077,5228.993,60.3539,325.3389,-179.40265,1999.60571289063
105,-37106.92,-38678.125,-38883.906,-117.13718,-17.153742,-613.0239,2000.94738769531
106,102309.57,87305.51,88218.9,-8335.526,-6794.509,2561.6777,24059.8671875
107,432426.3,449897.03,455289.88,-8025.1973,6688.4736,2682.9492,27884.3828125
108,60528.426,60364.72,59264.82,78.05593,-850.29114,362.70984,1999.64404296875
109,275121.2,253379.64,267976.8,-12914.477,-2643.8506,6624.6226,31959.115234375
110,298686.28,299613.22,300098.97,118.75257,-746.2663,-495.88455,1999.04406738281
111,106927.23,140304.45,146111.95,5031.3755,-3984.8442,1193.4366,38333.515625
112,-4379.3076,-1102.0206,8447.373,12685.176,11808.773,2922.245,32556.546875
113,2779.4705,-8336.996,-29448.678,12768.731,9346.04,-604.4229,39449.0703125
114,-289259.44,-306278.44,-328406.78,-7706.8677,6352.511,163.91971,38147.65625
115,-107114.63,-121752.91,-151272.55,1926.5754,4407.414,211.89844,39841.56640625
116,-11344.8545,20355.572,19072.943,7420.662,-2910.6702,-1454.9749,34100.84765625
117,38580.637,39750.008,29176.865,-3307.6387,1891.748,760.34344,12086.6357421875
118,-1926.6082,10236.526,-7811.032,934.342,17318.416,9085.179,37472.1796875
119,-21421.928,-7272.544,-5804.528,12800.333,15407.479,-2287.3938,37980.84765625
120,-34703.08,-13807.748,-26813.781,-2536.295,10044.794,1193.3119,25695.7265625
121,-19027.17,-21736.281,-49161.047,831.3332,-6367.459,-980.2147,30989.404296875
122,-19262.49,-5969.656,-3791.1553,-134.64511,181.11826,-3870.567,15984.380859375
123,-478.46274,1177.4519,749.4901,-491.95383,377.13284,459.9504,2000.98547363281
124,11608.316,11805.25,12260.744,-1077.4326,-178.30904,173.22308,2000.98571777344
125,25958.365,41231.297,66468.836,509.2181,-8329.298,-2082.1338,38439.07421875
126,-179948.53,-193797.1,-222751.72,-3706.0986,6688.212,-1128.207,40129.2109375
127,-9760.061,-11248.245,-9646.45,40.68155,-124.57173,-298.66245,1647.96569824219
128,-3979.2236,-1835.6118,-18615.768,8556.162,-3707.431,-18313.34,38951.16015625
129,-20892.602,-13443.184,-42054.94,-783.5454,-5203.477,-15438.481,38198.1171875
130,10342.078,11158.774,12255.337,-153.0887,350.58557,-516.3667,2000.98559570313
131,1200.6008,1554.1589,2743.5486,395.86032,-601.19275,224.10284,1914.48425292969
132,192638.69,180656.95,205320.06,1276.769,-2306.811,-4953.774,23469.091796875
133,-335700.25,-334357.34,-327254.75,1201.7655,-2287.8623,-2552.0505,10067.9140625
134,15094.609,-8966.641,27429.518,7835.0537,938.96124,-7807.44,37384.015625
135,-47731.164,-26269.674,-29951.621,7948.7715,469.6779,9029.979,28809.103515625
136,3905.9258,3197.4841,34736.53,10679.301,624.8458,-6779.206,38132.08984375
137,-10083.774,-4858.5,-13243.235,8295.61,2727.72,-19860.178,38286.38671875
138,445343.8,445457.97,444054.16,-593.0662,611.55505,-3.2481306,2000.17004394531
139,10496.044,8947.699,13857.868,779.412,-8873.195,714.8492,16076.7138671875
140,24653.352,18093.988,39200.78,4998.868,-4001.9082,-14277.894,32934.19921875
141,16111.634,20367.348,56371.152,2850.5745,-1578.3792,642.71136,38738.8359375
142,-2846.4202,15202.946,40489.188,552.2678,1790.6362,-977.0149,37881.02734375
143,72893.37,87017.26,113174.055,3184.5127,-9808.35,2832.1936,39952.42578125
144,22351.75,48476.613,64200.14,-1308.1177,-7812.9478,-497.37155,39109.01171875
145,-12946.231,25628.865,7653.333,-3651.1262,5523.0596,-5812.1064,36750.4609375
146,-27051.594,-7613.067,1686.6384,16121.058,-33.19696,2935.1401,38087.1015625
147,-45602.71,-66643.12,-82417.97,-83.64482,12008.694,-2583.4243,38420.34765625
148,37725.06,28238.115,6560.2876,11113.776,11113.501,2349.9817,39028.6015625
149,-34391.438,-38072.223,-6993.912,-13840.757,-4071.8687,-3484.2273,39062.46875
150,-31506.822,-32650.406,-60660.984,15410.526,4239.996,141.07181,39804.24609375
151,-80899.34,-68202.24,-42767.855,-10866.847,-3024.424,-655.0503,38910.9375
152,-1322.034,26651.91,4021.2378,6571.81,-2136.4888,-15324.127,38850.5625
153,-12222.826,7486.09,-33564.625,-817.61334,-5311.0654,-5906.5225,38155.2890625
154,470.7231,175.3571,-195.70703,-776.0454,135.83124,776.1702,2000.98474121094
155,-17905.438,-18016.809,-19484.613,74.30623,381.98895,-637.2655,2000.73937988281
156,83664.12,76458.945,97296.47,105.50599,-650.3134,1936.5808,18669.013671875
157,-19273.969,-29896.883,-42731.46,6300.8,-6371.121,-4260.8193,26631.763671875
158,-46933.105,-47281.336,-47913.08,385.30606,-424.15192,-870.52277,1999.72021484375
159,-141.56506,843.0348,493.71698,-897.5488,-50.61283,526.6099,2000.98522949219
160,1441.905,2403.487,2244.285,-474.06857,232.724,888.43555,2000.38928222656
161,-163619.42,-176779.19,-173800.72,15913.035,-1633.7512,-4119.817,31007.3359375
162,-132733.05,-151697.92,-123089.24,8349.682,7013.819,1115.9305,31559.966796875
163,-21237.162,2776.5098,-33682.74,-3650.8535,-1313.3978,10810.604,37764.81640625
164,68984.49,61052.21,66941.76,1279.1836,-3838.1743,-4381.379,12553.2236328125
165,46302.12,48126.598,47506.52,-67.651596,685.0004,-8.909918,2000.88452148438
166,45933.008,46185.203,46879.613,212.82597,-916.9892,-444.41397,1992.97229003906
167,224199.44,224843.98,224444.69,846.18176,-108.19862,-707.86725,2000.98291015625
168,-26256.322,-11595.304,-43644.23,-1891.0138,-5973.166,-13393.919,37791.0625
169,42217.895,18967.332,64250.1,-3195.6692,-1842.8524,-848.9537,39765.0
170,96294.414,77390.86,121772.05,2880.496,-749.6482,3826.0547,39478.67578125
171,169769.81,169499.03,170851.19,-609.7291,-594.53656,308.11923,1999.01293945313
172,-217029.81,-216876.8,-218638.39,-264.32434,-21.7024,-553.33325,1996.65295410156
173,-1336741.0,-1337409.0,-1337007.5,81.75135,934.2302,-574.80035,1992.189453125
174,-17473.934,4512.6035,-38020.984,2299.857,2095.1865,-6291.472,38796.04296875
175,11874.44,11395.083,-10757.593,-9179.166,-8683.713,-14122.455,39735.5390625
176,9251.429,9776.584,10670.091,-326.30505,-836.1751,120.52601,2000.98559570313
177,6938.3096,24085.496,47652.023,7979.3022,6268.3384,853.9657,39554.75390625
178,13962.716,11604.368,29172.078,5102.4004,-463.62112,-11802.128,27737.599609375
179,-52288.824,-30609.607,-74860.96,534.587,-1169.2236,-5347.976,39491.73828125
180,95780.76,133779.88,109871.195,-4889.0566,2753.695,-120.61561,34663.37890625
181,-154003.97,-166980.81,-134145.23,5382.164,-2500.0352,-6073.6567,32199.26953125
182,32273.52,48018.953,53201.305,-709.58936,2938.4697,2481.7551,20056.55859375
183,-433499.6,-400670.44,-428327.28,14530.835,-918.11035,593.3474,39644.9765625
184,-2137146.8,-2135259.2,-2135784.5,21.670553,-577.48505,131.64645,1975.09558105469
185,126840.8,126881.69,124960.484,-165.29323,32.158566,318.71814,2000.98620605469
186,-3379.4473,11293.225,5184.5205,-2587.4211,-9876.191,11641.03,29702.10546875
187,5516.2505,-2568.8872,20983.639,8577.937,-1233.7999,6818.9087,28186.3046875
188,-2694.1743,-1993.9711,-1950.3623,74.16316,619.69196,788.5286,1885.89721679688
189,489.0417,-663.436,1524.8256,133.9905,108.3647,-326.64056,2000.98510742188
190,264.61496,1585.383,2027.6027,-569.91064,-211.77713,351.63602,2000.98547363281
191,25582.611,-5963.175,-5893.512,-6289.248,-2837.5151,2203.4355,33916.48046875
192,14797.148,14556.682,13622.222,607.4748,553.92096,-523.0141,2000.98461914063
193,1568.0399,805.48474,1277.4612,326.29095,967.1889,-380.27997,2000.98559570313
194,-53686.727,-53709.844,-55347.92,355.43747,90.8787,72.765945,1772.39123535156
195,2561.9714,3772.1216,2950.473,-445.0996,67.8755,865.0107,1999.53601074219
196,2519.5464,2382.312,2184.1953,927.0078,338.0413,576.53485,2000.82373046875
197,9784.129,10529.681,11338.907,-301.83795,428.467,-674.74884,2000.98571777344
198,11099.978,10702.813,10706.249,-207.01672,-180.02034,-1098.7518,2000.98559570313
199,139.69913,-262.4936,184.11232,-982.26324,-30.149824,555.26324,2000.94885253906
200,-17766.428,-18937.922,-19204.447,503.20978,-303.42136,-635.58923,2000.86022949219
201,-55338.7,-44613.547,-72054.14,5046.308,-7315.0093,7011.5474,30953.509765625
202,-18729.773,-29113.162,-20365.527,-7300.3516,-9712.945,844.92725,23206.826171875
203,-27606.557,-4801.192,-5524.033,10119.44,12038.961,-3515.1443,35821.921875
204,-295689.7,-277653.62,-272316.03,-11615.384,9941.869,5099.8496,35062.1953125
205,31714.78,42043.33,56460.566,-11583.373,10725.6455,4818.265,35787.33984375
206,199624.86,177777.16,197821.92,-4785.5166,6406.4097,11107.193,31672.095703125
207,-255268.55,-247251.03,-249906.58,-356.18237,15599.8125,543.09406,27952.986328125
208,128769.19,133838.12,113073.39,-3484.5984,235.04456,717.97235,19742.154296875
209,39516.703,38988.21,39455.168,736.0048,-450.0488,711.9529,2000.98522949219
210,464830.22,459359.06,464171.7,5173.4727,-5339.407,334.20276,13889.623046875
211,295511.22,294895.44,296887.22,527.6749,-17.45152,126.2578,2000.98413085938
212,-1185400.4,-1185335.8,-1186753.5,-201.02322,-484.545,646.97943,2000.97448730469
213,325471.72,325094.62,324027.88,-760.5614,165.32782,-409.9449,2000.98608398438
214,-426305.1,-426411.38,-427130.56,57.498837,-334.67316,-1008.8031,2000.9873046875
215,75166.414,76290.695,74434.98,-617.7926,-143.97795,-241.7624,2000.97216796875
216,-432939.7,-434082.22,-433909.53,-771.4018,-149.36957,-581.2054,2000.85302734375
217,217442.14,216542.53,217428.39,-894.48193,402.82562,326.4623,2000.98693847656
218,5545.4004,5208.4644,4510.9883,93.09216,577.31573,845.1271,2000.90014648438
219,23642.41,24869.834,23240.3,307.86557,-549.51215,-466.13742,2000.97644042969
220,4554.237,31568.107,24149.906,1539.1406,2222.777,-4241.2896,25695.900390625
221,-81301.73,-79538.266,-73080.414,-4166.562,-1396.7094,-3010.9443,11888.3251953125
222,-23917.59,-17672.695,-34125.914,-11306.299,-10321.168,9808.634,34621.71484375
223,-1353.7115,7029.3296,7066.369,6804.0327,-424.4373,7892.68,19922.236328125
224,-25945.447,-43630.906,-9835.893,7905.867,-6735.1836,-1994.9346,34535.9765625
225,5436.776,22802.873,-3933.7832,-14265.249,-4565.6265,7704.7124,37459.7578125
226,2115.3022,-13781.078,14185.569,8593.7295,-155.07396,-11180.751,34451.6484375
227,-35419.637,-25341.873,-31628.096,-15682.544,-12261.095,5765.3853,36963.16796875
228,55608.59,42957.28,35692.875,18787.92,2525.8728,789.6291,37211.5546875
229,-36809.74,-27108.371,-44886.73,79.88602,6116.4854,-1293.7762,18841.1015625
230,-16194.8955,-11556.927,-832.4036,-19147.451,-4591.8423,-5285.8164,37857.83203125
231,-9889.33,-15886.695,12546.009,6162.79,1522.9482,-8092.0166,31483.423828125
232,2244.4778,-1138.1245,14383.306,-1192.0757,-2351.7817,-2901.2573,15683.1640625
233,-7835.329,-8349.265,-17396.283,2705.0327,3415.5364,-3942.4768,13796.4091796875
234,-10443.95,8006.09,14800.771,2794.7236,-18548.059,-239.79265,39593.296875
235,-12471.146,-4347.369,22725.816,-4564.179,-10441.814,-5396.2144,38676.046875
236,22056.496,23736.676,49742.72,-2505.1448,-16537.162,-247.37952,39525.63671875
237,39256.812,56222.652,61848.92,13049.034,-13390.24,5202.4155,39304.85546875
238,-37646.383,-57267.152,-58458.355,16037.471,6608.0786,7995.9414,38783.6640625
239,-2348.0046,13808.161,1663.0441,-16480.078,9209.407,-10405.673,40079.4140625
240,6734.1143,-888.8717,7858.8516,-246.39305,-8036.0747,8242.329,21579.490234375
241,-1343.5283,3389.461,-18979.01,-10806.774,4869.9736,-1941.7507,29149.6171875
242,536.14966,5133.278,4317.0684,9073.979,2748.5737,-2107.3345,17350.658203125
243,-3615.268,13060.807,-6575.0083,-4281.9683,-6595.6587,-5479.041,24734.2265625
244,1114.2754,18662.77,-4937.9556,7147.545,-2505.972,4198.1978,25995.4453125
245,4159.985,470.70422,1713.9901,7769.1533,2382.5762,12507.116,26037.71875
246,-547.76685,2730.4722,-14463.439,3766.5222,7813.1167,7416.9844,25312.865234375
247,-395.37778,-9573.382,-18292.21,1480.3628,1243.4832,-1864.6979,16183.931640625
248,-3942.212,-12527.879,-23098.72,-165.23703,5935.074,663.6264,19577.857421875
249,1205.9847,-1402.3732,-764.0536,-3255.8154,2472.0332,-6624.7754,13687.322265625
250,1469.6185,-3244.0332,-32230.947,4410.4526,-9958.297,-3934.3147,37435.140625
251,-6184.8364,-1038.4874,-7414.2075,2212.5107,1153.963,-2097.4546,8136.4296875
252,-8190.6675,-343.88382,7844.888,6392.885,2127.0073,7546.589,22358.80078125
253,-5848.217,4564.9307,2784.594,-6137.046,-4493.403,12300.619,26842.9140625
254,-3693.3374,-13104.446,1997.2634,6536.752,-1326.2338,1836.1991,17834.958984375
255,-16965.3,-10982.142,6257.4146,-373.2931,2922.6016,4336.249,22772.779296875
256,726.0866,397.5183,263.56873,-419.79068,-224.37581,592.29144,1379.14636230469
257,-1618.1008,-1412.765,-2602.8374,671.90936,294.0452,626.1251,2000.98547363281
258,-15930.613,-35935.535,-31707.303,-1757.5419,-10313.328,-2504.9785,26089.75390625
259,-35546.598,-16706.188,-27508.414,-3169.1653,1680.5348,6764.3447,21071.384765625
260,17894.174,-7238.118,858.3685,-10277.974,1299.6702,-3571.469,29222.349609375
261,4054.424,22181.719,-5114.651,4235.1953,3562.1687,10311.489,31460.125
262,-1157.6436,14439.514,-8519.269,-5868.771,1612.9794,3013.863,23466.314453125
263,7436.4917,16495.459,637.07227,2015.944,3869.1228,10668.433,24257.8125
264,800.80676,14339.292,-11068.808,3913.6555,6562.5713,994.34674,25748.654296875
265,-8875.98,-10254.147,-23903.998,10968.988,-2344.3662,9900.207,29639.7734375
266,-7422.0186,13265.479,6896.1797,12717.956,-1059.9165,3215.4883,29264.3671875
267,-2217.8916,3421.2349,5881.7837,11705.822,2365.429,6538.06,24654.26171875
268,-2160.6624,-4080.686,-11081.224,6243.0054,-1116.1885,7007.302,18278.5390625
269,-5506.3857,-1542.4486,6489.145,8368.114,8988.577,14923.712,35109.359375
270,3373.1768,-2271.195,6912.342,5582.601,-6790.1035,13474.3,28997.310546875
271,-23346.53,-9399.97,1529.1318,5201.489,8192.752,6288.339,29453.94140625
272,3934.2551,994.5518,14509.923,4225.994,-3080.373,533.2952,15312.4892578125
273,-3663.8853,4495.9966,6441.23,204.08958,-11041.626,2884.3557,21842.08203125
274,-4466.475,-4727.8623,-5398.94,-562.3162,-99.02375,-881.6302,2000.97741699219
275,2798.1816,1672.7369,1459.8923,430.618,790.2332,87.11682,2000.9853515625
276,26048.87,-5261.664,16896.271,-5281.8506,1159.4702,-2395.8826,29706.810546875
277,-2820.9265,-34539.027,-7435.507,-4208.787,-8667.054,1433.9901,34141.33203125
278,-2269.6357,-2341.5762,10764.355,1985.0134,2669.049,-321.68,14294.421875
279,4124.0273,-5881.454,-19194.443,3704.537,1055.5504,-4560.3633,22747.578125
280,-3371.2915,6893.664,8357.598,10335.944,-3659.1116,-3902.827,22997.7890625
281,-3773.376,8003.7363,-29786.762,2004.0405,10100.586,-6489.9717,39575.65625
282,-3677.6396,-6180.1772,11069.701,-3959.201,609.542,-804.78064,17627.705078125
283,-2395.924,1057.0237,-8643.429,-6111.8057,2570.3125,15742.424,30787.662109375
284,-11922.025,-5194.5874,11669.311,3082.825,5948.693,-14024.501,34173.5625
285,16830.666,-7884.6943,10342.476,-13593.463,-11379.295,1471.3087,37972.2734375
286,-8183.767,-6607.96,-3287.1074,4215.812,1860.1964,443.15253,9112.27734375
287,74237.39,75577.26,73925.57,-286.12393,651.1711,-242.19913,2000.98156738281
288,10972.898,9233.265,10344.904,541.62775,505.2073,-99.89314,2000.98571777344
289,1948.2975,1225.9207,1192.651,976.48004,210.31343,-393.1663,2000.9853515625
290,1202.6162,-27.813782,1501.7126,410.5581,-89.3103,-707.78815,2000.98205566406
291,13006.24,14741.913,14338.53,620.2705,190.0331,-297.9053,2000.98083496094
292,9659.397,13096.133,13406.023,-2368.4392,-9919.668,-5421.456,20326.748046875
293,-11090.507,348.50098,-19835.629,-2149.597,-2585.8364,-4284.4614,19908.67578125
294,-8490.048,-8611.477,-13274.705,4739.801,-2224.824,-8593.135,18058.21875
295,-5753.3286,-3384.1516,-13715.278,-3702.7703,-2740.1655,-8193.182,18785.916015625
296,-1217.2754,9074.237,-1133.1279,4879.4126,1624.5487,1210.8977,13740.400390625
297,533645.3,534931.94,532912.6,3.3050227,-151.7896,491.4202,1982.06042480469
298,220969.08,221708.39,222997.6,-145.59212,-21.505169,-508.94217,2000.94897460938
299,-304980.38,-303729.53,-304090.9,-885.4919,-245.7306,-275.28577,2000.99047851563
300,-5527.081,13381.017,26515.445,5930.672,6725.345,-2003.5774,32118.98046875
301,-6564.585,7478.17,-5751.74,222.67143,94.38323,-9927.306,21960.755859375
302,-13965.162,-6214.656,-15319.8,9343.988,1062.3413,6575.874,21620.521484375
303,877.0376,-4017.5742,2603.4456,14887.93,-729.3191,5891.5674,28391.3125
304,5656.8354,-2243.236,17725.184,2848.5989,6314.9546,18604.566,38545.63671875
305,-4586.9214,-2529.3706,4376.9966,5099.67,6471.0073,-6565.322,19977.328125
306,10800.238,18541.51,15054.11,-1040.9867,1623.6215,3743.208,9913.95703125
307,8384.6045,6912.5303,5563.9937,1505.4697,741.8675,-553.2914,3916.56909179688
308,38666.566,24751.893,57801.33,-11014.446,1462.6929,-2015.6697,34764.53125
309,-3762.3193,28395.406,-213.59213,-11418.795,-5319.9517,7147.921,39521.44140625
310,14211.357,-7370.2827,5825.4087,-1337.0205,1703.8385,-3052.4246,19928.189453125
311,-11108.813,905.47894,-23742.947,2766.4016,-4793.709,-1864.2968,23623.703125
312,-8815.667,1701.0382,16265.773,4333.0405,5636.126,5706.407,26929.876953125
313,1476.956,3469.0032,4166.212,-50.80112,108.697235,293.046,2478.71728515625
314,-3301.5684,-3118.5586,-2793.3967,460.02722,-309.00415,980.45667,2000.98522949219
315,3075.615,3059.5579,1943.5776,-937.78613,112.323425,-146.25957,2000.98547363281
316,-111837.02,-112059.26,-113839.55,286.97833,-97.24359,-194.9197,2000.96948242188
317,-1019.0738,117.077286,-1373.4869,-428.01144,-455.19025,-581.2779,2000.9853515625
318,2567.7737,2867.6204,3817.6084,-159.712,702.8932,623.52795,2000.57434082031
319,-195844.67,-166668.33,-202636.11,4239.638,-4590.539,-4018.9382,35512.3984375
320,218175.36,222215.3,222499.38,957.29333,-267.49182,-1178.3525,4967.78466796875
321,-339688.28,-339115.03,-339708.3,-401.83398,-851.9321,576.4281,1999.77111816406
322,286096.2,287298.16,285773.25,-245.85066,-791.84106,-38.16272,2000.97766113281
323,-53173320.0,-53173324.0,-53173904.0,17.557665,1083.5532,-215.60725,2000.345703125
324,476328.03,474554.28,475890.28,139.80046,515.3806,-438.03067,1998.11206054688
325,79431.4,79104.89,77912.65,-94.639885,-677.27686,420.8033,1962.53247070313
326,50820.734,51720.92,52033.883,-938.5286,99.18392,-216.04382,2000.5126953125
327,8528.287,116.47888,-26001.428,-5289.4575,10812.454,-5324.926,38630.6796875
328,7901.679,4746.339,-6615.2476,4217.337,5141.3813,6890.133,21212.5546875
329,4583.2314,3351.401,7311.13,11474.559,-3048.6436,-6195.496,23459.55859375
330,-53.730442,4881.7183,-21518.707,-5098.7046,1187.1146,-5414.859,27590.27734375
331,-1848.4863,-5675.32,-26258.553,12514.781,7595.578,-1756.0,34194.60546875
332,-6834.7246,2089.2705,-8272.462,1680.5546,3783.0698,-7966.9717,18340.138671875
333,-21658.115,-6300.62,-33022.14,-1398.9058,-3282.5063,6517.8,26554.796875
334,-18160.256,-8011.697,12407.645,4029.1467,-2723.9924,-2163.757,28498.73046875
335,-7949.5327,19406.46,10032.714,-3206.0864,-487.8208,8250.236,28557.65234375
336,1588.361,25764.393,-3886.652,3933.4421,-5192.491,1339.4083,29656.435546875
337,-4887.45,6885.189,966.6803,3757.3372,9706.361,3414.685,21538.81640625
338,2687.1348,2215.15,998.1042,-216.6606,371.8955,-624.4468,2000.98547363281
339,10723.726,-12665.994,6136.893,12719.915,3321.395,-10909.351,36556.2421875
340,-39974.086,-20120.098,-42212.277,15395.112,5419.627,7044.738,37304.9296875
341,-29257.58,-28247.729,-28721.81,-604.91003,651.05414,-538.1386,2000.98571777344
342,11860.417,9820.677,15596.345,4213.2026,775.6434,7050.396,15163.1259765625
343,104725.24,98533.766,104321.69,-428.94028,-2986.7979,-222.47678,7966.302734375
344,1822.3477,11278.273,20912.104,4490.9976,5805.741,-3777.8342,21857.83984375
345,2159.3257,5331.5845,1951.8503,6116.991,-2659.4702,-142.44402,12012.34375
346,-30319.3,2672.359,-10806.512,13404.348,3167.9543,-5636.046,38598.859375
347,-5787.7847,-4953.781,7121.607,2771.1873,2744.6062,-8457.497,20415.833984375
348,3018.0134,1358.9559,1760.1637,-111.189,470.3898,-245.46028,1769.02612304688
349,3998.9473,3276.9866,3583.6611,124.24751,-78.8647,32.909645,679.77197265625
350,-553972.2,-554005.7,-553077.9,-260.34604,830.2357,547.6264,2000.44372558594
351,-7431.666,1890.4105,-10460.39,-5311.1846,-8001.6953,-10875.061,27492.1171875
352,-697.8246,-6401.512,-6048.5186,-3689.4849,338.87564,3145.0176,10074.626953125
353,3100.5168,4303.3047,4446.7827,-243.74823,216.27136,-825.7368,2000.98522949219
354,-14349.201,-15106.093,-15647.152,327.97107,543.4575,711.81793,2000.98510742188
355,15135.945,-4424.074,12667.338,-3730.4104,7206.0386,2445.361,23576.908203125
356,3039.5117,-977.2631,1000.2581,-3937.945,3627.9993,737.0977,9987.0478515625
357,2128.491,-3090.472,-6882.962,-1072.3907,-1340.3844,4869.952,11891.28515625
358,14857.152,3880.119,5128.3174,-175.05518,-189.1805,480.98795,10452.0380859375
359,5755.157,-431.4353,-715.62854,-1102.2292,3449.3828,-953.4828,9065.302734375
360,-17469.25,-12746.884,-7899.0024,-8077.0005,-1835.51,-5418.2925,19041.8203125
361,2635.4844,-4658.987,-482.0335,1865.0669,278.9953,838.1098,7277.62353515625
362,-4331.71,-3207.5063,-2704.8984,-2796.625,-2242.3193,-3858.6536,9235.6064453125
363,23656.234,36640.535,55899.8,-2676.1182,-1708.4995,-69.20251,28632.771484375
364,-704.2976,-4083.6445,481.86646,2073.2546,-384.78598,-873.42114,5697.66259765625
365,50815.484,68699.44,70006.25,-244.11884,-4752.5664,-4622.3647,21839.24609375
366,9921.129,-13053.1045,-33597.844,4509.259,3445.6082,2181.6748,39150.95703125
367,-21123.238,-18611.686,-17132.521,7829.623,-8282.363,-1575.7097,20232.671875
368,10373.325,3873.358,8843.604,-9505.705,844.2862,791.75665,17599.45703125
369,23310.21,32181.422,11482.281,4272.5205,1455.3505,-1984.5662,19911.28515625
370,2923.9607,787.0426,2941.5496,549.026,1461.396,-117.680664,3457.916015625
371,-4364.221,3390.4648,-1235.6001,2370.3696,-65.298996,96.8917,7909.416015625
372,744.98816,3544.1418,572.76965,2754.1387,-1124.9321,-96.354866,5909.9150390625
373,1848.0999,315.83463,235.78479,-1695.5044,862.4791,-177.8352,3664.36840820313
374,-4089.1006,-7116.522,-6487.9873,-352.81564,3818.1943,1101.7839,7443.69140625
375,2447.448,1168.022,12668.957,4909.85,-576.602,4200.5527,15666.6865234375
376,-5161.579,-11049.219,-22249.621,-3769.9578,-3099.7576,-1643.523,17482.10546875
377,-9218.586,-5650.919,-6626.0195,399.26062,-1475.6244,481.99298,4231.7626953125
378,-8420.902,3609.5454,7582.887,-5575.008,4641.3887,4670.543,20775.748046875
379,3298.971,-2252.4233,2713.271,5982.935,-2532.6392,2309.652,13059.1875
380,3338.8992,8186.1177,7424.7866,4940.1455,387.72464,-723.32025,9778.5732421875
381,-10688.094,2474.7578,-12766.613,8018.778,114.96101,-1032.3041,20026.9609375
382,-2988.2627,4439.664,-3441.625,-2730.109,-2465.1372,-509.5273,10005.859375
383,4559.216,-1785.062,14567.18,2633.629,3298.6094,1497.761,16250.625
384,3665.4858,271.9248,804.6268,2097.1855,2145.4204,-1048.6971,6347.80419921875
385,4153.244,12370.1455,21258.787,4222.9546,-62.48246,3590.9077,17656.673828125
386,25656.457,5928.756,25140.545,-10947.465,144.98436,10333.818,32545.935546875
387,-275221.6,-276096.97,-276231.0,-97.68705,-341.71823,952.78296,2000.97521972656
388,212735.42,212550.4,211336.98,248.12335,-502.6961,665.8268,2000.9765625
389,-43432.285,-45514.004,-62165.656,6273.558,702.5399,-4097.6436,22049.953125
390,-750.5498,1.0626221,2622.0552,-1778.4198,360.33533,816.2739,4613.16162109375
391,69781.914,64375.63,101247.66,-3924.5508,3176.8696,-4279.1045,36343.49609375
392,-8339.498,-9071.878,-24834.361,5737.8096,2207.4983,48.234135,19337.267578125
393,3727.8623,-1951.284,8263.442,7256.1675,-8157.3843,392.3497,20895.666015625
394,-20677.69,2117.5107,-29657.46,-116.65756,736.40753,-7211.7617,31026.591796875
395,2506.4429,4942.7227,-7038.813,-4672.9355,-3757.6167,1080.0498,15220.7041015625
396,1193.7124,15429.007,25398.338,4244.274,490.03098,-4058.0032,23411.78515625
397,-1775.9384,-7669.792,-256.84644,-1864.9325,1630.602,-1594.7484,8487.5576171875
398,3879.4802,-723.2827,6458.8423,2251.4502,-281.61395,1289.111,7755.07275390625
399,-10949.704,1586.2017,-7574.3926,2317.5862,225.49365,-7978.8354,18261.453125
400,1105.4324,2135.732,7995.6533,5491.6777,3651.8345,1079.7189,13244.5576171875
401,1011.24207,7865.7896,-4594.0645,-359.8083,-2277.597,2656.3423,12407.4697265625
402,-5805.9727,-9934.823,-10408.5625,1380.2456,-2251.511,-581.4885,6416.02392578125
403,19771.88,6803.025,10411.562,2223.5347,-1082.9757,4188.0034,14331.1943359375
404,-5318.7896,-5615.8086,2915.6274,-717.3485,1481.1184,4317.0107,11591.9921875
405,-13238.073,442.16016,-10712.657,2290.923,-1429.4054,-2041.6447,13905.3134765625
406,-131143.7,-129568.4,-126602.18,-2043.9935,2997.5044,415.3315,7480.57861328125
407,3021.037,6292.656,7039.538,-3339.5198,4492.524,-1307.5466,10622.5869140625
408,101090.39,101991.86,99978.25,76.32217,253.71954,-497.08224,2000.982421875
409,-2853.2632,-11098.98,-8777.043,-7529.054,-7616.31,1114.7247,20051.173828125
410,5410.242,-9848.293,-8990.102,6371.466,-344.64758,-2581.0728,19041.888671875
411,-13465.176,-1438.1196,-1536.27,-2695.9448,-6108.1675,-1594.2059,16877.12109375
412,-5885.403,-15251.566,2920.54,-831.6348,-461.013,-4349.7705,17527.736328125
413,149.74103,-3366.459,288.48383,-163.06682,1585.0188,2861.0544,6711.50390625
414,-14959.945,-29428.516,-2373.83,-8449.238,427.7506,9927.137,32560.94140625
415,-3040.8179,1050.147,890.3766,-4875.6606,-2925.4377,-743.3689,10712.4443359375
416,6620.941,5109.482,6815.1294,-2935.3906,2885.1956,3085.4556,9055.2998046875
417,11.7265625,9390.904,3116.8198,-9758.196,2011.0793,-4342.407,20563.49609375
418,-1938.6658,4015.1492,2531.5479,-5914.3994,7412.061,4686.9526,19091.22265625
419,178575.78,178349.64,176667.39,51.847534,-150.95801,471.12994,2000.96203613281
420,3079.605,-4341.9653,2367.7114,3226.7466,-2603.4607,-2676.5503,11106.9619140625
421,-7108.5645,-16650.127,901.2493,-680.489,-5127.388,3857.9482,18882.1484375
422,26566.414,13215.983,-11596.873,5079.661,-3969.5347,95.611565,35353.671875
423,-7858.7324,-17072.693,-10723.898,1785.5466,3786.7585,-4577.3906,13496.19921875
424,3554.6228,4953.2505,4204.6704,3264.438,566.8402,-1713.3684,6573.43359375
425,5998.487,10541.83,4406.7847,241.55507,754.1053,5416.32,10968.0341796875
426,-17625.63,11362.926,-15857.889,-5321.0293,-4345.3306,-2746.5237,30926.25
427,14110.123,27019.602,18981.412,6998.983,-1736.8589,1042.5029,16934.16796875
428,3715.0908,-17174.043,-25446.766,-3379.0708,1124.1776,3532.5762,27442.427734375
429,8456.243,32865.098,21714.14,4208.8384,3076.9626,2063.3062,23286.728515625
430,1216.5623,-2063.331,13480.5625,844.36774,1677.7675,1770.2405,14878.603515625
431,-393.96887,-2281.6082,2882.7893,2166.7166,-1587.5547,459.93317,6539.5146484375
432,-15261.836,1778.2764,5719.337,9960.935,-189.71626,-1600.5503,26048.173828125
433,18160.154,10982.228,860.8789,2608.5186,3809.5044,176.3345,17048.693359375
434,-15043.248,-17038.615,-6381.04,5150.102,1855.6838,-1413.8813,13863.5546875
435,3575.9268,-6226.126,-6398.952,-349.0046,-2103.0286,-1309.9675,10797.4912109375
436,15911.036,38825.547,13612.38,704.59064,3633.6047,3196.898,25588.869140625
437,-7823.091,-5538.367,-8846.256,-9239.032,-1629.7689,-1555.4178,16730.513671875
438,9566.999,15096.926,11971.903,-2877.8474,-1078.3463,-2066.9778,8013.51416015625
439,-3239.5854,-11908.573,-1513.8108,-6868.0366,1452.6627,29.234783,15522.029296875
440,-3181.8726,-1963.4086,-1487.7135,3570.3145,-460.3399,-1022.9344,6656.34423828125
441,-7782.2646,-10610.857,-496.4878,1699.5538,-718.7889,310.29044,9601.8876953125
442,-2228.493,-2315.1318,1760.4988,-5194.3633,445.81686,-1048.6147,10055.0693359375
443,-1561.2822,2114.412,30108.281,9013.243,-1069.174,995.2409,33914.3203125
444,-79939.12,-72218.055,-96891.39,6330.3916,506.42108,1040.6831,24538.21484375
445,10208.955,6922.871,649.82715,1713.0493,647.6334,237.81418,8999.7080078125
446,3963.6648,-2440.2908,1252.5055,-41.035805,1468.1914,-2314.5527,7317.2509765625
447,-3146.3647,-4605.269,5806.512,1092.9031,3297.4456,-104.33812,11470.7978515625
448,-959.7381,-1950.1394,4321.1743,732.42725,-3937.6768,-104.53044,9069.57421875
449,-9932.934,-5289.1064,-9082.517,185.21976,-4703.8726,853.67236,9327.7861328125
450,-18988.344,-6449.4585,-10644.462,170.39279,5095.908,-268.23328,14157.2890625
451,2226.9521,-4927.108,-1965.9127,3404.5122,-1845.7703,227.73949,9160.4033203125
452,28647.553,7281.6255,45761.438,2169.9575,484.37912,-777.8602,33640.55859375
453,360.58392,-17997.43,-5649.433,-1810.3856,1851.6298,1916.167,17144.625
454,26393.736,14164.969,-13347.889,6011.329,4386.263,1432.803,37619.5859375
455,-2671.5754,-3202.0034,-1963.1702,1897.6802,2739.598,-132.78406,5876.35986328125
456,-1627.5343,-3712.018,878.49146,479.1767,314.33472,2355.7737,5786.47265625
457,-4246.129,-2047.3784,-2971.6174,-7409.1636,-4824.805,-935.1922,15517.8486328125
458,-16160.195,-2118.9478,-356.96582,-2653.7603,-679.9957,3014.758,16576.5625
459,-15055.364,-6355.309,-21467.932,588.8499,940.2592,670.51416,13328.275390625
460,-336.54688,-7317.1963,-7022.5,-1639.1448,345.45123,1369.1997,7797.5419921875
461,16422.557,18657.76,-5210.9453,2332.7717,7687.059,6496.9883,29010.1796875
462,-2608.1096,11059.69,-11529.638,4403.6123,1031.971,-3201.5369,21919.39453125
463,312.75952,-8655.434,1435.4729,-5793.554,32.650387,-1110.0146,14005.466796875
464,510.8821,-5208.6597,-127.82385,1665.6761,-745.7181,-2182.942,7331.80908203125
465,-3485.4104,28171.582,8499.863,-1441.1318,-1373.099,4462.027,28948.404296875
466,2081.0078,2632.3406,2516.5286,324.81277,-3772.8687,-1886.6211,7345.18017578125
467,108.19287,-1160.124,-3868.7988,-2700.6228,1457.553,2109.1912,7347.14501953125
468,-8828.656,-4488.966,7707.9985,3096.432,1525.4381,628.3892,16045.53125
469,30851.361,10988.575,6484.775,14354.309,3927.5151,7633.3955,36653.6953125
470,7744.648,-268.44617,-4386.986,-704.7552,-6697.677,-3600.1245,17003.63671875
471,4726.714,12774.501,19602.486,10717.057,424.08917,-3082.743,23236.90625
472,-9436.041,3485.6672,4665.9487,280.19235,5011.509,532.97906,16126.0107421875
473,-1122.7229,4059.6594,3033.7776,-5244.337,1030.3331,1382.9512,10678.2314453125
474,-644.6094,-5273.081,-8114.6035,1950.1033,-5830.088,-1027.789,12617.3076171875
475,-89320.7,-83655.41,-113449.04,-2802.0955,2534.9895,3970.9219,29001.80859375
476,-12631.639,5841.4746,1709.0554,3908.1018,-4201.7715,-4878.7397,21264.638671875
477,-65266.96,-76983.23,-95849.914,1772.8531,-276.4373,4864.187,28194.134765625
478,-3859.4001,2928.119,529.8921,249.15894,-1315.8431,330.38107,6422.765625
479,-422.21973,6582.981,13573.661,5280.965,83.95707,-2321.964,15709.0751953125
480,11618.969,-1061.9658,3984.313,-1254.9438,-1436.9226,-224.64005,11547.716796875
481,-1773.9021,-7800.921,-3781.7454,-1095.1763,543.02484,2928.4822,7646.30419921875
482,-4067.325,-2710.812,7053.7173,-1366.5306,-2323.1975,-258.9933,11507.6953125
483,-2576.082,-4500.0225,-6222.6904,2649.3843,1618.5747,1038.7451,6491.3388671875
484,-8090.1685,7829.711,7890.1704,8391.167,-221.6134,1658.8832,21772.615234375
485,-9883.491,-3134.1255,-15981.473,566.4532,-1009.51154,1386.2516,11562.0869140625
486,-1904.4984,-2852.026,-1336.8407,4815.656,-561.8602,-937.17706,8655.142578125
487,-26820.166,-14924.603,2956.4277,-3412.826,1382.9506,-12442.994,34338.09375
488,5824.324,-9561.459,9754.863,-4175.4517,-7795.7925,-3132.9895,24014.9765625
489,-6788.501,2558.8462,-6927.708,5715.443,-2958.6174,873.41016,14671.09765625
490,-5027.807,-146.99292,7062.725,1628.8422,1187.3834,-990.73376,11230.5546875
491,-9254.351,-976.718,204.99121,1621.7242,2387.0,314.68036,10245.8642578125
492,-722.2225,1144.9087,-1133.0118,2306.1292,355.1255,1868.6388,5588.416015625
493,-1563.4238,-1917.6578,-6303.1714,3148.8271,-1255.5438,-658.70734,7529.13671875
494,4619.4106,-6417.494,5369.664,-4746.6274,1640.1138,1232.0898,14521.4365234375
495,-4074.2585,2356.964,4575.4,-1006.69824,-572.43536,-1199.8717,8300.107421875
496,-1578.6909,-4065.3633,-14471.822,6577.3066,-1191.1559,897.7572,16637.689453125
497,3019.9321,-6352.4526,2933.3945,-842.4631,857.726,71.37493,9559.791015625
498,27663.705,25316.074,38374.17,-12201.159,-5929.2354,4607.532,27588.587890625
499,-6047.2593,-6554.904,1163.3579,1180.86,1414.4469,-357.55994,8153.5244140625
500,4542.466,7525.774,7682.418,-10903.985,2754.2583,6531.444,22733.669921875
501,2957.2944,6563.641,5435.9414,-1245.0304,-113.16115,131.90831,3866.71484375
502,-5567.5776,-8427.558,-2492.7449,2762.524,2703.7395,-1278.3441,8726.7275390625
503,-3089.127,-3673.459,-5447.2573,-991.16187,-460.12476,1911.5178,4366.7314453125
504,547.0166,-5448.3545,-19343.273,-3765.2207,-3808.5984,2444.735,20403.322265625
505,17.492065,-3641.7705,-1095.0592,-4011.0232,750.00525,-3150.9617,9502.3671875
506,-4535.4087,4898.7905,3041.357,-5519.1,-3473.4727,-1470.7899,14456.724609375
507,-5517.284,-12019.322,-4169.625,-2305.3096,1165.133,-297.19382,8551.9677734375
508,400.3551,-2057.6938,-2874.8801,1115.7749,425.84647,-441.92914,3685.55053710938
509,20463.15,11522.323,24061.965,2025.4298,2309.9521,-2297.3137,13008.224609375
510,-7480.917,-1766.083,-5836.533,-1117.7505,-2635.4966,1549.0623,7599.36474609375
511,-4436.838,5112.114,85.10625,1331.6572,-274.73383,181.44394,8607.8896484375
512,2466.0803,-4256.703,-8465.872,3670.7893,127.80528,1330.1748,11704.333984375
513,2940.81,4352.67,148.56055,1924.1123,1382.9558,1437.1794,6064.07861328125
514,1610.1879,2826.7832,6490.812,-6183.259,-861.35535,1700.3098,12039.927734375
515,-2053.5789,-1716.9238,-1791.7593,-3698.975,-519.80536,13.402015,6477.04638671875
516,8385.621,14089.656,21280.906,-3473.9275,2022.6028,-11705.781,24183.1015625
517,-5840.926,-9163.644,3849.6875,-3926.2405,-2681.628,1532.0345,14560.51171875
518,949.52234,1017.8496,-122.75214,-419.4196,-3571.2917,2022.0486,7230.7578125
519,483.3079,224.92834,1671.5809,1552.9855,2364.0962,1477.7876,5686.7822265625
520,20408.906,6779.372,26553.203,12835.404,138.06657,4602.751,29412.861328125
521,-2099.7217,1243.495,1353.498,-1507.711,-198.72444,-824.14246,4531.29638671875
522,7465.4365,3285.1733,6956.151,1863.2646,-2838.677,-630.4527,7168.47021484375
523,1381.9867,2400.6873,-21.486206,3115.7139,-307.83337,1223.6277,6191.6318359375
524,-7586.3555,1797.8813,-1952.3726,1838.1108,92.44578,-2474.9116,9770.9873046875
525,-20515.514,-9437.993,-19863.168,363.8534,263.24463,40.630875,10794.47265625
526,-2543.4062,259.00183,2364.4756,762.3747,604.3247,2100.1016,5852.98681640625
527,11842.204,5859.1226,16273.857,543.445,-2409.0293,-1247.3538,10242.8359375
528,-7029.1787,-578.1959,171.45898,145.46513,-1725.193,6799.457,13953.615234375
529,-7366.45,-5956.112,-5024.931,523.4533,-3581.19,-161.18295,6598.79833984375
530,-5164.4087,-3391.685,-3322.4456,-3954.7112,-522.0982,2179.3857,8078.13330078125
531,3963.9165,-1341.5996,7084.217,1686.9551,-1985.4667,1331.9957,8951.306640625
532,6013.951,1268.0236,202.34253,4535.292,783.97473,455.11728,9637.89453125
533,-600.7047,1401.0134,3205.2249,-86.1627,518.6487,-2019.6256,4892.80078125
534,3116.202,4497.4766,3322.922,1919.537,-301.19873,1381.6306,4326.41357421875
535,-2348.4973,4252.358,-1360.8057,1218.7937,-1076.0402,1622.9905,7338.9013671875
536,-2397.3691,-372.66913,-136.87225,-1055.3556,-2100.614,-1492.6703,5281.63671875
537,-584.91895,5964.8906,-693.2898,148.80751,-518.2521,443.69797,6714.48828125
538,-4049.109,-1678.6304,-10011.457,6704.0347,749.29443,-1379.1115,14054.3515625
539,-2344.7795,1893.7318,-899.12976,-4109.78,1316.3846,-2855.544,9708.724609375
540,9989.334,11596.78,-2087.1973,5798.6597,514.4504,-1292.2878,16568.53125
541,1449.7134,-108.87866,7292.3594,5217.7505,3348.0972,1116.9661,12834.28515625
542,3644.57,2650.24,1156.8447,540.6204,35.411438,1885.5396,4031.15380859375
543,12683.756,5084.994,8139.2725,-6220.7847,402.91473,-4230.445,14633.2685546875
544,-5057.331,1166.3499,5226.5586,-1068.035,-76.74012,1825.8124,9691.7216796875
545,5048.0044,-49.023438,1151.3958,-1933.4801,-1354.8583,1569.4066,6738.93115234375
546,3150.3804,4033.8096,642.7322,-807.8693,1780.7104,11.54903,4555.7900390625
547,-11549.577,-6076.607,1256.3945,588.9225,3625.142,-3290.6157,14028.8818359375
548,3645.6914,2544.5244,2741.2046,-235.00113,882.0626,-1788.156,3623.11474609375
549,5709.6406,1722.3722,465.958,68.78913,-1949.818,472.1473,5880.041015625
550,-2386.8745,4647.116,-3261.0933,379.9512,73.75922,-273.42514,7554.08642578125
551,3688.1687,-982.2814,-3035.092,1055.0013,180.53777,-301.95807,6270.9716796875
552,-1746.013,-4392.165,-3149.3381,-2779.257,1606.4834,829.9155,6183.80859375
553,1640.0906,-1866.6323,1240.864,-329.46838,-738.2271,-541.72974,3727.93627929688
554,360.0568,331.3178,-810.5414,2138.7197,3304.4082,-1539.0885,7411.0439453125
555,-2071.7227,-709.61017,-1467.8915,188.95943,-978.6693,966.7161,2679.84985351563
556,5805.6294,1441.6372,4730.812,2504.739,73.10269,-229.1528,5874.00048828125
557,5856.2095,4579.271,6396.103,981.38684,1429.5449,-3284.3423,6632.671875
558,2683.9766,-3472.497,2496.4578,4336.3223,791.06116,-1195.6191,9967.9384765625
559,-1490.758,1416.6348,-421.0371,2159.9514,770.30023,2778.572,6739.791015625
560,-2179.126,832.9265,-3901.1836,591.6229,-2231.9524,579.21655,5850.3193359375
561,633.2057,5287.5947,-1350.1644,-1975.6631,366.30695,-881.0087,7019.20751953125
562,1660.8746,-450.82153,3725.245,-4453.9185,-147.33107,691.90857,8607.7705078125
563,-5877.5664,-3354.4246,-4868.27,3938.9397,-270.82095,-833.2026,7327.1259765625
564,5797.1206,2995.6355,-792.1987,-3011.9463,-1021.4611,2555.473,9096.400390625
565,2866.9412,904.3476,-594.45496,-284.93695,1439.234,-770.55566,4156.7705078125
566,750.88293,3546.0115,-5735.5684,-2071.012,-299.95282,34.548065,9008.7744140625
567,-1084.9617,-6867.2715,1918.2391,3639.8125,707.88104,392.07584,10076.15625
568,-1753.5911,1335.0107,-1807.3755,2781.4636,700.27075,-759.8764,6010.11328125
569,-2336.7207,5759.394,-985.1729,-79.50067,921.74567,-909.5144,7840.9775390625
570,-775.2013,2350.7898,-3593.2488,1150.5197,-575.43585,2474.5642,7060.96826171875
571,3283.897,10941.219,17016.883,1481.549,3719.7097,1913.236,14182.619140625
572,-4998.281,-8585.348,-25312.025,-231.03734,-688.57404,-2617.2913,19359.279296875
573,-3314.2095,6425.5083,19615.762,5597.485,-928.3977,-1134.1958,22310.41796875
574,-4488.4087,-13074.223,-9721.57,-3342.0654,-2062.1992,-1420.1827,10415.7666015625
575,-1542.0303,-6499.0615,-6364.433,3297.8638,637.7972,3811.1191,10067.01953125
576,-342.56778,-25899.213,-32268.947,9541.88,4303.199,2421.7544,34681.32421875
577,7398.5522,14926.116,11274.795,3523.1519,-8523.784,-2236.1973,17683.75
