Element Label,S11,S22,S33,S12,S13,S23,Mises
1,1274.6302,7738.024,-196.91142,1757.8914,944.2114,2045.6067,8828.970703125
2,5974.272,8455.147,1172.127,1261.8394,-577.3612,-931.1922,7036.119140625
3,6542.536,11729.004,-815.583,842.88525,971.7555,397.08475,11164.2880859375
4,4697.339,11998.467,543.02344,792.2563,-116.31663,-733.987,10219.3837890625
5,2329.3066,11636.686,-803.9575,1488.9889,115.47318,237.0288,11509.427734375
6,6666.634,10561.037,-202.11722,1260.0017,698.9407,-845.73505,9872.6884765625
7,5668.502,9540.149,-414.47366,2353.2527,-628.98615,304.64496,9675.849609375
8,5324.4834,10791.95,-76.34716,2416.2095,-53.90878,-253.1283,10310.48828125
9,5735.255,12482.996,619.5454,2480.504,-506.81778,745.10767,11274.6103515625
10,4886.65,13357.018,-326.17578,3176.0686,403.88,-326.6018,13196.470703125
11,6784.4443,9339.835,-596.1538,2011.9968,-294.1691,-83.06207,9606.677734375
12,7848.36,11098.233,1344.8413,3239.4392,136.40103,290.48776,10285.130859375
13,5814.794,9896.075,-831.3843,2370.6792,201.1234,-320.39444,10258.8076171875
14,5365.64,11163.617,-178.09375,2548.8535,19.252073,-90.68953,10770.6875
15,4504.1694,10956.83,-138.36328,2651.2168,-108.11418,30.469273,10689.77734375
16,5456.126,16700.016,838.653,246.53006,-1385.2421,1765.5697,14661.3505859375
17,-2166.9631,3823.8926,-7041.9585,4647.5537,-1096.4023,3901.443,14245.373046875
18,7527.1846,6547.255,-925.2847,1992.9869,248.4078,9.070053,8730.580078125
19,5501.1743,5330.9946,1953.9702,-4811.3813,813.7575,-1467.8854,9481.9189453125
20,1976.6455,3931.493,-8390.99,3236.461,884.26385,692.5724,12914.53515625
21,9293.755,9736.235,2035.1768,-1539.7828,4.6643195,938.1186,8114.65283203125
22,276.82,4398.88,-2188.635,3149.1663,-12019.556,-7543.6743,25828.560546875
23,-4799.1616,678.0625,9903.0,-7494.7324,6121.8003,6749.475,24150.26171875
24,1455.1733,5572.97,-3408.2231,5393.671,-5712.1865,-10106.041,23498.8046875
25,-3891.569,10313.812,4528.395,4334.015,2888.8467,5583.432,18110.53125
26,-1168.8407,4971.649,-5676.367,5060.1533,-983.42413,1160.5682,13017.658203125
27,2891.4968,539.3917,-5243.4995,5650.632,-2230.7847,1172.2213,12938.9580078125
28,2142.821,8871.619,460.9624,1518.0443,348.597,-496.25052,8212.125
29,3284.0735,13244.567,3139.5027,2441.6516,1224.8792,-655.75555,11151.1591796875
30,5871.3735,4387.5366,6054.0786,3219.5515,-1028.606,4927.7573,10470.208984375
31,5237.7456,6695.2305,338.22696,-375.61234,2538.0698,-1138.5969,7543.76416015625
32,2039.665,1676.2756,-3905.2935,35.832504,394.67883,-320.30115,5838.93798828125
33,2886.9548,10823.091,6545.801,-106.34249,-755.9008,3234.148,8969.923828125
34,13845.555,5210.876,-7930.3926,2277.2341,-452.1144,-2239.1382,19797.30078125
35,8047.3584,7841.208,-2945.208,-2249.3394,-1095.4813,-265.438,11730.4345703125
36,15671.211,2563.174,7648.244,-2361.3677,2734.9373,3252.1584,14209.880859375
37,7521.32,6115.1914,-450.45865,-27.699947,1504.6417,-506.49176,7866.43798828125
38,11236.613,8454.915,3313.0134,-2694.3828,357.28223,487.3255,8447.1728515625
39,4198.056,2998.6516,1349.0807,3296.8137,125.683975,-1908.3018,7051.05224609375
40,-645.35126,-11986.302,6362.2666,-4588.9795,-9118.039,14231.478,34313.17578125
41,11895.563,-5609.5815,-14692.561,-3861.023,5069.25,122.49018,25880.279296875
42,-5671.0283,10166.728,-6444.0903,10840.005,-8755.286,3540.6433,29728.208984375
43,-17630.547,2754.2517,-838.6096,-5951.8804,-4621.5806,6390.8755,25457.62109375
44,108.43411,6238.678,2979.2083,2709.4595,-2720.502,3415.4668,10365.6083984375
45,2903.9316,15776.364,4984.6934,2227.5645,-130.82922,-3446.9043,13922.1240234375
46,840.1155,12282.207,7030.72,2978.246,1437.8519,123.09967,11457.2744140625
47,4623.3228,13741.552,-665.5787,2949.1206,-990.62744,293.2462,13734.40625
48,4586.3403,23638.564,10311.295,1905.9098,-807.7628,55.785824,17307.61328125
49,5569.1445,12548.86,5912.4526,5574.6177,-865.544,-8.871273,11912.8046875
50,8511.413,7493.382,20119.58,4351.219,967.465,522.44763,14423.2294921875
51,3906.8748,16339.268,2041.1132,3038.25,-634.7153,-26.421434,14496.3759765625
52,-29.34016,12843.736,-18079.756,3113.5425,-397.19662,1170.7261,27523.908203125
53,-3726.2322,15703.732,-4844.174,6644.564,1122.4802,-1021.7242,23234.828125
54,-2704.3772,14321.347,4538.3486,7141.457,-871.4209,1948.4631,19638.955078125
55,3440.154,8855.747,-3241.735,3195.332,4724.1157,-1427.3064,14623.8349609375
56,463.90866,8752.044,-1983.5886,1789.554,-865.8711,-11244.985,22049.36328125
57,-20428.639,-15976.798,-10902.275,6155.277,81.40232,-1465.8104,13721.830078125
58,585.2329,-4649.7397,-2664.135,-307.75626,5709.987,578.01544,10956.791015625
59,637.5955,-6384.9717,-3619.789,130.28453,879.8168,-746.2801,6448.873046875
60,9691.302,7104.7686,4412.332,8058.5938,2608.5293,-1000.70776,15464.2744140625
61,12656.601,5975.2153,3549.7192,6827.5767,1272.2711,-492.94656,14565.7822265625
62,5756.179,441.5721,830.4955,6018.3,731.5838,124.26659,11689.3583984375
63,1580.5074,288.1643,-839.63684,2338.873,-1278.8102,-1402.8613,5623.228515625
64,7910.5713,3742.0264,736.46576,2717.042,-134.38464,435.87317,7855.5751953125
65,8303.819,986.79443,-1085.5819,1052.4534,624.8003,114.645775,8805.1552734375
66,8002.4062,1181.5402,1510.948,5600.249,671.61914,-812.3733,11908.287109375
67,-2582.4736,-2740.759,-4345.7886,433.15637,-898.8684,28.96254,2417.54223632813
68,5034.0947,-3474.0493,2080.6519,1500.2881,1449.6783,542.95905,8362.1005859375
69,10908.355,-4842.1187,-853.7075,2961.5183,295.4092,-530.9012,15119.015625
70,4621.954,7657.8984,7924.7393,4067.726,1286.1215,-142.36848,8047.396484375
71,6537.5264,-3069.061,20653.732,-1438.5822,-5782.8374,-2456.8625,23490.48828125
72,5649.618,-1745.3833,-10831.666,7011.497,-2080.12,-550.87317,19126.265625
73,4189.5586,8849.356,-1215.0487,4811.9736,-333.6362,-765.0541,12151.6669921875
74,9398.249,-436.06305,11881.596,-2739.9773,3932.8374,1855.1953,14371.91796875
75,6513.64,12313.636,2437.6514,1034.7839,96.480415,474.81186,8821.0517578125
76,2110.1304,-5736.9717,-1684.5687,1417.0026,-629.6824,-894.53986,7470.8203125
77,3198.462,-676.33124,11138.417,-489.0183,-1385.373,-781.424,10822.6455078125
78,1495.821,-1190.6477,-2994.3984,-362.05096,801.7852,-531.7462,4299.58544921875
79,-619.7525,-11762.519,-5105.7515,-6578.452,5647.5903,12160.638,27630.7109375
80,16310.535,-8104.0283,-6346.3164,-6567.563,-9590.151,-595.29626,31026.142578125
81,368.13208,-5209.272,11649.229,8342.462,-13133.049,5391.3623,32166.92578125
82,15755.7,6797.6206,18668.498,705.464,3249.6167,-7568.173,17883.775390625
83,279.77887,5983.6187,-8721.153,689.9996,-1673.9453,1881.5131,13614.158203125
84,-1620.8251,677.22314,3553.0498,991.8235,2759.94,-1696.7804,7389.20361328125
85,5438.4116,7590.592,690.9249,2707.8323,-1060.0587,1013.0145,8113.8642578125
86,1870.231,9046.311,-1697.5544,939.14386,-432.38138,1243.8159,9883.1171875
87,3203.746,12126.38,1956.7905,2423.9053,42.103127,-714.8559,10557.40234375
88,601.8169,5398.328,-1719.6462,1512.0311,54.619797,-2778.2388,8339.912109375
89,2110.8135,8089.4604,-483.76883,3143.5908,-1687.8423,3323.0452,11371.41015625
90,1279.3932,4654.1533,-727.06134,4934.1406,1073.4486,-3631.4875,11757.6943359375
91,-696.66376,-3061.8022,9412.975,869.52826,-728.36566,239.40405,11650.7978515625
92,-8305.814,1598.7097,4981.244,3043.548,2341.741,-2214.6736,14212.6240234375
93,21508.229,19946.23,4989.3657,-8709.764,-2826.3867,-348.1645,22392.392578125
94,15929.228,-2430.7615,2585.2808,-3178.0103,-2865.802,-3616.0383,19087.17578125
95,7101.101,773.53845,3747.4875,485.9944,3705.8062,1790.8389,9032.9091796875
96,9297.969,11148.439,-4683.8584,-670.31915,-3936.0117,-1854.4004,16820.51171875
97,6258.547,8472.474,2254.2666,1391.7542,192.59297,786.1725,6130.03515625
98,6601.4263,3329.412,2105.4514,5526.586,-739.28033,-410.33432,10487.28515625
99,-630.1171,-4941.69,-2229.6804,94.60715,-499.28806,1836.1707,5014.07177734375
100,3393.6213,7814.3257,26.200203,-3501.215,-1110.6979,-351.32422,9306.7333984375
101,4655.3384,5673.8115,5502.9194,2858.355,816.595,-75.91058,5236.486328125
102,-584.5578,3494.7737,-2631.0938,3237.5615,-708.2999,389.00607,7910.89208984375
103,-2023.7053,187.86635,-2455.359,2820.1096,2423.6296,-4807.809,10810.091796875
104,1098.36,811.241,-5480.3926,1548.0925,352.93878,-5669.947,12061.587890625
105,4718.801,11376.217,-1600.487,-1088.9976,-854.2647,420.92014,11515.3505859375
106,10652.164,11189.483,-1796.8693,237.34964,-2416.1,2045.3687,13863.2060546875
107,6514.154,139.52246,5689.534,467.86142,12281.49,1257.1027,22225.25390625
108,12651.557,2666.2751,19816.77,-3258.7534,1261.3412,-2862.5437,16846.560546875
109,8656.848,-5818.349,7388.6284,-583.2751,-18356.977,4613.029,35617.109375
110,21292.514,21926.771,-3795.455,-8637.585,-8865.226,4812.6084,34275.421875
111,7844.1143,7804.835,426.3691,3871.379,-369.331,-740.5281,10087.130859375
112,8340.9795,674.7643,-2691.51,6999.6616,-5086.4097,1247.735,18032.75390625
113,5005.122,-5106.1104,1132.7084,2512.3948,-285.9383,297.13123,9875.4375
114,5945.342,5963.6978,524.92474,2835.4072,269.2883,759.90515,7453.13818359375
115,3761.5613,7855.0854,12.612007,1245.6681,-265.32416,361.42938,7170.50390625
116,-1715.5957,-4022.2668,-20900.266,5544.944,3907.5632,1360.6216,21742.12109375
117,4742.86,9926.85,-978.1255,2350.4807,-118.88628,-23.88772,10289.76953125
118,-3646.9858,-6133.846,-11909.92,934.6902,2499.0098,394.79965,8702.61328125
119,9914.036,3078.9587,6759.47,5148.7715,-445.40817,408.29337,10757.912109375
120,6228.841,7619.6484,-1420.8519,-2753.9075,-786.86487,448.4316,9813.4677734375
121,-5680.024,187.70355,-2625.8372,7448.647,3200.5203,-1224.7848,15083.58203125
122,4493.568,-3100.6216,901.9363,256.60696,144.07187,1008.6183,6826.986328125
123,10151.891,14297.793,15409.93,1080.8984,-629.68036,-1711.5028,6043.0458984375
124,-17644.428,-5255.399,-13121.787,7819.3096,-763.5569,314.42902,17417.853515625
125,10480.206,-2188.9834,2147.183,5262.3564,-784.01184,-297.95514,14476.2744140625
126,7232.4116,8768.856,468.88528,4081.3066,-501.57077,-59.5808,10451.521484375
127,-18929.502,-16728.188,-3162.5757,1126.0059,-5591.472,-6033.4995,20628.6328125
128,-5387.1885,14070.483,2088.6182,1317.333,572.60004,-462.56555,17200.5390625
129,2917.7673,18299.07,-3211.2012,5753.897,470.54025,-1036.6549,21717.0546875
130,-2929.297,508.58905,3623.0688,1622.6962,-66.507835,-3572.7185,8856.1796875
131,-11521.407,1110.7024,-6475.9243,-5020.8677,428.46536,8634.826,20521.95703125
132,11085.509,15512.165,-1296.3029,-237.34091,-230.49849,2759.9258,15839.650390625
133,4474.6934,14612.001,3789.0542,-981.51404,53.575935,-2595.1926,11545.1044921875
134,-232.56413,4064.1504,-2442.7769,4193.847,587.4774,-943.32306,9450.5810546875
135,3712.4768,9765.001,7160.904,1867.9005,-827.04535,-1461.5498,6824.9951171875
136,3145.0479,16011.72,-3563.6064,2311.5515,429.7574,-170.95801,17707.255859375
137,-2325.622,14743.508,1327.0356,-196.96811,509.57944,630.13776,15634.4501953125
138,-14274.365,14931.519,-9364.491,1644.5027,5136.6553,432.88766,28662.24609375
139,3051.3345,12916.838,9268.505,-671.1782,3564.7795,-5415.447,14216.2392578125
140,-5495.99,-2191.3293,-12927.379,-1998.9329,754.92334,3797.9614,12152.16015625
141,6512.924,2067.5981,-735.24915,2985.326,697.86597,505.21454,8309.0146484375
142,-6732.9863,-4440.1504,-29446.564,6855.0576,-1401.8002,1123.7819,26905.416015625
143,6467.134,932.7049,-302.9738,2763.5974,575.0218,314.95206,7949.68701171875
144,2258.2021,-5479.5615,2014.6948,1840.6449,192.90536,-943.683,8425.8681640625
145,-549.277,-2660.8484,68.5821,1986.1039,-321.20963,-1025.5988,4630.77197265625
146,12878.391,922.4836,82.93708,2816.2642,-1484.9934,481.44647,13593.7890625
147,3909.3115,3989.5588,-5096.5215,5017.6743,-2580.0256,260.2067,13324.3408203125
148,8130.423,5656.893,-3552.1455,7510.3423,-1739.6276,-122.13767,17089.263671875
149,392.09296,6389.7397,-1731.4443,2412.117,1325.8105,-1873.1261,9299.0029296875
150,-885.8622,4751.9253,3365.227,2829.0002,-235.17058,1416.4392,7488.939453125
151,6659.7793,285.9751,-1705.0028,5004.196,-1029.1052,866.1099,11740.23046875
152,-6773.7715,4919.9688,-4080.008,4642.387,-958.9898,363.70602,13427.98828125
153,-703.74243,7860.221,-2029.7577,4333.824,-1073.9097,-1127.5679,12250.5478515625
154,1266.5424,8148.5015,6559.5117,3258.1514,-4507.014,8921.249,19248.45703125
155,-2265.2114,4616.1787,1633.7776,3961.7253,2658.0205,-3488.736,11854.115234375
156,-8150.3574,3749.1646,4375.29,4221.9263,-1015.5934,-2611.2888,15048.7880859375
157,5862.1016,7609.65,-395.8386,-4065.1218,2948.0554,3336.1824,12735.41796875
158,1700.2235,-14948.628,-4259.5674,3166.3013,-1794.1431,5262.785,18338.58203125
159,-14554.782,-2609.7612,2884.426,-4143.3633,-1156.0657,-4173.598,18608.234375
160,1219.2338,3645.0918,-5872.0693,-2768.3672,-10831.147,-6914.647,24325.783203125
161,-10771.591,-19387.56,-43406.7,620.47327,1685.6729,-3368.114,30030.220703125
162,-3094.326,4453.963,4820.2085,1359.796,-396.68698,-556.6522,8174.6025390625
163,-2962.3467,13131.203,-2712.4502,-515.6857,-1866.6581,-1701.3331,16582.453125
164,-600.89,8596.67,2809.0767,3813.5574,3226.0767,2444.7234,12555.556640625
165,5663.9746,-108.64375,10324.377,-1568.0299,-3806.4526,-8791.763,19096.435546875
166,-13350.036,-11799.245,-32639.94,6345.595,11874.799,-476.2366,30804.748046875
167,-707.11115,17994.746,4568.1533,6106.5083,-2196.0464,3039.3154,20808.150390625
168,5593.7686,16037.055,218.67844,4480.9106,1219.9802,-6.0526037,16086.8974609375
169,2976.174,11898.966,1808.6191,4622.6504,-942.07465,-58.425903,12576.8310546875
170,14488.356,301.3279,-5456.1733,5040.2954,-3129.028,-8796.167,25569.63671875
171,13570.158,16865.844,6778.005,18333.602,4289.318,-4656.5005,34756.09765625
172,28943.252,9604.168,5263.09,5785.043,15973.205,-210.45338,36643.6953125
173,-5496.418,8364.178,-18487.496,1151.0455,-361.6668,-123.848465,23352.974609375
174,-85.46833,11316.814,-692.58435,2949.6497,452.73294,250.06218,12814.326171875
175,6095.4775,3929.1328,5786.09,-3489.1377,-5742.8076,1227.5919,12004.216796875
176,10569.717,3211.0703,472.74414,4977.7725,265.7355,-135.59775,12506.00390625
177,3439.4365,5889.887,888.0746,4118.887,209.242,-510.0412,8400.8095703125
178,3273.9797,9777.925,9023.47,3393.8147,1374.954,-229.02988,8851.34765625
179,7126.9985,12436.99,-1288.8354,191.23405,268.17072,-468.49146,12028.890625
180,-356.90308,8760.864,4521.786,279.38596,3425.6355,-2481.1985,10787.0615234375
181,-5422.939,7119.5146,-1834.2767,2805.9084,-1262.4052,705.2515,12452.8515625
182,1988.3638,7256.642,15756.5205,-197.53894,6897.01,-54.765038,16959.20703125
183,8176.7256,10197.285,-1671.1436,3251.9685,-100.13293,-58.62626,12358.3046875
184,35241.305,21926.494,40806.5,10788.218,4387.2607,2558.266,26624.994140625
185,-9510.534,15445.253,-19608.453,2605.561,1590.3634,-5310.79,33004.98046875
186,16444.535,910.47003,3709.8208,3451.925,851.47516,-2071.7627,16014.2822265625
187,5513.618,-5395.7764,212.15565,7173.3525,-633.47095,653.00433,15688.80859375
188,-12676.339,-4182.0986,-266.4645,-3737.1663,2890.5234,-150.96346,13703.1982421875
189,-610.5643,-2383.6877,-9864.902,-2857.1477,4175.4434,1445.7719,12467.609375
190,-5229.841,-16398.57,-615.02905,6748.18,-1106.5818,-851.1812,18440.16015625
191,-1959.0953,453.9815,-515.70557,6447.855,1689.3418,863.3743,11829.8642578125
192,7029.2534,10796.867,6010.3696,427.7164,-2129.8977,1012.8819,6025.595703125
193,630.69867,4792.9414,-1279.0609,-1648.2345,723.26154,889.8057,6404.291015625
194,1572.3488,-12181.933,-1986.2169,-1242.1343,988.58685,-2261.8152,13259.19140625
195,-7045.102,-26568.21,-10158.976,6758.439,2471.1296,-2486.5042,22448.88671875
196,12293.787,17528.123,2621.478,-1955.8928,-1316.9445,-2919.447,14622.89453125
197,3387.7507,-11746.479,1243.3655,-1526.8035,-3012.0737,27.22628,15342.849609375
198,3457.5552,20586.236,15667.118,-1593.7241,1425.0101,-992.9191,15811.4169921875
199,8758.687,-9982.876,70.510185,210.66348,1870.7024,1125.2804,16683.255859375
200,11554.261,-7656.53,2032.2924,-2248.3962,1483.7573,-1620.1802,17505.51953125
201,8740.184,-2949.1963,-251.42325,-4709.004,1279.3329,971.4928,13661.9873046875
202,4096.457,-2144.3752,1571.0353,-2424.9053,-2849.4297,-343.98956,8480.462890625
203,3308.3938,-3397.576,-2323.0742,474.98688,3139.1296,-1756.0092,8854.8837890625
204,6474.0625,-9391.999,-2033.2623,-15.892812,-1466.4938,4774.9023,16247.4736328125
205,-2038.6857,4608.0728,5319.6685,-745.71155,6572.505,3588.319,14808.962890625
206,244.28104,20820.1,16902.686,-8798.734,3308.3435,-8778.385,29229.697265625
207,2077.2844,-4725.7134,-31144.424,4520.241,-2313.6306,2463.9956,31930.013671875
208,17154.533,-2115.1453,-6877.5654,1470.2635,-13720.905,-9821.531,36693.78515625
209,5795.191,27539.412,8455.118,-5050.595,9301.596,-11757.47,34246.85546875
210,51052.19,43708.457,48365.637,6727.7563,-11707.704,-16159.898,37038.421875
211,20207.006,16533.336,13931.392,6136.662,-10495.255,-580.17017,21777.54296875
212,-4615.395,-16784.13,-8428.507,6597.5337,4937.126,-845.3728,17946.28515625
213,-13478.739,-3198.1836,-38918.2,1489.3246,1739.2225,-5235.5117,33351.88671875
214,-12090.514,-7394.456,-37116.074,-3913.5554,7199.9473,9523.05,35204.88671875
215,18476.455,13.884662,-4592.583,9537.909,-3731.7188,5724.0176,29327.78125
216,8224.027,6469.2725,3240.7412,9026.553,-236.23903,951.58563,16324.4541015625
217,9490.461,11968.428,-6981.0015,7712.2324,-1031.1941,1974.1302,22618.1875
218,3622.5586,6121.3706,-21139.979,-1331.0555,-7543.1323,1380.6561,29377.44921875
219,-1347.0463,16779.441,6319.2427,1781.8392,2122.7446,1687.361,16732.1015625
220,-6861.227,8649.654,-4410.97,508.15488,559.5468,-630.3808,14542.751953125
221,-608.10596,14899.441,166.13475,6987.6963,-334.05573,-524.99493,19409.333984375
222,-7128.3564,10263.705,420.15002,5047.6714,253.24698,222.86803,17463.046875
223,-5845.7,12197.515,1573.594,-1652.2731,27.344934,546.8913,15994.53515625
224,-1405.6963,6449.386,-4015.5217,1456.3151,-1404.5143,420.53705,10090.837890625
225,-3342.1184,6391.211,4609.863,4473.3223,2644.6526,1152.686,12867.513671875
226,-10550.431,4637.2754,-4130.5947,-2523.6567,-1760.8096,-1091.0986,14365.1484375
227,-2199.3333,3874.8381,896.95557,5002.0933,1239.1307,-409.88437,10385.0048828125
228,-8182.2524,9718.843,3327.8928,2171.4446,1286.5413,2323.164,16798.53515625
229,2431.0308,-12619.215,-4687.212,4181.3643,3414.591,-2075.5674,16443.892578125
230,-5439.3457,925.44946,-3494.8442,3341.999,-349.4586,-3272.1636,9894.935546875
231,-5592.1885,-14969.295,-10497.111,6742.422,-1357.1875,-9035.741,21279.91796875
232,-10574.187,-21253.098,-2441.6921,-3366.0444,-5285.84,4644.1206,21202.296875
233,8210.026,-10432.112,-2212.993,7218.8125,1298.7345,-609.42633,20600.2265625
234,7906.8643,-5392.2324,5149.6445,4306.905,1248.2032,-85.4197,14427.1923828125
235,8188.7393,-10735.389,840.9938,7843.8306,-924.1384,865.15607,21504.580078125
236,4608.5674,-9675.777,-1541.0128,5639.715,-43.07049,-361.94357,15806.1650390625
237,3686.3564,-2905.6445,-68.21756,3323.804,657.67566,358.46857,8223.580078125
238,-3013.992,-3984.4387,1203.092,4808.212,-797.5376,1246.8822,9937.15625
239,2924.73,-9064.22,-2454.4016,2528.168,53.848263,-1504.3678,11582.4345703125
240,4607.968,-6997.95,1085.0789,-824.9385,-1200.2457,-359.73276,10628.888671875
241,-8171.9023,-9741.493,-3936.2134,2069.7427,-242.96646,1842.5715,7089.9072265625
242,9388.317,1366.7505,527.945,5225.749,-424.01663,577.6591,12459.673828125
243,-390.4925,-1992.4921,1399.4417,4469.9746,486.45743,-2190.1636,9147.6845703125
244,3922.5608,-8203.738,-2394.3027,2592.835,1693.055,1191.0238,11973.8466796875
245,13494.95,1015.4482,-521.8707,6275.479,-669.265,-215.76917,17231.2109375
246,-490.19418,-195.57347,2414.4846,4827.7627,-1248.6858,-487.28857,9109.3388671875
247,8451.247,622.7213,16660.75,3734.097,1299.0347,860.5084,15558.4189453125
248,4411.8335,-1383.2598,-856.69836,4193.055,233.90825,-200.08572,9156.32421875
249,7291.7793,5168.0854,17952.617,5498.162,-282.45737,-899.6529,15302.3115234375
250,3006.3445,301.90033,-6984.008,1399.1235,-708.97327,-483.16284,9390.6181640625
251,4437.8174,2642.7249,9572.078,-751.24335,-987.88904,-1044.2296,6833.1240234375
252,2486.8916,1870.2644,2588.4414,1898.5001,1482.8052,1135.5809,4661.63427734375
253,3359.9226,3152.953,3784.1895,443.359,40.720016,1411.1832,2622.90673828125
254,-5268.6553,1200.6603,6063.4595,-6377.693,-276.8584,-1513.3372,15036.0654296875
255,-391.40842,3974.8413,-1267.8447,1729.7137,-475.08063,-1278.44,6181.83447265625
256,-17822.111,1911.0569,-8527.039,-4943.0234,1283.9142,4360.6406,20680.095703125
257,100.38172,5190.6655,4885.9683,-8648.079,885.83624,-4138.099,17393.859375
258,-9712.545,4212.995,-8574.076,-1412.1909,213.20972,1134.1748,13760.1328125
259,-1396.5591,9821.706,12658.365,1813.9106,-584.1956,1947.9293,13711.1806640625
260,-5660.7695,12542.07,-1493.7727,-2624.7627,736.5419,766.9316,17231.2578125
261,-1344.7544,9510.576,-1635.2684,-1190.7218,-2517.8047,-2701.3843,12893.4150390625
262,-2122.6543,14422.141,3489.6372,5231.4424,284.13077,-350.68405,17178.15234375
263,-8127.4863,6690.1094,-2902.4636,2099.1812,-408.55505,-480.73553,13559.2578125
264,-409.85275,1524.2288,-4618.935,3098.3464,-2025.6936,-986.37964,8580.5673828125
265,-7218.621,9324.257,-10472.401,3878.529,-121.67735,-89.876434,19577.498046875
266,-7114.811,4456.2944,3276.1047,1142.1117,778.8733,-425.81104,11309.48046875
267,-10958.114,6908.221,-13270.013,3076.862,194.43355,-246.53564,19863.357421875
268,-7675.836,12100.145,-10162.03,3951.141,-63.364254,201.40718,22212.740234375
269,-8009.139,15123.308,-981.15546,4675.431,-1113.7396,67.21481,22163.978515625
270,-4801.568,15379.779,-604.7725,6156.1655,1991.2408,-823.9781,21629.376953125
271,-2779.379,14592.263,-887.2038,1849.0219,1586.5841,797.37085,17093.853515625
272,-8306.028,11541.605,3721.5105,1322.727,1511.1217,-1551.4734,17865.9609375
273,-4324.5786,14382.902,981.18164,1184.5063,2210.8074,-92.452576,17255.763671875
274,-6222.3477,-4016.1953,-6598.3037,8566.881,-873.8598,8616.362,21237.423828125
275,-4925.795,-7515.8525,-13314.055,4202.916,-2239.5312,14836.44,27995.44921875
276,3930.6155,300.41464,-7920.7793,6036.206,-3922.1052,-1146.6508,16432.025390625
277,8575.681,-6651.7256,4556.3677,635.0536,194.48625,-1540.296,13973.759765625
278,-6787.1665,9922.689,7668.2783,4261.3584,-553.33136,324.7803,17388.021484375
279,-4844.4043,16852.445,-1635.4442,5468.599,-319.89923,533.5904,22412.14453125
280,8680.229,-7572.2334,1047.2916,5744.626,-318.7572,-461.94125,17271.287109375
281,3135.921,-13876.397,-1745.804,2772.8494,-957.0574,342.1289,16011.4287109375
282,4282.7124,-4394.0684,-9355.174,2739.8196,-134.2754,768.3286,12934.080078125
283,-5980.3076,11982.756,3305.9773,636.5139,1069.4928,340.63754,15719.1484375
284,3460.2498,5945.67,2226.259,2307.8748,559.9394,86.263626,5263.916015625
285,5075.162,1023.5072,6445.1616,6335.4136,1377.6056,243.96109,12252.6689453125
286,45.822327,5676.1367,1707.527,2359.5613,2165.2012,-582.5691,7542.6005859375
287,-33225.727,-37790.035,-35472.797,5038.2256,-1049.6548,11868.534,22752.333984375
288,-8483.138,-15242.83,-24141.379,2133.4866,-1162.7776,3720.3362,15628.9228515625
289,7008.2266,-3050.0198,-973.4364,-1415.6808,-1560.4149,-1861.668,10407.1279296875
290,7900.5596,12316.04,7891.4243,-5740.058,448.25125,1332.8739,11149.625
291,7331.663,5304.8613,-1923.305,7219.572,2458.2292,-500.7704,15692.4189453125
292,6281.076,4024.1414,-4256.2197,2568.3386,1141.2644,-99.10209,10773.689453125
293,11336.593,-4179.8535,-1116.7433,-1813.5786,757.9064,169.4281,14638.6728515625
294,5287.3364,-279.84897,-3057.143,4614.5884,600.6051,315.4675,10928.5244140625
295,6443.778,-930.974,-4712.241,5575.7515,-907.8517,-1288.0607,14045.916015625
296,5768.3745,-2547.3496,-9197.549,3907.9138,102.687996,132.41145,14648.455078125
297,4795.4575,2306.0054,22693.93,5397.5015,5886.153,-14084.545,34023.12109375
298,-3699.8188,4979.8154,9290.151,3775.9648,4366.807,-1049.2257,15317.001953125
299,-4043.031,8281.611,3770.3352,-587.99695,7487.267,-1897.5398,17223.97265625
300,-8058.935,6954.747,-3472.4028,1523.8905,-791.14954,226.35753,13659.5888671875
301,10676.935,7990.993,5669.3013,336.3591,-2350.0745,2655.3652,7543.29638671875
302,-9963.3125,8112.2817,4964.457,2680.651,291.0163,-355.31198,17376.0625
303,-5379.318,16509.188,18985.443,3098.0193,826.7523,-600.10144,23903.224609375
304,-5276.1333,18338.375,2847.6711,6305.9395,-2383.5022,-303.56702,23841.474609375
305,-3961.9565,2995.6948,-4959.697,4976.8203,-4284.878,-1290.3025,13810.4208984375
306,-3785.9607,8672.801,1423.2505,4497.0767,-209.2018,3551.9922,14700.6337890625
307,-5002.502,907.41296,1414.052,-3417.2449,43.599247,-414.80508,8586.7666015625
308,-1790.2639,12087.565,7112.4463,2022.0117,1115.7048,747.57715,12883.2724609375
309,-2401.1553,17613.193,-2471.8142,5295.3135,971.58685,1401.7781,22245.02734375
310,-6141.299,3837.6104,1192.6558,-2128.2983,-152.37616,-688.91907,9760.28125
311,-2605.9922,14063.785,766.722,4210.4946,222.72469,698.8431,16965.642578125
312,-3773.4978,1750.4792,1225.4509,-6423.91,-432.0739,-557.5689,12376.68359375
313,-12607.741,-9959.815,-1335.1742,5869.903,-2353.5579,-3861.4678,16399.73046875
314,-7022.325,9771.374,10229.398,-3004.748,-4004.7932,-4053.8066,20357.572265625
315,-1673.7999,-8705.659,803.22156,-2528.1965,620.4548,1103.3905,9848.0146484375
316,-3094.3665,178.02939,-190.38564,-2754.2314,1733.2375,2290.437,7559.54541015625
317,1259.4834,-4324.546,3990.233,829.7826,-3757.271,2844.2534,11071.2763671875
318,4773.031,-1740.4868,-1431.6737,-3142.736,1074.8855,1157.8053,8810.66796875
319,11426.607,-6574.7686,-4808.569,-2002.8982,-747.3555,-2558.3518,18130.66015625
320,-5108.898,30571.646,3957.1704,11735.841,2236.8523,-57.90511,38210.25
321,600.99335,17220.322,-3382.405,-6557.654,-4049.2046,-7076.6875,26205.078125
322,12186.587,-3562.464,6598.1865,-2941.4421,7542.001,8711.402,24809.634765625
323,11368.176,18925.549,20694.854,-1512.4917,-3008.3276,1525.4948,10705.607421875
324,-19465.86,-18664.959,-1059.8593,12071.914,4327.7285,7494.6875,31409.7578125
325,-3346.9082,1325.0,12715.836,-3452.2395,-10527.352,-11312.623,30934.615234375
326,7184.642,-119.67839,-2678.6272,4985.0137,1061.6359,2397.3918,13182.087890625
327,2558.7168,-5662.262,1883.4077,432.89084,-41.393017,388.8574,7969.30322265625
328,6441.747,-4461.7363,-1269.8757,4385.3745,-657.1244,-272.96292,12388.9072265625
329,-400.65417,-10237.1,-251.57072,3323.6008,761.8966,342.28387,11553.19140625
330,11395.602,-3238.778,795.88074,1962.4543,36.688923,-470.74524,13550.6953125
331,6706.253,3422.0078,5338.9126,6305.522,-1484.5677,-1039.3185,11717.3544921875
332,1642.1638,2129.1414,-2660.9006,4886.0503,0.8356801,-585.8206,9669.490234375
333,-4035.1096,688.81396,-9479.009,3575.5103,501.304,230.45041,10813.6083984375
334,-2847.9497,2382.6362,20.043694,1309.2828,67.617096,272.4985,5095.31884765625
335,-4532.92,5739.1655,-7483.7554,-3767.6567,-1036.636,-690.4722,13848.2568359375
336,2668.446,10723.393,4831.7783,1595.899,1392.4999,1605.2849,8563.0205078125
337,-5840.839,13429.49,31.758352,4182.5693,-333.71185,-486.77322,18606.25390625
338,1143.723,3079.2117,3987.7354,-1720.3263,-662.06525,-9141.501,16347.0078125
339,-2363.0237,12883.818,176.39342,-306.5627,-278.13858,-259.44894,14174.3681640625
340,-8714.764,6642.794,-5913.0503,3528.1267,-1912.4952,-380.43973,15793.2529296875
341,8777.137,12356.786,14538.633,3156.3777,2009.6428,11719.57,21895.9765625
342,-3495.0374,5915.965,10590.516,7350.581,-891.4918,6668.1123,21266.85546875
343,3176.6523,5569.4385,27258.107,9780.353,-9806.748,-5830.474,34720.11328125
344,3200.708,-6968.8755,1241.6946,6115.3906,-314.8101,-43.749527,14136.2255859375
345,-6120.162,8656.808,-2467.6086,3653.7373,-133.03015,392.5215,14774.673828125
346,-2879.028,2195.1143,-449.48477,891.6055,-713.3744,-316.7382,4851.2177734375
347,203.92787,-6829.845,-4815.1826,6060.39,1098.1617,-2738.129,13253.568359375
348,-10429.715,-7525.3574,3380.3281,6232.335,1288.2455,-10116.909,24240.53515625
349,-1403.927,10302.49,7488.8223,4130.894,5288.7666,8994.282,22131.79296875
350,12250.456,2441.61,20991.639,-9992.491,-3179.9685,4001.5515,25224.712890625
351,-6447.0854,-369.50916,143.57083,4645.1714,-316.13577,527.32007,10304.6279296875
352,-6532.492,242.35098,-960.1045,3905.1523,597.5038,-4310.8022,11906.6650390625
353,-8040.7676,-6783.8174,-6114.762,-3534.8054,-2522.0808,-11618.423,21549.91796875
354,-4888.662,-682.34064,3902.457,1124.0624,1669.0007,4330.555,11243.0869140625
355,-4123.8813,4044.2869,-4264.91,3803.4653,-1002.9593,-5267.822,14055.513671875
356,-14381.904,-3448.2627,-4592.7524,6674.25,-2030.1886,6397.8003,19420.048828125
357,-15603.728,-4239.109,4845.4053,7385.8027,2683.2856,298.33746,22370.568359375
358,-2776.3862,-2323.2786,1842.2761,984.0773,742.6281,-23.586285,4899.58984375
359,1442.439,12001.273,-1830.561,4715.04,-202.084,146.57504,14954.6767578125
360,-9363.963,-12503.261,1503.9813,-1400.6006,1325.0266,980.9058,13271.1630859375
361,338.08224,-998.6587,-734.09344,-3705.701,-44.837418,98.48739,6537.20166015625
362,-6563.3677,2978.4858,-1157.7343,-1563.5309,-975.2001,826.24634,8995.724609375
363,-6711.794,1850.7676,-11377.098,-4248.485,-3540.398,-381.8226,15073.7841796875
364,5278.966,3519.836,-907.02954,403.47086,0.960841,-743.3155,5711.83251953125
365,-3348.8645,7064.8677,1191.5653,-15130.597,-332.88522,-3411.2783,28351.830078125
366,9155.897,-9099.412,941.9432,-2308.9353,-4216.821,2352.7097,18349.962890625
367,310.69247,-13176.717,533.32166,1427.9692,-2578.1716,807.93066,14593.7978515625
368,-9310.677,-16097.102,-1476.4756,985.9884,653.9867,-69.82468,12837.86328125
369,656.0664,3914.0632,-1872.6722,3100.0337,-2380.0127,-272.83606,8443.6376953125
370,3533.0056,3204.9692,2146.42,2474.0332,-1418.3181,-455.50946,5157.05810546875
371,3419.0444,7606.8447,-920.67285,6402.9873,-43.36889,58.060654,13324.9833984375
372,790.6033,4342.405,189.20801,5624.9897,27.619534,110.65973,10491.5947265625
373,3186.6716,4009.518,-476.30716,-4665.2476,122.46846,-135.7985,9083.087890625
374,4573.2524,2550.639,-523.77783,-2091.43,373.8447,-37.816063,5771.236328125
375,2790.1885,9621.307,971.19507,5153.4585,285.96915,-950.9694,12042.8994140625
376,4890.408,6299.247,679.2293,1755.6898,-545.94635,449.59946,6033.212890625
377,1267.9563,8563.599,-4353.5854,4174.259,311.6719,-292.60242,13366.4677734375
378,-13485.805,-13987.701,639.6747,-2874.5098,1072.7489,194.66592,15337.048828125
379,4802.0283,-2948.6812,-209.87791,1797.4281,1078.843,160.61633,7720.63525390625
380,1806.7568,122.202995,-2466.3323,4765.6074,366.26733,-78.60143,9080.3515625
381,7253.3447,5150.1953,2182.574,3327.7583,-68.156944,156.06297,7265.0048828125
382,7228.0815,3583.4019,3662.4727,2160.0508,1344.6968,187.59991,5703.45703125
383,2552.7793,4301.439,1092.3186,5097.2812,304.10794,-2.317684,9271.94140625
384,3085.9553,4722.8354,887.96094,4463.097,-35.242805,-59.443375,8419.052734375
385,5019.622,6165.625,2439.9534,3497.727,-203.96338,14.929126,6910.2880859375
386,7645.1865,10367.219,7960.9194,-2303.646,2070.5002,-94.136955,5954.62548828125
387,-3029.2095,19769.912,12099.726,-5814.819,4208.524,-264.73578,23633.447265625
388,-41984.34,-28107.344,-16263.9375,-8015.8413,-5042.8213,-1096.3088,27746.083984375
389,1955.7664,8397.686,9225.177,-10414.648,5211.111,-3057.1719,21963.93359375
390,3741.0269,3002.704,-555.8706,-3945.2534,17.468155,88.26608,7909.19189453125
391,4092.6616,-3186.021,-289.20438,-1858.2351,6044.156,-1915.2029,13086.0361328125
392,4041.9673,3356.6235,-1698.1932,-719.83496,-1137.1561,-1290.6431,6317.9345703125
393,3477.879,-10407.8125,-431.21848,1007.89954,4960.934,-855.118,15260.62890625
394,3711.5522,17450.043,10057.722,-1081.9935,2224.1113,341.07098,12670.21484375
395,8395.863,-918.4038,7535.3604,-1473.1708,1126.918,-80.30412,9477.3916015625
396,7141.9053,-1748.8003,9590.486,427.45102,1360.8208,425.62766,10651.6162109375
397,1754.7097,-2866.6934,4849.686,591.28253,-1111.8162,-581.73975,7142.26123046875
398,7559.496,-1895.4497,1150.478,-499.54712,732.24414,258.21457,8510.6884765625
399,8630.237,-50.383057,2751.2388,3981.4673,-831.7879,-266.72916,10427.259765625
400,-943.6196,11450.035,1067.9712,916.8633,737.68677,-899.70087,11802.5859375
401,1639.6248,5555.3887,-6298.8286,1405.6184,-87.059586,-250.44307,10750.607421875
402,2206.4797,12106.197,2720.0386,2311.0017,-396.696,685.18933,10539.7724609375
403,-87.85091,6314.874,1261.4708,979.7343,5377.4873,-35.437515,11127.072265625
404,2942.3635,1783.0239,-711.9248,-525.8759,147.82678,67.56989,3371.97607421875
405,499.63034,8213.244,259.04276,1448.8975,-660.0207,938.3016,8465.1962890625
406,13524.438,-28817.777,1709.0784,879.5388,-796.7712,2150.0732,38082.42578125
407,-405.16864,5324.136,-6692.892,-1855.8048,-5399.083,2024.7983,14780.6103515625
408,22422.205,-12761.931,-10341.753,63.865364,-3543.7273,3474.344,35107.3828125
409,-22383.201,-20034.137,1124.5731,1612.3577,-4478.133,-2273.4407,24215.2421875
410,4646.9243,4743.2524,203.33253,1702.8219,447.8149,1212.2146,5821.6533203125
411,-5517.8804,-8453.641,-803.27496,-1912.0642,723.05426,309.73813,7583.6240234375
412,4451.4067,252.13977,915.752,-787.7328,-317.0883,-45.504536,4178.15185546875
413,-9142.541,-10979.848,-195.3784,-3277.551,-156.6551,-270.2029,11505.9013671875
414,-3812.2053,3994.8247,4042.6802,2959.2412,4523.099,-976.1819,12321.97265625
415,-10633.409,-11558.543,-314.8802,1556.0748,-1697.7463,1841.484,11956.515625
416,3006.7715,1955.1833,-3112.281,2030.5864,-1185.003,-399.25137,7012.46484375
417,3847.9766,3288.0347,-2625.4497,3673.1416,57.060543,1119.4027,9101.587890625
418,-5724.549,-4298.557,798.3794,-3351.104,-797.4156,-20.255775,8418.962890625
419,1000.1225,-8760.676,4979.168,-9163.532,741.1242,205.65486,20090.552734375
420,2505.064,-1930.6647,-1740.8375,-2523.5151,426.9498,-247.19098,6221.2744140625
421,-11851.254,-12520.701,-446.41013,-3614.7183,9.712589,518.11774,13347.57421875
422,6906.752,5271.4907,1165.0859,-1319.705,-1213.9286,-1288.0406,6393.32177734375
423,719.1189,-2526.0254,-2798.9856,5379.5283,-1074.369,1157.1652,10285.384765625
424,3041.0215,7328.2964,1106.0227,-173.11139,-242.6007,-33.76651,5539.91943359375
425,-765.77985,-6060.7314,-10074.758,-2412.1702,-1890.656,-309.06104,9688.6015625
426,6024.9673,1906.1931,757.76117,1759.8116,-1115.2927,-308.07114,6026.64892578125
427,7955.737,-376.86963,-4430.6914,866.68866,-51.200684,219.91667,11047.6748046875
428,3508.075,6157.1675,-4126.703,2629.628,-795.89154,-548.1886,10444.1103515625
429,2673.1707,5752.9214,-6661.8496,-144.31192,-1060.6965,165.1062,11353.259765625
430,9669.457,2985.952,329.00748,-452.9654,2120.0955,-966.95294,9294.6884765625
431,11480.384,7023.834,1814.0332,-2549.8574,-339.50278,-451.36377,9522.7568359375
432,4014.349,4214.934,1608.2,2135.5935,-1407.0269,-235.95448,5108.90380859375
433,15724.924,-2602.208,658.35754,866.2036,7861.3594,3035.783,22406.6953125
434,5743.75,-490.1562,-4149.5317,1994.9617,-1174.2566,-122.56143,9549.1435546875
435,-103.546646,-1605.3484,-1924.7058,-2399.4224,-349.71878,-156.68263,4533.1279296875
436,5838.995,-8685.238,-1328.3491,-3735.195,-515.3418,-1177.3855,14319.025390625
437,-2651.6667,-7874.71,-7249.509,-1513.7135,-689.22284,432.91687,5767.74853515625
438,-3332.3945,6381.185,-808.064,-1262.8937,-558.47986,-595.83044,9109.94140625
439,5704.4395,-313.60715,354.49402,-4730.418,316.5059,-56.493973,10004.1611328125
440,6859.097,8115.633,994.24023,7563.611,210.81166,22.98923,14666.4365234375
441,5345.9956,5377.5747,4033.715,3334.844,760.3884,-716.39374,6196.95947265625
442,-1751.1038,817.1486,2671.4707,-3436.6245,815.8457,767.5574,7347.93896484375
443,12654.182,11734.475,428.4673,-5798.8257,-253.49449,119.26276,15497.8857421875
444,29640.213,5898.4385,11514.854,3777.8228,3455.0232,260.8043,23253.037109375
445,13791.11,4119.9575,333.3818,-8011.5586,-284.70523,76.34684,18365.88671875
446,8055.589,-3076.2104,1108.815,-4084.465,529.62366,-938.97565,12181.1181640625
447,-5457.143,828.655,3686.633,-3476.6924,361.53308,789.7015,10206.3291015625
448,2007.6603,976.35034,-4293.804,361.06836,955.1977,250.12936,6131.01171875
449,9054.938,3739.838,2099.7224,942.9419,-512.96735,101.82661,6568.52978515625
450,421.77634,-9599.374,-5903.7163,-865.5197,-876.6292,-128.19391,9035.9677734375
451,5916.1074,2468.976,2912.3271,-1715.7764,-113.29409,558.6354,4511.9150390625
452,-4345.478,-5560.269,-8918.252,-3623.2195,-2262.1792,946.62195,8617.123046875
453,9733.135,6638.3804,3986.7454,-2559.255,862.18695,609.7964,6914.46630859375
454,6163.5234,-2092.9817,-3350.3108,-476.87277,599.385,442.52264,9081.81640625
455,4351.6157,79.65201,-3117.366,569.8022,-254.97734,53.914295,6580.72412109375
456,5794.5854,4826.3774,827.0138,373.71484,-793.1948,298.6951,4835.1494140625
457,-2975.9658,8458.06,-6909.2695,-387.02475,-181.65897,331.67392,13858.560546875
458,-1253.6705,11604.171,-3396.9583,1915.8622,-3044.024,1255.8081,15524.7158203125
459,-2055.7754,-12532.659,-6085.9043,576.94934,-726.63184,-722.66864,9377.26953125
460,-1752.2485,-7173.866,-3510.2407,-1378.4434,114.42461,-84.59245,5358.580078125
461,-240.72314,17087.17,2232.5767,1647.9547,-691.7912,774.48474,16580.0625
462,19036.725,15530.316,4695.8936,-2164.8152,3579.3794,-4567.3384,16815.064453125
463,1925.6328,2267.2307,2010.6509,-4170.6978,263.5547,154.37115,7249.75244140625
464,5241.363,7342.01,-856.3772,-1038.0726,729.7501,614.5063,7769.65869140625
465,-3803.106,3626.1943,-2584.2085,-1670.8221,-418.99652,-273.95517,7533.3544921875
466,-3378.9006,-865.648,228.18872,-3374.951,99.95932,-197.71577,6676.8359375
467,-234.37482,629.798,-1553.2393,-3202.9263,-126.1445,155.1073,5875.54638671875
468,6121.028,-4706.0913,4140.75,734.91034,988.3661,-189.874,10215.984375
469,9590.293,3484.95,-2976.0654,-3266.3047,267.61966,-346.481,12290.154296875
470,5360.193,9500.561,996.08203,1543.0967,470.30475,454.141,7917.2509765625
471,5697.2764,-3889.0552,1849.3774,43.979763,-731.31116,-256.4766,8463.1220703125
472,5465.0947,6293.4736,641.4892,2284.2878,465.4678,-17.908924,6652.36865234375
473,15961.617,6076.119,-951.29645,-2989.8835,-186.19443,-908.50555,15683.6064453125
474,6316.779,-2299.897,-1511.9281,448.77933,708.21106,-24.178604,8377.88671875
475,-11744.544,-6488.732,2912.0547,5409.9478,294.28445,198.73618,15924.447265625
476,2643.5159,-3664.9514,-2619.6538,-2409.02,-1280.5073,-93.32229,7526.6552734375
477,-3531.0117,12814.21,213.30418,4418.618,-248.89609,-725.62,16742.83203125
478,-3471.0586,4397.7197,-402.01114,-1355.1447,230.42853,-253.28613,7283.4111328125
479,8158.8496,8255.423,-5.991203,-3985.237,113.14884,-207.00856,10736.6552734375
480,569.26196,-2717.1125,2179.5242,-374.42627,165.96693,-359.37674,4424.455078125
481,-4634.581,-13864.697,-12.9707155,-1375.2854,206.04262,-56.19556,12450.8388671875
482,-1493.7833,-2584.0542,5299.713,519.2145,80.522835,407.53207,7488.22265625
483,-11753.371,-11891.244,-4002.0195,642.5663,-157.71878,-376.53412,7931.5693359375
484,-12509.723,-14014.209,-1180.1414,2137.3538,-5016.532,-2340.0825,15915.328125
485,-2522.5083,4681.2705,-3705.1355,644.32605,641.97516,-104.62101,8020.41943359375
486,3023.313,-4689.3906,-1447.0212,-2342.2266,-398.56253,-341.67358,7891.52587890625
487,9175.226,-1866.7754,3278.5,-3558.8584,199.88768,188.69856,11393.3583984375
488,1766.6963,-10719.3545,-5227.9385,4377.4644,-1611.7301,-186.59828,13523.130859375
489,-16409.5,-25868.639,-1170.8271,-4355.0513,170.5008,80.14357,22865.76171875
490,-26990.104,-23822.566,-1752.2529,-2876.3118,-507.04684,68.04995,24344.306640625
491,7461.384,6762.7427,1699.4801,333.2295,-880.4315,-241.35902,5700.482421875
492,2936.8208,-7785.6333,2446.7231,-3242.6028,221.86888,-329.7381,11915.2607421875
493,-2560.6943,-18546.99,-18.1782,-3737.9502,239.63191,-172.50006,18570.1328125
494,433.73376,1362.5519,3356.1462,-1665.7456,48.91342,6.8914165,3875.59716796875
495,-14757.009,-674.7356,2111.3955,-2612.7075,-33.25376,56.98685,16303.3662109375
496,-12047.141,11444.058,1161.949,-4576.7124,653.79803,378.93323,21921.931640625
497,12129.188,2682.3193,2014.8037,-2335.9138,-110.67535,-148.67926,10605.064453125
498,-8868.751,-19010.45,-10025.62,-2708.6243,-5062.474,2524.3513,14507.677734375
499,-3602.5261,986.4663,-6014.1245,-989.7011,-87.74408,655.41815,6495.521484375
500,15853.237,5020.1094,842.70215,-6862.8394,-13.667802,-196.13705,17929.6796875
501,-18944.229,-6759.714,-140.1943,-1978.6774,-902.18317,-267.87918,16951.06640625
502,11042.428,6790.4917,-7079.9487,399.50275,101.151375,-274.55484,16437.15234375
503,-20929.186,-4355.082,-567.7114,-476.64685,342.50452,180.44698,18786.923828125
504,-1209.2178,16580.797,-4557.253,4793.707,716.84784,-486.42282,21411.349609375
505,9276.64,21698.336,2803.7812,874.82074,44.153904,-703.49115,16744.75390625
506,-4576.02,566.40295,5891.909,-5144.323,-996.5149,-662.7092,12879.45703125
507,9908.305,4700.6733,-1051.7158,-77.108986,202.53592,46.53469,9503.3212890625
508,2600.8562,3648.537,1022.90607,-414.08258,-222.7439,-263.70218,2472.3681640625
509,-1626.8892,-2035.8154,4011.0027,7058.376,151.117,1013.885,13670.1474609375
510,5259.899,9130.107,-352.16653,1710.3347,895.7911,1088.7067,9106.7314453125
511,-4019.1606,623.9152,1028.1897,1076.8503,-248.10606,-0.7722786,5221.31787109375
512,5410.4595,10457.135,2350.914,3798.5205,659.8494,427.98376,9767.919921875
513,-4613.2344,710.9125,-1521.1403,424.76047,-229.11977,-152.18571,4713.07275390625
514,570.30975,6058.099,1892.6897,-1189.9724,-761.42126,-657.5444,5647.3056640625
515,-23806.896,-21888.387,-8474.828,1401.7767,-418.49713,821.3972,14757.4619140625
516,-1659.9292,12060.998,1464.4626,-3567.4233,2105.5974,1215.4485,14528.1865234375
517,24255.566,14702.138,8755.007,-6672.794,456.93814,357.4853,17833.6796875
518,7037.2236,7543.814,2178.8186,-375.46432,846.89636,-912.754,5603.20751953125
519,5109.4966,-1361.8552,-960.609,-1929.0757,-919.93164,1485.7173,7730.95556640625
520,-971.2185,1352.578,2540.2954,3893.863,865.817,128.00134,7573.328125
521,944.87836,4275.673,-2937.805,-1814.651,69.58317,-224.08775,7010.41259765625
522,-694.151,6378.445,-2093.2974,1590.467,-204.46863,217.24501,8350.484375
523,2163.2812,2597.2524,471.5089,417.4113,89.77638,-178.00063,2103.93286132813
524,-10238.863,-16228.311,-1690.1016,-1113.396,-10.788316,-96.63824,12802.5185546875
525,-13943.131,-17440.049,-2189.8867,-1860.5343,131.48114,-231.06497,14214.92578125
526,4295.877,11106.972,-1359.6841,-463.33896,-43.704357,245.52708,10850.2333984375
527,-213.25659,892.0333,5824.677,214.5898,-104.193375,1167.086,5938.14990234375
528,9866.013,8302.505,5462.8447,600.8762,1033.7412,265.15344,4409.98828125
529,2699.5852,-377.95367,4382.2515,3752.6504,9.703141,461.19604,7769.59619140625
530,-602.547,2364.9504,1156.7826,3410.2786,647.73755,-167.0171,6550.7900390625
531,15170.169,-8481.004,289.9946,-1854.4537,-359.8078,148.55626,20967.48828125
532,10392.572,-5498.9756,-2936.146,-2594.478,398.2614,120.667534,15462.7138671875
533,6559.55,-117.23975,825.2655,2215.3782,-119.20836,-70.460075,7345.4853515625
534,2819.597,165.22601,-181.88098,660.1667,78.04914,124.78205,3075.70556640625
535,-12573.98,-9359.981,3233.8743,-43.528904,203.36206,-463.75568,14497.8125
536,-21377.354,-9243.796,2615.7725,4476.406,83.52974,20.166037,22179.001953125
537,-599.04565,8094.0244,2485.253,-1078.1437,228.87984,-257.25134,7881.193359375
538,3741.414,11748.704,1540.3623,712.2504,151.62378,41.10826,9390.5126953125
539,-8212.141,15703.891,1286.387,-7874.342,67.96715,30.356861,24921.154296875
540,-1789.0547,-4761.617,-3173.0156,10604.2,-1023.4095,-217.01778,18635.1328125
541,-4047.5232,-11026.325,-2738.0752,7157.6846,-32.53678,-615.047,14642.1337890625
542,8823.119,-17848.906,-814.7243,1187.5281,-294.5583,410.91464,23499.396484375
543,-14685.152,-1603.6892,-699.5537,-6133.4434,-545.8347,-523.6361,17272.6171875
544,-1493.627,-21937.266,-819.3413,-170.02058,-119.90103,-23.488827,20792.146484375
545,-8915.537,-26114.557,-665.77344,-3527.8018,76.52357,36.352814,23304.728515625
546,-6908.858,-24475.285,-2629.2676,-5256.882,318.54913,231.84062,22032.736328125
547,6986.4326,2500.85,-1916.304,2039.5477,-231.18303,-653.6891,8565.4384765625
548,4067.1423,3102.482,2711.061,4663.212,306.46625,94.42178,8185.7509765625
549,4526.589,3709.9634,-268.67188,6700.709,-278.92148,81.210236,12437.73046875
550,-13698.783,978.90765,-1848.2759,-2684.2466,-300.95502,615.6201,14316.2587890625
551,2607.0706,-3554.521,720.21277,-785.9987,-190.3128,215.4471,5656.9150390625
552,-26188.705,-22003.822,-1292.7147,1975.084,-230.80713,211.17358,23348.087890625
553,5968.332,11245.636,1182.0068,-2508.0327,103.643745,-59.576374,9743.26953125
554,1913.3926,7847.452,2601.621,2951.7563,476.28076,-92.0906,7645.08349609375
555,-479.69873,6832.7563,2703.1255,-2125.441,-179.4297,80.93072,7348.25439453125
556,20383.523,17417.059,3832.7285,7747.1206,464.24725,83.81371,20355.654296875
557,16593.28,14184.402,4440.0728,5696.6,-773.1236,-143.81358,14947.7919921875
558,-29780.656,-29284.336,-886.59375,-3664.3203,-35.431885,-44.453175,29343.888671875
559,-16549.594,-13806.831,-4395.9116,-2358.499,-346.91257,-151.80289,11790.5810546875
560,-5002.814,-3927.6326,-3549.9253,-5943.6895,-84.21389,-481.44388,10411.7119140625
561,-3545.8884,-7859.23,107.44922,1847.8518,257.7411,103.02328,7627.888671875
562,2897.4941,2435.6282,1141.1019,240.08502,-290.0084,80.70019,1712.24731445313
563,6031.1406,7768.6904,679.7114,-5671.448,-232.5174,129.77824,11733.02734375
564,-1902.8081,-5915.128,-1804.6686,3574.9158,62.65108,140.86598,7410.36328125
565,1247.5967,-3011.993,-426.6143,3084.3809,-177.69283,-327.69843,6540.08642578125
566,5006.549,4203.73,1895.614,-2655.3953,361.17294,-175.327,5427.87646484375
567,-5592.7686,-1956.5154,-5970.576,2699.037,258.7488,-984.3677,6300.87890625
568,6829.372,6870.0693,3749.414,-3028.942,-223.11777,368.70715,6139.52685546875
569,-5169.5747,-2703.9001,1254.7356,-2265.9739,24.810091,321.95663,6872.2470703125
570,12474.84,12423.277,4279.217,-2907.9563,-466.28818,782.3048,9726.521484375
571,5082.4507,2578.889,-1052.8228,4305.699,2146.9082,-496.49445,9936.4814453125
572,1336.9729,2035.6455,-6875.4727,2301.7517,-890.87634,-635.809,9651.8466796875
573,4165.108,7759.5674,4179.0757,-889.91394,44.49625,-452.83972,3983.35278320313
574,5880.6016,7325.343,1796.5554,-245.31128,-1731.976,-1601.2021,6445.029296875
575,-2410.7915,-295.38058,-1195.7228,-1514.4326,-10.1954365,264.28915,3235.94848632813
576,4742.868,12872.914,-1302.749,910.05615,-2277.9697,4092.6445,14835.751953125
577,-1421.9537,5787.5347,5542.5522,-2716.3308,4529.2505,388.52634,11593.1484375
