Element Label,S11,S22,S33,S12,S13,S23,Mises
1,38409.066,24288.572,2500.6992,4167.6973,10502.275,-2640.0186,37224.546875
2,-17235.023,-32326.309,-27503.918,11322.39,386.79272,-16366.999,36971.6171875
3,13225.411,24629.256,31566.61,-500.379,804.7645,2890.8445,16883.486328125
4,-31521.736,-14820.82,-35598.45,-2028.4648,-7976.9556,8960.973,28421.146484375
5,-451648.44,-461795.53,-445314.3,-14794.34,13891.853,7275.691,40021.65625
6,9694.768,-23478.508,-5474.7637,-3402.9502,-1603.3044,5171.5796,30822.80859375
7,5237.1465,16707.941,21769.896,-2993.4062,2179.195,5455.954,18592.9453125
8,-19058.244,-27184.215,-36774.37,7529.4683,-4158.6074,1822.0128,21629.880859375
9,-17000.912,15711.734,258.3213,1823.1884,5583.708,4997.5605,31334.25390625
10,-18204.865,-20153.627,-5826.829,-10393.31,13144.894,13793.095,39928.82421875
11,15971.299,-3804.9277,-1989.2734,1040.7217,-1514.6014,-11289.743,27404.29296875
12,8192.05,1920.1631,-5804.121,-3655.8555,2231.8547,-3693.27,15601.5078125
13,7029.28,-11115.217,20787.117,1533.7546,524.5752,-1105.9813,27922.791015625
14,2256.29,-492.28125,-36042.484,4915.9883,-3396.3699,-2018.409,38579.94921875
15,34580.473,27742.197,34083.316,-4099.4673,-14008.243,-2353.8044,26445.041015625
16,2749.6047,-22359.28,4976.2847,4049.1196,-9120.681,6732.3145,33556.5546875
17,13068.252,4840.5376,11960.117,295.84952,3851.4949,1622.4413,10605.064453125
18,17754.328,-8941.95,-9972.014,-10840.336,3998.6099,-8715.669,37008.71484375
19,13191.261,12263.496,11405.868,448.64728,155.49197,-558.4285,2000.96557617188
20,-13383.49,3493.6748,11783.718,4985.763,-878.6236,-7354.1357,27066.869140625
21,-10377.008,-27753.883,3467.2856,5605.4443,3126.047,4318.6357,30227.837890625
22,-11225.353,-10507.432,-10490.755,-1022.303,-186.22823,-281.0126,2000.97937011719
23,44250.887,43914.95,45575.312,-231.4607,422.96945,574.1298,1999.54711914063
24,279457.56,281209.94,280651.7,0.34961396,273.1116,-676.7769,2000.51208496094
25,-855072.9,-855088.9,-853993.75,-2470.4297,150.84998,-341.38937,4461.951171875
26,475590.0,461653.2,454707.6,12922.768,5547.257,1423.5565,30637.638671875
27,-10452.152,-11710.439,-31140.113,-1467.5527,-11007.27,2830.036,28240.255859375
28,-66248.7,-97833.81,-87431.85,7981.7925,8157.037,-1055.0967,34225.01171875
29,11896.57,1280.0293,-548.6978,-13505.923,844.91315,27.261429,26169.517578125
30,25310.072,21946.154,29734.639,-3403.369,1137.6086,16793.459,30503.583984375
31,-19852.596,-18484.426,-13241.835,-7493.8213,10509.125,3328.4438,23865.50390625
32,-5346.47,8802.789,8169.5527,5014.0903,7009.4854,-756.74426,20400.5546875
33,6706.6733,4550.8486,3993.7876,-11651.01,6028.043,-2386.815,23227.126953125
34,-1395.3032,-25116.916,-4348.7856,-117.34144,-14398.48,-3984.6965,34219.87890625
35,8985.989,-1102.7822,6230.6416,-14243.271,-15167.269,-8613.391,40036.22265625
36,2332.438,7234.382,-4049.6873,3072.319,1005.71655,7342.746,17004.263671875
37,-2673.409,-10829.881,-17159.334,-9004.807,-18024.354,-358.5744,37101.12109375
38,23550.654,25604.367,32418.23,7785.2437,-6585.1606,11014.294,27212.26171875
39,-5983.937,8700.771,-10831.239,-7065.214,-15631.778,2668.1692,34849.4609375
40,13074.227,24433.154,-3243.3528,6102.466,-3821.8794,-4924.7407,28441.845703125
41,6373.2627,24587.186,573.24713,-3103.5732,-1928.6907,11522.7,30156.29296875
42,7388.9224,-2330.2563,7069.23,-4256.6167,2678.8909,-4075.5984,14736.849609375
43,1046.6263,-370.6498,31.924112,-547.24475,230.11041,-669.6614,2000.70007324219
44,-57785.94,-75386.23,-59600.754,-2451.0637,-2272.6277,-5237.161,19922.94140625
45,15309.744,8673.809,20795.889,6080.577,-5060.847,-15157.637,31425.431640625
46,10185.615,5308.8843,33852.29,4830.2905,-3231.0916,-4449.018,29325.86328125
47,21699.75,18021.725,24885.006,-3104.7651,-4706.697,-2176.81,12040.8623046875
48,-89109.86,-66068.44,-71282.73,6946.0464,-1920.5673,4343.6763,25502.201171875
49,681301.44,682369.3,678442.2,1323.8888,-363.50372,6913.9365,12705.5498046875
50,-47327.82,-35391.457,-37876.594,9850.357,-2595.56,7730.9854,24689.9375
51,458589.0,460151.38,459150.6,-299.62738,606.0492,500.58337,2000.48754882813
52,462810.22,462488.62,463548.66,-260.6692,1366.7056,413.24475,2684.3994140625
53,270267.97,269586.62,271174.03,-527.0686,495.27887,105.24895,1872.18005371094
54,450314.56,449167.7,450499.25,-650.3176,457.9464,-140.96916,1875.83203125
55,899576.5,900585.0,900533.2,882.8947,439.5458,198.57071,2000.97607421875
56,1186.9669,1502.2155,2191.8433,-789.6814,431.41083,-368.39166,1904.900390625
57,14993.665,14912.978,16306.9795,770.8282,182.89764,-307.42157,2000.91979980469
58,-61702.23,-62592.35,-62122.32,-1020.30396,196.42094,-237.30708,2000.65197753906
59,-32869.395,-13689.721,-6370.9346,-4584.2617,-4785.815,-14242.722,36084.90234375
60,11387.341,-13700.588,4262.4126,3745.1694,3529.739,355.48508,24109.21484375
61,13092.865,16610.465,20723.084,-5443.45,10571.752,8884.165,26546.52734375
62,-2139.7659,10585.0,12315.968,-5212.4116,8351.872,-10076.347,27969.794921875
63,-1378.4939,9532.07,15210.878,4108.9688,3912.232,8002.2124,22403.6171875
64,5757.597,-10817.085,-13539.882,-258.39935,5637.5396,512.4042,20581.466796875
65,1927.1212,3186.8462,-12995.477,1993.2463,-1990.7422,11265.232,25447.865234375
66,-14014.2705,-12790.869,-13344.642,-2879.8723,-11374.189,-4834.437,22005.42578125
67,-2773.741,9546.027,172.84836,-6340.99,-1894.7616,-13474.885,28289.044921875
68,-5685.915,-9445.122,15040.917,-9130.919,-2719.5137,853.1767,28215.982421875
69,26957.027,29702.71,19458.559,-7.771497,12116.78,-11439.039,30287.923828125
70,10758.597,8958.015,21598.834,-3505.4407,15058.72,-2557.563,29615.10546875
71,4605.2407,-19987.514,-24799.398,1115.5659,11589.099,4210.483,34729.453125
72,-3718.7703,-4777.5967,4240.24,7758.9033,16406.594,-2387.211,32834.75390625
73,19653.758,-5172.9663,8320.202,-7961.4453,-6411.4507,-8396.985,31439.5078125
74,55112.723,32726.83,44086.0,2476.0845,-3422.926,4936.5454,22417.05859375
75,7305.466,652.49945,21643.234,1532.081,-12616.636,-5367.3887,30269.27734375
76,-28603.969,-4128.463,4378.402,-268.80225,-748.50635,-5298.1914,31076.30859375
77,29775.14,26033.973,39566.395,-5445.337,-12115.098,940.97034,26046.76171875
78,1031.3627,-701.2972,44.60015,-57.54773,742.1626,158.64511,2000.9853515625
79,-13406.604,-25955.225,-28750.025,-12032.075,-7133.738,-11451.539,34361.984375
80,12246.831,10570.972,18070.562,4571.3174,1410.2925,14045.705,26589.23046875
81,4619.3833,-23335.814,-9167.236,-1082.4707,-3919.7412,-3012.352,25748.54296875
82,11587.423,6349.905,34894.42,-6031.06,1246.9039,11226.798,34418.41015625
83,21895.379,7748.469,33499.492,-3100.1343,-9349.292,11493.225,34442.64453125
84,-1147.7616,-4317.4697,-24424.852,8414.071,8770.835,-12022.42,36808.6484375
85,17538.256,12228.633,23400.018,2518.7021,-6435.044,17451.51,33920.53515625
86,-15781.276,-5926.855,11354.603,-4448.4194,14950.834,1469.7726,36089.96484375
87,5898.0083,1257.5194,22779.281,-45.66526,783.09937,15714.136,33578.22265625
88,16808.928,25311.58,22651.443,-3834.5212,-9419.417,16390.344,34248.65234375
89,13316.781,1622.2802,29415.803,274.55884,-12836.405,-523.4891,32856.93359375
90,14004.875,18197.252,11090.621,6997.312,-2643.88,3274.7803,15437.5048828125
91,1133.2871,448.03806,270.50455,870.4795,-398.8376,-458.54327,2000.98559570313
92,-6913.918,-6357.192,-5816.891,5415.3613,6379.7866,-6828.9297,18732.029296875
93,13621.392,9523.977,406.78305,11073.996,140.76067,8504.599,26874.0234375
94,23030.316,16532.9,29869.715,6125.502,-1433.7599,-1188.0,16012.4501953125
95,5868.578,935.09235,-11350.219,-6086.8516,-18205.092,2357.8955,36850.80859375
96,13571.009,15847.148,-7687.039,1796.2023,4208.2827,8889.273,28378.462890625
97,19902.502,23599.48,27156.158,-8033.388,10535.993,-11229.013,30730.541015625
98,-11648.136,10473.588,-2902.5479,12177.884,-2082.7534,6732.668,31085.22265625
99,-1234962.0,-1215238.1,-1225969.8,1925.3939,-611.562,6410.8306,20689.83984375
100,-10734.559,-26368.393,-26074.623,-6775.388,-7592.7925,2725.523,23934.595703125
101,5356.521,3178.413,-5695.4893,2415.0583,1891.7393,11865.634,23525.134765625
102,-4692.983,-9560.755,-10622.303,-2589.7852,13301.601,1698.8025,24280.978515625
103,2831.4624,6427.5806,9792.27,-8263.948,13132.111,6396.568,29687.31640625
104,8831.551,13006.321,2961.558,-9986.626,474.58774,10421.067,26496.435546875
105,21312.777,23785.549,28758.871,444.8563,7908.5356,-900.9372,15290.845703125
106,34494.977,21339.389,8024.6567,3001.7065,-5189.461,10089.967,30639.177734375
107,6119.2993,15337.63,2639.88,-2303.886,-4115.2383,-65.12478,13996.44140625
108,4991.7188,2498.4426,16915.24,-1537.2612,-12797.222,8406.218,29807.802734375
109,2462.6099,1558.8344,2291.4722,-490.26773,928.6492,37.681137,2000.98559570313
110,18002.33,454.7959,25147.014,-5144.96,-3490.626,-2.6116076,24501.005859375
111,-696.0768,11740.3545,2023.3975,-8375.995,3531.3691,-1170.6144,19499.599609375
112,6947.5806,5496.955,28934.453,-13702.897,-865.2245,5403.271,34213.47265625
113,-12288.184,-17239.742,13202.892,-4700.5215,2456.2246,1249.13,29826.1328125
114,11950.594,1328.1943,-10037.318,4223.3223,-2885.5122,3676.81,21949.578125
115,-25589.242,-21652.44,-16334.474,3856.3936,16496.764,5350.258,31806.220703125
116,15914.585,2269.751,-12602.165,1135.0338,10680.329,2050.2124,31128.1796875
117,3987.4526,5360.208,18916.842,-7933.19,-10418.07,-11249.844,33141.6484375
118,-988.7435,2280.9377,24587.768,3829.0188,-12626.376,1215.475,33285.34375
119,13407.8545,10604.1875,10284.6455,-910.67786,-1429.4623,5489.14,10385.9814453125
120,9634.98,10722.463,10179.186,-839.24756,-532.95886,-224.74393,2000.90930175781
121,20428.729,4041.013,19432.674,-1690.6305,-6974.84,-13999.345,31554.572265625
122,2229.3477,-6368.9683,7559.1055,-5238.968,7915.4087,4809.7676,22087.71875
123,16062.698,2285.0488,-2813.7273,-4622.1855,-9299.964,-4984.303,26156.48828125
124,8557.952,19115.916,25547.328,-717.8966,4831.1875,-9239.275,23417.859375
125,25936.61,-16408.105,12141.004,2177.2478,5672.518,-4893.188,39771.92578125
126,13455.6455,15107.598,13678.299,61.189266,-717.3573,-112.83958,2000.98547363281
127,39503.0,25091.217,37959.09,925.538,-2843.2363,-16130.536,31547.37890625
128,1118399.5,1119245.9,1118011.0,-185.31071,-383.04648,-866.8634,1998.41198730469
129,422353.34,424348.5,423247.5,48.341866,223.47151,-532.3785,2000.82287597656
130,18111.035,18493.357,18931.146,-333.5897,-640.2966,-794.5711,1990.73376464844
131,-23879.875,-9840.706,-9954.596,5692.621,18816.422,-1681.4763,36924.046875
132,34405.027,9933.328,5675.001,5281.5664,-8857.5625,4967.5386,33380.97265625
133,22500.174,4930.005,27449.854,-10372.144,3389.887,11563.793,34330.14453125
134,17309.475,8694.769,31910.148,-5860.527,-254.31978,15146.349,34707.9296875
135,19581.305,8428.448,35342.34,368.62265,-3955.2012,13561.557,33877.17578125
136,12683.549,6082.2827,11731.911,4784.415,-11548.841,-10169.687,28587.880859375
137,15054.521,15553.607,15537.439,-1010.0399,24.785744,-483.14206,2000.98547363281
138,-48837.305,-64109.555,-51515.223,416.34888,-799.8213,724.657,14266.380859375
139,-27760.23,-33766.96,-35943.15,-877.6248,-11821.847,-11725.426,29798.0546875
140,13647.693,8287.3,37489.68,318.8333,-4771.232,-9424.624,32558.34765625
141,13072.939,12900.417,18569.447,-7130.334,11061.757,-11004.33,30233.884765625
142,-6344.4097,-1725.7767,-6194.0195,-9243.212,12439.057,-2400.1245,27539.841796875
143,1817.6409,5894.268,3909.1665,251.02045,10892.645,-9532.711,25322.37890625
144,-4332.5967,12866.942,11914.611,3634.038,-3777.3188,-8524.55,24099.34375
145,-13913.825,-5643.02,11401.866,6922.545,3348.105,1635.0635,26178.69140625
146,14494.64,-6988.0874,20211.389,-5007.413,5985.406,-4768.2646,29460.26171875
147,-14763.747,13363.413,2471.2432,-9896.969,2169.2273,13898.395,38611.83203125
148,-12795.171,-14507.052,-16447.016,-2181.2317,-2270.863,2368.799,7522.79052734375
149,59200.445,53393.62,76284.61,4649.694,-12648.672,-4605.434,32144.1796875
150,-38166.83,-16627.268,-22328.91,9352.39,-3153.8496,6327.7314,28035.921875
151,41053.406,41254.42,40750.656,418.5275,288.3067,1006.00867,2000.98498535156
152,225151.6,226220.61,226234.44,479.65088,-589.56995,-557.0656,1954.91882324219
153,-13072.836,-25324.445,-22311.357,9297.725,-1942.9443,-269.62064,19828.052734375
154,6164.656,2087.5852,22284.875,-2331.1248,7947.3223,3318.0781,24104.32421875
155,5107.5923,-7246.32,3311.4988,3197.1724,1729.4724,-7038.684,17942.25390625
156,5696.5215,-6109.508,1405.2407,-673.23566,-8482.998,4909.77,19917.21484375
157,-1302.7615,597.1339,11621.244,438.43594,-10191.882,5170.29,23205.193359375
158,-5120.2974,4479.7007,19601.314,5071.9497,-12313.212,-2844.574,31973.19140625
159,20368.625,12679.634,20847.87,-3245.738,-6870.877,17595.135,34132.578125
160,34433.56,58607.863,56811.68,-8616.768,3469.784,9845.0625,33073.28125
161,8012.877,13687.97,6500.596,6625.455,14391.802,9081.939,32304.53125
162,19605.781,29741.469,31259.4,-4341.1606,-2586.4158,16199.354,31373.306640625
163,63232.16,43373.754,53169.793,-11274.812,-1019.3883,9722.596,31045.984375
164,679184.75,679888.0,678152.5,397.1844,632.61035,-103.853096,1998.05908203125
165,-358826.9,-345335.34,-358565.1,-11640.211,-2008.1931,8325.027,28373.55859375
166,32210.607,37242.062,44329.14,13765.791,2561.3613,5422.024,28063.6484375
167,6415.5425,-14195.814,8736.531,10163.501,4996.6133,2513.9758,29695.1640625
168,24942.078,17496.645,33066.137,-10115.806,-7271.7363,6023.185,27502.384765625
169,-1348816.8,-1321765.8,-1332358.8,1753.7972,-6330.237,3686.8289,26974.76953125
170,-631880.8,-617834.1,-631092.8,-255.91489,-2276.9119,4597.422,16310.1171875
171,-107636.74,-76102.49,-78535.76,1666.873,-2439.8584,8058.655,33832.2109375
172,5601.727,4934.05,11466.924,-424.46262,-2173.555,11877.271,21833.109375
173,-35299.45,-42950.137,-63490.832,2782.6736,7605.3877,-9904.008,33595.046875
174,6184.961,-7080.963,4623.2007,-4786.9263,6536.979,-7643.962,23020.34765625
175,2205.193,-3892.7043,10977.828,-9614.872,7210.487,-562.1709,24533.5859375
176,1099190.6,1099742.8,1100205.6,575.00244,611.425,603.1901,1994.88854980469
177,-26765.89,-14473.829,-5029.2637,5392.577,-8390.65,-10899.8,31800.2109375
178,28246.836,16360.709,-7392.843,1258.7083,-9251.829,-10575.47,39810.96484375
179,30581.383,18554.66,32046.908,1936.3011,-10243.328,17291.738,37248.53125
180,305062.1,304270.03,303560.28,630.451,237.26894,-559.3474,1998.29370117188
181,-30326.084,-6277.6895,-13029.15,-6568.1216,9746.881,-4559.292,30632.220703125
182,44300.383,16398.207,13431.571,-5875.7783,-1303.7532,-895.064,31323.873046875
183,-13953.005,-4983.089,-3548.9348,-3474.3323,-5560.1616,-4969.2476,17274.833984375
184,6145.001,5113.55,5970.383,3.720215,-1014.63873,19.472961,2000.98156738281
185,-33598.547,-11292.625,-34000.684,1490.587,2985.841,5183.2607,24913.767578125
186,28448.451,1681.5236,7375.288,-10695.08,-5642.016,-3184.4507,32642.859375
187,10527.85,-23529.676,-9674.88,1757.7045,13029.84,5444.7227,38568.6953125
188,-7093.2383,1310.7415,-3196.0044,-16204.495,-9682.78,4513.889,34397.8828125
189,129933.24,150146.16,123349.29,-7302.6885,4572.6855,9583.849,32912.8828125
190,12661.09,2592.25,21869.326,12953.4375,4040.911,-9948.608,33588.3203125
191,-12574.684,-14593.505,825.4308,2679.522,-5977.1494,19187.979,37999.27734375
192,4173.9966,-3216.4722,24565.537,5784.88,9603.303,5758.4995,33131.296875
193,-92.40179,-9044.43,25610.662,-10548.945,-570.4648,-3100.3132,36531.26953125
194,-11446.272,-18640.928,-21894.99,-7271.6143,-4490.6597,9947.433,24530.498046875
195,-145.17378,-35405.914,-8743.484,5192.595,-3034.2107,5452.967,34810.64453125
196,-25900.154,-20425.596,-26172.055,-13271.753,9141.286,2140.131,28712.041015625
197,-6691.493,3730.6074,-7632.905,1960.2345,4927.9614,-14336.113,28640.3984375
198,-12325.228,-21390.104,-25641.55,1639.4409,-7803.9756,-15847.138,32908.2109375
199,-6917.5693,-2297.188,5963.977,10451.556,-5633.5327,-3104.345,24074.685546875
200,6239.226,-7586.4697,3861.0156,3385.2258,-16598.633,3858.835,32703.521484375
201,1182.275,762.40533,-9352.696,-2290.6584,-2830.9058,-2538.662,12878.5263671875
202,8813.279,-13421.232,-10714.147,-7903.708,-6307.5015,11113.256,33448.23046875
203,6400.1807,207.56041,12165.806,2726.197,-5773.883,-4077.9287,16718.056640625
204,13833.4,11924.64,6803.2256,210.53186,-6539.8975,2004.4469,13421.8095703125
205,11837.705,-2619.5583,1123.697,512.8473,-3777.6113,869.8947,14655.287109375
206,18059.39,6359.7905,10881.161,-4245.924,9738.125,-2391.1614,21451.224609375
207,-979.8972,118.36568,-15687.966,2466.337,-19956.818,5144.027,39065.87109375
208,38161.566,16028.786,24709.668,-6514.0312,-6913.168,-9761.335,30489.5078125
209,-14140.567,14359.916,12843.039,-2491.2961,153.4473,9332.387,32424.025390625
210,-7620.2104,15446.662,-12432.354,-10727.215,-3362.5679,2458.8774,32611.6015625
211,3724.0156,3146.3066,-8728.155,2077.6858,10154.982,7667.4067,25433.939453125
212,-11465.521,-3286.4995,17977.332,-9335.333,-6449.743,2572.5808,33152.1015625
213,8631.4375,17638.79,11237.296,1440.3396,11145.009,26.040054,21054.9375
214,17456.57,22329.41,22360.064,3078.9336,-5585.071,1259.5347,12274.880859375
215,5542.4595,2900.3066,26451.422,-9571.524,5739.851,12234.847,36361.58203125
216,-26470.633,-17869.717,-23146.426,-5303.9033,6743.3843,-10089.373,24137.8359375
217,18581.424,10124.169,25121.977,17489.506,823.40643,4434.4634,33886.5
218,23782.777,868.2337,20296.018,5850.169,-7094.8477,13020.296,34922.83984375
219,-1691.9666,-9281.145,6848.694,10198.643,-2742.0237,16351.463,36497.38671875
220,23590.674,20549.393,28324.951,13895.478,-10217.495,10739.397,35840.0546875
221,-2424.998,10737.948,-19947.252,-11748.789,4607.839,-4492.5,35345.203125
222,4755.5273,-3214.6692,10284.149,-1753.0978,11686.633,16226.495,36701.546875
223,8665.057,2799.289,19737.896,-1302.7322,7031.9346,17910.275,36575.0625
224,71103.45,49276.1,81146.914,-5502.709,2873.031,4768.262,31310.345703125
225,13539.538,4418.8955,-2095.0586,15826.45,-2093.5784,-6011.9004,32527.478515625
226,26318.668,12796.178,18301.32,-552.7013,-4940.296,16743.512,32463.712890625
227,-1040.1931,7546.569,24275.729,1.5567077,11877.464,9231.569,34294.8203125
228,3960.9128,10841.932,-12530.474,-4802.735,-6011.498,9636.496,29815.953125
229,17717.682,5184.268,33151.48,-3865.9402,-10311.17,4457.242,31813.912109375
230,2770.6946,2768.1392,2206.1877,-1106.4208,-11.3241205,67.88684,2000.98559570313
231,9122.381,24421.129,10646.961,-1080.6451,-6549.097,-33.367737,18580.3828125
232,30534.531,-2270.0293,20368.248,3959.4243,-6543.9023,-7333.984,34392.62890625
233,10595.399,-5199.6084,7681.2407,12139.133,4424.865,-324.8247,26703.48046875
234,-4304.2036,-14030.259,7612.959,12941.64,1855.0891,43.831203,29416.1484375
235,16272.36,-1902.4962,15073.87,13399.872,-5736.085,2868.654,31177.630859375
236,18148.283,10860.537,8027.343,5770.7817,11410.109,8766.411,28333.958984375
237,9961.883,6386.241,13450.08,-849.58997,4461.1196,11258.567,21898.890625
238,12189.21,6924.661,-4968.005,-5193.3457,12613.873,-7635.406,31062.8515625
239,-367.5815,-824.65625,7885.6567,-2207.2444,7731.5923,-12301.241,26832.94921875
240,-8220.208,-8460.149,-34218.03,3725.3196,-15665.78,3445.5562,38512.4140625
241,7427.6245,9.239197,-4690.9155,8836.696,-10197.061,-1518.2845,25789.701171875
242,6699.8945,28260.596,17153.33,9408.158,1548.6373,866.586,24974.84375
243,-10793.675,-13353.421,-21944.326,-11664.028,10652.457,-6102.699,31026.576171875
244,21639.316,10534.533,6038.458,-8470.917,-1265.4176,2651.6375,20847.673828125
245,11014.139,-7658.256,4976.506,-11131.57,11676.305,11191.58,37800.4296875
246,36334.145,5204.5664,33169.44,-2941.2966,-428.65906,-11729.452,36328.984375
247,-10968.499,-24900.545,-7805.6333,6874.989,7430.191,15108.579,35219.28515625
248,14732.032,-22247.543,13247.588,1238.7487,-768.3317,-3528.0498,36858.02734375
249,-22850.8,-4153.371,12717.885,-5551.8657,1120.1323,8326.883,35410.83203125
250,-2925.0952,14078.889,-50.421158,-7106.183,1606.7799,8473.272,24962.89453125
251,7747.3735,-10047.478,26261.379,-6659.0854,4150.2666,6671.4644,36153.9609375
252,9259.107,13925.925,26498.592,2267.9058,-3736.415,15204.41,31454.099609375
253,17036.945,16917.295,17914.691,-465.80704,322.88864,846.6144,2000.93603515625
254,-41916.41,-28496.322,-56871.008,5555.438,12873.594,1513.7971,34656.63671875
255,31959.117,32530.852,33946.387,-473.94977,66.97629,242.67635,2000.98681640625
256,27052.164,26701.865,22659.645,2306.48,-3682.8352,-1520.2582,9025.583984375
257,-8996.833,-23240.217,-31406.156,-6332.8945,13965.033,-6847.085,35098.40234375
258,43270.465,29881.672,11598.693,5336.547,12617.695,-846.389,36380.1875
259,8461.305,-13234.964,2718.4673,-3994.8564,4581.99,17672.783,37775.0234375
260,-15194.468,-12031.964,-24766.158,18473.291,-3342.849,-689.989,34505.4921875
261,4555.0557,-2464.5176,13118.969,2252.0183,9266.785,19477.467,39920.921875
262,5060.5625,29980.84,-1631.552,12618.327,-5506.414,-4879.5093,38374.875
263,-4324.395,12764.3125,19036.959,16284.632,705.6092,-5888.735,36601.2890625
264,-783285.75,-750789.6,-744303.5,-6233.7275,-3681.758,2140.2175,38468.52734375
265,-29422.56,2354.248,-35621.7,3823.4834,-9847.314,-3083.1318,40105.6953125
266,-3251402.8,-3232967.5,-3224005.8,-9629.958,-833.7154,4427.9155,30405.53125
267,-6072148.5,-6069106.0,-6064052.5,14935.421,65.80286,-1412.4854,26932.669921875
268,-1321365.0,-1318925.5,-1312253.8,-552.0048,2531.5408,2931.8643,10614.4638671875
269,-40165812.0,-40165070.0,-40166996.0,376.33524,279.01855,419.93835,2003.29016113281
270,713754.0,715567.9,715279.1,-353.548,176.77965,472.5776,1997.12121582031
271,-597398.9,-610223.3,-600501.75,304.70572,5296.602,-13902.995,28259.896484375
272,-911963.5,-919033.75,-909843.56,-9134.463,5039.2573,12962.155,30000.349609375
273,350758.8,340319.44,355903.56,-696.1907,11284.342,10276.73,29823.7109375
274,228353.3,240910.98,248846.78,-95.621765,1639.7202,8510.114,23359.94921875
275,-21694.742,-60108.574,-44567.164,5886.5435,7050.1196,2355.6436,37280.9140625
276,14821.975,220.06494,5312.947,1131.5752,-6946.1987,-1085.3301,17802.01171875
277,-2581160.0,-2554928.8,-2547007.2,-1803.6257,8274.626,6440.6016,36030.97265625
278,831084.7,854221.75,826793.75,7899.894,1803.5817,-1804.0656,29321.71875
279,21256.988,-962.1001,-13727.852,-5146.2637,-3207.7588,11104.934,37690.5234375
280,-3028.8662,-818.9375,-17467.143,14363.626,5205.4644,927.59467,30790.716796875
281,8193.298,-19430.945,19563.48,2773.3381,6943.8184,4966.626,38055.20703125
282,-16772.543,7991.455,-28532.016,7950.5293,7718.193,7291.6787,39630.828125
283,4952.7803,14320.486,-8552.012,14250.199,-2182.0276,4183.151,32750.982421875
284,-3003.2827,13575.117,-26783.342,-9237.121,4979.719,-1298.3228,39623.13671875
285,22403.232,10663.919,24859.047,6600.348,13177.431,87.53744,28711.0234375
286,7934.8486,-11714.323,-14885.549,-9645.454,1856.8119,5460.222,28936.970703125
287,-31952.705,-20968.521,-738.3759,9712.79,3924.8608,-9219.552,36556.14453125
288,13108.299,-7307.6807,6748.0,4623.0215,-5656.9775,-5460.464,24020.51171875
289,23214.111,13540.124,34328.7,10132.815,4101.95,-15098.286,36973.19140625
290,16942.914,29673.152,31520.541,-1544.598,-10446.387,198.53467,22883.314453125
291,4390.7656,-15723.775,-33724.66,-729.65326,-1038.3339,2589.8164,33401.484375
292,-4196.7363,1026.3827,-2301.7358,-2145.4749,19741.312,8609.07,37766.25390625
293,-158.35435,-10566.625,-2382.3188,-9315.446,998.55865,-12414.487,28562.439453125
294,8991.553,-8109.242,-11757.482,-963.7596,14830.081,4393.746,32994.39453125
295,10774.473,-18412.281,-25308.959,-6242.097,9047.763,-4513.698,39042.54296875
296,-11267.994,-17057.467,-20286.77,-2009.3578,-12788.505,-4859.8823,25223.953125
297,-11147.462,3057.2158,-37949.086,-3867.2258,-4072.045,6705.028,39118.94140625
298,22266.47,18732.521,34942.074,11675.2705,-6621.334,13261.228,35860.80078125
299,15521.841,10647.829,34530.438,-204.8412,3050.3923,16927.406,36951.0859375
300,11383.537,16213.538,12266.291,-10339.255,-584.78345,-6331.475,21490.314453125
301,-17379.965,-10622.887,-18750.56,9233.955,1452.6184,-17477.068,35146.40234375
302,-976358.5,-949829.75,-940015.3,-6980.4346,6176.651,-1351.6002,36422.18359375
303,-1308676.8,-1314442.6,-1310483.2,3391.6038,10576.745,993.6321,19979.142578125
304,145829.48,145571.12,146929.62,-526.8034,-395.4393,-297.28293,1768.64465332031
305,-1527209.4,-1524440.6,-1523580.2,-1208.0833,658.7435,889.05853,4340.49365234375
306,-6621.6733,-12275.099,-31969.54,113.22341,-8058.5376,-12955.415,35065.0859375
307,16353.799,22905.914,23442.383,-2023.8534,2529.4907,17438.838,31473.083984375
308,-3087.4895,10603.887,30568.871,49.379494,-3232.2397,-11424.662,35809.5078125
309,-17416.354,-2712.3428,-36823.98,10730.136,-5334.8184,9900.761,40038.69921875
310,-17687.09,11931.774,-3832.5154,14459.288,-5619.612,-6868.613,39017.3828125
311,5893.615,19782.328,15980.212,1414.9652,6604.102,-199.3962,17073.783203125
312,-16454.217,4353.798,-35171.234,-5336.372,9533.356,-3075.7483,39487.0859375
313,-140709.27,-158562.86,-140859.84,-3813.966,1865.5054,11082.203,27177.3828125
314,-38498.387,-35699.633,-63780.414,7039.1265,11760.698,-3319.2656,36254.85546875
315,-8162.2295,1280.0371,-25597.79,-15488.673,3924.2031,-4174.5903,37093.9765625
316,-6266.334,622.34143,12894.834,-13965.338,11896.0205,5829.782,37339.0703125
317,-1333.5095,-16988.113,-24175.648,224.67804,16555.094,-4264.914,35863.33203125
318,5809.8574,4615.297,-19258.0,-6439.3994,1353.7499,2461.0583,27348.587890625
319,12418.43,10367.799,6132.52,-9969.071,-14036.581,4802.4526,31452.22265625
320,28431.82,36008.05,23452.521,-12072.876,-11954.117,2865.4326,31788.59375
321,-7079.635,18253.803,-10359.392,3308.6272,8912.589,2075.5383,31932.658203125
322,-11203.241,-17215.34,858.75385,-2870.1814,-3276.281,-1918.1904,17947.400390625
323,-244.72511,-485.52927,1082.1603,-518.8076,-542.97284,-240.74153,2000.98559570313
324,-15842.905,-3008.135,-14764.177,12826.733,10339.18,3086.3496,31542.0
325,4124.5166,22290.625,-5314.0947,646.80945,1376.7975,16667.672,37827.6796875
326,3755.201,9026.983,9344.803,1727.642,-18865.664,4282.352,34077.52734375
327,-46.385025,2355.1797,-3195.6143,4932.9854,11292.332,2377.722,22265.71875
328,23394.203,6344.323,1638.4988,3515.152,-6374.2314,-5634.853,25441.953125
329,24055.14,10376.056,-11493.133,7921.615,-8949.054,6452.279,38960.71875
330,9349.021,-10678.384,19188.066,-3097.245,11426.235,-303.2362,33401.87890625
331,5915.621,-22696.496,-7002.9346,6008.3975,15510.688,-3364.62,38469.78125
332,27979.355,9162.596,27380.05,-145.60983,13613.828,4535.3296,30998.916015625
333,-18711.523,-16384.44,3324.1277,-4412.394,4811.1084,7358.9224,27018.80078125
334,-1709.7103,2211.7493,26598.791,-944.53436,356.81012,-13729.945,35697.7734375
335,-39385.473,-61989.42,-52165.7,15480.554,-4421.5156,-3361.0898,34595.8359375
336,88432.72,123255.734,130765.08,4302.116,-2269.5447,1556.5836,40109.55859375
337,11412.169,-10791.008,-15522.439,-985.2495,16889.209,-4044.6233,39091.50390625
338,12682.186,-14161.773,21405.973,493.3987,2098.0322,6953.2256,34494.3671875
339,5310.9946,1164.1887,-16204.002,-1230.9023,2233.3865,7573.553,24134.16796875
340,42208.492,41959.47,42102.945,-1032.1039,289.36462,412.3763,2000.9853515625
341,6448.959,8905.431,9469.032,2781.295,765.0949,1274.6346,6129.7119140625
342,-564.01855,2942.2307,-12686.867,-1192.2844,12701.816,-3959.3608,27148.953125
343,4392.4824,6770.625,-1593.6677,6070.3423,-996.45917,3517.7397,14365.7548828125
344,207051.48,239754.73,249134.86,434.03836,-243.535,1096.0269,38322.2734375
345,-19016.395,2687.4294,-25273.148,-183.63654,-17294.867,-1071.6685,39330.42578125
346,11932.818,-2718.1953,3177.1343,-421.71545,8940.994,4452.38,21514.2578125
347,-9311.552,14017.18,6821.945,-12580.118,10038.738,-4365.416,35530.58984375
348,31398.744,48065.043,44231.246,-855.83453,9091.056,14291.655,33037.28125
349,-12648.364,12940.114,-20649.02,-663.6779,7666.622,10940.6045,38213.19921875
350,-45604.395,-23953.3,-43417.84,-1680.2849,2257.8855,14143.401,32404.95703125
351,-6373.0903,-5241.515,-6757.3623,-382.58755,-145.33318,1060.3702,2395.53759765625
352,1604.7917,4324.597,606.23926,2469.6592,-2684.081,-785.76917,7271.39208984375
353,16598.098,6322.702,25850.383,9916.158,-13824.446,-7426.2324,36332.390625
354,-3966.3674,-5463.3306,-4003.59,1292.6436,1613.6191,-2351.0483,5620.7587890625
355,2999.6646,25490.076,-1979.3926,10507.342,-7992.9365,-9484.945,37886.10546875
356,-6500.5806,4982.3887,-365.8594,-260.02057,1525.9976,-966.0303,10442.0810546875
357,9514.079,-6734.8545,1563.2766,689.20123,-3719.101,6138.6562,18815.431640625
358,-13927.113,-5150.1055,-40900.156,886.02704,-5756.6606,7810.232,36415.58984375
359,2504.466,6382.721,10032.016,118.13098,2767.472,4376.9536,11090.6650390625
360,-14501.004,-10086.132,-11269.027,-10471.98,2041.0225,13085.572,29510.150390625
361,2665.7278,8775.743,1954.9819,-2129.0972,13656.856,-5266.481,26429.451171875
362,11699.103,-1063.3804,425.85767,-12200.55,-2991.1025,11162.737,31516.865234375
363,-7271.565,-5324.3296,-8020.9443,-4273.558,-9695.04,8169.911,23298.62890625
364,-5565.831,-4013.0017,-7107.6104,-1521.9626,346.05566,1086.8143,4246.6875
365,443.50327,-732.1352,367.18195,-201.82013,1554.2908,743.7014,3213.5888671875
366,852.8302,2492.6396,5160.7183,596.8334,-1447.4009,1699.467,5495.53125
367,5458.5347,-15398.773,-8755.59,2136.24,6181.6357,843.7922,21704.0234375
368,-171679.83,-175117.38,-180936.06,-7932.193,-7370.33,-19854.701,40000.34765625
369,-23123.527,-9959.746,-21583.469,597.3372,-5084.489,-3231.527,16289.220703125
370,-9704.432,-11370.7705,-11726.969,5153.7456,98.77134,-4255.1714,11727.28125
371,-19491.248,-9306.667,15242.754,-7775.1787,5039.4043,10383.703,39210.15234375
372,-20152.395,-16770.053,-22599.363,-7805.451,-5017.9785,977.15564,16937.662109375
373,9193.299,18513.783,949.03613,3078.6472,-3507.0415,-2936.432,17968.861328125
374,-12472.9795,-14744.695,7752.672,-1335.9159,-4664.9023,2214.8674,23356.787109375
375,-17690.035,-10778.064,2877.7588,12180.783,-4086.6716,-2755.5354,29097.103515625
376,-6537.9487,-853.2754,-8348.744,-5.566679,2342.5332,2069.1917,8671.5283203125
377,-385.66516,900.4226,1088.5386,385.2289,-1480.4454,-45.368237,2992.97143554688
378,-6289.762,-820.67334,1727.5983,-6089.7065,-6990.4995,3431.258,18534.205078125
379,-1625.4922,-4828.8115,-5891.203,-8784.0625,2294.5986,2259.7886,16654.96484375
380,-8426.232,-8723.547,1116.0923,-6000.893,249.61264,-762.23566,14280.87890625
381,540.7434,-1916.7738,6168.7744,-5306.542,5239.2427,2946.331,15633.7734375
382,-17965.318,-7386.1885,-24225.756,5781.0815,-405.27206,-180.29088,17837.994140625
383,4142.518,-3173.1748,1429.4613,-2230.0059,1093.0483,258.05948,7728.8408203125
384,-2.5615234,-16477.975,-16564.434,4427.768,4614.0527,-5225.1367,21850.884765625
385,18517.271,22393.432,27464.523,-1616.5059,172.43643,6599.3877,14106.068359375
386,-7454.574,2942.034,-5320.4546,-1508.0704,-1708.9911,-5818.9746,14409.1123046875
387,-2105.6494,12606.054,6260.5977,2629.181,-4496.197,-6292.692,19066.34765625
388,-3093.2546,-452.41605,2349.5042,-2304.8286,1013.6885,-1583.7579,6983.44287109375
389,12936.279,3069.1812,-1385.5479,-5658.1187,-876.0351,1.690472,16109.150390625
390,15306.171,-5340.33,35894.133,-4988.1284,996.9948,5213.888,37873.3671875
391,19813.924,-9291.797,11968.9,-2109.292,1307.1487,7968.7256,29821.591796875
392,6689.4473,-4293.0728,1986.8578,9582.674,-119.48115,-119.22434,19148.1640625
393,30923.404,25851.01,63520.363,7191.8735,-181.59494,772.2841,37559.19140625
394,-35512.785,-30069.297,-61088.773,-2903.1147,383.00638,-1244.7102,29212.283203125
395,-307602.97,-329470.38,-315502.25,3840.1152,-2946.5588,-19205.504,39302.48828125
396,-13918.031,-16544.488,-26163.58,-2366.0535,4889.0747,-4616.174,16646.9296875
397,-846.4282,8910.328,9287.995,-852.535,-3863.3145,326.1592,12095.326171875
398,30066.557,9109.923,-9149.598,-8154.29,-1266.0183,1673.885,36985.67578125
399,690.4033,7751.4966,18898.23,-9160.408,4977.2227,2364.898,24405.994140625
400,3111.5938,7410.125,15929.546,-670.6174,6294.0337,-3139.7346,16656.724609375
401,1665.1951,2622.57,3042.3342,1436.363,1679.1847,-9550.592,17023.056640625
402,-2590.9766,-5725.4717,-19370.422,3529.133,569.378,-3033.377,17456.25390625
403,-20125.863,-13990.219,156.32715,-1030.7345,65.77241,1564.4568,18306.060546875
404,-18611.572,-21626.41,-33315.734,-13226.389,-11777.483,-10466.905,38086.4609375
405,17690.492,2278.936,688.26514,-783.9681,580.6517,3671.2556,17545.673828125
406,22802.861,22741.422,-5166.173,8108.1694,-461.44888,-1720.5829,31421.322265625
407,21679.785,25383.072,29417.264,-14301.035,5186.451,-8141.139,30627.109375
408,-2612.7998,2086.3125,21341.188,-1660.4807,5234.9272,5555.9766,25814.80859375
409,3581.0676,5346.2437,-3831.4502,-984.73505,6425.933,5870.397,17358.494140625
410,-2986.9546,11936.763,4978.0815,-3195.405,-4678.219,-10629.312,24546.42578125
411,6757.903,13946.558,17096.299,-14911.169,9693.816,9005.787,35728.0234375
412,-13906.839,-16161.743,-21717.246,-1438.0668,-1941.1155,763.8611,8230.046875
413,-2547.482,-20632.66,-4670.028,3884.6458,-3405.5586,-5575.116,21598.6796875
414,-21224.695,6966.6787,2504.9053,1053.1066,10712.67,11337.668,37710.9609375
415,9454.836,4388.247,6239.786,-4941.736,4730.6807,-770.441,12723.9365234375
416,-52088.703,-57520.086,-85528.31,-3283.5752,9385.025,-1844.0319,35677.265625
417,17564.225,13759.964,39513.426,-1954.0067,-8371.5,3973.9827,29134.48828125
418,10835.204,6333.6665,2532.7224,1711.6309,1648.0536,1932.3027,8942.0224609375
419,-775.2251,1198.2834,-1437.0598,-5252.0063,2206.2117,1613.6531,10526.31640625
420,-1600.6982,-90.23871,1148.8676,-511.09607,-724.00085,1504.2385,3851.34814453125
421,16553.61,4950.6562,10045.089,-8673.092,3129.296,2725.5574,19462.845703125
422,-1514.7468,-352.72003,-2183.3525,-4105.4937,-3298.0603,-297.71307,9275.6142578125
423,10063.856,18374.123,36047.35,5396.918,-3691.2756,994.69836,25680.689453125
424,29137.6,22239.514,40183.234,11186.661,8064.911,6829.83,30923.705078125
425,19224.898,22914.13,24001.84,-806.6006,-3359.383,-4949.734,11318.751953125
426,474.09668,-18061.523,12430.2705,9222.887,2393.1958,3086.242,31765.958984375
427,-22081.418,-8925.272,-4994.669,2651.8147,7254.3247,-4316.8906,21797.33984375
428,-3136.2217,5205.421,-7089.062,-1977.5693,-1048.8038,-3069.7656,12707.62890625
429,-7207.675,-15758.114,-30070.871,-1114.3159,-1256.177,-6671.3325,23287.861328125
430,4866.7095,6132.307,9985.542,-16969.42,-573.0417,-12880.942,37201.48828125
431,-16906.025,-13644.195,-17153.469,-14199.825,-1072.7719,-10861.926,31205.92578125
432,-16121.093,-25130.832,-12149.636,-9464.088,-601.40247,-3247.0383,20836.298828125
433,-354.07065,134.09227,-1413.8557,-898.39606,479.60135,-953.8504,2778.43212890625
434,-2885.6606,-5625.9785,-21696.234,-212.55855,-768.99005,382.57864,17667.732421875
435,9044.261,6475.366,3714.83,-58.31199,-4269.943,-4963.645,12244.6748046875
436,-601.31146,6271.823,6374.357,-1620.0284,1310.7052,3815.263,10229.9189453125
437,6337.071,4852.9194,15124.088,-755.292,-1981.9833,-1713.003,10712.373046875
438,-3967.1204,359.46512,2545.1985,-1688.1388,-3120.051,-2245.1023,9264.37109375
439,-21529.918,-11600.394,-39113.81,10061.025,-11098.154,-6116.4062,36983.7734375
440,-541.5902,-8373.138,-9001.226,-3812.83,-1125.5869,-1227.326,10889.4150390625
441,-18946.812,-9852.934,7311.525,4880.683,6948.2847,-3484.7986,28038.177734375
442,-14201.581,-10055.851,-13122.268,11033.995,9988.717,585.79083,26066.7890625
443,877.63257,-2571.4849,-7608.103,2328.4126,-3306.7317,-43.65556,10183.78515625
444,-6492.231,-8534.708,-11923.019,573.8962,2520.9543,5370.274,11364.248046875
445,9511.858,-2265.565,-3606.8396,-2756.244,762.56104,158.80225,13450.4375
446,-1067.2539,-6448.123,-1099.8496,406.45746,-1332.8456,341.10736,5912.15185546875
447,-1538.9749,4077.183,8245.432,-3073.102,-2318.7078,-1441.3784,11091.38671875
448,-14284.001,-18136.342,-23882.521,4669.181,-6548.241,-3192.5989,17164.369140625
449,-2442.3662,-16763.232,4546.7563,-3647.753,-3346.8923,1157.7411,20774.2578125
450,-3112.296,12274.831,20349.533,-4063.573,4100.9365,918.29956,22994.166015625
451,-538.8387,-21555.973,-27119.717,-13831.402,-3102.7117,868.59283,34564.0859375
452,-8262.333,-16545.318,-3865.803,3991.216,-4570.3345,2731.165,16036.982421875
453,6919.0757,11335.55,5542.801,-1726.8204,2312.836,2756.6775,8675.7607421875
454,-280.7653,881.77234,16225.29,-2338.9329,-135.49455,449.80975,16482.91015625
455,6911.2983,4686.164,16611.014,-1678.5237,-940.91473,2469.3198,12248.255859375
456,-3156.0076,2237.975,4224.723,-2110.5405,-1848.8466,3656.1582,10367.208984375
457,6593.9424,2039.6989,989.5869,-4421.9736,-1831.0626,-2276.0447,10530.30859375
458,960.7115,-3917.5378,2030.0432,-1591.3075,-1573.4937,1818.2208,7422.9013671875
459,5148.1724,-2834.266,7210.938,8468.663,3795.934,-2466.7114,19002.009765625
460,8403.657,2474.08,2717.136,1783.0831,-3291.3403,-146.71298,8710.869140625
461,9531.514,29404.47,18892.996,-11692.432,2532.4207,-2334.885,27244.537109375
462,-283.36465,-1215.2084,-2041.0836,-3193.6704,-1880.2089,-2559.4705,7948.3837890625
463,10299.431,7422.216,-1224.7709,656.84814,527.1968,-1253.4364,10713.05078125
464,11155.682,5346.126,3456.2039,-62.35322,3050.7727,960.71844,8888.453125
465,-101351.73,-88342.49,-123741.016,8569.706,6218.415,2197.4956,36229.828125
466,-7748.338,-4758.098,-8635.34,-1328.9524,1002.2808,1259.6544,5045.08544921875
467,6131.692,22253.25,-6967.7,109.51912,-10471.656,-11796.528,37271.4140625
468,-14308.074,-10841.695,-6698.189,-3869.0134,2782.9543,-3311.3223,12024.3193359375
469,12740.106,8420.257,-3985.8347,-11724.075,-17438.936,2115.5757,39551.26953125
470,-4871.0796,-3849.3657,-6926.9976,1330.0627,-798.16266,1794.0164,4923.9345703125
471,-6102.341,-1844.5065,-5676.8296,-85.183205,-54.281124,-3099.5264,6734.26025390625
472,7536.9546,9180.042,11521.575,-986.8369,461.32336,-1858.2683,5094.04931640625
473,-10213.575,-16339.833,-21395.854,-1030.7018,-755.4507,-1406.17,10242.068359375
474,-2948.518,-345.84067,-3819.2114,-1761.1176,561.24066,512.70374,4564.6845703125
475,8479.679,8535.314,4157.547,-2586.2175,232.93298,1141.8838,6562.3486328125
476,-1053.8937,1479.7163,-5054.435,216.15065,-2155.4272,-2048.9011,7696.1728515625
477,-27405.29,-17923.19,4523.4185,6011.298,-10528.629,5568.1006,36613.875
478,35542.5,31053.348,15244.8125,-12262.326,7221.9097,-8507.085,34142.38671875
479,3072.2456,536.3679,-4234.6963,2429.359,-3341.9949,912.2853,9746.87109375
480,1605.6138,3905.5537,-1790.3975,-1263.3485,2037.8889,4598.206,10262.1083984375
481,-15672.507,-3634.6924,-6761.1763,-1018.1475,-1316.2599,2067.654,11755.0390625
482,-4552.2627,-1310.0038,556.9201,816.8074,266.75848,1083.3849,5078.0771484375
483,-3098.575,-2339.66,6126.1196,2935.712,4275.0757,-421.39722,12644.640625
484,-9789.768,-2888.0703,15637.568,2118.3127,2360.0754,-7863.538,27099.232421875
485,-54173.953,-48543.023,-61989.203,10231.135,-4584.483,8700.897,27221.13671875
486,-6308.177,45.74112,-8733.977,-1544.6445,-309.8689,311.42676,8331.0810546875
487,-3583.0713,1875.2892,-3578.0557,-847.13165,-1358.0997,-567.9067,6198.39501953125
488,2478.504,4763.951,9080.54,-1675.8074,3444.5671,2813.3215,10074.025390625
489,3968.6196,1619.2886,2486.5107,-2338.3633,1385.1317,305.3553,5164.6259765625
490,-60.27803,6671.577,-2431.0588,-1119.2644,1321.7421,1590.5312,9137.1142578125
491,5111.048,1352.2109,6809.7437,1915.9856,3126.4714,-2950.4753,9479.0791015625
492,-10811.827,-14798.241,-22755.557,1622.4336,2403.0393,-1969.5536,12156.875
493,-1708.1521,3937.766,-2953.3508,873.7074,504.37338,-1515.5707,7099.3896484375
494,-4472.3086,-3351.3123,-1803.3884,-462.2576,-1549.2152,-269.77277,3667.08325195313
495,-6398.37,-18128.45,-16302.103,354.8281,-4644.0566,1165.4956,13735.4189453125
496,-5240.3643,-1031.0596,-2340.162,2087.239,-5176.5713,-465.34583,10393.82421875
497,2756.4277,1304.5297,7891.2974,-1699.1785,528.4546,-2953.1257,8461.2333984375
498,-3567.3745,4626.619,-5404.1597,1446.3076,-1448.3289,-1567.3057,10271.49609375
499,-23448.887,-9726.219,-18965.49,-3014.959,2064.6936,2098.0784,14147.541015625
500,3501.547,10350.6045,2697.5647,-865.14716,193.71313,-2151.187,8324.861328125
501,15983.832,12609.913,33490.0,835.3804,1386.5507,-3939.7515,20768.71875
502,-11749.73,-11873.634,-25452.496,643.86475,-2186.134,861.91614,14279.119140625
503,36181.742,17076.26,146.05411,-4721.4194,9963.315,-1180.9056,36660.23828125
504,-1988.5586,-258.5667,-4078.1052,-2114.5176,1899.1582,449.7381,5984.541015625
505,4638.676,5597.076,6214.873,542.5082,1203.5356,-2075.7217,4477.34326171875
506,-1559.6935,2940.9285,14.144201,1332.5146,300.91165,1551.1769,5335.3720703125
507,-48593.875,-20166.768,-34359.965,9618.541,5952.4985,8049.165,34413.49609375
508,9212.177,12700.529,15533.303,-1808.6748,1387.793,1127.143,7034.06689453125
509,11079.172,14054.856,19670.377,1805.3315,-2355.7192,294.2523,9153.384765625
510,-5711.766,2787.4966,5285.0757,-1613.603,1036.9443,-1436.3912,10813.3955078125
511,5158.4272,-7413.4614,-5140.7827,-3053.1182,-5533.797,-4072.623,17442.41015625
512,-1230.0471,3695.7961,-3364.3325,364.28174,9277.766,4427.558,18888.3828125
513,-4100.117,1794.1525,-2639.5088,-5411.7803,-1366.6338,-2703.103,11985.4921875
514,-4868.2393,-7644.8213,-4728.1904,589.7494,-468.89648,-3046.4988,6137.12841796875
515,5669.689,1092.7261,-1030.0284,-1535.3688,-73.790794,182.03415,6508.32275390625
516,-5224.2476,-7970.8604,6970.3887,-3544.312,-1424.5739,2473.9988,15870.8427734375
517,-4238.6104,-3602.5464,-803.5875,69.67185,-281.98923,-560.90656,3349.03393554688
518,-2300.4912,1117.435,3718.1155,-2860.514,1913.7181,937.48193,8093.56982421875
519,-7011.743,308.7068,-4295.4062,57.475983,403.44067,1020.4123,6686.14892578125
520,-11296.245,-17397.53,5082.9355,9226.682,-2639.7607,1660.3492,26267.994140625
521,30264.975,21974.941,49137.8,-269.92578,3923.2598,3536.2246,25792.900390625
522,-12373.936,-5252.928,1563.3406,4662.4385,11945.283,1121.9639,25352.904296875
523,-4462.32,458.8029,2401.0378,2786.3113,1346.3197,1611.3481,8606.123046875
524,-5763.2007,596.4017,-6244.352,-1423.1976,-186.11743,-1019.8302,7282.61865234375
525,-10208.612,-14786.679,-6756.1045,3185.3047,-4431.716,-1326.218,11971.6201171875
526,7743.558,13313.993,7778.6426,-677.09863,-367.2274,1539.6617,6302.94970703125
527,-4460.7334,-13194.736,-17095.832,3630.2178,826.8165,5975.887,16561.810546875
528,3040.7532,2683.2937,10446.049,791.98315,839.2894,191.19135,7856.07177734375
529,-1484.7533,4898.3306,-2034.0845,186.08476,-1315.8947,-1285.9039,7403.45947265625
530,-3730.0535,-4017.628,421.62744,319.0327,-13.543787,-1303.3805,4890.333984375
531,7270.3403,-183.78287,1555.7847,-1777.2633,515.0795,-1034.6582,7688.0791015625
532,3916.283,9978.371,-367.0494,-1638.1498,1568.1034,381.3164,9845.072265625
533,-620.14764,2013.8636,3127.608,1196.2345,-1514.8455,1316.4261,5242.91796875
534,324.26047,4423.3154,-20491.455,-1050.1744,-850.1062,8662.239,27676.720703125
535,2270.7715,306.07025,1502.0908,-895.93884,760.2133,306.20407,2713.64477539063
536,1946.7859,2172.6106,592.53735,-4086.2747,-566.3862,678.5549,7391.03662109375
537,7667.522,-990.4884,-3178.7502,-1763.0574,-881.87036,-0.72594255,10504.943359375
538,-179.27496,290.15796,562.1281,580.62494,494.297,-1033.7384,2317.80419921875
539,6243.232,1422.3242,2797.976,-2445.1753,248.42744,1401.7736,6520.61181640625
540,-21264.83,-13474.065,-1156.7141,4906.017,2380.1465,-3374.6096,20778.37890625
541,2086.4714,-862.4266,-6899.228,982.1904,-631.5317,853.6839,8319.7236328125
542,1682.0197,477.4454,-5384.071,-445.41922,1083.429,933.97876,7042.91162109375
543,2894.7148,6123.274,-10100.315,2389.8936,3412.0752,4157.824,18032.572265625
544,-5253.287,-5626.329,-6117.2227,-1043.783,1375.36,1332.4929,3851.38500976563
545,750.7966,-2050.3794,11985.451,-760.35,3282.9705,-1043.0919,14243.12109375
546,6584.594,10182.0,6882.727,-2557.1545,-2098.9614,-574.804,6766.30908203125
547,113.90395,416.84427,158.14873,-1108.658,-1560.7211,-1278.9093,3997.75854492188
548,7716.227,9009.59,12148.675,-384.10516,-3055.4387,2121.2178,7585.18603515625
549,4233.3477,5003.2656,4691.517,2277.7952,856.2061,685.43066,4429.865234375
550,25970.242,13863.515,6038.1,358.37622,-2575.4624,2148.1282,18348.78125
551,1825.0109,3943.4937,4168.63,-1247.3867,-3024.5557,-1642.1753,6724.39990234375
552,-34669.496,-19163.69,-54790.707,-3290.301,3106.1304,2536.0244,32218.08984375
553,26248.016,20644.176,28185.834,-2809.8484,-1738.0381,-2819.9739,10130.26171875
554,-1379.5465,101.54392,-4078.463,407.3233,-248.41206,-394.3553,3824.203125
555,101.24452,-7195.073,-5446.7935,-372.90967,-2552.6316,906.7738,8122.09423828125
556,1291.2333,-661.5479,-8455.903,-1222.781,-253.14848,-287.14728,9203.869140625
557,2204.5815,4468.612,279.0852,369.68347,412.91516,-300.30307,3792.72900390625
558,5952.8545,-3728.2505,-2986.4924,-1332.603,-1740.36,-7059.182,15843.0791015625
559,1516.35,-4283.238,1112.1816,-726.7584,341.24057,2668.995,7399.93505859375
560,-2147.3943,2371.3289,1373.9672,1040.105,1240.8341,-1714.0851,5795.30126953125
561,-722.7874,-1837.0226,972.18396,-260.2569,1231.4341,4639.7954,8679.783203125
562,-27566.322,-22720.613,-61007.918,-3297.0725,-182.85312,-416.61478,36566.4140625
563,-14976.146,-12342.878,-7468.4805,1834.3124,3716.9722,5362.926,13466.7783203125
564,54514.94,42770.023,17508.184,-7929.843,1808.7112,-5781.372,37034.2578125
565,-1968.7933,4699.342,1433.5217,-3384.9885,-1450.0803,-5356.213,12653.15625
566,-1001.4462,-2020.5331,4381.193,1430.9503,677.9567,1473.4086,7037.84375
567,16656.973,-8899.169,10232.052,-1282.349,-4208.5044,15894.582,36690.3359375
568,8043.6035,-15833.583,-12113.148,10071.367,2534.7302,-897.35345,28655.1171875
569,-10069.9375,-4718.8066,-4876.192,4008.3108,4133.2573,4747.028,13959.625
570,4613.473,11680.063,23278.69,3484.5789,-133.45624,1687.1244,17647.861328125
