Element Label,S11,S22,S33,S12,S13,S23,Mises
1,-2206.3381,-1785.7717,-3178.625,788.21893,971.1901,-1192.0123,3238.4111328125
2,94.120605,103.25586,1865.0775,271.0877,-1208.5674,546.30176,2935.62622070313
3,-2261.7957,-1261.6577,-4322.673,-107.00705,1564.9277,87.08371,3835.72021484375
4,-3368.96,-5225.6055,-4867.632,454.9755,995.1562,1341.4264,3449.7734375
5,-10343.181,-5979.508,-20648.97,-372.3604,-1132.647,-229.5522,13215.322265625
6,890.65265,762.4978,3006.2766,231.79106,96.210396,-1511.9546,3436.62426757813
7,4930.579,4259.048,10418.898,89.42912,903.6088,-286.19754,6080.9072265625
8,-7479.602,-5672.3994,-12828.731,680.8321,985.70764,2193.6443,7764.5224609375
9,271.6853,350.844,10726.541,838.5266,-1374.8558,-1553.0236,11112.9833984375
10,8737.333,15368.497,11069.33,-2268.0867,984.9018,1933.5853,7969.04638671875
11,1318.61,285.99823,1917.5183,-123.073105,-355.5875,-1256.8917,2684.68188476563
12,-3730.4246,-4162.748,-11236.233,-325.2817,1226.9156,1745.4613,8200.7578125
13,-1339.69,-936.0476,812.923,-983.0401,-2595.3433,-882.2945,5419.3759765625
14,8457.091,4887.5547,-6537.4946,-2558.5684,2543.2712,1622.9828,15198.72265625
15,11465.456,3260.546,21316.89,-4156.4985,-4667.786,-9746.375,25443.486328125
16,-24919.943,-21045.424,-27538.744,-3503.8132,-194.24605,4992.705,11989.2138671875
17,3206.8057,7070.706,14049.18,-2435.4165,2693.9822,2422.6924,12155.9716796875
18,18670.947,9267.596,-4834.99,1740.1051,851.3023,1832.2968,21005.892578125
19,1172360.8,1167900.4,1160083.9,11993.02,-11616.042,1139.8534,30920.052734375
20,9994.57,-15529.41,25086.191,4368.3257,-5853.33,3002.0989,38098.52734375
21,3999.5427,5363.373,6379.265,-712.28375,-2087.0156,-633.4667,4479.99560546875
22,-34938.277,-32512.797,-28078.129,6102.4844,15798.432,-2740.254,30320.3671875
23,15263.144,14351.666,43890.83,-1709.4045,-218.94823,5710.2827,30873.947265625
24,436.4685,8311.011,4489.365,12851.787,2749.4534,-1197.601,23853.8515625
25,1124.3608,-2948.2969,25604.291,224.2746,-5383.5547,-1810.564,28504.126953125
26,13534.474,29924.281,22182.242,-444.18713,-5753.4263,-2804.0842,18032.212890625
27,-41566.19,-14027.564,-3653.63,3384.1943,773.6683,-8568.161,37524.29296875
28,-10685.952,5679.7397,13789.469,-4220.847,-1410.647,3380.1565,23664.693359375
29,17210.8,17465.445,27021.32,-1795.3871,3983.5027,2958.4697,13317.1201171875
30,4243.479,8157.673,220.79053,-678.2626,4899.324,466.1946,11013.2099609375
31,-10129.207,-13573.249,-5838.9863,-618.19135,-3051.5525,2219.1108,9428.6201171875
32,-3580.3967,-1032.6775,-543.20496,-26.172606,-345.53146,1507.2427,3892.69409179688
33,10251.053,12928.264,26370.2,1034.0088,-981.7821,-433.59927,15182.3330078125
34,11531.807,7209.826,9989.537,-31.812342,710.6693,-1052.9014,4385.93701171875
35,2819.798,749.8699,5744.299,-1186.333,-1470.8184,793.4481,5611.73486328125
36,-6337.7944,-1900.758,379.09668,1917.1587,1876.9365,-1895.331,8208.095703125
37,-1053.1656,-2254.388,-331.15955,379.68497,17.175934,221.41454,1847.14855957031
38,4178.0503,-1493.7432,4406.8647,-63.455208,-2423.9028,12.195962,7152.4697265625
39,1767.409,-1208.9573,1804.063,334.04794,-831.7191,-571.96356,3515.77270507813
40,636.234,-2693.4436,4404.398,974.03705,-3979.1033,-1237.3723,9631.81640625
41,-1515.1759,-2371.8435,-6000.6914,-924.85864,-1317.7113,-483.08545,5048.40869140625
42,-9265.443,-15957.922,-20006.547,1404.1705,7315.312,-5476.7188,18566.5234375
43,-1953649.6,-1945228.8,-1936892.4,-75.74362,-2634.9302,-605.7212,15249.666015625
44,269120.75,262915.8,292486.66,-9242.113,-4127.7656,-11816.912,38154.0859375
45,-90631.43,-60975.855,-65938.234,13789.728,-8496.494,2256.943,39487.1953125
46,-72464.445,-62000.457,-57585.918,-17971.8,5397.372,8084.5522,37783.70703125
47,10397.862,13718.084,-16978.986,-8165.5796,3944.7454,9866.146,37284.6953125
48,55967.566,53973.76,91384.98,2284.2092,-2277.0996,1997.5721,37042.71484375
49,-1955.3179,-3266.9019,22270.227,10041.327,2081.2822,-5489.188,32035.052734375
50,-38643.855,-12853.955,-37459.68,6123.6035,633.94104,-3851.8047,28181.41015625
51,-9434.02,-20425.809,-15317.792,125.31297,-3059.2524,-1620.0526,11258.9033203125
52,31992.525,26895.441,41505.98,-6028.7163,-621.9786,-1927.4882,16920.9765625
53,30664.836,31569.36,49356.074,2867.8342,6534.045,-4007.9043,23113.166015625
54,-24742.617,-3076.0107,-6825.991,2517.642,-3299.8008,-1504.2133,21464.4921875
55,46373.273,30476.459,20226.578,-775.97504,16680.174,-2229.7153,37042.07421875
56,852.2826,5802.7437,-5036.3105,1599.7356,5546.3643,2819.2742,14565.119140625
57,-10418.087,-7359.842,23283.371,-1278.0217,-6166.604,-7274.1406,36328.97265625
58,-8709.738,-6664.462,-7987.65,641.15985,223.12875,-292.5778,2206.15478515625
59,2771.8032,-3936.0273,3664.604,147.64911,-319.05487,350.1631,7247.03173828125
60,-2856.4692,-2398.189,-16959.275,2712.138,2072.014,-69.63038,15508.822265625
61,-24188.51,-13086.555,-11181.076,-2046.6501,-1615.4426,-2834.3643,13875.6962890625
62,-1315.3501,609.2905,12406.549,-4345.4644,-638.91547,-1219.4347,15097.015625
63,-10740.789,-7307.7607,-17757.059,2107.6614,-109.90087,-514.9643,9962.8955078125
64,660.7578,7060.1714,16266.23,-3612.6875,595.1357,-1379.1252,15183.55859375
65,660.82886,-3868.4202,-5845.992,1508.0599,-1197.4081,1034.5952,6907.75341796875
66,-22906.36,-14876.985,-22222.848,-1184.5503,-660.26624,-1966.9127,8750.6240234375
67,-18517.477,-24473.674,-19829.15,-6523.735,4809.0215,524.0288,15075.3251953125
68,-21543.58,-11335.735,3698.5928,-7846.984,1521.6091,-493.10446,26001.921875
69,-9258.814,-22673.996,-87.29004,-4200.2676,6331.027,4873.838,25130.796875
70,25327.113,15712.27,6430.584,13181.066,-2002.8413,-1635.0913,28444.9140625
71,25713.469,38733.074,56326.246,-4911.7803,-3768.0125,-518.7045,28703.025390625
72,11283.849,9270.78,6594.5615,-12721.078,5187.137,-3662.7004,24960.865234375
73,-7274.6924,6155.668,-34950.223,-1412.3883,-4838.845,-2415.894,37573.12109375
74,123539.734,147543.19,158203.52,14318.879,1787.438,3640.2112,40126.328125
75,113615.78,100053.91,142053.38,-8163.822,-2961.7366,1679.6346,40162.3125
76,-127216.67,-116019.78,-155416.75,6722.247,6214.4336,5632.3945,39786.46875
77,-4099.9746,5732.022,30675.443,-1275.2206,11248.1045,2730.1829,37025.4765625
78,-6167.925,-5779.386,-10996.94,-576.8012,180.62047,1258.6646,5585.2744140625
79,-23268.36,-15961.683,-35413.23,257.91965,-974.8745,6508.7007,20488.150390625
80,934.68066,1051.2632,-8927.703,1242.4705,-2274.8962,5554.363,14530.638671875
81,2437.9292,-5560.425,9638.326,8966.777,356.04135,232.30455,20375.529296875
82,-10692.454,3187.713,4373.94,-2458.926,-1303.5631,2757.0215,16017.849609375
83,4851.866,7614.1978,7015.427,184.51642,2299.385,1567.6478,5447.12890625
84,-11679.489,-19157.969,-9887.238,-705.077,-1081.7944,2450.1243,9775.2080078125
85,-11858.492,-9946.548,-16736.494,-1754.5577,-318.90927,1235.1605,7134.02392578125
86,-4233.003,-18486.586,21324.076,1265.9921,85.98865,-1591.8989,35114.69140625
87,-6097.4062,-8570.946,-7074.0156,5183.027,-975.72235,1091.4631,9574.8505859375
88,-442.49634,1546.5109,-6997.3926,1978.3186,1147.7682,2192.05,9490.4765625
89,-2144.9114,-1769.7522,-7651.1987,-3209.7866,1792.1448,85.257805,8549.3291015625
90,-10715.127,-13256.953,-16591.318,1125.7358,-1028.9088,4314.096,9426.8935546875
91,-16479.277,-27088.168,-31627.922,4319.207,-4030.9739,-1518.2388,17115.71484375
92,12929.092,10749.809,15580.709,-2831.0298,-2249.6978,-2587.117,8767.33203125
93,5875.5493,4660.79,7498.863,-904.8991,-2098.0967,-1356.654,5221.7626953125
94,4467.339,4466.4165,7304.6455,-637.75415,-596.7821,-1578.8871,4221.39990234375
95,3832.9854,7873.055,-8414.584,-438.793,846.0675,4007.4116,16331.2373046875
96,13718.516,8123.4346,21479.334,3695.0552,4472.653,878.2282,15435.2080078125
97,-9886.409,-41550.89,-3486.3965,-10102.399,3148.2583,93.426544,39776.73828125
98,17406.168,19169.305,15303.144,-281.81625,1996.2668,455.80594,4904.6982421875
99,-58335.547,-44840.652,-27462.77,13156.535,6022.5635,3255.9634,37128.37890625
100,-1019.78864,-2612.0244,2494.3386,-3292.369,-482.8294,194.21498,7335.6142578125
101,19215.885,25313.982,27488.062,-934.5585,-3525.5847,-1832.5558,10254.5302734375
102,-38467.73,-39271.062,-58159.207,402.88794,-3319.4626,-2509.1172,20615.80078125
103,19895.83,16248.264,31348.166,1972.428,2458.3552,53.067673,14698.4443359375
104,-7575.05,-9935.256,-16879.951,1845.3779,-2431.075,-1204.1777,10123.5888671875
105,6655.742,-2322.253,-11290.12,654.70685,-1306.4159,35.77711,15746.44140625
106,17391.54,18942.566,24157.398,-2270.805,2074.1587,4151.7944,10852.5009765625
107,-11997.172,-11623.896,-9829.496,1202.1174,3565.3428,-2019.3994,7663.7587890625
108,-4298.0586,-2250.8608,-3406.8245,-1359.421,-12118.142,-4757.278,22740.890625
109,5905.4414,7171.376,17856.176,-1313.1736,1117.234,-381.46075,11774.8984375
110,-5838.354,-10197.928,-7483.037,-251.36455,3166.5093,2401.3865,7881.02880859375
111,3387.1123,10630.07,4037.9624,1468.8298,-2429.8672,-2905.5073,9883.37109375
112,14924.581,8386.869,10108.191,1756.3458,-1163.5553,-1164.819,7199.81689453125
113,-8898.09,-8480.646,-13276.055,519.8881,971.64404,-310.59238,5010.08154296875
114,13312.029,-26552.469,-13202.186,1195.055,5029.436,-1622.3986,36376.81640625
115,-4074.0142,3761.1982,95.60414,7952.417,-185.73264,1190.0762,15497.7919921875
116,-110184.12,-91985.06,-78693.805,-573.2413,-4629.5684,-1576.2224,28679.076171875
117,4654.4043,-600.7197,38770.53,5341.7593,-382.25308,2497.5703,38413.09765625
118,-113456.18,-127326.984,-125629.52,-10302.592,-9275.075,-16301.608,39312.515625
119,14967.413,33170.434,52948.176,-602.7294,-7475.807,-9098.662,38725.1015625
120,11474.802,15829.703,14174.16,5787.0747,3301.136,218.4991,12157.412109375
121,-248.82666,-1550.69,-10288.596,-4653.2974,-1796.2928,3007.5469,13827.3984375
122,-756.9282,-6754.127,-4952.913,1521.5273,-4620.8896,-445.5604,10000.35546875
123,-15584.999,-5916.834,3745.3643,-2787.138,3997.415,-1491.6471,18925.23828125
124,-9256.885,778.4116,-4317.517,2443.2654,228.783,-250.89012,9684.5751953125
125,-79416.836,-96589.914,-65529.188,-3795.944,2645.4475,-14009.468,37138.83984375
126,-60658.945,-32247.842,-55814.44,-15206.91,-1464.9717,-6771.964,39125.3046875
127,-887.2461,35417.496,16827.615,-1668.2561,3472.7603,-1612.4799,32265.2578125
128,-475.08795,-9935.029,10517.964,163.76747,8725.695,10854.96,29938.529296875
129,-22534.207,-19422.32,-44178.41,-3329.8516,-3050.5532,-7242.0254,27641.125
130,-5024.505,49.57715,-18594.303,2533.1008,1804.3313,-3814.8506,18746.08984375
131,4228.905,4619.825,5009.2075,-1110.682,-3456.4155,2231.9949,7412.37646484375
132,-6532.7627,2008.8049,-4157.9966,-5736.333,1799.0055,-502.42947,12942.0546875
133,31471.34,25745.703,39801.453,-2823.662,2798.445,2994.8062,14972.9287109375
134,17044.84,9335.045,7445.009,-3659.4888,442.4928,-1878.6733,11355.0068359375
135,-33145.38,-21183.426,-56733.492,-1414.3169,4075.8784,-12153.093,38478.30078125
136,-381.93994,-10117.061,-6251.816,-2913.0872,-6468.662,141.50726,14937.6416015625
137,-120183.53,-94755.27,-86150.92,-11427.692,6156.523,364.943,38017.22265625
138,-191827.83,-193301.92,-229336.25,1131.1553,-4012.6038,-4340.4604,38241.65234375
139,51679.363,57027.613,89855.21,364.90796,1520.8109,-3882.6006,36529.26171875
140,-10414.236,-324.0078,-2672.4758,-3427.4587,3745.253,1305.3947,12886.689453125
141,6239.0303,2909.4187,1387.5671,2004.5486,2430.511,2977.5112,8651.1875
142,8493.605,2114.0127,4683.8105,-446.65726,291.36548,653.1545,5748.20166015625
143,-36641.125,-27518.75,-15518.5205,2449.5137,-959.8898,-1213.3949,19023.021484375
144,21591.145,17133.07,29714.225,1253.1005,315.7498,1578.5343,11599.884765625
145,542.39966,2217.4534,380.18964,8157.0464,-1849.6066,-2357.4595,15154.2734375
146,-3967.2925,-6541.677,9632.656,-4511.314,745.4273,-270.8758,17015.890625
147,1812.0879,1629.617,-6922.5596,2866.3354,925.32056,1543.1422,10444.79296875
148,3301.617,1391.2041,14173.051,444.9043,198.279,-1583.8508,12281.8642578125
149,-4939.5503,-3859.5183,-2519.829,-2126.86,156.287,-185.70764,4260.92529296875
150,54678.3,47992.477,38216.11,19842.684,518.8911,8422.144,40005.52734375
151,17767.934,-3047.31,-291.05566,-10552.793,2703.3623,-5238.9834,28667.90625
152,-35478.01,-5755.535,-20227.924,-1451.1058,-15177.0,10.494955,36879.015625
153,5275.9854,2943.4336,9691.091,9298.663,-8620.682,-400.57742,22760.880859375
154,-23092.893,-16370.613,-25473.535,6656.429,-623.66797,-2395.5125,14770.4541015625
155,-14945.83,-16291.218,-21801.54,3208.1497,-1453.6342,-1116.5116,8974.56640625
156,22087.49,27103.922,33969.96,1695.6447,-2157.9143,196.30244,11378.09765625
157,6073.528,5221.726,11925.652,-1295.077,-3202.0977,-1460.9495,9063.8212890625
158,1553.1235,-2357.703,-5221.177,-3045.1538,-2183.4778,629.47186,8831.92578125
159,-7499.0425,-3126.1382,-13674.974,-509.64716,2309.6306,1445.3271,10359.560546875
160,-9979.864,-9412.026,2104.141,6247.282,-1856.2849,2726.6763,17006.208984375
161,-709.8419,617.03436,1267.6832,937.13464,1606.5659,1725.4714,4728.3037109375
162,-3615.4138,-448.82684,-37.83606,229.92685,-2535.0444,2278.6196,6819.96337890625
163,18943.227,17021.008,23104.875,1442.0742,963.0057,-237.3711,6180.91796875
164,4553.633,7997.7646,4847.477,-2501.2546,1630.3577,-4710.5596,10210.1650390625
165,19606.94,24067.441,21825.088,10418.834,-31.768354,2317.8108,18886.45703125
166,-29125.852,-42554.266,-31916.398,-4779.7544,-3036.0305,4709.3613,17702.025390625
167,-4019.886,-7559.647,-1878.5056,1612.4565,-503.91,-881.80536,5965.73193359375
168,-4684.2744,6810.848,-334.54858,-581.8155,527.12756,2867.361,11294.7646484375
169,6075.1943,7332.546,16552.56,-1724.5173,3110.3108,1803.066,12078.0595703125
170,189.94434,4118.5957,5776.082,-1887.2928,-3142.462,-1424.293,8431.4833984375
171,-20266.346,-25432.455,-37354.43,-9722.473,-6587.926,8409.533,29263.541015625
172,-3943.3022,-22459.924,-9650.737,8360.852,5734.8066,933.19037,24098.66796875
173,-7647.468,-4173.5015,626.07446,-1364.5496,-1592.9283,-727.3971,8158.64599609375
174,2655.6892,6848.1606,-1160.781,876.0204,-298.48785,1640.2823,7667.0595703125
175,23960.934,14741.547,112.6543,6079.902,-680.6708,1054.1407,23441.20703125
176,10363.362,13185.426,-12181.088,4468.5728,-14190.934,-8602.102,38286.796875
177,22077.906,14169.394,35689.273,-5213.5327,911.3511,2581.705,21435.708984375
178,1341.1365,2915.5315,4461.0454,495.90594,533.9315,1557.8169,4021.68872070313
179,-6614.292,-3075.857,-463.85376,-1542.9354,-3432.129,-2672.4436,9617.267578125
180,10452.866,9258.358,31986.898,-1663.5096,6406.171,15290.754,36382.74609375
181,8643.229,3709.3313,1702.6509,-1195.9135,-2231.3074,1267.8333,7894.29443359375
182,-4347.282,7254.8857,5999.9224,20.188057,-4694.133,217.33,13706.6591796875
183,21836.91,2824.5322,10136.676,-1464.5,-443.7742,-756.56,16871.83984375
184,-25312.04,-28043.227,-34095.305,-150.41594,-1193.724,-2825.0815,9428.8095703125
185,-18721.77,-19664.94,-5386.835,172.11697,-7671.8296,-132.66458,19183.318359375
186,-17584.45,-22170.68,-8459.026,1074.7721,-4858.8833,-6296.642,18422.619140625
187,-20066.934,-20202.113,-11034.677,217.96677,409.0912,102.13062,9137.658203125
188,-1187456.4,-1179659.0,-1172789.6,-2330.2266,-7239.9985,-750.37634,18351.62890625
189,12463.058,1307.3584,10641.765,6132.1323,-2335.733,334.35962,15393.5185546875
190,20228.14,3175.2993,1720.0991,-14671.952,-6165.376,1959.4297,33001.28125
191,26325.89,-6682.332,19485.744,4326.779,-5907.877,-5107.493,33906.9453125
192,-12197.734,-14563.34,-21080.795,-3882.259,14.577841,-261.18387,10436.09765625
193,-19947.338,-19877.547,-18091.164,-335.6534,1153.1323,288.2288,2810.17211914063
194,-22187.309,-22017.92,-18635.758,2.107577,-116.97144,-0.3185973,3475.8701171875
195,-20179.156,-27342.4,-31783.5,-1327.492,4011.4978,-2417.3203,13188.6875
196,9118.736,742.1161,-2807.2373,-70.520294,-3155.9114,-6619.742,16548.548828125
197,-22600.586,-22527.143,-18536.473,20.886503,-182.15205,-10.961465,4040.4375
198,-19523.852,-18979.377,-20913.488,-587.2907,-4174.629,-275.15094,7518.55029296875
199,-21176.568,-21135.71,-17695.908,-113.212395,423.60217,256.17377,3570.44775390625
200,-22077.512,-21990.672,-17871.188,12.681006,337.9763,-230.6108,4223.52197265625
201,-21702.562,-21551.012,-17283.83,-2.6303923,582.4422,-195.91953,4473.40966796875
202,-21461.83,-21029.244,-18534.6,48.92554,-1209.7446,-261.5574,3477.41186523438
203,-23285.193,-22667.96,-17552.312,-27.894806,374.53317,-237.03293,5504.55224609375
204,-21771.078,-20952.088,-17049.861,272.017,733.88873,-172.78738,4584.90185546875
205,-25212.342,-25800.63,-20151.363,-36.61119,-149.22282,-79.12942,5387.6259765625
206,-16782.168,-16095.025,-13586.661,508.3849,268.7678,-63.716324,3080.89477539063
207,-19273.752,-19012.846,-15343.373,-148.70294,-466.15295,58.86552,3901.1689453125
208,-17252.045,-19155.559,-15041.291,-190.82231,1877.336,557.1172,4932.80322265625
209,-20499.395,-20792.1,-14759.756,159.86281,-108.63433,-193.43768,5910.45458984375
210,-19724.855,-19766.03,-18797.518,-607.7473,-773.4077,28.173546,1950.58020019531
211,-1736.3491,-10653.8125,473.6443,-504.4496,-15994.827,2676.2551,29897.603515625
212,-19436.066,-19405.24,-12565.182,68.01441,-27.46873,-391.30566,6890.11669921875
213,-18630.13,-18431.072,-13054.568,440.11658,-6361.874,1062.0175,12466.0224609375
214,-20407.504,-16146.56,-21570.572,-335.67587,1174.411,-3632.855,8278.4541015625
215,-19783.078,-19388.96,-13043.456,170.6893,95.71387,-295.20728,6580.11865234375
216,-17916.959,-17337.55,-13215.129,173.10558,-35.232788,500.70938,4534.7978515625
217,-18310.574,-18198.887,-11778.342,-57.21392,-268.58572,84.79706,6496.2119140625
218,-18656.854,-17691.781,-15101.899,123.63846,531.1942,-3080.8071,6285.28076171875
219,-17401.799,-16870.982,-12025.686,135.84538,-381.7726,-1315.3773,5658.08251953125
220,-19711.934,-19204.291,-12709.436,36.416477,-455.57443,12.091456,6809.18310546875
221,-19729.637,-19667.398,-13670.607,34.32399,67.01037,367.50867,6063.068359375
222,-17035.793,-17236.004,-10272.6,114.58569,-82.149925,-171.82988,6876.2744140625
223,-18532.906,-18366.443,-11575.357,-89.17319,-453.64618,-369.76068,6951.865234375
224,-8828.629,920.6636,-3137.1313,-1662.6835,-1617.2496,-5020.431,12794.841796875
225,-20002.389,-20151.443,-13586.935,-83.6443,-155.77104,-218.68018,6509.513671875
226,-20019.53,1104.9824,-30238.8,-1639.37,1015.0393,-3025.9192,28375.65234375
227,-16591.922,-10097.733,-16661.477,6980.3833,-439.5796,-3456.4167,15007.6123046875
228,-21541.303,-20801.152,-14311.627,-69.32994,-355.51822,186.27052,6925.50927734375
229,-17726.432,-17353.305,-10500.191,411.28662,194.4477,211.8346,7100.4921875
230,-12541.271,-4205.0205,-2751.847,-548.5113,-1784.2938,-3794.4504,11720.328125
231,-18047.854,-17966.25,-9509.488,-64.62892,305.37296,296.39377,8530.4990234375
232,-6072.037,-13402.929,-3064.355,363.09418,471.68475,-2437.7012,10184.658203125
233,-18399.238,-18023.309,-9420.396,-112.39806,172.85864,254.76149,8815.2001953125
234,-15559.273,-16357.357,-7399.1553,533.99585,-719.40704,-78.950874,8727.1826171875
235,-4204.2104,-9721.114,-1967.1123,-3574.8442,2223.6719,-2804.9004,11160.544921875
236,-7145.4487,-8823.62,-2595.952,15.930539,1582.5507,802.8635,6371.5732421875
237,-16833.826,-16014.267,-8305.796,-725.0496,1896.8182,985.9126,9038.62109375
238,-8845.372,-12863.613,-4572.2446,1047.4468,-3104.5095,537.6734,9200.48828125
239,-5071.1177,-12966.031,-3183.2188,468.2382,-7297.281,-1237.591,15678.080078125
240,-16590.809,-16474.762,-5171.1704,20.418259,1564.9631,752.72644,11753.5
241,-14984.106,-15052.982,-4261.844,-573.5504,1420.2249,1252.9011,11289.705078125
242,-15046.072,-15771.443,-7317.195,-529.867,-845.94135,1289.8423,8593.498046875
243,-19438.936,-19550.176,-7076.6826,-20.551489,2421.637,1725.368,13443.875
244,-16209.617,-16805.898,-4005.581,-327.81848,2457.7498,1666.5052,13540.5615234375
245,-15985.628,-17090.64,-6659.2324,-328.22354,839.2873,1843.568,10542.3486328125
246,-35246.65,-37255.86,-50731.055,72.99616,-4892.0044,-965.4727,16949.921875
247,-33185.83,-37073.71,-53399.402,2069.5188,-3241.8037,110.86492,19736.505859375
248,-5015.633,-13027.685,-613.72217,-1278.5503,-8912.932,1412.0408,19184.494140625
249,-67790.47,-45206.684,-76269.99,14553.417,101.793274,-2136.6028,37716.859375
250,-41790.297,-52987.758,-59822.414,8218.643,-1414.4468,-1793.6342,21608.287109375
251,-101429.69,-90119.914,-60533.04,-3034.6304,4204.0527,-5377.7344,38798.5078125
252,445229.06,438991.1,453094.53,1241.1268,-15931.818,-14272.26,39077.15625
253,18473.1,8706.227,12385.518,5109.975,6502.1577,1302.3662,16830.091796875
254,1878208.2,1868718.0,1857016.0,6433.7617,-8923.419,-1598.4735,26622.998046875
255,-1060300.1,-1061285.4,-1061978.1,23.855598,-3761.4636,-1413.7198,7111.71533203125
256,104544.75,129837.01,135970.7,-1551.1115,10830.676,10617.357,39112.2578125
257,66520.0,57951.746,62922.22,15530.363,-15228.333,-5155.2935,39427.73828125
258,22705.201,50606.207,62380.004,-5362.395,7439.408,5617.8125,39907.00390625
259,-44162.125,-75398.55,-41275.22,-7623.682,1394.5223,8969.595,38675.3359375
260,-11239.568,10918.271,6614.12,2199.9639,14147.038,10139.68,36571.84375
261,-16698.727,482.06445,-41958.82,-2286.086,-2070.0376,659.90375,37377.5390625
262,-55794.1,-41498.566,-33561.34,-7374.121,-42.128105,-2121.0688,23610.673828125
263,-16519.473,-16879.428,-7175.2163,71.492775,1883.775,1320.0996,10329.44140625
264,-51679.633,-36432.812,-76349.84,6338.7495,-1049.5922,-1105.3889,36670.65625
265,-13985.193,-11595.647,-7758.87,1175.603,2152.4983,3070.549,8713.76171875
266,-12079.922,-11800.046,-734.14746,78.09788,-13.776592,-442.7658,11235.501953125
267,-18070.498,-17372.8,-11511.684,75.57679,892.85693,1073.116,6692.6982421875
268,-17654.99,-17649.627,-14672.559,64.22561,327.46124,631.55334,3226.38793945313
269,-47731.875,-31173.314,-59933.48,-2925.975,-6110.177,123.93385,27619.5390625
270,-10947.024,-4029.0508,485.6831,-3489.157,7701.108,-3169.9705,18548.9609375
271,-14386.853,-11868.014,3655.7969,3338.12,-787.7753,2089.1165,18298.0703125
272,-9151.769,-18480.164,-1570.7583,462.99188,-4477.288,-12098.512,26741.591796875
273,-32184.201,-38662.527,-46193.71,3300.5225,5486.106,-2041.5583,16821.212890625
274,20365.791,-5071.879,961.21533,3891.9104,876.76544,7372.626,27217.99609375
275,-21781.799,-21600.85,-16523.469,-36.946526,-156.05452,-97.39725,5180.43408203125
276,-7946.9863,-8907.801,1852.0898,246.70795,1661.5161,-540.2761,10756.41015625
277,-16194.297,-16179.643,-7337.6187,30.759693,156.5345,-640.66003,8922.939453125
278,-17086.55,-18076.705,-11382.943,-669.0033,-709.445,-1217.0569,6815.81298828125
279,-18139.514,-17944.287,-10673.613,101.81322,805.22656,-124.48341,7506.197265625
280,-17427.426,-17290.383,-8863.08,-237.80292,549.70685,272.04587,8572.7080078125
281,-12823.019,-12603.102,1640.9868,-35.75199,2712.5127,1430.1194,15306.4580078125
282,-19670.25,-19453.639,-13748.895,-29.347784,47.209892,-128.49466,5821.12890625
283,-18410.781,-18188.59,-11654.574,-140.09717,-165.43333,-204.7684,6667.93115234375
284,-13471.497,-16006.321,-17567.365,932.78094,3543.6492,1465.631,7716.60400390625
285,-2999.191,-17026.865,-11303.382,-10797.998,-81.741646,12858.083,31544.3828125
286,-23085.383,-22806.236,-19595.201,23.419157,-363.19388,-187.84221,3433.40161132813
287,-2330.0203,-7982.2856,1359.4678,-1141.3242,-2203.8347,-2001.1558,9844.125
288,-22464.188,-22513.096,-18078.85,34.24094,-113.32123,-399.18185,4468.57275390625
289,-12659.244,-14641.29,-13300.558,699.8045,1572.3672,1165.7399,4003.962890625
290,-16453.715,-17865.246,-16515.95,-865.442,1684.6876,35.513554,3560.0166015625
291,-22560.236,-22455.72,-17510.842,-110.66317,-11.44402,-250.70438,5020.48388671875
292,-17226.28,-17176.613,-8302.742,25.930088,1384.1932,906.8828,9349.1220703125
293,-18450.291,-19428.49,-10018.375,351.35095,47.80867,1063.8774,9169.2353515625
294,-19166.502,-17981.297,-9709.421,22.163952,1124.2443,954.0585,9282.0498046875
295,-13431.515,-13893.119,-1292.6797,-19.35683,2920.2422,1363.4902,13576.8046875
296,-21488.387,-21912.977,-17893.467,406.55157,-520.9817,2277.7659,5612.9189453125
297,-18847.8,-18712.84,-11767.725,-2.5261571,-66.05611,82.11685,7015.9462890625
298,-15331.371,-15289.106,-11126.277,538.26697,-235.60985,-1079.5269,4694.54345703125
299,-18869.34,-19133.336,-11948.795,26.410103,-37.50818,-12.440467,7056.72802734375
300,-20673.955,-20543.65,-14422.367,150.79556,-186.9016,-221.88715,6213.3271484375
301,-10134.374,-9060.996,-3083.8652,-267.8191,852.769,139.56598,6763.81689453125
302,-18872.035,-17501.633,-11227.564,107.71522,2180.3386,3314.0007,9853.1298828125
303,-5830.6,-6997.641,-3659.0527,-3922.8887,9638.981,429.5634,18277.376953125
304,-27603.506,-30043.697,-50179.883,2194.5823,10709.037,-5163.148,29983.828125
305,-10778.894,-14652.074,-11763.675,963.20264,1433.0713,715.1068,4757.6865234375
306,-15485.099,-8879.57,-16263.049,3674.2407,7976.486,-19958.912,38416.46484375
307,-9734.573,13349.221,-18646.734,-5288.788,-2026.7228,-1317.251,30322.546875
308,87945.11,85152.21,123577.61,-4877.5186,-1618.2902,2909.8474,38491.84375
309,-42544.95,-38122.65,-74801.35,448.06583,261.01556,52.323982,34691.41796875
310,-29701.768,-29501.803,-37377.137,11153.88,-4740.539,-5916.8164,24620.265625
311,559340.06,546657.7,541777.4,3511.551,-14979.671,-3685.5725,31582.732421875
312,-18882.295,-19250.146,-16543.498,-17.587755,175.98146,56.484165,2563.0107421875
313,-7202.236,-11596.953,2640.2476,6172.0957,1546.6969,5200.735,19027.533203125
314,-12994.035,-16832.205,-17334.389,-255.51257,1554.3685,-1218.0417,5367.1337890625
315,-16915.2,-17880.174,-18287.607,116.98916,-3544.3826,381.45297,6297.2900390625
316,-21378.324,-21560.67,-18176.635,179.83592,355.42285,-245.69576,3394.845703125
317,-19475.83,-20353.12,-17984.812,259.80484,2290.7183,-643.79346,4635.61181640625
318,-24503.191,-24248.51,-18894.477,-39.249046,512.0227,-64.23635,5558.56201171875
319,-9415.221,-14569.485,-17157.07,450.88852,3648.4158,485.105,9372.7177734375
320,-15088.678,-20149.27,-19825.035,-627.72815,2253.0496,386.02628,6397.79443359375
321,-18878.484,-20182.037,-13675.818,287.27505,56.657314,315.6894,6008.75390625
322,-27241.375,-22359.09,-8496.286,-1516.5005,-18062.34,2735.5146,35941.46875
323,-37559.02,-34492.023,-46726.305,-116.9957,-3373.7917,-231.59813,12486.4326171875
324,-21495.332,-21554.15,-21797.06,-80.81119,724.5014,-368.4529,1441.63916015625
325,-19106.07,-18476.91,-12986.754,-158.2247,7.2744036,-186.50455,5845.63623046875
326,-13555.07,-15012.29,-6205.451,-582.5044,-4721.881,-1719.4194,11984.4072265625
327,-10069.596,-12469.813,-3818.9653,-191.43156,3007.2278,433.00113,9361.4619140625
328,-19299.201,-19764.0,-10043.747,244.3639,1326.4463,1080.5948,9957.005859375
329,-18745.902,-18177.193,-10335.225,-575.4427,643.8176,108.465256,8279.607421875
330,-9896.769,-12253.079,-3212.0352,-323.21106,-971.10614,111.10095,8316.7744140625
331,-13694.826,-12753.648,-2093.5317,194.11314,2672.5757,1065.0029,12227.0478515625
332,-16145.601,-16333.942,-3617.9873,-227.31003,3400.3582,2540.2952,14612.9287109375
333,110409.484,94609.73,136760.05,-5073.1367,4073.7654,609.3147,38580.14453125
334,25365.723,32426.32,1524.0801,14540.062,5243.1836,5497.526,39924.8515625
335,-26545.477,-35135.57,-4694.5938,1888.0952,16541.703,1820.6885,39755.19140625
336,102710.16,73198.734,114420.0,7880.66,-109.793396,264.8145,39245.12109375
337,-15526.588,-15603.996,-2811.4111,252.72905,2010.3054,1170.8475,13382.6083984375
338,-20211.648,-16159.764,-28572.557,4921.087,59.554466,6706.5015,18105.064453125
339,-12382.757,-8301.523,-7061.628,-1303.1102,-661.6637,-3377.7935,7993.138671875
340,-18882.578,-18786.553,-13801.94,59.39172,-373.3591,1480.7231,5686.8818359375
341,-26115.07,-19591.943,-11368.843,6237.718,-4721.4336,-7778.419,22998.380859375
342,-19148.777,-19055.398,-12172.01,-198.2569,-139.4958,368.84888,6972.5869140625
343,-18665.172,-16784.557,-10775.35,-631.57623,562.68054,-718.03375,7391.9892578125
344,-22940.63,-22570.29,-16998.26,6.53389,-161.64893,-162.8358,5779.81689453125
345,-18963.803,-18419.01,-11039.171,28.184166,828.5144,287.6324,7815.95751953125
346,-23830.49,-25975.508,-28227.57,-2161.2244,8524.061,5155.901,18062.25390625
347,-19504.537,-19583.668,-12684.682,89.553955,-7.2073393,146.27788,6866.2041015625
348,-21016.922,-21415.93,-19158.795,-222.07867,-90.824066,-146.16249,2142.43896484375
349,-25270.145,-23692.852,-35137.074,1978.3287,1388.0155,-2537.3933,12338.6953125
350,-19998.47,-20076.807,-12321.113,-87.38369,-37.193184,-233.24666,7729.14208984375
351,-15630.05,-15418.239,-11112.369,-217.00171,-1170.7461,2006.017,5985.2255859375
352,-20115.648,-20121.652,-12654.309,25.796389,66.688,-121.04233,7468.314453125
353,-17446.654,-17695.707,-11449.307,-219.57648,-160.0852,-116.25204,6147.02587890625
354,-21543.338,-20768.254,-13503.075,-519.0075,-787.48645,-1632.8732,8347.576171875
355,-5790.9424,-15634.273,14199.758,4514.5845,4098.182,-10457.319,33658.44140625
356,-26827.168,-16305.002,-32816.996,-2199.976,-1186.5809,4946.116,17371.119140625
357,-19568.531,-19151.836,-16832.115,220.78513,-52.077553,-35.80167,2584.48754882813
358,-19321.54,-19903.129,-15732.142,210.21645,649.6283,518.5115,4185.064453125
359,-18426.576,-18664.781,-14280.428,375.21225,-65.99762,-253.06358,4343.09423828125
360,-39378.312,-39393.62,-46801.113,-1.9549611,-9.317433,42.568344,7415.54345703125
361,-18770.268,-19428.05,-23686.625,513.4534,-44.694267,-197.31717,4720.49267578125
362,-23483.957,-23458.883,-15580.866,1.8773686,81.47645,-9.480344,7891.86328125
363,-4078.511,-4835.4653,-3296.482,-1163.6724,-289.1747,-28.998291,2468.25805664063
364,23133.379,19204.787,57329.844,618.2612,1426.1433,-5500.983,37645.8046875
365,-22707.008,-22695.791,-16178.414,20.282185,-7.3047285,-43.479084,6523.5341796875
366,-20659.99,-20638.295,-12368.726,11.616353,-595.34973,-240.18764,8354.7861328125
367,-20267.049,-20322.295,-11781.672,-14.15989,-21.228012,-57.895824,8513.83984375
368,-21858.975,-21858.602,-15447.738,18.781836,120.07129,-115.62867,6417.63037109375
369,-22653.69,-22676.61,-17134.55,1.1605543,160.40048,-99.279526,5540.27734375
370,-22667.172,-22669.914,-17935.389,-1.8158741,159.39725,-53.142265,4742.09423828125
371,-22465.262,-22477.707,-16754.518,4.665742,17.889553,2.0783584,5717.0673828125
372,-27614.021,-27606.77,-26428.771,4.650519,-192.36188,-95.56285,1238.84851074219
373,11863.363,14234.128,22829.455,1073.9343,865.18555,-448.0724,10304.640625
374,-1850.4387,-4487.6997,-7966.286,275.4342,-989.80316,118.70692,5607.017578125
375,267.729,4007.3398,2715.782,-241.4571,-35.6994,78.6634,3319.66552734375
376,-9116.738,-10233.319,3497.79,105.94469,8791.133,5640.8647,22400.9375
377,-13977.959,-13920.443,-1364.7305,-25.648788,-439.18237,-40.274487,12607.8095703125
378,-24275.992,-24239.0,-20193.066,-11.777467,-69.39822,-0.9439336,4066.38452148438
379,-19622.123,-20769.768,-25970.46,787.5934,-395.84775,19.872547,6055.16552734375
380,-23823.82,-23869.553,-16154.523,-1.2143067,-432.66693,-382.88504,7757.08447265625
381,-19161.824,-19091.174,-6674.7236,-52.822033,876.347,455.2153,12569.1865234375
382,-20288.387,-20223.945,-10844.41,-35.023853,215.61781,54.218903,9419.9912109375
383,-21240.75,-21240.352,-12480.69,2.4176538,-17.181248,-106.356865,8761.8486328125
384,-23563.16,-23496.613,-16849.07,-19.18644,71.084076,-32.348354,6682.5166015625
385,-32725.21,-32743.277,-34573.0,-7.3500233,-1.1243929,41.084084,1840.24389648438
386,-1622.9268,-4453.1636,-8137.49,293.1139,-395.8142,401.0172,5763.8720703125
387,-27717.217,-27723.293,-24763.54,-2.6649048,12.834717,2.625058,2956.81127929688
388,-27368.674,-27415.422,-24749.05,8.284737,5.246286,11.017235,2643.4306640625
389,-21857.336,-21865.918,-14902.406,19.575176,-21.942158,-63.010094,6960.2666015625
390,-20840.43,-20835.225,-13046.2,11.421808,42.89085,-62.449688,7792.75830078125
391,-17510.6,-17541.227,-6768.494,6.074209,-33.555695,-26.671618,10757.712890625
392,-3554.8616,-1063.4136,-5722.358,209.54333,-205.55548,389.24878,4125.35888671875
393,-21701.357,-21701.855,-14927.896,36.15215,118.21106,-100.21218,6779.3154296875
394,-21851.055,-21823.137,-14873.525,2.2842565,14.412439,-7.1317744,6963.6689453125
395,-22057.979,-22051.178,-16102.101,12.992985,127.129234,-65.89634,5957.6875
396,-23450.285,-23435.156,-17362.602,-4.2696147,-50.767624,-34.289005,6081.0634765625
397,-30518.836,-30551.441,-30741.275,-14.131763,-61.95173,3.2303612,235.444595336914
398,-25624.836,-25634.072,-21133.04,1.4603637,-87.37095,-42.10375,4499.5595703125
399,-18007.293,-17843.78,-4293.0303,-37.64905,471.96637,116.857956,13659.3828125
400,-23278.37,-23299.275,-15752.285,7.32409,94.29556,-107.28256,7540.62890625
401,-19871.832,-19830.75,-8932.066,-20.759287,644.3888,237.16782,10983.9189453125
402,-27771.182,-28492.623,-30870.494,605.6823,9816.493,6192.492,20325.41015625
403,-10655.594,-10665.34,5881.072,24.39453,-717.8517,-265.90332,16594.6484375
404,-10194.336,-10186.487,6580.628,18.36488,-756.5693,-231.54408,16826.966796875
405,-20941.814,-20922.252,-13248.469,9.820186,-20.222862,102.46057,7685.73095703125
406,-29454.244,-29482.57,-27368.275,-4.9229803,63.852676,-7.179726,2103.23901367188
407,-21636.354,-21627.844,-15453.57,-14.938179,71.76453,46.34865,6180.3583984375
408,-21417.059,-21409.895,-13496.892,-9.031873,12.474037,-72.248146,7917.62109375
409,-20363.984,-20362.145,-11827.376,-8.143814,-141.94856,176.75049,8544.7265625
410,-19503.07,-19455.867,-10037.334,6.97306,-39.47907,-71.66864,9443.294921875
411,-16259.631,-16222.297,-4096.7017,-37.63288,267.866,-385.2338,12171.6416015625
412,-29352.805,-29380.727,-27825.879,3.100159,44.961964,-36.185043,1544.32458496094
413,-16178.83,-16107.309,-1820.584,-24.843868,13.977172,-63.88858,14323.1328125
414,-27565.12,-27566.059,-23460.79,-19.37691,67.378105,-29.704613,4106.91796875
415,-22831.168,-23795.97,-13894.625,953.0374,-21169.055,-3881.826,38493.26953125
416,-22293.441,-22275.54,-16991.53,4.690128,31.531513,19.801971,5293.3828125
417,-22492.709,-22484.076,-18014.227,-1.0128561,-167.37576,38.534763,4484.0517578125
418,-25119.01,-25116.537,-19239.754,-6.1682734,26.45093,-46.49679,5878.759765625
419,-22226.74,-22218.13,-14727.141,-5.716903,12.255162,-58.540188,7496.02099609375
420,-29373.865,-30829.225,-20634.062,-396.00183,-21160.854,-4322.938,38614.77734375
421,-18057.44,-18041.424,-7426.8706,3.4612322,69.618645,-17.66474,10623.30078125
422,-12908.349,-13008.96,2839.3398,62.214767,-2026.6772,-627.2235,16220.3056640625
423,-68732.09,-67522.234,-56708.29,-703.3365,-20940.639,-6233.601,39561.0546875
424,-29944.441,-29942.72,-30333.973,13.139586,28.98834,-33.94048,398.625915527344
425,-17857.201,-17835.398,-9098.535,-32.537605,-370.24283,53.21484,8771.923828125
426,-14171.124,-13745.962,3.0048828,-183.41663,2808.7922,2012.3053,15197.939453125
427,-24281.953,-24296.283,-19004.752,-4.4151573,-108.7099,-48.85841,5288.4169921875
428,-34470.402,-34457.062,-37737.48,-3.270308,28.171019,6.116849,3274.15405273438
429,-28689.084,-28691.178,-27080.436,15.7964525,40.378082,1.9468789,1611.45068359375
430,-26253.018,-26271.34,-22239.875,-1.7411677,-7.24858,-5.177343,4022.36596679688
431,-29339.9,-29350.062,-27858.723,-10.298459,-10.929884,-6.8647947,1486.55993652344
432,-21020.867,-20978.393,-14599.9375,-15.443043,-301.46964,-23.048862,6421.244140625
433,-16125.39,-16072.663,-2953.1306,63.871017,-1756.5634,-552.04047,13527.7373046875
434,-22292.031,-22281.508,-15844.198,-0.65077466,17.22534,17.549486,6442.71875
435,-20599.334,-20592.86,-12918.127,3.9265482,-111.60371,113.116554,7682.90625
436,-23358.502,-23383.924,-15955.1875,10.131433,64.14507,-112.44958,7419.46826171875
437,-35460.598,-35452.445,-37723.156,-3.0057998,80.65851,-24.124115,2271.33740234375
438,-21071.926,-21074.334,-14423.556,18.255796,47.077408,-18.77666,6650.2294921875
439,-22917.734,-22876.105,-14786.205,52.342766,-479.48154,-525.9017,8204.427734375
440,-22727.316,-22678.178,-17420.95,-9.471248,25.978752,87.24149,5284.34716796875
441,-28721.037,-28714.879,-24846.879,-2.1635497,116.015114,-73.22754,3878.37109375
442,11103.499,13411.978,21694.707,1079.8888,-447.87033,362.5352,9876.625
443,-25482.893,-25467.227,-20871.7,-5.7368684,24.864647,-54.270313,4604.55224609375
444,-32019.47,-32010.152,-32153.871,-0.9853944,50.691925,-96.306,234.391021728516
445,-13385.7705,-13383.1045,2048.4385,5.949981,95.045006,-317.11874,15443.5283203125
446,-24187.66,-24201.9,-18541.68,5.221195,21.414934,-3.4355052,5653.24609375
447,-22810.055,-22817.25,-15711.032,-4.14474,-92.29133,-143.95312,7108.798828125
448,-11542.374,-10671.329,6522.296,245.64961,6165.3145,3884.1309,21698.611328125
449,-39130.9,-39122.242,-45017.984,-0.8588683,71.11469,-83.409874,5894.47705078125
450,-22083.408,-22080.785,-15563.879,0.5952623,-426.14194,-100.64248,6562.19091796875
451,-17984.373,-17947.635,-8132.0615,-31.622551,-247.16573,106.5637,9845.1904296875
452,-32370.52,-32384.791,-33535.598,-0.7799792,-69.18639,-2.1417406,1164.19897460938
453,-21505.545,-21504.156,-13455.018,3.260073,-492.53143,-188.60873,8101.501953125
454,-25753.182,-25787.32,-21890.828,12.41646,-24.970787,-6.721202,3879.85375976563
455,-33999.367,-34007.293,-36427.32,10.5057745,10.263945,16.614395,2424.30419921875
456,-35303.31,-35305.477,-39930.86,-14.765575,-49.120316,89.55632,4629.91943359375
457,-24557.773,-24618.234,-19041.682,8.25375,-341.196,-157.95728,5584.6875
458,-12920.2705,-12946.557,1765.2251,8.68737,-760.32263,-311.1837,14767.3798828125
459,-28994.916,-28979.746,-26157.566,11.197252,30.414387,-58.094788,2832.14013671875
460,-21806.992,-21797.133,-15185.374,-7.858328,93.93425,17.640472,6618.7783203125
461,-26057.225,-26036.982,-22549.607,8.8829365,-86.16541,25.808956,3501.0419921875
462,-40499.91,-40489.234,-47130.234,6.0108986,67.83825,-16.910112,6636.78173828125
463,-13773.132,-13807.835,1040.2037,-12.86976,351.878,-373.30536,14857.3291015625
464,-20357.818,-20363.629,-11707.93,-35.024757,-227.92517,292.46887,8676.80859375
465,-33015.7,-33016.76,-33140.047,-8.92866,99.621086,-49.98228,229.865783691406
466,-32321.941,-32337.502,-34151.297,4.9829965,40.691185,-23.408142,1823.45922851563
467,-37138.09,-37152.516,-42580.46,10.164121,-20.812286,31.157324,5435.58837890625
468,-30228.24,-30299.615,-29070.768,-9.644793,-284.6435,-119.4211,1309.03820800781
469,-29436.516,-29488.79,-28029.889,-21.64938,-413.05594,-165.5791,1627.99328613281
470,-27317.488,-27308.0,-23021.15,3.3769054,-19.798954,-92.48168,4294.73095703125
471,-14461.547,-14464.931,-752.8823,1.1365473,-1.5136119,-4.7986093,13710.3603515625
472,-33004.098,-33021.273,-34777.67,-1.6804429,13.978817,9.491239,1765.29406738281
473,-37995.406,-37986.41,-44227.957,-4.8814683,-56.28351,43.77323,6238.28173828125
474,-13974.979,-13912.859,-857.75397,-48.84884,-428.0726,11.507696,13107.55078125
475,-17882.129,-17009.139,-24143.863,-472.37854,-25.818048,296.56708,6809.78271484375
476,-19076.14,-19083.076,-8080.2837,6.9629908,-216.67987,-134.00873,11008.1806640625
477,-19895.764,-19906.508,-10650.394,0.9167955,109.2451,25.104168,9252.7841796875
478,-23450.977,-23452.482,-15592.594,10.441519,2.9676285,-84.98219,7860.53662109375
479,-13905.724,-13919.893,-571.00696,-3.2903187,-9.406726,-25.379997,13341.890625
480,-114.63234,2276.7837,2722.5195,715.1068,305.594,3.2553525,2966.11181640625
481,672.3448,168.3727,4472.9536,-1829.9679,361.1229,256.35764,5220.03369140625
482,-37489.484,-37634.504,-33641.387,163.594,44.39013,-158.30583,3943.13549804688
483,-51644.742,-51847.51,-60341.87,57.673466,122.2807,83.736336,8601.94921875
484,-43193.945,-43181.867,-52065.062,3.9351826,70.38205,6.8437715,8878.009765625
485,-44436.426,-44416.65,-54974.88,0.597677,48.076103,50.188896,10549.04296875
486,-26302.312,-26292.758,-23403.297,1.4111952,-53.60056,48.894234,2896.97802734375
487,-40719.63,-40699.82,-49150.33,-1.6491212,-73.53756,-52.962902,8442.0810546875
488,-32212.734,-32216.584,-32052.004,-0.81409985,-6.1907053,-76.43716,210.030319213867
489,-19824.705,-19820.719,-10604.929,-2.1354089,3.1734343,25.61528,9217.892578125
490,-25314.656,-25302.059,-20596.658,2.2377477,63.11954,26.037798,4713.197265625
491,-77153.24,-78416.2,-87132.87,-25.107065,283.23135,-186.35643,9430.3154296875
492,-77462.734,-79223.93,-91546.51,-12.869781,-1557.5219,298.54037,13571.8720703125
493,-17695.574,-17641.809,-7106.3364,-45.507122,-512.46967,-188.97346,10605.033203125
494,-49099.07,-49312.945,-60795.56,-166.50652,-265.3985,709.484,11668.615234375
495,-53970.816,-54108.492,-69157.29,-116.713585,323.815,240.42676,15135.5849609375
496,-36732.87,-36719.168,-40436.445,-1.8550977,81.02277,-26.46477,3713.38208007813
497,-38261.273,-38252.11,-44224.754,5.480304,-108.77511,-112.187515,5974.20947265625
498,-40235.367,-40220.742,-48194.395,6.5383086,5.9928007,84.61566,7967.712890625
499,-10075.268,-12383.849,-15642.574,717.0944,21.60158,346.32782,5037.43701171875
500,-18773.387,-18803.848,-8713.519,-11.950294,-120.99922,151.18846,10080.7353515625
501,-4878.307,-6374.0454,-5414.145,1235.5779,-40.629707,366.00037,2590.30126953125
502,-40354.59,-40369.234,-49161.95,-16.435125,-38.22099,32.020817,8800.5166015625
503,-56376.34,-56082.895,-67153.92,-144.4767,-580.9531,36.551052,10976.5283203125
504,-20418.113,-20415.22,-12431.84,28.566216,-576.92456,-262.0482,8060.052734375
505,-53558.875,-53258.86,-62147.195,-165.92046,-11.9103365,24.00795,8747.03515625
506,-13013.49,-12968.727,3315.4336,35.51851,616.84717,-826.87836,16404.306640625
507,-32216.861,-32196.377,-33094.81,14.593281,71.50563,-55.025494,902.361694335938
508,-26645.225,-26642.04,-21211.768,27.865595,-111.463036,-139.91797,5440.90869140625
509,16778.957,12914.575,18847.47,219.66684,-310.38467,-37.619396,5257.73193359375
510,3103.5522,477.9979,-2018.9558,426.18655,85.38696,-94.635124,4503.0927734375
511,-16981.742,-16892.92,-5063.719,19.432783,449.54218,-602.11487,11945.0244140625
512,-33344.96,-33350.535,-36958.445,0.1561831,-98.58467,-37.994534,3615.33471679688
513,-15217.259,-15357.186,-22805.166,276.47607,381.23013,-131.96004,7566.48681640625
514,-34846.01,-34859.824,-38530.207,-13.472848,41.0898,28.21377,3678.39575195313
515,-14624.749,-14973.134,-21558.771,397.36688,746.8418,-49.642162,6923.92529296875
516,-27814.871,-27799.299,-23778.734,-6.2275033,43.29701,-74.6874,4031.16186523438
517,-64812.766,-64138.934,-71463.31,79.998634,106.61217,-9.800888,7015.6083984375
518,-13340.694,-13369.273,1460.6161,-0.05773242,-40.563362,110.37188,14817.01953125
519,-27874.861,-27968.674,-26712.986,-51.259487,-436.03732,-162.8377,1457.93322753906
520,-29129.666,-29148.34,-27095.627,-3.2131038,-153.78893,-133.64615,2073.69580078125
521,-23291.174,-23321.775,-15932.649,-1.1978182,-142.08084,-123.24709,7381.06640625
522,-36814.695,-37050.68,-35343.297,137.93369,676.1712,8.0281,1999.20532226563
523,-1005.77985,1763.7471,-4026.17,109.78256,-226.68317,-16.080486,5034.79638671875
524,-1208.2092,1135.6177,-3006.6506,601.9118,-9.080656,-16.74447,3745.8154296875
525,-43071.54,-43155.22,-47414.32,194.58287,-327.6633,-77.15265,4353.9501953125
526,-47890.523,-50181.008,-62841.92,-648.9135,-435.01303,-565.7535,14047.6298828125
527,-44380.633,-47651.73,-52171.496,-1164.3774,-353.02652,517.08,7152.361328125
528,-38731.023,-38719.355,-44427.125,-9.288705,45.109955,7.066234,5702.515625
529,-33968.14,-33956.273,-37063.434,-0.6254664,-49.88699,26.568983,3102.78857421875
530,-14887.245,-14925.322,-2547.392,19.938389,-707.0867,-320.8654,12431.9453125
531,-30026.367,-30020.598,-29832.861,2.7463367,-292.1951,-105.46587,570.865173339844
532,-39897.043,-39905.867,-47498.336,4.1627655,-1.2849355,22.959799,7596.9921875
533,-44124.242,-44121.64,-54208.45,-0.1837074,93.93499,-11.302991,10086.8388671875
534,-35102.28,-35105.08,-38923.145,-4.07112,-123.79368,33.895275,3825.93627929688
535,-5724.2676,-10099.462,-15302.425,-394.95023,87.19078,-273.63684,8348.205078125
536,-70.00476,-4176.4326,-4015.018,-386.37518,-49.484608,378.24194,4136.46826171875
537,-61525.523,-58357.145,-66893.836,481.16864,100.916885,1280.6754,7842.943359375
538,-49752.133,-48698.777,-58030.22,993.69086,-387.64825,-412.18344,9070.765625
539,-7040.2373,-3394.6357,-7804.3027,909.9442,181.48563,-301.4176,4417.583984375
540,-5445.478,-2637.012,-2796.0505,1311.2865,653.18134,25.409111,3729.1298828125
541,-43245.99,-45632.39,-68764.734,-1113.9327,84.27312,829.99493,24531.89453125
542,-39276.09,-39282.77,-46138.67,-2.9831986,13.652533,32.842762,6859.5234375
543,-34752.684,-34745.74,-38547.207,8.82673,-150.78928,-78.803604,3809.44702148438
544,-37091.113,-37251.93,-53090.94,1803.1681,-344.55136,-107.98361,16235.5380859375
545,-43412.664,-43303.547,-47493.527,136.19887,596.37256,-7.358779,4270.06298828125
546,-35158.902,-38083.55,-49059.496,1703.6166,-181.82698,150.89359,13038.41015625
547,-69100.35,-71423.83,-84908.445,-694.76013,1791.7852,-514.02106,15180.146484375
548,-71901.766,-74120.33,-92829.88,-1174.6901,-1244.415,532.66766,20152.279296875
549,-24081.113,-24027.066,-19118.938,-57.563847,-368.35242,-216.7675,4991.58056640625
550,-1024.7711,1237.6814,3466.3857,725.636,-90.96091,201.93008,4105.47705078125
551,83.64656,2279.3848,3981.1013,464.13,383.90845,-372.23254,3599.681640625
552,-44911.656,-44814.8,-51210.062,174.76198,-409.66266,-85.366234,6395.80322265625
553,-11145.032,-10867.417,-8908.792,-829.65393,127.34614,-62.72406,2565.63012695313
554,-58128.527,-56312.473,-55875.723,-493.83148,-102.58998,523.04865,2421.9599609375
555,14520.511,15120.48,20665.195,-1093.9456,-649.7837,-543.8206,6338.33740234375
556,-6324.0557,-4450.562,-4710.8867,-537.4792,-262.02066,-4.073744,2040.26867675781
557,-3193.2456,-774.3644,-655.6024,-871.8888,-359.65717,-11.92722,2970.08715820313
558,1249.2067,903.86786,-453.52625,297.32178,35.950703,-578.4901,1924.46594238281
559,5059.534,4411.9434,4221.5107,432.1624,347.08533,419.67975,1424.44787597656
560,-56152.008,-54095.082,-69061.55,-160.76585,675.47797,1280.638,14276.119140625
561,-58874.285,-56694.273,-74673.336,-146.52695,-587.9072,-419.50192,17042.119140625
562,-34939.996,-34940.605,-37379.28,4.9882536,60.649612,-69.80622,2444.24926757813
563,-8291.903,-6925.9854,-5953.8,-38.073822,491.42612,615.10175,2450.04077148438
564,-10823.836,-11386.69,-14654.926,67.07173,-35.864296,-716.526,3794.11279296875
565,-5704.36,-1959.3522,-2643.016,924.81586,520.46686,-3.7745879,3912.8896484375
566,-1369.0741,-5652.7134,-8735.673,-355.56967,-204.81256,-616.43,6534.95068359375
567,-1743.6885,-5509.7563,-7893.4023,-224.08812,-304.83652,730.8893,5556.4404296875
568,10119.966,8060.8623,14522.792,-1497.9204,-244.14249,-281.93024,6311.83251953125
569,-20666.025,-21398.562,-26143.936,-29.036991,1347.4186,894.1087,5863.34130859375
570,-6610.2427,-7921.0483,-11643.509,-785.68286,745.21564,22.318373,4896.3017578125
571,-41708.97,-43335.117,-64713.62,-1290.9249,-51.40529,-572.12866,22370.48828125
572,416.73267,-18.200403,-1511.0212,-833.1354,18.929306,-708.0575,2579.61474609375
573,-26998.006,-27003.193,-25461.844,-14.148039,-52.858887,32.40239,1542.69958496094
574,-30458.62,-30481.691,-30018.715,-4.752647,42.100914,-23.962736,459.679870605469
575,-34730.41,-34717.2,-37031.934,-9.105539,78.371925,-28.023148,2312.70849609375
576,-20659.793,-20642.135,-13133.564,12.0613,-4.8750978,139.52176,7521.33203125
577,-29507.559,-29502.285,-27114.523,-0.68072444,88.68926,-61.057373,2397.66723632813
578,-20171.264,-20200.68,-11773.141,8.210515,66.55934,-65.93791,8414.4462890625
579,-21320.387,-21290.9,-13559.339,0.5877328,224.19083,-75.712875,7757.18212890625
