Element Label,S11,S22,S33,S12,S13,S23,Mises
1,-526.99335,-721.68604,-1089.8889,-406.4393,774.0284,-501.7957,1814.80029296875
2,-217.98225,-173.34494,173.6067,-55.88762,160.83981,323.1861,733.6083984375
3,63.19236,-57.76631,83.87479,-203.60938,435.2905,-93.35382,858.201049804688
4,-236.20828,-412.4871,-872.48206,16.430908,534.33594,-510.2686,1400.79748535156
5,12.808247,-2.1234474,50.525826,-41.01418,415.81543,784.1889,1539.74658203125
6,-523.80804,-517.62427,-230.8996,247.29251,17.619862,144.69028,575.517395019531
7,-335.3272,-130.7343,230.54898,66.39527,-102.00406,206.96237,647.487121582031
8,-178.23074,-97.60511,368.29996,-101.556046,-320.56134,112.3301,798.877746582031
9,272.08826,361.50693,1042.5526,-50.02565,91.31778,-100.85125,771.851379394531
10,962.3723,1572.344,1969.174,95.51607,116.39838,-120.09333,939.615600585938
11,31.591974,-183.67032,67.390305,-12.3809595,-89.75024,55.37756,298.580993652344
12,330.61523,278.47635,171.72726,-241.63818,-266.87616,176.7938,708.719604492188
13,-110.53169,-403.79736,115.313446,-178.46729,-226.6513,-111.437904,700.116271972656
14,810.081,1109.949,1340.0975,-298.96838,32.51777,-365.07797,939.716796875
15,20938.395,20804.531,29982.137,351.893,-600.8931,-253.20924,9201.3515625
16,-71.12811,-2857.4238,1397.3275,-27.440859,-891.13617,-824.32697,4293.54541015625
17,-1333.586,862.1261,-278.3049,1756.4607,-1253.3905,467.17212,4270.93115234375
18,-393.05383,-914.91833,-101.8768,-371.80353,1216.3708,1117.4501,3018.03784179688
19,-1236542.9,-1224374.4,-1267463.0,-2858.8242,-1541.4697,3891.5771,39464.64453125
20,1634.2882,634.83734,1858.6294,2577.6475,-59.15775,-1242.459,5084.0791015625
21,897.3687,814.385,800.8934,117.3289,-8.557166,344.12363,636.371704101563
22,-504.17822,2063.8672,4451.8335,691.73615,-1202.4938,-731.2916,5080.10595703125
23,-1024.8262,-2120.209,-1548.2426,553.49194,-733.3426,-1536.4819,3242.72290039063
24,705.7045,-276.16357,-247.13321,1102.2454,-392.3643,-57.74762,2247.90844726563
25,2422.151,879.98456,-777.9575,217.52881,-710.24426,773.4832,3336.76440429688
26,-496.0477,-924.0754,-1020.2661,-855.2261,1539.9196,-2355.8472,5117.8095703125
27,-611.7717,1312.2555,430.18176,-413.25772,-1371.9838,-391.11935,3066.11938476563
28,420.6819,-408.53693,-1459.6558,-343.87762,15.29473,855.96436,2284.19458007813
29,-668.72473,-1109.4247,-1493.1243,-737.78784,-132.86732,1516.8246,3016.41552734375
30,-1629.9512,-2446.8936,-1713.4744,-585.0872,-486.8321,-2527.3645,4637.5478515625
31,529.2405,-221.03874,-756.4973,-1430.256,-504.24774,2767.8818,5579.8369140625
32,864.88086,-600.6995,-986.6818,-522.71545,-88.4684,-281.46103,1985.80749511719
33,-184.55328,-455.15985,-186.63045,-66.38771,-230.29811,1511.6705,2664.66650390625
34,1547.3868,411.9693,-387.18085,750.01166,-622.6443,680.54266,2659.92626953125
35,-619.4032,-534.65027,118.96173,322.983,-35.07298,319.54108,1054.87023925781
36,504.6458,-1496.4192,-1436.9468,493.02582,-1154.206,217.85727,2959.21826171875
37,506.20535,731.4974,778.3409,-173.23361,-559.81244,298.7996,1166.85363769531
38,1093.5942,1319.4149,2091.1953,-633.7914,270.8561,-638.0267,1862.07470703125
39,-1110.6685,-411.73547,-268.6788,-546.81067,-663.9283,-241.30406,1732.93115234375
40,-1872.5028,-3220.238,-2241.1172,296.12515,900.84534,-718.20496,2387.58544921875
41,255.45245,-332.36603,1490.3854,-325.75034,-599.2154,161.82372,2017.56884765625
42,-852.47943,-1108.6172,606.59314,-208.62874,-607.4126,-1866.1283,3775.30859375
43,-1258067.1,-1271600.2,-1279939.1,10030.302,-9755.461,2415.1663,31150.607421875
44,6126.8477,31653.592,45816.31,-11006.337,-704.9083,-1755.8964,39848.26171875
45,-61097.61,-46583.637,-57171.414,-3548.061,29.034235,243.79665,14388.6337890625
46,-792.1461,-2013.2721,2284.1853,455.0142,-340.587,217.86456,3977.82104492188
47,15595.45,15911.655,21435.945,-673.208,-811.87726,-549.7381,6050.47705078125
48,-2064.8035,131.59229,-1407.2428,254.43857,-1612.9379,-699.3741,3643.9775390625
49,-1144.2085,1444.4297,-88.96977,-1224.7494,727.59076,-3215.1309,6494.79345703125
50,874.15155,2622.876,-730.968,-844.8388,1070.0348,-1117.9626,4215.09912109375
51,413.66888,294.3573,77.701675,96.96486,871.12384,432.0534,1718.08374023438
52,-1170.3538,-2822.0747,-2025.3632,834.14795,-795.8596,383.28925,2544.66186523438
53,1167.1099,-210.20245,-535.74854,-47.6735,314.35916,-1666.2886,3329.29174804688
54,597.0228,-1714.1769,-455.59628,-474.13916,231.90488,-1028.9104,2833.47338867188
55,131.69495,-75.42944,3446.8525,-499.63937,950.7692,-2519.369,5849.9814453125
56,871.81287,-1356.6909,-1682.2311,1072.5842,1316.1146,-796.30206,4043.23461914063
57,-823.08435,-1127.5355,-2703.61,719.8816,806.0966,724.0172,2851.87768554688
58,2175.165,627.00726,-3370.3293,848.77203,452.3572,-2482.5723,6769.68359375
59,977.9735,1610.8193,-333.60205,-187.3958,-303.6066,-2162.433,4166.6513671875
60,2419.5752,2418.0044,4004.9866,503.18524,-979.3664,1973.3318,4223.173828125
61,2669.1274,899.6508,1854.292,385.8256,64.37191,1525.753,3129.84887695313
62,-715.79407,-199.77484,299.35944,1309.5022,0.2371616,-1308.4736,3324.70629882813
63,387.63257,-2126.067,-764.3863,-1614.7123,-182.02621,720.4433,3772.05590820313
64,1176.2227,405.01987,169.74783,435.09894,542.4176,-538.5689,1775.47241210938
65,-1051.258,-436.22583,-1303.5061,-951.9545,2094.8777,-1587.508,4903.24072265625
66,-1265.1265,-881.5988,-2229.222,-325.93256,-644.31177,-418.1222,1880.13781738281
67,1657.1356,1565.5579,3010.307,-471.91202,-521.9702,-209.91841,1892.36315917969
68,-1105.8708,1517.6995,-251.09305,806.0107,-1518.088,-64.871414,3774.4609375
69,0.29776,-339.38126,1154.5286,-942.7049,-770.4019,-319.36694,2567.55126953125
70,-1368.3723,-1366.4609,786.8247,-14.574112,-162.02979,369.71826,2265.00146484375
71,69.93222,1427.0121,-157.27734,-370.84415,373.79593,97.64467,1749.85168457031
72,3138.3716,3639.0718,5725.74,294.847,634.3618,-80.18101,2671.51953125
73,-1686.7217,-865.26044,-1370.5562,675.6147,-2258.4155,-1081.4152,4549.0771484375
74,-1105.0876,-552.187,-703.48987,-1287.7582,170.7384,966.4666,2847.72338867188
75,25910.473,24213.852,37823.992,-412.2824,738.818,-126.55382,12931.3076171875
76,1800.9554,1481.5576,7972.108,-701.32196,-619.2556,-1143.5853,6834.1455078125
77,-1188.0991,-496.32208,-2025.7822,1096.3131,345.6354,-1049.5332,3004.732421875
78,2190.2998,764.3863,1480.272,-53.37352,-821.83215,229.44354,1928.11669921875
79,-1807.9851,1239.427,3088.991,287.46173,-742.9416,323.44534,4534.49365234375
80,407.81238,-644.8624,413.06113,-458.4563,1202.8326,878.1876,2897.97924804688
81,112.64035,-871.9746,-195.43692,-2068.8694,-727.27795,-2172.1013,5416.87841796875
82,2001.1616,-4625.4365,-1024.1122,-2187.5718,-2055.7073,-4846.228,11424.044921875
83,2042.8894,-3436.1245,-508.6366,-1181.5326,1824.533,728.8402,6190.19189453125
84,-2355.1956,-1798.2487,-958.68396,246.55469,-1417.9457,-1905.4233,4311.45458984375
85,2099.4675,872.0573,537.9751,826.39136,-1287.2538,-1285.0408,3741.92822265625
86,-1226.343,-2044.5314,-1321.7119,306.16135,-789.8388,-1199.5416,2658.935546875
87,-2236.66,-1881.9089,446.64014,-359.48114,834.5947,-2066.6768,4654.54931640625
88,868.18384,1102.4194,659.0116,-909.6188,-228.40068,0.6279029,1669.23205566406
89,900.0334,403.16974,1044.657,632.1655,1178.6986,-1692.2006,3781.15942382813
90,-3463.836,-3530.654,-2178.3096,-913.70734,-422.80936,71.15242,2190.6650390625
91,2176.3708,2035.7168,-136.95825,70.56379,237.40344,166.766,2305.06982421875
92,-1452.096,-2713.6611,-6097.3945,-168.67786,-365.99637,-137.46556,4225.38818359375
93,1396.3215,-146.99231,599.52234,1101.9966,-907.6449,-579.6427,2984.89526367188
94,-231.04584,971.69666,-2362.5657,-286.489,460.41382,608.5068,3247.56030273438
95,830.7363,-801.50757,-554.1628,-210.31459,-675.06744,468.19434,2116.39672851563
96,-87.39082,637.18317,-310.78357,-251.14464,610.9744,919.5083,2140.64306640625
97,-222.63802,-1096.5962,188.51999,352.58542,-772.41895,-107.73947,1868.115234375
98,-2177.823,-493.5033,-1644.7444,-127.05568,752.025,-27.751474,1992.63525390625
99,692.44775,4138.807,1719.3474,-185.62442,1306.7777,-44.952053,3824.30200195313
100,382.54126,2644.7874,1270.1724,-681.546,-166.21085,-122.321205,2327.85034179688
101,1757.7694,2231.0254,1549.2759,290.8505,-3288.232,752.07574,5895.265625
102,-881.2073,-1145.3071,-1352.9172,-263.26013,576.91406,-390.27487,1353.15600585938
103,-803.6566,-766.022,-1843.4233,-34.030804,854.64307,1490.1412,3158.78857421875
104,-1365.1222,-2686.3232,-940.92896,-236.2639,-1399.2578,805.09296,3236.00219726563
105,2064.7039,1109.5505,1392.1616,-317.64908,214.37053,-587.7627,1482.97399902344
106,749.51715,428.4049,508.38873,-619.97046,366.36432,-93.85208,1290.73999023438
107,1165.9198,-1292.0515,-988.2184,-443.0988,144.57152,527.4781,2621.74291992188
108,-399.53003,1487.7764,-652.43396,290.7179,-1040.4617,231.17113,2786.529296875
109,-1178.3932,-835.53107,712.8179,-1275.345,-1346.899,196.01985,3671.92114257813
110,-1456.6932,-1369.2025,-1140.5432,-715.2772,-240.61183,-98.78691,1348.24645996094
111,45.39322,163.73335,813.4624,-222.71034,-176.13538,-403.6675,1115.2373046875
112,1817.0657,-638.16547,-1444.5465,-599.7074,1219.2665,1635.9784,4714.4794921875
113,2899.2778,-1054.6814,-298.53882,-399.26495,-1487.2198,1303.0349,5042.1416015625
114,73.75526,-1297.2489,1664.8977,548.12994,-958.0039,220.23656,3223.82006835938
115,-1319.1444,-1366.7676,-1283.26,-1105.1046,1401.4423,-438.6721,3184.09375
116,573.8403,1082.5554,271.57312,216.30476,816.2075,152.91246,1647.12426757813
117,-1050.8489,-4349.212,-3579.7458,-141.12453,355.20413,-678.7126,3279.25439453125
118,1188.5426,1560.5531,2170.3025,25.265638,172.13391,114.07923,931.056884765625
119,372.05963,631.6596,2554.8381,-522.3148,-749.7502,490.35648,2737.04711914063
120,-581.3353,1508.4409,-1327.5979,777.0122,-855.85315,-365.87595,3300.58911132813
121,-15895.911,-38568.2,-2145.58,-3374.0186,-1558.3517,-2909.1875,32888.953125
122,600351.06,588217.94,625199.75,11460.569,3653.2742,2211.8948,38921.8828125
123,-717.6476,-974.62024,-1237.5615,70.71902,-327.87387,411.0841,1023.33746337891
124,-35.92987,262.2124,780.9741,135.94049,797.7081,-433.2212,1743.6064453125
125,651.1256,-1223.9244,-3381.5938,-423.18625,550.5546,503.30182,3797.84350585938
126,-1137.5692,-677.66565,-800.7943,838.0497,440.2441,-298.46545,1767.96948242188
127,333.45493,-124.69515,-142.44238,-181.10513,-168.0604,-109.644554,661.470520019531
128,-1145256.8,-1139632.9,-1126300.1,1792.0958,-13278.1,-788.58276,28719.263671875
129,783.1244,-2063.948,-1598.1493,-526.5218,1135.14,84.615974,3422.77807617188
130,-3935.04,-3460.722,-2823.9968,18.098026,-485.83322,-108.26159,1294.85632324219
131,316.4909,233.50806,1233.664,392.62735,-411.49207,-695.5019,1829.15734863281
132,237.57709,-1552.5719,-991.0969,361.35223,1065.0878,-54.883305,2513.71484375
133,1630.4646,3410.2817,1448.2461,1538.7137,1441.9092,-970.7953,4437.65966796875
134,398.2504,-964.42706,519.79297,-374.91605,962.4704,-1167.0481,3053.5263671875
135,-1631.7864,-730.0245,1510.1528,-1319.5632,258.2647,-15.512009,3643.65747070313
136,-93.86365,-4084.7256,958.9872,1553.0717,626.6143,1120.8097,5780.9970703125
137,-2141.607,-3527.742,-3077.2434,-1920.6556,1238.4517,765.355,4350.31201171875
138,-8499.549,-9235.504,-18759.879,2404.3042,-466.8565,229.23691,10789.736328125
139,-1241.9358,-323.82986,320.82108,-1048.0148,-925.3865,-698.5146,3029.54516601563
140,-25712.266,-5908.407,12349.157,-12908.285,-976.81854,-1807.6799,39995.484375
141,-89336.18,-90656.93,-61895.9,-5660.625,-574.93823,-1281.6248,29883.1484375
142,-2519.5166,-1458.6809,-1287.012,-182.07123,165.96277,330.63837,1359.04418945313
143,-1641.4801,-1466.8438,-2849.213,384.29462,-257.72488,189.85046,1565.39880371094
144,209.54407,-1741.4779,-2211.5278,30.881577,876.5269,-1170.2931,3370.61254882813
145,1453.9163,-2304.5212,-1529.9153,-315.0786,174.02043,-2529.0962,5602.87548828125
146,-599.2512,853.02826,-357.19046,102.81243,317.06555,124.458145,1481.87097167969
147,2808.5513,1147.5364,-441.17773,1457.4373,-647.49567,175.87186,3955.34765625
148,1272.4697,963.7083,379.4856,-907.2161,-727.1952,716.29614,2492.35571289063
149,-4540.3843,-2073.2063,-4543.8813,-79.39966,1634.041,663.35895,3930.00317382813
150,80.89014,-1284.665,-796.67444,-455.92285,-599.90955,114.36405,1782.97680664063
151,-3985.7705,-3553.464,-2451.6738,-301.03552,-943.9137,-2310.7524,4565.1572265625
152,598.5013,679.66284,361.72382,-434.65912,835.5168,-1391.8176,2924.78833007813
153,-431.72668,-843.6753,1807.976,-1161.4149,634.19183,-1325.8527,4078.66625976563
154,-1634.6182,2165.678,1837.4432,-659.0624,203.20766,-1124.9104,4304.16552734375
155,1923.101,-180.56924,-2058.4485,-729.76843,-1941.4623,2131.2285,6199.533203125
156,1865.6127,-604.03,17.942902,-894.32117,1052.9941,-623.93475,3441.45874023438
157,1080.5962,789.39886,865.0349,249.9302,-334.71347,-749.0283,1508.34899902344
158,742.94214,823.90094,-2071.642,637.45105,-168.96477,-82.51508,3079.18969726563
159,-555.8463,-894.18225,-2058.2349,278.68744,266.87997,-1185.5273,2554.68798828125
160,-1400.0864,161.77002,-2756.8418,1641.5571,-952.538,-93.68266,4151.10595703125
161,-3475.1472,-2360.6729,-2175.971,-1007.018,349.91357,295.25604,2270.04760742188
162,-2361.5247,-965.6487,-4453.9956,-953.50476,-434.02194,-467.73038,3632.724609375
163,-1761.9998,-1774.3818,420.9585,206.77185,-1289.631,-1756.5745,4377.9970703125
164,-2168.6987,-1105.2524,433.34833,-458.4981,1131.9232,-1645.1816,4210.54736328125
165,484.991,-1909.3759,2513.0708,727.88605,-2021.3829,762.5822,5504.00634765625
166,-1237.4,-42.182556,-1625.4266,-63.328987,-99.501274,519.09705,1700.88330078125
167,-624.51306,-1059.524,809.66895,-116.53538,-91.23805,235.18391,1761.14916992188
168,252.43567,-2490.034,-1495.2112,-200.50485,-111.0849,-1943.5223,4155.9599609375
169,8.641022,-1008.0974,-171.37773,-565.07794,-1879.1724,-1073.8159,3986.75048828125
170,33.132935,1241.4694,2509.8252,-45.492477,-394.91937,-544.9845,2442.64624023438
171,-1814.1266,-795.9409,-3396.487,958.60956,-522.4244,2397.3425,5095.982421875
172,88.49634,985.58856,2247.1138,24.465374,923.22906,-644.1952,2707.71850585938
173,-442.99704,-126.93951,490.6134,-79.73698,669.8367,1567.0549,3067.33544921875
174,1908.9861,-103.89978,1665.7026,185.80057,-521.3072,-642.642,2403.95727539063
175,-1231.0718,633.0849,-11.155533,-226.34254,-682.14026,-482.71146,2222.123046875
176,-1594.9972,-2566.5732,-871.7614,-306.497,745.10236,407.31415,2148.203125
177,212.74306,-1026.1721,1912.1172,494.33667,-213.67659,1134.1324,3355.14697265625
178,-213.06866,-802.25085,600.9348,-186.39597,134.37799,226.52432,1342.26538085938
179,718.8031,-1241.9475,-1778.6659,199.87726,3984.4382,-2195.534,8209.3349609375
180,-2182.4316,-482.38037,-1631.1719,-173.41133,-1064.2516,-309.13242,2455.94995117188
181,936.5315,3436.7842,3261.1465,-4.4889884,-1728.1072,55.65003,3848.556640625
182,-112.30676,244.46863,-2538.4243,629.348,2151.8293,-495.85132,4764.017578125
183,906.3504,-579.68835,1072.0302,1308.9377,482.2051,2053.0215,4578.66552734375
184,-1016.48865,-1481.7244,4582.545,570.9503,-1847.3904,-146.56857,6741.7685546875
185,-2456.1707,-1967.4353,-1677.6672,-73.936066,640.14233,-441.21814,1514.66638183594
186,2302.0693,1405.3584,3568.4082,102.23246,664.1237,-969.91174,2778.48266601563
187,259.53235,-943.8545,-2814.7158,-972.5912,-589.25867,252.41527,3357.11938476563
188,-1956964.5,-1962728.1,-1963520.1,3191.2183,-8049.3467,5149.536,18517.34765625
189,795.484,-1012.4133,-1772.965,-747.0979,2609.4067,-263.27048,5247.03173828125
190,1965.7021,1923.5913,-459.70984,310.97214,-445.30756,-650.4293,2817.16943359375
191,245.13309,443.40897,1425.1942,-305.53207,440.9335,568.98395,1741.38586425781
192,1092.879,-975.05914,-96.41435,1668.0142,-617.95886,602.1079,3716.37426757813
193,3986.982,1625.9595,2071.5325,254.9843,434.05835,-237.40398,2377.03759765625
194,1064.5732,484.1361,2205.4448,-675.3519,-447.13168,-515.3102,2250.6474609375
195,915.6493,-305.98877,369.10828,-1759.124,-1094.0012,-1632.229,4689.35107421875
196,257.8004,-438.0838,-2969.5576,-225.92271,-794.55457,1211.8071,3886.73779296875
197,1126.4426,1240.9363,1925.4777,-452.42026,239.1885,357.56927,1315.04162597656
198,1400.6526,814.2885,2242.3665,151.16989,181.37794,-939.40753,2088.19702148438
199,1084.231,1396.0558,5105.8604,-494.87888,-333.99796,1154.8506,4481.86474609375
200,742.53174,36.62317,-377.76413,-495.00113,-138.9671,-931.88947,2088.25561523438
201,145.10242,-131.90309,-465.00296,-699.77936,114.131294,406.52374,1511.25573730469
202,1357.2385,1596.0701,2327.4597,436.43692,913.467,-714.5761,2318.01733398438
203,687.08356,-166.06927,1425.7246,1043.3981,-673.40875,562.0433,2734.5546875
204,-1698.6611,-1651.124,1097.2769,-711.34314,-71.48366,440.4108,3130.79223632813
205,304.72003,1252.733,1736.8303,-475.1799,-151.01384,509.7059,1765.56311035156
206,1693.323,1047.4702,1205.3749,294.5067,-1246.6566,341.90927,2369.27075195313
207,-854.33057,-2275.9192,1702.9019,546.566,738.558,1112.0259,4293.96044921875
208,2385.3928,813.8839,-256.19208,-1244.687,-870.4444,76.927826,3497.83471679688
209,-2183.0676,-221.44354,-243.75299,-917.57367,-1134.0371,439.52603,3281.4931640625
210,605.0188,1769.0245,2791.6965,-123.8518,377.58884,557.94574,2235.80224609375
211,231.26562,3638.4453,1190.5938,-1910.1747,1916.9121,-45.868977,5588.99365234375
212,2561.5493,2268.3042,1223.0215,361.46402,-1218.4994,-296.93262,2568.23486328125
213,-1132.9034,-719.26306,-1048.1841,680.2208,-1333.1547,218.49886,2646.97241210938
214,-2506.0269,-2289.7905,-2737.6042,-300.20908,-176.11612,332.67438,919.731262207031
215,-959.48096,-3691.6248,-3230.3596,-136.83249,1691.1145,45.967148,3880.62451171875
216,428.94446,466.7291,1749.2999,-213.93445,-1063.6448,203.8886,2313.2041015625
217,-92.35722,1417.6323,-1555.8743,405.9668,-784.97705,-616.5828,3180.46606445313
218,2149.826,2551.3306,1346.7368,94.46308,1881.1075,1637.2452,4451.1552734375
219,-3168.9,-931.17944,302.42493,-18.563429,-648.3067,3619.1484,7060.189453125
220,-479.18884,-846.43396,2451.734,682.3456,377.7665,-848.7064,3713.13354492188
221,-925.8181,-1757.4915,-734.7634,447.18918,1172.0552,384.26868,2459.90625
222,914.7171,1545.9703,-294.58362,-313.4821,-210.4987,1457.2448,3069.64038085938
223,213.27039,578.98724,1785.2297,-548.48303,-525.704,103.22716,1947.6845703125
224,-1520.8401,47.398438,-1476.5215,-292.09146,-979.0639,4038.264,7378.767578125
225,-635.9756,2851.2212,391.6222,201.89714,-2281.7222,1187.7993,5441.2060546875
226,-1475.8217,-1801.9017,-937.92084,407.4658,1992.3948,-805.53064,3863.25
227,1625.3744,764.2892,3169.2434,36.236885,2567.1975,374.77948,4965.00048828125
228,1809.9932,2203.7651,4045.7842,522.64215,476.0965,-165.05406,2419.6328125
229,1742.339,2597.7058,6934.4497,-1690.2739,726.5747,1527.118,6356.06689453125
230,-1592.5977,1224.5637,-3179.9055,-403.75375,-3317.6064,703.3294,7065.4267578125
231,436.935,434.30087,1419.1027,-236.17934,411.65268,486.6917,1534.13488769531
232,494.13055,931.4862,1521.498,-1125.7603,24.881958,1723.6371,3676.14990234375
233,194.91565,-1526.7808,-4650.067,125.11485,346.30722,670.34515,4455.484375
234,1252.668,2393.0115,-800.7335,165.25635,967.51044,-351.5885,3334.58032226563
235,864.9602,231.57382,577.92664,91.2157,-886.9353,-556.4235,1901.44909667969
236,1081.6797,522.72943,525.4746,208.7863,-126.70242,767.57104,1502.44140625
237,-448.20502,350.5398,-785.3283,-2402.9521,-787.75964,-1551.5885,5237.12060546875
238,1063.8652,-924.6357,-1844.7893,-615.8053,1041.9175,187.36131,3336.20776367188
239,-1999.2029,-1050.0748,-1398.8536,-15.699127,-201.65544,-1721.5544,3115.35522460938
240,-2107.76,-2419.7976,-1661.1597,-1128.5132,1167.7438,112.99225,2895.85546875
241,-474.14154,-2490.546,-1146.6094,-531.19867,1191.5013,-2263.6516,4862.1015625
242,1402.532,661.718,1117.5876,54.93441,658.75824,-190.15033,1355.84655761719
243,-2377.6042,-1938.4851,232.328,-687.8321,-710.33325,340.4446,3023.1220703125
244,-617.98724,506.42383,-343.1492,-288.8229,300.1615,1399.6232,2725.46997070313
245,1186.0358,31.654144,-377.89545,190.37323,-295.1182,-711.5779,1965.23376464844
246,-713.667,-959.3906,220.38312,-232.8503,-590.4967,-153.52383,1562.61755371094
247,2439.9248,2410.1687,-1012.864,-684.53644,47.937508,-655.4906,3810.71655273438
248,-290.00546,-2370.0916,881.75635,77.04167,-467.70163,79.060135,2971.52172851563
249,1199.236,-8.510254,-381.14563,718.3921,828.09937,1125.7424,3074.890625
250,-2687.0393,-2430.4304,-3304.043,-249.70023,1919.0885,935.19165,3803.20581054688
251,-737.01306,-573.1135,-3953.0972,397.88013,1729.6848,-176.93729,4521.22216796875
252,-1572.7124,136.29535,524.8481,1665.4371,-647.6902,-1049.5865,4076.78369140625
253,-3252.6577,-3844.2974,-8931.981,-508.63354,1077.0183,-905.78,5996.8310546875
254,-5114.3574,-1124.7351,-5769.865,-69.303375,-889.9294,-669.9887,4764.345703125
255,-62312.695,-77469.47,-51924.312,-16662.863,-2772.942,-2236.542,36961.1640625
256,2240.4202,1486.67,562.19476,1438.292,108.05509,686.0754,3126.14697265625
257,-3199362.5,-3192837.8,-3228859.2,5327.1694,5430.562,6113.044,37293.51953125
258,-12551057.0,-12553648.0,-12570671.0,755.9466,2629.6965,1923.8135,19343.3671875
259,-267867.72,-235957.73,-232719.86,9779.87,-2592.3586,1532.1729,38028.83984375
260,-53603.438,-33427.36,-22077.89,6145.8594,-802.64886,-1587.0455,29793.890625
261,-94233.336,-72863.695,-73140.375,17623.332,308.1896,1434.2738,37269.66015625
262,-5369.3164,-6922.054,-10676.421,-2084.4014,832.1885,-1110.1907,6414.45068359375
263,-1820.1956,-1023.33795,-2278.608,765.31995,-170.01756,379.30576,1867.05480957031
264,-1557.1561,-4528.1816,-4648.4985,-258.97162,63.548153,983.20264,3508.88989257813
265,-406.8023,151.17798,-2257.1475,-314.7338,-1843.8975,-449.7882,3983.9111328125
266,-1440.1083,-1431.0933,-1617.9949,-565.56256,-1330.8469,941.093,2993.8837890625
267,-869.91235,-1862.1294,-3066.7341,-1273.2511,-753.0943,1622.9746,4254.162109375
268,-2000.5398,-976.6355,-893.15186,-1337.8282,514.5487,618.0906,2906.98657226563
269,-293.17535,-78.09854,-597.0474,-174.13933,-670.49365,-414.80634,1469.62707519531
270,-767.2778,176.35997,7.352524,-681.53235,60.813015,-998.0542,2269.89526367188
271,342.71094,-78.32355,887.21765,644.5825,-856.0286,-93.00865,2042.98315429688
272,-1103.0273,-4834.468,-2257.1572,-45.55514,-1733.7068,835.33344,4697.43408203125
273,3274.6455,2934.5203,3535.6394,394.45563,43.19645,-1002.1829,1938.57397460938
274,71.841064,223.95166,1961.3285,294.7564,-163.80658,402.90833,2033.23303222656
275,-3767.6877,-258.24536,-295.08618,-259.81805,-491.69037,-90.6546,3625.0107421875
276,-1760.6929,544.50586,-229.92981,-350.55832,1196.7865,-567.9359,3124.36938476563
277,3232.467,2245.4353,3734.3196,-505.97427,131.47961,135.0804,1611.23022460938
278,-1521.9585,-900.33875,-2337.6814,269.33603,742.2085,1259.5049,2861.5009765625
279,587.4337,1989.1825,670.82904,387.84576,304.4029,-919.7847,2263.23291015625
280,-1776.4978,340.88583,1708.186,1031.7463,256.15872,180.15823,3568.70385742188
281,1583.1566,-135.25534,-1186.3694,410.86102,374.38617,964.9814,3095.88598632813
282,-2185.568,-2020.0043,-3310.6914,-861.7862,706.3616,-338.35144,2355.39916992188
283,54.954803,720.47296,-438.92627,-621.4047,44.86017,969.01074,2235.38232421875
284,763.1583,924.3944,1481.0222,-327.0671,-138.38695,-165.00662,941.080871582031
285,2110.5088,2029.3026,2204.674,158.63072,137.94388,-687.4697,1254.40380859375
286,1682.388,-782.6676,1636.4863,-271.80438,101.5916,-916.1283,2955.65991210938
287,-553.19507,-1846.2014,2585.3528,-624.9478,-1226.8442,277.76343,4636.7109375
288,1400.016,1305.6483,2130.9878,-42.235596,-341.2705,1378.9323,2582.88916015625
289,796.08405,336.81534,884.85846,411.38943,362.78433,1188.1909,2323.25927734375
290,-910.3814,2844.9756,425.6518,-1055.0962,861.1055,238.04083,4074.87329101563
291,-89.11633,-160.26671,-889.06085,840.25446,1412.3671,-612.2354,3132.88671875
292,2019.2681,476.03046,-930.7967,-407.26712,562.2407,472.76108,2940.79321289063
293,1347.393,32.17047,697.4227,613.9364,-701.849,807.33813,2421.01831054688
294,789.9453,1674.6794,-859.2356,-411.52374,1080.5657,46.724182,2996.51611328125
295,953.2495,164.6464,592.1736,515.7944,1531.7146,420.8974,2972.46850585938
296,1048.5057,1608.8688,2028.1945,298.2102,768.3959,-517.0514,1888.10131835938
297,-3645.3203,-594.7373,-55.706055,-316.43924,534.72235,-721.66095,3736.51440429688
298,-1400.5343,-764.5849,-2166.0981,694.3879,-240.28911,426.80945,1908.82641601563
299,183.01552,384.15094,727.1266,1989.9669,-1073.1688,136.68054,3951.9736328125
300,-625.9661,-335.58304,-92.09335,603.6866,-230.43494,-699.5699,1713.2197265625
301,-1589.4854,-395.5025,-1585.2288,264.6984,-1011.3569,-584.7458,2392.705078125
302,3647.8755,2084.2622,4322.9863,731.41486,796.5583,1507.5079,3779.21069335938
303,-1808.2311,-2327.278,-890.6294,304.04462,-651.39825,-863.3864,2318.2490234375
304,1757.6963,2026.6881,2428.506,685.7353,1612.9581,874.92456,3442.9609375
305,-522.06714,-1397.276,1729.2693,-457.57376,105.894356,1239.4913,3616.03002929688
306,-548.781,-2475.5264,695.7622,-409.2031,177.56955,-215.20111,2897.41650390625
307,-2144891.2,-2132644.5,-2131226.0,-2413.0745,-14201.43,-2698.337,28525.791015625
308,-1442.0094,-641.1206,-488.95187,524.78064,163.02312,3770.7349,6659.40576171875
309,-5049.8164,-6933.3384,-3093.685,274.72922,-1297.7783,-1302.6678,4629.0888671875
310,-50646.086,-32750.438,-30146.586,-16001.485,1053.7539,1412.6644,33927.75390625
311,-1711.1104,-3563.402,-4280.3438,1022.22473,-478.68777,-1363.5608,3830.5517578125
312,-569653.5,-580002.25,-608493.75,7368.463,6230.9976,1460.2688,38722.984375
313,-463.8807,-952.35077,-751.77435,556.9762,-128.95647,-434.77966,1314.73010253906
314,-908.6533,-340.96158,-864.0914,-1630.3331,315.66187,-1080.0894,3474.42456054688
315,-1237.5443,-278.26038,1592.9442,-1045.8276,-833.30914,-731.97565,3631.59643554688
316,-577.01746,279.92108,-1754.5844,-300.69495,-266.9821,-1218.5555,2840.7451171875
317,2705.908,2529.1167,372.20776,982.60065,-1472.9338,1101.8494,4255.8388671875
318,1496.2201,-1314.2124,628.94403,-16.716516,-774.0846,986.5841,3306.32446289063
319,-1262.0385,-979.5569,217.78534,-915.4922,-775.3955,-1693.7649,3843.990234375
320,-726.17053,50.401306,-863.7665,-255.8546,1038.0145,455.82758,2186.54833984375
321,674.7577,253.21143,1646.0132,-628.34296,-374.82712,-408.4262,1907.04858398438
322,447.0006,-617.97736,379.01093,-94.835075,-154.30737,-126.833534,1101.39306640625
323,-1695.7954,-3938.1338,-1797.0022,1920.9592,2145.2917,555.3074,5532.95263671875
324,-2361.5608,-696.7163,-1908.0789,-871.8136,-879.5594,-76.657845,2615.54125976563
325,1014.9675,1130.0258,-985.0742,-395.5416,-801.4118,1770.0425,4004.849609375
326,-32.467896,1119.6494,642.4452,44.48521,-196.52316,470.75827,1338.63513183594
327,1974.1218,-3121.7087,-98.030426,448.3901,1765.4915,-825.3273,5630.23095703125
328,1885.103,-285.04413,683.45,242.05862,1053.6841,1690.8284,3953.349609375
329,413.30292,-1733.0837,-276.05258,-396.10318,-892.6825,61.925255,2544.68212890625
330,-348.33893,575.2073,-1783.5599,1084.229,-1545.4677,192.62024,3878.35864257813
331,1375.7865,-106.87161,-434.3155,-393.6601,-710.9255,-478.14603,2336.23681640625
332,-2473.14,-1622.7655,-2895.7725,428.96338,322.15018,-2272.8472,4197.859375
333,-4535.6885,-2289.5903,-1475.2656,-199.14575,-310.92523,-574.7043,2989.47998046875
334,-19711.465,-19138.416,-14940.979,3547.8557,1148.5072,-1072.3403,8094.50390625
335,649.52563,2798.4983,-12.135132,-1548.5018,-846.54004,427.78073,4046.01318359375
336,-1070.6383,-1146.2394,678.7307,493.78552,532.0383,178.49252,2207.82861328125
337,2721.9016,2328.3743,2000.2952,-410.88547,-1026.4867,118.63138,2025.1748046875
338,-1306.3069,1577.3701,-1754.4152,364.2679,-210.51665,952.24036,3613.84887695313
339,487.19858,1808.6969,-980.765,1554.4775,432.27966,1051.6735,4119.34912109375
340,21.328918,-1067.661,-1200.41,232.29214,2344.1226,118.09238,4246.94384765625
341,59.84909,-1155.4264,687.8694,-70.84892,412.27222,580.1568,2041.86950683594
342,1559.7036,1026.2441,2379.1492,546.6659,1011.7093,394.32053,2413.89208984375
343,-156.17517,210.64404,-2501.9253,122.75679,62.517902,5.9607434,2560.19653320313
344,804.00385,-992.0198,1902.9022,919.69244,-363.05237,96.339096,3060.66870117188
345,-1631.9595,-712.6989,-2426.2493,-89.17059,-1330.7855,157.59366,2759.96875
346,-1673.7834,-1333.2715,-578.398,-796.08496,-1196.298,1722.9829,4005.4306640625
347,-4267.2095,-4523.6426,-6933.7007,548.5731,503.30927,635.03314,3060.18237304688
348,-1587.26,-1488.0294,-1924.0479,896.48517,-374.75586,-218.45667,1769.81506347656
349,1015.18866,2382.808,462.7588,298.9194,174.42848,-333.92252,1903.92297363281
350,-223.2522,3843.0933,1563.0171,622.9989,-498.38,-361.95007,3842.5107421875
351,1496.5806,1806.7456,413.45325,-1212.3346,-854.9667,1608.2574,3995.86791992188
352,-656.83575,-985.31055,-848.41156,204.03813,193.5311,70.99617,577.968872070313
353,-307.82352,-90.14694,-603.4033,54.058548,61.753693,51.27158,476.639465332031
354,-3642.308,-3718.828,-6572.369,-192.7834,324.235,-46.05835,2966.5048828125
355,-366.8156,-393.02185,-918.1904,-8.7096405,-225.1794,150.35454,714.433898925781
356,-2777.573,-2556.196,4.720215,-232.89676,485.36783,188.89769,2854.95068359375
357,-732.43066,-1026.4119,-1878.0488,-74.883194,-63.632206,-221.63718,1112.84069824219
358,705.9656,475.11835,1006.21094,-57.677032,239.56833,55.142155,635.633056640625
359,-1098.3428,-1598.6439,-287.46515,-255.3423,147.1071,-60.483974,1258.96875
360,440.59137,-56.441223,772.1953,118.07168,-48.90493,163.26154,806.710205078125
361,-2528.9448,-2128.4336,-2769.6218,-154.28984,236.70602,187.95387,812.535400390625
362,-976.7158,-371.78973,-1740.1445,43.680557,273.6399,238.75711,1346.08776855469
363,1230.0386,1178.2947,146.07898,219.42688,-235.02534,104.96033,1210.27380371094
364,275.2208,394.4972,668.269,-71.98014,-80.47722,-490.34564,937.081665039063
365,-183.6754,-77.56962,5.1373596,0.34343514,192.65834,95.39422,406.849853515625
366,-825.2484,-939.38245,-1868.4329,-63.246834,-150.37683,231.21378,1105.62963867188
367,295.56995,388.49368,520.2613,50.50814,-285.67053,18.430857,540.126953125
368,-2803.109,-2577.3374,-6169.5107,-180.89157,-20.427969,-314.00732,3541.02954101563
369,-1185.4203,-1519.0515,-2217.4187,42.595497,80.69705,-310.63376,1070.73937988281
370,670.5157,864.06134,1241.232,-104.70294,-55.914703,-166.54404,614.976135253906
371,133.36069,144.05537,-23.930244,9.86225,-46.009357,390.93146,701.185852050781
372,-3424.1243,-3569.8264,-6171.215,-15.154304,-110.81751,317.01688,2739.80078125
373,889.0037,1677.9651,1877.372,-22.792051,-383.4589,319.08255,1252.06591796875
374,-1610.5598,-523.10974,-2597.7383,66.47938,-221.84561,-319.13718,1922.76538085938
375,118.38824,-212.29149,769.74695,109.15757,311.7298,207.95552,1098.18823242188
376,-776.67725,1057.5225,-1523.9329,244.29828,-389.4309,55.52815,2436.50561523438
377,-425.1553,-3.2446594,-668.9595,-32.657803,-188.76857,-580.73035,1209.19653320313
378,463.2548,296.69666,603.30963,-67.88791,-159.33057,136.59834,465.453063964844
379,1102.1625,890.4469,1828.6729,89.629906,530.3122,698.50305,1748.70446777344
380,829.1274,242.76117,1305.3273,-106.821556,-229.79474,229.22215,1095.48937988281
381,-1521.9845,-1419.9159,-2488.2502,-92.21325,67.95929,-87.678825,1051.2568359375
382,-928.69275,-973.22595,-1868.9023,-107.14941,345.63046,-204.24043,1167.07897949219
383,418.2149,-232.48712,1784.2583,-82.41802,-36.597183,-259.52298,1845.21740722656
384,-1860.7839,-1825.2148,-4108.8843,69.09968,-103.92999,6.6456537,2276.41040039063
385,1082.7615,526.0188,455.21793,-7.495941,-365.10287,207.61903,940.09521484375
386,-309.01474,-45.1958,480.39685,93.95942,-94.63324,493.80075,1126.6669921875
387,-39.76834,792.02423,284.3604,-398.6413,81.409096,70.476654,1019.24395751953
388,-1309.4904,-947.86414,-2224.7546,162.59056,-48.891808,-248.2854,1253.34790039063
389,795.20636,306.9112,1734.7393,-27.53437,93.213066,-285.10132,1360.92333984375
390,-46.687347,-440.6043,-586.32733,113.813644,111.66604,78.36533,573.149597167969
391,-3302.373,-3294.8125,-5287.282,-147.5456,-306.22534,-482.73294,2236.2138671875
392,1466.9889,1907.583,2126.5898,-110.78065,445.10062,346.03094,1152.80236816406
393,-1828.8761,-1961.8146,-1760.2783,-149.91322,-580.6018,8.53079,1053.77099609375
394,-2353.9873,-3059.5442,-4995.6597,292.62683,128.85268,-247.54518,2470.41088867188
395,198.01881,727.33777,302.33475,-248.11064,50.1792,-58.733284,662.135375976563
396,-1396.8942,-1366.6992,-2171.9868,-246.24141,-224.46751,46.844906,982.206176757813
397,-1358.202,-633.03973,-802.44324,-53.43662,-15.046911,53.27152,670.4267578125
398,537.8269,58.11801,480.2299,-179.3267,258.14783,-83.64194,723.319641113281
399,-3064.0527,-3189.624,-5471.0786,97.43904,-35.58069,-298.21036,2409.63842773438
400,-609.78033,-1428.6406,-1703.3494,-135.48112,-224.10898,296.21982,1199.96813964844
401,-854.9572,-113.942215,-139.50069,-28.069649,-278.2198,-636.49695,1407.40356445313
402,1085.4933,610.2653,1941.3984,143.38298,-71.62966,-61.45671,1205.638671875
403,67.7928,7.1669846,-192.54407,-201.21497,26.61678,-166.1875,511.967010498047
404,664.0398,684.7748,1343.0392,84.432755,-71.41297,-485.03598,1090.80554199219
405,302.7581,430.70285,-79.56828,208.5257,357.0331,238.4901,946.02294921875
406,671.4009,819.4052,1097.3846,-53.4811,137.92387,-52.16557,462.745513916016
407,6211.3613,7140.1562,13227.664,96.67462,-1693.0918,107.15241,7227.49072265625
408,-525.5144,-972.086,-598.25104,27.783848,-158.70872,357.27,795.639038085938
409,-464.3446,-540.5874,-1009.7649,-53.086033,307.56042,-265.62735,874.997253417969
410,-2586.4546,-2469.6514,-2355.0728,-124.596985,-318.9894,167.08153,689.738403320313
411,-1575.7042,-1044.7606,-2782.9817,-308.57672,-123.4539,-440.6802,1815.04675292969
412,-1373.8745,-1415.8561,2499.2498,257.66315,-2326.9592,421.46765,5669.369140625
413,-678.8152,-1047.6641,-1923.105,-15.39849,114.17556,222.77715,1189.142578125
414,-1652.3732,-1642.5021,-2632.356,114.36122,-16.115854,-20.95994,1005.71856689453
415,3512.3909,2607.58,10958.153,-230.34671,-2622.5605,647.1204,9221.9306640625
416,-2119.1116,-1544.4851,-3797.8457,33.957428,-211.70113,138.825,2075.7451171875
417,-308.76627,-635.2433,275.99707,6.797728,-328.32028,312.24942,1120.47644042969
418,-2731.8276,-2675.5547,-5376.559,-29.475586,-105.020966,-540.3692,2838.71264648438
419,-1138.0093,-945.0474,-2663.7854,-5.6045294,243.18156,-33.920918,1685.40844726563
420,287.76205,689.23975,757.5065,208.76022,45.21304,42.149403,579.186584472656
421,-648.43176,-1020.265,-1917.7031,86.79023,15.426704,-114.420555,1157.55786132813
422,718.7554,623.7331,1834.699,18.953783,-110.4036,458.88913,1424.70385742188
423,1407.5256,1030.3691,3426.2217,146.84123,368.47592,173.07678,2353.85278320313
424,-1567.1975,-1539.9329,-2288.2197,72.2423,266.17487,181.1349,931.079162597656
425,-1984.9894,-2678.0867,-4861.2817,-61.294968,93.37998,284.2743,2653.25415039063
426,67.08217,384.84167,-37.741196,-12.183102,-206.40244,-386.04407,848.886840820313
427,838.88196,488.84863,680.93713,-47.19015,-46.416393,-35.46049,330.303588867188
428,-1667.1707,-2391.5466,-1942.4307,-139.11343,84.98592,-413.5388,996.927917480469
429,-685.61566,-719.80786,-1052.2903,67.31285,19.044285,132.7516,436.614288330078
430,1816.2748,2768.3098,4130.3066,46.185257,-267.12122,9.319818,2068.52490234375
431,-1155.0698,-1509.4817,-2104.493,131.0736,237.27701,95.22616,968.592407226563
432,-267.96478,-159.47173,175.23294,-158.78447,137.49419,-235.13098,676.995056152344
433,-129.22234,-112.663185,-253.84789,-54.257046,-162.46696,32.219624,330.154144287109
434,-576.2745,-405.79236,-685.25934,-133.25568,-20.672382,138.24281,414.014892578125
435,249.56296,576.2764,1277.7999,25.340393,-91.39637,-340.1868,1096.4677734375
436,-318.64795,-444.80527,-236.48781,-95.98848,-128.07434,-59.239967,347.000946044922
437,-624.0876,-906.3073,-1095.1556,-43.729435,-89.419914,-207.68912,572.4833984375
438,-216.75887,-544.1602,-843.0139,-110.36917,-81.50825,-7.6322284,592.452453613281
439,2045.9504,1793.0986,4391.7065,-48.318596,-54.797073,145.72664,2497.8701171875
440,-2660.9976,-3059.6372,-6754.856,-65.87577,64.71146,-191.99341,3927.18481445313
441,442.46164,183.49896,716.53394,-22.889383,-246.39798,-4.335669,630.012573242188
442,-241.20033,-157.82028,-460.7823,175.57668,-222.12578,74.03634,574.823852539063
443,490.03455,1256.0364,1242.0841,-19.16693,-121.489426,-335.17075,979.114562988281
444,714.01544,520.4465,970.0834,102.158676,348.03668,-249.69821,856.943359375
445,-703.5949,-399.96112,-1345.7993,-33.354668,-270.25772,142.49915,991.457641601563
446,-401.9008,-675.38495,-126.976685,22.205963,-72.21214,-92.24603,517.895080566406
447,-387.05823,-413.98404,-93.2664,124.288445,-76.931404,260.0859,601.64892578125
448,-838.3629,-704.8378,-2279.4692,175.6483,27.020796,291.9913,1624.05798339844
449,419.6745,67.352394,-174.8346,102.32946,-42.992504,278.3683,733.170471191406
450,-86.19385,-521.2007,-1198.5786,37.151157,71.27797,677.2022,1529.02795410156
451,-408.1446,-357.40543,-1325.1115,4.7338214,134.26955,-191.25388,1026.55493164063
452,-1079.2867,-567.45624,-193.1997,-627.45776,-91.21715,-51.590256,1344.48889160156
453,-1449.2482,-923.06,-1699.3658,66.11654,191.08824,-203.65819,847.425598144531
454,-731.9082,-699.15375,-872.47797,143.99956,-54.994774,-61.907497,328.961242675781
455,273.41165,316.96216,234.09813,-349.0316,56.866333,373.32797,893.558166503906
456,-2638.1135,-2003.6703,-2124.8462,232.49113,272.77112,-106.70467,871.693115234375
457,-483.29413,-377.6865,-541.23376,-123.67498,40.892445,142.10854,363.478240966797
458,1431.8519,1441.575,2089.8396,-106.31053,-3.8396523,-190.15811,754.370666503906
459,418.40747,21.04225,768.9266,13.664585,157.00572,90.66206,720.567993164063
460,-698.65753,-1085.4932,-1089.5464,-215.14658,67.238945,-9.780139,551.307983398438
461,-995.2002,-1064.4585,-2321.6946,-88.82495,242.3338,145.66335,1391.40698242188
462,-3925.214,-4231.2295,-6945.7427,-92.59436,90.278885,-206.93849,2910.59326171875
463,-1601.2035,-1635.7202,-2976.0442,-107.871925,19.329615,-352.80704,1501.12353515625
464,-437.84842,-57.58605,-937.8701,-26.151731,10.0975275,-258.12833,887.13525390625
465,-591.9751,-424.04306,-640.9994,-0.6617051,-334.29614,-261.15518,760.7275390625
466,734.9458,1319.4489,1781.2948,-46.78194,198.91364,-446.18747,1243.94982910156
467,-882.6253,-860.60724,-1572.9779,-193.34024,202.30215,-349.7295,1046.00366210938
468,-6715.21,-7150.243,-10673.172,5.9945445,51.421894,-252.25111,3785.73681640625
469,-1559.736,-1259.57,-3108.74,52.54331,-292.85513,32.087013,1795.30920410156
470,-3260.0725,-3159.175,-6096.455,6.9306765,480.05432,-159.76532,3018.19580078125
471,-1018.77936,-1072.8243,-1970.5548,-206.99734,-286.49792,193.60207,1159.56494140625
472,759.12695,579.0375,1049.6692,18.979792,748.0706,111.28785,1373.40283203125
473,475.92407,294.19742,1010.89197,-87.966995,14.45729,-157.15106,717.191833496094
474,603.9085,326.04468,898.1354,-57.608334,198.30669,-174.3414,681.652648925781
475,-1393.9362,-1187.6211,-2696.5356,-109.034904,-95.758644,105.325294,1450.70068359375
476,667.13995,969.96,1730.5212,125.846596,-173.18997,-143.89389,1048.8466796875
477,-745.10297,-641.9312,-1475.0508,-30.397894,-204.57625,96.837296,880.475463867188
478,-118.25256,-355.39777,-1020.0627,57.079174,-498.9946,-292.6507,1292.02685546875
479,699.4908,722.8993,1560.5728,132.38043,52.923424,254.1484,988.232788085938
480,-1413.3802,-1680.8993,-2997.1865,81.637436,224.15039,121.87365,1539.998046875
481,-390.5012,-677.7884,-479.13177,71.649956,10.578581,63.54276,304.592834472656
482,-1584.1011,-1642.987,-2093.4023,220.91985,-4.2875934,-83.19609,632.535583496094
483,-2274.408,-1980.5875,-4405.2544,156.62823,12.756851,459.14157,2441.19677734375
484,566.20667,224.97966,776.70886,135.84323,65.24047,-49.631054,555.06298828125
485,-204.32089,-270.13132,-518.7996,182.0552,91.69869,232.3983,607.63232421875
486,-272.9114,-223.40639,-738.54724,-55.266094,314.3088,64.37895,748.522399902344
487,122.58899,195.85524,358.2509,-44.38991,226.22513,-291.8036,677.149353027344
488,1047.9994,1353.8755,2733.6243,0.68980837,62.72358,-43.39567,1561.01013183594
489,-1016.30975,-957.35364,-1901.8064,73.88146,-53.827644,165.32193,973.060729980469
490,-1991.7466,-1853.5682,-4276.733,-43.20814,86.887535,-426.4776,2475.861328125
491,-348.78656,-447.8768,-811.28766,-46.787548,132.73325,219.41519,617.857177734375
492,-258.6195,-653.43823,508.91913,360.85593,287.77316,-163.21394,1329.30187988281
493,328.93707,253.65901,638.88635,170.53902,-112.16527,-374.01358,818.364196777344
494,523.79236,137.34824,1056.3198,-128.68123,-98.0417,-218.06787,927.302856445313
495,-1485.0419,-1370.9608,-3218.6975,172.5327,101.13102,-153.36867,1845.7802734375
496,1197.3823,1413.048,3013.525,-288.5343,-17.918098,12.397928,1790.07995605469
497,438.93967,-18.164143,100.64431,145.01526,90.22008,264.00204,682.165710449219
498,749.63947,836.46844,2023.3473,4.076839,-164.75243,55.009098,1268.79235839844
499,570.88556,849.06824,1513.238,23.726276,293.1744,18.778008,981.767822265625
500,173.12897,-27.38021,-201.14235,326.17065,-106.141846,-116.47798,706.328308105469
501,1727.9812,1513.1327,3218.935,122.022964,13.745961,-122.63761,1637.005859375
502,-83.634705,-567.4224,-613.63666,204.0473,-238.101,-109.30175,767.702392578125
503,469.91083,577.0836,1627.4829,-2.3522413,-86.22246,-81.78103,1126.84643554688
504,-1657.0404,-1615.3083,-2833.5173,-21.746548,269.2164,-31.541553,1287.15661621094
505,436.02628,448.72513,956.5464,-75.62624,-168.40265,-27.318064,607.427062988281
506,-2604.11,-2206.9148,-4472.8394,106.73077,137.33452,159.043,2135.1357421875
507,579.10486,875.3078,1807.3386,-126.07522,244.39754,52.23592,1211.42443847656
508,-1349.233,-1626.193,-3006.2979,-188.1048,4.8266335,-162.76735,1596.662109375
509,-1384.8661,-1206.5886,-2972.1577,-71.31824,78.53983,15.018498,1693.72290039063
510,-920.1184,-1011.17017,-2217.4739,-380.31848,-278.89093,110.46997,1509.03039550781
511,-347.7619,-7.9345574,-1442.5089,37.556705,28.524378,-148.01947,1326.03942871094
512,909.81323,898.61914,2234.0854,96.244415,-29.140656,-622.6546,1721.06909179688
513,-2577.7654,-2762.7922,-5176.824,51.731857,112.972336,266.8346,2562.88232421875
514,-1249.4808,-1248.4415,-2483.03,-50.111893,258.6019,-70.74513,1321.40063476563
515,965.8411,887.061,2021.038,70.18737,-224.94261,-315.0891,1291.19897460938
516,416.29932,443.08755,863.2131,-149.51105,-263.80106,298.12784,854.957153320313
517,-1642.6349,-1853.1411,-3512.2556,78.57265,-215.07816,247.31313,1867.35534667969
518,-1749.103,-1794.878,-3557.2903,-24.205284,-380.86844,345.93024,1996.19885253906
519,-1868.6093,-1808.5531,-3798.579,-149.77356,14.291573,-317.12308,2052.7802734375
520,-660.9181,-525.34644,-1731.2532,-1.4166194,-121.26753,23.20463,1163.97717285156
521,-29.656551,331.53622,827.265,-14.271378,-74.00169,42.917023,760.148864746094
522,-50.386257,-117.77255,157.18945,149.04068,60.98131,591.72723,1090.79565429688
523,-1012.17883,-791.298,-1716.9218,-132.36873,-50.702644,-58.154305,878.372131347656
524,-651.4733,-790.21643,-666.70026,-51.556095,222.12953,160.0226,500.189208984375
525,-319.27924,-369.5251,-346.84717,86.57825,90.40354,-27.708693,226.293075561523
526,1016.3426,809.6236,1922.895,6.690155,-303.48267,29.50467,1153.69958496094
527,-259.52737,-381.11334,-650.0635,-49.09686,-88.34177,-103.4314,427.266143798828
528,-146.6534,-240.89325,-579.16473,-79.61231,-139.28674,264.7928,665.39453125
529,-1989.913,-1733.3772,-3679.8054,36.11367,67.98376,181.94064,1863.37060546875
530,-460.06226,-366.58054,-1074.5763,140.37186,-104.734146,-132.01784,766.889038085938
531,-421.30014,-324.4421,-785.212,188.96088,171.76863,-281.13403,780.898254394531
532,1487.6321,1573.0121,2708.5938,28.842274,72.612045,81.2003,1196.61401367188
533,-1121.7767,-1084.8625,-2254.9448,-32.491257,-172.83363,209.42993,1245.64306640625
534,-3285.9504,-3054.493,-5796.8965,-31.958662,-115.76802,-155.92964,2656.27807617188
535,-1492.1799,-1078.5548,-2226.0122,-32.73414,562.9683,-503.98538,1652.01257324219
536,-3265.5283,-3214.2249,-4980.242,39.940125,-398.1568,-181.57892,1900.03454589844
537,-482.49832,-336.32922,-1352.0371,75.51887,46.398075,-432.55875,1220.43090820313
538,-1514.2964,-1368.5504,-2190.1885,29.923716,313.9113,11.280564,935.558410644531
539,617.61224,698.7003,1725.9192,-72.17039,-173.49026,-208.23482,1175.18359375
540,-242.39433,-666.00726,-610.38794,100.11115,42.66152,53.302437,450.589111328125
541,-459.13562,-492.01398,-1214.0989,-13.217097,516.577,238.95766,1232.31909179688
542,376.4023,281.3799,1024.2794,126.03702,223.16307,-230.28888,920.052673339844
543,-44.630966,21.53155,413.49252,-13.404989,402.2229,111.01561,840.717712402344
544,-1045.1643,-1255.4655,-1921.2869,-51.064945,65.575554,664.3664,1404.435546875
545,-680.6844,-960.7419,-1648.3523,50.391403,355.39432,-125.805565,1085.27648925781
546,-1931.738,-1884.4138,-3745.772,-103.48301,291.54434,-187.19774,1941.92065429688
547,156.04176,-6.795916,151.31805,-21.448883,-319.89096,171.7136,650.074401855469
548,-1710.3098,-1466.1255,-3096.0168,-123.961426,-15.291095,171.8915,1566.40319824219
549,-661.8703,-1289.2571,-1795.1256,-15.0069475,229.4689,-284.60773,1169.84643554688
550,-832.92804,-780.57306,-1293.0204,86.792305,-330.76752,182.21411,830.024230957031
551,294.2975,327.87253,667.7572,191.68108,66.04005,-78.10485,519.297973632813
552,-970.7093,-892.66425,-1691.6396,-80.78198,153.1277,-32.65585,821.716064453125
553,-695.3724,-708.6959,-1254.6704,103.39981,698.426,380.77426,1495.31884765625
554,-1051.5582,-1083.8307,-2021.8331,-135.64015,-273.6087,386.7493,1280.49475097656
555,352.85446,417.47363,443.58847,0.9154179,199.90428,-356.76636,712.937255859375
556,-648.64954,-643.39056,-1028.1514,255.25456,35.806812,197.9731,680.394165039063
557,2169.6553,2323.6257,4519.956,106.44151,-276.7188,-9.802343,2334.46801757813
558,-596.2893,-621.8957,-1356.7562,27.936623,-38.510674,-13.065381,752.858215332031
559,443.445,183.34236,800.9559,11.506308,-133.85602,-432.21658,950.284118652344
560,-628.6713,-746.9151,-1183.0481,32.37767,2.8041809,51.399498,516.582885742188
561,915.71796,891.6981,2299.792,-56.325123,598.5735,-139.56891,1758.49645996094
562,435.956,383.24576,745.8369,-44.59337,649.3659,73.031334,1184.11694335938
563,352.75552,347.1406,931.8031,132.42764,-109.0023,207.42139,745.590759277344
564,-758.51,-612.91315,-1298.7557,-152.64217,450.9185,82.44017,1044.98449707031
565,-516.4017,-437.09436,-754.72894,78.57316,-101.16877,-178.84267,476.624938964844
566,-1072.1385,-729.68085,-1107.5852,240.98886,-354.71307,208.20807,901.340942382813
567,-486.18472,-601.97516,-1749.8771,-81.18836,-110.23065,-168.17166,1266.91528320313
568,1153.091,1263.2169,2613.84,-56.20338,195.13136,170.26942,1481.79943847656
569,-1601.7582,-1871.0233,-3648.218,-92.795456,445.35724,90.35112,2086.81884765625
570,939.8923,200.89656,-23.192778,375.72925,414.90176,-312.61783,1412.46923828125
571,-1574.5526,-1426.1656,-2822.5593,-250.43584,76.879745,-45.56508,1406.00207519531
