Element Label,S11,S22,S33,S12,S13,S23,Mises
1,-10606.113,6660.0737,-417.62,2220.6658,-1190.9772,-327.9678,15664.681640625
2,1079.8457,-2829.8555,1901.7723,-2259.9583,-5605.2104,-3703.1985,13034.310546875
3,-2726.5833,-3422.6182,-2963.554,706.3715,1064.6454,2381.5898,4721.1103515625
4,-2801.2043,-5883.687,7288.4424,2251.951,908.6869,-1330.3625,12860.96484375
5,-3690.7344,2180.02,-5350.851,-2368.7297,776.6431,1855.6317,8714.365234375
6,-12891.008,-11919.507,711.6118,666.0847,967.2334,-1508.6445,13554.5478515625
7,-13474.214,-6410.951,-2103.4458,-3872.3672,2308.2097,1008.5822,12762.845703125
8,-5195.1304,-5712.299,202.25098,1641.4298,1533.4751,1282.0295,7229.02880859375
9,4729.737,-6767.894,3254.8318,6345.879,-1004.50415,433.52484,15550.3828125
10,-8676.8,-6707.747,-3341.962,1922.1237,-1744.2081,-638.72675,6577.80126953125
11,-11075.871,-8930.902,-3442.8726,8778.564,-818.0755,-844.94183,16787.796875
12,-3748.2942,-3715.1252,6317.9805,924.3822,-1536.2615,-1498.8939,10834.24609375
13,-7435.2065,-8427.194,-4047.8137,3881.0415,-1570.5308,3548.4478,10304.3837890625
14,4065.626,-5103.059,-331.3272,5166.313,1171.6927,-592.1541,12178.9404296875
15,-8285.062,-10104.223,-3308.5886,-1331.7341,-1362.8748,-377.88217,6960.52099609375
16,-12959.085,10226.651,4498.914,-2519.635,-1916.7363,-1464.079,21773.41015625
17,-6043.2324,-2728.721,-2771.6436,5131.097,-3975.4185,787.9219,11794.2509765625
18,1363.6245,3514.206,8598.635,463.79132,-3786.0974,-1077.7205,9409.794921875
19,-5221.608,-627.6616,-1757.8933,-2712.8813,-5481.95,-3446.1848,12847.28125
20,-4326.3477,-1994.9513,724.152,-1165.089,1404.7526,3696.2832,8375.443359375
21,75.62268,-4139.2383,335.98083,4509.863,-8315.131,1798.293,17235.79296875
22,2062.725,1206.3427,481.25983,584.23096,540.4223,270.8477,2000.07641601563
23,-14791.811,-5445.4126,-2033.0889,-228.9534,-2850.3533,629.4588,12514.451171875
24,-13792.92,-4926.696,-10210.332,6161.094,1292.0898,-827.6461,13439.552734375
25,-9386.777,-4793.004,-1403.6504,1884.15,3813.3215,2991.534,11370.248046875
26,-4527.4106,2483.6213,4967.2363,5364.986,-4332.522,-3244.1401,15715.2919921875
27,-14763.693,-3106.5469,3375.7578,-469.16476,64.51529,1299.1487,16100.021484375
28,5122.6055,2493.413,1816.8304,1653.4059,-2363.225,1206.5466,6202.6044921875
29,-8290.854,6773.7236,-4908.586,-2001.4497,3453.7087,2344.5728,15865.7353515625
30,-681.67676,-8086.176,-7495.328,892.8704,930.96643,388.87997,7499.7470703125
31,-2869.5042,1273.6492,3776.5757,843.6648,1253.7141,3203.0803,8451.6416015625
32,-6823.314,-11045.076,-4487.2856,4108.177,3785.9658,-4941.4155,14143.0966796875
33,-9645.604,823.5034,-5779.904,3488.14,5722.0186,-5358.439,17462.52734375
34,-3326.6667,-425.15112,-4375.23,5011.3853,2481.6965,4747.828,13191.0849609375
35,4148.2524,-2556.608,9890.016,-1415.4286,185.9381,-4644.243,13683.6298828125
36,-586.4641,-7572.369,-501.03394,782.64026,-2828.5264,-2100.025,9406.197265625
37,-4524.42,-4978.463,-9713.848,-4163.575,-2411.1494,-3912.7,11838.697265625
38,2224.7793,15335.814,13687.189,399.28024,10578.471,1956.7661,22375.86328125
39,-10648.508,3654.3784,719.86694,12556.036,2021.7677,-2284.4897,25924.763671875
40,10735.695,2167.6436,-12647.902,16304.342,10374.355,-389.6084,39251.55078125
41,-9792.664,-20796.854,-5128.877,10693.675,-13249.783,1967.2097,32794.9453125
42,-3988.6152,-2606.1875,-3175.7834,-53.23002,405.07782,827.5618,2000.86511230469
43,1111.8992,64.40741,7307.7993,490.27295,-3130.3157,-2636.7078,9846.369140625
44,-8558.107,-1042.4753,15241.546,1223.734,5958.66,3141.0522,24179.47265625
45,-5436.4463,-3496.809,627.2815,-1573.7045,465.4656,5154.395,10795.9501953125
46,-5352.6274,7085.44,-3352.4639,-3330.1555,-1012.8722,13798.666,27228.38671875
47,-465.99585,5477.1826,5405.0405,742.90106,-5147.094,-2485.7373,11600.341796875
48,-11018.382,-1190.411,4825.924,613.30054,-5845.0977,-2874.142,17897.4765625
49,-4127.745,7736.6543,-8425.854,201.3484,-1917.675,2397.2664,15447.5537109375
50,-7271.4834,3366.7979,31.010498,-3787.0947,-2023.5482,4207.0723,14043.5869140625
51,4809.561,19780.139,8540.189,-1441.75,1723.5786,2880.504,14907.2509765625
52,7320.581,2352.5518,-6873.378,151.68556,160.63152,1941.0906,12926.0869140625
53,1678.0879,10392.106,-630.1509,-951.9965,-1291.5331,-2014.2166,11012.283203125
54,974.8589,12437.101,1573.0554,-2754.0894,4156.3916,-491.86142,14148.9130859375
55,-7305.3784,-1869.8569,-16090.104,504.9583,-1590.1283,-2117.8987,13276.7763671875
56,-8334.638,-3517.9165,-2220.7007,7203.6567,-4580.089,1021.06537,15901.8642578125
57,-2700.4563,3790.6523,-19973.807,-842.1506,3293.8923,4266.544,23279.033203125
58,-12674.039,-5820.535,-14562.743,-1667.1544,4070.983,4035.0188,13053.083984375
59,-13539.154,4604.2495,-9998.744,4155.904,-6156.23,5538.0566,23130.171875
60,-12576.629,-3315.8228,-7194.104,1721.3898,-3030.788,1511.6893,10401.431640625
61,2234.426,-6246.624,-7270.7773,8227.213,-1235.0302,3598.7363,18114.986328125
62,-2157.5154,-4439.0713,-10071.191,15347.14,-103.48651,-1968.6786,27713.52734375
63,7378.049,-3123.4849,-10417.46,5673.4775,-3644.175,241.38168,19407.78515625
64,2960.1152,-6587.256,3191.4756,2227.8525,7045.4507,4416.594,17769.0390625
65,7688.5815,-4978.5864,-3384.9438,3086.1877,-3466.978,-4563.563,16429.294921875
66,-9745.102,8537.661,-14832.926,-75.10774,2855.5671,-2871.9,22414.013671875
67,-740.74493,312.24817,-1509.9618,312.10632,1385.6774,2392.648,5073.19384765625
68,-3193.3088,-4031.685,-615.7334,2172.5486,-1452.0839,4306.236,9253.33984375
69,5836.5728,258.85254,12556.529,3785.1238,457.3328,14084.743,27431.728515625
70,-289.32056,3142.478,6905.9365,2915.4402,6492.5215,-2172.9907,14317.1171875
71,191.84375,-8070.914,-8153.295,1967.3312,-4602.0684,-283.9873,12014.6103515625
72,7108.966,-9117.944,5073.906,433.62842,5851.241,10504.122,25859.548828125
73,-845.9082,-12169.299,-13330.168,3722.086,2742.804,9502.117,21856.650390625
74,3867.726,-5834.592,10713.805,1631.5829,5071.3174,-1607.7745,17329.8125
75,-1203.4424,-20207.875,-27377.06,-3060.4375,3271.3372,6294.148,26978.966796875
76,3618.401,-5781.0264,-11205.985,-6532.83,12675.999,12364.363,35177.83203125
77,-3233.5518,2496.7854,-1885.8516,-5471.5703,425.82602,7248.4897,16580.419921875
78,16775.17,15876.051,14653.51,-8.970378,-238.14284,379.18073,2000.98559570313
79,2925.5903,-33188.793,-13620.205,-798.4863,3486.8452,12634.596,38700.86328125
80,1862.1796,-18684.87,-1199.3568,17355.37,6463.0703,3943.3013,38003.12890625
81,-21056.385,-38801.57,-2285.8296,-200.05505,10879.259,773.2248,36841.5625
82,-18882.598,-735.2427,-3355.1611,-10066.828,4342.67,755.6789,25513.888671875
83,-8060.538,-8000.5664,-12625.0,-7618.301,11241.446,-2186.3398,24262.681640625
84,-16127.1,-5999.588,497.41113,-6592.419,2704.7026,5501.486,21300.26171875
85,-19512.273,-5996.1543,-165.85352,-536.5559,-1377.5618,-2377.5618,17860.4609375
86,-12358.38,-9053.692,-3033.7998,2662.63,8702.857,-4146.6074,19160.505859375
87,-19590.455,-10013.482,-10513.221,1867.2151,1363.2739,-1094.3416,10334.8896484375
88,-13887.114,-3949.6702,11733.862,1957.8469,-918.4728,2524.396,23102.55859375
89,-15205.977,-3597.6882,-1374.3262,8719.027,-4187.1553,-646.3081,21152.291015625
90,-5575.052,4511.4766,9018.887,3509.6118,774.54224,-2410.0508,14956.46484375
91,-1058.7476,3293.1738,11183.094,4174.2153,4446.887,-10575.882,23720.685546875
92,-7737.7017,-3670.1448,-6154.31,-7778.155,408.967,3289.6938,15069.130859375
93,3092.8071,-5436.3486,590.86816,-8093.815,9035.282,5005.0557,23963.66015625
94,14905.146,10295.158,12208.941,6562.3745,-1709.4628,11312.975,23194.8984375
95,-9923.209,9139.48,-4518.3506,-5831.076,-1723.2156,4048.034,21204.71484375
96,-10937.754,-8921.128,8160.3843,-343.75336,-693.3196,4797.9575,20028.720703125
97,-7088.677,346.88916,-5657.5693,-3593.9893,919.8293,-2771.7217,10537.1005859375
98,-10643.582,-18809.01,-32540.824,3461.7805,8260.371,3495.242,25390.27734375
99,109.99341,4178.4893,-2084.8633,1327.8718,-929.05634,4399.2417,9810.146484375
100,6686.8594,7846.9395,13860.352,-1084.0095,1975.6161,-2081.5684,8527.3759765625
101,-4652.613,-4459.772,3764.241,2341.6174,-455.236,-4074.0142,11667.1123046875
102,3507.9675,5192.6865,5540.9224,-1391.1648,310.4156,-7155.861,12777.3369140625
103,-5954.668,-4772.636,-867.5217,4951.3237,948.6598,-1457.1375,10192.130859375
104,2834.2415,-5520.637,-2147.5732,6259.2603,6244.293,1954.5056,17290.716796875
105,5647.1577,11410.29,-1503.3511,-9499.788,16165.549,4455.4575,35211.0625
106,-8491.76,-4755.021,8775.759,13325.715,-3064.2815,2982.9194,28899.70703125
107,2374.747,2719.7886,10384.059,3528.292,237.19385,7725.031,16674.77734375
108,4569.2656,-33019.535,-26070.379,447.81024,8457.87,6302.447,39171.0234375
109,-21817.484,-22027.596,-23460.379,488.3904,-537.49414,68.90916,1998.64440917969
110,-2887.356,-3407.3054,-394.39136,5372.4033,2817.4946,-2333.3396,11598.181640625
111,-7717.9824,12.086548,3666.9702,-3421.1057,2007.6428,-1915.1879,12632.19140625
112,-11107.762,14328.22,2119.1057,6322.448,1386.9575,2497.3616,25097.85546875
113,15303.288,-4382.632,3207.9634,2905.777,-4206.162,353.39194,19352.142578125
114,2017.3472,4632.15,12357.438,2959.42,-7056.8955,2787.9414,16902.9296875
115,213.06946,6431.279,-322.87964,4578.6685,12055.927,-1546.7456,23417.771484375
116,2985.482,-2424.1543,1097.7333,4523.8135,-5190.115,-2014.0646,13303.8212890625
117,10565.3125,6277.2554,13945.068,2321.516,2257.4797,-5420.315,12802.3115234375
118,-8529.7295,-11925.151,-11500.597,-3759.4282,10066.13,10095.075,25736.744140625
119,1927.8887,-2199.6035,7783.8257,-3256.8772,-4132.0894,1530.3004,12867.33203125
120,2810.3052,-3118.7705,3187.4082,-1471.5721,-3112.8972,8901.745,17630.150390625
121,4096.7886,-1648.603,4734.0293,-547.12225,-653.8848,4368.8564,9824.3701171875
122,-7902.584,-3860.218,11770.195,-613.1671,5749.142,1113.1115,20684.2265625
123,-3937.2317,-4255.476,10795.189,-8773.532,1653.8329,-389.2444,21480.65625
124,-1218.1272,1525.9271,1261.2738,-1736.2572,-481.491,1319.9739,4673.3193359375
125,-6070.696,-1452.571,-6040.5063,-319.84134,2857.0366,2390.5852,7945.3212890625
126,-6398.968,-2682.2483,-6802.9736,-5423.2603,11457.392,-11916.203,30389.427734375
127,-5000.6274,-6519.703,-810.16455,2424.857,1518.861,11066.365,20449.625
128,-673.5341,4950.049,-4366.8813,-37.15176,-3947.2825,1037.6006,10770.9072265625
129,-1219.2954,7429.4067,-2889.5098,2899.9136,-2405.2883,1285.7224,11814.3486328125
130,-7049.773,2130.5303,-6243.4116,5715.593,-1682.0123,7113.972,18326.015625
131,-6668.5005,1883.6008,6097.9805,-7499.3125,2925.9866,3760.973,19072.998046875
132,-8298.759,5022.6387,7101.122,-1045.9908,1779.5831,341.94672,14919.8486328125
133,-14738.587,-337.7964,8055.036,-1539.8907,13222.586,-3847.7507,31220.595703125
134,-15269.612,11204.309,-2391.7837,-9247.505,-3888.884,-7403.3306,31498.056640625
135,-14411.422,-2667.3604,-15834.973,7834.2,6501.1797,-8882.795,26538.650390625
136,-2150.2107,9591.783,-3430.6243,-3011.0962,-4300.943,1381.3701,15587.4140625
137,-19968.912,-18278.55,-19093.002,-157.2209,463.0519,616.75085,2000.62158203125
138,-431.37503,-2166.1855,-15251.476,-2852.5757,3543.9482,-7668.075,20866.798828125
139,-3729.4824,6442.07,952.23834,-6242.7285,-5867.1104,-3885.4822,18526.560546875
140,5221.704,-5251.971,4013.1035,6363.6826,4000.286,-2382.27,16882.59375
141,-128.57373,4884.02,6228.634,-1654.1547,5309.5703,-2959.9197,12358.8330078125
142,1714.3633,-3922.2727,-6614.888,580.627,4130.2134,-5070.683,13547.0283203125
143,6411.669,-3840.7053,5763.8384,-210.83565,550.3589,3808.6716,11977.021484375
144,4028.9746,1690.554,1370.3665,418.91318,-3968.6343,3768.437,9833.587890625
145,566.9532,7660.963,-4452.3447,8749.681,2087.8604,6533.11,21952.6328125
146,-11851.824,4444.2656,5892.5635,4598.5757,4123.5464,2385.388,20561.701171875
147,-10615.967,-1838.0421,2833.4443,-423.4626,3779.1548,2543.0823,14236.0986328125
148,-17602.256,6124.2236,-4075.9937,8973.549,1874.5968,-3825.9253,26851.521484375
149,-1797.1954,543.21094,-7870.7715,-2563.67,505.31793,612.73413,8842.513671875
150,-5143.538,515.9365,-8874.655,-3294.4407,2047.428,-3167.0803,11928.7109375
151,1296.0918,10922.6455,10272.16,-85.194565,552.86536,223.66978,9376.5966796875
152,-703.17664,6207.1865,199.70447,5188.343,-3094.8281,-4146.396,14261.748046875
153,-104.28003,5486.3457,3315.4058,2616.3418,-920.0611,1014.1764,7070.5087890625
154,-11009.207,1752.1428,10.013672,-6930.1113,1538.6022,12143.743,27152.30859375
155,16654.139,-363.9878,1090.4395,-1174.7123,-1952.1256,7319.114,21053.76171875
156,-11934.888,-3600.1487,-2649.6086,-4258.292,2985.879,3647.2393,14119.013671875
157,10968.288,-8545.213,-12678.876,-12723.425,2530.2432,1451.4824,31459.6484375
158,21148.225,-5052.044,19910.975,11383.245,-6843.435,-2809.9045,34763.3125
159,-16197.91,192.12378,4792.162,5797.5103,12426.39,-1502.5394,30594.7734375
160,-32097.195,768.2373,8443.142,-341.36703,-1280.6519,-3301.4316,37805.39453125
161,-11735.268,-9772.106,-8368.144,1105.4618,-8274.8955,-2313.8218,15288.24609375
162,-29563.139,-68418.97,-32230.943,2366.203,6316.918,-2988.6694,39705.62109375
163,-25079.188,-26652.658,11696.238,2738.852,52.409054,-2019.3695,38046.26953125
164,5105.2573,11352.295,4642.705,-1901.6814,-1003.0148,1902.9888,8176.82177734375
165,5641.6626,8168.077,9187.188,-2634.9204,214.18556,1141.1938,5905.00390625
166,-30826.857,-59880.273,-36825.156,5090.7783,-1726.3815,-13254.742,36325.796875
167,38385.855,41111.06,34703.92,-7487.468,-8545.4375,641.2391,20481.966796875
168,16510.105,14536.259,-5938.645,3638.7034,-3590.5457,12225.293,31469.064453125
169,3230.7095,5750.969,1377.3494,-3021.023,2468.231,5548.3,12347.6611328125
170,6505.512,6699.7886,5842.1567,-7843.983,-2734.3914,-3703.4446,15772.3818359375
171,2556.6885,-2475.6292,3328.9963,-704.7598,-3668.9133,-758.4589,8567.7177734375
172,3512.5479,-8834.517,-1275.551,-1287.9349,-1259.3506,3934.3062,13131.1630859375
173,24365.586,-9487.3955,19740.562,9817.09,8139.9385,-5969.001,40070.3515625
174,-7420.1074,-7670.5435,-2959.7197,-238.72931,-2277.4167,-802.9896,6224.150390625
175,-11087.867,-6490.2256,-4630.2725,10009.962,5561.1445,-541.2324,20673.7734375
176,42.022705,5233.1406,-2429.959,-2515.3696,3029.6443,-3019.343,10943.3779296875
177,2482.0298,-2987.7444,-70.92048,-4112.45,1022.409,-2545.0947,9786.5791015625
178,-6245.41,-2709.3687,5922.9805,-1914.684,-2548.4016,-6842.089,16984.375
179,-24882.445,-8268.271,-10500.995,-1561.8049,1405.0648,-13054.021,27719.734375
180,-717.0176,13223.822,2027.2046,3170.0774,2795.0989,1190.8011,14881.5634765625
181,-11592.744,5270.596,7648.5703,2276.9414,2680.0203,310.67703,19170.759765625
182,24698.238,8093.5396,15917.034,5780.648,856.6954,-3419.7026,18562.02734375
183,-4679.8257,5043.647,-1443.5741,-2677.0015,-324.42093,-4185.0293,12161.8173828125
184,-18813588.0,-18813608.0,-18815344.0,79.60899,-287.80057,-131.06448,1835.17028808594
185,103595.38,103355.62,104365.84,-92.8958,491.96487,-897.4282,2000.98413085938
186,-12138.818,-18459.266,-42128.258,2764.3604,-734.5613,6031.321,29722.755859375
187,-9909.69,-25963.338,-41560.527,-1491.4576,-974.59424,7656.655,30606.85546875
188,-11106.918,775.58887,-5484.528,5025.2876,409.41013,7214.3745,18395.7109375
189,-9888.572,1103.8474,364.57788,-2266.2056,-1788.3478,11714.561,23450.966796875
190,-1631.582,-10382.709,-19525.494,-6282.7583,-297.64554,-8219.389,23696.88671875
191,-6339.3823,-10616.42,-3853.5671,-4978.0205,-3044.6755,2296.7825,12372.634765625
192,-7863.5625,10414.948,8557.074,1027.07,-1042.7877,5740.344,20220.73046875
193,-10531.74,-2428.001,-14260.752,-2033.307,-6703.6147,2606.486,16655.171875
194,-9894.984,4490.33,-4621.7573,-258.78278,3347.0955,2455.8396,14518.630859375
195,2538.2512,-4327.258,2474.1074,-578.1803,-5728.193,2446.8467,12810.13671875
196,14478.777,-5818.4453,8330.931,2119.008,-9280.612,-551.4617,24449.15625
197,-3430.3042,-4115.8022,2077.7256,280.03363,28.715681,-232.64095,5914.73876953125
198,4581.789,6910.1562,-1020.56665,5724.9194,-728.0328,3073.5178,13345.626953125
199,6426.298,-1714.1877,-10595.168,4426.954,-5326.451,3656.9646,20036.515625
200,-258.18994,-12006.944,1357.6155,720.2406,4025.3374,-623.5886,14524.482421875
201,-4848.3833,-1829.0337,523.3657,-2344.7205,-7846.9214,-5174.7437,17415.583984375
202,-15590.07,8887.607,-12088.096,1417.9619,-727.7114,2724.8447,23571.06640625
203,23739.195,-6528.414,-2334.2979,-5021.217,6015.2124,1366.9932,31568.41796875
204,11461.799,-3882.1636,-30090.297,-651.2272,-2840.417,5050.3545,37768.16796875
205,22538.072,-17198.303,19814.525,4026.1318,1412.4843,676.5377,39168.3671875
206,5954.511,-11015.764,-29902.137,8492.065,-1533.3143,6577.3315,36309.4296875
207,-4823.7837,-21837.816,-14321.83,18989.605,-7535.5903,-5191.8467,39384.34375
208,-970.51514,-14888.47,-33038.49,6794.971,12557.63,-2210.4783,37443.28515625
209,-35727.85,-45632.223,-32254.209,-2525.471,5769.773,-3309.8674,17217.361328125
210,-25493.15,9954.286,-25112.35,5278.501,2856.3225,-550.7169,36771.46484375
211,-24579.832,-25865.684,-26498.133,-293.11597,105.80172,531.02826,2000.98681640625
212,63841.375,62692.094,63062.477,-339.38412,935.1346,-29.460602,2000.98364257813
213,-325440.53,-325666.72,-326599.5,-18.708637,334.36984,-866.3003,1928.75952148438
214,15125.216,15341.575,15123.275,-954.1197,-546.4855,-329.20016,1999.83142089844
215,-9397.76,-7631.273,24906.275,-756.58014,-2388.702,-514.1022,33747.8515625
216,-12758.322,-14153.016,-29571.605,-19090.918,1226.4313,5528.8057,38089.19921875
217,-14696.111,-32744.412,-31722.25,9652.911,-4679.253,-14355.837,35662.7265625
218,4579.795,-9781.465,28979.879,-10845.85,2610.7505,1699.7788,39166.80859375
219,-9831.924,-20288.344,9096.838,-4613.0654,4909.223,-1977.7063,28520.83984375
220,-11076.552,-5705.4893,-4981.5283,3880.4956,-2028.5675,10727.715,20881.390625
221,8463.827,-7429.6035,-13845.025,-10220.449,3444.9553,-2092.0195,27528.6640625
222,-11824.955,-1322.2048,3361.1328,-4018.9077,-3404.2563,-625.98676,16304.19140625
223,-13327.53,2519.0383,-664.8342,-3067.677,-3979.256,2898.1453,17655.888671875
224,-15528.587,3677.399,5818.4014,5499.593,-2078.1204,3740.4502,23669.369140625
225,-10072.399,4272.192,8655.736,5234.139,-700.66534,1038.7229,19358.75
226,-8467.265,1383.4048,615.45654,6343.4497,-1870.8718,484.06973,14899.0654296875
227,-10949.186,13023.779,-1841.7638,1091.2732,-2429.6255,-345.43796,21469.888671875
228,-95.27124,265.6516,-11557.612,2576.5435,-770.43915,-2553.8904,13300.98046875
229,-5397.6978,4041.437,-2442.8784,9318.49,-1134.318,3420.5964,19219.822265625
230,4704.7246,3022.4338,-7010.6216,7616.265,1915.064,4639.207,19234.408203125
231,-5728.199,-7014.759,-35239.812,3274.0894,-7218.586,8612.409,35293.421875
232,-7205.3965,-22116.15,-41855.785,-2225.3477,-1447.6129,5908.8857,32127.94140625
233,143.62207,-12479.51,-30491.139,-1932.948,-1183.2054,6277.5957,29064.734375
234,-20922.223,-29240.463,-47365.47,-1292.8546,-1618.1278,6282.9326,26072.443359375
235,-12678.738,-20460.926,-39013.234,-260.86908,-655.7064,6719.864,26193.35546875
236,8837.344,-4010.564,-22408.08,1173.0989,-1222.9891,4215.854,28316.828125
237,5522.335,-8472.202,-22314.547,-1111.1979,-2128.1448,2548.24,24858.53125
238,-3191.7393,-14371.58,-33134.1,-1168.3353,1478.6198,5567.5073,28114.55859375
239,5639.864,-3544.5164,-19413.127,-2752.1333,984.0669,2747.4033,23025.669921875
240,7137.5737,-141.75162,-8916.754,-1154.9247,983.75507,3484.3247,15401.03125
241,-17428.852,-18994.812,-30408.371,254.21573,4531.7207,3804.483,15994.3857421875
242,3974.5884,-2322.707,-13188.727,-1847.6742,4838.676,3516.2644,18539.828125
243,-1985.2834,-3985.6958,-7332.7124,1989.7219,-5107.7407,-2935.5725,11742.9287109375
244,-942.88965,-7622.66,-14440.846,127.249985,-615.1316,3647.9624,13332.57421875
245,2283.1719,-3428.1304,-5084.0933,-1961.9497,-5013.287,129.3901,11481.1142578125
246,-1606.1934,-10595.416,-17018.006,551.4856,-8306.768,382.6403,19701.490234375
247,1104.6611,-13763.3955,-979.17773,-6302.7085,-2491.7825,14142.06,30532.14453125
248,438.43848,-9415.889,2052.7017,-2276.4854,-1156.927,-335.3028,11641.34765625
249,-16193.48,-17248.268,-23460.27,-2100.6548,-8281.42,-3187.5854,17196.51171875
250,-3421.121,-5689.5444,-9165.419,1105.3741,7162.8384,1322.5912,13709.2763671875
251,-9336.907,-6635.9995,-3879.4795,-2219.332,2147.6667,-483.77362,7187.08837890625
252,2481.4443,-13728.748,-2271.7478,-330.15497,-556.4319,471.04868,14499.466796875
253,-15430.364,-13611.799,-14394.934,-992.315,7363.6006,858.0442,13050.935546875
254,-7834.7305,-13894.327,-1284.9717,845.7861,1433.4847,1245.7927,11501.0283203125
255,1446.6919,-3280.3125,-12982.242,4460.3823,-663.18,-5151.123,17405.1640625
256,9992.76,1005.9088,6344.915,-4645.048,-828.2695,8085.6724,18005.81640625
257,-13372.635,1298.194,-3406.1414,-296.5847,2395.595,3442.3958,14878.7861328125
258,-2738.0212,-2773.1575,-12810.853,-1988.2961,5057.776,-6162.5576,17425.37890625
259,-3926.7798,2932.7207,-5564.3774,-1731.4314,-397.1386,1260.7112,8671.9365234375
260,-4099.005,10974.976,-10164.796,7016.9717,-1430.2623,4194.917,23708.583984375
261,-10977.693,-3997.2944,-7687.4995,-1835.6106,1976.2856,-291.49634,7659.3017578125
262,739.379,7696.159,-129.07324,-1244.4125,1611.8386,-3283.7114,9999.0341796875
263,209.2815,5951.92,1712.5857,-3671.725,2031.7455,-1621.8513,9344.771484375
264,-468.9289,4111.113,-989.3652,-1658.2229,1530.1002,-1966.9684,7107.1005859375
265,-3550.518,4400.817,-2172.1985,2017.6736,-3777.1099,-655.8041,10510.326171875
266,5356.896,8749.654,2514.734,-2137.3381,1135.9327,-8579.366,16359.2099609375
267,2229.6702,5590.819,-585.16504,-1391.6482,2037.4427,1437.1168,7289.7998046875
268,3193.547,3712.85,-1937.4911,1330.4949,-1215.5356,-2168.293,7287.626953125
269,773.2328,3432.4363,-312.5232,-1302.2128,3112.909,-969.04346,6936.31689453125
270,-4632.226,3938.206,-3675.2808,2618.5327,-871.52924,-2018.9286,10061.9912109375
271,-1965.604,3747.8416,3407.2703,4218.61,-325.62292,961.36206,9343.1455078125
272,-3643.8232,1172.5255,-1208.0143,4898.813,-1447.3561,-1069.416,9955.3623046875
273,-8546.859,7085.9717,-5420.7134,3098.577,9246.15,411.14267,22160.150390625
274,-7311.671,1861.0125,2010.0547,372.0102,1431.392,-1101.9592,9784.2841796875
275,-5828.8613,-2193.849,-3384.7563,-4720.9683,-3467.574,1743.6085,11061.5537109375
276,2990.647,-3390.1045,19850.262,-2738.0127,-4035.549,-4878.442,23985.04296875
277,1897.1332,5312.125,-2416.806,-1209.5145,2001.99,-418.85168,7870.40625
278,-556.9302,4619.579,629.1614,1053.0723,981.9789,-585.3799,5413.96240234375
279,-25066.367,-32183.062,-49070.434,-1491.5771,2198.7231,7167.0073,25125.455078125
280,-21072.906,-24142.904,-44310.85,-289.52136,1438.1189,4942.429,23618.326171875
281,6020.2793,927.05005,3836.915,-1895.2118,-5827.202,2413.301,12235.3623046875
282,3997.842,14791.739,4818.0073,-8207.355,-2098.9001,397.9995,18002.8203125
283,-11167.26,12151.508,-3600.2524,933.60925,-2593.8306,972.4912,21218.087890625
284,-1275.9464,-476.73187,-1266.669,1156.7556,1506.628,2341.9214,5282.91943359375
285,1215.0068,-1558.2717,-11021.644,-6731.492,2531.8777,8914.612,22739.220703125
286,-18055.26,-24063.031,-725.8666,7072.61,-11135.265,-6171.7065,32815.0859375
287,-798.08276,4817.07,-18578.697,-4181.5205,-2251.3364,6004.1226,24966.5859375
288,745.5112,-2818.7954,9821.189,4103.4355,499.32587,2267.955,13932.484375
289,735.6426,6725.454,-359.5813,388.65796,-4057.9722,2218.7217,10404.8212890625
290,6897.119,-1539.95,2969.18,-6893.3896,3407.059,-1366.1755,15377.0107421875
291,-7627.728,161.24744,1413.3834,1801.8339,5721.7114,-3118.8057,14461.1015625
292,666.53613,-6818.5664,-19628.996,-189.0037,1203.7233,4930.311,19834.29296875
293,4404.7,-1657.4836,-7436.961,-1810.2074,1096.5518,-1672.8505,11270.39453125
294,1357.135,-118.1189,-7107.942,-1865.9834,-10632.918,-2272.4465,20650.916015625
295,-251.23193,-5458.0483,-8076.1445,-52.966007,4106.992,921.0854,10037.5830078125
296,-20688.623,-22862.193,-21696.29,133.58218,271.44974,240.56746,1999.44274902344
297,-48179.008,-32511.557,-22395.092,13034.756,380.08493,3060.0984,32319.525390625
298,-2277.4082,-42403.918,-9898.268,-6833.396,4226.869,1987.6658,39597.390625
299,-16700.344,8467.134,6743.0396,-2038.9008,899.89197,-2397.714,25002.623046875
300,-2384.7532,-1484.1681,1232.3916,9451.14,-2308.8909,5444.07,19583.564453125
301,6653.414,-10941.076,-19557.951,-4275.262,11.1515875,8853.002,28729.55078125
302,1940.3873,3389.449,-43.617554,-2210.4797,990.03796,2193.5032,6398.79345703125
303,1365.7831,5899.308,756.0737,-5091.1855,1047.2931,-3761.4053,12131.9501953125
304,-3341.5815,1672.3279,-881.7013,2213.1807,1389.2223,-1361.2563,6700.75048828125
305,-1587.7502,11034.275,-3587.0725,2531.3684,2558.5466,268.46542,15087.2958984375
306,-1369.0463,-1888.5422,-4924.6562,-1883.9725,-6361.0986,-2121.9097,12514.447265625
307,-16248.256,3044.5679,7299.2305,8336.352,2578.8613,6137.404,28527.857421875
308,-17800.912,2161.245,-9695.209,-434.46548,3901.8315,-4509.5073,20239.291015625
309,-829.445,201.35147,-363.23276,-1541.1204,2441.4614,6405.175,12201.86328125
310,-6559.8677,4112.779,-7518.0493,2308.349,2987.2815,-301.082,12964.51953125
311,2901.4697,4642.9805,5056.0776,28.255192,2268.16,-4830.1567,9452.5234375
312,-7770.745,1587.258,200.42944,3321.9756,-887.532,-880.44366,10691.716796875
313,-742.2202,2787.5374,8484.306,6783.6406,-7015.8784,-4736.0874,20445.857421875
314,4216.7466,8545.073,261.36108,3591.953,-1750.015,823.12006,10071.0625
315,-1412.52,1872.6443,12436.986,1812.6686,276.14966,-5376.1353,15934.1708984375
316,-6680.2246,-5072.8315,-894.8579,-4210.0225,-1687.9531,-744.5509,9494.1201171875
317,2582.7585,-13214.783,4285.74,7130.6763,-1110.453,-54.30314,20871.34765625
318,-8881.923,-9191.25,-10571.015,-13059.321,-2100.3643,-1378.1733,23086.71875
319,4029.6514,7100.7637,7648.1187,-14782.781,13210.026,1970.9766,34672.36328125
320,16385.91,18611.523,31979.43,-4114.33,7427.1987,-3647.925,21670.28125
321,1958.851,1314.2943,3020.003,-748.87164,133.17996,118.62039,2000.82946777344
322,105431.41,105830.37,106764.85,-94.25669,-763.6451,-85.22207,1789.736328125
323,26385.824,27488.412,25718.557,-236.33922,692.5121,18.168219,2000.98608398438
324,-3382.756,-10815.733,-7215.8613,5912.2095,496.18842,4088.716,14042.953125
325,-17814.547,-25821.424,9601.476,7076.039,3688.669,5490.2383,36286.6796875
326,8061.079,-4992.14,-18335.016,-2032.233,-1717.6619,3800.693,24231.44921875
327,-14139.393,-19340.756,-33235.184,228.09135,436.64783,4931.5073,19132.8671875
328,-18091.686,-23656.92,-44106.594,-2612.1528,930.10876,5652.232,26112.76953125
329,2626.3555,-4412.293,-13581.832,-319.07657,-1071.5333,560.6568,14242.7939453125
330,2674.9717,-6342.0557,-13562.936,638.4206,3590.4514,2760.9175,16165.50390625
331,9546.409,-7329.3125,-6801.08,323.3955,-5179.6865,5795.1978,21394.130859375
332,-848.90137,-9776.067,-6090.8228,-7833.665,700.6308,8221.442,21183.1171875
333,-4340.1245,-3518.1313,-6383.1836,-6355.216,4214.1104,-2556.0952,14162.3623046875
334,-4115.54,3890.4,-7051.0825,-8105.674,2091.114,-1766.3368,17770.7109375
335,-2448.324,8837.662,-13241.609,2184.5818,1621.6182,-2303.2485,20094.833984375
336,963.74744,659.177,-3589.495,-3288.1277,-440.14532,-1677.1891,7803.423828125
337,-4677.4277,9393.797,-2147.6008,1472.4178,-3491.4587,-1157.8817,14693.4873046875
338,-11200.843,254.10504,8254.64,-5683.2686,29.082159,-6374.2207,22486.958984375
339,-11721.568,4783.1646,6182.4385,5581.305,-3499.897,3701.6396,21651.00390625
340,9795.412,4839.919,-16936.043,6530.1455,-2707.4443,5108.3247,28894.015625
341,4098.4404,-2313.834,-27482.143,-3365.876,-5195.021,-361.9585,30843.025390625
342,-45146.625,-69133.266,-71064.695,16510.508,905.63074,-287.72852,38025.21875
343,-22307.387,-24833.838,-42236.285,830.4817,1756.077,5401.504,21261.322265625
344,-1767.7319,152.93909,-1711.981,145.97777,-1981.4719,2297.8906,5591.8271484375
345,-8269.534,5598.1465,-2437.536,-2069.2185,-4415.3877,1400.8463,14922.048828125
346,-311.4795,699.9131,-27853.877,-8.133132,-1452.0015,3321.381,28755.568359375
347,34234.44,34223.348,35047.688,197.47218,266.21158,988.6188,1982.97924804688
348,-949.03,885.35767,-6355.037,3225.8132,1500.1664,-96.39139,8972.37890625
349,-22720.895,-1543.5479,-3212.5205,7944.183,10028.752,3969.233,30890.828125
350,-8011.5947,-6231.322,-27833.672,3700.559,211.54094,6030.5215,24118.2734375
351,-1215.9167,-446.46997,11829.122,2576.873,-468.36404,830.4626,13541.6220703125
352,2441.635,290.85828,-2205.4634,1587.577,11.978211,95.93577,4880.13720703125
353,785.26,-2626.8103,-3714.9631,442.20438,1114.032,-1025.6329,4899.46484375
354,-754.0322,-5940.5703,-3014.6013,-1085.6682,199.33844,782.5481,5077.2236328125
355,-1162.9803,-1767.2144,-324.56348,-355.10248,838.8041,-1227.3793,2929.69140625
356,-2112.8154,-9925.673,-23120.557,-6484.511,2978.3699,-2348.358,22528.615234375
357,-4526.731,-4928.0796,-8757.191,-557.24664,-509.08383,-475.77438,4329.91259765625
358,-29586.457,-21899.633,-26991.512,14263.014,-9322.065,-9208.178,34223.515625
359,9925.621,6609.05,6316.548,-4159.6,-1100.9868,-1018.47833,8408.9560546875
360,-5279.222,7106.438,-255.7638,4089.2874,-674.3447,70.965866,12960.2080078125
361,-5459.855,-3642.9136,5466.933,4373.4824,-1522.3202,-2829.4924,13827.3330078125
362,-1535.8425,1777.9354,-675.4385,1860.1342,-2875.8352,-840.8496,6795.7998046875
363,-7938.43,-6729.3516,-9130.82,-1153.7811,-1005.97644,-799.92664,3643.43310546875
364,-3053.495,-1058.2458,-3275.9873,741.5571,631.07,-514.2301,2848.1953125
365,-7186.4434,-4437.1943,1688.3796,791.99994,-655.3177,222.50278,8077.15283203125
366,1610.6931,-4225.46,-897.0305,-1407.5509,-398.19595,-704.42505,5798.43310546875
367,123.421875,-2088.1128,-4633.139,-748.2945,-450.19092,239.80934,4410.990234375
368,1223.7631,4888.654,-1975.7517,-85.022446,1298.9747,-397.0124,6399.2763671875
369,2086.0386,8319.797,101.70068,2578.8748,1704.0375,336.32736,9174.3984375
370,2980.6865,3950.276,-27.41455,237.41347,553.6295,916.8628,4063.97875976563
371,-1166.7485,-3866.0732,3469.8384,142.25809,3287.0496,322.65588,8607.3837890625
372,-15595.738,-15799.23,-23020.107,2352.3599,7785.701,1872.2268,16205.548828125
373,-18561.926,-18449.607,-33590.598,-229.17169,2861.03,4719.502,17863.27734375
374,-18277.191,-24606.578,-33585.06,-1101.1309,1651.1581,4833.058,16105.72265625
375,-6706.8,-7604.3105,-17770.877,-274.43677,4753.2217,3477.7512,14750.5517578125
376,10441.922,5188.4673,5934.2236,3461.9497,43.861588,938.7011,7927.2744140625
377,-2832.0781,-639.7754,-1908.8794,750.7582,1238.7056,-62.51125,3152.83471679688
378,5821.6646,174.55884,1390.7438,894.976,714.8389,531.0085,5593.10546875
379,7516.704,-9339.134,-24447.377,2429.8606,326.41452,1910.779,28213.931640625
380,15757.384,47641.39,53719.195,-6555.1006,-4759.012,1769.1423,38125.53515625
381,2568.111,2617.2383,4511.91,-92.36188,-100.34167,292.95096,1999.63330078125
382,55422.605,49540.44,18964.932,11348.1455,3725.7444,901.5114,39745.875
383,3222.3926,5302.3135,-1280.6394,-2567.598,229.29839,-231.0618,7352.88330078125
384,-20594.424,-30256.96,-1239.3516,-4464.9604,-5738.697,893.4445,28565.763671875
385,-4828.733,-4571.6406,-6545.089,-3649.6118,47.268215,1837.4196,7317.599609375
386,-10171.872,-4650.2036,-2295.16,3840.8782,1514.037,-191.31451,10014.119140625
387,13858.88,12920.033,15634.499,9.745126,-999.50806,-1516.7054,3949.65966796875
388,-16346.309,-12304.936,-21675.387,6678.0796,642.5146,2174.594,14679.3681640625
389,7654.4297,-8940.897,-5623.8096,-40.171494,-2413.6133,5169.257,18138.4921875
390,-4353.8286,-2720.3127,-3449.84,1604.1774,2177.7124,-1468.4719,5515.9375
391,-12888.488,-13438.146,-21201.639,2161.0725,6065.3755,842.7577,13832.89453125
392,-17453.562,-19475.363,-31206.121,252.14774,5997.3716,2712.4333,17192.544921875
393,-1032.8604,2054.6323,2310.9644,-1094.4366,-1112.1528,-184.97237,4218.5791015625
394,-1725.4205,521.6291,684.6804,223.93521,-175.85881,1007.0879,2954.3359375
395,523.9142,4689.539,1091.1095,-350.41873,93.27183,945.2526,4287.9375
396,2803.7764,2734.9636,-2993.2522,4763.3457,2262.2375,1489.3569,11103.48828125
397,-3086.9944,-2718.5503,-5998.988,-841.46924,1554.156,2464.7913,6106.0927734375
398,2354.9565,4738.8584,5469.3496,1614.4832,12.795547,-1362.3655,4620.2060546875
399,42530.688,6418.8506,18939.014,-8935.558,7491.9985,7238.378,39671.125
400,-4162.878,-8642.289,-1637.3733,-222.78061,-928.31586,7108.9644,13860.1015625
401,5569.047,5406.2075,7309.583,21.318365,-451.05286,-132.694,2000.98547363281
402,-4189.982,96.58581,4745.1875,1481.0142,-2407.0476,-1564.0886,9550.48046875
403,-353.68848,-4790.9126,-4588.13,1127.9658,-231.26422,-1428.3834,5378.52197265625
404,-514.7432,-1373.4934,3992.004,-2253.2573,-1749.2429,1755.0554,7653.11083984375
405,-5990.774,-6094.595,-13260.009,-671.17224,5194.862,3489.984,13074.7470703125
406,-6034.06,-1485.224,-1898.9406,-643.05896,1214.8618,-196.0717,4976.416015625
407,-494.75305,2663.5105,-8983.342,-869.65985,-1576.5913,1196.9551,11084.3994140625
408,-1907.0825,3903.9368,-1852.741,4200.3193,-584.1726,-1655.6495,9779.0830078125
409,-3748.0083,-9473.713,-12377.312,11.1664715,1942.386,3552.176,10344.6875
410,917.06006,-2446.6353,-11384.227,765.0181,-622.1947,5129.045,14251.2021484375
411,-2363.0286,-2261.6226,-2395.8252,1218.7208,1079.9053,-1088.1211,3394.27978515625
412,69627.805,69574.51,71378.875,-80.41785,-472.238,225.92206,2000.99072265625
413,-3698.9077,-5019.615,-7347.449,-353.1246,-205.9667,-1304.8333,3980.77807617188
414,102.73707,-1692.5422,2177.69,-517.7028,-184.57701,-1473.2944,4321.0673828125
415,-9922.526,-8653.505,-14638.755,4768.7446,941.55096,496.48163,10072.7373046875
416,-2293.058,485.25708,144.69849,2235.0242,342.90707,-1906.4752,5756.0
417,-2978.7827,-3012.667,-5388.7744,-2001.6965,-125.081696,-661.09045,4371.0380859375
418,-12936.39,-7464.098,-17724.61,7804.3735,-1613.0323,1419.7264,16602.794921875
419,-13907.24,-4859.8735,1168.6665,3530.3342,-79.58458,-260.32733,14503.5390625
420,10861.746,14189.719,-17540.504,9032.943,-2426.472,-1958.4883,34441.80078125
421,-4663.047,-10113.983,-12791.094,-971.96893,-636.3446,4943.664,11350.806640625
422,-11769.699,10875.266,17344.498,6115.7925,-726.0918,2184.1824,28796.583984375
423,804.06226,8794.462,922.0708,516.05835,-21.32306,-121.91411,7985.13525390625
424,1691.5276,-451.25647,1571.0476,-869.71576,351.66968,-1960.1392,4302.85302734375
425,287.8404,2535.4575,-2991.2214,3577.628,654.01465,-1202.2009,8197.0380859375
426,-7760.0415,-10590.668,-11966.876,3565.8296,361.91992,-100.28558,7236.7451171875
427,-14871.939,-15940.738,-24999.203,-35.04304,7891.5156,3625.0684,17864.34765625
428,-2598.9534,-1536.9519,-4384.3657,-948.9172,187.64786,647.11847,3205.44970703125
429,8905.638,9186.701,8128.165,7507.8857,2381.8198,-4251.5747,15532.3486328125
430,-8464.456,-7138.1313,-6102.341,-8.76636,2202.5244,-298.68085,4361.99462890625
431,543.93115,4826.926,419.9823,1360.2106,2094.0947,1583.1118,6716.78662109375
432,-790.59033,-2891.5466,-7203.4673,-565.2068,3038.673,306.17252,7810.63623046875
433,530.33594,2399.4568,549.1565,1406.714,64.71158,-253.56027,3098.509765625
434,1759.0859,-3812.7825,-5569.6553,1504.6506,403.99243,1177.9109,7440.7900390625
435,-4584.5864,-3849.0408,-5204.2964,-2049.1265,881.02386,398.17972,4096.57177734375
436,-11393.993,-14055.154,-11947.628,-1831.5482,-392.46405,1259.1025,4603.99658203125
437,65067.195,33359.277,28884.469,3348.5623,9066.131,3873.7297,38633.4453125
438,13145.549,3616.8674,14137.262,-5023.1523,-775.08984,-669.9164,13419.1591796875
439,587.5475,288.95004,2311.5894,-751.3158,-984.7769,3065.849,6031.3642578125
440,-18900.395,-18500.996,-30602.473,-417.2739,279.74127,-1779.5215,12330.009765625
441,-1379.2869,-1818.0803,-189.22594,379.3929,193.2086,330.25848,1732.62622070313
442,73.55738,777.4069,251.29814,629.6757,1769.6381,-51.52819,3315.74877929688
443,-7005.5356,-13901.043,-29864.742,2684.6548,-1601.7426,3543.7607,21896.5546875
444,-5757.64,-6477.346,-9413.633,-928.36957,-257.27078,-17.292467,3746.74389648438
445,-19432.684,-686.96173,9535.951,12827.844,-2015.3668,-1983.9896,34135.03125
446,7280.2925,11444.6,19370.875,887.89233,2845.6853,516.877,11858.96484375
447,-6738.143,-6815.5034,-8815.784,4215.451,-1789.0741,570.33563,8249.2509765625
448,-1774.6641,-4119.5933,-4967.328,-504.07147,-159.78308,913.9663,3398.54150390625
449,-3389.0464,-4695.065,-8546.299,-1267.4398,-699.4149,-295.11145,5302.40478515625
450,-2005.2802,-299.1696,1275.9524,-173.58574,-652.1748,-185.77705,3090.15942382813
451,-3571.1895,-346.4642,3495.59,3817.1204,-991.5963,967.9741,9328.5439453125
452,1018.64374,4883.8027,5582.2393,901.84045,776.61096,1104.6229,5102.6201171875
453,-4706.8125,-3821.7314,-6836.033,-1283.8666,-434.1245,228.29544,3587.22314453125
454,2989.166,-6711.709,-18589.35,3864.3484,-545.57574,664.827,19935.580078125
455,-5657.665,11127.692,-13096.134,6019.351,3307.449,-3398.6794,25260.73828125
456,-3454.6304,-1908.2539,-3330.16,-694.5065,1507.885,-37.970116,3238.33129882813
457,3164.6414,9406.778,12972.368,2682.9778,620.06573,923.88385,9962.1201171875
458,-17644.912,-11892.863,-21748.906,1838.1385,-27.135832,-364.86496,9169.1357421875
459,-8701.215,-5525.8,-10036.816,-878.5772,-612.78754,-869.9487,4671.27734375
460,-1758.062,-2501.3835,-5906.789,-788.116,-1095.9924,-35.67529,4489.03369140625
461,-8002.761,-7358.033,-15556.254,-157.07817,1744.0946,-1438.5078,8817.505859375
462,-11481.792,-6012.684,4243.1987,4498.6504,-1041.3599,-5562.8306,18654.40625
463,-1108.8373,-1946.6635,-11181.933,3688.4817,-1116.3171,3459.348,13197.8837890625
464,-9044.71,-13595.197,-30454.99,3166.5994,183.93109,3460.5771,21161.052734375
465,2874.8464,4593.763,1780.015,-609.58826,347.809,361.90695,2811.74169921875
466,-1431.9058,2279.042,-1327.1802,-2735.0762,-706.77936,-187.07782,6118.74169921875
467,1301.0425,-297.85022,-1879.9138,-1141.1895,225.64644,281.92624,3447.76293945313
468,-13993.957,22383.809,-4332.282,-1877.1266,-3609.1238,3590.3594,33963.80078125
469,-2437.2932,-3347.9534,-8372.996,-159.16888,5759.5166,-881.58185,11514.34375
470,-13765.55,-22313.854,-51305.55,10375.587,3091.3503,4654.1973,39724.4765625
471,-3027.336,-345.90735,-320.30365,1900.166,-101.895966,38.81392,4257.5732421875
472,7628.2466,5086.438,2048.8118,-4650.0605,377.46503,212.6856,9425.5703125
473,5885.005,-288.2712,2389.098,-903.745,-1120.8152,1049.8403,6186.6748046875
474,-7091.319,-12192.1875,-18974.195,-2.215385,-143.89105,454.93307,10358.16796875
475,-281.60556,2987.7822,224.98651,1174.9791,-268.56436,-213.72458,3712.73876953125
476,-5713.531,-6224.2124,-6074.97,2982.0269,263.648,-576.3633,5299.9453125
477,2086.9075,6128.209,4960.49,3346.0754,-845.71204,-209.27473,6988.72802734375
478,-9335.336,-5729.6343,-16121.823,694.3807,-1863.1884,834.1036,9872.974609375
479,-7066.39,-8886.917,-16784.906,-1250.0687,338.92993,-33.601685,9225.349609375
480,-10611.196,-19114.55,-3406.1875,-3006.8403,2402.5327,-32.622066,15163.40625
481,-8656.226,-836.83203,3003.4102,-3691.7493,-1511.8838,-1426.5327,12639.9423828125
482,-1163.8417,-7009.205,-5880.1577,-434.67984,503.1052,-760.8742,5648.56591796875
483,-5367.4526,-117.869995,-5079.7275,-523.7502,497.7789,75.62265,5264.40087890625
484,15.158799,-3182.7046,-42.212143,1225.9255,720.10626,52.281567,4014.8095703125
485,-3374.8054,-7623.3374,-9202.269,1679.1228,-457.22668,196.96643,6037.640625
486,-593.73944,-5369.3135,-4816.6377,-863.6151,-795.8702,-661.58466,5091.46533203125
487,-1581.5343,-942.37854,-1971.049,-169.17155,-525.80194,-351.69272,1447.59301757813
488,-6600.3594,-4391.7573,-7951.839,407.3747,860.13116,249.46686,3548.70971679688
489,470.67017,16354.006,11150.569,835.0251,-1694.7678,-644.3694,14445.1494140625
490,-126.446625,-1586.7814,-6073.721,2537.915,220.90749,300.71436,6968.38330078125
491,-48295.35,-39427.37,-8040.279,-4485.908,4741.354,-230.66954,38341.90625
492,3777.74,1373.648,-1855.884,4445.8267,-115.63458,684.6796,9204.1416015625
493,2878.663,-3382.1196,-5250.9497,4718.31,-998.496,650.1876,11199.8583984375
494,-1733.8844,7860.534,-2488.2297,2858.5142,1299.9651,-1083.743,11531.0859375
495,-1698.6407,-143.41527,-3780.992,-341.33072,693.1711,-369.6802,3492.04907226563
496,-3564.0938,342.02847,-2374.5615,1795.6373,882.70435,181.92613,4912.845703125
497,2767.3987,5649.022,-383.29147,559.18604,-177.78094,720.01654,5467.8935546875
498,-2268.3987,-1549.6936,112.85112,-929.3665,495.85226,105.98005,2799.63232421875
499,-3208.209,-2763.8416,-2270.0327,-2292.0532,-2796.0,328.62805,6340.197265625
500,2510.8623,328.49054,5704.69,60.293926,-375.79492,1055.4446,5070.4892578125
501,7113.5737,3.9102259,7334.416,2503.4463,394.02362,-136.0862,8455.1318359375
502,-2460.1284,-1512.7096,-1158.2413,2249.543,-654.5711,624.3879,4358.369140625
503,-11775.709,-6803.708,-15263.161,176.0001,-1484.7363,937.6711,7972.87060546875
504,-318.42825,1298.2942,5200.2695,-338.99936,-685.02155,429.1665,5143.21826171875
505,-381.17078,473.06305,-3707.5725,2682.2395,368.45374,-808.8563,6212.0390625
506,309.3083,481.3648,-8553.115,812.6401,138.74405,198.5599,9069.4091796875
507,69.75222,-448.04675,-384.0952,563.3479,-412.14377,515.3913,1580.39428710938
508,-30730.088,-26532.273,-53268.6,57.78615,-1219.0408,663.3802,25020.134765625
509,7627.242,6323.3154,38986.22,-4312.736,-1791.3615,721.76404,33060.0078125
510,-2710.2644,-2344.769,-4004.827,-772.75366,-19.47057,-689.2675,2345.31176757813
511,-1738.7028,-3648.362,-5858.9624,-311.35748,-112.1305,531.3231,3732.35961914063
512,-518.3914,-2580.4497,-2779.1492,-678.25653,838.406,336.6286,2920.63720703125
513,-1028.4658,11098.378,1625.5173,-2785.4038,-185.89449,-488.28998,12083.6220703125
514,-507.17514,-1892.1592,-1970.5493,-1030.2714,-13.678638,-268.05777,2330.96508789063
515,-3336.2388,9219.956,3895.8208,2185.8145,-605.8671,-204.99756,11606.6455078125
516,-4769.899,-4284.7153,-12011.102,-783.86694,-536.47906,-1722.1477,8233.33984375
517,-11333.199,-9503.611,-17583.342,-1018.5106,-1099.0116,-1021.087,7981.87255859375
518,-3081.6191,-6719.875,-21841.242,-3863.4832,-174.89989,35.578117,18487.376953125
519,-3628.7566,859.7977,-2775.7654,49.437595,-1676.8922,-221.41077,5063.23193359375
520,-3700.7866,-2079.509,-2930.6965,2453.645,-950.41614,301.7777,4797.63037109375
521,-4881.8325,-5862.1104,-5290.7563,771.1078,-1173.158,-365.72546,2653.54296875
522,-1686.4005,-4584.057,-2966.2349,2208.242,-875.10565,-334.15524,4856.67333984375
523,1379.7408,-3807.8455,-11421.078,4464.8496,678.4503,2163.437,14127.7587890625
524,-10486.747,-11477.48,-17995.998,-16.389112,-145.90056,354.4735,7097.3486328125
525,-2645.9338,-2534.0996,-5269.019,661.1963,720.22687,367.745,3234.17138671875
526,-2363.9995,-3919.8538,-4746.1406,-1057.5519,36.156174,-726.6762,3054.89086914063
527,-946.9398,-2299.7952,-4486.433,-651.43207,237.81189,1447.7211,4159.35693359375
528,-15228.871,-13121.654,-10743.833,1003.68713,233.97429,-360.11053,4322.0849609375
529,-28937.627,-19244.988,-52119.25,2269.4019,-1133.7369,-894.0636,29626.517578125
530,-108.35378,1726.926,-1124.0819,140.00227,147.69804,99.0536,2533.33422851563
531,-6838.9507,2617.5542,-3169.4292,2155.968,899.26337,403.98505,9222.26953125
532,3502.0762,6762.6724,9751.974,-1296.9368,85.080025,-500.80502,5927.44287109375
533,398.37015,-2922.7588,-2868.5498,6845.8613,-529.8395,-392.03192,12359.3486328125
534,-8656.627,-4867.865,-12643.737,3330.2075,-695.5406,-954.04156,9100.041015625
535,-656.5425,-8139.577,-7978.8643,1207.0151,790.0613,6.4442067,7814.24267578125
536,-11344.935,5597.915,-10464.74,-1797.4701,-247.18733,119.08181,16817.861328125
537,-4585.2817,-12007.119,-16919.559,-2433.135,-1445.2665,222.79388,11825.8525390625
538,1213.3518,-7530.6616,9481.388,382.47086,-718.86475,-479.60458,14825.42578125
539,-1498.9882,-7591.6787,-6686.1206,-1306.8789,1228.2572,121.83399,6489.8232421875
540,63.573284,-2835.8892,479.46387,642.04114,-103.69453,-43.58745,3325.705078125
541,203.12015,633.47705,593.102,-1556.5646,1207.8323,-267.7164,3468.390625
542,1926.5186,-2993.6995,-1933.9825,421.31635,-414.96402,-441.57074,4663.85791015625
543,-6612.219,-3992.957,-9597.804,-1639.326,1155.8882,-1492.6641,6507.5966796875
544,2303.027,-6740.2627,-1999.6686,-3395.5566,-292.0315,975.99286,9954.23046875
545,-13819.535,-14559.391,-14845.291,191.9017,-414.198,-537.3889,1527.14416503906
546,9337.101,9534.881,19012.22,-4814.5137,291.36752,-318.0969,12721.2578125
547,-2972.9294,221.18361,-9181.396,-9.887114,1588.9545,-996.0604,8895.4482421875
548,7681.2686,4497.525,8400.165,-522.5875,-840.4389,-375.94833,4037.837890625
549,10627.866,9025.137,9365.876,2213.7163,-254.56784,-176.78952,4138.66259765625
550,4.0187864,1663.6765,-3110.1218,-108.00616,-347.66116,-784.00446,4456.7177734375
551,-4369.5693,-10739.965,-7916.8433,-30.099503,45.664165,-441.53836,5582.2392578125
552,-2929.261,-1095.3335,-5336.7812,-1386.9265,220.67314,-59.485073,4416.11376953125
553,-8222.134,-11700.949,-18920.896,-1076.365,82.96835,233.66313,9644.0029296875
554,-2213.0627,-11691.751,-13105.989,-514.10876,380.95627,1022.47107,10469.736328125
555,2423.68,-9713.624,-2948.693,-54.17436,-585.6732,1891.7566,11079.01171875
556,3243.035,5260.509,-4557.021,-60.19456,587.7568,-694.1176,9118.12109375
557,-735.0159,-5838.929,630.3946,-1255.6542,650.3388,140.00797,6398.50341796875
558,-6084.573,-3883.9497,-3651.0017,-3581.2097,-566.41583,668.2885,6796.11181640625
559,8118.1274,-2883.8127,4359.2314,-4410.238,-377.8075,-2287.562,12972.8359375
560,-18894.572,-17252.494,-32748.502,3441.9963,1573.7628,-1447.8015,16329.0419921875
561,-236.04805,2133.9028,3257.5806,2763.6965,794.1164,488.05432,5921.392578125
562,-11081.057,-3869.45,-3522.6594,-4089.1682,354.49222,-502.01385,10292.005859375
563,-550.97,-909.9762,6935.956,-2966.2144,-1160.5673,672.82794,9521.8125
564,-3779.3455,2612.574,-7683.161,1219.4105,265.9188,534.20337,9304.7529296875
565,1841.4739,2882.8228,-3046.7385,6.6896124,916.94836,-2238.4841,6901.037109375
566,-3771.8806,-542.1063,-912.138,1789.0968,-1175.8351,30.231888,4808.98681640625
567,-5084.5586,-5220.629,-8210.099,-1046.466,-1386.6433,-956.6763,4600.16552734375
568,-6139.092,-7995.411,-13757.024,-665.202,991.9341,202.37096,7193.02734375
569,4973.4956,8411.416,16554.092,6574.143,-2192.1672,6799.978,19720.80859375
570,-1587.1102,-6858.8374,1954.2673,5612.3936,-3965.2837,-3021.4502,15101.537109375
