Element Label,S11,S22,S33,S12,S13,S23,Mises
1,-28917.904,-8270.354,-25407.348,-2806.3826,2723.142,-2770.3623,20858.08203125
2,17218.14,-8310.203,8313.288,6465.1143,-1799.6846,-6448.2285,27631.779296875
3,-1113.8871,13189.499,-20490.312,834.1884,-156.90569,2740.4497,29696.345703125
4,-2310.579,7993.3867,29478.008,-8446.931,4168.9175,7655.213,35087.54296875
5,7102.5215,-3971.5308,-531.40295,-6311.2603,1500.8159,-4861.6143,17132.78125
6,-2101.4177,2098.349,4934.6675,-6517.4795,-5308.204,-1177.2477,15928.466796875
7,-5279.0015,1228.0886,-2351.4495,3571.3276,-2783.7314,2147.9478,10354.4482421875
8,24315.752,21111.197,15970.341,-1167.1998,-2163.184,1903.5992,9064.654296875
9,-21406.678,-13710.293,-13525.157,2327.0564,-152.9871,-338.60495,8795.068359375
10,9189.398,8010.419,-6702.633,-10372.63,-5576.4707,-4546.2188,26707.302734375
11,-4255.5244,-3121.317,-12055.706,-1172.4196,-2276.7437,4896.758,12750.8974609375
12,11344.135,7822.875,11528.895,2090.255,7190.121,-2544.2095,14167.0048828125
13,-1512.305,-336.12207,-6442.3857,2702.3428,-10892.349,11286.738,28133.5546875
14,6090.6714,22676.584,5210.109,-7950.363,3170.3503,-1759.6476,22793.421875
15,13.8859005,-8247.288,1079.2799,6648.6763,-2900.2888,-647.72296,15404.279296875
16,8459.891,18945.75,4314.651,6294.1025,-9864.965,-5967.3994,26234.17578125
17,-5911.241,-15290.808,-7160.613,-2189.219,4028.629,-6329.814,16158.15234375
18,-4147.477,304.2152,-4530.484,569.3033,1173.1547,-1042.5991,5480.10205078125
19,4783.4697,-376.50293,13213.209,2174.9211,3675.766,-4070.4033,15672.01953125
20,8754.745,19879.71,7041.6704,6467.053,-441.40186,3830.7737,17771.740234375
21,282934.38,282764.8,284695.66,-198.51845,-97.22393,-377.59586,2000.95788574219
22,396.11316,2965.2598,1371.0194,1934.7426,-4082.5203,662.66943,8221.5732421875
23,-7531.8604,-8306.786,-10411.742,-6138.049,-1907.4823,4424.5615,13759.9111328125
24,877.4515,2910.956,1947.8628,481.79913,-57.88531,253.81422,2000.98547363281
25,553.9326,859.4176,613.15076,903.73303,-696.5022,-80.95089,2000.98547363281
26,8656.585,13196.988,12123.193,4284.3496,-3037.4197,-2717.1748,11035.69921875
27,3566.5603,-4656.893,238.71384,590.3211,-940.0202,-2502.1536,8591.392578125
28,-3360.8281,2484.647,-4559.561,915.8017,-6278.0835,2145.325,13310.8994140625
29,6892.605,-629.8774,-2787.9841,55.342236,-6240.45,561.7309,13973.7236328125
30,1183.4568,-870.9819,788.08496,-17.90028,-375.10648,-73.25093,2000.98559570313
31,3144.3752,826.4362,17252.154,358.28558,-2317.2646,-826.6814,15988.986328125
32,4382.7783,3717.8074,7194.3145,-1828.3387,-2071.0793,-962.77936,5991.1533203125
33,3449.6443,18123.637,4893.1733,-8587.263,-9190.503,5394.698,27534.6171875
34,10343.986,7202.4546,16406.838,11784.213,-9779.62,-2073.3806,27965.9921875
35,4775.645,14909.285,13593.061,-7503.9175,-2950.2869,9704.039,23845.943359375
36,7770.3135,-10086.043,-8975.72,10774.19,2395.856,5868.15,27731.416015625
37,-2178.7183,-8549.423,-7713.021,-501.12228,5050.2075,446.99615,10668.8125
38,-34724.066,-31538.533,-41334.84,-2005.5306,-7005.78,5136.9126,17702.591796875
39,-3143.9783,-2800.1445,-2918.7268,-1027.3906,-190.74812,460.68185,2000.98559570313
40,13719.166,13080.123,13393.538,-878.49493,-489.5198,470.27466,2000.98547363281
41,-15477327.0,-15476958.0,-15477147.0,-510.27615,-819.4748,-607.1032,2000.90625
42,1330.2465,829.51917,18.852615,762.23615,554.3182,91.82267,2000.98547363281
43,8686.579,2402.9475,395.37997,-305.2565,-1109.9067,-4710.8384,11255.23828125
44,-4487.6655,-3492.5037,-4315.7544,-557.066,-218.05396,-832.96893,2000.98547363281
45,2177.7107,9440.155,6765.311,5739.895,-684.1985,7174.8853,17180.00390625
46,16796.79,10507.693,22734.543,456.7168,3600.3098,-7357.701,17722.091796875
47,-5082.88,-6704.993,-6160.334,-1231.2666,-1663.4572,588.52783,3991.59399414063
48,6813.924,4094.9768,13406.83,211.45607,1164.8925,-1736.3538,9057.2998046875
49,10998.939,4556.1973,20321.137,1442.0756,1.694634,-6410.511,17832.4296875
50,10377.483,8216.916,15394.697,-4101.654,-144.43866,-11026.052,21352.640625
51,2263.009,9653.705,12670.546,1242.599,-3666.7473,-6092.3535,15567.2041015625
52,8462.812,12031.618,20192.951,-5284.4404,77.13264,-11446.463,24193.55859375
53,-1750.3833,-2017.2938,4570.2295,1064.8702,-3203.7332,-10242.833,19764.83984375
54,363.26315,1268.9052,10357.986,-456.74927,10789.569,-8886.274,26046.70703125
55,14504.818,9836.099,19533.645,152.07722,-4868.7026,-6282.6665,16129.5419921875
56,23285.68,13630.941,20905.18,-2069.972,851.6003,-7828.884,16577.150390625
57,8653.959,15089.078,14879.0625,-2259.7722,1394.4706,-2922.6255,9321.0498046875
58,-7190.936,-8094.0845,-4833.4575,3689.208,3091.3745,-6433.98,14219.4013671875
59,-11662.499,-5074.5415,-7691.0103,568.5925,2785.676,-1725.4086,8135.77734375
60,10210.273,13741.35,15503.187,2868.1472,-731.103,-11049.017,20354.8125
61,102.18427,1353.8271,2484.5742,-2683.506,2575.0415,391.68506,6798.29931640625
62,-1830.6172,2786.803,2123.8147,-2942.624,1776.6558,-3731.4265,9793.67578125
63,-12477.172,80.14687,-2856.7788,9656.058,8075.8535,-12276.031,32510.171875
64,7265.306,28531.71,37330.03,-1297.9281,-10159.139,8358.013,35228.203125
65,-3459.7407,13230.6455,4247.245,-7999.053,4932.2344,-3665.2974,22684.193359375
66,11195.469,14934.157,-906.68866,3473.1968,579.3928,-9108.081,22175.52734375
67,-10677.722,1042.7014,-7920.0767,2230.3083,3246.633,-4733.2236,15046.8291015625
68,5165.1084,14982.681,4057.779,1509.8356,-995.09485,-17.06974,10876.236328125
69,7984.008,-9252.762,3891.7134,6091.697,1683.6665,11884.119,28050.712890625
70,8110.4272,3205.1973,8963.531,6194.0166,6262.7207,1133.2368,16296.8994140625
71,8810.744,3812.6006,778.2312,2187.5947,2562.6462,4006.3992,11470.2626953125
72,8352.606,26814.922,23178.78,-2796.8525,5905.511,881.62836,20429.6640625
73,-9226.492,5660.326,11486.022,-1327.0592,1601.3594,1029.5687,18932.47265625
74,-20362.459,7655.805,-11165.751,9412.241,2150.3606,3292.6272,30398.912109375
75,-6138.5415,-4127.8604,-2452.4363,6049.6626,12026.817,-5488.846,25383.638671875
76,14185.1,16184.453,15592.69,1648.3895,5415.374,3063.943,11289.734375
77,19874.244,3343.5178,-712.829,5209.124,11067.498,-9218.05,32566.302734375
78,8670.4795,20980.719,10004.216,-1412.1792,-2462.3774,-2724.1785,13540.248046875
79,2959.11,6746.335,-3863.2917,2021.5603,9335.916,4864.2783,20771.32421875
80,6472.3955,3762.897,14774.872,-669.5173,-1318.7592,-7305.525,16292.3994140625
81,4291.762,2334.809,12367.177,-1628.2083,913.9881,-672.3671,9831.619140625
82,10205.807,24550.031,27045.934,-2236.406,2945.279,1793.7064,17276.25
83,-107521.586,-106753.55,-108730.44,-394.5196,-257.3015,339.5234,1997.75598144531
84,-24377.43,-25127.486,-23714.07,-72.670975,199.928,888.25995,2000.740234375
85,18865.322,17128.008,16952.236,-149.94908,-177.04123,-403.29083,2000.98559570313
86,3129.7466,1693.6013,2477.0342,-424.75488,-580.3936,547.9545,2000.93469238281
87,-12918.257,1161.9454,-8764.327,-8837.095,-11623.833,-5695.7896,29899.302734375
88,-31361.57,-13558.981,-36796.156,-2096.2651,-5179.095,2649.8486,23620.62109375
89,9293.346,-14433.51,-2779.1707,-2165.0295,-3968.5764,13621.85,32252.77734375
90,4094.2397,14938.595,16976.299,-1671.1714,-1411.468,11393.765,23402.107421875
91,3560.6108,15555.119,10919.027,-1044.6915,3017.375,14046.306,27059.89453125
92,3898.5981,758.54095,22281.809,3258.7634,-343.66556,2419.297,21337.728515625
93,23183.242,12806.609,28343.2,710.9343,-5386.2075,7470.9307,21067.439453125
94,-4318.9756,-56.16837,10306.533,1114.62,3921.8547,3155.8516,15794.9189453125
95,10790.8125,6998.537,18444.832,-4161.5776,-12.592612,-14.340688,12407.6103515625
96,-10089.462,-6417.617,-8250.439,-614.34564,3949.5178,-1311.839,7950.02783203125
97,2464.1772,6023.872,-425.23248,-4783.258,-481.51263,8065.4707,17198.697265625
98,4463.6323,9320.772,2644.778,1457.0847,502.8384,-2228.9949,7600.49658203125
99,24573.146,18510.625,20273.297,-3315.6433,2357.0867,1253.2571,9139.74609375
100,-10882.931,-6306.4766,-7635.716,3617.4084,3437.157,-2877.2834,10777.892578125
101,2252.6616,6886.24,15701.9,-3669.2458,-5711.7324,15003.892,30881.16015625
102,835.44916,7218.299,3884.3262,4885.0425,5503.978,-10133.049,22384.91015625
103,5394.037,840.883,11421.332,-1867.2361,8237.558,-9963.378,24420.09765625
104,19309.64,21264.803,12540.16,682.12085,-5578.0757,-15210.838,29184.470703125
105,4052.1726,7322.5034,6095.0933,-85.72263,-6724.0703,-296.5537,12004.69921875
106,13130.372,18469.307,12747.9795,-1218.3693,-718.0079,-653.8703,6162.34814453125
107,695.11475,4776.13,1725.7345,-3738.8667,-1119.7279,-4699.675,11201.3603515625
108,3433.6382,-1999.995,14909.585,-4145.451,-7208.8955,-6961.8384,24009.12890625
109,3304.9685,15826.948,16501.691,1880.433,7261.792,-996.39233,18370.947265625
110,36279.227,35386.15,35075.65,-205.76108,-948.9107,-29.799227,2000.56762695313
111,5171.319,4999.1675,5348.801,323.59772,934.69806,-570.70874,2000.98547363281
112,16654.25,16408.496,15143.868,-249.7923,-357.92688,-698.0813,2000.98522949219
113,227.27832,14054.438,29428.898,-4759.866,-8303.461,5860.2607,31905.9375
114,7756.3613,22959.648,33556.1,-208.93997,-7541.162,9595.636,30846.275390625
115,10695.205,7540.346,20947.639,3726.494,2898.3,6173.3867,18127.419921875
116,2643.115,-306.23764,3312.1565,250.8765,-6364.7515,3613.1538,13114.998046875
117,7265.7104,10377.14,21382.727,-4603.274,1247.373,4734.3784,17335.751953125
118,-151.82497,2019.0016,17209.932,-8292.216,-1300.8645,3994.0679,22971.083984375
119,-9018.741,-6760.924,-10008.036,2544.9294,-1374.1843,1602.9894,6412.01708984375
120,2168.8333,-10962.543,11656.307,-4544.9756,1507.491,-408.09607,21361.564453125
121,5030.9404,4428.663,4245.2334,-883.9832,609.83673,111.2067,2000.98522949219
122,13607.228,24968.715,30676.982,-446.3041,3381.1887,-2486.9854,16732.373046875
123,5294.227,1013.23,15950.75,1076.9775,8119.237,1242.3834,19580.224609375
124,3065.7358,-814.91626,12744.573,-1112.5498,3803.566,-10059.241,22293.03125
125,3838.2334,15592.458,23597.887,-479.6314,-6415.5303,-1636.0787,20701.298828125
126,4272.085,-545.53015,11175.024,2915.2822,-8473.818,-1564.6389,18771.611328125
127,-38254.633,-39838.93,-39144.61,468.30075,-614.7436,325.94824,2000.60998535156
128,-11130.551,2915.456,-23314.428,-6718.8047,-3549.3596,6434.54,28535.990234375
129,-3644.9219,4187.7383,3504.738,-3214.1614,-13401.557,-6875.8306,27714.546875
130,-8819.934,-9348.702,2608.078,2063.109,5611.6953,-8268.511,21195.97265625
131,680.93774,15671.078,-7467.1245,-505.50293,5712.862,-2789.1538,23135.4921875
132,-1731.1085,1461.7032,11669.758,1375.6578,-5734.9404,3075.3984,16724.5625
133,31205.75,33688.027,35865.664,5263.581,7121.825,7309.1304,20294.248046875
134,1416.9191,1279.7661,920.6191,1013.0746,-347.7273,348.8941,2000.98486328125
135,-3631675.0,-3631668.8,-3633072.5,41.981853,488.31793,663.63245,2000.91345214844
136,-1977.3544,-617.44147,-1328.3296,-805.015,-16.657007,472.9274,2000.98474121094
137,-10919.502,-2771.5713,-15126.994,4794.186,-6939.8237,6611.3833,21516.072265625
138,7034.3315,13569.717,24517.004,-1974.9642,9313.27,-513.512,22512.27734375
139,7597.744,9048.653,22180.82,2777.042,6729.283,-4181.3657,20125.845703125
140,17691.762,19140.074,33133.902,1088.3075,-2033.6833,-555.159,15332.244140625
141,4487.1807,-11497.29,7002.3594,7281.297,738.2891,-6342.352,24153.603515625
142,12476.106,20994.838,17404.354,-572.3435,15515.108,-1077.2529,27955.212890625
143,1832.8679,11247.33,6958.8833,-1847.9017,5796.643,1276.0176,13512.2744140625
144,8285.713,11191.176,3001.0007,-3841.4565,8661.168,-5224.4595,20073.046875
145,1987.2413,9799.767,9271.13,221.00798,748.7852,-6380.3047,13458.7685546875
146,6818.8525,-872.97363,4817.407,4275.42,5489.0127,-2540.3286,14572.591796875
147,-13040.279,-14990.1875,9593.6455,-7331.6777,1741.8021,5713.812,28784.298828125
148,10647.828,15489.3,12807.385,-1143.7594,8899.868,1714.5476,16371.15234375
149,15080.291,9272.562,24900.79,3358.857,6544.515,2082.67,19040.9296875
150,10987.365,1135.6707,22844.01,-2735.5527,5346.3,-276.22287,21514.4453125
151,26658.734,12349.714,23178.47,-1276.5015,3197.8074,-5955.545,17579.333984375
152,787.5709,761.5031,28.531864,-549.50244,-29.872913,-919.8494,2000.98425292969
153,8989.948,5994.2017,11751.785,-6875.422,6281.006,-9893.194,24055.544921875
154,13695.053,2442.1846,7314.52,1955.2253,-739.8799,-2380.5771,11209.4326171875
155,12778.218,13846.239,13162.876,-427.87878,-971.32336,-4916.0435,8761.2734375
156,-3855.2883,-4328.9517,-3976.3616,-111.28393,-1049.7178,399.74994,2000.98522949219
157,6288.7188,408.0544,7171.9526,4671.1865,351.1568,6675.948,15494.8720703125
158,9707.722,-1170.3059,2662.2131,2867.68,86.33416,5162.307,13998.95703125
159,3475.7297,12859.292,12153.288,-2505.723,2056.791,13059.1,25001.4453125
160,6938.873,9112.411,9121.278,-352.74796,7378.405,-4765.8354,15381.126953125
161,-16953.918,-15966.037,-16531.553,813.5626,593.51184,273.53296,2000.98400878906
162,-16698.674,-15474.158,-15825.785,-945.4806,105.59463,179.01233,2000.9736328125
163,8589.589,8148.1636,7846.947,-1002.36304,309.1457,307.94046,2000.98547363281
164,29208.287,23025.678,18677.436,6362.6343,1586.4926,4187.642,16297.994140625
165,22848.283,13050.896,10031.589,3555.8079,-11843.849,3829.9822,25247.85546875
166,-11350.767,-6026.7495,-126.57769,-5268.8022,-4911.3643,-6267.397,19184.783203125
167,-20104.934,-20747.135,-20147.268,1019.1443,-183.91133,-364.85785,2000.95654296875
168,8344.132,8850.809,9703.121,-882.797,99.39019,-271.554,2000.9638671875
169,6933.6978,5945.6196,3869.0845,3608.688,988.42255,-4824.826,10916.7646484375
170,9042.963,6844.0728,15584.663,3983.0898,-7168.4434,-7412.4595,20702.703125
171,11848.876,13146.774,16960.701,4439.1196,-5946.0044,-5758.115,16906.525390625
172,6502.213,12521.759,19547.258,2377.8408,-3687.672,-1741.926,13955.1044921875
173,-85227.93,-85425.57,-84669.84,-1061.1259,-139.15244,185.3914,1999.99670410156
174,10730.421,7317.855,18051.082,1310.9832,2143.3284,-4733.456,13280.6005859375
175,33880.547,10211.083,31140.398,1114.9619,-6223.8037,-500.1796,24971.609375
176,13914.8955,5320.791,1263.9918,4954.033,4722.673,-975.49036,16388.220703125
177,4324.49,4523.0405,4118.0664,96.49646,1112.8612,214.17276,2000.98571777344
178,12444.53,-1534.4487,3587.7336,-1820.2162,4110.0933,-1991.405,14918.4775390625
179,-13288.949,5577.0156,-873.5978,-869.8966,546.30536,-1186.0854,16829.2578125
180,6010.2095,664.009,1680.479,-2060.079,4635.809,-9153.946,18782.146484375
181,1853.0996,-6132.7197,6851.101,9529.334,6058.0796,-8771.156,27239.5234375
182,-760.0301,-4175.947,7843.563,4068.5085,8438.024,-9012.431,24940.1328125
183,-2963.7903,-2163.7297,15695.5625,-8863.448,-12060.249,4205.9873,32542.046875
184,17629.135,7630.217,-9811.03,-3068.971,-11477.33,-3948.6882,32385.00390625
185,6046.24,-7018.483,-16809.826,620.7799,3893.2607,6529.9185,23854.279296875
186,-15084.444,-13994.37,6513.971,464.78613,14073.967,-5297.3794,33514.18359375
187,-19957.39,-20466.87,-21605.281,-332.62476,271.09787,648.257,1987.12316894531
188,36447.168,37262.74,36268.75,-224.4617,-950.1136,-317.3573,2000.98571777344
189,30300.424,33319.918,49542.125,-1264.422,7891.096,3748.371,23558.767578125
190,13635.936,25970.473,15619.09,-266.5377,6860.582,-2094.0347,16916.951171875
191,2155.8447,23708.893,94.79376,-2874.1238,3543.6333,1050.056,24061.69921875
192,-22466.354,-21582.252,-25461.205,-3475.53,2489.1218,1277.6722,8492.40625
193,-2626.626,-11533.368,-5266.377,-10569.175,3669.5508,5037.986,22681.486328125
194,-613.49677,-14239.146,-19216.31,-8365.405,5754.0283,6029.093,26392.498046875
195,439.04898,565.4735,-16975.69,-5340.684,4153.0054,-1504.4618,21203.5859375
196,-2697.9219,-6559.9897,2143.6292,4731.542,3073.5679,1605.9266,12660.74609375
197,10857.47,-22495.623,260.89697,11.933794,-1255.802,2140.885,29829.00390625
198,-9473.928,-21568.549,-21037.188,9613.761,-3399.252,4350.462,22557.771484375
199,21659.428,450.87463,12812.651,-4701.978,-5735.451,1193.3032,22577.083984375
200,6725.4814,-26211.629,-11663.483,8327.552,5806.094,-6998.6113,35685.37890625
201,-4057.005,-19412.0,-16532.768,2658.5796,-10369.454,-2524.0835,23722.333984375
202,21724.498,-408.40784,-1165.4373,1046.6769,8670.538,7298.1636,29929.99609375
203,-9919.356,1607.0653,5659.246,-991.66516,-7589.463,5753.2256,21703.330078125
204,7014.986,-6614.778,18554.756,-12162.66,9593.031,2243.625,34802.1875
205,-5340.247,5277.9204,-10248.373,-9910.474,9410.746,-11290.878,33641.359375
206,-5259.8647,-1728.0293,-5293.7,-4076.7258,-2131.593,10156.45,19635.302734375
207,-13721.966,-18709.41,-15708.789,-8887.763,-2364.9412,2407.913,17031.232421875
208,10552.939,-12148.014,5598.0635,-8249.877,-5566.369,216.02849,26919.853515625
209,7222.3916,7828.2437,5676.9033,128.4941,-52.727234,-291.05716,2000.98559570313
210,8038.3584,8640.331,6925.9844,782.3015,-163.24556,-147.45494,2061.68115234375
211,3230.633,4991.026,3081.79,416.8874,68.88734,168.4841,2000.98522949219
212,22413.586,22814.795,23504.273,-81.301414,-11.907746,1011.71704,2000.98559570313
213,8085.4756,9747.628,7602.804,203.6415,-163.5,-20.10693,2000.95336914063
214,-71563.42,-70825.555,-69907.945,-524.0132,-451.72754,-410.07217,2000.98706054688
215,4533.629,4575.428,3303.9753,58.202225,897.9399,-56.424,2000.94860839844
216,94601.1,95716.45,94876.89,393.23145,917.655,-1.7127993,2000.66015625
217,6313.979,4386.923,4753.8433,-6.623457,-529.95917,81.93856,2000.98571777344
218,8220.3955,8740.242,9224.923,-726.3578,41.348446,743.61975,2000.9853515625
219,3617.8677,14907.9795,23641.031,-617.38306,4873.924,2079.6152,19690.43359375
220,2605.4348,3390.608,2803.6724,720.61816,-792.66113,142.5865,2000.98571777344
221,23202.201,28394.05,20250.205,3734.0347,9585.141,-7278.2334,22964.490234375
222,-20873.467,-16915.225,-25631.205,140.28876,-14390.984,-7013.87,28741.599609375
223,1605.6241,5260.1484,6730.582,-5522.2505,-2894.3716,-2408.0203,12446.0859375
224,8641.179,9148.889,10100.022,-9431.068,-5880.5522,4748.677,20973.1484375
225,-5418.332,-18321.56,4346.47,-6972.2773,5358.069,1982.094,25131.509765625
226,-1321.314,4234.4966,4158.1406,-4246.2983,-2367.0154,12400.279,23720.263671875
227,-4044.0103,-3511.383,6501.3394,-3414.0925,-1016.0173,-1516.2476,12281.421875
228,-7999.921,-3571.4421,-5103.4956,1589.1407,-920.48486,-5655.943,11011.857421875
229,10228.502,15337.514,22701.258,-1023.37994,-1765.4197,-1589.7843,11748.2958984375
230,12461.81,2888.7566,10629.675,3028.0583,-2721.3162,13737.712,26331.71484375
231,-19910.264,-3826.9795,8555.685,-3633.8584,3791.196,6021.783,28331.5390625
232,8052.7812,20180.445,2589.3877,-4940.104,1730.0153,-1900.872,18336.296875
233,11399.186,7094.7603,27453.547,10117.468,-8678.395,-245.1552,29640.998046875
234,22275.451,16060.538,24919.678,-6337.9937,4.43559,7145.026,18322.5390625
235,5638.7007,9584.706,6866.0205,-496.6174,1406.7974,1128.5009,4767.80126953125
236,5843.23,26032.396,9389.992,2583.184,-7130.821,-2151.9138,23130.765625
237,10164.725,183.31322,19848.178,-4613.0327,8847.331,8475.715,28358.978515625
238,21493.473,8490.423,18440.852,-975.08295,-7081.0244,-8070.3555,22076.490234375
239,-7021.504,14248.914,9060.432,-3800.3494,-3296.9065,-15687.988,34398.625
240,891.06305,11308.64,-3786.7239,-7796.353,6668.544,2996.2964,22843.59765625
241,7080.281,26311.773,22324.86,133.13661,-3784.5225,-14723.336,31661.0546875
242,-4011.9783,-15247.23,-21049.15,3904.9863,5061.3613,7394.456,22621.052734375
243,7969.3784,-13832.905,-4620.689,1343.0854,1646.2676,1644.116,19519.4453125
244,-7724.486,5642.5264,5094.81,585.63556,-5308.9062,7056.9565,20165.31640625
245,5127.2563,-11810.066,-10626.786,-589.23517,5904.198,2549.757,19833.19140625
246,22344.38,26021.895,22950.557,6165.2827,-428.97092,-3749.617,12977.880859375
247,-2851.232,11166.034,6575.983,1233.3359,4937.597,12915.6875,27043.673828125
248,-584.7855,2526.3713,13441.13,-4608.0703,10068.328,2579.1548,23463.623046875
249,8727.384,-1010.7373,15933.243,-364.01022,3758.237,-3002.3577,16933.396484375
250,-1145.3419,-9608.438,-195.74066,2822.3745,12039.092,6755.647,26003.75390625
251,-2334.8853,-2498.0798,6856.8613,-1780.2206,4886.4478,-1541.6998,13201.70703125
252,14306.631,-4269.8447,12463.619,-3360.6055,-976.3231,-10610.676,26243.9609375
253,6170.186,14752.411,12802.296,1610.4058,5890.571,-1335.9329,13339.8671875
254,-14244.269,-15824.493,-29822.22,1836.8708,-9403.411,-7974.832,26205.755859375
255,-8385.496,-19584.29,-9437.796,1799.6489,2077.5906,-3913.2268,13540.3544921875
256,-3251.706,4713.5107,10101.041,-7963.7617,-223.97318,-3886.2239,19264.1171875
257,-12206.187,-10941.709,15247.398,-6560.4634,2569.7593,-14575.251,38817.875
258,-6053.6484,8949.382,8020.7485,346.00287,-1308.5424,-6476.683,18529.955078125
259,1822.4104,9706.517,1547.7782,-2908.2656,-5583.836,7863.8613,19205.009765625
260,-7137.5806,9306.219,-4550.1846,-4618.902,-15637.896,6034.361,33784.92578125
261,-24306.8,-11707.213,-11949.01,-9436.045,-16314.622,1675.9214,35068.578125
262,-16170.503,-1075.9081,-12185.709,-8317.609,-3906.3848,-2494.8904,21344.2578125
263,2851.6611,1551.0516,13826.837,4469.53,-1397.6504,-11915.405,25062.751953125
264,-17094.928,-8425.615,-13798.413,313.74747,-3049.7725,-10387.923,20232.91796875
265,-5358.9287,-5527.2993,-22362.684,5958.719,-7637.05,-3444.5237,24563.79296875
266,-3816.693,-6600.934,24224.066,487.90527,-10174.912,5545.3774,35716.41796875
267,-5283.266,4464.8853,22271.268,-5209.6743,-640.40924,-6311.8594,28068.5625
268,-20572.031,-17021.96,-22337.107,7904.0166,-1105.1956,11229.809,24318.619140625
269,16786.277,10337.297,6971.219,-8659.414,-2259.334,-6393.9224,20917.564453125
270,-2449.5742,4327.6406,-17287.059,-3570.1343,9295.191,336.39377,25776.291015625
271,10783.165,2179.2175,8809.364,3748.8484,-11685.111,-3586.722,23480.25
272,10528.803,21022.896,16913.812,-2849.8416,2500.9294,-7458.3965,17143.548828125
273,-5945.298,3221.0022,7952.9023,-6609.2427,901.5049,-4461.3237,18519.734375
274,-15690.487,-10153.07,-16552.19,5958.2,-5375.681,-7100.2783,19509.3125
275,-7458.1733,-1251.1345,11178.582,8463.109,-2272.427,-1054.7191,22447.2421875
276,-18604.164,-12215.269,1527.2638,-10533.133,-332.63693,1240.8876,25598.1796875
277,5945.441,8627.07,36641.69,-324.40002,2084.794,2078.111,29890.556640625
278,-7556.783,-7688.973,-2025.4667,-475.69888,1017.0485,3525.6443,8509.7978515625
279,3070.462,-28937.918,-12101.327,-14578.845,4747.9355,-890.917,38428.28515625
280,-9766.209,3391.5332,-19561.213,-9535.391,-1614.0975,4114.5845,27006.013671875
281,3928.856,2712.6372,-10590.776,2818.032,-1867.7516,-7296.261,19713.841796875
282,6882.3877,-4371.7607,77.76088,-8642.188,2246.6086,-7465.9766,22423.314453125
283,-21933.87,-3762.7065,-29488.555,-4801.122,15235.761,-4551.8423,36772.77734375
284,-2000.0935,11824.895,2542.4673,-3314.1663,-1251.7269,1436.5522,13885.4921875
285,13350.75,8263.595,-2631.3547,-8732.231,-6615.4395,-12134.382,31650.919921875
286,-18896.51,4964.326,-7409.707,1975.9415,-8786.65,-9377.945,30567.427734375
287,-14073.051,167.1561,10578.674,2943.0344,2088.4075,4763.4785,23803.072265625
288,-20446.947,-8567.237,-33884.184,-4406.4434,-2515.723,-563.255,23653.876953125
289,-2107.865,-1358.0208,-2663.5908,-295.5692,901.6121,-71.50892,2000.9853515625
290,62.15796,-12746.572,3246.1729,-12251.79,-4338.789,138.1499,26867.01171875
291,-3342.4126,5606.184,13601.375,-8248.297,-4008.6372,-3441.2803,22436.224609375
292,3029.5193,-12341.737,-27682.986,2484.4114,-3930.171,446.3865,27801.029296875
293,-19300.084,-14173.849,-26856.758,-13337.116,-2219.8403,-7505.517,28974.75390625
294,3454.0222,3821.5044,-4646.8013,-8619.941,3278.3708,-3508.037,18994.935546875
295,-1430.7299,-11459.525,-6504.6777,7199.3506,-4165.1396,-3768.9978,18044.091796875
296,3609.2485,8248.17,8133.418,4219.229,-2329.7415,-7107.5864,15564.1435546875
297,-1606.677,11636.935,23606.18,1435.2134,2165.2834,11295.741,29668.134765625
298,-3289.584,-11921.668,-15453.953,-111.03262,4699.976,1867.2699,13937.2626953125
299,14813.675,16651.951,15369.82,645.5738,11.569878,170.3266,2000.98486328125
300,7267.4893,5829.9873,6082.754,-513.06915,-666.83325,194.31306,2000.9853515625
301,41256.406,40256.582,40165.99,914.3748,-324.603,164.02551,2000.87280273438
302,28251.824,21536.166,15907.839,9770.338,-459.27344,3411.8538,20892.8125
303,10351.127,8106.086,22574.035,-1566.1768,-7039.4023,10204.911,25501.36328125
304,5755.8003,-6340.778,20951.547,-9527.597,5470.594,-2681.5564,30736.529296875
305,7531.4653,9533.025,14955.316,5448.9604,-2643.5051,-10742.834,22372.390625
306,2869.8562,7840.44,8881.595,-6225.5054,8740.638,-13529.354,30423.068359375
307,6696.7793,5288.3057,20764.898,4557.976,4881.6343,9694.227,25208.3515625
308,4311.9824,6224.3066,-2981.73,3575.1265,-24.951021,-1103.2711,10620.79296875
309,-4502.4917,9343.107,9466.509,7028.3345,6290.9478,-3020.733,22084.37109375
310,-784.96814,9781.722,7113.472,1643.4642,226.46361,-660.0121,10007.1748046875
311,-15370.57,-945.75244,-29.984987,-2680.015,148.0902,-3651.7544,16844.669921875
312,-14060.736,-4429.67,662.8628,-1831.9958,2148.1335,5407.7363,16714.685546875
313,-8632.853,-4571.6855,10701.528,7645.4614,-2973.0273,-4845.9014,24168.48046875
314,-13423.6045,4561.8394,118.067406,-5243.4824,-2895.7046,4822.4443,20992.990234375
315,-1582.8464,2835.52,-760.89716,-1931.9548,-2288.8213,-4826.8037,10647.6962890625
316,-7819.5884,-988.8877,-8664.171,4681.718,7698.079,13743.222,29382.0703125
317,-2211.3198,-2452.1875,-5318.746,-13242.659,6401.18,9168.23,30168.9296875
318,1734.776,6799.5894,2011.9316,-4875.576,-6187.7114,8204.943,20309.251953125
319,18818.287,12374.27,22553.016,4650.66,-2355.4917,2719.7236,13537.423828125
320,-7829.8594,-8339.09,-25392.26,10904.789,-8693.987,-3155.1882,30217.859375
321,-3345.1545,-15234.502,6518.807,-5406.576,-3240.9553,-5415.684,23730.23046875
322,12006.466,13740.037,11658.854,-166.19685,-68.257,243.6599,2000.91625976563
323,3146.8708,1703.8435,3804.616,-188.70453,359.3717,123.24778,2000.98559570313
324,14194.962,12763.881,13841.459,469.6908,228.41035,-710.6331,2000.1015625
325,-89578.484,-89359.99,-90577.56,-799.1493,-474.04556,-223.36177,2000.98327636719
326,34020.223,33168.223,33458.344,-393.96866,449.74966,-874.0586,1981.73779296875
327,5082.033,9885.945,-3565.3105,-1121.7572,2749.34,2117.1829,13390.080078125
328,-844.213,993.1932,695.6449,-4975.0083,569.88354,7127.02,15183.1328125
329,8519.098,10934.032,837.336,2691.4778,-848.12415,1426.8832,10648.4931640625
330,12449.717,12708.184,12031.509,-2628.67,4408.2065,-4270.2046,11579.3056640625
331,4336.776,24885.668,11321.901,-1912.5793,5679.0903,-8168.836,25207.77734375
332,-5762.2256,2468.769,-3748.346,-7325.2104,4453.846,3128.227,17466.326171875
333,-14102.939,-10702.126,-18430.014,-660.8882,6237.0796,-6376.3447,16881.69921875
334,7752.909,231.18367,359.43808,-3730.0547,13486.104,-7805.0044,28735.818359375
335,6450.092,4587.457,3190.8445,-4697.052,4458.074,4677.5405,14123.3720703125
336,7648.353,-17355.45,10504.549,-4145.9165,-4673.952,-36.93043,28668.294921875
337,-9201.484,18362.918,13638.899,-12034.323,-579.4429,-1833.2343,33127.96875
338,11494.26,-10438.5,2820.638,8272.51,4064.8594,-760.0774,24952.892578125
339,-10339.756,13320.455,7353.65,8505.89,-2011.342,-5883.539,28058.287109375
340,-1117.2549,-16474.227,-3811.431,-2948.0798,-474.39618,114.622986,15116.509765625
341,-6802.9897,7149.8403,2991.4194,47.980404,-333.16293,7681.172,18201.46484375
342,2203.4473,12348.139,6095.403,-4355.2544,3711.8833,7788.238,18941.70703125
343,-13292.05,9951.413,11537.72,-6391.728,421.7123,5458.212,28144.6015625
344,4422.5503,4282.808,25181.395,-5313.4033,7034.089,3701.9216,26610.048828125
345,8644.769,6565.4897,2009.9266,-3797.964,-8525.106,7215.6343,21261.48828125
346,9656.151,-5575.0054,9983.793,-5975.3604,-2123.485,9502.341,25072.12890625
347,-19377.158,-26597.928,-30053.232,3567.6526,1814.4702,-1776.1343,12105.9443359375
348,5467.8486,-613.2793,-20350.615,-908.3702,3315.3506,-2470.4878,24501.587890625
349,-8745.011,-7345.0103,-3805.406,-709.26337,5343.142,1180.799,10525.38671875
350,4581.0825,-1442.2059,-6406.4966,-2216.9167,2636.2056,7109.6196,16675.087890625
351,5161.15,13421.986,4390.5845,5822.412,-9086.033,-4731.9883,22175.330078125
352,-758.387,-1603.2036,-684.0949,686.8344,-393.35745,569.417,1906.33666992188
353,603.5415,-11310.326,-10561.503,7396.525,264.68527,-7674.81,21785.857421875
354,-2476.1045,2474.9868,-12805.565,8624.792,1538.9734,960.50543,20381.052734375
355,-4184.5312,17213.201,3101.9626,-10136.854,7841.953,-2953.1514,29562.830078125
356,6320.3223,10149.646,12634.771,2296.6013,1804.3647,-748.29785,7591.185546875
357,3707.753,93.4624,3624.7378,869.62573,2426.8499,-2329.878,6999.46337890625
358,-3808.2886,16326.969,8652.84,-214.6705,4280.962,8598.666,24222.501953125
359,3147.6318,854.2091,375.7235,-1738.8323,170.10605,-697.4511,4147.630859375
360,-4330.4185,-6933.6655,-513.6101,-4233.8276,1580.1404,3644.3867,11506.1767578125
361,-1241.5532,-24647.627,5728.0513,-5068.357,1192.9781,-4906.0493,30217.4296875
362,-512.0077,977.747,4649.767,818.0527,881.6345,-1143.6868,5425.5908203125
363,30984.729,57427.19,26792.086,8711.154,-8211.788,1199.1578,35523.4140625
364,-11720.167,-4650.787,-17508.521,5358.646,2730.5232,7076.7275,19574.3203125
365,-38.049072,4050.2695,3088.1194,3598.8784,1741.6896,264.4571,7865.91015625
366,-3753.4321,1450.9972,4199.8306,-2303.176,1034.3752,4808.852,11723.7841796875
367,-8756.834,62.901855,-4742.1167,-1659.9705,3161.9902,104.119316,9838.2177734375
368,-3882.116,-6586.799,1057.6411,435.3603,-443.54224,-6907.526,13761.451171875
369,-803.36,723.2871,-1963.3478,-1182.7339,2277.398,-170.42307,5028.9609375
370,-355.58716,4154.813,253.22021,776.9287,-529.5501,-1756.2787,5465.716796875
371,55.43622,-1886.5674,176.3039,1654.3739,-1071.2107,-221.43816,3977.58129882813
372,-2220.5762,3960.6787,-4126.9214,-754.8245,4284.532,-7124.9365,16208.0458984375
373,-2651.2905,5509.85,-1208.1343,-1597.4966,-4973.2197,-1169.0072,11952.5556640625
374,-4059.8647,545.2124,-12732.023,2239.3398,-3282.482,248.0889,13561.03515625
375,-2095.2966,-1559.0544,2357.0493,1238.7471,-1591.4629,925.2617,5700.30517578125
376,-20503.16,-13355.083,-15669.682,-13768.008,-1926.5557,-1308.599,24997.07421875
377,15490.629,-4400.08,14459.367,-4766.814,2127.0186,-4639.9355,22858.662109375
378,6284.1157,-1508.2856,6667.1187,-281.73975,1251.951,2448.2283,9315.28125
379,-2008.5386,3316.0337,-1502.4307,-502.22635,-2880.7048,-1082.9655,7421.78759765625
380,-8610.298,-4402.5986,-12942.854,-1301.827,4696.675,1896.0347,11694.068359375
381,-9582.441,1064.6216,-2175.0586,-111.42447,3888.593,5643.3193,15175.779296875
382,-241.52576,-3810.8904,-195.12463,1729.6395,940.7025,-607.7871,5064.1953125
383,-3488.6357,-929.9801,-696.31366,263.88968,-203.92116,3503.4346,6659.95654296875
384,15012.165,15828.964,10917.799,5996.392,1729.7784,2297.0176,12387.521484375
385,-10375.611,20170.332,-11063.377,9079.685,-5306.276,-1750.4836,35993.33984375
386,19424.45,29166.54,20041.818,1219.6038,4455.3843,-2941.5105,13388.2822265625
387,5718.486,-19033.604,-22274.77,12668.32,-7090.718,761.15955,36570.87109375
388,5009.972,-85.46826,2415.4658,686.2627,-1033.7664,-938.8936,5170.90673828125
389,168.38867,5525.8413,-719.1848,493.7128,7367.002,2201.7864,14571.830078125
390,19545.861,3486.349,26799.559,-8208.246,-18055.04,586.8548,40101.4609375
391,20758.979,-1249.7012,16685.525,-679.0525,-1635.9658,-267.81052,20517.09765625
392,160.35269,-8589.708,8892.399,-800.18146,-5399.955,-2465.0684,18353.3984375
393,1937.8452,8928.024,-3419.5571,-2205.2483,1738.0084,3502.8696,13246.7060546875
394,5466.36,2770.3757,6111.9995,2954.7073,6668.34,2775.871,13861.2177734375
395,14669.043,18939.969,9857.88,1399.9778,-4245.5234,1991.1735,11566.4921875
396,-18161.586,-12614.371,-13636.222,-5046.313,-1350.677,-1423.1006,10681.3759765625
397,-6447.913,-6135.7485,-8199.244,-6725.6987,-1091.3087,160.47484,11961.041015625
398,-7034.8184,-5402.6987,-5570.462,-1071.2427,-3792.561,-5395.298,11676.43359375
399,-8810.114,427.7578,3071.1267,-3001.6978,-1067.1577,-3426.1294,13505.810546875
400,2318.7576,7236.0,-536.3745,148.88246,1933.1992,-663.3036,7679.1025390625
401,685.6383,4497.44,838.49426,374.27832,3591.7761,1007.0068,7492.3662109375
402,-1652.06,7355.205,6951.7607,1413.1637,2459.7734,-5089.509,13398.1904296875
403,3318.3032,-2258.604,-32.77768,-174.10628,2587.795,-1487.984,7103.9599609375
404,-4024.1252,-2727.5723,-6829.3887,3421.6294,2433.6409,325.96136,8148.431640625
405,-22828.1,-33595.188,-30657.098,-6655.2593,8267.594,-9250.645,26221.896484375
406,-13587.4795,-12090.748,-13757.612,1662.2524,-1411.3033,1196.1245,4591.3525390625
407,24489.357,25304.672,24078.752,-3057.5051,4995.7905,-6641.9204,15376.3525390625
408,-1095.6793,1158.9082,-661.6832,2352.7324,-2508.6504,-1325.0432,6711.65283203125
409,-352.85938,-301.83655,-4301.8354,-1862.966,-6502.3403,-2896.4272,13349.8916015625
410,22124.922,-7683.8965,17587.16,222.84187,587.1629,3140.869,28366.705078125
411,-1076.5284,-3218.4573,-4208.703,-1185.321,3137.7776,860.08344,6607.6181640625
412,-32523.484,-29478.762,-18775.254,-13428.305,-3860.4602,-9393.2705,31729.99609375
413,-2115.2573,2363.2324,-6967.0303,256.558,1516.829,-1583.203,8941.171875
414,9603.779,7870.7583,2341.311,-133.32097,417.30203,-2328.9497,7746.51953125
415,123.78174,7298.7153,2097.563,2682.7551,3411.9333,-1766.4033,10348.4140625
416,-11293.869,-20760.766,-7715.0396,-2446.4194,-6339.2896,-3156.677,17456.205078125
417,-7128.12,499.46838,5017.101,-3974.9001,629.4818,3744.292,14272.1806640625
418,-12039.184,-14115.083,-11112.678,-6969.223,5236.768,-6236.343,18754.95703125
419,-6966.743,-629.4144,1479.9772,-6153.6255,-2052.8308,-2931.0923,14491.2646484375
420,-6679.531,4598.675,-3210.2588,-632.0691,478.10217,-9271.09,18969.716796875
421,19935.525,24135.418,13891.005,-667.6316,-2950.9539,-1092.9904,10516.9921875
422,4471.537,13245.062,1532.4312,-2074.8787,1264.8636,1845.5045,11803.900390625
423,-4380.314,261.4756,-496.64062,-3810.5603,-529.43225,3351.7856,9833.9892578125
424,-13109.961,-9646.9375,-9099.605,-371.01566,118.12185,-4235.5195,8274.1298828125
425,-13957.845,-3951.7793,-12720.61,-1730.9974,637.02234,-2585.8762,10933.3876953125
426,22531.08,13906.966,-3429.873,-7231.8926,154.67984,5358.7456,27705.18359375
427,-6708.166,-571.42993,-5190.4365,1969.591,2780.7065,1236.7179,8370.92578125
428,8934.524,9042.498,13949.249,-5383.7783,-587.0301,80.863846,10612.5537109375
429,1803.9897,3157.45,6617.4775,-2056.8594,2081.2664,2266.1064,7718.7685546875
430,749.77905,191.26404,-4398.824,-3691.9465,-2235.443,-894.74976,9068.0341796875
431,-15710.813,-11633.677,-10727.424,-4575.371,-2143.924,87.27042,9887.03125
432,-2925.6865,1365.0408,5854.835,2001.3063,3842.191,-4262.6226,12986.3740234375
433,2758.6194,-3613.235,4513.8896,172.82939,-2624.5955,-6580.457,14336.2548828125
434,5306.8726,3872.341,6049.8735,-1594.1292,-208.48105,3688.7747,7228.4921875
435,-25120.74,-8420.542,-18127.898,-9932.638,717.0448,7615.5645,26125.072265625
436,3606.6816,-21257.064,1462.1289,1399.341,3263.4988,1989.4358,24883.380859375
437,9544.164,10123.652,8273.809,133.326,-2258.44,71.59909,4249.25
438,-1633.5325,-2838.8018,2571.3633,906.8833,133.67842,942.7648,5421.18017578125
439,5315.97,4245.9214,3616.2083,-1217.6323,-4748.1113,1579.6005,9043.359375
440,3438.3489,5590.4297,6729.121,712.6198,-256.65585,3446.8713,6763.3193359375
441,3899.4011,19159.686,6821.26,17315.594,-2524.816,-4899.8916,34459.62109375
442,-4050.0098,-6759.4966,-6906.2524,-155.27289,-834.2592,1383.8713,3958.04052734375
443,-964.7258,-1724.0989,13618.16,-11355.079,-5720.0503,7550.597,29670.119140625
444,-2285.0117,-2091.75,3042.359,-2930.387,-2610.0793,-936.1644,8730.2294921875
445,-637.605,3453.7507,3389.1309,-2880.451,-1348.4773,-1372.8164,7244.24072265625
446,3488.3887,-2504.661,729.0522,764.14655,-468.1861,484.09003,5486.90478515625
447,-14954.568,-12788.189,-15463.754,-904.2699,-5305.068,-5049.958,13017.1484375
448,-2636.5154,436.75378,-3417.2732,2282.6611,-2645.1843,-4965.404,11092.4462890625
449,-695.0249,-25830.508,1015.72363,-5434.163,3832.811,2421.6924,28774.556640625
450,-9393.74,-7956.521,-4502.596,-3664.455,-2469.6528,-320.92114,8823.291015625
451,9793.363,2578.2495,-10886.326,2054.1868,4427.181,-463.99466,20065.0390625
452,391.2796,3105.8665,-1534.6035,-736.67676,-3634.964,7358.2954,14832.615234375
453,1097.8909,3878.9375,1281.1787,2186.6675,2663.6663,-3501.42,8925.681640625
454,697.2871,5525.49,10528.1455,35.56285,-6279.9346,6471.0386,17788.521484375
455,-7774.1143,-3843.6543,-1639.7437,2124.6897,1439.9534,-1168.0656,7268.05078125
456,-1426.1764,-263.51334,3161.2896,-2227.9277,1306.1112,664.17633,6196.37890625
457,-3453.2756,-5501.761,8073.847,-4259.478,-2506.7407,-452.66943,15315.986328125
458,-1675.8982,2656.9966,-5399.864,-4346.806,3584.8503,5318.75,15128.859375
459,6271.2476,3581.8418,5587.4233,3890.443,3342.698,1200.6356,9439.9970703125
460,-1105.0508,-3357.8958,-5049.9673,-1213.0331,-741.4032,936.39386,4521.53466796875
461,-7907.584,-10642.167,-9937.234,2950.3018,266.98962,3667.971,8528.5341796875
462,-1955.1238,3850.901,-5164.3433,2168.4268,-1693.9373,-2355.2837,10099.42578125
463,-1440.4575,-3699.2546,-7156.036,-1088.0741,-2519.3198,3403.335,9066.4423828125
464,-30646.387,-35145.137,-15788.778,13294.846,-1404.5903,607.4996,29070.8203125
465,-568.2007,3506.586,8349.479,-3209.7754,3143.4575,2182.8467,11603.3466796875
466,-5086.605,7360.471,15381.922,-32.587543,-1535.5126,690.87836,18100.427734375
467,-718.4125,-535.7732,-1463.6187,387.42914,-1405.4579,-394.62866,2751.04125976563
468,1417.865,1787.9841,-5160.324,2797.4348,1605.9376,192.11751,8784.5908203125
469,18406.59,-1236.4292,3705.462,-2063.9788,7967.8936,2819.4216,23244.05859375
470,29525.146,32620.11,19098.139,-9091.109,426.36743,-3435.7346,20844.076171875
471,-922.94116,-7213.786,13243.662,1619.0549,4010.3713,1882.7596,19903.13671875
472,38824.24,44224.223,24008.914,3815.6384,643.3374,3804.8918,20420.7421875
473,3037.513,255.71777,1201.2019,1742.2056,1531.2247,1247.3433,5177.79541015625
474,-2146.149,-1757.8193,-2316.842,2434.8125,3449.8083,-1064.781,7558.83349609375
475,-162.44116,-2805.4749,-5126.9854,930.50165,-300.1209,2607.3936,6463.2880859375
476,53.977173,-1757.8518,-3963.665,-1759.9023,918.4263,-642.8832,5020.66552734375
477,-8017.163,-12256.0205,-11508.03,1464.9999,-1332.6106,-1515.9384,5832.427734375
478,5227.8696,2095.2327,6667.1777,2472.3948,-1943.2626,1848.0636,7503.79150390625
479,5302.6953,1297.07,-2398.9773,-2080.9226,-1323.7611,8376.744,16530.822265625
480,156.557,551.70044,4029.3079,-2328.6597,1916.6166,-2614.2473,7836.78076171875
481,-7852.9297,-4842.1035,-12078.745,-1638.1925,-1287.8605,-849.3302,7405.17724609375
482,12120.249,11506.084,13688.014,-8950.38,-311.93246,3625.193,16847.666015625
483,-19457.08,-5664.675,-16543.213,15084.139,4907.386,7371.7153,32808.5234375
484,-5518.0464,-5404.876,-3293.8608,-359.35938,-1247.5443,1936.1672,4583.7587890625
485,-7954.299,-6451.338,-1793.6709,857.3231,-725.1749,-1779.6748,6651.12158203125
486,-3435.7239,-3239.4854,-3169.672,-2104.5742,-616.73157,-6448.31,11799.490234375
487,1136.3597,-1750.5433,1433.5431,1332.6678,-697.22345,-2112.8875,5427.68115234375
488,-2640.1172,-6368.4277,-1369.7554,1479.5195,384.35184,1238.5168,5644.6708984375
489,-1531.3588,1070.6621,-3713.2017,-897.7891,-136.0062,-2459.2307,6150.216796875
490,1086.956,4067.3867,3454.0215,-641.8674,1620.3318,4135.386,8236.974609375
491,-5221.6235,511.03296,-3187.232,2205.2717,-968.06445,1740.1548,7198.9697265625
492,-4698.02,-6157.045,-2445.221,3482.5942,4497.2866,-2226.1711,11064.3759765625
493,264.9616,1316.5698,-255.71759,-2506.0037,-598.0225,2868.4197,6820.63671875
494,5958.8906,15945.732,4468.159,-1609.0042,-2064.7974,4798.9414,14369.876953125
495,1552.5156,3273.5518,1336.6826,-2086.5269,1050.8291,-2123.13,5768.5830078125
496,-1068.6917,-6983.314,-2114.592,-789.0057,-1565.3525,-4588.609,10113.1162109375
497,-4217.7095,-4094.477,380.57715,2672.4033,-2148.6404,2539.5632,8672.7216796875
498,-2114.808,-32.75598,-3746.8152,-843.9151,1962.7472,1978.3398,5985.9423828125
499,-2537.772,2416.164,1725.4242,1105.2,1061.3523,-145.43867,5357.6103515625
500,4167.1772,3645.3835,3923.705,109.19072,491.34583,745.5152,1622.3173828125
501,4716.3486,5296.3867,1702.925,-1316.1525,-2076.6646,-65.689575,5414.091796875
502,-10012.576,1910.6267,13207.293,-7341.204,-363.79633,2619.811,24230.91015625
503,370.02173,2814.502,-898.1411,-1358.3267,-3009.8325,-1476.9661,7066.85498046875
504,-3725.2905,145.74811,534.91864,1195.9231,809.3246,2419.2493,6360.57421875
505,-4628.9146,911.69836,2907.4492,1069.6724,2695.2805,1674.7388,8909.5205078125
506,-537.6394,-974.79645,2635.4917,-2911.2305,5529.171,-1926.3934,11828.8193359375
507,-2889.7373,3203.0503,2277.397,1152.3262,-358.62637,1297.9231,6462.3759765625
508,1771.5436,3027.7048,211.00598,-945.34735,-617.103,2994.86,6058.42919921875
509,-433.12122,-2692.453,-3140.9146,1712.6158,-1952.1947,1215.3602,5566.19921875
510,-433.40625,-10370.167,-8941.851,270.84207,-6808.707,-4603.6636,17013.6171875
511,2877.8154,778.5543,2668.499,1673.6553,1345.1217,2830.9277,6471.8759765625
512,-20253.75,-15965.576,-17168.602,18474.611,-3767.8096,4836.4478,33931.8984375
513,-6948.436,-4933.919,-3733.543,-516.2241,862.296,2994.3984,6151.97119140625
514,-8986.671,1255.0981,-4707.2383,-2024.2506,-166.19427,656.5452,9646.09765625
515,-2244.2134,6420.7617,-3532.582,1734.7845,-595.8956,-7852.4834,16822.115234375
516,-736.6113,3026.1626,-2752.4429,1485.7871,691.8875,928.9228,6037.7705078125
517,596.72784,1182.8269,23.892334,864.0409,-1390.9998,-1427.8408,3894.6015625
518,-3398.3853,-2554.0032,621.6067,-872.20447,3.9466062,2277.6497,5596.80615234375
519,1644.7266,2854.7532,3285.1567,-3003.742,-118.34292,2377.4666,6799.7548828125
520,2568.8555,-64.63867,4733.659,-1979.6547,-215.74728,838.5119,5597.20556640625
521,-9064.567,-6409.376,-4290.8535,1041.3206,-1339.8625,476.81696,5146.26708984375
522,-663.1207,-750.5238,2750.5034,-2285.743,2751.0327,2036.7919,7923.5595703125
523,-1824.1365,-1156.3196,728.4914,99.210396,-119.246284,-1091.5494,2983.92822265625
524,-4566.881,-3630.8516,-296.13086,1762.2664,3453.183,-3351.0574,9690.0380859375
525,1007.63257,1493.9325,6992.2827,-756.39136,57.415443,-1894.3065,6755.26904296875
526,-1379.6217,-5031.338,-1583.4735,2663.4106,-2792.7278,3291.316,9476.798828125
527,-232.70032,-946.44324,-1510.7119,-216.92604,-1712.0485,-652.90015,3382.88452148438
528,1701.5132,3310.956,1891.1445,109.33747,272.46198,-2460.574,4554.4384765625
529,1375.5583,7454.0664,2611.641,-79.32031,360.067,-1289.8235,6030.03955078125
530,-790.3772,1857.9435,840.1414,3963.9695,-274.8849,-1290.0829,7596.8974609375
531,-5255.2974,-88.06824,-88.726685,1677.1383,-1665.2589,-3704.8853,9199.62109375
532,-2085.8538,-2622.114,-1524.2998,-1459.8507,-755.801,-1975.4093,4551.70068359375
533,-1766.5238,1110.765,466.05923,-626.67664,903.2121,-130.42516,3242.83984375
534,-5183.1533,-7058.153,-6621.814,1131.908,-1608.4968,-2359.346,5585.05615234375
535,-9637.277,-3577.5269,-4294.054,933.38477,1596.7507,-1096.1508,6838.0634765625
536,637.91675,6246.574,6074.7275,-1249.5339,4843.213,1644.2573,10662.4404296875
537,6797.022,1634.3337,1323.8027,1593.6085,258.16205,-176.50998,6022.0537109375
538,-7803.766,-1974.116,3766.0034,-2308.3757,-2371.002,3534.6248,13066.2978515625
539,3405.0698,-447.29065,2849.5627,770.9736,568.75977,1866.0582,5119.515625
540,5045.615,-2092.4456,551.42053,-705.19354,826.95886,-909.1222,6715.12060546875
541,-7378.121,-6476.927,-3755.884,-431.20706,694.6428,-2123.4043,5118.62841796875
542,-1536.234,1167.8595,2084.4678,-417.81427,-1067.8636,-542.8164,3931.8623046875
543,1579.7285,-1848.3849,-782.769,651.2991,1158.3646,76.206535,3814.4287109375
544,3464.705,-1127.452,-3516.7617,293.95303,-1145.3827,-315.59918,6500.9638671875
545,-5537.6685,3705.4229,2639.903,681.7516,-1015.40076,1758.8231,9512.58203125
546,-3818.4663,-4203.3496,-6047.6426,2893.2227,-1084.6208,285.7899,5757.2421875
547,2893.026,5274.6484,3431.6855,1362.3779,-1097.748,1897.4261,4966.23046875
548,1752.1511,3535.1006,2011.0288,1372.6893,516.19183,161.29594,3051.98291015625
549,2966.756,3305.9148,5048.148,-1200.6619,302.81558,2366.7766,5014.583984375
550,2465.7678,-768.8447,-2361.6824,446.40427,-732.18427,2342.9153,6068.43701171875
551,-2858.47,-74.60205,-2500.2114,1876.2614,747.0681,3375.3955,7300.42529296875
552,203.18393,-2974.6443,3588.4475,2841.2898,385.70355,-144.2251,7552.7392578125
553,4.7563477,-3776.9502,675.8562,-1254.6913,810.8869,-3139.4922,7318.07177734375
554,-2862.815,-2597.1821,922.7919,1072.9727,-298.72394,1054.4281,4522.47412109375
555,-457.20837,4183.3945,576.4754,1366.77,933.1613,1550.1433,5764.734375
556,764.9378,863.25195,2392.582,4323.9004,256.0798,-876.92017,7816.0673828125
557,2948.2646,2397.6743,1257.4729,2231.8013,-873.1383,985.31714,4730.06005859375
558,-2200.5623,27.761963,-3890.4238,3194.538,-1605.282,-1658.334,7627.7685546875
559,608.3337,1243.0065,203.43878,381.16077,-590.1185,665.1049,1905.62036132813
560,1764.3303,-2692.2805,1989.1055,1141.8246,-1335.792,935.3332,5727.34619140625
561,-1965.3135,-2150.798,-1505.224,-820.65375,-1088.9594,-1538.7653,3607.31713867188
562,2461.598,3778.3452,4332.728,798.66986,2467.1726,-3483.6787,7704.1318359375
563,-1263.9998,-2978.8064,-7574.3774,-300.45688,2296.487,20.494041,6930.65625
564,1591.8403,1747.855,-2430.1934,-3428.0842,-2527.84,3125.3845,10027.85546875
565,-567.1958,-1736.0732,-7402.576,17.239292,-2216.7988,230.9714,7416.36669921875
566,-1176.8333,629.7674,2777.1619,-1.9901949,-4667.3677,-4428.9736,11659.9736328125
567,627.7479,210.62183,5144.7207,-5311.1567,1230.9832,-2316.1072,11301.564453125
568,24813.527,9294.331,6198.5063,-3275.77,3958.9424,410.6339,19447.154296875
569,-1989.3379,-6685.1704,-4173.6226,-2412.4482,2398.3562,-2806.7131,8655.2802734375
570,-1019.3342,5995.3564,6797.922,-2925.5056,1189.7811,597.9814,9299.1923828125
571,9382.25,1603.4653,-4275.8037,-2424.7898,1515.9094,-421.57745,12879.2392578125
572,7313.8013,6835.1616,222.72559,-3249.441,-2725.5212,2066.2395,10671.8515625
573,-3263.913,2364.3281,-2126.881,-4060.27,-1133.8972,-2493.8552,9926.8798828125
574,425.31787,-4401.3564,10458.931,5775.9707,3715.804,-790.7024,17770.25390625
575,6.525635,10727.995,54.991943,5351.797,6765.6206,-481.4357,18394.9453125
