Element Label,S11,S22,S33,S12,S13,S23,Mises
1,30530.422,45049.062,49241.473,-12644.324,12878.49,6934.354,37559.2109375
2,-20025.945,-5689.7563,-29235.438,-8173.2764,1208.6046,-4336.8794,26145.462890625
3,4453.7266,-2472.2178,15101.713,5537.3535,-14077.71,11823.887,36620.23046875
4,-8701.984,-10421.371,-6364.914,1662.3973,454.92413,10181.427,18229.986328125
5,-54046.277,-51253.707,-39522.86,-5387.732,-1780.4901,1285.2139,16724.806640625
6,-44959.938,-25799.904,-35417.547,4645.4707,-19755.324,1596.9602,38968.4765625
7,47246.812,61338.645,54126.867,1094.5276,-17504.988,7242.8853,35060.06640625
8,19125.77,8943.928,21270.455,-6156.617,-6421.5938,-8714.809,24400.255859375
9,18541.803,17849.355,17345.994,-37.77024,-254.42465,952.90094,2000.98559570313
10,7671.3057,7317.858,8882.188,-795.9652,15.424697,166.73306,2000.98522949219
11,48585.637,41001.848,34333.24,8211.654,18214.822,-169.09238,36746.10546875
12,-44068.305,-30546.766,-51446.613,-3626.3315,6597.318,9761.7705,28159.16796875
13,11527.449,9756.144,18921.2,-1509.2694,1865.616,-167.33415,9394.7275390625
14,25789.434,26577.242,25377.395,741.1388,-406.45633,498.47433,2000.98400878906
15,15058.796,17135.572,15836.476,-162.10457,-442.40634,-108.348694,2000.98510742188
16,15505.17,5224.97,43851.043,-6848.5884,2561.8127,-3818.4924,37479.50390625
17,-32876.965,-18552.564,-50321.04,-6235.256,-9626.749,-1020.2828,34016.77734375
18,10774.854,-1236.226,-2262.2742,12407.309,4918.74,8728.904,30341.884765625
19,207600.47,207384.53,206544.58,-226.9899,-912.3212,370.46765,1999.20727539063
20,3526.4453,-10260.115,-1512.3164,-2231.4578,-5471.9087,11633.191,25627.09765625
21,77997.68,86429.14,85119.49,-14084.82,6356.7188,12621.348,35440.484375
22,680.1668,147.85489,-443.84735,238.53877,-539.7196,818.7171,2000.98083496094
23,-58661.75,-31598.713,-66976.78,-7071.865,1250.8203,1389.6761,34454.30078125
24,30280.467,60190.195,34253.938,4149.393,10505.86,1089.4885,34320.07421875
25,17407.596,29822.352,2258.5056,219.45618,-3563.9302,-5410.154,26414.994140625
26,-74603.33,-90325.37,-95397.14,9582.104,8745.367,-7449.275,32000.212890625
27,-163141.89,-157052.33,-160140.8,-342.06256,-8719.817,-2630.358,16644.12890625
28,-52566.48,-50621.016,-33124.09,-2005.1295,-432.33575,5458.8823,21118.416015625
29,162681.05,157741.58,168338.64,3234.4814,-5318.3125,5750.332,17314.44921875
30,-48921.21,-43002.914,-26380.713,4647.267,-4363.108,-1251.6854,23158.162109375
31,12255.582,13098.337,13436.666,-577.3294,335.9716,719.9291,2000.82055664063
32,110482.06,111515.94,96264.12,386.14276,13094.038,9098.5205,31322.140625
33,34990.793,54482.406,45035.496,4289.279,-14702.446,6944.7764,33666.01953125
34,-3664.916,-15991.239,-26166.33,-15656.774,-7706.915,6942.948,37935.4609375
35,-8049.9395,-6064.0156,-38440.86,-7462.929,7525.842,-8420.363,39212.42578125
36,-2149.171,-14934.229,-23128.742,-2050.3945,5285.226,6938.333,24004.3671875
37,-868.8664,17895.688,8913.994,-10380.665,14566.654,-8728.263,38113.3359375
38,-6833.595,-33875.996,-31036.715,9892.208,7033.9707,-8763.767,36537.3828125
39,-9892.313,-9345.609,-25909.188,-3828.3872,20151.117,-1986.3837,39237.80078125
40,38900.957,13143.528,4963.1475,2069.2043,-1680.861,-494.23563,31034.220703125
41,-35044.61,-29624.012,-31823.025,-3244.7976,6845.483,8637.746,20452.349609375
42,32672.133,2575.1084,-7458.2134,2339.2686,7082.8296,-3115.6948,38788.015625
43,50932.418,10894.275,25565.06,4313.098,7185.591,-4474.038,38751.1484375
44,6047.276,-13951.465,-927.28284,-14255.542,13698.195,1251.2738,38553.75390625
45,32482.83,32400.715,37037.543,-3968.39,-1671.8086,11837.858,22297.0859375
46,180711.53,181246.23,181037.86,-291.47626,68.06989,1082.5416,2000.59326171875
47,2240.091,637.6767,1619.1248,234.14903,789.0818,-66.40553,2000.98522949219
48,331260.75,332240.66,331285.22,754.0622,-663.6506,115.42217,2000.982421875
49,46967.61,48771.785,48194.38,5.1667194,695.42676,42.3717,2000.75659179688
50,69223.23,70576.54,69269.91,755.70245,-129.38582,-395.81223,2000.98571777344
51,137429.22,136912.5,135992.83,94.38196,-770.7752,-449.798,2000.99169921875
52,-127112.89,-125672.266,-127378.97,599.6976,-347.79755,104.27814,2000.98461914063
53,-81796.586,-66233.39,-55590.246,-1745.1614,-5574.598,-3598.4282,25736.009765625
54,19230.328,23218.027,22769.402,-2876.6924,-3353.896,522.28723,8585.12109375
55,-85606.66,-97370.96,-76263.11,-5174.778,-4931.099,-5599.0527,24144.38671875
56,69588.02,81638.695,86935.625,3750.1062,-9899.869,-143.67508,23945.390625
57,57562.934,65301.5,50620.773,-5742.0874,-3472.2546,-12659.149,27886.33984375
58,32177.867,36899.82,11578.156,6805.13,-6472.6157,-4908.48,29678.42578125
59,-63495.516,-62599.35,-87572.58,6206.6,6229.8438,-8937.65,32767.79296875
60,31838.791,23423.129,3516.7874,11930.843,-852.4079,3115.0842,33059.59765625
61,44430.094,47756.715,31032.922,-1439.2258,-18032.586,-3288.596,35345.421875
62,-16133.338,-30982.477,-2796.5867,-11331.014,2487.3518,-12453.844,38281.015625
63,-21627.752,-14093.129,-20970.934,-11212.2,16542.152,-6065.07,36887.35546875
64,-33010.83,347.93698,-19480.67,-11966.505,-8950.741,3277.3928,39327.9296875
65,-16329.232,-2695.319,21473.861,3794.3235,-4713.8843,4176.538,35520.9296875
66,-27597.998,-2012.5962,-36817.44,9865.792,-8783.609,1194.0886,38771.4921875
67,-19092.857,-12460.103,-35449.734,-14752.76,3558.3894,-3965.3137,34031.18359375
68,44580.004,21627.342,24813.277,4600.3296,7040.0283,9392.291,30670.337890625
69,40382.152,37310.51,15483.695,1796.0256,7757.3457,10697.949,32961.09375
70,-3931.9766,-14599.021,-35334.81,-1099.755,15985.347,-423.57324,39188.12109375
71,10013.178,17920.889,4162.7695,655.1784,16098.031,11063.281,35901.79296875
72,-17787.727,9205.61,-14728.97,1171.5732,2408.148,-12384.329,33720.32421875
73,15731.238,26258.627,51555.05,4744.5796,2630.805,382.04126,33253.1875
74,1265.5973,5512.3486,504.80664,-195.30994,6439.071,4247.7124,14158.8525390625
75,173817.2,181945.17,181468.6,-548.6435,10442.872,4807.7417,21443.513671875
76,88345.445,75064.08,84951.445,4825.2554,13032.58,-1259.8082,26962.791015625
77,29550.871,29720.66,29785.424,458.90662,-551.74384,897.1946,2000.98547363281
78,122760.91,127927.49,131787.7,986.75354,12343.163,-1531.1274,22990.3046875
79,-23755.006,-17347.07,-8756.23,-1146.3253,13206.166,806.4844,26438.90234375
80,-55013.598,-55003.28,-54184.367,-491.47476,-915.8032,-111.49274,1989.27014160156
81,-781349.0,-780138.75,-780593.9,-853.9448,474.7318,77.94109,2000.75720214844
82,-370138.7,-367961.28,-368918.4,179.91708,268.39737,163.11542,1991.52673339844
83,222606.53,223770.92,224000.58,-367.86227,-783.4515,-160.47954,2000.14379882813
84,1824.6981,733.18,-409.58475,-142.6534,-48.88693,-45.152634,1954.22814941406
85,-9359.016,-24591.318,-14593.15,-9387.866,846.49445,-11141.951,28612.34375
86,9539.2295,22987.29,9602.042,-4387.9604,-5164.852,-18258.404,36302.9921875
87,-15393.635,1964.0867,-13893.032,-7867.8394,1974.3785,-15391.409,34432.32421875
88,1212.0505,11426.731,-6370.101,-7641.01,-1588.5645,19165.502,39037.84375
89,5501.068,17027.062,20002.979,-6116.7314,-13819.559,9432.494,33587.26953125
90,10419.927,15164.721,23143.695,10230.37,-4423.4155,18348.752,38816.83984375
91,18081.068,48799.613,39362.066,-340.28262,10174.398,11455.374,38044.2890625
92,15278.061,22799.727,31640.479,8511.585,4594.2905,18562.336,38930.40234375
93,-55997.742,-48054.05,-82149.75,2505.8936,5867.4653,6723.5615,34821.140625
94,28423.11,49293.582,13676.654,6884.6157,4350.176,9451.024,37785.3359375
95,-15861.414,-32680.525,-2720.267,-9263.519,2490.2217,3467.285,31443.646484375
96,24267.71,6752.848,15748.176,3612.4548,-2144.2075,-9955.863,24092.20703125
97,15343.88,-5780.136,-1979.3428,-2359.8655,-2016.8928,-551.65125,20253.529296875
98,-8355.263,17905.496,-18698.777,7551.0957,1920.7318,7570.2417,37713.32421875
99,-23063.754,-18199.678,-9966.784,4156.9917,9078.778,10921.001,28078.5390625
100,67669.305,42659.69,77196.586,-2170.9265,1881.9689,-3724.9436,31951.732421875
101,43017.223,40225.88,18273.809,8905.75,12456.368,1463.8636,35507.8828125
102,53720.55,53895.062,54770.594,942.62775,228.27432,-278.1938,2000.98571777344
103,63253.496,49047.734,64616.72,4114.631,1625.0034,11896.982,26577.3359375
104,54240.344,65939.43,46328.207,-1058.459,10198.456,6736.584,27268.416015625
105,21794.436,18081.771,5951.197,2084.8252,16216.192,-8058.236,34680.125
106,26938.508,27684.986,28250.94,108.68284,887.2767,-319.5705,2000.89892578125
107,18961.232,11623.434,34060.184,-2096.9888,8844.132,-2985.5725,25830.28515625
108,4338.5747,-14890.47,-23370.885,-1177.0437,16840.494,-2277.3364,38409.1875
109,14878.287,-2146.777,992.7317,-7597.058,15202.594,10854.251,38291.06640625
110,-19584.445,-14348.813,-42287.69,-9255.252,5740.463,-12570.998,38621.79296875
111,42056.41,3669.3586,40599.69,-70.58615,5175.273,-134.0038,38732.2578125
112,-2367.7095,-1167.2219,12901.456,-13827.678,283.17047,-3309.493,28687.470703125
113,8398.179,-943.13934,-12607.0625,-13337.784,12037.296,-2974.3652,36430.52734375
114,-18678.365,-21440.256,-53276.734,1258.0049,9466.491,1932.4888,37335.14453125
115,-11681.271,11041.544,-8508.145,-14180.961,5568.2993,4055.8389,34640.421875
116,35247.086,10658.439,17341.209,-9933.773,11081.927,-9374.336,37590.453125
117,35630.562,31060.525,15920.397,10545.354,530.22705,10396.204,31272.986328125
118,88783.35,90976.62,88044.17,8500.174,12538.318,6502.1367,28674.00390625
119,76458.8,77844.0,76227.49,677.3501,324.37888,-79.92916,2000.98327636719
120,19902.55,21914.637,20411.875,114.24993,133.67653,-457.5569,2000.98449707031
121,-388072.7,-389109.03,-388893.72,-715.2593,398.2696,-602.30426,1999.04602050781
122,-225433.19,-226589.34,-227462.1,511.27606,171.33022,-27.510735,1995.48681640625
123,26746.924,38317.707,15612.675,11358.6455,-438.00592,8393.395,31395.314453125
124,-35462.418,-23348.432,-5100.8994,12482.985,-230.62605,7072.115,36310.46875
125,10211.086,14662.708,-15839.818,7631.033,3231.3118,10865.177,37075.78125
126,40948.52,47790.71,47428.594,-458.20602,-13871.244,12871.909,33457.3046875
127,4015.7117,774.9885,1168.69,-10406.806,14986.104,2372.713,32014.455078125
128,24780.885,24367.568,30598.328,1685.9309,9471.09,2924.2722,18431.052734375
129,14102.329,14116.6455,14509.832,-913.96625,596.49866,297.4004,1999.80139160156
130,-79442.58,-98805.46,-74170.91,-2540.8848,5610.2544,630.08997,24895.1953125
131,167446.89,189683.33,182254.53,2280.5178,8489.234,-4449.096,25993.13671875
132,34472.97,49942.492,22738.068,761.183,-527.56476,-6718.9004,26392.259765625
133,-40461.496,-24210.648,-50179.645,-3899.5383,6580.2173,8524.08,30165.5
134,17869.936,16413.092,35291.305,-13788.153,2431.9163,-12322.291,37075.671875
135,2574.9333,32200.602,-3209.311,-4619.7065,-3542.669,-5267.165,35600.640625
136,-11228.167,5568.55,-23022.162,-10520.997,-3906.3242,-13589.914,39385.7578125
137,-3650.5725,18944.912,2129.1667,-4013.7126,468.29797,18698.246,38874.4921875
138,20319.266,18863.318,24199.01,-2887.6418,-2590.5742,12901.192,23817.888671875
139,9812.836,7321.4336,-14928.239,1777.1416,-5519.186,13800.87,35056.2265625
140,6105.589,-10741.366,10295.483,-13193.294,-14202.056,-3479.2678,39186.25
141,200869.83,199990.06,201740.31,381.63522,-624.8827,172.37073,1998.76452636719
142,274554.0,274241.25,275241.44,271.15125,680.1805,-732.57855,2000.97436523438
143,-38104.707,-37048.316,-46289.633,-11203.019,9988.086,8322.97,30989.98828125
144,271524.03,271419.75,271961.38,497.05994,489.095,873.60126,1999.03381347656
145,19887.389,17758.852,18937.457,32.039234,313.40182,-308.95032,1998.79162597656
146,22693.334,24096.18,24276.354,33.17212,750.79865,137.05598,2000.98596191406
147,36467.02,30609.44,22271.219,10425.464,11635.872,3997.4292,30542.8984375
148,32563.305,35562.473,54662.59,-3342.6223,2624.8774,13258.372,31821.951171875
149,-11658.7705,-7078.43,815.9456,1701.3313,-9169.946,-14643.975,31996.015625
150,-1223.7899,-6354.4775,20551.361,-15157.855,4424.366,-2256.457,37087.51953125
151,-9380.411,-22097.01,-34444.484,-12045.209,10350.236,6005.2993,36551.6640625
152,-36747.18,-74536.15,-46225.0,4174.196,4704.974,-4232.8125,36498.0859375
153,1341.775,8240.87,-23757.174,11095.705,7701.1187,-2972.8635,37742.47265625
154,19374.44,23448.262,20576.826,-811.5619,765.58124,-292.76938,4139.42431640625
155,-46796.266,-70366.29,-55592.766,1222.871,-8093.618,-7945.1113,28565.2109375
156,16072.563,53884.895,39704.797,705.7892,1473.6685,2566.9695,33502.875
157,-33955.484,-27945.742,-52801.684,3216.47,7887.7363,6373.3164,29053.412109375
158,-86570.02,-68030.1,-95281.45,-2073.676,-5187.29,-273.93414,25980.30859375
159,-12973.206,-32082.508,-10344.513,7191.2466,-2058.2913,-5001.475,25791.548828125
160,45435.49,44558.5,59437.156,-8646.628,-10398.426,6817.4487,29953.333984375
161,5567.4976,12615.235,-23357.344,-1186.9529,-5122.8438,9133.255,37727.6796875
162,6819.399,10088.999,-20757.88,-5988.5493,12844.317,3561.0027,38754.65625
163,-19662.377,9772.542,8913.881,-12041.567,275.84778,5427.3706,36952.30078125
164,31877.785,21011.328,13804.545,-8860.616,18319.246,1722.7179,38724.01171875
165,37383.7,18465.97,15315.404,1364.744,8444.983,16804.03,38653.265625
166,33739.434,24373.104,50686.16,-3856.0146,563.0097,3366.9746,24763.185546875
167,20353.783,-4112.3667,22961.707,6431.674,12.223427,-4669.6807,29303.875
168,-36324.754,-29199.531,-40698.914,-6491.546,6466.673,-20487.266,40151.3046875
169,5660.3164,16836.488,41316.387,-6631.767,178.58853,-9939.526,37764.83984375
170,-32724.848,-30022.98,-36305.605,-3092.498,-9046.488,-61.028263,17436.03515625
171,66827.984,68363.67,68295.055,-333.76413,-618.6449,-296.58734,2000.98034667969
172,-12199.49,-6520.024,-13438.322,-9042.209,-819.07196,-19885.541,38398.2890625
173,5496.392,29564.967,10323.111,-1498.3134,11906.247,-12063.702,36810.74609375
174,52681.77,53946.547,53569.613,628.54694,123.16043,-709.04425,2000.98828125
175,161660.64,162124.8,161675.81,-173.18036,-638.1598,908.8523,1999.59606933594
176,-38389.527,-10962.647,-19339.361,1717.1135,2000.9623,-15227.235,36181.75
177,25655.703,52974.062,39066.047,9441.764,11499.142,-1919.6979,35142.12109375
178,-34530.562,-21571.73,-39447.652,-4714.2627,-2113.7632,-8810.315,23848.912109375
179,-6626.1006,1528.3005,22917.168,-11910.082,-1830.5836,-5198.3647,34857.76171875
180,67553.99,64552.87,53694.195,-6613.9565,-7540.2817,-1601.7687,21656.490234375
181,-81248.0,-69703.414,-77706.055,-936.28217,-4326.7344,-1767.6917,13156.6904296875
182,1505.4424,-20364.105,13337.97,3613.0337,-12641.441,2059.7485,37528.19921875
183,-4363.9546,10063.166,-19120.883,-4700.9854,6500.7266,15009.158,38829.234375
184,-11612.771,-8831.426,22400.309,-12881.802,-1626.7777,877.32684,39725.23046875
185,-14418.76,-13710.869,-948.31,7103.6606,8656.94,8551.39,27713.015625
186,-12153.708,1818.9408,-1790.681,5097.4077,4605.856,-15505.725,31948.4453125
187,14816.054,15417.86,14913.207,134.98885,-542.24084,-958.13,2000.98059082031
188,6287.261,17680.879,12221.06,-4866.4253,-2935.933,-2264.7158,14481.341796875
189,-18583.168,-5332.0483,-5123.706,2777.7,-8860.79,162.61398,20908.451171875
190,-16088.18,-2289.6924,25723.248,3792.6753,-2253.7896,199.5688,37685.1484375
191,-596216.25,-596138.7,-597846.2,309.73834,216.59004,-511.94006,2000.98205566406
192,772.47394,4682.745,-4552.2896,5815.0054,10077.626,1485.9644,21845.076171875
193,32172.055,28764.562,36517.797,-6109.3535,869.4806,1279.5828,12824.0849609375
194,44107.38,46785.016,27193.088,11665.173,-8975.628,-8463.57,34689.53515625
195,8970.889,8082.4116,9577.769,86.20615,-66.66302,-870.1386,2000.98559570313
196,75946.7,78574.55,81031.89,-2842.8926,-1766.4059,3533.5276,9511.3486328125
197,-60716.004,-84149.29,-89214.836,-782.07996,6927.0176,9697.716,33487.3671875
198,17231.229,37781.754,51164.34,-6289.0107,-3898.0752,-5173.995,33481.15234375
199,10044.393,37059.543,2170.1375,-401.74286,-6817.605,5103.9844,34966.0078125
200,6937.547,7842.0933,-11584.672,-9245.714,-13252.046,12449.849,40111.60546875
201,-429.669,902.5731,-30713.75,-1317.3403,2618.6772,3944.2935,32120.04296875
202,13968.927,567.6043,6393.282,551.445,-15040.094,1279.2668,28633.849609375
203,16155.625,-2177.748,15296.359,-11554.293,2268.9214,-14583.42,37082.00390625
204,9650.616,8613.975,17726.568,-4754.8765,-10476.623,14254.679,32884.046875
205,12665.031,4455.4517,25840.236,-2248.8276,9441.823,2829.7322,25608.279296875
206,3824.5767,1394.8276,4217.0527,-7336.3745,-14833.988,-15929.913,39873.6328125
207,1117.6194,-14402.696,-15968.787,-10689.851,-14595.294,130.5798,35349.35546875
208,7209.3936,-14202.302,-12746.098,2790.1929,-2382.758,16402.656,35734.171875
209,11297.588,-9408.064,9706.879,1094.3706,-18996.521,4573.261,39335.203125
210,654.5671,-24397.59,-30469.943,-311.37134,27.947514,-15284.266,38958.04296875
211,7559.89,-25386.326,-892.5965,-6526.1006,-91.764854,11932.021,37859.41015625
212,9718.692,-5136.629,22953.738,3595.5654,1180.2637,-81.61166,25207.958984375
213,905.62964,14212.594,35114.336,-12922.969,-509.29935,1890.9832,37478.15234375
214,-19948.504,-18069.117,-19322.305,352.3147,-514.53436,-173.1866,2000.98571777344
215,-5295.6357,3883.0215,926.96594,-3957.0361,5668.4,-1024.0503,14572.787109375
216,790.34796,294.50018,776.3707,727.4614,835.2253,-167.73758,2000.98522949219
217,36408.984,29509.678,31320.523,5944.177,-5298.2295,7964.6104,20467.15625
218,4353.185,-15487.048,18827.463,-11679.73,-6539.9443,-1772.5178,37911.7265625
219,-5430.578,-606.1705,4212.3564,7936.221,7209.9624,-10747.631,27589.416015625
220,-10986.234,-13443.521,-31528.26,-8160.667,-11086.989,11140.383,36309.95703125
221,29556.734,20182.172,10945.031,-519.73206,4239.2227,19175.836,37651.86328125
222,-12230.86,4125.682,-7777.706,6725.1226,-11626.245,11070.644,33517.11328125
223,4758.0425,9021.303,5404.8604,5558.6704,-6675.02,15060.219,30374.83984375
224,10805.8,-5068.757,4425.2627,-5813.799,941.6855,-3825.9436,18422.791015625
225,-9931.708,3347.746,-21556.635,283.047,2069.4475,4351.9653,23146.544921875
226,-7920.0444,15433.26,-17029.373,4252.924,8363.9375,8627.819,36449.0859375
227,-5144.9736,5891.476,-26988.006,-4312.799,-2035.5626,13270.099,37901.30078125
228,1016.4424,24910.719,-4411.58,4490.647,114.8744,1988.5704,28328.4140625
229,48378.402,32962.605,61635.22,13255.8,4286.773,-4857.202,35648.4140625
230,-13928.965,-13645.898,16007.021,-10690.638,-2325.6467,-7983.43,37921.89453125
231,-17069.19,-10246.99,-30809.14,4606.138,-12757.667,469.13068,29692.580078125
232,31564.078,-7505.2393,14850.425,2563.0198,4859.967,-9274.395,38747.578125
233,-79724.445,-95546.91,-79850.84,5403.1436,-14880.687,7662.4478,34298.5703125
234,7334.5654,-7056.3237,431.344,2317.2085,2860.5474,10151.412,22477.0703125
235,-5918.9307,157.85742,20330.865,2640.8848,-11100.418,-11994.155,37264.25390625
236,26054.297,26433.803,52676.39,9532.764,-13512.194,1050.2802,39018.51953125
237,6431.715,1391.5933,19837.318,-12016.778,-16763.865,-1237.8682,39415.3046875
238,-4646.5557,12148.39,-9486.819,10647.621,-15999.302,-6009.883,40039.9140625
239,53569.164,22227.129,42883.285,2678.4775,-6008.6816,-7594.7153,32626.193359375
240,-12058.019,-5545.0254,-28751.441,3464.817,75.341286,-12276.056,30297.69140625
241,40984.285,16303.027,-1636.3866,5371.731,1702.6368,6123.0054,39767.96875
242,14464.545,6368.778,35449.97,-14579.777,-5825.903,-7340.801,39711.68359375
243,10659.382,31768.96,26933.014,17652.873,7273.7515,-1347.4382,38287.81640625
244,14497.943,11990.398,2461.4385,-173.78433,6702.94,-2537.5925,16588.552734375
245,-4910.5493,12203.357,-20447.467,-10380.867,11338.531,4986.848,39796.46875
246,36.764328,6039.2607,7220.853,7262.919,-13967.292,12125.4375,35058.56640625
247,46524.38,23506.508,30895.96,-5378.6133,-2826.4204,-7826.675,26624.458984375
248,-12145.131,-26577.904,-24201.625,4051.0093,-4049.5688,-6852.7695,20468.654296875
249,19596.287,12055.254,-10641.132,-5176.2417,49.796215,14149.376,37737.90625
250,-53848.84,-60023.223,-52953.656,499.57767,-16585.4,-349.93466,29509.22265625
251,-53373.68,-58464.41,-43183.336,-12254.069,-7412.626,-8381.263,31744.279296875
252,207438.28,223148.81,209126.47,-1976.6765,-13364.09,-481.7314,27773.423828125
253,-53725.74,-63678.523,-57712.242,102.45249,-1747.6584,-220.54228,9198.568359375
254,227922.2,232820.17,239237.08,1414.5109,-8378.941,9041.58,23631.9609375
255,-645092.25,-643919.7,-645148.8,-65.19589,894.6304,219.57036,2000.72509765625
256,233560.81,233619.52,235514.14,-45.55757,-112.451126,291.856,2000.99279785156
257,-481725.25,-480224.66,-495609.06,899.2869,6855.7095,-1332.9794,19094.630859375
258,343125.84,342948.28,344764.06,52.503437,-559.9217,-127.61869,2000.96020507813
259,-9639590.0,-9639558.0,-9640984.0,-88.26533,581.0457,162.24806,1761.83312988281
260,107759.5,108747.11,108530.195,-76.91844,-175.80367,-1014.11255,2000.98486328125
261,21992.2,22042.693,21980.793,22.518173,-876.5123,-748.9572,1998.10144042969
262,173719.72,172547.25,171767.98,92.40655,-312.8026,-512.90857,2000.9951171875
263,19928.162,20216.7,18681.037,610.4673,-535.1425,-48.338226,1995.63757324219
264,-22877.074,-17530.29,-30909.936,-1928.7957,3530.4973,-2567.0913,14296.4619140625
265,167948.38,168832.11,171740.86,1912.4268,-2120.6494,-2913.385,7857.4423828125
266,-7108.7314,10384.795,5083.3276,-5169.6206,-3965.649,5787.36,21661.5390625
267,-6369.022,2865.3687,29500.227,-10202.197,-4535.1577,-6961.819,39496.89453125
268,14642.139,24716.709,41872.855,-5380.394,-6614.176,-2995.8936,28525.16796875
269,-61620.4,-38353.2,-67377.82,-3484.9937,-3249.4038,-13742.885,36649.44140625
270,8909.537,-14195.411,-26310.078,-8481.266,-2354.9968,-9211.592,38046.109375
271,-10513.807,-38810.113,-47984.84,-2375.6282,10162.188,-617.83276,38371.26171875
272,-75592.18,-77514.766,-107343.44,-4126.144,-3768.7795,-10609.666,37177.62109375
273,35827.645,20939.531,4090.6482,11441.029,-5698.129,-5653.4126,36638.36328125
274,21144.15,5272.961,47221.883,6020.8325,-2177.2893,-1213.5566,38382.53125
275,-2644.2874,-5132.495,21496.95,11137.082,4453.7866,-4836.8223,33924.26953125
276,12073.094,33490.285,-1551.7933,8915.589,3085.063,-8207.017,37486.2890625
277,10509.017,26936.861,-15648.438,-2389.2236,-1593.3705,467.62842,37539.2421875
278,55234.9,61115.418,77917.0,-9385.767,614.4126,-3638.1946,26847.6328125
279,24970.117,9078.799,33742.668,-1961.6895,15387.836,-4765.8945,35481.5625
280,-3446.7358,-13976.342,-3449.454,-15386.982,-14184.248,3886.0447,38340.63671875
281,25176.496,14503.641,21510.514,2963.9,66.86235,-2070.1602,11289.2421875
282,1080.0977,-14800.501,-24700.734,-1653.8798,-1655.0577,2394.0757,23260.439453125
283,15309.828,-3395.3235,-29681.846,-1968.2922,-1911.2733,-2219.558,39622.19140625
284,-29452.197,-20359.008,-29164.367,-13971.199,-15099.296,-5654.7373,38021.4296875
285,-7329.0186,26513.67,5445.1074,-530.13184,2834.603,4881.282,31186.91796875
286,-8120.3037,-6527.9136,-20088.559,7634.3413,-239.68103,1934.7432,18737.25
287,36709.67,17526.754,12983.656,6453.196,-4954.622,1665.3489,26127.958984375
288,60794.195,72326.1,58356.566,157.39592,-12836.383,-4620.271,26934.560546875
289,-3145.486,9228.264,13169.503,-3569.4373,-2554.7998,-3314.9888,17555.115234375
290,33833.91,56155.117,54761.91,-9654.529,6739.847,14174.819,38571.51953125
291,-8049.9253,-3371.3945,-15964.461,3994.2996,-19729.406,9166.378,39865.22265625
292,7111.509,24494.842,3752.4885,-3315.775,-15642.969,6089.42,35357.99609375
293,22818.268,27360.418,35418.832,-6323.1523,-19930.164,-669.9702,37882.703125
294,10033.542,8687.468,-9607.017,2753.414,3801.2952,-8981.039,25868.830078125
295,26798.324,6762.641,-12114.295,-9568.51,1386.0087,5127.354,38668.86328125
296,-33808.633,-10566.19,-35098.45,-11938.442,7539.848,-5203.3857,35372.390625
297,34693.867,39797.82,10230.29,219.73164,-3758.0693,12059.182,35045.1640625
298,-40990.99,-36638.6,-20320.113,6868.442,8603.317,-7355.867,29701.2578125
299,3956.7305,5921.5283,5665.7056,-1132.9447,-964.9208,-1378.4742,3970.85864257813
300,14925.626,10273.841,39373.44,-4120.796,3333.1167,7892.6367,31689.33203125
301,-3071.9883,5971.6133,-1821.4669,4059.7456,-8843.615,17724.094,36035.328125
302,6478.3926,40234.77,4799.494,789.0893,-1885.3195,1223.6803,34871.31640625
303,10040.873,19890.465,6167.5894,-18864.418,7127.7627,-1507.6396,37107.94921875
304,-15828.862,-11933.16,-21612.55,18430.62,2806.7546,7178.199,35615.1015625
305,-43163.96,-30692.059,-61729.477,782.6102,-18.681847,-14228.315,36618.94921875
306,1266.2578,21444.195,1620.747,17828.035,-565.33887,2663.4128,37092.8359375
307,5642.915,-14814.769,-28115.648,3360.9023,10591.701,-7149.578,37300.4609375
308,-19864.096,-15292.972,-12742.496,-1251.4641,275.44724,11209.359,20516.673828125
309,110054.94,108575.414,109115.02,-591.6139,-352.5351,546.129,1999.85949707031
310,-8285.021,4776.461,-10304.136,16207.667,4724.0195,9404.654,36351.1875
311,3060.184,2643.9446,2347.5552,755.65625,717.7256,346.90646,2000.9853515625
312,66243.7,72104.36,67563.95,2051.6335,2474.0444,-1498.9053,8129.16064453125
313,21452.404,25968.67,22787.797,-16344.071,-6936.603,-1320.1073,31098.4296875
314,-182855680.0,-182854530.0,-182856400.0,59.92621,-86.617874,-666.9311,2010.6259765625
315,-13809.813,12377.912,9472.9795,4415.8584,6499.0425,-15249.022,38742.3828125
316,-12098.263,-13317.282,8107.556,13897.227,9505.286,8433.716,38706.9140625
317,-14984.1875,-7860.9688,-17803.668,920.634,-10328.898,-372.3953,20044.716796875
318,9799.178,14537.172,13126.097,6245.238,9943.921,-5154.0723,22607.544921875
319,29782.586,46585.85,49225.17,3044.2488,-4095.3147,-10464.07,27207.947265625
320,-4743.165,-3962.034,28051.648,-4150.0464,-3625.901,4165.424,34549.31640625
321,2680.6003,-3361.2285,-14252.914,3659.949,-19887.186,7290.6143,40088.4453125
322,18637.672,7744.5674,3862.986,11195.572,-2708.7725,-3001.061,24516.58203125
323,27231.758,30429.08,1613.4268,-4960.347,-6759.015,-333.8722,30977.962890625
324,-17831.385,-13324.13,-8443.12,1355.7869,-1314.1031,2292.8074,9623.1767578125
325,5575.3184,3909.3103,3902.6086,231.2373,-53.947235,-591.0457,2000.98498535156
326,17880.238,5541.492,6313.674,-2052.6743,881.37463,536.3182,12615.345703125
327,-2876.3875,-16330.038,-1055.8851,760.37933,-4613.5103,5931.7715,19492.3828125
328,-10454.394,-10639.713,11745.996,1517.1565,9276.464,-297.64746,27610.41796875
329,17261.42,13654.09,11191.477,-13745.58,-7961.2544,-4061.2703,28886.158203125
330,6032.832,13338.954,25631.064,-14783.856,378.447,455.3378,30838.642578125
331,-1989.3556,-31825.387,-34117.438,3042.0203,11277.888,-8545.261,39902.7109375
332,32755.598,25311.465,24170.197,-11752.989,17783.492,-5659.161,39044.17578125
333,-40725.855,-54405.41,-78754.68,-10088.108,4321.6353,-3081.2808,38767.59375
334,-68828.4,-48565.42,-79403.23,8236.862,6613.31,-10750.665,37658.578125
335,34459.81,34184.145,34159.855,-39.80362,336.62708,1091.7814,2000.9853515625
336,86593.22,87247.195,86305.98,-116.577446,940.7423,334.00024,1930.92492675781
337,5832.502,5741.893,4432.1655,106.41775,834.42255,89.95319,1997.32348632813
338,25024.55,25188.303,26116.121,-603.0612,7.5086603,790.00397,2000.78234863281
339,-42175.785,-29590.566,-19360.885,-12129.931,-190.35852,-14459.222,38216.46875
340,5993.12,11027.119,14287.726,7289.0234,-18325.316,3424.1418,35417.5390625
341,8414.875,40521.21,26115.375,1474.2562,-10195.058,11899.686,38973.98828125
342,26560.814,14226.036,34024.977,4077.5007,14581.704,4898.4067,32552.552734375
343,-3544.9102,1172.8201,-26116.871,5341.717,-2540.8955,4824.794,28513.9453125
344,-15382.984,-14357.005,-21147.426,-5330.131,-5788.6494,9297.17,22028.708984375
345,6629.978,-31615.453,-8172.007,1776.4237,4246.3057,-9482.899,38066.2578125
346,-7466.8345,-24517.973,-31798.072,1578.9093,6905.375,-325.1776,24874.16015625
347,29155.152,16827.47,12295.375,2794.7427,-2057.7036,-1050.6273,16365.4365234375
348,-14377.477,-27610.367,11264.248,5069.7905,-1150.5814,1592.2065,35505.0234375
349,-22218.049,-8473.153,-13481.592,15972.809,2437.5522,-174.29231,30470.873046875
350,-37878.695,-24824.928,-22100.176,7104.021,8640.361,-3994.5498,25231.55859375
351,-22806.314,21226.486,-10950.403,2371.6235,1027.9332,2394.1306,39932.953125
352,-5926.6196,18309.316,-6811.1714,1576.0426,-688.92615,-15155.831,36160.39453125
353,16857.277,19617.781,11620.217,-6067.8193,-899.70123,9590.497,20936.109375
354,6037.412,2485.7805,15819.1045,20418.506,-2869.5776,1789.3889,37790.1015625
355,-35827.27,-9205.657,3514.8223,-1200.855,-4797.0376,1894.017,35962.25
356,-16517.836,-7012.1826,-32718.379,9773.495,3158.7444,-13699.472,37233.51953125
357,-1288.6256,14282.903,1009.6508,12349.984,1473.4059,-8070.3022,29520.083984375
358,-1537.569,7586.8794,-10084.835,2160.9956,-915.01184,2607.7317,16468.83984375
359,18631.834,17380.193,1948.8783,1131.5155,2976.5635,440.9845,17029.701171875
360,-2352.749,14167.664,27537.088,123.580185,4859.124,-7869.8486,30483.052734375
361,-5209.0054,8110.641,-10792.627,3534.9128,-619.6534,-2511.7754,18453.38671875
362,2233.239,2510.569,2708.8284,-1494.524,-816.12195,-2956.1116,5923.34033203125
363,-42190.89,-26659.172,-847.30255,976.6394,8371.0205,3597.2188,39500.54296875
364,-23422.8,-18404.0,-35700.2,1530.4475,-1347.7722,-6405.982,19316.48828125
365,-21876.482,-27382.56,-7347.273,-7839.6387,4887.057,14216.049,34405.40234375
366,-11442.617,3736.8376,8994.099,1077.4604,3713.2068,3166.5925,20317.119140625
367,9631.854,-13482.801,3928.4177,7286.1724,-132.12682,4723.395,25714.435546875
368,-31458.654,-13085.487,-20560.213,3175.5286,6769.907,-1215.1946,20695.10546875
369,23698.43,8709.909,24725.793,-1586.4215,-1390.579,-2285.191,16435.5546875
370,8817.611,14304.743,30634.809,-1729.3125,-1544.9413,-1609.6252,20255.607421875
371,-20709.652,-13723.539,-22984.014,1471.3076,1429.3809,-7537.379,15903.6884765625
372,41105.82,46334.22,17641.781,1196.6072,-660.3727,-3678.657,27327.240234375
373,-1280.2072,-162.5376,5649.878,1767.0891,4274.297,2964.9097,11492.5390625
374,-317.4209,-778.8956,-6328.2466,-1196.59,-164.5657,-261.13596,6176.6044921875
375,2417.0103,-1900.4248,3624.015,2278.0652,1591.9827,2109.3599,7863.1064453125
376,11929.25,5149.006,20595.645,-1090.278,124.2645,1754.1782,13881.0029296875
377,21311.145,12510.213,13592.305,10758.666,5684.8228,-1121.7072,22739.326171875
378,-9256.483,2411.3313,-1071.4076,-15501.276,167.31488,9992.779,33587.9609375
379,-2961.3057,-7187.3115,-17471.738,-3343.5217,5073.372,3004.2502,17462.01171875
380,11809.891,18158.035,26137.969,-3305.6377,467.60352,-1533.216,13968.75
381,-28527.752,-2806.62,15487.646,2230.0474,1052.1227,-4318.99,39255.66796875
382,-4044.3445,-11979.631,-3946.8586,2284.228,5690.4736,14199.718,27954.34375
383,29448.777,20151.342,30659.043,2093.5784,1737.8517,-1896.6083,11496.103515625
384,-19396.283,-19568.338,-22515.826,276.50586,-5262.957,6660.85,15021.6748046875
385,-27315.66,-29130.152,-53322.9,-3043.4697,-270.23642,-4169.3955,26695.2734375
386,12418.022,-6066.956,3254.793,-5576.4634,-5735.2373,-10955.415,28430.794921875
387,-2025.08,73.335815,-1530.2439,2527.0962,1606.2095,64.762474,5524.56298828125
388,12001.921,4387.902,13902.547,9079.107,1022.185,3060.6426,18830.423828125
389,36105.902,10036.262,1787.1465,-6715.92,1879.3317,1471.8157,33393.5703125
390,188.24657,-127.65479,-7229.4033,-8249.898,6291.9307,-3847.8552,20497.408203125
391,2000.2535,20728.531,29459.328,-713.58813,1808.7898,1527.4259,24674.4765625
392,-1071.6227,2026.6583,-1189.3539,1668.6066,-1335.7703,677.861,5006.20068359375
393,-23624.045,-11311.616,-33074.074,-8280.812,-7856.7676,-1726.6915,27515.4140625
394,-3854.0479,-534.4888,-9117.585,2483.1667,604.44684,-9999.738,19384.93359375
395,-1725.0828,-9907.191,-328.4663,-8356.327,-4581.7393,2763.727,19383.00390625
396,6396.1562,23706.691,26951.785,5865.743,-1399.7291,-139.48035,21806.341796875
397,8796.463,14779.166,30298.992,4137.555,-162.26721,-2996.1907,21163.099609375
398,6311.4263,-1933.019,17580.377,-5804.9604,293.01666,-2091.8887,20058.53125
399,-4377.9,-23180.361,3486.0498,-265.77066,1054.2017,-145.5417,23808.513671875
400,22607.797,45083.85,32307.262,9382.446,7036.1904,-16336.878,39931.72265625
401,-37127.727,-45527.58,-68133.16,-2420.1025,-13931.037,553.2079,37042.72265625
402,-5709.8203,-10110.254,-30157.777,-767.0397,-4441.1646,-3726.933,24740.48828125
403,1135.077,-10839.262,9410.526,-6835.828,6407.0513,-5415.3774,25734.73046875
404,-35264.71,-19184.686,-37617.664,4447.315,-5635.17,-6744.526,24351.720703125
405,9301.17,5976.3306,4606.8794,21405.855,-4857.283,3532.076,38733.98046875
406,12834.633,4990.8457,30275.35,1262.5847,492.45255,3096.0342,23168.3203125
407,22486.893,27013.537,33509.42,-7161.033,-3634.2466,-8326.297,22215.70703125
408,7041.706,17441.94,17886.283,9516.531,2997.2097,-1523.9396,20459.560546875
409,2001.0112,2354.641,21429.623,-3801.6895,-1940.3575,5661.532,22837.203125
410,1842.3772,17054.9,-6661.1074,-1163.6112,-7177.284,1117.4496,24401.595703125
411,11958.436,5565.7944,-4450.4326,-12776.614,3637.5876,-5711.47,28853.16796875
412,141.24463,9864.338,6909.3467,-1293.1615,4217.4204,3050.6536,12682.0751953125
413,9246.583,3491.025,-15053.412,-2648.372,-65.00265,5198.1445,24204.806640625
414,-350245.72,-355074.22,-386692.0,1198.2,1245.4197,-1731.2173,34548.7578125
415,-62846.35,-68088.96,-91164.99,2888.5605,9908.865,1951.1068,31811.560546875
416,-828494.75,-829733.3,-856147.6,-193.91747,2634.6775,2055.8486,27669.1640625
417,3592.355,-6362.729,-4885.8364,-2140.7363,-1192.342,7944.935,17145.30859375
418,7762.2705,36207.14,21667.797,-3917.6438,2172.8389,-695.6027,25857.15625
419,-529.666,17141.098,15678.63,-1177.7477,-3224.6702,-1587.807,18206.37109375
420,-395525.38,-396385.28,-425680.1,-245.78958,3640.7485,3466.998,30985.849609375
421,-1203.1934,1218.3212,-2986.0679,-1462.156,-651.63165,-2206.6824,5971.2265625
422,-8227.988,6584.3506,568.15515,8309.879,-5168.865,-754.07104,21342.580078125
423,-4447.363,-3821.6128,1981.4673,-13.054102,81.60483,1925.0334,6988.29931640625
424,-8296.154,4221.2227,-37526.23,-3501.5632,4769.0557,560.0779,38508.72265625
425,-410384.5,-410170.97,-433330.88,201.78773,5496.2046,2771.4563,25402.19140625
426,-8965.515,-2778.0513,5015.337,-10647.7705,8342.8545,157.7539,26386.59375
427,3922.7278,-35.571285,8441.472,-1711.1069,-5840.941,3332.994,14086.6494140625
428,-29370.781,-15525.551,-4716.1797,-13363.129,10514.796,4703.982,37309.1953125
429,-3993.1382,9285.869,-30579.682,-3610.7324,5486.6533,4034.5273,37609.4921875
430,3825.3271,-18359.47,-20277.375,8631.718,2783.5076,351.83652,28027.25
431,1260.7422,-11902.486,-24839.402,-885.4604,5600.961,-4383.913,25788.494140625
432,9538.985,5083.3525,23667.773,-4146.5933,5261.4575,-3880.1946,21499.470703125
433,2470.2197,-19864.213,-14225.017,9445.451,-4396.98,-2099.6099,27268.189453125
434,9539.016,3363.8972,5463.4033,2549.0154,-1642.5248,971.2171,7745.39892578125
435,110.91016,2005.647,-20813.844,-559.49023,-9408.225,-843.0528,27380.60546875
436,-13575.788,-17974.508,-34018.395,-9071.354,-14651.853,-4214.9146,35937.76171875
437,-9701.41,-520.761,-9190.427,13330.973,-3913.5874,630.0163,25693.150390625
438,-5877.1406,-17984.38,-26941.691,-1757.0791,1269.0786,8690.148,23998.263671875
439,4333.666,-10359.51,-6434.005,261.01852,6689.6704,861.0932,17615.470703125
440,50939.617,63164.64,65239.477,-135.0103,-7525.105,-7344.3477,22602.560546875
441,4094.7334,9576.265,9563.555,589.2856,-3885.624,-4427.4023,11624.0849609375
442,2499.594,9375.221,6490.1514,-6646.4985,855.277,6914.1914,17717.26953125
443,32287.754,40015.777,34141.254,5470.9424,-3266.0151,-14003.292,27548.224609375
444,14699.723,10899.186,5986.374,-894.60205,408.07477,506.9659,7805.29833984375
445,-7237.8555,479.21753,-4906.77,500.39233,-2493.9482,392.1884,8177.40576171875
446,4147.2344,2341.7844,-14049.718,6902.9746,2403.5957,1467.6244,21639.8203125
447,-57048.453,-58659.094,-92983.664,-4540.2935,1669.7806,4165.093,36855.203125
448,-5180.9126,-15785.332,-4362.9985,-780.3886,7326.0757,3031.6443,17669.46484375
449,6038.574,10858.473,-2826.8965,-1932.3685,-527.9717,-305.19553,12525.03515625
450,21418.145,27093.918,29122.209,-12819.736,-9193.139,-9978.541,33062.5546875
451,-12353.682,-10177.285,-26358.367,-6839.0957,6127.6426,2931.4734,22585.21484375
452,21456.56,12685.73,15005.251,-205.03578,1344.8235,-2069.829,8964.8125
453,21720.336,25740.629,40132.164,-6094.045,4298.561,-9555.504,26868.29296875
454,-6809.5645,-12331.926,-34212.477,7533.3696,1785.5095,3661.2612,29156.83203125
455,-12759.859,-28512.54,-15007.1455,-19798.266,2238.0537,2636.9692,37810.0234375
456,14891.379,39405.348,43430.008,2765.3926,4737.7056,1006.77454,28444.921875
457,-3519.8984,-5528.4272,-5887.642,4020.2454,-2677.8757,3287.7266,10359.166015625
458,-11170.717,-5753.3984,-834.95264,5242.025,-12715.68,-6349.449,27724.208984375
459,25700.908,15995.177,18421.908,2333.734,-5756.147,-7696.2188,19234.630859375
460,-40751.027,-22485.871,-38854.387,-12023.428,-2642.0962,-4443.0854,28573.138671875
461,2586.5986,1992.158,-808.371,231.39987,-3502.2546,427.06226,6882.31201171875
462,15519.117,8430.266,14782.369,-3133.1926,4795.0664,-2423.8428,12713.20703125
463,-18646.055,-14107.59,572.8457,-10314.572,-1401.779,-667.3812,25082.701171875
464,30286.697,7200.549,29558.082,5163.3867,3742.137,-3609.4268,26033.7578125
465,50870.22,58873.457,81605.65,-4331.0186,7643.2476,10545.789,36440.4609375
466,-10101.52,-7030.815,-20121.072,-2349.2217,-4678.3726,7429.805,19708.166015625
467,6685.326,9928.0205,-16610.703,-5609.351,-4464.92,-592.5212,28000.2890625
468,-7972.293,-19591.338,-26459.473,3398.788,-2055.3333,-3296.363,18490.568359375
469,17533.139,13450.375,34240.387,6744.11,2686.7644,-5922.641,25046.9765625
470,38204.42,43241.48,54851.28,6192.3843,-5942.4634,-2344.7349,21356.673828125
471,8585.289,18466.959,26066.445,-6692.065,-5407.019,-4181.413,22472.3515625
472,30603.984,18734.785,1822.1221,2584.8496,4353.192,1411.2384,26655.689453125
473,19433.031,7595.6133,8374.001,2622.673,-1416.264,-3738.667,14145.734375
474,2455.658,3304.0947,2383.4988,9888.526,65.627426,1044.0919,17245.822265625
475,9011.443,23837.102,12150.241,-5942.4243,450.31445,6287.7207,20205.67578125
476,36236.246,26579.625,61619.836,-2292.4204,-199.20811,-561.33966,31615.291015625
477,-8910.937,-16109.093,-14045.756,2222.0315,7108.6064,-14210.176,28520.431640625
478,11542.982,11043.0,32663.0,-4132.048,-933.1882,3444.6687,23372.974609375
479,-14698.751,4176.853,27538.172,7547.9307,921.41046,-2114.528,39113.59375
480,-53126.42,-44090.953,-27311.965,955.6103,-244.05824,2367.859,23119.658203125
481,-355.69897,763.9624,-9499.499,-170.68774,-546.27057,797.8095,9899.1318359375
482,-89.320465,5222.9043,-6190.891,510.08466,966.53314,2351.9556,10864.6220703125
483,11514.793,7895.2847,23616.148,-3265.97,3452.19,-3302.5789,17430.380859375
484,-5836.1807,-236.64209,-9033.954,-6573.1924,-3262.9324,599.8485,14903.9208984375
485,-4441.283,-3560.6462,-9151.793,-4506.2866,2806.7761,-1324.4364,10813.3671875
486,-1680.6104,2049.0352,4032.6797,-2591.6555,-2686.4475,2685.1975,9416.755859375
487,13068.349,16456.713,-4984.084,861.9927,7781.7383,4262.0034,25237.453125
488,-5009.3994,2008.4899,-1054.4205,2942.0322,-2882.5903,-1401.7677,9691.5693359375
489,628.5244,17856.512,27721.006,-8629.517,7777.876,136.91428,31128.84765625
490,-17768.42,-5702.296,12283.566,-3452.7039,-4524.233,1360.1462,28085.970703125
491,-3558.366,17.124557,3127.2043,441.8823,-1036.6768,1884.9226,6931.4833984375
492,-3816.6638,-2348.7598,-11953.74,-3838.9612,900.0382,1729.7804,11658.931640625
493,-14841.187,-22097.8,-17265.598,10829.799,-3089.7708,4587.771,22013.171875
494,6895.68,1574.6339,1853.669,-378.1252,2941.236,-1358.2058,7669.5732421875
495,2934.485,4739.0137,5351.66,-868.1721,1164.7645,-2133.5264,4972.34375
496,23546.305,24997.408,27506.695,-758.9859,5738.18,-109.79587,10610.7470703125
497,24684.271,19256.174,21309.988,-2706.4849,286.25055,-1743.4929,7339.91796875
498,10076.668,14632.303,15441.504,-792.4882,1686.9287,1971.792,6868.78662109375
499,5876.5884,8812.175,6518.7964,-2125.5225,725.16016,-1764.4933,5622.833984375
500,-23730.754,-32394.78,-40197.234,16571.58,2698.1482,-2142.916,32603.87109375
501,-4300.273,-7073.799,-10508.729,636.7532,388.93732,-422.89844,5587.912109375
502,13274.571,8821.188,11680.644,-2524.9207,2662.9954,-957.30383,7643.5888671875
503,-7285.0625,-2986.8796,-6986.54,-460.40164,15.899158,-166.0605,4242.615234375
504,-5668.4355,3221.012,-9567.068,-4676.9204,7387.733,1146.6226,19031.001953125
505,-17630.617,-7466.5664,-35494.22,-2358.3784,-980.7769,116.73454,24971.888671875
506,1113.7144,-4751.66,-10177.321,-3125.1218,655.0067,2085.3398,11802.37890625
507,-14423.575,-19433.523,-48376.39,2048.7246,2674.2546,-3689.1814,32903.92578125
508,1021.772,921.58374,-6645.582,4410.8486,11293.851,-6214.488,24797.373046875
509,-3417.5889,792.58057,-7570.919,-1034.9982,-89.479904,1445.3018,7871.86572265625
510,-7245.3096,-6848.614,-6488.368,733.636,-2379.424,1463.2252,5045.07470703125
511,-2952.954,-7178.6895,-5848.4575,-1011.902,-2570.8193,-652.8598,6179.2392578125
512,19805.44,18224.668,16644.92,-2953.1584,-2732.3997,-3208.882,9324.37109375
513,1649.3579,-1043.3059,-6746.7285,-3085.791,-1514.0284,-92.64957,9518.70703125
514,723.8628,-1977.7087,-4272.3525,3376.186,3808.245,446.26877,9852.1357421875
515,-1959.2778,-332.77026,-4958.1826,-1211.6818,4239.733,-131.45078,8654.4248046875
516,32988.47,28671.816,50208.758,-7817.9272,-459.27243,7444.1978,27198.287109375
517,30236.07,31329.422,60017.37,-1313.2661,-2653.2617,770.8106,29726.01171875
518,47985.32,39429.227,21499.443,5556.126,1015.547,1680.2605,25539.54296875
519,-16396.127,-10986.0205,-31946.027,-1833.5774,-2796.864,-3927.4958,20857.236328125
520,-36062.797,-4366.115,-36676.023,9586.2295,96.49094,7695.5933,38443.13671875
521,11399.9375,22077.205,4424.2725,11046.173,6112.275,4423.152,27820.33984375
522,-7858.66,-33369.52,-39271.45,-7332.4697,1557.9474,1656.7253,31827.8359375
523,-10515.203,-29629.414,-13787.215,4478.985,4882.206,2884.8706,21683.55078125
524,-114.1499,-612.9221,-4123.7163,-2232.054,2071.5667,304.22885,6513.33740234375
525,24510.195,-1011.13477,8713.871,3544.1497,780.6737,-1900.2057,23410.73828125
526,15721.878,15218.496,38687.695,1520.2185,3002.8596,-2883.6475,24457.58984375
527,-10375.568,-12199.968,-4255.837,-2696.4858,602.2604,-1974.1761,9302.56640625
528,7290.2153,1269.8644,753.5078,-2335.8875,-4136.405,-865.0405,10467.2548828125
529,-432.70117,-2767.649,-2280.2358,-2045.2002,-4312.2886,-1830.0359,9106.8427734375
530,28994.354,23090.885,38997.42,10886.365,3871.1604,-354.70343,24389.322265625
531,-13011.199,-5280.4697,-23930.396,645.05927,1003.30914,2318.7695,16846.50390625
532,-6247.995,-2756.3088,-9061.877,-187.6836,5646.0786,1969.6504,11718.099609375
533,-18247.709,-15676.773,-23570.516,-2625.627,-5976.8213,-366.74475,13299.5859375
534,-927.00555,-3376.7078,3781.8308,572.6003,2541.3757,2213.0466,8646.4755859375
535,10690.631,17953.738,24630.027,-1542.7894,-593.2305,-2591.5085,13196.98046875
536,5445.434,4735.8384,3795.5134,-260.1694,953.434,-937.49475,2760.77001953125
537,2941.4058,6603.332,4799.0664,-2581.5552,-1593.9929,-1602.586,6736.36083984375
538,-18573.25,-14578.543,-24627.916,500.22318,505.30548,1996.0758,9501.2060546875
539,7044.4062,-11398.743,-10886.289,1894.1617,-2922.3342,880.4668,19226.81640625
540,6624.0845,3583.0625,-1824.7622,609.8905,-1676.2085,-152.7085,8034.46240234375
541,-10245.365,-415.7959,-16628.95,-2782.5132,-1354.9158,3765.007,16473.580078125
542,2697.442,-811.3731,-7088.5884,2156.178,679.8095,3397.5493,11122.255859375
543,11788.955,8101.5005,3513.3027,2701.3164,2723.7642,7288.177,15970.8544921875
544,-3381.3076,-11014.951,-11940.037,2096.6616,4511.0513,55.078228,11850.5654296875
545,2433.4097,-857.62195,-724.91455,-6624.702,142.36708,-2795.8708,12867.916015625
546,7738.585,7451.879,5041.9062,-1352.0616,1474.2709,1798.585,5318.87939453125
547,2228.6453,-1583.694,2992.374,-3088.6516,-1640.8021,-520.60297,7452.37451171875
548,7779.583,4682.7646,7994.1143,-3682.9463,865.6132,517.5766,7351.494140625
549,16879.787,25861.172,24186.084,-3478.3193,-5832.4604,-408.81473,14397.11328125
550,11833.764,8781.086,12107.799,-1554.7712,-724.99554,-764.2657,4561.97119140625
551,3388.359,5256.323,12300.198,-2123.7659,1662.7588,-3586.534,11255.14453125
552,18195.225,4584.545,43789.703,-6000.005,70.96385,-3187.8782,36430.609375
553,-6908.2725,-9004.395,-5816.3813,-4317.769,952.4625,-1209.7567,8421.173828125
554,-8542.667,-3530.3804,-3731.3096,458.2191,2339.6821,3219.4023,8503.0673828125
555,2457.0808,2040.7849,31.500488,-3284.307,1107.1421,668.9488,6513.58349609375
556,18207.145,2370.163,5747.7324,-3353.815,-2767.476,111.219406,16293.728515625
557,759.81323,2828.13,5744.235,-1526.4122,-963.6402,-284.25967,5369.455078125
558,-6723.9727,-2780.8413,-15955.225,-2393.4985,-19.411985,-1524.1556,12701.2255859375
559,-6836.3545,-8600.703,-13185.984,-1033.1675,1779.749,3564.313,9112.9345703125
560,8870.144,2070.7744,7787.1597,-528.5834,301.29068,1003.83887,6646.373046875
561,-21733.428,-20639.85,-57215.89,605.5805,35.101997,-2599.57,36337.05078125
562,-5100.1074,-9343.351,-17094.568,5570.507,-1702.3988,-476.62668,14609.7373046875
563,7901.009,7627.2925,6423.466,-2384.1562,-865.9885,1577.778,5350.15771484375
564,2181.43,-1831.382,-4869.6562,853.77637,-281.60928,-1170.3236,6637.7314453125
565,-3310.4722,4746.6963,-452.34763,5996.102,-515.9576,1208.2123,12770.9091796875
566,1588.5051,4911.2974,6662.202,-536.5116,476.289,-2147.201,5941.38134765625
567,-442.94568,-2828.0674,-3150.2844,484.24188,-2077.9448,-1269.8362,5005.56103515625
568,6784.814,3699.0977,5271.654,-2328.4304,1573.0032,-1205.176,5931.8837890625
569,29864.39,30673.086,51943.727,360.73972,-3335.6992,4425.358,23723.787109375
570,-5189.186,-1605.0834,609.9524,5410.1733,-3057.1553,-3870.4688,13655.8115234375
571,-118.99634,1781.2524,-11064.213,-719.5444,3635.7295,2299.1992,14187.146484375
572,31159.16,33160.13,61092.453,-10108.634,-920.74,-3045.7742,34307.9765625
573,-22295.66,-15778.321,-51513.246,-5266.781,-5730.4507,5735.025,36972.51171875
574,23215.502,3681.5425,-1389.3516,802.14777,1513.5897,-7191.9136,25890.50390625
575,-3091.4084,-10425.506,1307.071,-641.3198,385.17783,-3382.5583,11891.1123046875
576,5162.527,929.4252,-10280.357,-1428.4155,-2669.612,6148.629,18219.46875
577,-10823.193,-36918.133,-52630.598,7486.068,1342.8992,3667.971,39392.1171875
578,-2148.3286,-2518.7595,-10851.918,-9841.83,-6252.72,-588.7544,21944.927734375
579,27860.719,34405.164,31077.023,11898.413,-6790.5015,-2204.9365,24693.322265625
580,-390.3169,-11825.186,-17993.596,-2924.6375,2368.3018,678.0699,16828.751953125
