Element Label,S11,S22,S33,S12,S13,S23,Mises
1,18224.58,16850.73,20091.184,-1466.074,-1612.8322,1210.367,5155.857421875
2,120828.805,121949.33,122675.42,-652.96063,11.365061,-206.61736,2000.98034667969
3,146068.36,147698.17,148103.69,-91.99345,402.1798,62.14413,2000.96630859375
4,48585.562,47892.22,48670.76,509.79416,715.6702,-616.6205,2000.98498535156
5,439275.62,438223.72,446663.53,3892.9573,4709.082,-3648.1375,14675.7451171875
6,111000.484,110008.84,98837.05,1451.0599,-15020.516,1989.0717,28842.751953125
7,-52877.707,-53910.81,-53086.86,-2012.7842,2018.121,1020.7815,5328.53564453125
8,12947.544,14393.064,12105.08,251.94473,617.42487,310.8363,2375.0791015625
9,99396.52,101006.9,85230.76,-554.8654,-3618.0833,5536.7026,18927.09375
10,75494.516,72940.46,44902.145,-708.13324,-622.4522,4370.772,30401.634765625
11,35617.91,35211.75,6328.081,5465.41,10594.694,6805.8853,37569.640625
12,-19872.314,1467.76,-26096.736,1199.8706,-4408.1797,4097.2607,27202.015625
13,59109.797,57889.195,50121.984,-496.27435,-8103.0737,-12804.199,27583.708984375
14,-33733.375,-21547.504,-17421.625,-6367.581,14358.203,-8567.937,34294.84765625
15,-103792.03,-129533.58,-89897.56,174.06845,-5048.1733,3828.7012,36522.1640625
16,-221498.55,-212705.69,-242421.5,-9968.009,250.83163,-6992.296,33823.15625
17,104970.85,101559.09,90197.86,10250.732,-16353.467,-3596.404,36548.8984375
18,38504.594,36199.79,20204.033,1275.8208,12316.886,-1548.403,27662.904296875
19,95541.88,112152.13,82367.35,446.2805,1841.7633,319.98004,26064.955078125
20,-162865.0,-157569.88,-187796.97,-2226.5662,1599.3354,-1659.397,28503.798828125
21,182644.17,181616.48,181497.02,946.171,-197.43369,51.91265,2000.98352050781
22,-239934.06,-242857.08,-264404.53,-5748.9116,-4490.2065,-1487.9374,26497.130859375
23,-236297.0,-222292.14,-209407.86,2029.2926,-6494.427,7883.407,29460.388671875
24,198336.08,223404.14,201156.52,6353.671,-6229.918,2089.325,28570.939453125
25,64978.082,64614.492,82895.4,4416.6606,-9436.603,1669.1707,25723.615234375
26,244498.86,250430.25,228052.1,6506.0396,-2926.9856,-908.85815,23630.38671875
27,130047.55,129984.05,129219.32,1002.2023,-145.7924,310.3388,2000.83081054688
28,167807.81,168549.9,169699.31,190.23932,115.6626,-612.5785,1999.81726074219
29,63459.727,62842.664,59456.953,585.40845,-1247.1201,-806.1101,4645.048828125
30,508870.53,507838.97,508432.16,-123.49662,823.92706,-419.51224,1847.80297851563
31,633134.75,632500.0,633228.1,-259.4096,965.5811,-235.15982,1906.75573730469
32,-980854.25,-982468.6,-980966.3,-658.9054,-87.30977,283.28665,2000.98608398438
33,316225.97,315995.44,315722.88,1048.1383,-160.11526,-383.4031,2000.98852539063
34,74567.766,73257.61,73818.93,-51.794537,-85.36278,-942.6829,1998.00756835938
35,319862.0,319993.9,319837.16,-80.57537,-178.38008,1135.4458,2000.98486328125
36,-689700.94,-690749.75,-689956.94,-670.10834,56.131546,763.8384,2000.99536132813
37,392199.84,390770.22,392376.38,458.22354,23.448997,590.1976,2000.97973632813
38,466271.53,464649.62,465395.38,-394.21298,450.1454,562.36896,2000.01684570313
39,32869.58,41910.55,43845.79,1388.5056,-2453.8896,635.1603,11315.4599609375
40,-238626.61,-235643.22,-239510.33,10006.798,5972.133,4959.3276,22215.083984375
41,46477.344,57586.574,66218.49,-1096.9581,-1918.2043,5573.1733,20041.1640625
42,-56095.387,-71660.24,-85647.67,2346.6902,-4108.7607,1176.887,26961.955078125
43,-230497.45,-240760.39,-242157.48,58.262974,6315.302,-1770.3807,15832.8798828125
44,-122983.37,-133487.66,-138516.8,6522.914,-8088.5576,-8398.699,26907.134765625
45,-176595.0,-183635.86,-188690.48,-5903.8647,2283.4233,-16818.531,32855.89453125
46,23959.824,46041.297,26266.53,-13144.329,2172.799,-6156.943,32987.63671875
47,85680.28,110941.125,122757.44,460.74686,-8960.537,4395.8477,37090.51953125
48,57301.6,73684.1,37925.7,-2906.0986,-3987.035,3294.43,32662.2578125
49,-277640.7,-283823.12,-258001.05,3988.293,-1584.4264,6080.428,26674.4140625
50,-6913.335,3645.6614,-6011.061,-14744.641,1836.5997,7181.166,30328.525390625
51,-429179.56,-420996.06,-426095.1,6520.713,10351.015,-3948.849,23388.28125
52,-216643.38,-188343.61,-199242.56,-6888.37,-1143.4633,9273.027,31866.35546875
53,114986.055,111799.67,130409.04,-925.2658,-2451.96,3656.9136,18917.947265625
54,-311146.25,-296844.06,-298970.25,8803.165,1621.4019,8480.636,25195.26953125
55,393994.47,389514.88,375229.5,-6488.7427,2690.3499,-7789.427,24863.26953125
56,28045.93,-535.5944,7421.98,4736.1616,-3948.2,7919.5605,30903.134765625
57,20541.72,616.3753,-14513.996,-7828.1045,-5433.7812,-7956.393,37279.3984375
58,64302.316,29095.514,56387.355,-6209.945,-6508.1304,6554.2163,37351.51953125
59,5699.566,21432.664,-434.66016,-11201.637,-4079.4885,9940.963,33233.93359375
60,37449.098,-732.4248,18131.746,-5075.494,3478.0376,5866.3696,36197.20703125
61,64564.504,57956.004,35452.12,-2746.392,-11559.79,-4835.256,34532.12109375
62,-40810.594,-31215.781,-45233.297,-5912.6255,-12776.78,-10420.28,32778.3203125
63,54892.184,31171.617,50438.33,5351.4814,-8331.914,7643.0396,30761.66015625
64,127053.17,134390.81,143304.25,-11409.739,-10495.359,3721.02,31003.80859375
65,198592.9,180665.47,180283.56,3510.6562,-21.137653,12085.139,28346.298828125
66,37814.547,22022.902,12561.45,-3656.2788,8671.501,-1731.887,27622.3671875
67,10150.952,13550.563,22412.98,7437.106,9247.191,-8853.661,27890.029296875
68,168677.97,148181.67,133229.97,4686.232,-806.12335,3164.378,32372.486328125
69,-227998.9,-211576.34,-211226.12,7652.357,-5398.584,4773.8057,24638.427734375
70,-179765.86,-184080.52,-190774.08,-7100.5054,-6887.187,11167.93,27568.4609375
71,88067.25,116782.555,96647.695,5237.713,11980.554,-3893.114,34787.55078125
72,142570.67,130060.56,134164.56,-8386.022,-13.909186,5242.302,20382.001953125
73,211682.4,194990.23,234988.7,-2114.3252,2989.9644,2644.1885,35665.8203125
74,-163311.5,-156345.33,-169624.77,16799.916,4109.706,-3731.3877,32733.99609375
75,367206.9,340556.53,363740.06,-3498.2295,-5918.612,2606.644,28143.4765625
76,75515.94,88395.0,78958.89,-10873.631,8517.935,-9543.699,31289.0078125
77,32827.598,6241.9116,16075.947,-9572.593,6648.9556,-3423.8164,31380.875
78,155789.31,138992.42,154365.03,1427.5896,-4811.6934,-1486.9689,18505.271484375
79,11751.098,11390.182,35062.24,-3905.2388,-6521.2485,-2471.2703,27269.162109375
80,63140.7,48210.062,43355.062,10966.336,6688.741,3500.817,29167.61328125
81,-10539.111,-5760.815,9662.446,15587.855,-2458.9612,-2876.2778,33261.2109375
82,-10858.902,24363.408,14865.675,-5113.611,444.69388,-704.44775,32814.859375
83,-100427.414,-92355.68,-122832.14,13672.569,-535.6015,5640.11,37484.40234375
84,-18291.564,-20954.729,-42861.945,-504.527,11116.941,-12194.838,36919.18359375
85,12631.088,53870.637,31141.107,7415.1655,1775.6973,328.2647,38140.69921875
86,113265.164,115441.8,140262.08,4428.867,-207.94725,-14275.392,36676.19921875
87,50326.703,36835.25,40265.258,18309.611,1563.2378,-8973.876,37445.37890625
88,-43550.17,-60093.63,-20454.191,-8602.599,-1517.5227,-2379.9287,37882.87890625
89,9512.084,-3983.218,-3674.3247,6284.6274,10969.299,-15064.764,36583.56640625
90,-41786.59,-13835.523,-31169.475,-10556.03,10142.78,-203.41507,35217.421875
91,-203820.31,-204684.67,-204219.89,-993.7224,201.87308,-345.37103,2000.98852539063
92,127402.85,126106.7,126902.16,934.0054,-79.67119,161.82413,1999.10559082031
93,329920.53,331845.9,331976.88,70.666176,39.14945,51.272846,2000.96264648438
94,113273.65,114460.125,114264.586,470.6084,-825.0534,166.75406,2000.98388671875
95,-67491.42,-85190.74,-68052.35,-3784.174,5392.4814,17374.078,36598.15234375
96,28016.678,23406.578,12139.967,8463.336,2131.9878,-6706.9663,23740.265625
97,-462895.44,-432832.0,-435914.38,5258.0723,-1794.3783,1935.2725,30405.2890625
98,-120942.266,-117650.55,-99914.47,-7162.445,-4352.4146,9032.342,28970.125
99,536927.4,528377.75,521405.72,725.4405,2747.7195,5402.2373,17120.01171875
100,-720530.25,-720215.94,-721139.25,-481.19772,-697.01416,526.73047,1909.33618164063
101,-37816456.0,-37815748.0,-37814668.0,499.47232,-270.83643,451.34265,2002.9931640625
102,857780.56,857333.56,857965.9,1056.6544,334.9892,14.824723,2000.962890625
103,277272.06,277681.97,278038.3,115.86802,1037.1898,313.52704,2000.88330078125
104,43230.543,45249.938,44807.957,-352.04752,116.97797,257.43787,1998.11279296875
105,354444.25,355797.53,354780.25,659.139,-616.1615,-154.98363,2000.99499511719
106,99608.19,108437.64,119126.836,7143.6353,-3561.9858,8742.752,26590.654296875
107,-1074513.5,-1070771.2,-1073072.9,3007.3904,3214.0354,1750.661,8832.12109375
108,-21909.842,-20291.154,3054.435,6348.677,-3561.6353,2356.9458,27587.39453125
109,59314.914,65030.71,80335.67,4892.6445,12530.503,9757.764,34393.1484375
110,-57559.664,-64869.44,-94616.336,6300.4546,-2448.2183,3920.4773,36591.4296875
111,-946.8466,-3013.7498,17535.15,17203.373,-3460.6865,2337.9548,36390.2734375
112,32634.543,46244.3,44180.69,1739.8695,8332.839,-14541.938,31830.689453125
113,-9406.319,-25002.236,-35594.56,3274.5383,7957.4614,7905.561,30500.033203125
114,-98262.5,-83665.57,-83583.445,2099.9448,-13032.023,3031.3906,27650.93359375
115,-62983.07,-33816.266,-34660.555,74.451065,-5306.7812,-5880.639,31859.6640625
116,-168327.2,-150539.88,-166222.97,7168.276,-13428.576,3814.608,31971.4609375
117,-10896.353,-19450.137,-43325.543,-2750.1191,2434.3237,-7264.9185,32345.505859375
118,28287.57,59330.855,27239.33,8880.447,2164.7424,583.8785,35341.09765625
119,331995.47,349799.16,344744.62,-13528.894,-3225.6228,2952.6807,29308.56640625
120,7527.328,-6850.0063,11196.903,5690.9624,11217.064,-5677.989,29056.490234375
121,-1047772.1,-1049907.1,-1048511.9,233.91454,2.912983,304.02545,1991.87268066406
122,-87915.336,-89313.5,-87656.82,171.91734,-72.678696,710.93317,2000.98266601563
123,-130840.81,-119717.77,-108947.89,-10208.436,3969.2432,-4984.9937,28177.2578125
124,-74404.43,-67213.26,-66309.586,-10720.378,-4604.782,7478.7505,25203.466796875
125,-391287.0,-401841.16,-390385.25,-5186.0527,-933.13293,8304.609,20295.759765625
126,-178198.28,-193083.73,-193703.84,7220.542,3479.1409,-12520.751,29903.53515625
127,471929.5,495063.94,495447.94,-5820.1504,6157.6646,1222.8567,27642.220703125
128,-280065.5,-284916.25,-308530.75,2034.9384,3705.8452,-5273.028,28857.576171875
129,52408.49,66536.79,83682.01,-8400.37,1645.9004,3994.4194,31677.94140625
130,-37852.617,-34871.81,-23614.469,6313.7686,15483.62,-4386.5923,32645.275390625
131,49958.387,33781.18,35696.53,-7520.5957,-16689.129,4082.8538,35911.75
132,96499.555,66743.3,104346.99,-3080.743,-3248.0815,-1681.2448,35343.0390625
133,12527.192,14379.23,-17652.645,4268.9497,1767.0953,-5885.1587,33735.61328125
134,29022.93,16794.762,49125.965,10538.219,-7746.3765,-2291.0547,36447.37890625
135,-25621.535,-42934.76,-29210.498,5530.356,2559.9993,-16341.833,34103.8671875
136,33453.598,47197.273,59003.977,3767.8638,-8641.801,169.13055,27518.587890625
137,32230.031,50996.055,46925.137,-2806.7112,4010.6157,6137.9463,21846.1015625
138,184556.61,205150.73,205244.52,-3649.8245,5627.4556,2215.51,23994.833984375
139,238126.31,225105.92,208856.8,992.9933,861.533,349.15768,25508.53125
140,-79697.51,-101483.45,-87018.45,-9446.49,-3115.045,3088.4827,26347.013671875
141,429241.44,434399.1,410881.28,2401.296,2150.1794,-2533.8591,22557.08203125
142,113380.48,108356.63,87846.07,3257.1355,5308.4277,7056.0034,28542.78515625
143,-42410.086,-38218.137,-64621.17,675.23114,6063.609,-3019.9495,27258.80859375
144,-29241.396,-42935.5,-46122.797,9580.052,7114.461,-5629.923,27633.33984375
145,82797.12,61508.086,68993.34,-156.19995,-4469.3813,-16548.951,35092.7421875
146,20024.38,3944.4817,-19861.863,4203.8647,-3501.6667,-2389.6077,36263.5078125
147,1242.7123,3889.398,18352.69,-9563.706,4377.1807,15262.102,35848.83984375
148,-36452.535,-20515.246,-56154.133,-8316.11,-4478.4717,-4723.0137,35926.3671875
149,-9382.658,-3288.8855,22949.19,1268.786,7705.635,9644.631,36707.984375
150,61404.094,93208.73,78209.12,55.905518,-4949.3335,-7206.629,31444.705078125
151,-11130.774,-38027.992,-36934.996,8448.803,1477.9175,674.11206,30287.279296875
152,-574869.2,-565578.06,-563154.44,11668.414,3149.75,-7715.8467,27046.96875
153,-27319.47,-41023.55,-12006.486,1425.8629,5522.194,-3807.5842,27806.759765625
154,-181376.2,-173790.6,-177986.97,2141.6125,-6896.16,3152.2837,15151.2451171875
155,16682.643,17493.57,16945.203,755.9206,330.58368,694.79333,2000.98522949219
156,-162503.4,-164478.48,-162519.58,-97.38466,8.138277,154.46976,1992.35717773438
157,40011.562,41707.125,40168.34,-613.317,-144.26935,225.79965,1994.38110351563
158,217100.64,219028.34,218945.6,-315.17767,-161.35814,-146.60777,2000.99255371094
159,-101795.02,-118584.07,-104268.38,-2863.1785,5180.949,-2193.1777,19131.501953125
160,-75447.47,-71921.82,-105002.46,3035.0781,-2195.5322,-4133.6846,32916.35546875
161,12835.63,19825.21,-12346.593,4829.568,6044.3433,1197.3179,32293.7890625
162,-81481.88,-80365.63,-91943.664,14244.403,-12909.003,-3222.0432,35526.80078125
163,81346.164,60659.426,70839.38,-2983.1418,12358.869,-8576.737,32040.3828125
164,89419.984,117815.27,99608.68,3833.0715,2931.826,-4356.2686,27342.025390625
165,-200468.47,-189599.78,-171602.61,-472.88007,-1651.6672,2300.3264,25736.38671875
166,-65061.33,-85790.04,-53555.598,7410.5347,-1494.9869,2231.3018,31415.75
167,-400135.16,-405265.0,-430592.22,2826.193,5247.7803,-8244.639,33289.78515625
168,-254351.56,-251209.42,-265324.0,-6472.1084,-4916.995,11727.092,27848.04296875
169,7562.837,-10040.337,16897.066,2675.3503,-10755.585,581.63947,30509.783203125
170,-114628.94,-104927.26,-115280.695,-3727.05,7147.1646,7342.543,21389.90234375
171,153359.25,142000.86,165707.23,5258.52,-1298.8011,13297.771,32252.875
172,138896.05,156062.3,173711.86,-5497.8574,-5840.086,9107.271,36755.8203125
173,-229504.64,-207266.22,-208281.0,6934.7046,-4559.4443,-7228.9863,28920.939453125
174,66751.91,50916.57,61428.688,-2417.4568,-9898.496,14465.11,33674.78125
175,-105587.68,-80124.38,-70653.125,-5433.8,6980.152,2595.868,35131.40234375
176,6915.3574,-13900.295,22701.97,3007.8723,6149.946,6757.971,35898.95703125
177,529673.4,555050.3,561655.9,-596.0547,207.48746,5441.8037,30745.50390625
178,9131.318,-1608.0175,-9763.95,2898.706,-17540.484,-1731.0289,35023.484375
179,204312.48,200848.78,234047.02,9236.591,-163.7088,1108.1511,35480.125
180,68887.766,70769.86,69977.195,10554.864,13617.284,-1246.3673,29964.07421875
181,-181647.86,-173464.23,-178950.44,-602.39716,-7231.67,-1102.965,14621.9873046875
182,78146.8,89593.13,104503.28,9023.355,-1262.1864,7425.0005,30633.83203125
183,-98801.03,-70933.31,-70868.37,-995.35925,5476.2817,7372.1104,32162.23046875
184,42784.33,45830.23,64446.34,10133.154,10990.496,1841.3197,33062.46875
185,-22611.965,-12288.327,-20493.2,-18271.219,8547.885,-1671.8455,36308.26171875
186,-13339.458,3394.2747,7268.157,7225.549,1532.9563,-12782.347,31838.498046875
187,48210.23,73666.24,74857.23,-3023.4563,11787.279,10338.869,38008.75
188,40110.406,43254.656,44240.387,1452.7664,1617.484,-9301.509,16961.482421875
189,617972.0,612597.44,636238.6,-615.8912,4649.433,1769.1423,23154.046875
190,960968.25,960957.9,962102.1,665.9147,-624.5731,-261.30136,2000.7451171875
191,649287.56,648672.4,643254.94,-3511.9854,9594.018,1767.6954,18856.609375
192,700337.3,701331.75,699896.7,-504.0666,734.5577,24.360489,2000.99609375
193,462662.28,461763.12,463080.6,99.24158,-915.6523,-182.18384,2000.99291992188
194,112342.09,111906.06,113938.484,-115.43805,379.52896,-179.91624,2000.96887207031
195,311089.25,312323.03,310873.62,144.67645,79.764046,833.52454,2000.22863769531
196,18695.959,18848.742,18535.559,159.02861,879.5527,-714.9956,2000.98547363281
197,19846.637,19461.195,20010.639,-1051.5901,-117.03644,368.1714,2000.98547363281
198,300977.12,299453.75,299816.22,-131.42838,-768.8765,304.8051,2000.98254394531
199,-498084.66,-496437.56,-498256.3,322.61612,-94.35803,-461.8572,2001.00170898438
200,30732.908,32902.6,31272.0,-57.235054,-45.31885,-230.5315,2000.98681640625
201,79497.71,77742.1,78179.02,1.8151922,286.4426,645.9586,2000.98645019531
202,214772.88,216562.75,215313.5,268.61362,-369.34293,-532.0615,2000.81176757813
203,73034.414,69329.586,73848.42,-626.7138,-219.36934,-921.3326,4612.30517578125
204,8292.105,9019.679,9897.432,500.9947,-127.29013,649.07745,2000.9853515625
205,200964.58,197273.28,215757.48,-3911.187,1095.7015,-5588.212,20742.201171875
206,291313.84,282239.1,303805.84,1893.2203,4025.618,-231.281,20280.361328125
207,-256965.5,-263404.75,-261265.78,4429.3003,12682.986,-3375.8535,24655.333984375
208,225884.06,241374.08,227161.66,-32.4966,-5174.896,-1623.5724,17607.744140625
209,35111.31,40581.656,43747.164,-15324.343,-5299.767,-527.3317,29100.943359375
210,32301.44,32546.992,46794.117,3539.843,-3307.3083,-2598.9314,17239.75
211,94850.375,102566.484,123225.76,960.8628,5966.5635,-2827.3987,27916.03515625
212,-117297.09,-121935.99,-115726.984,-16009.579,-1134.0656,500.3615,28368.953125
213,106393.29,105193.94,136744.02,-4170.452,3032.3765,91.444214,32230.34765625
214,27077.322,39424.82,18565.926,-1142.8159,5305.673,6561.7764,23399.537109375
215,155450.67,140101.6,160695.17,3270.8726,-4575.407,-13919.008,31932.9375
216,18706.04,51580.668,30264.307,5944.72,-10324.442,5953.6562,36966.20703125
217,-27111.547,7433.198,-28696.072,1548.4274,2415.1409,-692.0393,35731.15625
218,-51361.176,-43373.77,-44479.434,-2786.9924,17564.44,6046.777,33387.28515625
219,133266.3,105732.805,125540.63,13923.631,3491.688,-5841.1597,36408.79296875
220,-39248.332,-34486.418,-5800.984,-8554.539,-7381.6426,-5026.306,37959.51953125
221,-13159.352,-28002.775,-47309.047,-14116.904,-2199.0884,-3158.7476,39011.953125
222,48835.46,36201.055,71422.75,-2808.025,8707.699,7521.4893,37094.9609375
223,52726.867,39787.484,18493.877,-957.9585,13075.462,3774.2927,38141.36328125
224,-155610.98,-163041.03,-128636.44,-5961.561,-5899.7954,1741.9943,34690.0703125
225,-100068.47,-136110.38,-113868.53,11217.482,-3783.5068,-5076.989,38598.55078125
226,-90494.42,-109066.31,-120023.95,276.56262,-8890.654,-11592.802,36180.50390625
227,-108531.41,-91850.93,-119534.92,7490.9624,-5860.2695,-12974.929,36868.3828125
228,66938.99,79018.34,57528.6,15116.646,-7479.9985,-9909.773,38679.953125
229,88595.12,114037.83,79331.586,-5395.8896,5493.1733,-8008.0234,36593.58984375
230,19221.16,-8985.868,25658.47,-5555.546,-8568.214,-1807.1448,36623.5625
231,-55901.844,-47573.625,-58844.953,-16716.791,5673.2847,2593.1418,32521.021484375
232,-16422.594,-19063.914,106.32859,2848.7544,-15627.247,-5628.682,34290.88671875
233,525.10565,22434.184,37957.02,-10374.014,-2544.1519,2288.6572,37670.2734375
234,-52262.82,-40443.293,-40299.26,10888.701,-15781.734,-2838.28,35615.625
235,58051.168,76338.05,69588.32,8908.656,3402.0261,9888.924,28683.16015625
236,-183836.2,-178667.05,-199593.75,-6456.9067,-4398.625,-965.0238,23289.185546875
237,74796.93,49819.695,69839.24,5623.422,-1228.7051,7350.681,28037.59765625
238,-17741.611,176.99417,-26201.553,-519.62317,5000.801,-11419.46,31800.685546875
239,111680.99,107328.11,123713.98,4130.4595,-10880.524,3494.1736,25672.6640625
240,7086.8096,3621.9285,24997.334,-11336.856,12605.382,-9507.36,39093.21875
241,23048.172,24853.037,47322.234,12764.992,4147.9487,1792.7943,33147.703125
242,-208548.08,-202726.77,-202445.61,3393.6838,-6914.4404,2843.639,15422.126953125
243,37492.867,18299.29,17617.951,-1218.7161,16187.838,5754.961,35663.53515625
244,55408.83,50580.63,22812.605,-5991.228,740.82336,-2478.5608,32499.3046875
245,-27656.477,-56281.57,-46359.28,2590.992,-3285.8997,7643.527,29353.416015625
246,-299733.72,-287823.4,-273397.75,-5602.098,-1774.3193,1470.6022,25136.671875
247,55474.73,76740.09,86517.7,-1306.7909,-5074.352,1616.1984,29085.19140625
248,75870.15,65672.93,98096.69,6520.0195,3054.8484,5125.5015,32542.154296875
249,283399.8,304866.9,312454.47,-10254.587,2612.4675,2188.925,32118.669921875
250,-349423.03,-370676.53,-389280.47,-4651.5605,1617.6821,1369.6039,35659.58203125
251,135093.38,103585.68,101081.05,6742.2124,2236.3079,-2424.4678,35311.9375
252,-114146.75,-138531.03,-129793.016,9392.817,1665.4467,12525.477,34663.1640625
253,197948.1,224071.45,227808.3,-11170.482,-9107.334,-78.82835,37645.73046875
254,45633.45,50915.562,37188.176,-1118.1233,3169.6667,14231.512,28023.7578125
255,-62003.812,-61914.67,-62578.8,167.88918,1080.6012,-93.90681,2000.98107910156
256,-11951.189,-16394.41,-4222.198,11617.248,1966.3033,2739.9858,23512.2109375
257,-183854.94,-171915.4,-171570.36,-224.38786,11541.236,-3981.7363,24374.275390625
258,72182.586,80455.25,69719.16,13570.815,-6245.951,10709.29,33293.96484375
259,128153.58,111894.41,127354.94,4012.1929,-9130.501,-9127.612,28290.359375
260,-33021.375,-56552.285,-25364.26,-8259.91,-11684.934,6332.3457,39078.140625
261,29764.273,58182.523,27231.592,-4470.2505,-4213.667,-3889.6274,32320.083984375
262,114725.62,92018.18,120335.12,10001.115,-2863.452,-3618.9456,32224.6328125
263,-17443.96,-18195.84,-43343.473,12807.008,-4306.87,3781.1199,35248.73046875
264,-232930.72,-219819.88,-259228.66,-2001.7671,-4061.4211,1599.5737,35741.3828125
265,168.01888,13515.134,11535.426,-14499.704,-8199.883,-5323.424,32758.1484375
266,31112.121,40219.816,62309.344,-220.95059,-1384.1031,-14441.863,37465.69140625
267,-455355.3,-461284.9,-487129.06,9977.616,5109.272,1067.8048,35167.015625
268,344727.25,365944.25,338789.0,2811.0215,9568.757,4578.4775,31188.009765625
269,533903.2,558534.3,549335.5,3155.0476,4570.048,-2214.7078,23915.8359375
270,-158258.8,-139794.8,-176326.36,-2843.7344,3353.9697,-1516.8768,32647.60546875
271,274014.47,278953.06,308666.2,805.3209,2330.4482,1308.6405,32823.41796875
272,-41016.82,-9546.289,-26097.93,1806.413,3537.9797,-1000.6351,28174.5859375
273,233880.19,228882.39,231695.84,-2907.4043,-17635.426,-935.0686,31302.384765625
274,-595309.25,-596385.1,-593043.6,-809.07544,10648.795,2576.9968,19256.30078125
275,228170.66,228302.83,229569.11,-226.5979,-414.65894,717.8175,2000.98889160156
276,117548.58,105899.41,111550.055,-16878.791,-7353.6206,4375.137,34294.9140625
277,-144322.66,-171459.81,-180304.84,385.94113,2760.8567,-4284.941,33661.32421875
278,-9994.94,20019.152,-17631.326,3314.6907,-2100.481,5374.383,36348.4375
279,-10562.562,-10076.743,-8519.82,9674.046,-20800.104,3098.0393,40136.07421875
280,-3464.95,-8940.743,-39098.88,4265.607,-4945.569,4045.2822,35800.73046875
281,92266.336,74926.88,57357.984,7168.5425,786.46857,-475.92416,32720.89453125
282,15588.573,-11197.567,17428.46,1782.8007,-7388.725,-14186.982,39335.63671875
283,18042.074,-2986.7852,40455.668,-6026.6997,700.20306,-5307.914,40135.6484375
284,-232211.2,-236690.69,-230942.05,2885.7637,12932.004,-758.43005,23574.994140625
285,132843.5,133006.25,133209.06,-178.80603,931.40717,633.7145,2000.97058105469
286,173657.06,194175.1,173493.53,-1806.7595,-4247.053,3526.1096,22925.478515625
287,7064.721,6687.2803,7805.4185,-969.02484,166.70557,207.87508,2000.17492675781
288,36086.74,37485.133,36275.965,-529.5421,-690.204,-47.80242,2000.98596191406
289,50405.465,51442.465,50386.0,-913.069,-29.307999,-367.12982,2000.98657226563
290,542681.9,542245.6,543101.9,209.45888,-864.0551,-600.6985,2000.96166992188
291,263801.8,265215.06,264786.2,18.029022,-897.0436,67.93169,2000.99536132813
292,-2411.6245,-8260.566,-18033.16,5012.808,9056.38,-14781.464,34114.3203125
293,48559.863,50917.61,63394.48,6923.3354,-12109.195,-1774.6901,27996.296875
294,-904625.25,-894209.44,-907903.1,-6695.337,-1782.4579,2020.7533,17596.583984375
295,100886.2,106419.44,139005.62,1310.1835,-5338.964,-1103.6519,36974.328125
296,-1236.583,-21532.73,-4463.684,1989.6935,-641.17035,8057.8096,23764.361328125
297,-86648.9,-112160.03,-117838.62,6794.8345,11558.814,3308.7295,37417.94140625
298,6600.2017,36378.387,25778.7,-11142.611,735.26324,4959.421,33635.3515625
299,-23689.5,-34047.05,-7853.639,10195.286,-9859.672,11070.868,38642.4296875
300,-40055.7,-74027.76,-43734.25,-4090.5845,1863.073,11887.905,39079.9609375
301,-31183.924,-16411.102,-53042.336,1995.0648,-3327.0894,592.87463,32636.49609375
302,368791.06,350836.03,385872.0,6165.0093,-6247.804,-1483.8137,34037.6640625
303,-177047.34,-177142.61,-165740.3,-5105.828,11007.1045,-2023.2987,24143.203125
304,-294815.3,-315483.53,-315391.53,-7116.741,5703.731,-15.748343,25977.38671875
305,25343.45,22143.387,5031.088,11545.815,-6227.0996,-9759.169,34055.890625
306,28624.578,25951.088,30037.146,5420.812,9812.922,4604.9062,21297.201171875
307,97289.945,90712.01,107314.15,-14965.931,-5499.0303,6511.433,33159.375
308,49309.098,67995.42,64910.582,5053.115,-1806.071,-15811.246,33725.7265625
309,-44678.754,-67486.82,-47041.883,-4008.4534,3781.2861,18027.533,39216.92578125
310,4945.594,27454.5,44078.168,1497.0504,-2326.8225,648.5058,34371.57421875
311,13673.394,3241.3481,32736.932,-7577.157,-1055.7235,11645.644,35405.7109375
312,-98518.01,-98368.72,-123962.695,13071.503,-2627.6245,3574.2124,34969.75390625
313,-403937.88,-406347.84,-410127.56,-13140.04,-4715.483,1400.993,24895.3984375
314,124600.63,132947.94,155118.64,-1209.273,7273.213,3120.0383,30636.138671875
315,92688.0,92412.13,92081.016,552.0164,-724.3804,-642.27637,2000.74731445313
316,50673.004,50400.375,52352.027,-212.28543,-43.24512,-412.19116,2000.42663574219
317,396437.94,394658.4,396643.1,-147.1424,-241.55708,251.16139,2000.78747558594
318,75648.31,74411.766,74846.28,222.40471,599.08496,-729.90576,2000.98486328125
319,129234.02,116069.35,129589.46,2311.0574,3457.1199,-16.978262,15165.5205078125
320,-538894.8,-531284.3,-556205.44,-2676.8445,-2308.8372,-3260.1975,23636.736328125
321,77396.31,65286.48,81454.61,11653.03,7074.0645,4933.7544,29030.939453125
322,14156.757,21850.412,7987.4263,3189.3816,16293.702,4537.766,32147.509765625
323,31792.209,22519.988,7820.5747,-4854.5806,-3534.1335,7977.3125,27155.603515625
324,169028.4,168858.86,162040.14,6846.2817,5097.193,-10282.929,24154.802734375
325,-7593.506,-14357.07,-43195.312,-2135.2947,7480.3936,-224.51854,35413.80859375
326,-9074.581,-11781.392,-11561.154,4560.6963,-13992.724,-17474.441,39656.48046875
327,-97393.086,-87201.695,-88645.55,247.14658,-5939.1655,12617.835,25978.220703125
328,16733.729,546.84625,-299.69733,-5886.604,5943.244,15575.887,34845.1171875
329,20428.121,-11365.53,4444.1426,5254.1133,-542.5746,5475.6772,30525.140625
330,-18608.396,-40693.535,-44819.004,675.5359,-9568.613,3308.4966,30079.34375
331,330705.16,318355.44,323485.97,-9764.573,-3778.742,9826.029,27092.56640625
332,-1335.3174,-14340.771,1398.1255,12388.942,-10694.213,4019.0437,32621.736328125
333,-164988.0,-173425.44,-195717.39,-5835.9746,-8047.906,-2161.2698,32660.43359375
334,-230924.0,-246330.94,-218990.22,11362.044,5131.368,-7222.831,34444.75
335,140164.97,142726.8,128985.33,-12476.169,5132.65,-11460.442,33169.40625
336,-27317.16,-38050.508,-13231.887,4626.449,-8511.558,-1543.7671,27449.650390625
337,82340.94,41059.22,68744.125,-6112.593,363.18283,4483.833,38737.0
338,91422.125,66620.85,95970.79,4903.0635,4561.92,4432.6646,30693.73046875
339,13536.068,13299.073,45330.18,-6154.5366,-6245.7773,-1744.5612,35471.83984375
340,5001.2075,28111.004,-2983.9705,6999.294,-2839.97,-10425.354,35771.390625
341,60152.28,25886.111,51615.86,-8766.395,-209.80807,2494.3884,34696.9375
342,45886.906,79584.5,44042.5,2994.5876,3267.9412,-1262.2184,35564.05859375
343,-89245.86,-73157.164,-107141.414,139.00345,-10728.768,-8504.463,37806.984375
344,-55097.047,-47429.83,-63646.58,-3026.1636,11162.915,1148.9436,24549.888671875
345,-8074.1885,13296.504,33069.984,-994.8512,-312.23578,-4749.5273,36622.47265625
346,57057.445,63184.637,22592.307,3100.0203,-4250.0264,4838.8857,39872.6171875
347,-11565.519,-27271.203,4044.666,12557.172,8229.585,6270.0557,39111.14453125
348,-30360.201,-12543.062,544.8666,-3826.2783,-9517.671,6457.6064,34098.609375
349,-2681.4658,30031.459,14541.495,-5330.396,-4361.2134,5383.4624,32134.052734375
350,-58434.566,-48448.145,-87294.24,-3389.6904,5726.4614,1140.5311,36845.1328125
351,113467.95,137731.77,104753.805,450.1055,7620.9917,-9729.41,36536.8046875
352,87000.17,51768.125,63912.887,4670.8965,902.62714,429.86108,32083.609375
353,45825.652,72394.695,28914.596,-433.60663,4258.8257,-1928.5293,38824.515625
354,-61437.137,-62540.43,-73102.46,-17559.549,9465.983,3848.201,36914.5
355,43364.953,34586.617,18521.336,-12160.1045,-3896.0735,-349.38135,31075.515625
356,24294.76,48179.78,15808.223,288.45633,-4034.0242,-3225.9702,30422.146484375
357,-111101.54,-84670.96,-78187.11,-6827.5054,3332.491,-2413.9048,33205.8671875
358,13422.477,-8877.744,-14894.436,-10443.924,-4069.8428,2596.2905,32631.482421875
359,-34930.867,-64131.695,-73857.43,1329.2673,-2782.887,-1995.186,35661.6640625
360,48949.914,34573.53,76673.836,8037.0723,687.86566,-1240.2119,39669.6796875
361,12998.417,15415.403,27695.496,3889.9858,834.2315,1567.2498,15529.83984375
362,-35393.043,-37617.855,-70728.9,-1187.0266,4861.949,615.1495,35372.796875
363,-350.70325,-7634.5396,964.4155,-1296.0925,1525.2501,339.98862,8759.4755859375
364,33090.64,36643.727,73290.85,-79.898895,3131.3367,-3314.1694,39347.5859375
365,37499.844,38664.086,25359.215,14292.949,-1536.4069,1704.3685,28134.43359375
366,17056.475,8210.856,-17658.604,-9370.39,-5739.489,-2839.7075,36915.23828125
367,178554.92,162694.33,187496.03,-6021.972,408.2412,145.4521,24138.5390625
368,145842.4,145738.77,147070.1,206.50879,-649.92346,566.747,2000.98522949219
369,51514.223,51651.91,52316.855,141.55069,880.04114,-596.587,2000.98474121094
370,30097.36,29838.771,34430.984,-1435.8817,7016.2847,-5201.547,15968.91015625
371,-190657.61,-185363.23,-188476.6,-2958.4656,3453.4836,-6071.6636,13923.8154296875
372,47728.48,64714.105,87377.94,-8601.115,1191.0867,2747.9133,37894.15234375
373,3904.9053,-828.7986,5093.3896,-1807.539,569.0814,1274.1936,6714.9267578125
374,-7787.58,-1110.0979,-6109.1406,3227.8857,157.61377,355.9937,8240.791015625
375,1317.7588,-2931.5442,-8951.85,-2207.2578,402.53638,604.4623,9802.0888671875
376,-1362.4373,-17851.973,24962.516,-4212.7456,457.85876,-2573.8535,38376.28125
377,-37597.812,-35027.816,-2766.2422,11442.508,-949.0257,-3736.1865,39594.171875
378,-1831.0087,-26988.86,-32240.271,-4260.2925,-1987.2694,-12454.789,36390.5546875
379,-39905.934,-28688.412,-67118.22,-2080.7166,79.28864,-718.98303,34440.578125
380,21199.533,20071.062,39479.766,1165.4453,4859.497,-1175.9591,20859.927734375
381,-27064.426,-21514.256,-27148.625,-7945.737,-1076.432,5510.2915,17755.25390625
382,43058.125,31908.244,71373.15,-102.91799,4249.678,4237.394,36740.265625
383,-15974.901,-21408.254,-27268.898,692.7401,1971.1384,2802.3496,11505.07421875
384,-43323.504,-46513.527,-72727.28,1756.3463,-3213.5093,-3000.7615,29124.001953125
385,45016.336,34634.156,62761.926,1460.6128,3420.9937,3698.6633,26258.01953125
386,-7176.617,-14194.789,-20876.543,-151.40472,761.2839,381.65515,11959.8779296875
387,24756.564,18081.953,14485.777,-5097.233,23.795216,-4892.9307,15207.0830078125
388,-8650.497,-15736.716,22721.895,-6087.6973,-316.1346,1728.3816,37110.578125
389,17991.926,24398.055,19137.14,16078.563,-3228.2449,1072.3552,29073.849609375
390,14703.127,20861.5,12159.234,-5530.3574,5495.3193,-3801.4087,16904.599609375
391,-101070.41,-80523.58,-90526.58,-13088.421,7745.54,-6470.543,33707.66015625
392,-2458.5896,-8705.745,8333.808,-1161.5753,-376.45648,296.7045,15088.4580078125
393,44018.688,44053.64,45440.77,-205.94511,-591.0601,533.80005,2000.98889160156
394,57408.11,57121.45,57669.58,95.47268,-1100.1051,200.34114,2000.98510742188
395,42789.688,42937.7,43382.7,654.9163,460.58105,773.5191,2000.98571777344
396,-33327.848,-42256.434,-39458.977,3992.8591,2989.3562,1984.1471,12207.2158203125
397,4629.6367,3679.685,516.8323,-81.451675,1071.5498,-1514.6276,4925.185546875
398,-3011.8115,-19802.754,25297.334,2125.734,-403.0355,651.01294,39673.61328125
399,-31818.027,-20688.832,-34007.707,111.05579,5228.7856,6677.397,19205.30078125
400,13716.78,11795.956,36925.316,-1689.0673,2008.0934,-4375.912,25787.732421875
401,-44825.336,-46590.816,-71879.414,-1055.2834,-2628.0173,-1516.5104,26799.931640625
402,-42998.926,-33299.41,-71516.29,-1039.1405,-4107.3447,48.38618,35182.1328125
403,31577.229,37158.504,1340.6377,-6060.4897,-3202.9468,4529.3516,36285.9609375
404,13471.734,-2354.9626,19602.754,-11669.841,2645.0417,1459.3304,28653.80859375
405,-97183.66,-90762.15,-95589.21,-4373.493,13702.31,3349.568,26226.708984375
406,31582.648,22807.27,35151.426,-777.0863,2803.2888,-2308.0132,12744.7431640625
407,76641.1,92030.77,106509.77,8953.049,1241.0192,5771.355,31848.51171875
408,15364.884,14446.72,30818.717,8049.911,7758.6963,-2897.1782,25573.998046875
409,-71181.3,-74226.11,-65832.62,17065.059,3054.012,-7709.0776,33676.16796875
410,35547.723,56067.234,36675.45,8693.752,-388.20474,9423.009,29879.041015625
411,92206.84,132704.1,102318.08,3604.2122,-4999.5166,90.27072,38036.40625
412,-37499.61,-49785.38,-78383.37,1389.0685,1211.7166,3679.9595,37026.3828125
413,-1214.2036,-201.72949,-23035.928,7363.895,-5409.2305,-3726.4368,28132.291015625
414,571.78613,-15840.518,-13830.035,740.36755,-5449.803,-525.12756,18220.369140625
415,24300.928,19322.012,53676.406,4154.193,-3771.2349,711.6287,33614.34375
416,124250.5,125523.41,122866.54,3340.2446,2206.9246,-13700.903,24829.916015625
417,14185.774,33135.957,29028.467,-1301.4358,-5585.929,14761.576,32412.10546875
418,-2411.4355,-10762.05,-5426.49,321.78262,-4626.407,-6220.058,15304.7275390625
419,-24251.975,-4223.698,-29547.746,-316.667,4384.1094,4097.2563,25368.619140625
420,6166.4053,-2953.8613,30365.598,-5709.104,497.16107,-3019.443,31864.673828125
421,25703.344,25809.29,-7359.947,-6967.0283,4079.785,-1221.9371,36010.09765625
422,69545.06,73944.28,109830.305,-1354.0956,877.3989,2162.842,38560.0078125
423,-67353.336,-70265.14,-107925.95,-862.4496,2478.8586,596.81146,39474.17578125
424,-40202.125,-68357.34,-40048.664,-15570.248,-648.3334,-3720.1812,39587.1015625
425,71418.41,37546.8,42236.49,-10883.383,5179.9033,-1750.006,38150.45703125
426,27623.877,43116.734,2240.1426,6158.5454,7897.9336,2217.8315,39916.171875
427,-7830.953,-28572.082,14078.963,4067.093,753.11865,2054.6953,37797.6953125
428,-42342.0,-33283.54,-75841.016,276.0595,1094.2771,-364.6587,38883.27734375
429,-29673.574,-13454.606,-8697.167,-4350.0254,5032.1865,583.14557,22284.658203125
430,-7811.799,-22508.049,-17797.467,-2238.1182,-3107.921,-8232.383,20402.521484375
431,127.33252,-4834.9336,15990.059,-7004.364,388.58258,5419.876,24304.87109375
432,97430.89,94737.49,128305.4,8303.202,1098.516,-5622.1934,36727.69921875
433,-71742.875,-75513.9,-113550.42,-282.68817,400.18695,135.32396,40065.06640625
434,46518.547,46718.39,47875.92,562.5534,-301.10382,-624.8783,2000.98718261719
435,40124.305,24643.691,41530.32,-19186.088,-6617.4727,2995.821,39064.1484375
436,72139.01,65646.93,104488.62,-1853.0557,-3818.928,68.63434,36779.4609375
437,-7772.653,-6558.1187,-25153.031,-2902.3691,159.28981,433.20294,18723.5703125
438,-300206.78,-288821.16,-298023.3,3155.2942,-5136.022,-1319.1124,14958.7373046875
439,16885.906,569.3496,15448.285,357.95605,4375.473,-1485.4429,17586.302734375
440,-112264.125,-110158.61,-135523.84,4103.6763,4070.848,10533.306,32054.779296875
441,-22547.924,-20150.074,-43945.973,-4912.9395,-1486.3038,1712.8665,24551.486328125
442,14917.848,11903.123,27757.723,2226.905,424.79425,1427.5763,15303.33984375
443,49457.055,43855.883,65711.84,1243.6924,364.4646,3725.4182,20816.15234375
444,-2560.2617,-4014.3296,-19045.062,-616.6413,-1667.3833,-52.452744,16105.3544921875
445,-30237.348,-5222.0215,-4377.673,-2045.5438,3401.0762,-1268.3113,26451.49609375
446,9119.932,21537.797,-3515.6506,19066.63,-1900.7587,210.03046,39652.8515625
447,-14046.947,-2949.1191,5571.4,1682.0784,1260.0089,206.07257,17426.955078125
448,7355.671,14507.048,23265.305,-684.8461,-3453.2598,855.4266,15161.1396484375
449,-34511.94,-33829.44,-54661.203,562.3944,553.22705,910.7172,20604.9921875
450,-17913.527,-58230.93,-25767.342,-292.24142,1681.0239,2186.2517,37330.98828125
451,-121945.66,-117964.555,-155503.69,-1028.3743,-113.92636,687.62085,35780.140625
452,-6800.531,3567.84,-39171.043,-1184.3146,1574.0979,3284.1204,39178.82421875
453,-31518.816,-23034.018,-16172.996,5018.5293,-1392.7625,-122.690315,16084.1923828125
454,23804.965,17961.348,-17592.387,-5367.6333,177.95601,-225.22021,39908.14453125
455,47627.79,56304.42,62614.098,-5923.746,908.6031,-130.74654,16662.62109375
456,40777.668,54635.29,61965.773,8064.4917,-1885.617,-3927.267,24482.599609375
457,66315.63,50563.05,63122.14,-5915.6074,1553.9999,-4013.238,19198.5078125
458,-57111.902,-52681.566,-87973.61,3322.448,813.85925,-1954.5331,33990.6484375
459,19600.914,17324.441,54748.453,-539.54803,-1558.418,1516.7343,36545.9296875
460,61240.57,58955.68,70800.77,-3922.5703,4743.874,-12240.579,26108.048828125
461,-32523.86,-78424.086,-58151.195,137.77913,329.24576,1283.7101,39907.59765625
462,5291.5674,926.6426,-13823.334,-1542.2231,-2582.93,301.87854,18122.369140625
463,-56011.54,-66257.26,-37356.344,12701.311,-199.36964,643.0115,33607.38671875
464,38305.89,36200.504,12861.329,-5524.7334,-1767.488,1542.9554,26577.62109375
465,7075.7305,7545.186,2502.9072,-281.87097,2966.1836,137.92007,7068.80419921875
466,-14669.277,4822.2944,21450.898,-1636.9539,397.44443,-2877.489,31841.828125
467,-31531.242,-10582.023,-53853.273,7125.8237,-1194.5287,1806.1759,39638.0078125
468,-24592.611,-19929.85,-18844.998,-10577.038,713.4429,-2214.554,19489.423828125
469,3289.729,-4252.418,25924.258,-6443.544,961.85657,792.5385,29481.119140625
470,-44603.02,-38830.72,-67367.56,-9811.736,-2195.421,2283.0686,31652.091796875
471,-14583.831,2193.777,12428.991,16172.141,-5985.41,2062.4668,38246.84765625
472,26834.703,37225.215,14684.593,5606.1704,83.98069,10727.596,28659.837890625
473,32397.246,36226.477,47899.145,-13181.39,1548.7294,-6606.233,29240.0625
474,53501.258,66468.61,90547.625,12625.508,109.639915,1883.0109,39358.30078125
475,39365.402,39220.848,75635.71,46.072636,1299.1357,-19.540726,36412.5
476,34734.094,33110.887,69848.86,-4493.615,1533.6564,3412.7588,37353.11328125
477,10584.26,2172.252,42115.24,-5356.241,15.190071,-146.70915,37634.24609375
478,-17605.354,-4560.8105,-21628.9,-1461.654,2557.9617,-1397.8444,16454.029296875
479,-818.0179,11791.022,-29199.035,1828.208,-2378.7866,-1390.4202,36812.09375
480,7264.0176,17077.457,35341.297,1880.1449,367.12344,962.061,24957.732421875
481,41578.344,45086.812,56513.926,-10561.14,3549.1208,426.99594,23578.140625
482,18109.637,14736.523,26998.668,-5987.0693,-766.16,-57.95333,15155.28125
483,5748.461,1731.5778,-2420.0088,-1006.2518,2030.4121,2173.8735,8923.5634765625
484,-1902.8772,-4449.5605,8786.39,1343.6835,-664.66113,231.66383,12444.716796875
485,-7873.082,-7023.4707,-11380.775,1785.4323,1133.161,149.45515,5430.32275390625
486,-71887.695,-73667.266,-42275.23,-416.86935,2665.1836,-1071.8384,30952.220703125
487,-415.2964,3947.6729,17143.572,247.9178,-726.5721,900.69135,15966.9169921875
488,8816.97,13145.294,10236.355,5480.315,9.940543,-1159.6981,10427.9443359375
489,-2766.1711,-21544.324,-19668.59,-9389.9,-527.84375,-324.2302,24219.341796875
490,-22600.205,-36585.855,-62421.598,6204.496,1629.2035,1740.3552,36836.80859375
491,-11481.002,-17915.61,-18692.705,-298.88705,966.4825,1130.302,7342.43603515625
492,40717.027,30229.418,50517.32,3044.6746,180.16985,-2075.0466,18698.724609375
493,-52906.04,-71656.45,-86818.9,-12700.718,-228.59233,-490.3578,36750.2734375
494,-40482.79,-29418.691,-20927.154,-6155.085,-2120.8977,-2770.231,20943.830078125
495,-22377.36,-30023.773,-50627.562,-1527.6381,1468.2155,-1125.5234,25647.560546875
496,20441.447,21595.818,24097.521,-804.97284,1665.9425,-2452.8784,6228.873046875
497,23364.172,24901.33,24775.84,3884.3582,1655.7988,2088.0984,8291.91796875
498,12348.465,-3224.9202,-756.3198,11872.565,-3068.4746,300.61362,25721.021484375
499,3907.2734,6414.156,9034.245,-2148.6304,961.3384,-1230.8634,6394.138671875
500,30365.287,13140.939,35048.75,-14555.055,4027.054,-1136.7177,32975.1328125
501,-13885.393,-36300.39,-6216.662,4649.3657,-860.7313,-3430.0576,28905.09375
502,-39916.156,-72657.836,-82705.68,1308.6714,-1494.115,1775.4618,39028.859375
503,6792.499,5863.7485,22336.275,2259.5107,141.30367,473.89154,16521.4296875
504,72636.01,84996.586,115417.43,5200.736,2412.782,-2698.047,39682.1953125
505,-24766.703,-26809.902,-25201.879,7707.6997,-441.90424,1310.973,13690.9677734375
506,49704.305,44493.273,20964.71,2090.6099,3234.0771,2289.1572,27632.708984375
507,-18867.373,-20652.055,-44328.62,792.3729,63.05184,-3451.6047,25370.380859375
508,-25354.664,-16675.803,-26173.025,-4433.0063,-6715.8726,508.24747,16677.326171875
509,-9973.88,-11481.561,-13436.718,-1677.6958,-777.21844,795.591,4604.19189453125
510,26573.9,41241.67,14035.431,3709.1714,658.88074,2074.9487,24733.794921875
511,-46960.055,-52229.695,-72927.42,-9109.513,3707.9592,-4936.8184,30472.080078125
512,-13252.236,-8133.604,-46262.25,7513.88,-607.58386,2012.7626,38307.4921875
513,-3461.8765,8200.446,16059.391,2814.8962,-621.40814,1509.9988,17921.94140625
514,-24027.203,-26270.068,-46655.57,5562.4233,1011.82135,1464.5613,23846.359375
515,-22667.55,-23155.473,-38019.945,650.5347,-841.5278,-863.6998,15299.521484375
516,3486.3955,5928.698,-6792.644,187.2072,-173.437,661.7747,11757.43359375
517,-10496.59,-9491.817,-14000.586,407.22357,-1054.4115,1847.5294,5557.0869140625
518,42060.87,3175.9902,25108.771,-1422.8622,-3548.5278,620.8298,34427.21875
519,-38778.016,-47267.54,-79180.22,-5605.1055,-565.60315,3210.8762,38568.8359375
520,-21286.459,-27418.797,-28258.695,-3239.3115,572.2214,-3010.2886,10154.2490234375
521,10570.232,12140.397,3521.5698,744.98096,3204.9866,91.25336,9783.783203125
522,42539.727,61116.266,83134.164,-9071.937,-1938.9883,-2503.7974,38934.28125
523,-18615.643,-19430.658,-28651.545,-1845.6057,-710.7299,871.4304,10354.5419921875
524,30541.521,18659.037,24436.94,-2221.103,905.50946,869.44476,11200.4140625
525,33571.45,39811.492,71433.36,657.51953,-3206.6875,1336.3218,35689.0078125
526,2906.9707,-4115.8164,-11680.563,-2943.673,-2508.6306,-1063.043,14419.98828125
527,-62477.504,-57654.42,-55737.344,3180.6924,-5.624057,1126.2896,8386.8720703125
528,6774.412,5296.8506,15614.09,4051.707,1223.8588,394.7734,12148.837890625
529,62784.55,75108.72,34041.35,2048.8972,-1199.5714,-656.52576,36749.1015625
530,4515.7686,-20954.805,11239.868,-8231.003,-259.77612,-5075.5884,33852.1171875
531,53230.566,31553.06,75183.89,1968.4607,-2124.6257,2097.7197,38289.99609375
532,-20541.307,-9869.2,-36228.668,3463.6118,-1522.1609,-2657.6353,24321.474609375
533,14009.415,9273.251,16947.365,-985.5732,2778.8699,969.90283,8595.345703125
534,12704.911,29594.982,23393.166,2862.6973,-2679.7341,4535.5073,18078.396484375
535,28646.69,26442.324,35797.008,-289.03787,-1470.7954,-19.492983,8859.4404296875
536,23899.371,-9159.648,4576.274,-23.844696,-1085.4088,-3386.6143,29418.05078125
537,-13269.052,-4818.5635,-17511.924,-3008.6191,-998.9459,2810.8896,13383.548828125
538,-4750.7305,145.45264,-9754.037,1706.3439,-1976.276,-1710.2979,10135.580078125
539,16135.77,14705.486,18680.738,-834.8486,470.61163,-1387.4106,4548.91943359375
540,-5195.733,-11300.4,-2294.0015,-185.46045,375.3973,1918.1749,8658.248046875
541,-28680.77,-23271.938,-48537.797,-2217.442,-553.2413,-481.65198,23394.994140625
542,-21857.342,-6901.2686,-32928.133,1630.6782,-3965.2222,-7874.907,27441.04296875
543,-64650.86,-53182.33,-46802.145,2943.225,1965.2081,-664.5181,16861.3125
544,-12601.167,-20593.326,-24472.72,-39.75446,427.28555,223.4244,10518.1396484375
545,-26573.812,-16041.756,-26415.45,5625.152,708.9492,-1018.9163,14450.9794921875
546,16708.365,5510.822,-4274.179,1137.5153,-2423.3354,-681.42773,18804.033203125
547,25135.857,22052.877,47934.016,-552.7636,-1823.1388,-831.6905,24748.9453125
548,-8604.438,-12618.447,-14891.37,2702.741,1284.2048,-366.68457,7593.900390625
549,-14427.127,20946.248,-9136.992,-3765.09,2032.0455,-2300.2917,34101.62109375
550,23154.639,20122.734,20985.443,-5452.6514,650.9564,-365.5967,9908.9599609375
551,-23686.498,-21147.658,-48734.195,311.09628,-3173.8435,-1637.3341,27128.908203125
552,-16824.693,-16007.18,-29347.297,8698.582,224.36719,1282.5518,19995.078125
553,4431.1963,-6428.0205,-12158.037,-371.88278,-3268.7065,-323.38068,15676.76953125
554,-26305.742,-1048.8317,8367.501,8343.41,-2156.2017,4604.9053,35366.74609375
555,-8620.689,-11048.0,-24404.475,-762.145,-998.8584,-971.6554,14975.8359375
556,-23802.193,-13063.746,-44936.418,-1781.3766,-40.393677,-63.74667,28256.955078125
557,16760.344,18839.773,26571.973,2707.4685,-722.24963,-362.4277,10204.8837890625
558,15455.354,16382.275,27105.959,-1217.7078,1287.7319,1347.7712,11860.40625
559,-7860.149,-8272.642,7204.7925,562.4489,789.0644,-2902.4492,16168.68359375
560,26469.268,24558.64,57952.004,-411.05276,-2599.3977,43.75801,32798.6015625
561,-15395.192,-10978.666,-4078.7944,-3728.923,1902.5228,1838.0449,12660.8056640625
562,2014.3682,1466.5466,-9731.586,-1656.9626,611.77795,2735.7397,12792.3837890625
563,5605.1455,3991.5042,2937.8809,-519.5846,-747.1761,359.09454,2878.48901367188
564,38634.324,21061.47,17719.96,2975.4995,1349.9889,-3535.0364,21170.931640625
565,-5423.9546,-14508.521,594.4971,-4920.528,1610.0925,1222.431,16072.37109375
566,28786.879,26641.422,46627.887,-3138.461,1164.0873,-618.7031,19898.37109375
567,-6673.521,-4332.512,-2376.0627,1360.8685,314.06924,-275.97464,4468.59912109375
568,-16229.748,-15225.215,-34049.285,-683.5636,-1722.0215,2308.2554,19045.400390625
569,84973.19,87325.16,123748.016,141.4939,185.21051,568.1588,37668.99609375
570,-16879.984,-16236.805,-26837.924,-170.14772,-211.96906,-2153.2673,10959.484375
571,11877.616,13462.531,-642.333,-174.57938,-1518.5872,1484.15,13882.435546875
572,-34997.25,-34500.082,-71774.91,-594.8078,1400.868,1340.8689,37195.03125
573,-26631.605,-51075.902,-23953.15,-13865.509,-4576.8633,777.831,36215.82421875
574,-15665.676,-22730.47,-30060.041,751.20355,-3905.8687,-1748.3146,14561.7998046875
575,29334.758,27997.066,64890.086,2124.7305,552.60724,142.25043,36442.46484375
576,32040.605,23798.756,1183.9933,1404.7556,-4220.1094,-958.0761,28772.291015625
577,56196.78,49409.37,89242.01,2003.9763,-699.0578,33.774406,37092.6484375
578,-49484.125,-47834.1,-63913.06,5584.8867,-6538.4604,-3307.5728,22121.7578125
579,117113.84,118017.63,115897.93,-4371.119,-11963.606,2224.7407,22471.009765625
