Element Label,S11,S22,S33,S12,S13,S23,Mises
1,-288.432,5697.5156,-5248.264,-952.1251,3797.745,-1576.3142,11981.791015625
2,1266.3387,6784.999,-137.62305,1978.374,-1116.5255,956.67676,7642.1318359375
3,436.8457,9716.96,-1033.0603,1858.6947,386.83475,-1477.8805,10921.8857421875
4,-1136.5195,9761.254,-18.849854,2045.4258,-236.87828,-786.9436,11063.8154296875
5,214.6919,5537.676,-9565.662,114.38469,1537.125,-747.69293,13596.1318359375
6,7909.411,8894.929,10605.678,546.99384,-3227.6187,-201.00282,6152.66259765625
7,-2257.698,952.9363,-10671.401,2294.031,-838.2806,543.76416,11264.759765625
8,3127.9946,8568.852,6891.141,3545.5166,831.9426,-1228.1941,8222.1220703125
9,-6171.418,4254.6313,-3991.685,1630.3477,-1090.2241,916.7388,10236.6416015625
10,1354.1206,8873.363,11470.144,2823.4067,-3973.3901,-750.6135,12481.0546875
11,4815.558,4062.475,-829.5989,1451.1384,2054.9082,736.0074,6985.279296875
12,658.072,2666.5652,-2058.4219,2258.5522,-416.35657,520.7978,5788.46875
13,4718.037,4214.4785,3192.1714,1818.4873,2833.263,361.13947,6017.2724609375
14,-6993.455,547.27466,-2657.4036,-855.66833,-578.5176,-1624.5321,7354.23828125
15,-263.83252,-4309.9478,-9141.799,1186.5768,6324.3604,3483.4238,14828.5966796875
16,1851.2637,6589.3755,-3495.5679,1341.6968,10066.393,-17527.14,36157.59375
17,-7983.1875,-11876.466,-25645.35,1119.5238,-8613.292,-16792.432,36477.796875
18,5539.041,7274.287,4543.1475,355.04678,122.06277,3889.4219,7178.90576171875
19,5860.6577,5468.7104,5524.3984,-159.05641,146.87141,2.1240113,524.901000976563
20,14125.219,7539.521,-7916.3555,9164.626,7806.0093,2978.9124,29076.40625
21,2323.4424,5315.3545,-3920.064,685.85004,2677.137,1122.0066,9659.2958984375
22,13320.904,11427.795,18578.963,-5041.787,102.75908,1463.0017,11130.8935546875
23,1578.0181,-6905.2285,-11058.192,624.8707,-9955.812,-9479.503,26316.384765625
24,1035.876,1035.6587,-12812.961,1497.8079,200.28682,-1833.1298,14447.109375
25,-6005.785,-7790.7627,-16622.396,-2890.216,17818.28,12370.234,39160.5625
26,9535.892,16005.298,-4135.92,11731.468,-7950.746,-12195.168,36958.2421875
27,-29144.295,-43351.28,-65897.49,3617.82,10697.724,2474.7346,37834.4609375
28,2808.6777,-4784.457,-16746.375,-3835.584,14430.022,-8617.494,34397.1953125
29,3689.164,24519.582,41391.586,2620.5122,-5932.177,3636.7832,35154.99609375
30,703.5864,472.25928,10596.127,6185.328,-8735.226,2711.2869,21585.755859375
31,-12641.795,-13730.9,-24252.678,432.14682,13761.499,8080.8496,29798.498046875
32,-936.7631,-1242.36,-3490.8733,3291.6997,4679.081,-2073.6887,10813.1474609375
33,-11992.01,-11767.76,-28524.203,-2577.3071,5124.3906,7267.4873,23113.326171875
34,2614.5183,-307.33008,-4205.892,1489.9592,-9880.612,-5673.768,20766.349609375
35,766.0437,8184.338,873.65063,760.5933,2965.1902,-1832.3481,9614.0244140625
36,-7572.3584,-10001.475,-21656.086,1315.8634,4686.6226,-457.67532,15548.5419921875
37,-16731.42,-3595.4355,-17423.988,1300.154,-13877.318,-1235.2675,27740.224609375
38,-16961.309,-19022.727,-44074.37,5275.8193,8964.616,-11741.914,37705.30078125
39,2987.1375,4830.867,1116.77,900.7993,-4046.247,-2651.681,9109.9375
40,-31415.844,-29602.07,-50015.74,-10437.542,12283.532,-9840.182,38117.60546875
41,-7764.812,-9692.735,-10213.3,-8538.394,-4745.0884,4384.2046,18679.275390625
42,10989.447,302.44507,-3764.2927,-2771.584,-3030.5269,2515.501,15613.8447265625
43,-616.2488,634.6159,598.0484,-352.59448,450.80557,-390.56628,1720.619140625
44,2799.461,7509.5156,11096.923,-1435.4481,1201.4846,3698.0996,10173.0546875
45,13759.621,18537.453,760.1862,7114.1323,7032.747,-579.63336,23561.4375
46,-12199.597,-21295.738,-5434.782,3357.6577,1455.1434,-1598.716,15423.2880859375
47,1012.37604,2788.9614,-569.933,-3115.984,-431.83038,-4421.219,9838.7041015625
48,-3580.7632,-2357.9485,-7756.115,10610.002,2653.8752,2772.2412,20147.85546875
49,-390.75226,10300.888,-1429.916,-8889.905,7996.9185,5025.512,25123.935546875
50,5709.424,18648.797,5898.864,-2071.8647,12377.758,-2539.9045,25629.474609375
51,2992.5564,12228.7295,1768.5728,2602.6992,305.12927,-230.76097,10902.8046875
52,10637.623,17346.904,31704.045,-3148.8416,2666.3262,-6265.291,22722.3046875
53,14619.944,18956.3,7169.7036,-2828.7803,-4058.098,4384.6055,15417.5791015625
54,-9967.222,-10807.683,-15754.904,2374.3127,3903.251,2613.356,10604.07421875
55,-1220.1521,1411.5703,-15735.382,2234.3223,-2747.2664,7573.498,21575.693359375
56,9168.652,2280.6123,21641.82,1269.4553,5279.757,-13058.659,29815.908203125
57,-10789.127,-8543.085,-23869.75,5717.7207,-6062.931,-2814.2278,20919.873046875
58,-22911.773,-26695.814,-43166.227,-1404.3917,-20336.676,967.9441,39967.32421875
59,-37450.37,-37249.6,-72737.17,1693.5728,9708.377,-4467.3823,40043.94921875
60,-32046.008,-29747.934,-62848.25,2079.0242,-12969.35,3238.9614,39672.3671875
61,3982.8962,-5220.934,-3600.853,9902.114,-8058.36,-3741.58,24563.98828125
62,9162.549,8331.669,18.23902,2209.8572,-1665.2075,-3604.1465,11774.9609375
63,20451.15,6165.4683,4267.61,-4450.7876,6601.576,-8359.92,25191.875
64,4524.446,5066.6846,-1738.7515,-2194.1606,-93.25993,109.5625,7577.7919921875
65,-6621.207,9355.069,10598.027,7924.6914,-332.58173,1025.92,21645.685546875
66,5672.6235,4997.3633,-5284.6367,2464.5427,2879.216,-109.976364,12499.85546875
67,4466.7705,4485.2017,4095.2114,-3885.6956,-11762.289,-2685.8926,21957.62890625
68,-10034.437,8270.501,-17920.127,4636.9575,654.1411,-2920.688,25159.115234375
69,-8679.484,-6333.079,-11346.276,-660.86597,4178.748,8130.814,16459.078125
70,3253.4058,11269.368,-18729.605,-5956.7773,4169.964,-8489.428,33144.37890625
71,-6493.6787,15569.022,13032.758,-5351.837,-4899.475,-1237.8995,24490.341796875
72,-2431.8955,-1986.0409,-15767.269,4655.542,9251.205,14920.527,34258.1328125
73,-13406.925,-10658.308,-9587.521,1148.8162,-864.4305,6778.269,12477.19921875
74,6939.3887,28735.162,33155.72,-3439.417,-15737.449,-5001.537,38006.35546875
75,23022.42,15199.527,6105.312,5075.6777,-10664.607,-4045.7458,26127.35546875
76,24023.908,-1237.3344,-4963.052,2164.6284,-3724.008,-3574.4492,28984.810546875
77,-56685.098,-36821.332,-58859.168,-4331.826,-12758.842,4097.4673,32210.35546875
78,8793.825,1666.5234,11944.517,-2128.8389,2388.0457,-97.68937,10673.0498046875
79,4060.185,6051.7915,-4985.906,-5603.2246,2291.5723,2592.57,15294.4775390625
80,4445.174,4703.7915,-2459.1829,1580.9081,-7707.6104,-1366.7567,15519.22265625
81,7216.0835,8846.918,4383.256,1047.5619,-3570.026,-6647.924,13762.8662109375
82,5949.688,9745.564,9269.768,-438.17413,-6807.3477,-1076.3391,12486.009765625
83,-2640.6538,6001.1094,-11699.122,4825.471,2471.114,-4218.3574,19405.55078125
84,-4200.553,950.06445,-15648.883,-2217.3667,-757.35364,118.856094,15266.7060546875
85,-918.9326,2738.1785,-10166.35,1014.10785,3892.8953,-1642.3844,13760.4296875
86,-588.9669,3609.9106,-337.99768,819.63556,-2717.3037,-325.2354,6412.77880859375
87,-3437.475,-3668.8313,-5205.249,2413.7935,2599.1367,678.7332,6472.81494140625
88,-781.9209,4889.386,4060.2617,-169.9417,-454.38995,-1488.5399,5958.376953125
89,-11964.372,-13498.613,-31371.574,2804.2952,2516.431,-14072.589,31399.376953125
90,-75577.91,-82792.805,-116586.98,2436.6565,3902.039,-6022.718,40127.6875
91,-19363.475,-10783.725,-42825.375,7440.053,13312.969,-5177.095,40044.296875
92,-4788.6104,-7499.998,-19321.055,-673.8837,16638.795,-6516.7324,33740.99609375
93,-1747.2881,-2839.7175,-12943.727,-2028.1116,-3095.0254,8902.422,19828.234375
94,-80712.11,-79817.35,-107528.9,-1287.6793,16318.406,-4599.5576,40140.36328125
95,10370.151,7751.788,-10494.432,5441.89,-6560.6895,5535.185,26409.10546875
96,-270.86523,-3364.2036,-22403.498,4500.525,1937.6447,4645.8994,23827.27734375
97,-1781.655,3462.0876,-8963.787,-1936.9205,285.33813,-558.07806,11365.5048828125
98,24761.203,9244.156,-3693.7651,10664.346,-1005.7549,-9738.115,35180.09375
99,28345.1,38336.664,31112.85,9866.297,-7700.277,7912.027,27157.916015625
100,-45148.22,-50267.88,-72512.24,3837.383,15430.439,7646.484,39607.87890625
101,-3071.959,2292.02,11219.007,1107.752,464.6044,8563.545,19511.005859375
102,-9223.217,-16900.348,-25578.918,2642.1128,11880.446,-6560.1035,27827.408203125
103,-17422.81,-24238.73,-35328.812,5069.5483,12706.595,-11562.931,34750.734375
104,-1538.4858,10956.071,4395.4604,2461.4597,-998.9076,1325.0806,11984.1962890625
105,12877.953,645.35547,17991.305,-733.9703,5176.292,5308.1113,20121.099609375
106,-36893.83,-25655.89,-48442.758,-2173.6292,-4498.0024,15122.163,33917.02734375
107,6270.312,-7397.604,-4505.269,-3835.6726,-1342.9688,-8310.167,20306.890625
108,-21518.793,-25028.762,-46653.555,-5732.304,12479.724,12464.428,39846.55859375
109,10456.24,2245.206,769.3899,-6014.598,-6155.282,-2124.405,17816.98828125
110,4929.805,5913.836,-2336.337,2203.1333,-1699.0929,-2191.7305,9927.15625
111,-32491.959,-35059.4,-58582.14,2794.8557,-16210.409,-7753.9536,40155.21875
112,10220.298,-5917.3706,9581.944,7006.248,495.60858,5483.4033,22107.302734375
113,8839.639,17506.855,16721.418,-1928.4551,11.20459,2624.6423,10037.6015625
114,-6348.9688,2622.2388,7381.5137,-121.740425,-7112.9365,-3619.1,18356.181640625
115,9700.347,-4216.3726,-11596.033,4550.4897,686.6499,8132.595,24754.55078125
116,7312.55,24923.531,-5325.557,10216.392,-6948.4053,-4408.684,34766.54296875
117,-5837.7793,11044.105,-7211.215,-8021.885,-7073.702,-5526.6494,27292.23046875
118,406.05182,-5274.263,5205.1577,-796.4234,-1670.5856,231.50102,9643.341796875
119,-1908.0074,-4143.5137,10464.973,-2237.1326,5959.4604,2329.357,17988.482421875
120,-2303.1133,-4318.0186,-6037.5317,1557.0461,2497.8618,6981.888,13517.1240234375
121,-312.86963,9770.996,2465.543,5385.912,8072.4033,-5346.647,21205.234375
122,5255.173,1712.061,12440.871,-4979.3877,2798.9636,-5642.8677,16824.357421875
123,2311.7324,5086.306,399.62378,463.16925,-1647.2361,-1888.1079,6011.513671875
124,6938.109,7547.6885,8208.517,-648.3602,383.92673,277.6769,1773.62170410156
125,14780.498,8958.319,15238.522,-7208.3184,13894.942,1400.1638,27888.052734375
126,42281.016,41017.562,68014.96,6372.618,-4838.574,-1896.7925,29986.755859375
127,-1616.1694,891.0254,-13857.993,-1427.4839,-6598.481,7449.2144,22136.990234375
128,-22306.201,-20234.45,-51686.152,5438.727,3861.2751,5704.878,34050.640625
129,-2024.4663,-6445.1006,-20420.01,357.34305,-1546.8036,8984.43,22942.076171875
130,6288.224,2961.5784,6104.564,-2125.906,2270.5188,3717.25,8998.1875
131,-8242.668,-4405.0615,-19394.455,-699.6426,778.98474,27.321058,13607.9736328125
132,-11755.359,-13667.598,-16124.842,-14.741156,4878.368,-22371.361,39839.96875
133,-10498.418,1378.5527,-24040.406,-781.8069,4914.9067,-2668.7344,24103.0
134,15862.058,2755.702,15023.251,2428.3962,-11253.882,-1039.8754,23714.37109375
135,-2113.6465,-13577.193,-32317.865,-2873.03,2817.7268,11776.516,34089.6015625
136,4343.0864,4315.127,3614.133,67.57448,208.81189,261.0291,927.73291015625
137,24984.805,25050.754,19968.166,7958.065,3481.096,5334.0103,18363.095703125
138,-14013.027,2401.9778,532.7776,2415.1252,11400.94,-8063.0527,29064.490234375
139,-8460.609,-738.1436,1128.5939,-581.5367,-10920.47,4120.779,22074.056640625
140,836.3186,2797.995,10858.551,-1805.7224,-787.3875,-1200.7755,10029.9736328125
141,8286.534,10719.37,18450.191,-1481.231,-2677.1025,3608.0164,12313.7412109375
142,4166.6987,8878.338,-4956.1284,1483.557,1500.3782,687.1704,12774.2646484375
143,9546.986,17836.402,19910.201,3499.0696,-6285.2173,5628.8604,18452.646484375
144,2921.9172,10145.886,-2648.195,-10263.207,7452.6616,4654.8145,25905.189453125
145,-3504.6602,-8208.319,-20396.227,3642.061,-403.20868,13853.141,29051.8046875
146,3542.007,-5865.8203,-9122.357,6195.829,-6334.07,-6791.1055,22441.76171875
147,-11362.164,-24742.154,-41665.2,6330.2197,-7421.551,14129.941,39702.17578125
148,-9049.761,-16634.994,-43051.938,2566.2302,7977.23,9991.83,38287.65625
149,2335.5935,-810.9658,15100.722,-4266.5615,1734.6669,439.40762,16650.3046875
150,3910.6638,-408.53073,-2114.0288,-5436.0107,7116.166,-4169.049,17934.423828125
151,13134.994,25441.324,19685.73,2938.6519,5760.962,-7891.705,20641.0390625
152,19437.27,14281.585,37699.84,-993.28625,-5035.224,1678.1628,23275.04296875
153,12324.691,13714.69,8990.547,-2565.746,2929.9253,-6604.172,13929.4970703125
154,-12461.269,-16373.502,-20320.76,2484.3486,22504.041,-1584.0378,39895.71484375
155,-363.77637,-4604.8496,-13384.113,949.5321,7948.083,3384.8848,18944.36328125
156,-2807.5112,-6144.456,-14588.548,4800.137,5764.274,-1696.5237,16972.166015625
157,1687.1382,-5311.027,-15827.512,-530.0217,-9806.109,-886.6601,22909.548828125
158,-75331.48,-74302.93,-104308.6,1631.2235,12946.239,8231.962,39807.40625
159,-16178.86,-20048.957,-15274.322,1487.7986,22480.66,1023.0835,39309.25390625
160,4738.6445,8467.83,8408.118,-1523.7152,2942.0916,-9300.124,17495.640625
161,-6846.4854,-3748.8098,-10593.485,1813.0588,-4150.2764,-16193.92,29723.85546875
162,-5003.4634,-817.4375,-13890.099,-216.35506,-3949.5515,-8088.677,19414.224609375
163,-2275.3276,-5262.169,-17868.201,-4148.998,-1355.7859,-9944.893,23650.48046875
164,-11173.895,-11124.787,-34929.1,-1494.1407,9054.819,4588.3193,29686.755859375
165,2356.7432,11005.608,8973.603,-862.8347,6273.85,8970.176,20568.58203125
166,-11093.409,-21535.04,-31845.312,-65.52371,649.6126,-6713.0303,21434.984375
167,-2638.0002,11669.83,1246.0046,-4522.2183,5111.264,8078.247,22354.607421875
168,6504.8613,10401.337,9702.729,-2733.3433,-6963.6367,-1551.4036,13713.46875
169,4139.4727,5203.853,-2760.957,-5728.478,650.0737,4282.0786,14519.513671875
170,2718.1187,5641.681,-6039.7183,-5986.301,-4023.3892,-2880.3044,17082.44140625
171,864.99896,-2359.4104,27695.707,-5987.28,11588.444,968.69135,36469.5859375
172,17936.89,5838.7925,2953.2498,4967.1494,-3238.1716,-9318.978,23571.2734375
173,3529.5066,5230.4707,-5599.049,-471.86575,-2954.842,-2909.5024,12409.99609375
174,12.416992,2192.5718,-10214.434,-3932.6838,7245.9097,1097.4155,18416.25
175,3725.0698,12265.09,1294.2808,2968.277,-2563.427,-2196.3281,12657.673828125
176,3434.3203,3810.4004,5557.9614,-127.980606,-3793.7876,-5495.462,11733.7353515625
177,-15280.374,-5864.872,6619.215,3660.0425,687.74744,3052.6804,20775.255859375
178,-13565.689,-14586.833,-44666.4,6337.7695,8793.712,-1169.7034,35960.16015625
179,2298.835,10385.162,-756.896,-1988.7758,-1686.5337,-3885.5789,12850.208984375
180,-2399.9885,5347.228,-11781.033,-45.3646,1107.6465,14878.876,29808.220703125
181,-47757.203,-50694.258,-86824.086,472.9132,6591.604,1089.7754,39429.52734375
182,1396.0864,-979.21094,-15515.31,1015.9957,-19483.469,-4394.361,38096.09375
183,-5453.7866,-6461.5327,-16293.989,-325.84003,2003.3776,-1980.3984,11477.2119140625
184,-7150.79,-13541.847,-20480.395,-9493.087,465.43692,4032.9038,21286.912109375
185,1212.1283,-4387.365,5592.7773,-3676.2856,990.046,2582.1462,11771.2392578125
186,6355.58,9199.122,17060.273,-1528.3486,3496.8452,9619.632,20335.689453125
187,-431.19678,-5354.103,-2437.3848,3358.893,6306.3086,-10079.003,21824.2421875
188,556.45154,762.27405,811.44275,260.64026,92.55832,-1036.4568,1872.73315429688
189,-2192.8003,-5764.788,9274.492,-2346.0405,-15548.4375,3567.801,31067.345703125
190,-9347.091,-10444.544,-10828.748,3518.816,-18119.1,8717.752,35381.109375
191,-4157.7666,-3160.3782,4803.044,3397.5942,-4090.0352,11850.567,24051.55859375
192,-5579.293,-12543.907,-11972.715,-4296.2617,-20886.662,7207.0815,39557.69921875
193,3974.0378,5072.1704,2871.254,5611.7153,-5163.288,-10337.034,22330.439453125
194,-179.8168,-4762.607,3208.0,-2460.0142,2012.4607,-1118.609,9058.90625
195,5471.0244,5784.488,3229.2947,2219.855,-6319.0107,10272.892,21377.46875
196,-13559.718,-24417.416,-25432.203,407.21854,-6300.938,5835.3135,18753.486328125
197,-630.4354,-1192.7975,1316.225,3719.5273,3108.24,-572.6023,8756.2666015625
198,-3567.504,-17762.152,-29099.438,1339.0583,11738.877,8684.444,33704.48828125
199,-8952.733,-14001.439,-11133.501,2034.86,-13108.18,-129.28604,23391.88671875
200,1151.0713,-8577.56,-3482.9185,1915.0446,-753.401,4312.021,11812.0
201,4583.6147,-9034.6,14262.345,1128.9932,88.47367,5706.002,22637.65234375
202,-3102.338,-13285.268,-14241.278,3369.591,6613.1147,-6405.5835,20067.33203125
203,-1801.4736,-471.26807,-9520.772,-2634.7874,-1211.2738,5544.336,13750.349609375
204,7933.5996,-3744.635,-4285.6187,1521.0781,3552.4172,-12999.519,26358.1875
205,-15925.169,-9969.955,-28028.598,5035.7993,-6605.8867,1084.6226,21553.568359375
206,11097.901,4066.9873,29588.25,-2726.5488,-6218.6245,-6081.3735,27759.61328125
207,-2291.7437,-6312.9507,-1582.5465,-160.17198,4042.0664,-2692.334,9505.9326171875
208,-24628.697,-22484.615,-33135.45,-3101.6902,4571.524,19595.094,36587.734375
209,2459.4136,-10636.155,-6743.816,-2236.081,1794.8895,8688.098,19666.876953125
210,-19650.354,-17418.0,-40220.957,-2366.4866,7283.245,12551.894,33505.84765625
211,4431.6494,-16904.295,-14651.734,-1638.1859,3023.5488,-4679.6216,22658.533203125
212,392.885,-9964.301,-2062.8584,-10168.624,-11172.266,-858.8169,27834.17578125
213,-7079.0645,-10876.3,-11430.145,-6912.57,-6685.1387,-8345.023,22431.4765625
214,-1063.8718,442.07812,8126.0107,-2782.6575,4689.657,-4504.5845,14931.9912109375
215,-1190.8228,8558.442,-859.7671,-4433.383,4683.877,-1911.6749,15088.88671875
216,-4869.8657,554.0967,-23430.38,-583.7383,245.06818,-4745.006,23309.46875
217,-2361.4211,4511.9355,-6840.6367,-3331.8845,-475.44608,-98.945366,11493.716796875
218,9813.368,10926.548,19638.24,611.50574,2232.419,13986.293,26263.138671875
219,-6274.629,1576.7268,-2614.7102,-1969.2239,536.6776,8339.254,16353.302734375
220,-5227.211,-7647.3096,-3689.7495,-3319.1099,-5037.6743,6349.224,15558.3857421875
221,79.21631,5834.7803,-1976.5369,-458.86536,471.14633,-6514.819,13334.57421875
222,-2418.3074,3452.4438,-5055.1396,439.11395,3204.6646,3238.4912,10943.05078125
223,357.14282,6213.39,4752.074,-402.83893,-1336.4484,3530.0916,8432.259765625
224,-1863.4155,-2602.9958,8779.061,4231.887,3304.2979,3177.963,15442.1611328125
225,-5166.227,-4269.303,-8563.381,-1206.7339,-1128.0068,4480.575,9154.484375
226,3365.5999,-2036.4155,526.10767,3909.2102,1685.4138,-1485.548,9104.59765625
227,1726.4128,5830.719,-2190.446,2188.314,-8481.832,-2125.9783,17088.388671875
228,6172.128,4772.4897,-4214.2646,4039.9297,2623.4092,-5515.2153,16005.0517578125
229,-5310.185,2429.6445,-6845.85,-935.5439,-7614.6133,11065.776,24861.134765625
230,4757.1367,-1577.5061,-3070.0842,3489.4636,-3342.6978,5038.223,14071.6552734375
231,-3913.9482,-14920.404,-21292.191,-4121.19,1306.4724,70.96807,16969.41015625
232,10661.788,5491.2046,369.91357,569.1861,6133.1064,6029.5176,17387.48828125
233,20327.305,3421.4321,12650.478,1555.978,-9187.17,-4695.8667,23272.037109375
234,-2966.4072,4606.1133,25315.973,7721.229,1783.4556,-7710.996,31777.9765625
235,-7481.4165,-3697.9355,-5424.3037,3382.6877,4271.458,2519.92,10903.0810546875
236,-11116.019,-7769.0024,-28170.373,-740.0975,-7818.3774,2301.4824,23665.365234375
237,22724.494,8461.676,9301.52,-4680.307,2773.1594,3293.7397,17705.591796875
238,4222.476,-2569.069,-24704.893,3697.3313,994.37976,3059.9304,27541.294921875
239,3457.4495,-7376.041,-1260.1537,4202.928,9103.658,-1494.7424,19920.806640625
240,-5337.6924,3844.4946,-12466.763,2324.7227,-340.51233,1099.8961,14858.896484375
241,2234.5308,11668.199,6185.4126,-4250.8867,-4022.4102,-4664.5537,15341.3134765625
242,-248.60779,6902.714,-9974.853,-2730.8372,-6436.7646,-1136.0682,19126.865234375
243,-6674.9907,-1447.8097,-20898.578,-6952.404,754.2203,111.114914,21230.5078125
244,-3338.7095,-3319.605,-1667.5173,4635.5557,2130.4792,4341.7363,11721.57421875
245,-17589.715,-9138.909,-4285.2847,8544.71,-2112.8518,1106.9031,19289.76953125
246,-11280.109,-3748.4912,-29108.986,6222.314,605.12195,-10467.073,30899.892578125
247,-3394.8003,18385.645,4842.314,15168.54,-7437.7173,4533.755,35786.97265625
248,7014.6357,21525.795,4828.8613,-11768.321,8980.696,2186.8176,30312.62109375
249,-700.9918,5488.463,7029.4355,4664.9316,9346.934,5574.398,21698.47265625
250,16197.014,1807.9066,-16002.745,-3573.9082,3645.9749,-2456.7676,29611.654296875
251,-4333.1846,-11340.3125,-442.79218,-3370.9102,-12765.28,14262.251,34995.38671875
252,-35732.12,-13238.868,-38532.3,-11461.077,4783.583,3616.615,32844.01171875
253,20189.787,12453.189,23015.826,3365.0989,18518.35,-3958.3245,34633.36328125
254,-1141.4485,5352.2476,12093.925,-1196.0118,21122.633,2567.663,38651.82421875
255,-2509.8418,-2933.2258,-3132.3643,142.98238,493.5663,65.59167,1052.75073242188
256,2678.069,1625.9058,717.7127,79.35689,75.381546,-1.2983196,1709.78784179688
257,2472.8914,10475.022,-3193.437,2081.9956,-2618.8757,-8526.462,19828.3984375
258,-5132.4756,-8058.8545,-27616.096,2404.3367,-3845.6074,-5201.636,24313.80078125
259,-2101.6592,-4229.482,-11629.076,-7789.267,4975.154,-8689.652,23618.451171875
260,8619.043,12501.324,-9078.316,-3332.7437,9750.865,4584.4956,27903.17578125
261,8573.988,5988.876,5378.926,-10063.08,-10876.348,7181.8906,28671.447265625
262,-32873.105,-32222.574,-44625.555,-188.86678,8625.81,4408.1904,20683.466796875
263,5618.353,16282.954,-1778.5588,848.1105,-10034.505,3225.8223,24140.890625
264,-6181.3784,-25165.77,-38449.625,-9303.183,-418.6109,-5949.2056,33991.26953125
265,-3247.735,-12387.44,157.56712,2420.3098,-12118.607,1090.8473,24248.283203125
266,-44701.87,-14201.112,-13311.508,2118.4807,-3840.2002,-5570.322,33301.83203125
267,-3791.191,-7198.168,11117.707,-4798.499,-927.15594,6468.3447,21951.10546875
268,5227.588,1968.471,-14980.416,3664.6104,-1564.9495,-831.48193,20070.734375
269,-5113.034,12124.028,-26.85083,3846.1353,2240.252,-328.06998,17177.662109375
270,-3503.8987,1794.2079,4486.2705,477.25497,3244.538,-2037.3811,9710.6708984375
271,17224.99,18602.982,18535.06,-340.82028,-48.973274,4412.0947,7782.37060546875
272,-6324.5425,5424.019,-653.57294,8114.5864,-2275.364,290.41946,17801.328125
273,-9030.658,-4247.7153,-17859.762,3877.2258,2045.0415,2989.0605,15083.34765625
274,8522.785,6905.213,9970.644,6174.5435,-1610.4618,13098.523,25375.66796875
275,-8927.437,729.16315,9885.45,1502.9614,-6913.3345,-7327.752,24015.6875
276,-7285.634,-6472.739,-2482.7478,-3644.64,-6319.166,6543.2007,17547.376953125
277,-4121.088,-11815.94,-11890.976,-15944.942,3724.8342,6571.5537,31522.951171875
278,-24141.072,-4399.7217,-14897.916,4327.285,1550.2722,1408.8604,19026.96484375
279,4825.134,-3695.6147,-12783.285,7816.108,-4057.025,1001.11865,21639.83203125
280,7708.5864,-20583.53,6654.1304,-506.43207,4205.1675,3991.8904,29552.46484375
281,-266.2749,-15192.07,6595.105,10626.873,-1950.0818,-2021.2434,27105.8203125
282,3799.005,3338.5906,1852.2291,-399.8958,919.869,-2463.3293,4932.3212890625
283,2397.15,-2964.3784,-1809.8794,1916.4703,-884.35986,2450.1917,7433.98583984375
284,392.7671,-3859.9148,-5669.9487,2578.4846,2114.6184,-426.3443,7935.04345703125
285,3353.5093,1832.3955,-13042.561,2796.7495,-17572.38,-9851.407,38564.05859375
286,2383.7979,-10046.342,-7622.9014,1969.7637,6745.662,-4748.7646,18602.736328125
287,-8242.266,-3460.4285,-10018.313,-4913.811,-15483.206,-8894.685,32611.1171875
288,-209.31409,-3474.8313,-1334.722,756.6181,514.8194,-7388.716,13211.623046875
289,-6274.0576,-2457.0264,11448.509,1469.3386,-11684.377,6274.2173,28198.578125
290,-9372.408,-19086.387,-27848.55,-517.2458,-6306.9497,-4559.661,20946.583984375
291,87.0094,1921.924,3412.734,1278.8518,6938.278,4292.1816,14591.740234375
292,-1674.6727,1358.7853,-5543.966,568.72064,8567.662,8872.047,22208.896484375
293,-1631.5486,2528.9744,-1195.0052,1529.5177,-3857.4788,1520.6272,8618.578125
294,5373.0244,621.64496,-491.7341,1538.2606,838.83704,9087.306,16913.08203125
295,6919.118,19048.56,23270.676,-5092.7886,-314.4762,3337.9958,18102.330078125
296,-3056.0298,-2992.9753,-4688.6997,-3726.6323,-2592.1902,2381.691,9033.9140625
297,2057.6885,6749.043,3032.5447,-2791.2368,36.77985,2859.7615,8142.32958984375
298,-549.41705,-3421.711,1253.4343,-2098.6255,1523.6473,3183.442,8201.14453125
299,-5194.9155,4088.641,-14127.117,-143.50761,-2190.668,4566.6206,18053.0390625
300,4039.9954,-2531.8547,169.26782,1075.4414,-356.42947,1788.5814,6795.720703125
301,18484.092,20601.3,13311.068,-7240.1235,-7158.737,5136.398,20792.873046875
302,-6174.8096,-4141.1514,-34792.605,-1979.5448,-9182.499,691.7132,33874.1640625
303,6644.371,23873.178,-3228.4346,6335.973,189.7472,-2929.0964,26658.603515625
304,4024.0815,6514.5146,2442.729,7884.7173,134.3597,-6320.174,17861.5625
305,-15411.945,1439.3213,-34159.996,1907.4347,-1527.9984,7562.2524,33776.6953125
306,13161.535,22598.04,23041.154,4751.999,-3985.7727,-4247.326,16215.68359375
307,-5180.5127,678.9988,-3309.8704,-2740.5747,-6103.0493,4214.7285,14643.6953125
308,-66133.31,-53871.734,-74626.65,-3281.4539,-16729.16,1458.3735,34711.71875
309,5226.7817,15047.073,24285.129,1196.8818,4030.1973,1472.8715,18221.78125
310,-17394.596,-17880.258,-45082.676,-1049.1145,5674.942,-3194.8938,29731.421875
311,-701.36383,26533.633,5353.8027,-5184.021,3372.7886,6056.539,28953.271484375
312,-14846.201,-2151.088,-2372.7722,1246.6786,-3613.8625,-954.90216,14317.0830078125
313,958.28204,-1017.3392,-106.358315,1230.7828,-2534.6775,-17835.28,31321.60546875
314,-4986.891,-8652.366,-22539.85,-4306.623,9572.087,1481.893,24378.384765625
315,4571.16,2094.8718,-6006.0146,-969.83484,17192.613,4938.717,32474.125
316,-12585.493,-11425.381,-16510.578,5305.8843,6.221078,13446.358,25459.314453125
317,-12632.986,-6867.212,-5576.033,3621.0315,-12945.028,-10867.016,30638.03125
318,66.05469,-5336.621,-31800.465,611.57947,-1970.086,-7316.399,32339.671875
319,7728.181,21060.588,46167.387,10144.936,2393.0906,-6078.5415,39744.48828125
320,8613.147,2994.9805,13646.135,-2829.2112,-1743.0894,-5673.11,14657.8251953125
321,14898.146,-4148.1367,8175.8975,-6673.9053,1486.0956,933.7012,20561.603515625
322,-1100.0576,-29238.668,-7695.6074,4169.0376,6800.2227,2949.2698,29439.078125
323,2409.5796,1360.6274,-9593.816,-3499.9717,2400.924,5684.222,16839.37890625
324,2886.1113,8556.886,-2154.3203,-1711.955,117.90338,1115.4781,9935.478515625
325,1975.6785,8375.262,3858.135,-405.75397,2234.8577,1228.2963,7242.5947265625
326,-2285.2341,6830.635,9088.927,12772.219,-4120.217,-1432.5374,25598.02734375
327,10669.705,-5150.632,-8527.851,2245.3496,-2585.0227,-384.16235,18727.83984375
328,177.29213,16869.416,674.9907,6121.6255,-3155.693,-8151.575,24742.87109375
329,6548.9854,-3368.1572,13124.166,-4591.895,6583.0024,-7129.78,23506.494140625
330,-1786.565,9467.483,5001.047,-494.13147,160.18562,-5474.821,13677.267578125
331,-7544.549,216.03265,-13133.95,-3532.4065,1326.4722,951.2429,13426.537109375
332,50331.617,27281.79,47890.844,-9868.284,5862.3667,2514.7263,29920.146484375
333,2696.233,1387.3071,-16490.777,9434.936,14264.342,-172.28938,34961.375
334,-28518.516,-22168.55,-40676.266,-1593.0935,4521.3516,-6150.5986,21160.470703125
335,7303.8096,23330.195,6820.706,-1446.0231,11222.197,803.97156,25511.68359375
336,-17758.633,-3026.2705,-25065.266,-800.09863,83.73455,390.7553,19505.71484375
337,-7482.808,-16353.687,-21294.012,-4849.8174,648.43585,6647.442,18743.35546875
338,-14931.696,-2447.6562,-23418.537,4786.907,355.36456,-9955.213,26462.59375
339,-3174.4448,-123.2749,10141.379,-2427.9072,-1961.6444,-1896.709,13638.65234375
340,-2070.1707,4516.4175,2387.4614,1307.7728,532.13385,-5832.2646,11912.98828125
341,2753.8162,-4658.26,6356.409,4659.262,2946.379,-3457.7134,14888.15625
342,1940.2021,-4789.689,-10138.509,5614.951,1116.0693,-602.2145,14467.4150390625
343,7933.126,2453.2449,920.2146,6211.315,4905.9453,8133.3433,20668.3359375
344,-3268.8708,-6787.7993,7731.8135,-969.792,-9941.122,-3300.804,22452.03125
345,10857.092,8215.37,4134.4883,7185.849,-1529.0363,1063.6245,14132.58203125
346,-14748.49,-10869.345,-12989.715,5383.22,1400.615,-11983.999,23129.841796875
347,2461.2375,6660.821,-1953.1938,645.967,4342.5376,2340.4375,11398.2509765625
348,8364.661,3533.9685,1785.5542,1410.3788,-2045.9285,1414.2628,7704.802734375
349,-6087.853,-4966.851,-8231.362,6930.9395,7055.3867,-3438.6472,18362.359375
350,3878.6821,-3233.8945,4284.956,-4798.8433,952.5324,-72.68763,11201.248046875
351,-1951.4849,3427.1064,-19112.922,2888.052,7138.7803,-11606.284,31587.578125
352,4428.959,-862.4574,-8335.338,5299.9966,1477.3324,-4432.4023,16526.982421875
353,-83.899536,2806.5234,2532.816,282.79266,-7479.1577,2502.0798,13945.3525390625
354,-8734.092,5441.375,-22442.02,1720.7063,260.67368,6693.1045,26956.384765625
355,-14131.195,7474.58,2295.0286,4374.599,-4.719153,-1664.5408,21153.07421875
356,970.2381,2809.6572,-1449.2266,6484.227,868.339,5059.524,14794.6494140625
357,-20094.07,-12130.617,-8119.4355,5564.222,-1372.5591,7123.3613,19031.796875
358,-2180.682,-5886.3115,-10283.336,176.91682,884.9651,767.2513,7319.06201171875
359,-2021.0881,6878.993,-9475.326,1530.6405,712.94244,58.647324,14480.4765625
360,3899.008,-6022.3823,11894.727,69.389046,-87.209,413.3976,15564.193359375
361,-1486825.0,-1486865.2,-1525965.6,68.04239,135.65172,62.51359,39121.546875
362,-3178.0825,15644.914,-3331.6548,10729.578,1905.5745,6597.546,29052.83984375
363,1572.3735,6397.496,4509.781,-1238.2118,-42.678482,130.66273,4732.125
364,-1234.3789,-3216.725,-10914.412,-1613.1348,-712.9445,-990.91016,9524.744140625
365,-8210.803,631.3319,5310.7295,-7228.7485,-4050.8245,-770.28174,18687.640625
366,-1879.8784,-3211.7646,177.60986,-677.2323,-42.874138,-1337.076,3936.02368164063
367,1904.4717,-4571.7866,3695.7478,3941.4185,3498.3567,-2611.0771,12669.8212890625
368,2459.7852,-8053.2354,442.0597,3267.3557,-4614.819,3926.9675,15348.0341796875
369,-2902.973,-10634.874,-5796.1953,4975.2217,-1672.2837,819.4787,11421.2802734375
370,-182.70923,-2160.8464,-6693.8525,904.4728,-722.06555,-8.025265,6119.3642578125
371,-3472.8755,3902.6333,-5680.7695,5117.733,336.6589,-510.1035,12459.9951171875
372,2888.0059,2614.1301,2209.2632,4420.34,-26.399235,-466.53207,7721.59716796875
373,246788.52,246443.25,284110.12,-91.12842,30.250504,-200.9458,37497.421875
374,-5734.5723,-12265.974,-25907.18,-4772.7534,1074.6051,-5416.181,21855.087890625
375,-4763.5527,8945.951,-3265.6318,6098.1025,1629.1765,-3989.4907,18355.6484375
376,-3426.1038,220.4851,-4100.36,-2345.6616,-387.34848,2270.5115,6973.74658203125
377,-7689.474,-2020.4971,-18054.814,1681.675,987.2085,107.04965,14483.806640625
378,-24071.168,-21966.465,3958.213,1964.9202,8111.013,476.15137,30671.01171875
379,-10873.917,-1617.4214,-4996.0254,2383.5562,-1260.3042,884.0921,9485.6533203125
380,3662.3516,-5056.951,1620.4982,4096.2393,-1616.2988,624.2685,11033.39453125
381,3941.3962,-3248.8074,-3039.7085,2513.9246,1107.6875,-500.69644,8580.8935546875
382,3817.741,-2248.8772,-3114.2043,2816.5671,198.53392,868.69745,8305.6337890625
383,-906.1543,-1154.1692,-5599.063,3068.5803,-734.4827,-88.68255,7128.22119140625
384,-3248.8218,-2121.9646,-9331.305,2476.1643,795.8334,-196.6604,8095.10595703125
385,4610.435,2256.655,1088.9839,2276.3289,1166.8912,-549.0474,5494.220703125
386,761.1973,4575.9565,-1775.7521,-979.8705,-246.09601,855.6335,5993.73095703125
387,-1312.7756,-1607.0554,-2924.459,-1077.7339,-379.67426,-11.207865,2475.31884765625
388,-88.54883,-7585.8228,-1308.7357,-1305.9924,270.5983,-974.47205,7532.27734375
389,4381.954,-2016.7915,-3178.6853,-7585.3926,-2732.385,-292.7845,15652.4150390625
390,951.8736,657.518,758.98004,-3026.3396,637.99786,147.11273,5369.2939453125
391,-2984.0264,-4135.8203,91.43359,-1053.6193,-227.22362,556.7784,4329.2744140625
392,-7770.494,-5878.49,-6987.532,-2647.222,3093.2898,-153.13432,7246.40380859375
393,-3322.0195,-3810.6462,-1370.8503,3843.051,-2734.9106,1474.9713,8847.1552734375
394,-81.265114,2823.007,-3321.822,-1526.0991,-227.83665,187.10193,5966.1669921875
395,-1060.0261,-6808.001,-1765.6685,-314.70627,-196.47658,303.18814,5492.70703125
396,2524.9468,-2359.5454,-1909.1316,2662.159,259.11493,460.0192,6630.130859375
397,11682.948,1052.1909,-1764.1753,151.25427,-2203.4385,-1723.8933,13207.3662109375
398,2060.4626,-6187.8296,9843.589,1680.2937,-517.9949,1985.8595,14625.8310546875
399,-1252.865,-6509.653,-4290.077,5337.1133,619.0742,-1802.8888,10828.1025390625
400,-1866.6454,-8724.853,10900.483,-3233.944,90.37551,-6912.406,21733.337890625
401,2802.522,3939.5088,-1722.555,1629.8455,416.65472,-1704.6962,6642.43701171875
402,-3736.846,1821.323,-3198.043,1364.6982,-1293.8092,7118.4385,13813.5556640625
403,12910.739,4341.479,5874.86,4428.207,1735.8312,-1567.9941,11742.4755859375
404,3842.3394,1449.3591,23.664429,-1630.5458,492.59418,511.43472,4545.25048828125
405,5130.8525,5483.2627,1990.2319,-276.5353,1303.0784,-731.7786,4245.51904296875
406,-4561.6855,-5518.313,817.0222,-4687.754,4038.2512,-1095.2284,12386.974609375
407,-33565.395,-23310.861,-12966.167,-5287.5522,-3260.5918,2515.6816,21283.869140625
408,1514.0459,-7641.47,-7243.5557,-6191.081,502.3212,819.0605,14074.68359375
409,-6726.1357,5010.089,306.89764,-381.6317,3067.8916,676.1698,11606.2783203125
410,1902.4419,2360.2842,-995.34985,947.8692,46.69327,489.47766,3654.3427734375
411,8212.291,6334.6914,3791.765,-6240.4224,-5109.4756,-1453.334,14705.50390625
412,3590.1753,-1700.2953,4056.44,282.868,-2711.2366,-1342.3773,7640.13232421875
413,-23350.818,-22957.605,-23640.797,-189.4433,-5450.056,1914.3672,10028.1669921875
414,3911.9927,-3525.8188,1530.936,3252.816,3786.3806,-1905.3707,11354.48828125
415,-6581.61,-12571.06,-4566.3916,208.60736,1889.1217,-3201.303,9674.015625
416,4455.983,-889.37054,-1476.1055,1049.3494,851.09485,-1100.9777,6416.09765625
417,1571.626,-2416.1638,-2976.7617,2802.886,-603.0092,1455.3641,7033.20068359375
418,-22370.05,-39717.812,-43922.453,1143.7671,4429.014,-6066.6387,23764.4765625
419,6796.9673,-2725.7085,1158.0779,-50.665802,-501.84174,261.63925,8351.62890625
420,-4220.09,-6807.9854,-8068.6533,-3461.8918,-256.81912,4021.8796,9809.5595703125
421,-19173.16,-8105.365,-35744.195,-8411.309,-4731.6587,8958.967,33176.8828125
422,-1341.4924,-2711.487,-8742.619,-1412.9133,397.9261,-699.13,7378.64599609375
423,-11043.429,-7769.9053,2505.7803,5835.834,-307.972,2800.39,16611.0
424,5705.673,4568.2886,-2166.1582,329.44473,-189.19218,1251.8209,7709.748046875
425,2449.162,-2136.2166,1661.4541,-926.33905,-486.13812,-169.8637,4626.45703125
426,-1346.0005,-2848.3545,-8151.1895,3252.441,-216.41165,-980.5189,8550.072265625
427,1328.8474,-3651.9062,-3932.8706,105.16976,-487.37497,54.833942,5200.10302734375
428,3656.753,3282.523,2036.5917,3061.5376,-149.62152,-1053.4102,5802.91943359375
429,-1543.1532,1100.3652,-4664.886,-259.8055,347.1206,-320.0978,5084.99072265625
430,-1300.8757,-2929.824,10501.982,191.60303,722.8233,-2028.5406,13236.6787109375
431,-887.4265,-2414.3684,-7199.7295,26.998816,223.26077,6762.5127,13033.9814453125
432,-7343.2197,-8709.051,-3217.887,7431.758,961.29877,-688.13513,13942.89453125
433,-4268.914,-3021.2766,-7360.7407,-2685.4314,181.73119,-2292.525,7243.90673828125
434,1652.8389,-3284.4912,3980.626,3374.3235,2549.5454,-166.16992,9748.35546875
435,-1973.5652,-1435.3258,-5563.794,-2731.8193,-217.66339,-36.417767,6135.671875
436,-4086.0005,-2036.2893,-2874.8416,3376.7427,-1631.2039,1574.7604,7267.39013671875
437,-5167.955,-8283.841,750.1948,-216.56506,7790.1064,-1560.7504,15895.8896484375
438,-677.8384,-2406.898,-6123.312,2494.6272,-2070.9312,1455.6758,7817.92919921875
439,-6967.345,-9672.03,-12569.478,-3533.2454,1062.3203,-1283.1234,8326.0712890625
440,2468.952,6401.779,-362.33667,6120.7856,-675.2958,-292.70654,12191.61328125
441,1931.3049,-1470.8469,-4474.518,1491.9332,-720.007,773.45105,6390.86279296875
442,2758.1206,8992.842,15273.945,-1908.8949,-135.01608,2046.8392,11876.0234375
443,-3739.3777,-2100.4668,-16335.759,-1639.5607,1116.4088,41.989555,13921.49609375
444,2419.637,-4101.286,4036.5376,461.89792,335.72873,915.62445,7692.4501953125
445,-1749.6704,-2762.9814,-13900.691,-3755.0295,1584.1595,657.4464,13692.6064453125
446,-17398.666,-24326.139,-36639.38,4449.7056,974.0151,-7436.6387,22650.87109375
447,-951481.8,-951636.6,-991662.44,-84.092316,65.834015,61.581264,40104.01171875
448,3707.5435,-181.31311,-680.23,1218.0645,1021.10065,-364.01816,5028.80224609375
449,10898.896,3209.729,-997.7969,-391.26498,-2083.3853,242.06166,11083.1162109375
450,-1990.3386,-4902.169,-506.14392,1259.6846,441.24063,-565.5634,4615.9931640625
451,-2672.876,-6855.5205,-11286.693,-2594.006,805.027,-5408.8193,12867.0361328125
452,1169.022,749.6701,-3384.4446,-1385.5076,-69.54604,-128.44513,4982.29931640625
453,171.35938,-3686.031,-9988.616,-719.38385,324.75598,724.259,9075.029296875
454,718.5066,-4386.3696,-2011.5192,1891.9304,-112.633385,-197.97281,5519.98193359375
455,1799.9202,-2156.289,-163.54091,48.896053,-946.7421,-4176.305,8170.65576171875
456,-2915.684,-5217.1025,-13182.594,773.5645,651.1984,1393.2603,9796.3466796875
457,-3218.5933,6666.991,-9986.566,1398.558,3395.4172,-1149.4086,15964.130859375
458,5083.4756,-165.65027,-1956.7249,2658.0437,-1845.9314,1284.2354,8748.0634765625
459,-11713.915,-10648.013,-20063.992,-109.98226,177.3584,-759.77924,9034.53125
460,-3063.109,-2355.7295,330.18237,-2130.962,294.12064,8.052133,4847.388671875
461,1803.9414,10471.001,21144.86,3224.2366,1412.2335,-1932.9606,18164.236328125
462,-23086.863,-33259.906,-22814.492,7103.0977,-2443.015,-500.23343,16623.8828125
463,-8407.879,-4136.1787,-20607.576,-4297.3423,1196.5333,-127.46131,16701.458984375
464,-2611.5278,-2061.342,-9044.428,659.01685,35.48582,-352.97647,6848.69775390625
465,-9429.871,-7005.5576,-13586.303,-800.7614,-604.1308,541.33325,6093.22705078125
466,-8585.424,-7976.212,-10872.32,-2945.922,235.53569,5862.3936,11674.716796875
467,-8613.609,-8695.71,-10944.9,-3732.7947,39.250164,-450.0656,6903.8994140625
468,3228.1558,-1033.7515,8731.795,1283.3611,186.68108,-2285.206,9624.0322265625
469,3105.231,-1671.0538,-4314.5693,-796.59314,-514.3586,-316.6631,6739.8408203125
470,-925.46875,2255.0535,-4234.5786,1908.5988,-212.53883,1033.5293,6771.9228515625
471,-1125.6475,-5677.451,-3414.5962,-280.53485,589.2138,-284.23343,4130.2958984375
472,215.19849,-3011.8818,-4403.946,2536.1658,1300.2134,-102.18068,6422.1171875
473,-7979285.0,-7979321.5,-8008990.0,10.163412,38.455036,19.079042,29686.8671875
474,-2318.8228,-7767.324,-19974.79,-815.3106,-2465.285,1305.057,16448.62890625
475,887.59827,-3989.5962,-1661.8082,2332.2214,-761.2797,-83.0183,5994.13330078125
476,5387.312,-4519.7803,-7571.0933,1939.0223,995.06055,5468.8125,15545.552734375
477,9049.513,-1902.7626,-5727.0576,-2556.412,1362.9739,-596.5553,14237.58203125
478,-164639.31,-163497.58,-201211.98,-53.178345,269.81552,-138.57893,37160.52734375
479,11087.508,9659.651,3725.0688,-2069.407,-1236.4868,-436.36777,7983.5498046875
480,-3120.8794,-11788.427,-15543.242,-413.42636,855.37646,470.11472,11186.6376953125
481,-34627.445,-43574.63,-72516.336,-1410.7246,-137.14388,-1046.6943,34437.40625
482,3146.44,13951.865,9691.688,-717.5262,-384.21854,495.60938,9570.6630859375
483,-16129.368,-7509.4736,-25962.623,1752.2664,461.30695,-353.5755,16308.9501953125
484,737.1082,1225.4293,-2564.8232,-733.03156,488.0799,1935.8522,5130.580078125
485,-17739.959,-14368.385,-22499.309,1807.059,245.5369,-48.51514,7749.17626953125
486,9857.277,6822.0874,22646.74,-518.3619,2500.893,738.8491,15258.0595703125
487,-105.89697,-5471.5264,-6811.0654,-1034.6389,-1405.77,643.5039,6939.31591796875
488,1774.5697,-3945.1626,-522.2289,3087.0803,1391.5571,113.7781,7700.12158203125
489,-19140.115,-23262.21,-8216.036,-3340.676,-610.78064,-61.205967,14695.849609375
490,-25747.867,-25282.451,-15158.441,-2181.8147,-820.0821,425.80606,11147.4912109375
491,1318.8604,-2130.5894,-11691.16,462.29135,-214.47981,1035.9716,11844.01953125
492,-319.73535,-15123.871,-12787.605,-2695.9604,-269.46057,502.5887,14588.16015625
493,-17572.363,-35370.56,-36179.926,-4360.9243,-785.1916,-487.50827,19785.13671875
494,-4551.014,-172.72314,-3731.1755,-1323.2131,-1676.6779,-252.4706,5489.05517578125
495,-8273.186,2390.9736,-2708.06,-2372.5403,661.5571,-348.9946,10193.759765625
496,-10552.067,5855.9043,-2306.5366,-2605.9858,-504.15076,-603.56476,14971.53125
497,625602.56,625420.2,664835.7,3.6546733,5.971918,-65.38412,39324.796875
498,6393.958,1546.6025,-692.96533,-12136.078,3565.3643,534.7092,22808.220703125
499,6186.51,1330.7495,6372.0312,204.24745,-105.77354,1114.0996,5328.79345703125
500,6100.7905,-3123.1626,-7250.291,-2273.7773,-656.5265,320.4466,12541.701171875
501,-18095.768,-5268.7305,-3025.9678,-1538.045,140.77147,-649.83813,14378.9404296875
502,3354.6409,-2055.6138,-10658.47,1401.6227,-383.48004,-624.8175,12543.1103515625
503,-11687.311,1340.4321,3957.2444,-455.6026,-91.67692,-1282.6135,14705.2431640625
504,-660.484,15732.894,-9359.529,4459.2983,-127.38462,-469.24567,23396.330078125
505,11854.32,29380.875,16361.369,3254.9495,-2241.511,-4.0619597,17185.978515625
506,-9020.5,-15977.533,-8583.118,-5275.357,-10751.569,846.59607,22001.3984375
507,-312842.2,-312591.34,-350646.34,42.170723,110.50837,81.44746,37931.015625
508,1624.4873,-2040.8574,-5962.5073,-48.184765,349.87177,-1237.058,6939.2666015625
509,-15691.176,-7146.3086,-25805.986,2837.8835,-1584.3911,1433.6091,17309.28125
510,-1676.209,753.3704,2176.5256,2180.04,329.86685,-272.41107,5117.87841796875
511,2430.0786,6658.2993,13703.329,-890.66284,-631.88574,-506.64932,10081.9638671875
512,1666.9631,6001.301,-656.56396,3815.4998,-124.97726,487.1116,8870.6826171875
513,-3561.4077,2196.3955,-937.26624,158.98643,721.3801,-1.2637625,5154.234375
514,-4468.1553,60.064453,-17637.928,1509.3641,625.3757,-366.8646,16186.255859375
515,-5378162.0,-5378216.5,-5411075.0,-2.7805915,45.306038,62.510235,32886.0546875
516,4775.7656,-2728.0886,-8769.594,-746.3056,-1371.1351,2041.6061,12568.119140625
517,12557.83,4199.7993,-6491.9937,-5250.376,163.35498,1294.5205,19008.951171875
518,-6410.8594,-7081.3784,-23469.047,-732.5965,-1260.6691,-1328.475,17078.232421875
519,-2072.3147,-4029.0583,-10851.128,-1991.5325,950.08105,836.2813,8967.8974609375
520,-9209.633,-6106.5386,-16516.975,3486.1985,-2141.969,12.140382,11658.7763671875
521,28545.768,31325.703,53149.48,-1241.8081,443.31686,291.95825,23455.181640625
522,1375.77,1254.1714,-2250.3716,-688.96265,-640.85376,61.642662,3923.0400390625
523,6121.1035,6061.531,12943.956,3195.6929,703.28265,-143.7668,8896.3203125
524,-952071.56,-952255.5,-992308.44,49.185528,65.5103,33.545498,40145.51171875
525,-14396.224,-16936.086,-1502.8135,-1092.2625,1547.5588,-827.4828,14773.5078125
526,265.64087,8769.153,-1623.1748,-221.11366,50.891937,-144.53287,9599.79296875
527,-4544.0747,-353.0708,-12835.977,631.5382,-221.27469,79.39768,11064.984375
528,-3187.4404,-6496.4844,-17460.318,1556.37,-554.958,623.484,13296.32421875
529,-4923.2188,-10398.651,-16123.203,3256.1338,-389.0751,52.903996,11241.21875
530,-6005.7217,-2300.9448,-8470.358,2486.0115,-374.51294,-728.0637,7034.38037109375
531,-54163.38,-63696.59,-94245.984,-768.35913,-396.9287,758.13947,36322.8515625
532,-1799.5332,-14709.581,-25294.111,-814.9327,-369.93332,-1393.0035,20580.880859375
533,144766.94,143374.73,181098.08,676.1929,146.54887,213.73235,37068.09375
534,3592.0996,-1476.6497,3720.062,3637.4966,121.31021,1210.6846,8395.9970703125
535,-15807.566,4083.615,4557.298,-1048.5302,236.9414,-265.09753,20223.330078125
536,-1943012.5,-1942945.2,-1980702.1,-44.84247,-28.697126,534.9655,37734.78515625
537,-35131.645,-29389.578,-61136.656,-1280.7999,-589.3264,-134.15448,29403.6015625
538,2213.7622,2803.75,1539.55,714.52545,-278.47864,-130.04533,1736.50537109375
539,-60204.426,-45348.58,-86824.77,-5541.841,668.5963,-435.4917,37667.6640625
540,-6095.2275,-6855.8955,-10113.909,6639.371,874.41046,148.78008,12176.841796875
541,-5492.176,-12691.796,-13913.941,6464.8735,-393.37003,309.34848,13720.8681640625
542,51462.992,35320.92,77907.1,933.143,-500.49435,31.992373,37283.8671875
543,-11698.824,-2855.7405,-2616.8418,-2727.8635,502.7927,680.78503,10239.2548828125
544,7677.583,-12634.324,1283.6895,-209.38863,1027.6669,192.84892,18082.994140625
545,543.9463,-21372.465,-1745.6255,-5810.0366,-918.95715,-148.81566,23222.00390625
546,-8268.033,-26149.734,-19050.494,-5445.7075,-372.56506,199.17178,18240.35546875
547,1830.9893,-4921.851,-13358.487,1452.9457,593.92004,-1029.1,13576.3564453125
548,5717.0083,6227.209,4130.654,3102.8555,-180.30984,940.07446,5934.48193359375
549,1046.6869,3231.5798,-3695.6504,5838.398,-722.59,284.10297,11903.5390625
550,-4410.002,1778.3835,6813.4517,-1490.9364,-186.53569,-149.6659,10082.0244140625
551,3923.6565,1451.6677,757.54395,-2714.9373,-1506.5635,111.281136,6104.70361328125
552,-33785.223,-28379.672,-23741.234,-552.1326,-269.72522,-451.21317,8806.3603515625
553,-6276779.0,-6276794.0,-6308126.0,27.55069,70.24705,43.38919,31339.865234375
554,4983.459,9133.761,5445.585,46.153572,1334.5846,341.83405,4606.6142578125
555,-28364.178,-21430.107,-49904.49,94.399956,-60.30819,75.97429,25719.318359375
556,14668.675,13990.48,10244.828,2979.8582,-507.5004,-226.90282,6678.0185546875
557,18921.285,13377.669,11157.537,2333.9192,-266.82153,220.968,8041.7548828125
558,-19074.191,-21657.512,1580.665,-3926.4316,38.028023,-377.7695,23094.107421875
559,-17459.822,-14463.327,-6419.218,-3760.2195,146.4928,-642.40955,11895.83984375
560,13732.177,11348.065,27303.453,-4277.3154,-2358.6348,413.0273,17155.36328125
561,-62894896.0,-62894896.0,-62896896.0,-0.059717707,-1.0868112,-2.202852,2000.00646972656
562,1079.2373,-3140.0605,-253.4378,845.1668,378.8995,343.37802,4108.87890625
563,1117.4504,7436.244,-3231.2153,-402.13568,-1407.1467,143.89221,9633.4736328125
564,22047.242,16545.379,39619.293,1373.0227,91.40382,831.40204,21058.984375
565,1572.3076,-3009.993,-2227.4482,3645.391,168.6035,723.3487,7716.580078125
566,8313.763,4370.3506,607.44336,-858.50775,563.6632,-361.93314,6935.841796875
567,1646191.2,1646402.5,1685127.8,-58.432365,33.11758,60.797195,38831.62109375
568,1350608.1,1350656.0,1389970.9,-36.895912,47.08371,37.132465,39339.0234375
569,-13582.351,9146.422,-980.2049,-8702.5205,-36.822746,-486.3769,24837.375
570,-1407475.6,-1407564.4,-1446935.4,103.11833,116.89634,34.543434,39416.421875
571,-1238.8885,1455.0647,-2398.427,-558.9831,223.76765,-1740.2921,4679.6484375
572,1813.9446,2036.2384,450.26068,2591.902,-387.69485,171.97192,4785.990234375
573,-579.6878,2967.7947,-4039.9355,-835.27783,-572.8363,-477.10342,6371.3017578125
574,1862.4246,-858.62085,-4817.0576,-1273.1866,-1935.065,703.2324,7171.083984375
575,-2393.0005,-4329.4062,-9729.907,-803.21265,1391.0903,-3191.803,9037.494140625
576,-35814.016,-10605.865,-11169.889,992.84,5741.3403,1502.2496,27021.609375
577,21346.59,6104.3755,22003.057,2510.6152,-4245.4053,-1295.0881,17910.158203125
