Element Label,S11,S22,S33,S12,S13,S23,Mises
1,30883.982,21976.217,12303.568,2170.398,14724.264,-8182.13,33532.90234375
2,45566.332,31044.62,24156.697,-1294.7642,12515.193,-2117.497,29098.43359375
3,13549.1,16992.412,5037.7324,-2716.9802,12972.8125,-5727.053,27185.14453125
4,96164.2,96781.05,98353.8,-100.32149,1315.1786,148.45718,3018.20727539063
5,30006.705,29129.393,27922.773,467.41437,-108.7866,98.01959,2000.98596191406
6,-24124.363,-12595.932,9123.946,6653.26,-5143.771,-3923.8474,33367.89453125
7,-18584.479,-16538.803,1068.2357,-1091.1061,-5725.8013,13241.114,31274.87890625
8,4398.068,689.9496,-22923.348,1690.5359,-1665.5588,3230.3372,26591.353515625
9,-3355.4282,-3360.6067,-3882.2722,-290.7568,1074.4545,63.518803,2000.9853515625
10,17953.693,18195.74,17233.025,367.1402,-973.9306,-22.811024,2000.98571777344
11,24850.94,15460.354,12675.338,10419.091,-3879.3987,7020.748,25313.763671875
12,11861.973,-8586.636,-789.94257,4720.229,-4610.355,-7159.7656,24574.31640625
13,32239.295,32394.428,16558.338,3176.074,-3999.3816,-3687.957,19167.673828125
14,24866.596,25653.713,25174.275,-344.6565,120.206635,-1021.7944,2000.98596191406
15,53702.285,53575.62,55242.992,98.133675,-598.2667,324.7074,2000.98449707031
16,-60861.074,-57838.383,-71236.72,-673.1822,-1958.5446,10873.873,22709.98828125
17,42545.543,41776.75,42182.34,451.3914,-187.6153,-882.5927,1870.16101074219
18,-37734.18,-33161.973,-50743.805,-6158.8545,4078.6848,-5195.9624,22233.615234375
19,12133.437,12050.814,13535.922,-164.06537,742.1418,-245.00711,2000.70703125
20,13668.02,14364.243,14212.509,-720.2757,67.5326,821.86346,1999.64025878906
21,14683.432,27320.795,18284.002,2534.2332,5365.5317,7756.936,20330.009765625
22,1656.3625,1362.9318,1011.3599,-296.13818,-1063.704,-105.79131,2000.98315429688
23,-25174.287,-24868.332,-25130.953,-660.2596,60.206085,-931.4879,2000.98474121094
24,71458.305,71397.6,71407.11,83.69759,-498.457,-1038.3242,2000.98559570313
25,-17352.072,-18399.182,-17826.344,198.38538,596.8225,813.6054,1999.31994628906
26,31601.424,31637.826,31960.736,667.91174,347.8991,-853.4578,2000.98498535156
27,225863.61,224633.95,224507.3,-488.56995,-323.88193,-655.5744,2000.9931640625
28,193273.56,194161.95,193851.52,-123.29418,-1055.9104,35.073605,2000.98852539063
29,27850.41,28362.674,27213.37,-724.63306,72.444115,-687.5683,2000.96032714844
30,116972.47,115781.21,116147.984,930.7462,90.77275,-296.4573,2000.98510742188
31,135663.28,136577.89,136068.89,320.44083,-963.1998,-306.07404,2000.60180664063
32,-264762.47,-264365.03,-264336.12,-1320.6025,-185.93709,-311.1414,2407.5712890625
33,156231.72,156693.9,157494.19,-724.8214,632.6684,32.204212,2000.99096679688
34,105249.85,93974.805,91368.28,-4950.205,4586.1855,5955.9062,20157.892578125
35,-47200.32,-44477.598,-42018.28,-1478.885,7732.705,-12263.565,25637.630859375
36,65515.844,46747.246,45712.496,3903.4941,7604.729,147.91025,24331.5625
37,-1462.6207,-1946.1567,14681.815,-1569.8265,9500.199,-71.02302,23384.87890625
38,7916.585,6592.1143,4622.3003,-4229.154,-5665.48,-2649.4546,13388.517578125
39,2956.1763,14888.486,13761.179,428.06314,-11002.275,-257.9834,22228.337890625
40,-9392.52,-14398.617,-14876.879,-1390.8329,-2424.3262,-1311.5325,7501.97607421875
41,1308.0487,414.68082,18.361938,-374.2992,-736.7644,-464.02014,2000.9853515625
42,353.88443,362.2375,509.38007,-892.7511,719.99475,-107.66665,2000.97900390625
43,-9166.661,-9811.229,-11343.11,231.25218,-13.393466,-174.16055,2000.37414550781
44,21851.262,22526.094,21664.637,-821.7031,-199.33186,-466.33072,1847.52490234375
45,20296.715,21709.713,20986.729,-424.1529,-641.6171,-493.79944,2000.9853515625
46,-19119.629,-19704.316,-19619.535,903.4726,-17.13023,-619.0515,1974.54296875
47,113700.586,114376.734,115541.8,645.5404,207.66306,85.8167,2000.98352050781
48,-94487.99,-95320.16,-94038.96,-685.81757,-14.582104,664.423,2000.96044921875
49,199367.36,200144.44,198667.28,217.29105,174.3532,-843.1642,2000.89880371094
50,101612.18,100050.55,101115.85,-732.3357,-240.54001,322.03137,2000.89831542969
51,83954.945,82104.86,83420.53,-371.4716,-438.1792,-313.1894,2000.98571777344
52,115407.94,116518.19,116087.14,781.58527,389.79068,-508.3674,2000.90869140625
53,71488.89,70904.33,71771.3,-573.7206,-268.91714,858.8708,2000.98547363281
54,131671.55,133609.08,133268.5,-268.1585,436.07846,-50.29453,2000.98693847656
55,111.30059,2208.5837,478.32544,-88.03252,-269.01077,3.8590622,2000.98547363281
56,13055.713,12755.738,13873.432,-538.3096,-811.75244,226.39937,2000.96752929688
57,153688.06,152785.81,152511.2,-6.902429,-801.68604,498.26236,1951.99182128906
58,119818.88,120490.13,119923.01,556.86676,122.358604,-922.90344,1980.40246582031
59,-277749.9,-278451.56,-277364.06,-937.7258,-388.63565,-17.385344,2000.98364257813
60,155734.89,155072.58,155113.22,636.9497,741.25507,-491.6157,2000.9853515625
61,-38755.316,-37219.25,-37327.605,-256.2991,-730.2246,28.267258,2000.98693847656
62,-21283.756,-20921.08,-23702.434,205.03677,-2781.0327,-989.3939,5755.34375
63,17594.932,13458.015,12881.732,-2340.1265,-2958.3447,-758.4872,8014.99267578125
64,-75782.56,-73292.12,-94995.99,-8606.339,5695.219,-1529.1112,27381.318359375
65,3513.7412,-612.0223,-918.19183,784.1865,-2665.4412,-1539.8191,6974.99462890625
66,2431.1067,3406.6572,4342.647,-466.21497,415.1524,-176.9522,2000.98498535156
67,-10454.836,-2804.225,-3586.9863,-491.72488,3470.864,-1588.429,9878.8330078125
68,18117.9,19040.164,17203.092,-649.17236,-206.2352,-164.20717,2000.97595214844
69,51142.992,52564.273,51873.18,-320.7254,744.16986,-415.76035,2000.98559570313
70,-88873.164,-88447.0,-89777.43,-503.43607,-710.74677,-338.32687,2000.974609375
71,110704.1,111959.96,110661.96,-81.227486,-875.1637,134.83305,2000.98706054688
72,50343.22,50404.44,51741.94,175.83467,-766.8263,301.43347,2000.98657226563
73,109822.9,109618.664,108166.945,-357.4204,430.75226,454.0168,2000.99328613281
74,273597.47,273654.62,273585.88,452.0489,745.1398,-757.4379,2000.98596191406
75,223621.75,225488.3,223882.5,-247.19647,-493.79596,-86.640144,2000.65661621094
76,130286.414,129198.08,130171.4,-331.04498,-617.54236,696.87866,2000.57385253906
77,6883.192,13180.234,16653.814,1098.2032,-1097.1945,-5562.184,13177.0673828125
78,13821.767,10479.595,2309.3508,-1726.2496,8753.155,7838.0044,22985.326171875
79,-127.25464,-4800.912,-7384.967,6211.4043,457.08505,4880.871,15114.1494140625
80,29232.705,7290.637,27824.6,2913.444,-2580.651,3458.0347,23105.37109375
81,2346.3713,-3539.359,5611.2734,9047.047,461.10904,-9536.133,24156.08203125
82,-26539.135,-35410.0,-28649.443,-9189.638,5005.341,1006.3366,19899.048828125
83,4346.501,-2961.1404,5392.6123,6935.55,-2170.135,13665.273,27942.685546875
84,-9891.863,-23319.898,-11533.524,-642.89233,2498.4158,-601.61975,13491.2900390625
85,29604.812,53971.977,38056.402,-2121.4683,5175.647,5387.9707,25302.19921875
86,12207.714,10992.869,12516.737,4.3451657,473.3589,-679.4416,2000.98571777344
87,68559.414,68025.16,68582.46,497.6686,993.71173,9.245662,2000.98547363281
88,126581.05,124746.62,126500.8,333.293,168.1297,346.62204,2000.71374511719
89,6806.272,7478.2715,8008.079,-462.146,251.91837,833.56793,2000.98522949219
90,70721.31,70016.51,70007.64,276.55356,-465.78586,-743.7124,1744.33862304688
91,28022.727,33021.203,33001.844,255.61565,-1551.4247,-324.34396,5711.45751953125
92,15411.274,10792.002,14324.37,8285.616,4679.796,302.16632,17012.583984375
93,29674.877,28065.307,17634.516,974.73486,-6166.0933,2433.853,16213.099609375
94,-45814.305,-37661.945,-23529.787,5253.439,3190.5657,7803.7046,26027.248046875
95,-4043.585,-11330.264,-660.3295,1940.9275,2347.338,-1977.3568,11347.0791015625
96,4556.6846,5002.928,6056.323,-242.22975,822.33704,-82.373886,2000.98522949219
97,-252510.48,-252754.0,-252368.4,10.329072,974.6733,-588.66315,2000.98510742188
98,59486.977,60377.637,59588.758,963.2648,275.5541,-305.24658,2000.98364257813
99,156110.75,157010.3,156122.69,19.112358,474.1802,-918.2842,2000.99047851563
100,78887.375,81058.97,79423.92,-188.10707,-99.02047,99.64744,2000.97412109375
101,243648.81,244099.42,244505.72,490.3653,941.3135,-155.45522,2000.82336425781
102,101231.15,100204.2,100207.79,-971.7967,182.62679,-81.14745,2000.98120117188
103,162766.94,162237.83,162240.0,14.767256,1051.5386,-368.44608,2000.98083496094
104,-3685.0466,10468.693,5151.225,5385.543,5645.397,1590.184,18535.14453125
105,14402.451,-316.91187,3249.0737,-9854.69,-5568.4287,-3949.6936,24658.751953125
106,-15947.177,-14895.237,-14638.017,-537.2705,647.47675,381.64774,2000.98522949219
107,22560.266,22067.775,20267.979,-3051.3525,-1238.4396,-2421.591,7382.00244140625
108,-10068.234,-1255.6255,-7549.231,2993.9636,2840.5256,2095.799,11228.66015625
109,21016.629,11788.027,-1772.4727,-1173.4775,5119.7363,-11725.036,29822.716796875
110,94366.53,93728.23,94331.375,936.31116,-380.5872,429.39404,2000.98522949219
111,75973.02,76269.06,75028.805,431.36517,-539.05115,-662.1361,2000.9853515625
112,-110004.96,-105170.7,-94511.32,-7088.8867,2206.742,-11360.308,27222.390625
113,42771.707,27077.791,38941.645,-8053.534,-10505.588,-5392.7236,28526.908203125
114,12600.889,14799.897,13950.975,165.2082,-210.78271,-181.88124,2000.98291015625
115,-65279.3,-64583.285,-64065.1,453.79272,-803.1759,-335.26294,2000.96911621094
116,-439225.97,-440360.22,-439252.06,-245.92241,-598.7703,699.69635,1995.83154296875
117,-326380.0,-327479.5,-327351.03,249.75188,-376.77554,875.01483,1998.52783203125
118,141778.94,141192.92,141671.31,249.89041,1073.2882,-148.16246,2000.24060058594
119,16874.178,16370.739,17822.68,801.35767,384.84012,28.840654,2000.98522949219
120,-2936.8816,460.03085,6110.1465,-3533.639,5201.7993,-4803.954,15828.001953125
121,78544.07,72378.945,71387.75,1562.3417,120.69316,267.7656,7258.34716796875
122,-49783.137,-47473.36,-50952.2,6998.346,-5113.1045,781.5481,15381.6953125
123,-17762.29,-16371.076,-18105.457,-686.4843,-101.890396,-97.22096,2000.98474121094
124,-634.51556,14498.096,16055.962,1471.2157,-5573.7964,-6427.9546,21878.033203125
125,878.02747,1299.5061,1701.5094,-361.7434,554.63074,-850.64496,1998.72412109375
126,-42520.62,-41418.203,-42723.8,-488.9672,3.4599197,-775.89484,2000.98413085938
127,12990.841,13689.506,14208.012,-42.44367,787.7854,582.3155,2000.93444824219
128,43570.957,43782.766,43525.992,-378.74066,-347.42145,-1025.5236,2000.98547363281
129,146581.8,146275.9,145684.75,1018.1399,-229.0724,-193.95227,2000.99108886719
130,97399.69,90030.44,106923.32,285.23376,-417.83136,-4431.3916,16579.11328125
131,-13425.092,-19131.959,-10272.491,-4813.198,-12244.324,3990.982,25051.01953125
132,9825.22,16981.678,-8974.466,6960.8315,147.15529,-3091.6099,26707.318359375
133,44345.594,43281.11,55925.87,-8274.675,-1840.748,-6207.692,21880.244140625
134,-24502.514,-40907.734,-28394.287,-528.2992,2370.5486,10198.688,23455.646484375
135,55781.527,56709.297,55732.66,-444.86655,-878.62744,248.79715,2000.96459960938
136,-4972.138,-5195.8823,-5629.1973,-934.96484,-411.26837,-423.9736,2000.984375
137,-31307.338,-31776.932,-32592.56,-558.77875,-512.3214,378.8826,1850.28637695313
138,9701.4375,9331.781,8411.406,99.88683,-780.17316,522.7757,1999.94604492188
139,18837.875,17909.201,18875.54,130.19173,795.73474,-620.3984,2000.98596191406
140,57806.6,56478.215,57941.83,541.5816,-285.45023,552.8802,2000.98413085938
141,1200.6678,2281.78,3418.507,-248.05338,-171.43387,-117.3179,2000.98278808594
142,-51725.293,-64156.65,-49598.29,-10999.873,-6274.106,-8096.4766,29381.08203125
143,148.15524,1408.1808,1314.5577,-872.3388,99.50174,-266.3556,2000.98095703125
144,-16326.961,-13136.108,-12900.001,508.44547,-8.497306,1246.7441,4053.33813476563
145,29755.37,28956.094,29473.295,-972.423,281.11807,-381.70236,2000.98571777344
146,126236.05,125278.47,126254.63,110.62891,969.8565,-264.74237,2000.98608398438
147,38012.117,37229.184,38071.688,332.2848,584.897,812.9153,2000.80480957031
148,-298530.97,-298621.34,-299958.6,690.42004,-438.4284,-163.2457,2000.97595214844
149,-266683.03,-268427.25,-268563.84,345.16486,-94.61702,-326.40634,2000.77551269531
150,140220.0,141352.47,141709.44,-324.76633,656.2611,440.07016,2000.90197753906
151,-105639.35,-105436.68,-105332.33,242.64162,343.04306,-1064.7638,2000.98486328125
152,152599.92,152612.2,152664.66,58.31338,435.51447,1067.8916,2000.98571777344
153,22212.695,22098.951,22083.91,985.0645,151.23564,580.0561,2000.98559570313
154,55002.742,55749.023,55452.316,397.25412,503.24066,884.1191,2000.43225097656
155,-110261.33,-106544.48,-105963.82,-1878.9126,-1219.8759,-314.5636,5626.93896484375
156,-742.01825,-2074.0845,-274.54578,1300.3446,6563.208,-0.8104119,11701.0869140625
157,-47899.49,-49076.164,-45024.086,-11038.199,2529.9854,-3952.5999,21086.32421875
158,-31121.445,-41273.35,-39874.133,-2080.0508,-8370.315,694.69653,17760.3046875
159,-45399.32,-34691.973,-32454.902,-4698.494,5033.3066,-2402.1997,17411.107421875
160,68950.95,88442.49,80212.31,-6982.7803,-1927.1311,-1119.1327,21175.779296875
161,-28157.375,-24007.086,-27308.72,-9262.216,2623.2654,4044.6655,18480.02734375
162,20062.639,27670.62,8595.104,-6705.4346,7411.603,7051.847,26935.11328125
163,-51735.543,-61606.734,-68069.5,1858.8398,3824.4531,8420.205,21678.27734375
164,29339.205,54377.38,30890.44,4361.894,1458.4248,-3371.073,26230.291015625
165,321878.06,322475.12,322127.88,-118.2427,-835.88544,729.3772,2000.94152832031
166,235152.69,233431.31,234327.2,165.18065,-750.4653,54.56353,2000.99169921875
167,133978.62,134910.77,134347.14,-391.27957,86.95436,-976.52155,2000.98645019531
168,-29377.703,-26619.385,-39563.43,-5336.903,-2223.6123,11317.766,24980.17578125
169,-10898.658,-11545.044,-10008.196,3925.6304,8719.686,6833.5117,20401.1640625
170,22745.727,11585.971,26310.104,1664.4863,214.26814,-5503.468,16623.365234375
171,88167.4,85980.17,87330.26,-332.34592,-67.605,41.289288,2000.98364257813
172,186738.89,185211.6,186487.42,-398.68756,-389.04886,594.74994,2000.97961425781
173,99694.91,94904.61,120643.7,4769.2256,-5849.5684,-7281.948,29868.36328125
174,54535.1,26865.2,29464.79,-4210.1484,5849.878,-4129.16,30123.748046875
175,-23947.312,-24152.406,-25230.523,442.32785,-760.88116,-291.2949,2000.96362304688
176,24435.684,23718.707,23757.266,-198.02373,479.77982,-950.01086,2000.916015625
177,130581.516,130612.43,131095.84,1086.6398,144.03168,222.73506,2000.75366210938
178,-62261.547,-48208.71,-54514.35,-4637.8584,-7784.5107,14494.574,32019.279296875
179,39354.117,21763.559,48464.375,150.4767,6435.916,2146.607,26283.71875
180,25564.895,25985.16,26150.518,-986.66376,112.55282,-492.56146,1989.93249511719
181,29155.117,33170.54,32838.996,10138.085,9803.031,2773.1978,25191.560546875
182,-38500.87,-39581.543,-43631.98,112.50918,-8225.3,-6415.384,18666.205078125
183,27993.686,31255.951,33900.49,92.95607,9631.228,-4788.5566,19322.564453125
184,15790.602,6746.272,29015.24,1798.9739,5969.2754,-4900.5894,23768.71875
185,-12602.305,-23012.46,-3180.3394,-6023.968,17536.9,608.034,36439.41796875
186,-1082295.1,-1083028.6,-1081851.9,-121.34812,-69.85287,-928.1478,1924.26770019531
187,42271.312,41386.656,43537.26,393.0056,1.9393845,108.610664,2000.98327636719
188,147219.92,147101.56,147484.47,-7.8058143,-154.18912,-1122.4469,1991.60046386719
189,143627.66,142720.66,143789.75,-315.75983,624.06256,716.2693,2000.63549804688
190,280952.06,281169.5,281042.66,201.89574,-141.53342,-1123.3295,2000.94372558594
191,49509.02,49043.914,50799.02,-279.31973,-432.83282,-492.42047,2000.98327636719
192,56019.05,56760.85,57222.914,859.4894,363.29852,-308.37823,2000.98559570313
193,263727.62,262956.38,264547.4,549.1108,-62.575207,-629.4344,2001.00024414063
194,271767.44,269200.06,266398.75,-1263.3198,-1518.1243,-3572.822,8463.33203125
195,376934.1,383043.62,383024.38,-1093.5789,-6274.671,-4241.698,14590.6611328125
196,-567499.56,-551341.06,-569221.3,1709.7086,499.27667,1319.5162,17510.65234375
197,-163490.14,-175369.64,-179224.67,-51.261826,9624.23,16284.775,35710.59375
198,113555.27,121372.61,119572.984,-5078.551,1370.5021,8769.032,19078.228515625
199,8330.341,4551.853,14625.166,-15149.712,-3462.982,-6967.266,30786.8984375
200,-140920.22,-125885.36,-135705.7,5027.7095,-13571.768,-10466.655,33643.7734375
201,9021.218,33184.117,17415.35,-8018.3887,-9201.072,3940.7336,30739.740234375
202,47545.5,30802.828,14162.609,9171.471,-1448.4817,-1280.4298,33156.83984375
203,-3702.315,-30154.68,-32739.244,909.5534,10639.83,10226.8125,37823.77734375
204,-19441.486,-5770.23,-38591.855,9941.23,7162.4824,804.1852,35605.859375
205,-11789.421,-7087.4404,-30468.398,-5320.7437,-3873.5469,14946.107,35481.59375
206,40395.91,55550.67,38251.52,-731.6267,-2881.6575,-16557.82,33403.06640625
207,3332.3047,20139.674,-21132.996,497.83664,2178.5767,-1354.0431,36231.45703125
208,-6948.667,-12521.644,-15258.901,880.30786,-3658.1824,-6261.143,14624.7314453125
209,-7072.7354,-657.1198,-30396.729,-2821.2043,-7119.6074,-7839.001,33092.296875
210,24323.686,16587.385,27897.416,3438.9998,10025.739,1536.9768,21080.388671875
211,-14895.5625,-17069.49,11837.124,-9153.536,-5830.505,5000.8354,34725.328125
212,7826.8105,103.479095,28879.002,-3502.7522,15345.369,62.036022,37532.62890625
213,-52484.527,-48931.69,-63015.53,16222.619,-8001.922,-3842.1714,34450.52734375
214,21775.889,29364.586,21276.432,-1677.3898,8004.7144,2698.5955,16856.52734375
215,80241.914,72142.35,62793.29,1704.2417,4759.193,-1926.4111,17791.21875
216,-42364.434,-43027.57,-64746.773,-11731.15,-7183.881,7596.4644,35033.828125
217,-7252.9575,-2600.3555,18530.89,-4363.7983,3134.8462,10941.202,31815.58203125
218,-21746.188,-27416.006,-7480.0083,-852.60724,14260.76,1195.8601,30547.279296875
219,49762.617,76912.17,45461.82,-3654.2793,-6922.7466,-2703.864,32834.84375
220,21677.373,1380.9397,8205.993,3754.9053,4577.7393,2300.0261,21000.8984375
221,-10244.567,-7802.2773,-13498.139,-2567.635,-8931.103,11708.602,26359.869140625
222,17893.271,11302.519,5415.218,-2220.6487,-2580.4702,-4217.784,14319.201171875
223,10537.266,25851.92,262.5909,3035.5535,-2107.0964,7523.0317,26612.25390625
224,-38006.168,-34877.508,-27024.37,3900.506,-481.8731,-8762.697,19306.0390625
225,67367.06,91425.64,105236.0,-2769.92,-6777.8916,2757.1326,35853.046875
226,-26897.02,-28085.98,-26543.82,-197.65195,417.38803,-684.5404,2000.98522949219
227,43256.523,44943.96,43932.902,-214.2816,148.67221,-738.5244,2000.97521972656
228,376813.78,383077.56,378429.7,2928.6663,-590.92163,-2093.5698,8464.7705078125
229,117745.32,117547.24,117979.47,972.90356,-327.70758,483.52737,2000.90905761719
230,180910.95,180469.05,180777.1,-44.013554,-473.21365,-1028.3142,2000.98522949219
231,427105.97,426785.25,435954.94,126.96251,-3381.0525,101.07417,10752.61328125
232,-22901.818,-25140.205,-35627.777,-1824.1129,873.0474,-10087.815,21354.9921875
233,-12002.657,-17371.635,-29038.52,4299.232,2190.4258,2546.7368,17801.208984375
234,29450.707,15968.738,36407.316,3521.028,7784.04,3105.7102,23913.37890625
235,13547.356,13235.454,15794.434,2941.3125,-875.98,-9160.135,16906.439453125
236,24774.826,16672.008,18433.342,-2946.4326,-6126.802,1640.4749,14185.103515625
237,-145794.34,-161992.3,-163671.92,-6133.629,-6239.669,-3706.056,23733.3203125
238,4349.22,7894.7783,-5501.398,-6114.2163,651.6376,12768.79,27332.80859375
239,34818.477,26936.78,25513.145,-3624.248,-4684.5596,-4028.183,15142.2626953125
240,17421.467,5473.785,26899.418,-10384.471,-1998.8809,3651.1284,26857.189453125
241,-113385.73,-111698.63,-92941.484,8500.365,-3264.3376,-892.80133,25247.763671875
242,5171.919,-1487.7913,1093.6615,1760.339,-2785.4233,-3959.408,10650.201171875
243,-26794.012,-15404.901,-15197.06,-8377.501,-7345.5195,-6409.55,25055.671875
244,-4766.1665,9027.145,-943.8849,-1220.045,-1294.3525,304.61093,12724.515625
245,-51395.26,-60226.004,-52977.81,3155.0752,-954.3036,-1167.0472,10158.39453125
246,48894.035,50384.125,48873.29,-69.84579,-633.82294,421.2662,2000.98413085938
247,28101.168,29732.875,28836.61,181.0367,748.4683,271.8345,2000.98388671875
248,101654.914,102345.93,102968.72,47.758068,385.7056,867.0007,2000.98608398438
249,96019.09,95281.19,97365.45,149.22823,-331.53098,292.52094,2000.98156738281
250,14421.475,14730.206,15380.112,-130.81184,202.04756,1018.46277,2000.98571777344
251,128849.24,128076.42,126901.36,-19.811504,-289.5082,-537.01416,2000.97741699219
252,68174.2,68378.3,69292.586,293.8278,-403.30325,851.5729,1996.66552734375
253,-70866.445,-70124.55,-69699.44,-74.91599,700.0446,700.07764,2000.96716308594
254,9922.761,10285.652,9486.516,20.09321,-173.5699,368.4597,989.539367675781
255,93586.586,94211.71,95303.63,660.6481,-27.836039,377.09207,2000.98718261719
256,-459532.34,-459571.03,-458528.78,213.68301,-939.4212,238.93117,2000.81030273438
257,1611.632,1697.5046,1539.4478,84.297905,-1111.0226,294.80402,2000.98559570313
258,-795811.7,-795724.4,-797372.0,-111.132645,624.80145,-268.94684,2000.90295410156
259,35870.773,35056.727,35663.746,1060.9078,37.739777,169.26529,2000.95080566406
260,-712356.6,-712612.9,-711484.6,116.4151,-665.09955,727.19836,2000.91979980469
261,166021.1,165802.94,165500.58,-852.53046,-667.0648,-307.47418,2000.98645019531
262,115024.375,116349.35,114892.34,-733.05994,114.14367,-367.32574,2000.98352050781
263,47608.473,45951.195,45749.24,-263.98938,-330.73477,338.94812,2000.98449707031
264,58714.77,59132.07,58398.09,-60.54438,-1086.8472,119.20765,2000.978515625
265,28768.441,28911.52,27575.209,231.31448,562.21954,653.23773,2000.98742675781
266,504927.4,504766.3,525876.94,3167.0728,1687.4655,7499.607,25488.2265625
267,-720834.1,-720651.5,-718823.8,-266.12512,110.15535,-125.87786,2000.99499511719
268,-597228.6,-598156.1,-596397.1,412.4931,618.85095,84.98826,2000.97839355469
269,83476.414,83160.914,83067.35,83.468544,2251.6216,-3.6213381,3920.22338867188
270,106760.44,99173.92,101136.766,2618.6677,-234.08034,-8131.865,16298.318359375
271,66119.77,66091.75,66237.98,-219.4665,-535.3065,-996.94836,2000.98571777344
272,23211.81,22169.168,22289.219,-1693.4996,645.4863,2935.9148,6057.1376953125
273,293064.12,289829.12,297471.53,1650.3279,2656.577,-4804.818,11947.810546875
274,-73666.914,-73364.305,-71921.3,424.2175,-34.14745,-532.301,2000.98083496094
275,52643.8,34456.047,50630.543,-4264.436,-10553.275,6831.9854,28756.39453125
276,62849.105,63341.457,61224.18,-94.313805,116.980156,650.9636,2240.943359375
277,78469.24,90953.945,107977.516,-2975.0002,3171.5095,-3058.3347,27257.87109375
278,-2862313.8,-2862179.8,-2861335.5,-9.422165,-688.41425,761.1648,2000.99169921875
279,-170916.97,-171752.08,-186826.42,4803.7534,-3818.1755,9229.714,24678.90625
280,86958.88,69033.61,86420.48,-11307.138,4692.6816,4971.2734,28908.697265625
281,18484.637,15427.109,19408.05,-5008.9,3194.3062,-1933.8866,11407.115234375
282,42208.15,46608.562,74222.695,-11823.091,6374.005,-2651.5767,38285.12109375
283,-88962.6,-92583.414,-122845.67,-8637.893,-829.6113,5196.8877,36679.91015625
284,316963.56,321560.25,335141.88,-3556.3264,766.83856,-2803.2646,18201.701171875
285,164328.4,163714.84,164731.78,-800.1393,-375.5192,-539.6115,2000.97985839844
286,40638.266,33272.613,38585.566,-4962.6704,6177.3726,5848.8843,18284.94921875
287,406247.9,388874.4,409930.34,2634.3232,8696.839,6254.726,27284.875
288,70286.4,74918.64,103190.82,-2774.8481,9785.601,4668.852,36434.9453125
289,-47677.836,-45501.797,-77369.62,4085.8855,-737.38855,1974.2144,31848.93359375
290,-101659.67,-116378.76,-108412.07,-6174.4663,4957.8955,14679.975,31582.8515625
291,31072.45,40715.65,69483.56,-4119.5024,-10287.129,-535.2754,39588.44140625
292,-4457.7393,6141.0903,-18263.797,-5129.089,-11892.231,-2812.2468,31244.1171875
293,11527.438,-213.93994,5584.962,-6915.3433,-9755.893,-298.08942,23079.53515625
294,-61712.32,-71470.33,-73564.65,2107.0842,-2720.2617,-4002.8853,14269.87890625
295,67922.55,64895.645,57436.45,1356.6328,-8490.729,-12356.817,27699.306640625
296,12884.895,13186.401,17656.037,1705.4133,4399.3857,13260.706,24814.193359375
297,66.562675,-13786.183,-12814.263,-3955.75,5109.691,20813.316,40052.87109375
298,54254.594,43451.5,72076.35,-7710.917,388.73306,-3254.1128,28938.69140625
299,-11651.376,-1749.183,-33395.684,-4668.4277,1170.0664,4166.441,30128.92578125
300,1050911.8,1051925.4,1067642.2,-66.870026,-13.525074,-1956.2999,16597.40625
301,-843022.2,-842738.25,-844585.6,-22.566746,458.03394,-367.1005,2001.01904296875
302,15194.256,15097.867,15695.936,-414.24384,51.317272,1028.254,2000.98547363281
303,179614.19,180949.23,182066.22,-3582.3274,766.97723,2343.877,7827.29052734375
304,52622.996,52303.293,53385.586,-65.92401,-977.1209,257.5924,2000.98754882813
305,53456.645,46878.527,41993.758,-1738.4066,246.87555,-9671.929,19726.95703125
306,98583.75,98543.52,100349.016,-76.45015,352.9026,375.94092,2000.98498535156
307,112883.74,113655.53,107058.95,-1984.83,1126.9962,1495.8561,7833.33251953125
308,201664.14,202439.45,202787.2,618.2495,-341.73865,-284.5849,1652.77758789063
309,88698.234,88701.34,87996.98,-227.045,-1054.7344,-77.36019,2000.98693847656
310,-195493.28,-196019.58,-194319.39,141.66786,336.24823,-666.25165,2000.97326660156
311,-173141.81,-173230.28,-173859.47,40.602993,-641.7409,-876.38196,2000.98547363281
312,99747.78,116459.04,132807.14,5194.9556,-3351.7368,-5958.388,32262.923828125
313,7886.6016,9239.049,8791.722,-487.21024,464.24854,-637.95953,2000.97668457031
314,131670.39,134583.8,142495.61,1054.2827,6526.141,-3179.6704,15986.6201171875
315,46942.707,45967.27,46060.99,653.6178,-478.66476,623.44324,2000.97412109375
316,171437.73,170622.19,171521.4,-529.00793,361.0199,823.21454,2000.98901367188
317,320631.34,326178.16,335217.34,-730.5173,-2423.8386,426.4021,13504.966796875
318,7436.8423,537.623,22490.357,-1182.7988,-10732.49,-14365.949,36700.98828125
319,-24532.57,-22087.947,-36806.28,-1063.8643,-434.26462,-3117.3867,14823.6376953125
320,60.255123,-1411.5377,4624.188,3165.8186,-1934.6742,-174.29037,8432.0859375
321,7607.5264,16732.03,5080.6675,13389.794,-13992.767,-3081.032,35586.9140625
322,8699.45,3229.5464,-22768.717,9159.458,5097.62,3241.7725,34773.68359375
323,24074.072,13301.055,27181.918,3853.678,-7693.5166,2120.8652,19869.947265625
324,-59738.12,-84863.24,-79824.98,2552.816,4692.2983,7343.1255,27882.5546875
325,-11965.882,7915.5093,18989.82,-1602.8289,-2316.8132,6934.461,30102.375
326,10070.495,10016.234,9876.38,-43.82664,1111.6113,-294.9855,2000.98559570313
327,-41264.22,-44681.895,-41876.758,396.94742,-9977.482,1491.3481,17769.57421875
328,-7528.269,-7245.5366,-14438.278,-2903.6143,-9447.195,-12894.37,29010.646484375
329,54747.355,45290.875,52146.64,-3621.1707,-11152.364,-5769.3584,24164.3515625
330,14734.23,8317.514,5847.883,5789.061,-6031.9946,5849.3657,19376.79296875
331,-49465.004,-54137.977,-61030.72,387.90582,-8097.014,-8066.058,22223.330078125
332,-26365.268,-20550.537,-21987.625,-178.64276,1630.7394,249.67142,5981.6982421875
333,16504.309,17059.49,15495.462,-434.61847,-122.720665,708.51654,2000.98449707031
334,95641.09,95502.195,96170.35,20.53212,-774.1559,-781.4099,2000.98486328125
335,2204.5947,1693.9447,1362.1454,278.6744,657.5057,802.5367,2000.60046386719
336,252767.8,253614.08,253619.55,269.92038,764.4035,-661.1883,2000.96704101563
337,72284.01,71841.43,72834.65,-88.78707,1036.0415,76.082596,2000.98547363281
338,361525.2,362459.6,364117.2,-4873.6543,9826.248,8249.919,23880.453125
339,-11102.636,-25305.148,-28752.803,6804.3296,2443.2515,1952.4661,20755.830078125
340,-38645.535,-24709.027,-45245.74,-3637.74,2038.7395,-6891.039,22899.798828125
341,-5072300.0,-5072298.5,-5071038.5,438.3061,-594.9802,508.3567,2000.7783203125
342,-3011941.5,-3011885.0,-3009991.5,-16.725353,74.24655,-311.51886,2001.00622558594
343,18758.342,18528.916,18764.1,616.068,-114.07452,-958.9513,1997.60144042969
344,-28245.523,-14598.333,-36609.9,4457.0034,437.9755,4069.3264,21913.62890625
345,8904.492,950.39154,27362.127,-9665.043,-6956.622,-3156.8062,31718.845703125
346,14702.19,15805.663,14693.238,191.49731,1780.7455,1750.016,4476.43359375
347,87086.64,82576.945,78091.97,816.63477,-7514.59,-3841.4983,16624.001953125
348,106847.414,104844.19,125953.99,3823.076,1925.82,-13714.7,32040.6328125
349,-27433.43,-24553.52,-10770.899,-4934.595,-2296.674,3193.168,18905.31640625
350,23712.654,27143.885,57982.914,-1107.1312,3485.0786,-12598.926,39811.41015625
351,58860.31,85359.64,65630.67,-5150.122,-6699.068,-4289.339,28948.9453125
352,7537.7476,7341.7876,-718.17126,81.54521,-1357.0082,-822.54376,8611.322265625
353,68605.09,68558.87,70572.13,7.9682574,-117.141914,-9.482617,2000.98364257813
354,652434.75,652272.2,654226.6,-29.22749,-9.65727,396.89874,2000.99035644531
355,398328.78,400139.4,406472.53,-1631.6793,-3901.646,-1606.0646,10781.82421875
356,-588511.06,-572487.1,-593984.9,-918.1561,461.33633,3375.2026,20292.478515625
357,142617.75,155663.02,143024.39,-10622.346,6947.9717,6580.613,27897.64453125
358,172946.58,178175.06,167118.61,-4247.2188,4775.071,14948.744,29743.72265625
359,-131612.38,-154708.45,-165543.78,-3237.1946,-19.57491,-7909.3115,33469.359375
360,-2659.5278,-16774.633,4815.673,-5932.323,2423.0999,-2974.2751,22591.1171875
361,-10919.236,-14684.833,-22607.846,-2837.2122,1165.8654,-2003.7466,12126.861328125
362,-107472.89,-108539.36,-130573.57,-3297.3494,-2839.3877,6191.522,26114.19921875
363,-13202.072,-20804.232,-7533.6074,-1347.4703,574.0055,899.00397,11911.2138671875
364,6843.7466,629.5966,-6542.828,-5692.633,3136.566,5907.636,19132.765625
365,1183.5276,-6115.6904,7341.2847,721.61346,5928.841,-399.97565,15608.9384765625
366,36070.79,15063.12,827.3893,-3125.5146,-1007.0698,4888.164,32358.451171875
367,-55294.17,-57245.938,-95445.16,4711.9595,-971.67993,854.9142,40114.56640625
368,-53966.36,-35609.086,-59024.855,2219.0923,3337.126,8481.337,26822.0
369,-104983.5,-128597.086,-129413.16,2249.4893,-9602.139,-13331.199,37449.75390625
370,-51081.926,-60651.773,-87609.266,-1866.4966,-9913.403,3429.5513,37640.81640625
371,170380.64,171411.17,191219.45,-852.586,-869.1925,-17924.537,37177.375
372,6436.675,-1526.699,-5387.846,-750.6859,418.83084,-3243.6448,11952.07421875
373,-3140.1318,4567.258,-5462.949,-429.89258,2458.8645,1789.4724,10535.71484375
374,9142.975,10616.743,9019.777,1387.4017,-172.45497,1877.0352,4336.17236328125
375,6036.6084,939.0093,2218.9817,2332.1162,-44.7909,17.1495,6117.37353515625
376,-72073.79,-54624.01,-85262.74,-2887.106,-3559.1143,2478.3594,28107.3359375
377,63497.043,61630.395,83634.38,-1043.6311,13767.447,3081.5432,32356.90234375
378,-444.8623,3502.326,-12080.566,-8992.028,23.324951,3465.0173,21805.701171875
379,-3645.0967,13173.198,6921.5605,-1859.467,-4130.139,-1408.1484,16860.955078125
380,98384.3,92681.87,80725.38,5402.758,3530.82,-6961.5806,22671.931640625
381,-44109.805,-63397.62,-56468.387,-4276.728,-5531.731,-4518.312,22232.8828125
382,15553.05,-1076.0736,-535.17365,-9685.508,3238.846,-417.39413,24109.041015625
383,-2915.3748,-17287.559,-13613.625,-11941.255,2878.753,9091.704,29459.7109375
384,13446.729,2269.3562,40652.312,-331.4127,-138.14926,-673.5389,34218.59375
385,9906.191,5873.4883,22638.986,-6273.417,678.38464,-3959.984,19905.443359375
386,2981.6077,-119.6709,233.54834,-1140.3082,1992.9703,90.82719,4948.60693359375
387,-26152.77,-32711.572,-51368.812,-1154.2814,2135.2417,1392.9231,23172.7265625
388,-4866.019,-16741.588,-3273.3687,4798.506,4189.79,-5471.6514,19340.015625
389,-22074.44,-12612.158,-16811.707,4104.8213,-4079.8638,4640.5127,15248.6474609375
390,-14.766602,4107.618,18905.629,4074.4465,-1547.8922,947.82825,18885.56640625
391,23263.531,29196.473,29631.736,666.0498,6012.063,3181.4626,13345.4990234375
392,1029.3845,-2748.2898,-6622.411,-2394.1995,-252.04868,-1182.6964,8093.1005859375
393,14074.34,32157.91,57389.203,2294.9521,4593.1113,-2747.582,39008.25
394,-18417.885,-22819.635,2212.9326,14736.722,5237.277,5112.57,36715.5703125
395,47150.31,43499.293,22397.371,-899.1691,6081.296,-17630.332,39768.35546875
396,42053.637,23550.592,61859.812,-2495.0479,-788.883,3560.085,34054.1796875
397,38981.875,21555.635,54469.945,432.89218,7504.634,-1847.8662,31515.353515625
398,27730.508,27909.887,-9704.812,15.879529,-5514.4414,2375.74,38939.8359375
399,73657.805,79608.734,87724.01,-10389.7295,-2520.9055,-5331.5806,24036.3515625
400,115939.28,88368.02,95562.92,6364.9595,-9739.414,-3737.985,32582.091796875
401,34922.57,12930.151,22908.46,-6710.2812,4872.8154,-1909.435,24104.779296875
402,5502.218,-9620.322,10448.517,-6855.2803,2023.0044,-1162.7675,22028.98046875
403,28057.664,21749.664,-7580.189,8085.0625,-2065.6592,-4253.07,36718.05078125
404,-7507.5513,-39883.83,-12830.754,-10914.15,3646.762,2195.0762,36275.640625
405,-40692.094,-24158.363,-19033.281,6732.9053,10447.765,240.00642,29120.501953125
406,13150.942,25237.188,28187.127,-6015.5933,-6224.6323,-1088.7365,20464.345703125
407,-27479.547,-9163.537,5070.506,-11796.157,-1595.257,1923.9426,35142.3125
408,-33509.008,-16578.127,-27646.818,2246.4458,-1627.8835,581.62317,15680.318359375
409,8987.119,19914.775,34349.11,2278.209,-9713.043,5938.1724,29830.908203125
410,-4140.992,3998.5364,6403.3945,-3105.0715,-4219.721,2678.0945,13981.015625
411,-16954.62,-13517.316,-20238.56,-3815.0784,-4130.706,-3284.4534,12692.6279296875
412,30079.736,29950.799,64343.117,-8316.67,-6696.1733,5379.7017,40090.578125
413,-24320.418,-24700.555,-24030.73,62.067493,366.27222,-534.27,1268.42431640625
414,-56817.914,-70130.234,-72266.66,-5177.792,-2124.3535,3457.8855,18440.744140625
415,26738.645,26769.129,25873.41,17.712114,-262.07715,-1003.49255,2000.98034667969
416,46981.656,54700.2,63665.824,-8343.727,3486.7815,-17556.21,37136.87890625
417,-8897.754,-7846.9146,-21879.574,12955.532,-1068.329,-12472.989,34014.13671875
418,56876.836,60522.19,77646.61,-9245.605,4675.568,-9051.343,30606.62890625
419,-8407.922,-7713.705,-39630.1,-4911.2383,-9100.922,7631.005,38633.13671875
420,3896.3381,3817.3435,4990.351,123.97529,122.06498,-935.16626,2000.9853515625
421,-10605.603,-6542.752,-17075.312,-3161.0688,-2714.358,-1761.3627,12084.5712890625
422,23077.238,50335.668,41696.492,-1651.6581,8847.983,-2671.1145,29096.666015625
423,-74817.4,-75002.8,-74835.13,-45.226807,260.44193,-1119.9574,2000.98461914063
424,-5404.3574,-1959.1877,4268.842,5923.449,2546.1602,2682.1067,14778.55859375
425,-20296.52,3625.4456,-17075.041,-7682.566,-12799.565,5261.1846,35456.54296875
426,35729.82,48558.82,55773.465,-1474.6614,-7602.0034,4952.67,23720.73046875
427,-109147.83,-113299.055,-148214.52,-463.59735,1821.1382,3032.9878,37675.6640625
428,8452.3125,-6551.2554,9532.718,6334.4204,-1549.5076,722.7363,19277.677734375
429,-11873.8,-18495.041,-6740.535,738.7083,-4507.8745,-1227.0807,13088.04296875
430,45267.305,41738.5,11118.878,-2238.5042,-13243.493,1724.0371,40102.171875
431,19553.232,5953.546,17032.838,2603.8687,-1150.7948,-5210.1206,16210.3896484375
432,-1176.7168,5922.548,-14595.268,-3898.375,1921.9993,811.0249,19605.265625
433,-13085.375,-12096.436,-8522.4,3030.1462,-10716.185,1766.794,19967.626953125
434,-14321.079,23168.516,12855.362,7649.653,-9121.569,1904.996,39512.5625
435,12755.016,15731.0,25115.264,-1168.0431,2431.8064,-101.12702,12112.5146484375
436,-46771.527,-66146.055,-35155.164,5540.092,-1859.2289,3067.5396,29428.74609375
437,-12044.774,-2102.5208,13641.273,-404.33463,779.1295,514.50323,22502.22265625
438,30283.008,34545.78,60533.812,9939.144,-8017.12,-4861.112,36937.8359375
439,-66191.87,-88611.32,-92406.58,-34.038647,-3362.5896,3483.481,25931.677734375
440,47226.145,56960.99,42468.78,-7153.571,-4805.4434,2158.709,20012.234375
441,-54398.26,-41570.312,-54172.453,-4812.6997,2680.689,941.5254,15981.693359375
442,5703.418,11881.819,10741.757,-6462.5195,-2585.8237,1426.037,13560.283203125
443,-100611.2,-104747.125,-135123.72,-3211.054,1037.0371,-2517.7046,33446.28515625
444,-42842.91,-32402.037,-47188.13,4934.691,-1992.7788,-6690.515,19812.033203125
445,-5005.7656,-7621.956,10150.277,2528.1555,1251.4318,-2749.6426,17965.404296875
446,-3410.1812,-2362.4607,-10439.22,2968.6792,249.18114,-3591.0322,11098.71875
447,2298.8147,6192.08,9460.117,2755.4663,-629.9203,-1384.6035,8263.2001953125
448,54400.793,49764.45,52253.43,1783.1329,-4543.591,-2141.279,10068.6396484375
449,18639.617,8292.0,28430.42,10636.228,4489.2695,595.0473,26554.76171875
450,-17750.865,-16029.309,-13873.238,-3404.436,-5001.409,983.1565,11137.181640625
451,-25018.613,-20184.922,6863.172,-1769.1572,-3983.4788,690.0281,30726.673828125
452,-92714.9,-96953.8,-113848.27,1083.3364,-2345.3428,4221.1665,21177.41796875
453,-44325.414,-26277.01,-39646.15,-5429.2905,6428.583,1135.9917,21896.806640625
454,-26684.324,-19470.992,-242.57031,3108.5803,19.23068,3004.3877,24830.12890625
455,9370.411,9130.157,-18.316406,6761.2944,-2848.6008,-3413.4902,16804.609375
456,180.80713,-19209.953,9735.033,6229.8037,-1660.8345,1388.3384,27982.806640625
457,2155.882,-2447.8943,15767.674,4000.0203,-10156.35,5676.9043,26893.82421875
458,-6774.43,-10996.526,7074.6416,-10420.127,-8771.132,2054.9377,28936.115234375
459,24083.951,22986.37,20790.938,-6933.416,-3630.7014,4964.0654,16313.2724609375
460,-227252.47,-229863.39,-266349.44,1239.2024,-3030.7444,2658.3733,38557.41796875
461,-5772.796,-5657.776,-3279.317,6124.6313,-791.4271,1964.5352,11486.2724609375
462,-4970.7075,-389.15555,6083.2085,3369.2905,1055.4596,3176.3494,12657.0732421875
463,5761.9185,20554.902,15196.086,1835.7045,3333.9204,-1590.4081,14809.42578125
464,-21448.41,-28126.719,-56962.6,-7546.4463,690.98083,2536.009,35500.08203125
465,-22393.662,-15601.719,-3408.206,108.59367,-3240.0103,-3912.4187,18843.548828125
466,2587.5957,548.74036,-5354.272,9743.965,1351.8036,3282.6006,19330.828125
467,-10160.532,-11757.77,-17225.623,-246.49146,-807.9526,-4540.878,10255.798828125
468,32527.787,21150.346,27353.287,1446.5686,-511.2349,3862.6304,12213.5400390625
469,-28395.17,-48792.312,-16079.519,-3055.478,1067.568,1323.2365,29250.685546875
470,-35044.06,-50209.445,-57857.066,-12856.583,-409.84015,905.5252,30054.8359375
471,-16914.318,-23960.047,-30185.664,5043.0903,5497.867,2327.9275,17762.326171875
472,-46776.32,-53731.89,-82215.57,-3377.143,6321.175,2074.9297,34997.47265625
473,47939.938,37597.76,78015.2,3947.0552,706.7598,-1914.9894,37172.08203125
474,-94638.414,-80883.94,-93758.555,-4493.502,-302.39838,-1845.9739,15777.50390625
475,5152.0312,36508.28,21990.008,-10280.893,-2479.5479,-2880.6624,33153.96484375
476,17879.059,22716.924,19804.395,-13169.711,4981.783,-3392.4512,25438.1953125
477,3566.42,7981.178,51.859863,-1872.9515,3521.4036,-4332.0234,12303.744140625
478,97353.53,90561.914,117886.95,-5187.5635,-6261.9946,4561.0376,29461.533203125
479,10163.779,22896.047,24582.512,7273.638,4580.741,-388.8501,20212.5703125
480,-27225.13,-4641.58,-1360.2402,-12097.254,-153.52676,842.69525,32188.81640625
481,8617.596,3061.0518,7877.436,-2136.4282,2216.3403,719.5073,7569.20263671875
482,17749.61,7935.3877,23798.379,-3742.447,-623.79803,-2473.8,15931.5625
483,10826.82,24546.078,34556.23,-1918.6418,-3724.11,-2710.649,22370.66015625
484,-6945.0557,-1723.436,21002.395,5943.9976,684.2395,-843.7984,27783.595703125
485,-13591.833,-30089.234,-5215.2344,-3937.1663,4522.1255,1020.66846,24320.80859375
486,-57003.0,-56026.742,-93674.72,3086.3367,-434.09607,1392.8944,37636.8359375
487,-22909.229,-18170.537,-25909.316,2870.2083,-8310.203,2799.579,17351.595703125
488,25260.584,-3801.0254,2827.495,5543.9263,-3956.8584,1366.8611,28994.125
489,-5608.2383,-10772.615,-11864.447,3669.1382,-3693.3547,-875.6451,10821.8349609375
490,8338.451,1924.4902,22822.93,6014.5503,2518.8994,1462.662,21859.072265625
491,-15257.23,-27982.867,-11797.949,-350.48215,640.8989,-1095.3899,14937.55078125
492,-4821.769,3086.3774,-17364.264,-5306.5186,1616.3834,-3042.6567,20955.419921875
493,73097.805,92180.83,71035.805,-11617.664,1024.5242,-4902.8486,29798.251953125
494,4789.842,5221.198,11530.038,-2632.5076,3343.5466,-3358.7495,11440.3095703125
495,-9196.335,-19636.805,-690.5635,-2298.5576,-2022.5554,1877.8711,17574.3359375
496,-17932.146,-12218.243,-33540.492,8079.118,2177.4678,-3009.8767,24549.38671875
497,-3050.9907,-11239.913,-930.16394,-14243.115,1976.1808,-4496.4756,27746.953125
498,-120.93848,9118.225,8648.695,-4087.024,-545.25226,2153.6533,12089.7646484375
499,6936.9,8912.842,-6711.8374,4627.943,-43.869526,1881.3136,17089.14453125
500,9387.448,20861.432,-4981.215,-5658.4517,-2522.962,1791.5859,25055.0625
501,-1933.6719,-16205.902,-7730.302,1090.8462,-3576.5422,-3667.3738,15390.2666015625
502,-14432.223,-30831.818,-25142.744,5666.3213,4042.877,944.06647,18869.12109375
503,-11835.78,-9489.031,35.458984,-6025.5645,5.214518,-688.1337,15130.0263671875
504,58927.215,46653.77,63518.145,-4012.5984,9669.237,5683.42,25568.529296875
505,37414.543,28092.465,19724.45,1510.1978,-4501.164,5909.2295,20181.98828125
506,-1467.4044,1472.2993,-7739.367,8241.691,-1030.3212,-683.2218,16576.447265625
507,-24692.756,-16591.045,-24115.52,-2265.473,2251.5818,968.98596,9732.2705078125
508,38060.105,28342.984,60591.363,-7155.8164,9200.529,4415.2256,35875.73046875
509,25878.584,19332.58,22379.656,3408.6206,1335.3638,863.782,8639.021484375
510,-5446.6846,-6169.8433,-10528.634,-1158.1382,-902.6238,3356.6216,7933.65478515625
511,-6536.334,-11627.137,-17157.201,5306.7427,-5711.619,-1281.0835,16490.185546875
512,-9124.608,-26560.95,-30653.434,-366.13116,-2229.9128,4039.4949,21363.62890625
513,-15349.53,-7389.7505,-862.21387,-3516.6267,-1753.458,3310.6592,15399.01953125
514,4380.9736,-609.6336,-7681.6465,-11553.166,4054.9253,68.925316,23663.931640625
515,-4358.7344,-2489.7317,-3199.0623,-7414.7593,3834.5251,2938.7422,15415.1201171875
516,82012.43,67413.79,61004.9,-60.232872,538.8617,-8567.165,23850.078125
517,-18204.098,-2348.9087,-1168.2217,-13744.768,275.88132,-2323.3909,29234.90625
518,-20698.416,-3761.6936,1449.6948,-1668.3772,-4313.1475,-1618.0771,21778.19140625
519,-24290.105,-21659.99,-27063.92,903.8716,-366.6627,-3229.2021,7486.2890625
520,-25431.871,-19653.064,-36036.84,11392.915,5526.598,-5224.605,27749.935546875
521,-818.99036,9679.748,-2777.6113,1324.8853,7716.768,2297.8225,18285.90234375
522,-5283.013,-5201.14,-4415.98,3367.3074,-247.05324,-1202.8717,6263.189453125
523,-15808.514,-14466.375,-17367.3,3119.5627,-120.38022,123.10276,5967.177734375
524,-2368.0889,-11084.75,-14937.553,-2668.34,801.9041,-343.97272,12167.6650390625
525,47938.234,20505.33,33047.047,4962.42,-7845.2085,67.75626,28711.24609375
526,-52850.453,-64142.133,-37487.484,6537.607,400.60715,-568.5164,25819.92578125
527,-3607.1821,-3191.449,3153.9224,2629.152,-3872.495,-1286.251,10666.0146484375
528,14087.655,-7508.3984,-2423.2842,8667.975,1427.5137,-1062.4642,24846.142578125
529,-3439.7507,2732.5059,-1701.7661,8870.142,-1905.6809,-5538.642,19218.552734375
530,-27847.24,-47734.92,-42035.68,3003.1533,-454.45914,-2475.5388,18992.572265625
531,16586.04,29555.514,30346.82,1436.326,-194.6866,7980.8267,19403.08984375
532,33833.61,29871.52,63864.875,-2622.5674,-3254.0806,923.8737,33038.203125
533,-18506.08,-17672.635,-20273.463,-7339.77,-4628.446,1203.9467,15346.7900390625
534,15082.347,8971.767,13917.065,-6820.876,-930.88324,3303.7432,14369.876953125
535,-8673.852,-25171.775,-16595.898,7747.182,1600.1842,18.989359,19798.544921875
536,1692.0638,777.47455,-3234.8164,3822.026,3096.0994,1769.3441,10128.05078125
537,-16338.358,-3025.36,3589.1924,1509.5469,36.677883,1641.895,17999.318359375
538,-10515.833,286.48193,-12181.894,-6742.141,840.1165,-2307.683,17085.84375
539,14027.755,18206.295,17813.293,16023.712,672.19336,-1004.9885,28118.25
540,2306.9028,-1655.6881,-4952.4272,6208.773,2732.4514,-1304.5575,13519.8125
541,-1160.2792,-10517.691,7129.7188,322.08347,3682.685,-739.9544,16628.244140625
542,16642.562,-2485.9268,24916.484,-4978.385,-7129.67,1548.9012,28751.892578125
543,20116.107,20943.008,26547.723,-3504.2031,10124.71,3008.893,20205.419921875
544,15141.631,700.37646,10044.897,6775.849,-3746.0752,-579.73804,18486.947265625
545,-1306.9263,8008.7363,11989.758,4563.4106,-2192.237,684.8784,14765.3310546875
546,1873.1948,-15406.1455,1845.5957,48.070786,-1309.7234,-316.07425,17422.75
547,6368.3286,-15580.092,4958.665,-4119.947,-2427.3445,1887.3253,23066.51953125
548,-486.06738,-9460.595,-3227.9033,8769.899,4610.4067,-2543.1135,19425.662109375
549,-75277.04,-79660.46,-61487.645,-7547.491,4684.248,-4012.0046,23554.521484375
550,-3285.7166,1971.2979,-3768.7458,-3372.8542,3916.1897,-1874.3207,11003.9130859375
551,1458.8931,-4950.7324,1440.471,-9384.547,-4642.7495,1071.7421,19320.611328125
552,-11069.771,-7792.4917,-10399.638,7524.6606,-2921.2039,1438.2179,14514.154296875
553,-3071.0127,-7895.043,-15628.738,-1446.3322,3701.9739,851.79956,13036.6806640625
554,-3758.0215,-6727.212,2157.894,-1859.2017,2835.0908,1094.092,9972.6552734375
555,11202.775,7833.329,4096.219,-6070.9775,3953.0862,1109.3984,14108.6650390625
556,10710.072,8989.124,15552.126,-6045.1733,-1868.4741,-1457.1267,12697.0732421875
557,13490.222,11686.802,9182.619,2649.5955,-2362.0754,2792.3684,8673.556640625
558,8499.959,-1126.8417,-13170.569,-5061.227,-437.59576,857.2715,20815.775390625
559,791.8594,13729.014,5560.159,-3058.7097,1796.6588,-8128.198,19088.5390625
560,-8257.595,-19490.988,10261.679,-9967.484,-1862.3069,893.46436,31433.08203125
561,4783.4795,2914.0996,23119.258,-8414.156,705.65375,5670.681,26159.6953125
562,-14468.774,-4701.992,-8695.08,-3932.4905,7131.3003,-1548.8589,16688.07421875
563,14439.43,36716.1,17003.13,-4149.33,-2725.1365,-1782.6611,23003.814453125
564,2734.725,-2015.0173,-8512.833,3637.5923,-2921.7502,-1642.9937,13001.884765625
565,4511.259,1057.2944,-3987.6785,-2371.2397,4493.691,2033.3289,12027.392578125
566,-11267.885,-22369.361,-11125.611,-1916.5676,-356.71924,1433.2399,11933.4169921875
567,7455.6353,3496.5046,-1767.0122,151.2114,-1319.1947,-3963.3455,10799.6298828125
568,13291.248,4829.2163,15251.345,250.2333,-3484.6548,-3212.02,12633.3642578125
569,-33926.277,-24581.857,-14487.874,-11386.556,-4232.7856,1988.1017,27167.943359375
570,606.73486,5035.551,6908.1406,-16790.658,-2160.847,-1048.1558,29908.13671875
571,-5110.0864,2907.5479,-7621.8623,-6453.5566,164.65462,2388.395,15260.072265625
572,-25893.205,-9030.433,3063.8003,-11889.196,-3375.9717,2385.8613,33315.0625
573,57585.445,53992.797,71426.2,-6949.4443,6394.268,-2754.5762,23334.654296875
574,70294.23,77827.74,112713.68,-624.24475,-4150.599,2378.914,40080.23828125
575,-50086.324,-35095.254,-65126.055,12915.729,-2808.1113,1269.309,34717.796875
576,93078.37,90558.49,129018.51,555.4776,-5315.3647,-971.68604,38433.390625
577,-16766.14,-5237.708,-23319.645,-8227.948,2501.7322,1631.9438,21937.8203125
578,-10766.425,10008.666,15069.305,148.39769,1204.115,3008.6292,24370.4921875
579,4848.3125,-19255.69,-7500.223,-20.71167,-4580.6465,3109.4753,22973.787109375
