Element Label,S11,S22,S33,S12,S13,S23,Mises
1,-14818.556,-1438.9122,9170.311,-3961.8887,-625.8286,5172.0225,23707.21875
2,5030.4746,13584.071,7964.7583,4167.396,4120.854,-4019.7405,14429.0048828125
3,18969.07,-4881.088,7122.2593,5087.0205,1.5429767,8247.083,26614.001953125
4,20383.06,-831.7378,-11419.865,-11191.333,2268.988,-5218.05,35491.80078125
5,11957.843,768.8042,10711.66,-4274.875,-689.4472,-2943.0864,13965.6337890625
6,-19837.832,-2252.2988,-27029.393,8939.56,-5324.7407,1543.7261,28625.0234375
7,-17781.77,-15094.895,-15569.853,1833.3185,-2541.079,4342.522,9601.8564453125
8,14717.1875,15751.348,-1390.8369,2284.607,-2980.6443,805.17914,17929.087890625
9,-4598.293,-9340.565,6681.3545,279.85223,4759.55,3056.3694,17304.041015625
10,2439.7346,-11744.594,-12621.866,3336.3188,6009.7344,-3508.671,19826.35546875
11,12497.226,24154.549,39362.918,-2373.3271,461.50464,2933.9294,24245.359375
12,-4178.958,1169.1881,1367.4436,1320.107,-2452.4834,-1109.7073,7527.861328125
13,-12375.36,-2548.0386,-12999.484,7042.7124,1400.8575,-1527.0173,16272.09765625
14,15208.772,22566.805,41751.81,13629.162,-2191.0542,1073.56,33741.53125
15,12579.21,10038.484,-22939.375,-4822.6855,-5649.4585,39.581715,36651.20703125
16,8833.003,31940.322,-7181.619,-6914.5605,-6187.2036,1514.3384,37757.5
17,225084.8,222756.56,211308.36,-8628.53,8678.489,-3164.496,25347.21484375
18,-4781.894,-16302.519,-40112.504,1956.3984,-11790.754,3645.8118,37978.546875
19,-28889.508,-19926.756,-6217.9795,7635.076,-8748.738,7013.935,30711.888671875
20,26519.6,-9200.062,22673.432,3183.147,-2945.8545,2706.0752,35095.6328125
21,3340.0225,-9840.439,-2.8322752,1082.385,-15340.402,10608.875,34467.1171875
22,10939.957,16454.477,594.61127,4068.2341,13195.427,150.8628,27686.880859375
23,-8685.632,-23395.906,-20172.896,313.639,4782.7007,-5945.776,18824.00390625
24,17236.086,18836.246,6108.706,486.02817,6212.0073,5586.2725,18822.3203125
25,3095.9592,17464.516,-10442.083,183.86726,-3811.9753,-5134.6284,26590.3046875
26,8363.207,-3866.6372,-8676.023,334.84018,109.723755,1754.1732,15528.076171875
27,27501.064,4244.3257,13249.166,13588.583,-11144.676,-3551.856,37107.23828125
28,7795.834,1739.6664,16594.068,10033.888,-15429.161,-5441.8203,35671.046875
29,489.1007,-377.26395,3398.778,9990.6,-13437.663,-5675.1353,30814.08203125
30,19416.85,3239.5703,-3386.4082,1999.9005,-11245.887,258.62384,28362.080078125
31,7456.1816,-9693.851,6569.7505,-9287.999,-18451.57,726.1253,39515.453125
32,15482.533,5668.866,19188.918,-1633.429,-14306.617,-14768.786,37720.1796875
33,5817.929,1734.856,14811.11,7012.127,-18501.262,-1210.5724,36236.234375
34,20472.674,9694.711,3467.1653,-3221.5693,-13251.372,12041.348,34856.58203125
35,11200.176,12055.52,20314.648,-10502.184,-9032.641,-1141.389,25604.119140625
36,14845.821,3332.7158,-9962.188,-5910.836,-8962.26,-2308.7666,28707.892578125
37,-7092.654,4701.6294,-10302.395,-8493.115,-1873.2405,10840.309,27689.837890625
38,9227.696,24939.281,15283.237,-13011.404,2800.861,5831.469,28667.46875
39,-6080.42,2028.5582,11754.604,-14755.375,-792.3833,10635.071,35122.3671875
40,-12720.916,15143.57,-13979.684,-4042.46,10335.891,659.16376,34407.9765625
41,-10343.695,13603.485,-2038.0911,-9517.432,4889.5435,11565.552,34471.84765625
42,-18856.807,-4942.813,-36772.957,8920.336,6592.8687,8568.608,36786.55859375
43,-42216.348,-50426.324,-45256.484,3916.291,-2352.4954,6128.8022,15066.1220703125
44,-13399.048,7626.1147,14287.676,-1901.6,626.11505,1741.0043,25448.21875
45,-4265.906,-1878.5731,-41.18288,563.2482,1395.8367,3576.0103,7656.51318359375
46,-5051.5796,12583.636,9176.077,-1999.5945,-11196.05,-2518.9058,25876.69921875
47,24228.209,12471.315,-3297.9377,9395.684,-3569.5103,-817.1927,29620.1875
48,20204.246,8789.023,9949.7705,14078.042,-10785.051,-6703.08,34593.69921875
49,14038.868,-808.04395,-1032.4895,3212.779,8483.86,-4800.2153,23234.3125
50,18414.416,33646.14,4926.659,-483.9586,-1932.1498,-11999.815,32607.60546875
51,21290.602,15259.362,16850.502,-10985.655,-158.84349,4917.256,21540.16796875
52,21188.482,349.1534,4378.361,4048.0552,-12359.624,7846.9346,32537.83203125
53,3362.0234,-3443.0151,-12542.948,8400.838,-4119.0957,-6406.325,24016.427734375
54,19721.93,17631.785,7856.012,-10472.166,2786.129,-553.8309,21761.748046875
55,3465.1484,6220.2754,4352.1846,-5272.9434,1766.1818,3881.8079,11996.205078125
56,824.4836,17643.93,3831.9343,-3106.3257,-3088.178,15593.309,32068.162109375
57,-40039884.0,-40039524.0,-40040664.0,-257.1369,-579.65344,770.99585,2002.11303710938
58,264176.47,262538.7,262404.47,-151.23714,-542.9235,208.85141,2000.98364257813
59,-364561.72,-371480.06,-342890.47,-4613.137,-2179.8162,-1673.3385,27457.853515625
60,293460.6,276938.28,276308.4,-8654.658,4839.4795,-971.3233,24116.21875
61,246063.08,258671.64,270551.56,14562.188,1712.6469,7284.926,35412.9765625
62,-227575.9,-207589.11,-237219.14,15303.33,4193.9473,72.55327,37954.71484375
63,417462.84,394948.22,402292.9,-10474.712,-13784.9375,-5285.7524,37128.69140625
64,-8455.089,-9225.642,-6829.14,4313.3535,-18279.979,-7447.2686,35059.4296875
65,-95659.95,-132019.44,-130330.99,3285.0432,-3709.2627,4774.7646,37490.234375
66,-43955.793,-37183.34,-14806.552,-5033.646,-15672.619,-2772.948,39167.6640625
67,-72390.86,-80898.555,-72990.08,-18264.81,5431.033,-10087.168,38238.6328125
68,95403.875,120897.055,87967.46,11134.478,-2416.457,732.4859,35858.57421875
69,340.85168,13336.158,-5899.23,-5217.758,-9316.819,16063.753,37485.0
70,-6277.064,2879.6814,25287.303,-12855.266,-4056.9377,-8678.57,39525.06640625
71,-28574.035,-8905.714,11582.244,6331.8174,-2527.1687,4460.843,37532.59765625
72,116332.66,116555.34,108727.85,4944.562,11396.99,18200.953,38941.24609375
73,-5178.8433,-5127.068,-14598.589,228.94081,11656.087,-5021.1733,23929.248046875
74,-25431.6,-14806.946,-46838.93,-4539.9087,11292.861,-2546.6958,35531.3671875
75,14892.559,8626.921,-19390.938,-197.12054,-9740.234,1164.1835,35897.1796875
76,7928.933,9758.817,-7495.0977,6610.7817,13914.307,-466.0788,31337.775390625
77,31009.8,27027.117,29014.262,-571.5566,956.1935,-2447.4258,5795.59912109375
78,-7720.751,-2609.5757,-9912.5205,6085.846,-1948.3212,-7259.5396,17964.791015625
79,-22915.506,-893.195,-21589.885,3370.6008,9415.104,-901.9058,27568.130859375
80,-8792.109,-7394.8867,7070.2783,10039.109,5458.047,-3558.9863,25712.359375
81,351.55606,4589.616,20088.234,5088.3257,5490.6533,5496.525,24137.166015625
82,-161.70586,-8923.795,1123.9932,14354.336,8355.896,1815.0585,30449.626953125
83,10105.441,19211.998,20429.557,7269.746,11388.001,-16243.764,37877.25390625
84,-36492.25,-33253.81,-48767.18,5877.619,6236.3027,18824.541,38526.83203125
85,2247.807,22434.1,-3982.4053,7212.2827,-10413.985,6153.8896,34162.5859375
86,28655.822,56884.34,64601.258,11400.1045,-2504.7856,-3459.7517,38972.50390625
87,-37517.312,-25899.57,-44106.816,5386.6377,5773.7466,10209.876,27472.33984375
88,-24105.262,-20202.457,-59978.32,-3710.2441,-4225.939,-1533.6018,39294.3125
89,-338997.62,-319677.03,-360043.53,-5711.2036,753.5696,6685.841,38164.03515625
90,-186552.72,-177741.05,-206029.98,-3621.052,8232.619,11314.936,35431.3984375
91,65185.254,64995.605,65889.25,-849.7501,386.25662,425.66235,1955.11181640625
92,50574.66,50208.547,50578.176,-1010.2416,203.51492,-26.340494,1823.03015136719
93,24152.086,20703.316,10188.653,-9955.47,5383.4907,64.36288,23302.515625
94,17959.688,13842.151,2477.7715,-8664.599,-10358.266,6788.996,29635.69921875
95,11198.444,13532.375,10301.44,-13150.776,3143.52,4062.093,24623.5859375
96,-10422.313,-7107.1587,-8115.8643,-14623.926,-4373.8535,11250.924,32975.4921875
97,-9961.892,13315.375,-28304.105,7942.002,-4969.0933,1050.0365,39646.36328125
98,-16979.371,-15319.882,-45364.953,-7395.482,4594.7554,-12022.48,38944.0078125
99,-9512.523,-30434.066,-36102.0,793.61096,-9765.879,1117.8208,29667.71875
100,-5472.5654,6472.13,3200.836,-505.05307,-6398.7124,13862.635,28537.978515625
101,11670.735,-10167.909,-226.21036,3651.1665,8542.027,-3084.6726,25418.259765625
102,23837.547,11437.134,25104.441,811.0497,-19621.707,-8898.396,39568.1328125
103,26320.82,14344.777,18272.424,5397.806,-15534.61,2482.6145,30686.8984375
104,34483.164,24650.217,30439.373,1724.2803,-20978.307,-351.1643,37454.4296875
105,18443.438,-559.44336,8824.663,2537.7664,-16557.086,-48.735546,33355.43359375
106,11342.471,4229.432,-3504.1316,-15284.734,-438.9587,-449.80066,29452.7890625
107,9873.618,15861.203,-12406.209,-8971.321,6718.6973,2905.0637,32677.8046875
108,-16308.02,6198.3774,-1296.5557,-9134.285,10568.831,1838.2673,31457.458984375
109,-246.77956,3436.1912,4007.7463,-14716.949,5661.9897,2603.3838,27969.0703125
110,-3291.4717,6910.056,-13611.448,-1159.5819,10200.119,1411.0493,25258.404296875
111,-50670.6,-63250.48,-81111.15,-191.39864,15998.577,-206.08043,38341.1328125
112,68566.32,67980.72,69029.88,666.2039,369.85992,-670.2029,1979.56298828125
113,-43840.17,-18418.385,-54743.89,-512.67786,11153.293,-7099.7705,39592.2578125
114,43739.195,16505.188,23999.55,6233.573,14958.07,4685.8296,38045.10546875
115,-9766.79,584.2445,6684.891,3418.3315,12460.159,1328.5051,26713.78515625
116,23886.986,17181.502,7071.964,2909.5667,12816.217,1301.8667,27169.89453125
117,-36983.395,-9156.872,4958.223,-2975.3838,2174.08,4369.324,38266.65625
118,10179.432,-231.64441,13230.657,835.40625,-14717.888,12646.504,35794.015625
119,-14252.588,2630.0864,6015.377,12149.616,-3356.1904,7681.623,31737.849609375
120,-27043.838,-46961.465,-58369.855,-13796.378,-603.66547,-2282.1497,36630.98828125
121,12756.481,10050.286,24583.455,308.01355,-10383.601,1259.483,22532.375
122,9938.697,11317.135,4533.565,-5672.9062,3566.665,303.18094,13173.869140625
123,59666.902,22397.06,26166.719,4740.424,-4197.128,4090.871,37857.95703125
124,-45768.504,-32994.746,-43193.004,1525.2776,-4413.908,3038.0793,15166.41796875
125,-38067.805,-22448.057,-32598.33,-3435.4631,-6092.0806,7111.9634,22066.88671875
126,-351.90717,-26084.6,9848.126,-2608.1985,-10904.702,-782.7472,37518.93359375
127,13279.531,2764.6582,-4786.227,-7145.52,-11175.493,-3986.945,28679.48046875
128,-1719.9938,11814.359,-3403.1265,152.7196,-2230.4973,-1793.347,15278.5908203125
129,-7491.097,-1725.0415,-3939.8967,-6840.62,4632.2207,259.4655,15176.91015625
130,-25168.402,9027.868,-13044.31,974.6634,10782.453,309.3333,35407.6328125
131,-10338.795,18736.217,11706.557,8043.5825,9990.281,-3339.7388,34890.70703125
132,52588.58,68342.87,43314.984,-2135.0635,4333.6094,-17472.188,38290.26171875
133,-19280.443,-4312.312,-29150.281,-3061.816,-970.14246,16972.268,36936.60546875
134,-61305.05,-45301.125,-68866.75,-8490.074,8379.337,13551.243,37578.109375
135,4168.9775,-15143.502,11842.676,3497.4392,-5055.1826,10482.223,31985.11328125
136,-18102.246,8443.11,3127.7812,-13592.553,5104.667,-1492.2847,35084.71875
137,10173.645,20642.852,12333.636,-7384.511,-2398.9526,-6796.7036,20275.6015625
138,-21578.682,-19943.922,-26009.266,-1037.2532,-86.73252,-556.50586,5807.3056640625
139,59352.56,76598.83,103098.6,1515.038,-2800.1038,1207.5488,38619.63671875
140,-149624.25,-145524.64,-125147.32,-4077.182,15035.243,7848.7954,37794.67578125
141,12341.99,-9954.655,-11180.163,-3499.4146,16856.115,-4317.1074,38353.65234375
142,133820.14,141323.69,133554.16,17238.805,-5043.6396,11918.81,38110.20703125
143,-195398.3,-208121.47,-202061.28,16609.557,10790.523,3108.1038,36433.76953125
144,252655.3,215452.47,222142.34,2716.6548,-4832.4194,-4603.209,36547.07421875
145,249405.77,223147.66,236952.22,2312.773,8431.9375,-14874.324,37558.6015625
146,-418865.06,-408907.8,-412887.44,1280.1377,17689.215,296.33142,31925.89453125
147,367223.38,377128.84,390445.84,16246.996,-8179.7236,2617.2783,37690.05859375
148,411989.1,392615.25,426497.7,-5694.772,2204.3274,-1480.9089,31390.763671875
149,-187609.48,-172938.28,-152862.2,-496.72214,6807.7427,9292.604,36216.9453125
150,-14757.525,-2563.774,-26083.127,2943.8745,9196.054,3576.7861,27076.55859375
151,14842.75,10514.704,13329.824,2111.049,-17576.146,-7209.635,33324.79296875
152,12914.75,-19937.074,-2420.3286,-806.218,3516.1995,1041.6399,29204.751953125
153,3831.8071,2009.1517,2196.9841,7003.5034,9124.834,1963.0908,20285.736328125
154,-13537.626,-29563.97,-14479.352,-6608.585,5263.9976,7274.3105,24809.9609375
155,3049.2544,8138.271,-8885.393,6569.5063,-1989.585,-1411.7505,19401.009765625
156,5344.017,2082.0618,6392.129,-8181.654,5946.492,-3870.4258,19157.21875
157,26888.852,25791.725,31495.617,-12825.453,-7034.907,2133.5208,26135.845703125
158,-2326.8735,-6667.2095,-14378.92,-9872.463,-15839.108,10731.974,38759.96484375
159,-22818.383,-9463.236,-10105.869,-11273.159,2756.8833,11200.997,30832.3046875
160,5864.355,30142.566,19869.18,-2790.1409,8441.744,14517.144,36262.11328125
161,-6775.922,-27173.354,-19620.152,1616.8804,8838.347,16270.011,36815.375
162,20848.057,37086.523,25401.473,7958.939,-1745.1727,-3153.911,20964.09765625
163,6854.0986,36657.105,23102.697,10722.964,2064.3042,3058.0828,32461.740234375
164,-18248.615,-7667.1567,17388.387,1935.346,5200.5024,11311.611,38485.08203125
165,-14084.237,-23878.21,3110.9587,12016.786,1388.3546,11178.219,37065.5625
166,36608.89,33018.93,15231.466,-3339.7314,3261.6194,-5886.1143,23716.08984375
167,24409.637,-9889.549,5693.675,-7361.484,5353.0654,-10667.808,38402.15625
168,32047.482,14347.392,12403.779,-2999.998,-1247.0259,-5664.935,21895.494140625
169,28862.15,1713.2319,23230.174,9278.372,7084.1924,-8874.757,35510.375
170,-20937.85,-5816.679,3233.243,5262.835,3090.7935,304.1568,23652.169921875
171,-1861.2491,-21087.861,15630.93,2955.3582,1767.1819,3502.0427,32928.98828125
172,11513.751,-24123.416,1062.6627,11347.067,391.78607,125.29435,37330.43359375
173,25395.088,10915.753,11495.76,6237.7773,-8162.945,-12796.628,31772.33203125
174,-39944.434,-22856.78,-27585.102,15419.659,1694.2388,-1412.0826,31007.095703125
175,11964.652,7836.9,-17530.383,13254.668,-4081.9753,5831.9365,38004.3125
176,4742.623,31490.05,46600.29,-186.14336,-6063.2207,-1866.9106,38324.3046875
177,22110.832,1269.0148,42903.91,4856.3203,-3825.707,-3623.4365,38133.2734375
178,18369.148,29236.818,5231.9766,5862.0474,-13978.447,-3323.053,33998.1171875
179,-25359.803,-2837.2148,-42335.297,3124.4395,4547.4307,-8969.795,38864.66015625
180,-10154.812,20245.352,7027.4946,-527.7749,11722.329,-11535.383,38850.05078125
181,33117.066,32453.197,38369.414,-1570.9716,-1311.1746,-2293.8562,7737.01953125
182,-32454.742,-4662.533,-20291.191,-8893.769,-1990.7734,3445.9026,29446.841796875
183,19884.824,3733.709,17852.842,-6658.159,4876.113,-5408.819,22896.666015625
184,-16966.186,-13995.091,13998.024,5925.4604,-2952.758,-9678.403,35890.3359375
185,20941.658,40954.05,9031.096,9326.729,5471.74,-415.89996,33645.484375
186,5516.912,6857.176,6290.898,608.3865,443.24594,-519.23267,1966.37390136719
187,208465.2,206657.6,206540.72,-356.64355,201.6221,-51.706554,2000.9833984375
188,12271.255,-2433.955,27896.314,7495.177,-5971.6396,14170.248,39598.7109375
189,-10455.792,5217.1016,8195.222,-915.71185,-4992.2407,5089.4897,21358.283203125
190,10420.297,1959.1726,-15040.034,7079.971,2150.5325,-2291.785,26161.138671875
191,14996.119,7421.0625,858.9053,5391.5566,-13242.931,-6546.9263,29867.560546875
192,8680.103,-403.7111,-2768.239,8161.023,-4170.302,-7400.2427,22931.583984375
193,24313.137,-12434.625,-10905.29,2971.0137,-2508.8672,-91.40846,36632.3125
194,15945.256,-1236.6621,6203.278,-899.7393,1675.7567,-10793.07,24146.69140625
195,14309.184,4686.47,-16671.234,-3023.4573,504.183,6548.834,30184.689453125
196,15300.536,11879.391,-2359.6125,-7445.3745,5852.552,11452.878,30425.81640625
197,7746.6147,-3886.978,3723.6528,-49.27126,-3652.0334,691.20245,12090.318359375
198,14594.993,8663.097,-964.8989,2580.5808,-2814.42,-2200.2139,15596.8544921875
199,-2869.3262,6718.7544,-976.695,-1951.3071,-4689.371,-3065.6252,13526.0576171875
200,17811.879,-6537.4497,-10353.251,-8498.637,-2230.487,-1420.5782,30627.146484375
201,8011.063,5563.075,-3318.7373,-12612.353,-5372.7524,4372.62,26977.673828125
202,5684.1504,1362.7964,-11376.246,-11668.328,-1747.2802,5200.6123,27106.36328125
203,-4145.5615,7905.6826,6011.8765,-11611.539,-2041.8113,1782.1357,23505.6328125
204,-10745.358,-2634.52,-10612.161,-13748.944,-1772.8884,56.758812,25323.162109375
205,-5462.7925,-1035.5579,1771.9285,-9710.604,2215.297,232.23198,18376.171875
206,-17233.078,578.15875,214.6185,-15557.67,856.7675,1905.324,32405.453125
207,-11702.895,586.45215,-9919.566,-3125.9292,-4448.3125,3130.7546,15823.2099609375
208,-14920.347,4547.684,-4809.3843,-4778.3296,-3978.7795,4230.763,21309.216796875
209,877.08496,2409.3477,-20933.535,-763.62994,10378.97,-1599.3909,29052.763671875
210,13512.816,20667.285,10045.017,-10602.316,238.68001,-716.7658,20663.0546875
211,-6956.876,13483.438,-15001.395,4123.473,7697.032,10207.977,34471.77734375
212,10456.521,7137.992,15623.969,3559.9475,-3362.003,-9454.676,19873.7265625
213,-29435.996,-14323.114,-53190.88,3817.073,947.1659,11325.838,39785.97265625
214,-2780.0002,2880.2534,24050.887,1273.5062,-682.3128,-10895.194,31023.26953125
215,-17826.209,-11535.779,-31880.326,9075.907,4164.266,1304.9918,25094.67578125
216,4058.8809,-3765.145,-16745.498,1286.6654,-9227.871,-1048.8351,24392.439453125
217,-4551.0396,-2120.08,20469.215,12458.041,-7443.2373,8605.385,37750.11328125
218,-23798.895,-6943.2197,2475.6875,2582.734,9002.2,-3434.6187,28811.66015625
219,-9819.879,-8304.922,-24905.46,15934.709,6084.448,8886.055,36910.921875
220,19355.926,8217.075,16522.67,13190.845,4868.142,10318.71,31828.619140625
221,24566.295,-2788.2793,8547.705,-2882.7205,936.8301,2380.7036,24723.5234375
222,-19782.445,-15639.348,-20635.965,6087.7754,12563.233,12129.815,32365.33203125
223,53263.652,48341.43,88012.3,-2750.0742,440.71967,7063.388,39694.87109375
224,138322.34,124181.195,162167.48,8094.133,-4749.862,-5262.745,38119.265625
225,-63019.258,-48834.477,-68950.914,10712.373,-108.05389,9049.099,30174.330078125
226,-85686.63,-54843.26,-82330.87,13794.725,-614.0655,3243.46,38244.55859375
227,271194.8,268786.62,244036.45,-12719.381,843.4888,-8320.515,37056.01953125
228,-792241.0,-795705.5,-777223.25,4643.741,6732.122,-14919.102,34028.8203125
229,-70126.65,-43661.92,-75896.82,2099.7234,-1841.5596,-11332.016,35986.48046875
230,532294.9,550078.3,535176.25,-4501.143,841.0476,658.3986,18371.599609375
231,243850.3,244570.05,243060.22,325.5643,-18.576553,-690.5233,1860.21533203125
232,217853.03,215520.94,207736.78,24.828678,5328.5103,-1562.0271,13292.322265625
233,-134846.89,-137863.77,-142094.69,-14138.19,11619.172,7979.932,35149.46875
234,11479.186,21432.918,5917.273,-957.25287,9621.901,7560.9424,25246.16796875
235,-3094.1868,-580.30426,-8542.492,2793.4033,8716.1,-16714.078,33750.58203125
236,-233824.89,-252137.77,-262348.8,-2168.3477,12623.626,-5864.343,34956.6171875
237,131838.42,118488.45,98938.15,4555.6226,7216.931,6866.23,34371.21875
238,179838.52,215614.25,200303.97,-16.328268,-5659.35,-6148.6904,34293.96484375
239,-39529.05,-29199.602,319.04727,-1283.0347,971.2756,-3492.3474,36432.37109375
240,143455.72,135689.69,133184.4,10594.227,15706.937,-1759.5658,34236.9453125
241,161891.3,121638.484,145196.08,3010.6865,-6987.577,3911.3752,38033.640625
242,-198140.16,-165600.36,-166147.33,-5356.2036,-3568.7017,-4069.3247,34861.02734375
243,-2964.755,5032.342,21413.146,4694.7065,491.3736,-8681.457,27499.66015625
244,112019.195,101444.19,125312.62,-8864.095,-4582.0854,15667.674,38265.5859375
245,-13190.509,23994.074,13023.778,1035.3798,4540.076,10366.657,38504.16015625
246,-175642.97,-171015.4,-199409.61,14279.108,5252.0923,5188.9854,38359.58984375
247,-59030.637,-62880.21,-82673.77,1013.25586,16783.148,6140.474,38000.2578125
248,53077.91,72078.53,56166.816,11604.276,13728.249,7792.8604,38254.828125
249,-2230.5251,5764.233,-26717.424,8969.767,3800.6975,-10129.512,38102.734375
250,9443.416,-13755.425,14003.493,-4202.5405,-5147.47,482.56674,28247.849609375
251,54797.168,43108.266,61640.49,7068.5337,-4604.217,18024.703,38100.01171875
252,25112.705,31263.44,51074.39,2511.6304,-13926.097,2477.6536,34224.36328125
253,7093.3086,-4112.3374,-23441.697,8308.037,3404.74,-1223.1367,31018.123046875
254,-19702.463,-43030.074,-60605.465,840.0161,7186.96,475.82678,37693.7265625
255,43819.137,47651.926,62257.332,-3820.7896,-5242.9263,4781.4697,21882.30078125
256,34194.24,28545.81,31716.91,5471.5825,4056.2422,1898.61,13192.3076171875
257,-15587.665,-12369.372,-7821.7676,-2784.8108,6850.808,9746.178,22241.939453125
258,14390.252,7192.5137,17176.217,-5740.9424,14705.585,5775.54,30452.09765625
259,-7464.3027,-2912.0286,-19604.912,9677.111,-921.2159,10770.378,29238.21875
260,-7787.0605,3125.8037,11349.883,7363.309,-4509.9595,11693.085,30171.728515625
261,-2633.2214,-4059.723,-4876.2905,825.5804,15990.956,3324.2917,28393.591796875
262,-1075.0334,1985.6235,1318.8433,13328.484,-1559.4612,8269.633,27444.0
263,3544.1284,20445.293,15002.6,-4188.501,-5383.2026,2566.236,19560.376953125
264,4291.583,1081.3444,3043.4639,4769.5474,7230.992,-7871.9385,20466.2265625
265,-6987.4233,-6375.958,-9239.865,-5317.1455,4171.3564,1159.4171,12160.3525390625
266,11768.719,8740.154,3349.4036,-5380.4287,2737.8765,2177.8115,13346.2421875
267,10273.441,14909.393,-160.80176,-622.19006,8779.824,-10809.732,27599.029296875
268,11446.727,13108.029,-7535.909,5808.482,5859.663,2466.7441,24841.759765625
269,-169.38599,8105.9253,-8870.766,1001.0371,-1957.1367,-11396.018,24905.951171875
270,1364.4133,-18787.668,8725.147,14034.553,3797.2864,-9892.293,39196.3984375
271,35227.2,159.63086,2716.2803,1707.3641,3941.6887,4805.4263,35654.5625
272,26950.273,5740.8696,-1395.6904,-1605.4321,-68.25506,-1608.7336,25838.765625
273,17681.74,9064.93,31254.93,13481.003,7300.1055,-8106.7197,35744.6796875
274,9428.157,11717.295,21771.346,-5881.6094,9245.97,-2818.2593,22658.5703125
275,17973.965,24486.27,8173.7285,5509.2563,2714.9187,3901.3623,19002.810546875
276,10710.765,6779.235,5612.68,-8972.164,-86.61804,1894.228,16543.58203125
277,-2561.7788,-7378.1895,2621.2876,-1549.2935,-3061.2668,-5875.376,14625.3505859375
278,2322.2954,3960.2607,-13039.024,7040.0723,-5205.694,-2711.032,22712.310546875
279,47632.754,48333.055,46216.113,60.3348,-805.51526,164.31871,2351.138671875
280,-5270.777,3208.672,21898.773,8997.265,6453.125,-7814.373,33625.5390625
281,-11280.047,18087.418,11176.973,-13066.687,-9573.138,-2348.4165,38871.00390625
282,-10083.611,23643.97,7745.944,1346.0365,-2302.1672,14113.497,38379.71875
283,-71151.695,-73824.86,-109005.31,7302.6235,240.73157,6097.842,40131.8203125
284,377.7499,5704.052,-3565.8242,9652.431,-2033.502,-4395.4575,20366.6328125
285,9385.375,-12767.963,1423.0724,7120.3076,-10436.787,-8464.991,32735.626953125
286,-4225.2793,7460.826,4364.894,-6737.467,-4628.4365,11360.831,26412.564453125
287,11209.613,-6909.2617,-9166.332,-2991.7166,4930.5703,-10408.47,28267.9140625
288,-1476.4761,-9535.9,-4894.072,-9880.253,-7101.15,2516.808,22632.51171875
289,7554.343,4812.5747,4901.0757,1377.6316,-3075.652,5941.159,12134.5419921875
290,-1267.1901,-5544.6445,-766.622,-8309.953,1546.565,5321.95,17888.525390625
291,15215.07,-3523.8413,-4011.314,-6630.25,-5592.1733,-1871.6869,24427.98828125
292,-13356.027,-26010.613,-24959.73,18264.36,-4230.8467,9166.937,38137.94921875
293,3471.5332,-272.29428,-25434.21,14898.587,4881.818,-2059.7803,38619.53125
294,35916.227,18023.25,37806.293,-7127.393,-510.7922,-17363.291,37618.921875
295,207173.44,196508.31,225728.05,8351.261,-14798.463,2781.3726,39310.66015625
296,640.34784,5687.58,3465.459,3932.2756,16068.828,-10551.849,34267.05859375
297,-12481.117,11022.215,22960.91,9850.496,5385.12,-3695.7844,37344.4765625
298,13220.366,28739.523,3412.6646,11119.889,2414.7043,-11004.317,35227.484375
299,-1268.9033,-347.51904,17819.955,10300.171,6837.5776,16075.366,39767.265625
300,-217097.14,-212879.69,-199630.12,16148.744,-2101.5505,-952.8846,32365.669921875
301,8364.391,4135.6997,1470.7207,18385.186,1759.741,4436.277,33445.9296875
302,14083.557,14809.694,-2127.4521,-10901.946,-4099.089,5812.2686,27989.423828125
303,6950.6035,503.41806,17979.18,12407.4795,-10342.609,-6781.968,33985.7265625
304,17731.844,2377.7383,-5931.8037,-3449.6763,-2885.567,-7886.348,26070.029296875
305,13775.071,-1443.6815,1168.7474,8116.333,-2419.3682,-1206.2833,20450.60546875
306,10645.176,-18674.07,-8131.308,-6052.793,949.87146,8139.8677,31193.751953125
307,-48443.473,-67053.14,-47312.37,16253.228,3395.3066,-9197.557,38072.56640625
308,-33964.2,-6512.054,-8887.688,2887.7522,3175.9111,5162.19,28797.02734375
309,2121.0234,-16591.334,-11969.697,2799.958,-6556.1387,14012.461,32039.748046875
310,3445.7515,25854.89,-10670.973,6252.4595,1662.6493,6851.35,35835.61328125
311,-42221.023,-50742.45,-69847.98,3172.565,4364.4434,-2491.3386,26578.244140625
312,15799.3125,10475.598,-3477.7544,-2419.093,6968.1733,-1281.3488,21574.744140625
313,-26654.26,-20406.572,-12740.836,-11948.989,-612.5681,6432.185,26443.712890625
314,-17644.293,-5602.263,-10128.031,1869.8462,3380.969,-4267.921,14505.892578125
315,6254.169,-4635.908,-7961.1514,4684.5396,-764.3646,7783.2593,20376.1640625
316,21493.814,8447.734,-5288.5684,2889.1008,-1928.8276,-6401.494,26405.119140625
317,2477.3955,-16220.728,-16329.847,-192.48802,3635.8044,-3993.1821,20958.935546875
318,10763.008,6534.8833,-7365.9644,-10783.44,-2794.69,3469.9165,26043.900390625
319,-22074.41,5170.363,-21040.559,-5384.5854,3570.0413,-13578.352,37329.76171875
320,1982.256,14084.245,13834.012,-2954.6282,2614.9504,5294.8364,16562.056640625
321,-7146.974,7429.1475,-9523.641,-5867.3022,-7765.6816,-2731.7405,23650.259765625
322,1438.21,27171.1,11223.353,10307.425,5379.3545,4229.1914,31069.765625
323,35133.094,4861.788,4983.9175,-542.2558,4215.487,1638.941,31223.73046875
324,-3740.8218,8906.012,16331.784,7051.0464,3388.4707,4872.2324,23744.681640625
325,-2829.1184,-11830.372,-10973.851,6721.1323,4242.26,-5306.3013,18655.51171875
326,-476530.1,-492420.2,-507780.78,-2267.3508,11533.584,4526.103,34763.1171875
327,93482.08,102791.79,102461.61,-5775.541,8606.097,17632.69,36588.3359375
328,414059.4,432043.22,452323.62,-287.44638,1472.0396,6292.4556,34999.5
329,7737.093,-3361.142,-6808.4917,-1869.5691,12102.898,-5357.886,26633.84375
330,36229.234,25965.162,-6151.4663,2134.2788,161.11707,-2536.8184,38723.71484375
331,-17278.07,-24862.287,12368.996,2721.1042,10203.887,1332.1412,38745.5
332,-57448.37,-27296.318,-47452.17,1329.6455,-10167.69,-7612.666,34597.28515625
333,-30439.203,-10009.017,-19682.838,-6844.837,-11679.101,-10232.34,34310.3359375
334,-17043.514,-23969.18,-22386.752,4362.0957,-3362.1292,6994.67,16651.76171875
335,-3000.6235,8464.446,-17908.824,9071.157,11481.819,-3081.3586,34575.48828125
336,11417.243,18211.156,-363.91016,7221.596,1589.4946,-8414.696,25326.826171875
337,7717.521,-5645.0586,-1677.2983,-2348.8582,2540.3745,-5792.774,16669.21484375
338,-2468.2153,-6276.522,-2589.804,3179.2673,-773.7961,-11281.847,20688.513671875
339,92147.06,86196.89,120942.75,-10814.674,5837.3677,491.96243,38597.37890625
340,-118396.54,-105733.07,-144062.16,-7457.7646,-6938.988,3388.1453,38598.51171875
341,273004.12,272356.38,272518.88,911.8512,157.43925,603.99585,2000.98449707031
342,389531.2,395297.84,414064.5,3709.7603,-7438.987,-5524.518,28151.83984375
343,277711.3,311967.5,289986.22,-3303.235,3674.1887,-2452.7144,31542.806640625
344,-6173.4565,4638.4243,-216.71472,-5658.644,2931.6235,8961.13,21230.296875
345,-206900.55,-235187.5,-224374.47,-8308.341,7868.603,-6541.3423,33651.203125
346,10845.81,21461.676,11937.703,-6731.028,-1142.199,3801.2893,16896.1796875
347,349037.8,364458.56,354595.75,6941.183,12650.714,-14715.237,38174.0625
348,19858.648,19173.23,20924.848,905.3463,325.07413,-576.3934,2471.84838867188
349,5629.753,-2114.4172,-13870.925,1751.8325,-5692.247,5750.6343,22245.294921875
350,22633.455,7820.6367,44566.336,7884.4497,-585.96967,-7456.056,37143.78515625
351,69024.87,81565.336,105700.68,4020.0063,-1511.4812,-11640.165,38784.81640625
352,114075.76,112871.08,114830.74,466.79874,178.75732,282.85025,1979.98669433594
353,14460.498,15973.645,21019.477,-5244.67,-2944.9612,-2276.0684,12627.931640625
354,16881.898,-3029.1611,-11025.986,-7396.5527,-9820.116,-2382.192,33016.3671875
355,10448.808,12813.414,-4050.4746,2119.9573,-4941.674,1563.0038,18552.025390625
356,19543.395,-7250.9854,-3419.8376,-4093.6992,8720.057,-4602.6665,31175.47265625
357,13014.369,5759.0557,-3763.021,1186.5188,5747.718,-2838.2854,18436.2421875
358,-30653.32,-23700.941,-63374.344,2861.7896,-691.4964,1112.4563,37097.2578125
359,17126.54,24564.518,44795.117,2102.8862,-149.76851,-942.4448,25121.181640625
360,156022.16,143243.98,122804.89,2305.1396,-10944.102,5403.653,36125.77734375
361,-8497.547,-12696.481,-19081.732,-4433.552,-1859.8577,1912.0166,12865.7490234375
362,14290.587,2643.2056,5757.908,-6730.417,1808.8665,5631.8716,18706.955078125
363,24540.781,-5240.6265,2380.5312,1583.5442,5022.81,3249.932,28860.705078125
364,-5909.467,93.529785,-1482.0989,8427.608,2328.0137,-4234.473,17668.759765625
365,4049.9006,-1165.9465,1369.5248,-6580.7344,880.3909,1384.4792,12585.8193359375
366,11565.6875,-2131.9934,2561.9363,-2680.0906,-157.04704,830.68933,13002.1640625
367,10491.13,-7664.9204,6004.863,-4568.843,2293.3145,-2004.64,18941.291015625
368,3305.003,-3589.8735,-4793.949,33.856663,2234.0083,-2972.9998,9938.9677734375
369,2349.167,-6079.7085,-2676.4243,1160.1854,-1191.21,-6096.323,13180.7783203125
370,-10454.883,-3498.0225,-1622.7532,-722.77527,-2943.3938,-3535.5808,11402.607421875
371,-6984.4395,-1496.4055,-4384.663,847.3683,46.552258,-1209.9657,5400.21728515625
372,-1247.4172,-2798.9834,639.2594,4092.131,230.41289,1751.9021,8276.326171875
373,1528.1603,-625.7783,5743.0483,-2760.497,1297.0363,171.19685,7712.27685546875
374,12129.221,3667.7524,-5525.9146,2793.998,-1843.3425,1366.5282,16526.556640625
375,2258.9614,7076.83,-1235.1472,9177.138,115.37531,-3171.3474,18306.46484375
376,-12743.635,-5548.0674,-9956.421,2985.7332,879.3634,-2141.1252,9072.26953125
377,-3472.449,-132.74536,-5571.5054,-1109.5203,-383.07397,-125.79525,5172.10791015625
378,7423.8516,15247.44,49340.098,1465.4056,650.9737,5936.815,40046.16796875
379,-140711.67,-104925.58,-100997.6,-3353.2754,6550.882,-1871.1366,40120.0625
380,45800.9,48027.44,48708.305,1827.3368,10095.255,-15899.26,32879.421875
381,80425.45,80586.52,79891.28,-422.86743,-744.307,833.21747,2162.9853515625
382,437672.06,441635.53,459989.22,-1861.9324,9631.577,-15054.62,37335.48046875
383,50048.773,53348.996,11746.904,24.964321,881.52673,999.8474,40120.5859375
384,-2821.7876,-9757.123,-11188.781,2496.3628,-333.61795,1621.9209,9327.31640625
385,-199237.55,-194787.11,-161474.39,-2165.8599,-3291.0156,-6443.648,38064.76953125
386,-3659.5625,-4419.2227,-35274.086,-1917.4384,135.09416,5515.131,32838.59765625
387,-20263.863,406.19043,-8447.722,5462.2427,-103.88087,-1607.0573,20491.96484375
388,5182.636,8776.115,-8927.075,1527.0353,-1455.99,-2660.799,17242.23828125
389,-4181.7607,-2483.2505,-17683.502,-476.30643,1078.5845,30.279182,14570.1123046875
390,-652.78687,4970.0894,5220.2563,-3791.8242,1365.417,-3418.4392,10810.64453125
391,7305.8594,-631.75977,5128.0967,-4098.653,408.82443,39.644382,10068.0283203125
392,9604.854,143.28369,4470.626,-207.76547,-61.99584,1319.3477,8524.4833984375
393,9391.134,-11642.766,-1617.9149,-2443.742,3915.6702,-1129.9572,19995.107421875
394,-15881.865,-9694.571,9554.828,7729.142,-7355.1875,-6735.2144,31710.06640625
395,-26324.865,-13394.664,-51198.293,1067.6635,-2062.65,1283.2668,33594.93359375
396,52452.254,21558.592,61109.89,-1039.3892,-6061.799,-2289.6243,37762.9921875
397,84534.414,68623.01,108192.33,-6802.772,-4700.657,-7579.5776,39582.47265625
398,97377.3,124349.77,83390.266,-744.3776,7879.013,-5893.5894,39906.37109375
399,-69472.57,-66606.78,-102398.234,48.87985,-1230.1805,9605.6,38314.74609375
400,-3551.1997,-7968.0957,-19517.285,-5221.7236,3209.0393,3274.7449,18675.36328125
401,-781.3987,7481.301,-2050.7024,7293.6333,2153.0706,-259.23428,15939.611328125
402,10767.247,16571.377,17269.508,4938.055,182.82692,3512.542,12185.837890625
403,1604.5967,4919.4297,859.7279,5690.498,936.05695,73.127304,10667.802734375
404,418141.25,398507.62,382594.6,-6437.416,9144.907,-7698.211,38783.12109375
405,7202.384,-654.85266,-3162.4019,8540.06,-694.26776,1163.8829,17664.48828125
406,-6335.8486,-6829.914,-17232.768,-7396.422,-1017.2204,2023.6688,17120.580078125
407,2661.6045,-4408.16,-7203.9663,5745.9424,-602.7011,-1633.3212,13627.3369140625
408,2066.626,3264.8965,29571.855,-7046.806,1278.7351,3488.5583,30255.625
409,-1558.1437,-7416.5303,-910.98975,-905.7483,-1780.9323,402.512,7140.94677734375
410,350727.56,334806.0,328553.2,11953.191,12062.054,-4508.807,36307.7421875
411,-22875.676,-2643.332,-44231.8,-5104.766,-3638.0347,6086.582,39070.9296875
412,-115216.61,-116617.734,-154985.45,-1075.3712,1137.496,4189.2104,39847.23828125
413,20984.787,11924.074,-2732.9434,-4449.481,-4538.031,1179.6273,23560.07421875
414,3675.4216,-5149.9644,-6449.599,6184.9424,-1028.373,-3348.0046,15575.8427734375
415,1399.5762,-3444.1277,4264.35,3715.8774,2858.1538,-6040.455,14863.921875
416,-624996.3,-609287.8,-594373.75,-2858.9062,1346.8583,-11900.604,34033.79296875
417,3869.3716,3144.8652,4134.0366,-225.93468,-883.4583,485.77512,1997.31713867188
418,-93429.32,-97138.01,-130537.125,2817.6677,246.93768,-4076.942,36427.83984375
419,-33307.64,-23557.2,-47133.37,-4798.5625,-19.325003,3561.5415,22981.783203125
420,4146.163,10095.746,3071.0283,-2651.708,-237.20665,2966.1746,9518.8291015625
421,15780.724,-9253.287,29651.266,-4522.6797,-640.02435,-3374.5095,35539.890625
422,-11189.506,8323.831,25603.605,848.83875,-331.35236,-839.675,31955.486328125
423,-6963.819,-10069.842,-2683.247,5511.168,-1944.0924,-3627.9426,13535.4912109375
424,7568.6973,5482.3887,-3750.7622,6236.4453,5173.711,-6229.9976,20549.626953125
425,-9807.736,-48229.414,-22183.547,-3066.6758,6854.893,7325.9927,38523.75
426,-46147.582,-42299.973,-78815.07,762.6449,-508.35876,-101.03941,34788.09375
427,-19336.807,-20713.244,-3237.6895,5250.574,-1662.2716,968.19446,19417.58984375
428,193962.62,184639.17,220417.73,-4680.741,-2185.2988,-6169.7285,35038.60546875
429,60461.195,59606.133,96786.54,585.8895,437.6526,-1074.573,36829.2109375
430,-5820.952,-8602.168,1342.0454,-894.77014,-2459.653,1212.0612,10194.328125
431,-4114.391,-4619.6826,-15496.951,-2473.6448,2005.1678,3645.4648,13941.0751953125
432,2522.1646,-7824.7603,-4543.0,-704.5969,-1408.5884,-1902.0703,10107.8203125
433,13311.891,1871.5718,4263.6016,2500.3584,1316.2966,135.08469,11543.1865234375
434,-81201.5,-108839.45,-120133.625,580.8983,-8886.198,5955.6177,39343.0625
435,-72713.54,-31775.754,-57599.66,2937.016,5222.2485,5944.0957,38720.7109375
436,-1620.6279,-3982.732,-10223.916,-5571.7236,1310.1389,-445.17825,12575.7900390625
437,21285.605,-12691.23,-14395.013,9084.035,3184.013,4937.762,39576.94921875
438,6907.859,4495.2314,8077.1094,6319.047,2708.8142,-3982.3787,14120.587890625
439,-43111.65,-17683.268,-57488.42,1020.1565,3541.8975,-6758.2407,37371.79296875
440,21523.602,17444.223,42366.066,-208.22675,453.0331,1452.6036,23305.578125
441,7975.651,16181.011,37158.523,-871.13806,-4091.4863,-6463.299,29280.236328125
442,26106.691,25500.793,44354.92,-3041.1394,-4557.093,1852.1165,21089.322265625
443,-3033.8406,-3764.2236,-12787.774,-3772.6045,-1346.0653,804.5585,11773.8623046875
444,54863.836,48748.742,78070.04,1067.9502,276.70563,-1357.315,26963.095703125
445,-7534.3506,-3686.6306,442.6123,-896.6844,-4.8449306,342.20575,7106.84716796875
446,15496.953,14578.193,11465.477,4170.237,434.42657,1696.7051,8646.8603515625
447,5.194824,4844.979,15672.871,-3488.6562,2584.9236,1046.8976,15903.365234375
448,-5463.9766,-3873.1968,-2981.5762,-1190.2833,522.073,-2842.6064,5835.509765625
449,3464.4138,-2363.2373,9313.093,576.4894,1783.9882,-4263.268,12935.3720703125
450,-8413.762,5523.667,-38666.242,-88.45314,859.981,4029.92,39775.234375
451,1872.4883,9922.802,2281.2607,175.18304,-4811.79,-2579.718,12296.3720703125
452,-34168.785,-20384.363,-24503.764,4729.1367,1333.0901,3996.0835,16447.73046875
453,-17055.924,-14442.753,-48062.562,-5730.95,-2234.7925,-672.88165,34119.47265625
454,25562.5,-3877.086,18581.291,-4259.3105,-1427.5732,-1701.2816,27912.806640625
455,3744.72,7818.996,8328.375,207.1898,6030.8354,-3103.213,12532.5986328125
456,-707.65234,6205.4336,-940.74,4681.6274,2631.4656,1243.4491,11858.4013671875
457,143715.8,142146.48,179847.23,654.00397,-963.1154,1693.0732,37112.1328125
458,8153.8525,9078.121,7117.1914,4622.8037,1527.1179,-5054.616,12273.6201171875
459,7443.511,-1568.575,4347.5835,-2220.3447,-929.1026,1925.807,9560.720703125
460,97877.85,88102.305,130539.61,-205.67856,-722.6522,152.89821,38514.95703125
461,10250.75,2334.4844,9605.48,-230.03557,-161.59657,551.15594,7689.20751953125
462,9912.288,4738.665,9981.284,1988.3052,877.1843,-191.61572,6434.8017578125
463,-141555.52,-123836.24,-139370.98,-500.30017,3432.3594,805.6729,17834.7421875
464,3296.0244,-10867.782,-1090.5585,9701.235,-194.2151,-559.68463,21002.84765625
465,27060.992,20879.906,59637.875,3863.7122,1016.90186,-1523.2078,36819.38671875
466,-610.7383,3565.3196,5739.781,1285.3715,-1402.6895,-1253.9976,6842.88671875
467,-11262.781,-9763.155,-12028.524,5548.975,5096.7563,-834.9519,13280.78125
468,132137.95,131083.22,168504.67,1048.0568,-177.51721,1711.7742,37070.04296875
469,-6483.9556,-3029.0571,-14553.841,507.97656,841.0438,-602.84735,10436.7841796875
470,78396.516,99584.63,60012.72,6514.867,3490.6296,8610.874,39531.5546875
471,15548.224,1358.5879,42192.78,8044.4824,-1909.6119,-2271.1812,38857.56640625
472,-3439.1228,-4645.3237,-6247.899,6319.274,5002.842,-2452.8684,14794.958984375
473,-31394.492,-29962.81,-56277.785,-2399.06,591.98193,-734.1199,26015.140625
474,67432.55,65428.746,102714.336,-305.45743,-1088.2987,-517.71643,36388.9375
475,-17908.814,-21819.072,-26561.088,-6783.3823,-2277.5798,-1634.857,14762.8779296875
476,-166348.3,-162524.72,-199868.05,-929.6515,-4489.4253,-2689.414,36757.515625
477,41106.47,43061.914,67148.49,1535.6798,9.663504,-438.85,25273.306640625
478,183.51611,3237.6458,6214.455,-535.61365,-844.97296,246.67844,5519.5830078125
479,2265.7126,7959.3467,1792.1042,-1780.6356,204.91402,-2135.9011,7659.14501953125
480,7747.84,-4355.0806,130.97632,-1167.6165,870.1597,1349.106,11141.4892578125
481,-29611.027,-29694.2,-34713.74,624.9062,-828.3715,-3099.2812,7593.8740234375
482,-126074.2,-122424.016,-161701.14,354.89255,139.19122,890.44763,37622.62890625
483,-175584.67,-175057.03,-215102.95,-1529.8922,101.03063,571.65424,39885.55078125
484,-3504.8638,-6060.2896,-2823.3384,3749.2405,-4853.119,-2067.0388,11592.3642578125
485,-2121.1628,-2671.4229,296.03064,-7.706233,1042.2338,1495.6768,4176.81396484375
486,-37672.47,-42883.977,-67197.12,-591.20044,222.25383,4040.818,28198.90234375
487,-12780.838,-13940.682,-29320.918,2009.9032,90.092224,-3166.919,17261.7265625
488,29548.324,30966.34,52578.055,-56.676792,2017.9291,-3249.075,23315.615234375
489,-7293.0684,-1894.5107,-33179.152,-5015.981,868.0652,1716.5763,30423.05078125
490,-16349.943,-12904.271,-2832.149,194.15498,-1682.5173,-3402.7651,13833.5693359375
491,2125.4324,-128.38538,-247.17969,3758.379,1232.3004,-2562.9736,8485.2802734375
492,-514.07324,-9578.035,-3795.9856,-2149.278,608.8312,1409.5862,9171.1630859375
493,153907.34,150493.03,189416.31,-270.65622,-845.8844,10.775025,37365.0859375
494,65441.695,47398.715,50164.152,-3368.42,-420.21255,-3580.5361,18876.685546875
495,-22423.61,-16602.502,-25988.887,1167.9608,-175.28473,-1812.446,9021.6298828125
496,26357.79,22308.188,41007.4,-290.83472,-2023.3916,-210.83241,17407.03515625
497,27606.793,21306.879,27845.543,-3492.8552,-1322.4617,-2795.4062,10321.8095703125
498,-17722.307,-16413.96,-28365.582,-3186.5154,61.66727,3439.8987,13960.2265625
499,3184.525,-4036.2886,-500.42786,-248.99359,-284.0483,960.24335,6504.22265625
500,72213.21,73173.016,109636.35,-4407.054,-37.770145,659.8939,37750.109375
501,-11459.448,281.17847,4356.4814,-1671.1569,1281.0145,1909.1775,15051.0185546875
502,-120.55908,-1793.1282,-2496.2065,6380.5786,-120.34098,472.61823,11283.4677734375
503,-8201.706,4478.8755,10871.37,2766.368,-1279.1749,-3012.9321,18379.939453125
504,13247.697,11065.369,19934.197,-3295.6768,-490.83142,-703.32324,9942.59375
505,-53155.438,-48399.855,-82364.61,-698.6569,1372.2085,-4973.7144,33106.265625
506,10128.397,-10431.173,6675.7715,-17785.232,-172.80933,5971.4844,37678.125
507,43517.094,35264.977,66332.81,-1555.5771,303.13657,-2027.7197,28227.69140625
508,2488.6897,988.0589,2460.8997,-107.755905,643.50433,2989.1057,5503.8486328125
509,-7159.5186,-9768.932,-23203.838,-1519.663,1712.9987,2461.8418,16008.62890625
510,-5754.1904,525.36523,-2470.4258,2422.5776,3335.743,-9.9485035,8976.849609375
511,-367.05762,3578.8977,6110.5366,-2741.5015,-803.6293,47.276546,7514.0634765625
512,-73018.42,-41234.766,-30876.71,-1473.2751,68.84234,1986.7478,38276.2890625
513,-13274.948,-18057.254,-42923.37,-4209.8325,616.87726,1001.3399,28590.720703125
514,-97903.734,-97024.22,-133743.28,962.18854,-1316.5897,-2392.3818,36632.17578125
515,22333.916,24463.729,51973.492,-568.77454,-1164.2698,-3654.8665,29411.30859375
516,-8292.748,-10670.907,-16338.256,-2580.7017,442.44318,-1636.2867,8935.9931640625
517,3038.1313,-1219.4292,11918.957,5947.9087,-1450.8772,-730.6936,15775.177734375
518,17027.578,14364.615,26036.945,-2458.9492,-1347.3228,-54.265537,11655.2841796875
519,-39263.68,-43408.832,-67688.68,-4145.675,-1646.9601,4091.1882,28587.544921875
520,7726.158,7120.9424,14027.359,5194.4272,-1574.1725,2088.5645,12056.1845703125
521,-3939.8374,1196.9207,-4093.7944,409.78387,-1647.4751,-403.59875,6027.91796875
522,-10359.133,-15771.729,-27287.812,1572.7275,-801.67755,315.61267,15293.6455078125
523,-1436.2802,-1338.0929,539.5071,-1641.7562,1655.608,519.8959,4565.025390625
524,-11356.42,-7820.864,-4496.385,-4220.702,-738.0977,545.1776,9553.8046875
525,-7619.2256,-793.3085,5132.4277,-103.17223,768.6255,-2032.4603,11677.03125
526,273598.88,268198.94,309103.34,6567.7827,332.17242,29.479511,40139.625
527,5400.1304,2242.6638,2626.1929,-161.44562,872.725,713.6793,3577.27026367188
528,3016.2104,7786.505,9303.272,4941.3447,176.09366,1790.4686,10735.5830078125
529,588.36676,-1581.9574,5774.2134,1177.6417,1170.3859,-243.71506,7162.84814453125
530,-116139.53,-132958.06,-123375.305,-8340.08,-3686.5771,-2502.1768,21948.810546875
531,-89248.9,-85567.3,-124671.6,32.848515,-380.4856,779.8966,37429.890625
532,3725.9722,-5207.2124,3407.3096,-184.23488,53.844685,2269.5493,9623.9150390625
533,-35842.598,-36807.6,-62621.953,1645.2354,-1066.7401,691.14215,26555.41796875
534,1628.5823,-3145.8945,289.74332,-90.53159,-239.40536,3332.3838,7190.73974609375
535,-7343.581,2075.0583,-1486.5774,-959.25824,-638.7089,1702.9576,8974.119140625
536,-23630.838,-17280.5,-37152.21,5887.295,-508.60925,-1499.3618,20506.599609375
537,-6436.6816,-1434.0642,-5988.2734,-1457.4,-831.79614,-2065.4795,6650.59033203125
538,12745.967,13600.27,27982.746,2107.6277,170.14285,-1451.4204,15479.193359375
539,4141.5156,15485.91,-18871.59,-3441.8494,-950.99774,311.9238,30950.154296875
540,-9015.141,-12016.356,28721.254,591.2642,669.6113,-936.4552,39386.83203125
541,-7544.6924,-1588.1335,1595.5947,3536.75,-984.6385,-457.57846,10278.291015625
542,5687.798,-775.2363,3431.8083,-154.85767,426.6943,-266.16028,5754.16650390625
543,-24543.111,-23055.121,-35605.344,378.17352,1724.3046,-1235.4092,12448.896484375
544,1399.8518,-1897.3984,-5649.6616,-130.55756,1067.7845,-2884.4185,8108.9287109375
545,32453.498,4068.2676,42198.31,4382.327,-2062.1965,622.4674,35338.73046875
546,-860.3906,-12372.848,-7965.2554,-3780.8765,166.1327,-2523.263,12778.4892578125
547,-2581.2317,-7310.12,-5406.156,5386.7173,-1300.3308,-3472.001,12052.83984375
548,-137.44684,1465.5563,1209.3658,-1613.304,375.82208,-168.6169,3246.82153320313
549,-5579.161,-7124.6714,-32744.309,2241.7534,978.7325,-506.1081,26778.1328125
550,14850.143,14137.514,33426.812,-1491.3706,-1254.7709,-1240.0823,19360.994140625
551,7692.833,5146.784,2998.6362,-2537.8494,817.3496,-1094.0475,6440.74755859375
552,-2076.855,-5113.857,1785.3208,-5543.2095,79.90006,582.77295,11361.72265625
553,842.32886,6569.381,-1349.388,-4888.054,-135.3305,-248.03917,11048.6904296875
554,-5734.754,-7159.8076,-14198.098,2878.4363,1598.1553,496.55005,9739.42578125
555,1715.0312,8374.619,10141.243,4039.0088,645.0913,-3096.794,11755.6650390625
556,29036.523,30824.535,-6851.17,-2435.7874,-294.7995,76.63671,37058.98828125
557,1808.9722,3426.7144,829.2479,194.25671,107.25827,98.40665,2310.55444335938
558,90130.59,88897.484,128721.79,302.05524,133.04538,-490.47336,39235.65625
559,-3878.0059,-5433.103,45.796387,-3656.1218,1356.6737,1653.185,8816.96484375
560,9903.66,12356.627,15777.66,-224.91292,-272.33734,2199.9482,6403.5751953125
561,24062.164,21548.355,43883.832,-24.016138,572.72534,1484.6151,21369.220703125
562,1079.1897,-3695.4443,-3879.641,-144.37477,591.73914,-893.2016,5216.9873046875
563,-11734.343,1309.6187,-9544.459,-1933.606,-488.35794,-695.66406,12639.6044921875
564,22479.406,17224.582,38190.516,-4914.639,458.63,-1303.4169,20861.447265625
565,-454.24054,-1381.3635,2088.593,937.0509,-815.63617,727.0561,3987.34130859375
566,1945.0592,463.0133,-325.06763,-218.53212,-65.38108,-522.3236,2227.11962890625
567,-2711.65,1816.6398,-1202.716,-1553.9785,428.51257,-860.5363,5095.72216796875
568,-5764.194,-4010.0378,-10443.586,-3131.2073,571.7261,816.99347,8098.060546875
569,-5793.23,-41.382324,-1308.6879,-3400.6782,-21.232027,2599.9065,9076.0224609375
570,864.687,9327.735,6161.389,-2615.0322,327.82196,-285.28384,8713.9970703125
571,3136.7588,2871.954,6321.929,3498.5146,2710.0576,-1273.81,8641.6845703125
572,130633.54,111314.98,85870.164,-2949.6846,798.8815,295.28442,39248.95703125
573,-489191.6,-466545.9,-497361.94,-15353.557,2490.6992,1173.6749,38659.3203125
574,5118.88,-3088.336,-2133.5374,6351.073,-925.4768,1709.09,13884.33203125
575,3356.23,4180.2305,14315.468,3284.1716,3115.4175,-10789.301,22857.28125
576,20688.799,10435.628,21161.23,-3095.4192,-5035.219,6026.6978,17998.97265625
577,11325.458,-259.2388,5669.977,1778.942,2565.6904,1531.6858,11702.693359375
