Element Label,S11,S22,S33,S12,S13,S23,Mises
1,2500.1846,4035.33,3371.3916,741.5205,382.25693,-213.5673,2000.74890136719
2,40691.93,35600.12,38218.06,-8077.189,-293.44696,2393.233,15251.6904296875
3,-15303.3,-3466.7847,-23104.078,209.16092,-3505.7944,-11452.235,26902.6640625
4,65204.66,71154.12,93030.0,-98.12901,10394.245,2779.397,31486.900390625
5,119073.88,127440.07,145045.45,51.473312,6853.297,2345.6272,26165.806640625
6,120318.12,120528.555,120971.055,297.3898,953.0123,439.9315,1975.81567382813
7,-16149.092,5924.0186,-7093.7134,3362.779,10220.675,-6308.935,28914.720703125
8,31293.596,23230.244,29871.592,5461.12,-6242.3394,-16827.102,33337.66015625
9,31885.4,8072.6895,-3441.6995,2026.6455,7445.366,5424.1533,35223.59765625
10,7322.8804,17540.76,1515.6166,8676.036,10806.305,-13805.789,36679.9140625
11,-139873.77,-147701.1,-162970.02,4653.495,8862.916,-6843.1035,29240.810546875
12,-36670.59,-23553.865,-56362.29,4018.4631,9595.327,-5473.923,35109.09375
13,-6049.704,-16888.623,20890.771,-4261.258,-3294.0464,-6316.394,36633.24609375
14,-16307.875,-19197.795,8724.292,-3474.7537,4262.0215,10376.866,33482.1796875
15,-33389.39,-24287.938,-36339.004,-92.8038,-4468.816,-5739.7393,16647.9140625
16,119711.51,119973.92,120359.1,-132.42886,-1097.8237,76.1289,2000.98754882813
17,12315.229,-1677.5198,8235.971,-215.95018,2445.1084,-3023.598,14172.4853515625
18,11468.653,9305.279,-8271.666,10584.637,9702.411,6353.74,33034.5078125
19,-25823.898,-25036.357,-27528.688,737.7721,1646.3597,-5984.0557,11048.0908203125
20,-20670.404,-25390.613,-24856.496,9713.765,572.1082,-2277.6094,17879.0546875
21,19591.785,20640.625,17481.736,196.89827,-1488.8138,-596.1553,3949.390625
22,8040.959,8582.2705,8500.197,-661.1996,166.6091,873.31213,1984.48474121094
23,10589.649,12436.963,11303.557,-459.72247,-345.96307,-368.50842,2000.97998046875
24,29253.062,28664.016,29571.404,981.4903,-26.258652,-398.34665,2000.97827148438
25,46919.74,48598.53,47106.84,262.06146,193.56544,-617.7281,2000.61071777344
26,19011.947,18008.906,18478.27,514.4614,583.6009,-691.0275,2000.98510742188
27,469623.2,469586.53,470561.88,-237.31367,892.52454,419.3637,2000.80944824219
28,124817.336,124542.17,123878.88,137.38853,-1032.7695,-90.19354,1994.755859375
29,30633.621,30001.746,30268.08,62.504463,1107.8458,52.741615,2000.98522949219
30,153422.97,152508.97,153097.64,444.23947,650.6866,706.3178,2000.69091796875
31,2077.717,3370.449,2355.8901,-670.6417,-637.9534,122.16913,2000.98559570313
32,2510.089,2446.3228,2394.8352,-528.07227,-945.1282,-398.90164,2000.93725585938
33,-78803.46,-78649.805,-79444.83,-368.43097,-860.5335,529.3105,2000.69958496094
34,45124.39,47765.863,39495.805,1145.8853,3288.2578,2362.3647,10326.9306640625
35,13979.804,12870.518,12332.889,561.9373,-555.78595,-68.241776,2000.982421875
36,-8131.78,-9673.113,-10117.65,788.2374,-2111.6145,-319.2301,4336.46484375
37,5283.814,3954.0947,3507.7966,-4.7523646,-693.1003,-25.329773,2000.98559570313
38,19632.662,20249.271,20441.607,643.69006,847.26514,154.44666,2000.98547363281
39,369.92923,801.06946,49.0558,508.0583,-322.59265,-911.0784,2000.9853515625
40,98902.19,100457.75,100428.31,730.3894,1.7209927,97.77848,2000.986328125
41,46851.688,47238.027,47050.0,377.89603,1020.11975,323.46887,1994.04504394531
42,-103939.13,-105064.14,-104458.664,-652.208,763.8418,93.76183,2000.98498535156
43,9359.407,10060.068,9245.771,175.14514,120.169655,-1046.4435,2000.98498535156
44,1450.6251,1172.5101,406.54102,576.54425,-295.62396,-788.92303,2000.91809082031
45,-13282.818,7864.316,-8048.8013,3410.5361,-6748.2563,2183.6572,23446.30078125
46,-22408.104,-11776.774,-8562.423,9229.968,4821.4585,5910.4004,24241.38671875
47,5138.0625,6951.8623,16716.588,-7026.7812,2364.0718,1708.2938,17029.365234375
48,245.82143,937.0149,7385.677,-9100.969,-1881.0264,3254.6145,18368.328125
49,-38362.36,-35856.58,-29040.309,3756.8564,699.28235,6700.24,15757.826171875
50,-23946.135,-19992.59,-24528.67,-1312.1268,3518.4858,-9715.645,18540.724609375
51,-45338.617,-46997.99,-50064.63,-577.13043,-26.176344,-4328.25,8628.384765625
52,17699.19,17209.355,17300.967,491.3726,56.803524,-1011.017,2000.98547363281
53,6282.2935,5655.6934,6113.9497,15.46365,27.639425,-1108.3596,2000.96850585938
54,9699.37,8700.786,9985.944,-925.9204,-132.15967,-68.123276,2000.94226074219
55,117210.2,118875.664,117853.38,731.3123,73.37101,298.29584,2000.9482421875
56,35429.984,36085.273,36112.66,-772.29663,10.442885,767.1426,2000.81896972656
57,-22256.719,-9502.812,-13679.592,-2737.178,1275.6324,2033.1381,12907.2255859375
58,5281.2056,3617.1653,2844.7964,-1226.8877,1622.1406,117.3409,4135.447265625
59,-62607.992,-51298.867,-40526.695,-1337.5281,3247.206,727.1335,20108.357421875
60,-13024.08,-19167.945,-12285.746,-1002.2434,6695.2393,1072.8143,13556.3046875
61,-10635.517,-10509.108,-10182.872,-193.0789,-1163.4608,-184.89008,2106.884765625
62,2110.3005,2379.2598,2625.6885,-528.4682,-987.72015,115.452736,2000.98547363281
63,7698.0073,8815.363,9262.289,-706.5095,-3372.7017,-524.5757,6196.447265625
64,152018.17,181140.3,153919.5,-5015.429,-622.2739,-427.3506,29555.296875
65,-3339.5786,-3984.8718,-3493.1035,-1072.658,-244.46686,103.17252,2000.97875976563
66,6852.1606,7099.511,7074.9736,-80.18697,1143.9542,-31.8558,2000.98547363281
67,12286.942,4619.9067,10855.05,4964.039,-316.2239,3164.9883,12414.986328125
68,-24529.383,-2878.8535,-4169.8105,-11564.795,-8540.672,1045.5441,32646.658203125
69,-38675.387,-43049.12,-43338.73,-5897.0884,6472.051,863.06165,15896.6650390625
70,-7369.3535,-5693.2944,-5930.677,6194.1235,2873.2153,4218.0444,13989.6728515625
71,-23550.898,-29852.182,-50348.164,137.18025,-13569.186,-1666.4318,33907.203125
72,2421.859,3547.0366,5955.0225,2140.026,-9961.615,1818.7042,18197.1796875
73,10268.3545,2413.2915,-5605.286,-5783.8354,-13562.215,4925.216,30231.083984375
74,16809.072,5366.7124,11825.709,1051.5522,5415.099,-507.44577,13813.0283203125
75,-13982.463,-14276.673,-14484.267,-186.06274,-1099.9946,-162.54054,2000.95263671875
76,-8425.355,-297.94003,-36.178146,3759.934,-9402.055,-526.7411,19408.513671875
77,20130.26,18654.012,20132.9,695.0658,-125.927734,322.8185,1998.19213867188
78,130457.164,132441.92,130713.125,381.49094,-86.407295,-126.74199,2000.98840332031
79,70253.2,69908.62,70599.85,248.5178,685.236,-826.9731,2000.98400878906
80,82566.84,82492.1,83131.97,-78.21364,-288.88113,1041.3822,1972.138671875
81,-10606.772,-10296.384,-9730.199,-88.06792,870.5544,495.15762,1903.95617675781
82,408.3758,-125.00931,974.6182,-89.7533,-234.21887,-952.816,1954.34704589844
83,36242.777,36046.86,35845.37,-277.65128,955.20905,-552.8544,2000.98571777344
84,28548.182,27796.658,27632.266,-509.44196,-365.15027,838.64764,2000.98583984375
85,-299161.44,-297278.4,-297800.53,-478.17615,318.7555,-240.72154,1999.96411132813
86,15862.405,15949.707,15479.965,-339.88055,208.99556,1054.9814,2000.955078125
87,-27122.184,-13386.828,-16984.857,-230.1797,4062.0513,4082.0835,15869.326171875
88,1536.212,10493.806,1394.032,257.846,-3017.601,5125.473,13706.236328125
89,-5402.2544,2092.4658,11568.502,-4158.9194,-3114.3445,-6822.6084,20919.310546875
90,15499.617,22673.854,15175.554,-148.79271,-3317.1555,-7384.447,15829.2998046875
91,-22262.65,-21917.771,-22680.766,115.801285,-1076.7651,125.80903,2000.98571777344
92,-617.13293,2884.2817,700.8496,3991.384,-479.58264,967.7489,7789.43115234375
93,18242.87,18943.373,19338.13,-131.60477,962.28253,289.00955,2000.892578125
94,1843.553,2264.002,512.81244,639.3423,-268.85416,-133.42755,2000.92199707031
95,-102113.04,-100284.3,-113185.51,-1484.9056,2212.1265,6679.213,17358.673828125
96,14430.593,21064.293,16330.523,1367.0131,8037.801,5360.9688,17906.8984375
97,31783.174,30239.473,30409.135,-26.064337,-785.2473,-26.96626,2000.98742675781
98,79848.66,79089.96,68773.39,-3886.4932,-2098.8574,-4941.075,15703.73046875
99,243480.53,242799.78,241982.45,640.2125,590.81116,110.908745,2000.38342285156
100,-1828202.1,-1828026.6,-1828787.5,257.1207,-980.5039,-343.2752,1977.93029785156
101,132943.88,132179.05,132875.03,840.29083,56.216312,668.0195,2000.88610839844
102,11286.265,10748.384,10606.583,-575.62756,-924.3182,-142.50215,2000.93713378906
103,56318.973,54970.547,55783.316,-32.95073,933.98303,16.60874,2000.98596191406
104,23798.676,25471.12,25605.111,535.77045,-166.08568,83.50615,2000.98425292969
105,17181.305,17214.297,17781.125,291.16772,1065.6844,11.624442,2000.71862792969
106,236704.45,237428.45,236792.53,-214.1556,-20.394955,-1064.1014,2000.98388671875
107,-220815.34,-220663.03,-220992.27,-150.88284,915.2786,-668.10956,2000.51513671875
108,131027.19,132797.02,131369.56,-370.6276,-139.533,544.6296,2000.98327636719
109,-66643.875,-62139.41,-43495.367,-8061.503,2571.4976,9016.13,30175.23828125
110,5988.0645,4559.8906,2972.3884,-1270.0227,5489.878,-976.10077,10244.048828125
111,-24814.877,-8468.0205,-17400.266,6622.95,2930.1265,-6393.818,21931.271484375
112,29258.662,39835.29,44986.51,936.4032,-317.9941,3286.601,15107.013671875
113,-76629.055,-92551.95,-104784.125,-1005.8366,14473.748,-3107.5542,35474.078125
114,25242.266,23540.059,30445.81,-5973.6,-9013.672,-4216.274,21046.455078125
115,-971.9363,1791.8062,-21683.209,7923.974,-11473.45,8101.565,35693.55859375
116,8063.352,7429.004,7587.5156,-66.162674,-965.95685,-536.8254,2000.96643066406
117,5576.823,8169.645,9689.47,-6798.485,-3798.2515,-5375.278,16780.71484375
118,32697.736,38994.4,44680.77,4172.234,-8687.472,1894.2958,19929.6796875
119,-29531.465,-31858.945,-32219.432,1847.5189,1728.3491,-6004.6206,11565.2099609375
120,-2307.4382,-10873.359,-5372.1978,4881.6553,11104.284,1666.4708,22500.08203125
121,16157.541,16347.957,14000.591,-969.3827,-184.27744,493.20444,2958.064453125
122,37694.633,36519.242,36172.594,374.78958,-746.5203,-22.308983,2000.98181152344
123,-256.59094,2778.9685,3469.829,-98.746254,-7041.2925,-1083.772,12809.42578125
124,-10116.051,-4735.9478,22013.898,-9889.235,-3903.8623,-1357.8445,35114.94140625
125,-23016.988,-22708.861,-22876.78,325.4665,541.9565,-954.5639,2000.9775390625
126,-3653.2844,7401.9214,3555.0776,-7822.295,-5712.2085,-6003.692,22001.6796875
127,10146.794,9601.233,10092.4795,458.29092,78.00818,-1014.00867,2000.9853515625
128,145064.78,144351.11,143756.58,878.1445,366.5116,11.820694,2000.97973632813
129,97643.3,97818.234,98119.266,-1034.0128,-135.86592,433.78482,2000.32958984375
130,135674.42,136774.3,135342.12,-262.65268,47.916702,837.54224,2000.97717285156
131,83714.52,83197.58,83627.83,-186.60175,-474.96475,998.79596,2000.98645019531
132,-88784.734,-87697.48,-87527.97,-13.949015,-928.5413,84.91717,2000.98596191406
133,-939309.56,-938585.44,-937356.56,468.23938,360.9622,-101.31601,2000.94226074219
134,95520.445,96156.14,96389.53,303.37427,858.7323,-550.34283,2000.98681640625
135,12160.252,11161.58,10795.824,7981.2256,2443.726,3834.7532,15957.056640625
136,-28.609888,1839.9377,59.97173,-240.5978,3.2783382,-405.2342,2000.03393554688
137,2868.861,4868.8745,3757.6147,-232.06517,243.2648,308.43127,1907.06665039063
138,-58854.562,-59991.113,-58965.58,-626.6827,-258.73807,71.07885,1603.77160644531
139,-6547.255,-7669.025,-8082.0156,278.91495,3638.7598,-77.24066,6470.3330078125
140,42320.332,41436.125,39794.39,1371.2203,11403.937,-1590.8462,20206.7109375
141,6295.459,4659.0063,5039.095,2746.7344,648.25446,-1406.6921,5659.6064453125
142,129246.586,129749.734,147740.17,-12968.064,8361.794,4897.4424,33454.24609375
143,15215.083,18233.613,15336.158,8453.085,2684.8264,85.71863,15645.177734375
144,1713.6262,1131.34,1093.9825,-195.68437,996.3318,427.70688,2000.97802734375
145,2637.1826,2875.359,3050.4016,-358.15085,-1056.1152,219.02661,2000.982421875
146,3244.616,6314.5684,7917.4883,1067.6685,-6433.551,79.35217,12021.8642578125
147,4996.7744,15065.875,-7647.923,2891.472,2564.226,5761.9404,23086.865234375
148,81770.4,75963.414,62553.91,571.8419,-8067.7085,-2142.4023,22392.388671875
149,-57638.348,-51204.973,-69441.31,7555.9775,8373.607,1495.7727,25396.328125
150,29641.697,21059.453,7900.5737,3806.919,3314.8723,-2801.8218,21441.486328125
151,49653.008,33582.453,27133.008,-1993.2114,-4840.452,3022.376,22652.087890625
152,40061.35,40090.363,40424.64,-113.63692,43.777687,1130.8024,2000.72802734375
153,-290035.06,-289580.47,-289543.72,-611.77856,163.11198,926.14984,2000.15209960938
154,170211.84,172278.4,171192.77,-466.9089,-192.39622,98.47255,1999.97570800781
155,13549.987,14313.652,15243.193,32.218056,773.24786,129.10303,2000.98522949219
156,68828.07,69256.26,69544.516,426.93283,993.8907,186.01598,2000.9853515625
157,-58414.316,-49883.297,-52332.453,3753.7388,660.75977,531.4493,10114.921875
158,-301631.84,-302691.72,-301927.66,176.16452,813.1474,584.98346,2000.16516113281
159,199729.88,200702.72,200480.14,-276.949,985.6944,-162.9015,2000.98120117188
160,-574482.4,-573869.7,-573938.1,-513.94727,-83.07847,967.80963,1990.28564453125
161,47357.703,46520.56,47200.3,406.9864,-579.8742,794.1215,1997.84399414063
162,-5128395.5,-5129112.0,-5127979.0,-155.15878,222.09811,965.8719,2001.04907226563
163,111192.25,111267.94,111717.516,325.7815,-961.3944,446.7288,1982.88037109375
164,244852.28,244909.25,244537.7,80.103584,913.5298,-673.53516,2000.9833984375
165,440.37802,282.8075,311.1968,52.91747,119.66965,-1144.7512,2000.97241210938
166,-40282.27,-34222.27,-36760.305,4620.4805,3197.165,-6376.03,15635.15625
167,7577.1426,-10561.126,12098.241,-897.80707,6496.92,-7974.5537,27409.31640625
168,26606.34,27405.441,26800.871,-1029.4752,-241.58888,-206.91014,2000.98583984375
169,-273062.12,-273753.06,-272968.56,815.19214,-6.067306,-685.70966,1988.74645996094
170,380700.4,380041.38,380968.03,204.45753,990.9964,-284.18607,1999.05822753906
171,-57804.16,-52492.387,-59231.457,-2040.5062,2152.6582,-9096.473,17676.646484375
172,28132.666,20165.607,26698.217,-5417.9204,1663.7843,-10885.186,22492.916015625
173,-36269.707,-16920.357,-6757.7905,-2051.0955,3102.534,1819.05,26939.544921875
174,344968.9,345526.6,344769.5,-100.968094,-659.02625,-826.59106,1960.93688964844
175,-19060.68,-26572.957,-8224.898,10013.792,5655.642,845.9493,25577.015625
176,-20516.934,-32727.168,-20171.422,-10907.253,-1178.9155,-4286.4473,23866.7734375
177,43150.58,47064.61,42701.688,832.8657,210.2973,-2568.3547,6267.46533203125
178,81819.67,83670.09,81760.36,-146.23479,75.762886,326.23492,1984.43786621094
179,44989.527,44179.543,45850.38,45.89894,70.16397,-793.39716,2000.9853515625
180,7053.144,8164.861,6361.434,-206.46626,-77.524506,-676.708,2000.76953125
181,8538.481,9374.645,9803.167,-474.96475,767.2866,-326.53024,2000.98522949219
182,865.74384,-95.83291,2592.666,35.919994,-5490.813,679.88275,9869.404296875
183,12660.827,18032.314,12791.037,3688.3057,4909.7256,-1243.478,12080.40234375
184,-1966204.9,-1966636.9,-1966026.4,-873.7205,352.03674,-590.5702,2000.96728515625
185,53238.63,52436.664,52422.145,-407.24365,-960.9387,-145.94774,1996.66137695313
186,29565.393,37530.04,14879.779,554.2651,5722.3867,6594.1665,25013.5234375
187,16591.787,-7907.854,-7477.4204,-9234.537,1543.6725,-8737.713,32892.15625
188,24705.643,20658.525,5570.407,5579.0366,-11548.356,-3537.0828,28915.34765625
189,-236736.27,-235629.5,-236590.23,-181.06906,265.00415,-932.71594,2000.88720703125
190,498698.03,498179.44,498402.94,599.83954,798.8375,516.8566,1999.56372070313
191,137305.17,137231.08,136238.64,414.16162,-513.4163,-738.157,2000.99011230469
192,-9748588.0,-9749570.0,-9750438.0,487.26303,483.35803,47.596386,1997.52368164063
193,2017602.0,2010822.1,2022223.0,6773.5356,1654.9927,9351.034,22512.998046875
194,420618.97,431686.2,446890.94,-1214.8842,-8260.967,8343.899,30658.80859375
195,-51032.504,-50280.89,-51798.824,398.8764,-451.76535,628.81165,2000.98498535156
196,-227765.44,-228383.75,-228094.1,-266.30725,-1304.8431,-1623.9806,3676.90869140625
197,-88391.99,-71144.74,-64639.805,-2395.5095,-14128.0,3707.5122,33305.0703125
198,167150.34,158616.16,157864.88,-157.35968,1536.819,-4719.9976,12401.7421875
199,76071.24,85811.734,95449.19,-4692.647,14685.462,-7257.309,33951.2578125
200,-29644.287,-35651.902,-40112.137,-4144.872,-13231.445,-12688.459,33801.25390625
201,-33943.297,-40221.566,-21145.521,6039.411,-13355.079,1750.819,30614.40234375
202,65207.86,60902.01,97178.09,4037.8357,314.57617,4463.9956,35878.76953125
203,227757.3,241514.12,248000.77,-5234.597,4289.714,1294.7548,21517.423828125
204,129235.625,136693.77,127306.875,3584.8972,-1611.2173,-1905.8524,11444.1328125
205,53731.117,54313.742,55011.87,484.35165,745.00726,819.0533,2369.6044921875
206,33866.664,33086.97,34530.543,-527.0154,730.4052,-36.284966,2000.98571777344
207,74115.516,72529.28,74304.46,-512.2926,238.86417,254.082,2000.93078613281
208,45996.77,46130.805,45430.668,853.34375,407.85037,549.4483,2000.90148925781
209,68790.03,68787.15,69178.64,-189.46507,1056.6873,358.21246,1998.63684082031
210,100109.73,101191.11,100277.36,226.85672,-397.56073,-885.86835,1999.76452636719
211,200699.53,200840.5,199423.92,406.13943,-162.8101,730.80414,2000.8662109375
212,146788.5,147194.06,145686.72,-489.3714,131.685,685.12415,2000.97595214844
213,22260.664,22346.002,22054.176,400.23273,1061.5999,144.20969,1997.86682128906
214,-270115.28,-270792.62,-269431.28,910.79126,-86.00046,80.784996,1979.98547363281
215,106459.04,105705.875,107119.21,-873.33704,-266.67404,-26.723751,2000.98498535156
216,-3165279.5,-3166061.2,-3167029.8,135.21013,30.855534,-739.1472,2000.74182128906
217,147958.67,148442.08,147863.02,221.1204,-1028.3618,355.65356,1996.94958496094
218,620796.8,620879.8,620158.94,257.75717,-1052.8419,64.53273,2000.98852539063
219,118782.07,119134.55,118221.77,52.143578,-982.66364,380.44217,1993.71838378906
220,118162.54,118817.45,118773.71,-848.2692,691.59644,-27.626692,1999.51672363281
221,-414444.66,-415240.4,-413861.72,-197.12286,313.41925,-847.68475,2000.97033691406
222,149769.78,148430.19,150034.4,-300.19028,400.67963,-586.7868,2000.98950195313
223,132820.64,133097.39,133784.9,-839.6403,607.879,114.66139,2000.62951660156
224,46252.66,47487.9,45954.57,-123.761795,91.46377,805.70544,2000.35363769531
225,162806.9,155735.25,155794.88,-2429.1943,-1286.0532,-382.60345,8526.0859375
226,11171.148,10795.41,10594.562,-223.15703,34.440838,1094.4723,2000.88745117188
227,6940.7104,-7116.2573,2935.0735,1571.9368,13.803067,-38.860027,12835.6689453125
228,20810.87,-6132.0967,11050.122,5704.9414,-584.2338,14696.203,36122.15625
229,25247.246,25227.432,29907.887,1722.4747,510.87296,-4748.7935,9957.4677734375
230,19397.174,22584.168,12443.037,5238.672,316.6705,8947.28,20086.640625
231,30048.53,9087.584,-5507.2485,-7320.906,569.9985,-948.52386,33507.5
232,15740.239,25092.096,32115.629,-4412.296,5468.4014,8275.983,23580.953125
233,1611.7474,-3113.704,-27856.102,8223.217,482.9767,3538.9846,31505.111328125
234,7937.857,8892.905,-12300.083,6950.385,1084.2976,11226.079,30924.7421875
235,-477.47455,-2651.323,-6952.4565,135.20108,8105.0166,1533.7256,15387.0419921875
236,-44949.66,-45688.7,-51664.58,1029.9446,7975.004,-3019.9885,16187.0048828125
237,37020.15,46833.598,61158.703,5763.0366,-1626.4607,10177.112,29332.3359375
238,-44860.773,-30700.36,-16005.939,3886.361,-2499.041,-11058.704,32487.75390625
239,-78546.6,-46204.918,-56489.34,2752.5635,-1920.2437,-5353.383,30641.578125
240,7106.4717,14220.146,24810.168,-14.813899,-9150.199,-75.266136,22119.7421875
241,5982.587,-11973.218,-16281.963,5345.709,6253.6147,9497.234,29866.17578125
242,-66956.14,-66277.83,-93913.234,-7585.185,2731.331,-1157.8107,30731.701171875
243,14831.757,3049.81,-19742.814,4121.7734,1242.2308,9752.997,35606.4453125
244,-14615.249,-11931.611,-8832.462,7381.785,2635.7676,3980.674,16030.4404296875
245,-12230.944,-1300.9652,18060.328,-8104.3154,1185.2394,-5434.1475,31556.087890625
246,3061.5217,-11022.917,-11358.191,-8339.987,-4973.1494,-1067.5433,22124.37109375
247,-31807.275,-25019.244,1338.1956,-1147.5927,-2260.5354,7275.7954,33133.05859375
248,3559.3955,9463.586,3977.339,-16386.58,-3590.596,5112.3384,30906.5
249,-31510.752,-48321.535,-58387.96,-7490.8843,8872.617,-6129.1323,32716.490234375
250,11359.263,10128.937,36390.71,2677.2822,-12863.2,2661.1794,34612.41015625
251,-4772.711,11937.274,23545.35,722.29926,-9533.773,-818.9724,29735.4609375
252,-51499.21,-52518.348,-52888.043,1574.7855,1928.7831,5.78535,4489.169921875
253,59502.83,32470.713,43541.82,-1626.4446,15744.142,-2864.8716,36472.203125
254,43336.266,48755.55,43244.473,774.0756,-2912.9148,2592.1565,8791.197265625
255,-20557.719,-20384.408,-20056.053,-506.71603,-997.9615,130.5336,2000.98559570313
256,39142.31,32179.562,42898.0,1505.3167,-8632.232,-1423.5767,18032.1640625
257,-9256.468,-8040.153,-8945.297,391.84378,-882.1634,-60.309364,2000.98486328125
258,-11848.703,-10226.33,-5234.933,-3369.7817,-1240.6244,19615.365,35051.61328125
259,-22779.635,-21180.31,-9269.066,-8343.069,-10659.633,-6602.2773,29050.98046875
260,-10752.248,1943.1525,-40368.54,6797.699,-3355.1802,-2620.422,40090.9765625
261,1016.6394,1856.6974,-28277.594,7714.256,9133.634,-3542.6616,36741.21875
262,-45624.957,-52122.883,-20511.902,1296.6396,9927.448,-834.65546,33747.11328125
263,23238.115,13150.0625,2869.4368,254.07396,2140.4778,16802.771,34236.0859375
264,29194.826,47079.574,57650.977,2804.7742,8598.137,-14473.896,38659.421875
265,28629.654,16812.627,6980.3076,-9844.153,737.20135,-14501.427,35717.390625
266,17856.08,-3948.537,34264.664,7569.374,-9568.371,1149.8685,39407.8671875
267,-13710.908,1540.632,13549.78,10313.741,10984.775,-796.611,35256.296875
268,29381.102,22932.748,1445.6914,-8471.302,-8598.435,7995.276,35646.7734375
269,-41709.96,-34609.48,-24831.404,-860.55035,2921.7878,-14395.656,29410.7734375
270,386.33276,38004.53,18251.006,9062.154,-4188.8887,-3049.9497,37271.3515625
271,-20824.738,-35604.47,-6099.5845,-7163.1265,12729.239,1002.66437,35999.3359375
272,-41802.2,-44891.86,-55869.715,4159.989,149.8238,6942.2896,18988.080078125
273,159040.05,157772.75,147248.67,1804.7917,-6412.381,7333.6313,20498.134765625
274,79033.32,79183.2,80055.29,-775.4562,-73.80257,650.61304,2000.98449707031
275,-189693.11,-183204.27,-218747.02,684.07294,-2023.7401,3950.857,33693.90234375
276,-35726.848,-16056.767,-5372.839,-3233.022,-4932.0757,14416.602,37934.953125
277,-42974.23,-53500.82,-58637.812,13236.2705,15903.74,178.505,38415.515625
278,-38617.457,-46690.773,-30217.621,-15370.141,-4279.48,4087.5208,31895.755859375
279,-2548.7847,-6349.2935,20202.137,-10438.687,1440.8887,1591.6001,30971.59765625
280,-12728.807,-19332.57,-31873.977,-6818.8438,-15048.258,-3904.371,33886.421875
281,19038.805,13939.6455,20955.441,1003.36127,15472.844,-8851.228,31555.154296875
282,167014.88,154703.69,169531.92,-463.64536,-795.4446,-4007.915,15479.7275390625
283,39121.43,49868.715,74653.07,-4792.4824,-5411.0444,7460.9497,36330.04296875
284,218460.05,216148.81,202689.05,1750.0276,250.88373,-2018.7179,15466.67578125
285,244777.94,244723.69,245345.81,919.59796,-4.5332317,-608.4575,2000.98400878906
286,26421.738,24171.438,25531.42,55.277683,-185.99702,-112.474815,2000.98461914063
287,38338.652,35592.684,16285.638,-4204.496,3137.392,2150.0432,23016.298828125
288,-95776.51,-78819.67,-83502.766,-4888.7695,-18510.992,-807.6321,36492.2265625
289,-154796.97,-152813.0,-170934.56,-1431.2427,-3032.7488,-13246.01,29265.728515625
290,-47400.938,-47958.754,-42557.945,-5762.004,-13156.3955,7525.8467,28552.697265625
291,354.85287,-12118.586,29207.54,-718.8042,-6856.477,-800.0512,38632.375
292,-9911.122,13367.138,7976.048,-4578.44,15648.434,1898.6659,35408.58203125
293,3051.884,-27427.395,-4906.5566,-8079.1235,-6933.897,-4074.123,33758.03125
294,-10391.429,-7490.5723,-1262.646,9244.086,-711.93915,-13116.0205,28969.611328125
295,-10462.031,2160.8618,662.22064,-7572.4277,-1630.7019,-7639.4917,22310.40625
296,30987.936,32042.043,32515.867,576.1719,493.6626,-383.75327,2000.98571777344
297,227162.33,227613.67,226058.72,-306.20004,-73.76248,-770.70416,1999.83117675781
298,689289.3,689423.06,688335.3,-156.239,966.03064,-158.49051,2000.95910644531
299,2260.3582,1224.342,2618.0137,-864.5485,244.80846,43.154835,1999.87414550781
300,23025.83,11978.9,12251.288,-8133.4116,-11745.665,-1875.1843,27239.453125
301,-18164.605,-1065.8212,-30909.674,7699.153,-8946.7295,5018.3716,34150.33203125
302,7479.806,6987.603,-14143.049,2913.5278,-9044.583,-14187.231,36494.6484375
303,49290.523,32931.19,28635.629,136.47151,-2331.2083,11527.975,27773.984375
304,-14672.79,-39131.26,-6091.32,3458.2651,-5940.056,-2049.4268,32188.19921875
305,-7325.6724,-3056.3494,27266.574,4984.9897,6042.6787,-2410.6426,35618.69140625
306,-49260.31,-31366.44,-72302.68,-5496.4526,2503.6265,-1465.1387,37139.41015625
307,-127524.65,-127772.445,-128411.2,-762.3333,-226.90167,701.588,2000.57092285156
308,13110.547,-14115.342,4806.319,-4643.8345,8742.732,-4465.2407,30625.7421875
309,34343.78,50298.785,41866.492,-365.56107,2890.7898,6126.172,18143.57421875
310,13163.267,-13216.598,28123.812,-342.6394,-4618.469,-1279.6953,37197.15234375
311,-15682.847,-26723.889,-42367.87,3674.2488,-5704.7954,3832.9739,26862.130859375
312,176749.17,182279.52,152502.61,-8654.979,5061.2935,6334.7534,34271.5
313,7743.3223,6192.6997,7336.7607,304.14603,739.5344,-220.89542,2000.98266601563
314,313719.22,307745.3,306940.78,-5215.097,2455.479,-6375.3286,16209.728515625
315,141481.97,139578.81,139713.7,377.43506,-187.99557,-170.1072,2000.92199707031
316,-266162.28,-250993.64,-281416.1,1391.3435,2311.0027,-3557.3896,27457.982421875
317,5273.9175,-13147.781,-21839.703,2870.5752,5838.8794,-5448.5913,28126.287109375
318,33114.11,32391.062,45682.656,-4892.164,-3507.8535,13825.495,29150.072265625
319,170579.4,169606.17,170817.89,-829.70575,-297.8561,-380.47922,2000.4609375
320,-239999.73,-239932.34,-239810.81,-790.5779,357.5129,750.9428,1994.42553710938
321,207897.88,208429.1,208281.67,892.1131,-678.9166,-51.481583,2000.98596191406
322,140390.44,140014.0,140029.77,-252.03482,1003.4858,464.69464,1998.83911132813
323,-64342.453,-63498.953,-65054.03,-790.1151,-156.41429,-250.28831,1988.02075195313
324,-65733.414,-66951.09,-66419.19,-193.60602,935.7815,-146.8546,1980.45104980469
325,40858.145,40365.344,39528.863,253.24307,493.13342,757.35205,1999.36352539063
326,2573.875,20867.35,-4526.574,3611.9988,8756.1045,11104.285,33970.91015625
327,20613.424,4006.1887,-4135.8945,-5963.2246,-1149.9949,6972.455,27088.822265625
328,-11891.238,-10944.525,222.34998,3156.4612,-1074.9086,1941.929,13447.5458984375
329,52216.29,34876.926,34518.395,-13646.153,4574.821,-9704.704,34799.16796875
330,-3245.502,-16243.221,-8151.9653,-6704.222,-1573.0457,17729.559,34849.91015625
331,51899.64,56394.0,64009.855,-5405.1606,-17075.623,6326.0977,34566.828125
332,-15537.742,2834.0776,-8410.017,3848.6462,6002.866,6814.062,23435.2890625
333,-2134.742,7884.139,27270.672,2683.6484,1270.9357,2820.4412,26847.037109375
334,-9343.615,-9938.755,-470.2012,-8312.916,-864.7414,2360.9673,17625.328125
335,-18520.885,-5836.5776,-34562.22,-4281.5254,4298.2593,8333.087,30666.42578125
336,59811.508,39398.766,45111.613,343.29385,12406.621,-1615.8617,28331.2734375
337,-8926.709,-17256.52,-5588.434,-3355.321,-7916.803,8201.903,23064.095703125
338,-244591.2,-278634.22,-257092.84,284.9305,4639.913,320.4213,30899.2265625
339,26197.332,27411.184,27364.0,114.01714,916.6238,87.09949,2000.18603515625
340,-103854.625,-90834.26,-108854.46,407.31387,325.98648,2465.095,16693.55078125
341,7167.3066,975.53253,-1607.741,4849.5728,-305.91693,5270.837,14669.267578125
342,85730.76,61323.383,94897.5,2033.699,-3435.0261,9058.973,34604.7109375
343,-7823.8574,-32170.898,-14642.919,6589.1416,-387.88477,1031.002,24640.3046875
344,27672.627,28179.332,27219.723,-703.9598,314.32068,714.0204,2000.9765625
345,-9486.614,6460.472,-23447.006,-5774.725,-13238.465,590.0098,36037.3046875
346,-24306.086,-23405.223,-16889.36,-8518.683,-7462.056,1317.4937,20954.619140625
347,-65552.12,-61487.363,-47857.547,-6979.1035,-12146.893,9491.344,33417.3203125
348,-109916.516,-112970.2,-97782.69,427.83792,-12002.735,11579.55,32071.9765625
349,-23270.889,-13659.906,-38716.08,-7661.1167,3729.847,-2263.5725,26693.6875
350,82782.73,82273.8,83447.44,-213.60872,534.9138,810.2489,2000.98364257813
351,-103991.34,-103666.55,-105063.49,-436.7823,-412.55527,-662.768,2000.98767089844
352,-21785.154,-24715.557,6018.0234,-4838.705,9951.075,-10847.205,39791.64453125
353,74131.38,73910.89,79664.93,-19554.379,8705.75,-2295.8423,37711.97265625
354,-26871.623,-44806.9,-20595.357,-10188.374,-8652.489,-8001.145,34665.4375
355,-35215.496,-18887.652,-27041.602,7725.9316,9419.842,5834.643,27337.67578125
356,75388.6,66768.21,99120.58,7427.2827,4552.2026,-941.3116,32747.765625
357,64749.906,44440.094,74444.7,13963.617,1537.2472,-2414.2773,36233.96875
358,-144020.55,-141314.27,-125891.445,8683.393,-6633.653,14305.578,35483.72265625
359,-105586.64,-89900.56,-73773.26,-7995.6978,-12911.491,347.1311,38097.140625
360,-18872.658,-16705.586,-55924.918,4051.797,-664.545,-5289.4453,39904.53515625
361,-9073.748,-11572.258,-28544.43,3457.3318,-604.12396,1351.9446,19471.515625
362,13971.129,4145.1904,29027.205,-3910.6135,-99.95999,-1269.1915,22845.4765625
363,-1396.0596,-8409.9795,-12134.987,-88.743225,1663.1428,105.4404,9876.8798828125
364,-15077.268,-15201.969,-34298.01,-2870.2725,-2684.598,-2421.9968,20760.310546875
365,148218.95,149023.89,140780.5,1753.5515,10029.198,3637.2856,20313.416015625
366,-30807.348,-28347.484,-60253.695,2076.1028,-452.30878,-5962.1147,32645.935546875
367,54493.504,52768.223,69409.09,16261.164,1026.8066,-5071.058,33537.609375
368,28347.387,3085.805,44646.742,2709.359,-770.1547,-7679.282,38939.43359375
369,15047.377,7268.8203,16324.387,-2644.7583,-9071.757,-17445.363,35397.26953125
370,-10092.791,-3955.3179,-13367.059,337.5428,-5810.3154,-19240.01,35786.03515625
371,-127644.61,-141067.81,-161435.22,6193.14,3095.8928,10396.247,36557.81640625
372,20447.25,10607.906,24909.926,2199.9768,4646.1597,3990.3528,16961.33203125
373,-5436.4717,-14842.802,-17008.555,3333.6536,1790.7388,-2063.8113,13010.7353515625
374,-2567.9568,-9388.039,1389.4905,1653.3497,-3125.3606,1473.2003,11540.376953125
375,3408.5142,2121.9019,-3117.0706,-2670.0784,44.481117,776.82544,7684.2041015625
376,-1571.248,8488.934,29862.086,-174.3097,-3499.5103,-586.83716,28476.318359375
377,8722.36,-16385.455,-14978.216,-9671.033,5166.275,1416.1576,31043.91015625
378,-30357.178,-13238.514,-48259.4,5242.245,-6422.4546,1018.2743,33605.03125
379,3487.1152,14145.583,17141.445,1501.5933,904.85016,489.1921,12823.7265625
380,-6158.885,-18761.73,-26791.766,1336.8438,8314.467,1038.2156,23248.669921875
381,-12414.117,-25965.49,-26699.074,847.73035,-232.7494,1836.1019,14371.8896484375
382,-15357.932,-15846.574,-20206.727,-1205.564,-3211.3428,930.2201,7698.99365234375
383,-31130.738,-7745.494,-607.46484,-10224.926,1055.7172,-468.06226,32899.75390625
384,7581.9736,4315.765,-7114.1973,5981.544,-4260.4844,2686.8787,19028.78125
385,36708.723,33579.266,70029.805,-2730.0996,-7510.2593,219.14574,37630.85546875
386,-3320.9365,-3322.8933,-13070.561,-1949.9835,-843.49445,635.4828,10478.0419921875
387,9869.412,17849.543,22137.379,5312.839,-1565.7948,2822.411,15238.681640625
388,-69206.445,-29845.756,-45086.625,-6946.49,2929.895,547.48,36784.1015625
389,92710.37,92521.67,91475.78,-48.701897,-295.837,1311.188,2598.87744140625
390,27006.637,27012.678,25578.902,119.82301,-592.35986,535.74866,2000.97729492188
391,-67290.01,-82035.29,-97528.53,-1782.866,1062.6788,10602.943,32188.615234375
392,828.95105,968.51514,-721.1343,-3656.218,361.1122,-980.15356,6783.48583984375
393,-59110.33,-23994.695,-32174.295,1450.9778,4117.361,9695.387,36768.97265625
394,-14199.647,-5402.332,-15140.556,-4613.7627,-2701.7288,-4528.4116,15291.615234375
395,-23380.021,-243.9264,-36172.566,-2986.2485,281.50903,8234.104,35004.140625
396,-67351.71,-82707.73,-89705.11,1897.3003,1469.843,18237.412,37514.16796875
397,-50338.95,-54627.656,-14477.176,4690.9766,3925.558,-3228.809,40022.265625
398,7982.5464,-11319.678,-31980.035,-597.48413,-5973.146,10080.688,40139.55859375
399,22520.004,25336.889,29543.576,303.0966,2497.6013,-1899.7588,8203.517578125
400,-31423.855,-19822.398,-50767.938,884.3953,712.57434,3094.3254,27673.11328125
401,26088.648,17684.8,49744.473,-2715.5496,1404.0372,1841.9241,29448.890625
402,9082.936,14587.505,30784.082,-2438.3215,1236.833,-2112.1736,20435.115234375
403,-12531.25,-10531.939,-14907.385,-3529.8987,-2238.699,2103.7852,8949.162109375
404,24132.705,25595.871,-1073.7793,-5213.8896,-2627.8467,-1080.3629,27931.365234375
405,-90420.336,-91681.336,-116637.695,-4498.656,-3461.2808,2802.614,27858.552734375
406,20426.512,21022.066,55931.65,3817.4338,4962.3535,2249.8606,37048.65625
407,-100568.26,-107350.11,-136437.44,3760.3665,2249.7139,-4567.0405,34778.015625
408,17377.172,20529.877,14370.801,3146.2498,-11832.123,8570.702,26429.544921875
409,126943.516,141720.05,169574.33,4140.585,2968.467,627.8501,38533.72265625
410,105037.88,104564.82,99413.79,-457.49646,-2712.909,-1442.0836,7624.96044921875
411,13731.869,-9227.699,-20311.686,3751.2622,1334.2153,30.136671,30855.130859375
412,-42209.766,-45671.066,-67541.52,-3491.0437,5675.3945,1307.5889,26539.01953125
413,-35482.062,-30640.715,-63979.727,-6136.352,-4546.9033,4737.9272,34869.09375
414,-13230.749,-23601.303,-23436.7,520.0464,-8247.217,-3370.487,18569.0625
415,19464.79,25324.201,39567.45,6825.373,-3577.6758,2787.4404,22850.072265625
416,-58121.945,-52566.48,-42979.94,-7692.711,-3389.2097,10902.536,27287.58203125
417,-8610.689,-13486.492,-45610.89,311.8632,-1071.6254,8610.774,37928.30078125
418,26120.902,18567.816,1596.0742,-2597.0864,-1704.1217,-989.1094,22475.76171875
419,2355.3008,5237.7705,37463.62,8218.3125,3979.0566,1236.2474,37341.79296875
420,-2434.005,-12440.728,-14389.047,-4612.8496,-311.46664,791.83777,13763.5
421,159732.06,160846.6,154574.16,-470.33963,-1156.358,-4102.8877,9421.8388671875
422,-8972.656,-7708.211,-21227.799,-4861.7095,-984.89166,-969.05286,15617.912109375
423,14311.54,3677.3574,22864.572,-2563.188,3567.0415,-2510.3677,18814.40234375
424,51133.6,20708.088,29109.146,13819.7295,3362.8982,-1723.3317,36830.3515625
425,34846.504,55471.105,52087.305,11264.927,-9382.714,383.73083,31816.318359375
426,-6451.945,2091.038,-31875.225,5228.0166,1535.6674,182.91759,32026.365234375
427,-30278.668,1745.4436,-9058.833,-2508.7705,7243.369,-13727.408,39215.875
428,-61698.977,-47413.332,-21470.863,3416.8706,-571.44165,9410.311,39361.9453125
429,95659.7,75128.95,114199.89,-5641.2363,-6276.105,-3254.5383,37300.2578125
430,-29139.248,-20635.357,-57701.562,4285.648,1214.8237,-2415.1584,34756.859375
431,76596.78,65289.71,37164.23,-4095.1428,-5062.815,-7062.234,38906.83203125
432,23702.605,30299.883,25514.41,4490.899,-6234.535,-9546.764,22031.537109375
433,-21886.62,-22689.164,-47612.832,1657.4666,167.2963,-730.53754,25529.634765625
434,-2698.677,1999.8152,26968.592,11758.969,5384.442,-1177.4315,35620.03515625
435,-45266.145,-45574.867,-32851.77,10709.264,-6135.7314,1121.3528,24876.162109375
436,-17062.37,-8613.266,-2319.7056,-4803.0874,-1378.7789,-8.962194,15462.32421875
437,-425.7588,2751.767,13890.982,594.48334,-4442.651,1444.0104,15365.5810546875
438,55683.734,26739.732,19670.21,-8556.457,-6454.8887,-604.1179,37922.08203125
439,62111.89,61797.93,95552.61,4256.8203,6171.0884,-5514.453,37265.47265625
440,41829.27,52701.527,75295.555,7779.519,-4707.111,-3960.911,34197.13671875
441,7438.51,14180.949,3472.7236,-2800.0415,-4701.877,4269.348,15246.3984375
442,16792.566,15533.947,22559.047,-1543.627,627.88776,364.6345,7129.107421875
443,8077.5156,-9639.379,-4178.7153,-11078.812,1754.8657,3945.8235,25906.150390625
444,-38112.49,-39856.953,-68432.47,635.95294,-2606.0337,2996.4456,30298.115234375
445,-26756.3,-10636.349,8862.252,-12318.808,-1335.7528,-4402.1187,38381.14453125
446,-82232.734,-55298.84,-86028.984,-4589.4565,-8409.316,6408.6665,35222.80859375
447,-16969.492,-1319.4126,13680.49,-2102.522,-1062.1965,-597.81,26877.322265625
448,16067.621,12045.94,14806.802,3086.041,-384.66318,1968.9221,7303.271484375
449,-13937.628,-10577.959,-19852.064,-0.6038677,-349.612,-317.8528,8173.6318359375
450,-10768.74,-21002.988,-28127.594,2251.62,5231.6577,-1059.5795,18141.197265625
451,-21887.377,-14433.571,-33514.797,-2443.9553,-5044.891,7195.5874,22957.0390625
452,77369.734,53496.07,82861.78,-101.78421,-4436.7256,-2465.798,28435.09765625
453,43882.535,39441.617,43375.54,323.34946,-1342.6599,-3454.7778,7697.7666015625
454,-74983.96,-50455.42,-47277.637,-151.67502,10906.848,7340.7524,34760.625
455,-84744.54,-48827.5,-77360.82,-1872.131,5718.78,5329.388,35681.7421875
456,74802.18,81803.22,42108.938,2486.7659,2577.538,5926.385,38608.26953125
457,26863.871,29407.89,49011.88,1187.2158,287.4292,4629.4966,22570.65234375
458,1361.6084,12464.977,29509.725,2692.7212,-1378.9708,4777.158,26438.28515625
459,12025.719,11415.933,11921.937,1326.1438,4048.8523,-1797.4401,8029.15185546875
460,232820.36,241306.55,270788.94,-574.6951,-355.16016,-5310.483,35740.6328125
461,-555.68164,-4965.5166,-38164.594,-4820.3037,1309.5219,5005.6074,37656.9609375
462,-27241.078,-32249.062,-53172.605,2216.115,1174.6779,2460.1204,24590.42578125
463,5530.9834,-8863.6,-32088.86,5435.9185,-4608.1826,1003.3005,35161.17578125
464,-177306.05,-192050.03,-215722.16,725.0796,-1453.7843,-399.46335,33692.3203125
465,-8050.7227,-3290.3882,-21822.22,-314.1875,1220.528,3056.0,17625.392578125
466,-19636.396,-48997.234,-37393.35,-11189.712,-13408.715,963.1905,39671.17578125
467,79934.305,92517.37,120038.2,-2650.876,-1574.6227,-8316.275,38704.359375
468,-26449.906,-36513.844,-50382.695,1582.5155,-1543.7545,-319.11087,21170.0546875
469,-5284.857,-8824.166,-9339.192,3092.332,-112.50257,1801.1788,7285.12548828125
470,6771.126,-4742.1025,6939.5186,-3539.8684,-154.77795,-1019.0825,13240.1279296875
471,-17050.77,-25809.547,-57675.85,3979.3643,-4328.224,99.2324,38406.03515625
472,-32766.277,-21070.07,-39735.336,2484.0605,2233.614,-3163.2114,18176.27734375
473,-2542.8105,-7123.8096,-17882.484,1359.1053,-3048.443,1502.7642,15040.462890625
474,19034.465,25710.414,15807.918,-15471.696,8031.9946,-944.8241,31477.87109375
475,-742.48584,-4992.174,-9411.877,1000.3132,1429.6604,-735.0976,8193.3359375
476,-433.3667,-8414.476,-12410.988,-1216.3475,-82.12743,2049.8362,11341.5625
477,-90413.88,-112251.1,-108027.375,0.44050488,1678.5898,-4482.5576,21707.19921875
478,-20525.445,-27694.61,-49135.797,502.2756,-1230.8237,-2542.3064,26258.873046875
479,-5884.271,-36592.26,-41343.766,-6379.1157,531.2721,3151.7454,35555.49609375
480,24600.314,24788.709,31381.19,1831.0815,1215.1394,-37.24235,7696.1484375
481,1428.874,2067.4377,3749.37,1402.5226,-2747.255,-1612.7894,6376.314453125
482,-6772.4717,-12725.739,15011.23,-2461.8196,-1131.1206,-5395.499,27368.037109375
483,18174.826,13786.021,32573.83,949.8331,1636.3789,5450.4507,19739.537109375
484,49978.234,52353.734,86709.01,837.7347,-901.6069,-1417.3845,35750.66015625
485,-20787.775,-10878.856,-37294.38,2647.1355,-1256.3154,4052.738,24682.955078125
486,20911.326,29144.377,14107.619,2776.9949,2391.943,-1713.1971,14805.1767578125
487,-20380.184,-22599.688,-34851.305,-3687.1575,-2294.286,-1457.3123,15657.865234375
488,13194.354,5348.4097,7035.9014,-3002.0806,-2867.6196,-1994.4305,10714.80078125
489,54979.043,30620.418,45568.62,-3371.097,-2814.3281,2040.9564,22869.7265625
490,60316.758,76567.71,97792.4,-9471.601,5691.676,5236.9536,38834.24609375
491,10872.141,22415.746,21582.816,-71.40846,2936.072,3121.329,13395.466796875
492,-36822.957,-33323.633,-55771.098,-1122.7308,-735.46027,-2637.68,21537.39453125
493,19001.656,14868.607,52303.047,4460.5454,2222.3655,-3423.1848,37058.89453125
494,15393.792,8166.7837,16381.617,-263.32373,-2962.736,79.82458,9322.2861328125
495,-13231.551,-21186.377,-37362.01,4731.8555,2987.3013,-1384.2377,23522.25390625
496,9753.118,8565.25,7991.6265,992.10284,-1817.9039,-352.2722,3957.3828125
497,-7869.273,-7853.4663,-21384.775,-2759.911,2114.1467,1734.5015,15105.2421875
498,-7729.783,-30082.705,-41432.223,-2095.2659,2578.1294,4652.6606,31308.3359375
499,-123.62793,-6539.2188,-7812.907,-1680.0255,1658.2714,2140.077,9022.7705078125
500,41653.414,30625.666,7242.9414,11465.761,-1078.3491,-1360.2561,36464.3984375
501,785.5803,-8380.841,-1495.3948,116.62935,857.26337,-3370.617,10229.68359375
502,-15480.902,-48415.24,-21890.309,-6356.726,430.27057,-5114.566,33390.375
503,3403.6626,410.625,28730.8,-4828.652,-4156.838,2280.3206,29387.28125
504,24699.19,28003.076,46974.07,-7886.88,3565.3052,521.00903,25671.958984375
505,25309.805,32943.965,55613.137,-2463.536,-1453.7035,-3218.6528,28299.431640625
506,-5812.3125,1598.6836,-22972.557,1163.4067,4131.7563,-1225.2339,23159.2265625
507,25806.303,22053.77,34399.023,1932.6599,-4076.211,-2382.7825,14079.978515625
508,-9308.299,-14601.281,-30123.555,-1975.6987,-3120.5068,2144.2307,20145.267578125
509,7290.8535,6823.624,12585.635,-492.6177,-2377.269,-2915.2847,8596.84765625
510,536.47766,4793.9517,-11076.469,4079.4165,-1576.6737,3395.4524,17158.041015625
511,41847.11,35758.15,60174.203,-2630.993,2812.075,-539.6213,23019.861328125
512,15160.472,1568.8864,-22578.74,1765.5259,410.62466,-1099.0413,33309.5234375
513,8262.108,12049.434,27518.615,-4.889032,-1851.2062,-798.4279,18011.65234375
514,4271.1055,5890.7803,2593.4783,-1671.6777,932.7273,-4705.2275,9250.1865234375
515,-15113.395,-12726.5,-20626.547,3945.4702,-2550.2725,598.3896,10795.25390625
516,1000.58167,-1445.9636,5707.4897,-1397.2606,93.13986,-775.3207,6880.59814453125
517,-17652.066,-21203.195,-19294.193,2196.3147,101.94397,-243.01103,4914.81689453125
518,141351.5,103638.39,138413.48,-4869.183,-3734.1814,1024.0887,37897.41796875
519,29454.645,27491.203,60102.78,194.57922,1844.8855,-346.24088,31843.73046875
520,-2639.335,-5453.1147,-19719.166,-6437.5137,-596.8103,769.678,19461.490234375
521,15502.377,12481.877,29723.57,-2436.7808,-2863.3047,-1492.903,17418.8515625
522,-57314.992,-60609.703,-94847.484,5646.542,3714.5583,-2673.7651,38136.27734375
523,-12955.303,-14775.336,-28724.455,2681.174,245.2727,782.71106,15711.8662109375
524,-4382.6104,2223.112,6921.24,2173.4954,5656.553,796.93634,14450.2548828125
525,-16410.797,-15339.524,-25565.855,-3232.6372,991.6163,1298.3085,11581.3134765625
526,5352.266,8813.243,20740.74,-846.11304,-213.74725,27.01931,14064.541015625
527,11062.43,28926.318,30806.553,2175.8665,496.63394,2240.278,19653.033203125
528,-3880.7966,2539.5632,-3355.109,1300.2615,-2648.5806,-3767.4875,10335.4306640625
529,17872.713,20114.9,37740.863,455.7745,-795.75415,-19.363821,18914.19140625
530,11871.09,6283.139,-10596.068,1083.4691,-1906.2197,3160.712,21327.12109375
531,-4153.834,6149.083,-4408.5205,2112.949,-53.825035,1165.6948,11239.1220703125
532,6490.5166,9669.53,25735.824,4704.684,4712.621,4430.4146,22610.201171875
533,5311.566,1424.3955,11195.221,2339.9387,2280.7463,-137.63347,10231.6396484375
534,-12445.828,-11154.193,-26673.297,-73.41285,2059.693,4719.9,17379.33984375
535,3979.6106,-2444.4539,-8630.67,2611.2334,1396.8743,369.92676,12082.982421875
536,10442.647,3585.9292,20903.691,-594.5668,-1113.2217,-4670.9385,17274.482421875
537,-1560.874,20230.105,13433.566,-2640.6643,-829.4469,1752.422,20127.908203125
538,-17567.34,-10746.043,-22503.545,6166.161,-184.9726,-1147.1865,14922.564453125
539,6794.565,12131.719,23116.674,-2748.9854,-2183.484,-570.924,15675.9140625
540,327.06665,411.45337,-12059.121,-3307.4111,1399.5005,4997.4204,16373.3115234375
541,8502.555,15632.064,14033.195,-6850.3037,-1136.6748,1128.6152,13800.888671875
542,612.5879,-13169.051,-37212.74,1799.8795,-3082.2097,7741.2065,36295.88671875
543,8046.4844,13935.205,37434.293,-3096.9138,-1414.2999,-885.32404,27611.3828125
544,-12152.523,-16318.932,-34257.758,4357.3325,659.2469,-464.25687,21744.203125
545,18351.297,5823.8335,15344.579,2531.2712,-1483.5896,-4897.0903,15035.9814453125
546,-8362.839,-1470.8855,16116.491,5704.7876,-3592.9277,-1361.5935,24898.779296875
547,7033.0063,941.25586,20035.666,-1432.4153,6179.9756,145.81529,20153.984375
548,-3304.3525,-25392.045,-28303.074,-1950.6608,3221.9368,1534.162,24703.37890625
549,-35128.715,-24097.066,-59387.21,-4485.9644,-9287.699,1912.255,36165.0234375
550,15374.668,12993.69,19561.688,2102.65,2737.6978,1351.6204,8625.4501953125
551,5686.732,1716.5884,11109.502,-2544.8074,-1425.0918,-344.86243,9621.6025390625
552,11375.854,17133.293,32109.664,-6098.075,-1885.1079,-202.72636,21587.244140625
553,-22361.99,-27326.04,-35282.805,-7132.374,-1847.8596,-2591.4,17619.640625
554,-4533.591,10349.073,-5589.694,-5236.234,-611.44464,2103.5847,18302.40234375
555,-96.48779,-724.20605,-8669.438,850.86346,-545.52484,-449.49667,8495.8193359375
556,9264.709,11309.448,-9807.901,314.9716,-6170.518,-2714.7053,23314.72265625
557,8699.631,14428.305,25135.08,4240.0537,-1297.7131,809.43335,16423.771484375
558,10383.198,11809.088,24820.043,-1505.2118,4318.5693,-41.173187,15894.103515625
559,-11100.591,-3427.1978,-18281.432,2165.2874,-655.54285,2270.813,14013.251953125
560,498.77142,-145.61572,-2051.5232,-576.18207,-5261.817,-2083.9114,10117.3134765625
561,8371.061,-1735.8169,5706.1504,-4773.9717,1744.0646,3104.828,13738.0625
562,11974.316,6901.506,27879.225,2532.5718,-565.81274,-1521.5159,19660.349609375
563,19918.867,12824.299,36275.72,995.59296,-762.3115,630.7431,20972.23828125
564,621.6743,-3772.497,-5035.55,-5084.1084,1633.7223,-2435.5632,11393.052734375
565,-10939.059,-18957.654,-20405.264,-364.2121,1735.4597,-1190.148,9575.1767578125
566,-851.3838,-8120.98,-10978.121,-4223.124,-449.485,-2110.9219,12217.158203125
567,705.44763,-468.1715,-603.7548,1422.3263,-1641.4741,-2254.583,5563.8720703125
568,10694.418,3243.128,20549.062,211.50302,526.8218,-1024.5078,15171.724609375
569,-9767.042,-12743.693,-18879.203,5110.5664,2190.021,371.78082,12566.826171875
570,2097.132,-3054.1663,-8539.283,1768.8169,1709.3593,-1887.8357,10664.02734375
571,-16244.151,-7205.9834,-19444.818,-7456.9146,388.49554,477.52563,16994.54296875
572,20219.229,14352.471,31272.055,1599.5452,-653.2655,-2294.4539,15690.044921875
573,40643.414,19416.799,55444.82,10684.375,8013.16,3854.3503,39541.1484375
574,1015.5918,3101.4004,-34319.89,1997.3433,3299.5715,197.03323,37032.3671875
575,-18525.541,-6676.614,13868.514,-3929.6287,-389.9514,591.3081,29219.310546875
576,37592.652,47228.562,21699.426,-9648.688,220.6836,-401.4062,27901.83203125
577,28582.936,12480.585,21297.76,-627.8724,2226.7302,-1678.9694,14817.7421875
578,18973.21,40406.773,1954.8757,8596.65,5000.6147,-2924.5408,37896.82421875
579,66800.53,45136.293,85148.05,-10023.176,57.89933,-859.90356,38821.078125
