Element Label,S11,S22,S33,S12,S13,S23,Mises
1,16242.812,16302.767,7842.2188,-4149.0225,-813.7907,-4975.3813,14105.6865234375
2,6367.5835,19357.547,-2756.933,1130.547,-816.4298,1391.2678,19549.015625
3,10466.754,14893.396,5863.52,1422.6698,-909.9681,-533.0608,8400.6162109375
4,11670.24,16546.309,2823.2847,1558.0353,5026.7344,5403.805,17772.814453125
5,10935.81,13997.824,17153.523,2355.6936,943.81305,-3753.9036,9518.0234375
6,12830.365,14066.416,-1101.0068,-51.666138,692.97284,-2087.3086,15078.130859375
7,12385.537,14115.818,-2178.3633,-3156.063,-9.618231,-546.7307,16464.505859375
8,9421.302,11184.478,-1738.1709,1876.6371,1126.413,2030.5724,13193.1845703125
9,12678.837,11004.125,-7986.8213,-920.8087,-427.91516,-3365.2808,20792.62890625
10,6255.2256,10362.504,-5878.47,17.437473,96.048996,84.681206,14628.154296875
11,11842.454,12158.212,6158.622,-1461.9752,-1091.5494,-1042.6743,6888.28173828125
12,11562.313,11500.949,-5212.2095,-249.6097,1851.3789,-42.56413,17053.861328125
13,14115.9795,14331.55,9377.334,-2554.5952,-2833.867,-1898.5479,8832.126953125
14,4562.993,7227.291,1048.0664,-1445.3964,1183.3779,1889.4066,7070.8017578125
15,13984.077,8745.124,13446.767,-3661.651,-2103.5493,2943.4146,10218.0859375
16,40435.137,32697.965,50290.953,-3395.8845,-6190.1445,17387.072,35912.91796875
17,15813.588,25482.951,28838.998,-7919.8955,-628.71436,15513.636,32381.927734375
18,-7152.184,-11120.664,-30348.457,2214.1562,8682.956,-7269.546,29346.03125
19,8734.54,17946.818,19617.484,1034.8458,15020.929,-1474.0076,28100.953125
20,17863.72,8831.163,25453.637,530.819,-752.0024,-13530.965,27559.9921875
21,-2937.83,-5853.711,-13014.817,4400.379,-19620.37,-2866.157,36308.0703125
22,-11008.55,-7326.675,-8090.688,120.5105,-8075.51,-473.4039,14411.2587890625
23,-1255348.2,-1255622.6,-1254341.1,-621.6758,62.82146,665.4091,1966.08801269531
24,155496.64,157447.92,155727.44,-101.23939,-232.95715,351.38293,1993.58508300781
25,-8428.288,-9645.242,-9245.973,624.6861,-145.31699,733.8012,2000.9853515625
26,-27297.4,6005.404,-28093.992,-2291.5796,-1509.0607,7730.9556,36580.44140625
27,40071.61,48862.242,60041.86,3236.1453,-13701.141,-22.448713,29918.525390625
28,25107.742,28200.707,43607.65,3827.0154,-10375.748,9064.757,30133.193359375
29,-4297.7773,-19222.266,-36587.203,-697.7327,-14058.454,1726.2684,37239.296875
30,-46923.59,-35053.223,-61295.06,3762.0156,-13284.932,-6328.516,34786.72265625
31,41760.594,48846.8,54032.145,1177.6545,-15902.127,1901.9105,29790.802734375
32,16109.205,24194.535,27718.297,-2720.7551,-10933.54,-13413.873,32045.447265625
33,22255.66,25326.44,36669.605,4444.6455,-11196.381,9812.656,29952.220703125
34,-12920.538,9686.613,-23986.012,-2368.4585,1300.9214,-4746.786,31195.97265625
35,16706.744,-2758.2034,-3467.1013,2228.888,8558.994,2859.4897,25541.89453125
36,4414.2725,9991.332,9857.828,7952.0063,-19630.361,1907.4757,37243.1015625
37,-5400.078,-8538.532,-1811.0138,-2956.0955,-12591.674,-11249.678,30257.68359375
38,19064.262,23757.316,33211.465,-1606.421,-11001.591,890.546,23000.01171875
39,2557.0752,9946.742,-15459.094,-3941.625,-15733.753,1709.9652,36198.85546875
40,39457.05,42890.97,53515.633,2634.1912,-12528.279,7595.273,28738.72265625
41,28992.875,33872.016,41467.12,2648.2737,-12348.403,10081.134,30032.087890625
42,25910.576,25432.018,31747.627,3488.579,-14609.94,-1889.8451,26919.689453125
43,5404.2656,9539.22,14020.928,835.2599,6915.1445,-6147.6743,17738.30859375
44,19039.541,1088.3301,25432.223,-3580.4238,-4207.729,-9886.566,29371.322265625
45,26888.98,17952.574,41328.277,-1494.7045,-1969.4661,-11757.581,29162.458984375
46,15971.059,2181.0732,25309.527,3356.5542,3481.3972,-11179.887,29176.658203125
47,-19790.965,13666.711,-10565.254,110.69175,-7932.0054,-6384.806,34741.0859375
48,28957.217,19288.098,34116.094,-503.80225,-1216.1893,-13993.998,27616.705078125
49,36718.645,27921.447,44338.758,884.7794,-2114.9106,-12294.79,25918.044921875
50,21140.717,14542.451,29495.53,943.11334,-1355.8619,-13878.498,27467.9609375
51,-28285.938,9016.099,-18520.168,1241.6459,-1309.7765,-6550.2817,35510.83203125
52,6927.6934,135.42076,14795.716,899.20776,-7759.189,-13043.232,29238.69140625
53,27777.637,26776.484,39915.938,3043.2983,-2741.8267,-13134.844,26988.9453125
54,-27943.148,-28393.834,-18305.752,-7638.065,-2241.1863,-13741.405,29223.16796875
55,228132.56,248637.08,234266.19,-3494.2498,-3809.406,1782.8689,20542.3828125
56,-24887114.0,-24888814.0,-24887352.0,-197.40796,-72.12669,-650.3572,1985.81311035156
57,1328.6093,254.45079,1549.9872,-516.31934,-39.590366,299.84525,1585.81213378906
58,9764.305,7480.3516,11562.2295,6189.267,7811.546,-3245.1975,18496.787109375
59,12803.85,20373.73,8345.539,-13335.552,-2501.7595,-10723.929,31752.5390625
60,28426.555,37244.3,40936.92,-1267.5629,13207.198,-2495.0337,25898.544921875
61,27858.559,31026.291,39284.8,-1214.88,15109.74,2607.5198,28533.072265625
62,20261.549,28062.512,34110.12,-3136.053,11798.09,7396.0938,27491.84765625
63,32861.67,42266.5,52650.156,-982.51526,13168.113,-4854.891,29794.818359375
64,-8131.437,1230.975,-12101.255,5266.561,15261.877,-1796.5353,30532.74609375
65,48436.746,60893.574,69664.695,-243.10724,13639.662,2531.0227,30313.0703125
66,19647.666,22541.137,37662.64,-4696.4854,12335.068,1142.5337,28413.630859375
67,6868.317,11646.019,19748.71,4067.3103,17323.979,-7165.4746,35088.66015625
68,4839.183,2265.813,-4621.478,3411.8992,16165.018,-1969.5979,30037.728515625
69,-3022.582,-24281.475,-15556.0,-5036.5,9011.116,-13907.486,35249.60546875
70,17010.656,24335.988,31210.85,765.21484,11832.161,12431.044,32196.802734375
71,5559.6514,9516.154,5579.4033,-657.73175,14664.319,543.8445,25746.611328125
72,43924.5,44169.223,53074.016,2145.354,12841.811,-2165.6885,24579.44140625
73,-3191.6,-22824.734,-44559.176,-6254.05,2511.5974,-5781.0625,39001.1171875
74,5764.0576,12927.563,21764.89,3825.7986,12172.703,-8214.905,29725.556640625
75,24847.695,29936.318,42496.258,176.29953,10676.753,-608.8311,24305.212890625
76,45409.566,55307.414,61328.508,-1073.8932,14740.538,-4320.198,30085.201171875
77,4407.6025,-3263.24,3523.7285,-1281.8744,775.7945,7832.869,15608.9619140625
78,-4195.996,17660.352,-23193.021,-3257.0398,-1322.5979,7673.0786,38307.87890625
79,87629.37,79177.31,103813.73,-892.7448,2055.353,13126.774,31656.955078125
80,36399.867,29612.969,46709.73,3061.2422,-9679.142,14449.92,34027.9140625
81,21127.902,10326.649,17935.893,-2114.7998,5925.3374,17872.277,34196.1875
82,29879.99,15980.361,34875.63,3836.0085,2600.0085,16301.396,33900.22265625
83,14420.365,12392.342,-15787.184,2716.6934,3180.2292,5645.5796,31677.244140625
84,15453.599,11759.664,17433.744,538.1422,-8436.367,17079.873,33383.1171875
85,10930.208,9747.408,3332.4688,2317.1602,13211.036,15726.205,36493.5703125
86,19475.746,18244.348,26332.918,2106.8843,2387.1833,19154.008,34467.6953125
87,7978.253,15786.9,22109.662,1857.557,99.95018,19413.443,35935.37890625
88,15814.078,15139.466,28273.225,-2232.0522,-1037.5424,19039.053,35633.16796875
89,1992.1377,525.27515,-14970.1455,-5978.3926,5247.706,9035.512,26452.779296875
90,12413.821,9606.839,9000.988,-7886.5376,3473.7048,10418.175,23629.51953125
91,-445.50244,-578.29205,2650.7776,982.35675,-12430.235,2141.813,22140.576171875
92,10580.872,14233.268,20252.55,2793.7107,-11977.516,4238.5254,24067.591796875
93,11852.7295,12785.041,13291.999,-67.17261,-14800.384,-2742.7556,26102.38671875
94,13640.2295,4485.059,17972.176,8970.281,-1995.361,8328.164,24569.490234375
95,-1678.0433,14873.393,-27151.836,-4215.795,1954.7443,5269.463,38633.8671875
96,8596.241,13717.401,20253.424,2589.4417,15960.026,-10905.094,35262.78515625
97,10897.399,16572.682,9100.022,-3549.6028,17056.783,-5047.2876,32135.12109375
98,17735.322,11031.842,25206.06,-23.806581,-1751.7472,-14257.103,27745.828125
99,10076.692,21549.389,27534.33,-374.1607,-13867.862,3311.1755,29092.44140625
100,21648.688,24256.22,29843.396,1092.6249,-9022.789,-14695.954,30794.6640625
101,46479.438,57221.734,49897.41,2341.5105,-15638.932,-949.5006,29038.66015625
102,33103.062,38371.836,51489.164,1869.8522,-14916.755,3251.4844,31283.712890625
103,8431.673,-10011.293,-9468.287,-6211.149,-17698.059,840.41547,37255.08203125
104,15646.6,23649.117,33003.81,-927.81366,-12062.061,-6330.1724,28030.115234375
105,13788.905,8259.274,3188.9802,-9106.643,-12700.73,-6944.148,31011.345703125
106,28466.207,31898.305,33410.574,-4091.2676,-7453.378,-14101.071,28855.6953125
107,7611.576,9668.271,11876.151,-728.58234,-12875.839,1146.7145,22727.62109375
108,2604.93,7755.679,25381.91,3480.1262,-3808.81,9327.902,27728.806640625
109,15315.849,2104.81,8482.439,4303.9536,-1599.7853,2395.4812,14540.13671875
110,8013.7593,16311.268,20466.602,-905.45996,12834.827,611.8112,24867.15234375
111,-5612.7793,6943.355,-10406.075,289.20734,19197.049,-1213.6864,36756.87109375
112,-3762.335,-10658.277,-11947.823,-7262.1123,20219.053,1844.964,38117.796875
113,25869.3,12504.77,-1599.1514,-5275.06,-6939.6787,-3636.032,28872.857421875
114,16386.807,29596.664,32776.414,-3983.5085,12429.091,-3048.1077,27668.392578125
115,10777.008,-163.63535,-10452.335,-9091.3545,-653.0108,-3212.9385,24866.169921875
116,15495.214,23198.105,35718.516,-9509.106,4977.077,-3183.1384,26239.642578125
117,23522.156,31408.406,44246.812,-7430.4507,9342.846,2820.5999,27921.908203125
118,22432.209,18164.781,27885.695,1145.3566,11731.046,-13599.384,32293.0546875
119,-19252.422,-36896.977,-15867.68,-4066.338,14329.766,4314.429,33226.25
120,41285.94,43793.223,52147.363,-3106.275,17311.22,-1778.2504,32163.53125
121,31386.172,41406.812,46871.008,-2095.6313,-14033.567,-7848.678,31206.2265625
122,17665.61,22436.91,27075.559,-105.187355,-12911.098,246.1824,23805.86328125
123,42934.61,50517.645,65031.445,-4364.888,15517.525,2401.0352,34278.9140625
124,14172.541,-14690.184,-17382.564,-7456.54,1867.1586,-1610.7488,33212.30859375
125,67400.875,64192.242,81638.68,-2438.437,5924.991,-8755.839,24735.458984375
126,39035.887,28128.191,49391.03,2205.0415,2760.8364,-13133.542,29901.181640625
127,28422.59,23355.812,30934.89,1880.994,2445.6016,-13213.076,24434.126953125
128,-69787.555,-90988.234,-63951.438,4937.6016,2335.2954,3690.0667,27158.958984375
129,513.6623,-1277.3844,799.0122,153.0347,129.05066,-164.12674,2000.34533691406
130,15821.18,25009.604,30.094471,-9261.046,-6790.925,13653.711,37865.58984375
131,6853.3267,12912.723,5572.9355,1297.2062,-13765.826,15475.172,36580.03515625
132,-14009.144,-19487.146,-22015.78,-547.04517,4127.155,19602.49,35426.3359375
133,26394.342,12104.031,36713.785,3936.032,508.84814,15055.988,34430.71484375
134,21985.727,27622.256,29109.223,5303.949,4845.7695,18554.906,35072.1640625
135,33674.793,22814.49,43766.332,-1218.124,-980.641,-12125.345,27888.904296875
136,6486.687,16530.367,12729.442,11701.326,-9769.252,-7141.6914,30450.556640625
137,26951.229,23876.08,43621.934,2171.7817,-5429.124,-9959.727,27180.845703125
138,30343.656,14554.521,35184.562,2204.8643,-1239.4574,-8866.061,24580.052734375
139,19224.299,24628.91,22999.04,840.03864,15841.671,-2649.1685,28268.43359375
140,13117.977,13992.17,14418.1,3287.0205,14245.764,-8693.258,29483.470703125
141,21459.357,27490.232,34992.3,491.01584,19062.598,734.70996,35076.875
142,7536.5713,12306.067,5882.6133,-7743.011,3059.731,2000.3174,15916.1728515625
143,6439.4966,17587.113,16065.367,-2635.335,13209.941,-5449.0293,27258.75390625
144,39060.938,47393.69,60075.504,-2376.2498,12414.885,6577.003,30741.443359375
145,20282.453,26453.72,33432.39,-979.1295,13915.585,-6274.0015,28840.06640625
146,34808.812,37706.19,47672.754,-2055.1616,14885.451,-3069.35,29021.8515625
147,-5755.585,-10934.958,-38581.152,1505.7341,-7453.784,7791.3247,35915.46484375
148,2672.191,9606.27,-23341.164,-6081.7554,-10198.6045,4422.8774,37240.2734375
149,22019.213,5681.382,-4572.9976,-7377.4165,5405.6826,6679.8086,30404.17578125
150,63867.598,53573.65,78507.48,-2761.051,24.34662,-9942.378,28114.37890625
151,24811.475,11329.368,35026.23,748.85974,667.2903,-11116.46,28241.283203125
152,-3214516.8,-3224970.8,-3213803.8,541.44934,-545.3224,748.5236,10986.3857421875
153,-1610975.1,-1622565.9,-1606889.6,-7380.3755,-480.83286,-293.00217,19046.044921875
154,37199.277,37212.53,39685.824,-7749.199,-10321.185,2675.6099,22964.267578125
155,31486.1,35186.305,42330.62,81.75365,-13483.34,-806.43115,25269.361328125
156,-493.1521,4563.503,5863.5728,979.05566,-13065.813,-2854.4238,23943.66796875
157,6770.316,31919.582,12158.278,8432.537,-5912.7144,-10949.8545,34697.4609375
158,-1073.7147,3457.6294,4179.2627,-569.28046,-14037.467,-3658.0078,25624.0234375
159,31593.38,37546.99,42253.9,1864.9315,-12214.89,385.38626,23326.244140625
160,42064.848,40056.773,46854.043,3620.0847,3536.004,18717.219,34123.50390625
161,28601.83,21649.895,32547.225,-4926.783,-4953.0186,18580.166,35684.84375
162,5199.997,6913.0273,4999.224,-2141.8997,12724.185,15440.799,34900.59375
163,-1201.2235,-12423.187,9644.331,2495.096,-3879.0684,16715.03,35598.6171875
164,-24497.525,-11424.996,-30121.46,2928.8462,6723.502,17595.27,36961.73828125
165,24493.941,22166.06,30655.188,-556.41644,-6933.068,-12339.895,25684.09375
166,-9073.391,-5381.379,-6557.37,3211.9907,-10670.271,-19070.24,38395.4296875
167,-6639.675,11583.852,-9657.623,2149.2605,8318.211,1293.2573,24953.07421875
168,8161.104,12411.197,24182.39,1063.1516,-5110.9087,18388.469,36094.53515625
169,-1230.3958,6221.9,19705.736,2090.6436,-8457.8545,17027.086,37885.609375
170,36776.92,32954.84,42908.19,319.08002,-1776.1213,20507.107,36701.88671875
171,18133.592,22076.2,28044.635,-633.99805,2578.8694,-18228.516,33055.8828125
172,-7741.4146,15567.606,5362.452,2733.0554,-2724.9722,-13294.95,31377.3125
173,-2902.9402,-23456.78,-22855.01,3649.0713,15681.498,-1958.2412,34635.72265625
174,-885.20337,15953.011,-23828.855,3035.008,1053.1285,9317.966,38570.73046875
175,7750.6494,850.76807,-1238.3665,5365.171,18232.229,-7973.298,36615.6484375
176,-23952.879,-31976.658,-31589.496,3411.2998,-2894.7908,-18927.652,34586.7421875
177,10420.917,-657.7425,5603.818,-5809.6123,3319.7102,-15422.745,30667.142578125
178,6728.5938,14675.506,-3136.4824,-4804.194,3930.3865,5347.313,20981.80078125
179,-1577.197,-436.553,-22128.91,-5371.665,-5324.9434,9143.777,29488.498046875
180,-43523.906,-59706.777,-39484.414,-17863.857,151.9737,367.43427,36074.921875
181,-30519.203,-10570.817,-34551.457,-3364.019,-11872.607,4898.154,31991.1875
182,-17967.336,-20076.477,-15014.439,-2590.3809,20028.256,-3387.6072,35739.9921875
183,28711.936,38310.918,22949.363,-1865.4823,16132.683,-5747.6836,32726.14453125
184,4303.9497,2300.2417,8784.781,-13168.694,-4110.895,2187.091,24866.904296875
185,-13014.73,-25817.773,-10960.721,-14808.921,945.8757,-2184.7004,29484.736328125
186,-1219.373,-2248.6472,1031.2317,-2089.4072,6057.0063,4621.58,13988.4580078125
187,29192.17,5101.5215,-1056.8905,6277.382,8442.12,-4143.0083,33914.06640625
188,-2.6307254,6829.3604,-11011.09,-487.4171,1036.721,-5113.4917,18040.30078125
189,17257.121,19162.326,17445.656,-392.24185,-123.21842,-252.11208,2000.98596191406
190,15647.168,-3107.7927,8406.611,4217.9077,3287.387,17556.092,35760.58984375
191,4042.585,-22701.402,-26809.564,9150.497,-9186.145,7009.108,38648.671875
192,6624.954,-15340.36,-11075.296,-4449.212,-104.566864,-16025.485,35168.87890625
193,5937.522,-5060.685,-26520.285,-8121.1035,-9450.977,9135.052,39161.9609375
194,6999.9707,-5393.991,21151.059,3383.1833,-4387.8804,-2242.1128,25227.5859375
195,17575.572,5690.436,6315.183,5989.592,9605.304,16238.776,36190.140625
196,18978.268,11595.97,8117.5635,-4366.6265,-1864.7191,-19918.63,36744.59765625
197,8818.788,-12945.666,-2408.2236,922.7298,8204.1455,2727.4907,24128.4765625
198,7847.082,-7594.006,-28569.645,-10208.541,-777.9009,-7430.9404,38502.03125
199,6954.1113,12235.348,38700.766,4367.415,-2652.945,2000.4135,30958.39453125
200,23667.898,-1754.7402,-7670.9995,-3005.123,-13562.91,3019.0159,37921.140625
201,21472.822,-3405.4978,22100.777,-12444.539,-11915.024,-4231.868,39738.85546875
202,-622.43555,-15419.197,-39834.28,2662.6306,-7773.6016,1278.8022,37199.0078125
203,7200.665,7130.034,8723.938,-4031.1265,-4202.6963,9350.267,19142.970703125
204,4133.7505,12129.36,6979.0996,-2104.0623,1636.503,-16355.969,29549.015625
205,16076.301,-1366.0869,8120.0684,2470.0002,-1101.4207,-5316.7944,18316.927734375
206,5495.229,-5894.455,-151.98949,6526.859,-18030.107,-5763.3486,36055.4921875
207,-10372.309,-5616.2734,-33045.125,-2112.0547,11617.922,9446.023,36476.04296875
208,-23169.574,-16116.821,-26838.705,2530.955,-20121.557,-4907.201,37351.9921875
209,-5728.835,-9421.073,-30499.508,-2513.2263,-11653.646,-8085.3726,34033.08203125
210,-11908.772,-7079.4385,-16653.973,7142.699,-16754.148,8682.704,35917.71875
211,39356.355,37321.22,24735.174,8250.779,-11417.085,-9801.105,32735.685546875
212,14833.765,-14012.519,6148.7715,-14100.323,8564.244,-2163.5444,38568.72265625
213,15999.725,17316.318,1649.2566,-7504.2026,-11289.949,1901.1685,28084.416015625
214,42815.195,48077.97,67496.625,-221.26094,-1600.4313,11293.583,29957.353515625
215,20269.244,25975.055,26540.049,-4272.3745,2860.6738,20116.713,36461.69921875
216,-22080.262,-24603.596,-45711.63,2482.3596,4091.3218,16498.154,37288.7265625
217,6659.2456,10328.091,10770.556,1173.4209,-12408.62,16950.879,36651.44921875
218,42183.29,28618.83,53218.562,4637.142,-1550.8824,15547.665,35388.89453125
219,19949.771,12811.956,27152.846,1086.8268,3062.7676,19534.068,36478.37109375
220,12805.691,11002.947,14756.481,-1298.5227,-11705.817,17314.553,36415.5234375
221,2511.4946,19066.879,-14623.894,-5931.686,1634.7539,11995.763,37371.80859375
222,17462.404,13609.435,12816.197,397.9012,10902.696,17964.246,36657.2578125
223,16234.954,19409.316,25765.488,2064.9536,8580.968,17213.742,34543.9453125
224,34333.13,19460.186,39050.27,5014.1255,1078.0597,16078.246,34176.81640625
225,-3318.5754,7854.4604,-23998.963,4680.7847,-8507.792,5023.136,33795.71484375
226,19121.717,12974.709,29506.766,2298.581,-6204.2217,17512.883,35509.19140625
227,25279.334,28006.658,49492.137,30.145458,3975.1519,15834.412,36431.5234375
228,-2332.6936,12656.487,-3132.063,11893.303,4084.7432,-9965.217,31774.5234375
229,21262.242,21044.994,36512.44,-2317.9607,1803.0164,16492.406,32829.84375
230,7613.9395,4732.821,3105.9229,3670.3337,2752.8135,13760.756,25433.40625
231,2679.6228,-15633.804,-5866.814,4060.8994,11551.381,-11375.932,33013.9375
232,20997.723,16082.125,18035.648,-2440.3057,16075.631,-12832.574,36132.31640625
233,11909.65,-2037.47,-9451.305,4825.2397,15297.961,6537.3765,35398.1953125
234,19475.84,11829.659,19757.95,-4942.456,19858.305,4595.3086,37153.62109375
235,10010.188,17681.166,19294.018,-3865.081,16232.963,10256.95,34996.8046875
236,-4302.0835,3729.5752,-920.0519,161.32253,15850.974,-2802.939,28743.51953125
237,7703.5903,4944.604,-14477.766,-13970.97,11147.208,-5373.4224,38514.83203125
238,8632.568,10712.025,14695.185,-956.27515,18653.236,-5670.1377,34227.140625
239,21069.31,24900.096,34177.367,2384.4375,18721.637,-2514.114,34982.8515625
240,16231.257,13663.292,-19861.691,-3621.2976,1523.323,-3054.0967,35929.03125
241,1964.9926,-18659.469,-30380.773,-6664.417,11069.091,2087.7405,36309.73046875
242,49563.492,47103.03,55766.59,-2136.6438,18400.922,-8600.398,36210.12109375
243,18607.967,19316.338,26441.848,1523.6583,20388.62,3603.8796,36733.3359375
244,7706.9995,12007.81,10071.83,-4001.795,20943.174,-2999.568,37480.7109375
245,24929.621,24201.094,34847.227,-925.9202,17738.691,9408.724,36307.61328125
246,9711.34,8781.974,-2342.2395,1065.5308,19327.209,1825.3185,35622.671875
247,19869.576,15992.886,2955.8394,-991.0123,19244.68,498.69467,36746.421875
248,11799.331,6701.5317,12969.532,-1343.2482,18453.717,-8404.283,35668.6171875
249,25551.365,22784.162,29173.605,-1094.3115,15035.71,-12538.478,34412.96484375
250,-5513.138,10377.517,-11887.07,4236.806,16999.277,-1802.5513,36399.87890625
251,42206.67,20932.73,29196.371,7023.6484,15086.594,-2244.4053,34510.73828125
252,12579.0205,1132.1699,-4292.1665,-1864.7499,8985.22,-652.5353,21827.900390625
253,6303.897,-11630.177,-5281.0244,-18857.06,-2076.2832,768.6924,36462.97265625
254,2027.064,7824.99,4120.2437,-1002.18384,1449.4011,-3272.3962,8203.802734375
255,-3433.7153,-3504.4712,-3106.4683,-124.949554,-571.67413,-791.85626,1744.60070800781
256,3662.4585,-6647.043,-19831.232,5502.646,-10881.334,-2934.1985,29797.7734375
257,16142.742,1701.243,-3388.6294,-1376.3984,-7493.455,4661.56,23394.412109375
258,-19156.096,9627.766,-27322.75,5544.802,-3620.6086,-407.96213,35529.32421875
259,-5765.594,-2521.2493,-9494.411,6225.5107,-3181.2317,-16591.91,31765.2890625
260,2408.9597,-3858.0164,-34267.57,8625.015,-4345.712,4509.9365,38670.90234375
261,24104.184,-4439.529,-730.8545,10102.995,3464.2334,2492.7878,32916.48046875
262,27394.027,23769.842,20560.625,8542.08,-10786.302,-14357.72,34948.98046875
263,17374.334,5978.4517,18618.762,-2023.9662,-4619.236,-5624.2617,17798.71875
264,-11286.491,6021.7676,-30327.418,2785.7566,-10573.293,-1770.8047,36875.0625
265,6095.9033,8797.788,25113.682,10003.5205,-14543.699,-7343.054,37604.8203125
266,-14942.3955,4580.59,-24585.266,6668.632,2311.4048,-7438.3984,31270.08984375
267,4190.4556,27279.756,618.66113,16872.74,2512.342,-3103.9563,39118.42578125
268,3745.0254,18778.812,-10740.257,-1815.0577,-307.56992,-9596.634,30660.3984375
269,-18552.29,4790.1367,-959.15515,8993.98,3240.5344,-16398.004,39045.90625
270,78370.13,46985.984,43464.56,-11777.825,3315.9597,4188.183,40120.35546875
271,295671.03,284294.12,278063.53,-6547.5625,3782.5542,-17723.494,36783.703125
272,-2357425.8,-2357582.5,-2358361.8,-33.66582,-181.17143,-1022.90784,1998.70935058594
273,-214138.62,-212575.72,-213413.56,-466.9663,-708.74146,-44.855625,2000.58471679688
274,-12801.784,-43113.293,-34394.36,6591.216,-7863.1978,-2756.5203,32697.71484375
275,4745.8164,-15797.216,-28572.533,-139.65247,2478.8926,5369.4497,30865.107421875
276,10032.03,-6768.762,-27525.336,6858.7915,1530.6595,-7185.935,36944.55078125
277,6242.1455,7716.051,-11856.362,3151.1897,-8651.807,-7580.656,27984.892578125
278,-8249.376,-14020.378,-13056.794,-2424.5657,1190.2158,2808.8057,8615.4326171875
279,14559.311,21691.48,-4090.4492,-194.50244,5029.778,622.70844,24675.23828125
280,8136.034,8425.302,-13422.779,-7575.432,6827.987,-1978.9803,28193.56640625
281,22025.01,5795.5,-3205.8506,-3500.596,3129.8713,8845.704,28131.81640625
282,327.66418,16810.945,-19618.043,3125.9397,3574.0154,8889.975,36097.515625
283,1130.2842,14307.611,-2990.8467,-894.3066,-1.2778741,3089.7559,16612.353515625
284,2798.3616,22266.367,23269.375,-106.11367,8532.013,6451.18,27254.513671875
285,-24422.928,-19017.744,-45996.4,-2806.095,-15817.133,-1660.3474,37331.984375
286,6777.1294,-20127.418,-2110.0867,1102.7198,8567.367,145.34245,28064.94921875
287,-12156.974,-10647.664,-24235.488,-4823.6484,-10959.694,16441.16,37516.4140625
288,8101.4033,5281.2695,6362.2837,3497.4534,3040.189,-5662.8447,12911.2880859375
289,-16292.721,6982.1216,20598.742,4454.201,-5399.3267,3961.7139,35186.91015625
290,16926.705,18004.594,-2043.4935,12394.677,11312.347,1145.1825,35074.26171875
291,-323.15723,-10397.35,-27952.889,-3339.0945,1588.266,-1616.3252,25207.103515625
292,8201.74,6082.1865,5409.834,-2559.5752,20187.094,-2692.8843,35641.76171875
293,-8796.413,-52.209305,-5428.23,-4681.3467,18385.646,-5951.3564,35276.7734375
294,28000.076,20657.62,23406.229,-5744.6006,19699.4,3944.1301,36758.046875
295,4366.3945,-24713.322,-39624.125,1712.4377,4347.396,-465.32593,39594.3203125
296,-25257.594,-23605.627,-29858.854,-11504.274,-9328.926,10211.451,31661.560546875
297,-8907.762,15714.523,-8275.513,-9327.426,-3166.5854,14759.921,39188.51171875
298,53055.668,40930.45,61018.188,6744.4663,-5639.9175,15248.389,35162.47265625
299,18599.975,14968.813,17290.562,527.45685,-1381.0172,20843.629,36332.796875
300,16174.215,3239.0303,10502.479,-308.03018,-6665.83,-1626.5355,16359.8291015625
301,27365.805,7653.5596,-7298.126,-3842.3486,-1267.1322,-7958.8364,33852.53125
302,34841.49,9127.13,34594.715,-2256.273,-5828.93,4796.0576,29002.61328125
303,1779.8242,22709.39,38053.12,1981.295,-520.42377,-5640.5654,33206.1953125
304,-102959.484,-119773.11,-101468.46,14323.585,-4329.0283,12908.08,38491.07421875
305,-1099974.9,-1100616.4,-1100119.6,5668.3237,-8535.965,-16178.337,33174.28515625
306,-22618.844,-4786.6025,-20819.152,8081.035,774.3416,-10997.79,29149.572265625
307,31533.322,20671.906,31181.453,-5286.6606,-1351.3867,18234.2,34656.24609375
308,10475.206,29619.455,4768.5547,-1059.9799,-3454.7778,-15318.469,35376.0
309,-10865.969,12839.831,6807.348,-7434.6753,-6412.743,6007.3135,29202.865234375
310,17575.56,-11435.542,5363.1763,9268.722,-10346.9795,10448.163,39279.66015625
311,554.8393,1578.303,-3338.6992,-3466.7349,-355.69324,-3529.859,9695.6708984375
312,13915.689,4045.9006,17656.082,-9184.466,-4709.05,12326.445,30392.970703125
313,4697.176,6008.7466,4409.3774,-758.6326,96.4364,-151.26576,2000.90673828125
314,5758.442,3381.6973,2322.431,-694.79083,820.0361,377.66083,3630.70654296875
315,14377.0205,-19672.61,-22848.744,-357.3424,-576.997,7306.2085,37935.9375
316,4887.6655,-1852.7977,-32578.896,10.764763,-4400.1455,-5569.625,36712.14453125
317,-7872.9062,-10960.737,-18617.322,-2861.033,-18990.215,-5297.891,35811.234375
318,19198.867,-1516.3223,18058.117,4055.5457,-5574.5884,9417.667,28555.86328125
319,-8391.813,-10218.462,-15625.276,5791.8037,191.57748,17849.213,33150.7890625
320,16258.043,5595.369,2775.5278,-855.52576,13215.509,-17053.828,39374.55078125
321,6948.6895,12753.7295,-13575.813,-6735.458,-13602.813,-1623.9269,35682.203125
322,-14628.576,-22310.34,-37551.97,6172.191,-7458.1147,581.2367,26278.71875
323,-14620.161,-16952.162,877.28845,2714.2773,-3086.4048,12235.619,27956.392578125
324,-8020.656,-7876.4917,-515.37006,-5635.744,-11527.984,16067.407,36382.9765625
325,4549.3066,7419.669,4530.353,4228.845,16681.207,12324.308,36774.94921875
326,-8496.682,4305.391,-13517.963,-3103.9575,7579.471,417.4483,21334.498046875
327,-34229.684,-30119.639,-43115.996,-383.40308,16917.834,3447.7607,32048.76953125
328,18389.035,15120.125,12630.044,3306.4622,16170.3125,12821.454,36543.5390625
329,20477.85,24850.764,-14179.019,-6618.289,-1713.4725,-1494.6857,38970.34375
330,7382.173,11111.019,23350.377,-5526.117,16940.139,7058.3066,36212.19140625
331,-15925.085,-16545.951,-42623.305,3379.7751,11333.181,-8753.306,36688.65234375
332,14738.565,12502.8125,6834.6914,-1909.1603,17942.049,-10650.298,36969.87109375
333,3892.836,13425.413,4562.7544,-3669.414,8248.736,7648.897,22471.501953125
334,-4259.648,-15068.067,-25989.26,-10286.317,10203.61,-8329.96,34526.3046875
335,7101.558,11063.9,-11648.428,6340.435,-7617.4043,-10583.461,32745.423828125
336,-27331.998,-27598.617,-27249.973,-4941.1313,-1930.3923,-19760.436,35439.3515625
337,15571.006,17134.816,-3795.3086,1914.6086,-11572.922,-11813.559,35203.125
338,31424.295,32573.086,33187.61,-232.26797,-113.06638,681.1882,1998.89172363281
339,24538.955,23549.422,40262.277,2982.4854,7896.8545,16150.451,35497.0234375
340,-20542.09,5880.9434,-15412.441,-644.19635,-14040.993,7750.172,36903.08984375
341,1472.3102,-6926.793,2118.7383,1738.1403,2152.6487,-86.191055,9968.9306640625
342,-10222.96,586.75525,-19010.578,9848.299,1109.3728,4252.3433,25258.072265625
343,6359.113,7441.3105,8194.964,3209.0715,10493.53,15511.783,32949.01953125
344,-3269.376,-1997.4526,20522.668,-1191.1339,-5083.6187,-13.874217,24883.810546875
345,14610.427,3803.741,-6169.9766,-482.1692,-2503.2356,-14114.881,30679.439453125
346,19036.709,6488.925,9808.769,1327.5198,16906.863,7760.329,34209.54296875
347,-11372.942,1396.3556,-29929.875,2993.2432,-4592.204,9365.847,33131.171875
348,-6513.336,-7797.427,-7193.664,7862.275,-3752.803,3048.3733,16025.3720703125
349,-662657.44,-664046.8,-663017.3,-9.807065,-159.9752,-888.259,2000.98693847656
350,-25001.26,-20437.182,-15886.311,-18631.045,-10295.555,-3566.0833,38207.40234375
351,5464.6006,878.0722,-9004.193,-1114.7653,12464.084,8958.294,29572.99609375
352,-3641.2407,16487.75,20975.963,3465.5754,-11285.168,-5904.3076,32223.310546875
353,-5622.3657,-5846.0957,-5839.368,-9116.064,9815.625,2265.443,23532.798828125
354,-4107.0073,1274.8558,825.6239,-3059.5981,-3856.5632,-4455.4263,12609.666015625
355,-2620258.5,-2621064.2,-2620368.8,166.65022,-40.268684,-1055.668,2001.00988769531
356,-82931.93,-86903.04,-75206.04,-1322.5789,1798.027,-1182.5756,11192.91015625
357,-184065.25,-165888.25,-159852.0,-16435.086,4737.365,3182.8777,37210.44140625
358,-23756.957,-6208.877,12335.739,5424.2793,1181.3262,4560.309,33646.76171875
359,-15760.613,-6581.258,4671.6406,-18663.564,1723.7488,9022.839,40153.671875
360,-5114.036,746.9507,-1546.3833,1856.94,-254.89293,73.32338,6060.12109375
361,-447.2665,455.18622,1078.6517,721.66034,-277.50308,-94.59657,1893.68127441406
362,17066.752,-365.73975,2895.9697,-797.4207,3223.8242,10326.481,24711.66015625
363,-1461.9497,-1102.1545,-3767.4204,-760.87146,103.47858,-335.31427,2894.8837890625
364,5397.288,1708.477,17748.242,-2114.5361,-4528.204,-4097.2173,18357.640625
365,-6788.6895,15187.063,4621.5435,-3092.2815,23.239586,-3137.939,20508.703125
366,1356.9751,4987.48,6724.0254,2472.3228,-2812.6394,-826.2924,8162.0419921875
367,5868.1284,1823.6133,4151.7046,-2576.5925,-467.47882,-1858.6595,6580.1259765625
368,11732.339,4607.4106,5471.05,430.50903,-202.87587,-533.7502,6847.7197265625
369,5875.227,703.6633,2727.9946,-539.9567,1846.3113,-315.51035,5636.83642578125
370,-1394.3317,-3147.093,-3043.7048,831.96265,-1855.2731,-3792.84,7645.98974609375
371,4524.3535,-3100.5203,-866.6717,2209.4258,1054.6077,-624.0772,8077.478515625
372,-2018.7703,-2177.277,-1498.699,1357.2177,1624.3116,801.48364,3968.17895507813
373,-392.82812,140.40807,283.4959,466.3024,-333.74826,239.9195,1241.07861328125
374,-1180.3344,-758.4855,-66.05536,312.2685,161.83089,-18.15427,1149.61206054688
375,-3.8839264,-1085.441,1492.044,-99.41554,65.27678,83.96404,2255.89916992188
376,-9867.154,-8230.253,-7809.555,3448.6692,11619.502,4519.913,22484.4921875
377,2250.2524,-7788.626,-15430.131,5891.389,-2407.3176,-2720.6057,19483.322265625
378,-315.45215,5189.902,8649.125,1814.5625,101.09595,2430.7283,9431.505859375
379,766.6796,1444.0781,1803.5668,1526.7344,-179.59462,-278.15762,2855.38940429688
380,-703.7202,11179.625,-3605.276,-1871.3728,349.3178,-5446.0005,16851.173828125
381,14945.027,10601.673,12751.193,-3522.7922,-6710.939,2989.7734,14604.984375
382,16369.003,1711.3115,8209.876,-1988.7572,-2056.5522,-355.14206,13665.919921875
383,8448.684,-4459.8535,-7703.8193,1157.6453,1859.3392,1249.2753,15430.568359375
384,8299.152,-4797.0967,-5943.423,-2386.289,-1950.0903,-1639.0294,14979.6298828125
385,-5345.0693,-1911.1224,673.3845,3039.6628,182.6348,226.70724,7437.716796875
386,-1040.815,779.84656,-81.374916,243.8052,-14.722539,165.08067,1658.0849609375
387,-4691.732,-923.63477,-1125.5487,5074.2085,-10.395608,-689.59125,9599.3857421875
388,-9777.704,3933.1758,-4933.5693,-4771.998,1080.1174,-217.58064,14730.73046875
389,-9241.468,-1136.2751,2542.6987,-12114.34,907.6379,-1821.8947,23701.240234375
390,4381.7573,-3492.8164,2207.324,-5006.1343,-1337.1654,57.33737,11409.310546875
391,1573.1744,-2477.878,-3513.7246,-567.6931,218.11276,-192.49582,4785.4970703125
392,-132.07346,43.48582,224.2608,-640.7841,-280.92093,-4.7284327,1250.54663085938
393,4219.351,2806.7866,3661.145,-2809.8555,-674.5478,-2369.653,6589.013671875
394,6099.208,-1435.6787,-3194.2126,-366.8548,596.80096,587.9862,8696.3642578125
395,4658.155,1814.5022,1125.4198,1020.7345,-1285.7878,1242.0367,4820.17822265625
396,-6122.208,12553.276,910.88586,765.6974,-550.70026,522.0977,16443.1796875
397,-7998.666,3438.4575,-3023.6123,5110.4834,-450.38248,671.07733,13377.94140625
398,-11811.676,-3308.3916,-3262.056,5141.811,-580.7517,2009.2504,12850.669921875
399,11199.105,670.3009,-8853.172,-748.2142,4249.175,-6578.615,22079.482421875
400,16385.299,1341.4573,-4401.3574,-1090.9637,-103.98619,-4025.7976,19947.814453125
401,5324.1157,835.3531,-2062.5435,-5719.2827,2909.106,-2625.399,13629.09375
402,5240.044,-1350.4656,-19419.412,3114.047,4175.59,-3140.6409,24494.787109375
403,-5716.779,9111.116,-4390.4624,11412.073,2006.7871,1655.1117,24758.1328125
404,12686.763,16955.65,22654.518,7574.6343,-764.57935,2874.7441,16543.873046875
405,3277.8477,47.045166,548.15686,1750.0157,689.2011,293.73184,4465.61279296875
406,4650.3066,-2022.4382,-3775.6028,2458.7234,778.6825,299.16196,8917.4560546875
407,890.33215,955.39014,-3908.0244,682.9474,-275.30844,-149.09782,5003.39453125
408,4559.607,839.7871,-1925.1296,463.10342,614.56415,2146.2395,6882.0283203125
409,4974.6987,-1923.221,577.31793,-62.628315,-841.96124,749.2715,6356.7412109375
410,6228.887,4245.163,2783.5732,-3700.0166,-247.4137,1309.8081,7441.20947265625
411,4729.268,-537.07007,3466.0186,-733.4795,610.8964,194.88667,5052.21923828125
412,-231.5221,-1946.6127,-37.58087,4939.0093,-595.8374,2051.8113,9496.740234375
413,7024.8,1328.7749,9042.363,-8514.605,605.7415,2016.7303,16697.4609375
414,11410.955,-63.538086,8470.453,4486.8633,255.43538,-144.43086,12931.5087890625
415,6000.815,12324.142,-8521.002,-537.27203,-4663.366,-4466.991,21648.62109375
416,1027.0587,379.96432,-154.9802,2354.3389,-1762.7745,2452.3162,6711.44384765625
417,-503.6648,-5405.3506,-461.51,35.52948,1526.9226,341.9087,5619.95556640625
418,6429.478,-3132.109,4642.167,4604.6377,728.009,-685.5015,12005.6943359375
419,-498.0537,-8323.578,2966.4536,6995.4004,-1749.7463,1540.6392,16231.625
420,12939.841,15510.77,7928.4253,-3687.269,620.8059,-1662.4257,9738.736328125
421,203.69092,2254.5415,2889.3586,-2438.4128,-492.24905,-1000.6326,5242.0595703125
422,873.5205,12561.439,14777.716,5959.3315,-9930.537,-1268.1298,23971.546875
423,13053.547,2348.4692,-9343.249,3068.7896,5023.0444,8037.635,25965.587890625
424,-5636.797,2203.474,1628.0317,-2449.3335,140.94061,-642.78033,8751.3515625
425,8494.746,2632.9668,26683.416,5882.958,-554.9364,2388.4336,24365.375
426,-11049.9795,4904.4165,7808.087,-3111.6626,-8645.812,-1050.5475,23788.837890625
427,-6962.035,9415.884,3631.1685,3462.9092,-38.84847,-1115.1787,15705.6728515625
428,-8176.99,2491.9438,-187.3241,834.75165,-432.71115,-10.402885,9750.49609375
429,-1593.7665,1900.2919,2231.2896,-3085.9678,-65.132034,70.505875,6486.27490234375
430,-10152.049,-6360.1826,-2167.875,5680.974,1316.5303,-1214.0214,12421.435546875
431,-8559.747,9169.36,50.535904,1075.4265,167.04518,-723.02765,15521.8310546875
432,-2985.1665,-10107.785,-15145.203,-2882.6604,811.7049,-1143.66,11950.5869140625
433,-21417.986,-1993.63,-9439.321,327.15378,6017.2305,245.06206,19930.845703125
434,8523.794,-777.80945,-2049.9253,2100.8647,-1963.322,-340.2354,11185.8349609375
435,-1701.8796,-3806.914,-7493.681,1320.0488,-1322.9122,-879.97876,6211.6953125
436,8710.473,2953.4644,-4750.466,-2830.0981,1852.2697,2153.3093,13604.28515625
437,3947.8862,656.57214,2526.0193,4070.202,1284.29,640.6761,8003.36669921875
438,6754.152,173.22429,-6871.575,-1667.8054,-24.094019,1096.1512,12298.3837890625
439,8816.675,4860.896,2718.3975,-9180.788,1621.8668,8430.012,22420.103515625
440,-1676.9734,-850.02985,2699.3635,3069.1216,109.755486,-426.20712,6712.43603515625
441,6929.977,773.25793,54.994705,-2655.8809,-406.35767,381.13577,8058.2578125
442,-328.57584,-1173.8727,-24.37353,-249.53403,-96.1174,22.233543,1131.46252441406
443,804.786,-2834.7483,186.66867,5427.321,-400.19455,-696.67413,10083.7783203125
444,3689.3027,2593.4756,3838.3105,-4551.381,1507.7117,6480.544,14012.2607421875
445,-1052.6873,-1368.8702,-1854.0692,-2844.127,139.48996,-241.61763,4998.9482421875
446,-6291.548,-331.58264,-3210.493,-2601.9363,77.20072,-650.8308,6946.2177734375
447,-1190.4288,-1527.0638,1221.4794,-3201.4568,-182.75398,-117.41823,6134.5
448,-6625.281,14633.513,6085.6294,2557.495,-8770.834,-6518.55,26854.50390625
449,-3072.3564,625.6015,17.135895,-2771.507,457.1441,619.8404,6051.3095703125
450,390.93298,-339.99762,3081.065,2115.2998,-1595.4761,-1307.6577,5993.94580078125
451,245.88306,-2995.2234,-1143.5662,6334.116,1337.7761,57.475277,11561.7431640625
452,-4070.5051,-2536.491,2765.7056,4962.8174,-1304.9336,-343.24622,10860.515625
453,-12185.961,82.46863,-11353.253,-2443.056,5335.073,1391.6771,15814.443359375
454,-1140.5508,3764.3328,-1594.7131,-3128.5437,236.49203,222.22072,7494.73486328125
455,-3447.8088,1078.2472,-2922.5818,-1078.662,591.2922,311.57507,4818.1416015625
456,-5326.433,2536.0466,2589.5015,3248.054,537.7688,865.95795,9849.291015625
457,-2743.1245,5920.889,7199.777,-3177.7134,-1655.2411,235.3941,11245.4560546875
458,-7411.9414,-4877.658,-11182.108,1178.6439,6102.4077,-54.115353,12086.6015625
459,12115.0625,816.11957,6529.5527,-2899.0852,5158.446,2635.8645,14887.572265625
460,4028.622,1144.117,2413.7378,3244.44,-1914.8036,-297.68417,7008.17529296875
461,1656.0436,66.705925,2110.973,149.80687,-361.9425,354.18985,2071.87744140625
462,675.6206,-4240.7837,-975.0511,3932.6655,-59.358055,-2.2689342,8073.94189453125
463,2579.6873,-1790.9052,-2188.461,-1289.0986,-245.82901,422.2135,5167.11669921875
464,2073.2595,-2957.2625,-4283.0625,-612.4959,-456.4931,138.62799,5961.68017578125
465,6301.442,-373.97696,-4444.2,1160.0658,-1515.03,-595.8424,10014.3232421875
466,-2642.6028,5394.2354,3715.0376,-183.79208,-836.1341,-169.56442,7496.6650390625
467,-6888.492,1977.5044,-805.86707,-274.44513,-11.388105,407.6065,7899.396484375
468,758.19006,848.24927,1097.3729,69.49152,-2896.2769,-829.2502,5228.3193359375
469,-2884.317,2786.811,-150.09625,213.89221,1241.3705,1096.6234,5700.8369140625
470,-9068.892,2249.4138,-3515.7375,-7059.3228,-5746.0933,4250.563,19971.12890625
471,-1573.0171,-748.5713,66.66546,-3045.78,179.10059,28.987644,5472.25
472,-5040.139,-3649.476,1225.7246,2208.904,-627.4138,-452.09824,6993.7958984375
473,-6415.109,-2646.7156,-2451.5193,3605.579,-117.15908,-697.13727,7448.103515625
474,-2984.4968,753.05334,-1815.1641,4229.0366,-1592.5342,-384.74332,8524.8466796875
475,-1377.2509,-2949.4202,-5113.612,-5128.066,-1005.57275,-5115.0996,13075.75390625
476,-18247.018,-5258.625,-2172.6382,792.80536,1902.7488,145.24219,15202.431640625
477,-818.827,970.1882,-1278.7473,-2659.4011,-482.5336,539.9778,5198.59521484375
478,490.88016,-5188.255,2991.7024,-5054.1914,2122.3691,-898.3666,12053.1435546875
479,1938.3567,61.549427,-2234.7224,-2590.4675,-452.1997,1013.21893,6076.98828125
480,-1674.6827,1292.1937,-856.2772,622.23126,404.3103,75.30986,2951.7734375
481,617.04517,2538.4355,593.641,-297.82993,-172.17404,149.81206,2039.5166015625
482,2778.0242,-1245.4434,-315.3226,-1229.1705,20.06714,-279.6672,4252.00390625
483,1861.751,-7163.578,-3570.015,590.5236,-409.19507,-138.47163,7971.3974609375
484,-960.22894,-2454.035,-140.43594,4088.285,163.20686,569.1962,7437.89013671875
485,-4949.358,-1811.9221,720.6904,3157.005,-305.65997,-111.28325,7377.06005859375
486,3516.748,955.0977,5716.9497,1213.1136,250.13643,808.36566,4858.1982421875
487,-1386.5205,-1951.299,681.4753,2016.9641,832.6415,-89.98378,4480.19384765625
488,-8335.541,667.8452,3341.299,109.736855,-153.42111,-2670.3853,11566.2470703125
489,-1617.017,-239.9059,-166.60562,-1609.69,41.50495,140.29593,3136.9208984375
490,-3365.0432,1276.2803,1382.9786,-1976.8972,168.5328,17.99756,5818.85205078125
491,-4557.99,-823.9969,-41.59321,1180.9048,-303.94385,252.68051,4704.10986328125
492,-6845.852,-1324.418,-2576.5498,1486.8032,-722.28296,765.6759,5924.197265625
493,-53.39158,1145.2362,-4559.8706,4673.825,198.6163,1978.1925,10224.4150390625
494,1284.1993,-2914.905,498.83115,2364.769,924.3931,-123.53189,5859.78857421875
495,-1383.5192,-3261.0454,-2473.9866,3400.076,13.95061,160.92856,6117.734375
496,4556.14,-2754.2332,1667.4882,1329.1312,769.7669,1115.0188,7174.67333984375
497,-5884.65,-1948.772,-3391.178,-816.0302,1219.354,754.51227,4478.9052734375
498,-2853.8083,-540.95544,630.6106,478.17627,-233.24225,247.41109,3234.859375
499,1189.7509,-6591.2617,2016.8662,305.03897,-43.932957,261.06085,8255.51171875
500,2781.043,-800.4344,-2368.3396,-2948.0806,721.8167,1356.0963,7352.16357421875
501,239.77179,-4306.0376,1096.3899,123.220695,-240.0563,288.95587,5075.541015625
502,-7018.5796,-319.82724,377.61313,3099.1582,-921.8838,368.71384,9044.5283203125
503,-4097.141,790.9263,435.25842,1143.5707,-106.17915,59.711185,5123.373046875
504,-3631.8157,-1754.5316,-4284.4272,-49.206867,-1650.9045,1278.808,4273.7578125
505,-4133.3604,1998.6383,3183.6902,863.93616,-17.340052,-1119.2489,7229.8486328125
506,860.3445,-1563.3452,378.17953,-1941.2097,588.3677,40.698017,4157.7060546875
507,4169.9434,-1345.0239,-3606.5872,-4423.428,-1143.3427,-2961.2659,11701.7568359375
508,9866.502,1943.0834,-1504.1528,327.66226,-2247.2656,-3642.4985,12540.095703125
509,-683.558,-4520.413,-1889.4915,1186.262,494.54282,-330.47394,4102.65185546875
510,769.6087,-1746.5986,-224.35738,123.24239,167.03345,-217.95998,2256.109375
511,2264.658,-2715.5964,-425.6767,-524.34985,-191.9082,617.3314,4552.0205078125
512,-319.92383,-364.33682,1298.6713,1626.8165,-309.564,119.17265,3311.1025390625
513,-1922.5804,1452.7175,-377.06567,219.18446,22.551355,-161.7763,2964.5986328125
514,-4002.507,-1106.9108,1105.0054,3935.6353,-1252.784,44.09471,8418.0625
515,-169.76416,2009.0208,327.18674,37.087196,383.10736,238.1015,2127.40014648438
516,3698.0244,-1224.3207,-6797.651,-5895.5986,-5993.837,-8648.104,22784.796875
517,1670.6951,-4298.313,5502.738,-1685.1664,331.63538,1297.1283,9331.8828125
518,2831.6008,-183.24461,5758.277,-2165.5254,-351.8244,-1238.9623,6747.0830078125
519,-882.7606,-64.06391,-501.2322,279.67883,1310.4075,-1402.6287,3433.90991210938
520,-6141.386,-4564.692,-635.39624,-50.597878,-2983.773,-1726.7573,7731.88720703125
521,-6538.6406,-3447.4038,-216.91829,-4332.083,1331.5876,2837.414,10758.76171875
522,-4111.9023,1736.2401,-810.7601,-1191.1053,-75.12602,-317.82083,5510.80029296875
523,-213.13881,-640.57776,-1793.9917,-132.51007,-206.03294,147.72568,1500.52526855469
524,-633.6116,736.28375,-1122.9691,30.04877,-159.63495,-157.11745,1714.54626464844
525,-2304.889,1386.8634,-2194.0415,-1390.1001,-549.3899,2284.0825,5965.38525390625
526,-6091.193,-1530.4232,-1191.6571,530.7219,-1035.6985,99.24165,5152.9580078125
527,-3870.3774,-2278.5044,-454.06693,-615.7458,296.95276,-130.17668,3196.82861328125
528,-2582.5964,-955.1783,-421.79694,3665.7415,-1077.7073,434.55243,6940.09130859375
529,423.3256,-2249.546,-1047.8763,2448.7346,-198.06972,-196.34729,4857.8388671875
530,-5442.902,4729.974,6931.9194,1420.0591,871.26874,-1171.4711,11965.791015625
531,-1461.558,717.99384,-613.7971,3343.78,557.7779,803.777,6327.36279296875
532,-5532.3047,-1965.0804,-417.3236,4213.4873,886.45337,-318.81656,8750.1201171875
533,709.03326,-5248.194,3295.4229,2556.252,63.62739,-86.66671,8787.6982421875
534,-924.5988,-5919.7495,-1255.7373,1647.6792,-486.57776,-59.81195,5680.90185546875
535,-603.93146,-466.9937,1601.797,855.49927,-24.79042,321.79477,2662.72021484375
536,89.30574,-1253.9604,341.31598,202.01578,-630.7107,-32.786865,1877.61401367188
537,-1706.2485,1546.4812,-603.1389,125.09684,-52.038513,111.69627,2881.2294921875
538,1177.248,-5494.252,-3166.71,-193.3736,-409.48602,-335.7212,5945.71337890625
539,-435.7508,-443.95578,1676.6293,903.0286,-540.83356,144.582,2804.6650390625
540,-440.63995,-471.18268,540.0841,634.3488,234.53156,280.70465,1612.85534667969
541,-51.21337,2216.5037,-792.57184,-446.5248,-79.6016,-134.65762,2836.35400390625
542,-6052.344,-2592.247,-1303.5818,3253.3235,1596.3163,19.88785,7582.21875
543,-677.96704,-2400.0056,-962.4049,1404.2782,-210.11829,-896.89233,3319.36694335938
544,2315.8872,697.12024,-427.82977,40.868023,174.55586,-558.73773,2596.13842773438
545,-4945.1826,857.31067,616.348,-2277.41,91.36782,-74.35,6923.16552734375
546,1333.1514,282.7389,51.49772,-358.34286,167.37244,-123.68598,1383.79968261719
547,2531.605,-1085.494,-1193.7294,-1061.5673,540.91547,-327.2641,4250.46630859375
548,1147.031,-1214.8595,-552.22894,-1190.9681,586.6934,107.07644,3126.46508789063
549,-1461.3782,2528.2002,2889.0544,1732.3354,311.09872,-132.02396,5179.98095703125
550,1150.2787,497.35715,-216.50371,-47.472893,279.49088,-165.50737,1313.50048828125
551,1438.2638,463.40643,-460.11203,104.1408,273.06763,29.600195,1721.16076660156
552,-2303.7278,-63.877407,1739.8606,-2372.9104,1780.1705,-467.27505,6274.12744140625
553,195.96744,-190.57733,-405.9363,-1391.5646,52.85659,482.10196,2606.53930664063
554,-1543.2212,-5885.7583,-155.76868,-2818.067,170.67464,77.86417,7123.046875
555,-866.21265,-655.887,4576.702,-147.73083,58.78062,1040.8505,5643.64453125
556,348.23993,-270.05637,1127.2156,-350.44855,-81.833176,-23.701984,1364.16613769531
557,-680.2938,248.0917,1644.8965,-1196.04,10.839686,-241.83592,2928.66479492188
558,-2041.3773,-7.3401146,-284.4158,1680.3372,-248.76126,-141.74748,3516.67724609375
559,-722.4123,-883.65845,-942.13043,1664.8772,-237.53842,-166.42229,2933.71069335938
560,-2020.6687,-3410.4463,1309.4805,653.65076,-39.712185,112.58591,4355.9248046875
561,-2165.0173,-5645.2705,552.6623,1272.1019,249.33507,-199.70915,5840.9794921875
562,-5133.3394,2090.8967,2660.559,-3697.9631,-595.7388,705.3456,10010.5703125
563,769.59155,-1681.1469,2791.2368,-1975.6904,-602.441,1271.4374,5718.060546875
564,2364.7776,-327.61835,743.9635,-136.74168,111.37641,-272.87982,2414.30322265625
565,-441.9591,194.97945,-485.74933,91.69855,-436.52542,300.71616,1141.78796386719
566,1627.0508,-66.23376,60.341377,-9.99293,88.78052,-114.31977,1652.89404296875
567,411.19388,-1498.4249,-97.65321,353.63733,-57.86668,-89.60815,1828.43591308594
568,-994.0488,-779.42694,-703.0608,-1318.6105,190.77763,-34.908157,2323.21533203125
569,-2121.8423,870.9544,-838.40643,-1047.7762,-132.36584,-901.6861,3542.337890625
570,-176.46999,1872.8666,2267.562,-163.16933,486.00174,355.97168,2516.5537109375
571,380.24106,1948.2333,-505.78625,-721.98364,440.22495,-80.14575,2607.17724609375
572,-816.7336,-986.94293,-4774.44,-4789.7393,38.211334,-336.23254,9175.353515625
573,-1447.4922,-3424.3572,-6746.2817,171.65681,-655.0985,-1661.8523,5583.1259765625
574,-4073.802,-1024.5554,1187.148,4736.669,666.04315,1918.7743,10030.83203125
575,-2152.4148,-2007.411,-1359.8364,4785.768,-1429.4357,-728.9789,8773.203125
576,2602.8716,449.02356,2921.6392,2920.1199,547.72253,-451.01733,5702.52587890625
577,-2332.4744,-2020.9847,-1976.5295,-5253.309,3343.5244,-2534.457,11649.5712890625
578,4122.3745,1008.0926,3843.9373,154.44801,-122.88748,-57.451954,3005.98022460938
579,5550.0767,419.19266,4073.1792,-968.26624,1101.3755,-1805.3531,6095.81884765625
