Element Label,S11,S22,S33,S12,S13,S23,Mises
1,316.10745,1207.1323,-284.96765,848.5321,-198.53241,-24.510614,1992.70104980469
2,1912.0283,1625.855,200.65186,-68.43733,215.17882,24.560757,1635.76306152344
3,1725.9845,2357.2385,-349.15823,-226.91248,-142.9363,-40.46689,2497.06103515625
4,2109.3992,2394.0881,455.9638,-71.0893,58.549892,21.817732,1820.02307128906
5,2039.0411,1254.0334,-488.391,210.59306,33.97061,111.036255,2278.94580078125
6,1178.7153,2372.0134,405.78635,294.03473,-24.312853,-143.80853,1807.45666503906
7,604.7961,1715.383,-338.37128,468.56192,81.70241,79.42069,1966.73266601563
8,2072.4414,2015.5565,260.2056,103.44955,-210.09018,-30.352945,1830.74548339844
9,1701.4089,1939.9149,-289.95795,-87.21492,193.1226,70.84477,2155.7236328125
10,2282.0945,2599.5598,155.91429,-60.31243,-161.85439,-192.25633,2344.52685546875
11,1007.76526,2218.8362,-206.57172,-28.05284,-25.669785,151.8432,2117.89086914063
12,1330.522,2518.4666,167.24341,225.70078,-4.592199,-30.26119,2074.11962890625
13,1306.5543,1966.3527,-199.31415,124.943726,34.758957,106.80008,1944.53576660156
14,2314.6104,2282.9302,214.2932,49.808903,-92.0406,-64.09663,2095.46655273438
15,2057.0579,2033.1913,-16.073229,-106.647934,-0.060080677,164.78793,2089.15063476563
16,-835.41156,3580.1016,270.5283,-1029.5896,-80.27338,251.01335,4384.64208984375
17,2757.6753,2477.507,-183.34009,1548.8982,549.1728,103.931175,4004.81225585938
18,733.0879,2947.6682,-486.105,338.17725,15.271618,-157.58405,3083.68090820313
19,653.1366,1328.9214,-26.359154,-641.9377,337.0778,-312.30368,1802.029296875
20,1192.745,3727.4824,3631.8098,-907.1755,-342.92838,339.61694,3059.29125976563
21,1983.6974,2329.156,278.9288,-118.56709,-155.1174,36.93834,1932.0859375
22,-4815.7637,-5802.9067,3178.291,-4813.419,7164.44,3211.5974,18088.900390625
23,-1027.6234,-2682.523,-886.3545,2454.6133,508.15274,-168.92604,4682.74267578125
24,2140.971,-493.79483,3551.1028,3530.133,148.80847,207.53638,7087.10009765625
25,-575.8211,399.64954,-1297.8433,2569.2048,-570.07355,-485.76443,4864.40771484375
26,3525.8403,2941.0845,-891.9677,1128.0911,36.535152,-213.10178,4607.9970703125
27,1700.6213,437.4585,-184.64046,887.2414,399.04373,327.09802,2434.88793945313
28,53.58999,2702.7253,872.9722,-542.181,-200.2301,-138.37346,2564.80981445313
29,2029.6229,4100.516,641.13885,596.33685,1.6391134,-222.08145,3210.40649414063
30,3945.5955,2403.1145,342.1287,778.9997,80.92643,-41.446903,3413.39477539063
31,317.09882,2023.7253,-1530.7549,-185.47353,409.28012,390.095,3246.99682617188
32,335.47928,2164.8604,-1163.1487,-278.53555,-59.111977,-215.46808,2952.38720703125
33,1441.3818,1875.9944,619.03455,-475.1005,251.04501,305.1324,1538.86169433594
34,3236.6465,3314.661,2747.3396,135.47281,137.0466,-92.818695,648.791442871094
35,1579.1974,1757.9706,388.83112,-860.11945,96.006134,-117.73485,1987.55871582031
36,1048.6055,3202.9731,-778.0264,-583.21216,-201.89903,708.17236,3815.80200195313
37,1980.1176,2720.1895,1001.5833,-985.9391,-41.76078,-201.29396,2296.17919921875
38,2192.9675,1970.2,-651.6363,-623.07855,225.51321,354.82022,3033.58740234375
39,3168.6892,206.88025,-301.05798,701.67737,41.785927,180.99365,3480.70336914063
40,2260.8293,627.22107,-1491.3173,-2956.2395,1152.663,397.54358,6426.18212890625
41,4112.939,-2210.4768,143.31659,-396.98022,-409.51263,-39.053783,5623.37744140625
42,-1948.4055,2839.3777,-4671.0596,-2005.8185,2906.951,-246.761,8998.6044921875
43,205.5311,1738.4872,92.40121,-1303.5353,-26.90079,576.4633,2938.17797851563
44,767.1529,3921.096,2223.9487,-1157.7292,-468.3903,-416.77457,3560.23071289063
45,396.03186,948.4394,-2937.5693,-850.79254,-170.89876,359.859,3988.38525390625
46,1697.2609,528.7462,-1310.5731,292.1258,719.5548,-261.75107,2985.40185546875
47,1792.8433,2529.8162,-174.12747,-412.3905,-113.017944,-143.57191,2544.02465820313
48,1820.705,-429.02884,-2282.2263,471.704,-1055.8994,-42.065475,4084.41381835938
49,-1033.4135,3131.261,3174.1033,1169.2572,1394.9591,1251.303,5671.0908203125
50,3028.234,3150.1934,6884.1865,1166.6586,1019.0854,744.7864,4824.5185546875
51,2686.6672,1198.6534,1241.0797,-512.17126,-221.93132,-73.76594,1761.7880859375
52,-926.0618,1009.4562,-7749.8145,-641.45514,-1189.0604,-1153.5763,8543.15625
53,-549.0508,2547.0063,-2211.2913,20.238451,53.323395,-371.77155,4233.1318359375
54,-1821.7754,-2326.099,2348.8186,-1422.2694,432.05582,828.925,5333.0517578125
55,-1115.4818,-4204.439,-2730.456,1347.1348,-169.09366,-2736.573,5929.40185546875
56,-2916.4314,2154.0632,-1378.9913,1739.4872,-213.46248,-523.68164,5505.8994140625
57,-2990.3628,-2632.7542,1806.3174,2128.2742,1848.6156,-6.4299364,6727.6748046875
58,-690.6868,-2039.4313,-100.7624,295.87784,-1822.971,1125.8883,4122.857421875
59,3789.7085,2351.8376,2838.404,218.1487,-1473.2477,303.91116,2921.61401367188
60,90.248245,1736.2399,-834.01685,555.72266,325.1139,-293.6943,2566.56127929688
61,2199.436,1166.0022,-865.4597,619.5892,-583.8255,131.93718,3085.55590820313
62,481.29742,2732.3594,-238.11218,909.1978,-230.15033,73.462654,3139.94995117188
63,2354.2017,2698.2207,2005.1935,191.5239,148.43134,25.455896,733.692749023438
64,1380.3837,2717.7554,-93.138954,210.44203,-112.69548,66.55921,2472.79760742188
65,121.04189,2301.352,-489.17877,336.05487,3.863753,-203.7891,2630.59423828125
66,1372.4055,1967.9504,-79.77014,81.17421,237.22809,157.69489,1895.13220214844
67,495.7767,2607.6907,-1227.5654,-320.7777,418.60773,-671.9715,3641.24536132813
68,-91.12933,3116.5986,-501.91724,-843.4755,-335.16888,711.84467,3970.83056640625
69,341.06274,3349.5742,-1211.931,830.8344,659.51135,-672.9477,4568.30712890625
70,1996.4597,3518.8823,417.07843,74.56203,171.18114,-96.40234,2710.93505859375
71,2879.0618,1526.4613,3127.4678,-572.875,113.05904,189.0874,1832.3193359375
72,1235.9365,2164.1404,-1313.9772,235.22762,-236.39418,352.12842,3230.49365234375
73,2106.6194,3600.3533,191.01993,61.896458,-25.228596,43.959553,2963.33569335938
74,2717.263,3119.6355,-106.88192,-851.9061,863.43506,-521.57965,3808.40966796875
75,1906.4736,3168.8965,-558.0621,-146.18912,-112.26489,-312.00275,3342.58813476563
76,385.35474,2676.1387,-2227.9285,-359.6685,170.23177,-283.85507,4333.60693359375
77,2834.6204,263.38425,1766.647,-726.7726,-563.18414,965.6518,3215.4912109375
78,1324.7546,2586.6929,1088.9062,-859.9452,-93.27227,87.090034,2052.5859375
79,-10245.82,-32612.275,-4629.8755,10541.296,-4506.6475,-8886.864,35897.375
80,-4387.7275,1921.38,268.02844,1765.5614,780.81525,974.3502,6792.3447265625
81,837.15015,4037.7935,-11653.704,-4054.9941,1785.3851,-741.64606,16333.5908203125
82,1267.5895,5131.1167,8117.0137,-5143.6494,990.8805,2502.173,11682.3818359375
83,1405.6469,2778.1284,976.05334,45.3944,1087.7144,-401.63818,2587.9248046875
84,2565.628,3234.913,-1244.3881,-1129.6698,-967.69666,949.219,5182.1787109375
85,843.96216,1930.285,-446.78976,121.86578,295.26114,30.898678,2134.77563476563
86,1424.1273,2295.405,61.50808,-293.1418,106.01754,-86.08574,2028.99572753906
87,1722.6827,2380.8792,-356.53467,-208.92537,-175.1904,-76.15495,2522.95947265625
88,2285.009,1659.88,-133.64905,-193.80411,233.10802,257.55945,2281.1025390625
89,2375.4617,2300.6382,166.46274,179.76201,26.560558,-243.6938,2235.44384765625
90,2107.0117,653.79504,1761.0045,1391.1241,-107.51966,58.10248,2753.0390625
91,-416.85648,2768.7207,2674.7676,239.89737,-222.75761,-810.5842,3485.69799804688
92,852.69116,2353.513,-2192.5635,2619.6362,-47.792088,204.56578,6067.6435546875
93,835.01105,5340.6,7952.2485,381.55502,-866.10034,-176.41888,6455.11962890625
94,277.4085,2847.9292,-1648.0319,-1071.5177,-446.018,-52.360466,4394.74169921875
95,1625.0764,3375.419,1330.3584,-2890.0046,-181.3891,-187.00087,5378.32763671875
96,249.01167,1493.1945,-536.7766,-293.45987,-36.1504,233.45267,1889.15197753906
97,1959.4701,2183.119,-174.47568,240.55675,28.064898,28.754734,2293.34765625
98,1811.4921,3426.6836,-297.36533,143.48653,159.39891,183.94589,3271.36499023438
99,2249.6873,3141.682,3216.6338,-2116.773,172.69453,-318.31937,3834.54858398438
100,-731.40466,1152.5917,-6127.16,-1059.6829,-931.47974,-753.0633,7106.494140625
101,572.4833,2228.1191,-2329.0247,830.9323,-498.6872,185.5328,4345.61865234375
102,-197.2759,2484.06,-339.205,750.71216,187.34296,66.93222,3065.8935546875
103,4557.866,2285.4077,3841.3428,1577.5118,-667.69525,-56.09412,3586.32470703125
104,2257.8079,2244.8438,511.3886,224.77998,-176.84297,466.61792,1981.43957519531
105,2563.586,2259.0024,-326.5988,321.24783,-107.082695,-274.40338,2852.28466796875
106,1859.7451,2430.276,-235.51097,-411.4949,99.03227,294.95154,2590.25219726563
107,3338.8638,1449.5336,-1401.2793,801.52344,60.976696,-751.4909,4551.4306640625
108,5626.998,-7987.9946,-563.51697,-722.7914,1822.7413,-1851.5945,12697.4931640625
109,2013.6427,1923.03,-1319.9169,-2616.1013,449.24515,652.0602,5764.69775390625
110,-14073.63,-3973.2502,6470.312,6542.4507,3973.8994,3930.9333,23210.189453125
111,1168.7443,3100.2095,213.63145,92.92484,-68.17703,-86.797935,2559.30004882813
112,3375.1423,-90.029495,2660.4763,1144.5355,610.8802,-812.97644,4132.060546875
113,1519.8584,2456.0352,-510.33636,678.3308,175.15887,134.61931,2902.67895507813
114,1648.4799,2369.8347,-1143.747,81.25423,-333.45404,-332.15594,3318.95068359375
115,1797.7782,3107.5056,-312.4378,49.515987,-67.85897,-84.56179,2995.8017578125
116,-286.59528,-1254.651,-4031.3132,540.10376,423.17307,233.75435,3593.220703125
117,2115.6082,1958.153,592.8219,481.89612,-361.64478,-16.602179,1787.10900878906
118,1483.3612,2298.3228,235.52885,-959.5199,-122.18477,227.81206,2490.12060546875
119,1579.7965,2754.954,729.6347,-1406.2598,91.473015,390.0242,3084.9638671875
120,935.9917,3316.894,1661.3464,975.25,-743.38007,384.63474,3069.66577148438
121,1874.7456,3308.1033,-419.46497,1293.5879,707.1032,456.56894,4213.28857421875
122,1671.0309,2320.0813,4343.2744,-480.97073,800.913,-820.9887,3235.45703125
123,874.3752,3798.133,1617.1907,205.885,-393.61456,276.51218,2783.8212890625
124,1488.0159,3467.7148,128.48248,151.29674,-96.06681,-78.77062,2928.1357421875
125,678.52997,1494.5317,-2417.9631,-1578.039,305.05783,-614.31775,4654.3349609375
126,1288.3749,2864.2407,-1322.2974,-700.82635,-223.57848,323.7957,3918.03491210938
127,-1579.5781,3128.6396,379.5045,-34.76675,-60.633667,282.81625,4127.486328125
128,2209.087,2899.5383,-837.24805,1786.1411,-130.89453,562.99023,4736.39111328125
129,1130.7131,1966.1451,608.29553,2932.683,400.89264,-624.70514,5372.34765625
130,3342.4753,4008.4573,241.0598,-1141.6246,527.61597,-449.8616,4180.90673828125
131,1330.8398,951.0379,495.07477,-1484.2917,208.25308,673.3804,2936.8564453125
132,2234.33,1872.3253,876.306,-852.54376,-717.5645,212.65262,2311.8212890625
133,379.3999,1261.1019,685.83026,-1452.796,579.2313,-1029.593,3334.6181640625
134,2684.485,2233.3008,2163.913,3.2549193,4.0757284,135.41447,542.937805175781
135,1724.6136,1565.4229,1171.0012,-443.06317,396.4188,-170.44629,1179.49682617188
136,708.5813,-11087.648,2141.9119,-1126.3833,-6369.707,1593.9333,17066.369140625
137,-318.62833,1287.1681,17.283466,-1095.6674,-173.37556,813.6806,2798.1923828125
138,-393.61722,4428.0405,-259.89215,-1439.7506,70.461624,-615.52844,5476.4638671875
139,1844.2715,2141.8586,127.41661,250.67409,215.10307,302.5792,2036.92065429688
140,1134.1405,1828.9817,-2484.1384,-366.75864,-635.3814,257.13367,4231.06298828125
141,1992.3175,3069.2122,669.5377,-29.749008,138.5632,13.946228,2096.37329101563
142,1837.1012,2775.8818,329.66,859.72485,-567.5883,144.11159,2795.53198242188
143,3213.2722,3462.9,601.548,856.175,332.1277,562.3348,3318.74536132813
144,2226.0535,3734.5312,1399.9017,173.86888,71.60966,-164.2889,2095.54541015625
145,755.4234,2341.9595,387.68866,785.5259,436.69037,-113.01942,2386.90576171875
146,852.2532,1197.7208,1244.0242,313.5533,406.90622,598.7185,1415.81945800781
147,2258.9856,1830.4226,1294.5397,-19.218868,-8.008597,-21.241085,838.540649414063
148,778.6145,1594.0518,-4606.2236,169.7728,305.85635,276.94107,5886.392578125
149,-465.06274,1937.4366,-470.89285,1121.2719,300.5101,-354.92462,3194.78149414063
150,1162.2373,1770.5664,970.3186,239.12347,182.25864,-14.233622,891.879638671875
151,1859.1628,2560.3794,-12.551651,-461.5353,401.03696,-639.78094,2767.126953125
152,-1284.161,2853.6567,605.8653,4720.0635,829.9322,1647.254,9482.44921875
153,-253.79124,1908.1185,1548.7594,1982.8145,27.773743,758.16125,4188.97216796875
154,2632.5942,-341.71722,-638.8479,1345.8412,-443.52722,-396.8168,4039.1806640625
155,3352.8655,1379.1982,4907.7085,2097.7925,530.5082,267.8181,4862.44189453125
156,1429.4282,2102.1626,-1625.0319,-475.60196,-411.6149,-456.99197,3694.66284179688
157,3030.2554,2274.3022,4483.244,-645.77264,438.57672,523.7225,2536.1396484375
158,413.0519,952.426,-7254.2383,-1843.7546,279.6677,36.660378,8582.0029296875
159,2212.208,5308.277,3711.5444,-337.88138,-154.01128,431.93436,2857.4384765625
160,1834.2751,1805.7925,-325.63892,-1292.1461,-622.11615,47.915043,3283.50708007813
161,2343.628,1051.7628,-868.21094,-896.9258,-237.95486,-48.77644,3228.93090820313
162,-1913.4147,1201.0719,388.72223,-711.4656,-2.820208,392.06113,3132.02758789063
163,1607.6309,1917.4287,949.3959,-2230.6614,-86.564514,-511.57416,4058.1181640625
164,4322.969,4260.6353,3739.0793,-1562.5354,10.738592,6.0572896,2762.86499023438
165,4786.021,5778.2227,6154.904,-2516.5806,-2291.085,-923.7463,6229.50732421875
166,-525.21686,-99.156906,-3722.8496,1703.7389,-223.21136,274.23508,4566.40185546875
167,4390.8867,3924.3757,3058.3433,536.64465,324.05096,-119.34608,1610.39697265625
168,2547.9783,1661.2566,-716.4656,-112.82275,190.81467,91.983505,2953.13671875
169,-3561.188,1051.246,-3559.9792,1791.0803,96.384125,-1435.2842,6091.048828125
170,-8261.018,-318.23575,-8409.009,6066.1455,-410.73145,-3908.2117,14866.3369140625
171,-3901.0466,7997.8813,6780.452,-2092.9263,-1965.0265,1406.8451,12619.1591796875
172,2164.3806,1454.5306,-2383.4775,-744.1467,-669.5335,-825.28546,4796.66357421875
173,1915.9548,1629.219,-345.8275,655.3725,-6.635277,139.75307,2428.29296875
174,-1112.6815,2957.5947,-3704.4526,-899.0009,755.4551,130.59377,6166.16259765625
175,990.9735,2544.2507,193.78175,-200.3482,26.058815,94.16091,2106.0625
176,1615.0083,1915.3517,375.97763,240.99669,91.73635,-240.8875,1539.83862304688
177,1530.1136,2376.7717,252.63092,68.71138,-204.69,-23.448975,1889.94458007813
178,2816.289,2577.2927,4775.099,-819.6088,-125.82961,318.3161,2594.02294921875
179,311.70148,2932.9915,31.45768,-799.47504,-119.140526,117.08882,3112.15209960938
180,387.16266,1939.1898,-1173.7227,254.11469,-1271.2714,634.30457,3676.52416992188
181,365.9628,2295.7747,-314.6097,467.20535,479.05655,231.19304,2646.58422851563
182,3429.8481,-708.7843,2245.926,-1765.594,-158.95654,-246.04831,4820.73828125
183,1538.156,3036.0996,11.752615,358.20505,19.624672,-146.01701,2703.74926757813
184,-15677.041,-16090.129,-7892.096,8825.297,578.43384,-5111.5405,19417.43359375
185,-8827.594,-14201.384,1481.4381,7549.328,-7637.8467,-1219.574,23259.439453125
186,-1749.9248,-1928.0621,-1508.7688,2636.3015,-580.3674,-260.86978,4711.4482421875
187,1815.8977,-2089.0864,175.51407,1411.1124,1144.0188,128.42126,4635.0419921875
188,-411.16953,649.1515,802.5332,-1458.5155,-386.45776,-9.047639,2853.16259765625
189,1105.007,-5473.4805,-3409.6357,3702.6255,383.6636,-110.91374,8692.857421875
190,1585.2343,-5730.6636,-4238.138,-290.96106,-465.92508,-56.976334,6763.564453125
191,535.5816,-4809.7065,1681.7583,1282.6558,-40.560234,-10.180484,6399.4794921875
192,4043.1025,-3318.425,-1906.9634,462.99823,545.8953,-223.74968,6890.65283203125
193,1322.1561,-2839.7222,-3601.9407,607.0876,-420.42117,-347.23434,4803.34375
194,1561.9053,-1788.7559,476.45404,498.06558,27.346737,96.675255,3089.1171875
195,1619.3207,-898.4002,551.989,367.97504,-681.6719,106.41505,2573.92529296875
196,2026.6333,-24.41821,5463.409,73.56224,463.05618,681.3497,5011.93115234375
197,1078.6147,-1965.7505,2246.8723,95.722275,25.174204,79.43741,3773.3154296875
198,1325.7185,-2968.0737,-6357.9434,-476.5137,96.72295,-635.011,6811.9189453125
199,331.93433,-2935.4658,-8133.121,-449.78583,72.46155,193.97159,7443.7822265625
200,903.404,-1808.7223,-1131.2413,56.131096,-98.036156,106.47445,2459.5712890625
201,2255.7278,-992.01855,1471.1323,-894.57935,422.7733,-312.06635,3441.57861328125
202,1433.9807,-128.91464,1404.522,-1107.5431,-555.96655,-172.38048,2663.43115234375
203,1739.6604,-1855.4236,-282.73682,-2220.7522,-523.30695,33.39669,5036.283203125
204,2125.318,-2617.4062,-3820.861,-779.81964,933.9635,-626.161,5938.58935546875
205,1525.8914,-1767.4536,-747.2022,-1852.8793,686.27057,-693.4685,4656.40185546875
206,1757.2748,-1508.0946,1747.9768,-3516.0964,-959.1603,899.4096,7273.78466796875
207,1695.0061,-250.21756,-440.86237,-1235.4678,-144.56555,-522.321,3106.66772460938
208,3219.937,-2422.2764,-520.35156,-1785.8584,1216.9323,-1242.3579,6584.9697265625
209,-1531.543,2915.7678,432.67337,-4868.7827,1470.2594,-290.57227,9630.921875
210,779.93536,1050.1315,-376.83044,-5123.9595,1187.8108,441.53702,9236.1298828125
211,-6971.7773,-3588.5254,-822.23004,-5247.216,8717.596,-9269.846,24430.251953125
212,1774.1575,7123.853,-1331.5784,3708.3076,-997.44556,6170.023,14605.7001953125
213,5217.661,-5734.4414,8390.132,-3367.7563,10967.334,6575.6,26255.41015625
214,-3152.0398,6370.997,16143.921,1081.927,16852.602,1879.1127,33843.78125
215,-2368.1196,8673.708,-2174.92,-1741.9518,1404.4545,103.60568,11613.7373046875
216,603.02637,3775.1262,2485.3198,-1320.7972,1049.5004,-389.10217,4077.55981445313
217,-14.186967,2758.2883,457.2925,-2663.8916,-992.6627,-748.61304,5703.341796875
218,-4452.7437,763.48724,-2443.416,-1247.4182,-368.72253,822.2207,5279.15869140625
219,-1063.5529,-44.5304,-3132.3276,-1675.8379,-28.205492,-850.9279,4245.73681640625
220,-995.4797,2477.4124,822.42773,-1313.9338,-254.6855,219.34645,3817.14184570313
221,-493.27405,1384.496,1277.7639,-1382.0853,119.85108,272.39514,3055.02270507813
222,-1148.2915,2170.2344,-181.9377,-837.62476,-89.534805,-15.356539,3296.84497070313
223,-2001.5024,1507.5446,-1185.2147,-633.0964,13.883989,313.00885,3407.67944335938
224,233.95967,2488.7703,137.39526,68.2803,786.75336,516.5019,2825.32861328125
225,-1684.527,2568.995,991.3654,-678.5874,204.071,251.06714,3945.42309570313
226,-980.062,838.0466,374.9809,-180.68198,-273.67496,-456.9344,1904.48010253906
227,-1287.778,820.564,-570.73627,668.9814,104.19343,-24.217768,2196.45654296875
228,-679.15845,114.60281,-1158.2203,1304.8262,72.11002,-333.35526,2587.76123046875
229,-1634.9312,858.9514,-1658.7427,1106.6813,-44.238674,-98.61814,3160.48706054688
230,-105.7006,1715.628,549.96234,3535.5396,223.07666,156.71838,6346.34130859375
231,-1086.2156,-3289.9587,-2738.8958,1625.6053,875.8676,-495.62115,3861.5908203125
232,-592.4134,-3169.071,-7407.786,978.7273,-2534.5686,570.207,7658.2529296875
233,725.9603,-1269.6165,-944.681,937.9536,81.47477,-721.0561,2767.38623046875
234,2374.08,-1074.5786,1262.4397,955.28,1149.5709,-398.61273,4058.84448242188
235,1226.3044,-768.00745,303.69382,1219.7355,-522.1368,125.81862,2883.94750976563
236,879.9389,-1673.0634,-3418.948,1050.3292,-454.52594,196.67722,4250.7158203125
237,765.9293,-1750.902,-174.51479,-214.37141,179.23563,-252.9346,2297.41284179688
238,358.08847,-813.7323,4103.119,567.2005,-197.66927,-25.547901,4568.50634765625
239,1722.9456,793.9182,69.04095,-148.76714,-87.610214,106.72007,1478.36352539063
240,2340.7275,623.30414,-849.09,196.02896,-211.14583,-283.08667,2852.30712890625
241,1246.2236,-1278.8663,866.6837,350.67853,125.882645,-78.009544,2448.77099609375
242,2577.2996,931.5191,55.702686,184.8705,-366.65158,302.00775,2386.73559570313
243,2525.4658,-867.7009,-1736.5953,-582.036,192.11589,-301.59802,4076.3671875
244,94.79353,-583.719,-1020.8934,311.47498,-303.8215,152.33287,1259.25280761719
245,2106.1265,240.47716,302.8731,-105.92443,31.961218,139.95503,1861.07983398438
246,978.7925,741.8047,1153.811,-347.24805,-93.243004,-471.3438,1087.47106933594
247,1270.781,-241.30179,-844.29175,-232.28493,-47.380882,-224.75961,1970.25805664063
248,2823.759,1417.493,2609.151,-371.47708,187.83977,87.46183,1504.86889648438
249,2533.9924,-88.43308,333.8754,-1270.416,249.95654,-135.3896,3321.48828125
250,1388.2412,-156.79727,1217.8989,142.65944,-753.7029,65.845566,1982.73583984375
251,201.23718,-727.0466,-1486.5925,-831.8881,-422.03165,227.06386,2215.58447265625
252,2242.4683,-2596.9546,-731.2101,-643.3537,-790.0132,-267.12543,4604.34912109375
253,871.3346,-405.15942,-1958.8872,-1288.0874,-329.61963,-7.583857,3366.07470703125
254,1007.7996,460.43567,954.5041,-681.5758,76.485344,194.14816,1340.72485351563
255,474.5563,956.1373,2536.097,-1983.8788,306.0071,368.0561,3997.96337890625
256,-924.8165,-765.5416,-1837.4293,-935.07104,-205.79929,62.424454,1940.46667480469
257,-1209.2479,474.15027,-2308.838,-2186.533,-90.023445,-124.149254,4506.36279296875
258,-554.66534,5306.1177,5494.4614,244.19278,-293.74078,2.1879158,5993.8173828125
259,-1431.1968,2913.1333,-1992.478,277.57428,351.32288,409.9418,4767.8310546875
260,-834.3458,1581.391,-2060.1453,-538.28326,32.079586,500.1818,3452.89111328125
261,-701.1891,1350.574,-128.60542,-1326.2782,56.716496,57.800396,2942.70166015625
262,-1187.4299,1949.0847,-195.02223,-470.95923,338.5571,29.504604,2953.265625
263,-450.0762,1391.087,-5909.676,-16.545338,-490.22308,1105.146,6901.80712890625
264,-1077.4215,2097.5986,-1081.1765,921.2042,-9.671848,-445.04416,3637.72094726563
265,-208.21657,1625.8638,2111.1306,-714.9214,-198.84892,-102.52109,2484.52099609375
266,-360.50702,1151.9996,137.9127,634.74805,-493.21973,-1157.2944,2781.85888671875
267,-1178.6082,1994.8087,-1323.7598,902.1602,153.89507,-35.116215,3615.06567382813
268,-1384.2645,1209.9164,84.382805,1061.9955,214.31734,-154.37575,2944.4111328125
269,-1234.1951,1982.2689,2150.879,-99.492424,-129.46922,-274.25488,3349.92944335938
270,-4437.9917,-3163.613,4085.1382,2962.246,-1563.843,-842.6315,9959.8046875
271,1401.8638,1835.3248,3628.8704,2469.1226,978.14374,-346.72556,5069.79052734375
272,-3563.5076,-94.92894,2587.8364,-743.70905,-94.93742,-637.15753,5606.95166015625
273,-3151.913,-447.31454,-256.13974,496.61136,-596.2537,83.30025,3113.79077148438
274,725.22205,470.89804,584.49976,2381.6628,-903.34656,780.1121,4619.46728515625
275,183.65091,-5354.4937,-2944.5454,2576.589,52.546085,-304.4098,6582.93017578125
276,1144.3168,-1098.4293,2659.7566,-1854.5912,-89.71934,290.3855,4617.45166015625
277,-429.37512,3564.4395,548.22064,-24.625355,432.2011,20.595427,3683.12353515625
278,-616.21533,-600.5231,-1813.4805,1732.8148,-264.42303,-272.14102,3300.35766601563
279,912.4051,122.9876,4062.953,1590.6604,103.369095,-300.13196,4574.8359375
280,264.82037,-258.11035,589.13074,1117.2343,386.66235,87.68571,2182.76245117188
281,1765.5532,-1486.3004,-861.0021,-616.2874,-107.48887,56.92773,3180.56372070313
282,-1085.2867,1766.8892,-174.88928,-559.0092,-67.669464,31.437357,2705.78881835938
283,-1574.6514,245.79077,-156.1086,224.66553,-196.72182,-5.239045,1735.3681640625
284,221.91194,-1350.3267,502.9421,797.7145,3.4918795,109.55763,2222.12719726563
285,-2007.2587,-3295.3928,-776.2463,1063.5199,21.360197,-294.29065,2900.828125
286,4344.642,-1519.4465,190.32062,-4813.188,-1630.78,-2652.2366,11219.017578125
287,959.8721,-1589.8636,2211.9443,-188.54521,-390.1508,269.8693,3470.31420898438
288,2759.5432,-1515.5637,800.434,-182.1931,40.085533,-124.1424,3726.91357421875
289,1383.8795,-959.66345,177.0577,-1236.903,390.48035,787.1204,3320.58129882813
290,563.97125,-2310.1274,-3012.357,-530.7332,585.3309,200.12895,3572.7958984375
291,655.24927,5.2167783,4391.4536,-239.49156,-3.0703826,-229.74606,4140.1533203125
292,933.612,-892.7205,-1021.31647,700.3527,-120.338844,-200.51807,2285.2646484375
293,306.29593,-666.28455,-390.6049,84.4846,-188.00275,15.376444,939.121276855469
294,2170.432,149.52393,-1424.2915,362.42905,-395.24203,-194.91772,3273.86499023438
295,1412.3143,-729.0646,-970.2825,3.0970411,-39.537476,154.87347,2288.42846679688
296,-5168.9277,-7037.405,-9923.479,-8285.101,-15534.436,-7475.195,33387.625
297,1615.391,6698.1206,1619.6787,-2619.393,-275.98953,990.15295,7040.29443359375
298,-4925.846,5416.8936,-385.9405,-994.2369,-1078.415,-143.2038,9335.0908203125
299,-2065.6514,1724.4774,326.133,-1013.95953,32.16572,-167.03119,3767.18481445313
300,166.29042,-337.94455,777.79724,1274.2905,-61.952827,59.399075,2414.55688476563
301,-781.9434,2808.586,433.47852,976.7579,-535.4236,752.0563,3927.3544921875
302,-981.8096,3407.5244,2021.3539,-24.11092,-343.96088,790.5023,4163.4970703125
303,-2045.1818,1714.6119,-625.99774,2327.443,512.5858,931.5625,5518.779296875
304,-9106.979,-2384.2788,-9674.55,-886.0756,-473.23862,1842.1678,7908.2509765625
305,-3139.4495,-646.1648,2421.2554,1540.293,87.607605,-95.1505,5517.3525390625
306,-717.2237,1913.5156,28.13649,-718.35364,-166.54773,245.55737,2706.97412109375
307,643.59033,2392.6165,447.96548,-137.22958,-1062.1108,-82.423744,2626.90502929688
308,-2432.9111,1816.169,655.6612,-1016.21594,-253.1678,-459.89026,4288.96630859375
309,-216.18413,2055.8123,1074.8899,-810.6915,-77.087616,-230.80463,2458.62280273438
310,186.11049,2382.9426,2761.3354,-122.12443,340.12848,-690.53467,2760.94873046875
311,-535.7163,-964.45935,-312.85736,-1493.4469,68.69628,-422.38843,2751.287109375
312,-880.2557,-909.4265,736.3599,547.002,-83.490456,-598.6293,2157.5615234375
313,646.4926,-3605.4006,-4167.224,1676.5006,396.00156,-377.232,5487.4755859375
314,2624.072,940.91364,5621.9414,1083.6981,-397.76895,465.24268,4638.24853515625
315,3615.1382,-1104.6932,4892.537,2323.0781,120.58392,171.03897,6801.40625
316,1804.9099,-2392.8694,1446.1902,547.01697,240.03241,-160.5172,4170.37548828125
317,1248.8011,-2097.3142,-1565.8379,527.3233,-42.82847,-460.38116,3343.0732421875
318,222.4201,-939.673,190.35225,-1036.9098,-539.8433,140.88145,2339.57348632813
319,6150.7163,-4456.424,1355.907,-6762.172,-1730.4496,234.69196,15197.7607421875
320,1404.6696,3854.618,-200.62538,-7771.2476,-526.1456,4732.2305,16177.189453125
321,-2735.6353,-4963.056,2266.7017,-7775.647,-4039.2366,2450.7676,17013.94140625
322,-7119.0903,771.9279,741.8831,1605.0631,-3178.264,1537.1449,10351.4833984375
323,-12911.427,-16123.373,-9328.173,-4627.208,-7405.4604,12276.047,26749.302734375
324,-603.34314,6783.4644,-976.7135,782.0677,-971.47314,2181.9976,8741.3876953125
325,-1350.0487,2009.8937,-996.93677,-1544.2611,83.71283,422.66766,4235.4052734375
326,1762.316,-1099.2229,-3461.015,368.85297,-82.051575,472.1461,4649.9404296875
327,1149.0581,319.4375,2073.4907,-27.642065,32.24906,130.5033,1538.27172851563
328,1092.5383,688.31934,247.48407,962.1183,137.75114,-226.7186,1877.25
329,1360.4895,134.5082,500.73395,729.96625,603.2399,-224.20148,2007.28967285156
330,2749.9685,521.718,2542.0957,954.883,231.55652,391.5598,2810.93139648438
331,1126.3495,305.16937,-741.0498,-198.1882,-233.44856,97.659134,1714.05603027344
332,-341.93637,-979.7944,461.58298,-401.514,711.70984,-494.73334,2074.259765625
333,33.873585,-1252.6061,-260.7304,-282.631,199.67572,-13.611583,1312.48889160156
334,-2554.06,-217.05737,-1730.5997,-1790.4543,-354.4936,277.71188,3800.10375976563
335,-519.79865,2143.893,3390.5903,-177.25519,-398.7723,-1298.7239,4195.43701171875
336,-937.5324,638.18097,-1057.939,484.46848,-35.579277,110.48939,1852.47045898438
337,-4026.2747,-3567.2395,1249.2407,650.9552,944.7377,1221.7306,5834.96533203125
338,-1085.1149,-337.55106,-2294.6467,2005.1965,197.43689,-891.00867,4181.75732421875
339,-1367.5516,2708.4758,-1595.8666,-390.5494,-476.7886,-242.95314,4348.953125
340,-2120.0715,1378.2963,-1351.9661,230.5993,777.25757,422.65112,3556.58056640625
341,455.93414,-2612.098,464.13675,1743.7391,-1187.8148,-284.20938,4799.47607421875
342,147.89062,-138.01028,237.09436,2211.219,255.74768,269.30594,3898.39282226563
343,-1744.969,317.8472,411.32553,1270.4678,-297.78998,-189.85527,3110.17919921875
344,401.8574,1970.0702,-391.4667,-3714.0808,-14.970765,1085.5135,7017.951171875
345,483.10324,-959.6192,-1587.0502,888.79285,7.4844484,63.433174,2400.5048828125
346,-1924.4318,830.2725,-561.3544,54.720974,36.61583,-10.111037,2388.47509765625
347,-882.8447,420.75787,1475.5063,1133.5417,63.526657,145.2152,2849.02905273438
348,425.72214,-815.03906,-1184.5205,1066.8737,-33.424046,-184.2702,2377.88110351563
349,-550.9824,-990.1125,-1013.20404,1856.6783,210.66402,-799.6883,3549.212890625
350,-5197.731,-7411.0376,-1884.7727,-513.42053,498.00262,-3166.8926,7404.69140625
351,-2035.8527,2438.0442,1623.4578,-648.31134,-646.63416,-575.24915,4532.43798828125
352,223.11215,417.83264,1930.8508,783.96075,-30.946709,420.00226,2235.53540039063
353,232.37766,-877.72015,909.6445,1281.5294,114.44155,263.82556,2760.05346679688
354,-802.0994,268.64594,-2057.995,1875.8185,-364.52536,199.35721,3891.33203125
355,-910.6663,397.80832,1352.1237,1535.8115,212.87856,-672.60315,3527.15307617188
356,327.097,-1864.4452,-82.40126,1690.2623,-818.33105,795.0078,4068.06884765625
357,-373.5397,-655.0071,-680.9028,1328.293,426.15912,-141.36482,2446.4375
358,477.5973,-566.96735,-352.07376,1375.5215,55.712337,92.497665,2573.70971679688
359,2393.107,1488.9055,97.17849,-105.585594,-88.09259,100.06854,2024.76000976563
360,-715.37164,-954.1398,-272.57782,-924.43964,111.15042,-196.60141,1753.73522949219
361,280.29245,-1179.2646,21.009638,-40.299667,23.347412,90.70177,1360.25158691406
362,-1256.24,1291.7183,230.36775,-421.9974,11.013901,148.34795,2348.38452148438
363,-880.081,2081.3767,-233.62193,-677.83923,45.04386,-193.33731,2961.4697265625
364,-1287.9122,-821.0923,-244.15288,1221.7487,189.38148,-437.15045,2445.2021484375
365,321.20084,-924.4054,-899.69934,-1410.5653,99.939545,341.72882,2805.48657226563
366,383.44376,-2174.579,-1525.1001,-457.22913,-124.096504,20.09885,2445.09887695313
367,755.0557,-2085.714,-564.8282,858.5779,-9.879806,-30.433636,2876.99829101563
368,750.8828,-1404.4237,-214.93373,865.1878,-11.184835,-140.35298,2408.6591796875
369,1519.248,-597.07825,2045.0812,390.2605,-176.037,-107.30775,2540.19555664063
370,-437.8871,-158.63675,-109.06831,587.97565,-107.33082,11.6136465,1079.99548339844
371,-1401.0234,1358.7295,419.06592,72.43437,18.374422,-53.814747,2435.44775390625
372,-431.25784,-1556.9503,-73.28095,1613.4995,36.34193,51.49171,3101.6708984375
373,-725.43787,-3048.9785,-252.00488,-958.0247,-10.539288,-52.783802,3079.79638671875
374,-384.28125,1185.7955,322.8589,-459.63336,-74.49705,-174.97368,1611.5859375
375,-245.44914,-114.52583,-406.23145,1156.5187,52.096386,86.12863,2026.58459472656
376,-1238.5769,-416.71313,-634.6194,860.59503,87.34709,-46.738728,1671.87536621094
377,3127.433,2496.6958,232.11699,-151.2765,11.240518,111.93771,2657.27758789063
378,607.3802,-709.34155,186.16457,-695.8273,-158.86987,99.66728,1707.22033691406
379,526.98816,-1223.3997,-860.1588,16.053493,33.115974,-100.462326,1610.69262695313
380,333.94485,-1390.2294,-907.8855,804.1501,-30.991463,13.203095,2077.77856445313
381,940.0626,-1092.62,92.24416,1045.3257,30.66424,74.07488,2534.68896484375
382,798.761,-1035.2073,511.2069,673.7245,-21.456156,-7.445727,2069.30517578125
383,-874.488,424.79788,764.5309,1007.3255,-56.98131,-215.53154,2331.99243164063
384,396.2845,-1235.98,-333.74698,1241.023,121.161385,38.072506,2583.4921875
385,-1114.073,-493.69217,-752.2442,1292.9415,82.999,74.979645,2311.69775390625
386,-849.96356,1295.544,174.99052,-650.41406,-1.8212034,231.37845,2210.07250976563
387,-806.11127,1927.1489,-466.09076,-1923.4738,-164.196,128.55075,4229.263671875
388,922.5432,-2512.104,361.75153,-1128.1343,500.93338,163.00397,3851.71948242188
389,-336.56656,-318.06198,235.21309,-1897.883,-551.45654,511.8145,3580.607421875
390,-1325.1866,453.2389,-380.7977,-1101.2196,-0.752267,2.8103113,2452.18725585938
391,361.60788,-1014.6248,-909.73096,-1175.8655,196.78333,1.5380343,2454.55029296875
392,136.6877,-225.7803,2400.712,185.70815,63.86317,-103.92978,2495.18090820313
393,1101.062,-1663.5884,-48.18129,235.68965,36.066517,-16.979467,2440.94506835938
394,-1184.9587,1183.5547,86.96266,-563.17664,-21.303999,82.15236,2277.759765625
395,-1725.7303,-2046.7656,228.0305,248.90005,92.36445,126.15108,2192.40991210938
396,-778.4071,-845.5952,-90.56831,1201.7013,86.07092,37.199425,2209.63452148438
397,2102.0757,-882.2658,1384.5481,-450.78482,-47.48718,37.40177,2810.76049804688
398,505.09988,-712.8863,139.6,239.47598,-88.46591,162.1577,1202.62915039063
399,1397.6493,-784.86066,1020.1934,314.94742,-17.903973,40.69368,2094.16479492188
400,-1068.711,900.2757,-336.8755,-341.78668,-72.92975,-96.7982,1834.67651367188
401,-868.92145,-657.55334,-819.67596,415.125,75.670494,157.40063,803.232116699219
402,-415.34717,945.11176,1028.5753,609.8618,-43.724262,-88.430786,1765.31958007813
403,776.4549,-1180.5682,233.28508,154.58212,258.9572,62.42409,1829.3525390625
404,358.54324,-503.12512,-397.2246,404.99707,-8.729337,8.828001,1074.69360351563
405,420.45328,-913.33203,253.75627,90.57359,16.952724,27.255201,1269.69860839844
406,1459.5963,469.26944,707.11285,-1555.0249,-231.2572,-230.87607,2894.20678710938
407,-582.96625,-2045.3231,996.39636,-150.32414,-154.92148,-226.41656,2689.9912109375
408,-1035.6744,156.5571,-227.224,-2368.3865,770.6795,-851.2929,4679.193359375
409,-1315.9989,-1197.2394,-868.39417,-918.8162,-217.8646,-48.582783,1686.2509765625
410,-347.23856,-562.7949,-542.21387,694.9956,164.15993,-30.656685,1255.05908203125
411,-23.613325,-1196.4474,-1154.8286,-832.956,68.09316,-83.11548,1855.94763183594
412,453.86078,-698.2831,0.5416252,249.61607,30.001738,77.16827,1103.69140625
413,-257.99182,-726.3594,1275.8597,-1022.48,-263.39883,191.19843,2597.0517578125
414,24.996145,-435.08224,-1006.45746,505.21198,335.51752,109.89343,1393.08374023438
415,-118.071655,-592.17255,-147.60884,710.92865,-29.844542,140.66464,1337.88293457031
416,170.8792,-816.4694,78.92361,694.45026,41.119488,-18.343803,1531.46545410156
417,-333.69565,-896.53503,-960.2004,1238.2224,-12.617013,-61.174484,2228.89306640625
418,-489.88504,-598.80743,-421.85538,-743.41187,176.27286,30.906939,1333.40454101563
419,-2843.1604,-1497.5869,-474.81674,749.0938,-224.08318,-132.54427,2473.7841796875
420,-349.19806,834.23004,714.7595,473.91837,138.0844,405.67093,1580.53625488281
421,-827.3574,618.52783,-708.80145,-1054.2983,97.88139,-118.9144,2310.63208007813
422,-592.1188,160.33772,-1184.9325,-906.19226,185.7577,-100.324936,1990.21398925781
423,-230.7339,-559.15186,724.7634,955.8305,-167.84897,-9.979025,2039.67907714844
424,-774.51105,479.70163,-136.26196,-222.55983,41.74617,16.695232,1155.23767089844
425,-853.71106,-653.6969,-87.89699,236.95645,-15.776511,-72.15539,811.242370605469
426,-2306.817,-31.141394,19.844606,782.7346,-9.354635,-111.44389,2678.22094726563
427,775.09393,-526.09045,323.31888,-610.2732,211.48705,78.33906,1605.99829101563
428,-240.86995,-427.6233,551.8636,1232.0183,33.8807,-24.056496,2317.35546875
429,-777.33215,684.3963,-207.8534,-53.37472,36.02532,-77.57431,1288.03186035156
430,-427.76755,-11.468564,-144.47072,959.4194,35.23876,-9.759881,1703.25964355469
431,564.1001,614.14417,-1049.2578,-414.52673,-23.23182,-327.40082,1877.46032714844
432,66.525154,-1135.4332,-822.0014,474.33206,18.276932,-4.521516,1357.29418945313
433,1071.3809,-275.4996,-209.17648,-257.4441,291.69928,107.14992,1489.19360351563
434,615.6556,-1509.6375,-418.70386,526.8005,33.097916,-50.429935,2057.16430664063
435,180.70116,-231.46344,207.49861,206.13165,-220.00507,-62.742645,682.737243652344
436,38.117886,-280.09402,708.2185,-382.86557,-167.06331,-74.023506,1141.68933105469
437,752.58075,-1115.5016,-717.6519,-713.0921,-60.881535,-58.255188,2109.8818359375
438,630.412,-190.68993,1129.5126,347.7072,-131.99199,-118.70198,1338.04296875
439,65.15923,-758.6508,33.851124,540.3758,-163.3319,-89.537766,1278.26147460938
440,-608.1107,1910.0742,478.00494,875.9701,-98.99734,-17.002756,2667.97729492188
441,361.17807,-307.87738,1077.4675,800.5868,-32.807613,24.754442,1835.16430664063
442,-85.880104,-2819.6836,-1003.8732,-1085.6562,392.02515,-28.78534,3131.49584960938
443,-191.46008,-699.3673,110.32184,-575.1642,-150.21765,-109.841896,1264.37829589844
444,-603.5746,-1366.1398,-168.97859,-863.6527,-228.6785,127.981094,1882.94836425781
445,-1751.1643,-2568.3203,-78.31583,-1795.1451,49.331543,6.1087112,3808.96240234375
446,-288.7008,96.032425,107.386665,-117.1053,-161.96593,43.814182,527.366882324219
447,-4421.4062,-1995.662,5.38586,-179.27228,212.06815,88.7235,3872.64868164063
448,-891.552,360.53107,1062.3208,1300.1128,-134.35294,-60.764774,2841.65966796875
449,-428.71548,-283.26587,-328.96573,1074.2334,128.50371,-46.467083,1880.0390625
450,-824.72626,-1533.6803,132.72559,1134.7065,-199.30972,-105.38959,2472.5068359375
451,105.98649,1399.5436,581.4546,1274.5249,-242.05766,343.60025,2586.02294921875
452,47.910904,1181.9991,629.1282,-806.6032,-63.125465,-222.49782,1754.17053222656
453,837.9462,-24.90795,800.67206,509.76877,-347.46075,79.992355,1369.20434570313
454,-1749.8965,-1892.8928,-111.70511,354.28006,-75.46233,82.45137,1830.95483398438
455,-520.16095,-1150.198,-137.5401,68.41083,20.454931,-310.13702,1043.19750976563
456,-1263.6771,-399.4833,-1011.08704,350.21442,-254.52501,-263.28583,1167.30615234375
457,-993.54095,-2626.061,-406.71173,-465.5072,132.46324,6.535246,2161.10131835938
458,794.2412,-846.5149,-1112.3453,277.96594,-264.84863,-154.34325,1926.81201171875
459,-702.5342,146.27292,-125.778824,-895.02356,-8.743515,68.39624,1726.56628417969
460,-743.0952,-595.56744,167.05243,-696.89996,-23.571363,-70.0373,1479.61218261719
461,-868.8418,-2543.7866,-1987.8755,52.41344,75.51592,-15.59622,1486.41723632813
462,-1334.5319,-1776.9193,3642.4539,246.77898,-298.47607,256.99384,5274.0830078125
463,-62.107376,-1652.9257,28.196857,-806.05554,262.37543,174.35371,2220.22802734375
464,-443.5024,686.06854,212.4269,467.44196,-72.1353,64.97879,1284.14880371094
465,-1650.8424,-388.075,-53.362865,712.8851,93.45864,-109.50818,1927.71166992188
466,-1672.457,-513.76117,-359.3582,854.1193,131.36679,84.99828,1951.23754882813
467,930.18274,34.880047,-44.48155,912.6955,-199.54362,132.15472,1884.09252929688
468,-456.63763,-970.0082,-63.724205,-351.3211,-174.8433,-96.58849,1053.38439941406
469,-1387.2892,-647.91754,-63.524853,16.618435,-110.06921,-128.9369,1186.30395507813
470,-1648.3939,-331.6461,-483.85614,1884.7772,82.63552,122.72366,3504.19677734375
471,-2974.9478,-2942.3972,-308.36728,512.2736,163.55554,-46.902985,2810.5224609375
472,-232.81488,-232.5075,59.85012,1132.1492,-56.975853,-224.25679,2022.73583984375
473,1095.1683,3853.1357,410.78998,340.53714,-234.02632,-73.010475,3238.89575195313
474,584.5016,54.697582,1174.4553,-630.3039,-267.7554,116.60549,1545.64416503906
475,1014.28485,49.45331,299.51013,-292.2995,-22.5926,-86.733345,1016.16040039063
476,556.464,-766.52576,-711.45935,-375.74774,34.857746,-118.43662,1466.20861816406
477,388.14484,1027.4265,370.35037,-731.71515,94.39548,156.10786,1458.23010253906
478,-365.11124,2201.478,475.61078,-768.39246,-96.29007,0.95417076,2633.53466796875
479,2931.2034,3886.3801,-168.55461,1034.3966,92.52779,300.86102,4121.75244140625
480,2428.33,-1487.0092,307.67758,-1392.8236,-43.08622,-0.12818177,4165.26318359375
481,1296.6506,-1325.6698,457.5635,-49.638676,222.80803,-90.997955,2358.2705078125
482,-1004.9757,798.3811,-142.93532,519.6375,77.04811,229.40111,1851.052734375
483,-2116.291,-874.4553,494.89206,716.113,-115.42549,127.07061,2597.04370117188
484,-5.1319833,-945.4639,-71.14147,41.22313,-201.63126,-24.531525,977.435119628906
485,-2860.6086,-3716.1772,-726.9798,373.90942,74.713844,83.449715,2750.79956054688
486,1029.5968,-220.93535,-477.7066,-808.2678,-30.385746,169.85779,2000.01965332031
487,656.8241,-417.56052,119.787636,-541.50616,236.17001,404.25204,1550.16174316406
488,-614.3089,-444.46558,-442.83575,-972.6693,-214.20073,-83.80233,1739.56811523438
489,-3800.262,-2450.494,-267.06598,-313.06558,52.647484,-15.439742,3136.78393554688
490,-4826.0347,-2526.04,-894.04395,-219.9148,-11.41302,83.16061,3445.75024414063
491,-1359.109,-806.2812,-1102.9221,1124.452,18.660141,271.4127,2060.30078125
492,656.5825,-1717.1407,321.07465,994.2193,-63.185757,126.97298,2824.26708984375
493,-272.808,-3012.0854,-26.37388,-403.04752,75.47542,-184.86827,2974.28686523438
494,-376.075,149.37654,-551.1109,-757.6073,-59.59327,71.25826,1465.09509277344
495,-780.77924,-505.153,252.6212,751.1665,-336.76166,-16.961954,1700.8515625
496,251.28236,-902.63635,155.05434,400.77557,-207.21236,-79.29509,1363.55639648438
497,1902.7559,1240.4967,-718.9311,749.7487,-40.28861,-92.840576,2700.498046875
498,-500.27783,-133.42421,137.95396,-1182.2429,308.2288,-548.69916,2385.18481445313
499,-115.415596,1724.2308,387.96002,1273.724,-212.92982,154.67993,2790.44213867188
500,-3220.3662,-2485.8408,487.238,1942.4586,-17.070827,-134.58342,4789.27685546875
501,-2944.803,533.7799,335.6469,947.49115,-14.133968,70.14287,3762.86474609375
502,-1702.1532,-1590.6649,-1095.7046,476.63147,44.53533,174.6518,1044.7919921875
503,-2280.64,753.75745,346.9209,919.4689,352.99826,-194.44072,3340.97192382813
504,-110.87238,418.39944,1597.0563,186.99365,-35.23204,114.94338,1562.51403808594
505,-156.28133,-860.73193,1100.8619,-1087.1089,-258.08206,-257.55542,2628.02124023438
506,409.9932,-112.875206,514.29803,-578.31903,158.76077,-55.107956,1194.52624511719
507,-1623.0264,2146.767,706.5537,602.3757,-22.131788,5.9901114,3456.35595703125
508,-761.8937,511.08685,107.873314,279.96902,235.10616,-63.456715,1297.23962402344
509,-36.436794,773.40735,968.906,-162.04736,-24.75276,-142.79993,997.0869140625
510,-1782.7056,622.5392,986.7062,633.1755,-37.338654,-154.83899,2841.22729492188
511,-886.5333,1227.3984,-868.8496,-47.985996,31.532717,24.003479,2107.90356445313
512,-1645.3849,387.94406,109.87433,986.8291,97.83961,204.22955,2592.62109375
513,-807.82983,2009.455,-396.23233,-905.1166,150.57907,12.320955,3077.8408203125
514,632.8792,-838.2519,281.11023,-936.78876,-363.18982,241.22699,2230.13037109375
515,-1527.3446,-3402.4973,-864.7177,154.1551,4.5425515,273.02786,2343.66918945313
516,856.68304,-970.3014,-464.18433,-789.8459,164.88455,61.318264,2152.61889648438
517,-597.3904,-837.5468,1210.66,498.2389,-103.5147,-35.836327,2131.1171875
518,450.08978,-449.77832,1223.5503,-324.75443,-140.62628,16.784353,1574.9873046875
519,-307.91418,-688.7384,-340.44507,-296.97113,223.21681,-10.437685,740.32177734375
520,-365.36227,2023.1232,444.89786,684.5112,-191.76268,-317.32138,2498.83056640625
521,669.1239,-1884.9388,-1143.429,-1585.665,244.9011,-288.05554,3626.44018554688
522,199.12451,-1418.4928,-719.36285,-454.41113,103.88747,-78.3602,1626.28747558594
523,-1813.8989,0.7847276,-221.75229,-385.5036,-66.76583,-185.37032,1871.11303710938
524,-5258.9683,-1505.5801,817.352,-1285.8818,-261.0821,-52.196095,5777.19140625
525,-3814.561,-3176.1543,-270.83997,522.8944,-211.3612,-123.25443,3420.97021484375
526,-1148.2041,602.4604,-471.70322,272.32263,62.55865,-190.97609,1637.61682128906
527,9.710399,1172.1466,420.35574,925.4915,2.9517226,-129.11617,1913.6826171875
528,-1562.3208,-871.2593,2128.176,566.5359,-15.468655,-141.03894,3545.45532226563
529,-403.2281,-804.359,-0.7381996,1584.068,100.02435,-155.84152,2848.69165039063
530,-553.59973,-213.45967,414.04996,1539.8827,-5.978576,11.530805,2799.48706054688
531,-1391.5361,-2448.5244,-158.57538,525.538,-37.19104,142.41222,2198.6826171875
532,-2325.907,-874.3186,-809.8411,-76.55793,59.720448,-21.798254,1494.84753417969
533,1070.1162,1565.0739,-496.33368,-415.7963,-60.330166,57.098396,2003.35571289063
534,-460.96716,799.9827,53.858532,-1673.8019,-135.57343,-83.58072,3112.36352539063
535,-1868.25,4693.4375,686.34644,877.93005,102.657036,-69.26743,5931.0654296875
536,-1399.4176,3562.6975,917.6638,2208.218,-121.640274,7.368824,5759.0849609375
537,548.8828,2355.6929,1535.8378,884.35925,-225.80165,178.77194,2247.33471679688
538,2282.5269,404.53738,1202.7969,1559.6617,-237.91592,68.55811,3185.35498046875
539,422.23212,4523.6353,628.52576,-2095.5588,93.522285,51.267498,5406.1259765625
540,-2776.9868,-117.37717,-760.78864,2432.6548,48.59461,64.126884,4852.74462890625
541,-2673.798,-1011.12213,-1039.9406,2504.9219,179.89334,175.48312,4661.6279296875
542,6536.367,-303.858,-1313.7968,2214.7747,67.19461,-68.992424,8334.2890625
543,-3742.9468,-1175.8374,-718.0208,-1306.3488,351.98132,92.3796,3673.12231445313
544,4628.379,-2454.9705,-710.30707,432.79193,214.4759,84.688484,6448.3388671875
545,4723.947,-2226.576,-344.37363,-2956.9412,-35.694286,-75.669655,8063.60107421875
546,4414.719,-1824.4391,458.62326,-2550.4834,15.557402,-207.73985,7038.47802734375
547,-980.3188,-56.213818,-148.28868,547.81647,52.039402,-77.69832,1305.33715820313
548,2518.7273,202.18787,-157.8639,-237.11292,50.273163,120.24579,2559.23706054688
549,2934.2039,1227.5184,67.39984,-772.40137,46.145702,167.97496,2849.4658203125
550,-2140.221,-2048.1394,-832.61066,-495.19565,260.77988,128.9218,1608.55651855469
551,498.7901,2127.8403,792.35736,-372.30182,-52.9638,-76.87152,1644.29907226563
552,-3738.6914,-4442.626,-2063.924,-192.56372,139.7388,-12.665637,2156.29321289063
553,479.36768,2468.7761,347.07407,-847.8832,-301.3453,-97.802284,2587.71606445313
554,2820.9453,159.86996,368.2943,-1578.722,-10.063875,92.59376,3751.43212890625
555,1945.6941,1755.3005,594.41986,-1709.4161,-252.15913,373.0884,3313.54296875
556,878.6819,2019.9578,292.29984,116.077934,94.033134,-137.06924,1561.69494628906
557,2261.0967,2437.986,756.113,-1167.2357,-113.24019,-138.578,2597.28344726563
558,-1468.539,-5036.6895,-281.07898,-604.06885,42.593166,-96.722336,4416.6728515625
559,-394.00806,-3962.7988,91.74577,-55.175903,71.23112,-172.16916,3849.55322265625
560,2175.0845,-1589.057,53.686245,-281.96332,-288.44904,-275.90244,3376.43798828125
561,1162.3536,-1101.0042,-659.16815,-46.696083,188.80655,-86.38842,2110.41430664063
562,2260.0337,624.9841,-779.10284,2214.5574,-88.1761,-109.943146,4659.71875
563,-918.2746,2599.0374,547.2073,858.79926,-201.04689,-276.8424,3453.74536132813
564,-759.7989,-1431.7228,-242.57193,-572.50916,-88.60494,-46.566093,1442.18591308594
565,1803.7152,-1341.9193,-33.32654,-157.63562,-62.93091,-159.9837,2766.63842773438
566,1094.4912,-1300.6492,350.15738,-1069.7203,64.613174,34.06387,2820.7900390625
567,-115.44078,570.8392,-1158.9014,2819.7673,46.333733,-300.69485,5138.76025390625
568,129.60736,3442.6858,137.29587,1507.6216,95.42014,131.72604,4224.8330078125
569,-285.87653,5913.855,-159.78502,-2344.4353,94.84145,158.0857,7366.26953125
570,1356.0872,3197.853,723.00323,-949.8345,154.86263,486.56116,2906.47875976563
571,-681.9878,-518.23254,-371.68793,15.088551,107.11832,54.6713,341.117889404297
572,-499.6979,107.34482,91.64471,753.25574,-179.76654,-106.07382,1480.57495117188
573,-512.2705,-80.70211,418.14752,392.162,101.15658,146.6499,1098.62622070313
574,795.58954,-938.637,250.76471,-115.847275,-11.8657675,-118.592766,1562.81884765625
575,241.65407,-1457.6727,748.1666,-572.8751,157.5658,165.67209,2268.56274414063
576,-377.3378,-524.84674,421.0654,-1281.2186,106.16526,-80.789246,2398.94458007813
577,-1161.4539,-1666.0145,-4099.112,-242.53676,-11.998474,126.790886,2761.76049804688
