Element Label,S11,S22,S33,S12,S13,S23,Mises
1,13855.559,11417.247,11809.585,-233.35168,2648.745,-4267.542,8999.4052734375
2,13191.311,13462.809,-1461.6394,-1754.0872,-1916.3782,505.24545,15484.66015625
3,16321.573,13131.598,4155.635,343.73163,871.1611,1620.1173,11396.6005859375
4,14221.714,7174.815,4831.7427,2669.1475,-91.032234,1795.2219,10135.41015625
5,3670.4827,13023.617,12590.803,1455.2317,1592.7511,-3146.8784,11282.3974609375
6,4173.4917,10119.834,-4891.566,1558.1064,-16.119122,-1452.8787,13603.478515625
7,12621.202,8753.514,66.04333,-1949.6124,95.23061,-1096.3159,11792.6875
8,19472.127,6045.777,-2401.4934,-1111.9508,555.6392,-1300.508,19358.427734375
9,14737.491,5608.5337,-8406.169,-678.6465,-864.88055,-1550.951,20458.04296875
10,9660.359,3247.3088,-6946.664,4405.632,675.15186,1964.3694,16780.681640625
11,6188.143,15960.985,9053.766,-4564.5693,-2351.8904,-1612.8645,12752.2158203125
12,12874.797,14744.499,-9811.09,1053.4517,2380.7373,-361.12268,24109.859375
13,17518.791,19180.7,13215.473,-2237.4521,-3896.3647,3349.1746,11074.595703125
14,17011.498,13659.517,-3944.7195,-1413.0116,1815.786,991.39844,19974.57421875
15,13618.642,19418.54,19564.55,2462.0073,-2620.8567,1232.8732,8823.7197265625
16,27832.336,21457.787,42447.332,164.66626,-3124.5037,17131.334,35457.2109375
17,13117.64,18580.154,28449.438,5.3241606,-5222.4453,13776.381,28850.318359375
18,5330.519,2401.9917,-20038.715,-3183.914,16506.543,3876.4941,38350.6328125
19,-11558.218,-21183.576,-7935.5293,7829.297,5103.678,3197.4268,20817.009765625
20,28567.186,22062.463,32952.91,2364.4094,-3176.1592,-15130.096,28703.111328125
21,14197.062,4940.9556,-9546.687,7508.3306,-7261.2397,-7905.2285,30731.84375
22,9858.763,11857.708,13744.073,1398.3511,-1597.6637,1449.8848,5581.67919921875
23,6739.884,6040.694,6588.7954,111.84714,-11.397199,-104.93289,690.656677246094
24,19666.162,21464.29,18409.27,2590.8892,-7454.9604,178.41064,13929.6806640625
25,7148.8765,14944.675,15149.364,-763.2694,-13954.697,-519.6224,25478.82421875
26,-857.3459,4673.113,-1668.932,3491.6392,-19407.098,5287.642,35862.1171875
27,34860.684,44356.223,49870.98,4412.1133,-15468.294,697.7438,30831.939453125
28,19818.16,25037.05,31583.637,2239.3076,-11568.834,9903.596,28549.28125
29,1640.2632,-16981.635,-28760.594,3767.61,-8317.817,-2024.6179,31101.5390625
30,5771.091,6659.2095,-19969.252,4548.0996,-13562.319,-657.17004,36074.578125
31,16574.77,25003.855,27793.29,1486.0863,-16280.136,-3370.2432,30629.595703125
32,18433.014,26647.121,24070.076,-1530.8909,-17345.096,-6411.566,32952.34375
33,17113.336,22485.422,31424.75,-575.488,-15084.487,1871.9526,29170.62109375
34,15179.054,19707.348,22899.877,4267.0474,-15385.784,-2373.463,28754.904296875
35,10280.679,17490.426,24464.38,-112.704605,-14411.866,7310.8555,30567.736328125
36,1885.0671,-3306.6152,-6297.3164,3820.4036,-20823.281,-1212.0756,37422.52734375
37,16567.34,25235.46,25887.941,3870.8835,-13850.939,-2553.6746,26856.626953125
38,5952.973,8626.459,-18197.408,226.16797,-12516.265,-2807.4253,33892.81640625
39,11097.893,18775.426,25837.322,-2207.2195,-14823.267,6098.7153,30796.412109375
40,17158.97,5857.4927,-13390.098,-5118.143,1809.1799,-2700.344,28740.224609375
41,11837.721,12946.3125,-11501.458,-3406.3677,-16061.999,1891.3625,37300.46875
42,10601.495,22127.516,13473.056,-485.8308,-14032.067,8767.41,30495.9765625
43,17652.193,25481.934,33142.64,-642.63,-18281.42,1023.1206,34452.6171875
44,29665.19,32097.494,40137.406,1639.123,-14846.481,8491.797,31237.125
45,11090.26,20618.824,27418.574,2275.3726,-7457.141,633.9774,19631.265625
46,5246.671,6327.3633,5920.939,586.7975,115.06432,-608.15845,1753.89294433594
47,23453.379,17965.56,11348.346,-6699.29,4024.8286,-14737.158,30740.990234375
48,20957.518,-973.5895,20825.049,3245.9534,1926.6622,-8178.7646,26860.884765625
49,13456.735,6957.808,34838.453,783.1184,2085.7793,-8987.771,29926.634765625
50,24737.854,24992.459,33187.105,4700.2896,1572.7013,-16198.07,30498.103515625
51,-12420.524,6518.019,-27553.434,-734.6919,-6322.6885,-9145.73,35309.3515625
52,-12682.076,-18076.955,-8485.687,1132.7144,-4.074854,-19468.574,34789.05859375
53,16075.006,5405.8433,32144.871,8682.944,-41.855427,-14124.316,36989.1640625
54,13100.495,3366.5256,24275.805,-2329.4792,-583.4141,-13249.216,29535.462890625
55,9183.436,1463.9039,15979.064,400.6459,356.70056,-15598.277,29816.318359375
56,24263.994,9794.864,28359.396,805.1168,839.78394,-15035.143,31106.458984375
57,-8021.6455,18481.375,-6332.747,2602.8118,1845.6959,-2159.471,26552.5
58,18684.314,10353.977,24101.576,606.1051,-4300.2666,-11478.977,24407.9609375
59,29118.975,24470.377,36711.258,860.7272,-2589.617,-14873.433,28293.876953125
60,5234.2817,-3416.2732,15943.775,1742.4004,-105.85631,-11147.487,25770.3203125
61,17098.148,17181.91,17398.467,-171.6518,-486.25143,-998.10583,1964.2841796875
62,2383.074,3285.43,3193.3474,-654.0739,7.0439425,-510.84454,1675.14404296875
63,-928.7725,1009.4168,9317.427,75.399475,9119.509,-463.58334,18413.044921875
64,22252.59,33027.703,45790.016,-3801.9858,12097.045,-1086.7657,30040.2890625
65,14713.555,25730.346,41132.668,-1095.24,13546.6,-712.4489,32923.2109375
66,13947.623,18404.047,28479.43,-4142.7476,16450.71,3023.7917,32512.58203125
67,16577.555,28871.256,30575.205,-179.9241,16840.594,-5934.391,33638.5390625
68,24491.479,33039.953,39301.734,1331.0406,17858.596,-1615.4763,33700.85546875
69,-2760.414,512.9733,-11139.978,3335.7322,20256.11,4369.847,37814.8046875
70,30417.953,36446.23,47181.58,-1910.5231,18171.525,-629.9824,34915.0
71,4029.177,17558.91,29883.35,-3002.9595,10937.854,-331.0502,29799.05859375
72,8153.7817,20091.975,23494.064,-2431.413,18477.451,-4787.594,36131.1015625
73,19362.533,26330.754,37086.383,-2726.5498,18336.152,2610.786,35924.6640625
74,45177.926,43424.617,46347.746,-7180.6104,19678.873,1239.0173,36435.65234375
75,14479.675,1371.3141,-18239.584,-1339.5765,7214.714,1445.8561,31325.619140625
76,4431.915,24763.771,19048.006,4991.658,14823.658,-4147.3257,33397.83984375
77,21276.9,26911.842,41302.055,-2409.1062,16478.732,4000.946,34641.0
78,17506.336,-5758.9478,-15896.404,3168.8806,3822.4763,5603.872,32373.783203125
79,15112.968,22531.055,31012.557,3656.154,10606.52,-6754.1084,26539.244140625
80,7355.333,27095.08,21077.873,647.70703,13572.556,-6216.3525,31255.66796875
81,11959.825,-8665.077,-27897.031,-3438.258,804.22656,3161.7842,35486.7265625
82,12636.899,1721.0172,18627.656,-1042.8293,15526.254,1243.4529,30846.95703125
83,22963.965,19669.838,28498.06,-845.7308,17638.72,-1826.9788,31705.525390625
84,21054.889,8138.9087,24039.865,-744.70654,17752.95,2237.397,34299.70703125
85,9443.259,8328.14,10114.541,268.6809,-273.17828,204.78214,1734.62524414063
86,24213.992,19678.617,26779.545,573.7804,-4752.629,16205.792,29923.58203125
87,41542.45,24273.627,44079.383,321.53192,-146.79793,15451.825,32636.017578125
88,23782.84,23890.297,50020.707,-3418.3428,1692.6661,9589.01,31703.55859375
89,26654.617,19095.738,24630.348,890.628,3934.4126,17941.297,32564.123046875
90,29189.707,20029.205,31781.062,2300.131,45.144714,15141.959,28602.14453125
91,109.87004,21940.248,-8802.626,-1439.6921,-101.819534,11268.867,33730.88671875
92,18906.309,14341.837,19556.064,3370.917,-8930.312,15194.177,31466.6796875
93,9753.586,1021.7613,-2518.023,-5142.3984,12529.117,11495.486,32655.6484375
94,13357.109,16484.844,24855.916,-4650.2324,186.96515,19260.959,35832.5625
95,22329.762,23834.93,29667.254,-2587.4153,-6077.114,19719.988,36641.12890625
96,11834.542,12195.002,19345.385,-4324.5034,-6101.9204,18675.506,35608.47265625
97,5396.019,-6657.853,5677.224,-6792.9775,-9298.883,10051.107,29149.271484375
98,11458.393,9156.82,17072.773,1286.2595,-793.7416,1804.2825,8146.17626953125
99,9697.562,19672.904,15239.335,3315.0535,-17856.006,821.06396,32656.38671875
100,20500.643,28665.676,35852.31,370.2012,-14398.557,-2679.784,28651.435546875
101,1479.4631,8909.625,-15486.977,2003.816,3718.1768,9921.524,28600.01953125
102,3188.0613,6607.7695,-2095.1848,1890.516,14984.611,-14574.089,37137.91015625
103,-5840.1333,6411.1074,4084.5686,-170.72641,17100.914,-3912.7332,32408.986328125
104,18354.814,11035.552,20554.04,1452.9474,614.8782,-15360.297,28103.17578125
105,16501.088,23176.72,30538.69,3703.322,-15475.427,-503.57803,30137.67578125
106,21402.537,26344.254,34515.35,-395.80264,-9884.006,-12822.718,30304.845703125
107,20713.643,21315.258,18241.031,-1503.1566,-18198.748,-3041.9004,32188.267578125
108,22479.764,25609.115,25518.414,3939.5461,-16962.455,-2400.354,30602.89453125
109,20042.066,28050.125,31845.666,442.17276,-13806.741,-3533.2021,26811.29296875
110,16183.295,19087.273,23431.598,-0.21894978,-10517.516,-11528.903,27758.30078125
111,28099.027,29888.594,33303.72,3948.7246,-17385.434,2605.462,31541.71484375
112,2632.457,6777.1157,-2525.4053,-2733.3552,-8785.155,9792.916,24633.583984375
113,15491.055,3954.8867,4237.2427,-4358.488,366.63596,4030.42,15363.2998046875
114,13388.897,6600.4717,-5315.749,-11849.709,8057.5557,-6672.8945,31915.09765625
115,4054.9573,-9747.587,-24886.736,-61.39967,13771.375,-287.05197,34610.3125
116,39750.176,49370.93,64982.625,-5375.4243,13797.073,-3560.4028,34384.1953125
117,2644.5708,21377.91,30731.555,3022.3254,9501.66,941.4408,30241.703125
118,21543.94,-2788.2485,-13730.085,-3203.3948,9613.859,-5549.2246,37127.66796875
119,23958.926,36032.64,41453.293,-898.86926,16191.933,3549.01,32670.3515625
120,12630.418,15760.191,25463.635,-8667.074,15059.385,15.767439,32249.53125
121,2897.8408,-22022.969,7403.5127,9790.985,6994.887,-8361.012,37386.19921875
122,12665.567,15542.165,24764.182,-1664.3293,-1524.0974,859.26624,11719.302734375
123,10950.304,12958.263,17496.434,-60.926937,-17909.69,3846.5002,32255.359375
124,11670.657,16089.822,22118.266,1955.1624,-15203.393,-1743.3446,28222.80859375
125,13799.184,11976.654,-4720.4395,3294.9304,-565.3661,-1221.6354,18723.015625
126,30167.912,33993.26,39746.33,-1024.0703,-13551.122,-3682.1619,25777.091796875
127,15411.846,-11318.052,-12319.334,-844.93744,3417.1626,-7775.483,30996.79296875
128,47447.543,45658.49,59291.195,7819.595,245.58653,-16379.141,33957.46875
129,24564.797,12621.482,26957.264,-1196.2578,-4022.7913,-13614.562,28033.037109375
130,-7283.407,9104.775,-7655.6,-3145.2634,-4704.516,4370.0977,20692.494140625
131,9419.745,10448.975,2928.5496,10416.754,-333.55957,-11687.321,28027.06640625
132,15030.985,16852.074,24285.285,7925.4707,-5495.9536,14880.921,31866.703125
133,-12073.615,-1025.1433,-38760.61,-1254.5511,4714.134,7247.331,36852.1015625
134,29714.242,21702.803,42417.305,-3909.7866,-1785.147,17099.475,35495.30078125
135,22476.504,18064.043,20346.777,-2128.6345,-1298.3406,16191.26,28630.9140625
136,24418.979,5645.812,26230.262,1378.9052,-1730.9956,13561.094,30921.173828125
137,18763.738,7225.5386,19952.762,119.66396,-5193.3223,14635.21,29526.021484375
138,2611.6208,-4164.714,-29363.605,557.72864,4238.8955,-9548.404,34351.31640625
139,46372.27,42657.76,63258.355,1417.4995,-127.12366,-14682.277,31850.357421875
140,32602.07,33517.367,33810.58,-474.2107,-566.741,-583.1723,1962.29443359375
141,-18727.797,-6086.344,819.35394,4818.1426,1136.7963,8041.9634,23713.5625
142,751.6543,4959.069,13027.098,7981.26,-1183.7664,-8946.774,23498.52734375
143,15354.614,4047.3997,23141.078,2974.567,-4227.8247,-13387.941,29906.587890625
144,22250.771,22819.65,36710.305,-1897.1152,17688.227,-495.82684,33931.265625
145,18560.297,23921.834,34966.39,-1073.1783,19435.527,-169.97688,36697.48046875
146,14134.807,32114.322,28360.795,60.992233,15919.988,-1414.2859,32190.296875
147,4739.5107,16184.31,31818.555,2393.0518,12959.987,-1589.1757,32908.7265625
148,14319.579,22870.434,37468.23,-326.9129,15974.843,-2854.5103,34661.05078125
149,44693.215,55496.812,71356.164,-2334.256,14275.11,2514.3657,34441.59375
150,9041.363,12902.721,-12047.6455,-11155.091,-4668.5273,-2078.5945,31507.837890625
151,-6939.251,-3977.638,-33410.14,-1345.6957,4073.852,-2486.4534,29353.783203125
152,29519.703,18401.227,34483.746,2435.4717,3365.267,-15020.396,30529.681640625
153,-20628.23,9436.376,-16220.346,8077.7847,-4636.446,1367.6263,32506.0234375
154,4763.718,-6315.013,11834.142,1389.5,-800.04767,-9106.174,22528.650390625
155,-6005.2314,-12223.472,6593.9795,-1297.8458,3526.973,-15746.143,32587.51953125
156,27371.742,22444.578,35102.81,246.45412,3489.9548,-14881.314,28691.82421875
157,24152.148,23705.84,39376.906,1735.0576,-13814.768,-3426.424,29250.35546875
158,21871.34,28414.938,25841.84,2826.3655,-15965.339,-4702.404,29792.30078125
159,20847.775,26446.816,26931.584,1901.7686,-16340.75,452.77808,29100.240234375
160,23825.85,27397.74,33731.11,1019.524,-15488.565,-5559.737,29850.115234375
161,14983.7295,23509.414,26344.574,2795.8967,-15728.975,-1821.9296,29673.36328125
162,17655.111,17256.268,26630.79,-191.30089,-16858.465,-402.8096,30618.978515625
163,16686.955,22150.09,29709.99,5182.397,-14242.272,4439.857,29606.322265625
164,29571.273,29091.229,35377.598,3172.364,-18126.123,-3125.4426,32892.203125
165,26570.662,21652.088,29059.822,6112.181,1680.5237,15776.172,30163.603515625
166,6021.7344,8132.844,12812.097,-1848.6028,10270.596,17531.314,35846.6015625
167,11121.1875,11497.82,16917.338,-219.5214,-16519.14,9925.985,33851.4453125
168,33460.58,20083.145,31455.89,-3258.662,1474.3184,16793.207,32257.865234375
169,28329.04,26030.488,42515.992,5534.915,-2442.398,-14887.933,31842.044921875
170,13910.156,8852.528,22321.102,2486.4316,-1.2840008,-19247.324,35620.05859375
171,-1525.0011,11951.913,-14066.667,9026.348,-9794.29,1035.0165,32301.185546875
172,2668.1143,7571.364,-9196.908,4813.988,2258.03,17028.135,34317.48046875
173,15849.502,13507.184,21028.238,-11701.936,10621.979,8590.482,31860.796875
174,27052.879,9923.879,30338.01,2989.2559,-3681.872,-13842.554,31666.861328125
175,1614.0259,5516.034,2103.1116,1090.262,350.82077,-19836.041,34610.65234375
176,14673.87,5015.9326,15214.21,-1503.1145,-1886.3069,-15117.239,28316.630859375
177,49232.63,35776.68,58694.004,-895.8999,-1907.6648,-15194.591,33224.15234375
178,18266.418,14292.906,18842.803,-1827.19,-16860.752,-5168.397,31006.7578125
179,6459.7837,-19632.59,-26146.246,3672.1921,13789.382,-1789.1938,38906.24609375
180,629.477,-1564.8116,-20786.016,2218.747,3660.3228,17137.756,36776.58203125
181,24450.238,-115.708755,-16890.29,-4147.466,4517.759,-2687.3997,37834.6015625
182,-7656.321,-28048.371,-32839.16,8541.324,5583.09,2080.902,29357.234375
183,21144.955,14128.521,25731.389,-191.25537,-417.79938,-14430.93,26978.412109375
184,7100.74,-181.97531,-5709.854,8109.7505,-6821.8335,-14120.39,32541.142578125
185,23630.23,14830.8,-297.57785,-3282.069,-2368.6128,1450.8359,22245.912109375
186,5207.9766,7151.3447,4729.827,-2983.9539,3243.8691,16970.604,30450.263671875
187,9714.807,-22709.352,-18371.05,-3613.7668,-1016.89154,-7744.6704,33936.72265625
188,10047.428,3099.8892,-6727.7676,-18289.73,-2549.4927,61.185204,35159.390625
189,14350.776,28322.344,31238.268,1452.8645,18876.176,-1699.0205,36446.80859375
190,-13149.524,-14734.409,-14325.466,-663.1934,422.66754,-197.95749,2000.98681640625
191,7340.6904,4170.89,2639.2798,-4355.7476,-570.97253,2138.6404,9426.841796875
192,9538.009,7385.548,9611.767,3683.542,13444.113,11387.787,31253.486328125
193,2158.09,-3747.8086,-16048.411,537.0896,16412.51,-5311.794,33947.796875
194,-15847.788,-15613.571,-24111.582,560.16675,3998.6013,-6221.0864,15339.3037109375
195,-7618.7046,1192.0751,-17024.018,-3083.6772,-11861.407,-1753.6675,26623.111328125
196,14237.399,11103.092,6706.222,6172.8594,1976.6393,20101.496,37164.25390625
197,22868.742,2285.9124,3027.3923,-1216.7706,-14263.742,-1293.4303,32074.357421875
198,16129.084,3217.5935,14714.822,-4443.2515,1828.6364,-18538.705,35366.03515625
199,-10321.393,-5834.0195,-18440.264,1704.3212,-16842.893,11199.863,36858.63671875
200,12578.105,-351.61563,2215.003,3938.6104,2459.0596,6161.416,17864.701171875
201,7512.9277,-1567.622,12151.032,11235.04,-15427.554,-1293.7598,35267.734375
202,-5803.092,30185.082,21059.246,1318.5892,2521.9883,-6598.504,34712.03515625
203,12492.738,-765.20807,-17190.219,1402.595,10909.526,80.74069,32035.771484375
204,-9393.256,-16093.595,-42684.91,6909.905,-6886.473,578.74884,34880.9296875
205,6415.117,3656.4478,4146.8457,1109.4371,-7667.3105,-19195.223,35943.33203125
206,21039.998,1408.466,-6706.469,1746.7716,-12915.838,5382.744,34743.19921875
207,27191.055,1856.5636,-4369.3843,-545.4791,-14799.392,3406.0503,39129.17578125
208,12334.467,-3953.688,-29773.102,1716.7467,6319.87,-978.9564,38523.18359375
209,20312.814,-1684.5735,7153.413,-2434.0298,-15414.365,4134.5825,33903.51171875
210,-12955.093,3678.4448,18343.473,-4396.6626,6303.6113,-4381.152,31152.0625
211,12921.182,-3615.9783,3398.1677,3619.5928,-6457.724,-5957.989,21853.734375
212,10371.724,-8549.457,1654.8314,-2650.3667,-13246.607,-3689.4634,29281.20703125
213,1803.2103,2169.157,-20945.326,2787.897,-1190.2483,4613.4707,24847.013671875
214,-6056.978,-11013.341,-17242.846,1781.9813,-13128.793,-13898.0625,34645.8984375
215,-6816.7114,-7300.6187,-19749.336,3385.5703,-7887.7646,-5962.3213,22111.384765625
216,443.9719,-3524.5183,-12061.74,-917.5922,9603.171,3557.9377,20968.5078125
217,10552.7705,22320.55,22513.242,338.12137,-1174.4183,9238.515,20032.88671875
218,-416.73267,-25730.943,-1057.2772,1380.9807,-1203.474,-180.21565,25202.548828125
219,-11371.06,-10482.3,-11142.993,591.0414,-156.08675,478.5929,1564.43090820313
220,-49506.652,-47629.754,-48025.508,593.6033,-53.509174,-23.63594,2000.98449707031
221,7702.2856,10309.948,10971.217,-9064.914,-2780.8298,15882.913,32178.865234375
222,-5031.104,8580.052,-31251.72,-3982.414,-876.77893,4898.3555,36763.34765625
223,8357.351,12118.117,7666.3447,667.50635,-11729.946,15994.767,34624.10546875
224,35221.48,31838.658,40908.9,4930.276,-6970.5845,15298.518,31366.44140625
225,7148.906,6732.492,15117.631,-3263.2126,-6083.2466,16868.152,32612.255859375
226,10104.475,12010.468,7434.5054,-4901.288,-11181.207,15748.907,34742.77734375
227,12897.023,18507.469,-12820.686,-6385.363,902.7444,9762.23,35324.671875
228,10045.02,10054.834,4696.3096,-1377.7344,10101.166,16634.81,34214.13671875
229,18047.936,19036.186,23759.125,-2560.9387,893.0037,18985.625,33635.98828125
230,40992.28,22386.43,43044.55,-2152.4253,-2926.9243,10966.347,28088.3515625
231,-5450.0234,6634.584,-28363.545,2038.8953,3056.2441,-1542.443,31553.109375
232,24987.867,28731.11,36637.77,-3590.4307,-11293.704,14235.242,33695.20703125
233,12299.845,12226.987,12651.171,-3471.235,4813.331,17083.195,31325.9296875
234,6050.8726,2270.4507,-7906.35,7704.8022,8831.79,6043.021,26038.03515625
235,15332.177,19499.295,29859.523,3883.2476,-4883.3535,17009.604,33950.4296875
236,-4802.2188,10771.597,17014.102,5082.7153,-4367.1987,9894.012,28409.9609375
237,-5050.8164,-13576.643,-6579.001,2559.8667,-6440.463,1508.7267,14591.85546875
238,7993.9463,-1629.4373,8476.767,3483.9001,17723.047,7823.6216,35494.33984375
239,27342.023,28872.512,28264.697,-2011.2264,18696.799,-6942.398,34745.04296875
240,25509.217,15564.368,29269.701,-2006.7925,16887.443,8611.423,35221.40625
241,-14552.774,-3250.047,-13598.869,-4896.841,13874.364,-9663.778,32364.74609375
242,48913.992,42737.777,43210.37,-4732.8193,12433.698,-8891.251,28347.8828125
243,24297.875,28841.205,19828.402,3827.1204,18705.977,3549.8972,34531.30078125
244,-8941.899,523.97394,-23610.281,-5137.6494,12901.46,1637.6925,32096.552734375
245,29986.865,26214.611,27053.965,-9929.524,15524.85,-5739.6724,33607.2734375
246,36995.387,40913.125,59729.82,1126.4484,13072.995,-5830.1562,32582.572265625
247,14594.924,9068.934,-8440.097,-993.5769,16037.25,740.98816,34785.72265625
248,-6357.764,-10281.175,-29698.191,420.06433,-9751.805,1765.9298,27636.435546875
249,59302.72,66054.68,71394.24,-3007.4602,16822.395,-8870.839,34961.99609375
250,18727.738,11637.252,19301.705,1840.5486,15667.547,10314.415,33472.59375
251,1910.6129,12066.927,19563.605,-7017.0283,17837.467,5136.3784,37641.4453125
252,29520.303,22202.707,34744.234,-2673.2048,18354.42,-1490.1199,34026.70703125
253,18348.482,16341.373,27486.725,-2082.8623,16485.86,7229.634,33030.984375
254,15838.535,18384.408,15282.255,-2146.7258,20018.768,942.015,35027.8125
255,5316.862,10181.916,1253.0493,-2409.2622,15786.05,-11643.745,35095.53125
256,17678.947,22642.469,30378.559,-5861.69,18475.85,-4833.3613,36333.390625
257,5172.3223,10848.501,-19621.723,-2425.554,13009.6,-4813.8726,37183.57421875
258,27722.824,21381.654,38016.645,-8658.338,17191.02,-24.400438,36372.296875
259,4871.5293,8469.369,7174.164,-1684.5715,1645.1447,-3521.8005,7987.75
260,12102.272,5719.578,2303.8079,-8002.149,10808.779,3701.9814,25649.841796875
261,10973.447,10367.306,10816.232,-259.41428,119.04191,-180.041,799.045776367188
262,-9028.986,-8382.195,-7819.492,348.23157,-129.3483,-489.60703,1494.00756835938
263,7270.0894,4640.8457,16726.25,-2305.3572,-5138.8086,-4000.8176,16259.771484375
264,311.07153,1442.1024,1542.0679,-250.16226,324.51053,-503.2354,1632.69421386719
265,-5134.285,14484.014,11576.118,-9248.393,3149.7178,-5758.7637,26872.58984375
266,-13954.684,-17644.223,-13309.086,2788.5479,-5503.532,-17691.936,32705.04296875
267,1993.6296,19985.71,5281.9487,-5302.5044,-9991.222,-6179.7812,27816.48046875
268,-1592.6559,5940.607,10984.0205,-6195.1753,15265.617,-5302.501,31918.439453125
269,15808.829,16874.312,16279.171,1032.07,-4376.2383,-20440.354,36261.95703125
270,7166.6396,6827.0063,12756.967,-1427.3276,-6151.9336,-12786.1875,25364.861328125
271,-9461.263,8587.946,-15103.853,674.16486,-7232.798,-16630.396,38045.640625
272,9122.476,7639.824,26493.1,3754.0767,-4260.977,-2976.6558,21284.263671875
273,15066.472,8862.134,2567.9438,4197.4507,1293.127,-3241.572,14372.111328125
274,8587.601,10547.695,-7387.1665,4772.1514,-8339.557,-6539.3545,26374.259765625
275,11005.557,18755.861,-5911.723,-2808.7854,3232.0872,-5839.336,25192.779296875
276,-7903.1626,-15832.299,6078.1543,10093.946,682.01514,-13740.703,35251.7734375
277,-2078.106,-7848.3286,-21430.238,-1742.5837,-3999.5496,5157.115,20809.154296875
278,2604.3308,10431.307,8563.551,3448.7017,-2337.4504,-8992.366,18568.54296875
279,653.98773,586.17554,1141.5214,-981.27216,120.477356,-515.22485,2000.98669433594
280,3416.699,-7575.759,3399.4202,-3776.3042,7109.0083,3971.981,19036.013671875
281,9812.769,-7025.51,-8613.296,5596.742,1020.33374,-5468.0933,22351.24609375
282,3463.4644,-4585.6157,-31272.55,-3092.6306,3035.8206,-238.53813,32377.4296875
283,6122.8965,-8544.237,-29986.594,4777.8354,-2469.7483,-8378.616,35871.7578125
284,-5666.048,2105.189,-12929.827,11574.787,-25.857517,-3239.8838,24556.5234375
285,3743.1602,13584.088,1877.6522,3459.5515,-877.0907,-467.23944,12551.916015625
286,8974.098,3388.2007,-10807.595,11192.179,15575.475,-5202.5156,38688.48046875
287,11528.635,-12899.52,-21807.48,-7356.829,7736.7393,-1490.2621,35246.19921875
288,13386.532,706.42145,-1066.891,183.91756,19352.639,-1686.9808,36312.9296875
289,-5618.0933,20777.934,-6643.638,-207.39362,1594.1576,6546.46,29346.1015625
290,-11042.632,11608.526,-5424.528,-1255.165,239.32883,5452.01,22615.32421875
291,9794.062,23598.41,-14415.063,-5150.873,-3514.6511,3706.7617,35618.90234375
292,-9247.502,-6610.2695,-31452.06,-686.29877,-16574.52,-4916.477,38165.80078125
293,20390.777,-6733.536,-2235.9553,12022.831,-1026.5264,11187.989,38030.0234375
294,16550.41,12699.606,29539.676,-5224.521,-9957.031,897.6813,24805.25390625
295,26515.246,6589.3745,24299.684,5301.283,-15725.813,-1470.7351,34503.70703125
296,10000.867,15860.159,7962.997,-1770.1265,-17099.86,9932.696,35114.32421875
297,2466.3508,16558.207,-4312.082,-1514.654,-2762.5144,-12899.868,29479.568359375
298,6016.427,1907.5032,-26952.295,1414.8428,7423.6577,8140.1636,36585.21484375
299,4677.0576,4337.5786,-4398.866,-4441.328,14386.756,-13018.611,35608.58984375
300,3912.4595,6608.4194,3860.092,179.22977,14431.147,-15849.473,37227.67578125
301,23215.787,19988.727,21688.123,-2761.381,20552.889,577.1224,36041.0390625
302,8193.898,-16580.266,-27488.62,-3608.5198,2979.2078,-1428.2312,32784.2578125
303,8884.85,10427.226,10414.914,-707.73914,-158.33688,-148.19617,2000.966796875
304,5701.934,24559.865,23552.246,-10913.323,-8040.475,5698.356,31405.392578125
305,21469.223,28032.855,27242.355,4984.6704,-4731.106,17121.557,32552.291015625
306,12878.248,10726.083,19276.918,-569.6584,827.8146,18057.072,32257.537109375
307,11579.209,190.36505,4040.793,-1032.1025,-1325.5675,18294.012,33364.04296875
308,2949.4834,14564.471,-7532.54,824.9509,-417.37393,-1276.0371,19338.51953125
309,18796.986,28435.424,24590.5,7461.471,-2907.3875,-4249.508,17809.49609375
310,2950.62,-12409.047,-2458.4883,6856.2705,-3307.9963,5982.126,21524.5703125
311,-10213.158,-10126.729,-17472.176,-7347.5474,-8524.893,3202.2727,21542.34375
312,7579.334,282.98657,17186.158,985.7105,-3990.0554,-263.66867,16325.05859375
313,-27997.074,-28881.273,-29385.14,-92.81313,-708.7474,-479.52533,1924.5400390625
314,16915.742,3113.073,26074.525,-1394.3667,-2193.8684,13716.798,31393.25
315,-4253.134,9473.612,5994.443,163.85597,-671.503,-18202.742,33885.44140625
316,-13175.6,14441.678,-189.3014,-14996.054,-3183.4175,-3795.4626,36345.23046875
317,7799.264,6183.6616,5441.6045,5414.6714,-644.07336,-21821.574,39014.14453125
318,-15236.901,-5969.982,-615.6808,-7098.025,-509.88824,-12270.796,27709.30078125
319,-2996.6504,21656.102,1190.0487,-501.33313,-11841.574,-3727.2957,31387.478515625
320,-2730.3674,13806.969,-2152.6377,-8824.453,2424.5032,-10131.032,28695.369140625
321,10815.365,25909.693,42325.215,1029.401,-2587.8232,-5425.631,29268.947265625
322,5650.2417,-17143.262,-24478.148,-3761.3962,13378.886,-4437.299,37135.27734375
323,27498.523,2415.413,-9845.464,-1633.5768,-3034.7146,-1319.4574,33584.0703125
324,21476.883,3924.428,4023.1382,-4641.2305,-15673.442,-1145.6648,33345.1171875
325,40618.066,5835.1016,20770.121,7507.307,-6715.7046,-2029.6454,35073.703125
326,-24644.709,-32786.3,-44059.375,7826.668,-13871.755,10207.468,36861.53515625
327,36508.168,14260.572,24812.021,-4684.2354,-2371.3499,-12237.1875,30058.052734375
328,2214.26,-17740.889,-23966.963,-5969.681,3849.3718,-3485.7046,27368.392578125
329,-5315.322,-4419.575,-3765.3809,-231.637,-736.81805,-229.17383,1939.98876953125
330,22345.75,23176.434,23747.805,468.2518,786.3115,6.8846126,2000.9765625
331,3580.3086,9569.041,-3455.6829,-10586.815,1232.368,5128.201,23392.3125
332,5259.82,15809.168,9732.012,-5020.1665,9456.855,18041.506,37476.671875
333,21769.486,18787.893,20047.953,-382.10098,17265.145,4949.7725,31223.630859375
334,11698.436,7955.0684,12135.234,-2542.8347,18332.84,9968.419,36628.18359375
335,6149.513,-6355.397,820.0769,-3727.4521,18228.635,3455.8733,34532.4765625
336,4108.711,25418.096,22684.176,-3149.9802,14813.542,2631.8079,33349.296875
337,-13012.968,-2193.1497,-10866.732,-602.08356,15218.65,-13527.751,36651.91015625
338,7994.3906,12679.69,4579.0713,67.00456,17193.65,-9584.237,34814.78515625
339,3692.0623,13136.398,25480.752,-11861.695,11542.208,3720.1282,34949.21875
340,11484.12,3880.3687,13098.207,-7276.543,13955.118,8202.602,31900.212890625
341,18736.531,18161.047,21419.094,2176.8713,-594.803,-20512.53,35869.76953125
342,-3955.5442,1063.2787,10049.161,463.4314,-318.70316,-18024.316,33565.015625
343,10916.294,20374.434,7399.341,4494.047,-1030.4188,-4290.657,15940.2978515625
344,3747.449,-7777.9805,-10191.137,-1007.0897,3325.2898,-8512.825,20496.130859375
345,17420.662,-787.33344,-4307.8213,3838.218,3390.3103,7975.3823,26029.302734375
346,27187.709,21203.957,37749.65,-1641.1876,-3078.4912,15167.1045,30613.638671875
347,1606.6759,27545.006,2143.1133,-8311.091,-9045.158,7978.486,36094.41015625
348,-4166.7954,-3359.2456,-3687.1526,-278.99036,1027.9784,-187.39418,2000.98327636719
349,1276.7065,-5752.1826,-22094.932,1654.6064,6304.02,-652.7889,23665.91796875
350,2765.795,-6247.5015,4878.3228,1970.4017,9557.222,14479.668,31927.955078125
351,6333.527,-9707.053,9764.627,-58.822063,1550.3523,-4144.462,19566.81640625
352,17222.967,11031.753,-18407.662,5047.7324,-597.8204,-7109.7603,36282.68359375
353,15654.296,6818.3726,7156.291,-3549.158,2519.9053,-9943.524,20704.16015625
354,-2852.0586,1782.3505,-16922.543,1188.776,549.2338,2516.837,17573.064453125
355,9372.203,4223.0938,541.69495,4261.243,-3423.8152,2063.043,12705.609375
356,3984.7947,-8469.002,-9637.586,-5516.2886,4946.409,9075.547,24141.2890625
357,-11982.049,8102.861,-16760.73,4889.441,-1489.2358,1790.7272,24702.474609375
358,-7316.542,3299.4976,17598.992,2291.1565,2144.6467,5741.1777,24441.96875
359,-1261.3353,-27567.455,-24617.63,177.29929,99.4599,11312.975,31736.244140625
360,-596.89996,6423.1143,-789.2393,-2922.4238,-5082.1924,9360.175,20411.12890625
361,3625.468,14507.945,22477.729,1225.245,-122.58959,-12808.428,27665.736328125
362,-9271.591,-4850.5884,-20840.79,-1036.3395,2891.7117,13048.316,27269.447265625
363,-10998.205,-3981.7954,-2163.6804,-10064.911,5873.817,881.9429,21795.369140625
364,-6728.548,315.781,-1821.2253,3111.1777,743.4383,-928.4474,8509.8779296875
365,-343.1611,-199.2985,1361.1405,-349.54062,-107.7564,-597.3956,2037.68737792969
366,684.97723,8592.616,2382.5442,-7016.021,1760.2611,15662.027,30738.498046875
367,-69.46686,-3278.0088,-582.16846,-894.913,-898.0306,-37.13191,3706.57543945313
368,-1316.8773,658.96564,17403.416,-3575.201,4328.255,-1071.6998,20380.337890625
369,-8155.8438,7585.1147,-949.7692,-2605.1772,136.1874,1695.17,14673.5146484375
370,-4118.067,3355.4006,4413.7637,1026.2495,1317.6195,47.31762,8559.0380859375
371,4877.0093,-5800.3135,-1653.4137,-6880.926,-3709.2896,-833.9981,16502.38671875
372,15966.563,4089.7708,9550.765,-1062.4143,-28.053694,-625.77704,10515.935546875
373,16023.448,5445.766,6984.424,765.7738,117.30421,682.34406,10058.662109375
374,4503.511,-2813.291,-1465.9232,2828.4207,927.2311,-1427.6034,8842.2783203125
375,7740.4043,1427.8073,-1712.8241,1350.765,-2067.1975,542.2468,9418.794921875
376,-1379.4198,34.813633,2072.4614,4188.001,-769.8826,814.91327,8088.40185546875
377,-774.66614,-187.11995,-435.97897,218.42216,89.491806,-35.979378,657.236450195313
378,-222.1718,-134.44722,-35.134113,744.73303,-194.98549,-37.508682,1344.779296875
379,-1101.6798,31.78987,305.6259,-1267.793,-473.95886,181.00363,2695.2216796875
380,-981.4628,-4993.2725,-11007.02,-6271.3228,2261.7485,874.1437,14560.6708984375
381,6597.8643,4586.158,-4140.9165,3350.3894,-1686.0553,-1595.841,12149.4404296875
382,1814.1694,1342.8749,1845.5061,3964.3733,517.15375,636.55493,7028.83984375
383,-1694.2933,-473.97168,389.11163,1855.6536,-768.96313,123.34768,3929.02587890625
384,8416.025,-441.21494,-1199.3348,-2118.7336,-6490.454,-6731.714,19014.029296875
385,15123.697,11916.717,5268.367,-4593.903,1465.1436,3030.6997,13157.2646484375
386,16183.909,2661.9036,10383.881,-496.3991,-14.44963,1437.662,12041.4873046875
387,4438.487,-2241.1733,-2000.6217,1881.3517,-1392.5995,1775.0131,8304.05859375
388,4632.1455,-7926.106,-839.18713,5077.966,1147.6625,-1062.9287,14269.998046875
389,-5151.8926,-1759.3535,497.82123,5867.2783,-374.84094,1360.5428,11554.7099609375
390,-188.98247,480.5481,-58.016224,206.65105,319.02313,-280.70312,1023.50445556641
391,-7732.074,-4301.8623,1133.1027,6227.8086,593.6515,-368.2185,13333.0078125
392,-8755.462,3072.459,-4050.4417,-5603.8545,882.61444,-1086.9911,14369.326171875
393,-7327.807,-206.94194,2458.0732,-10477.744,-2298.8374,-993.7533,20614.369140625
394,-3082.6963,-490.96155,-719.2638,-6884.905,3103.1453,-1470.8069,13555.8701171875
395,-20.09056,-1991.9607,59.05236,-835.25354,393.41907,-553.82965,2743.73071289063
396,8392.24,3791.6575,846.89374,-1769.1783,-1558.6841,-1704.3217,8293.203125
397,11421.305,-2391.8328,-5368.331,-5570.335,-1185.0939,1364.8562,18538.19921875
398,11299.202,3292.724,-3920.3281,1548.3186,-267.40048,-1702.1302,13783.3623046875
399,-6590.7793,16355.256,3572.8828,939.2612,-676.7749,265.82404,20020.927734375
400,-9346.786,4361.3677,-223.36067,6229.452,1737.995,-149.77303,16481.275390625
401,-16803.414,-5536.1973,-1913.2892,7982.692,-263.09512,-1843.4578,19556.802734375
402,9418.646,-4726.6113,-8111.2964,-458.4937,-1572.4739,-1480.4254,16554.314453125
403,15252.724,2450.551,-364.17422,-7078.131,-5110.0015,-4045.7542,22036.185546875
404,7887.376,-3267.706,-3184.5605,-321.0663,-168.54745,-3743.5413,12882.23828125
405,13532.25,4321.454,-2275.195,-3505.2627,-651.47754,-1166.2991,15209.5224609375
406,-3602.3298,5433.599,-7471.7637,503.80142,4158.2314,57.41303,13573.0791015625
407,-3349.8865,5972.5737,-862.96436,1969.2902,3993.8167,714.64,11442.33203125
408,2976.6943,11222.183,4690.1943,3087.0493,-1457.5344,866.00757,9695.7861328125
409,5567.5117,-3875.7056,-1354.2897,-32.38102,-963.0549,68.039764,8632.55859375
410,4025.3904,-2138.946,1298.9099,3689.421,-2421.8718,-242.18745,9339.89453125
411,3450.4487,-3314.9949,1506.9584,3942.675,-1596.6378,-644.7815,9587.9541015625
412,9590.449,268.4852,3018.1755,-2207.8772,1308.3367,2806.5676,10593.259765625
413,9002.011,-2859.3772,1752.3984,-1434.5729,846.3804,-1185.2589,10945.1591796875
414,-6531.484,-8701.558,229.69609,-8924.7295,-55.515762,-2208.4556,17851.84765625
415,6978.137,698.5539,-1156.4952,-2008.4579,15.649924,-234.05142,8172.5205078125
416,-261.1137,-1294.1621,1583.264,4814.0547,2891.4214,1124.8347,10236.03125
417,-340.22147,3877.4868,1962.3328,-9327.763,13236.393,2879.3872,28720.71875
418,9100.616,-4234.7725,5223.346,3109.47,292.15146,692.4662,13109.611328125
419,-11594.359,-1844.9374,-3474.4329,-3655.8064,-3973.717,-16062.86,30713.716796875
420,2662.3792,4655.0063,-3885.6907,3843.6125,2440.4592,-228.59428,11056.2197265625
421,7231.3315,3130.641,4791.9497,5237.4814,-1522.1736,-1248.6333,10328.8447265625
422,-728.8143,-10889.817,5251.327,5928.6953,-1318.067,-1282.0383,17758.47265625
423,21034.53,22873.225,11923.572,-4210.291,-1992.1812,2251.537,13543.8876953125
424,-11214.092,-8552.879,-1472.5896,-443.66724,-1026.0841,729.2624,9022.15234375
425,-5837.4214,-3454.5474,-1543.6262,2950.479,-66.54381,162.6675,6331.8115234375
426,1290.5157,7113.908,8442.19,1647.449,-1124.6982,157.81873,7444.67333984375
427,-3274.931,-4377.743,-14378.382,-9921.001,1301.5983,6658.346,23358.505859375
428,-1844.269,3815.624,4731.6406,-1443.8885,-1311.5664,324.17044,7056.08642578125
429,-5313.481,11445.206,3545.95,-4434.159,995.43976,-609.7285,16551.251953125
430,333.2031,2996.2627,1060.5023,2537.1406,1285.8335,-1008.02997,5744.8876953125
431,-9028.813,8567.33,2803.9775,-5989.8013,-4277.4,-2006.564,20396.76953125
432,-8651.728,7910.576,1050.4713,4687.436,-171.88379,-296.56448,16553.564453125
433,-8433.567,13494.004,1492.4224,-2012.4269,-2729.7917,-3892.9175,21015.7109375
434,-8435.3125,1785.799,1100.4248,3766.5752,297.68973,-869.10913,11959.462890625
435,-3297.7073,184.6448,600.456,-2459.5254,173.89246,-934.795,5882.83203125
436,-13417.252,-7573.74,-3511.6553,6740.767,1091.2948,2093.3809,15080.3623046875
437,-10174.659,8933.997,-3428.5862,2153.7402,-49.904587,-181.78596,17197.798828125
438,-4495.7363,-4761.9727,-6716.006,1293.7914,-527.1903,366.14896,3266.04248046875
439,-18033.268,-465.86777,-9731.118,273.2151,1895.7421,-656.2716,15620.1650390625
440,12401.005,1138.3083,1235.518,-1752.5978,-821.79565,-326.27927,11718.49609375
441,2990.5981,-1328.5616,-208.241,-813.5057,-334.13153,-921.10767,4465.09130859375
442,11933.357,-2837.5403,411.95663,-24.733122,836.5533,1754.2135,13859.068359375
443,1982.7294,-2744.3557,49.56385,4005.6152,903.56635,612.16986,8285.6884765625
444,8385.85,-1404.6044,-3586.0667,-2506.4463,-696.12585,477.4159,11956.322265625
445,4935.8525,-3000.4136,-1251.4268,-5558.8813,1621.9823,5206.9404,15300.1796875
446,2489.663,-3305.9604,-1414.0563,2948.348,751.1831,-871.51605,7500.2333984375
447,4269.0303,-3030.78,-1236.5573,131.00916,-1520.7556,174.40967,7105.619140625
448,445.3925,-46.922794,276.97787,-814.18427,-276.0108,-94.924355,1559.51611328125
449,-5952.0693,-4117.08,-2482.7214,5145.8022,383.40683,-315.72534,9445.3818359375
450,364.4082,1366.4432,761.104,-1501.5293,231.4191,4948.3096,9008.08984375
451,-2327.0193,525.8323,-740.3454,-3492.1868,409.93713,-486.48697,6627.9716796875
452,-4657.71,-549.6662,-1970.289,-4790.833,-15.986643,-333.46494,9069.11328125
453,-3955.9468,-2406.9175,981.1646,-2343.7148,-415.40524,-272.99582,6028.85498046875
454,15443.483,7164.544,11215.672,2579.3047,-6539.797,-3058.8708,15091.34765625
455,-3260.792,185.33905,-2192.3901,-4031.896,1140.7507,1568.8,8330.146484375
456,-3168.8296,-2781.476,-2469.5547,4436.966,248.5657,254.98726,7733.599609375
457,1851.9652,-3351.664,5922.4517,2419.7205,-938.4122,82.40455,9222.54296875
458,-4657.3306,-6039.4653,723.70856,5174.1045,-387.43982,137.44672,10914.4072265625
459,-5205.42,1022.7166,-5781.4155,-1769.1766,-2027.5315,1109.0826,8253.5830078125
460,-5127.651,644.6072,-3834.5256,94.09151,42.654552,-44.914486,5250.23388671875
461,-6712.3174,-639.6634,1448.8041,4516.145,-1247.588,80.21545,10945.171875
462,-2759.9758,-3432.9995,-2372.7092,-2012.5974,2842.635,-779.46906,6251.37255859375
463,6880.078,-326.00476,1660.0977,-1277.1589,254.52449,538.7402,6893.38037109375
464,7923.622,-570.78357,2504.1038,522.7167,432.99042,392.823,7572.02685546875
465,3455.609,-3161.0696,981.5877,344.2621,-26.68419,-6.111587,5821.4443359375
466,1263.6356,-3903.4167,1289.3219,3524.6936,-634.8162,-78.24125,8082.66943359375
467,675.0638,-1728.4584,1239.8622,-3757.9426,-944.6514,135.14772,7249.255859375
468,3885.3936,-3637.8364,-2955.7078,-6127.9814,-1689.2205,238.28508,13165.0927734375
469,5193.707,-1855.1292,-2120.0083,1349.3672,-582.8552,-227.49223,7632.83251953125
470,-5211.56,1616.3083,-577.9637,841.60724,478.00366,636.2747,6362.17919921875
471,-1217.8896,1209.8793,-3204.8594,2690.2478,1957.4421,119.612015,6922.13671875
472,14765.013,7430.517,-3501.6467,-8793.808,-2945.0476,2553.5513,23044.82421875
473,-4918.057,-945.446,-1899.9064,-1934.4568,-1074.0809,-1078.7218,5574.8701171875
474,-6701.7017,-5069.224,3455.111,1895.66,-47.768036,-1464.5941,10318.3134765625
475,-7129.251,-1971.2349,-2545.3608,3639.1606,309.1403,-742.7099,8102.1865234375
476,-4701.4956,4356.148,1900.988,4478.8027,-1652.6016,130.2863,11586.8017578125
477,1622.4664,-1175.0188,-1777.4753,-2036.1138,143.3442,-1542.9861,5432.82421875
478,-17917.59,-3158.374,-280.1427,2812.7854,2065.837,-1582.0991,17681.8125
479,-536.3212,-1154.2343,2409.5442,-2310.0212,936.93976,-945.66327,5674.96484375
480,-5552.1245,-9732.756,-6689.6436,2695.1248,6290.2593,-5744.266,15921.65234375
481,-4727.3125,405.04483,1861.4302,-2965.8066,-668.2871,48.541462,7979.45849609375
482,-2424.3203,64.84608,119.45995,-619.42554,-271.95782,2.8735363,2776.30102539063
483,2000.037,3101.891,-142.66217,825.7146,-766.6975,170.96541,3473.14868164063
484,1216.7368,-5701.2246,-1129.8778,-2618.8188,-418.0693,-334.52148,7652.82275390625
485,680.3039,-7544.913,-799.79285,1613.7693,-347.47412,428.46036,8148.40283203125
486,-1496.373,-1657.3491,-1086.9579,4226.6104,691.3832,-85.774704,7436.95166015625
487,-5121.205,-3800.2822,623.56775,2724.3284,-459.42416,-277.5224,7091.474609375
488,1206.5228,-3436.437,315.4449,1746.152,-640.11053,-440.11755,5401.048828125
489,-3222.2253,-2862.461,2087.3147,3350.4023,-1012.67993,-0.51919466,7947.49072265625
490,-2651.6262,102.19894,2690.4258,1539.9602,-401.10287,-2178.37,6575.9384765625
491,-1254.7448,-1283.2343,-22.524185,-1994.0271,-326.15475,74.09705,3717.2998046875
492,-4854.875,-3155.6873,-965.4203,1332.5297,-640.49316,202.2587,4252.82373046875
493,-7950.877,-3429.8457,-1406.9469,1889.8872,1556.5977,-451.96445,7230.09375
494,-8313.12,-4421.6216,-3871.4502,3740.5764,-1011.3875,-1549.4594,8356.6962890625
495,903.7549,-5066.3174,-396.3133,2487.3298,660.4561,193.1263,7039.2734375
496,-373.57312,-4555.4146,-575.99304,2356.2803,-654.2337,393.35822,5923.40380859375
497,1921.5466,-3076.9653,-77.301636,1595.3634,654.478,-44.46286,5283.5361328125
498,-2110.212,3757.3206,1828.6771,3033.0593,228.13852,-694.561,7485.5166015625
499,-5765.246,1311.6954,-1506.3315,873.6207,-921.169,715.2489,6667.1884765625
500,-1442.1307,618.73566,601.0437,577.9469,-422.47018,-20.523098,2397.87353515625
501,2369.585,-2221.717,970.46234,372.05206,-82.51916,-625.1043,4268.6962890625
502,461.6067,-1815.535,-2474.0247,-5844.3115,-61.697697,829.8891,10567.1171875
503,1915.8877,-2159.6633,1126.1124,-313.94937,-968.9169,-131.53018,4144.765625
504,-5361.375,-1553.0631,1145.6184,4013.4114,-1148.8278,-374.84116,9206.8935546875
505,-3144.4229,468.75024,1050.4717,1946.9514,-458.69412,15.737267,5243.95703125
506,-5542.532,-3476.9253,-2745.9324,1135.4269,-215.07526,319.375,3259.35302734375
507,-5980.0327,938.0972,956.8967,2664.93,-2139.1624,175.20018,9116.83203125
508,-1058.7595,-1751.6614,-245.58199,-3807.7212,-74.5127,-244.6639,6737.75048828125
509,892.38007,-4617.2275,418.23682,-1010.68475,-487.75772,326.82452,5662.76025390625
510,10491.997,2166.1145,3354.7107,-2428.9822,171.72333,-1317.5564,9156.044921875
511,-1737.82,-2196.3564,-944.4918,1184.3734,475.00992,439.00046,2581.9921875
512,129.93643,-4047.478,-786.20807,-161.78424,514.5868,-47.09518,3916.95947265625
513,2535.2188,-2897.7695,740.4662,-1926.8762,208.31706,-392.6921,5892.28271484375
514,-1001.98,-965.226,-1617.7562,6526.093,279.73608,-473.6194,11361.361328125
515,-1569.9261,2439.243,883.3553,129.66277,-202.00592,-157.61804,3536.0703125
516,-4260.1445,-962.25964,1110.3451,3544.2341,65.370705,215.2559,7735.86181640625
517,696.07697,726.31525,-591.98846,-212.04588,148.14241,147.111,1401.65246582031
518,5963.1753,-6369.1978,-3541.8594,-3918.543,152.73491,-8236.003,19360.87890625
519,897.69385,-5754.7764,662.2284,-440.1437,-440.4257,-411.66016,6664.5234375
520,-1087.1056,-2075.1328,1123.8599,-3012.5188,-1178.1213,-434.87024,6325.03857421875
521,-4757.901,1321.7538,4771.882,3749.479,1391.3752,864.6153,10957.52734375
522,-2939.0173,3390.129,-1303.1039,-2854.7341,1207.9045,-438.2353,7860.16162109375
523,4362.464,5061.013,-2180.3572,-4929.0464,1476.4114,1967.3824,11785.7802734375
524,-4658.1226,216.89821,-139.36629,-989.73224,-91.327614,-412.1722,5062.54345703125
525,-4047.2664,1216.6613,-314.25037,-2799.4097,-653.0391,-184.75804,6847.32666015625
526,-4297.446,-844.312,-1733.0077,507.55347,-403.63153,287.82397,3339.9462890625
527,1680.414,-31.123064,-1649.6667,4.631401,-300.7518,71.36915,2933.58837890625
528,-5126.5093,-1408.6155,1398.3748,-94.981865,-1599.1311,484.77625,6367.24169921875
529,-5906.5264,-2624.3157,-448.67416,-689.9125,-26.880966,-40.09021,4907.35791015625
530,-4400.804,-855.1786,799.17474,4176.848,424.849,-516.9411,8651.90234375
531,-654.4927,-4061.1318,-996.6624,2871.2124,513.8704,-93.624504,6008.88427734375
532,-5886.3433,6207.629,1973.1152,1558.2607,-2540.8198,-54.187344,11817.09765625
533,-1607.5509,-1463.4963,957.02435,4409.9097,-307.55267,212.56886,8061.6123046875
534,-5310.021,-1708.9998,-496.41153,3010.761,307.95325,-290.73587,6821.76025390625
535,668.0836,-4465.561,243.93698,2935.1765,-41.706642,-381.62976,7116.509765625
536,843.87317,-5020.5283,281.46365,1933.0652,-439.39246,-228.83032,6584.51416015625
537,-1158.9141,776.11346,1172.8824,730.15186,245.14203,-403.70297,2634.02612304688
538,236.71454,-2181.2617,717.7673,436.64838,-203.31741,-485.91827,2940.33056640625
539,-2064.8223,-115.30715,-556.7869,-696.59607,-66.86732,14.957551,2145.84838867188
540,-1051.8633,-4932.886,-859.81146,1012.1488,707.95374,790.2229,4721.744140625
541,-3273.0798,946.9298,2181.1602,408.89346,-680.92395,-219.1231,5155.27587890625
542,587.94196,-253.86375,1091.2806,1008.7051,-73.08436,382.4235,2211.99560546875
543,1729.5785,5227.288,-782.9705,-1367.002,-345.69894,563.77405,5852.62060546875
544,-9133.194,-3138.215,-896.7631,4343.838,-754.7368,-1360.0149,10875.013671875
545,-5418.3843,-2276.6858,-1208.4589,5912.5894,436.84482,25.522306,10946.1416015625
546,-3175.1907,2090.8564,2075.288,845.491,-3617.1045,1566.422,8741.0205078125
547,-2016.5552,-1469.7872,-1671.6143,-1124.5168,-129.85808,-75.416084,2022.52404785156
548,-3728.7073,190.07956,1157.3656,-983.85455,-562.41626,-211.63075,4906.15234375
549,2670.735,-423.14258,-808.0298,122.285194,387.24362,-241.94841,3403.13989257813
550,5086.0547,-565.1614,-32.26695,-1473.1221,-121.59933,-243.22789,5995.06640625
551,-14.625075,-2184.4036,-903.42365,-28.230433,-313.10696,-1.1547608,1966.19128417969
552,1297.986,565.3355,-268.19308,1174.8123,566.65076,-404.4388,2727.04516601563
553,2670.6,168.65123,77.33031,-830.30804,-256.47504,-154.84087,2972.2158203125
554,-5637.9014,1188.2175,-1187.9763,-1088.5303,-1223.5554,287.33563,6657.00048828125
555,-1669.4928,-3201.448,305.65683,-3137.0684,-218.74158,-530.4396,6307.54931640625
556,782.45966,-264.68872,-238.66063,-1624.8885,1023.58704,998.0203,3888.70874023438
557,2850.8252,1972.5935,749.37164,-463.79108,-519.9435,-535.8487,2378.98413085938
558,-3001.7798,-952.24274,1674.222,1274.7803,216.82765,542.3365,4730.81201171875
559,-2419.7598,-589.2451,-835.1675,768.72235,844.25134,344.75436,2688.63305664063
560,-841.65454,-691.0636,-363.94165,2341.1926,-89.30563,507.3736,4173.57275390625
561,-3745.2366,-3162.4534,559.229,335.75967,350.82,70.875114,4133.0361328125
562,-3116.1904,-5807.0303,-574.82086,1931.6377,734.2628,-142.85727,5780.13134765625
563,-74.24783,-4752.335,-552.8038,-2063.9746,743.007,-676.7143,5973.6728515625
564,-77.34868,-5319.8003,951.4594,117.71476,-1187.5303,528.93225,6248.74267578125
565,-156.1508,-273.97165,-319.20987,-1785.1411,334.32178,-309.38916,3194.35791015625
566,2394.9966,-1193.2438,371.8464,48.984756,32.1076,-584.6127,3277.9052734375
567,-960.23,2760.2627,416.55667,-37.584053,-542.33734,-185.00821,3406.55151367188
568,1543.2426,1194.383,-51.372528,-220.62856,-463.46964,-379.11258,1824.78100585938
569,-822.8388,-1945.0149,137.78181,376.3551,-242.0041,-45.59089,1966.44836425781
570,-599.14935,-1368.65,-329.43655,-1074.4122,247.47403,-142.8725,2140.20385742188
571,56.139435,1081.4304,434.66608,-1467.8796,-654.33276,-577.5216,3091.19116210938
572,434.33713,2933.3381,403.19614,-983.1434,477.93155,101.42548,3152.71728515625
573,2.6591964,2419.3115,18.915741,-1160.2585,-320.58902,532.5601,3316.47094726563
574,994.6597,-1564.458,1194.2661,-2840.0042,-506.61093,384.46353,5701.75537109375
575,1739.0613,-1903.9747,-1014.55853,3064.7966,-51.74213,402.74905,6284.5986328125
576,-4687.6226,-2976.034,-3222.3496,1390.8314,-2166.5562,-433.98538,4797.7890625
577,-2790.1418,-4703.5903,-2331.5874,3403.9893,-1602.4932,-711.72894,6980.9765625
578,3383.4414,5209.2324,7829.7705,-3026.39,-661.71356,-1292.0233,6984.5517578125
579,-7053.4126,3978.7988,1337.5411,-739.9555,-1914.4982,129.69319,10594.1494140625
580,6108.395,-3459.5762,-347.54855,905.33905,-76.61891,219.38112,8606.736328125
581,-1107.0902,2983.373,5377.612,-3143.4663,-2734.0125,1296.7004,9453.6083984375
582,5799.275,-111.68551,5479.979,-6321.374,10.519852,-2189.9143,12939.1220703125
583,10345.654,1248.8379,2941.6768,-2897.912,-691.1475,-565.63416,9889.6357421875
