Element Label,S11,S22,S33,S12,S13,S23,Mises
1,1826.0208,2001.4641,-124.89134,-203.92004,-81.134766,125.688416,2090.69482421875
2,1394.793,2293.4924,436.3392,-178.11606,41.107353,-130.40471,1654.96752929688
3,1023.4898,2067.0955,-621.5112,-132.82236,2.5974312,26.356037,2359.42846679688
4,1128.0035,2374.25,422.182,599.30273,-1.7307768,-8.884343,2002.16857910156
5,1201.5248,2196.46,-958.9184,335.70236,0.18644528,74.65514,2856.87231445313
6,1841.554,1857.1244,613.06964,171.47917,-14.552395,-109.63036,1285.86596679688
7,790.2123,1935.0851,-707.86646,-257.45074,183.18892,-1.6166946,2360.001953125
8,1917.1604,1934.832,773.846,124.29091,-199.01651,8.280292,1221.90734863281
9,1296.2135,1966.8435,-611.7789,340.64294,140.59908,64.571075,2406.17163085938
10,1324.6489,2209.8833,1163.0952,676.8743,-56.86809,-159.12039,1553.34753417969
11,1403.98,1687.4921,29.0675,200.8976,-27.711264,-29.257837,1576.86999511719
12,1145.006,2092.1575,-28.196102,282.14783,-53.915565,56.611156,1908.36486816406
13,1856.0065,2606.79,-50.416336,84.38785,44.228153,-35.42299,2379.166015625
14,1511.1265,2267.5193,53.099243,166.70695,-41.675083,-64.80229,1975.34729003906
15,1499.122,1384.0768,-490.52744,56.972824,-30.455288,-96.62305,1945.13989257813
16,107.372086,1005.49963,-1655.607,-440.0398,715.62335,57.54034,2761.39404296875
17,2254.9214,1421.847,-2885.2268,62.950577,763.16833,-172.9113,4968.0849609375
18,671.10394,2647.2922,-3118.7273,-2495.1538,1033.495,-1177.5061,7197.14111328125
19,-591.4538,3324.1758,17422.521,-2237.7266,-1891.8176,1315.7769,17327.79296875
20,2076.7527,2684.94,1083.4297,-183.07758,16.134205,184.9078,1471.26293945313
21,2332.6636,-315.16296,-1608.6779,238.11632,-755.59784,-893.73584,4048.251953125
22,-6723.693,-212.12234,-1823.7698,2792.2908,-313.14044,9.028007,7628.15087890625
23,28.307209,-393.04224,1902.9795,-1047.7201,-1589.0157,-669.16046,4085.7333984375
24,-1312.442,2196.409,-2426.3862,-195.00075,-479.34683,-581.2803,4390.74365234375
25,2085.017,1614.3374,1239.9718,1009.5477,34.173065,-521.60114,2101.22875976563
26,2182.5388,1875.6993,-5118.8633,422.04016,-639.8402,-13.908881,7275.12109375
27,2629.884,1950.8468,1973.4718,281.83588,254.57556,-132.13301,965.058654785156
28,2478.5073,2874.261,1755.2856,635.2204,-62.399353,-8.748726,1479.29504394531
29,2716.4067,1465.3658,-521.9779,56.303646,248.13043,60.9576,2864.65551757813
30,956.38007,4599.333,-3637.2922,443.71143,-1931.0238,-1013.81604,8122.07666015625
31,-812.12427,1566.7477,-376.38895,-433.8807,-325.662,-349.53635,2462.0703125
32,-1650.1182,1025.541,-1118.8038,-903.93915,214.34128,-430.63672,3027.42797851563
33,2835.836,1201.7563,-1463.1195,837.4854,-256.4516,-150.43109,4061.49438476563
34,690.594,2030.8544,-762.7928,117.38936,-91.63214,300.84985,2488.8974609375
35,2081.0437,3760.9927,808.8306,-285.36786,18.75828,-616.8301,2822.19873046875
36,1766.1691,2504.1057,1007.80206,-46.95935,2.0855181,77.56646,1305.3642578125
37,1854.7396,407.54684,1669.8704,28.412992,296.42105,-130.40295,1475.81677246094
38,1780.9236,2445.4468,10.049859,-776.0417,-60.72892,-133.81212,2574.07739257813
39,1823.6195,118.170456,1020.2238,-1402.8989,376.46924,-529.7559,3058.64965820313
40,780.64124,1557.2036,36.355717,-1823.2445,-43.750366,158.13416,3433.42651367188
41,2511.0278,-131.71783,1651.5464,-1169.5037,-177.68832,-56.835907,3107.90112304688
42,1077.3372,6512.1333,3448.54,-3767.3816,-980.8231,1499.3335,8630.3037109375
43,-1173.2902,2973.3313,14260.823,1834.9854,-4589.2993,-3080.8284,17122.146484375
44,-1319.4717,8733.811,-3089.667,1848.7631,-4441.9126,-533.309,13867.125
45,-1551.8173,4834.8086,11733.433,3812.5205,209.23283,1301.5193,13463.2119140625
46,1810.2948,4011.1694,1695.2347,1918.285,-55.72212,227.59296,4039.119140625
47,1515.8855,-2103.4028,-1075.2896,-1855.798,1118.3549,1373.4629,5493.49951171875
48,-3726.166,-2330.2446,-9804.903,-1955.4523,1947.8104,-1562.6149,8807.0234375
49,757.6869,3711.6873,-5287.1167,-1085.9852,-593.62085,-459.6473,8267.478515625
50,2441.115,3526.4304,-2647.557,-183.69928,-443.36682,-483.24792,5829.82421875
51,3542.8247,5091.3286,5910.7944,875.8846,1034.2563,454.1531,3235.37939453125
52,2234.1892,1754.1835,15.98975,16.945896,171.53137,116.53645,2053.27514648438
53,1660.5251,2488.3105,-2008.1537,375.48804,190.77905,346.65057,4251.349609375
54,1519.2728,1441.9543,-686.7856,894.76044,-266.28082,-622.4339,2911.85180664063
55,2443.0,4037.4255,-3044.0803,1033.6891,-1282.1857,-1197.7305,7337.58837890625
56,-2772.5974,2481.7754,832.64484,2604.713,-141.71613,-224.1277,6498.265625
57,219.94911,-805.3258,-2454.2964,2106.066,-637.3841,160.23933,4479.2060546875
58,1682.1046,171.30746,953.3808,1548.5653,3.2331095,-113.19834,2990.85766601563
59,3766.8643,4564.685,-1615.588,351.0076,285.6005,590.3509,5963.3388671875
60,-791.7258,3524.8723,2125.8193,-793.2506,-44.348846,-477.86542,4138.83154296875
61,1698.515,2865.518,-475.66586,646.0946,298.60034,-144.18237,3195.05883789063
62,1057.1321,2440.3428,602.4196,627.4343,-202.4436,-8.880368,2013.2578125
63,1750.9326,3080.3098,1020.80963,790.00696,-192.99963,474.38968,2435.18969726563
64,1527.2622,2451.766,-404.77435,725.5663,236.99799,91.79168,2854.25463867188
65,1773.9213,1930.0657,-31.291151,438.26886,-106.20584,-513.0952,2228.21118164063
66,865.9464,2193.8047,20.133532,208.12164,160.5231,-201.62064,1982.65625
67,1246.2441,2412.659,-187.2825,540.3078,14.255064,243.07858,2478.16015625
68,1061.3037,2265.0933,-146.64629,-124.87926,44.326714,50.333572,2103.00952148438
69,1764.6718,2116.1448,467.07828,171.79552,422.16287,74.889946,1703.93139648438
70,1796.801,2347.8662,-268.63672,-170.71059,-182.24164,355.44125,2504.79028320313
71,2000.565,1796.8046,1662.0934,-442.4462,137.6966,-44.65426,858.634460449219
72,1933.8894,1781.6635,-281.0301,-291.63403,644.9551,-300.29977,2522.9873046875
73,1087.862,720.80774,809.3222,-696.0162,-89.181015,-57.528893,1263.79504394531
74,1226.0692,797.4214,-735.3186,-1028.6309,418.7288,-1270.2946,3425.087890625
75,892.8107,404.81116,-1582.3373,-1130.0995,40.17818,1000.1193,3463.17236328125
76,-2368.312,2483.7144,307.48685,-126.59692,-571.9992,59.205727,4331.1845703125
77,4730.7515,3548.4438,818.44617,-2081.8352,686.90576,-1322.3265,5633.97802734375
78,294.37115,1699.5035,-955.0028,-915.3368,493.63016,-1767.6317,4231.8994140625
79,-694.16016,-3218.7393,778.70667,-203.15237,-1360.8475,1715.2404,5173.67236328125
80,-454.6443,2878.1235,872.079,-1618.0182,-585.93427,26.098907,4163.15087890625
81,1796.6349,1734.5149,1524.4888,-1498.7228,-688.8666,-622.498,3063.60083007813
82,-1449.1432,-1392.2483,-146.89038,-1907.5022,1154.1938,-1470.7408,4798.5859375
83,-1142.1263,4104.99,-825.02673,-1315.6777,872.6572,370.02362,5818.7021484375
84,603.9611,775.07214,-674.935,1194.8778,-1008.36426,14.20345,3036.09741210938
85,1791.4183,1304.5345,1785.3301,131.79913,1011.0035,261.70853,1886.29260253906
86,1182.8755,731.41425,-1607.3927,496.3874,-114.9932,323.68848,2796.94653320313
87,1733.0829,2174.1355,-132.449,168.9433,36.26736,72.30443,2145.4111328125
88,1692.3916,1386.6398,28.922863,-119.8936,-133.76736,-255.3905,1626.18615722656
89,1842.1702,2150.9277,720.61554,199.20895,-185.3813,24.27512,1386.87548828125
90,2342.969,1702.1658,105.65404,174.68431,334.31262,-6.438654,2099.87890625
91,2302.4724,427.30298,1321.4342,275.55325,-29.52438,253.69942,1750.02221679688
92,2625.565,5062.236,836.02966,629.8372,-231.3943,26.079752,3853.96752929688
93,475.33087,4618.718,990.26385,2132.405,-3.1540904,358.23856,5415.32373046875
94,387.53656,1823.4309,-983.79877,341.52356,-399.9902,-887.57544,3017.40087890625
95,-529.3829,896.6082,1122.0417,-1947.7864,-42.118057,-403.93796,3779.17602539063
96,785.46436,2553.834,1914.0894,-239.78267,-579.3038,55.52545,1895.68310546875
97,1036.5171,1501.323,-1978.881,-492.9612,152.46835,-165.1896,3404.5380859375
98,2510.071,2221.8528,-531.1453,551.18207,48.302113,98.08518,3066.3984375
99,3965.2756,2405.1243,1762.7068,-3072.754,350.14438,862.9568,5897.14990234375
100,4132.7466,3951.5657,3556.5154,1745.771,-784.77203,229.702,3377.79614257813
101,694.3906,2549.077,-735.13586,1539.7456,1525.2385,446.35236,4777.439453125
102,2133.651,1153.0626,2509.621,-255.05586,1914.5591,422.94833,3633.18115234375
103,-292.65805,2167.895,-4655.445,660.3266,-378.30295,-456.16797,6179.38525390625
104,2094.7979,4078.738,6912.68,1064.6127,1697.4484,403.5917,5488.39404296875
105,-512.26715,1355.073,2823.7524,256.34177,255.07007,513.9276,3093.73291015625
106,398.2529,2900.2722,612.5273,690.09863,91.55307,137.96896,2698.30615234375
107,-257.96634,492.1639,-1979.7329,701.78503,-213.6383,353.1746,2609.09033203125
108,1374.1082,3662.393,3200.9297,1203.2284,530.7831,-325.52975,3146.36499023438
109,644.3604,1744.7695,-107.93043,-972.7206,48.911564,365.6212,2418.97485351563
110,470.35965,-1493.8658,-6213.6104,-607.35187,-256.86154,878.184,6246.8388671875
111,320.35757,3116.3108,1160.9783,466.7557,-657.2768,-760.92206,3140.10986328125
112,1284.7861,2346.043,7.9325695,131.15535,46.92133,-1.1169927,2042.03442382813
113,2248.1853,2479.6343,-657.404,917.80927,399.67978,357.6575,3543.81469726563
114,1588.7247,2176.3953,-480.99368,706.5233,-78.25884,-124.064606,2721.66821289063
115,534.4448,2503.7568,581.63904,57.240696,-228.22571,-261.19543,2039.17553710938
116,1377.3783,1152.7283,-953.315,-64.52613,-777.749,-463.2118,2725.77978515625
117,1454.7329,1605.0942,1164.6986,-263.8857,38.224823,-195.86525,691.894775390625
118,597.40393,2177.0505,-396.552,-1106.2046,-377.52386,-349.2868,3085.12133789063
119,-1020.23865,649.13416,-1862.886,368.28918,156.81548,-60.595,2322.76806640625
120,2308.548,1305.5043,2116.2625,-1817.3917,-207.30144,283.48874,3336.00927734375
121,2005.9352,1790.4371,734.3653,-447.00565,414.3997,86.91941,1589.52734375
122,1779.0704,-537.3325,-1107.506,1444.6866,134.68878,1016.1669,4052.7939453125
123,1054.1971,2588.305,289.64148,-505.20758,-339.87787,240.9535,2323.22485351563
124,1563.3434,2027.6722,-341.92038,-14.318885,-92.48094,119.69672,2190.78881835938
125,2186.6982,1316.2678,337.91522,-618.2292,-227.20343,-168.58525,1988.25549316406
126,2701.9966,2019.2139,-567.8288,822.3156,-21.67142,-394.441,3379.66552734375
127,2710.0193,3057.9802,2337.5835,-729.7885,930.59344,1341.6066,3159.88745117188
128,3153.9158,1205.5847,4409.8843,334.70743,407.40414,50.44908,2943.15307617188
129,-641.123,17.099495,-5264.3486,535.3983,-26.611778,-240.45502,5087.84033203125
130,2151.5757,1773.0328,797.1465,504.01874,-496.2833,431.78622,1877.59899902344
131,243.99992,1191.1923,-1522.3397,673.09235,372.8764,263.82407,2770.42822265625
132,1994.735,1170.3832,1710.3518,-298.7905,636.29126,136.9296,1436.89733886719
133,3485.9172,2349.2327,-1511.9855,516.8072,-487.50006,-353.1177,4741.134765625
134,-5501.661,-4840.759,-574.097,-702.48016,1945.605,-581.1802,5942.29931640625
135,-7345.831,-7795.631,-23747.264,2064.0356,5226.5234,-357.84064,18893.02734375
136,1118.8153,2460.2234,-778.4653,-472.2199,1077.7109,68.75885,3480.17504882813
137,-2631.4773,313.63693,10572.636,-2750.406,2483.6208,3366.0037,14809.5888671875
138,-901.6194,6064.071,-15480.673,1054.0265,4982.8467,-2311.341,21365.1328125
139,1227.2544,1858.3652,-1988.3175,-911.72235,206.62865,295.49826,3956.177734375
140,377.4773,1045.4445,-1649.6467,-838.335,-332.52133,-94.53301,2894.20141601563
141,1791.6984,1679.041,52.68328,56.095577,-430.29404,-310.5601,1922.28881835938
142,2012.3716,2393.2112,390.5184,-240.78673,94.92973,124.078125,1907.94873046875
143,953.8844,1238.8198,-677.3294,213.2655,22.683813,-257.43716,1882.45825195313
144,1085.772,2351.126,-59.885178,315.2639,33.438133,95.17172,2166.10571289063
145,-533.4855,2291.5618,382.39212,867.9627,-183.03648,30.059397,2931.8291015625
146,1411.8988,1799.6279,372.4247,234.6913,38.515545,-3.7004905,1342.98400878906
147,2987.0342,388.09433,-152.1224,754.5797,-179.91365,-40.259727,3203.1943359375
148,1184.438,1739.2678,-499.67368,-102.55654,-296.04007,-36.481815,2092.111328125
149,2028.172,1185.6215,23541.55,-4860.5938,4373.715,1877.1149,24909.765625
150,-2866.9797,3776.306,-7274.047,-56.809135,251.89111,-738.3498,9729.7685546875
151,1183.1456,2680.569,-379.26056,-968.8779,622.1197,5.1109214,3316.673828125
152,1710.761,2805.746,1352.1257,1086.6077,151.01967,768.14417,2664.7734375
153,1239.0864,3549.9639,799.45374,-9.555752,1220.0446,-541.64795,3448.95874023438
154,1566.678,1552.4875,-718.2262,445.39368,-767.3595,731.3149,3025.66967773438
155,3158.8545,2372.161,8.285832,1193.9855,-1569.9004,1206.6073,4909.654296875
156,3782.7976,2050.6692,4074.764,268.72702,1006.2458,-318.9518,2674.07202148438
157,2821.2078,2140.3474,538.50824,-68.554565,-1296.165,-1650.4816,4164.92333984375
158,-116.03681,378.88428,-315.7901,-2.2470486,396.16217,730.06836,1566.3837890625
159,2899.7102,1170.7035,2082.2002,-141.5327,425.4894,278.11722,1754.87109375
160,-818.82654,-673.8959,671.75867,-1050.5808,9.447594,-800.49255,2694.55200195313
161,982.6216,2181.927,-542.10004,-536.20197,-76.13568,653.29596,2784.2470703125
162,1175.313,2437.5808,-1277.4434,368.00146,-211.53882,-304.6414,3394.74731445313
163,1377.0437,1619.7072,1432.5808,1018.3709,328.15497,-583.7202,2122.49291992188
164,2436.5134,1309.4515,43.504326,-844.0064,-58.73628,224.99933,2568.84326171875
165,1032.5399,64.60364,-237.60909,-585.3931,-57.476177,2267.537,4217.095703125
166,390.8848,-932.2272,3435.5396,-544.8206,-1450.9635,-1174.3246,5137.35888671875
167,2200.2808,1922.9332,2110.0654,117.87785,1136.6879,321.78268,2070.8779296875
168,2576.6624,1514.0818,-906.395,550.54596,-724.8221,669.2403,3659.0693359375
169,2678.8713,3403.4133,1282.8467,1033.3779,92.60299,-391.9082,2678.70043945313
170,1040.01,-551.2059,-859.7299,-1553.9023,-408.31396,461.8627,3391.46484375
171,-7081.927,-4658.6016,-10388.104,-1095.0542,-1528.9342,-1994.639,6881.95849609375
172,1552.1063,2744.0073,-287.58014,730.34143,-244.85657,445.8151,3061.71728515625
173,2101.4019,1948.3792,-1575.1107,-446.6514,-55.1538,406.12506,3752.33276367188
174,1995.4418,2809.597,381.405,681.19446,332.91412,-295.1587,2562.80493164063
175,1772.1731,2214.869,-543.15265,249.47873,95.75813,-54.70252,2608.62084960938
176,-6334.278,-707.0527,-9782.949,1731.2072,-2529.2244,1326.4667,9819.681640625
177,1593.3842,3468.5068,-1710.5925,475.96805,416.75543,-20.489885,4672.2216796875
178,2113.6611,1712.3785,-1738.2151,-151.78099,-401.3491,-48.995205,3743.23999023438
179,2369.0417,2131.009,3039.0703,755.9061,205.83134,-708.31323,2002.87072753906
180,970.3027,2991.543,1586.8483,920.94244,712.1743,269.04056,2739.06616210938
181,3910.9917,2763.2874,2183.7493,125.57715,-464.16077,-139.19875,1752.14196777344
182,1083.1057,2208.6592,625.2409,145.6071,190.84987,-79.92059,1477.80212402344
183,1109.0068,2182.283,105.86407,632.00085,208.69234,-159.28679,2154.04638671875
184,-12113.347,-2751.9536,-2525.8562,-1420.8214,4804.2236,7520.005,18296.248046875
185,-3405.3606,-5991.1587,73.52228,-631.7626,-233.87794,-150.13351,5404.97509765625
186,609.5809,-1305.5813,-915.45135,1720.0131,82.49153,-64.661964,3461.3837890625
187,-111.17037,-3272.769,-170.53717,59.911617,-72.78187,-71.698074,3139.04736328125
188,-2434.9841,1023.8168,-110.655815,-440.79065,-411.78644,282.26483,3264.51098632813
189,6821.582,-1250.8741,3344.3691,2597.9524,-543.3619,-303.3959,8402.1337890625
190,3953.6113,1291.329,3333.0566,1676.3953,718.4639,1069.7019,4385.544921875
191,1699.9363,-877.41504,3914.2917,432.14078,-448.30548,-179.97665,4302.74609375
192,914.39386,200.02559,2561.882,-1000.9631,-568.9119,620.9075,3087.84643554688
193,1702.2009,-2763.5862,-563.9202,770.74365,-676.5687,-477.9337,4335.8017578125
194,402.03067,-2219.3333,1458.3419,-1206.9232,448.34106,475.65347,4050.6884765625
195,-1470.4402,-4763.926,-178.64644,-447.00394,511.0518,991.9459,4594.02978515625
196,-324.14313,-6483.074,-48.52419,-562.57184,-526.8372,1737.362,7109.38330078125
197,1326.0717,-1221.5778,1909.7938,867.50446,529.95074,-95.76009,3383.21044921875
198,498.21564,-1284.0681,1488.5448,671.8112,-454.81915,-846.116,3169.32861328125
199,2570.021,-1980.8518,889.9495,-1432.9175,179.327,-56.126945,4706.69482421875
200,3558.7705,-2105.6384,-1909.6906,747.36365,-355.96893,550.8747,5829.251953125
201,1924.0532,-2277.6545,1109.7307,-946.3546,-266.85242,-208.29784,4233.96728515625
202,127.94673,-1219.7495,-262.23978,-137.86555,13.10531,368.5396,1381.18725585938
203,805.47235,-2814.289,-1026.4183,46.45162,-63.560307,188.42506,3154.77319335938
204,1695.3088,-5630.0405,-5415.998,-539.6472,467.66907,-295.89883,7343.779296875
205,-1767.8542,-3407.0242,1006.9434,-34.983818,-139.56578,-151.9497,3881.50952148438
206,581.43475,-4140.9385,-434.77148,2.7042382,-135.42604,77.859604,4313.6767578125
207,2461.0735,-2577.952,-394.32367,-2309.7505,297.34717,163.86658,5958.7998046875
208,1713.5304,-2130.6265,-721.0211,-599.81415,63.999252,-283.60373,3560.7158203125
209,-269.8991,-4961.441,2134.7803,122.89067,-984.1751,759.56915,6614.88037109375
210,1189.9985,-3407.978,-999.7248,-1978.7303,-266.66263,222.19672,5289.19091796875
211,-358.4064,-1751.6976,717.9039,-576.28613,-937.4167,124.32944,2877.1962890625
212,2199.056,-3395.1467,63.160305,-3795.8784,-978.35596,1046.8691,8561.1884765625
213,-5462.833,-8456.31,2.5504892,681.8986,1353.8546,-1155.6135,8129.68994140625
214,7455.235,6569.3984,1700.6918,-1751.2582,4664.993,874.77936,10275.447265625
215,-2095.124,3211.7817,-1499.7517,436.52432,2829.5828,6115.189,12733.2646484375
216,-919.1288,1737.6531,806.3066,-70.092896,-155.56447,-25.723732,2353.89819335938
217,-120.1598,1408.0807,5074.7705,-3265.962,384.838,84.77403,7338.19482421875
218,-2640.7434,3161.501,763.03986,-626.56757,-36.489113,-16.818768,5165.73291015625
219,-2628.4949,4682.6533,-183.68471,-1436.931,-989.7876,579.0397,7189.91162109375
220,-1439.9266,70.46254,1791.5773,-241.59206,-45.460674,102.2854,2838.265625
221,-2297.757,532.8319,-2469.0757,-709.05524,-233.33711,-5.7124043,3193.466796875
222,-1464.289,748.41846,-985.99756,-5.6300173,-119.43768,38.73631,2028.27758789063
223,-1239.8184,1942.6494,-392.5815,-335.811,360.52036,254.98943,3012.125
224,-848.6023,2000.7375,-533.48254,24.234615,-101.34149,477.15558,2834.74145507813
225,-961.7657,1111.5321,-258.9033,-666.03577,17.57692,23.411062,2160.7216796875
226,-345.0132,1911.2728,-739.2,243.32521,220.36215,127.582504,2551.02734375
227,-986.77747,1803.7404,-556.31775,422.01694,-292.66165,-61.17231,2752.00903320313
228,-293.73618,1412.4274,-649.931,680.8331,536.48224,205.65094,2454.89575195313
229,-1386.7703,695.60986,-1577.3529,535.5038,259.5474,101.22205,2421.28466796875
230,-639.41925,1923.0593,1684.4752,1587.2343,52.234997,316.4621,3725.37524414063
231,240.75256,-789.53033,2263.4463,2181.8472,147.97646,-280.17728,4671.111328125
232,572.3187,-1772.514,-2401.3105,-79.23713,-174.04509,368.80835,2808.16967773438
233,1589.3951,1071.6898,-481.22876,1043.5643,101.88278,56.644012,2606.02661132813
234,2591.255,536.25037,452.6583,345.18713,18.995844,40.99844,2182.97973632813
235,1708.7898,260.02728,115.424286,943.28186,166.22742,12.811518,2254.33959960938
236,1529.6409,929.3562,280.70554,969.3148,-115.202705,-133.02335,2020.41552734375
237,1790.2086,653.24164,-662.90674,530.5076,90.55151,-738.19586,2650.48486328125
238,1389.3257,118.848045,102.834236,432.89328,15.520973,397.16183,1634.2705078125
239,430.47366,652.05316,-701.9342,779.77264,216.50447,150.2208,1901.26831054688
240,2250.0896,1112.6068,1181.9598,346.05975,132.64464,-181.85596,1315.69750976563
241,780.88043,-576.1476,290.79388,416.7327,-20.000982,32.47117,1393.56030273438
242,1390.7307,-209.11174,-364.9127,21.373339,-220.99146,46.287796,1728.39135742188
243,1936.2058,934.3451,-713.91327,-94.37558,-209.09909,-6.821041,2351.55981445313
244,661.6663,137.0526,64.58602,144.70592,-100.281746,-141.66022,686.789245605469
245,1747.3235,191.85713,-138.32137,-734.579,111.28058,126.63329,2178.56640625
246,1542.8287,247.99817,994.4167,-420.18655,-112.35919,492.74918,1600.99670410156
247,1117.8033,217.58786,300.72006,-389.56894,-81.63718,509.31058,1412.77722167969
248,473.61063,933.5946,1137.0603,-175.54391,480.37576,189.61906,1113.18029785156
249,600.4569,282.57858,-380.9897,-430.82028,734.03204,-188.24908,1741.21911621094
250,1344.4203,743.0418,1721.5719,-1174.7205,-469.7787,-12.015291,2352.25927734375
251,2075.1187,2006.7954,3780.99,-117.07796,-1041.5952,885.32086,2945.92578125
252,-359.30945,-914.5727,-2308.8618,-1742.9211,-449.2556,89.506836,3573.43041992188
253,-141.93898,885.7713,1535.484,-1444.8724,-790.3343,250.15253,3235.83276367188
254,801.01495,1064.1919,-416.6296,-1528.1467,-150.12885,38.6341,2991.68310546875
255,113.85117,-821.79803,-295.8611,-1004.51514,229.27725,-568.54816,2194.20922851563
256,-409.02347,-779.0765,1096.3422,-896.69806,-31.488903,224.1236,2350.74487304688
257,-1445.9514,-2701.1992,-717.72375,-149.14084,144.08511,-156.42293,1795.12780761719
258,-3938.3691,-2810.383,3701.0989,-3999.9373,-1427.8622,617.7869,10309.0478515625
259,-2784.1777,6024.603,-4148.1567,1521.6241,-1279.4385,1870.9933,10669.05859375
260,-347.07474,1805.4144,1119.6282,-948.3327,1427.4683,-1022.658,3946.62573242188
261,2090.213,1375.7583,3489.1365,-4084.704,-38.880836,1447.7747,7733.9521484375
262,264.77057,958.3783,-655.0043,-256.33752,300.83688,-627.1432,1900.94750976563
263,786.55005,-2817.6638,2556.909,-266.14294,3310.1204,458.2031,7497.8876953125
264,-1819.0327,647.6921,-1194.4935,-2341.6416,-1237.7976,1982.6781,6146.01806640625
265,-2563.3457,2722.1462,-2033.8485,88.42171,-247.1671,-332.61304,5094.77783203125
266,-985.4065,872.2376,4917.2373,-2820.2083,491.5011,-153.53653,7209.9375
267,-2062.219,2532.2876,-3777.4614,140.79582,430.5703,198.16649,5715.390625
268,-3275.1519,2127.1897,-1489.3442,422.88553,9.372768,2.1631472,4823.23876953125
269,-1852.3862,1321.3248,-66.71932,711.49695,-105.67302,106.42385,3029.85473632813
270,-2033.8723,1544.6423,-484.6684,1274.3083,-289.47922,-211.53142,3862.53393554688
271,-1777.4078,2852.6633,1940.6986,711.4144,-78.17873,-790.2573,4632.166015625
272,-2987.1042,1053.8701,-823.8627,1248.6188,257.1637,284.13406,4169.5595703125
273,-3084.2517,1862.0428,49.31481,2852.5767,-243.29149,-435.6818,6629.037109375
274,-5037.923,-5176.25,-3814.2922,329.16666,683.6977,459.27695,2011.4306640625
275,1415.8972,-335.16162,-3966.511,1613.284,453.20953,-802.96124,5741.9599609375
276,1067.3064,-51.50879,4403.258,-642.74695,9.960666,33.20142,4166.005859375
277,-1814.2185,3324.6655,3120.302,-347.00952,-204.15814,-150.97829,5094.54248046875
278,-2516.387,1829.5085,-213.99493,1198.3239,10.825979,-163.95969,4309.38525390625
279,1252.9818,-687.53564,1402.3396,1812.843,-16.400549,-109.19485,3738.11767578125
280,1156.9537,-503.65384,293.792,647.60547,-33.664425,-40.501183,1826.41516113281
281,630.4268,-1049.0608,-1377.4851,-502.92108,-221.77101,-306.8007,2160.75024414063
282,-605.11755,2110.589,77.05484,-357.85318,264.02994,-21.433428,2565.64453125
283,-855.5862,1230.426,112.54128,354.9257,-131.73099,115.20812,1933.64599609375
284,754.86865,-2632.3298,-1225.8041,1258.7972,-95.12448,418.98477,3740.95556640625
285,1768.8329,-792.2786,795.5704,1316.8052,-269.7392,-224.37045,3253.47973632813
286,2367.6057,-3951.3525,-924.85675,-466.54248,550.0825,220.11009,5627.673828125
287,-756.0711,-3886.8577,-1264.5035,1160.9156,419.10068,93.270424,3614.5185546875
288,203.47871,-1978.6833,-1777.0542,61.30621,74.66725,95.95753,2101.93310546875
289,-1123.0541,-4054.2178,2042.5935,90.885254,-982.2027,39.9579,5551.19921875
290,414.4017,-5146.55,-2210.451,425.38724,779.2865,-165.95863,5066.03466796875
291,845.7003,-1121.7114,140.25334,-592.05835,-40.363853,66.366905,2012.50109863281
292,1187.463,-177.97589,-51.09114,544.2553,-16.007586,121.54126,1625.11437988281
293,1163.2217,348.98865,-285.66745,46.178757,177.08875,83.99556,1305.43713378906
294,1527.7719,879.1308,-711.4662,-267.41382,66.460655,390.77487,2160.63793945313
295,1305.9785,-41.725574,-649.4754,-431.3497,63.690125,-435.19696,2035.50463867188
296,-9106.362,3258.2292,612.6437,-5372.4937,-5919.3525,-3727.8557,18988.64453125
297,-1862.521,472.44083,-1513.9913,-1298.8848,283.03952,-77.26381,3174.78588867188
298,-5463.9272,-2385.053,-4581.6313,86.55337,-302.62225,-810.5673,3132.04516601563
299,-1657.9441,1679.9209,1703.9493,-171.46931,475.59088,-89.7,3465.9814453125
300,-1357.7433,2247.5762,499.6822,189.4387,-430.87857,-256.06046,3257.77172851563
301,-2737.5227,3346.681,-1173.5062,668.69415,148.3529,294.431,5622.7607421875
302,-1006.7591,2836.9988,2442.7422,992.01917,88.522385,-220.96642,4066.5439453125
303,-1906.3419,1531.5447,450.1023,706.3438,135.86224,527.63074,3414.38549804688
304,-2226.9487,1214.6504,-1165.9309,865.6398,-196.87521,316.02753,3461.59814453125
305,496.14655,-131.76692,1210.7462,1090.8153,-2.390859,84.345375,2223.65209960938
306,-1026.885,-1428.343,3373.5269,149.76549,-522.3801,-692.55707,4859.6513671875
307,-68.12448,2079.5017,862.63354,-37.90829,27.648895,-141.13075,1883.09484863281
308,2793.3774,-2425.125,443.99625,1845.796,-1903.268,1159.3372,6753.70068359375
309,-2732.4675,333.50897,-1196.6877,-910.154,-124.663315,294.0155,3137.0791015625
310,-1600.0122,-351.35162,-3928.836,-3306.5537,749.8042,-589.62506,6739.43359375
311,-2463.864,-1029.8967,81.835175,-3449.566,182.92342,-499.94177,6437.01171875
312,-742.21375,1324.175,-82.04395,-1852.0623,-88.50706,69.39688,3697.29248046875
313,-1882.1112,-1380.8966,-1601.6362,2012.4882,-746.6838,-88.855965,3746.455078125
314,-4253.55,-5104.86,-6863.2456,1892.1149,-345.06384,-570.20074,4169.70849609375
315,659.48627,335.78326,4622.789,4834.0107,680.72955,526.3736,9456.20703125
316,75.40856,-2821.1597,-4174.781,-541.2397,-461.57275,-1491.6412,4726.119140625
317,-969.56573,-4171.73,-1283.5323,-1084.7379,566.54376,433.23126,3795.1298828125
318,-1259.2123,-3395.523,-2289.9563,-1481.7216,-660.5462,-473.22733,3462.88305664063
319,973.91724,-5591.9863,-3512.41,-1027.4554,1295.9462,-491.70654,6535.45556640625
320,3795.542,-2023.6261,2868.7776,-150.13261,-255.20723,-1087.1298,5756.48974609375
321,841.4742,-2918.74,-325.32437,-708.515,485.2593,-412.1888,3719.58666992188
322,-8115.391,9690.254,-265.6894,-3202.836,-2496.4207,-11582.874,26284.017578125
323,-3777.389,-1395.148,333.9347,-2501.8694,1741.3058,-329.87302,6401.939453125
324,-3060.227,-1318.6215,-1178.7406,-889.49036,-111.63754,36.882343,2389.8583984375
325,1463.8368,477.10867,-76.7904,348.38947,23.254599,-178.08795,1512.57348632813
326,1012.10535,-351.9396,-5.7348585,-57.61702,52.797523,-31.638891,1236.75476074219
327,1372.4117,-606.1009,13.93409,191.85608,-6.2589054,-22.012007,1784.43432617188
328,581.0716,177.0031,-427.197,111.06861,268.01126,-446.3457,1273.82873535156
329,1446.5411,91.42668,975.7082,-91.86305,140.87181,-48.49,1229.58984375
330,-459.8457,971.573,-1739.8474,-1005.7103,858.71924,307.95926,3324.25244140625
331,1115.7897,929.256,-305.2583,-1878.3079,525.36383,745.09094,3855.73876953125
332,1877.68,1470.1387,-156.89095,2067.1914,376.15567,-1201.416,4588.1279296875
333,-4106.591,-3832.2976,-14558.302,-3315.1914,-7323.201,-3381.141,18448.197265625
334,-2367.9712,2055.0503,987.8228,-846.7308,23.648252,9.897735,4258.46875
335,-2329.2346,-620.7699,1593.0376,1124.4966,-120.68994,-90.63507,3932.4072265625
336,2797.85,-724.0323,5158.7456,3416.7703,732.6221,-1208.2179,8203.951171875
337,-1361.9099,963.80255,-1288.754,-238.80305,-889.5249,-297.74762,2838.12548828125
338,-892.9819,1757.5131,-961.9737,129.98961,221.23013,7.8714952,2722.21435546875
339,532.04016,-873.4244,-322.48398,2184.3472,507.11108,-203.29338,4088.29125976563
340,-1010.6309,108.35691,-1153.9448,1427.0599,-185.29398,-587.0723,2946.099609375
341,-1802.2285,1191.3087,514.76746,575.6549,-500.5675,-14.490402,3023.27490234375
342,981.0577,-2528.2742,1032.2438,-1428.7999,107.124054,29.717842,4319.623046875
343,1021.4435,-822.2156,90.74957,287.11166,-53.733273,-19.492208,1675.25769042969
344,-750.3028,-18.95662,-1527.6273,-1001.30914,-521.3153,147.81656,2365.65258789063
345,-484.22296,922.4893,1416.6207,748.0783,-160.94044,-235.31873,2200.181640625
346,-316.4943,-561.3128,-423.21054,877.0558,-67.07313,398.95374,1686.37707519531
347,-1955.5796,-1046.107,-1236.8892,-3106.2092,-2017.8015,452.0964,6516.39306640625
348,-1192.8171,-189.6547,1002.00543,2119.8123,19.137306,116.31519,4140.5693359375
349,-528.86084,1770.7001,1822.2228,-395.04407,171.75484,-21.124731,2442.77124023438
350,641.196,-299.21634,-347.9663,1386.9337,-187.87508,41.713955,2610.45263671875
351,-1281.8746,1009.178,-1847.6403,2840.344,1025.1888,875.804,6043.34423828125
352,-90.03627,-598.8345,-428.49426,960.53815,-80.504654,-28.612959,1729.45727539063
353,1171.8964,1116.6328,219.8545,-308.49048,-146.50899,33.366302,1100.02648925781
354,1225.1747,-1344.9141,-413.0868,-149.47397,-899.1834,135.70752,2761.638671875
355,704.8816,-1094.9205,-169.38704,-150.65907,61.951263,-1.2276812,1584.21447753906
356,-677.1048,525.84375,959.1796,-480.05942,0.4485342,121.81334,1700.59790039063
357,-1079.803,1092.0554,295.40396,-622.30255,10.181196,-58.33723,2189.45434570313
358,-377.3616,-382.93457,-580.629,42.4754,117.08548,98.072716,340.014984130859
359,130.41151,-19.03115,1106.2938,-779.2416,56.886524,55.654808,1720.80517578125
360,696.22107,-1879.5695,-307.26874,-283.17285,55.10735,-71.222115,2306.90209960938
361,501.6154,-2613.7039,-677.3734,159.18686,-78.70148,-15.949201,2741.83666992188
362,337.096,-2930.3767,170.5012,550.84436,118.119965,-84.94712,3336.7021484375
363,-324.99005,-795.30304,-1142.0925,369.73334,38.182274,56.365635,963.623352050781
364,-322.72443,-290.36917,290.1217,259.10965,25.051239,-89.630455,764.326782226563
365,-1471.7799,358.92715,290.86115,30.260902,25.34752,-25.601448,1799.48693847656
366,-1620.9731,-741.24695,-70.35296,699.80005,-27.429264,56.29952,1815.25378417969
367,-1558.6693,-873.4615,-130.0841,-438.6239,-5.461296,29.875885,1453.0751953125
368,-208.3178,210.72798,-451.43738,-116.12375,-25.735977,-115.49574,647.335876464844
369,-757.6128,727.19354,-487.88654,1186.1411,-14.295353,28.44064,2469.96826171875
370,-1027.9733,-293.00226,-540.81104,337.7293,-53.893024,-3.2695162,877.717468261719
371,1974.4093,1602.2228,235.34549,-162.27428,-16.152485,24.24541,1611.56909179688
372,-1520.7183,-3153.826,220.56416,-801.94305,1380.4584,-239.44234,4044.89038085938
373,196.03923,-834.6192,-391.05365,338.0098,-304.44687,174.4218,1230.41748046875
374,844.98804,-1346.966,-554.5968,363.20248,-278.50378,56.930042,2081.78735351563
375,1146.7172,-1002.723,123.52444,800.91656,318.73734,-23.92414,2387.17919921875
376,749.0057,-961.1755,-282.51248,475.29294,172.37282,-64.76727,1733.2333984375
377,-204.06998,-4.836521,-48.93396,458.1234,-98.52912,37.824913,834.206298828125
378,-636.1923,-1018.28186,147.66318,656.7377,108.92217,-46.55279,1547.87976074219
379,-637.35156,-450.14996,-413.79718,854.06934,131.29797,-96.43965,1520.22827148438
380,-1312.1646,748.6439,162.4912,-671.7967,3.0544102,108.60889,2184.46923828125
381,-1460.4688,449.56152,-174.09103,-1219.4778,85.31299,36.066315,2707.9658203125
382,-304.11722,-833.03937,191.92537,-1018.9788,164.4794,-75.94835,2000.40063476563
383,-511.17386,-517.2756,-805.2187,-922.6366,-0.10625706,-78.95718,1630.08679199219
384,-584.4947,-2332.8206,458.8172,-951.9182,22.180548,-15.961712,2947.85986328125
385,1041.9384,-1089.2468,1584.3151,406.67218,-74.022514,13.101678,2550.51513671875
386,858.0001,-2020.5404,-575.8163,-790.60364,1.950267,46.957092,2845.40258789063
387,293.14383,-1152.238,658.17584,65.150024,-108.04115,47.9988,1674.70947265625
388,612.7348,-1832.4147,361.13406,334.00406,-77.45315,-61.158875,2406.39794921875
389,-1225.6732,1044.5021,75.77161,-585.2082,-24.009722,56.689835,2220.74829101563
390,-1792.355,-804.7952,697.5255,135.65141,15.512586,38.779976,2185.47729492188
391,-792.8357,-411.3488,-189.74596,1026.3241,43.06634,0.4997071,1856.00830078125
392,629.50867,-817.4794,699.521,492.79404,-324.06995,2.684735,1801.00158691406
393,702.2535,322.40814,953.3557,-378.2279,179.80072,-107.45749,929.25244140625
394,633.78534,-2036.1611,242.23967,355.7566,-195.58649,-69.3773,2597.19189453125
395,1455.3237,-1352.7174,466.01154,423.77353,311.83676,-58.00604,2631.80102539063
396,-1471.0712,404.4938,-382.5468,-530.6685,100.83915,25.877792,1881.05627441406
397,-662.7742,333.14407,-850.3824,303.53955,-53.610638,-21.911808,1224.89343261719
398,-1060.0637,1281.8693,953.4387,409.1418,10.139351,-19.180212,2308.02026367188
399,554.46063,-517.4692,-984.94055,9.346294,315.69983,-49.559666,1474.88610839844
400,482.40366,-823.94073,-61.933704,14.920609,-27.532928,39.190437,1139.86682128906
401,51.407825,-291.26657,253.20598,-56.2174,-37.66236,-1.6412839,490.962219238281
402,-511.60178,-2156.4111,-720.6452,-1426.1194,-19.325552,-2.1655223,2916.82104492188
403,-727.87146,-1459.4496,-930.5774,-317.5372,100.203606,6.8509316,872.211975097656
404,-174.03738,-750.8654,669.52374,-1008.86426,-74.336174,27.878195,2145.517578125
405,-144.71144,-415.4597,273.1503,407.87537,46.58453,-121.545876,954.445373535156
406,-251.835,425.881,-435.62973,-1555.6498,-79.61134,348.91483,2874.37255859375
407,623.8946,-1304.0443,-180.82527,-47.875935,134.50328,13.461084,1695.51318359375
408,-226.06801,-215.27788,693.3934,-1508.6128,-306.5645,-209.45143,2841.98828125
409,-1184.5713,-1466.5441,-458.83826,749.2047,-57.954422,13.288389,1582.83374023438
410,-8.287473,-769.87445,-105.39454,1017.84766,-282.39508,17.643911,1965.63098144531
411,38.47636,-176.54202,471.92047,-65.273254,330.8024,247.83197,923.384948730469
412,-759.9128,-768.0297,-454.1822,-127.97562,-27.178062,1.7113532,383.896728515625
413,-1001.6259,-229.20036,-56.11411,937.83594,-109.48315,42.592968,1854.80651855469
414,90.02858,482.65448,972.37415,24.700874,100.21086,147.05028,826.489868164063
415,-310.24576,-35.775684,-1040.5215,-461.0767,143.84863,-303.29422,1335.99768066406
416,-710.30426,97.28836,-212.35716,-258.67334,104.517166,42.117546,858.398315429688
417,-241.13896,-47.055676,358.94247,1137.2805,-27.990051,-27.782919,2041.1240234375
418,-425.70813,308.19397,37.169357,-47.75628,-38.054375,34.520863,654.157897949219
419,-864.9696,304.93423,-98.57871,241.46837,6.621778,-14.897654,1111.37060546875
420,-1886.0587,-43.144726,265.05615,284.11066,35.333576,-11.671531,2074.99829101563
421,-190.75267,8.695309,198.0926,-401.16156,98.05701,-63.51549,798.2265625
422,-314.54272,-552.659,236.68483,1076.6431,256.37875,-46.811478,2042.80493164063
423,-1197.117,543.85114,-619.68256,-263.0386,-3.192236,-87.414764,1609.23205566406
424,-307.4436,-1063.1688,-111.852036,255.62193,-15.401812,-55.251827,981.370422363281
425,-23.998344,187.80713,-916.9161,-267.12448,106.299095,-237.1541,1203.3203125
426,135.53639,-1484.8855,-675.5932,368.94116,89.8617,63.134598,1553.66088867188
427,391.26065,-577.9523,-372.03137,-393.8206,25.30681,54.747288,1121.78112792969
428,1480.1833,-1138.7542,-458.12628,-66.13207,306.44907,-15.405575,2415.6015625
429,158.8065,-231.86401,-59.60194,-86.66616,-62.02609,-20.119267,387.671356201172
430,-232.41637,-580.2297,432.16904,-885.8214,-25.52301,-46.22424,1776.57043457031
431,-675.33264,-3091.0684,-1059.964,-109.61838,-412.7715,-86.83576,2371.57397460938
432,-262.17325,-624.2284,1174.5159,-171.66089,29.896807,15.322524,1675.44274902344
433,-1651.9008,-62.12821,542.52203,-342.32974,-91.23777,61.74945,2059.6640625
434,259.52887,-757.54175,240.07307,699.03845,-140.89905,95.623726,1602.49084472656
435,131.6427,-1663.9441,-1044.1559,-824.2654,165.6165,70.17716,2151.90307617188
436,-528.12994,-167.13623,213.51126,-313.38443,-130.07858,118.02453,894.315612792969
437,-373.07724,-1954.348,188.65129,-579.9475,43.192356,55.156475,2174.38305664063
438,-100.71816,477.05685,494.39984,-102.69835,-206.9669,219.039,805.124938964844
439,-3423.4253,-2172.6172,86.49234,-723.61505,226.21095,127.602,3356.63916015625
440,-549.4322,-267.90955,397.9799,1042.3735,29.837713,41.617737,1994.3974609375
441,186.24757,-234.2509,-1.6580702,687.37354,8.769252,31.987339,1246.53955078125
442,-1027.5656,-1246.6642,-264.7538,800.39545,-44.38179,-56.029823,1653.55456542969
443,-100.54786,608.3559,519.7694,42.56474,-211.77733,-193.32419,836.480590820313
444,-424.84488,242.56784,-244.20706,-591.48456,-60.924545,-119.00001,1208.59020996094
445,36.395817,5.005415,-3.1557055,112.694016,-110.52881,-32.10762,281.337005615234
446,-1470.0948,-1249.9885,-411.11255,218.63309,-75.08255,90.581345,1059.11755371094
447,-56.53786,-393.97034,-667.4678,-164.43573,6.415407,204.51796,698.335205078125
448,181.3118,-127.77789,-629.33234,-108.01026,-37.438843,-105.486176,758.092529296875
449,-240.49178,-100.988495,-603.0151,54.221622,-141.14366,3.1441233,519.684265136719
450,1115.3748,-1286.1697,184.2615,-578.04443,-213.68254,40.480694,2354.2685546875
451,460.52423,-668.7461,-650.2088,148.53615,-50.329807,-68.030525,1158.59143066406
452,-3.9797091,2.4713953,93.6715,-466.9481,-82.971115,-19.436852,827.559631347656
453,-151.80974,-536.37354,278.74948,-493.3677,-7.969958,-117.72757,1127.32116699219
454,-31.725351,-1373.5658,179.56528,43.821438,82.695496,27.935104,1468.7802734375
455,424.0099,-893.64764,795.22675,-24.395145,-238.21945,4.7117977,1592.24914550781
456,-9.417639,-514.9634,49.158123,-723.18695,100.67126,-67.74595,1379.05432128906
457,-982.67194,71.20492,-145.67278,304.76788,58.515877,80.139366,1112.34875488281
458,-766.5228,243.20686,94.71096,165.42549,222.32715,23.784836,1060.06909179688
459,-668.41345,-559.5072,52.274796,337.0706,-118.199776,31.462471,915.695129394531
460,-344.7915,-763.972,116.48994,102.524284,-764.6359,123.215385,1553.36315917969
461,-393.13846,-775.3791,25.992481,-144.19835,-129.9201,-25.585262,772.637390136719
462,-1291.4033,-309.07956,191.6584,1374.0723,-222.14168,97.04833,2747.38159179688
463,-2556.6968,-1925.4137,-118.55356,571.66327,18.043139,-59.74121,2407.48461914063
464,-131.6859,368.54517,248.06683,571.198,23.65661,-8.650892,1088.66162109375
465,517.64984,4346.4766,411.42307,-43.017185,141.41602,-22.396727,3891.654296875
466,-29.739605,-152.81665,159.71674,-159.78763,-193.75658,-100.257065,541.97314453125
467,211.73781,-302.47137,153.22499,-77.68887,64.87707,-61.71407,529.062072753906
468,290.82983,-595.5757,-822.1492,-203.22876,723.9879,-284.92477,1725.63439941406
469,559.65936,-318.19818,296.8563,-403.39398,46.67948,90.49723,1062.20617675781
470,424.39874,1592.7738,503.82956,-195.03378,-74.856544,-175.42523,1225.50048828125
471,1675.005,2291.9153,156.0397,1471.0181,124.58979,61.457508,3189.74609375
472,1070.3978,-617.7589,-83.83501,-1040.3279,-167.13948,214.38074,2387.91357421875
473,2227.976,-1154.0275,474.51804,370.13098,170.01485,-64.35469,3015.3759765625
474,-1172.1101,-72.184494,203.5856,383.01285,-3.9248943,165.82033,1453.21850585938
475,-2559.0042,-1597.4045,76.647995,812.3483,-41.364002,47.07535,2707.1025390625
476,-221.39482,-823.9016,-571.6819,-13.56777,77.7031,-116.811424,578.156921386719
477,-2533.52,-1727.2488,-230.11055,117.021355,-122.28067,-9.721733,2045.68298339844
478,79.89377,-552.7914,-368.6891,-61.94307,404.87766,-125.808556,931.921325683594
479,-391.685,40.650097,162.57367,-92.32107,302.5866,93.088486,762.058227539063
480,-17.694221,-546.8583,282.44662,265.63516,100.13795,63.902924,884.840454101563
481,-1069.3896,-383.59973,-568.1751,-558.5659,-41.902744,-28.174192,1149.53576660156
482,-2364.0347,-2228.0073,-479.97546,-329.02274,-38.41985,-40.742867,1909.4697265625
483,-3786.7625,-2428.248,-908.4964,90.17788,-118.900955,58.912514,2509.38891601563
484,24.919947,-477.728,-771.78815,831.262,-62.525906,-49.08799,1605.88977050781
485,75.382324,-1251.2983,-166.35187,211.33359,-15.725694,-47.113457,1280.31225585938
486,411.58905,-107.00826,1357.8542,-223.78857,-187.80658,72.58398,1388.14794921875
487,-169.71759,-1315.1023,-24.260317,-326.08838,86.89601,3.4484189,1356.96643066406
488,-123.91439,-100.91298,-380.38342,-329.3348,20.481041,209.27136,728.16943359375
489,-1022.20135,-1762.9459,267.6994,-210.99211,24.785734,-67.45784,1821.28564453125
490,-640.26416,-493.9144,-558.43396,-704.00867,-77.82675,-5.3035774,1233.40124511719
491,-1853.8972,-497.49057,-399.85938,573.1129,-425.91623,-158.62782,1893.90502929688
492,-1214.1475,-681.14813,37.441143,255.678,-26.033073,-260.49823,1259.04382324219
493,1878.0294,1812.2651,-453.9364,-181.28278,52.23247,-155.06483,2338.36254882813
494,-151.55345,-1344.7302,-225.5217,-903.1458,-152.50517,-29.88329,1964.77856445313
495,-625.214,1456.4008,885.98126,1182.3431,151.02643,-164.49464,2795.44506835938
496,-2747.8936,-1861.1951,493.90744,1474.6799,68.71682,-52.197857,3868.77124023438
497,-932.5305,481.80453,536.9665,-34.835167,45.758743,139.26332,1466.12036132813
498,-352.8588,-193.42644,-547.12946,533.602,-151.36717,13.6959305,1008.77398681641
499,-2005.221,639.9038,332.80026,282.04672,352.16428,115.652916,2632.39575195313
500,-281.40128,-4.5182247,20.561497,-335.68622,-115.21088,69.12305,690.251892089844
501,37.732662,-976.87665,1045.1532,-840.2206,21.859415,-59.988525,2279.60693359375
502,-2040.653,-1751.8171,523.7118,-830.1539,119.21878,136.8398,2843.41235351563
503,-901.6058,2467.392,570.8303,1201.915,-32.961903,112.93615,3596.234375
504,-612.2256,1506.2523,-416.7957,151.15964,-63.34823,22.146017,2047.97094726563
505,38.70548,284.62323,435.23013,-167.62038,143.5017,-51.6611,523.707397460938
506,-1707.6888,315.3429,780.45337,601.3073,9.22111,18.061733,2517.11401367188
507,-464.11053,1628.2227,-391.15955,-295.13446,38.66518,-31.396112,2121.15478515625
508,-1787.2706,503.72577,573.79156,1095.0665,43.97577,84.06776,3006.42822265625
509,163.56915,2264.6257,-1153.8646,-631.354,79.08778,-54.461308,3184.58154296875
510,633.20544,-546.1309,641.6819,-110.46499,21.643307,-78.16988,1207.16491699219
511,-2393.7708,-728.1212,-762.9959,555.17267,-203.51053,-25.735737,1941.2373046875
512,252.6175,-795.97125,316.04428,-236.15903,67.86771,3.4640653,1162.42736816406
513,-1031.6465,-939.9126,910.16956,681.0738,66.37905,-162.12535,2254.90380859375
514,-1554.0082,14.154243,-915.8005,-458.67584,-131.40674,3.1146019,1596.43737792969
515,-851.9188,1252.7644,296.25058,640.5664,-87.27882,-59.769646,2143.82763671875
516,1867.5763,-1166.1604,-538.2152,-518.7807,294.42355,194.29832,2978.85278320313
517,1886.567,-228.86876,-594.9336,5.675906,14.474772,104.012474,2327.36767578125
518,-3154.0464,-1185.9666,1017.2166,236.81546,-481.8375,-52.927303,3733.16821289063
519,-3456.3264,-2592.7158,-494.52115,141.5245,-137.33578,17.6166,2660.42651367188
520,-1273.0328,386.28217,-350.2644,-69.46579,15.5341835,-153.0326,1469.39501953125
521,-660.5099,123.77754,443.96,258.6308,9.897333,41.964554,1083.96740722656
522,350.2469,201.88062,1542.9961,230.04552,78.287186,16.984552,1341.50732421875
523,193.1858,-660.8728,366.26724,1648.3463,-58.92352,-41.35671,3012.28784179688
524,-1414.5344,-746.0559,133.6851,1157.3713,208.20695,2.585432,2440.79711914063
525,-1341.0697,-2002.288,-484.7071,-80.94227,-128.27222,-13.668624,1344.0185546875
526,-1091.6827,-1042.4977,-403.36334,429.0749,89.19601,-51.59392,1013.17181396484
527,-339.67856,1335.7546,-195.80348,2.7044559,31.475271,-64.67795,1613.15441894531
528,144.31216,1451.3541,569.44604,-336.90063,3.1266956,25.484268,1294.57080078125
529,-1348.47,4143.368,-404.23328,888.0825,-7.0157657,180.75592,5322.6416015625
530,-1729.5557,1399.3262,766.7522,1650.638,-129.29585,188.99211,4067.17651367188
531,851.3575,803.6536,1032.5553,770.7957,-340.41495,-136.22525,1493.13403320313
532,1269.182,-821.0699,459.18784,707.6115,-84.552986,18.145119,2203.798828125
533,836.1641,4436.667,488.58368,-2514.3347,-33.60796,167.86292,5778.361328125
534,-2055.165,-311.6889,-438.4586,2068.9019,37.694187,-132.42012,3966.44580078125
535,-2177.1455,-1050.1055,-1184.635,2055.2676,-38.361233,106.4116,3721.21704101563
536,347.27817,390.77417,1237.0417,-441.76416,-448.72134,-43.80758,1396.4765625
537,4516.0356,-771.34503,-1144.6512,879.6047,378.37042,135.6482,5733.70458984375
538,-1131.5305,-142.79051,4.3947363,-711.26373,79.28458,138.09837,1654.85900878906
539,3383.104,530.3209,-253.62224,519.4237,112.22087,-77.853775,3443.0693359375
540,3764.339,-1160.7197,516.51013,-1962.22,16.321905,22.902796,5510.18505859375
541,3410.4468,-1307.5804,161.14548,-2201.0015,67.21753,49.017624,5660.51513671875
542,-243.74474,-1267.1888,-283.32144,752.38354,105.10554,87.15559,1662.12890625
543,3797.9102,641.2348,37.70788,-516.9218,-157.91136,33.307156,3621.29028320313
544,3827.6472,1204.2322,266.3437,167.61565,98.41737,-10.073969,3214.97412109375
545,-1114.865,-507.7784,-338.9808,-786.5716,611.0249,91.31275,1871.00891113281
546,1924.6895,2103.2634,119.09061,-823.9706,-54.98713,4.369667,2379.16357421875
547,-2264.9065,-2928.33,-284.9653,-108.302795,109.30385,-200.27313,2421.81665039063
548,2130.8245,2511.353,703.11,-152.66397,-298.31708,209.47112,1787.45324707031
549,1943.717,-51.911106,333.60037,-239.31874,-17.850613,-21.15015,1880.40734863281
550,2183.822,525.4993,535.7512,-400.6868,-275.9015,-167.54115,1878.12756347656
551,1625.4822,1869.1508,109.13406,-224.16887,-52.34041,54.007267,1701.73327636719
552,2171.9229,1633.8926,315.38467,-529.49005,144.3426,-40.578693,1909.41357421875
553,-1823.2855,-3987.3364,-281.60056,-240.76651,43.743664,-171.14584,3265.5341796875
554,-2094.4866,-3715.6306,-183.20314,82.15087,132.56444,8.232558,3074.53198242188
555,1485.995,-1366.8445,-22.987938,-53.752018,-366.02652,-157.4719,2568.2333984375
556,556.7626,-1899.4766,-841.16833,386.32443,201.88458,-194.76883,2288.55541992188
557,1726.1632,200.76535,591.8059,1314.7245,-74.067566,-59.230015,2663.78369140625
558,-1509.783,2977.0762,81.5952,904.74243,-54.406254,-14.894494,4241.38232421875
559,738.6828,-1301.576,-703.25543,-57.99183,-95.1477,-26.18298,1827.35314941406
560,1857.8455,-1004.5611,-177.6605,349.84738,67.97454,-21.11469,2625.3740234375
561,752.80457,-191.79103,-933.3519,-748.5851,3.087622,21.745714,1955.82067871094
562,-1022.73346,1952.8488,-1349.8398,2834.5361,253.52618,-321.24548,5877.12744140625
563,-186.45946,2335.0205,91.12728,644.0383,37.462303,149.91666,2655.36767578125
564,531.1297,4433.759,-37.592705,-2557.8977,-38.45629,-32.23877,6116.33447265625
565,1349.4645,928.743,843.90845,-2196.0405,-5.506552,247.25835,3856.31665039063
566,-999.6248,-184.1201,-553.908,-240.09569,23.692476,16.25516,821.974304199219
567,337.1674,-1288.0829,496.7959,-189.4391,236.20013,151.17822,1808.30139160156
568,351.02023,-1033.2198,-432.50446,-445.235,11.573286,-64.38645,1432.82470703125
569,-311.57306,-441.5999,-131.77066,156.10054,39.796844,65.919754,404.357238769531
570,-533.2553,644.1474,258.6477,31.295359,-9.917607,-41.339596,1043.72351074219
571,399.28244,-748.03265,80.313736,-443.21924,-49.1596,-17.813437,1284.38586425781
