Element Label,S11,S22,S33,S12,S13,S23,Mises
1,3097.1235,3865.838,1692.7322,-203.8964,270.50433,74.84999,2000.96459960938
2,39667.668,49641.12,28997.686,-581.50824,-3375.945,-10460.686,26138.443359375
3,-41963.305,-25900.2,-49416.69,3361.3708,-6219.277,9610.4795,29331.203125
4,27278.826,-850.0547,27628.268,-57.245525,-6139.494,2952.655,30666.4296875
5,8126.2085,-2026.2195,-10304.402,-8020.7446,410.34473,-3242.9307,21924.775390625
6,17474.229,19210.357,14021.772,-1295.2544,-309.53476,-5006.1074,10071.3125
7,-36659.83,-30614.672,-43907.926,-5897.4585,-3826.769,-19211.588,37261.54296875
8,21492.764,17969.436,8464.602,-8411.256,2794.377,1156.6196,19388.939453125
9,-6607.1025,-8120.8057,-8262.961,7248.4395,-808.29987,-4760.616,15168.9404296875
10,15394.752,161.54297,990.3613,460.27634,-199.69203,1008.75446,14963.9560546875
11,16244.849,32847.555,544.46497,1723.5256,-636.0273,-13336.275,36421.3515625
12,-9250.201,-1935.5098,-9433.853,2001.2299,295.85767,14927.835,27123.419921875
13,3055.2444,-11062.319,8238.093,9739.157,2878.478,-3849.9272,25558.03125
14,27304.998,13007.098,3527.2412,7916.854,1352.6124,254.146,24971.021484375
15,-3545.419,-1520.0835,-1746.0181,6665.092,2391.952,1005.92645,12536.576171875
16,-8714.2295,7161.436,8453.453,4166.0938,-1104.6953,-12873.232,28759.486328125
17,-8921.025,10784.343,-586.7633,331.83228,-8788.997,15021.64,34677.80859375
18,8835.3,7127.6587,4518.082,17360.566,-63.844994,-72.90522,30304.75390625
19,250.74394,-11542.391,3747.5159,2815.404,-9965.635,-952.9272,22737.384765625
20,5238.0957,7349.245,5977.7495,-2577.68,5566.77,-8306.665,17981.787109375
21,-1079.987,333.30765,-5864.437,11291.127,3338.724,122.42272,21156.677734375
22,-125654.62,-125786.164,-127483.04,420.29086,-322.68515,-75.75273,1994.85180664063
23,-9097.766,-7629.336,-7454.507,299.52994,13.585093,655.9108,2000.98486328125
24,-542.02704,-7356.9775,-13017.72,906.9357,-6332.1704,37.104065,15486.3193359375
25,12739.886,6442.4097,12595.425,5876.2817,-7508.3633,-3773.0579,18820.091796875
26,3071.8967,4843.2236,9639.014,-6418.0054,-10081.584,915.8706,21578.59765625
27,21897.549,21260.514,32076.768,-2103.0925,-11135.514,5973.157,24552.203125
28,14696.967,9729.02,19339.592,2781.1025,-14757.521,5219.9697,28768.037109375
29,8500.988,7304.4478,-4789.87,-8498.187,-14446.134,1613.2538,31823.15625
30,4901.2456,-2405.4846,-18504.584,-558.82446,-10451.747,6458.599,29732.060546875
31,6688.1807,8950.889,14696.483,-2003.4141,-6177.847,7953.5913,19168.974609375
32,24480.424,10917.372,29284.842,1772.5999,-10298.511,2491.7783,24868.3046875
33,15909.858,9252.497,12806.171,-4243.213,-10471.263,6555.2583,23348.701171875
34,-3113.6274,-9346.465,-15030.149,-11543.9,9305.069,-2622.6472,28049.076171875
35,2234.3716,11525.178,-12570.3955,-77.86952,-6488.5513,-8446.098,27988.931640625
36,-5267.8027,18188.166,3795.5054,10027.2295,-6009.221,2371.5562,29096.01953125
37,-4061.2134,4469.357,-11597.864,1289.5068,-6290.2046,-6050.5923,20673.19921875
38,14255.317,19792.55,8776.906,135.54591,-12097.914,481.61676,23039.9375
39,18576.21,19150.992,17582.756,173.74605,814.6393,106.0187,2000.88488769531
40,42613.492,42082.08,42562.184,712.17096,468.04483,-722.7393,2000.89575195313
41,7263.8755,6874.8022,6457.6963,-415.88217,-91.63272,332.43234,1167.57763671875
42,47360.656,48156.906,49108.676,-246.53827,-635.62836,322.38193,2000.98217773438
43,-7521.1167,-381.88995,11064.881,5336.401,3871.7556,-8546.755,24764.130859375
44,1888.4163,11042.449,21287.826,-2317.068,-10168.782,-1186.3629,24760.69140625
45,1102.836,-9566.716,15046.559,-1756.372,-3239.348,-2959.921,22892.3125
46,11987.304,102.723625,18111.613,1066.824,1584.0359,-6856.998,20088.115234375
47,-1707.1835,5992.4126,-6439.1553,9651.278,-1691.1265,-5229.1567,22094.4140625
48,819.95935,-6509.877,11784.294,3502.7407,3096.614,-9576.352,24392.705078125
49,13095.53,5465.451,12833.439,336.49625,-3707.3394,-4151.0635,12229.21875
50,17810.85,13037.927,28624.236,-2394.4817,-4999.3823,-11011.6455,25441.5546875
51,9078.393,9360.858,19363.098,-2637.285,-1739.7131,2732.813,12461.9541015625
52,10109.1,-1599.2316,4009.2861,1282.583,1427.0288,-11425.991,22485.06640625
53,9685.452,8383.198,15719.698,6416.221,-5311.6514,-9566.451,22992.64453125
54,19987.35,2937.852,11158.461,4954.9834,6527.6387,-4094.7126,21677.0
55,-8063.1494,-4440.893,-4158.952,4145.7607,6642.24,-7374.7056,19007.904296875
56,-8059.9727,-7378.347,-6495.48,413.0682,658.5479,339.19437,2000.98559570313
57,-17172.262,-9736.569,-5959.0693,4069.6453,7060.0127,2995.2627,17993.875
58,4940.23,21212.44,31317.24,3451.0862,9105.677,-477.05576,28573.97265625
59,3481.2131,17431.684,-4648.0303,5537.973,7756.004,9184.921,29994.4921875
60,20214.295,23001.707,30821.115,8092.333,16333.515,3358.0166,33486.5078125
61,36273.754,36046.29,42132.883,-5214.5986,18226.172,499.54382,33385.90625
62,2229.002,9087.962,20466.201,-4760.841,10041.51,12064.966,32584.28125
63,-5240.5073,22707.707,13266.763,-4590.4863,13616.761,567.43475,35025.828125
64,6698.759,10441.635,-21452.44,5519.765,3837.5073,-1976.9009,32544.935546875
65,-4425.5713,21064.344,24094.541,8566.478,8617.597,3380.2612,34833.58203125
66,6059.494,24780.328,31696.402,2476.403,4069.5513,10766.033,30717.751953125
67,9680.347,8242.431,11598.855,11791.792,3545.4487,4169.9194,22705.09375
68,9798.111,-5575.014,-5499.7305,6385.292,15955.419,252.37659,33487.52734375
69,9571.794,20682.012,34118.277,5461.429,8186.2144,6516.0405,29515.255859375
70,21012.713,4098.689,15141.778,9016.035,8760.587,6985.4917,29012.970703125
71,7623.847,-6922.367,-15385.307,12090.093,3749.963,3275.9482,30318.486328125
72,31735.436,36760.906,47325.883,704.3469,-1638.1725,5591.295,17125.85546875
73,9654.4,1231.6812,8305.442,8312.895,-15362.915,-4050.258,32030.982421875
74,-3380.4038,-21129.021,-24131.154,5438.532,10265.958,4350.196,28965.240234375
75,-2139.1792,-18345.062,-7761.684,-3424.2974,9444.218,3105.8098,23126.1953125
76,-12442.848,-14494.283,-11900.855,5634.9395,9136.146,14679.285,31586.759765625
77,410453.8,410946.7,411857.06,-157.81906,-127.72294,886.91626,2000.982421875
78,5629.346,4562.6323,4948.014,-482.07907,130.4128,-890.76996,2000.98522949219
79,5751.281,5713.1914,6795.6914,534.3224,804.24207,-158.11397,2000.9853515625
80,-4787.0537,-5778.61,-5458.583,207.02426,801.8469,-626.6883,2000.98571777344
81,-4922.6465,-4982.2153,-761.6792,-1482.9447,6959.1694,-17439.56,32891.75
82,-6085.864,-8830.11,801.4365,-5944.0176,-2735.371,-15692.756,30677.26953125
83,190.2114,5335.8003,-4505.543,-12404.573,2882.518,-11107.937,30485.986328125
84,-16099.657,-13581.258,-22427.574,-13534.36,-9040.039,-10469.985,34436.703125
85,-2189.8923,-4936.3574,-23683.557,-4465.5234,1968.3656,-15903.243,35223.2109375
86,-4608.0967,-7897.68,19096.445,-7993.563,1017.3255,-7036.184,31528.15234375
87,-31106.602,-9220.417,-2781.6396,-6688.2847,-4477.409,2005.2507,29458.23046875
88,-17337.986,13152.06,9330.448,-3057.3157,-6334.262,10104.226,35810.9296875
89,97.55393,29344.969,4940.2354,-4033.4966,-11180.712,2044.5128,34257.8359375
90,-15432.422,8491.128,1843.0265,-3160.5918,-5401.519,10322.536,29910.6796875
91,92.8414,15439.695,-2802.8296,-5893.0703,5302.458,-2280.2097,22191.919921875
92,24161.773,20879.615,17943.777,11067.305,-10221.555,-7450.863,29605.234375
93,32375.861,34846.004,25710.777,-2174.331,-1744.5007,-9027.722,18297.56640625
94,-22037.227,-23733.992,-32047.51,709.58264,2761.1667,-1733.2069,10931.3466796875
95,-39828.305,-8227.525,-20163.504,-4605.2285,-462.46796,1126.4044,28843.767578125
96,-3958.6475,-2121.7334,9400.106,8574.041,11149.072,6760.066,29796.5625
97,2149.3828,-15486.814,-13176.696,5495.6123,9393.243,3847.9568,25987.59375
98,7555.024,-2435.4226,14485.223,3937.128,1011.6589,-11812.923,26177.876953125
99,8195.347,7194.345,19619.158,-5672.455,-14289.95,7485.2466,31940.03515625
100,23753.55,7814.9033,15514.93,-2237.2668,-13093.8,-5248.421,28330.1875
101,24912.713,19403.166,10758.7705,-6199.6226,-10593.116,995.5917,24650.138671875
102,4162.14,11438.934,20595.188,-4604.715,-658.9564,4809.49,18377.25
103,22156.07,-3206.5605,5952.8853,-9704.883,-10568.166,9152.021,36928.87890625
104,26267.396,18377.379,13473.292,-7255.0737,-10110.267,-4335.7656,25415.607421875
105,1288.7874,274.8916,549.7232,274.10538,672.14386,-729.9184,2000.9853515625
106,1987.1024,2999.1287,3929.7803,-35.799625,575.2141,241.75148,2000.98559570313
107,13667.886,12772.001,17609.178,1409.1735,73.879845,-4255.114,8953.15625
108,518631.34,519058.53,519816.1,-583.33325,-570.15283,556.12134,2000.9697265625
109,12416.225,4630.982,7972.889,5457.331,-2867.5808,-9559.82,20831.412109375
110,9307.795,21649.934,33853.234,6554.5156,12911.549,5251.863,34111.86328125
111,13678.294,11470.538,-2939.1013,13445.8545,15152.984,1265.666,38475.21875
112,3597.796,18044.393,-15343.602,4193.2173,-4595.203,5009.6694,32132.642578125
113,-685.7617,24587.68,-3953.8525,4565.262,5494.8047,-5313.4805,31142.02734375
114,2563.464,14814.475,26819.193,8145.9336,-3283.7793,9779.108,30977.115234375
115,12354.316,-1521.8271,-2941.356,6132.1704,9016.462,3128.9316,24501.650390625
116,-5613.9385,-12060.947,669.1363,2918.57,725.83215,7316.865,17586.705078125
117,11509.886,287.01205,7016.96,5097.218,8963.23,410.5928,20376.0859375
118,-2534.8162,-8070.5283,-3417.3276,5793.045,-6876.9717,2638.3083,17028.681640625
119,-10690.976,-13768.147,-20260.252,7976.0635,2903.2788,-1975.4259,17304.349609375
120,30774.697,31333.701,42055.465,7931.608,3070.8528,2532.099,18908.158203125
121,-1076.7144,2340.0952,-2265.0603,-13295.709,6879.3955,5225.2354,27773.408203125
122,14449.888,23670.578,-1735.1302,10295.352,-4060.203,7067.4224,31835.46484375
123,21558.88,36865.54,34639.504,8131.3477,6635.8555,6974.0864,26106.505859375
124,8409.156,12478.16,6719.978,13110.362,7683.242,1650.4525,26966.587890625
125,-6608.5703,-14300.812,-959.64343,4076.9387,4103.0454,-3327.31,16374.25
126,14496.487,-423.99557,25427.146,562.2655,2227.764,-3649.3574,23685.046875
127,11540.051,9560.714,10198.041,-760.4236,-4329.7314,-7084.249,14546.36328125
128,25814.047,7252.374,7163.2256,-10277.058,-8668.611,11896.427,36236.19140625
129,-2144.532,-701.6033,2289.162,-5983.513,-717.5099,1095.0618,11308.9091796875
130,-748.0517,1200.2141,3149.5923,-2176.1555,-2216.5896,-8020.635,15275.2158203125
131,7454.152,11718.654,7133.32,591.4715,-3414.2937,-5080.4116,11537.35546875
132,-7942.5513,-10991.887,-2823.259,-9751.38,3539.7424,-15931.514,33695.890625
133,-13374.236,-235.51462,-1115.1476,3756.996,9331.863,-12556.96,30634.462890625
134,623.9279,-13162.403,-6270.824,485.62106,-7747.2627,-17851.83,35768.3984375
135,16378.281,10974.467,32112.953,-133.04385,-4523.1553,1944.9897,20846.755859375
136,23577.863,23035.793,23554.566,140.86041,1081.5673,-225.28584,2000.72583007813
137,-738.93066,-16984.12,14269.329,-815.87854,3797.9285,263.19482,27900.6015625
138,9707.415,8463.351,18911.23,782.6342,410.14822,-5947.037,14357.9951171875
139,16354.504,5404.538,4081.3982,2745.1128,9851.1,11226.146,28774.28125
140,10989.938,9831.086,13854.962,4185.6494,8972.426,13697.71,29492.8046875
141,1649.6587,-4292.7866,770.0187,9167.071,14151.871,5730.241,31341.634765625
142,1385.8181,24720.547,-2202.028,-1800.7595,1445.4575,3788.3235,26460.421875
143,-5574.4937,24392.83,19962.215,6687.7856,3963.1545,4042.605,31862.583984375
144,2484.374,23024.764,31911.016,2187.4219,4195.332,10384.244,32772.76953125
145,-6243.353,11993.481,-502.77634,211.5109,8118.585,-1362.0648,21547.169921875
146,13391.702,-88.93674,10895.573,3914.5312,18814.977,932.2218,35565.3828125
147,-3122.5044,30267.486,24504.938,1151.837,-824.4552,10381.735,35847.5625
148,-19763.465,1989.5525,-17913.648,1655.4928,-2308.0452,9229.481,26760.599609375
149,33593.797,14880.263,20255.018,6934.221,15558.971,8602.95,37027.43359375
150,21897.697,12876.367,30943.105,2383.8113,-3195.396,-6883.0234,20847.369140625
151,22137.23,6018.056,13299.592,-4779.6367,4382.7246,-5058.526,19960.005859375
152,-3045.6262,-2146.3052,-2528.053,613.4714,-349.81302,477.74948,1670.95141601563
153,14106.27,1675.0785,956.71515,3858.568,-9674.511,4574.7793,23499.375
154,5749.302,4676.6074,15518.729,-4433.538,-17369.953,1132.6821,32787.734375
155,-10366.138,17539.527,-1241.312,-264.0553,10875.688,2684.0227,31369.046875
156,-5218.923,7538.1855,12826.646,-4805.01,8234.282,3091.583,23654.287109375
157,-347.55768,3167.057,-14637.327,-16404.984,2493.3257,-1860.0222,33214.04296875
158,5644.798,2090.7566,10938.406,-2339.9307,6001.554,-2020.1907,14006.873046875
159,144.33234,-288.2688,1584.8372,199.79515,390.25,-425.03152,2000.98889160156
160,4990.9717,-7264.284,2920.214,-9889.949,285.34912,-12626.85,30018.181640625
161,12499.745,22817.64,16598.26,-839.4321,-794.91504,-12649.443,23769.8046875
162,16203.423,15999.949,16820.707,-653.87897,288.6649,-800.68304,2000.994140625
163,-53050.34,-52179.24,-51134.58,-524.8101,-284.30542,-241.47467,2000.95825195313
164,26487.836,25568.365,25389.324,-204.21835,555.6627,-798.1548,2001.16394042969
165,4257.593,4487.68,-1155.8606,1900.3268,1647.0957,-16422.074,29302.388671875
166,1106.7765,7156.904,-8025.734,661.7324,-2403.4731,-2025.9044,14360.23046875
167,13145.978,7217.1196,7760.608,887.84503,4209.102,-953.6701,9511.4326171875
168,24710.898,25311.074,24109.928,-255.1938,-950.84094,-69.04036,2001.00769042969
169,-73531.14,-73643.875,-73752.72,-813.26953,88.09759,-808.3504,2001.15539550781
170,-51994.836,-53163.926,-53684.055,-474.7793,345.25534,-491.01038,2000.62646484375
171,13290.505,21496.285,17621.883,-5602.618,-9732.814,-1795.602,20942.228515625
172,12647.901,1242.0603,-9126.181,1230.3953,2271.6467,-7992.316,23822.388671875
173,3463.7158,6367.012,-3815.3645,5098.4595,-722.4146,4166.7603,14634.9462890625
174,2732.4202,3125.0647,1770.2327,692.1299,12.266722,607.927,2001.01989746094
175,31709.822,8300.27,8736.904,-2186.459,14720.8125,-3601.5317,35232.62890625
176,11188.991,6437.307,22568.232,-94.851776,-2400.5964,-9979.956,22852.796875
177,13192.818,496.28497,1429.9521,-5467.5923,-3150.3257,-7090.9053,20506.57421875
178,2307.2546,19935.703,-3307.36,-663.5847,-607.41473,-2209.5513,21408.8125
179,3940.194,233.3341,8001.204,-1431.2898,3894.5327,-14607.422,27148.9296875
180,-2366.6995,-7394.5,-23734.428,-12818.644,10537.425,2928.0466,35017.296875
181,3876.5752,3495.48,4497.3423,650.2044,724.36615,362.63678,2001.02197265625
182,-10466.447,2900.2917,-8155.1016,10309.652,9465.944,9114.989,31464.982421875
183,2951.29,21803.7,6436.4214,2442.412,4298.697,4545.964,20908.998046875
184,-278326.78,-277438.22,-278792.94,130.07184,651.87885,443.3549,1826.56469726563
185,-164768.34,-165735.11,-164323.81,-884.83527,-25.513453,187.26186,2004.48388671875
186,3348.055,6426.963,4820.158,4282.9,306.27878,2987.1353,9444.275390625
187,-2276.2559,-2608.373,-12334.698,9356.208,13100.323,-13022.166,37204.08203125
188,-13187.8125,-8298.63,-6692.5522,1714.0364,-2349.8267,-3938.9604,10308.2998046875
189,2249.126,-22996.016,-7150.8115,3554.1973,5670.231,-5131.794,26490.201171875
190,16022.706,16678.332,15278.823,-1362.611,5351.8975,16239.48,29734.349609375
191,3910.422,-8644.966,-6641.0854,1451.5221,-4173.3936,8392.011,20157.96875
192,-1493.2379,4465.2476,-2138.2146,-12881.846,8259.499,-10757.078,33005.91796875
193,1284.7516,-7435.675,5884.342,-501.18427,541.60895,10066.198,21045.927734375
194,4625.3647,-3534.658,2288.5918,1079.2749,-6227.6416,639.8488,13192.86328125
195,18504.621,4554.862,-11318.914,-4529.7603,7108.2046,10789.095,35076.453125
196,5139.079,-3543.1821,-31366.576,-8928.081,1299.1499,-1030.6152,36585.16796875
197,9648.932,-7659.19,-678.77734,-3758.1516,3210.228,-578.34,17371.546875
198,10026.422,5871.773,-5590.7554,612.2792,485.73648,-3377.4573,15242.2958984375
199,6378.8804,-11777.879,46.146126,-882.7972,-2783.3042,-1820.6477,17038.546875
200,3951.5898,7093.7456,-2000.824,-8315.313,-1823.659,6239.095,19954.87890625
201,16683.535,-13065.58,20135.908,-2689.2397,-6013.069,7.1372924,33612.51171875
202,1886.8629,-5883.4043,-16196.684,-7154.752,2364.3496,-553.27454,20448.421875
203,23573.482,1103.8578,-5551.815,-9247.9375,2890.1663,-3737.5876,31973.009765625
204,-4306.15,-9514.032,-16977.805,-5802.625,1220.7057,8678.136,21286.43359375
205,10155.221,-10634.752,19531.197,-11612.11,-2091.1274,-9192.68,37231.921875
206,26444.625,12194.035,19579.28,-3448.3767,-6690.49,-2497.6519,18467.640625
207,4924.1694,11601.72,-5681.463,13099.897,-570.43365,-5764.1865,29040.736328125
208,19797.223,21307.094,20664.688,-641.34283,-515.17065,289.59268,2001.05017089844
209,13992.1045,15226.143,14206.1875,217.28708,-916.63367,111.40562,2001.00500488281
210,-45460.773,-44301.82,-45278.42,785.1149,574.3591,-0.9866333,2000.99267578125
211,40684.844,41677.824,42644.5,221.62788,549.0704,-154.47974,2000.93627929688
212,-25724.623,-25195.871,-24205.195,276.20175,-388.5794,-715.8365,2000.98693847656
213,6610.5312,5777.158,7262.1313,-614.37036,-545.1899,-328.1072,2002.28149414063
214,-224211.47,-223022.38,-222812.55,787.47577,375.10086,-6.895649,1997.51745605469
215,-53201.76,-52583.75,-52087.168,-688.813,-202.89548,-712.17523,2000.97375488281
216,-982.9396,-2088.0854,3639.7444,-1588.1875,-8486.381,-15870.211,31731.89453125
217,3800.2498,3011.2917,3109.7073,-955.5624,-484.93253,-39.439724,2000.98425292969
218,-3781.9407,8095.3643,-4289.93,-757.18475,-8402.56,-7940.831,23453.38671875
219,77.54312,22584.652,21623.021,-4213.8994,-10059.378,-5482.8955,30543.11328125
220,-9533.392,-10777.453,12782.965,5594.8887,3385.8374,-3219.987,26205.63671875
221,-21858.969,-19354.61,-24109.637,-122.66973,-695.95184,-7500.6357,13683.9541015625
222,-2612.1758,-24953.562,306.5803,-6702.643,10478.214,-5906.095,33788.55859375
223,-3220.1453,-27266.693,-19969.568,-6062.442,4797.217,-8226.215,28953.84375
224,1491.2567,16246.202,24094.1,4970.043,-3512.7207,-6737.5015,25345.54296875
225,-5502.0225,10410.385,-13748.338,-213.20505,-4987.9204,-12310.209,31334.060546875
226,-21032.32,-6865.695,-21606.424,8.443619,-2122.982,-10018.352,22886.228515625
227,-3049.3215,7109.5444,1764.7417,-5732.796,-2184.5535,-6506.3926,17815.2578125
228,-6961.4067,2124.8577,-12871.234,-1883.059,-352.6199,17256.6,32795.8203125
229,4358.5396,12210.577,14244.076,-7647.243,-9531.109,-183.81415,23017.931640625
230,-6568.645,5050.073,9614.468,-5215.7827,-5606.909,9921.093,26078.16015625
231,15145.063,-2353.2922,7139.766,1607.4714,19394.936,1188.2206,37022.640625
232,11596.237,25688.707,27639.338,-3993.1584,11315.8545,-4671.0547,26969.05078125
233,23879.625,13546.374,6217.389,-3414.908,12947.791,9312.93,32161.078125
234,266.2123,-1039.7406,-15893.671,3878.9963,8001.336,-8107.9326,26003.1328125
235,17628.951,31959.816,35663.383,4391.6045,-506.4127,2789.8083,18818.671875
236,12468.76,18567.77,11542.131,863.4572,13152.495,6328.4346,26173.58203125
237,-1587.4469,14034.465,6709.668,-1445.7684,8223.696,153.35608,19811.5703125
238,5364.8374,9281.023,22012.658,10826.742,13213.229,-75.426926,33207.390625
239,27053.564,39579.965,44198.42,15495.173,5710.8047,1402.8973,32559.7734375
240,10383.925,25435.47,-10184.426,-361.29462,3832.849,4529.702,32637.552734375
241,-594.4756,-11539.605,-9205.336,3086.8916,-1488.6068,-1481.3823,11895.958984375
242,33602.86,42724.125,36513.688,5461.3203,-784.86523,17481.914,32761.228515625
243,9370.006,20267.229,3200.741,4450.944,12795.001,11196.599,33921.93359375
244,6409.9043,10646.131,18274.77,891.62274,16494.475,11283.292,36179.890625
245,15327.409,18457.58,29270.896,7653.556,13305.415,9372.632,33629.52734375
246,9510.128,19997.432,26646.346,-278.3428,9796.517,9467.137,27945.455078125
247,14934.8955,22467.004,26816.01,-3085.2063,12945.336,6559.5254,27727.0
248,9840.712,-3787.5256,20083.385,2235.7942,1878.4271,-5530.781,23400.453125
249,14242.025,13351.82,31210.305,-796.63306,10968.203,5788.1226,27697.212890625
250,-28678.016,-11981.841,-34507.145,-1585.3997,2320.3118,-3201.545,21552.421875
251,15286.539,11457.571,22724.922,300.8252,13976.641,6851.896,28733.748046875
252,8059.925,-3260.7979,1508.5514,1154.6832,8093.1616,-7060.7456,21141.736328125
253,1164.95,5951.4717,8266.898,5956.966,13682.187,9603.047,31369.943359375
254,-13686.1875,-16315.484,-4310.9346,-1826.2278,8915.886,930.9387,19249.5
255,-11134.686,-11122.716,-4480.505,-2356.251,2491.9272,-1099.6371,9116.5283203125
256,-7169.802,-2903.9531,-22979.605,-1100.6517,-342.9621,-4734.9595,20170.18359375
257,-7532.7466,-730.1579,-3558.5815,-1582.8751,891.409,1598.1409,7252.3837890625
258,-1606.6198,3588.9172,-6239.9194,-4544.503,3486.5007,-1018.10156,13193.47265625
259,3621.664,2213.4705,-10613.627,1049.2106,-10133.063,-415.66937,22280.89453125
260,-8678.831,10273.669,7503.2104,6806.773,279.50516,5474.303,23313.095703125
261,-14984.921,-3218.2925,-35367.0,-200.69063,-383.25668,-8400.566,31717.203125
262,14985.05,8975.4375,12985.129,9689.838,-4442.0127,-6141.6875,21957.47265625
263,-2360.2668,7950.368,3753.8528,-1090.4666,-130.66031,-7742.6597,16251.6484375
264,-19129.438,1332.746,-31524.607,3565.2285,-2113.2507,-2254.604,29878.974609375
265,2190.3162,1891.0393,26685.545,3331.9094,-7500.2305,-177.6879,28453.412109375
266,-18542.732,3048.9353,-19353.012,4506.803,-369.44867,-3104.7175,23971.087890625
267,-9562.177,2900.2925,-389.5887,9926.297,6504.2837,12045.085,31351.234375
268,-5883.598,-923.7969,-4114.5728,-3080.1375,-4726.9673,-857.3608,10800.6796875
269,-7691.0283,4913.2217,-6934.414,11119.814,-2227.0125,-683.2391,23176.130859375
270,12848.888,-2617.2773,11778.08,-5701.6904,9714.856,7169.819,27543.958984375
271,10896.652,6405.0034,8790.687,603.7285,2297.2483,-735.60077,5805.13427734375
272,-835.6059,-1024.1804,-415.79868,277.20425,363.86157,807.2992,1695.24975585938
273,-25858.877,-24063.535,-41475.227,-8664.906,-13482.342,-4845.2866,33408.4296875
274,1238.0918,-17524.69,-19378.89,-1394.4747,1477.29,6166.988,22732.048828125
275,20163.004,2648.2063,3347.5935,294.64597,2720.9824,-3058.6506,18588.849609375
276,-6597.5576,-884.1897,-22414.424,382.6596,1451.4464,4635.5024,21080.951171875
277,364.2006,3290.6064,-19629.568,-4871.858,-689.4832,-3303.3425,23920.53515625
278,11137.93,15532.575,13671.589,-8010.382,4363.532,6070.6284,19359.11328125
279,3562.951,21651.812,-11920.977,4066.3057,5595.972,3623.784,32093.458984375
280,7776.9263,3748.5767,2207.1743,-859.53467,13000.278,4392.597,24329.728515625
281,7166.205,1121.4548,643.8024,5016.9346,12257.766,7933.959,27472.984375
282,-20664.99,-13778.545,-17035.451,-2813.356,-2249.8757,5100.4272,12352.16015625
283,6956.0815,3124.654,-6773.951,-7896.841,-6309.1377,-58.90753,21379.765625
284,4299.701,4233.4434,2583.3696,-1744.1937,3048.4333,-7825.0386,14951.107421875
285,-6413.211,-10115.245,-24433.912,7465.833,2481.8372,-3542.0781,22250.189453125
286,44690.168,44137.16,45223.266,386.76697,-409.26324,-850.05457,2000.96264648438
287,27041.137,23088.176,4865.4785,-17129.977,-3813.9644,5919.231,38062.9140625
288,-1397.7056,1012.3918,-1634.494,-1898.9769,-656.0203,-321.6142,4342.2412109375
289,20029.057,-18991.41,10049.676,-3152.8906,-9631.013,-4832.33,40136.39453125
290,-10373.193,-26199.725,-4699.6714,-3578.779,-3228.2188,-458.77036,21042.306640625
291,-179.06425,-1326.2454,-2078.748,-7402.623,-2042.9036,-3508.8596,14717.29296875
292,8370.3,11731.829,5838.6206,6021.4062,9371.69,1312.5978,20090.9453125
293,10779.86,-3317.44,-2396.428,3242.4072,9942.922,1107.5326,22768.46484375
294,21369.732,36051.81,32901.207,8910.821,5991.966,12858.168,31955.421875
295,8300.612,-3356.3215,-14812.432,9520.741,8520.345,1210.3473,29912.98828125
296,-1844142.2,-1843160.9,-1843829.1,-216.45781,704.79675,367.03433,1669.96142578125
297,60420.543,60263.695,65784.88,485.148,-1412.5856,-2940.3398,7891.21142578125
298,5909.8115,9374.233,9169.236,-6913.011,-1023.1741,-9213.865,20310.830078125
299,20670.852,-7818.94,10947.747,-556.62915,13244.918,-5824.45,35470.8828125
300,-9381.84,13984.75,-59.278923,-4617.1733,-8582.092,3983.1602,27341.90234375
301,10104.515,1363.7786,-10793.581,-1459.5745,-5747.9424,7037.176,24177.24609375
302,1890.9185,15040.439,30972.738,807.81866,-3961.3894,-2515.6812,26538.1171875
303,2273.8364,9867.689,12499.029,8589.675,-2683.0488,929.159,18168.830078125
304,-7629.518,-18616.824,-26558.855,4962.2188,-6493.316,418.37,21724.265625
305,7501.1885,9616.199,17965.152,-3978.9688,-5816.718,328.19818,15529.287109375
306,-1099.7806,2692.5447,11252.751,3410.7532,244.3188,8103.4844,18766.99609375
307,-6389.125,-19901.084,-10119.791,-1395.0425,7770.5728,-16222.518,33504.87109375
308,-4450.3765,2275.2944,-11736.768,3091.7988,874.2389,-7356.664,18457.087890625
309,-4071.9075,2506.1711,944.2694,2726.6978,-2472.634,499.00195,8765.2587890625
310,3674.1328,-1659.5144,3360.749,4700.486,-6145.42,8400.139,20448.564453125
311,2718.837,-13621.655,-6688.546,-1652.282,-7760.9224,2583.8518,20265.833984375
312,7663.7705,-5608.73,-3957.6829,-113.90814,-419.7242,-10346.162,21878.490234375
313,-2362.7793,-6133.2065,-949.25665,-5954.305,-1125.3418,14135.499,27039.623046875
314,12955.483,8520.608,12561.833,-1430.8181,12413.989,7805.637,25871.302734375
315,-8820.539,-14665.429,-26134.572,-2897.621,7537.4556,10261.4795,27281.16796875
316,17604.059,-903.25854,-12625.798,-7692.1387,-8706.687,1963.8337,33367.4609375
317,10862.464,-6253.2095,845.72437,-1481.8552,-7384.199,6183.5913,22510.33984375
318,21091.955,185.45506,2854.5508,-10296.799,-13287.108,7251.688,37334.69140625
319,87849.984,87672.11,86209.28,509.13544,408.33075,-313.94885,2001.31372070313
320,-172387.02,-172536.78,-173944.84,368.0942,522.874,-431.57495,2000.34790039063
321,36523.543,36319.414,38389.176,-172.90439,37.672718,-48.694275,2001.03540039063
322,13462.871,13597.904,12457.141,590.7421,467.93707,605.281,1992.09802246094
323,-724412.2,-723936.94,-725173.4,188.35796,705.9614,539.9892,1908.76110839844
324,-21410.758,-22669.943,-22634.488,379.15216,765.56256,-302.99207,2001.7744140625
325,-2949.6003,3487.9822,5976.6885,4450.9844,-4203.531,-4279.1025,15199.748046875
326,11516.519,9671.07,7837.463,2951.4204,9313.954,10728.856,25334.927734375
327,618.773,16286.048,-6203.425,3830.5852,7590.976,-5380.157,26506.947265625
328,2031.4287,15381.344,4857.8105,-2056.6626,11361.496,11098.78,30297.951171875
329,4720.066,16768.607,4868.543,-3635.1384,12159.062,298.46622,25036.748046875
330,4783.217,21957.885,16785.514,3169.8555,6459.193,9507.512,25678.29296875
331,-5946.388,-21791.469,-28917.328,9654.208,9083.264,-327.7883,30695.35546875
332,-2874.3335,3626.0112,-1734.3414,6023.464,19457.861,-1125.8688,35841.56640625
333,20785.963,31232.74,34717.773,1965.2806,13637.373,1625.1151,27113.3125
334,10556.289,12269.424,14526.982,-177.33609,11760.646,6012.4,23138.248046875
335,8661.788,11769.804,1111.3091,-324.97235,-4306.313,-3493.1182,13516.3583984375
336,8223.077,3452.046,-13404.363,-692.55554,-1660.6187,-3853.8523,21014.09375
337,-2220.692,14758.005,1372.5511,1695.6394,3817.8975,-2334.2004,17574.955078125
338,-4070.8767,10692.77,5285.206,12628.36,7548.0835,2989.617,29043.626953125
339,1745.2744,14029.681,3475.9158,24.60374,9734.859,-13144.814,30582.75
340,-2397.1453,-3449.5305,1505.6625,9996.014,-9775.146,93.15515,24635.21875
341,2816.4048,5821.7144,1516.5714,-1745.9623,2741.274,10327.034,19137.912109375
342,6618.0034,16043.449,9791.924,-4426.1997,769.27936,4997.91,14299.7763671875
343,-1926.1182,15069.087,22982.057,-8353.273,-7185.898,6400.188,31193.986328125
344,396.179,-24857.756,-25930.371,-3104.026,-4039.72,-3844.4941,28074.951171875
345,7856.32,4759.107,-22523.557,1863.042,1884.4808,-5638.979,30901.41796875
346,218.84787,-1548.9128,9880.645,-782.33826,-690.9142,50.856064,10808.8408203125
347,-6867.2285,8136.06,1500.3239,-9114.902,-8815.989,2043.0647,25778.001953125
348,-11890.904,-1056.5394,-4059.053,-2561.2346,-7479.054,-8787.5,22649.8828125
349,11824.402,-19167.396,-8350.889,-1745.9551,-4551.1177,-5015.7803,29816.484375
350,22706.129,21829.65,23607.17,300.84283,628.2314,-243.97977,2000.98840332031
351,-2875.0564,-7884.7695,-12500.15,4730.7593,-1070.7356,-9574.008,20373.642578125
352,6338.6665,25739.982,13078.472,-1648.3307,1803.6554,-3212.8955,18437.828125
353,-4157.7915,11554.566,-9264.172,-4478.258,-7608.172,639.24786,24253.447265625
354,23604.18,7594.3037,6529.745,-4945.12,-877.3425,6731.213,22047.501953125
355,172.67018,1614.2543,2323.7432,-270.53775,-83.66199,-230.24985,2000.98522949219
356,-29813.072,-21226.648,-31141.996,449.52032,-786.515,6431.1465,14609.736328125
357,9958.995,-6839.838,4671.8174,-5415.4473,-10632.61,-12302.575,33204.4453125
358,6939.4106,-5159.2876,6119.1304,-4106.6235,4557.811,13629.82,28414.029296875
359,-6590.2827,-5172.913,1075.674,-362.36432,6532.53,-3840.7056,14919.0869140625
360,-1625.6089,1240.566,-2268.0613,312.31516,62.603775,-2493.5498,5424.65087890625
361,1.585119,3641.4114,268.38135,278.8893,358.6708,738.33154,3821.39965820313
362,-1688.2399,1684.2324,-846.435,-4017.3237,-823.0194,-452.85016,7765.77197265625
363,3105.441,4164.4263,-145.31299,211.33513,73.127396,-44.52647,3909.90161132813
364,-13139.341,1430.471,187.70741,-1571.968,-1468.9506,318.5003,14488.205078125
365,1128.6,7477.7812,6535.1733,5471.526,6950.839,-2953.3977,17208.68359375
366,-1357.2928,7055.9927,385.7158,794.3312,-154.75331,-1251.3263,8112.90380859375
367,-1099.0964,19411.572,5815.253,4633.108,-2025.3385,6074.748,22673.521484375
368,2585.6313,3432.8835,-4021.3538,-6856.3154,3306.104,-5843.26,18061.48046875
369,4269.8774,6700.428,-5322.2646,-560.77216,1250.6615,464.03745,11292.1572265625
370,4403.88,667.29706,6515.152,-173.46304,3323.0046,871.5664,7861.59619140625
371,7172.228,6298.7793,-1315.0217,2156.263,-2356.747,-4914.592,12978.9814453125
372,-113.44088,-3811.054,-4075.427,1589.5824,132.17891,-34.55116,4728.22314453125
373,-496.5519,336.5969,334.5466,-1208.0674,-987.2602,11.699203,2827.57348632813
374,-1788.6423,2057.4624,-707.7475,2541.941,-169.58961,-1342.523,6056.5166015625
375,1728.7937,2086.3115,639.44244,-1776.0361,-385.13818,194.98924,3424.31567382813
376,-4387.159,2316.6655,1717.5623,-2406.1118,-61.288445,-1458.8898,8065.2578125
377,-817.16797,-789.71405,205.88686,2137.3096,515.5629,-769.82806,4159.1953125
378,-1084.8518,6952.049,412.52954,901.52014,2039.4384,1057.2366,8548.041015625
379,-547.08057,910.5871,-384.95248,2095.6365,10.067986,-271.56146,3912.97436523438
380,-908.56274,-192.3456,-1084.5647,-3478.6204,1012.2237,-1687.244,6970.40673828125
381,12378.438,11624.746,5255.7607,1856.6381,-2502.8652,1794.9808,9205.0244140625
382,14880.26,16011.676,6409.6445,2840.4675,3172.832,429.18527,11729.1591796875
383,11380.444,11204.913,-1900.2606,-1174.5956,-2896.2925,-3456.8076,15467.056640625
384,6963.697,882.29694,-4387.3003,2620.2288,-1055.5312,403.33722,11010.2626953125
385,-2009.5621,918.1193,1903.3661,5110.538,-758.0754,805.3913,9718.50390625
386,-5837.754,19.00191,-617.8782,936.79706,129.12958,-975.78455,6042.880859375
387,-2825.8447,1806.8329,-3778.3638,5701.2095,-2755.0479,-862.4101,12218.6416015625
388,-3244.1494,-13417.973,-4686.87,-6322.2485,723.8775,-613.2442,14612.419921875
389,-35983.992,-39152.57,-21008.814,1573.6965,-10475.277,-853.61865,24910.955078125
390,1099.6948,5217.474,9522.213,4096.6543,1149.9266,-6243.8936,14982.8642578125
391,-3938.732,5118.1826,-9490.968,7324.8433,757.8551,-1142.489,18158.744140625
392,3195.613,-1685.1932,1696.6362,1376.9559,-1427.104,474.55994,5588.068359375
393,25113.412,2460.681,9529.223,-507.5305,-3338.5955,3733.9697,21886.703125
394,1858.2057,1206.451,-2621.112,-6684.127,-3278.4724,-401.13202,13576.8251953125
395,12190.145,2974.8113,4043.3955,-1543.3647,3793.9902,-1460.4458,11530.16015625
396,-1775.6619,-10297.322,-4725.945,-5752.087,-3316.685,-468.96082,13751.4384765625
397,-12056.363,-7053.3003,-2875.4658,-6216.071,-739.9714,-2803.1748,14301.1025390625
398,-16356.846,-1797.9352,-6280.5796,-647.1101,-2538.0332,5098.3564,16289.7001953125
399,6403.9272,1556.692,2561.3955,69.30431,-258.6442,-3012.6394,6861.353515625
400,4419.8154,-1583.2246,-4853.873,-1167.851,-529.07544,-1928.0425,9080.248046875
401,8107.762,5637.4683,1272.7924,3940.1816,-779.1875,-2502.8591,10155.0078125
402,-5994.645,-3065.901,-3736.2737,1308.0354,248.37337,-1027.5017,3943.19775390625
403,-10213.916,-4047.9092,-3827.0662,3322.5068,1817.8337,1113.2847,9283.267578125
404,316.71008,8983.887,7189.4116,-2114.551,-1350.2908,2494.1238,10016.62890625
405,6968.225,-399.84375,-1117.3212,1426.4894,1502.0016,-3171.8586,10156.0
406,1176.1759,800.843,-596.06146,3492.133,-1610.3062,760.3964,6979.6396484375
407,8055.1104,-604.71967,5080.6035,2573.0002,-415.22495,1906.2188,9453.087890625
408,-13738.619,-12133.098,-5029.3384,-16966.387,1180.2025,2618.1272,30866.8671875
409,4014.0867,-4462.5293,-218.21533,1383.4767,1272.483,1986.9398,8736.890625
410,19864.62,23759.242,21305.795,-660.2654,-3624.7063,-21605.338,38114.66015625
411,2492.4834,-6069.153,38.749813,-2296.5293,-242.7524,-2055.5884,9326.8271484375
412,-2709.459,159.26788,2485.0007,4898.6826,3032.6887,899.7769,11059.9365234375
413,3912.221,1445.6421,-944.28467,-3350.53,-2286.3706,-1112.6967,8412.2294921875
414,8460.22,-859.1551,5844.8564,2053.2588,-809.8694,-2689.2214,10277.5654296875
415,132.24731,3647.5352,2080.3606,-4230.158,1889.3378,2175.5327,9375.208984375
416,7493.668,3879.136,496.45004,5380.534,-2432.3215,3382.3171,13253.431640625
417,-435.29752,-223.79562,-4748.626,1140.548,2038.181,4142.1113,9348.6982421875
418,8749.433,-2391.9773,-516.1426,5919.6074,378.3811,1450.3727,14785.6640625
419,2502.2358,5893.718,1497.3706,3014.1064,-423.80664,-940.2786,6809.2294921875
420,-8730.956,1270.6132,-426.1882,552.65063,-1869.8496,584.25,9918.123046875
421,6166.057,7315.6484,8737.324,-2096.6768,-8937.278,4131.1963,17578.123046875
422,-4601.3335,1159.5479,-576.3406,-2558.1143,866.3997,-846.2376,7087.521484375
423,-7882.835,-904.93304,1983.5194,-2992.675,2184.8845,2218.533,11538.8359375
424,-4881.401,-8358.397,-7184.784,9356.981,231.65144,3015.134,17305.48046875
425,-165.52629,-3286.6228,5224.321,-928.9355,-524.0088,-370.17285,7709.57373046875
426,32.291363,1505.4999,137.07262,-1904.5519,-1149.3168,697.4053,4281.45068359375
427,-799.4345,4930.8813,6290.0913,-7312.38,3176.982,-5084.2227,17627.052734375
428,-3871.412,-8454.448,2282.313,-2300.8418,1418.1975,-351.92188,10457.64453125
429,-6065.5093,-1051.1044,5571.8984,3069.005,-811.8078,1308.5856,11729.85546875
430,-3416.652,2174.2456,4298.137,5062.49,4385.8325,1163.627,13649.125
431,3916.4639,-4661.562,503.54727,-8955.479,-187.61476,542.79004,17249.51171875
432,-446.27167,1172.0653,-83.80452,-1859.6389,2248.077,-2404.376,6711.4228515625
433,-6398.415,-885.32666,4582.466,-255.61726,262.09973,85.06327,9532.005859375
434,6855.067,-2833.2139,428.3889,3722.4062,-2460.0842,-1945.1615,11999.0595703125
435,5687.7783,1128.3785,4620.469,1395.4893,334.71115,-1788.8246,5730.5263671875
436,9201.562,4247.657,-3878.763,2842.5818,-2160.406,482.96957,13029.9658203125
437,1172.0436,1058.9413,-83.3872,2388.7734,-263.7598,-1195.3119,4802.1494140625
438,-4729.995,9466.913,4029.1362,-6219.7217,-1285.9106,2248.0571,17032.287109375
439,1521.9382,282.08173,-2236.8335,-610.4653,953.3398,333.42944,3896.58447265625
440,2145.3044,-935.11096,1918.9644,1392.5929,-3111.3567,178.39156,6618.00634765625
441,5112.746,4300.197,2114.1328,-152.0697,-1589.4403,881.82404,4146.87548828125
442,-4615.7207,665.05023,596.3696,-860.2653,415.52097,955.4767,5745.04345703125
443,5552.571,6973.4956,-1116.2625,6594.6743,-71.63753,-1037.1205,13772.42578125
444,-3678.7427,-3722.2288,-2447.9016,-2961.634,310.6303,-1048.9592,5610.2255859375
445,-7009.2285,622.2922,-1218.4688,-716.3931,720.84644,1738.9196,7729.86083984375
446,-17352.854,-28033.09,-10694.798,3748.9392,-2120.5706,1278.9181,17031.375
447,-10879.671,-3188.028,754.26245,573.19135,-1255.984,385.70587,10544.673828125
448,-14921.634,-2888.4875,-4508.681,-2488.2563,-1104.2233,-1611.8088,12567.8779296875
449,-1112.5045,-529.59283,-315.09662,-463.45593,-545.81085,42.691242,1433.31689453125
450,1193.9064,-369.87482,3296.49,591.7644,292.2226,-352.39627,3439.99072265625
451,-4351.942,-1999.8336,-5626.3926,-420.16333,3082.0662,1145.9614,6566.65625
452,-8560.525,1319.7753,1757.3378,-2020.5276,-1294.9998,2084.6494,11508.736328125
453,-5862.6777,3516.5618,766.35815,1840.0905,295.15182,-2282.553,9787.1455078125
454,5226.1216,-6473.7544,13254.245,393.0892,6652.7134,-2344.318,21094.8515625
455,-1968.8176,-3545.2158,2310.6875,-700.8112,2280.7375,-2780.3523,8234.9970703125
456,-7946.6924,-3896.6953,2903.9934,-1054.935,2497.9688,-697.9234,10663.681640625
457,-3806.234,-700.58795,-5633.9844,215.64955,355.61664,43.301426,4380.24951171875
458,-1494.3875,2695.6125,-1322.3694,769.7465,-829.3036,1047.5432,4898.74853515625
459,3385.4507,2303.1858,855.1456,-3744.8306,1928.763,1054.7164,7836.08349609375
460,14071.007,255.52354,-4212.299,3292.8958,1803.1683,-1839.3055,18027.396484375
461,-2946.2864,-6786.2446,-1014.63806,1841.8635,-310.6828,-526.73395,6098.63037109375
462,3537.978,-278.15527,116.97285,1386.463,-248.5884,-459.7427,4449.43310546875
463,-2898.8022,-1410.2731,-215.93977,-1649.6915,-490.37015,-930.0031,4111.02197265625
464,-8851.03,-3517.5122,-7227.4478,686.38025,-2701.387,-2052.0718,7639.4931640625
465,2514.9138,-1819.0619,-1661.0657,-2236.0754,847.1542,1905.3367,6794.67333984375
466,-3187.5671,-13814.027,-405.41663,-641.07605,-1688.4935,332.97406,12662.7412109375
467,-2007.2815,-2796.0615,1237.6013,-5327.0044,138.81548,-3926.1692,12047.576171875
468,-643.1774,3290.5452,3887.1785,415.45776,268.979,22.263597,4348.9638671875
469,-3475.1436,-1085.5701,-1953.3024,2023.8976,-533.732,-1318.1595,4769.19677734375
470,-8010.1807,-581.4585,-1595.6241,180.29654,2341.028,149.22786,8079.97900390625
471,-7873.9575,3299.8967,4873.38,1381.1556,-130.68076,-815.9918,12356.5478515625
472,-7233.217,1355.9177,-2130.6545,3332.7153,1361.9019,-1434.5272,10051.94921875
473,-6324.7485,-4696.671,135.05023,45.1012,-4002.9531,-3715.428,11106.4306640625
474,-2380.4543,-1865.7114,-174.27913,1671.0184,-208.43231,246.47192,3561.7470703125
475,-1121.6218,409.24533,530.9117,-162.40192,-349.89273,-94.29001,1737.14758300781
476,-3875.4502,-2796.7258,822.6301,-317.98984,-102.911,915.25714,4584.30859375
477,-14989.144,-8216.369,-9871.401,8253.16,3461.286,-2157.8923,17077.921875
478,-3581.8704,2421.2183,360.09946,-2017.6515,1172.9646,2362.9092,7810.41064453125
479,-14153.093,-8911.054,-2342.804,158.28748,-3019.7983,3734.7966,13203.4365234375
480,2639.3494,2799.3335,-1752.8958,-506.62662,156.93777,-980.8315,4873.40673828125
481,365.45752,4188.5415,1527.588,-753.2777,880.88165,-536.5762,4051.84838867188
482,2892.9536,-2016.8474,3053.791,-976.61,1635.5472,1353.5842,6426.8662109375
483,830.5711,-5466.4585,612.44824,-1044.8091,-202.31197,529.7375,6524.27490234375
484,1666.6565,-6134.494,1666.7859,4292.306,1107.6542,1365.9733,11198.615234375
485,-1431.8147,1201.1755,908.3575,3139.4014,-918.4171,335.9882,6219.650390625
486,-760.3641,-7116.8057,-2425.1687,-389.96936,-2159.5693,-55.273846,6859.322265625
487,-1783.7784,2421.8467,1761.8903,361.7902,913.12775,-1497.1859,4996.6064453125
488,-5754.473,635.6521,-665.7151,-795.67944,-967.2434,-670.53107,6345.564453125
489,-8371.621,-2497.118,-2566.6096,4810.52,-729.1983,1552.9005,10599.970703125
490,5717.357,6597.9966,9832.53,-1473.242,-1093.2007,150.53217,4924.50634765625
491,-5661.8774,-5598.118,-1135.4126,-287.32602,-19.983225,1479.5586,5198.1240234375
492,-3424.3052,-988.6812,1161.8821,965.8101,679.3409,-143.81516,4476.61474609375
493,-5208.157,-2388.978,2372.7847,2859.3853,162.19928,-1049.4481,8482.783203125
494,879.0818,-2091.8542,1794.4608,2910.9478,286.95447,1481.8181,6681.25341796875
495,2698.4353,-4725.578,-253.90543,4004.5432,1248.6963,-39.55439,9731.6796875
496,63.73002,-3642.954,-1926.8882,-742.301,-948.94946,1064.856,4252.0322265625
497,-405.07816,-2623.1257,1209.6116,548.7034,1531.1644,2124.9412,5708.86669921875
498,-4091.9404,-8823.793,-1405.5916,-596.7088,-2209.5996,1242.696,7916.208984375
499,-2405.935,-7703.114,-447.39267,-1201.4757,-59.69224,-615.4777,6910.02880859375
500,297.37317,4252.3345,7612.311,-2452.4883,-732.3236,3817.453,10177.994140625
501,-1813.818,-8397.802,861.21387,1391.1256,-1010.3424,-665.89453,8849.59375
502,-4080.2866,-1125.1061,-1600.491,487.67706,-3133.1934,-3361.8667,8463.1474609375
503,-107.99813,-6059.8843,1335.4541,-110.67411,1767.3047,1267.5415,7767.01953125
504,-1279.5576,3923.4966,-2250.3318,2276.5398,-1745.5894,-446.25986,7638.83203125
505,-3848.5608,980.5234,-1882.8751,55.66713,-553.8442,842.6648,4555.3583984375
506,-6554.665,-7303.485,-3279.262,-4193.3315,871.35034,-1728.1433,8816.5166015625
507,671.5445,-388.38242,629.6207,-1814.3337,1355.2292,-465.44934,4137.15576171875
508,520.1535,-2686.726,1831.4287,-3306.8306,-492.0151,-2619.2415,8385.79296875
509,-714.41876,-6128.7764,-957.43195,503.0253,-134.84169,-127.77331,5377.8427734375
510,-1264.2451,-6268.138,-1543.818,1873.4845,-1175.9441,57.350918,6197.28857421875
511,-3992.3123,-5937.552,663.7172,-2941.9365,-893.76434,2253.3135,8838.1748046875
512,-296.06088,2122.175,1166.2181,2481.664,-297.33173,-826.3945,5023.9384765625
513,-1473.4823,5362.6943,-718.2929,-442.90457,510.2274,-45.996056,6596.72998046875
514,-8417.961,-4673.135,764.7217,4673.5806,-153.26588,600.6523,11429.6865234375
515,-599.71906,3835.7654,-805.62616,877.68286,-646.0021,-364.34155,4958.86962890625
516,-636.85547,214.77304,-2.6776493,-3272.938,891.2179,621.26135,6021.99658203125
517,-2153.7385,-4365.576,585.03937,779.33307,387.2753,-112.90944,4556.43896484375
518,-1316.4027,957.9313,4191.6787,2339.601,1488.4469,928.85223,6974.2568359375
519,190.11456,2841.8743,2601.6816,2083.1611,-396.82712,2552.5825,6284.1640625
520,-4358.5557,1049.3903,445.618,-569.74207,414.57846,885.5009,5494.2724609375
521,-4776.5596,2537.6978,750.6018,-697.7135,713.1024,60.481705,6827.71728515625
522,-7297.674,-4390.527,-5352.901,713.48865,541.57874,210.47604,3019.92138671875
523,-871.12976,-66.05265,-374.22467,-1496.3287,29.77674,-701.49536,2948.04418945313
524,1631.5483,-4091.0342,-461.30475,122.51216,-1196.0248,-1059.8729,5732.181640625
525,-3218.5208,1833.0934,-59.921013,-464.19714,-782.35645,-376.3866,4737.84912109375
526,-1858.055,-2710.9749,-401.86087,-748.76794,559.63226,39.025757,2591.541015625
527,-9563.481,-3072.7056,-127.08419,-780.3099,-904.9529,-301.87988,8630.3583984375
528,580.4218,-3540.5508,-1077.8552,4641.0215,-1615.6212,481.46292,9275.87890625
529,-2309.417,-3157.7861,-1247.1854,1269.2427,-618.4517,3620.8984,6932.69970703125
530,-4132.8057,608.8805,3260.3367,2332.878,-1025.0728,-911.5564,8003.64111328125
531,2200.6924,2249.8354,-411.36908,2720.273,-1735.8009,-323.4634,6205.33642578125
532,-3583.562,-817.65704,2319.672,1537.572,628.46045,-2031.7792,6843.41064453125
533,998.7182,-5495.91,1123.1335,1581.9667,238.41736,1022.8759,7336.27392578125
534,-2867.8706,-8139.939,-1551.9556,4162.0415,2032.7859,-502.83737,10079.0322265625
535,22.710915,-2283.5964,813.942,2356.0254,960.6875,-322.6828,5244.3896484375
536,-900.5702,-5748.4194,2353.264,163.27037,827.4021,-38.784046,7211.2021484375
537,-617.3689,565.7595,-1568.5223,-724.2028,-333.46576,-1616.1595,3629.427734375
538,-2266.8328,-4591.7876,488.56577,1091.5903,-1222.5281,579.236,5335.615234375
539,-660.59937,-3922.979,27.948381,921.3849,9.179998,66.763435,3990.48828125
540,-3991.6138,-5856.5864,366.96457,2124.8418,2495.492,-548.3769,7983.3203125
541,208.13039,1558.6981,185.03995,-910.07153,358.04697,-681.913,2473.87377929688
542,-8845.973,-2550.0,-1479.3186,4552.466,-598.8084,1494.9569,10838.904296875
543,-994.57324,207.30249,368.51245,2646.8743,537.3618,1523.6763,5523.8681640625
544,6728.1216,1167.1255,533.5459,-1773.8553,845.7614,-146.86089,6819.0732421875
545,-7557.6577,-4570.0083,-418.21176,-3118.3865,-1191.247,-1030.2505,8670.7578125
546,-1.1956273,-2199.8843,1603.1239,1059.4111,887.69446,-584.2567,4206.01953125
547,1073.9309,613.2473,637.7681,835.6355,-1749.9238,276.94626,3422.4541015625
548,-1929.9933,-4155.2554,153.66473,-1332.0153,-1587.319,541.70605,5262.31689453125
549,-6153.275,-1087.044,-3458.119,4845.2666,1749.9108,-1777.4967,10410.146484375
550,2797.889,3492.801,684.17786,734.50946,-511.368,-1084.5063,3514.39697265625
551,-1896.5889,809.43774,564.4652,-1666.8696,1268.4039,1189.706,4912.005859375
552,-3326.6016,-2517.9502,-178.12817,-2374.4648,-377.83786,188.84186,5046.81103515625
553,-1132.7648,-992.52167,218.76952,-138.54433,525.03156,-312.20532,1683.37280273438
554,-7249.405,-9484.237,686.4976,-3347.5574,757.26825,-1609.2507,11349.7265625
555,-267.64722,1748.2323,-1559.722,-976.7095,192.97433,483.12137,3465.7919921875
556,1924.8488,-2498.9773,1190.8281,1513.47,970.73444,-232.43373,5169.3974609375
557,-3682.981,-2258.13,820.5821,-311.5958,-421.92865,333.61142,4129.72314453125
558,-2076.8967,3249.5618,-579.77716,2882.2266,313.21017,-421.8237,6956.14697265625
559,3200.7715,4655.4355,-558.0406,2423.5015,-399.98807,414.70715,6350.47412109375
560,-1863.6279,-4005.826,-1857.05,-119.22021,-296.51096,40.600418,2216.86450195313
561,-2649.6338,-7613.143,-2034.8584,-1064.1617,-666.46014,-328.35043,5754.91845703125
562,-331.63925,2494.2222,22.48911,-1493.438,487.95535,-944.5436,4146.32861328125
563,400.81668,-1397.014,-176.72548,25.04349,-855.5519,-376.08368,2269.25805664063
564,2429.9355,-4506.8477,809.4634,-1196.8748,-162.05026,111.11058,6627.0185546875
565,-3068.8162,-1101.8981,-2464.4773,1679.9496,515.9339,429.83923,3586.76000976563
566,-1012.75037,-1087.0247,228.71011,350.48856,-1374.1184,849.8659,3136.70166015625
567,1226.8585,3315.431,1656.0308,855.05475,479.82022,284.15707,2603.12133789063
568,-1781.825,-3719.503,-1947.8268,-2181.4556,-53.786964,-70.02272,4214.27685546875
569,2872.6472,4157.2446,-202.73857,1623.2148,-403.58176,721.6117,5001.41015625
570,3448.348,4410.9375,1883.1688,197.35326,523.7588,-611.6943,2635.39624023438
571,2726.9304,-311.96405,-2586.2886,155.23862,658.6364,-1735.6838,5632.97119140625
572,1943.3179,1020.34406,2371.7275,-1237.4678,874.7429,-1095.9247,3453.03979492188
573,4791.9062,2631.896,931.4823,148.15744,1287.5511,3855.428,7801.419921875
574,-4594.0273,1878.7146,1270.442,7282.3145,291.5943,-1816.8075,14407.7392578125
575,-3292.7385,-1493.9573,-1331.6614,4300.398,-276.56638,-40.282635,7698.60302734375
576,5982.61,1581.0593,-1505.2991,3670.6333,804.8181,167.61824,9215.8642578125
577,241.92706,2462.6243,2012.3114,-831.10803,-82.70328,1404.21,3484.5986328125
578,3684.3188,-7232.845,2595.3184,2340.4675,1018.1794,3508.8235,12843.697265625
579,-6583.889,2339.8003,-73.35353,-6163.041,-2622.8296,-2346.7534,14663.9013671875
