Element Label,S11,S22,S33,S12,S13,S23,Mises
1,348.4099,-3603.9502,8513.664,6221.138,-337.96387,-4988.498,17483.427734375
2,5140.761,-2517.0996,276.51697,-1037.1654,-2102.9302,1547.6747,8290.595703125
3,1316.0201,130.49246,-813.42664,-1572.5115,1333.6199,-1366.9277,4666.36669921875
4,1641.5542,2929.9214,-2069.9194,2368.0742,869.0952,227.61359,6281.83056640625
5,3818.852,5620.161,2697.7605,3231.0747,-518.38434,-216.49593,6227.9453125
6,-9990.092,-17028.145,-18614.992,-1292.2369,2189.1538,632.93677,9154.73828125
7,7402.556,-1035.0535,3812.87,-7054.058,-487.1513,993.64526,14378.591796875
8,2818.6033,701.5492,-3159.7866,-5851.095,-1378.7034,797.3174,11742.3193359375
9,5522.2554,2958.1594,3325.0312,-800.479,2117.7207,560.15936,4699.611328125
10,4920.6436,2888.2993,-955.4907,-1776.9515,1949.1027,728.8788,7012.88232421875
11,-3152.033,-9535.198,1114.4668,5695.9062,1995.867,-2925.4197,14870.6533203125
12,2168.8267,-1808.3699,7453.8076,713.81537,2701.0686,1344.0784,9674.919921875
13,-4007.5007,-2295.4407,-6250.422,2963.6855,-2510.2031,920.10846,7719.80029296875
14,-3792.829,-2492.1802,-3888.9348,7473.6777,-1603.8173,381.9519,13324.7080078125
15,-1514.0679,-2848.3564,897.42615,4711.106,-1075.2996,1209.3739,9233.2763671875
16,-112886.164,-107536.86,-147112.02,-2390.8076,847.7216,1666.7267,37559.90234375
17,147760.62,123945.51,119111.914,5199.275,439.19678,10260.697,33213.8203125
18,33826.24,21690.188,35743.59,-9970.388,-3706.3784,5548.054,24617.2578125
19,7217.0938,-2008.9038,6521.4688,330.25687,2356.1199,1986.3646,10392.4560546875
20,-1507.6945,-3157.2754,-493.05518,-2530.7085,1265.3285,10741.206,19379.408203125
21,10782.06,-281.99658,3168.1853,1616.5159,-2509.3076,-519.8518,11121.333984375
22,-1003.61066,-1200.7606,-1595.9292,-105.13772,-324.56656,1061.7307,2000.98522949219
23,-32883.383,-34434.652,-8978.22,6442.6655,-4419.4526,-41.548977,28179.251953125
24,-17868.777,-14586.07,-4616.6377,9407.676,-4419.453,-39.83319,21610.298828125
25,13440.311,6492.5015,1023.68945,11558.149,1192.6112,6336.073,25330.873046875
26,-15362.273,-7360.7393,166.146,9646.06,2830.5178,2856.094,22551.095703125
27,5097.983,5830.0845,16070.883,18178.54,1839.8853,2800.9646,33733.9140625
28,-10954.639,-4132.5225,-2146.218,9313.431,3494.084,-869.5079,19056.533203125
29,-7676.221,-8175.236,-8746.315,11636.013,-2471.2314,-4250.01,21898.83984375
30,-3935.7178,-3379.439,-2890.4258,7255.634,-6809.5903,1002.10504,17345.8203125
31,6639.214,-1482.1006,1738.0427,8827.246,-1774.6371,3921.4175,18425.921875
32,3268.7407,-2782.4287,-4071.829,646.69696,-253.33789,-54.79477,6894.76513671875
33,1880.214,2488.3062,6738.648,10100.675,-2586.3625,-1516.2454,18816.361328125
34,22322.715,7372.38,810.27637,-1274.4828,3580.0051,11578.667,28463.98046875
35,14482.968,-7646.1387,-2485.5264,3848.5435,8016.3203,-2249.1396,25583.65625
36,14311.592,-7558.586,-23254.604,5522.7,237.74834,-3482.0232,34583.05859375
37,9499.966,1550.3857,17001.055,3790.2266,-5493.5566,6887.1387,21331.330078125
38,3976.7961,-21908.1,-29393.012,-9749.2,2097.4197,-4126.9966,35626.2890625
39,4102.1064,-10669.421,-6032.3096,3285.0122,-11362.252,1490.311,24444.689453125
40,-17258.73,-43270.07,-39695.668,1198.2651,757.6534,1797.685,24740.974609375
41,26430.871,-2975.4336,20144.582,9137.338,2008.4962,-4668.74,32362.912109375
42,-60369.363,-60388.5,-64667.11,675.57996,3218.5674,735.7889,7242.9033203125
43,-6976.4277,-14279.971,-16131.778,2650.1665,154.0137,-2868.4888,10775.9765625
44,-12058.913,-13869.181,-8464.338,1711.6558,1233.8684,-6106.6763,12162.9052734375
45,-22604.373,-9489.826,-12590.4375,3970.1484,5821.468,6205.525,20135.1015625
46,-5697.716,-1179.5345,7098.993,1053.8549,3670.1963,-4994.817,15650.5361328125
47,-7881.214,-13676.456,-1180.8799,3251.141,-3218.5771,-2591.3586,14150.6982421875
48,9871.178,3422.1235,7289.533,2095.4714,-6849.9297,2102.8171,14099.9697265625
49,-3174.6611,8383.997,1598.1721,-5422.0107,-11143.381,8115.04,27558.955078125
50,6594.532,2400.371,4215.3857,-784.38306,3442.421,1327.8119,7480.548828125
51,2959.1533,4124.227,-5392.24,-2187.27,137.94176,-942.5057,9894.8291015625
52,5442.5146,1878.8907,-12211.556,-6497.262,3499.7488,-3707.3394,21588.751953125
53,899.9524,10450.676,-952.6819,-4291.8926,1937.5188,7198.521,18284.46484375
54,-6079.5947,3138.2285,-816.17285,-5349.3667,-6400.5415,1522.5657,16728.931640625
55,12872.054,9090.929,4802.2183,-5302.0806,-9611.795,-3800.4746,21301.005859375
56,-296.20068,7877.0996,15359.458,8618.608,-1591.3619,2274.0867,20733.958984375
57,-166604.72,-190942.11,-186808.22,-4276.681,2904.9614,6246.4604,26571.23828125
58,-148492.47,-128164.6,-142455.16,1272.385,-5718.3237,-10151.971,27186.16796875
59,-27950.037,-33662.27,-209.61969,1095.3771,2014.9243,-4616.167,32254.08984375
60,-465049.38,-476292.16,-483289.75,6425.3145,-12362.526,1070.6205,28979.78125
61,46890.77,34349.67,75290.39,436.25882,-2436.6472,-201.76738,36585.30859375
62,-47097.535,-54466.438,-83840.27,-9285.906,-4048.2808,5769.397,39259.18359375
63,-191763.4,-196587.33,-226401.33,-5426.0483,-3060.324,-2280.9944,34467.328125
64,-46643.64,-56434.266,-89404.5,-2631.8174,-758.55975,3434.4546,39542.1796875
65,10559.438,-22932.697,-31754.857,1119.9163,-3120.5417,-1857.2958,39221.8203125
66,-97024.88,-60928.355,-90199.875,-5422.01,1243.6655,-8130.0566,37340.44921875
67,-154569.31,-156853.98,-193271.34,138.82059,5097.0605,1496.9331,38721.64453125
68,8475.37,-7287.619,-14565.056,-3974.2603,-9169.134,-9126.861,31074.896484375
69,-38799.46,-59197.07,-80329.81,1291.2429,-5290.1807,878.3759,37215.41796875
70,36444.273,25986.36,63525.938,-1441.4177,5766.829,10789.746,39765.0625
71,4506.6616,-10229.055,-2904.1958,3339.674,-1470.8712,-2348.5896,14810.6767578125
72,84984.055,77673.055,117527.87,-2266.08,-3977.6182,-3560.1257,38096.87109375
73,3216.4282,-5567.4883,-5747.3916,3510.789,753.55835,3327.0088,12274.2509765625
74,8559.904,-11429.005,30631.58,-2485.2585,2208.8596,-548.58026,36904.92578125
75,49967.535,42376.723,69812.98,-6357.519,177.50523,3123.773,27435.880859375
76,8653.185,7683.877,31872.17,1521.5997,1654.2924,-1869.9724,24253.111328125
77,17537.15,17085.758,17259.918,-28.79011,1108.5969,-230.21773,2000.97998046875
78,3572.4111,-12306.861,-18669.523,-3202.4788,-74.75401,11081.911,28158.123046875
79,65860.39,61120.965,97655.82,945.1106,-1205.5935,-2408.9478,34764.24609375
80,-1026.6514,4014.3381,2215.435,-11371.12,1329.841,2336.4177,20716.3828125
81,44969.047,29064.605,65068.18,734.67285,2026.6277,3364.3625,32007.6484375
82,42395.07,76661.48,50430.715,1265.2498,2782.0056,1025.1066,31536.953125
83,-13996.63,-11791.39,-34587.21,1556.3455,274.63184,3338.0015,22697.1796875
84,30675.273,30763.26,36382.9,-10129.994,3167.0847,-3016.848,19933.09375
85,29842.623,22368.656,62605.043,4740.778,2788.337,-6585.952,39937.140625
86,16819.379,1912.5587,19063.32,-7988.0957,-7778.046,-17625.156,39567.15625
87,-101411.31,-120787.75,-141120.02,6298.6724,3947.3071,2988.087,37085.8984375
88,152671.84,140356.19,178635.12,-5103.1753,4460.9243,3926.5222,36463.703125
89,-169359.89,-139012.53,-158347.7,-2576.6792,3783.0813,-6330.2695,29851.45703125
90,-51410.953,-78644.85,-72294.445,-584.1134,-4335.172,9473.334,30589.26953125
91,7350.053,-11621.689,-3367.2888,-4543.5815,-4982.9316,1814.3678,20439.150390625
92,5353.804,11427.976,842.57227,-11483.377,4510.159,2264.04,23593.533203125
93,38450.754,17173.438,6959.3115,4102.063,-3459.2603,6764.505,31591.732421875
94,-15245.162,-675.1626,-18862.162,1800.7563,1987.8326,-376.274,17322.662109375
95,29889.363,37900.367,60234.37,4815.0806,-2784.2869,10532.353,34168.76953125
96,53987.36,48153.734,66130.45,1991.1714,1336.612,-7791.071,21252.7734375
97,-29664.225,-27908.018,-38901.23,-5751.9155,7396.0903,-6041.7896,21851.734375
98,9138.847,6508.595,27550.975,-6001.982,6981.287,-350.80313,25475.65234375
99,12842.812,12571.799,9180.82,15179.999,-7233.772,5781.146,31000.57421875
100,9164.206,17866.541,8325.309,8223.192,-1433.4695,1915.584,17429.0078125
101,-3386.3147,-5709.762,-3342.1775,9364.403,-63.623188,-739.1133,16438.67578125
102,5637.97,14161.299,-11721.596,9487.561,3.7954488,60.945408,28142.771484375
103,769.7246,3995.727,8299.375,7126.617,-1065.2305,3622.2166,15425.419921875
104,8408.332,-14347.436,-6425.536,-9128.711,-3602.5498,-696.97156,26281.267578125
105,638.49506,-2926.884,-7980.2466,933.065,-1604.6636,2299.9148,9081.357421875
106,-23740.863,-28634.264,-28142.195,-6897.9536,1121.0712,2593.3296,13728.48828125
107,-46786.01,-49191.258,-35882.47,4170.0547,-4144.3765,1846.54,16273.380859375
108,-14271.599,-17343.209,-28590.973,-12945.85,-854.32135,6819.73,28548.14453125
109,-32545.785,-38171.305,-70764.23,-3800.7358,-5004.097,-292.50064,37363.265625
110,123854.664,113014.19,126402.266,-4746.787,-9963.16,-11333.978,30039.810546875
111,493804.12,505001.97,522555.44,11285.889,-2046.2156,2327.2834,32264.541015625
112,56914.215,59144.133,97433.81,-1627.6716,-1386.6504,-142.86699,39626.16015625
113,38306.42,27434.074,55121.203,-14626.391,3286.2317,-6540.417,37232.8359375
114,22764.15,26264.98,59828.832,-7441.5635,3849.5308,-1731.5118,38417.06640625
115,17258.496,10433.3545,29135.027,149.68094,26.55134,2317.1348,16878.09765625
116,6612.5454,1155.4897,19234.748,1405.679,10363.757,-4042.8005,25202.427734375
117,7169.335,-2299.0862,-16162.852,4983.947,-799.3117,-4160.541,23269.919921875
118,737.0088,-4250.88,6674.4316,5781.1445,-179.54448,-2221.509,14314.8232421875
119,-4201.146,-3611.6501,9320.798,343.63232,4209.249,1773.4777,15432.517578125
120,7252.013,5808.4395,19954.916,-18803.908,-7013.529,-3033.8467,37652.72265625
121,20238.043,2936.876,14191.275,2251.4597,3109.6226,-8341.981,22005.91015625
122,14904.124,24766.91,33153.12,-1643.2087,13051.306,-1509.3838,27861.431640625
123,-69338.94,-73746.75,-110719.92,-2270.1277,2024.8888,3325.318,40129.15625
124,114.73535,-10807.297,-29009.846,-6426.5,-1049.0957,-372.65286,27875.626953125
125,9663.848,12349.374,14655.692,8488.123,8968.485,-2254.6995,22168.033203125
126,-14268.536,-10432.227,-11404.952,6275.1387,10734.916,5857.4385,24056.349609375
127,-10466.853,-2734.0303,-3149.2002,-9115.753,4220.612,-838.65314,19015.783203125
128,-8738.535,806.8635,2082.3962,5552.2397,-3149.8325,4745.2554,17167.291015625
129,-9679.013,4493.866,-6446.0522,8961.811,7242.329,-139.0252,23745.658203125
130,-17253.611,-41561.562,-22635.941,-11753.969,-200.37805,3388.5232,30627.546875
131,-8369.342,-32706.176,-49092.52,-4483.8887,-6035.6196,1421.7838,37884.71484375
132,-66928.95,-104032.18,-72999.49,-2623.3079,-765.196,3173.2036,35226.0390625
133,-122224.68,-114143.57,-149279.83,-8466.155,520.7979,2752.427,35418.7734375
134,42522.863,60439.875,76489.336,9775.428,-5515.7773,4800.4067,36238.6953125
135,-5138.6924,4966.414,6150.5938,3644.7336,-519.9348,68.64022,12496.36328125
136,-902.10956,32.03406,938.56104,482.0731,4819.7646,2915.6663,9921.2978515625
137,-17059.94,7152.9165,-7153.8335,2697.1174,16347.485,-9468.62,39205.1875
138,24312.473,30681.824,3452.009,7707.193,14820.155,-926.5775,38056.33203125
139,-26031.732,-36894.95,-65390.1,5898.2637,-1199.6404,3144.7158,37119.88671875
140,-14822.931,-30603.559,-30640.586,-2367.694,10148.288,-1849.2498,24200.294921875
141,13818.529,16287.553,24941.037,-1208.2411,7994.0513,81.87231,17275.958984375
142,23352.79,14072.331,18544.004,-11547.171,-8580.89,-2021.8318,26415.78125
143,33978.016,48525.145,69963.805,7925.2007,3784.7163,1668.6583,34969.38671875
144,125689.79,133840.06,146969.94,-1006.83795,237.60448,2623.5237,19227.37109375
145,111889.95,109077.875,102428.336,2187.5935,-1730.9706,-3067.199,11063.08203125
146,137410.89,129277.47,163533.22,-1105.0,-3288.484,4611.2007,32571.267578125
147,-188493.64,-194003.39,-220879.36,-3045.2356,5807.854,2327.3762,32342.21484375
148,-190373.02,-169029.95,-179354.2,-13824.319,6008.7124,-3806.2966,32663.103515625
149,257676.22,257919.42,280655.1,-9103.099,-3026.1804,7625.56,31193.2578125
150,-7576.833,-5894.5996,637.98975,4411.8584,5982.7305,-3315.5466,15976.39453125
151,-1647.0822,-7828.579,-3322.882,82.415344,3115.024,-7140.939,14586.630859375
152,-12148.782,-12750.815,-25207.773,4237.3247,-371.74365,-607.07733,14779.130859375
153,-2753.4062,6670.528,5038.808,8179.3896,3852.8628,-3432.526,18886.064453125
154,-4994.105,-12267.252,-1823.6245,19641.465,10543.121,1063.4124,39752.18359375
155,-11247.264,-1725.9202,-689.9851,-982.4632,1329.1238,7495.6533,16683.599609375
156,31764.35,33856.332,24680.926,-4011.7944,632.7041,-5022.611,13947.54296875
157,24681.744,1746.9579,3869.196,-3644.2356,-9889.143,2639.5818,28913.044921875
158,36596.473,16108.094,39539.746,-1229.2302,-4052.7612,-8614.653,27661.95703125
159,35897.277,19380.613,14142.4795,3831.4775,-7205.1367,-3940.0713,25161.67578125
160,47974.344,84872.65,67057.43,2938.927,-2210.242,-2460.7395,32867.13671875
161,66149.29,54812.734,89675.58,-11642.008,6786.253,631.6415,38661.046875
162,21240.762,3482.5063,5669.0645,2201.3044,4236.481,-2323.1064,19127.943359375
163,-40295.99,-40952.75,-50040.68,-4092.9224,-2034.4531,-8032.2593,18579.962890625
164,-7284.952,20403.502,12067.769,-6472.7407,316.55777,-12444.842,34582.4140625
165,-1031.1326,-2568.5942,8248.927,-4809.3535,5216.2754,2532.0117,16522.787109375
166,7443.3525,15651.777,-1517.4951,-9072.164,-2045.9924,-1492.6097,22076.771484375
167,7433.1997,13784.525,4392.8706,-4036.4592,-317.34836,3903.9475,12798.3056640625
168,-31642.998,-23867.555,-48130.945,-4245.643,4498.611,-1781.2858,24183.029296875
169,-20442.746,-4262.4756,-22018.113,-8265.745,832.836,7275.0605,25604.703125
170,33274.6,36319.418,45976.27,3205.3474,-3547.8284,-11743.973,24784.587890625
171,-8938.016,-16741.938,-20879.107,-169.86044,3449.8945,-3317.333,13383.1796875
172,537.4281,-7747.634,1508.4747,58.48605,2141.2734,-2020.9097,10180.7666015625
173,8278.123,1203.1982,10179.086,-12858.635,5426.1123,5253.615,27097.609375
174,34690.95,4391.877,46826.23,-3003.8772,-3183.8076,-806.6644,38631.83203125
175,-67587.08,-32716.15,-70484.45,-5242.975,3294.8008,-4522.6675,38753.16015625
176,3120.0942,-8524.288,7957.422,600.07153,5701.1157,-2201.5972,18123.150390625
177,260.0427,-1982.5195,3646.2874,-7171.9546,-3720.5562,2988.096,15707.138671875
178,42021.656,18250.2,56669.242,884.6022,5231.338,2044.073,34997.3046875
179,76060.35,69456.72,107927.18,7119.1704,-2056.809,-1252.6616,37933.97265625
180,-13076.816,697.2488,4458.616,478.4645,3283.2385,78.07403,16991.943359375
181,5370.147,-6672.155,19082.744,8017.447,-6804.301,-56.09955,28808.451171875
182,125470.33,119042.37,160781.72,2072.2654,1126.8641,-475.70865,39147.98046875
183,-37082.07,-38970.055,-72872.17,-2794.266,5461.4404,4344.261,37235.04296875
184,42609.41,32811.883,65377.46,166.74693,1895.1722,-2569.558,29463.75
185,-306507.56,-305016.94,-321822.94,647.0074,-1276.3475,1183.6366,16430.404296875
186,82416.1,82106.83,81268.29,194.2287,-930.5815,-279.69608,2000.98608398438
187,37298.707,37348.88,39325.363,-452.0276,2042.2827,1663.2933,5043.16845703125
188,1242.8401,11433.461,534.6577,-949.4259,3066.687,-3036.1147,13043.734375
189,7381.1836,-5499.5923,-6875.8145,14276.052,-3195.644,-1074.1155,28827.93359375
190,15095.16,17398.984,14296.145,10210.95,4518.315,-2748.677,20111.900390625
191,6196.435,10797.237,-12467.914,14212.121,3214.9702,550.7356,33064.59375
192,-26223.521,-23978.873,-17985.508,8303.145,1974.8153,2797.446,17216.71484375
193,974.00195,-8524.743,562.5083,11038.061,-1238.6279,5447.531,23358.77734375
194,15874.8125,-2802.4478,11118.994,7868.103,4523.767,1265.5033,23120.36328125
195,-14567.194,-25481.316,-31619.682,9842.383,3633.3262,-2975.9045,24095.251953125
196,19029.955,13968.041,14881.477,6889.3374,5008.781,-98.51389,15476.28125
197,9941.481,14483.912,685.80615,6784.4404,-7872.0483,750.62,21772.185546875
198,34052.18,26833.86,14852.469,6643.0396,-10067.799,-5958.8975,28725.2578125
199,8252.808,-2368.9617,-10202.144,-4155.3755,623.5316,-3148.0747,18441.30859375
200,7105.713,12545.592,-12633.877,5443.6963,2954.077,8029.691,28898.6796875
201,13220.237,-52.634174,8682.467,4201.359,-6834.7476,4797.6147,19966.92578125
202,11123.435,-5564.0596,3365.358,1170.3104,-7550.4634,-298.78122,19611.287109375
203,7341.394,-20307.27,-12876.469,-566.4683,2126.7668,-192.43492,25077.017578125
204,21543.043,2410.2659,2035.605,-760.06024,14.169532,-751.3522,19411.314453125
205,10870.352,3868.9033,8115.5405,-8016.4297,5330.674,4593.2646,19459.021484375
206,-4640.722,-7382.469,23432.844,-9034.651,1806.5477,-10379.59,38085.25
207,-8126.7007,-17241.018,-33170.45,-5095.7266,-751.1298,878.0812,23746.755859375
208,29797.086,25715.195,30467.49,-521.66656,-5000.0693,5914.5054,14163.69921875
209,-17138.23,-6414.166,-14993.848,4788.845,-5830.7046,-3118.354,17221.216796875
210,12180.533,-3975.5457,11161.748,-1912.1189,-12918.682,-2748.597,27926.818359375
211,-7589.6465,-6717.2114,-6720.627,476.75784,-76.38398,921.2981,2000.98547363281
212,-162950.3,-163379.12,-163894.3,38.387196,-453.70215,-17.924067,1137.16198730469
213,-53827.145,-50786.17,-66921.59,7506.185,194.48561,-1956.4641,20028.908203125
214,54167.867,54318.957,86902.12,2052.134,-2978.658,-5108.313,34411.390625
215,27636.066,29499.664,58754.742,-6284.5337,2892.2048,4166.424,33309.30859375
216,-108731.04,-99119.67,-140349.31,5134.722,-1044.2677,603.0161,38463.578125
217,2278.304,9040.456,-23708.996,4452.2163,-550.9871,-381.4759,30945.283203125
218,69530.805,73695.234,106247.23,5568.4565,4793.5513,6033.5034,38518.85546875
219,-91869.766,-86402.71,-126827.125,-1955.4937,-412.77695,-3165.1863,38536.4453125
220,23899.533,32218.418,60874.066,-2018.4331,-3361.8464,2838.947,34627.16015625
221,32016.426,25128.43,67682.375,-1037.7202,-436.42532,230.42383,39612.27734375
222,54981.496,53133.82,90047.805,-5327.12,8339.232,155.1728,39895.9453125
223,28079.428,2928.1394,23945.465,-14278.593,620.9373,-4490.186,34913.8828125
224,-106776.55,-77510.336,-109685.516,-10352.607,-4520.4785,569.1695,36522.77734375
225,-144460.98,-147807.05,-183983.92,2777.3564,-1738.2357,-1060.6361,38426.4609375
226,-78584.11,-85218.29,-118549.89,-997.4933,-2144.97,2255.3325,37525.765625
227,85404.28,93223.86,56953.633,2874.8918,3689.7239,1650.4447,34159.42578125
228,34507.08,25512.277,5686.329,-7121.298,-7324.77,-7482.532,33665.4921875
229,33816.484,50939.37,11846.679,-457.45227,-1151.2166,2415.19,34265.94921875
230,302658.03,327544.44,334477.25,3059.0308,-4455.104,7674.895,33230.390625
231,442291.25,443701.94,457341.72,-1291.3044,-7843.701,-3990.8074,21086.20703125
232,-32676.197,-28206.734,-9536.627,12677.77,2208.5393,-2242.0898,31046.5078125
233,-135587.25,-124043.01,-101228.086,-1789.3323,-6702.9536,-1566.5831,32694.45703125
234,149614.64,138961.02,180933.27,-2212.706,1063.1682,2000.2434,38185.0078125
235,226500.56,216856.33,237442.83,5362.422,-2990.704,1708.5474,20979.306640625
236,-260364.1,-245202.53,-285878.9,-3176.6702,355.15466,39.92228,36033.0390625
237,75896.68,56741.93,67220.88,3505.4724,4504.047,-2827.7058,19942.5
238,57200.254,56131.758,51111.914,-19507.846,2926.82,5254.511,35803.640625
239,-198732.42,-203658.47,-235480.6,547.8425,3409.373,3143.3933,35483.59375
240,10685.448,7894.5137,30760.564,8479.531,-3849.9565,-3816.123,27761.306640625
241,67104.1,98091.91,101714.695,-8485.616,2822.847,5092.175,37461.234375
242,-57584.55,-62740.156,-99184.484,-482.9569,-311.03412,793.9893,39313.3984375
243,55934.355,55490.9,50676.668,-3039.8035,-238.31279,-3685.8125,9703.3818359375
244,-36695.027,-41479.23,-69153.75,7665.357,-3577.0986,-94.89005,33702.44921875
245,-586.8018,-13242.717,-37783.324,4912.9336,-9083.804,3373.6365,37776.9609375
246,21025.701,14442.475,52816.99,-5946.731,337.01453,476.17822,37019.26171875
247,42938.016,43634.32,81615.3,537.0451,-2842.9097,-5740.5776,39918.16796875
248,23360.562,21400.988,47665.082,-3813.382,-3336.6123,-3866.0115,27641.251953125
249,-14338.405,-32220.88,-56616.566,645.6855,1251.3964,4130.879,37527.70703125
250,-8183.189,-8305.378,23026.246,2071.3064,13984.473,-81.66374,39717.0546875
251,-42943.336,-46650.906,-59786.805,-435.66495,-8782.479,-990.97687,21677.44140625
252,-30098.021,-16833.76,-33046.242,3728.174,-36.477753,-8484.287,21940.59765625
253,7487.3413,3783.6611,23122.2,1833.0989,3614.475,-1102.4705,19209.189453125
254,-12168.4375,-4275.685,17728.832,-2426.8438,-3514.8484,3656.797,28548.5234375
255,12238.941,2648.9253,6742.994,-8436.035,350.37393,-2324.2126,17307.27734375
256,17435.914,4034.5938,3572.3945,-102.84301,10378.83,-475.49664,22580.37890625
257,-4887.2803,13073.785,3937.5762,2942.6638,-4693.0527,2556.203,18805.017578125
258,-4496.076,-8253.349,-2948.1448,2937.5354,-2340.3528,890.3346,8186.96337890625
259,-17418.477,-16137.281,-15732.013,4009.6675,9097.152,-1620.4631,17513.123046875
260,-11947.252,5719.2573,7690.0425,4337.1,-4206.9585,-209.1849,21458.4375
261,-13855.034,-14888.52,-3577.3604,1004.3921,6980.508,-917.5072,16402.890625
262,-21218.309,-27826.508,-16051.01,5053.8877,-4142.6274,-11985.183,25759.640625
263,-13928.424,-5684.679,-7644.0005,6670.2075,-2327.5806,728.35516,14386.2958984375
264,-4607.7383,6546.542,6874.7007,4019.2468,-7041.671,-5798.8164,20646.62890625
265,-11540.469,-5566.876,-7835.2344,-5333.676,-6686.012,2151.595,16143.71875
266,-4995.9043,3218.1504,-60.667053,11599.738,-998.0365,-3229.3394,22118.4296875
267,-5457.4873,9382.109,6051.52,2488.4998,-2646.2253,-2284.8584,15398.9931640625
268,-18848.975,-2877.338,-8350.256,6723.735,-1718.4242,5270.933,20626.865234375
269,-20229.72,-961.3613,-9870.562,8237.915,7835.8057,-3285.106,26441.310546875
270,-9299.016,3049.7473,5501.724,5905.365,-7994.676,-1498.8975,22178.5390625
271,-11417.382,-179.79285,6477.974,5973.631,-5391.0225,6907.7705,24141.677734375
272,-12208.623,-9694.336,8277.458,12618.289,4674.9546,1974.1699,30486.30078125
273,-12751.939,-22242.715,-1021.7301,239.35764,3483.8875,-1531.953,19560.8359375
274,11893.875,6514.1865,11680.295,15120.45,-5081.656,-1057.342,28187.6796875
275,1123.0273,2998.3906,-9987.077,-7203.518,-4385.652,-1514.7312,19184.47265625
276,-15466.869,-17927.244,417.55273,4398.873,2201.7996,2080.224,19571.048828125
277,-8942.045,5264.0796,3612.8276,11071.807,357.13754,742.58624,23470.712890625
278,-557807.06,-561427.75,-569226.6,-2956.578,5800.422,1127.0854,15268.8837890625
279,-143808.11,-143476.62,-142807.34,-184.40257,744.8103,689.1854,1992.69799804688
280,84189.81,94489.02,126109.18,381.59998,4273.751,-2688.2964,38839.1953125
281,-32634.277,-36251.992,-68985.67,7758.2393,-3906.2485,391.27768,37812.81640625
282,10217.527,16857.238,-7098.9424,15589.8545,4969.265,1774.7954,35659.26953125
283,4010.463,7200.247,33768.18,4621.9707,-7345.9336,11144.086,37407.53515625
284,8399.317,10642.172,-1914.6152,12650.917,7254.513,-3086.0693,28304.287109375
285,1330.5522,-3129.834,-13510.667,10074.005,9356.978,2067.8215,27457.2890625
286,-26559.684,-35201.215,-31729.965,459.41846,-9362.011,-2428.6682,18384.748046875
287,4262.4604,-14423.364,-4294.6426,2828.9675,-245.37933,11146.301,25678.734375
288,8758.21,1297.1305,-3399.6223,2015.7726,854.42883,-138.03497,11278.6240234375
289,-4821.2827,-6944.602,-8622.425,2218.633,-99.344505,1014.1031,5363.576171875
290,-8408.645,-3673.6394,-10435.145,-693.11273,447.01913,9992.577,18377.103515625
291,3054.9465,-2064.0212,10807.461,5426.552,-4744.1943,-1779.4703,17069.103515625
292,-26543.62,-25423.76,-33000.316,4539.194,5035.6772,-3595.4426,15061.283203125
293,-608.44824,-8513.475,-20997.012,289.5983,-7635.838,5429.4473,24095.998046875
294,-40448.34,-56220.535,-81845.93,4763.84,-7040.0,-2323.5017,39275.375
295,-10356.584,-13426.812,-16751.393,6391.731,8647.084,-5194.4526,21412.8984375
296,11048.713,4766.7427,-5429.3525,-12837.453,5512.8525,-2372.914,28459.48828125
297,-40735.1,-44581.965,-80030.125,2246.3074,-3333.5852,-359.21857,38165.3984375
298,35978.195,36832.504,68474.59,4617.3325,4757.454,-5353.6084,35310.4296875
299,1749.562,-34959.996,-9346.436,-10308.685,-7324.493,-751.75726,39304.33203125
300,-4223456.0,-4223519.5,-4223337.0,-83.686165,906.1531,685.95844,1980.33251953125
301,-8758.315,3589.3042,8512.186,4658.7876,-1249.9092,8308.309,22679.68359375
302,-16927.078,-7582.882,-1570.5298,400.42566,548.74634,-1690.8365,13769.6826171875
303,-17124.223,6286.897,1839.2554,4367.7827,2208.2317,-387.92526,23152.76953125
304,-7045.975,6244.8384,-5986.045,5692.688,-2402.583,-3047.2012,17495.01171875
305,8002.755,-6802.1016,7711.836,15043.931,888.50635,4148.049,30788.119140625
306,10428.274,6936.5137,-3684.6729,3444.0796,-5102.666,589.74835,16638.169921875
307,-217399.56,-214072.84,-249016.0,-2475.9553,5263.546,-2730.958,35209.734375
308,-20678.223,-10624.461,-11313.357,10641.636,-2460.6492,-4514.034,22663.93359375
309,5834.1226,6560.2007,-110.42236,-1659.464,91.26633,-1676.7709,7543.3505859375
310,-20270.053,-6040.5312,-3683.644,5941.486,-4915.1465,-1434.478,20642.783203125
311,-15498.273,-15099.249,-43742.5,-914.2664,4311.767,79.77929,29452.78125
312,-5787.414,-1912.9839,-2925.5837,3283.2458,-2772.4224,5394.2056,12442.015625
313,-12756.344,-7960.489,7258.72,4195.0396,-2016.1327,-8075.6777,24253.923828125
314,4172.6387,14046.77,-2791.734,11510.617,-406.25693,735.96576,24786.509765625
315,-2403.4346,-24126.2,-9338.293,14479.722,-7050.306,-44.471962,33873.8828125
316,3432.0142,3013.7964,-8592.437,7270.1343,2609.6882,2459.2734,18354.115234375
317,21101.674,14980.693,13396.936,3689.0593,561.6402,1146.7047,9766.6494140625
318,27996.656,7071.791,34240.18,1244.8875,-1591.1434,2820.65,25369.05859375
319,-39442.285,-48891.492,-29364.48,12753.392,-527.5804,-4672.628,28988.94921875
320,20114.266,38415.67,7296.026,-134.80762,3453.919,184.74303,27745.021484375
321,65622.984,63557.996,70863.47,2978.4136,8257.422,993.5588,16633.6328125
322,1506.1909,1226.4528,159.92409,38.6076,471.20944,-778.732,2000.98547363281
323,27413.69,25283.443,33379.56,-8303.891,2773.6074,-861.1455,16882.107421875
324,-70522.67,-70434.54,-98463.95,316.1821,-11631.151,-7629.468,36931.8671875
325,-8518.692,-102.22554,-20773.38,2404.407,-2161.8503,-1650.3707,19070.68359375
326,93796.75,94667.05,94716.664,119.401054,550.30334,859.76874,1992.97229003906
327,226501.62,246279.47,214410.19,13315.464,-16.573782,-1684.415,36289.47265625
328,50572.742,41228.543,80094.64,-3066.3342,2432.896,3573.9404,36318.015625
329,271614.62,251495.69,294337.8,5115.6387,512.684,-209.91939,38179.984375
330,-29941.756,-23310.303,-56649.844,3068.3745,1522.8839,-4207.043,31979.861328125
331,10846.261,17967.688,36230.215,4629.66,-1005.6396,-6564.1094,26662.4765625
332,-24481.936,-22663.771,-29601.775,8051.043,3001.0535,-7802.702,21046.390625
333,4797.786,-21172.283,-5451.85,5450.3403,593.4448,1902.7291,24786.126953125
334,-31479.781,-25396.867,-49085.176,3862.9614,1060.4169,-598.6149,22433.451171875
335,10189.48,20181.74,2526.6582,807.24615,-7110.77,1101.3776,19809.498046875
336,204.86366,-5854.6855,3330.3264,3241.2524,7611.053,-7349.3228,20802.998046875
337,-7502.6855,-2632.144,-3876.6929,3066.9048,-4498.759,-1024.02,10549.3837890625
338,6234.002,-6422.778,-1297.1754,11794.211,-4294.2,931.0885,24429.9765625
339,12632.606,112.16182,32691.35,11455.065,6456.8105,2046.826,36627.234375
340,46420.03,54322.695,33863.66,13985.865,11364.416,3711.9072,36536.84765625
341,226517.89,244814.23,229484.17,1101.2593,6728.8315,-5558.993,22835.498046875
342,-195439.81,-208998.97,-178463.36,-1649.7955,-3024.6567,-685.03253,27189.26171875
343,-166668.61,-161161.56,-178693.52,-637.24786,-14372.465,10537.072,34571.0703125
344,27749.045,21372.502,23542.502,-344.2886,2901.6477,-604.5543,7631.69970703125
345,-111779.63,-99801.78,-69887.35,-2852.5156,6700.3765,681.4722,39460.6328125
346,-4800.2676,790.54285,238.35669,11569.903,329.0963,684.4561,20779.63671875
347,21188.336,6508.9795,45835.09,1476.833,3124.5493,-2488.4062,35201.59765625
348,-10792.941,3812.103,568.1863,4903.486,-846.57935,3408.1077,16899.140625
349,-5190.531,-12568.296,7501.537,12035.665,-4274.1,-3478.2197,28893.40234375
350,84878.57,83095.25,103417.305,-1248.1403,-2529.869,6495.4614,23029.822265625
351,99221.766,69525.516,101325.65,11186.894,1548.5012,1537.2764,36585.43359375
352,-32179106.0,-32178948.0,-32177410.0,-536.6378,-329.46786,-248.94118,2002.2275390625
353,-19036350.0,-19036096.0,-19037474.0,77.483894,876.01685,-39.44387,1984.5107421875
354,39971.34,40041.688,39013.574,260.98947,-748.7984,-613.1129,2000.95141601563
355,-18054.63,-13654.546,-4180.04,15809.649,-864.4605,62.81548,30048.3671875
356,-13218.446,-20327.03,-1830.9336,13185.671,10397.556,-3584.8848,33847.06640625
357,-9092.081,-5033.063,-13227.666,-1295.6299,-1557.8876,2535.956,9054.0234375
358,-15656.509,-14114.564,8243.184,-166.52919,-10291.714,5567.5522,30782.3828125
359,-12715.283,-2924.2214,-3223.8145,-3233.4412,-3193.1055,1458.7408,12702.6875
360,-101862.945,-111671.586,-144981.39,-2389.858,2807.1057,-1494.412,39748.5859375
361,123977.81,122677.9,160547.38,-1449.8474,623.7014,-755.18243,37359.66015625
362,-6640.9946,-4451.798,10669.938,-4766.754,18.79202,621.98865,18327.341796875
363,1552.2859,-644.62915,3196.4758,-6715.0933,459.52963,-459.5651,12152.6318359375
364,-7408.303,-3801.876,-2900.2156,257.20718,-1921.8832,2507.2112,6870.8642578125
365,251665.5,253403.36,292129.06,325.2483,1475.9022,2071.9136,39871.42578125
366,-1635.4968,1655.1008,-4930.5605,249.39233,-643.9654,-1623.0514,6470.06640625
367,-12998.867,-20309.742,-30298.902,-3767.6523,451.8894,3380.2954,17428.11328125
368,31259.764,15682.966,41633.883,-4715.964,-1506.8693,488.30618,24209.55859375
369,19058.887,16590.021,20862.035,3635.3308,-2143.7761,-208.46776,8207.494140625
370,-4492.246,1412.0391,-13147.215,4733.9634,1684.2839,1503.332,15601.0302734375
371,-1907.7058,4557.264,-244.58624,26.097528,794.8577,3170.7395,8115.91015625
372,3373.7385,5995.901,7917.207,1635.7896,-635.85535,-592.0869,5088.92822265625
373,5877.23,11635.054,-954.876,5296.7236,372.0865,-57.362213,14274.4287109375
374,11692.712,8030.452,-262.75293,5926.317,-725.4836,60.006714,14816.0302734375
375,2834.986,4480.679,-2144.2056,-6955.6553,-614.1058,-451.72894,13512.28515625
376,3907.497,9881.521,2905.539,-614.9957,4.723581,-116.600006,6622.244140625
377,2401.8274,4979.4883,4086.3706,889.1467,4061.858,11.888744,7550.36962890625
378,-14378.541,-6951.812,-12188.736,1000.4403,-1680.2126,3067.8137,9132.080078125
379,-1208.8794,7136.96,-3149.3188,4183.6606,623.11816,-88.856316,11971.236328125
380,-5730.4385,-10527.106,11613.35,6162.0054,-137.19795,1305.1614,22936.546875
381,185872.14,184334.28,197858.31,338.93527,-2778.9436,-779.6468,13776.8701171875
382,304109.4,301026.53,264764.47,-1071.9149,419.08844,-2588.879,38214.046875
383,-150947.22,-151087.92,-150602.55,14.650986,871.8732,710.5003,1995.65954589844
384,2483.3506,-6758.182,10339.396,1571.8562,-5457.954,-5290.215,20011.607421875
385,265641.88,266692.56,245519.34,39.680798,-142.00404,-6888.8145,23866.193359375
386,-7699.1465,-13623.272,-2579.5874,2785.257,-540.2689,420.28204,10784.8330078125
387,462219.0,464179.22,464263.06,753.5205,-862.7223,-4522.864,8325.8017578125
388,61202.82,60544.652,99156.93,2947.6826,-486.5718,-1380.1709,38709.421875
389,-168741.64,-170502.88,-208786.42,529.79553,-3675.2495,-771.448,39740.5078125
390,120587.98,121092.375,144570.77,290.3805,-594.9555,-369.24197,23770.8984375
391,26282.451,29962.783,39062.402,-4899.7373,-2397.8867,-5444.098,17550.611328125
392,-25624.547,-23472.17,-24321.309,-5642.8203,-475.39566,-241.38742,9995.1572265625
393,-31932.906,-26804.926,-60064.09,-4957.411,413.12894,-332.2619,32194.515625
394,3893.2842,-274.49133,-2899.2017,-8720.7705,-396.5481,2101.8984,16645.716796875
395,-17565.984,-16340.258,-33399.97,952.5171,22.346016,-362.57794,16575.384765625
396,-365858.4,-369591.78,-400964.28,-240.4188,6586.199,4049.9556,35983.48046875
397,15565.375,15596.345,-23999.61,1196.0907,-440.48633,-600.48486,39655.640625
398,-1864156.5,-1864021.8,-1863996.9,57.410496,912.84326,690.88043,1990.93237304688
399,-152014.45,-151208.02,-189694.8,459.4729,-682.5795,-91.21698,38116.9453125
400,72719.305,69474.945,96227.88,4294.801,1735.5469,210.49854,26532.142578125
401,-282370.1,-277369.72,-302125.88,352.57736,-207.73558,-717.1077,22718.408203125
402,5415.633,15754.499,5014.2437,-671.9479,-31.179098,-934.0533,10732.1015625
403,4354.3115,6933.376,-3683.835,-136.3943,615.65497,-103.072945,9655.0009765625
404,283.1184,9605.378,-3283.0693,265.63596,-1489.3356,775.9466,11897.0361328125
405,12635.843,7472.623,12849.55,-1128.9731,4802.7065,2824.7715,11169.943359375
406,-144991.97,-149567.14,-183493.88,-2136.8508,3159.9502,786.7086,37049.79296875
407,2183.5894,1939.5977,5987.579,2294.2935,7.2937713,-545.68616,5669.4658203125
408,41133.605,26038.213,68775.21,-3512.521,-4118.09,358.34238,38697.08984375
409,-1716.2021,-13783.545,-19298.238,-7667.3745,-3543.246,1039.5203,21444.154296875
410,-42974.375,-41369.023,-49971.418,2040.4784,150.06015,2095.549,9407.4794921875
411,-44133.113,-32065.889,-38130.56,1377.3098,-4925.6865,-569.6,13735.568359375
412,-407546.56,-420435.75,-389802.28,-161.5885,-2356.3071,-189.46188,26954.455078125
413,86838.94,83824.94,122765.24,1854.902,583.85065,-103.81956,37675.48828125
414,-31185.414,-31286.402,-70411.63,3037.6648,2350.5737,1189.822,39790.07421875
415,-15744.313,-20341.404,-38311.438,-5652.595,1510.0713,328.5738,23014.8984375
416,14447.968,18864.139,12031.445,6163.3633,-232.51784,-2575.6904,13039.9306640625
417,12437.865,18510.387,7137.235,1536.1405,-1464.1481,-498.41943,10555.37890625
418,308145.06,311761.62,344094.72,-77.011375,3353.117,-895.8508,34808.02734375
419,-5037087.0,-5037218.0,-5037187.0,126.06402,878.13605,693.9508,1954.43322753906
420,-7335.781,-5699.747,-3825.8062,-2953.3699,-480.29532,-309.7988,6033.3447265625
421,-91861.836,-91109.89,-113808.984,3233.9595,-602.5129,2247.6243,23374.46875
422,139.3656,6411.0703,-1717.8235,-523.69916,-1370.8363,-1297.8248,8120.626953125
423,1838.4093,2284.3574,6953.6196,-4161.659,-2539.9548,482.73773,9802.7841796875
424,-12870.735,-19033.467,-40218.492,-6164.167,-3048.9854,568.5608,27571.576171875
425,2603.2114,7694.4243,-6973.301,1869.2681,-352.2583,2325.5493,13909.18359375
426,1250.6791,10543.922,-2693.9114,-2494.445,-2382.4082,2167.7036,13724.91796875
427,405699.34,409078.97,369531.72,-261.03265,-3949.9414,-2928.924,38916.5546875
428,761.34204,4005.7017,-12532.539,466.01288,-5969.804,3630.3638,19429.078125
429,44275.69,35096.656,64490.152,6737.261,2507.0764,-201.75641,28871.765625
430,-1052285.1,-1052352.0,-1052299.8,99.58559,918.06537,693.2902,2000.98620605469
431,-50120.637,-58530.77,-85353.57,5737.4927,2108.567,-1047.2527,33632.73828125
432,206.01929,9337.39,-428.93823,1866.7089,4578.889,-2765.4385,13633.728515625
433,5988.867,9143.9375,5873.648,977.1032,-3406.5842,-1982.7019,7733.2548828125
434,3081.8132,1667.6824,8166.418,-4546.325,-3454.1584,-344.41772,11541.23046875
435,19962.541,13297.961,24527.5,1840.6099,8006.7197,614.9265,17300.279296875
436,59667.773,57149.16,96274.72,1146.3827,1822.4443,616.86523,38126.87890625
437,14750.0,17488.51,-5697.4424,1433.4326,-1037.299,-367.2129,22167.30859375
438,13354.649,13765.914,11927.759,-3899.4463,2231.1685,-3402.4026,9903.150390625
439,-69948.984,-66082.92,-107434.85,1485.203,1403.6879,762.09534,39740.7890625
440,-3281.2268,-2782.0386,-2134.8193,5465.77,991.5144,4321.499,12230.7177734375
441,-4884.742,340.28656,3697.2407,9987.734,-978.62823,-532.8095,18949.921875
442,34604.086,45408.793,42560.64,3847.9456,1202.523,-88.97775,11952.4970703125
443,324224.28,331655.12,325820.1,874.2431,2653.3948,1258.9176,8606.67578125
444,9211.994,16823.445,12524.6,-3388.7031,5.9204297,735.55054,8931.234375
445,4427.495,-9184.503,-17165.084,5805.99,-1417.8529,-715.7657,21594.080078125
446,17329.36,5951.342,13540.918,6715.6772,5079.1064,926.4406,17775.669921875
447,9408.597,-2832.3877,9622.435,-184.25378,-76.65624,-929.12024,12458.501953125
448,8980.394,979.8722,-1922.3157,-4838.4116,966.0651,-1965.0648,13426.28125
449,5633.1934,-2707.104,7047.5015,561.8367,494.4099,254.04982,9232.0361328125
450,-137.0523,1950.9478,-81.97339,318.92078,-1283.0135,-1380.8179,3900.16015625
451,5743.8228,2474.2563,6450.952,1710.819,-367.6949,-604.2505,4876.85986328125
452,350644.22,347743.94,311982.9,-402.25504,6565.774,-2714.7126,39279.80078125
453,3566.0054,6001.8833,2437.0688,-1124.672,720.7722,1751.1094,4950.7880859375
454,-39063.95,-57762.72,-83583.73,-3506.4531,-2171.5515,873.701,39401.9296875
455,-31569.324,-49984.43,-74951.24,-4763.532,2361.8413,-23.008791,38820.54296875
456,-90564.13,-86790.164,-125680.164,2382.1675,-875.1665,201.40788,37407.875
457,1009.57446,-2311.3477,-7087.493,4082.3098,-2553.969,903.8075,11032.494140625
458,1609.5096,5413.804,1800.1832,-1230.5558,717.04456,605.8152,4579.2939453125
459,-21603.988,-9083.445,-15461.024,1677.16,-1609.3081,1870.8163,12012.2783203125
460,-21419.08,-15331.72,-20545.154,-444.3922,-4447.219,2273.222,10388.8466796875
461,1651.8207,-5563.108,6135.5044,3602.2542,-2444.466,-1388.8264,12928.6328125
462,-36558.992,-35446.44,-38430.082,454.6578,214.56137,1912.036,4306.54443359375
463,5461.955,20581.867,48895.51,1864.7206,-4448.9136,-2110.7627,39262.578125
464,45050.78,35161.492,51266.74,-5649.1284,-1433.3096,-973.313,17396.857421875
465,9620.404,8593.256,14967.902,5903.387,767.45264,-987.30035,12016.015625
466,10950.709,25435.951,43576.0,-1838.0063,384.0756,3445.0056,29117.490234375
467,83136.13,77977.9,118448.17,-1857.1467,1950.2489,-1600.2516,38537.44921875
468,-7659.6074,-4987.03,-1033.2676,-4809.556,1821.0262,-1427.1766,10899.359375
469,-5235.7803,-6895.539,-472.76978,-4833.9844,-1311.6412,892.1717,10535.55078125
470,4784.767,1033.6278,-5058.237,-692.20935,216.99908,-187.29279,8701.56640625
471,28986.572,25558.084,38971.41,-2162.255,2115.5479,-295.64493,13168.1171875
472,513246.5,512190.0,529678.3,-149.39246,-2472.014,75.0272,17518.484375
473,-278504.8,-274771.16,-305622.44,-963.0891,-783.0537,2514.6675,29565.966796875
474,5965.302,3268.1074,-2350.38,-1216.6156,693.41406,2264.9814,8675.814453125
475,-4526.543,-3328.3752,9169.455,-5738.2295,2388.7393,62.281406,16985.8046875
476,12057.806,7550.264,2308.0522,-1848.2437,1200.4397,1141.135,9481.8740234375
477,-15896.095,-23803.828,-27715.348,5417.6597,-3083.183,-1348.1588,15191.68359375
478,-17423.695,-15595.584,-10538.803,-2288.3462,-2253.6514,1476.6313,8697.419921875
479,63531.992,72956.055,106639.49,981.41833,-3344.0154,-334.95636,39718.953125
480,10158.401,9528.586,-766.16504,-2242.6812,-286.85794,302.3487,11334.5625
481,3762.144,18191.953,4340.9453,-3095.1104,867.2162,411.629,15221.8935546875
482,-5975.051,-15190.35,-6385.7324,6200.1084,-2180.146,815.24194,14590.5048828125
483,-32429.32,-37736.664,-42961.266,6670.2993,-763.197,-571.0416,14812.0712890625
484,-31390.941,-30588.95,-69967.055,3260.1074,-3454.6387,-894.5606,39872.12890625
485,115040.16,116802.24,116449.68,-4204.752,-438.78885,-799.1613,7625.05078125
486,-2792.5874,-5354.124,-13359.806,-3775.8066,-5027.4453,-1702.6954,14780.1396484375
487,-6464.6733,9789.316,-2653.0278,-1682.9095,-149.23077,725.99994,15063.5634765625
488,4222.1772,-1228.5331,-6653.9775,305.22623,135.08788,-2373.7715,10293.533203125
489,-3350.3809,-9315.9375,-41648.434,-5838.5723,-1520.7933,1890.3484,37333.4296875
490,23093.346,18975.516,14774.924,3740.6921,1805.8073,-906.7643,10301.7783203125
491,-75005.055,-65948.44,-89159.516,4686.3384,-291.96075,110.94573,21834.388671875
492,-27887.135,-30723.17,-11792.673,-1744.3969,1243.5479,-1076.8479,18164.96875
493,1918.173,633.0382,-2395.156,-3863.9875,-2036.7097,423.7483,8513.9658203125
494,-5877.5776,-14568.315,-704.49854,-1325.0269,-892.0478,-1503.8,12715.5859375
495,-39710.43,-32780.914,-44561.754,4501.993,887.24054,-88.34738,12975.349609375
496,24297.611,28871.814,49172.945,7493.3022,579.46387,-620.5912,26391.896484375
497,-7774.9077,15564.756,-488.08423,-3093.1294,33.697346,581.06464,21388.884765625
498,4185.6313,21807.44,42049.152,-4269.819,2614.0947,1611.871,34057.88671875
499,4524.0205,655.41455,9763.219,5633.1543,-936.62805,-2409.4404,13339.00390625
500,-34019.77,-26733.715,-45661.555,2313.5273,3912.1394,868.0074,18375.8671875
501,12169.704,2959.6248,2327.2844,2997.2732,785.00433,749.02637,11024.1591796875
502,394187.06,393642.84,434002.28,192.43718,-44.14244,159.83623,40092.515625
503,-33764.715,-34486.56,-70207.82,-2767.595,-3306.739,-739.40607,36874.6171875
504,1656.8049,-5051.386,-6317.3403,522.89294,58.704468,1095.4536,7715.26904296875
505,-17809.484,-3200.0645,5526.38,3511.0962,-431.99576,-221.48491,21325.2109375
506,5868.8047,23799.479,22788.822,1312.4142,3570.2258,-50.055737,18650.015625
507,-5496.882,19384.436,-21597.76,4228.0186,-945.5338,-62.81258,36541.09375
508,-438.03027,18661.002,24133.742,7052.686,-2601.6926,-1062.8647,25926.13671875
509,7209.54,2186.7554,-2741.8398,2718.3967,-1171.4401,-531.2265,10070.1123046875
510,5977.25,-966.97864,-802.4188,43.49337,-810.6137,52.341846,7006.55615234375
511,-8966.113,-7851.7607,-13808.833,8864.104,3127.2834,47.689373,17180.0390625
512,6450.072,18119.785,6795.0444,-3788.845,1318.7867,1242.6024,13608.5009765625
513,-2372.0977,234.37427,-1264.3932,825.54645,406.08188,569.43365,2940.33276367188
514,-195301.61,-196240.62,-234486.44,221.56374,-226.60289,582.1314,38740.875
515,-49749.332,-65700.04,-90466.08,2359.0876,-1566.6957,-733.31366,35895.546875
516,-7466.99,-590.2179,4631.4707,-4696.61,1367.8065,-1326.3541,13694.12890625
517,-46495.605,-38898.074,-14695.917,-431.06036,-1953.6088,407.41806,28980.142578125
518,-55635.527,-48609.33,-90128.164,6276.473,1442.5374,-1184.9347,40126.03515625
519,24553.4,4373.25,9859.668,-7357.9478,1174.9281,1205.5896,22305.658203125
520,13719.795,18280.955,13708.293,917.4275,1069.641,-1612.8896,5883.74267578125
521,11618.546,9039.418,539.2544,84.85708,1133.0228,3039.7703,11507.4375
522,-26341.785,-19400.92,4687.5684,-2307.8352,1832.0867,-2167.864,28909.734375
523,-3010.4006,5392.8193,-1436.667,-2009.8872,238.55031,276.80838,8507.9873046875
524,37961.59,44144.59,45075.25,-52.364594,224.61276,-604.3656,6790.08447265625
525,-4047.5132,-1502.7952,4633.519,871.77325,-1024.6718,-604.69055,8140.755859375
526,-26980.938,-35254.91,454.84375,-1910.3235,568.6862,-1890.0015,32723.357421875
527,-21761.244,-18611.975,-491.99393,-2368.2002,-872.3283,1273.4634,20476.556640625
528,-14901.812,-15522.303,24900.613,262.25156,-549.555,-371.74362,40135.296875
529,474.8885,93.018005,-2486.38,-944.3014,2588.8386,1247.598,5935.90673828125
530,10401.427,7510.9546,3722.29,-965.41565,2224.5872,-717.6213,7269.60986328125
531,-4674.9614,-8063.5757,3933.4102,4792.0786,808.0833,1607.155,13905.2900390625
532,-333857.5,-333144.78,-372770.66,234.21147,1109.7603,605.5228,39337.453125
533,16920.773,6017.4756,25943.307,851.7488,-2105.7764,1770.7144,17987.466796875
534,2727.1887,-8948.236,6246.6743,2128.0107,868.0446,-931.0735,14430.5341796875
535,20805.86,12441.818,16055.443,5404.29,1546.7565,-912.39954,12250.91015625
536,13441.921,1583.1235,-2207.0234,-1673.0542,824.7169,-1911.3135,14877.5009765625
537,-12636.528,-7994.969,1578.957,-817.2241,1375.8251,-142.35265,12860.21484375
538,-8376.027,1451.0789,15382.468,1962.0912,873.10065,1323.1775,21134.0859375
539,2967.419,10598.644,3675.879,-449.66562,-515.40875,-263.6696,7412.3671875
540,-20426.598,-31954.55,-41699.734,-7517.119,-315.1697,-205.1126,22586.494140625
541,-1026.2715,8605.968,40433.06,-6724.792,1583.4219,1818.3538,39565.3828125
542,-186463.78,-185858.28,-210223.08,701.7966,122.94138,-1129.0608,24178.591796875
543,-14023.524,-21182.195,-18390.52,6099.03,-118.09997,-1663.8365,12609.390625
544,-30210.156,-39429.973,-1846.752,-633.9259,-578.2866,92.3626,33959.203125
545,-9359.587,-11662.469,-15828.568,-9157.213,-1786.16,695.4211,17170.8828125
546,-18583.809,-23336.875,1484.8202,-3086.7808,-931.1351,85.2104,23493.330078125
547,17946.463,23069.627,23129.467,8974.189,-387.43106,16.646114,16389.51953125
548,-5134.5024,-23839.66,-4918.863,-4269.8413,-621.5496,-173.48956,20246.158203125
549,4274.049,-4681.24,-2767.276,415.2297,850.05585,-1159.2433,8569.53515625
550,3762.6099,2351.783,1193.1631,4973.8823,-824.61615,146.40018,9016.1103515625
551,-43817.168,-20258.486,-58506.523,4985.6646,-534.0945,1721.563,34657.87109375
552,-18260.781,-5884.9707,-8611.653,-1554.999,1867.0629,-179.8617,12027.4462890625
553,-12575.059,-9603.594,4833.244,1209.5304,-68.768936,-615.0175,16299.9462890625
554,-22942.645,-17691.906,-6759.21,6.6780987,-2252.6697,634.1021,14863.6728515625
555,5486.2827,10301.388,5041.127,-5747.2144,-629.8274,1076.582,11370.375
556,-17673.656,-30557.115,-28711.934,1900.1055,-1187.9552,-1666.7241,13000.56640625
557,-1548.601,4590.687,1981.8735,-1014.6547,-1212.3228,-51.62957,5998.8544921875
558,44308.98,58515.25,82668.95,2609.677,521.50336,-2750.373,34238.78515625
559,17478.54,15491.436,7346.0703,6807.141,-1837.4945,363.1473,15362.8623046875
560,-90525.53,-77286.234,-103871.94,-11325.79,1295.5648,1038.7123,30384.12890625
561,-21805.33,-12941.543,-673.3115,-2533.7346,1392.0703,375.44998,19060.826171875
562,2532.5762,-956.2385,-7351.8896,-4411.8516,-1225.5564,-479.4594,11788.9072265625
563,-11687.644,-11486.826,-8143.3496,-3350.1973,-939.98346,-684.6973,7044.08935546875
564,-1431.5132,312.79126,-6034.7544,2282.2595,-169.45915,-621.787,7009.56591796875
565,35380.96,42466.58,37169.57,-1012.5234,-67.25325,-12.80012,6619.7705078125
566,10634.203,9919.657,19108.045,7605.2295,-938.037,-48.01695,15954.2060546875
567,10645.856,-2719.521,-200.26196,5207.863,65.90579,-482.00424,15276.9326171875
568,16028.869,15809.813,4306.576,-8391.544,-278.68634,225.17348,18615.35546875
569,-3103.4932,-2098.3428,-6951.762,-277.85333,367.22842,484.92792,4585.76416015625
570,9657.417,3803.0522,1258.263,-4459.9736,141.721,-468.27692,10772.1796875
571,-29744.133,-24409.328,-570.0137,-1881.6533,-721.2435,471.51056,27144.0703125
572,137.58221,725.35236,-1260.8231,-4702.6226,-315.70184,-1488.7786,8741.5849609375
573,-1526.3695,-1315.4039,2287.3167,878.35284,131.94775,-3614.6467,7439.6171875
574,-434904.88,-435879.0,-473397.2,-257.66217,658.4134,422.28308,38041.36328125
575,365971.03,365778.06,377236.1,-719.4135,490.9919,-93.95886,11463.640625
576,-23901.377,-27591.215,1422.8691,0.8308353,-2316.0127,-988.4958,27701.947265625
577,-8116.2256,-5198.098,6636.554,-2431.0806,-129.55907,-555.7346,14206.224609375
578,9347.892,15192.3545,18873.664,-748.34375,-4796.73,2307.5437,12486.2021484375
579,-1195.1145,-11484.934,-9707.373,-6092.4473,3208.1003,-437.53165,15282.443359375
