Element Label,S11,S22,S33,S12,S13,S23,Mises
1,22159.926,19220.65,15655.762,299.11652,4782.978,-1437.3564,10340.357421875
2,-25493.98,-8052.4883,-45262.312,-3020.3804,4306.5156,-1910.7505,33671.0703125
3,-1573.2559,27767.283,35611.734,7667.063,2062.1511,35.014957,36628.890625
4,4553.5537,26749.477,20257.723,5405.3022,2757.02,8401.384,26700.49609375
5,36946.848,32031.836,24514.682,-15354.54,1446.3666,-9885.594,33531.3046875
6,-17294.984,-5635.99,-40151.266,-564.45197,-8528.285,5471.6694,35125.36328125
7,13692.443,39585.414,44585.66,-2290.5562,-8331.26,-4890.6963,33476.05078125
8,-14704.662,2865.542,-23759.143,5194.2705,-10563.827,5466.231,32483.048828125
9,48794.066,42794.06,24498.52,-1437.505,-2938.2573,888.353,22692.884765625
10,-23564.053,-21692.145,-20019.672,-12948.7705,-889.3742,-7752.9463,26365.533203125
11,-12328.82,10941.727,-10637.199,-2674.667,2406.2861,7199.444,26445.09765625
12,6126.211,31438.03,38789.43,6823.556,8581.869,-7962.6055,37837.09765625
13,26605.557,23710.33,-2714.1855,-1497.4462,1505.5005,-1760.4086,28389.541015625
14,-14533.93,-33919.73,-55009.45,3585.3196,5525.253,1759.9618,36998.21484375
15,-74280.89,-76883.66,-91934.59,-950.3404,-7628.1543,-2021.0402,21494.38671875
16,-4454.315,12172.585,-19124.525,-11820.018,1014.6832,-7394.298,36357.16015625
17,20418.492,29064.115,30146.05,1622.8452,-1113.7288,8860.619,18232.529296875
18,3833.7273,35606.63,26456.434,9210.8125,-10597.085,-5811.6855,38668.515625
19,4534.3296,5558.5176,5962.939,10.70613,485.3444,746.14575,2000.98559570313
20,-20180.33,-18962.215,-21120.48,-67.57483,-315.18988,-244.47774,2000.98486328125
21,-3189.141,-3905.4805,-30390.277,9443.71,1983.3473,-13801.839,39645.3515625
22,-476.6486,570.3357,793.4993,762.0372,316.47147,440.36044,2000.98559570313
23,-23382.648,-9818.504,3093.6462,3580.764,8960.05,2024.1766,28591.203125
24,-10580.657,7974.909,4825.875,6871.0596,1488.9377,1987.7552,21352.564453125
25,-5353.3423,16543.99,8841.621,2555.9614,7319.232,-216.95712,23465.119140625
26,-26599.107,-15718.503,-24003.879,-13786.502,6183.7563,2673.8987,28341.732421875
27,7383.5107,11944.579,26365.633,1601.0503,8985.339,-445.0399,23346.064453125
28,-29571.395,-16422.078,-27759.223,-2082.0645,430.1053,-13487.437,26676.814453125
29,1242.4559,13507.481,-6958.0615,-4551.1055,-6790.9233,-3322.8054,23491.90625
30,-9011.564,19143.916,475.6308,4951.821,-16348.908,-5277.2534,39681.125
31,6948.3276,-2303.8782,11182.661,6151.3823,-3085.743,15042.02,31041.599609375
32,-6102.7417,-972.9301,5999.146,5103.031,-13129.178,7888.6924,29876.970703125
33,15006.073,29521.785,39184.82,2726.601,-5123.179,-6835.466,26183.21484375
34,-3786.6467,4117.353,7631.906,-1767.114,8748.202,1008.55817,18563.86328125
35,14421.944,18587.57,19743.127,-2930.5168,-2320.335,13885.487,25373.94921875
36,-20203.756,-8530.225,-10267.93,3635.54,-5181.5127,-17247.93,33640.37109375
37,2465.6877,24373.914,16309.46,-3557.654,10600.167,-7009.8457,29846.32421875
38,9270.121,-3266.7837,11632.276,-11634.402,10009.65,-14994.93,39668.234375
39,2880.771,3776.3816,-4800.0317,14343.132,2691.5083,-3583.5151,27278.37109375
40,-22726.74,16981.172,5363.761,-5418.0645,275.4693,7122.054,38611.453125
41,2929.5713,-16932.846,-22086.557,-6120.208,12058.056,-10727.089,37645.90234375
42,20133.879,15832.462,45833.105,-4491.44,-9254.139,7640.2744,35805.76953125
43,30168.426,18035.412,13429.647,3852.7407,-13613.352,132.8281,28720.353515625
44,-9764.238,7624.9355,19589.732,4783.4116,3423.6487,11356.915,33828.14453125
45,5011.0923,9081.261,5066.651,-1263.2849,2417.5554,807.52625,6373.45361328125
46,-49882030.0,-49881096.0,-49883210.0,283.8636,-271.81714,240.35423,1999.12670898438
47,1629.754,2379.8442,2627.324,-166.39723,577.357,837.6046,1999.33630371094
48,80361.03,79797.336,79084.83,-85.333885,-433.9587,-854.41766,2000.98767089844
49,38200.48,36269.266,36431.41,363.01572,157.54044,-174.54729,2000.98571777344
50,31027.223,32498.383,30247.729,-105.03093,-11.323761,131.37556,2000.98522949219
51,3222.8174,2735.9934,1640.2229,208.8792,441.00284,662.9336,2000.9853515625
52,-10624.887,-10430.255,-13014.446,1116.2982,-1232.262,-416.01505,3876.33081054688
53,26250.201,22440.889,21032.617,-1857.5304,1851.761,-2192.1885,7544.13818359375
54,-19874.582,4147.572,-22169.135,-4990.4897,-5273.0923,-1251.0985,28289.15234375
55,1810.1686,-20447.195,-14059.593,146.11711,3176.078,3533.2354,21489.4921875
56,19988.428,-10467.115,28752.68,3355.238,4744.0146,2843.3474,37374.00390625
57,-20838.406,-4941.9976,-18455.398,-5541.239,-10524.004,-8276.063,29160.810546875
58,11636.284,21354.775,8349.572,-7125.011,10461.444,-8029.3433,28482.05078125
59,30306.469,5201.4727,14392.242,849.00037,585.57556,5197.246,23837.408203125
60,-5552.473,-4419.0747,-3132.2336,4874.111,-6931.9277,-6678.594,18805.203125
61,24280.223,24136.182,16584.459,-6380.6084,13814.352,-676.8704,27461.91796875
62,-14254.438,6671.857,3466.5315,-7708.846,-4137.1685,4984.0947,26177.4609375
63,53430.188,32077.9,29793.08,-3434.9033,-7911.928,-9180.787,31400.298828125
64,-49707.348,-15702.007,-27081.234,6518.455,-940.8473,-2595.0088,32391.728515625
65,20296.012,24528.443,1353.1049,9361.595,9937.189,6882.9736,34032.4765625
66,37734.11,9203.675,23152.496,3189.4702,-5596.837,-6526.881,29374.849609375
67,-52042.84,-82116.22,-77319.336,-7082.167,7897.9214,356.13736,33483.47265625
68,102124.85,97943.68,122162.29,46.959793,-12352.735,10474.094,35911.8046875
69,107203.11,119188.2,84810.27,-8603.561,2193.741,2682.0264,34227.80859375
70,22733.238,16615.916,30768.443,-5905.967,8262.254,9010.476,26535.673828125
71,-167836.55,-181167.73,-161883.83,-3706.1814,-11290.789,-9786.579,31678.015625
72,68744.586,52274.125,46492.18,-3124.5015,-12339.819,-10428.802,34818.37109375
73,-127471.59,-131036.52,-150310.77,-5178.831,-8166.7407,13025.3955,35248.36328125
74,19983.293,8999.027,-937.349,-2858.2505,2296.5364,9801.296,25633.1171875
75,-19220.95,2186.1167,-9839.064,10352.958,-11752.468,-738.84283,32908.875
76,-562339.94,-562805.06,-561333.9,-351.4679,-380.41205,-707.25653,2000.453125
77,242561.16,250216.3,231578.14,-9111.76,226.5956,6034.3003,24935.30078125
78,390871.97,389276.88,392387.03,-9660.078,7021.29,-3453.4414,21699.81640625
79,92307.92,92366.53,91813.305,-99.48872,81.98248,-1107.1007,2000.98571777344
80,134232.03,132490.27,133927.62,-241.57831,-62.172478,636.9782,2000.02661132813
81,275548.44,276401.97,275956.97,888.54803,485.98346,343.51047,1994.44482421875
82,41457.41,41388.31,41570.977,-43.192028,-449.7467,-1057.2487,1997.81311035156
83,8323.394,19143.623,18377.865,-869.18036,-5654.1724,-3998.5964,15984.9873046875
84,-1010.9906,-11019.043,-9012.919,-16599.865,-11029.972,-2447.6272,35968.43359375
85,17480.35,23736.998,2870.662,9832.048,-2094.41,-2189.2668,25720.4609375
86,-24615.572,-10545.885,-27105.053,9849.169,-6544.2144,-3146.8904,26237.1328125
87,3867.5496,7914.5117,32102.256,-14041.906,-3963.2148,-1588.9794,36681.5078125
88,9038.635,-7261.701,-11431.427,-9903.923,4754.9043,-8783.106,30733.93359375
89,20098.727,47120.35,31229.043,-2951.3718,566.669,-17643.74,38913.9140625
90,-2521.0527,28966.871,3078.8975,4847.284,5780.6934,-7197.593,34244.296875
91,-4346.332,35801.613,8209.682,1735.6089,-6247.5522,7316.6055,39397.25390625
92,7354.5293,16167.877,-13198.354,-865.40894,-2106.6904,11743.243,33324.2890625
93,-923.94946,-10795.064,-13762.01,4412.749,-1706.7817,6702.2437,18369.685546875
94,597.73413,-11842.8,-13837.581,-3708.801,-9145.757,364.53064,21821.115234375
95,51800.355,52198.945,41414.332,-14449.415,12970.492,1161.3208,35316.73828125
96,-20957.738,-1189.2689,-31719.44,-8056.019,5695.852,2455.3748,32085.23046875
97,-30124.883,87.493286,-17730.092,-7452.813,9732.168,-7316.454,36101.41796875
98,-12329.728,1982.6091,-9501.512,11432.536,2616.5923,-9464.421,29218.787109375
99,11622.348,28525.904,24003.287,1486.2238,11509.967,-17542.072,39458.50390625
100,-163166.06,-137560.05,-143695.33,1120.0797,15516.3125,3149.374,35944.359375
101,272156.94,271664.84,271644.12,47.794395,623.1713,927.2346,2000.98815917969
102,-27029.963,-6598.633,-16466.357,-4521.8833,-1136.6934,4651.4272,21055.31640625
103,-21573.178,-9169.514,-27085.88,-8974.537,2380.3486,-2745.477,23105.3359375
104,-22149.35,-22149.254,-7524.7627,5079.1274,-917.9749,11745.072,26601.46484375
105,-52528.12,-23627.893,-23191.172,8732.252,6672.53,971.34674,34830.8828125
106,-3083.6921,-8181.9434,-16572.148,6298.1597,-1480.5306,-12801.649,27502.474609375
107,15758.322,22509.297,13462.765,3992.0527,-8177.481,-8678.876,23253.69140625
108,-22507.94,867.053,-11202.478,7045.812,11564.13,-562.712,31000.1015625
109,9144.611,13225.452,27423.057,3203.8076,1432.1718,1720.1669,17943.990234375
110,-14364.585,-8147.4893,-3394.9067,20815.89,-5160.973,2629.4602,38617.8671875
111,-22795.855,-21109.543,-53081.043,-2246.1362,-11485.377,6879.6787,39038.1015625
112,-17722.283,-45968.098,-14820.503,-1091.5311,-782.3655,-879.5464,29932.271484375
113,77517.38,72984.76,39199.438,5596.2886,4088.148,-3263.0054,38615.6015625
114,-134614.48,-143653.25,-135670.67,12972.619,8220.872,10048.136,32920.78515625
115,84691.12,88798.15,85401.586,3428.1504,-21313.457,892.42755,37615.03515625
116,-365296.75,-356552.2,-366801.44,4775.6396,13426.737,5910.0645,28388.87109375
117,227466.3,224941.42,231930.39,-4773.0366,-749.5752,16423.328,30278.419921875
118,318159.0,316853.94,318109.66,-658.6001,-60.55926,-591.6188,2000.88208007813
119,372750.44,371729.78,373747.8,-147.09492,-12.476885,539.3437,1998.13049316406
120,-124511.734,-125036.04,-124857.29,-78.59639,-667.664,-900.8468,2000.88977050781
121,8080.093,27490.07,17194.682,7518.8364,-5666.9106,-5305.9683,25165.634765625
122,18811.812,-5708.15,-5118.1533,869.3552,-7538.6475,-7848.929,30735.77734375
123,-1790.3116,2596.1191,19589.889,-330.121,-4677.9795,13936.946,32113.296875
124,-6430.691,-1868.6101,-6704.3325,6611.1265,-21415.787,752.9791,39126.27734375
125,6887.5757,24943.379,-4651.8384,1365.0558,-291.31683,8356.5625,29713.0390625
126,-26881.078,-26201.545,-12590.236,3674.0532,-20322.682,-3881.965,38983.5625
127,35600.984,36788.98,36367.504,896.25,238.63301,-334.1901,2000.98559570313
128,-22049.973,-14062.4375,-18607.39,-7781.2007,-4168.411,9490.684,23497.697265625
129,-24224.904,-14092.001,6689.043,8552.09,-5722.447,2734.9526,32942.27734375
130,-42186.43,-16991.496,-53610.76,-5481.883,1754.8271,2012.092,34127.296875
131,-3094.7979,4136.796,8027.659,-7658.783,5626.846,-3561.2861,20114.056640625
132,20389.328,-9349.986,1576.9635,5020.2515,-9745.6,-7376.0415,34678.83984375
133,23067.33,643.6196,2410.6882,-5789.87,-12327.3955,10708.68,36970.3984375
134,-30604.436,-25023.486,-44394.445,-6312.825,3002.1091,-17786.777,37335.96484375
135,-19453.898,-26647.877,-47364.38,-9887.586,-1756.7318,3790.153,31234.724609375
136,3473.7585,13173.052,2390.0342,-10899.985,4584.1177,-16462.168,36581.99609375
137,-4722.4287,17960.49,-13243.864,-6988.0083,-1300.6956,9631.518,34789.23828125
138,31347.582,11130.932,6970.097,-246.74403,-507.3507,-8069.754,26579.33984375
139,10002.699,10835.438,10248.149,708.5418,-441.6852,-674.10864,2000.98071289063
140,-2583498.8,-2583386.8,-2585435.5,-7.0650134,-61.410484,-62.750572,2000.93408203125
141,-12552.542,-2417.3552,-2967.7456,9161.604,5685.1797,1654.7405,21317.361328125
142,-20776.887,-20988.66,-19185.732,473.10373,-326.48267,181.47949,2000.91052246094
143,45784.984,43975.848,44065.246,-193.77065,-346.14667,-370.8573,2000.98303222656
144,-506006.03,-504001.1,-513384.62,-899.1823,-781.8265,-2964.5361,10192.2421875
145,62947.54,87918.555,102943.125,438.69254,1305.5106,-2309.3152,35300.953125
146,142924.17,139652.6,145772.6,4545.004,-12334.698,2808.5132,23878.951171875
147,-97251.8,-90855.45,-91101.4,-417.49216,-10426.703,184.93794,19135.685546875
148,12180.162,6473.55,4433.3447,2212.1292,-3493.2769,-1892.9198,10507.5908203125
149,64852.47,52466.64,49077.562,11208.517,-7858.106,3761.6804,28486.203125
150,-4953.6772,-14065.814,11195.005,12063.801,6210.934,-5474.185,33662.93359375
151,44194.18,55349.78,64739.39,5569.8867,-5764.131,14340.044,33571.05859375
152,14912.573,14095.17,13133.578,3048.7727,2932.3516,4886.363,11299.9794921875
153,14241.461,-12209.838,26153.195,-3423.695,7799.335,-7786.477,39448.484375
154,17116.676,7343.641,19564.773,3700.1648,2806.2686,-1136.9691,13928.671875
155,-9149.8,-673.06854,11249.239,659.81714,5980.702,-8528.335,25335.125
156,-1418.4896,-1105.4302,-4156.6,-12401.051,-10237.766,-7094.5635,30581.76953125
157,23999.893,6622.498,5341.7314,-8842.306,1008.8115,7871.6943,27374.6875
158,20196.365,6252.3813,2948.445,2272.7117,-6791.1035,-2541.8186,20607.1875
159,-6547.5845,-1853.4653,9684.693,-4425.9307,-4002.089,2568.8423,18328.63671875
160,-10781.481,9644.463,12817.985,10243.762,614.1689,2360.6875,28718.751953125
161,10228.56,15645.823,8317.666,11013.731,7977.9497,-8166.9526,28254.15625
162,-21719.072,10966.666,9480.456,-9270.772,3641.2659,-6444.3823,38002.58984375
163,-3424.2651,9960.386,13604.604,-3233.549,-8097.523,1708.3015,21864.076171875
164,4191.1655,17930.758,28017.232,-2275.123,-132.98407,-1513.4725,21249.724609375
165,2573.9187,19163.355,28084.56,-2295.6882,-16776.78,2940.6824,37268.34375
166,25586.686,-3200.6626,6934.968,-1848.624,1779.3055,-15150.153,36715.0625
167,8385.172,2674.811,6870.164,1313.8989,17438.242,-14151.53,39300.1953125
168,-1211.7257,26841.994,13199.243,-6756.771,-7655.067,8501.252,33466.12890625
169,4958.976,2497.13,15977.688,1085.4269,-10250.629,16347.375,35708.1171875
170,8751.866,10850.296,9889.454,-3069.5408,454.21072,20593.39,36117.29296875
171,-9724.288,-19730.281,7441.081,5245.6465,-12732.777,-3811.8513,34337.125
172,-32279.76,-24135.486,-12101.1875,4590.3623,-630.2853,8253.731,24040.43359375
173,-1491.6715,4496.687,14577.481,2188.148,9947.342,10424.269,28897.390625
174,-628.96246,17552.781,-5115.659,5081.1846,-8538.077,-669.5548,27014.41796875
175,-21210.35,-2849.2844,-8968.935,8811.716,-2503.0298,2215.5098,22992.943359375
176,8052.825,9426.39,9713.406,523.0322,-492.46155,175.50345,2000.98510742188
177,-17280.629,-23.941668,-14261.766,7991.4883,16778.074,2796.872,36254.40234375
178,-47157.73,-60910.773,-79611.0,-13236.731,7071.631,1647.6626,38468.57421875
179,1750.0001,-12247.91,15275.327,-2217.4253,7268.332,7468.1016,30145.59375
180,-71138.38,-62615.895,-53040.145,-5551.35,-13611.443,-14490.493,39040.06640625
181,-5394.6157,-12601.233,-17125.312,11495.327,-8262.908,-2898.3726,27045.55859375
182,26513.145,25503.484,33748.582,-2657.223,-4213.899,7378.9077,17276.4140625
183,1847.2133,27477.488,-3056.82,-1275.3423,-9633.76,12347.001,39335.796875
184,9687.424,428.82748,-23815.842,11116.442,7963.187,-82.9903,38196.60546875
185,-59376.79,-60462.586,-34777.6,-5438.834,-761.18774,313.01077,26903.2265625
186,98376.38,92359.49,115369.3,-4399.332,-5923.3564,-8590.136,28493.8359375
187,-20047.26,-19292.84,-18839.715,76.84505,-372.6242,904.31226,2000.98022460938
188,-6506.8286,-8611.609,3270.8362,-10056.52,2515.756,-5413.972,23042.0
189,37692.33,51002.668,49599.086,-13544.514,-7690.89,5636.803,31362.15234375
190,34195.85,27340.207,43444.387,-3366.6013,3702.8027,-14644.209,30239.58984375
191,-371960.75,-371851.56,-373358.72,40.755096,196.3848,-766.90564,2000.99865722656
192,40838.477,39774.875,12475.732,8868.962,7033.9995,2718.6997,34380.09375
193,10502.472,5056.572,6630.188,-7325.165,15979.152,4897.947,31976.6796875
194,-16910.994,22078.465,-684.0406,5062.4824,4691.6406,1632.686,36079.48828125
195,-32808.51,-8738.077,-26896.486,-1643.1918,11408.056,-8379.984,32882.1640625
196,-12418.027,9666.625,-4944.005,2826.7651,16548.918,2097.5508,35175.3125
197,-17313.383,2318.5332,-866.5408,2898.5144,-7550.637,-9608.5,28394.33203125
198,22783.115,14481.402,-9530.621,2476.2717,6614.8496,6724.3228,33617.71484375
199,6034.2666,6980.131,7683.3237,-8773.3545,-17837.15,-2064.262,34644.55078125
200,3420.1294,9304.462,-4063.5698,-3621.2034,2593.2024,5101.997,16500.67578125
201,25385.621,-5244.5293,-10136.453,-1196.6544,-2148.3728,3465.3623,34148.8828125
202,2779.919,29659.574,30871.557,5160.4155,9324.833,569.70996,33140.359375
203,-11561.248,-6438.3965,3570.0967,1947.0002,-4813.6733,-15438.352,31202.5703125
204,-8605.217,-3618.541,-1046.4839,-341.19562,-4179.0386,-10668.252,20940.046875
205,-3527.2488,20474.316,-10693.987,12704.906,1688.8466,603.80505,35963.1015625
206,516.17175,-2490.796,-9225.541,9033.172,18161.984,-3708.059,36745.97265625
207,10595.001,17822.764,38809.574,7495.622,-79.94181,-10239.362,33577.97265625
208,17738.842,-7149.964,3769.251,-3237.3423,5921.7085,1437.1532,24693.17578125
209,12850.545,-20108.693,-5319.2983,3058.448,-9715.603,-11472.456,39034.38671875
210,-2361.0278,-9397.953,-24357.516,-2179.6204,1721.3171,-9247.404,25656.591796875
211,33544.668,2728.8538,14226.475,-8287.365,-5785.3965,-1037.4513,32205.337890625
212,-23105.023,-16254.804,-7607.7324,-1193.1693,3171.5447,1509.104,14906.740234375
213,5782.345,10083.811,5908.007,-13369.151,9517.403,2272.3918,29007.1484375
214,-9338.662,3616.2087,-14314.685,6459.5503,-7787.6436,-9585.8125,28979.927734375
215,7336.8384,21231.332,13509.169,-2573.3618,-10392.0,10239.133,28350.666015625
216,11317.13,4718.9346,-8639.787,-8874.582,7350.0884,11826.217,33586.59375
217,2592.734,1717.152,1555.4082,-528.51935,-162.46512,846.97626,2000.92822265625
218,4451.2363,3528.1296,4391.9336,791.626,256.57635,-612.51764,2000.98559570313
219,-3427.3691,-20731.648,10035.871,7449.8174,9047.599,-103.35224,33552.6015625
220,-41991.32,-18919.71,-43806.72,-5662.7383,2940.113,-13408.278,35198.828125
221,3566.8513,13502.507,8162.4287,585.49493,-1935.0837,2497.2222,10254.1171875
222,6869.9917,6503.529,7624.4673,3863.6758,2223.8381,3143.1758,9499.421875
223,19560.807,1984.2258,4583.72,7575.7407,1126.1649,-2242.0132,21472.390625
224,7971.188,6619.6914,12554.5,1374.262,-11753.695,-8950.339,26257.70703125
225,10434.362,438.76978,-12404.25,-4445.3486,9738.235,-9445.732,31696.64453125
226,9022.264,-10430.559,6215.08,-5419.312,-422.41922,-4385.3657,21863.701171875
227,-2687.7214,-1661.9043,5168.415,-6357.077,-1152.0851,-5669.6587,16624.275390625
228,8629.318,17963.846,8263.375,3429.7903,-11601.916,12685.871,31821.076171875
229,4607.4863,4347.8774,6972.5083,-5005.298,-527.817,677.12933,9145.7646484375
230,11312.314,26186.482,18929.615,18611.684,-5594.2085,-1629.4025,36152.42578125
231,12504.793,3082.522,9495.015,5588.623,14070.687,-6877.6504,29983.9296875
232,29512.514,5933.115,11591.726,-3424.7527,-5208.5874,-9388.101,28906.1484375
233,-7104.313,-17753.307,-29837.105,5299.0933,13355.864,-10308.0625,36417.66796875
234,8832.951,3521.7673,5977.5176,-3343.7935,-5859.824,-9019.805,20045.51171875
235,20466.764,1189.5366,27901.848,2326.567,1838.9767,606.0428,24448.0234375
236,-515.0279,28620.422,33028.418,9845.559,420.5889,6062.252,37394.1484375
237,-65348.832,-32379.61,-54496.785,-1780.1543,-166.5597,957.52515,29313.7109375
238,-78944.8,-53939.547,-37724.05,-6244.457,4633.1113,1491.9695,38493.2734375
239,2321.3638,31521.398,39029.906,4272.0933,-9273.674,3496.2314,38440.796875
240,46440.52,38587.44,24855.646,-1793.4678,16801.178,830.45325,34880.18359375
241,52792.812,72674.79,65825.04,7494.3623,-9942.436,10975.049,33651.64453125
242,3712.2458,-9299.342,-32107.918,-3696.7124,8742.379,-3688.6897,36019.609375
243,88645.79,88652.79,80215.984,5620.6694,-15075.827,-12072.28,35846.30859375
244,-125043.37,-108338.88,-121797.1,-6179.2583,10401.049,10807.614,32013.427734375
245,94425.695,53581.285,78187.24,1745.1329,4831.664,1912.1757,36862.5
246,-52373.438,-39720.387,-54273.25,9782.838,-1440.2534,14158.412,32900.8203125
247,63817.996,75188.125,78551.61,12371.833,12436.919,-103.80223,33197.6796875
248,-66893.45,-79203.09,-51488.887,-2911.419,-13928.906,3316.838,34913.16796875
249,156339.62,159282.98,137040.9,12168.711,7550.855,4856.5464,33525.2734375
250,-37392.07,-69222.91,-57727.2,7902.012,-6237.8804,3998.851,33637.28125
251,-244221.2,-248457.03,-227470.34,-1453.79,-14488.668,-181.17664,31712.62890625
252,26472.047,39671.24,39003.215,-7790.9844,5362.7437,10892.819,28110.201171875
253,308438.3,310216.7,309191.56,293.54263,-479.5323,-470.59976,2000.79736328125
254,57667.254,61071.977,60198.176,505.37234,-204.62328,-1374.1068,3992.10961914063
255,76288.04,74927.56,75622.18,-895.00854,-216.13567,113.639366,1992.58264160156
256,-594525.75,-594188.75,-594538.0,826.0742,545.73267,561.3276,2000.94506835938
257,107570.64,107362.94,107729.05,923.74316,-149.92892,652.0404,2000.98596191406
258,146640.78,147412.12,148323.08,555.784,542.19934,-145.77705,1999.96142578125
259,24430.172,24412.025,25086.148,-51.629463,-607.14514,-903.00903,2000.67150878906
260,67420.805,67762.69,67552.55,84.00099,-1028.9403,-489.01974,2000.98547363281
261,-190838.1,-190862.58,-190763.36,-67.91481,855.58026,762.7276,1990.76989746094
262,58797.3,59345.406,60591.938,-363.41165,-489.5076,-342.24326,2000.98449707031
263,44476.22,44186.76,44587.484,-169.67137,1104.2921,-208.66232,2000.93481445313
264,25714.043,25509.66,26096.64,-4.365632,-756.8513,-820.3221,2000.91564941406
265,4684.5405,3650.4717,2996.7246,138.26567,767.7641,-42.65062,2000.97412109375
266,24675.82,21798.352,27029.525,452.71274,-1041.9702,-313.6463,4975.89599609375
267,-121387.44,-121392.21,-120959.1,472.3985,-131.85596,-1015.98627,2000.96545410156
268,13713.751,13955.798,12315.208,-363.59427,-424.20108,-488.00797,2000.97961425781
269,7017.7695,-8420.714,5022.554,9358.1875,-898.26794,-12494.949,30741.560546875
270,23345.443,16739.275,21318.191,-6955.885,-556.35297,-4402.92,15446.6025390625
271,-11359.185,-21365.998,3678.635,14270.187,-1737.0553,1189.8569,33180.82421875
272,12789.399,-17987.934,-16203.873,6547.823,1622.1586,-696.4403,32147.935546875
273,20101.64,20895.55,35258.207,17507.707,-2332.414,-5065.4517,35088.10546875
274,9857.517,24506.902,9305.504,15263.801,-3030.5908,7620.123,33521.62109375
275,11017.006,3874.6223,-7897.766,7174.217,1536.4744,-4512.7637,22277.146484375
276,2710.1646,14035.619,28188.965,11984.684,-4506.5654,-11344.306,36970.0078125
277,-21103.0,5336.1646,4364.4766,12965.18,5555.8286,5795.596,37039.6953125
278,8311.109,21502.111,18119.115,8315.002,-3976.69,-2892.874,20513.123046875
279,-32830.38,-35921.98,-19142.658,-2207.4075,18072.01,-1882.8679,35274.28125
280,-487.64133,-30350.738,-24140.24,5233.207,-12025.101,1245.0309,35574.2734375
281,23986.408,8568.959,37072.55,5122.1934,2096.519,11933.394,33612.7109375
282,-5388.437,20682.137,14817.656,11666.847,-5827.893,-8093.4873,35607.9921875
283,-46876.645,-21822.816,-43035.906,14367.988,-5896.8813,8918.307,38838.97265625
284,-86362.73,-66120.89,-103845.75,6622.133,8721.965,-3568.5552,38304.78125
285,15089.519,7061.083,27366.549,-3462.6682,10490.542,6363.9683,28308.505859375
286,-10092.058,-14435.317,-15561.188,12402.218,3847.3152,1600.3806,23206.80078125
287,11520.943,4438.2075,-6965.4443,3144.283,4289.335,7591.259,22775.2890625
288,-194.56143,29163.668,15224.273,5178.864,4756.1934,3139.936,28720.7265625
289,-26202.99,-4584.744,-17778.322,-4203.9277,-10031.943,-6809.1025,29158.658203125
290,2777.8896,-15136.049,5258.0723,-1700.9904,-15369.51,2606.2588,33304.859375
291,4266.554,9357.511,-690.6427,-11543.119,35.85196,-1344.7322,21929.16015625
292,13046.149,20368.287,20295.027,11089.992,-8444.741,8606.384,29294.998046875
293,-22277.072,-9971.8,8443.894,2150.8936,-9164.276,-7146.919,33708.0703125
294,-14305.807,9926.655,8192.784,966.8253,-12392.218,-9812.26,36063.12890625
295,-16186.355,-2745.3936,-8183.334,-427.93338,-1561.7601,-3613.368,13571.1259765625
296,-1490.1139,-28372.453,-25098.242,-2018.4913,15715.517,-1162.255,37450.90234375
297,80860.11,81543.805,72575.14,2149.0952,-18383.125,-6457.1426,35036.12890625
298,59221.15,87806.73,76542.29,-8399.085,2480.4524,-8857.159,32976.69140625
299,57602.266,49388.957,26647.63,1758.3668,-4029.5942,-5767.466,30482.57421875
300,2083.4177,429.20016,1759.931,533.8147,511.06546,140.88148,2000.98547363281
301,5885.145,6133.2544,7043.909,797.4625,-19.832851,-571.0016,2000.98486328125
302,26655.33,15083.733,21813.584,-1376.4535,1991.5404,-1908.0323,11393.943359375
303,18382.035,-2364.2068,8748.871,-1645.411,789.6421,4980.065,20192.779296875
304,-5599.636,-27462.861,-4014.4338,9087.958,5221.2744,1824.2377,29235.46875
305,3931.8535,-2074.435,23981.42,9994.575,-2078.9766,-10273.174,34463.59765625
306,-18566.541,-12102.162,-9190.546,12017.105,7242.287,-11540.972,32546.18359375
307,-143.73404,23156.656,7801.934,15086.761,-254.91612,8001.756,36000.20703125
308,-328491.97,-328269.72,-329994.38,70.2974,-656.90643,42.041656,1988.77734375
309,3756.7156,9482.641,-13486.988,-8968.164,-611.40424,941.3439,25960.189453125
310,-10948.819,-12371.033,-10440.548,211.59131,-503.93607,-186.02888,2000.97241210938
311,26557.418,26827.662,25866.844,459.86774,-334.94144,-874.9023,2000.97546386719
312,18083.791,22058.062,21722.654,1889.3458,7538.5254,-2519.9539,14656.80078125
313,-99743.05,-100033.85,-100352.71,-34.374073,-1042.3293,-391.88788,2000.64721679688
314,3591.651,-5538.456,10659.552,14894.784,1322.6467,-6090.1743,31303.791015625
315,24115.307,25505.535,16832.812,17339.936,-3811.8608,4381.8623,32684.93359375
316,386.53076,10905.207,-15421.369,11240.719,10974.088,-5767.64,36972.4296875
317,1354.9668,5759.0073,38188.82,-3718.868,-1191.6609,473.6657,35501.1796875
318,22047.463,25847.092,20242.543,-1471.4995,6335.3564,-3490.212,13711.44921875
319,5106.166,1174.074,-2349.333,-2148.3865,-6090.121,-129.98312,12918.83203125
320,5300.896,6372.371,7249.0127,-511.57242,270.7076,-433.11874,2103.23583984375
321,5773.4546,18575.623,29223.549,-118.763885,5564.6475,5231.629,24261.87109375
322,-9382.433,-16251.437,-4908.0283,-7681.494,9962.678,10299.132,29848.54296875
323,-15301.897,-13981.203,-13576.769,-640.1781,-329.72946,46.03231,2000.98486328125
324,-4630.7417,-5677.097,-5115.3647,906.0117,-264.95966,411.54672,2000.98120117188
325,-19673.463,-14250.6045,-13814.39,-13619.35,-6957.2686,-7023.0903,29691.841796875
326,14331.704,13034.695,19512.637,-7112.626,7741.626,-9344.356,25075.12109375
327,-19976.941,-10776.327,-31066.512,-13963.903,13224.662,-5464.8193,38844.56640625
328,-16062.645,17855.266,1930.9347,-2954.7627,-9931.558,2009.5433,34613.625
329,-21927.68,-18450.512,-38846.457,-2189.3792,17205.68,5296.7197,36658.11328125
330,65375.48,44861.152,33704.316,-1717.8279,13152.629,3063.0598,36471.390625
331,-55376.855,-69032.3,-48929.688,-1472.1964,15780.498,5479.0703,34054.53125
332,-125289.91,-127713.21,-144235.97,-13512.841,8596.019,-5526.9316,34351.4140625
333,185648.88,185404.88,187129.97,572.5286,52.28446,-361.01923,1999.28332519531
334,87381.24,89184.914,87690.02,-22.020601,-177.52844,-609.9997,2000.98486328125
335,1540.2751,133.79788,2114.512,242.37003,116.21712,-472.93298,2000.83056640625
336,34580.59,34554.777,33130.027,-164.92935,255.22333,-743.76654,2000.98559570313
337,5332.1274,-3220.3513,19500.889,-1031.5573,5593.3916,-7028.6797,25304.82421875
338,25094.492,-4488.24,1152.915,16780.857,-486.43185,2573.0635,40067.98046875
339,-17062.69,999.7437,15106.02,-2148.1958,4895.455,3358.74,29993.60546875
340,9740.977,18918.57,-2680.1836,6269.325,-478.3774,9867.343,27626.130859375
341,27904.53,16114.222,14226.591,-3508.8174,10600.614,1269.7452,23317.8359375
342,13214.012,-6374.846,1264.0764,-1726.4127,-1051.7714,-2519.9402,17993.03125
343,4412.755,-2295.2842,27486.46,-8713.248,2816.3215,-219.83826,31366.783203125
344,-5670.643,-421.54657,-15631.37,-9999.407,17915.22,5517.8584,39156.40625
345,20281.412,51116.16,37556.934,-10741.182,-1657.128,395.03412,32731.701171875
346,19822.248,9418.827,725.45386,-6371.629,-5273.9746,5768.342,24068.763671875
347,2445.357,7337.352,-26378.676,-2184.5925,-4671.105,3806.977,33451.72265625
348,7578.8853,18808.832,12317.733,2073.313,-3678.629,-10998.016,22621.078125
349,-11786.35,4564.6973,-21542.834,12223.036,7490.059,-5488.7476,35056.5859375
350,20875.346,16267.734,11183.813,865.66095,-8429.807,-8568.3545,22498.537109375
351,-14623.32,-944.4665,3716.5269,-9098.579,-2933.0505,8569.094,27695.51953125
352,33496.47,29983.193,11201.679,-13769.994,-2694.717,-2157.0164,32181.578125
353,-1662.5625,4576.4766,23991.06,-10205.743,-1033.856,5918.916,30947.6796875
354,10621.569,20773.557,5605.008,-6835.7173,5436.095,1939.1604,20476.140625
355,6111.1445,33018.32,16304.194,6485.0034,3506.3425,-2466.8672,27109.658203125
356,-12853.116,7211.907,-18548.652,11829.519,260.5224,-10647.188,36186.0390625
357,-474.6206,-364.92993,-5886.846,-3644.3164,-1729.3883,2708.4182,10035.93359375
358,126.55469,8922.247,-12511.094,-282.4604,-570.22034,816.7136,18746.921875
359,-19114.19,-11318.169,-1730.3008,-3759.1204,-1429.158,-2267.3245,17070.298828125
360,2963.249,-22059.02,-7459.7905,9143.649,108.43746,409.3249,26931.439453125
361,-27197.229,-26919.287,-26136.52,-171.62941,-501.38513,866.77045,2000.98571777344
362,34318.42,22203.209,13956.367,3500.3242,-3079.0078,406.5027,19503.703125
363,40256.348,21298.203,53136.65,-10384.664,-3789.6755,839.3691,33737.55078125
364,-19620.562,-44545.457,-36995.32,-5814.025,427.27335,-6546.383,26843.8125
365,-332.92932,-10302.179,6963.03,8120.7593,-2231.0408,-2717.3318,21454.05859375
366,-10808.943,1999.0803,6262.886,-5056.061,931.4029,669.55237,17817.83203125
367,-19110.275,15212.578,-9095.215,4387.874,5424.483,2205.962,33094.5390625
368,-20969.215,1643.082,-4578.6777,-507.15482,-4267.6963,-6326.7393,24183.3046875
369,-10635.412,6018.601,11273.922,16720.502,1592.1869,-1906.3986,35351.53125
370,-2073.8264,3858.7034,928.73047,2099.3945,-3309.6897,1052.0691,8706.466796875
371,1509.8206,2696.652,633.0179,4473.3286,-914.8372,634.7965,8183.4990234375
372,-526.1511,-4758.1885,205.72668,16410.22,548.8211,-143.66032,28816.568359375
373,52141.887,45210.625,39993.414,-4021.7761,9582.556,-6672.157,23853.234375
374,-24149.076,-4971.1685,3996.5574,-14355.133,-5110.1333,250.40375,36289.5625
375,-21447.115,632.16504,2050.584,13518.818,-1371.484,-672.0571,32803.921875
376,-25492.229,1443.8486,-7469.0107,-9320.745,2243.7544,220.79613,28996.41796875
377,-37534.59,-39259.57,-27721.113,-4646.1396,8539.269,3349.2695,20817.73046875
378,-6261.189,11765.532,13734.637,645.5905,-15679.243,-3816.0784,33864.29296875
379,-12557.005,7455.7095,31480.898,4435.3486,3752.3865,-111.13061,39494.59375
380,24564.43,12307.198,28493.086,10736.983,7813.7153,4254.7017,28233.7890625
381,-76896.95,-85984.34,-117490.99,-1713.2444,-6090.475,3138.2627,38874.10546875
382,28820.154,18019.72,35688.188,3836.2192,12862.88,-7566.687,30826.482421875
383,1020.7185,3204.1428,-2116.2268,-217.52878,337.27274,1497.081,5353.87939453125
384,27093.203,11507.534,17812.354,8593.527,-12939.184,4569.9736,31158.73046875
385,-5462.414,-10531.762,-15328.432,4232.484,5853.7456,-10957.407,24284.919921875
386,-3357.069,-16881.076,2596.21,-6726.511,-1518.5592,-2770.7625,21553.185546875
387,16422.232,14055.115,10247.353,-13900.91,1943.3053,-254.36766,24906.7265625
388,1040.2648,5998.459,1338.8278,-3581.8926,613.1814,296.89133,7941.9619140625
389,15792.843,-20038.117,3345.4055,7825.925,331.1229,2803.0222,34647.19140625
390,11607.226,-3339.3398,-5086.798,3949.4897,-1398.3179,-1880.0127,17771.791015625
391,-4248.6562,14003.572,-10953.668,2112.5317,1332.3394,2884.5996,23327.21484375
392,-855.9065,9095.8,3727.0994,1310.7667,4246.506,7679.495,17624.0859375
393,27051.55,10955.274,18231.045,-9107.388,-569.8513,562.2909,21110.90625
394,3712.0107,12694.357,9580.708,-11973.212,-1233.5872,1992.0343,22559.982421875
395,43126.88,63773.39,67603.73,493.561,196.44421,-1448.958,22960.357421875
396,19212.291,14383.011,41331.984,-4518.577,5153.6665,410.44354,27583.759765625
397,91348.75,94657.95,59993.26,-5337.6636,-2505.772,8432.94,37623.546875
398,-14512.461,-27342.475,-52239.42,3914.121,8424.026,193.51437,36916.953125
399,9835.563,-2947.844,-10152.955,9574.057,-6257.3633,-5528.9688,28135.296875
400,38385.25,26397.479,52690.16,-14725.01,7098.1074,3450.2986,36839.6796875
401,-31491.9,-27714.41,-38078.145,-17891.705,-2582.1135,4772.9067,33633.4765625
402,-1954.5491,-8864.527,-4666.7476,5115.136,234.01347,7881.2026,17359.74609375
403,-42482.766,-50240.14,-64433.453,16043.011,2714.5996,-3783.2766,34769.3984375
404,-20156.074,-13137.61,-10044.803,11654.471,1808.7057,-4276.769,23509.521484375
405,25187.164,17149.383,15099.194,8099.008,-4066.7673,1955.5338,18524.52734375
406,-13710.551,-12281.315,7336.6846,3122.9688,-905.66437,-5056.038,22877.005859375
407,-1484.4688,3946.9106,-13928.277,1989.1316,-7219.188,-3487.7258,21369.322265625
408,618.4496,6815.522,-9494.311,2097.016,-1948.3351,717.82983,15148.18359375
409,18830.852,19658.807,24499.271,15019.844,-545.71826,-6958.8213,29173.265625
410,19953.762,19761.242,18555.78,-171.4248,-622.5719,-586.13776,2000.97448730469
411,-57142.656,-51269.254,-58835.348,-3624.7034,5270.599,5588.6807,16240.5986328125
412,5964.21,5753.4604,5762.396,46.697292,-832.5548,-790.6247,2000.96435546875
413,-2805.4023,13837.159,10179.793,13188.038,-6019.53,5677.51,30929.966796875
414,-10703.919,-23167.482,5125.8057,12297.736,-2650.4675,-3177.2449,33290.80859375
415,-35118.965,-16952.41,-50144.688,-1800.1005,366.09824,-3492.3245,29588.40625
416,13634.145,13129.061,12858.421,79.15568,-880.7469,-630.59503,2000.98571777344
417,-37089.754,-11989.429,-14392.943,-2489.754,-585.2358,638.5552,24419.697265625
418,14059.273,3663.7314,8105.33,6067.17,1370.4059,-3974.8945,15655.265625
419,-7300.948,-14335.303,-43625.934,3273.7053,-6676.53,2021.1559,35938.8203125
420,3298.666,-18627.406,-12057.415,11088.069,13377.188,4150.9224,36568.25390625
421,-37547.01,-37991.156,-37913.883,-441.6483,-179.48842,1025.2188,2000.98559570313
422,2626.4712,2299.0571,7161.13,4838.098,-1204.5585,4789.438,12866.4541015625
423,-6999.631,-5805.205,346.06787,-4126.1025,6480.943,6278.484,18491.94921875
424,17779.492,-1149.833,-5311.644,-10747.139,5623.8584,4484.1343,30921.3359375
425,-693.20703,-2158.432,8218.325,11584.007,-9900.498,4261.624,29081.458984375
426,-7397.2456,3447.024,-4223.231,-13850.889,441.48706,-4748.8066,27148.337890625
427,-658.5139,6069.4224,1478.4635,812.1945,-5427.1167,-2141.0383,11812.9697265625
428,18126.168,8941.07,11331.999,999.12,-2062.6003,1795.8833,9672.37890625
429,15546.622,5552.04,1215.6567,-5327.3784,4156.177,-1647.2197,17525.42578125
430,26987.021,20703.92,58139.445,-1413.2848,2608.729,-3901.739,35745.82421875
431,-8847.0205,-2810.4512,-17878.592,767.68176,1613.1232,-1467.7667,13731.9580078125
432,-33999.5,-5932.7017,3076.802,11578.213,-4308.197,-624.2668,39759.27734375
433,8564.513,-1482.6548,2597.049,13480.0625,-7273.189,4785.772,29140.091796875
434,-10405.37,-17427.178,5628.341,186.00255,2969.7625,1524.635,21272.21484375
435,1749.3928,1820.0774,3069.0889,2236.399,1881.2369,1848.914,6126.20263671875
436,-98218.11,-111521.08,-76650.21,-4693.9473,-899.0667,3246.306,32081.150390625
437,11404.055,-2885.2656,26265.852,6726.3613,139.68117,-2815.3147,28231.02734375
438,18568.31,4932.8477,8296.093,-6826.2583,-399.36554,639.6055,17113.650390625
439,-80040.96,-113594.04,-82458.36,276.81165,820.23364,-3008.048,32862.36328125
440,-30073.855,-25837.223,-5107.4893,8969.301,-2025.6094,2721.867,28484.6484375
441,1954.2761,6780.165,1054.1235,4352.087,-3210.2012,1105.2404,10947.435546875
442,30326.703,27850.676,45458.203,14388.076,-8435.544,-3037.6826,33686.3046875
443,728.709,25601.12,37371.418,-9422.4375,-2225.0825,5833.3066,37857.82421875
444,16088.219,8904.161,11218.756,-2020.7402,-1196.6891,4459.3545,10795.54296875
445,-4981.563,-382.80664,-3063.2097,-2865.5176,167.67455,206.41882,6391.583984375
446,-14550.811,-17815.15,-24464.602,10712.293,-6712.0127,494.93506,23595.021484375
447,-2782.437,22130.807,2072.3604,5967.837,3814.6628,3751.6936,26758.47265625
448,-22723.086,9475.121,5925.545,-9217.2705,6650.5283,5966.4346,37807.296875
449,-1549.9398,268.8422,8621.915,-12211.862,-2647.3928,-4411.4683,24800.6484375
450,-7124.4424,8732.721,-22067.475,-13112.974,-3867.4304,4548.764,36530.71484375
451,-3548.796,-17715.996,-33619.035,12166.375,5836.7856,-1320.3566,35077.2578125
452,5278.2495,9079.398,-5442.571,-243.16019,1653.7098,-1435.9711,13590.580078125
453,12166.198,11462.88,-1073.248,-3794.0918,7051.8613,-1575.5986,19138.580078125
454,-27211.926,-49085.395,-50649.637,-7514.178,-11041.148,1088.6469,32461.9140625
455,-44611.938,-23549.36,15.152344,-4710.7446,-904.18414,1882.0424,39685.01171875
456,-2437.916,10430.353,7129.0547,8722.722,-802.853,-7420.8057,23008.810546875
457,-6445.8,-2652.9653,1499.4431,87.83744,2432.3638,-1529.4103,8495.1220703125
458,-705.5596,-18798.219,-27581.57,14592.624,1604.3752,5502.285,36066.4296875
459,870.733,-1991.3406,-1744.1672,-1817.0946,-1305.6077,3541.2656,7757.97314453125
460,5780.031,6799.3936,12090.533,-2651.6946,1243.1973,-3043.956,9378.53515625
461,111729.9,117298.8,147699.66,3910.632,-1614.1193,3007.9626,34718.33984375
462,4752.6445,26699.1,23007.273,-14246.862,3538.88,-715.15875,32592.615234375
463,6663.659,1517.8302,-10836.399,-3788.0344,243.6318,-2795.2048,17588.19140625
464,4455.65,-1300.832,9439.516,-1535.32,1730.2126,-457.34146,10165.9013671875
465,19828.352,-505.3457,13943.971,-9095.577,-3296.3054,4782.0376,26035.03515625
466,-13913.412,-24882.395,-27555.21,-18686.072,575.98004,3988.707,35397.92578125
467,-52093.258,-38581.9,-37144.227,17188.77,9098.932,3869.8203,37198.23046875
468,10612.612,965.9824,252.70435,6339.005,-4237.9287,-3476.8596,17639.208984375
469,-20094.195,-9295.511,-42375.938,5713.417,5889.2915,-2241.1167,32722.310546875
470,9100.76,5577.802,2908.0002,-5371.883,-3337.3293,-2195.8818,12782.6064453125
471,-36191.05,-40501.5,-1866.617,-2845.8184,-4476.1763,-5411.269,38948.046875
472,-48440.12,-30327.932,-21684.115,10593.094,2985.549,1456.9235,30480.7265625
473,29454.25,25683.94,13955.141,5112.3877,3291.9453,3822.9775,18728.771484375
474,-6574.357,-11299.834,-16037.592,463.46304,2143.4287,6259.094,14111.0126953125
475,-2887.5,5607.9766,4055.6394,-63.763443,-10040.858,-1098.6008,19169.884765625
476,9743.684,27875.299,3126.2783,-527.6205,1166.5292,5308.71,24124.5625
477,-21473.754,-11829.334,2000.9697,11152.459,-2288.3298,-811.6398,28434.048828125
478,1935.1338,4769.188,483.09058,954.6533,-287.35834,2231.6672,5672.59130859375
479,6291.024,-914.1167,5571.8867,-3456.9714,-2124.788,-714.90564,9908.5380859375
480,-3667.393,-446.4829,22062.857,-1922.6329,810.0158,-103.818245,24548.634765625
481,22172.285,18993.49,5283.742,11952.703,4920.8096,-6786.604,29682.66796875
482,-8931.016,-5310.8647,-12618.648,-468.8442,-990.93787,5968.1313,12268.4560546875
483,-3387.8787,-1905.0271,-8702.22,6541.825,-5918.1943,2527.815,17057.330078125
484,-9317.2295,2952.3682,-6593.966,-9778.068,1385.1803,-2147.1003,20759.671875
485,38675.695,31464.104,2535.6387,-1638.6097,8577.285,-4221.2285,37144.37109375
486,3993.4111,-2461.105,10185.852,631.29877,2391.257,1661.1912,12108.0517578125
487,5361.213,11442.222,2683.7285,-874.16156,-1258.2417,-2890.56,9619.6357421875
488,-14470.727,11354.852,16973.295,-12902.586,-972.21216,-2108.301,36867.703125
489,-51214.83,-24967.604,-27116.752,-6060.9214,-5231.6396,5179.4487,30164.896484375
490,-2219.3096,-7500.2285,2401.2197,-4696.8135,-2270.6301,-1537.2999,12742.6591796875
491,-878.6758,4685.6074,10270.028,3940.662,-2190.4578,-4186.9355,14380.2763671875
492,-12091.838,-11013.466,-37665.66,-5752.4624,-506.3322,-1709.4169,28134.83984375
493,-6841.5137,-17366.875,-3427.915,13198.096,-317.7817,-3750.6875,26896.84765625
494,-6027.198,11249.596,-2089.1885,982.1038,-777.47296,-2281.339,16318.08203125
495,1101.7485,-6590.477,-3822.5781,11376.852,256.84952,2109.0112,21151.365234375
496,183.70508,-21352.012,-7820.7754,982.97125,-1549.2195,1421.9567,19278.001953125
497,-156.88501,-8566.124,-3800.6719,-1125.2216,-362.46786,-1629.4648,8093.7626953125
498,2372.7935,-5723.2876,-3504.1172,-7917.454,-645.4085,-2806.4138,16292.3427734375
499,-2825.3435,10503.217,-2975.9656,2197.4985,867.6133,-219.04526,14020.341796875
500,5760.5,19052.059,28600.54,-15890.906,4561.1616,5096.7812,35953.58203125
501,-26615.79,-12088.926,5256.2207,-2412.0635,-328.32043,-2658.275,28334.279296875
502,3143.9,9579.55,1878.5671,3011.32,-111.40528,-1355.2542,9160.4267578125
503,-3282.768,-1409.2183,23393.463,-9892.401,-3463.9282,-3309.0295,32055.833984375
504,98176.36,95725.39,93918.555,-9615.393,-13099.158,-1257.5928,28470.619140625
505,-9792.121,-13738.183,-15686.137,17663.562,908.1454,332.57074,31078.3359375
506,4428.093,-3143.062,4290.7695,-1263.1035,-417.87665,2554.1755,9010.1689453125
507,1246.6606,8174.333,8286.505,-526.22186,2137.2756,-339.1151,7978.83984375
508,-31547.715,2953.1123,-328.93652,1306.5741,1606.6311,-809.3643,33206.56640625
509,-19964.307,-482.63477,-3335.4043,-7041.875,960.94965,-803.0891,22035.568359375
510,-5287.339,129.87646,-17005.564,7152.018,8532.885,-1659.3474,24704.005859375
511,1402.9006,7346.665,1748.3066,-3656.64,1626.3544,1130.2074,9234.439453125
512,-99806.664,-74913.45,-66816.54,-13103.139,5409.854,789.8921,38620.4375
513,-53067.32,-32305.645,-17865.117,-2654.0833,961.7977,-1286.2949,31116.826171875
514,1077.9067,-248.97797,-3980.329,-6405.408,-1270.769,-2751.316,13087.2548828125
515,-46262.766,-25460.396,-28468.074,-12276.577,-1596.3619,359.37073,28972.287109375
516,10103.01,-13872.953,-20256.67,6367.309,7496.291,-220.10895,32542.4453125
517,-7599.3047,438.01904,-8806.976,-3635.4634,-2752.1921,63.244446,11753.677734375
518,7106.52,1168.9949,2265.4214,-5878.1714,-1566.5944,-4997.5254,14693.3125
519,-9422.538,-10248.427,-8792.706,-1715.2084,133.75186,-329.7064,3287.02880859375
520,-4164.8335,3388.941,-5606.0474,-1785.3848,-1353.969,1611.2687,9637.1298828125
521,-9983.485,-1606.1074,14725.023,6233.999,-3780.3884,528.42896,25179.322265625
522,-12522.398,-12310.532,-8564.212,-7791.686,2726.755,-480.5334,14832.4970703125
523,-9755.306,-6954.665,2048.207,-1000.351,530.37585,-544.77527,10901.6259765625
524,16813.586,18688.592,15893.958,6512.392,-8605.5625,-2300.1196,19270.65625
525,-8741.2705,2599.0593,3731.2905,-754.8482,544.7866,3937.0305,13850.1005859375
526,12612.149,-7659.101,-17057.941,-16297.366,2783.5356,-4427.1323,39606.1015625
527,-19166.27,12975.45,5926.8403,-11838.687,-2019.5839,-3662.8953,36457.765625
528,14340.596,23874.39,32504.871,821.7388,343.93304,-325.01147,15822.6796875
529,-1283.8916,1324.5752,25484.143,8852.044,-2905.0508,1911.4008,30411.552734375
530,-6384.9287,-11581.831,-8827.761,-4136.7773,-1179.7189,2103.9282,9437.880859375
531,-7104.849,1502.458,230.91309,12129.567,1900.0536,-1363.0452,22859.166015625
532,288.02856,-6470.415,-641.06665,1140.854,-669.3054,1177.7332,7047.712890625
533,-6314.041,9018.218,4564.0605,405.2337,1589.5668,1345.9048,14146.822265625
534,-15836.686,-16417.055,5616.299,11408.68,-154.57698,-3150.422,29888.779296875
535,30194.64,13118.713,7416.8926,55.83765,-3151.376,13.427571,21243.005859375
536,-3451.9297,4518.7256,1715.0912,-40.7752,789.9331,746.98364,7252.29833984375
537,-9753.395,10513.255,-1040.5956,-8097.8003,94.96618,3804.3176,23457.181640625
538,16577.424,19309.654,21574.986,2250.405,-878.9788,-1181.1829,6362.59228515625
539,-24048.068,11366.052,8870.143,-4160.9946,-4150.5938,1693.6813,35836.13671875
540,937.36523,-14092.328,-4450.8193,-2581.509,2232.8093,-309.50134,14462.9775390625
541,-1199.5083,5698.116,4786.1177,-5905.8706,1177.0955,1947.877,12739.529296875
542,6078.585,-1716.375,-368.88416,-1173.9664,536.7497,-253.3412,7567.35986328125
543,7169.662,-3666.4956,-3032.3523,-5673.5454,-279.65366,1174.403,14556.525390625
544,-8366.165,4234.3267,-4180.8013,-16300.343,-1393.7975,655.1019,30459.333984375
545,-23042.297,11160.551,10301.303,-6281.3423,-2373.5972,-1561.7506,35829.7265625
546,2407.9788,-614.6372,2748.7988,-6294.7817,-2355.1592,648.947,12126.7919921875
547,6940.3594,16944.078,5114.0127,4818.467,-625.9273,-3921.2793,15447.9033203125
548,16787.96,704.522,2069.794,7549.767,-335.4032,-974.2553,20316.609375
549,-11462.443,-7544.824,-9354.117,-789.662,-682.9301,-128.93944,3853.94799804688
550,-5264.6787,-2204.8896,4257.5664,20281.514,-2.891996,-2430.3435,36368.09765625
551,11178.695,13004.037,7499.458,-263.07547,1989.8739,1129.6638,6284.85205078125
552,-20654.844,-686.55664,3447.44,2904.958,-991.60065,1230.9398,23047.408203125
553,-2383.5454,8179.0303,-1396.92,-1205.3125,2493.196,-1968.0397,11693.84765625
554,-8903.485,577.85266,4282.914,-7876.5596,2351.7913,4676.5913,20176.150390625
555,-5461.4062,-11243.623,-7958.164,-3652.2559,-1950.6709,3516.793,10666.15234375
556,-3999.1104,-6782.8564,-2940.2822,-12111.474,317.26248,-445.73047,21278.609375
557,-8043.2593,-931.21924,-7328.7554,21264.387,-3718.3564,-3004.0073,38354.703125
558,-14724.244,-7793.254,5780.8687,17520.076,228.43687,4117.1353,36031.17578125
559,3098.039,1832.7667,3389.7988,-1468.2498,-1539.9354,17.80469,3954.44287109375
560,2671.274,-3689.8657,-1415.7235,-769.599,580.1137,-721.9133,5959.83251953125
561,-457.32568,7795.4336,-2023.814,29.798508,-172.45056,-297.56247,9156.8154296875
562,7799.726,14175.375,2352.2163,-1337.5114,3652.75,-3870.763,13978.5068359375
563,-320.57495,-9177.946,-1263.0815,-2987.623,2474.8928,3129.1697,12063.2197265625
564,2200.2559,-3574.329,-756.5747,-2371.7092,785.14874,-2320.8567,7739.36181640625
565,-5726.2397,-1975.0771,-662.2229,21108.941,170.0712,365.1078,36850.62109375
566,-11501.885,-11093.186,7729.5166,10530.631,-1292.3134,1931.0408,26665.2109375
567,-2255.875,2338.2705,1322.4214,-7711.557,205.01518,-613.4516,14040.3193359375
568,-5939.3564,7893.2705,6132.1143,20115.783,-555.6095,871.03796,37245.37890625
569,467.77197,19853.299,984.6084,18148.398,-7105.463,176.90013,38803.3046875
570,3791.6477,28993.1,43127.332,4870.1255,3439.99,574.9995,36038.03125
571,-3866.713,-3666.143,1599.1953,-3382.667,606.0742,1455.2955,8402.560546875
572,-13035.119,-23416.664,-13378.826,6832.9297,-6120.6616,7499.5244,22923.98828125
573,75483.54,66375.72,33630.645,164.81184,-4782.003,3206.531,39407.58984375
574,6955.103,-535.2385,5575.602,10475.631,1482.0613,173.09042,19584.974609375
575,27011.51,9720.404,23987.824,-1055.9922,-2862.84,4300.097,18418.67578125
576,-7614.112,-14566.089,-15417.292,12377.666,-3077.4421,-2552.8335,23718.236328125
