Element Label,S11,S22,S33,S12,S13,S23,Mises
1,13663.039,12876.8125,4194.4883,3118.913,1915.3147,158.98598,11094.6455078125
2,10619.568,11219.492,-4602.0513,6312.7935,-1835.2858,932.91815,19325.095703125
3,26258.861,16594.123,9716.05,-2192.0925,1702.7,-5053.5063,17519.046875
4,17849.598,14455.712,-6246.3145,2734.6,-378.46744,5387.4688,24905.642578125
5,26632.291,13560.643,-1177.4855,-254.11757,579.14215,-480.93655,24137.64453125
6,6327.678,14283.423,1131.0332,2770.93,53.30454,-2443.3132,13137.5107421875
7,19034.832,20591.99,53.14151,-1237.7626,-1107.3501,-2568.0183,20502.3359375
8,12171.712,3585.287,-5163.151,4210.4595,-1589.554,1418.3705,17093.2421875
9,25670.707,14935.843,4553.7725,-3518.5137,2771.2852,-3856.2612,20958.6953125
10,21481.336,7894.397,475.89883,-608.5468,971.42883,3274.682,19404.802734375
11,17681.469,15094.784,5280.409,-3451.3113,382.13513,-1394.1552,13053.86328125
12,16016.259,17761.959,-7616.878,4787.707,-4422.4565,-47.17418,27023.626953125
13,18515.568,16791.01,12662.614,-2112.2522,4034.9404,-3162.4985,10925.5966796875
14,-9642.912,1716.5107,-12933.986,1761.369,-11537.204,-1292.8818,24308.341796875
15,41966.81,29375.592,12257.228,-9750.144,-1331.8297,5406.889,32331.69921875
16,4990.8306,13337.761,4412.319,-3263.6733,1577.6718,16516.355,30538.93359375
17,11219.745,6257.6523,10743.182,9522.799,-5400.7905,2507.6306,20022.638671875
18,9624.42,-3228.6008,-29210.717,890.3504,2228.9426,2854.1353,34870.3359375
19,1972.4398,-3065.6143,5651.3374,-1488.2534,-2521.3052,802.3372,9224.837890625
20,11956.586,8914.603,4348.5264,9275.707,-8510.573,-13351.282,32467.96484375
21,19319.506,-359.0031,-4663.151,890.5886,-4461.734,-2726.6052,23976.498046875
22,-28909.834,-37624.28,-26248.098,-3533.9407,-3914.104,2886.601,14650.8095703125
23,-25556.516,-21195.396,-14652.214,1705.8522,-4307.4297,-1950.8861,12890.9931640625
24,-2556.8843,3403.3296,-12246.951,9981.564,-6587.8174,667.64,24851.69140625
25,3956.1433,15866.263,-14163.237,3200.9468,9356.138,8986.462,34951.203125
26,23521.988,19861.34,6605.3643,1292.2117,1369.17,10897.935,24588.10546875
27,29570.807,28924.156,30952.186,-1231.6927,-14239.037,10018.794,30284.486328125
28,22469.293,6750.3374,-18374.21,-1767.4781,-2282.5698,-3572.0615,36558.73828125
29,8822.189,15056.414,-2727.1492,-4519.5444,-15907.62,1613.3367,32749.021484375
30,21403.646,16317.89,-11590.82,7267.979,-191.62976,1130.1106,33303.3046875
31,4636.7603,10764.125,1786.6627,2494.8767,-16097.271,-2908.1514,29741.267578125
32,16738.857,10727.305,-84.41561,-318.45096,-20834.861,-2759.4868,39286.76953125
33,9083.714,15680.095,-427.68594,-2918.2922,-16225.226,8713.34,35210.9296875
34,15520.912,3696.8225,-3918.9717,-2572.917,-6427.2544,5841.1304,23108.529296875
35,18740.332,-1377.0865,-13086.577,-1062.1882,4040.9265,1004.9847,28858.091796875
36,3099.9043,9649.034,9049.34,4459.5137,-19398.422,2877.5017,35393.8046875
37,18783.78,11201.29,-16532.121,-1412.8275,-1387.7477,10811.035,37407.5625
38,9095.475,15818.102,13758.789,3313.7214,-17907.723,8531.141,35340.25
39,6861.9414,2395.116,3532.0332,2680.6902,-2531.961,-589.26044,7615.71826171875
40,7810.482,1569.3496,-666.5486,-344.02872,-13299.84,9331.279,29157.09375
41,13094.14,-547.19556,9623.383,-11449.748,-8888.336,-12333.425,35177.04296875
42,966.229,-4906.399,-16214.164,699.73975,-9738.119,5930.9575,24904.822265625
43,-17256.205,-33410.902,-33554.09,1853.0812,-4408.9414,-15035.131,31781.93359375
44,-11598.761,14635.189,1332.6189,858.4269,1630.3197,-2271.831,23278.05078125
45,-9471.397,-10334.9,-10330.82,-845.5915,523.97107,-312.20544,2000.81469726563
46,-7710.1416,17193.215,-17322.555,6920.817,2610.5498,2716.5562,33737.7265625
47,3928.7944,-5454.883,-3430.133,3110.8242,-14608.212,-13628.94,36050.36328125
48,10390.877,-15808.173,7066.064,8668.863,-7803.324,-12744.023,38803.23828125
49,15081.566,6439.676,-2172.1555,-969.2223,1535.642,-13314.079,27657.82421875
50,12405.221,16174.443,-1373.0349,4648.685,-1208.687,-8391.38,23161.17578125
51,15801.365,5126.4023,9750.281,5453.896,-10567.454,-9497.902,27943.763671875
52,22237.11,5417.893,9915.367,-2887.823,-9337.904,-12772.825,31678.263671875
53,18857.521,6024.209,7473.342,1390.7903,-3170.7039,-21601.807,39800.42578125
54,17643.062,14005.862,21919.559,1807.3109,-3356.0862,-19744.832,35499.80859375
55,-2193.7603,12527.898,-9722.059,9103.332,-4004.9216,-3618.7158,26837.41796875
56,22016.307,17358.227,19157.254,-5039.7446,-1784.1991,-15196.406,28197.404296875
57,14071.0205,10775.4375,22703.777,1397.9597,-1676.5845,-21557.605,39016.9453125
58,4937.4062,426.77884,7870.663,350.77316,-8394.323,-19288.65,37014.859375
59,-776.12726,3431.6099,5969.522,-4425.731,-8405.536,-12674.694,28062.232421875
60,-12354.162,-6358.765,-3684.4092,9540.533,4426.9424,-6674.6494,22905.07421875
61,4979.4434,-8343.295,9573.673,2889.2473,10434.353,3573.4424,25490.95703125
62,-6781.968,-6219.16,995.5085,1164.433,18447.479,2720.1,33220.80078125
63,-5747.2,-1206.3997,-4297.414,8703.886,12545.395,-2257.5466,27034.435546875
64,-464.90845,-14492.748,-314.79117,225.71165,-5690.044,-11072.919,25768.583984375
65,7078.185,14757.048,28680.887,48.11761,19150.041,1693.5642,38321.546875
66,9327.198,17385.012,25476.393,1190.9395,16274.027,-5564.93,32974.078125
67,901.79004,16871.326,6389.179,-1189.0712,15925.966,-810.4699,31058.458984375
68,19806.145,7441.6987,-15856.417,-287.9851,5651.1772,8946.795,36331.0
69,7286.3447,12755.182,17922.592,-2057.3477,17562.512,969.64075,32026.771484375
70,4072.219,15359.406,14160.64,-690.3935,16578.486,-601.56415,30697.90234375
71,17921.273,20250.006,27971.828,-362.0115,19510.63,-6365.945,36701.42578125
72,21503.084,29075.229,42245.31,-3637.7715,18122.006,2801.4438,37134.6171875
73,12547.732,11406.073,4960.5435,99.42518,12763.334,6063.976,25480.580078125
74,-2238.7427,14768.912,7470.783,-5450.9307,18432.697,-1847.0513,36565.89453125
75,14420.523,14496.892,15506.417,-831.8093,18778.684,-3601.2727,33166.27734375
76,17564.262,4469.537,-13549.767,-3140.8984,-1985.6063,-263.07648,27816.47265625
77,9956.686,23749.043,31917.178,3279.2517,16600.682,-835.05884,35081.4140625
78,14138.576,6078.2266,-3723.0713,-2439.0842,15690.445,-4281.827,32426.16796875
79,19160.041,21616.074,43517.758,2208.788,9806.212,-8027.7734,32186.396484375
80,4866.2866,18848.234,29356.469,4392.4277,12055.787,-1843.3867,30934.509765625
81,24978.129,21459.611,27720.21,2993.3257,4832.9297,1264.7855,11458.521484375
82,32949.07,35184.75,34256.062,-4135.489,-2686.4175,-1517.5669,9146.0830078125
83,14087.226,11010.972,4672.675,-2861.9094,-2260.1245,3535.293,12104.8134765625
84,14353.856,9210.732,19718.572,7590.0693,-6075.8403,4446.4,20632.734375
85,14909.813,8945.761,23673.104,9035.39,-7708.238,8540.315,28400.818359375
86,7806.4395,25032.898,-6517.012,3655.5469,1170.3435,3671.4785,28866.796875
87,8699.365,15443.018,-3584.9966,-3629.4182,7165.1963,16743.916,36246.90625
88,7051.9805,14218.932,-10252.365,2865.457,210.15468,1460.8423,22494.26953125
89,15760.011,17618.96,19375.855,5001.834,5807.5693,15989.605,30871.498046875
90,4344.609,13008.812,1176.6202,-1882.6434,-9155.546,9184.814,25054.744140625
91,7267.78,7605.2695,-18952.678,-4978.218,4759.639,3187.6858,29483.3828125
92,7095.574,16594.79,2815.4954,5743.8374,6963.0415,10969.998,27471.09375
93,8069.9546,10488.053,8799.947,-2358.9026,-8478.813,18264.654,35181.98046875
94,7437.459,-9630.982,-3073.9043,-3594.1748,-6195.3623,18316.277,37185.5859375
95,15584.218,20515.455,19113.625,1026.6161,5011.121,-5491.938,13724.0458984375
96,-2405.621,13017.186,1826.5483,1085.4297,1934.672,-2896.8867,15180.2998046875
97,4048.9917,4754.801,21272.154,-1678.0214,-17203.322,-6082.973,35948.53515625
98,20877.182,15683.61,22480.32,-1453.8593,-17214.836,-4197.5635,31402.55859375
99,16353.071,26353.162,22912.332,-267.78,-10476.993,-13369.779,30711.607421875
100,16952.658,7778.878,-18094.725,-2364.518,8192.73,1593.6536,34881.4375
101,6004.164,19836.814,4295.4097,-480.04626,-9613.674,-2770.0474,22778.88671875
102,16361.888,13242.068,18368.986,660.1881,18399.355,-3888.663,32898.40234375
103,16825.719,34799.645,34104.27,5576.059,6960.943,-1228.646,23541.81640625
104,19212.84,7555.599,11945.455,-1875.9146,-123.31072,-17823.195,32674.0
105,16341.358,11164.591,27634.385,3723.802,-9083.39,8535.714,26841.982421875
106,22180.219,37133.48,30662.059,-3864.1072,-14628.539,8671.135,32879.36328125
107,15486.175,16608.568,11616.546,-5338.3755,-13009.371,-14316.376,35052.515625
108,12031.266,14941.116,14418.469,-108.019714,-13328.217,2067.6658,23516.044921875
109,19650.906,22334.809,19011.932,4453.2534,-16717.59,2410.3613,30408.6171875
110,23882.87,24062.947,-2256.6055,5077.856,-2378.3367,-1844.5103,28152.1171875
111,21946.793,19962.469,11577.496,-115.3472,-16083.011,-5555.408,30975.814453125
112,-5659.224,8724.693,19775.43,4026.8513,-15068.933,-1447.146,34987.37109375
113,15917.947,67.370705,6027.8413,3897.5635,-982.6053,-10507.712,23916.451171875
114,12533.046,-2811.2063,-2357.215,-1362.6653,-15128.5625,590.1167,30363.162109375
115,-732.2504,-19079.48,-17621.418,-404.10825,5335.3906,6590.4727,22982.330078125
116,11193.364,659.39764,-5518.3843,-6794.624,2777.2341,5297.3447,21448.34375
117,7570.5757,6002.4033,3144.0984,-4200.007,16266.141,709.54865,29382.033203125
118,13567.969,23974.812,34287.59,-953.68744,18525.172,-1938.4174,36953.0234375
119,19435.307,6179.205,-17800.309,-1686.1151,4154.6167,5106.6504,34744.2265625
120,5341.277,11926.352,13399.684,-6971.668,14543.211,-103.4781,28906.669921875
121,9508.461,-226.80864,-12884.445,-1348.0743,14928.086,317.20505,32442.46875
122,1832.9406,16115.545,18284.244,6419.05,17028.637,2359.6018,35354.0625
123,8105.604,14217.148,15933.266,11796.164,12432.887,-2991.7202,30964.71875
124,20.527851,8974.69,15136.64,1995.519,20078.523,-6923.5156,39223.90234375
125,13588.909,5530.7793,12871.147,-180.43861,-10504.878,-13571.268,30714.130859375
126,4677.3794,3785.6194,17067.242,-1262.5841,-18342.797,-2512.2158,34618.5390625
127,18196.855,1656.2799,-8779.134,-8206.295,9056.508,-1838.7227,31832.83984375
128,14754.5625,10422.128,24540.076,2902.8208,9.317653,-21201.654,39124.55859375
129,6211.1934,9174.6045,-8938.097,-762.3641,-245.46535,-12690.207,27716.869140625
130,11102.767,19199.674,-5742.321,3300.5925,-4119.2256,-12672.123,32419.806640625
131,3562.3066,24052.842,-4363.422,883.0827,-3496.916,-8500.283,30014.509765625
132,4157.4985,10464.626,17427.646,12401.85,1171.3574,17657.23,39154.1484375
133,-1848.5831,3148.7466,-13016.983,4508.283,-481.3378,16546.453,32993.07421875
134,3794.474,25731.451,-2323.1262,3013.6604,-2986.9395,3865.3293,27416.998046875
135,17463.365,17581.143,6060.258,-2691.8215,14233.425,9194.06,31851.041015625
136,9968.22,16039.801,828.52673,2756.989,-12644.539,-4374.846,27124.9765625
137,5103.5347,-514.7391,4859.7935,7174.588,1262.601,-14644.606,28859.228515625
138,5867.5186,15601.061,-7679.012,-777.7435,4775.324,5203.3643,23697.19140625
139,-9266.225,-1808.5365,-12020.08,2038.9802,5003.8174,5129.182,15819.3125
140,1186.4636,-2618.3567,28024.521,3594.9392,-3829.4546,4299.581,31226.529296875
141,8912.825,-16952.91,16303.104,4579.2827,-9368.795,-6407.6987,36935.2890625
142,448.85596,6991.5186,17510.219,-1302.2098,15610.949,7371.854,33488.7265625
143,17692.848,30874.213,28163.34,5421.4727,16829.184,-2075.0176,33107.7421875
144,-334.73746,15281.045,20691.45,1471.0443,15367.607,-2204.8455,32972.39453125
145,16131.714,17821.844,20559.87,-1788.9753,19300.484,-4963.206,34871.31640625
146,6170.3296,12161.577,19922.764,3246.47,20771.19,-683.1818,38340.265625
147,3915.2715,17911.799,17537.863,-676.14716,16640.09,1723.5043,32121.169921875
148,14935.011,3079.5796,-17775.838,-735.3732,12823.009,5594.1396,37570.51953125
149,-4317.9224,-6889.371,-23879.984,-6616.722,-5869.329,-1860.5214,24167.302734375
150,1625.8613,-9820.678,-32032.928,2683.1523,-2763.6157,-1078.8445,30441.138671875
151,4376.068,18307.168,22531.115,-1926.4933,11750.292,3030.6836,26900.908203125
152,8436.638,18568.88,31308.576,-2286.8208,15939.715,-2048.909,34417.29296875
153,8310.644,3650.86,1109.834,9131.673,-2362.1685,-9492.589,24025.83203125
154,17557.871,3833.774,7737.285,3764.998,-14989.468,-11842.871,35879.73046875
155,20803.484,27717.709,32898.246,170.91304,93.8317,-21561.604,38798.015625
156,19154.578,-4668.462,20709.56,5422.074,-4159.762,-9426.016,31837.97265625
157,-989.4733,6247.9805,7604.453,5120.493,-9722.914,-3047.9233,21311.29296875
158,21666.553,21698.158,24109.234,-1670.9983,-17205.7,622.5436,30058.91015625
159,12221.592,11328.3,4714.585,-5227.0776,-14025.0625,-12941.168,34999.18359375
160,1835.502,17380.172,4585.9854,-3609.2227,-19125.666,-2838.5537,36973.9296875
161,5378.406,13033.259,20439.383,-920.69543,-1912.2023,13117.234,26454.458984375
162,18102.48,9911.61,8480.091,2992.7034,-5191.3516,16987.928,32470.806640625
163,-3615.8623,-3978.417,-11132.762,3338.6309,7840.0845,19999.037,38361.88671875
164,3650.0613,8374.523,1921.773,22.343702,-6293.561,9224.709,20188.77734375
165,8621.721,2861.222,8972.118,5510.974,-6789.73,19703.482,37807.671875
166,18403.941,29517.746,23887.273,-6553.3013,-7948.823,-17296.758,36174.09375
167,4865.765,11327.753,-3009.4607,4862.2466,-4491.9985,-18455.666,36165.72265625
168,6165.64,10947.851,-15023.423,1798.0891,1662.3181,-6996.619,27166.59375
169,-3718.6108,4287.1055,11865.945,662.3059,-8955.225,8468.688,25283.6796875
170,6135.1973,15490.809,4725.5376,-6721.7695,11515.539,-3459.7124,25922.599609375
171,115.725426,861.2498,-21134.5,10417.097,6326.247,2008.5073,30425.06640625
172,14441.659,12869.996,7456.806,3576.2124,-3873.7815,-17443.951,32195.359375
173,14398.422,14590.365,2171.411,4596.938,-6708.137,-8631.436,23953.734375
174,-421.44186,16668.174,-10984.005,5730.6455,6705.528,1126.1569,28659.216796875
175,5504.396,20184.902,20400.428,-1877.3638,16589.24,1139.9471,32539.333984375
176,12317.888,11596.271,14069.172,931.3997,-1692.6786,-20404.877,35568.6171875
177,11710.789,11459.102,5018.572,3341.5312,-8696.503,-1293.5258,17566.142578125
178,3070.4272,17914.31,-8871.575,-798.0671,7109.453,2522.922,26699.384765625
179,-4530.969,18294.715,-19798.412,6461.0835,-8023.3135,-1503.4653,37785.3828125
180,23598.914,1129.5253,-6830.2886,-3306.6597,-2979.9434,-644.6243,28421.34765625
181,17614.23,2824.6865,3795.3057,-8914.674,-8019.3784,31.552034,25232.244140625
182,22235.791,19961.496,12171.74,1342.4084,125.67011,3952.5046,11657.158203125
183,8616.191,16724.795,9955.16,776.2679,20274.725,-793.24133,35966.2890625
184,4664.503,10508.176,5707.7266,-1033.5344,-2893.599,5668.0996,12403.4658203125
185,-37448.348,-54015.67,-49963.41,-2117.9153,4159.3726,-2657.6404,17615.587890625
186,-1720.0908,-6100.048,18631.414,4384.8364,-2784.0107,363.72147,24573.072265625
187,3415.6099,8310.911,-8094.847,10657.693,5929.756,-1313.0026,25772.4453125
188,-8942.017,-14892.179,-7667.212,-4377.456,-2510.2566,-2798.5283,12020.8427734375
189,7561.2583,-9439.356,-19537.506,-1443.1809,-4952.925,510.57834,25363.22265625
190,27362.174,20194.87,12005.745,-11030.902,1499.7068,-6859.3867,26269.169921875
191,6905.653,3489.5576,-19338.086,3227.158,-7828.465,-3189.4036,29263.7578125
192,16375.947,17152.777,-6882.6445,-7084.777,-8215.763,2402.766,30496.423828125
193,23364.855,8866.923,2086.594,-444.06558,-2749.1165,7886.674,23755.568359375
194,22336.654,18810.867,4713.7827,-1680.0317,-859.84705,-2424.0547,17005.173828125
195,15490.65,4068.4707,-17847.037,-4061.811,-7000.407,377.64755,32527.1953125
196,28467.863,16323.859,-4223.531,-2588.6912,45.778862,10416.006,34129.01171875
197,18946.826,-10480.897,18932.242,-4170.845,2125.206,1132.1373,30580.130859375
198,22582.102,5688.202,6649.1895,-2675.38,-6456.7305,973.24225,20481.09375
199,8207.267,-10325.372,-31787.197,7716.7803,-3615.365,920.27545,37712.23046875
200,6863.885,-15636.312,-30649.512,4235.5166,-2515.4788,4668.2817,34751.046875
201,10668.777,13334.336,-14599.278,7261.4927,-8012.761,2048.5044,32807.3671875
202,13705.222,9457.412,8403.768,11794.945,-10396.446,-2135.8152,27909.4140625
203,8745.986,5349.9814,-17436.266,-10159.302,-10466.237,-7257.864,37475.57421875
204,18149.594,-13863.44,-18025.486,1101.7843,3722.4895,2309.5505,35165.484375
205,14467.643,-10518.685,-11832.627,568.15094,4337.895,4264.1826,27764.072265625
206,13675.33,6116.832,-5463.274,1181.5558,-3047.5852,-1162.5022,17744.400390625
207,8953.464,-10180.774,13106.995,8492.216,3770.5662,8120.5537,30326.232421875
208,-10755.344,-6047.549,-6529.248,5166.014,-13652.712,-10037.657,31010.384765625
209,42.15191,-19117.143,-10988.503,4585.186,-16895.941,7615.0005,37025.25390625
210,3222.8276,-3024.5652,18387.541,13513.656,-6081.169,3983.179,32712.904296875
211,8284.171,-8338.422,-15104.285,2719.119,4616.5864,-5450.9575,24694.369140625
212,-19574.312,-14731.287,-905.54865,-9953.3545,5780.4863,-2577.64,26437.603515625
213,-17162.504,11910.484,-10645.635,-6689.943,-2154.1335,2783.6733,29490.283203125
214,12592.045,-2317.933,15143.895,-1275.0496,-1109.5328,-8960.631,22722.599609375
215,1968.944,12979.068,7868.726,-2571.0237,307.9371,12131.219,23509.302734375
216,-6186.6714,-1621.326,-30387.02,-154.62509,2440.8674,-4979.549,28448.46484375
217,-14908.209,9584.432,-20590.443,-10290.207,2598.1406,5204.975,34504.22265625
218,19267.07,24863.578,36631.883,5019.8716,-12668.932,10977.0205,33974.4453125
219,4775.466,7699.8047,8780.175,4697.5156,-4788.5273,16943.85,31767.126953125
220,4047.067,8966.077,6133.859,4722.391,-8707.571,10881.664,25843.501953125
221,-741.60657,11593.509,-19187.252,2389.6265,-719.78284,-7446.607,30082.671875
222,2017.6976,19714.395,-2780.3057,2515.0884,3520.4858,10450.914,28371.21875
223,13061.768,16141.495,17994.893,-1734.1694,6347.973,13157.506,25843.76171875
224,16829.81,17076.576,22238.314,4168.376,-11212.923,13692.743,31933.787109375
225,685.8975,9725.943,-17923.889,-5701.6377,2311.452,-9703.154,31500.603515625
226,14866.774,15382.975,17074.37,725.3562,-5180.291,22555.906,40154.59765625
227,24352.87,23611.236,20402.969,1092.1808,13000.562,13739.375,33017.51171875
228,-8328.373,4451.346,-6540.2583,5261.682,2732.2168,-2296.5999,16277.0087890625
229,1562.6719,-988.8285,10903.66,894.0944,-1432.6366,10896.379,21962.388671875
230,6141.769,1077.5818,9236.425,8170.5957,4389.7603,7051.979,21404.951171875
231,-14398.903,-26140.285,-7260.4883,-1751.387,3221.3403,8189.644,22675.4453125
232,9043.814,-1718.2256,-10334.33,3698.4841,-4267.4824,4724.9814,21105.271484375
233,18339.916,58.769333,-11339.185,348.06204,-4477.3467,-3606.915,27785.142578125
234,6220.8647,-1868.65,-15907.663,3379.8042,-690.1933,6466.353,23178.490234375
235,1308.4379,4809.457,-29069.824,2037.9303,517.6108,-3821.0076,33143.84375
236,16147.007,-1471.4121,-19615.717,2013.1587,-3968.4946,-1863.8613,32079.98828125
237,10115.582,7379.8423,-19627.12,-2478.3845,3649.6384,-5633.5835,31053.869140625
238,11036.924,-6829.134,-27223.088,4751.75,-1254.4971,-8845.011,37505.0703125
239,13683.316,-3002.8738,-27078.19,1048.853,-1134.6652,403.9386,35600.94140625
240,7298.934,-8479.761,-25139.879,6025.5303,5256.0522,-2259.2522,31567.603515625
241,12954.266,3137.675,15390.772,2937.9866,-2564.6182,5399.8623,16103.50390625
242,12755.654,-6902.447,-15189.543,67.04171,-4757.5903,877.3781,26234.5625
243,22772.207,-3221.8435,-16124.454,-9380.907,6433.7383,3372.2634,39998.23828125
244,16710.49,-5642.87,-23054.572,3269.5989,2045.8486,7892.101,37729.73828125
245,17389.768,2118.2117,-19226.545,-4792.0537,-655.437,6469.28,34792.55078125
246,28295.348,9666.586,-5325.0566,-59.055717,-428.0961,-8514.235,32696.982421875
247,12723.656,-8153.9263,-20226.443,5903.6455,609.56714,1446.7625,30750.890625
248,25084.818,8029.861,-14848.186,3601.9976,-5317.819,-4435.5464,37245.71875
249,-4190.047,-6565.04,-21894.033,2802.4014,-4926.323,-727.38245,19364.361328125
250,14314.894,1443.7148,-8859.173,-375.01144,3965.5903,-1644.2557,21450.8125
251,25136.795,-9013.656,593.5139,2783.3472,4155.9927,-2971.064,32124.77734375
252,20147.152,-4553.304,-6412.714,-2589.5066,14782.07,-3208.9065,36959.91015625
253,-4492.472,-15804.731,-25249.52,-7516.3457,-1459.0533,-2484.4304,22768.470703125
254,10376.091,-8866.644,7037.2593,-9034.185,7859.407,-5648.9937,29035.771484375
255,14608.5625,16079.868,-1987.5995,-14406.918,7276.255,-3216.994,33385.20703125
256,-13990.578,8306.898,5171.674,-2992.4678,-3688.1973,3076.3398,23090.345703125
257,-6475.924,6906.357,12065.238,6826.3955,8151.8086,8334.189,28675.21875
258,-14149.331,-7627.7925,-29345.004,11786.494,-2576.4785,-3530.9187,29096.72265625
259,15542.904,11072.392,1999.5176,-3223.288,-6239.7124,5988.1523,19960.150390625
260,4475.8643,8625.951,491.11993,12034.163,-8193.78,-1952.7008,26399.904296875
261,3031.3457,13770.21,-7981.0176,9292.856,3082.52,-1529.1365,25484.263671875
262,2496.0935,12189.395,13279.747,6466.9014,3790.7725,-9920.0,23864.3984375
263,4705.7036,15343.465,-10564.439,6735.0522,4953.944,-3951.929,27664.779296875
264,1431.8519,12628.455,-19672.396,37.158817,3009.6528,7658.9307,31783.720703125
265,9565.146,12197.556,1194.3369,8728.966,-6099.77,3610.289,21871.080078125
266,3035.8264,7072.426,-19054.445,-1320.4283,2590.59,-3700.2742,25688.20703125
267,-1866.573,11412.807,5822.5054,-1143.9519,-126.83935,-1340.0132,11946.4931640625
268,176.44633,5775.7666,-17456.014,-2539.605,7460.7183,8739.845,29265.615234375
269,-5993.1523,21154.953,-9477.512,-2042.0375,1111.9473,1636.3342,29461.939453125
270,4660.4346,11367.627,-13689.802,-1521.4967,2282.1348,1500.9495,23111.123046875
271,-14087.644,7462.742,-2896.8083,6247.819,3046.4697,1918.2721,22460.521484375
272,-19099.844,15866.324,6089.421,4571.8315,-4111.4014,2297.2756,33250.6875
273,-12109.018,-15985.978,1166.2347,8611.841,-2633.742,-4994.776,23682.806640625
274,-35034.52,-42780.832,-23859.03,-5679.3516,-4653.5166,-6410.4185,23589.763671875
275,21507.156,7023.2773,-2018.5168,2454.735,-6227.703,-1070.5082,23672.03125
276,12542.261,25554.164,-1767.697,-6901.85,6720.3467,6028.399,30784.81640625
277,5323.813,15705.63,6434.5596,-5199.1084,-6430.4487,6874.147,21080.564453125
278,-8171.918,13786.2,1021.53845,2382.658,-1532.3829,1357.3958,19859.78125
279,7890.0913,-9275.437,1063.8419,970.87555,1951.3824,4976.175,17680.9296875
280,11879.849,6064.2207,7339.3027,2215.6472,-10504.343,-14630.059,31873.16796875
281,17881.232,-9618.891,9322.175,1459.74,-4396.195,4132.1763,26640.8671875
282,-24994.354,-33714.504,-11212.368,-9675.173,5847.9106,5508.6455,29336.35546875
283,-2220.9084,25507.406,-6246.968,2085.2483,82.83057,5525.9326,31644.55078125
284,2281.496,18642.684,-6069.772,4695.757,-4084.423,1725.1127,24478.455078125
285,16517.92,2670.4043,-4763.4194,6061.223,-3351.2876,-114.300644,22223.935546875
286,6381.0557,885.7244,-16592.396,-2931.95,7529.3496,9694.267,30158.416015625
287,11339.212,670.76624,-11948.248,-5115.751,2489.1848,6709.109,25294.619140625
288,21895.482,-262.88736,-5126.66,1886.4583,-73.43304,-12759.682,33489.45703125
289,24254.38,-9955.961,-16158.394,-5715.2754,1924.189,-2223.245,39305.6484375
290,6588.554,-1732.397,-23314.586,9054.574,-5998.938,-2661.0898,33011.74609375
291,27413.592,2425.4487,-3193.6387,5364.184,-12772.698,-1259.9176,37106.64453125
292,17503.455,1944.6168,31201.863,11401.022,-3854.829,-181.71477,32825.0390625
293,15505.617,-3909.1106,-22218.422,2043.1743,-8683.476,-2690.1248,36442.765625
294,1656.8783,-11767.873,-30039.459,-8797.911,-898.021,-2117.1423,31740.23046875
295,27040.65,8463.344,-2292.3362,-3957.8342,5062.0522,-3810.1624,28775.52734375
296,19986.072,-9358.721,-4427.5117,-4273.339,4490.3804,3317.3193,29816.388671875
297,17157.797,1926.4302,3644.1545,541.5076,1564.4138,-677.5684,14777.71875
298,-10029.214,-9371.637,8341.711,-103.59166,1081.168,6432.041,21295.43359375
299,8749.214,4571.0054,7302.1226,-1429.7883,5782.9185,11741.138,23098.21484375
300,3552.3823,19596.043,-2509.6975,-3921.3596,2370.7366,12194.835,30009.001953125
301,-5428.3066,1308.3936,-6841.6543,-5683.407,1928.0104,6767.7466,17388.623046875
302,1466.3473,10496.833,-20215.256,4950.4053,5085.484,2180.3242,30212.65234375
303,-1192.0841,20873.348,-10598.007,-4864.0933,-474.4368,3597.08,29889.30859375
304,-3168.058,16256.348,-15287.715,5405.5557,-507.77786,-4119.7217,29982.67578125
305,-10861.076,5801.6553,-22842.883,-3810.8423,2974.8997,1247.1498,26375.05859375
306,-12760.39,-6130.558,-9315.369,11930.792,4229.214,6685.685,25451.291015625
307,-13136.279,-3527.4143,-28872.885,518.74896,4059.1292,319.71942,23274.998046875
308,12244.758,15437.289,10969.334,-2430.0693,3402.856,14420.511,26309.66015625
309,3723.111,22590.977,-1366.1384,4937.2666,236.67618,1774.2709,23678.302734375
310,-6500.335,12259.044,4572.42,5335.7817,337.82736,1286.5791,18908.255859375
311,1945.8511,10467.167,-5010.68,5406.295,-6754.9077,-5119.542,21988.28125
312,-7512.139,-14303.919,-11871.218,1758.2694,9414.9795,4527.946,19293.28515625
313,-6111.133,-11853.966,8626.514,8823.176,1620.6389,2395.4983,24360.9140625
314,-12568.405,-10703.24,-27686.67,1285.7574,-4795.5396,8633.513,23617.84375
315,7347.4688,-3782.2878,15183.745,1109.5448,4995.644,-4898.126,20567.744140625
316,15148.841,1522.2014,-2291.7876,-7603.5015,-5055.0986,-4292.7544,23613.314453125
317,14474.413,11794.877,-9535.936,577.7745,-3550.336,-2525.8496,24026.986328125
318,13754.876,1912.0868,-21212.203,-1676.9785,-4649.286,11759.933,37907.953125
319,16471.902,15904.526,-17102.477,-2543.677,7758.928,882.5725,36205.83203125
320,16273.214,10963.13,17523.664,-2175.377,-14996.856,-3095.4807,27460.162109375
321,-3566.9604,-7849.696,3347.7126,3067.5237,-12983.28,-129.87648,25094.712890625
322,-3122.767,-4676.988,21659.578,-645.8589,-3238.4958,-3966.1458,27110.9453125
323,-38826.57,-36299.3,-49364.71,2112.6619,1898.6512,-4447.59,15087.08203125
324,-15272.139,-2772.5454,-7014.55,-4261.5728,-330.8819,-14531.177,28451.5
325,-7511.685,18856.453,5781.779,-3244.2698,-602.3702,272.82156,23544.822265625
326,-8921.056,19765.895,-9645.868,-6413.354,13149.416,-5407.6333,39674.9453125
327,13573.176,-2309.5088,-16645.527,6062.529,2259.096,-12816.306,36108.4765625
328,6546.6646,-145.45969,-12998.712,5901.6416,199.81065,3705.1777,21019.017578125
329,16511.945,4083.4504,18447.72,4421.4414,-1063.228,4422.5356,17406.572265625
330,17030.895,-8667.953,-25101.232,4774.9077,3251.5244,-4802.4736,39014.1953125
331,23742.44,-4993.422,10720.581,3846.3396,-1223.4454,-4270.4536,26920.400390625
332,4197.675,-2712.3489,-22784.879,-1992.6213,-5553.4854,-796.1279,26375.99609375
333,16271.203,-530.875,-17991.412,-1462.6898,13228.175,160.94733,37576.6328125
334,4985.139,-11062.704,-14040.99,-5624.5356,8232.022,676.0931,24774.4765625
335,11356.671,21869.516,1460.5952,2280.574,-1627.7898,3065.7747,19085.0
336,10819.662,8006.054,-9480.907,3210.171,-11052.391,389.10486,27581.650390625
337,1104.5262,9383.231,-21139.953,548.3677,8224.5,3455.704,31419.16796875
338,-21405.527,-11617.526,-4630.036,-1625.4036,4350.746,5388.2383,19100.671875
339,8156.2764,-3282.2466,2348.5461,-1031.4397,3432.8008,18577.375,34235.04296875
340,-3293.8916,19785.406,-11968.962,-1519.0062,-4066.2888,1042.8826,29460.388671875
341,-13856.299,-9141.152,6334.944,8610.482,11862.895,9892.867,35678.09765625
342,5341.5054,-1102.1521,18839.426,10103.8955,931.0468,-5151.5234,26441.857421875
343,3996.5662,-21155.41,-13831.391,-587.736,1108.447,9137.437,27518.177734375
344,10840.722,-2849.0332,624.7292,5184.279,4315.0054,892.1892,17052.78515625
345,1411.941,13251.705,4297.9883,7729.7095,-9543.361,-903.2889,23859.158203125
346,-3147.3074,13324.867,-11656.536,3499.3992,-4210.314,-3821.622,24852.3046875
347,-15001.908,-9632.291,-9553.103,6256.3965,-11512.151,654.2563,23357.328125
348,-15490.535,-6523.8228,-5046.27,11919.065,-9987.964,-173.66458,28659.990234375
349,7926.4985,23920.066,-3920.8477,-1768.8435,-4425.841,2094.0725,25825.205078125
350,-7921.628,-8045.9727,-3395.3352,4375.473,1902.0812,-2592.1934,10464.7998046875
351,79.539505,7067.468,8597.336,-45.35498,-270.5861,932.2852,8043.35400390625
352,1037.1832,1156.6514,2558.807,313.10995,-189.2755,511.2665,1825.81359863281
353,-2082.4414,-3061.7202,-2969.6301,-3346.0273,-56.20977,-179.44324,5879.71630859375
354,528.7835,-84.32359,-259.7798,-841.9282,926.53864,498.17734,2441.46508789063
355,-10384.864,4716.574,-750.72876,-4849.3096,1536.9149,786.7546,15964.6923828125
356,-601.6215,14276.108,-2266.0725,-5311.886,605.9135,10055.24,25257.748046875
357,-3982.369,1172.2286,-2884.7922,455.4075,-166.07909,781.99084,4965.52587890625
358,-18125.512,-23978.926,-6247.777,-11982.32,101.46811,-153.39522,25994.1875
359,36496.73,1830.231,16165.283,1992.2928,-3259.4023,-3077.735,31345.015625
360,23490.34,7798.0757,7272.816,2125.625,1611.0364,1448.085,16804.689453125
361,7253.829,4986.2593,-4055.5156,6926.0703,3539.9895,-1142.601,17112.01171875
362,6468.532,2117.4053,-2597.698,5019.6514,2429.488,2854.7095,13395.01953125
363,811.7346,2138.5928,4140.6587,2131.1904,9.500897,1064.8224,5045.09765625
364,-1548.8043,95.43,171.50606,-218.33215,162.01273,538.373,1981.32995605469
365,-839.74945,9.07034,-354.8928,705.21014,82.674995,387.24796,1583.154296875
366,-401.86737,477.80722,210.06888,-239.629,185.22092,1344.0159,2510.83862304688
367,-4195.7085,1806.6873,290.03552,-2450.1904,177.01857,163.459,6885.4853515625
368,-5334.3765,3149.0583,-1794.758,6453.762,-181.83926,1966.3289,13824.65625
369,-1389.186,2532.8762,1122.7014,1622.753,560.3338,1125.1771,4947.76171875
370,-406.5708,838.18665,-506.0283,825.44867,505.3983,-1577.3748,3458.0087890625
371,1679.2306,-3656.7283,-2850.8528,-4214.8584,3508.9634,1862.0431,11200.7568359375
372,16746.6,2177.534,4319.9067,1529.1627,-649.47565,-704.7436,13978.751953125
373,11838.956,4755.3706,1924.4489,747.1036,-1979.0376,-326.52615,9591.0634765625
374,3573.184,-461.57944,3505.4004,4202.698,51.08291,-1138.2458,8537.744140625
375,11590.835,4308.6284,5315.1846,3645.2334,2055.903,-2564.41,10908.0576171875
376,1234.6201,2453.7576,272.32462,1305.3137,1972.9839,448.29974,4580.16650390625
377,-1151.545,-1294.1605,-865.8058,638.26306,-213.11945,-1280.0513,2533.12646484375
378,-1466.2458,3108.9358,-129.86166,3546.023,-2779.5132,-2200.55,9593.2890625
379,-10966.521,-612.3005,7012.3726,-7110.068,-4240.4727,-4726.355,22735.70703125
380,-10337.514,-3913.4136,-2053.8486,-14827.274,-2144.3655,-4397.8345,28071.9609375
381,-21308.363,-15407.675,-27430.646,-10541.432,-3414.5198,-5815.743,24046.55859375
382,-7592.1035,24473.953,6132.5024,-8691.87,5270.9697,-2277.5664,33197.28515625
383,32.35168,-2341.2983,130.22624,-1061.5907,-1077.8767,-1044.7238,4002.10400390625
384,3015.0732,-6552.0186,-7923.707,-1005.3185,457.20972,2918.4143,11650.939453125
385,-10504.32,-2034.8318,-20801.988,5986.792,2942.466,-1158.5569,20062.80859375
386,12002.358,-239.49141,-9557.789,-6023.9033,-917.07153,-3956.8118,22563.712890625
387,4492.527,-8307.7,-17831.816,1105.5208,1532.75,733.10187,19717.81640625
388,-3488.323,16034.577,5402.66,418.38724,-1053.2007,-6047.9673,20005.048828125
389,-3391.6292,7765.147,5246.9736,4444.484,317.066,1016.1513,12860.005859375
390,-1780.8245,633.4964,7755.652,4160.451,-1211.9342,-2536.2595,12222.169921875
391,12107.426,-2203.2234,1184.9623,-5153.13,695.28455,1159.598,15903.95703125
392,7417.295,-2990.4182,-1535.4565,-1674.4568,-1569.5773,-606.0194,10592.37890625
393,10284.484,3791.9272,-665.1427,-2802.9827,-3321.257,3064.481,13258.6591796875
394,-2831.2068,13987.803,1761.2439,962.71216,1426.5503,619.0088,15387.1474609375
395,-6555.2275,2210.913,1093.6201,3003.4463,1025.2943,3901.777,12007.771484375
396,-5520.6675,11112.533,-366.24286,4096.711,-279.07504,960.2403,16457.39453125
397,10272.46,-2909.4917,-5560.2285,3684.955,1968.9543,252.90823,16379.5927734375
398,327.05222,-2538.3186,387.34842,2388.8208,231.31813,1413.8727,5627.05810546875
399,7765.812,-1045.4547,5225.026,3371.3726,1731.8715,-2249.9126,10953.966796875
400,28760.936,-5855.815,20103.125,4447.3696,-4795.3623,-7593.787,35705.6328125
401,10726.236,-25.507832,7366.206,-4105.9604,-1707.7543,-345.81137,12265.740234375
402,-77177.57,-74027.67,-71283.09,2428.2766,-1980.3765,2840.3843,8930.7509765625
403,6695.5264,-402.21,-11724.984,1273.8412,1384.6375,483.0084,16439.8515625
404,4390.3994,-1327.7264,859.9962,3225.9167,2115.339,665.452,8422.9150390625
405,2888.891,-206.6176,1776.7692,-5609.1216,-2374.855,6052.3843,15118.763671875
406,7900.6387,-1341.3469,-500.68423,1226.4512,-43.114258,-1304.2228,9379.3779296875
407,-489.8641,3235.1375,3202.5942,-4231.5405,202.69026,-2555.2974,9337.2998046875
408,-4155.872,-7129.299,3806.02,4146.084,793.584,-2846.6887,13178.6708984375
409,1940.7046,-3193.2087,-4966.848,2811.8125,689.74445,2808.1902,9349.4638671875
410,-1738.1057,1269.6017,-2593.913,4396.441,382.3751,-4306.602,11243.5712890625
411,-3364.1267,-1284.8416,-1095.543,-1881.7946,-1209.9653,-1236.452,4935.05908203125
412,-13296.853,-6360.462,-21370.61,1236.0681,7438.6655,4140.054,19781.474609375
413,-1277.9618,2157.3782,3097.6504,242.20981,1756.6345,-2756.021,6938.0166015625
414,-2264.4731,874.15625,3571.3093,-5852.755,-272.81927,-238.00612,11346.7373046875
415,-5767.3955,-305.1144,5375.049,-7140.4053,-6124.1885,-3865.1687,20085.298828125
416,-3926.1284,-3005.8538,-3465.927,2830.747,-2868.0095,2588.9082,8334.1669921875
417,-6156.8394,3910.1829,-1885.4713,-607.9679,-1335.738,1671.1246,9561.8505859375
418,428.59268,8843.249,-3331.518,3165.8179,772.2391,4232.4414,14219.06640625
419,-1081.1748,4273.5605,8823.272,-1859.3524,-2326.8823,-712.37317,10093.201171875
420,-10794.216,-1818.4226,-22867.865,10937.193,195.7347,3087.1145,26875.283203125
421,-1685.412,-2258.568,297.61642,2399.2744,-1985.9545,-648.42694,5980.00537109375
422,-3286.0435,9813.12,-8145.0664,-2824.2385,3856.5989,1292.2659,18232.01171875
423,-4751.7515,1083.6027,-4038.2751,-2258.0483,-1470.3225,-3075.6226,8975.37109375
424,-4077.326,2932.885,64.364105,-1.4023112,-721.7203,-707.86487,6350.46435546875
425,14846.593,1357.5475,8388.812,-795.5149,858.72815,3615.2122,13411.48828125
426,3431.3118,179.51006,1669.5922,357.2032,-911.089,-535.8373,3418.1142578125
427,7409.2935,-1460.6996,366.6411,481.02682,2067.3274,2961.143,10277.560546875
428,2591.733,-3173.924,-1521.9304,1823.5592,641.48267,1030.4478,6390.86279296875
429,13140.37,-11710.333,8260.929,-7326.333,291.52045,8984.943,30390.40625
430,8323.66,-3390.3616,-4912.4204,-3414.7173,-224.93118,-226.11063,13879.857421875
431,-1613.245,-2635.6697,-4523.663,4492.2773,-311.06934,1913.9393,8852.2119140625
432,6436.9736,-945.325,1019.343,-294.59485,576.6158,-619.3299,6801.69189453125
433,-613.9871,-931.4976,1521.9998,266.33447,-688.4536,1386.0048,3569.19970703125
434,347.20657,-3625.2253,3625.788,4337.5176,-2279.1704,-1116.6063,10738.701171875
435,-721.511,-2731.2227,-1891.5023,-3776.425,203.82253,-751.23,6903.49951171875
436,10474.627,-6198.425,22469.379,-8682.242,-4143.6963,-196.90022,29993.744140625
437,2109.7197,494.80597,878.49115,-2436.544,855.6486,907.8267,4961.31396484375
438,-1912.5135,-2094.1018,-814.32825,-1971.8208,1229.0381,-745.8166,4393.51416015625
439,-3911.3992,-3894.7317,-2720.6223,-1636.8406,-359.97318,-311.2777,3180.49438476563
440,-1504.9808,9.197212,-2865.832,3010.4468,-1707.8187,-508.72314,6551.330078125
441,-1111.1376,-3272.6243,6359.2725,147.989,-1285.9634,-4810.751,12291.5830078125
442,-816.1509,-214.42383,-8046.1035,2574.6094,1021.41565,1572.0424,9349.5673828125
443,-2187.1482,4386.947,4643.2295,-660.9913,921.58057,878.95245,7151.61279296875
444,5806.889,2981.026,-6627.6826,1966.4447,6742.0195,3971.265,17965.068359375
445,6364.9834,9431.346,17772.85,-1128.3093,4805.421,-2802.9504,14185.4287109375
446,-5539.375,-1476.2732,-8827.42,2165.7986,1031.9933,-1301.9447,7939.2666015625
447,-3224.1392,448.8159,-2486.6387,-1498.0746,-1086.581,-904.5341,4904.57958984375
448,-6349.9663,555.4421,-2929.657,-1601.2728,-2025.7795,324.7932,7488.96484375
449,1828.4313,-1263.5863,-1476.004,-2677.1025,507.23483,-193.40207,5713.77294921875
450,6300.2847,572.5104,2848.928,6377.7417,1383.2992,-4128.2847,14277.4716796875
451,5949.191,-446.4639,-2269.7468,806.9667,232.94377,-1323.3091,7953.59375
452,400.71613,-4115.475,484.14325,1153.0525,897.43835,53.010685,5214.68310546875
453,-5268.13,-9675.759,1745.6825,-4702.1167,-2412.0725,-5529.3857,16584.37109375
454,8312.617,-4607.0664,-385.7691,-2116.6355,871.58704,-199.09401,12084.6220703125
455,4917.1333,-194.33897,-212.20099,-635.80536,1465.4039,1429.6184,6324.9638671875
456,-6726.8354,-6457.722,-12652.965,265.25854,-537.923,760.82916,6293.0107421875
457,-5796.406,-1209.824,-3732.31,-1124.6112,655.38995,711.02155,4735.9892578125
458,-400.2486,3394.1064,3110.0833,925.7833,1000.72986,1552.0049,5118.77685546875
459,-1106.8336,467.7951,804.2518,-1021.2687,-755.6129,1624.5562,3985.2001953125
460,4555.673,-180.68123,-2136.5762,525.46716,-2143.6838,4689.538,10775.5361328125
461,1056.2617,938.4956,611.4777,1704.8351,1749.2898,296.68002,4280.51513671875
462,1923.7795,5599.516,12791.945,3239.81,-1389.0281,-2752.4434,12316.033203125
463,-2626.388,1351.3419,1140.2977,3714.088,963.432,-1711.1317,8244.9541015625
464,57.630733,724.1572,-976.11005,-1751.7328,80.9261,595.6364,3534.3447265625
465,-4522.2373,-3771.8875,-365.89307,286.0049,858.0134,733.2505,4334.33251953125
466,20197.008,1639.3099,26660.357,7650.9937,-809.67914,-4291.5044,27183.427734375
467,-3019.032,-2297.31,-2340.6685,-798.4155,-138.08032,991.8381,2326.43481445313
468,-11529.626,-315.5081,-15008.052,5361.6514,110.9419,-3498.006,17316.1875
469,-124.96724,722.42175,304.77908,-532.66705,244.49593,395.59708,1427.80114746094
470,1075.1064,2756.2036,1604.4744,837.39044,197.80832,231.08574,2144.21411132813
471,3586.4885,-2870.676,-2361.5413,-2386.691,-446.24295,-743.7199,7616.578125
472,1729.4863,-3839.0923,28.630522,-508.37305,836.0896,-341.78116,5258.6630859375
473,-1144.967,-2167.4058,-443.28094,1217.2528,450.60052,618.92816,2908.3720703125
474,-2018.7606,-398.61673,3571.3,1888.7792,392.9846,-728.14764,6129.70703125
475,1522.1022,2159.1436,1439.8082,3283.145,-440.07217,-456.20297,5831.5947265625
476,-3163.8015,-559.5254,-2095.8167,1590.6467,-767.47095,-99.45399,3811.65283203125
477,-1653.1271,-596.9621,-51.87095,-35.97319,-410.3114,-2065.4795,3910.99462890625
478,-12657.784,-1920.8431,-6577.6426,-477.3955,2987.6594,-3224.9553,12067.765625
479,-10237.365,-6495.5864,-18904.611,-11846.564,1331.7131,4070.8977,24446.12890625
480,-5716.989,-847.5158,366.8041,1654.1561,551.4274,1199.6274,6673.65478515625
481,-5891.2563,-722.6714,837.90155,1404.7256,362.43198,123.24557,6601.13720703125
482,-279.78308,1109.7153,-4248.163,2683.1365,1581.3126,-1762.961,7849.599609375
483,110.43411,-3445.81,1609.6105,3235.6096,-897.9907,-919.05145,7522.3984375
484,725.0406,-3944.4385,168.57286,787.69653,831.7146,-2543.0679,6546.2587890625
485,179.62259,-3247.6611,-802.62354,1424.7102,279.02032,446.99274,4033.23779296875
486,1591.2478,1928.3751,2542.577,1042.3407,646.0069,-1648.6888,3655.66479492188
487,3104.9448,-719.8718,1144.3723,-457.64264,82.9301,240.12454,3434.55346679688
488,4123.9053,9868.372,12882.647,-10302.724,-1073.2894,2081.9326,19856.9296875
489,-3560.771,-1113.9913,1518.7358,8.4692545,-362.35855,-1620.1796,5256.306640625
490,-2866.274,-1308.6665,485.8523,-199.17673,390.546,1745.251,4260.97265625
491,1154.9082,-2749.549,-1896.5326,-226.12956,670.9716,1037.5183,4168.357421875
492,-7233.658,-7781.3335,-13707.941,3886.6792,26.401562,-7139.7163,15392.142578125
493,-1570.7942,-4948.7627,787.7529,155.2701,-952.42163,-686.5446,5398.90673828125
494,-6936.0967,-3843.6113,-9510.422,936.7357,-1236.0211,117.00611,5604.3212890625
495,-4160.6514,-77.881004,-953.4517,649.6606,-556.8749,896.80536,4297.69384765625
496,-4640.5522,510.34772,-2396.1145,2531.366,547.3806,-831.38464,6496.48486328125
497,-4109.719,257.33002,-218.35727,920.96405,-1339.3446,998.6049,5304.50146484375
498,648.38965,2839.2761,-5539.821,-2235.0242,-56.078392,8.911115,8464.470703125
499,-75.84515,-2986.8489,-747.30994,-2758.1677,-396.48517,-145.02681,5507.0263671875
500,4966.869,94.0468,4981.1094,-3885.2534,-335.12424,-1684.1418,8828.6748046875
501,1122.1741,-400.20288,2009.3427,1450.246,25.865068,1182.2113,3867.79296875
502,1464.0349,-3853.4387,757.6273,-328.57144,-790.22235,1193.5409,5611.513671875
503,2455.3108,-1773.1698,8449.046,-4252.2217,178.37569,403.47562,11574.8564453125
504,-5444.9194,-1772.6886,-2758.756,1796.0702,882.8535,1177.8789,5197.56005859375
505,-862.86017,1058.5466,-946.5185,173.87007,271.29852,-888.7674,2557.49243164063
506,-1641.8065,1428.2134,188.15785,2738.767,-2190.8008,1922.8645,7426.2607421875
507,-1092.4974,2355.2903,-1543.6967,413.49597,659.14386,-202.58907,3947.90258789063
508,2139.1646,1179.4918,2803.6484,-2949.332,313.19278,-2727.9434,7121.45849609375
509,-853.0408,-3793.6714,1232.8566,-1280.1958,358.8647,50.543003,4943.97119140625
510,-2979.0784,7093.519,2045.6506,-2721.3088,1703.0345,2350.9324,11117.16015625
511,3027.1956,4130.914,4838.2124,475.71234,838.2099,-1978.2179,4126.23974609375
512,-3490.6504,267.7385,201.62373,-2250.9722,-613.4921,1280.3251,5926.95654296875
513,-461.29172,2929.061,1010.43896,-1276.7042,-1940.6273,657.8729,5114.412109375
514,4793.7324,5246.145,14019.032,2800.739,-1996.6495,-704.2976,10868.189453125
515,-224.045,-1795.8815,-2714.6318,-366.4222,849.50995,264.5024,2745.28295898438
516,-2044.4402,2282.4707,572.5294,-503.42572,1000.107,160.44635,4252.7021484375
517,-3246.3445,-862.03723,1202.2836,-1028.6019,-746.18274,1171.0034,4881.2392578125
518,-5896.8335,-5560.25,-3995.402,-1900.4966,-829.4616,71.64295,4000.47729492188
519,272.14606,-818.72455,-2393.7405,867.0402,703.9056,-1107.5011,3579.13598632813
520,717.651,-1093.9885,2568.2793,2961.4075,-7.1561933,-1579.5795,6622.2880859375
521,-1681.2139,3673.225,3332.332,2795.8127,-2064.895,2094.5623,8738.6259765625
522,-3685.5315,-2329.385,-1310.1714,2073.3374,-678.0026,45.18978,4305.98486328125
523,-2084.6318,-792.85693,-3820.0813,3519.905,117.48477,581.52405,6719.1806640625
524,-238.2339,-5258.6113,-714.4208,2387.2017,-631.84534,-1148.8036,6730.0400390625
525,-602.45044,-5546.8643,-1953.9784,713.1715,-887.722,1040.324,5169.92822265625
526,312.0815,-888.97034,-73.31759,114.4632,-261.69638,-132.56042,1194.00622558594
527,-131.97179,-2217.4258,159.34903,1584.1182,-256.39157,1032.5912,3995.71728515625
528,-2785.4175,2140.6758,-150.68239,-275.67752,-366.5078,-54.48111,4343.8642578125
529,583.0563,-692.8657,841.5878,569.2893,259.6128,-362.65298,1895.70581054688
530,1193.6886,330.63727,1906.9841,131.68497,-307.29636,683.9099,1899.41381835938
531,-1197.1115,-2121.8015,-771.9626,716.46765,1187.2448,-329.8103,2742.97045898438
532,478.4078,2535.168,-209.31155,-733.2747,-245.7427,2012.2568,4478.7802734375
533,-4851.568,-1158.7743,1785.5614,2816.7524,374.91412,-408.0549,7609.3466796875
534,-7118.123,-2150.263,-1433.131,2488.8535,423.8746,-347.73306,6945.607421875
535,-1846.9539,-1684.0302,-31.020605,-2523.565,-116.286385,144.48767,4715.57373046875
536,2637.4636,-1059.3124,-1248.28,-289.86493,-492.44333,-178.62706,3933.91943359375
537,-2667.1035,-1698.9337,-1559.1644,-3552.8718,69.85409,-2700.8042,7801.19091796875
538,4445.223,-303.80832,864.4055,-613.8433,-1396.3309,-1021.1589,5336.484375
539,2384.1958,-1761.1986,-166.94975,-781.4807,231.73798,-1093.5337,4324.09814453125
540,489.51813,-1801.3301,-972.5876,-2452.3015,-699.45496,93.16638,4855.0361328125
541,1682.6748,610.75385,853.3708,427.39462,142.8514,641.24493,1670.51330566406
542,2920.5657,361.06662,-238.127,-344.5573,545.3956,-100.258446,3118.07446289063
543,-2319.8,215.5536,-411.99832,-1517.2505,425.38348,746.40784,3788.291015625
544,-2312.8816,-3902.0356,1232.5187,-4759.633,391.1857,-714.7998,9522.796875
545,472.37466,1338.6647,859.3365,-957.67444,-252.69475,-1575.751,3310.12622070313
546,-1059.8348,-504.9979,569.5447,-1291.4921,-538.0675,645.9619,3030.32788085938
547,27.286747,1129.8578,1970.221,-197.7881,1249.9224,487.60382,2892.40112304688
548,-1178.3917,-156.9059,-2197.687,1401.5985,26.437145,-633.4677,3197.33764648438
549,-359.29556,912.14185,2863.4646,1407.2554,-597.8439,-1339.9341,4506.08740234375
550,-1673.57,-3434.2651,-467.87485,942.9141,458.47372,1231.819,3811.37768554688
551,-3825.0032,-4584.8257,-1394.3933,558.0715,-55.74633,1.9368756,3045.60205078125
552,-214.42949,-1503.4722,-753.8057,-1940.8894,-28.97712,-1013.39404,3954.978515625
553,1345.668,-2464.5908,-812.1186,758.6489,-295.62665,-1020.7578,4008.37377929688
554,-1795.4998,-1580.5504,-741.0636,-669.8796,-598.2552,-1086.333,2625.20288085938
555,1554.9667,-743.0825,-216.69807,-141.57094,146.90486,-560.75964,2327.37573242188
556,-2326.1687,1941.048,-1084.5325,381.79196,1012.5943,-859.7364,4492.57666015625
557,1406.1826,-118.90371,597.48175,285.22003,534.12225,52.50679,1689.59423828125
558,65.536446,-218.2959,738.52936,194.42557,-554.31946,1301.2147,2615.1845703125
559,-1101.4669,-2393.063,-315.84518,-344.7619,149.01102,692.6105,2272.10278320313
560,-186.66824,1308.0621,589.4092,-149.71013,-154.55205,-840.1362,1983.14733886719
561,1537.8594,2891.5176,-613.50226,-19.742142,973.0821,1072.1023,3957.65112304688
562,-957.8296,-851.52673,-1239.9343,-893.4263,-929.41974,-443.35934,2386.76953125
563,1143.1326,2463.3762,1994.4791,-1882.6884,-929.6209,127.54082,3823.45141601563
564,-1052.5424,847.23883,-2553.3499,1467.8584,914.4861,1805.7998,5241.0126953125
565,-3680.6475,-2980.5718,-3074.088,1672.1483,1014.10565,1536.1002,4357.25439453125
566,2606.4294,1503.587,3664.809,-1662.0598,-505.06494,647.5942,3716.771484375
567,-7839.5396,-1130.696,7422.807,-480.58194,-2089.557,-2696.9062,14531.57421875
568,-5810.9966,-1654.601,-854.83093,2421.4458,626.4219,1211.3658,6664.01171875
569,4495.702,5473.4067,-5045.7246,865.4263,4507.849,1063.3967,12958.58203125
570,-681.18677,16844.652,-3283.582,-6578.79,5111.9155,2752.9734,24300.40625
