Element Label,S11,S22,S33,S12,S13,S23,Mises
1,27256.662,27385.256,27849.121,606.2953,754.97296,-547.67303,2000.98205566406
2,-29521.086,-14400.574,-43772.016,4658.5605,-2562.6372,-13492.626,35751.37890625
3,20537.012,5220.742,41247.33,2993.808,-4063.043,11935.498,38529.10546875
4,4003.7139,19952.271,-16486.932,-5545.423,7988.7524,-4732.3896,36768.484375
5,122.70117,-18886.506,7073.7285,3364.631,-760.4893,-2069.1965,24296.958984375
6,-42611.684,-43912.273,-35927.324,2593.7378,606.46185,-5782.7676,13291.8330078125
7,9543.998,33229.03,25909.57,-14951.08,2066.6853,2464.2031,33805.74609375
8,-16584.19,-1033.4053,-21102.959,13522.992,-208.53322,-4925.8135,30887.73046875
9,15587.717,9207.666,8888.273,5456.2856,703.3169,-227.98177,11567.1025390625
10,6750.138,6785.6274,7214.801,5952.6885,279.73206,1161.9648,10525.6552734375
11,18735.877,-11553.4375,15573.204,884.66595,-6250.672,3131.9434,31315.134765625
12,11449.512,7347.203,10755.228,3102.9065,-1267.6096,2406.9585,8096.1552734375
13,-7945.2686,-2767.4707,-11703.34,-2194.3953,-1758.5856,-1071.606,9357.361328125
14,2685.4937,11764.041,-663.5239,16417.31,-515.29443,2775.0652,30927.72265625
15,10996.263,2561.4956,5124.635,3047.6345,2413.9119,2167.336,10748.6123046875
16,68800.83,69717.5,69307.91,281.542,623.18585,810.03625,2000.98645019531
17,14817.708,-18926.455,-14996.076,12555.278,2827.7996,1431.3785,39045.23046875
18,4999.9287,-18611.346,2688.6812,16353.359,-7418.1997,5226.414,39466.37890625
19,-8149.3296,-13951.818,-3578.8994,1739.4252,6786.557,7079.778,19460.1171875
20,8389.6875,15207.337,7229.533,12801.998,-4809.7803,-16247.798,37533.7734375
21,-5152.198,-25924.475,8861.969,-7337.3706,1971.573,13142.104,40128.63671875
22,-42800880.0,-42801130.0,-42800100.0,-278.9524,-532.18805,-827.8195,2000.58068847656
23,-8096.087,-298.03204,-13869.0205,7639.928,-4153.784,-4724.366,20808.177734375
24,14820.039,12198.664,-7417.777,2675.8735,-4289.219,9031.532,27649.181640625
25,17683.945,8608.784,-17498.186,10878.462,7778.7607,-4144.246,39861.41015625
26,10605.879,-10956.454,-29642.797,5418.658,6245.7427,-7922.429,40130.32421875
27,8052.8906,-3320.2007,-11748.564,15038.33,-13142.042,4305.5874,39350.33984375
28,19475.076,-17426.281,-13401.166,-7425.8467,2434.483,-4137.711,38261.61328125
29,-2618.304,13198.843,35648.05,6415.7563,-1513.2307,7786.0435,37702.1796875
30,7309.3516,23005.203,50917.56,4634.7173,2785.736,-3848.6516,39946.546875
31,28374.434,-5276.768,28879.803,8776.128,-4460.622,-304.99252,37956.51171875
32,-2.273055,-18429.44,-21825.988,2025.6444,-10572.848,-16209.532,39364.9296875
33,-12230.611,-6894.46,-22476.31,-8270.376,-8988.098,9727.828,30324.38671875
34,6259.078,-30003.324,4071.6526,9148.69,3178.6965,3166.4539,39394.3203125
35,14283.107,11684.046,-7940.458,-1528.1869,-8324.323,-14507.566,35905.140625
36,-6734.8843,-3142.4836,13478.239,-8050.176,9066.846,11275.181,34224.1171875
37,12026.602,-7216.8296,3474.2637,-10736.3955,-2830.9236,-1646.7979,25629.37109375
38,11803.674,28098.11,28179.592,3299.5752,2616.9116,2609.589,18452.076171875
39,10884.123,9520.692,9701.196,230.23091,-218.28438,-827.95215,2000.97412109375
40,120679.93,119924.37,120628.695,-636.5604,-278.42358,-820.76526,2000.9853515625
41,147562.53,145884.12,148038.22,192.12341,-111.954185,-68.05585,2000.98815917969
42,44559.684,45063.9,43315.957,19.558865,-245.65268,-681.55774,2000.98486328125
43,177444.36,177782.36,176723.94,-305.65854,-824.806,-518.323,2000.9814453125
44,-46501.23,-43332.38,-47396.176,8323.886,2184.528,1821.1686,15678.2060546875
45,-24436.037,-15251.26,-29809.947,-4701.1396,2512.5098,-3788.3003,17055.53125
46,7335.8447,-188.28261,1347.2583,11527.096,10498.283,862.97723,27909.041015625
47,-17012.688,2187.7112,-821.78925,6844.2646,-8155.6646,-12299.919,33374.6796875
48,5393.735,2705.664,-1948.5188,2214.3042,121.921875,-8246.669,16129.9287109375
49,-3352.5066,-1167.9518,4547.5986,2259.214,-5323.6245,-3072.6711,13363.5595703125
50,-7420.7017,4772.705,10296.058,7903.597,1018.4528,-19010.969,39003.82421875
51,8992.775,6578.0107,27369.277,-1473.3545,6984.9937,-3374.101,23977.869140625
52,13885.174,16280.331,31900.354,1427.6669,-5653.967,-18503.137,37633.0859375
53,32076.164,13663.847,30908.623,3270.7297,2691.9062,-4627.5034,20903.41796875
54,27839.18,16943.16,28760.148,6359.747,2784.5718,-12480.952,27231.0390625
55,-21468.297,3974.9805,-37530.332,5732.4224,-27.886166,-3054.9722,37955.27734375
56,5350.488,5495.3906,5670.546,-2806.642,-4747.6807,-8108.8164,16987.904296875
57,21963.795,8316.157,21704.15,12875.459,-10217.339,5231.695,32793.4140625
58,22306.734,-2967.5828,41005.633,-2623.0198,-3431.7002,-240.96307,38951.07421875
59,-8483.98,8149.6875,16955.76,4010.152,9785.507,4626.4585,30007.130859375
60,-5413.381,-11290.232,-25153.744,-3622.2688,12367.058,-661.488,28420.33984375
61,-36513.293,-37604.367,-41616.0,-9725.351,10379.052,191.8596,25073.7421875
62,17586.756,15583.76,35615.9,15494.623,5151.1177,-2528.8638,34412.37890625
63,19726.426,-9496.267,-23845.23,3423.5745,-4823.8994,854.9007,39828.875
64,10844.167,-1858.4884,3231.513,4019.8408,19749.307,-7003.49,38578.98828125
65,4216.2534,19336.396,22359.268,-253.43193,-4568.5054,-9704.98,25076.46484375
66,-7383.5107,17931.988,32595.361,-2857.3745,-2708.5994,-8592.102,38666.20703125
67,-852.79376,-251.59871,-26797.178,-3829.2202,12136.868,-8818.331,37526.76953125
68,-5117.136,29737.328,-5569.7905,-94.866875,7061.0444,-4133.791,37837.578125
69,7025.046,18863.922,4019.59,-6073.6655,19930.82,-950.4026,38598.75390625
70,10323.553,4745.083,-29109.959,-3249.3381,6367.292,5167.9736,39994.6015625
71,20606.771,6976.6255,-11338.539,1054.1952,16047.064,2077.1333,39492.6171875
72,20040.24,13843.244,26525.629,-2468.2368,15791.229,-610.84247,29801.638671875
73,7930.905,1353.0005,-1964.3038,634.2938,6258.8003,-11045.33,23681.57421875
74,6545.4736,21276.16,12759.466,-2014.8514,8494.85,3034.3826,20502.662109375
75,14424.2,3993.0315,-15417.631,-7172.636,3918.2883,5171.4614,31123.787109375
76,16204.992,26074.979,16258.181,12479.647,-5173.0054,-7958.321,28886.048828125
77,3538.7988,13614.847,25229.729,-1797.847,15400.152,3354.8723,33292.953125
78,20773.574,5286.374,-5988.024,12681.157,-6231.478,724.307,33794.63671875
79,25486.11,32936.81,47104.03,4135.892,16565.904,-5867.682,36601.53515625
80,25769.969,9901.154,4422.0205,10093.94,-5525.8955,5896.4487,29501.88671875
81,22711.744,13698.088,18312.516,5097.997,3904.7605,-15816.278,30579.736328125
82,12281.1,16987.936,27203.379,2615.1313,10944.859,160.02007,23549.0
83,8960.889,5626.633,-5547.2363,8272.586,9591.542,-5555.304,27333.376953125
84,112504.81,111983.875,113230.984,107.27796,371.27945,-890.4797,2000.98095703125
85,-579082.0,-578868.9,-578881.75,184.07014,-737.9537,861.341,2000.98510742188
86,148010.16,149687.45,149226.22,-258.03592,514.7948,502.25085,2000.99755859375
87,221448.67,221025.14,220456.44,767.75946,526.66846,468.96814,2000.99011230469
88,-535.7444,-13880.649,-14696.775,3765.4878,2076.6814,-2582.806,16282.8388671875
89,10133.631,15064.878,13744.008,-1607.6288,-1184.3466,1801.6631,6422.4423828125
90,-6210.5894,-30549.787,-17618.877,-7139.108,-1469.8264,-5905.1284,26624.619140625
91,1765.6412,5874.9116,-3237.808,6181.547,125.09947,4330.3564,15278.0419921875
92,949.5289,5910.02,-5860.3247,-4844.963,-10701.452,-8946.412,27547.412109375
93,-1046.4791,-986.7756,-4784.944,1857.888,14216.146,-2353.0508,25445.3359375
94,17719.01,-20962.379,1506.0852,1875.6973,834.039,-4697.787,34796.83203125
95,-4881.823,-16666.824,-7816.3486,13422.097,7658.2173,3870.61,29567.921875
96,6961.604,-22548.055,-12649.489,-4477.075,-1646.1633,15138.56,37848.2265625
97,-5650.828,-78.342896,-15319.318,3666.2134,18091.596,6134.866,36243.07421875
98,7641.894,-5361.507,8607.174,8370.151,2406.439,-8874.931,25424.72265625
99,-4679.847,4550.257,8099.794,-2906.1152,-1185.0822,-1863.2203,13058.3759765625
100,3092.911,2886.6682,9517.889,-4589.6914,110.882195,2143.2197,10938.958984375
101,49847.434,42916.195,30922.57,1461.1702,-275.51025,-7066.015,20771.091796875
102,22833.627,11494.262,4786.8423,10014.941,11471.91,261.22772,30749.708984375
103,12072.464,-782.25134,2083.4565,-3352.9128,10508.912,-12599.298,31271.119140625
104,17592.45,-17111.828,-16852.059,5301.074,-8843.567,-3124.7996,39289.47265625
105,4257.977,701.44025,6108.9697,5207.6895,2587.92,-8188.0874,18034.541015625
106,-6183.702,15863.386,16577.824,-17447.59,-2143.0151,4270.446,38523.7421875
107,-14213.626,-16232.307,-2987.5417,2262.063,-4127.2393,1861.1143,15152.763671875
108,1735.67,13502.327,18364.988,-3504.6272,1378.0465,12866.121,27540.37890625
109,35411.926,-2943.8489,-2657.515,1177.2416,430.2652,755.8286,38297.41015625
110,-18753.988,14334.258,22517.309,4250.8667,987.4578,-3350.3877,39030.3359375
111,-23925.053,8121.259,-29735.17,1193.8877,-4784.9004,-8211.169,39014.71875
112,-11152.203,-3287.7969,990.8687,1383.4064,3970.4753,-1312.1643,13115.099609375
113,8201.739,7538.263,8205.624,1026.3601,219.44725,-292.36154,2000.98364257813
114,198807.14,199437.36,200767.67,93.2071,-449.4279,-349.58862,2000.98742675781
115,20113.504,19806.3,19625.143,-980.12134,475.5884,-294.71954,2000.97216796875
116,311928.5,311553.53,312133.75,-513.98334,46.946903,988.6813,1997.82690429688
117,9534.975,-10691.92,-29069.578,-7576.7427,8546.145,-3712.3765,39386.09765625
118,9140.991,-6527.883,28368.938,-676.95807,12398.899,-342.02054,37140.69921875
119,8112.6416,21396.643,5878.5835,9623.41,681.9,496.80923,22160.740234375
120,8449.81,24459.697,-14529.445,1451.545,4596.8833,-2023.6927,35132.01953125
121,8064.8506,14296.062,18933.48,-4308.003,3416.9995,2571.0713,14133.857421875
122,8689.456,13341.7295,21715.016,-6357.276,9322.427,14089.736,33290.2421875
123,6200.7383,-11948.549,22951.602,4359.1616,12010.551,-2763.9417,37771.5390625
124,14442.199,23113.664,26007.96,-1450.8185,18174.164,-3404.5483,33773.6171875
125,-6494.706,-5248.0205,-384.7284,-653.11786,-14109.599,-16603.217,38167.93359375
126,-2754.9739,115.09528,3794.961,-9677.555,-1448.1246,-1929.0614,18186.818359375
127,23120.541,-16206.732,4945.02,2723.1877,7953.601,218.81738,37072.3671875
128,10824.19,4146.933,10799.526,3565.2253,8698.468,10897.215,25802.947265625
129,-3233.4927,-519.7109,-1820.5529,2778.5627,-13311.299,-13761.808,33591.9921875
130,57163.9,59229.547,58882.98,-51.586155,-182.12224,-274.05582,2000.98388671875
131,-108865.75,-107207.9,-107036.55,-338.90094,68.330284,441.01172,2000.98754882813
132,73513.61,72612.85,72536.63,962.9013,307.49332,-132.81424,2000.98486328125
133,52208.883,50848.613,50738.348,33.597706,-764.35,280.1077,2000.9853515625
134,7001.9565,5695.106,5107.633,-3535.8503,1319.2491,-363.78967,6778.3271484375
135,23240.822,-17631.645,-1018.7137,7114.128,-6662.2324,-2723.427,39683.44921875
136,-3676.7363,2065.0881,7202.2344,2044.7288,-7905.577,-8185.3794,22133.548828125
137,26691.45,16313.976,25462.184,2796.4448,-422.3658,2957.6921,12111.38671875
138,-38631.37,-32787.87,-8506.474,5131.2627,6407.254,-1102.2639,31167.521484375
139,-12400.6045,20002.64,14504.926,-6333.603,2038.1013,-9879.596,36437.28515625
140,17238.074,9208.292,29193.463,8698.943,17572.059,219.40668,38169.34375
141,16660.602,28757.3,25316.482,10824.972,8679.888,-8364.128,30066.328125
142,14540.383,9700.602,7328.7495,-4054.8477,9997.869,-1538.873,19920.6015625
143,-3596.03,10130.016,9978.57,-4593.77,11279.071,-4785.548,26457.767578125
144,-2803.4448,-33724.45,-46554.453,-2339.0598,-3667.2139,-1220.8821,39732.4140625
145,16188.711,13803.498,29536.701,-9272.845,16173.805,7475.5273,37763.46484375
146,5032.708,30716.371,46408.28,5216.1006,-6024.553,-4880.541,39634.33203125
147,16821.36,-5127.9785,8740.73,940.5078,14679.712,-12666.899,38732.3125
148,13040.901,8078.028,9495.823,9315.449,9576.511,1701.8052,23743.5
149,17063.012,-2408.3923,-22524.707,5880.6636,-4836.2915,6405.4683,38373.17578125
150,23468.135,-10895.287,-14246.059,5265.117,-1994.6163,-7766.5796,39790.39453125
151,2168.4604,8972.808,19887.816,4774.4644,-5487.987,-19306.236,38944.046875
152,2744.3027,5495.1406,-11763.213,2964.2527,-9449.706,-17657.127,38568.3359375
153,63754.348,65669.16,65163.035,113.274895,255.15768,521.7296,2000.98498535156
154,-7669.5176,-9204.383,-3636.405,8980.52,-25.66085,3225.3618,17261.869140625
155,-3111.596,24283.664,11148.831,5558.403,12641.21,-1119.9219,33749.70703125
156,-4259.818,-15017.131,19027.914,-9415.544,1972.8136,-10189.993,38700.0390625
157,11376.225,27219.82,47803.85,-10152.93,6330.584,3066.8835,38190.82421875
158,-6097.3574,-8652.342,-24622.812,-16186.714,-8734.807,2945.6023,36651.5703125
159,-13413.184,-41623.73,-32599.377,7338.156,-9157.553,-6041.9116,33842.78125
160,6024.8335,-4027.3171,13063.303,-14651.671,9569.982,7907.1,36437.23828125
161,93548.38,94997.57,94769.81,-807.0145,-216.57556,-170.75769,2000.99011230469
162,-323969.53,-324976.72,-324988.94,-505.35974,-310.43155,-800.2672,2000.85827636719
163,44865.945,44180.594,44271.562,633.56415,877.7471,155.74948,2000.98486328125
164,12793.394,17068.914,18021.072,235.58807,-115.42354,2510.704,6509.6103515625
165,14769.448,13667.575,14165.159,987.0712,-179.70715,-153.50325,2000.9853515625
166,72221.01,72961.914,72772.195,888.4797,615.83167,-133.71071,2000.98498535156
167,77039.96,76217.1,75601.195,81.98731,831.9546,338.6704,2000.986328125
168,64487.215,63695.523,63019.19,-638.80634,13.607832,618.5473,1998.05541992188
169,15540.39,1842.1748,33041.223,9873.046,-6672.7876,-7.893217,34053.78125
170,4341.9995,-4820.3477,20369.467,1526.3694,-9192.868,-975.1559,27405.22265625
171,-4843.4585,7604.7285,-25564.727,-4290.12,-1948.7876,-6331.4023,32080.19921875
172,69560.46,67819.18,67750.8,485.2484,115.118034,-161.42598,1995.02880859375
173,338888.8,337482.25,338900.97,-280.17044,-741.3362,-203.39221,2000.99829101563
174,15284.01,5211.2236,2088.6262,-4265.8213,4942.735,-16651.605,33202.0546875
175,-7012.1377,3332.5034,-11377.479,-1428.936,-5423.0073,8955.426,22498.3828125
176,-6299.895,4911.345,-12598.243,8228.203,-5332.162,-8612.507,27329.564453125
177,8677.586,-2078.2166,-1153.6206,-2606.8706,6055.2554,1530.9707,15620.96875
178,225288.9,226143.38,226126.08,-655.5577,-473.4619,-664.9011,2000.92053222656
179,24362.842,-6387.577,-17061.977,-3423.5735,6271.0967,1365.9674,39325.734375
180,-10045.377,15572.795,-9996.509,8622.245,3692.5972,-14297.125,39143.32421875
181,-13284.689,8862.212,-8286.79,4912.7466,-827.16675,-6015.663,24244.560546875
182,-1304.0459,1636.54,-31681.99,3687.0713,-12478.1455,726.7034,39118.734375
183,-37101.996,-29815.12,-30596.645,-173.11371,-6643.841,5253.0645,16226.8388671875
184,33510.566,28560.945,31811.334,-1129.1984,-20.21381,108.1132,4778.822265625
185,-4144.602,16850.266,-21349.602,7659.9907,9120.446,-2810.461,39335.5234375
186,18015.488,-11930.941,-17621.383,11742.989,-1094.5671,-3484.3171,39411.76171875
187,404949.3,403704.88,403427.88,-422.8816,691.7676,-127.44084,1997.72375488281
188,33468.87,33070.78,31697.95,-628.8854,108.60082,251.56612,2000.345703125
189,-2699.8323,-10772.7705,10742.37,8634.871,6804.485,11871.138,33760.05078125
190,21243.22,-11450.804,16153.923,8548.688,-1986.2837,5670.8506,35439.55859375
191,-10202.425,-17588.166,-36387.117,2121.7073,15536.389,1626.4194,35949.5859375
192,2529.6194,1546.9467,-17370.166,-1180.6917,-13341.302,12953.784,37669.17578125
193,-31727.541,-21647.97,-61289.402,2649.845,-10240.94,944.4665,40147.7734375
194,4608.712,-17885.121,19105.996,10846.806,-1155.8776,-3355.1943,37854.76171875
195,-24294.36,-27134.059,-59686.027,-713.9043,-11815.205,-1827.6503,39880.81640625
196,3619.441,-5677.17,-5598.956,5344.469,-6273.332,5562.66,19552.228515625
197,-10544.072,29814.822,12117.573,-8464.469,2843.956,438.56296,38308.9375
198,12238.978,14148.172,47915.164,-5562.9434,6028.898,-837.8905,37580.71875
199,2571.507,12591.611,22588.389,9863.13,16017.25,3529.309,37408.23046875
200,13208.916,-14427.509,30496.27,2017.8738,1463.1215,-901.3167,39515.3125
201,-7960.243,11341.02,22350.44,-12688.068,5250.429,8829.735,38804.59765625
202,-10784.791,-13541.179,-28035.627,5132.6855,-10494.254,-3025.3315,26353.71484375
203,3654.485,2113.3186,37672.76,8806.139,3038.0571,-2218.2786,38563.48046875
204,4805.564,3386.0247,2874.8281,-3947.3547,-2888.9246,-2664.1829,9801.947265625
205,6060.0635,9822.172,-23527.271,-7362.2627,-4909.3247,413.21414,35161.05859375
206,18764.8,20757.043,19065.816,205.82617,-99.46337,-359.27005,2000.98486328125
207,-14907.932,-1659.4417,-1937.2804,-2790.3347,4232.6934,-2944.362,16584.07421875
208,-729121.7,-730810.1,-729161.06,129.8769,532.4901,-324.76715,2000.8876953125
209,117687.25,117633.27,116335.15,-125.53496,-673.1792,-528.74646,2000.90380859375
210,76044.74,76770.26,75347.14,663.63,600.7984,163.56844,2000.87390136719
211,10629.954,11239.535,11735.711,-947.2859,-45.480328,358.4447,2000.98571777344
212,234225.58,232248.77,233922.86,-260.2555,40.94042,-362.70096,2000.97253417969
213,211245.31,212441.55,213464.11,-299.46036,-91.569916,52.309628,2000.55725097656
214,284120.7,283977.78,284234.44,254.21036,1052.9658,252.68211,1939.39196777344
215,546673.3,546998.0,546608.1,109.021965,-792.85345,800.4277,1993.58911132813
216,463372.4,463650.53,464480.53,-184.68806,846.3947,-501.79205,2000.99084472656
217,141757.92,139947.9,141499.45,361.9861,-493.7528,37.989628,2000.98413085938
218,-965.4648,456.95947,689.18274,114.8549,-468.60324,-546.2188,2000.236328125
219,105851.516,104671.19,105111.55,727.3217,429.7491,-514.9647,2000.98278808594
220,72596.875,71325.12,72191.19,-620.0665,-718.74146,107.55552,2000.98327636719
221,100778.96,102662.35,100989.66,-8.5233965,107.78643,507.98386,2000.98608398438
222,10163.53,11794.045,12190.344,-335.9953,-247.27138,81.69411,2000.98254394531
223,53156.01,51545.945,51988.773,-507.4455,105.83651,611.6672,2000.98596191406
224,7627.6333,6137.0723,6669.766,-75.34923,-857.20197,-153.84238,2000.98547363281
225,1228.7625,3811.0317,3118.8237,-856.24207,251.8672,339.73685,2845.31640625
226,4082.8455,5101.8906,2951.6052,-292.3116,-1695.0519,3942.5847,7679.765625
227,14895.68,397.7691,33338.105,1828.062,-1724.5211,-3167.1394,29440.255859375
228,139.429,22334.809,-13406.342,15.779662,4497.5728,11071.401,37485.85546875
229,11502.175,-11038.2,8837.114,-3880.8672,1343.3364,-1399.557,22617.978515625
230,-9508.279,-17842.2,5902.14,11600.018,1539.0292,-8015.765,32232.109375
231,16614.914,40040.66,14973.329,-17630.475,-141.9264,4094.5513,39658.203125
232,4311.305,-5616.7266,20218.635,6231.184,11015.164,-12822.283,38513.046875
233,7326.214,1185.9197,32765.916,-3270.7312,8129.098,6364.451,34539.0703125
234,-14209.765,-867.1556,-12108.318,-9992.359,14918.017,-5030.1475,34604.8125
235,-7195.078,-11996.909,-11513.767,-8562.198,15027.831,-514.949,30318.43359375
236,-131.19922,2636.7803,-32272.582,-1342.2838,10757.385,-1197.2393,38556.015625
237,-1336.3237,9256.8545,-415.28467,5989.231,7257.9097,2514.9387,19695.841796875
238,-10514.77,10566.944,-15159.031,-5157.4727,7829.4136,-4586.94,29845.17578125
239,6712.006,5741.1978,-6304.7803,-12444.569,5202.8237,2874.5635,26987.80859375
240,5728.509,15948.714,-3123.1865,-10131.332,-352.39203,-9147.834,28855.2265625
241,13728.33,-4727.17,-26854.568,-6338.7256,488.53378,-2238.1436,37079.39453125
242,11195.209,3490.0054,1215.9749,-8848.642,4894.427,-866.5415,19775.681640625
243,11466.141,3654.2266,-24935.998,999.65826,11763.723,-1828.1859,39114.59765625
244,9427.887,14094.297,3794.9478,8642.71,4385.142,2175.8364,19384.826171875
245,14187.652,2376.8584,20809.025,-3586.3677,-1043.4547,2122.3147,17801.861328125
246,13126.229,6428.3125,-2433.4058,290.10507,-4583.1035,6078.5664,18890.767578125
247,3283.916,13454.109,7718.9795,5510.5737,10748.962,3984.4922,23734.900390625
248,3954.9253,-4436.012,-20157.791,506.37897,5224.306,411.46783,23079.42578125
249,3316.8838,-15076.541,-17111.352,-77.79943,-1743.7616,5006.067,21545.48828125
250,12287.13,733.17505,-3892.1287,-6762.3374,5397.696,3223.2334,21542.71484375
251,17755.762,-4490.074,-13610.25,-5828.567,1080.73,3682.4004,30447.35546875
252,8546.431,1116.316,-11951.003,-8323.427,11411.554,-1200.1416,30428.328125
253,6464.131,678.9116,-13881.086,-3148.906,8475.303,7960.6763,27659.560546875
254,13149.088,1001.00366,-4473.534,-6048.0186,481.81534,-3386.1086,19720.0625
255,12478.496,-11982.968,5252.287,-6684.519,9450.648,1396.8384,29692.82421875
256,-17454.72,-12247.297,1089.8494,2127.6106,6785.9907,-8690.781,25549.30859375
257,5924.9287,8355.496,3892.3237,-12096.647,774.0391,-1934.2667,21609.8984375
258,-4976.0586,-15792.046,-3914.5999,-3657.5083,-4001.2473,-149.75162,14758.8046875
259,-39960.86,-14172.068,-19070.82,428.44324,-13281.756,2381.8557,33309.33984375
260,-16532.998,5964.9204,26117.824,2805.8381,-956.5378,1394.2151,37388.3515625
261,-49596.004,-21946.227,-20099.363,-7286.912,976.5565,-13650.387,39244.66796875
262,-25479.975,-13788.419,-7181.302,-4973.3135,1761.2482,-17072.736,34864.54296875
263,-5501.033,10591.189,-27429.72,10759.175,-4074.18,-5275.8687,39664.70703125
264,2569.4644,750.9805,668.276,-8551.931,1470.5658,4613.832,17123.6875
265,-7837.592,18330.16,-19106.244,7346.687,-5925.332,-2325.5503,37283.82421875
266,1076.7373,15572.877,-23363.168,9340.951,1023.7543,-7458.305,39918.8515625
267,-7852.665,11970.918,-17588.697,6850.0044,7927.585,-1087.8092,31837.484375
268,-9704.628,16652.25,-6723.8955,5375.9053,-6613.512,-2860.9712,29452.998046875
269,475.44867,-6412.576,6390.7373,945.91486,4058.76,-1872.8077,13631.1142578125
270,-13044.234,18644.164,13474.9,4040.166,-2236.0403,-3904.2542,31253.291015625
271,2803.6245,-9575.842,-11236.657,1968.6476,1067.5178,-5518.4766,16821.8828125
272,-4603.701,-11555.5625,-37261.57,4312.375,-2855.1838,-3530.0117,31709.0
273,-15453.162,-19822.605,-46766.96,5952.6953,8884.276,-3908.2346,35379.9375
274,3611.0283,8715.632,14703.402,-3947.852,2903.8025,895.00745,12920.197265625
275,-10744.033,5783.6284,17902.498,-10737.432,4901.9766,2366.0952,32482.115234375
276,-14355.94,-14225.32,-3791.7205,2338.5718,-5953.1895,-5523.7964,18014.0234375
277,21012.037,21837.443,31174.52,-5524.8833,-3897.8423,5370.3394,17867.3828125
278,-32190.578,-42805.176,-68684.74,-6424.5303,-11232.922,-4123.881,40131.05078125
279,49043.688,28215.898,38020.414,-5803.073,3437.2878,-4918.238,23124.833984375
280,-15640.143,16772.139,7700.3545,4679.5713,-1533.6748,4140.818,31032.3515625
281,8055.498,-15365.554,19062.6,-8717.862,4646.537,-2107.7974,35122.6796875
282,-13235.384,15819.071,11746.636,3983.3455,9816.474,9403.28,36665.78125
283,12276.611,8135.349,23522.639,-3093.15,-1641.9338,-9449.205,22245.19921875
284,17457.773,-1292.5684,15152.346,-971.469,2464.2664,-1509.8374,18481.08984375
285,217475.2,216812.0,217143.61,751.73517,-459.8758,668.9401,2000.52392578125
286,-23659.883,-27063.963,-33420.355,13494.32,11815.461,-3870.4734,32919.23828125
287,-34097.75,5664.994,-31326.885,5688.7437,-1507.7267,2257.8206,39972.17578125
288,-20087.15,-3348.6035,264.0918,19021.791,2702.2964,-4461.498,38997.55859375
289,-22110.256,9677.132,21330.363,3405.922,-694.01166,926.55255,39439.609375
290,235220.83,235203.6,234407.92,444.5527,-0.4708938,-958.8722,1999.57336425781
291,-35746.914,-4670.9375,-36982.848,10833.887,4483.131,-2956.5254,38003.80859375
292,-23678.852,15889.019,3857.854,-1655.0481,-2155.103,6834.618,37371.17578125
293,-1536.4469,-9285.546,-5018.7026,-1408.6029,-4132.185,7885.9507,16998.009765625
294,-1213.25,-1499.2527,-2692.5276,1048.1699,-3653.1653,-3877.153,9501.408203125
295,-21586.082,17254.076,-13461.498,289.72565,1715.6102,4169.9204,36335.28515625
296,17060.574,-5833.5044,-25395.707,15.5290165,3667.3494,-2264.3208,37555.39453125
297,-11347.424,-318.02246,-24977.043,-3926.0938,4656.5156,-2841.1982,24356.724609375
298,15074.652,-8093.922,-2872.0115,1227.1123,712.629,5634.6377,23331.423828125
299,5973.345,6890.4478,16893.701,1752.9146,-1180.2635,46.62662,11112.330078125
300,812606.6,814123.3,813907.2,653.51465,-410.47324,256.88013,2000.98181152344
301,306.11893,1893.7509,1895.3591,34.677185,562.89215,-414.70013,1998.3017578125
302,213928.08,214368.8,212893.42,-156.33627,758.6128,-401.3975,2000.97521972656
303,49947.445,49970.31,49351.29,364.9833,1036.3866,64.43654,2000.98510742188
304,10161.552,21915.965,10464.55,787.4582,-2218.0876,-105.65884,12302.4375
305,2144.4658,14810.554,30608.63,1807.0638,11421.759,-817.21716,31832.037109375
306,6066.409,13613.937,-5379.171,5314.122,2675.366,-2870.978,20131.375
307,-23159.434,-2806.8828,-45897.883,-929.37134,-813.8884,-5911.814,38774.6796875
308,-21588.275,-1446.956,-21136.18,-5596.053,5985.0356,-8664.355,28694.841796875
309,-25175.246,-23472.453,-22883.734,-19570.846,2959.087,-5157.592,35487.65234375
310,38307.984,32892.69,277.29102,-10092.379,-1019.368,-600.6635,39742.671875
311,-44466.72,-14828.894,-32571.75,3280.056,4415.391,12745.453,35290.9765625
312,-21039.045,-20195.205,-20548.182,1955.5541,1982.0015,5511.075,10719.7119140625
313,-30496.227,-1023.8789,-39987.887,6669.165,-8.146078,-8780.96,40040.0
314,-27056.58,-8145.0234,3588.6572,-14285.715,-8849.33,9.289853,39552.56640625
315,-6097.0537,18892.219,-3084.7756,3310.276,-2660.8386,-9157.02,29392.685546875
316,418012.38,417244.8,418176.75,-682.6899,756.04694,218.27551,1999.57238769531
317,-34820.973,-25493.406,-15438.941,-417.46085,-12229.372,688.896,27064.7109375
318,31379.27,38383.977,32636.748,8535.169,-5012.975,-6579.6714,21578.9765625
319,7278.083,18419.66,20315.672,1348.6636,809.3439,12827.013,25492.6015625
320,17604.654,5286.042,-3693.9836,-6272.8457,-7025.7427,5519.9053,26467.857421875
321,-20662.768,23356.525,8324.339,-814.99585,-320.64835,-1439.7544,38864.875
322,13951.715,999.5505,-20888.982,-10110.778,-8606.912,6240.4717,39700.39453125
323,18528.857,-18511.154,-4062.9841,-9760.702,-8115.2544,3415.4097,39546.58984375
324,12696.31,240.55774,800.4329,4105.5913,-1338.5874,-6044.5786,17721.158203125
325,213249.31,212280.4,213467.36,98.99967,-571.483,772.12726,1998.82800292969
326,124525.625,124470.97,125601.49,-274.5325,468.84027,792.79944,1997.60131835938
327,324149.7,324227.97,323785.12,-40.518295,-82.51269,-1127.0922,2000.98291015625
328,385861.62,386033.0,385464.78,276.26785,-995.8945,-415.85052,1994.50439453125
329,150577.06,152582.97,151853.64,-1.1543463,470.95996,-285.10187,2000.46960449219
330,89747.47,88678.66,88620.44,765.62164,-543.1774,-225.3169,2000.98291015625
331,21309.01,1272.1875,22911.816,7206.734,-12688.367,-12634.71,39419.04296875
332,6345.1934,-11045.25,-28549.508,-9591.931,-1612.9202,3072.5232,35005.3515625
333,23678.2,-6230.0054,2262.8003,-10114.4375,124.357895,1652.3645,32058.80078125
334,1017.96594,-1953.6934,574.64453,1101.4457,8724.715,-5560.4653,18233.697265625
335,13309.7,-887.4907,5191.487,2016.7153,-3262.316,-3450.71,15233.5654296875
336,8194.057,-4976.4106,-23837.248,-8023.7686,2652.9207,-343.07446,31499.333984375
337,12152.547,-1096.1499,1335.2761,-3655.671,8353.436,2351.5378,20377.615234375
338,2260.954,-11632.848,-18147.035,-5340.428,11434.918,-6893.7773,30763.359375
339,-21014.732,11308.89,2416.4434,5013.3955,7186.734,-12614.257,39295.85546875
340,-5022.9297,26382.908,-11453.27,8357.022,-7434.4644,-345.1526,40066.40625
341,1437.9397,18657.445,-10571.751,7044.5845,4117.8774,617.6653,29127.97265625
342,4452.5776,5387.4614,7850.695,9433.624,-7597.533,2456.261,21621.548828125
343,4449.003,5330.5054,5792.4907,-1635.8909,-203.1338,-229.23639,3115.69775390625
344,43001.32,14589.735,45647.832,-2390.0042,187.39214,-12367.998,36953.453125
345,-5573.2373,-18059.074,-897.1513,-7405.3755,-7278.4424,6266.6284,26026.998046875
346,398.76102,16695.062,5640.822,-11359.6,2008.555,-8455.883,28659.251953125
347,-25599.15,-6296.3394,1719.9149,14286.085,5146.6387,-8820.099,38945.0625
348,19322.623,18939.906,19051.45,-40.836414,707.34875,-890.9907,2000.96154785156
349,15473.753,-7526.0107,319.0,-7811.5244,2960.2004,-10090.219,30411.9296875
350,14243.86,7483.398,22101.232,180.7293,108.28822,-70.86098,12677.138671875
351,-29297.21,12877.242,-6470.7886,-3369.846,-7010.349,4312.744,39677.953125
352,52383.25,19008.576,12740.246,-9070.685,868.4953,-393.9922,40148.78125
353,30990.484,4703.083,13531.736,5036.369,4544.264,-6128.103,28064.162109375
354,1191.0526,-3862.9927,4699.9663,495.91302,-747.5217,-67.955086,7616.95947265625
355,37070.1,21444.703,20980.297,-8562.235,-18095.572,1245.2094,38191.12109375
356,30675.469,13207.751,5642.266,-6301.5654,-13949.494,-10413.527,39022.15234375
357,-7840.587,-5809.404,-34498.984,8724.044,-9822.5,4249.129,36618.03515625
358,10632.775,4429.9414,83.60741,8352.411,4694.146,-5113.813,20932.556640625
359,47143.062,18523.756,48399.62,-14624.878,-464.3158,-1888.4338,38853.72265625
360,31064.713,36640.19,22452.71,5861.111,-4818.4556,-11059.097,26322.80078125
361,106611.92,86503.98,66162.15,-9610.344,1160.6995,526.0548,38847.1328125
362,14916.086,12278.569,7610.0312,-3236.8926,-1303.401,829.31433,8925.0966796875
363,-10013.856,-10112.103,-12038.18,-1910.57,-1296.093,5044.5815,9810.32421875
364,3624.9302,3722.5435,4738.442,1952.5901,814.8279,1175.8945,4326.498046875
365,1988.7148,7735.5024,34400.0,-7142.129,2543.5413,1157.6257,32767.59375
366,-104104.5,-104941.96,-105668.96,459.80286,671.76654,243.02745,2000.9892578125
367,10033.787,10522.052,7139.485,2063.3687,445.75674,3758.342,8110.02734375
368,253909.34,253832.69,254790.89,-836.379,299.8574,511.54855,2000.98876953125
369,12872.256,33189.117,-8720.536,2978.576,-421.60754,4265.8555,37409.39453125
370,-62069.965,-35074.31,-71398.516,10722.988,1484.3517,-20.364931,37671.95703125
371,90494.06,77559.516,116602.29,-7778.315,223.44287,1045.0002,37034.74609375
372,-43858.176,-15496.674,-50764.906,10999.984,3192.4915,-3189.4165,38367.37109375
373,-26852.375,-29983.672,2374.2832,11525.305,2931.0833,-2097.9487,37322.859375
374,26880.965,27846.941,44485.492,-79.899284,175.64426,32.667507,17145.314453125
375,-21490.781,-22557.904,-35886.945,1757.9263,472.88504,-187.96329,14250.388671875
376,4980.0747,5709.871,8077.149,-1862.855,-79.515015,-83.41843,4279.57568359375
377,18231.078,20851.178,34746.332,-4570.386,-7313.6997,1918.8186,21691.666015625
378,54342.496,47375.117,62780.453,-6816.5767,5342.362,2664.347,20611.884765625
379,41256.836,16276.904,30851.354,-9218.814,-571.4206,1866.648,27179.681640625
380,51459.375,52853.582,86420.88,-2422.714,209.44275,-256.55728,34546.2734375
381,3511.022,8896.572,10262.982,-5647.4795,3998.7117,1677.3761,13795.7255859375
382,16037.58,7403.079,9469.252,-2741.8633,-2498.5825,3284.4644,11602.95703125
383,12152.249,-12163.116,8910.045,-1163.9182,-806.263,-3109.9062,23620.802734375
384,16706.443,38059.73,29756.428,4343.123,-2578.3752,2691.4148,21115.591796875
385,-20477.127,-38493.387,-47670.46,9549.256,1386.5071,903.9797,29256.1875
386,-37668.03,-52646.7,-67306.516,-14689.538,1349.5774,-1276.3423,36284.34765625
387,-8608.694,-13143.347,-15364.174,-806.00726,459.03204,-612.11066,6266.65283203125
388,-81933.69,-81698.055,-94473.34,12429.117,3202.8176,1036.3329,25645.626953125
389,97105.375,86496.6,62571.26,11593.176,-2526.8354,-5628.225,38159.890625
390,19700.494,21307.943,20875.271,-104.66498,786.2588,116.72096,2000.98571777344
391,-311418.06,-310535.7,-312159.56,-505.66168,-218.77827,-608.44214,2000.99169921875
392,100847.195,102623.85,101776.1,239.4578,668.4223,202.10422,2000.98742675781
393,31199.219,18446.426,45758.105,-249.3345,-697.04706,-1148.6365,23787.88671875
394,-141311.75,-152120.64,-126215.09,1513.374,2985.641,1395.6333,23396.060546875
395,214190.53,241942.44,227265.5,2581.6836,4738.0474,14123.449,35553.140625
396,-12666.707,-54824.953,-31378.54,-7991.0894,-2465.1382,-492.06055,39358.88671875
397,65648.26,55919.59,89688.586,-6757.6514,11216.933,901.12897,37727.40625
398,94699.33,81831.39,121276.695,-8070.893,1080.0157,-1248.5382,37650.09765625
399,-60612.332,-55629.133,-92191.47,7179.6587,-2206.4058,-2269.258,36934.19921875
400,8512.708,2413.2307,-10443.925,-4967.1763,-568.2136,-3501.2925,19816.564453125
401,16232.529,6809.2285,22522.178,-6082.294,-3159.088,274.9115,18132.19921875
402,-7454.9404,-2077.585,-30190.996,-516.64276,1007.75354,1480.7238,26048.58984375
403,15657.744,17259.406,6305.6895,-3962.7273,1805.4191,-852.3082,12809.0830078125
404,-57513.69,-41739.008,-65543.71,492.761,357.44373,-1953.7295,21273.357421875
405,-54042.01,-28787.73,-53750.68,5965.978,866.9494,-1241.302,27279.3359375
406,-11819.529,-55457.918,-37934.89,-5108.6157,-2199.9563,-4408.775,39972.6640625
407,-19655.545,-32076.758,-17963.248,-2628.3677,2592.6746,914.9357,14885.326171875
408,-75178.695,-39959.734,-61441.703,12961.729,-730.4443,-626.24475,38106.0859375
409,72899.46,72237.18,72259.445,-449.36438,-708.79236,-699.19476,2000.982421875
410,-40456.062,-16544.566,-48265.973,-11139.461,2545.083,643.86816,34820.10546875
411,27246.994,27993.238,25972.709,234.37439,-106.73344,-473.76797,2000.98706054688
412,100876.96,118995.17,141566.22,5546.252,-339.13135,1167.5997,36652.234375
413,-3976.641,7393.803,-2393.3608,-7873.925,-2314.7239,434.2286,17788.388671875
414,-12114.418,-5647.087,-33278.848,2181.9,1958.0321,-2331.6558,25859.822265625
415,-5639.34,10687.205,11658.153,2960.9434,-4173.3403,-2576.3594,19540.107421875
416,67113.12,62985.47,103515.445,-4720.597,2430.7542,-470.38467,39719.82421875
417,-78035.11,-57781.117,-95334.37,-6970.743,-6973.4517,843.29456,36792.14453125
418,22252.057,10885.191,31916.812,-10446.352,-2299.976,1120.5852,26066.96484375
419,-28735.314,-46311.188,-37590.44,2374.0022,612.87714,-1270.4038,15955.0712890625
420,3590.2214,2168.4092,16125.176,2863.58,254.58955,1196.3336,14354.6982421875
421,4777.4272,3467.2769,-27092.688,3366.6526,-982.278,1590.0785,31939.767578125
422,70215.195,69629.82,69504.02,-341.73407,237.52269,-1008.6653,2000.98522949219
423,30382.16,53172.73,65087.87,4528.2207,-314.23862,-497.6161,31551.337890625
424,33390.81,28405.406,53565.598,-3730.6013,-1697.4083,-1737.8563,24329.240234375
425,-18813.393,-19426.645,-21121.18,-2356.9917,-5687.678,-406.714,10885.689453125
426,184980.7,146348.45,178557.3,-4741.7285,-265.03232,4822.626,37722.62109375
427,-44327.16,-54574.07,-83476.4,-7171.4673,-1101.373,-77.30571,37342.3359375
428,9741.837,9215.782,4403.492,-7912.125,2313.059,-1316.3768,15330.3896484375
429,-37469.902,-29485.86,-39087.72,108.26998,1587.7424,4342.3755,11976.8779296875
430,-27.722656,-38983.715,-32661.904,-5507.05,-2629.5771,1934.6553,37871.06640625
431,-67760.47,-76333.95,-45122.973,-5037.842,1361.0012,-7738.9937,32270.97265625
432,40188.2,46404.71,38632.12,-13048.804,948.7698,-902.35803,23805.396484375
433,-86658.09,-48247.71,-55402.234,4384.7075,2623.4192,7711.5464,38838.95703125
434,-37709.574,-26694.387,-15328.065,15040.427,-1610.1337,841.0363,32623.193359375
435,7986.0073,4537.606,25292.84,-3945.5308,-1863.0039,-2446.977,21122.876953125
436,-41904.574,-55633.34,-71491.914,-16249.976,3521.89,4405.1724,39310.3671875
437,-59833.223,-50593.555,-25956.33,12806.877,-2194.398,-906.2915,37801.62109375
438,35703.617,44160.51,50338.164,-568.6206,3037.5818,5244.0874,16525.080078125
439,-18349.223,-20335.082,-35373.5,26.909094,-25.450336,881.6473,16195.6123046875
440,-8515.095,-31898.658,1017.754,2639.4365,2224.3918,3030.6755,30395.341796875
441,-7272.194,-5093.858,-21901.3,-8621.396,1559.5533,-4249.695,23131.900390625
442,53040.03,31244.186,10535.539,-3607.6694,1322.0049,-191.966,37412.1484375
443,21577.451,24609.883,22673.11,-39.417786,989.2959,445.1515,3257.12451171875
444,2737.956,29995.842,11274.136,9827.792,-2421.611,-309.45218,29846.5546875
445,7035.883,7937.825,17151.129,-1178.3109,305.31534,-27.319721,9922.4736328125
446,-6246.7744,-28961.506,-15255.2,19104.385,-2731.0105,-1408.3845,38932.57421875
447,345871.8,358581.3,357818.44,-971.3268,-2060.6638,3098.1401,14027.9169921875
448,53450.055,40627.914,11371.934,-6778.577,-1738.556,2420.7217,39496.05859375
449,-38401.32,-27392.203,-55118.074,-1941.7842,6152.289,-114.970604,26638.138671875
450,-7958.4883,-6642.081,-15999.141,-442.72345,-709.0773,-616.8835,8955.880859375
451,-26417.602,-14558.777,-34328.14,8175.199,266.36905,2127.9712,22612.326171875
452,23433.742,32404.709,55316.74,-499.69684,-2150.1426,-1501.8574,28850.779296875
453,37196.938,47259.56,78188.13,4268.922,792.3553,-225.52542,37759.2734375
454,5616.221,9763.77,6363.9023,-6407.8257,1023.0081,-1964.5459,12351.46875
455,-216605.81,-197993.1,-201909.78,-4306.897,12931.286,1097.2162,29151.119140625
456,-31288.121,-33437.402,-65316.023,8900.428,-764.06665,2793.5325,36772.2421875
457,-8197.459,-14534.405,-20370.307,20519.842,94.16567,-1958.2329,37227.9296875
458,-41165.57,-36024.742,-65618.2,-1308.4762,1576.3165,20.182255,27616.263671875
459,431.08325,3734.041,4287.243,-7859.7173,277.72546,-463.41467,14115.3779296875
460,3894.3384,1753.4247,3784.4673,-3486.4417,-977.039,-2664.039,8061.0986328125
461,5955.838,-8628.223,-29602.023,8351.982,-5607.233,-1555.8088,35627.65625
462,97895.8,87385.555,115674.18,1255.6495,1118.0691,-2191.2063,25224.50390625
463,-15861.227,-11872.279,-26546.617,2501.6218,-1971.5331,434.18317,14272.8212890625
464,152997.34,154445.31,119809.19,6395.6045,-2429.0068,4508.181,36782.98828125
465,-93017.71,-122558.33,-112530.836,15193.984,-30.04434,341.03363,37012.20703125
466,12480.339,49760.414,35050.17,-4245.282,1414.6609,3688.9297,34039.56640625
467,3277.088,4481.558,5906.5986,-4286.712,1334.8417,-1780.9292,8670.994140625
468,-111093.02,-74475.59,-78025.195,-11059.014,-660.1974,-705.1421,39914.44921875
469,665.4258,1314.4834,21080.48,-5128.018,199.60695,1502.4567,22129.767578125
470,3893.7305,12599.527,20076.293,42.498535,-155.87724,2086.8533,14488.8681640625
471,100972.2,114248.49,130697.16,-4479.72,-4432.5254,-5235.988,29437.865234375
472,16857.879,-1733.4629,11529.23,-7086.0664,-378.74805,1730.3053,20857.01171875
473,-57046.336,-44940.24,-82625.99,-11075.955,562.6812,776.68695,38488.12890625
474,50063.457,42022.535,74092.24,-2159.1716,1947.1481,1.700405,29336.203125
475,8250.607,9026.471,12291.481,-794.122,959.5092,67.84833,4296.875
476,2693.8975,4235.7393,2742.346,1183.8545,799.1507,2060.8193,4600.68603515625
477,11020.974,-2089.0088,6293.4224,-3082.5771,-3916.0166,-2948.0059,15258.69921875
478,-4442.866,3917.1465,4464.8013,9.871801,-1251.9249,-2477.576,9893.7119140625
479,142098.97,142219.23,144381.7,-586.52795,-124.224106,-2858.755,5526.89599609375
480,-13472.787,-13813.174,-25511.66,-663.4002,-565.49084,-141.93942,11970.486328125
481,80129.44,93609.53,68949.2,-6833.5674,-15.530838,788.2355,24482.212890625
482,120387.91,101598.26,140645.86,1409.9159,-29.63225,-1502.5698,34011.98046875
483,920.24255,-1099.0537,7630.497,-2826.646,883.84186,-1903.0024,9991.6279296875
484,21081.244,15753.622,39054.766,4353.6465,-9.229233,549.68994,22471.23828125
485,11921.145,18424.775,21774.31,-739.4664,95.75449,-394.47964,8799.7451171875
486,81926.01,99229.75,96837.23,-11422.42,892.994,2234.673,25933.236328125
487,4190.8516,27740.22,36457.39,-5403.7134,-417.82956,-626.153,30416.212890625
488,-3488.3042,2115.5168,5860.0723,-1004.8626,132.08925,-466.4038,8375.1123046875
489,-7860.901,-11407.766,-18800.41,-3734.7378,-2283.1758,-814.0286,12366.2265625
490,-28264.34,-8341.858,-46729.32,5057.8955,3449.3909,-6829.3027,36852.2578125
491,33487.402,42298.453,73917.69,-862.2073,-387.64606,-758.80615,36883.83984375
492,-19984.078,-8961.539,-19890.812,2696.1575,-395.30573,-888.4263,12046.640625
493,36524.645,32693.156,53830.348,4591.8125,-801.7396,2722.611,21630.873046875
494,-29004.91,-25234.275,-11393.333,516.78094,-296.06918,243.16081,16100.3115234375
495,-2088.4717,-1477.5745,-4610.458,4170.963,-1410.3027,1125.6669,8380.5322265625
496,4462.948,7248.453,20292.592,-3428.3745,-1293.8192,8.679087,15953.8857421875
497,-40616.703,-43156.57,-7536.237,-9407.3545,245.98793,-1213.9254,38142.9609375
498,-31684.535,-24719.793,-44797.508,-3983.617,1758.6971,3186.2754,19978.236328125
499,7069.2256,16598.342,25617.531,-1119.6678,-1791.3448,-1853.8467,16786.681640625
500,-113.62842,-9779.832,27538.719,-9367.226,1742.4872,-3093.492,37768.15625
501,261.15344,388.42126,4797.179,1737.2289,-767.5431,-28.76974,5553.21337890625
502,13012.497,23418.146,30631.764,1610.9506,-1167.3126,999.4789,15819.177734375
503,-85878.81,-77115.9,-108824.836,-6401.222,197.80717,196.03697,30455.580078125
504,-26105.945,-19942.959,-1604.916,17860.387,2508.7583,633.48206,38266.8125
505,-73562.36,-94432.03,-117389.54,1682.9053,74.709984,548.9309,38093.61328125
506,32988.207,31026.434,57127.227,3755.8137,-555.9301,-371.89615,26029.91796875
507,-3921.7717,-6426.411,-10167.249,-2340.7075,333.74054,-282.64297,6829.86669921875
508,66792.42,75198.445,71413.07,507.28906,6675.524,2202.1353,14218.947265625
509,-15231.444,-12566.564,-16676.742,-3487.2542,-1313.51,33.060368,7396.21826171875
510,3721.351,3120.9734,4470.9873,-4423.604,-1077.9955,1042.5497,8174.609375
511,-1878.2601,-1088.4762,-3218.9817,3750.485,1783.413,715.02625,7533.529296875
512,55206.082,44716.133,83731.33,83.29103,-93.60576,-1623.399,35084.33203125
513,-225294.42,-201511.33,-243684.69,6855.373,-1325.6122,1538.8263,38659.78515625
514,-11172.319,5576.898,-9660.14,2403.2751,995.61426,1224.1105,16801.529296875
515,-13152.492,-12566.053,-28902.078,78.88775,735.7751,183.76292,16105.080078125
516,-13394.53,-9918.606,-37810.367,5942.632,575.30835,626.47833,28305.4375
517,16091.979,12334.425,35323.78,586.9413,334.41278,-594.42725,21416.69921875
518,10.418457,2169.3875,4176.9585,-3037.7202,1479.8856,1217.4277,7192.0498046875
519,-13842.57,-13763.451,-16493.773,-3664.682,647.15643,79.80326,6986.423828125
520,-62808.33,-65433.71,-86879.914,10298.862,-1698.8743,1232.5758,29232.732421875
521,-18067.08,-14242.359,-16677.463,1147.5039,-322.2065,-1622.776,4838.03466796875
522,-5825.918,-7386.346,-17392.865,-2990.1082,-401.92688,2253.2827,12677.4814453125
523,-97456.9,-97713.336,-104295.55,-20226.031,-1211.0239,5136.587,36822.67578125
524,12127.059,25818.383,13314.818,9373.542,7869.209,-10523.663,30890.23828125
525,-25250.254,-23743.943,-38979.97,-759.36896,-216.90479,-13.024859,14605.7119140625
526,-8671.661,-8578.295,28799.438,-2639.2786,2185.0886,77.30326,37892.3828125
527,16216.375,18082.826,31727.14,-334.2717,-1515.7454,2598.6558,15575.75390625
528,-7235.903,-7061.3594,-5974.175,929.00275,1350.8519,-1130.2004,3646.61450195313
529,35071.22,43419.15,76727.03,4015.7983,429.393,-1147.5525,38859.21484375
530,15618.049,17553.959,31074.16,-1695.9412,2273.673,-34.985878,15390.2099609375
531,-27506.36,-53452.793,-56714.246,-9548.638,326.8747,289.3736,32288.98828125
532,544.6338,13250.044,3497.367,-3627.0522,475.48,1435.3524,13377.439453125
533,-28983.45,-39440.67,-60311.58,-3691.503,1065.1156,-1056.075,28475.08984375
534,7080.042,-4159.9893,-5763.402,-2094.4731,868.8401,1774.829,13107.509765625
535,781.31055,2743.1355,1276.0004,3170.4465,489.0521,767.20197,5980.0908203125
536,-69482.21,-53802.04,-81847.25,-2302.0205,1679.8915,1295.0928,24940.8046875
537,-9337.882,-4703.2534,-14966.613,307.9506,-286.5877,450.72528,8966.0380859375
538,1689.4592,5230.8496,4881.7954,5484.092,715.761,-1395.877,10441.99609375
539,8471.747,17862.658,-757.9375,10695.389,-9.480682,2738.5378,25014.484375
540,1274.6804,4584.586,6488.9414,-2127.076,-1923.139,-915.32916,6933.07373046875
541,5058.4336,-869.9844,4827.935,-547.0113,-1806.1826,796.22644,6813.16796875
542,-50327.547,-44877.867,-84277.55,1002.9178,-1824.7305,-239.09921,37155.02734375
543,11390.668,13119.35,20059.428,-1614.6973,2460.6055,-1129.9026,9641.8740234375
544,-884.5078,5799.987,23763.088,973.3344,725.95184,-2280.461,22526.748046875
545,2672.0867,-3014.9966,8738.338,-4669.109,373.2333,978.7937,13127.65625
546,13563.504,10445.668,19523.232,2266.8518,341.87128,-779.1741,9022.66796875
547,82919.92,75760.33,113453.1,10849.604,514.34015,928.95605,39479.921875
548,70393.78,40310.453,76046.28,-5735.5186,821.9522,-944.2765,34790.71484375
549,-70169.15,-68798.68,-106726.12,95.37294,-1201.1755,106.02572,37319.96484375
550,-13173.618,-12626.664,-20861.41,1471.6812,-740.334,1113.6053,8687.251953125
551,-892.64667,2189.9866,-547.22,-4982.4907,-2544.7224,-2383.5115,10931.7421875
552,-58300.293,-57461.99,-89449.2,-1240.6562,-783.2481,291.5668,31682.53125
553,-15817.258,-16948.46,-36122.18,1681.5562,-2207.9924,-182.21725,20342.287109375
554,-9609.613,-10236.42,-22912.133,-2805.824,478.83505,-1757.7162,14233.28125
555,21699.02,17067.74,56664.074,-3442.609,-445.37958,-850.9772,38003.40625
556,-870.4735,-1236.262,-5713.9033,-319.72806,738.84326,-679.4864,5015.0166015625
557,89543.43,96691.42,98868.21,968.1608,1550.7821,187.50787,9029.0712890625
558,33983.477,34047.645,52854.19,-1478.5181,959.5614,486.94598,19103.109375
559,-21181.436,-20625.309,-27170.686,527.89526,981.1141,-655.9718,6672.76904296875
560,-7001.1133,-14388.848,-21238.795,7859.962,507.9062,1485.3619,18569.75390625
561,-10951.842,-8032.462,-18369.146,4350.3,-2518.4631,-788.1877,12761.6669921875
562,58071.46,53921.242,55911.57,1270.1968,-9.034188,-1931.5496,5381.31201171875
563,-2643.3108,-5432.0415,-1343.4852,-2845.3223,1094.2812,-384.81323,6435.4951171875
564,777.32837,-2793.3958,-6671.2197,-214.10541,604.4799,199.36908,6556.4609375
565,-158394.48,-161526.73,-198958.42,1386.8143,-145.61209,514.6669,39176.72265625
566,27872.691,32967.734,65108.14,-3234.9312,381.25153,-1842.4365,35563.12890625
567,-102904.25,-98171.7,-91657.64,2733.161,1392.6998,371.2241,11149.0302734375
568,10916.924,8438.396,21344.316,-2533.4382,137.81085,933.19836,12753.1435546875
569,80556.7,81194.33,113714.79,43.26103,41.904507,321.62494,32848.8046875
570,-5360.7705,1063.8735,-15229.672,-529.69366,505.192,-8.248903,14271.7568359375
571,8501.914,12561.633,12314.117,774.69214,-3351.9534,493.55933,7195.53759765625
572,-85.89843,-1511.9232,1925.774,335.20908,46.12859,192.54572,3066.55639648438
573,-78888.64,-81754.46,-104799.87,-1049.4421,272.10352,1652.3164,24840.77734375
574,-2739.3508,-9441.931,-3831.4995,-2162.7043,-326.29056,1214.387,7587.6630859375
575,-12760.987,-9518.709,-21123.945,-1651.5457,2851.278,52.281982,11838.36328125
576,-9145.246,6464.6836,14697.476,2734.184,-2763.4834,-4385.6743,23302.41015625
577,-6148.879,-2199.5317,-11774.231,2259.5342,680.6197,-1736.9746,9757.861328125
578,-3873.2227,39732.395,27008.303,-2726.9536,-1090.8392,-525.9669,39181.87109375
579,14662.311,-2097.9902,-23035.326,-12556.219,-607.2977,574.68256,39309.90625
580,140397.27,183252.36,159801.38,-8543.256,-1754.7087,542.70135,40132.23046875
