Element Label,S11,S22,S33,S12,S13,S23,Mises
1,1558.8912,1554.0056,-1286.7719,655.0551,-218.78468,230.81917,3110.40893554688
2,907.55743,1739.2806,1165.1647,1314.8416,204.50897,-33.166203,2420.55029296875
3,1488.6207,858.2993,-585.2329,844.3923,-847.79974,624.093,2975.6923828125
4,2696.146,3283.3533,-205.77234,883.99493,390.25046,94.42748,3646.63500976563
5,1405.5653,1826.0593,444.64667,-467.29822,189.42775,-24.393038,1506.24597167969
6,1117.9626,2193.8733,-155.87569,312.2689,-78.26802,357.82275,2201.31982421875
7,2351.7388,2064.0679,-515.1949,2317.3503,963.52563,-168.40208,5143.7236328125
8,1034.7546,1437.3977,516.1867,77.82503,-116.42537,-948.7628,1843.67004394531
9,1399.4452,-446.56125,-1661.8524,1484.9701,460.40552,518.3762,3896.86767578125
10,304.828,-308.25064,340.4774,2091.9941,402.00595,-86.07077,3746.3798828125
11,-187.4853,1780.7479,-1014.3854,109.83223,229.16917,457.9009,2647.26318359375
12,1141.5635,1567.1688,1766.783,386.12955,-195.64687,133.71568,960.053833007813
13,-397.97583,126.796936,-952.98914,526.00616,-248.2899,-172.1891,1406.63439941406
14,335.23514,1058.8048,1506.5048,666.23553,1171.8293,-126.99652,2558.8037109375
15,1509.9645,-162.24785,1577.0137,137.00093,-1224.2107,-1879.8547,4250.51220703125
16,1479.2456,1087.2365,-2311.537,-172.66333,930.0056,3057.8079,6616.07275390625
17,1701.227,330.45865,-3520.7688,858.07697,1047.385,-333.0346,5274.72900390625
18,774.2913,123.25243,-1294.9406,2015.9979,-2756.0,-1257.6252,6563.736328125
19,-10359.007,4654.0864,-1478.0679,-2302.9573,2519.7634,-7468.5117,19319.11328125
20,-4698.844,4091.3435,967.8694,-1983.0242,-3180.4265,-132.46066,10087.7509765625
21,945.71484,2569.9055,1310.0712,2090.9036,188.35538,1252.7336,4484.3125
22,66.4517,-4540.05,-464.1373,8992.849,-11899.83,1791.1461,26383.966796875
23,-31.708843,1839.9697,-689.3493,3216.9565,-1853.4714,-553.1281,6887.44580078125
24,1260.6682,1235.0277,243.37994,1121.5747,583.7795,242.0178,2445.68017578125
25,3493.65,293.09122,1501.4694,166.03506,-37.875866,75.60369,2817.87548828125
26,582.72485,729.3544,-777.49347,2006.159,-1065.2872,-1402.8942,4842.93408203125
27,1713.8932,6036.316,1533.6737,1911.6421,-539.68945,594.05255,5691.2578125
28,-299.4579,2149.917,51.807903,774.5512,315.99094,25.147085,2713.61010742188
29,1017.952,159.2282,-1001.6297,2484.62,88.328476,-1371.5883,5221.97607421875
30,2201.903,3789.3608,-1004.6595,756.8728,-723.0133,468.59625,4673.10498046875
31,1897.2443,2875.6702,669.50635,-1180.238,-1171.5604,1803.225,4660.18408203125
32,-1460.322,2086.4866,749.36334,1109.4697,-553.6184,-38.843674,3773.85815429688
33,-756.8579,2245.5596,-1054.6691,-939.8915,-268.50327,2481.784,5598.35498046875
34,569.55237,541.45953,-4760.8135,2263.2163,-961.70575,1815.472,7502.8486328125
35,2467.8665,452.58646,-437.95053,-56.291077,-969.8894,-148.74065,3089.82592773438
36,2613.8865,1920.8955,-1690.4003,2019.8164,1102.8142,-491.98267,5712.9677734375
37,3047.4268,2695.259,2637.7207,342.70724,-125.836,-859.9729,1663.1611328125
38,3834.3032,952.75507,-1038.8176,37.108875,1960.0844,398.30518,5478.5361328125
39,1571.8804,1667.4623,-616.4503,-186.86348,-772.9913,169.59041,2643.98852539063
40,3963.5046,237.45274,1781.9586,-1343.2825,337.485,-546.3736,4143.0107421875
41,673.5622,90.22974,-190.03395,91.50262,1572.1923,-776.57544,3135.6025390625
42,5290.963,-4613.7256,1459.0646,281.28674,3747.7283,137.9733,10828.82421875
43,11361.025,13881.577,6472.245,-5192.611,-2248.9963,2488.955,12538.9013671875
44,-357.65387,3788.3906,11844.005,6248.0747,-17290.764,10220.978,37985.703125
45,5267.3584,10873.922,32400.797,4499.7007,-1632.8539,15624.08,37637.8515625
46,-3449.0762,-7417.1885,-3839.1162,-1695.0161,9836.141,-3831.7234,18901.451171875
47,-7151.826,-3641.7944,-4161.486,853.76855,6396.956,5286.3574,14817.318359375
48,3457.0884,276.97595,-7030.0654,2697.1084,-6170.626,4147.7407,16565.25
49,4432.4053,2327.1152,105.66702,-849.7827,-3104.2102,4608.772,10432.6875
50,5102.3413,5081.509,-892.69977,1759.2319,6261.857,2269.5886,13348.6474609375
51,1630.8268,2771.5088,-862.62585,-2110.4602,906.8309,-1804.2037,5996.44091796875
52,2828.7163,3330.52,944.2177,-695.0427,-1190.6614,2100.6545,4867.1669921875
53,1515.2944,3263.9355,-584.6221,-578.0381,-3037.1294,-2178.5798,7352.06591796875
54,-1067.8265,7047.5015,-1672.5536,-956.76056,-1219.6716,-322.27438,8868.6162109375
55,-766.32416,4973.384,1310.1351,2873.4963,-1987.3632,807.3578,7994.5556640625
56,-1098.13,1246.0114,552.5703,2781.8,904.51,2473.846,6955.5537109375
57,1410.4319,-443.5052,-3093.1099,1156.8423,1698.6921,1237.9438,5713.03076171875
58,3314.1064,-501.55832,947.562,304.04578,794.1849,-1234.0072,4227.02392578125
59,2333.965,3280.913,-176.04256,555.03845,283.12085,309.28473,3320.44311523438
60,1850.5751,1721.0957,-586.3438,1526.682,625.40125,-591.763,3854.34985351563
61,2717.5815,1935.1162,-1526.7352,216.50204,-1070.2719,-1266.5416,4867.740234375
62,3234.2268,2230.7876,-1180.791,1397.1957,-1222.5454,-1729.0724,5947.97998046875
63,2352.439,1844.934,-244.6737,703.1471,-359.26456,-573.91296,2922.85766601563
64,1851.0685,2038.6562,-50.751144,1622.4502,250.80247,-1844.3091,4722.18505859375
65,1320.787,1883.2484,-180.66925,481.2174,-442.7306,620.29224,2419.1474609375
66,1107.6995,-64.41663,-1896.027,746.65344,-929.5853,-964.9458,3732.79174804688
67,1679.6123,852.7541,1202.2339,2034.4841,-1292.364,-3746.0789,7748.8173828125
68,1578.6022,1622.2083,1827.2223,782.2589,-179.67862,-822.3899,2003.61865234375
69,1997.74,1370.912,1928.8519,876.85284,-216.50328,-5.1087985,1673.85485839844
70,3614.2341,-1397.7256,-3799.8054,3189.1682,1976.1332,-1045.6667,9404.083984375
71,6325.0425,864.3647,-395.2204,-1189.6366,1464.0764,-3951.687,9788.1298828125
72,4922.3276,2435.5596,10583.819,-953.497,-791.6331,-1049.849,7760.75927734375
73,-225.1355,-1869.8873,-12562.74,-207.39948,7996.1523,-2908.9417,18760.5859375
74,8215.212,-1778.5734,1721.2355,-626.1026,2491.0972,-4707.8394,12784.0546875
75,-381.02417,5217.8135,-9389.078,2702.8218,2099.1929,8999.667,21001.052734375
76,-16986.371,4731.3506,-8633.628,444.46426,9927.905,-7829.8574,28986.681640625
77,6911.311,-7609.7095,-9189.266,-8169.2427,7915.1143,-3772.266,25829.0234375
78,-1581.0056,-1169.116,16040.669,-1027.1135,4757.4897,-11840.088,28196.87890625
79,-79.14643,-3075.7283,906.3093,1012.7976,3101.7385,4605.5503,10415.20703125
80,1910.9574,1233.2942,1685.5294,815.2371,-1567.3973,489.5252,3231.13354492188
81,-562.63995,4434.1895,1685.6812,-728.87024,-1135.0416,-1759.6722,5791.09912109375
82,-798.57605,3406.144,494.14868,1732.4694,908.90436,4717.726,9600.4560546875
83,3580.6384,3650.0793,3044.1665,-393.25497,-702.6256,-2541.6843,4653.53076171875
84,5149.0117,157.27472,475.40833,1594.5931,-1101.196,6.050032,5890.39892578125
85,2569.2688,1725.375,636.1999,-704.7098,487.05542,354.58182,2322.99560546875
86,1104.6663,3273.125,-1484.0867,-589.5725,49.400574,-539.1701,4351.974609375
87,2535.8682,3701.087,2164.822,276.18762,-254.17892,-1049.5953,2378.10229492188
88,33.245758,1472.4022,-1075.7377,142.59215,215.30846,-242.65527,2296.46069335938
89,1437.5417,2720.676,445.507,1126.9044,846.71606,1117.8132,3689.51538085938
90,1197.3854,1900.7076,1522.5381,1835.662,-455.64972,304.1512,3373.57958984375
91,3007.3752,2010.8723,1655.3085,1129.9391,-988.1131,1707.731,4120.9453125
92,2627.0674,2355.7864,248.61342,326.5179,-376.41373,-1693.1713,3798.7890625
93,3547.1995,-296.8745,165.6114,932.25183,-3686.6768,-4511.341,10846.732421875
94,2402.025,1152.4193,1863.9977,699.1148,8.273012,-1037.512,2423.72607421875
95,1496.7872,1017.16736,-2009.8518,-311.337,-807.15454,-201.74414,3634.84375
96,4243.6445,1137.6222,1766.7312,349.77408,-121.98373,-846.90314,3263.82080078125
97,2080.5374,3175.3901,1815.1045,490.29724,-1455.3079,-407.26245,3021.96826171875
98,262.66638,1759.0781,-914.26746,788.3877,-1327.654,-1497.035,4388.80419921875
99,14125.064,19077.777,22931.816,-2190.0525,-11280.221,3105.6099,21989.189453125
100,-811.93933,4337.938,3312.029,-186.2633,-7934.594,1928.8298,14914.0546875
101,-1714.0231,4378.5693,1661.2373,886.1299,-695.3269,-2297.4814,6898.50439453125
102,1120.4587,3450.1536,2074.3042,1182.8317,-992.3097,-209.68117,3376.14233398438
103,1186.409,3838.6062,-2292.5925,831.9323,-2659.9656,-107.49047,7190.3994140625
104,641.293,3070.8674,-699.1995,421.9977,1277.7272,-1820.6874,5131.59765625
105,865.27386,3331.6362,2015.5911,-1098.489,642.0819,304.3837,3115.1025390625
106,841.76984,1211.9481,-4253.5054,1176.7113,2380.2297,712.86005,7117.58056640625
107,2527.1445,1372.1029,-788.81384,122.71226,505.4405,-1560.1869,4075.99877929688
108,-3981.9106,-649.2188,-891.8675,803.864,-457.43207,480.43726,3689.96264648438
109,533.8078,810.25104,-4479.607,2382.1611,1249.7549,3113.9602,8797.537109375
110,266.79178,1190.5807,2115.6323,2855.487,-1001.67474,-1321.0525,5938.912109375
111,1675.6406,3243.4702,-680.7878,1894.222,-565.0746,-594.30585,4948.4423828125
112,3020.0137,-331.0216,-2356.7393,1118.7605,-485.75018,41.62124,5156.46728515625
113,1917.1118,3497.4377,-8.566495,-36.557568,-459.1439,570.93256,3295.93798828125
114,2166.7053,3905.8525,1315.7051,1996.43,-1170.129,-1115.0016,5002.33349609375
115,2342.513,829.49896,835.2557,1685.7773,69.50496,-873.5982,3620.78491210938
116,991.5419,-2359.4507,-7263.3315,768.762,-4613.376,2866.3538,11915.56640625
117,3054.1233,127.217,424.4545,4169.8647,-3116.1204,-1948.2253,10023.263671875
118,-6349.3022,-1106.0239,9339.217,5625.802,-3147.5916,-2869.139,18458.849609375
119,-4663.9688,2107.4246,17636.705,2108.4314,-4186.718,682.79144,21435.625
120,980.20734,702.5371,11037.564,-5311.9956,-3063.115,460.95172,14746.4404296875
121,-4106.41,43.34809,11230.425,183.54868,-15669.433,-9265.53,34395.33984375
122,1062.9886,2963.4893,2085.711,668.9631,-1327.4039,-1563.6637,4083.85229492188
123,-1058.21,2854.5203,2603.0454,1061.3331,-943.9287,-2456.6533,6208.580078125
124,3569.193,1541.0492,3280.1846,1454.4526,2492.1753,-862.39526,5551.66943359375
125,1701.7382,2551.33,2064.016,-242.3333,-1788.1207,-506.93146,3329.34008789063
126,788.55585,190.5727,-1353.2802,2077.9114,-506.04495,571.18585,4285.37255859375
127,-2167.878,-9356.267,-23259.201,-1323.9683,2415.7178,2914.7817,19828.20703125
128,-2661.846,-9601.028,-10177.428,1822.5322,-2402.5818,-14386.353,26470.126953125
129,3118.9824,3627.5354,687.8844,-131.25179,-50.11639,-915.81995,3159.208984375
130,-2004.3029,2532.1414,60.176235,3192.7107,1502.7594,706.26416,7370.71875
131,2336.3303,1669.0748,3798.5637,2503.862,2823.9885,-29.726957,6803.99853515625
132,788.9934,2528.6223,-3110.5117,-379.4582,1593.184,-2082.4075,6787.64111328125
133,1899.6412,850.8548,1296.3656,-75.08555,580.61273,-743.9127,1876.07373046875
134,2255.7002,871.45074,-1634.035,-260.6104,3343.9265,2802.0398,8304.5400390625
135,6586.7153,2703.6257,-251.7314,-2355.6797,2626.242,2050.3062,9232.4873046875
136,-88.81841,2008.4658,-2766.0403,-721.6741,1961.059,-788.1699,5669.5986328125
137,2115.9956,-8430.145,-4852.873,-3398.6519,14384.509,-5698.319,28967.203125
138,-6162.6016,-1228.6813,983.3192,4576.1855,331.9418,2089.5957,10789.0947265625
139,-11210.989,1093.4036,-5610.831,-4784.8296,1221.1226,-1973.2886,14095.8193359375
140,695.49554,-4422.8203,-27207.11,-2341.6255,-4640.8203,-3377.5447,27878.71875
141,5637.243,-3623.0125,1081.044,760.529,4626.897,2405.2603,12150.5263671875
142,1675.717,203.62637,-5268.226,2816.1777,-1597.4995,-1213.0139,8719.2939453125
143,3436.4172,1810.9598,1051.406,-595.6608,188.88629,521.9942,2538.21997070313
144,1164.722,-160.97774,-1509.6685,497.15924,-2944.932,-2623.8247,7264.7880859375
145,683.36194,-290.509,-895.13873,1028.3566,-1989.6312,-1010.6591,4473.87744140625
146,2123.4287,954.85693,576.423,-121.70047,288.15088,526.368,1753.77172851563
147,3118.8545,2655.2312,-51.54063,651.08746,-2149.5134,1208.0099,5320.4619140625
148,2682.962,2730.912,-1032.2695,257.84518,207.41545,363.53738,3835.15112304688
149,2200.7036,1665.4207,-252.15067,-101.527565,531.7296,-551.3557,2604.06665039063
150,2826.7324,512.62836,-558.1634,247.6721,-346.5097,492.58768,3201.83618164063
151,1995.1674,2576.2021,1332.8833,282.06332,-1609.4845,572.10736,3186.36962890625
152,9470.481,5438.683,32568.955,-4546.2734,9318.392,11065.355,36506.88671875
153,8770.165,4816.392,4615.5527,3254.1045,-697.91266,-7753.912,15167.89453125
154,-709.1743,1469.5067,-3600.263,2297.3984,-188.7158,540.11096,6018.29931640625
155,-34.12436,1956.2678,-60.07033,2066.6558,341.02985,-516.40247,4239.822265625
156,-1421.6527,6167.8105,808.9578,1453.8987,-455.86655,-1457.9247,7680.36328125
157,534.49915,3256.1462,505.39777,-178.4256,-117.817345,1295.6891,3558.22900390625
158,175.81084,3660.5042,2432.1099,769.3211,-1736.0994,-2368.5842,6084.3837890625
159,-344.9799,1483.6509,316.63577,1884.6494,-839.4983,-733.06885,4117.5146484375
160,3583.128,2064.8076,2948.9253,2091.8184,-1428.828,-2105.583,5856.34619140625
161,5549.3965,-1600.4427,2666.25,1869.1371,4438.251,102.17237,10412.7451171875
162,-659.9253,-1026.5834,-1554.1987,-870.7948,1491.5527,-248.77211,3121.05297851563
163,1006.4052,2832.379,3112.7942,1837.3368,2150.4382,-1951.1333,6272.6533203125
164,1824.5427,1632.431,-798.35474,1668.0056,1447.0555,180.63422,4597.73095703125
165,761.3051,1239.582,2562.2388,685.79614,1920.5144,-402.00375,3946.09448242188
166,151.55504,-268.79007,-1467.0555,117.685135,1410.0565,-725.84845,3114.9814453125
167,257.61288,2471.053,1719.9368,-351.04935,-1341.7572,281.6742,3132.029296875
168,3501.713,-2085.5474,-3167.3093,-2834.9465,1681.8807,-4954.785,12028.2333984375
169,6215.263,2033.258,703.3804,-165.53944,-1117.2261,1691.815,6101.86865234375
170,694.45764,2523.3481,560.19165,787.6866,23.746614,-2153.458,4402.68212890625
171,233.87167,1906.3436,-2395.8206,1881.9216,658.6256,2757.3037,6988.91650390625
172,-499.4225,979.3181,-697.2995,1413.4352,496.96985,1680.0488,4209.568359375
173,-77.73567,2706.2434,-1147.4133,1311.5938,417.3412,-1470.1655,4903.0830078125
174,4769.1733,2786.402,-2712.3103,-1048.1602,7094.6313,-6422.8184,17975.677734375
175,-1165.2883,2617.459,-730.7261,1365.2378,-1580.5092,9318.835,16925.185546875
176,1175.075,1452.6141,1275.9083,-292.54678,822.19226,-1723.2046,3354.439453125
177,2896.8528,2894.4841,858.724,655.9954,1808.7421,667.04785,4073.0380859375
178,-7543.7036,1167.5314,-10394.845,678.83856,-15401.948,-5139.152,30018.7734375
179,2533.6606,3008.569,-1679.7281,-580.4933,595.3109,579.29724,4802.08447265625
180,1883.8792,2378.386,2596.4956,396.8138,679.5803,-319.65048,1601.36401367188
181,1868.6453,2888.4167,-1367.177,1311.6543,3.2641177,1722.9255,5373.736328125
182,1792.8856,2862.3723,1278.5135,-1017.3139,-720.23126,1262.8549,3376.96362304688
183,1340.7014,1116.4318,24.331688,1062.9834,-1389.0939,-385.7999,3333.61303710938
184,-17576.365,-4632.294,-3000.8616,-1068.2281,-566.9417,1606.3701,14263.8291015625
185,-6581.7666,-10983.627,-902.2374,-990.6184,2387.3784,721.36804,9911.4951171875
186,1316.2495,-548.4431,998.5574,1016.2152,1146.7554,722.2552,3404.96533203125
187,1807.597,4.7727284,2205.7527,678.00006,89.86235,-883.6934,2805.80249023438
188,-2324.6929,2490.8193,2192.751,-1216.142,-3547.1409,-3198.0908,9731.8876953125
189,3270.754,-326.6557,-474.61533,-1310.2845,-13.193474,-44.54259,4318.857421875
190,4372.9717,2124.4836,3455.0864,-1218.3575,1992.7098,552.2869,4595.13720703125
191,2583.1943,275.0262,1714.2916,-1447.3668,-389.5341,881.24457,3625.83178710938
192,-1011.36017,1413.6873,-5078.654,1681.3021,2123.7178,-59.322525,7369.43212890625
193,1929.974,396.12146,-1123.8988,633.67554,1602.8942,-504.65488,4083.02905273438
194,2728.7517,-555.42413,222.01527,27.007933,-616.29486,-1688.3187,4304.634765625
195,423.7233,-438.71265,519.5291,122.667244,3136.7803,1170.9056,5874.68896484375
196,-350.82404,763.6501,-792.4791,715.5788,3050.9468,-2862.4746,7481.41650390625
197,580.4427,-3243.569,590.29626,780.44904,2501.0527,-796.5423,6095.68505859375
198,-209.33162,219.23225,2508.7603,1292.9495,1331.9929,-3075.9365,6717.79248046875
199,2448.342,-2849.8933,-847.87524,2090.2266,-974.2821,1136.5193,6426.66748046875
200,149.71268,-1593.7297,-2162.6501,1426.1558,-3044.1584,-836.6302,6352.751953125
201,1955.5164,-444.69232,-1821.2181,682.87006,-1349.5177,968.90607,4542.97705078125
202,2640.887,-164.51947,2198.7476,1727.4438,-1512.8029,457.70078,4824.083984375
203,191.9356,-141.00665,3678.2458,-306.84128,-188.94217,-928.7582,4050.095703125
204,3333.573,-2286.838,-2062.637,-159.01685,222.80688,-1609.4922,6194.78515625
205,-1314.3757,-2725.4746,-3170.066,-737.0377,2028.5331,-939.585,4408.990234375
206,1082.8774,-3167.1506,1109.7708,-315.57037,3337.1626,1785.9403,7839.337890625
207,2972.9,-2855.5593,2894.3232,-501.89682,-284.64804,1110.2069,6181.875
208,2361.9653,-2146.9565,-768.2609,-553.1928,-694.67346,86.81878,4289.88818359375
209,5050.173,-5107.882,1745.9911,-1726.14,-393.15503,-1240.2561,9724.0283203125
210,4359.5874,-3522.436,-3974.6885,483.4875,3366.115,-2019.388,10621.8056640625
211,4570.548,-8516.893,3403.4312,-4198.0723,-1430.1613,-360.7833,14722.9990234375
212,-9413.062,-3266.5889,2865.1843,-5282.7485,-968.81415,336.6233,14140.1767578125
213,2262.121,4346.675,5327.2217,-1618.1218,3471.0369,-1770.617,7794.5712890625
214,-3231.1096,3423.1484,4257.711,3862.0283,-1464.5011,-558.83264,10131.435546875
215,-3288.226,3128.819,-894.6246,353.0374,-704.7453,-125.18427,5784.3642578125
216,900.34955,2827.4285,4335.799,-1134.37,2281.523,-2913.725,7337.66796875
217,-2090.2546,3113.9102,-191.29301,-714.32404,-1283.4529,-1411.4786,5766.82080078125
218,-1386.9031,3599.187,1194.0062,413.2446,2983.6445,669.0941,6871.34033203125
219,-1478.2676,3036.1272,-2854.8298,1930.3969,4152.771,89.668625,9561.849609375
220,280.4117,4447.627,2932.608,2586.4385,794.22906,1044.5046,6211.4345703125
221,-886.5778,2377.2146,-1617.2631,1364.5104,38.43929,314.70264,4411.1513671875
222,-1544.6842,733.43427,-2048.4695,714.9205,1285.0195,-1845.0552,4826.0908203125
223,-270.90704,4951.604,3362.1584,234.21935,1950.0618,939.7598,5976.81396484375
224,107.720406,4740.3657,803.16455,53.276318,2004.5443,2131.6082,6664.658203125
225,79.320885,2461.3826,1756.2249,823.6128,2510.5947,660.6014,5171.5751953125
226,-990.3808,1718.0945,-2800.8584,-380.70554,-127.10439,-192.59645,4013.9580078125
227,2695.6172,1248.1166,2137.0916,-4.7752333,1551.4584,231.1352,2996.68994140625
228,449.4203,1602.6553,1387.8922,193.61728,1.3553452,464.86545,1374.470703125
229,-360.47513,227.44228,1810.4979,19.997267,798.22253,-82.65164,2390.72973632813
230,818.9965,1423.8097,-1004.0917,1614.7133,-1153.9908,-226.59752,4094.2763671875
231,222.29672,1439.8815,544.4925,1449.8597,868.395,-1028.5388,3596.7080078125
232,595.85956,-283.7783,502.2699,110.54003,2315.6414,-480.4163,4185.19287109375
233,1723.0874,152.26297,-682.79333,-1288.717,548.8507,600.9946,3383.22412109375
234,3600.844,1295.992,963.8095,649.8199,-989.9906,-1946.1309,4664.50830078125
235,1469.8303,776.4062,211.01855,75.20296,374.3063,999.52234,2151.03930664063
236,1483.092,1329.4647,746.1266,610.6342,660.4197,-915.7267,2322.98364257813
237,2427.8086,1357.2379,312.8241,-634.91125,-3990.6865,-1112.6564,7486.9970703125
238,2751.145,1277.8468,-449.42834,387.97278,-766.25287,795.41327,3436.55712890625
239,2482.2195,564.4229,-2134.8472,-360.55142,-813.599,-1265.1495,4828.90087890625
240,954.80554,-784.875,-2604.2354,303.56342,213.52516,1695.954,4306.2373046875
241,1668.7047,332.10294,2039.7363,899.3028,-1194.9531,919.0754,3415.28393554688
242,1209.1444,-1432.836,1609.1118,-737.05975,1237.8016,514.53625,3900.9248046875
243,1933.5378,-1815.8799,1360.6882,691.24585,1155.3591,3303.8218,7100.857421875
244,5533.8105,-1091.0076,6799.708,93.16883,91.05226,2690.3625,8697.2470703125
245,692.57196,1090.9445,-1133.748,-193.91852,-293.4066,-368.27985,2235.99340820313
246,5392.259,55.107773,-488.99265,-2110.893,-783.1593,505.4795,6903.5732421875
247,2110.4346,-1940.3755,-6968.9683,-497.84378,623.8555,-2041.6742,8745.4052734375
248,540.6773,-1734.1915,4313.2163,-2884.9585,807.28784,-1959.6343,8150.6875
249,4769.273,-3078.1294,-2805.8125,-625.0598,-1173.0706,1319.0326,8368.919921875
250,-11894.065,-10809.125,-28529.453,2396.9197,130.32343,-1825.8374,17979.134765625
251,4905.699,-10532.052,13585.994,-3685.5808,-1505.3268,3026.3696,22862.66015625
252,-7430.959,-9953.3955,18880.871,-6122.2603,-584.7478,366.06067,29646.568359375
253,-3877.0596,-15745.259,-20779.535,101.86355,-6587.5703,8370.87,23798.732421875
254,-8921.722,-4926.0156,-23790.3,5920.177,-4597.8267,3122.7288,22232.197265625
255,-1252.7327,-726.5387,12429.19,806.56335,937.63214,-3726.372,15050.5546875
256,8329.278,-3840.2893,6296.9414,-2012.1622,921.78564,2561.516,12723.0361328125
257,-4127.5166,-12577.4795,-11260.283,5088.1406,-2591.538,2176.2014,13192.0400390625
258,879.34015,-3871.3086,5658.069,-3886.8286,-3950.0076,-84.89258,12659.328125
259,-5532.4307,2647.7456,-30.08797,-3376.2659,2496.7463,9452.75,19316.912109375
260,-5612.2285,-1515.7234,-1266.633,3149.4275,1162.6829,-390.9052,7220.4150390625
261,-14622.492,-7856.466,-4005.4712,-7322.5684,1778.974,2243.5564,16496.064453125
262,-2298.5356,-5239.2173,-835.51434,-1115.4663,2548.4014,-3798.9795,9033.4326171875
263,965.4332,-6230.812,10932.899,-3633.331,3230.366,-1441.8196,17320.8046875
264,-5191.051,-1627.8185,-7731.322,-73.53371,2080.007,1355.9897,6834.67724609375
265,-1392.5175,5244.044,1325.2518,38.48112,1416.6301,-3170.7793,8341.466796875
266,-5001.859,-15.29245,3687.3984,1827.4437,3344.4658,-342.54636,10048.208984375
267,-1237.9998,3140.9192,-1640.5889,-1702.9104,-142.86124,-476.96243,5526.6025390625
268,-2672.6174,1540.681,-49.592342,355.5294,1645.628,-1012.87537,5016.15234375
269,-116.54858,-559.636,673.9621,-313.48856,2775.875,-367.11093,4998.7080078125
270,-1236.3082,1141.4634,272.6933,201.17067,676.74536,-911.61334,2886.39916992188
271,-1810.04,3159.5957,-3763.5776,208.80226,-3552.6665,-873.291,8860.3037109375
272,-1024.945,883.14417,-1179.794,1746.7734,-1328.386,1579.6472,5088.57373046875
273,-1662.1715,1580.6667,1172.1853,2423.4531,94.74347,-67.70373,5197.91064453125
274,-7.615191,260.6836,2385.3398,3978.7803,-1299.6841,1168.0974,7861.8798828125
275,1128.8334,-410.15683,-3520.222,2873.258,1480.4165,-1236.8414,7263.4990234375
276,54.080524,46.29965,-4667.693,-88.62985,-1.367724,-275.73593,4744.48388671875
277,540.15063,-487.86298,499.73074,618.20026,-465.46738,-323.4488,1768.40197753906
278,-1349.9897,3830.2913,-463.72028,460.84958,-472.72922,-2322.077,6365.009765625
279,-1107.6023,441.82513,-61.300865,2208.5874,64.87533,-1406.6965,4738.8701171875
280,972.67914,-43.320305,-600.0624,156.66379,99.26112,894.34015,2100.13989257813
281,610.8037,241.8663,-686.11475,-474.29395,-284.38864,-616.8577,1843.54711914063
282,274.70575,-1664.2062,-1197.5361,-2636.2295,761.84357,817.6598,5260.07275390625
283,-1659.6254,2901.9807,2484.4514,1574.2821,197.37848,1013.3109,5450.71923828125
284,146.84807,900.8742,-1380.7118,1379.3274,1289.8948,-422.2679,3909.9697265625
285,1178.9045,187.12634,1826.5819,120.998604,986.70294,-122.81201,2248.41748046875
286,2940.3792,-2003.0253,-3140.7827,-1192.1312,-689.6027,-1837.8418,6868.7197265625
287,3427.897,-4284.105,-1726.8293,-334.40723,-168.26169,1648.8934,7407.42041015625
288,-2067.7605,151.94064,-976.42926,1706.0254,1122.8246,-2640.707,6093.3916015625
289,2169.3088,-1759.9337,-433.3196,1583.8167,-502.41733,-2144.9585,5837.080078125
290,2243.6514,-4663.033,-6378.829,1602.3918,-2121.1885,797.85077,9252.443359375
291,4661.375,-3381.8694,330.514,145.43387,-1499.3536,-2144.1643,8319.6103515625
292,1773.7242,-226.80077,1665.345,1458.7924,-1336.4124,1070.1108,4355.99169921875
293,2065.9368,-137.37541,107.900665,-799.51807,576.503,2060.5469,4475.11328125
294,-340.8492,1553.8418,-5804.052,-687.81976,-695.37915,-1531.6516,7327.7099609375
295,346.97635,-1578.104,-9621.83,-2156.144,2478.9937,2236.1248,11457.580078125
296,1268.6135,2553.9812,4528.3066,-2406.589,325.8841,946.69446,5335.74462890625
297,-12063.292,1650.4442,-1869.2593,-3723.232,644.47705,-3176.6047,15009.74609375
298,-1472.0536,4605.8486,1256.4778,-226.78769,-80.68122,-308.30328,5316.1083984375
299,-3718.8765,1191.567,-7496.921,1593.5897,1289.3793,-1189.4285,8590.0087890625
300,-3616.8032,2225.2314,-1586.3544,-452.42227,-25.960524,-1075.2125,5520.3681640625
301,-571.4739,1805.2684,2496.3982,1900.6421,113.479225,86.62947,4320.60986328125
302,-620.30963,4819.768,912.6861,364.6655,-1640.1298,-88.35484,5665.45166015625
303,1438.4696,997.7692,-254.17715,-834.86536,1848.4084,847.8084,4100.06103515625
304,-774.9373,2524.7427,3881.0513,1117.8939,-1302.3824,-86.80724,5105.20458984375
305,-2990.606,4076.4897,192.9856,1086.7765,-2824.5972,1158.3075,8311.6591796875
306,-1450.0216,516.60065,-1592.1321,4281.3315,-425.8657,-795.2747,7848.44873046875
307,-51.782806,-2279.3145,2597.7773,3366.68,2029.8615,2406.7478,9034.708984375
308,1146.702,700.8324,-2562.6868,1519.4167,3972.753,-156.4938,8164.07470703125
309,-7850.681,-7333.2427,-380.18307,2179.0906,-7803.358,7190.85,20106.16796875
310,-3352.4949,-785.05725,-751.22217,1894.9677,670.42377,1345.1304,4922.294921875
311,-6199.6973,-2328.1243,1332.8839,-2050.0344,172.29129,319.79938,7454.50927734375
312,124.348816,1945.7125,4419.5405,-1955.1211,2109.6118,-1327.1301,6636.6884765625
313,-40.530514,53.413364,519.5408,2489.7869,1546.7234,190.16638,5113.95654296875
314,1964.3623,516.87134,-1327.6326,1783.562,-346.65292,2248.591,5765.37939453125
315,300.46304,-190.19957,-772.3294,-918.95215,-1523.8497,720.65125,3452.97583007813
316,5010.337,-1547.6782,134.17656,-774.8674,-314.35846,-91.56938,6076.96044921875
317,1009.2875,-1114.4706,870.6529,1567.6698,-129.09906,-496.7255,3521.095703125
318,-669.9309,-649.2131,-1044.8262,-1047.5609,352.4972,74.05115,1957.06616210938
319,3329.8196,-1044.6176,1214.9406,1065.3129,-473.19186,773.176,4497.423828125
320,3781.9988,-1222.3328,2419.5574,109.2146,725.63153,2161.0835,5975.59423828125
321,4671.1333,-3222.9275,4054.6125,357.0642,-1445.5651,646.45636,8107.68896484375
322,1174.0986,-7444.2266,-3021.07,5519.446,-2324.9907,-677.9301,12833.861328125
323,-13249.92,-20789.713,-3001.8115,3471.1733,417.6785,-1686.8652,16862.6171875
324,-11303.36,5332.9683,-4150.611,-1143.428,-2615.3804,-3550.149,16467.767578125
325,-5319.424,1722.8446,2323.8008,302.3378,564.46606,633.02136,7524.56201171875
326,-1664.5615,1512.9366,1064.715,256.1794,-1509.2631,-1494.1134,4754.03076171875
327,3001.0625,1915.9988,1442.058,-758.5597,735.7312,685.9457,2584.17163085938
328,3130.3442,-301.9634,-263.72934,-1207.3395,202.24165,-12.776402,4018.35375976563
329,2916.647,-1631.8617,-3240.015,432.97488,-857.97217,-943.7209,6002.6962890625
330,496.968,-149.02518,-2374.5725,1398.1886,-1350.7556,1314.5107,4830.1435546875
331,2349.4783,1496.159,1754.0693,-1722.2827,-1114.4758,128.23611,3639.8994140625
332,3980.3093,627.618,1872.8191,618.66016,36.19516,449.64365,3221.02172851563
333,-8670.662,-9758.79,-20808.857,-1985.3257,-2104.0168,-103.67845,12666.8603515625
334,6217.64,-5121.2153,5700.618,-4922.323,2702.756,5876.8047,17921.705078125
335,-6468.3457,2851.1213,-2947.2854,2199.41,2450.9004,-8654.83,17991.306640625
336,-16978.215,1989.0956,-13444.831,-1161.5624,-14174.263,-7909.7085,33161.609375
337,-3028.084,-1201.4537,-75.90113,-1735.3984,1687.8357,1623.0106,5669.48828125
338,-305.33508,-608.32385,-280.4589,2847.579,-1122.01,-2011.2632,6351.24658203125
339,472.5849,2216.7507,-5066.7783,-2589.3433,-942.043,1511.3722,8545.021484375
340,1766.4126,1400.419,795.2616,-315.66537,285.13327,-163.50458,1159.60705566406
341,443.31754,871.6517,122.31955,879.16486,1394.9203,-581.96747,3097.78344726563
342,2063.814,276.10925,-1483.1317,2457.825,-459.3345,-999.45447,5584.6416015625
343,4020.3552,-4161.5093,-750.6705,-890.84705,-341.2785,37.64193,7307.8173828125
344,1835.2623,191.72252,2594.1165,596.1213,96.36938,-412.74332,2475.7431640625
345,-2180.386,-1275.9451,-1991.2751,-782.7294,16.820808,1470.8535,3001.96801757813
346,1024.0979,218.90627,-141.89818,1520.3312,258.28995,821.4795,3198.10522460938
347,-2125.6228,453.21902,832.88495,1766.6863,-476.29913,815.2929,4451.05615234375
348,1181.2251,985.2579,848.8853,1899.1608,-200.41556,-780.9226,3585.27270507813
349,701.3989,402.0895,1052.8503,3039.6182,691.21545,-757.1644,5584.744140625
350,-4162.89,-4519.423,-2625.6326,-2819.2107,-3821.4038,2861.6963,9760.09765625
351,-2729.9683,454.59863,-2197.6555,2073.1323,1019.8534,-21.309855,4974.42822265625
352,-594.0058,-1372.9646,-1356.0999,80.41002,191.19202,-1224.863,2285.57495117188
353,215.88177,-216.63704,-403.44073,3342.3545,-3529.9658,69.46611,8438.79296875
354,-1876.052,1709.4441,94.407906,4058.5706,-825.6282,-46.918636,7819.2705078125
355,-1607.0955,1809.2169,337.33612,3882.0066,2080.6855,-1706.6132,8703.130859375
356,-1178.262,-568.46,143.38724,3104.6936,-1708.3356,766.3838,6383.361328125
357,-1480.881,473.479,-64.28825,2929.8276,1264.3013,360.86255,5830.560546875
358,-638.4444,-1064.8009,403.05762,942.73285,-341.59445,89.64205,2179.669921875
359,1544.4979,1538.6705,958.95044,-806.342,349.58914,-172.07915,1656.96142578125
360,-1084.144,-1903.8269,-432.56686,-662.31573,-399.32288,-104.503334,1859.47436523438
361,89.16119,55.128727,-75.24966,16.9059,239.4445,-6.6628976,442.250457763672
362,-2591.7195,-2434.9568,1003.80756,-423.8282,-209.40703,-508.39954,3719.48901367188
363,-1442.2843,730.2719,-467.71667,-675.0274,-310.8917,458.14725,2416.427734375
364,746.7081,700.4449,-763.9818,651.9279,440.99313,-255.30951,2066.02001953125
365,-496.4926,-302.8631,575.45,-786.07355,-0.26874253,429.82266,1840.37268066406
366,1.5877266,-2733.7532,585.504,123.67791,-182.3188,22.596292,3093.12109375
367,1574.9023,-1660.8818,279.17337,1464.1207,188.50027,-476.18423,3895.42211914063
368,1592.6847,-1621.7561,-711.2329,-745.42554,392.12344,607.6164,3386.84399414063
369,348.60266,-2035.1086,803.4569,895.06525,852.99915,-50.567184,3401.04858398438
370,-1788.2587,-1242.2307,779.8006,-350.9563,-865.7868,-364.68384,2916.8642578125
371,-547.77094,189.59059,32.453606,391.2652,-202.72514,345.4211,1180.26794433594
372,-90.7677,-464.00595,260.46387,425.18015,231.04231,58.532,1051.91137695313
373,-558.00635,-518.1109,-40.00953,-451.91745,-105.52517,-43.26988,949.188232421875
374,-388.06723,147.17639,-127.10778,-418.13226,461.41983,-640.6425,1615.36560058594
375,-528.8846,-504.12234,-1009.6452,1033.6033,-1096.1909,185.9022,2675.30151367188
376,-1032.6656,-671.09326,-579.4345,267.5246,-663.36816,37.608273,1308.205078125
377,230.83078,582.37415,420.13544,-39.878365,11.979172,-240.66441,521.372802734375
378,-832.1135,-1535.2219,1254.4578,-1316.241,186.68622,733.19324,3637.30249023438
379,379.36685,-1540.9927,-109.64206,-547.97107,-0.41943797,-117.013725,1982.35498046875
380,115.7649,51.827015,585.79584,253.2218,252.53046,-156.45216,843.907897949219
381,-234.51357,-1282.8512,-879.97046,361.0409,188.37187,-250.85643,1235.01416015625
382,1610.717,179.2115,931.98895,-517.562,405.18723,-467.70544,1868.33178710938
383,-127.06885,652.3574,1303.3293,449.57486,273.4321,597.88446,1855.18188476563
384,-835.3542,504.02228,-20.871132,1312.9177,-96.53379,-22.95573,2562.65649414063
385,758.2987,196.1209,-841.36194,762.25354,286.01154,576.44116,2227.333984375
386,-647.40985,-12.425387,853.3457,-399.08722,-409.8733,-50.758816,1640.74548339844
387,-2741.4238,1636.0526,198.08952,-1917.4128,411.02728,990.3053,5423.4443359375
388,-1915.8099,-2783.576,-216.56696,-379.0262,-991.56525,-589.5789,3088.42797851563
389,-2209.3674,760.8017,-13.426088,-556.47894,53.150887,-539.5039,2988.71557617188
390,-510.29144,-1490.8365,-111.381584,-226.9603,-324.7858,-358.4584,1538.90051269531
391,624.3147,-2147.6802,-1211.055,696.88104,-308.68365,369.31802,2849.01318359375
392,433.47046,-2580.1548,613.4506,334.79556,-676.2868,-513.0782,3486.37719726563
393,-92.46507,-2504.6396,-521.2485,241.8071,137.13382,-314.62897,2344.55639648438
394,-1762.5887,-732.1092,444.002,-363.0566,-931.41815,-56.170853,2581.58862304688
395,-2431.3728,-1421.7507,-45.694153,159.36354,-581.76715,214.13538,2351.86669921875
396,-1022.3505,-1125.1355,519.78357,1026.6637,507.29962,-132.8467,2556.2412109375
397,-2612.5837,-50.15872,-145.64825,-1382.0637,293.55582,330.0849,3556.14233398438
398,-452.9338,-2300.9429,847.1774,-764.18604,-440.60507,755.2483,3399.05615234375
399,-333.57425,-1718.7175,-986.7383,-468.65625,420.55716,-47.3713,1623.81420898438
400,-113.8891,-1922.8341,-486.85486,-1208.5581,291.60217,329.19385,2774.662109375
401,1088.9058,449.86014,-545.67017,-825.11584,-4.356647,291.22275,2081.48681640625
402,-792.92523,896.1227,852.118,-707.7085,-242.38618,624.00037,2372.22045898438
403,75.75961,-668.173,250.90337,-26.60285,-541.26587,-46.876442,1265.71240234375
404,442.52524,-411.44998,139.3922,-321.7799,-402.23016,189.30397,1210.70129394531
405,-1040.8893,-725.99194,1088.9872,125.99807,-432.50983,108.40247,2146.83862304688
406,1870.9011,-1614.4879,723.2217,-1357.5522,-206.4077,231.21104,3909.22338867188
407,-805.4662,-1026.7966,-487.35425,-496.29807,-614.29297,-732.1652,1923.48400878906
408,-2292.8757,-457.30118,-663.20087,-63.59181,-136.77197,376.1189,1877.87963867188
409,-1491.4384,-414.98486,-799.7209,-362.16757,-801.5214,-343.86902,1888.95922851563
410,469.77682,216.09753,732.1315,517.77203,-224.35736,44.700325,1077.49877929688
411,-2301.5396,-597.64417,-847.4242,-551.8789,-299.9245,1317.5078,2988.49560546875
412,-1501.7427,-1793.6434,-381.85443,-984.6474,366.2865,780.6647,2608.76440429688
413,-367.84085,-423.373,-138.45325,-154.1945,-229.28079,-963.2534,1755.29174804688
414,628.2065,-602.1605,550.7174,1131.2716,1599.3864,-584.84314,3736.84765625
415,-53.419693,68.38362,-113.03682,1303.7748,17.82575,340.0236,2339.43139648438
416,-105.019516,-1280.3389,-807.17633,-337.16495,581.23254,-303.65277,1637.15930175781
417,547.4326,-1224.2058,1048.3586,-412.82513,20.198677,-183.45027,2211.45874023438
418,-1487.9246,-1474.5764,-79.56611,-28.952202,-220.13005,79.96418,1460.11022949219
419,-1811.2979,-2384.3423,-880.5263,1081.697,28.129498,16.817808,2289.43579101563
420,364.09442,863.3226,213.38033,-608.24426,233.2337,922.74316,2043.19018554688
421,-2843.933,-3079.1465,-1402.1272,-450.31705,478.2757,-16.244223,1941.3017578125
422,239.48167,722.8463,621.3661,98.61792,148.40302,-395.81763,871.865417480469
423,-288.27875,601.08545,1921.3909,562.37683,-79.8692,-8.3708935,2162.53515625
424,596.56995,-34.028458,-109.590675,-388.19037,138.51353,-209.91656,1045.39074707031
425,-625.0727,-726.76196,-251.0107,517.5742,-168.72911,69.57279,1044.9306640625
426,-1099.0605,-1354.3582,34.878357,764.209,-228.37752,328.1208,1967.73754882813
427,-1235.1658,-1945.0322,-1626.8948,-45.01524,143.21346,28.434904,670.314636230469
428,332.51785,-754.3127,-695.3924,1145.5706,146.22891,-343.4794,2340.0244140625
429,402.5667,935.1242,-377.242,378.2789,210.4669,406.43442,1537.77526855469
430,-1674.1403,-1154.184,-515.988,335.9816,-251.69695,333.84537,1368.41003417969
431,81.79235,-277.64053,-829.3889,497.27036,781.26654,633.2178,2099.47485351563
432,1321.011,-937.3613,-157.16406,821.62317,366.80728,-364.23547,2602.65551757813
433,-591.2191,-245.35138,1208.4323,-429.85446,-438.17194,475.96472,2132.10327148438
434,-70.70918,-836.11237,-432.48376,-188.35522,281.77283,709.6909,1515.06555175781
435,236.58975,-623.3368,-147.6803,-111.10888,432.8315,-109.24895,1091.587890625
436,-28.879763,-816.21643,-142.52296,-1333.56,-615.4869,601.3209,2846.00024414063
437,-895.25195,-980.8498,-783.7527,-138.20197,-919.15027,-964.1974,2325.9716796875
438,719.3554,299.1476,374.20645,-223.53264,210.60793,745.0016,1448.69519042969
439,-314.14987,-1294.5876,424.5111,-1282.8375,96.48245,406.9823,2773.6142578125
440,-164.25175,-141.3884,240.29279,202.57838,153.64609,159.62402,652.15380859375
441,387.46695,-112.96118,440.568,-451.43982,-364.77252,249.223,1215.20703125
442,-173.74706,-1733.5273,-585.0821,-736.9829,24.7325,-711.12823,2260.28637695313
443,965.2751,-85.44385,73.90619,-240.30359,468.89188,-458.38345,1557.28381347656
444,1225.9072,-1180.5072,1336.3561,-753.6726,146.30197,725.2763,3068.41528320313
445,-439.08075,-1925.9373,321.25082,34.970627,-129.60753,472.77094,2154.98266601563
446,1413.7094,-257.17426,1033.4052,223.89104,-776.0438,-975.7581,2667.29516601563
447,-2774.8423,-3359.7637,-1107.8192,-422.80536,-23.849888,-28.173147,2153.2666015625
448,-127.7712,768.2922,498.67273,476.97742,-812.3166,-163.67087,1837.52270507813
449,-856.0656,32.957745,-656.8614,757.79156,-366.49606,272.8322,1732.6171875
450,-1362.239,-1824.1896,194.9506,152.50104,113.6287,-399.32507,1986.06848144531
451,-345.40002,-59.42148,1573.9832,-66.047165,-433.72406,-168.39586,1969.62463378906
452,-3011.7068,-2506.4275,-478.45303,-1216.9747,155.85603,427.21536,3233.60107421875
453,-240.64247,-591.60236,833.5676,101.21137,386.44028,-768.2197,1975.68444824219
454,-2041.5737,-1986.2197,-111.910324,723.62585,-395.7186,-239.77435,2415.16235351563
455,433.02377,-876.39197,-661.17017,245.2999,545.91974,-176.04482,1626.85327148438
456,343.07977,-983.0909,-476.2972,-187.2352,-190.0945,71.96306,1254.02893066406
457,957.68945,906.7592,337.60617,446.99808,267.09003,-176.06062,1123.36169433594
458,-496.09283,-1037.6248,-1788.1628,726.6169,-555.6815,-268.02948,1997.19445800781
459,219.46973,342.23636,-299.57495,77.53949,107.91239,153.36612,686.83056640625
460,-628.64966,-1263.0067,716.4811,-817.97516,113.661354,-21.776056,2261.08544921875
461,-598.78094,620.7428,859.6682,208.269,-94.08769,-132.19157,1429.9677734375
462,-2465.0447,-1845.8318,708.27747,450.56665,0.45112965,-38.735233,3016.94677734375
463,1.4649361,-582.2391,-325.91864,-356.6311,407.6184,181.1726,1111.43212890625
464,-520.6934,-47.660633,-790.00397,174.8593,-519.6867,-130.34218,1173.28527832031
465,-157.08902,-731.62634,-103.31349,407.37988,668.3962,-931.5496,2192.11547851563
466,-1337.5028,-1124.6768,-1007.47754,455.2193,44.976006,-473.41592,1176.47094726563
467,282.753,-904.429,641.2624,1110.4922,955.85016,220.01784,2923.91796875
468,-254.44504,-1516.3241,-674.93823,565.39404,-508.96683,270.73895,1787.34252929688
469,56.87573,-29.399876,-156.48132,-236.24861,312.48984,187.70836,775.016418457031
470,-1082.269,-509.90866,221.50044,464.61072,-270.20914,262.83084,1534.61840820313
471,-3288.1802,-2278.14,390.58243,1234.5516,-361.08716,-193.87843,3989.24169921875
472,-132.70554,620.56714,135.31682,-488.14374,366.14545,-101.56286,1259.10571289063
473,516.19604,3098.6418,89.17329,84.48094,-135.31483,95.36716,2838.6201171875
474,1323.0725,-841.35095,569.5264,1230.2877,-228.87933,-313.4237,2935.00439453125
475,341.9154,-478.08176,-203.58797,135.15929,145.37538,342.88553,996.782653808594
476,358.99936,1958.7711,755.83795,147.60658,260.14993,46.462074,1535.17834472656
477,-900.35834,642.7473,1414.4303,-232.74431,-905.0175,358.3291,2678.12182617188
478,-156.73242,1677.2108,542.7416,-7.3920817,-85.62183,-78.18544,1615.64599609375
479,1130.1147,3220.7012,2.7291567,1003.67126,438.52655,-248.55681,3432.6044921875
480,525.4199,-455.4523,-297.3166,-1583.4242,-0.28184426,111.41206,2896.71215820313
481,1230.8911,-1584.9038,427.31143,135.46994,280.74084,29.995724,2570.19995117188
482,-1435.8767,-1980.1415,-587.113,-19.642153,-166.39403,-133.1373,1271.20849609375
483,-2243.8953,-137.7902,97.531715,-504.1815,230.29082,311.56097,2489.89501953125
484,-1977.3376,-1216.5258,-926.09937,-141.21284,-272.9193,-517.7903,1404.18676757813
485,-2559.3206,-793.5026,-53.095287,-998.709,-449.46097,-586.9197,3099.26904296875
486,465.46255,-490.00256,976.7784,276.87454,-586.9059,205.93593,1747.42236328125
487,-478.04086,-1537.5912,-673.4624,395.4693,242.73724,100.56668,1276.7421875
488,-234.0808,-102.22472,957.6566,-494.0257,328.7192,-575.6369,1825.07885742188
489,-3029.7495,-1841.184,-887.8254,-454.7739,-275.10147,396.22452,2184.763671875
490,-3202.872,-1837.8534,-928.3717,-316.5931,-379.4825,54.854637,2161.85888671875
491,165.84067,1275.7931,-512.5907,374.68182,482.01843,383.38882,2001.10864257813
492,-318.35086,-1905.9045,-281.65152,731.31714,401.15857,-215.366,2192.33715820313
493,-871.69775,-1366.1923,152.53055,480.24612,95.785774,-385.5597,1722.04711914063
494,45.323364,-607.1168,-521.9563,-374.20728,-199.33974,440.47632,1224.22583007813
495,-1276.601,-776.7633,539.25226,-311.22507,-487.21033,223.36441,1947.28247070313
496,-1122.7327,-1549.024,-550.4343,176.21375,329.9723,1.7557718,1083.06225585938
497,913.44116,2212.132,-397.23004,-381.48557,319.47006,-59.666435,2420.75830078125
498,-1716.9741,22.060394,76.50309,-610.6311,540.1508,-814.4065,2665.625
499,183.58177,1003.4671,126.98728,840.91534,-75.03605,81.52849,1697.07507324219
500,-2262.5364,-2104.5562,-170.70546,857.4953,116.07935,-476.48282,2645.31127929688
501,133.86322,1290.6263,834.62823,1106.8937,-230.37654,-417.8881,2318.90185546875
502,-252.88542,277.2455,-1337.7114,1480.828,-489.51437,-181.04437,3070.6259765625
503,-673.0288,909.1928,-382.33826,469.2289,589.7735,359.40573,2054.15014648438
504,-85.53165,227.46803,175.51393,235.41878,-104.65649,20.588049,533.669372558594
505,-750.02563,-224.74,641.79285,-930.0179,74.852715,-214.12956,2056.974609375
506,-1037.3866,-1035.0645,-549.2981,-999.2203,-135.45866,515.15454,2020.79833984375
507,-1327.7773,1196.835,653.64703,-45.113747,104.96966,-40.23083,2311.14672851563
508,-654.9806,1124.2544,317.09576,587.03424,23.908028,-95.24856,1855.75219726563
509,-225.19739,-1076.9065,-108.86814,420.5825,125.0067,-477.63037,1449.12414550781
510,-2166.9814,-500.57538,505.28973,64.6215,-353.37787,296.7677,2473.09985351563
511,-2273.9146,1891.6393,-188.95819,-635.2344,332.41635,-65.692085,3816.92309570313
512,-1263.302,1254.1864,161.12447,1013.0036,44.173935,199.23244,2825.63720703125
513,170.95926,3849.1174,-59.655964,-87.70323,106.521416,-18.607925,3806.36645507813
514,1227.785,255.02464,-207.6508,249.5392,-192.93404,-304.22742,1478.69763183594
515,-350.56903,-2098.81,-488.99506,2019.399,-190.0843,-345.5919,3941.33471679688
516,-406.5763,-356.58115,-1284.6027,-83.42894,-157.04285,494.34845,1282.70678710938
517,-812.90295,-673.2536,1257.1101,746.5984,-306.1138,-286.35837,2492.935546875
518,672.37134,597.0799,2098.1528,-642.86304,406.78452,89.67529,1976.419921875
519,76.980934,572.8192,-1157.7167,-883.4832,408.11026,325.7012,2354.16186523438
520,-546.5619,782.05316,-296.68332,405.21872,-214.08939,527.68304,1720.79125976563
521,765.56934,-1030.2899,-3341.635,65.084496,-117.85327,-117.18459,3579.64379882813
522,54.3668,-60.554302,-1676.3564,52.097435,-75.96613,33.941513,1684.82177734375
523,-992.95984,493.41238,-1500.8885,-184.71982,-190.65631,-56.537395,1855.60461425781
524,-2006.7189,-2091.9368,1405.0726,1081.4418,393.69495,-68.42529,3990.72802734375
525,-2752.8462,-2302.472,460.94077,1053.3015,65.67895,-229.40808,3547.25439453125
526,-995.98737,1514.3634,135.9487,109.80923,-339.43314,65.79306,2266.36010742188
527,-837.87445,-1153.4952,298.41513,249.15088,-8.479754,34.78381,1392.65258789063
528,1672.8329,1220.9165,1580.9806,262.0155,-399.60428,655.8859,1465.16955566406
529,-491.60938,-932.31,-71.19762,1058.6199,-282.10214,595.5549,2284.9658203125
530,-1788.084,-1084.2455,-825.2632,992.72644,375.31973,554.0596,2246.06323242188
531,-1541.8683,-2278.0557,-454.77994,-266.86728,285.99805,-54.588333,1729.74353027344
532,-1571.4448,-1309.2544,343.87033,357.8875,14.160265,374.554,2010.15502929688
533,127.91919,1297.4038,-526.49097,221.15794,-135.06279,-339.12112,1762.87756347656
534,-610.80133,612.8682,-241.95245,-381.34213,-166.38083,-122.77118,1321.58959960938
535,-814.7396,2717.871,-95.13038,868.539,-187.55644,15.156074,3581.1142578125
536,-1696.8783,524.103,247.24307,1253.775,-270.44012,-116.263916,3061.09936523438
537,1966.744,697.79407,3205.0461,583.40894,84.04595,-502.07764,2552.15698242188
538,551.13165,-1045.1676,1684.1943,1154.5305,-94.465294,123.856186,3116.46020507813
539,1558.1051,2730.5955,327.28085,-2099.1611,438.04053,300.08923,4289.29150390625
540,-1463.6635,-1467.5675,-835.82574,1877.7701,256.20227,-37.02826,3343.013671875
541,-3096.5867,-2664.8938,-1248.6282,1557.2935,-492.68472,87.812294,3290.95678710938
542,3404.9844,-832.64105,-2151.0972,608.61304,-342.6634,30.368431,5171.9599609375
543,-1980.4937,-238.2565,-99.098946,-917.3285,-80.9601,43.046734,2418.03588867188
544,2954.4866,245.75374,-1007.6328,454.05215,30.185871,65.992256,3596.88623046875
545,3635.9148,-1697.2013,-808.44525,-1396.9188,-288.69208,-47.483265,5532.00830078125
546,4963.2715,-1443.6677,-1011.9441,-1922.055,257.92767,320.05438,7075.23828125
547,202.4721,-102.76893,27.898495,1452.6849,-167.6441,62.30344,2548.96069335938
548,3078.7974,981.7932,119.00533,-664.5994,144.53195,-164.97688,2901.80932617188
549,3405.966,84.08482,-491.49417,-927.912,191.92793,80.95194,3998.92749023438
550,-1565.373,22.59391,-1043.0483,-1186.2974,142.7529,482.6697,2635.7119140625
551,259.16486,857.69165,-650.91364,637.0271,-76.51423,274.88876,1786.8544921875
552,-1682.7021,-3122.1292,420.53888,-1247.1855,319.7879,-35.75495,3807.89697265625
553,659.4918,1801.5773,-165.72119,-225.52742,-122.32505,445.76147,1929.08984375
554,2695.1057,68.62749,1365.8281,-238.0754,7.732222,-86.52329,2316.61962890625
555,2755.9314,149.60341,3101.5203,-225.64519,105.926735,146.98627,2839.7744140625
556,907.9172,1744.3046,266.301,231.43102,-234.7555,59.758118,1408.7509765625
557,1908.3267,655.15015,371.90158,216.74432,-414.54208,36.57598,1632.82727050781
558,-1197.3246,-2937.4607,346.6764,-957.98517,-100.35125,-276.3831,3333.37133789063
559,-1251.5958,-4776.2695,-65.70044,-1007.5187,98.45572,427.84247,4651.13720703125
560,1267.2471,-1419.7327,134.90712,443.829,318.60052,-14.0509615,2521.02026367188
561,-84.85825,-1793.4579,127.4234,250.52467,-49.32844,-509.29956,2073.84326171875
562,1758.9377,897.6958,-164.48645,368.32333,-71.08291,-270.12958,1850.89685058594
563,-1213.0436,3252.5774,119.60145,980.6297,-34.397945,28.234505,4319.4296875
564,1215.7683,-983.4127,-258.81348,781.241,-169.8637,326.27283,2450.47998046875
565,1054.478,-1002.8078,-659.6623,282.70956,-77.175316,-338.58728,2060.53198242188
566,-607.01245,-1743.5311,245.06409,342.30356,-109.139015,173.34953,1861.05065917969
567,-656.2347,2749.2144,18.555925,1769.6211,189.43565,109.70278,4392.3681640625
568,739.6252,1733.4479,-108.223946,1025.9761,-374.00632,159.04683,2490.49267578125
569,1737.2035,3240.3843,341.43582,-1792.305,-247.99811,-189.32906,4029.25903320313
570,162.12286,994.9947,566.13605,-627.6898,-130.26685,587.1803,1669.62414550781
571,-2097.95,-141.38348,-439.63962,-518.0385,-244.54391,-380.44894,2179.970703125
572,-1662.4327,-49.539333,-530.6821,273.34576,33.42547,-346.06946,1625.94262695313
573,-1060.3138,-140.25598,-218.01941,363.2582,43.860294,278.14856,1189.43151855469
574,-802.7439,-331.21738,137.75652,-469.47458,-309.80023,183.88449,1309.19653320313
575,-206.39761,-127.90665,339.06537,-46.402443,419.84503,878.9049,1764.53039550781
576,-1664.7582,-1210.5359,-366.91385,-909.0125,-444.57718,-299.5371,2154.58422851563
577,-1477.8582,-915.89874,-462.14868,-168.10916,451.45654,136.75227,1236.52795410156
