Element Label,S11,S22,S33,S12,S13,S23,Mises
1,3001.5881,2054.3381,714.13654,518.2855,70.67159,-484.58514,2342.69921875
2,163.85127,2291.1667,-1219.708,1684.5814,251.5874,625.6752,4388.703125
3,3898.7913,2641.3567,583.88715,1769.606,330.05695,-1037.207,4620.62548828125
4,-258.08688,1699.8549,-1636.2247,869.75745,-1344.5242,1178.2041,4504.2509765625
5,3333.3982,3895.8438,1003.52795,2994.2908,599.88745,-436.6942,5966.9169921875
6,629.3621,4827.316,-2701.135,33.76646,-546.75024,406.4399,6640.18896484375
7,7280.99,1863.0237,3133.5571,1657.3752,875.1203,-775.9569,6035.6787109375
8,-4791.5435,2305.9727,-1693.835,1032.3022,-1423.2026,1337.3152,7254.1845703125
9,8986.369,3431.1167,1429.4545,2835.188,2867.5898,-1269.8267,9980.4150390625
10,-5608.1045,752.51324,-394.8062,729.2945,-1904.653,168.54874,6858.57763671875
11,-133.97809,1288.0858,-2744.8738,1364.9775,255.83005,-187.61937,4294.5712890625
12,7501.8164,3438.92,1093.6501,-377.4418,-714.1126,76.54249,5788.85498046875
13,-3904.8074,2245.4983,-397.88004,2041.2759,1124.0186,-16.841326,6696.8388671875
14,10418.711,1825.9296,54.07855,317.07773,-2174.7317,282.63477,10340.7021484375
15,-9196.431,2522.871,996.66254,671.729,1985.7502,876.9032,11716.4580078125
16,6018.0913,3070.3108,10012.165,-501.25854,-269.3803,2476.9573,7469.47900390625
17,-720.9799,4102.789,-5307.388,-635.1229,2193.9377,-6.339564,9059.69140625
18,3240.7937,5460.471,4924.6396,-291.00134,288.65317,818.3609,2556.92431640625
19,-2514.0012,-9700.146,-12883.786,1142.2917,-14038.109,-2430.007,26410.01953125
20,-2915.9343,1010.3715,-27460.668,2183.979,885.5448,4055.1665,27932.5078125
21,2906.4395,2018.8274,1074.087,437.34122,778.7905,768.52014,2585.37573242188
22,-2888.8835,4667.082,-6757.2944,6820.0557,18186.074,2892.1304,35469.9765625
23,-1561.056,7461.2,3145.3877,3150.2078,414.7246,-1183.7297,9776.5048828125
24,501.31046,7237.2686,-4705.35,1061.6553,-1105.6162,92.62336,10706.4716796875
25,1753.3071,6625.356,6192.4287,2213.7434,768.07196,-1581.6058,6766.923828125
26,3155.567,30.077044,-9136.349,4284.5874,-710.9299,880.2684,13466.83203125
27,3397.9775,6452.3843,10140.073,4320.5366,-495.79178,587.0372,9589.8134765625
28,-2958.053,2842.6714,-1449.5752,-251.40497,-239.48882,-422.86142,5298.27880859375
29,3218.715,-1186.9945,-2418.7544,1401.4214,427.16086,-34.095184,5726.876953125
30,-1716.4996,2968.249,-8742.406,1881.3408,-300.15222,1518.1812,11046.6318359375
31,3292.207,5175.8726,5127.2026,3679.4976,1746.284,-992.06476,7495.0712890625
32,793.07477,1737.185,-746.1186,1787.1459,-654.43567,-603.2417,4083.119140625
33,793.88275,2889.2966,-266.56052,676.8708,1046.2928,-582.43396,3662.47241210938
34,2630.544,3824.0771,5075.2383,-481.63483,-825.0102,-974.3625,3173.20288085938
35,1035.1691,4261.663,-809.60974,-37.09009,-905.01056,-878.87463,4954.20654296875
36,1597.8649,1874.4883,-996.38336,3080.5842,-624.1776,774.48627,6241.9990234375
37,1276.4855,6774.75,3209.8684,1527.628,-452.5962,-77.726944,5565.27001953125
38,1017.74506,-891.70166,-5281.5254,85.80296,-335.76572,-189.8359,5636.22998046875
39,3360.8606,910.8219,1975.2826,2437.8594,50.633316,1077.1351,5083.859375
40,5558.1177,570.7571,5713.457,1674.9929,6442.9023,-1107.7166,12739.83984375
41,-696.12476,-1330.2439,-1679.4637,-458.28802,-2696.6394,-103.229294,4819.041015625
42,770.2992,3911.082,16946.39,2914.5144,-10810.933,5930.5015,26501.875
43,-19020.148,-11541.025,2965.6196,-266.01376,18601.264,-230.42566,37593.4765625
44,-9647.588,10519.47,-7440.1963,-1196.7073,-4322.743,-4419.207,22045.61328125
45,-13197.572,-3990.6604,6138.22,359.04263,-6239.387,-7753.0244,24044.166015625
46,5850.1953,19459.389,18616.232,-1196.9158,-726.9578,8070.305,19383.474609375
47,7472.935,2749.2034,-7753.767,1884.1775,-569.0626,-4339.456,15822.5703125
48,-7782.037,-3790.5212,1889.6321,-3330.2107,10351.058,-8928.889,25782.70703125
49,-7086.0454,2384.72,-11452.794,1835.3268,2017.1167,-4210.5723,15020.607421875
50,-4016.5967,-3483.8923,10539.683,4464.6196,-4933.5376,-4456.314,19920.064453125
51,-4231.79,2594.4016,2369.3127,190.3635,337.87357,-970.56464,6956.1650390625
52,-1349.2963,4338.4146,-7137.054,-370.9756,1875.457,3241.143,11884.74609375
53,-674.0388,4169.2373,-4148.907,1513.8983,-329.65204,-7.0239654,7717.74609375
54,-2698.5378,2009.85,1595.8772,-3979.4548,1396.3848,1728.6823,9094.7255859375
55,-2920.5352,4696.536,18568.006,2260.1394,129.03578,1448.826,19436.2890625
56,-4342.293,9004.943,-4737.6353,2939.001,-192.0242,2218.4304,14978.9794921875
57,5260.5312,1699.0745,-3613.0762,2567.97,814.2988,-757.233,9127.6923828125
58,4209.4565,2380.6313,-498.45245,1730.5721,-1285.797,1304.7657,5995.89599609375
59,5140.0396,4354.517,-4021.0195,1475.9291,-474.11868,-748.65344,9286.3740234375
60,2234.6619,4757.478,5716.217,1807.6921,-229.15569,-97.99811,4437.57861328125
61,458.1037,-329.64978,-4550.365,1580.7078,-194.80774,-206.52034,5431.16845703125
62,2441.53,2403.6702,-37.314415,1321.8755,-393.23096,190.64166,3444.88671875
63,4511.4272,4083.15,3782.319,829.8483,221.62592,-91.98428,1625.25134277344
64,3117.9675,3367.0874,1394.965,1937.9945,-303.73886,381.45734,3929.478515625
65,3442.0261,3174.2883,629.84314,834.3949,97.724014,-184.94894,3073.60400390625
66,-977.11035,943.08124,-1399.4309,247.68254,1008.2399,-870.7589,3191.35913085938
67,2959.346,2817.4805,-1515.2637,1052.4532,-562.69904,179.48059,4876.16357421875
68,400.34503,4132.184,2533.2505,2948.7288,1503.6847,-108.84178,6589.38525390625
69,1661.1685,3996.0994,-1925.5228,814.0447,-808.8944,624.4136,5640.17236328125
70,2410.6206,2982.868,107.62311,-1847.3269,89.949165,515.21783,4243.53857421875
71,10954.629,10820.055,16113.985,-3818.51,1141.4918,-6148.085,13725.169921875
72,978.3469,3473.8416,3883.146,-22.956768,-450.66248,888.6589,3224.353515625
73,-1428.1001,-2809.9182,15721.141,-2083.9226,2109.291,-8148.4136,23350.984375
74,16060.162,6244.8193,13401.517,-3776.848,1725.8938,4555.571,13831.24609375
75,-3429.0369,2621.9368,5001.5215,2830.995,-2741.5405,916.6369,10285.3251953125
76,-3990.1248,-4514.2373,-9013.025,786.43225,4136.2993,-8819.824,17590.392578125
77,-6617.722,3520.5474,-3827.8923,-3327.2656,4975.233,-7313.8403,18714.46875
78,-9083.172,-17684.941,-14074.036,3254.0515,-3434.1448,1483.6257,11389.4228515625
79,23321.66,11236.831,-8177.946,-3730.2065,4011.1558,3074.8743,29596.90625
80,2332.4792,5910.194,485.57764,-1540.9608,728.6055,1740.7191,6373.802734375
81,2387.294,8769.458,-4231.8833,1568.26,-3274.4832,-1045.6521,13023.6474609375
82,3220.0203,1882.748,7950.914,1818.3657,-894.29663,661.9849,6643.001953125
83,3000.0002,4652.0474,-599.0374,2839.119,-1306.4957,-867.0213,7292.8642578125
84,3837.6987,5343.337,10396.206,1828.7097,380.38284,389.9732,6806.54638671875
85,2528.8843,3313.0732,6010.617,236.10168,854.5455,567.55786,3651.22216796875
86,-990.0047,2458.0857,-455.6027,-283.32004,-115.2673,1024.7207,3709.86157226563
87,681.5445,56.812332,-2504.4448,-780.9066,-231.37564,-1136.4065,3796.67431640625
88,-4217.776,3984.6033,-20527.834,592.80817,-54.300716,-1194.7245,21735.3046875
89,-847.53455,-2505.7732,-2277.8835,2890.7554,-1267.1578,3479.462,8284.3369140625
90,-375.08917,-73.70042,-2319.1174,-1581.8219,1172.4114,-1786.01,5065.13720703125
91,6266.3403,6004.3335,3766.441,3251.3484,193.66135,-1122.3116,6424.0341796875
92,1010.7168,4562.362,1862.5248,1020.62317,-1636.726,3148.9187,7157.03369140625
93,2982.2058,5292.2935,15088.735,268.29755,-136.53526,-1999.7644,11670.7529296875
94,924.79346,-1068.9647,-560.6783,660.2441,-2211.2673,408.57272,4438.20849609375
95,1545.6238,2509.445,2484.9517,-192.183,1272.1259,-907.79834,2888.59008789063
96,1273.0813,3486.864,-430.58936,2093.7861,-0.21864805,944.3196,5234.6845703125
97,10547.523,3635.6887,16015.854,787.9891,-176.17088,-197.57678,10841.8310546875
98,5773.106,1591.8712,2831.8875,-2922.4653,-2134.1633,344.02878,7312.79736328125
99,3344.5706,-4112.519,-24506.53,1852.2123,-4732.633,13376.448,35183.48046875
100,-2139.2197,3613.592,-16443.992,2558.5662,12667.552,4548.6523,29717.404296875
101,420.10965,4908.175,6012.81,1958.805,801.3034,-280.14474,6324.00830078125
102,-739.7726,3847.1013,5093.329,992.6533,285.8628,-142.85764,5618.8291015625
103,-96.83437,5816.0107,6614.465,1729.9735,-172.61362,-1841.6992,7717.7578125
104,4978.293,1409.9232,-7208.2876,1147.4088,-1754.4224,1590.7902,11770.099609375
105,3397.9937,5640.459,3965.4028,2314.0784,634.1326,-1197.1246,5064.46240234375
106,2029.8826,1742.0662,-2495.8096,514.2222,2510.9495,736.44073,6371.5830078125
107,3459.8843,1008.59753,-1744.592,-292.3466,-731.22705,-546.5738,4805.666015625
108,-8917.129,-892.5482,-2780.8032,1979.5306,8774.47,-1638.1239,17423.74609375
109,3276.2192,3748.1726,9239.27,-53.586235,4603.639,2251.1868,10571.615234375
110,7194.9067,-3279.0076,8858.489,1349.8007,2213.3716,2370.287,12919.455078125
111,3510.0625,3958.879,493.7321,1622.0059,37.53028,-389.59103,4359.5576171875
112,2352.495,4239.954,1078.8927,1625.4707,480.68817,972.4244,4364.0478515625
113,1214.8115,3739.7349,-5432.8687,1464.5769,1651.5457,-610.0776,9115.158203125
114,3401.113,3699.1694,-2625.4119,2.5438786,86.879425,93.80579,6184.91259765625
115,2679.2412,2044.4231,1414.2828,-313.45587,-898.8694,-340.37964,2065.51025390625
116,-4369.8076,2062.0486,-15789.744,3907.4937,-1860.1156,1187.719,17482.92578125
117,3853.4385,-3696.5994,-8193.109,2930.6885,1060.752,1272.4348,12048.658203125
118,10597.375,-6715.4565,28163.07,2909.9739,-10621.415,-5514.595,36979.44140625
119,-12701.654,-8958.582,-20094.64,1050.8507,6086.687,3546.788,15764.9794921875
120,6327.514,-2836.47,3384.157,-6528.063,6485.3535,-5000.711,19867.478515625
121,6961.7754,5189.1616,11686.785,3432.5251,6320.0947,11855.868,24712.462890625
122,3697.0166,5409.4565,6149.067,665.1809,680.3653,-1729.5325,4054.12719726563
123,906.53265,1036.2477,-3918.9802,2886.2515,870.6624,-416.50754,7191.26416015625
124,2977.6733,960.6135,1967.1279,325.0271,92.1245,-1360.2416,2990.74609375
125,1870.5614,-2050.5789,-8404.543,513.6491,1348.9047,-1264.8821,9576.685546875
126,3074.2432,4847.9243,1123.3937,235.87071,268.5001,-672.4605,3485.93383789063
127,-17052.57,-17170.746,-3103.9075,-5372.5557,-7662.638,-11416.94,29154.90234375
128,-4349.284,-1606.5377,17171.533,2698.6665,3243.5596,73.352516,21565.451171875
129,4051.6948,4995.4824,-16116.793,611.21063,-2318.2886,-2933.9163,21673.97265625
130,247.43323,1594.2004,-4271.939,3305.7473,-493.06854,1157.0059,8115.0654296875
131,3825.1538,4877.6445,7620.644,4874.888,1082.1599,-433.39197,9321.4296875
132,-6814.059,1515.5402,-24990.107,649.58356,150.05798,1735.4192,23696.384765625
133,1302.3806,2230.5232,1350.2979,344.483,-974.9949,325.51578,2084.46704101563
134,-3723.973,896.8941,-15594.931,808.2473,189.59523,1577.9109,15055.3388671875
135,963.5558,75.33784,-8503.925,801.2867,1869.5385,-1496.2595,10056.888671875
136,1936.6827,5311.0483,8556.53,124.75069,134.25082,-764.5723,5892.8271484375
137,9761.052,6216.7837,5443.4976,17.915743,1425.4265,5443.428,10530.4208984375
138,45.420948,-1727.6469,-5311.1704,604.2035,-7573.986,-2769.7427,14783.2548828125
139,-17301.168,-2096.34,-23702.568,-627.608,-10602.632,12971.299,34823.6953125
140,-14244.51,16162.585,10522.438,2110.9094,9346.401,-12112.585,38736.02734375
141,6972.4795,2103.502,14175.523,-3958.1772,-3266.1584,133.2278,13773.9013671875
142,946.6349,6695.194,-7068.774,2657.241,1695.2509,-3041.52,14174.861328125
143,1767.0895,-441.96625,-6197.028,-369.8027,894.85614,46.23559,7316.61767578125
144,3698.2898,2115.5898,-3476.4438,-201.83687,500.10376,1667.574,7200.0849609375
145,2796.9495,5033.899,1135.5787,110.11454,-998.80023,359.5412,3859.7265625
146,-107.43722,1490.5531,997.02814,-751.62476,-1107.3916,629.18604,2927.4365234375
147,5713.186,1102.0771,-974.5742,393.9655,308.84818,-709.93835,6116.72265625
148,454.79758,2858.1143,-2263.3975,1754.1625,738.142,-1409.8535,6043.68115234375
149,2304.874,-5101.56,-4201.274,2675.3992,329.1508,-955.6298,8575.3046875
150,6035.878,6560.923,10556.474,2555.617,-254.07144,1969.1606,7053.9287109375
151,562.2971,3886.2688,2092.823,3389.4546,-341.46658,1251.2184,6914.87646484375
152,-11758.906,-3789.0144,63.620464,5089.9697,-2154.881,-1805.245,14508.5390625
153,-934.8852,-2290.2742,2577.684,-6085.0874,-1640.2705,4503.266,14104.2783203125
154,-11815.836,-8619.015,-8899.763,2947.3694,1078.1117,-2621.8186,7718.20703125
155,3215.8052,-1888.0712,-888.1479,-2410.6409,108.862785,980.4242,6503.74755859375
156,-1255.1595,5600.5195,-1620.4529,2875.3396,-1087.6154,-889.5036,8964.5537109375
157,4013.1492,8187.7324,9357.229,2497.5488,-772.13104,-500.73773,6703.06298828125
158,-456.53897,1089.0001,-1288.3339,1466.0673,881.0797,-111.02313,3630.43920898438
159,2965.0347,3753.3813,6154.264,703.827,-1342.7817,803.58154,4136.54345703125
160,2916.7192,2776.0527,-11609.609,525.73224,488.6028,238.98897,14515.76171875
161,59.75762,2804.6206,-2409.2097,1442.1144,-2136.8887,-1815.9711,7087.8955078125
162,2226.3516,1819.3885,519.2768,-843.8497,-5644.568,2059.115,10621.890625
163,7650.629,1831.5422,8134.8794,319.46228,-604.25464,174.57011,6197.3486328125
164,7096.994,1878.7981,20907.113,1531.9956,848.245,-2424.9202,17800.37109375
165,1183.3143,-223.98761,-384.3991,1122.771,-87.2139,-1602.6285,3707.00634765625
166,652.34406,2298.0015,-1905.0223,1007.1583,-1166.9678,3502.8577,7575.97802734375
167,1806.05,7290.291,1477.4751,-11.702256,2156.9077,-1351.0558,7170.7783203125
168,-2923.1016,-7151.293,-18192.613,-1215.3795,-3505.6365,263.47433,15099.0517578125
169,-5430.7104,137.57433,16056.102,-4523.88,3402.321,2980.3281,22266.90625
170,2895.2095,1782.4264,-3662.6567,-694.3138,-219.94113,-883.27655,6393.61279296875
171,2517.318,4124.8555,-6760.589,1604.5242,-383.32468,1055.6244,10727.7978515625
172,5180.197,1001.91455,-7343.7217,-974.36255,-1808.1199,-3139.5225,12814.208984375
173,7645.5996,6131.283,5118.7373,-1596.1654,-1237.2603,-213.3196,4150.16943359375
174,-1227.5013,-3340.125,-8596.046,2347.2725,-5422.911,8427.069,18999.765625
175,7108.013,1870.3134,-3472.1575,-3470.8413,2947.754,-2275.1145,12715.90234375
176,998.2288,3946.0225,-204.9919,784.10895,1088.0582,-389.2274,4419.80322265625
177,2270.6165,5817.9424,1998.933,1448.1354,5.2678156,885.30994,4718.45068359375
178,11542.21,-2912.017,-6066.5654,2342.0417,-2947.1733,2114.0051,17899.509765625
179,5577.1396,1539.0396,22378.227,3044.759,1875.414,1978.7557,20409.236328125
180,7934.89,2634.2349,7757.694,898.9918,79.90883,449.90494,5499.09521484375
181,818.76215,3656.4263,-3003.187,-418.0394,-807.0657,-1062.7274,6274.6748046875
182,1733.194,836.5628,-5997.0425,902.05743,61.413868,-1443.4532,7895.08984375
183,2706.885,2037.8103,-1131.9915,1275.3344,434.90894,330.55615,4288.451171875
184,-11021.197,8457.035,5891.934,11826.246,-9119.125,-2540.7217,32006.859375
185,-4230.2363,-7265.864,30.308468,-752.5568,-8386.117,-4981.993,18095.341796875
186,4064.9736,657.63745,1068.0044,1706.9839,-473.97638,-261.7405,4472.2421875
187,2462.93,-185.75095,-643.29913,1680.0973,675.1667,-381.1623,4325.314453125
188,-24404.842,-9419.384,5872.1587,5975.417,9092.293,-6373.9087,34125.5390625
189,2859.2578,1190.3679,-4894.044,1893.9825,-3.670663,1576.8745,8257.15625
190,2922.6577,1003.7364,-904.5498,-879.9777,1297.564,1511.2415,5021.08740234375
191,1059.8796,610.59076,-3103.03,1791.3582,476.53592,-436.5456,5151.81494140625
192,-3309.844,-1257.9524,-10218.096,2499.0847,-2201.7131,1132.8052,10160.6015625
193,1601.3391,-1828.5236,-7195.7646,1988.9325,848.2167,1523.413,8942.5087890625
194,1696.1403,-1263.8486,2654.3464,1773.9347,164.08298,-828.3586,4908.748046875
195,3344.4817,-111.58398,5861.311,886.87555,-2318.6074,2529.4597,8041.0888671875
196,1439.0166,5015.866,-148.71365,657.21643,2659.6943,-357.90372,6625.39208984375
197,842.6234,-1222.348,630.4594,383.64212,159.75462,-288.38412,2153.74389648438
198,1015.7776,-2734.4524,-11213.128,1234.1058,523.19165,77.929306,11097.6396484375
199,4411.5205,-2540.4902,-8079.502,-709.82214,-1252.636,1938.5703,11619.439453125
200,71.20796,-668.79645,-1496.6206,631.8296,-224.5445,453.88135,1952.53784179688
201,42.30205,-1670.1222,1044.975,1399.4813,-598.7612,251.9649,3577.20556640625
202,1591.5546,-2309.5554,-1894.218,1090.9569,296.32278,-540.7425,4299.07861328125
203,1674.52,-797.3463,1483.3755,-980.678,-429.76993,748.8902,3285.7236328125
204,611.64514,-1470.8323,-2903.9626,1364.5844,470.94226,463.64246,4033.80249023438
205,1745.5741,-2373.2334,-4561.107,-464.4299,479.02484,-1534.7002,6258.1298828125
206,4840.236,-933.8005,-49.189667,-540.4169,-2213.6257,321.82632,6700.861328125
207,3670.9392,-3650.0044,5599.0127,-2881.4583,925.8517,546.5106,9990.2470703125
208,1830.8137,-3526.931,-11236.296,-3171.6897,2922.875,-1184.1787,13764.44140625
209,9972.446,-3025.3179,7701.113,-2637.935,665.7346,-738.6796,12977.720703125
210,4478.504,-1768.7334,4243.504,2130.493,-202.90704,-1197.5197,7460.4140625
211,12750.975,2315.965,11691.997,1495.9865,3922.5896,-12659.767,25152.40625
212,-4149.592,-23056.203,7635.543,-1796.437,2258.4756,12485.1,34810.67578125
213,6489.085,6595.8247,6406.8745,-29.111053,19330.447,9443.095,37263.171875
214,10285.964,4994.9136,17203.467,1214.2728,19085.28,5105.704,35886.203125
215,-670.5897,3563.158,1426.4049,1769.3541,378.25873,-538.6694,4912.783203125
216,-227.06958,4347.7656,-2523.7668,1288.8578,-908.3319,2312.5234,7759.697265625
217,-117.01073,4559.308,-207.77046,843.0359,93.17809,536.23773,5032.0419921875
218,1539.7754,-1442.806,-2538.6367,-360.5497,-981.04156,1375.7188,4724.42236328125
219,-2366.627,2432.1462,-10606.688,109.64941,121.688156,-900.7642,11531.853515625
220,-153.78856,2045.433,-2695.52,658.051,-627.33057,167.91083,4410.34130859375
221,2086.9084,2019.8424,6690.504,608.5021,342.60742,125.007545,4797.51806640625
222,609.96857,1977.3352,1484.702,603.4413,-70.287605,-278.38345,1666.88513183594
223,-387.89603,3704.727,-3462.5955,1074.9504,473.08847,-283.71368,6570.1142578125
224,-2442.1091,651.0112,1806.015,-1420.6036,216.7273,3993.5576,8277.3642578125
225,2720.1985,4362.157,10381.015,1098.152,1120.684,1729.7708,8072.6279296875
226,1478.6034,2113.5818,3210.3398,246.12099,-1275.0092,351.21576,2780.50756835938
227,7936.8213,2195.4937,19520.938,2641.0037,-1918.5726,-1325.1239,16458.982421875
228,2438.5022,2313.7664,7523.6797,921.5584,1090.9325,-2864.8074,7566.27197265625
229,1003.02075,3486.0247,1091.0374,1050.6448,330.4528,-1407.6339,3941.8232421875
230,3533.1685,296.044,85.3933,1226.5125,-1106.5272,616.1493,4531.0458984375
231,-860.1621,4011.256,-1745.5858,1357.8846,1536.8912,1764.5339,7126.45458984375
232,3024.79,2037.9451,-763.1444,3241.4995,1726.0106,-1981.7792,7989.10791015625
233,1098.5096,-764.83655,-3717.684,907.31494,-1114.0791,498.2098,4962.99951171875
234,4029.6953,1232.7838,318.17667,1575.5627,832.2913,61.761185,4555.662109375
235,1227.3695,-104.47435,23.9123,964.9116,66.56585,817.96564,2536.328125
236,3870.8054,1343.7109,3471.1628,1826.5592,-669.73914,178.05595,4121.3720703125
237,3035.1855,-734.64996,735.001,1224.8414,-373.18292,-85.735466,3971.3662109375
238,3621.426,-3237.0046,-8057.388,778.42145,360.5548,-226.98058,10280.8955078125
239,3178.4377,1537.9745,6372.077,-126.621346,-262.32056,386.72223,4339.66552734375
240,-1365.7743,-236.53262,-3737.7773,501.08044,-319.16544,583.77057,3414.87329101563
241,5453.922,-3607.9714,521.7661,401.6457,223.89857,-97.86493,7900.1572265625
242,1637.3353,-925.47095,-90.64769,920.2885,-19.548758,9.190356,2769.04467773438
243,5449.5034,4055.8474,4159.696,1242.1783,-415.80087,-93.697105,2642.416015625
244,3056.4607,1851.2344,-704.9845,-966.4616,-99.517075,426.59058,3800.7158203125
245,518.335,503.44778,357.35223,120.5161,397.62997,9.617705,736.151611328125
246,1867.411,-2320.7341,922.5198,1033.0807,1008.7616,-333.78104,4589.64404296875
247,2284.3694,-2796.157,-2228.9937,450.45932,-283.05466,-2413.1863,6447.591796875
248,-2298.2937,-3585.3857,-6523.609,-2453.852,1340.3418,77.454704,6127.25390625
249,7988.372,-6665.9585,-1603.5312,-5540.853,-913.0276,371.45383,16161.9638671875
250,1792.8405,3200.2002,3114.2974,-3495.055,-4887.4517,-487.8837,10530.384765625
251,-6520.4985,-3925.2947,-3844.3267,3028.441,3479.1138,804.8606,8527.7333984375
252,3136.2039,723.74475,1155.9154,-1040.5577,5761.742,-4092.4954,12571.8330078125
253,-12754.377,-5550.253,16974.73,-2824.2175,-852.1488,7463.856,30245.35546875
254,4787.67,-5362.4146,12850.544,-958.553,-6709.11,9069.469,25187.927734375
255,-6449.866,1942.1947,-9198.233,-449.39954,-550.7962,-2310.1672,10889.044921875
256,1732.5687,2905.7744,-2852.1426,-7899.0996,13997.216,2850.4192,28759.3984375
257,1086.7922,-12028.425,-1550.0261,-4182.9316,-13704.095,15983.282,39072.65625
258,-2051.4143,2940.512,1572.5231,-5425.916,5105.6143,10013.848,22075.25390625
259,2293.2236,7065.8994,8575.489,-1034.7109,-7886.0796,-13613.441,27893.046875
260,552.9333,4282.767,4049.6501,-5266.036,-802.9189,-6738.4595,15311.5791015625
261,-427.43924,1107.3481,-29405.143,12294.418,82.947205,2060.986,36779.875
262,-1537.9082,1478.1672,10534.514,-244.86089,1511.799,-2545.4524,12037.57421875
263,-5200.396,9901.435,15704.711,926.6924,-708.70764,-548.92426,18824.728515625
264,-6937.474,5025.719,-18621.092,-2690.8796,-5402.7485,304.1851,22999.29296875
265,-5101.9966,-3028.1792,-4555.696,-2310.288,-1351.8224,2608.4583,6735.94580078125
266,-1616.8552,-34.737957,622.4694,-1366.8546,2904.0476,-1724.0764,6617.96533203125
267,2883.3455,-1066.36,-4782.3247,5053.411,-1851.9227,-1385.9774,11693.93359375
268,-6015.5684,2488.3547,-2504.2378,133.04303,1063.8441,1150.2369,7886.92529296875
269,-3721.1963,-3761.7708,-2595.626,2453.9182,-380.70038,-1758.9371,5394.04736328125
270,-3824.675,-33.08261,11045.994,-1215.6475,962.208,240.47906,13657.0078125
271,-4935.612,4707.3423,-6243.654,3404.1797,-2749.7285,-4618.529,15124.5390625
272,3342.1697,1507.7858,16202.031,3855.0168,982.9608,924.41125,15568.4501953125
273,-3134.9385,-147.5523,-2880.9841,391.9872,-671.0255,-2268.2905,5047.5263671875
274,-4240.167,9304.807,-5559.084,3975.7673,663.6191,1074.8983,15977.4248046875
275,-4604.055,-734.72473,1238.9408,2540.1309,1102.575,320.03485,7057.96826171875
276,2404.4346,-1566.449,-9124.699,1110.8367,-471.8713,407.76196,10381.5546875
277,243.59755,-816.77576,-219.89903,-404.51965,95.20728,-316.12726,1290.6015625
278,-7442.699,-3317.2896,-7410.053,-2102.1677,5104.2427,-3734.2693,12253.037109375
279,-6286.9844,1022.2677,-8591.733,423.1467,-404.65613,-242.86766,8762.8974609375
280,1117.4453,74.24106,2133.5923,1186.5385,520.4504,-430.0968,2961.76538085938
281,1716.653,999.87115,-4061.8655,849.2539,433.23187,-29.848932,5700.22412109375
282,1301.7823,1374.2428,5018.4033,-3642.9753,-219.80907,110.96113,7317.4384765625
283,1043.5903,3143.8293,1505.8699,637.1082,442.95505,249.96289,2376.46826171875
284,1919.5914,1210.0214,3754.6567,691.0249,793.9667,-561.86523,3073.08227539063
285,1935.3497,2059.1736,6846.573,1888.0164,-92.4283,-65.978546,5853.189453125
286,-4739.111,-1562.0975,-11015.221,-328.55804,-456.97174,-323.837,8407.5673828125
287,-2404.1504,-6371.7188,-15510.384,545.9268,-1220.822,-2122.8235,12425.7607421875
288,2002.8319,3125.1392,12020.6455,-259.8808,-2112.254,863.05255,10305.1025390625
289,902.8884,-1787.8043,-2164.7969,940.7775,635.4783,-717.7732,3715.99291992188
290,878.17664,-509.05643,-2942.0046,1464.648,1812.8787,228.80952,5260.318359375
291,3020.4834,1074.8132,2207.4412,763.90204,609.41846,818.3845,2781.87524414063
292,2730.3687,551.7481,6732.0225,632.5656,197.1384,-674.2243,5670.841796875
293,1342.1909,189.20386,359.2154,1215.3762,211.30489,-203.02013,2418.94213867188
294,2455.0317,3315.0325,5759.5195,-907.17053,-198.32256,6.3307548,3377.03564453125
295,3899.406,1964.4137,9145.81,-1886.0574,405.6279,781.55725,7376.88525390625
296,3623.7178,5255.897,1419.2183,-2302.3909,-54.63435,1136.4846,5559.5615234375
297,-4363.2495,4605.142,-1546.8162,-338.62897,-18634.895,-4995.189,34352.3359375
298,-1923.1512,4494.1685,-850.9648,385.6939,-890.3859,239.03056,6200.5693359375
299,1578.794,5156.9775,5509.6304,1762.8531,1875.5698,-902.9455,6042.49853515625
300,580.4203,3478.9727,-3053.3555,827.4592,-359.8216,-199.7015,5890.73388671875
301,1016.3759,304.56448,-2706.626,1809.6887,462.17438,153.09859,4717.3505859375
302,1382.0713,4078.857,19363.494,1831.1168,-7287.5527,167.29178,21250.419921875
303,419.80948,13453.731,12876.194,-1222.5847,-3384.0913,1119.0583,14327.81640625
304,-127.21935,6139.067,6277.6987,2315.446,1646.6848,1103.9456,8247.9658203125
305,-11752.196,-3346.8096,-13438.959,-590.1841,-311.67957,2902.4084,10690.2705078125
306,-2001.986,6087.806,4306.143,816.66785,447.6961,2191.0862,8438.630859375
307,-2693.8645,-13969.581,-7287.939,-7154.518,2352.7136,450.89734,16346.9541015625
308,7815.6094,2801.17,14835.092,-253.14734,3424.7275,-1844.5641,12458.021484375
309,-14924.825,-3516.4202,-12645.611,2640.7346,-5307.523,71.00105,14655.69140625
310,-4713.904,-1661.3212,-253.94728,-649.84735,-2544.2563,1582.131,6617.486328125
311,-3145.7979,9411.845,17225.494,3823.829,2927.3645,-2692.3035,20203.6484375
312,-3120.6287,-12259.414,-2051.9128,-9996.614,-1833.2299,-7894.3916,24316.037109375
313,-4095.321,1807.8252,873.69104,2225.7954,-405.0013,548.8041,6816.4169921875
314,1282.8077,356.15677,2367.8408,1582.3696,-575.4198,164.09448,3409.86987304688
315,1805.5194,-536.2416,-300.0729,2008.2555,321.15384,-1028.8654,4535.52099609375
316,2833.7358,-2359.384,11330.757,-454.76297,452.9759,-1255.8969,12217.271484375
317,2493.8774,-1552.6721,236.13,1253.9384,-572.6687,335.39984,4286.52685546875
318,2694.1711,-83.936874,2575.623,1885.9569,696.93536,-981.2221,4734.83349609375
319,1934.6663,403.80927,3902.509,1059.4642,-1308.4607,-12.110494,4210.9921875
320,-1113.1442,481.7182,8910.792,2383.1802,-4760.289,982.1095,13226.84375
321,4518.651,1169.9902,7632.7466,474.82053,1236.4542,4541.891,9924.1279296875
322,-4253.4033,-10157.22,-19055.021,11914.914,-8918.865,-1036.3411,28884.4765625
323,-2539.0156,-7407.0835,-1496.3252,-5187.299,649.6967,-9657.208,19789.8125
324,1113.9778,-1841.5426,-22527.459,3373.9336,2448.341,7498.4995,26806.63671875
325,90.006935,-718.48846,-5159.456,787.2782,-773.5677,1478.4333,5846.220703125
326,415.32227,4395.6353,-1098.4755,951.2891,606.51465,-905.25024,5516.94921875
327,3829.1865,-1972.682,-4328.108,321.42242,-300.10422,251.95866,7324.35302734375
328,2465.5352,619.6074,-194.51602,-244.75018,135.68234,41.89506,2411.07055664063
329,3581.0168,2255.7869,4072.4443,760.94763,-157.96626,-268.92078,2162.85205078125
330,2652.591,-295.25146,-5271.926,1989.2336,-462.44888,-158.97418,7792.05126953125
331,1531.9827,2703.9946,-5950.6016,-2164.0537,125.54035,-75.25894,8958.013671875
332,905.11084,-2977.8723,-3701.4187,-763.994,1135.0117,193.70451,4913.14306640625
333,7453.0396,-8179.2495,-864.8116,2476.8723,-7318.2793,6896.597,22478.736328125
334,-4660.167,-394.00568,637.3142,-1751.1865,737.7943,-1456.9613,6392.55224609375
335,6200.373,4291.634,-7300.0444,-3834.0903,5956.1094,8128.7373,22558.62109375
336,4148.026,-1251.2941,4383.71,-2305.8604,4019.4805,-2388.8186,10583.9384765625
337,-4513.927,-1431.5525,1714.9248,1048.5935,-1409.5874,1020.4931,6440.77978515625
338,-2297.448,6755.783,9030.481,1936.8466,-519.1038,619.0936,10997.31640625
339,1520.7052,1566.1255,-9903.52,2632.3901,-342.75357,-1134.6045,12491.466796875
340,-5790.613,-171.70357,-22633.33,-1299.9912,-1067.1438,1208.935,20561.076171875
341,-3377.331,-1086.8798,3985.8608,1423.4371,-1238.7856,-2346.8633,8354.837890625
342,325.28198,2362.061,4182.7466,-282.8565,-1627.9619,43.2323,4400.92138671875
343,3760.3987,-3165.2139,950.81934,-502.28427,-584.15594,1272.6954,6560.45947265625
344,2627.3916,-315.77026,-1288.4377,299.13983,-19.636211,56.36595,3570.734375
345,-5103.1523,2855.333,-7988.479,1931.7944,-916.60156,951.92694,10538.49609375
346,-51.810894,1403.0183,-3594.7634,722.03375,11.640494,1119.2697,5014.591796875
347,1819.7395,976.42773,-165.30833,399.5451,-742.1929,-113.35445,2268.82861328125
348,-3195.0774,1453.5818,-948.7014,1599.639,-162.54382,128.14572,4900.8837890625
349,-916.534,592.1851,-3387.4634,2694.5063,-420.17715,-1547.6534,6450.279296875
350,-7030.5254,-2442.1382,487.59607,737.1739,-1250.478,-2586.7864,8335.1748046875
351,2777.898,1145.0746,1292.1544,703.0533,-114.186935,363.41382,2089.44140625
352,2237.338,1099.575,-508.85803,1985.3965,-60.554005,1722.5995,5142.95849609375
353,-6820.1294,3547.2922,7998.962,-1112.0195,-396.41763,-1806.4637,13690.2978515625
354,-1248.2123,1923.9816,-11276.496,456.46375,-363.56174,-1450.0676,12238.08203125
355,-3224.3713,3838.7485,3024.5027,1602.7695,449.01083,421.31244,7324.17236328125
356,-3844.8064,2550.1863,-4810.5884,3539.3062,275.45642,-698.6709,9342.2138671875
357,-3399.4553,2532.144,1476.9414,2801.1184,-6.66623,156.49149,7324.66259765625
358,3005.0703,1509.3969,1404.47,40.186398,72.18877,-45.725365,1559.40246582031
359,2890.5334,2309.0027,-1330.6132,2235.3801,-185.79239,61.77082,5550.43310546875
360,1326.1422,-1380.1785,288.51047,-140.60757,-1731.2416,74.04295,3828.8427734375
361,1179.6317,280.868,-43.6992,-294.7346,-20.667803,-190.66139,1255.29736328125
362,-4602.8604,538.3934,-40.90855,-2551.7874,-529.0286,-163.9906,6651.68310546875
363,84.238235,2414.827,-1059.0076,187.02309,38.434277,10.2655115,3084.27807617188
364,-362.18094,-516.60333,-167.95381,-96.36413,-220.69315,48.30896,522.052917480469
365,144.97307,-535.3879,-969.41046,-647.7869,-571.2431,465.36392,1958.0830078125
366,988.9856,-2418.4995,-1052.2719,175.18788,-68.71653,107.61629,2993.84594726563
367,1379.7235,-1489.2744,-836.4597,985.69147,-169.03412,202.97461,3147.77197265625
368,468.3249,-1788.3375,-798.6154,402.4292,136.82143,105.78274,2100.99609375
369,2507.1914,-1306.1271,3323.311,252.87604,-290.74814,-181.74883,4343.28369140625
370,230.05571,-5.609185,1169.7283,360.0604,-85.95527,29.5029,1254.462890625
371,-2014.25,1175.166,-157.28911,720.92755,61.500576,8.349198,3044.47412109375
372,-1173.8003,-1145.3643,-379.91064,882.1141,-50.798313,-46.194843,1719.59680175781
373,-885.426,-2027.5854,-403.51263,-396.2648,18.828346,111.707886,1611.44885253906
374,451.11206,-940.6689,-473.54034,-604.13696,729.51324,-319.03552,2121.78857421875
375,-1259.6464,1650.7792,-184.26302,822.2819,128.26852,241.3862,2958.00708007813
376,-1418.7446,-303.32983,-1354.4576,111.42282,89.10085,-170.43399,1150.99157714844
377,1589.2372,1971.305,111.76739,-159.69778,-119.27122,73.63719,1740.35656738281
378,-6359.0835,-3346.7793,-530.77655,-418.49817,1829.0137,-941.35986,6221.43701171875
379,-1004.73376,-1678.2744,-1502.0566,290.81003,-370.91104,-38.789837,1018.3173828125
380,831.6253,-760.41266,-942.2594,820.252,-477.8042,110.284,2365.79345703125
381,3171.374,164.81998,807.3945,583.0578,402.25586,-68.18481,3006.58959960938
382,2402.2917,-148.15749,1033.7153,-134.65706,-534.8417,42.68122,2409.4267578125
383,2203.1787,2498.0813,1589.8331,655.49316,-80.26501,-220.98132,1448.75012207031
384,-560.5451,-1360.926,-640.5423,1341.9753,18.087595,56.501263,2448.720703125
385,237.7681,967.7738,-1426.8958,1460.4755,35.83613,-9.83432,3304.89599609375
386,1029.7522,2023.9805,368.438,-532.83203,-32.61158,218.86768,1755.54931640625
387,-518.4531,3244.6482,649.6014,-871.5471,-87.40424,-253.24783,3691.05419921875
388,-963.98364,-3926.1377,-530.3626,-1849.8579,462.18497,605.4454,4717.33984375
389,713.9673,-1358.0908,1298.914,-1697.5459,-183.81233,554.42395,3939.05249023438
390,-1678.3875,722.5297,-112.68592,-689.03436,58.76721,-31.914665,2427.84399414063
391,1231.3838,-2879.1143,-1580.2544,108.4164,167.61707,99.53764,3659.71899414063
392,1060.7173,-582.2321,2869.1616,1040.8773,-339.80106,-104.44761,3545.466796875
393,1512.0365,-1986.1166,-287.23108,801.4475,46.84743,57.253403,3335.220703125
394,613.67224,2581.2983,-322.36502,249.31828,-91.15505,-78.259834,2611.37329101563
395,1014.5156,9.6394415,1209.2213,303.09564,137.81828,138.90749,1278.20568847656
396,946.0278,936.8486,289.18198,1149.8824,-40.452663,-112.13194,2105.9013671875
397,1714.8441,2062.1516,713.0731,-2047.6422,-443.84177,-313.89005,3864.86401367188
398,2587.8872,-1823.5023,1214.4802,-859.8226,-818.60956,423.77643,4478.27880859375
399,3509.9785,-846.38135,1171.5911,-84.471214,539.935,-97.37571,3896.6025390625
400,-2493.3577,252.12738,707.105,-848.9164,337.44193,-135.16617,3398.85498046875
401,-1418.9047,910.6037,-2983.6406,-111.86837,329.15207,-169.98624,3459.67138671875
402,-1039.3962,1291.0364,1984.7416,455.57712,-325.7048,-276.27094,2949.34838867188
403,2168.7205,-42.65602,795.99506,162.37952,-69.6194,27.376055,1958.2744140625
404,838.4319,761.89246,-245.60852,-605.68134,-44.644302,39.29159,1486.33459472656
405,307.35956,724.3298,714.7125,324.49567,28.024817,-181.77826,766.371337890625
406,1629.6074,-1721.7401,1666.995,-1880.9048,-107.1202,-252.47797,4711.400390625
407,133.98439,-1029.6423,679.32764,-192.84764,143.85796,-69.44719,1572.93579101563
408,-135.936,-279.31067,-1779.3599,-1799.1853,755.02014,-624.028,3882.70190429688
409,247.51309,232.194,-1641.1405,-1066.9594,-155.65143,-14.004365,2650.8095703125
410,791.2732,970.7586,527.6673,162.41827,70.16816,-142.82635,551.474731445313
411,-2841.811,147.15031,840.0479,-4168.537,1056.2451,754.72595,8286.79296875
412,1009.6298,286.22876,402.054,-1181.0492,9.582353,94.20441,2159.73779296875
413,-4623.0503,4380.607,226.23276,-2080.8098,-1005.2598,785.57196,8876.509765625
414,-105.02576,-1138.1371,-948.73474,934.67584,297.6256,-146.09282,1964.216796875
415,-2068.0344,-505.8714,-294.92923,1477.246,-12.560952,-31.366014,3060.158203125
416,1282.7745,174.10641,-1045.698,183.11159,333.57736,-70.45709,2125.73022460938
417,794.83374,455.9889,-1028.3232,1274.9528,-456.45712,-75.387215,2887.83178710938
418,-1722.656,-900.1297,-1558.0121,2249.2268,309.13043,-834.93835,4257.15234375
419,-2535.1985,-3289.9958,-1636.9125,1221.2308,-313.93704,249.9589,2648.01489257813
420,1043.2086,-51.52624,503.4466,-111.52397,-482.4243,-59.96674,1282.65014648438
421,1878.3096,-4519.25,-942.526,-1209.2795,-2382.8635,1553.4968,7713.66748046875
422,1427.6938,80.19786,-697.31537,-1056.9111,14.0390415,-188.15433,2631.7197265625
423,-768.35596,1592.1716,140.36406,1217.9006,-192.12119,-275.26813,3006.775390625
424,-1074.4237,-765.6605,10.824797,-1076.896,-505.33746,525.934,2452.15161132813
425,1043.0583,962.25305,-1090.7225,409.09985,-86.01334,103.66072,2223.43188476563
426,-317.32794,1396.0419,-1561.4319,291.0873,-94.75937,-90.642204,2630.74560546875
427,1916.3848,-923.38684,1.2041953,-933.5131,145.22032,179.16322,3011.22045898438
428,2264.1748,814.29224,858.3031,1089.0101,484.17627,-106.25639,2516.99560546875
429,1667.3698,2232.55,860.3701,31.53843,86.28287,-105.29595,1218.75244140625
430,-383.927,368.33557,279.25385,526.2853,-88.146736,133.71085,1189.40979003906
431,1054.3727,-511.46655,-1423.3593,-221.19592,-1053.4651,640.4787,3068.88696289063
432,986.6227,-1804.5605,-1292.9681,931.7025,252.25366,-113.72866,3075.44970703125
433,1137.6436,714.3745,402.58374,217.3018,63.849514,-1.0325027,749.823486328125
434,353.94495,-1382.0953,-1230.9445,-477.37326,524.1891,-118.19372,2079.462890625
435,-115.97738,-219.2505,-95.44036,-1065.072,2.1591597,24.125307,1848.81115722656
436,206.67365,-55.89841,255.58698,-39.42928,387.38446,-204.7231,815.339599609375
437,-4127.735,-5053.7266,-1211.5337,-1655.6824,887.40607,-274.27463,4782.68408203125
438,-755.04846,-995.88947,1672.6929,-74.53474,-150.74092,149.731,2586.2568359375
439,395.78723,-416.18753,-610.84607,-2218.3938,286.20236,-364.82617,4032.876953125
440,-18.7416,3181.8376,1570.7592,2436.6438,-59.458008,-145.60608,5056.560546875
441,1917.685,907.2733,1325.7802,391.34863,-188.83315,207.21313,1211.80139160156
442,-440.79486,-1424.319,-50.255966,-2003.9598,49.6969,-93.924065,3685.83569335938
443,19.746304,-260.673,58.419468,-545.2585,10.863738,-128.46205,1016.24670410156
444,1056.0925,-2129.2883,511.6487,-756.0488,-264.31787,-68.09551,3262.99584960938
445,-1411.1476,-2190.108,5.234781,-1835.9861,-15.902027,29.442598,3719.15551757813
446,646.996,-526.4606,1601.2013,-159.30899,1482.7357,-576.4116,3328.00708007813
447,-4580.1787,-2900.024,-188.82065,-62.031685,239.93639,-41.122032,3862.39697265625
448,-190.23244,728.8419,137.90253,873.39984,-189.70168,85.8967,1751.96081542969
449,527.09424,1115.3323,-244.76337,749.78564,269.51785,-130.38177,1830.6494140625
450,2018.76,327.29898,-84.44289,1137.9436,-62.545097,-98.75584,2766.36181640625
451,339.37292,-123.39248,353.885,41.95474,639.971,-17.100471,1206.61706542969
452,1051.1605,1137.6588,-213.36993,-1248.4763,70.00721,-23.73864,2531.47631835938
453,1896.8232,-372.67,658.85736,-217.37961,-20.538551,13.964994,2004.29943847656
454,1290.1262,531.32715,-1055.6312,-173.64445,-121.06185,103.712074,2113.07568359375
455,80.66712,-807.5725,286.48975,-135.0851,638.6731,-476.5004,1724.46057128906
456,933.0758,-1148.5408,-316.60013,-863.77814,260.0734,-72.08113,2397.98046875
457,-1054.6193,962.2156,-1214.5726,-750.8592,140.85898,-34.242714,2483.9921875
458,836.79834,-783.8196,-2640.6467,514.4937,-98.89874,200.76274,3166.66821289063
459,-517.37225,407.69183,-732.2216,-622.79395,105.51754,78.3687,1521.87280273438
460,-852.7311,-525.7986,-672.04016,-1181.9285,-140.09447,-77.040955,2085.18823242188
461,-590.22797,-1681.2806,-1866.5491,-85.79604,375.82974,5.037217,1368.48852539063
462,-883.59595,-1186.1874,5223.1006,608.4539,-452.21625,76.70027,6401.01025390625
463,-467.31964,326.01334,463.17584,-1864.209,-91.92597,51.600853,3349.05541992188
464,1464.9335,1402.8124,637.8892,-85.858765,8.85556,82.61505,824.202941894531
465,-724.74524,290.50958,-800.0902,-19.526505,-8.189054,41.832153,1058.06823730469
466,-1497.1708,-434.0457,-419.7726,480.18222,-564.33923,214.36168,1711.90734863281
467,-1193.54,-192.39235,171.46735,-166.29785,189.7132,-130.02931,1319.32897949219
468,-1117.8983,-754.51227,-33.54838,822.19666,-1434.8472,393.7196,3095.68310546875
469,-763.1959,-1043.6979,-549.5252,150.64606,41.837612,302.06104,728.922485351563
470,99.13605,632.04395,-965.39484,1762.1688,-322.09995,279.58698,3441.79931640625
471,758.21716,-1185.9783,-367.75284,-86.514114,-55.326317,-121.85392,1713.12023925781
472,132.59848,1535.4116,694.85236,213.72412,-58.846416,-52.69583,1284.92419433594
473,1131.2872,4098.514,783.9271,-1572.013,382.39694,-362.7529,4266.48779296875
474,2110.3357,468.91956,1281.8022,114.45868,-23.288637,190.12296,1473.13146972656
475,2178.175,-1073.0449,1330.5457,-193.51602,-14.831804,-280.2752,2980.2255859375
476,-36.153915,1483.0404,1058.0319,601.20044,1891.1953,49.497322,3696.54541015625
477,952.6562,1658.4468,1341.3494,-1008.32684,91.72856,-417.16946,1993.08532714844
478,540.92914,3333.0186,1574.6138,-411.33792,-116.774185,-149.86928,2567.88134765625
479,2807.6416,4373.359,-387.5452,741.5791,8.418528,-154.64207,4402.865234375
480,3463.052,-771.086,406.06882,-1549.3195,-48.859497,4.6776485,4640.88134765625
481,2457.1152,-2854.7153,958.66077,-1090.6885,192.96727,-301.15332,5143.341796875
482,189.0872,-296.68033,1656.0614,-304.3526,147.49063,179.4052,1881.56909179688
483,-2712.5784,-1960.8872,-1698.1733,-506.48425,-91.614716,97.048,1286.29370117188
484,-83.51464,-376.10577,-604.2593,347.31036,-45.85455,21.906235,757.654479980469
485,-3895.6443,-3622.941,-714.0076,723.5148,61.62005,-37.90647,3303.88549804688
486,299.32465,-327.23294,180.95627,-729.4954,695.0437,-35.047497,1838.98168945313
487,1393.6906,-313.64426,431.90286,-861.2063,-14.885794,-25.02669,2103.68896484375
488,227.99013,-1983.9413,-1241.6909,-1277.4033,11.4971,43.924366,2950.1240234375
489,-7796.2993,-7719.63,-301.80035,-1366.1956,-59.284058,2.7992918,7823.607421875
490,-8006.279,-3000.9192,-2191.708,397.44675,52.48931,189.64647,5508.9833984375
491,-237.4215,441.13818,-883.6541,508.70786,-20.346945,135.18874,1465.94274902344
492,637.71466,-2233.4392,430.80563,887.60486,70.27934,83.19323,3176.69262695313
493,606.7224,-3575.4492,59.454422,-379.292,160.99239,-281.50497,4030.9267578125
494,-214.08623,677.8638,189.13213,-806.8101,179.86649,48.18432,1629.52697753906
495,12.456327,-1360.6263,-825.3618,292.3506,-108.225494,125.9548,1332.681640625
496,1449.5923,-384.08832,847.8248,-854.5224,42.62533,80.077965,2199.17553710938
497,2154.5657,1236.5001,232.39243,-126.7995,-168.42476,183.71666,1734.21557617188
498,-336.9156,-742.73737,-1265.6287,-610.50934,294.1965,-447.29495,1621.21728515625
499,1457.3054,-469.7425,2060.5383,1282.1643,43.58021,56.615288,3191.70971679688
500,-949.58765,-576.9167,1358.5558,779.16327,124.27976,54.156635,2546.10546875
501,-4318.6123,5275.5264,-992.906,-124.40622,-76.685585,-69.57152,8442.6962890625
502,-1386.1753,17.49774,-3415.9617,494.19727,186.46838,57.637077,3128.33154296875
503,-3111.5723,979.6839,1130.818,2392.7378,201.46262,-234.08772,5902.650390625
504,257.72003,1409.6047,1779.342,412.61597,-142.5912,-38.35841,1570.224609375
505,-324.2736,1079.7554,1014.95,-1219.7935,-178.93088,-83.309875,2542.64965820313
506,-2419.8289,-307.69986,1451.8842,-2314.1882,-753.5902,647.2942,5504.6123046875
507,-875.8546,398.4559,-85.84519,270.62042,20.040567,-158.60413,1240.01684570313
508,-1118.4948,-369.47412,-1632.1606,690.28656,-3.2104597,-17.364035,1624.82397460938
509,733.7467,977.5918,1629.8702,-321.2669,-35.07874,2.0019705,978.429016113281
510,-1519.9402,301.6716,642.81335,656.82,58.263695,-79.00162,2319.31469726563
511,-625.8817,1834.2915,142.9503,-168.38159,-10.251345,-5.0049124,2199.44140625
512,173.14285,1550.4961,395.93677,1548.6432,99.4262,236.35004,3005.32885742188
513,-3883.11,4935.129,-1567.1556,-402.24423,57.223232,58.255272,7950.33056640625
514,385.87637,537.81024,82.7207,211.21516,157.31473,257.97446,754.174133300781
515,-4624.5386,-4198.411,-1497.9218,306.77795,-205.39043,482.8644,3119.83154296875
516,1048.5015,-1404.1881,-850.7156,88.21738,-165.07161,263.30664,2297.30395507813
517,351.9371,-53.03357,2861.135,-289.61038,-258.87167,-6.9548383,2815.85473632813
518,1437.8002,223.95383,2130.833,-378.77048,-36.129658,194.36168,1828.27770996094
519,-483.65036,201.29579,-1334.4327,-60.729515,57.91192,-308.36887,1442.95593261719
520,5.707223,1007.8682,770.1757,421.34296,-45.931854,-1.4496815,1166.85192871094
521,-362.32108,-1857.9932,-1442.8682,-975.36163,241.80728,-48.921555,2196.60107421875
522,-4081.4878,-2883.0618,-1501.9183,-958.2602,-84.24842,130.31758,2797.50073242188
523,-1690.3464,57.415222,-1076.1964,-307.09995,-434.52383,-26.818811,1791.64306640625
524,-3734.3884,-1498.9579,1060.2811,-754.48236,-374.26465,0.55230606,4404.06689453125
525,-3792.1548,-2831.1096,-774.7208,373.2712,21.327936,-21.024998,2747.60083007813
526,-480.12628,1571.5365,-232.48564,-611.49115,-1.2750362,-184.1938,2232.96264648438
527,193.69415,2084.4453,969.81854,1479.2557,-98.90406,-113.18597,3056.5048828125
528,1331.3579,1174.1324,3482.3206,-322.49835,-254.51715,-59.0874,2346.56616210938
529,-287.3327,-947.47125,582.20984,2286.5874,221.11075,-190.61784,4207.9716796875
530,5018.1357,203.69339,1095.2716,770.28076,344.19165,-51.627678,4671.6923828125
531,-1381.9275,-2794.7239,-632.1125,-401.22797,-86.71398,255.73225,2078.28271484375
532,-1992.4033,-1688.7284,-956.76465,293.7574,-91.63511,-52.83138,1068.97766113281
533,148.56247,-364.88644,181.98837,-806.8503,-59.755913,166.0616,1525.90087890625
534,-857.4391,-142.92796,1852.204,-998.91016,10.631056,-10.260073,2985.08642578125
535,-2642.9065,5407.3735,-670.03754,659.1543,-23.14986,83.87977,7358.20947265625
536,-2486.3577,2206.843,174.58107,2230.7668,17.967419,-226.61525,5630.48876953125
537,1380.563,2199.3054,2594.832,1176.8251,-188.71153,28.194551,2326.92651367188
538,1308.3899,307.07245,850.5422,1026.4797,47.643715,-53.532295,1982.47302246094
539,814.7751,2907.9316,130.15602,-1645.2198,105.67581,-121.028625,3805.35327148438
540,-486.35886,-540.5694,-1720.532,4249.5923,-49.196274,27.840778,7459.61865234375
541,-2989.324,-1606.1414,-1953.2915,2647.8389,47.171043,20.266579,4753.376953125
542,5353.11,-2146.1594,-2702.7144,1429.7798,282.90942,30.900564,8191.357421875
543,-4450.207,-1696.2528,-477.17123,-2301.183,-7.3626842,-75.54073,5322.71826171875
544,3787.148,-458.80508,-218.84067,-23.747414,25.387163,86.3491,4134.34619140625
545,2575.9167,-10992.907,249.76543,-4130.383,38.904156,31.817709,14461.9697265625
546,5114.774,-1388.6958,-304.1017,-2854.5635,42.738186,-84.486694,7803.2255859375
547,115.386925,-44.2741,137.75877,706.41547,72.87484,-94.4786,1252.734375
548,2561.61,223.99065,80.284996,112.75717,-26.48868,-62.15157,2423.40283203125
549,1761.5913,-455.90335,-378.52396,505.79938,123.250656,96.06097,2364.83325195313
550,-3417.964,-879.7744,-773.5946,-1337.7255,320.13992,-96.865074,3525.24194335938
551,906.3994,2862.086,1305.7274,-465.93936,-12.899006,145.22014,1979.46374511719
552,-4672.0073,-6729.84,-2837.5813,-326.33832,119.90934,-70.654076,3428.16796875
553,633.62756,4054.5386,379.65683,-1589.004,-55.71243,63.018726,4497.99609375
554,-1184.7712,4372.635,1916.1373,781.75397,4.505859,-97.54972,5012.9248046875
555,2381.4683,166.04189,1049.3287,-2780.4824,-224.25954,92.96905,5205.91064453125
556,4653.8706,5748.4067,1959.8618,1794.6553,130.3168,-80.74739,4597.52685546875
557,2949.449,2362.0613,1144.7551,-423.9772,-56.77462,53.602013,1760.52514648438
558,-1582.8472,-6965.4604,-177.59805,-1192.3813,-171.71289,29.467766,6547.3310546875
559,-74.12628,-3576.9312,-450.7362,-857.04596,26.185678,55.47953,3647.89770507813
560,862.90643,-1554.956,436.22897,-550.5005,-185.89565,164.10712,2467.80932617188
561,1060.2516,-2040.143,-384.75937,1076.67,2.9715095,142.44205,3280.083984375
562,2678.955,-1209.001,564.8331,1476.7361,-35.88404,-171.53246,4242.69775390625
563,-1089.0741,897.38525,369.8985,-16.399094,-120.89681,-10.786045,1794.83581542969
564,279.5409,-2079.0676,84.4774,51.42181,-103.35294,41.01206,2277.28564453125
565,3369.4006,-725.0866,510.84338,-6.2574477,52.296143,6.9491634,3638.724609375
566,981.8938,-2444.769,-334.99072,-1859.7437,28.273182,174.8088,4408.36669921875
567,-457.12994,1445.6211,-130.62692,3037.5916,255.78929,-433.68018,5616.69091796875
568,-721.2704,1076.3145,-286.60312,1595.9924,-7.856291,348.98074,3262.82373046875
569,-1212.7662,5411.173,-1097.9037,-1220.4413,-70.09213,-35.41542,6900.42431640625
570,1540.3473,1122.1731,-590.0526,-1873.7426,-282.305,302.8147,3856.10009765625
571,-923.17975,200.65102,-382.12936,266.09515,-44.738358,179.99608,1123.96716308594
572,500.0653,1730.2952,-311.75055,330.95282,-31.28015,-26.512331,1872.12817382813
573,397.6667,-11.155522,-147.10614,-262.17596,-35.145218,74.89681,684.061889648438
574,1023.7728,-102.92775,296.53653,-61.900364,70.45291,-8.009593,1002.76000976563
575,-276.6367,-1771.0425,-795.13855,-256.04984,-21.75246,-415.5248,1563.11450195313
576,-84.76275,-1786.2545,1058.4901,-866.641,200.18709,-171.62704,2934.13159179688
577,-947.2573,-2718.884,-4920.3525,26.429356,-21.227455,317.2775,3491.52514648438
