Element Label,S11,S22,S33,S12,S13,S23,Mises
1,11025.231,-15790.762,-4790.942,-3788.4734,7376.9136,-1204.0109,27491.5546875
2,219.71272,-17645.367,-7898.225,-1143.9557,-2339.573,-1637.8771,16383.8037109375
3,11537.212,6704.7246,1405.6073,-1862.3046,-1644.7471,-2084.6025,10421.05078125
4,2367.5203,-26164.115,-19635.39,-6619.2725,3788.827,6006.6475,30873.169921875
5,1377.6395,-23507.193,-21836.623,7278.234,4142.279,-7718.8457,31138.544921875
6,8874.848,-8833.36,-1707.3527,-2865.151,4356.0337,-241.60196,17885.728515625
7,39709.586,18575.078,37667.977,-10613.804,6337.668,7295.6646,32028.486328125
8,-20443.826,-35539.434,-35224.176,4135.153,3061.034,-7684.8154,21904.2265625
9,23510.701,16779.223,44842.188,1674.0361,-7394.1733,10366.104,33745.140625
10,28836.586,31968.879,41575.27,3879.3044,9974.133,-15780.58,34969.43359375
11,10984.4375,9937.026,1129.8689,3041.0608,-7912.9053,-7272.2104,21497.193359375
12,-2767.9792,6496.868,-2664.3237,398.99896,-18781.69,9176.184,37366.13671875
13,27358.197,21825.299,6675.8535,-17269.484,-6877.425,-8507.392,39970.84375
14,-12103.945,-23673.463,-3444.6396,11012.064,5237.8936,-1576.4855,27614.859375
15,8585.039,9670.219,8508.999,-855.1565,288.99533,-312.83725,2000.98693847656
16,-21415.85,-1348.9763,-26110.336,-8781.707,-11549.89,-2481.2903,34189.86328125
17,1940.0474,2787.6262,-14163.557,3376.9158,10972.982,-1222.8331,25953.982421875
18,-19296.314,9881.334,21005.373,2263.5461,849.6124,-3799.8047,36885.01953125
19,-51113.715,-51746.953,-51479.25,-1042.2913,-109.98168,-350.03238,1991.50817871094
20,-36570.137,-13773.664,-34547.516,-7873.767,-784.3611,-4625.1235,27012.42578125
21,-13658.503,-7146.3276,-10776.2,12890.002,-6837.94,-8469.704,29763.775390625
22,13630.64,26945.3,15389.146,4774.211,-9924.132,-7468.765,26232.62109375
23,-49684.24,-60708.8,-51837.57,-2841.2334,13548.002,4420.549,27127.935546875
24,-8653.073,-2816.407,8724.296,-2934.9612,-5167.511,-6031.1035,21205.845703125
25,23594.143,-1394.528,392.04105,-5534.436,-2759.4292,-1021.49927,26473.48046875
26,-6964.5225,-8257.616,-11803.379,-5468.782,-11512.492,-2232.3855,22827.951171875
27,7186.921,2527.1487,-3066.452,2881.0254,-3021.064,-2537.583,12274.6142578125
28,1088.9347,-11440.375,-377.73795,7727.8,-6375.1953,-9343.119,26527.833984375
29,22939.271,-549.2097,9661.289,3882.803,-1489.296,6463.45,24358.67578125
30,5677.0566,14265.537,18243.422,3198.2263,-9242.65,2808.9006,20841.90625
31,-4824.0615,-11143.635,-76.14452,6180.548,10421.517,-11429.47,30410.59765625
32,12279.51,20937.285,22528.848,6911.9995,7786.919,-5970.481,22878.919921875
33,-5050.9717,-6665.448,1675.2865,-499.46,-11915.605,-7596.751,25661.91015625
34,-1530.948,18549.398,30370.139,7096.616,-10257.35,581.283,35327.80859375
35,-16971.934,-2234.7358,22758.824,1042.8558,-5528.018,1243.8538,36190.87109375
36,-15929.589,-27971.447,-24862.693,2520.9626,8416.218,1816.3822,18939.302734375
37,-3306.8013,13960.697,-8561.04,6546.959,-12480.161,-1424.9711,31913.0703125
38,6334.2324,-16526.238,9614.201,-115.65905,13663.83,6758.219,36131.73828125
39,-14046.656,-17020.512,11499.784,-386.29926,-1152.4977,12464.851,34756.08984375
40,-4192.84,-17851.13,1238.3624,-3524.2625,3753.5332,1471.0704,19397.119140625
41,10463.459,-7629.646,-9045.356,4029.4702,-4081.5745,-14562.745,33013.4453125
42,17870.207,14498.685,10080.799,-7453.468,648.0793,6324.58,18267.548828125
43,-1899.0446,-8831.06,9677.515,4240.59,-18880.557,6988.996,39143.71875
44,45548.797,23497.062,26580.312,-5930.692,7904.5625,696.64075,26874.076171875
45,1700.5757,7398.2593,10831.744,-1918.7422,-18824.732,-4062.039,34459.71875
46,-24679.979,-23624.48,-24015.533,858.51654,-488.73288,260.73166,1996.47619628906
47,112939.766,110853.94,111596.15,-201.64783,325.29578,-269.64523,2002.74694824219
48,-129155.875,-130132.73,-130450.66,902.6526,107.65503,294.2839,2026.03344726563
49,-120284.4,-120977.805,-121237.92,-810.248,-83.279015,-656.1347,2002.67077636719
50,18540.775,30261.586,33102.52,6585.8765,15398.939,-6834.6475,34064.453125
51,33082.445,33820.613,33170.61,-1024.4271,-348.72226,33.20366,2001.01647949219
52,19029.6,49890.887,30057.29,-6070.7686,-1614.841,573.01685,29207.3828125
53,29920.266,31019.36,10410.416,-511.24164,-447.41562,-9109.559,25566.037109375
54,-16652.838,4534.2363,-825.0805,8686.778,3996.5845,-13491.111,34415.0390625
55,26509.438,31784.111,36190.125,5944.4854,-7620.985,-13191.681,29542.947265625
56,-1019.4828,4682.6304,-4003.5854,1767.126,4800.135,6156.6313,15831.583984375
57,1282.13,18960.244,-17036.535,2044.4384,-5929.2734,-5909.1836,34564.31640625
58,20677.484,23474.39,-3987.5273,-5780.6836,-6383.068,2754.4026,30502.640625
59,-278.97256,-9405.762,3575.2588,-15383.949,10114.145,4801.941,34919.78515625
60,41416.414,26742.87,35865.84,112.11053,-299.4494,-4343.557,14885.609375
61,22460.143,27507.193,31630.322,351.3945,-13061.711,-1270.5972,24089.853515625
62,-22817.492,-10247.022,-11936.644,11056.422,-1455.5118,-6339.7515,25165.421875
63,6142.9175,6138.3716,-6581.916,4671.99,13606.082,2682.397,28360.328125
64,2108.537,9725.573,-452.80313,4699.444,6055.7983,11783.255,26017.248046875
65,-6499.5283,15701.919,-317.97046,5669.1484,14007.462,-3543.7124,33415.48828125
66,-6260.498,18799.346,26844.049,-3060.2898,8683.424,-7973.634,36597.1328125
67,30551.322,26769.389,11390.27,16070.004,11684.328,1111.6573,38691.03515625
68,3013.3694,23164.924,15233.892,9524.07,14578.808,10107.3955,39056.25
69,6905.2793,12317.702,-6326.2017,11321.148,6445.3657,9512.316,32504.87109375
70,12435.985,8654.139,15680.352,-9148.389,17328.846,-2044.0084,34663.78125
71,9306.18,27325.246,29400.553,4013.4167,10018.855,-8840.234,30826.8203125
72,18531.312,-847.53015,7750.855,2946.5796,8953.0,2386.9238,23800.271484375
73,-16494.014,13420.07,-5822.996,2784.0964,12512.572,-8438.668,37364.28125
74,7607.6367,20826.178,18314.26,-9548.965,16158.145,5324.6895,35912.359375
75,17782.148,17328.42,17581.164,356.59274,-647.2469,858.4134,2000.98815917969
76,65501.15,65031.633,66264.78,808.76746,161.4653,516.83057,2000.99645996094
77,-56102.785,-55890.15,-56076.574,1090.2596,217.0814,292.09503,2000.91430664063
78,-43645.2,-44100.16,-44346.4,-1024.0125,-319.21057,-240.05595,2001.00549316406
79,61046.555,60359.07,60492.473,-1008.43567,-205.11154,-377.89307,2001.04174804688
80,16372.92,17530.625,17208.77,804.3364,-379.6479,431.80634,2000.97399902344
81,105688.45,105335.91,104882.25,-700.9919,92.221664,-819.4316,2001.02880859375
82,132375.5,132510.38,133478.39,-468.82446,-279.64957,-821.40625,2000.98278808594
83,50640.41,52510.582,50892.758,485.6382,-235.58673,117.41202,2001.17016601563
84,-19010.809,-18527.793,-18395.168,456.30936,-900.92505,458.01596,2000.98522949219
85,-13090.409,14563.463,16920.79,6447.5967,-13772.951,3798.4185,39655.56640625
86,-30034.316,-35935.85,-44448.973,-7564.2437,5254.3164,4928.244,22020.025390625
87,23762.752,19956.64,21146.756,-1818.5741,8219.326,12690.175,26591.1328125
88,3847.5923,19198.404,18018.182,9741.092,10055.736,-8491.089,31988.10546875
89,-4145.102,2238.589,17581.584,4315.5454,-4305.8354,-11340.874,29520.208984375
90,-2156.2915,5700.23,-9417.645,6191.7925,-1003.4826,162.32626,17018.109375
91,-10596.742,-4422.2285,-5403.135,754.16766,20112.299,-5726.692,36696.52734375
92,3582.7556,-10569.48,6029.0254,6633.668,-117.87781,-253.21756,19316.85546875
93,-13026.248,-11987.2,-22205.47,3063.3357,10527.593,-17896.963,37635.3828125
94,10175.992,35686.023,16570.361,266.32678,5199.16,1174.6493,24778.521484375
95,15533.37,16684.588,-4634.1665,-5484.578,4546.7007,5615.4375,26040.943359375
96,13116.336,12443.831,2069.118,6173.7915,6280.0264,11402.07,27161.533203125
97,11928.531,30299.264,27882.139,8886.0,-11173.989,-2453.9873,30470.3984375
98,-818.0481,21369.531,8004.6953,1334.5795,6093.813,13187.151,31824.896484375
99,-14570.814,-9685.863,15172.626,-4729.238,778.8391,-1740.3151,29004.18359375
100,2642.876,11868.24,-3203.897,8883.724,-17090.818,9319.964,39330.21484375
101,-38970.477,-51215.773,-26355.441,6369.6855,1620.9131,12676.842,32791.29296875
102,43752.73,42773.684,43963.285,953.7867,-118.018166,-88.842636,2000.89978027344
103,-1318.9984,15298.673,-14690.548,5790.8755,-2675.3054,-9350.1455,32580.66015625
104,-5811.1606,-20376.807,-21896.197,3941.7998,5159.9595,19758.496,39169.8984375
105,-4185.3643,12095.319,14046.341,8390.282,-11697.724,-1999.283,30566.701171875
106,3525.5942,20003.98,15752.909,-2748.051,-12722.119,3606.1614,27690.857421875
107,19806.16,7460.439,10197.629,-7017.5684,-1347.9117,4590.9473,18507.734375
108,6888.7812,-9282.042,-8556.744,7566.67,8896.637,13070.218,34234.46484375
109,12277.627,5010.175,4988.441,-4402.8223,-8584.7295,-588.5761,18255.43359375
110,9707.445,16214.952,-8412.288,-1949.849,2439.9517,12897.579,31888.79296875
111,4068.2905,25651.717,7170.365,-5163.114,961.8439,4877.4497,23719.84375
112,13356.55,4827.692,-19520.55,3111.2615,12912.47,4098.3066,38116.46484375
113,-7235.9487,3884.9644,1271.4186,193.50166,9133.635,12179.255,28228.09375
114,14098.001,9102.921,-4582.531,11047.88,17105.99,-1828.9851,39174.60546875
115,58898.39,57469.742,57934.17,260.7567,-857.65356,-3.7201083,2000.98901367188
116,-261936.67,-260555.05,-261375.02,-63.67996,860.8263,-324.8245,2000.02783203125
117,60800.965,60203.473,59911.086,-284.76807,773.8779,-670.1124,2001.06909179688
118,89896.414,89344.29,89957.07,-558.4179,-474.8555,-826.7679,2001.15002441406
119,17115.238,21033.535,31834.094,-822.4035,3268.161,7379.381,19281.140625
120,-18762.09,13085.777,-16754.818,-2718.0366,4273.2656,-7260.554,34488.8515625
121,4475.8657,21664.707,27760.139,8419.72,-3626.777,-2912.1443,26738.759765625
122,2370.17,-3466.0708,22143.734,309.26318,2873.1514,5065.4175,25347.30859375
123,-1894.5128,19206.197,14291.798,-307.42966,-14991.849,-1676.9452,32383.337890625
124,-12023.536,-29741.373,-9412.788,11917.91,-10070.987,7871.8394,35822.84375
125,1495.4103,2857.6936,2442.4304,-205.62204,396.3918,-804.79285,2000.9619140625
126,17415.889,20514.477,43786.85,9625.738,3474.829,-4438.9956,31569.2578125
127,14527.636,-12585.048,5458.0083,-10007.208,10971.051,9049.74,38453.5
128,24607.34,201.43114,-12974.421,-1715.9377,3115.0615,-8866.9375,36940.92578125
129,5183.986,-10340.945,2497.9827,181.9824,-5723.3086,12312.095,27562.09765625
130,-2397.8499,-18761.852,6469.6,-710.53235,4432.6025,-3455.2363,24244.455078125
131,6187.7036,1281.7128,14058.603,3763.96,-8455.378,-7067.744,23053.759765625
132,-9769.421,-7797.2188,-10181.741,448.76862,4354.2163,2844.5688,9307.484375
133,-6655.44,-9523.278,5066.0063,5586.2207,-4793.9307,-16187.904,33584.8125
134,4956.493,1872.7949,22036.44,5521.2217,679.71625,8711.974,25969.912109375
135,89256.016,90444.65,91064.38,636.5038,185.49123,225.13068,2001.05944824219
136,34738.758,34438.465,35309.008,-936.088,481.24487,-93.04934,1983.97314453125
137,-28331.955,-26573.762,-27580.121,470.2459,-573.8863,3.8331723,1996.52270507813
138,116241.22,114244.87,114839.72,-5.44569,448.9832,287.28717,2001.04565429688
139,24468.549,24444.816,24912.146,485.5023,-324.81,-961.3301,2000.99426269531
140,32583.164,32497.26,33046.14,-139.12076,781.5852,785.6328,2000.96105957031
141,2019.6523,8826.839,24051.7,-3078.6777,-4384.157,4995.529,23296.69140625
142,-5593.084,5473.5747,2030.9033,14369.985,13737.384,-2653.1104,36096.78125
143,-1234.4386,4480.797,8451.039,14228.664,15961.234,-3774.568,38542.27734375
144,3069.7502,-2744.9062,-11942.328,11876.364,13339.719,10375.016,38102.4140625
145,862.8102,18868.283,3332.997,18298.873,5233.9395,-4058.4412,37708.9296875
146,4829.369,-3607.1204,2567.043,14170.204,2748.2017,-17152.584,39558.5859375
147,-1556.7195,32695.266,37188.41,1730.838,-1944.3868,5073.977,38011.1953125
148,9693.641,24166.994,-3750.49,-841.1421,11000.056,13008.703,38178.65234375
149,10773.766,17510.756,-6242.0005,-2424.4868,7071.892,14161.959,34912.90625
150,-37206.89,-35834.383,-36441.945,777.5574,406.597,302.79724,2000.95825195313
151,-25405.498,-2236.245,-733.1458,-8893.05,1803.1359,-216.49347,28654.01953125
152,12605.143,-4698.1196,-12982.917,-847.2996,11447.799,-3985.267,30892.587890625
153,28018.527,8169.8037,13201.613,965.93805,17592.977,273.69998,35369.171875
154,30497.562,-24.903122,13043.874,-2177.1658,11364.899,7527.8286,35710.36328125
155,-16714.168,-20543.877,-14974.529,-10968.78,1934.0797,-426.87738,19926.525390625
156,-3958.8862,-10017.373,-4675.8467,4126.4546,-4733.292,4809.3447,14851.263671875
157,-3633.1997,11616.344,27059.445,9197.821,9598.104,1296.5458,35238.5
158,-3217.781,-9509.894,-32556.422,5896.5366,-2997.897,358.91898,29110.14453125
159,-19174.205,10051.716,13251.413,-99.95221,-4581.5703,1285.739,32029.177734375
160,-14439.764,2390.681,22301.629,3035.6807,-7496.1416,2949.3135,35172.96875
161,-12350.467,-3340.3667,-20413.195,-13569.1455,-3378.8062,9098.982,32462.65625
162,2234.6135,10083.85,871.3235,-4939.5576,-3826.4602,-7989.803,19565.373046875
163,-7881.527,-12693.339,-6110.517,-11658.206,-2113.4702,6080.3926,23808.96484375
164,5690.6895,11319.432,13635.976,-2555.3748,5362.6294,4639.64,14850.263671875
165,-1250.9497,14013.62,11071.551,0.61966723,-8056.588,11762.344,28399.603515625
166,-12843.738,9767.558,-28043.91,344.41278,-4128.496,-11347.385,39035.7578125
167,-2798.3757,-3485.68,-8088.56,10283.957,-10931.592,2792.255,26907.080078125
168,-3806.6099,-9312.134,-16275.858,-866.6459,-9026.769,-6758.907,22380.62890625
169,-4422.6157,952.18036,-18104.152,-1595.7034,-2436.335,-20147.709,39151.5625
170,-19979.316,-7067.771,-41074.344,-6065.6406,-6173.7056,-4803.5596,34322.296875
171,-919.56616,4219.084,6522.8867,-1127.4741,2369.4646,16588.857,29829.162109375
172,-24500.33,-16494.83,-36712.47,-215.53871,287.5428,-2424.0237,18138.4609375
173,14515.631,19978.875,21209.008,2307.8745,5117.256,-20022.236,36541.59765625
174,14054.024,-13208.772,10359.6455,3780.1091,-3484.3494,3976.7944,27980.77734375
175,9087.0625,8984.551,10158.794,650.0642,626.7256,310.2743,2000.97412109375
176,-12751.892,-13456.109,-9387.352,-9907.633,2049.7112,1210.7343,18046.34375
177,1427.3641,14536.685,15635.408,12950.016,7753.168,7701.316,32385.7890625
178,4162.75,-2495.3235,8051.5933,-9670.734,-4372.7007,-4945.3403,22285.5390625
179,16493.84,3653.916,-2226.1042,2400.345,4408.301,17286.918,35313.37109375
180,3145.4146,22924.678,11125.938,13480.096,-1056.1875,-5641.5195,30676.12890625
181,-54040.723,-52873.24,-53709.25,746.98413,610.574,-204.51967,2000.93664550781
182,18089.59,17305.902,8813.157,9725.44,-11699.675,-12975.477,35761.50390625
183,-2642.5017,-14011.953,-15974.539,-5842.3164,2595.06,-5953.36,19605.0546875
184,-4642.1694,-1431.1771,2471.4636,6518.0938,3652.113,-6293.237,18009.923828125
185,20738.172,7032.289,25562.693,-2795.4265,-8487.954,18467.707,39242.828125
186,-7654.394,9030.247,4516.6895,8615.247,4058.9553,-6878.798,25248.5390625
187,-3484.7244,-4408.232,-1119.1406,-2815.0461,-1239.4563,187.90639,6092.751953125
188,-13126.988,-30430.432,-2179.1404,-5577.686,-12798.789,-7821.4214,37107.71484375
189,-5906.994,12368.431,-4882.6357,2574.0757,-593.2295,6173.6943,21250.806640625
190,-5762.894,17001.912,3462.9922,10553.99,-8388.776,3280.7148,31159.138671875
191,6122.902,4537.59,5188.184,79.1565,824.3695,182.67407,2015.62744140625
192,-14388.581,-8608.465,11368.488,452.8585,-15783.389,7718.169,38400.90234375
193,-7292.0117,-10248.409,-40215.902,9549.793,2832.969,-8286.192,38717.46875
194,1789.1122,-6691.829,5684.0317,4933.0356,-2946.5498,-3956.7095,16314.01171875
195,4510.562,-13518.302,21677.795,897.1113,13279.31,-3542.702,38708.4765625
196,7417.088,-2724.2063,5551.2036,1547.4109,6956.327,3505.385,16631.986328125
197,-2365.475,-8797.488,3434.2534,268.5435,-3632.6206,838.32324,12418.6982421875
198,9151.361,-1600.3604,-12333.503,12752.193,10971.716,-5567.6646,35891.32421875
199,-5039.991,-16819.87,-22779.713,6848.949,3826.4814,-7306.5967,24275.515625
200,-6615.2417,7807.1235,-8442.196,13954.017,-4920.632,97.8346,29908.220703125
201,-10587.337,-17521.338,-18959.98,6747.0454,1881.6664,-4172.471,16110.3701171875
202,-12192.282,-2461.5637,2643.2925,4874.2056,-3858.7134,-10108.329,24349.49609375
203,-6629.673,-634.0368,19715.225,-388.09317,-890.374,-1597.3844,24135.697265625
204,-22798.502,-5662.5264,-7876.466,-6642.8833,-14121.375,-5772.029,33032.9765625
205,-8753.323,-213.97365,12364.698,-1034.5773,-4662.0776,-2045.2969,20482.255859375
206,-10266.912,-10446.738,8689.432,-1951.5372,6014.4683,1256.2068,22078.6171875
207,-22526.432,-21800.143,-14136.464,10669.112,5495.64,-3785.125,23235.814453125
208,11706.482,-1449.7426,-3037.776,-1415.7518,751.29395,3570.6216,15570.96875
209,16801.025,-1637.1958,5908.8936,-600.80444,-11921.3955,-5458.562,27831.71875
210,-499.1915,1409.5079,250.48831,-9426.208,-20864.533,-463.1764,39698.4140625
211,17705.414,7907.147,5245.8105,2257.4297,587.371,8238.211,18684.01953125
212,24082.068,11719.902,34004.105,-4108.8413,-8151.616,7639.155,28266.44921875
213,11993.676,-15165.78,-22234.553,11393.197,-6767.9517,669.4332,38829.9140625
214,16867.045,1289.4227,-11313.853,289.6899,-6301.157,-1550.6074,26914.9140625
215,-7325.924,-4733.8477,12071.38,-7743.3687,-1699.8054,-6277.71,25287.767578125
216,-3613.7153,-13935.947,-7511.2944,735.7604,-3066.1204,10635.225,21228.734375
217,10544.696,16580.482,27879.305,-7899.564,11364.499,-5868.9043,30170.984375
218,14309.957,34508.586,45362.543,-7301.942,6035.88,-1062.027,31900.822265625
219,17808.97,3208.3523,15889.588,-3664.699,-2793.12,3429.2358,16965.0078125
220,-15053.023,-36311.656,-36186.582,1008.383,4866.2886,-18275.367,39055.6796875
221,2855.338,-15502.852,2280.315,928.1788,1323.7181,8152.5903,23109.1484375
222,18372.375,-1107.8818,27645.99,-917.6703,9526.427,12376.894,37154.8125
223,15346.029,-11540.965,12588.903,-1098.7406,-2255.0132,16095.448,38111.00390625
224,-2363.621,-21131.314,-14426.262,2244.6914,842.1876,760.5263,17038.916015625
225,5581.7026,-3641.4622,19592.314,10060.899,11560.213,11490.385,38874.84765625
226,-8705.251,-19697.293,-4473.757,2235.7798,14141.848,13176.836,36346.96875
227,-11784.899,-10223.559,-3892.0234,-2590.87,359.7213,19416.27,34697.44140625
228,5482.7847,4258.2354,8670.065,11255.04,-9500.121,-16918.492,39051.9140625
229,-11967.914,-13772.121,-18604.92,-3568.7551,1711.9637,-18107.668,32649.5625
230,11261.06,15285.276,45559.11,-6471.189,520.77356,-1295.1951,34438.390625
231,12576.327,10195.994,22653.98,-1114.87,9532.234,14409.563,32100.453125
232,-17177.04,-26427.73,-21549.982,10475.005,-13087.493,11879.5,36477.90234375
233,5736.8506,10210.107,6165.4683,-682.13434,4440.096,12361.222,23177.90234375
234,-16826.555,-28048.326,-30020.18,4312.8516,16896.893,2710.3533,32959.05078125
235,19607.77,6716.772,8029.71,4204.0654,-7048.8755,-4725.1196,20494.859375
236,-17229.299,-14335.737,10102.944,13969.502,-5658.844,2989.1057,37210.87890625
237,12903.118,2919.804,2189.4707,6593.134,6134.3467,-2894.145,19388.609375
238,765.8128,2080.8804,20693.521,2520.0115,14764.196,6183.103,34063.54296875
239,7357.608,-8615.409,-26435.627,-3905.219,2330.9995,-14703.253,39597.34765625
240,10993.573,24572.258,20462.234,4829.429,1589.2788,5136.847,17383.13671875
241,14204.845,2370.853,20332.502,8723.695,18084.926,-3071.3564,38573.41015625
242,-12823.318,-254.03671,-41010.035,-2922.1926,5534.5093,-3073.0642,38113.06640625
243,6911.4434,-8027.9697,19080.477,9954.806,-3970.0515,14172.266,38732.51171875
244,-1452.1321,-10015.055,-29740.326,-6301.919,9834.726,10547.197,37072.28125
245,341.56857,-25722.674,-5438.9854,14694.7705,7938.7397,-2381.7405,37629.66015625
246,-10348.598,-17273.066,16559.06,3617.5984,-1824.0906,9515.611,35765.55859375
247,29337.643,16594.904,42810.9,9260.945,5089.5234,6940.488,31545.337890625
248,-19815.027,12715.066,855.3695,7009.4136,6964.3467,10813.031,38167.125
249,49497.42,49031.883,50614.43,785.26544,92.79033,-218.89885,2000.98706054688
250,9371.517,8556.2,9539.193,-530.19214,-723.2641,-503.79785,2000.91149902344
251,31131.137,32504.443,31934.854,-893.8527,144.44926,-196.97893,2001.0244140625
252,15513.859,16682.572,16742.209,666.9398,596.58453,232.80049,2000.97436523438
253,-116944.07,-116792.516,-117297.33,79.25327,1072.8492,-330.9955,2000.45788574219
254,60210.613,60297.41,60016.78,775.04425,672.5621,510.8699,2000.99780273438
255,68277.67,67965.6,68468.945,-856.91815,-24.481064,-731.8314,2001.27954101563
256,7500.4565,9432.769,9294.12,-98.73755,-267.854,302.4479,2001.01220703125
257,40470.03,39228.797,40236.46,-161.01764,863.22003,359.18503,2001.39221191406
258,121121.805,120430.984,120079.445,605.1844,-711.89166,-422.6331,1999.65808105469
259,-118534.94,-118287.5,-117776.39,-140.9156,1069.864,-143.30228,2000.982421875
260,85520.24,87600.96,85902.61,179.87422,-82.90329,276.99933,2006.95446777344
261,-8680.694,-10328.8125,-8891.029,-585.32715,-176.86108,-390.44443,1998.21948242188
262,74090.94,75978.5,76111.75,-177.23268,160.5,8.117707,2000.96936035156
263,73106.73,72999.07,74417.81,-129.87573,819.738,-149.43092,2001.29602050781
264,81846.56,81434.64,82643.32,346.40073,896.553,182.37433,2000.9716796875
265,35074.867,35016.27,33795.17,339.88403,289.84448,-783.00214,2000.98400878906
266,18951.875,18911.268,20931.256,-32.02185,-8.870144,-14.729914,2000.98425292969
267,17064.28,16519.0,18632.744,123.42225,326.93555,91.15095,2000.98681640625
268,-22037.312,3463.6138,-9695.316,-2281.2917,-6608.4873,-4208.812,26223.296875
269,-14752.093,5176.841,-11582.028,15767.877,-2784.6697,353.68042,33369.92578125
270,23271.33,21882.896,45569.367,429.79987,1821.9722,1547.78,23404.900390625
271,3609.7659,18224.924,17611.293,5373.4023,-14751.933,-8661.18,34198.5078125
272,-12968.582,7939.5713,-3844.9407,6991.111,5226.4536,-7853.3896,27262.330078125
273,5191.3667,29596.691,12262.685,5679.6885,-10370.992,-1363.3463,29967.830078125
274,21966.314,19821.924,13188.099,-10201.742,-4761.147,2348.9004,21438.650390625
275,19542.65,19549.4,19434.205,-7919.115,4174.09,11986.856,25912.794921875
276,27961.184,-2676.2068,36140.12,-1836.373,5355.937,-859.54474,36803.76953125
277,28313.725,4818.6377,-11304.009,-6074.4595,5255.935,-3248.6987,37629.71484375
278,-27413.1,-36067.906,-15051.274,-8611.925,-7780.009,-6652.346,29522.0625
279,468.114,14.202959,-11068.802,-6528.1836,-9750.851,4031.2292,24288.08203125
280,-272.0412,-2622.563,4107.224,1729.9136,-4897.0483,-2368.0715,11521.3203125
281,-16661.379,406.5798,-7484.452,13158.949,4140.52,-5679.987,29775.6953125
282,19089.06,8075.728,-5763.8003,-10970.463,3557.493,-3261.9617,29936.3828125
283,-2628.729,14017.389,1999.9595,6952.8447,9793.16,-1468.3468,25703.70703125
284,9774.442,-10355.238,-27073.271,4567.7134,-10902.403,-5374.532,39077.6328125
285,9807.922,11379.701,10986.534,-442.15253,672.2602,-134.83844,2000.98498535156
286,7711.1567,3169.0662,7681.5083,-13084.72,2596.9324,-8192.059,27489.783203125
287,-20921.348,-18968.998,-12055.966,3213.7258,-2399.4963,8157.717,17691.8125
288,275.18488,910.5826,1213.257,-1181.1969,-1373.7959,9297.935,16428.330078125
289,12571.147,-4443.536,1032.7612,4668.1475,-7149.308,2120.32,21412.88671875
290,7984.832,-10687.171,33808.914,1072.7603,-3281.0867,-2666.9685,39430.96875
291,21004.883,13579.452,6408.831,3437.5332,6809.847,2883.0269,18955.40234375
292,-17008.76,-11451.083,-5171.102,7005.4414,-6227.0127,2374.4407,19639.185546875
293,-5569.0845,6234.286,-9338.89,1640.236,11654.234,4835.288,26147.697265625
294,7146.8247,3558.4116,-1313.0032,-1511.6206,7884.491,4157.7,17300.232421875
295,-4194.619,-9824.388,-22791.783,5136.111,-998.7838,-1558.1195,19033.283203125
296,-10192.153,7801.9517,2586.8403,2806.907,-2789.7876,2393.1426,17925.12890625
297,28107.639,-5020.7173,16838.19,14547.142,5103.0054,1045.2416,39590.5
298,-17738.482,18501.748,-7013.6445,31.32324,8103.6665,5456.9873,36415.01171875
299,43784.88,28623.088,44539.453,-5121.0137,-4563.428,1603.6029,19767.48828125
300,19376.582,29728.93,32404.404,-962.1731,5708.291,9364.332,22486.216796875
301,4512.7603,9091.909,13148.782,-3229.6125,-1672.3325,194.07938,9787.65234375
302,-13584.254,-10307.013,1877.6483,-2516.3994,-11748.021,8614.782,29237.41796875
303,25183.5,27972.33,29221.23,-236.79343,-8132.492,14542.524,29083.6015625
304,2673.187,-15839.109,13813.984,-1269.1421,-2101.1165,15907.027,38082.03125
305,-2337.2627,-13619.915,5965.8403,5920.4478,1486.652,5031.0674,21855.00390625
306,-3885.981,19535.812,17174.64,4929.0503,-12064.62,-8862.767,35271.09765625
307,-8795.919,1783.3262,13037.5,7448.316,-7025.341,-13080.261,34429.8671875
308,13423.938,-3397.3523,12423.765,-2347.0872,12167.492,11535.254,33570.64453125
309,-2346.807,581.853,-27923.56,-9472.533,8578.576,-1059.2394,35085.34765625
310,-12006.111,-13353.109,1436.191,493.88785,10122.935,-15259.982,34747.24609375
311,-12068.528,-11575.852,-752.2517,6443.3604,12024.177,-1570.7955,26237.77734375
312,22955.916,22371.447,24034.768,280.63052,736.94617,27.892277,2000.98547363281
313,-16859.955,-12284.362,-4940.3657,-10575.981,15045.079,5956.9106,35064.87109375
314,-58745.65,-58325.742,-57398.465,-314.5864,-815.3224,309.44196,2000.9853515625
315,7223.9463,7677.5205,6396.896,-116.99828,411.82617,-854.24506,2000.9853515625
316,-7719.6445,-19082.578,-14775.433,13417.92,207.56732,1061.0197,25344.708984375
317,4031.2935,-13254.46,9688.949,-1545.7936,4585.44,4054.5012,23412.974609375
318,80162.83,78703.766,79485.1,250.33449,423.5919,-747.64777,2000.638671875
319,-17359.438,-13704.72,-21964.344,2539.4727,195.92542,-4534.6953,11512.7783203125
320,13405.348,4701.5054,20887.268,-6971.6665,5002.1045,-1735.3422,20658.345703125
321,10190.932,4725.2305,-7729.404,-7576.302,753.6419,-3904.4775,21741.779296875
322,-14931.432,-7651.179,-28767.797,5685.8887,8696.009,-1683.988,26029.529296875
323,-7482.6084,-14609.657,-18908.283,6074.145,-2679.0393,-8569.681,21270.76171875
324,-3582.9902,-13981.461,-7740.624,785.8572,10607.277,493.07544,20550.08984375
325,21267.025,22851.967,2962.3193,-3047.3518,14508.941,-7953.845,34867.8125
326,4100.03,-11937.975,3741.7712,11339.461,-5222.5474,-3759.7285,27596.7734375
327,-7909.5405,-6488.0093,-24331.03,8553.209,-18722.42,172.51385,39574.96875
328,-18936.184,-19674.31,-32681.361,-12630.08,-7515.264,847.2564,28800.642578125
329,13458.963,-3903.6638,-21301.916,1251.1761,-1600.9407,7344.2656,32870.0390625
330,-1193.0011,-24621.064,-6820.2495,3805.0752,12277.296,3547.2495,31338.240234375
331,17922.533,21094.709,20509.727,9781.454,7721.1523,17683.531,37583.91015625
332,12404.158,-6197.964,5086.0117,-1727.877,17196.857,10686.967,38758.8359375
333,21597.709,-9355.671,25358.36,5619.102,-2572.1392,7852.9023,37259.01171875
334,17199.773,1121.848,39258.63,2757.1504,3069.544,9827.3545,37954.65625
335,26865.48,19446.736,26766.023,8716.131,-5134.2686,11027.755,26946.96484375
336,-68478.664,-68013.34,-67695.34,998.01965,269.2763,332.93652,2000.95422363281
337,14665.329,16804.3,15491.047,338.29254,123.13062,203.55959,2000.98498535156
338,19209.422,18565.637,18088.268,225.33475,-535.19446,-825.075,2000.88403320313
339,16130.573,15638.252,15390.877,24.447733,1033.3584,-352.7511,2000.98596191406
340,-3646.202,13123.338,1876.0176,6713.8843,-1133.9423,-6462.9663,21988.708984375
341,-26508.941,-6716.515,-4468.178,1613.1229,-1222.8251,176.19424,21299.783203125
342,-5695.161,-7869.578,8241.592,-11368.093,-2212.4102,5681.011,26990.220703125
343,-9976.571,-13807.224,7479.8076,3555.0781,9223.862,14822.655,36586.28515625
344,-34036.79,-19712.69,-39584.4,-6531.2295,-11765.122,-2675.8096,29666.90625
345,6112.6836,7149.752,6405.7173,117.64563,-160.00139,-1004.67834,2000.98522949219
346,-3071.0925,-21567.137,14809.657,-2215.678,5000.5933,-1376.8168,32984.546875
347,21518.926,5254.56,13644.44,17284.24,3134.1067,8723.956,36776.1953125
348,18650.412,-5868.2983,-1540.02,1451.5062,1577.0868,-84.45305,22969.130859375
349,12653.525,-16727.97,-805.24493,11688.622,8701.011,-356.7697,35865.69921875
350,27434.559,44651.582,45457.78,-7440.5654,-5724.3965,1005.51495,24049.564453125
351,-5641.1406,19603.1,1966.2234,2283.75,-7369.691,9817.065,31157.814453125
352,-32387.305,-25550.457,-12855.346,-1073.6165,5620.322,-3769.8171,20870.060546875
353,8139.3403,1323.3279,-5160.3335,6395.21,13710.317,-1385.5597,28723.900390625
354,2731.7231,-18073.555,-4656.8857,8971.981,-10024.32,8251.497,32877.66796875
355,11579.6,1475.353,7753.6455,1031.5068,-3136.858,-1445.0127,10819.01953125
356,-5188.612,3092.0151,-3002.2266,1433.3572,-2598.0876,-301.40164,9051.556640625
357,11115.917,-8289.128,-4891.682,718.55304,-694.86115,-801.3732,18085.763671875
358,21988.824,11921.236,-142.52246,4350.2393,559.7937,787.0596,20686.125
359,-25580.371,-24671.045,-24203.648,-353.3799,-772.58624,350.37817,2000.98596191406
360,23784.953,7127.369,-6428.707,-1602.4722,-236.91618,-4891.6934,27689.5625
361,-40413.715,-18988.734,-10100.296,-3277.286,-1093.2808,8219.916,31096.259765625
362,-3255.129,-16864.258,-20940.137,-2003.9022,-3474.068,-5910.6445,20257.142578125
363,5906.1865,-2544.6194,4667.741,4012.4517,837.2959,-1191.1869,10823.275390625
364,9782.269,-11433.87,13146.775,-1064.9738,6167.065,917.87164,25551.013671875
365,-7764.242,-9214.306,-17276.648,5045.5986,710.9355,-6715.2285,17087.08203125
366,5525.917,-6547.3257,1862.4878,-296.52945,-756.4145,-601.827,10863.7607421875
367,-13892.442,-12359.466,9951.21,-4616.5557,-1544.7574,-2026.5481,24854.28125
368,10404.685,4828.8745,-3500.3232,-2876.7217,3656.899,-2007.1901,14964.58984375
369,-1485.9734,-4550.9375,-787.51587,-3795.721,-1319.2361,186.87154,7782.7373046875
370,-8774.683,6681.1655,2025.1466,2368.1147,571.6912,-31.492851,14366.8505859375
371,2239.0608,10520.711,17906.613,-325.63947,-6875.3467,-2879.7534,18743.345703125
372,-9840.542,-7355.8867,-35223.344,-4729.433,-4878.523,2844.984,29602.568359375
373,-17191.754,13233.572,-4601.3384,1186.4999,-15.486509,-169.78493,26560.537109375
374,7264.0225,-3151.8745,3642.143,-2779.433,-74.32685,-2043.8533,10936.5498046875
375,24471.494,22654.459,2293.6582,5013.2056,-443.51764,-4342.191,24236.55859375
376,4116.8237,12609.468,-19823.818,-9576.5,1243.6656,-49.978382,33591.28125
377,-1989.9705,-20710.012,2666.1108,8670.563,-3557.3691,7731.1514,30034.875
378,-5171.799,-90.22266,-14391.639,6371.1855,-3675.8997,1766.7017,18148.15625
379,-5156.532,-16589.787,-18036.502,-3359.944,3717.8909,-4192.1626,16655.673828125
380,10656.774,-5922.066,-2822.8313,15764.149,-2621.0637,4084.73,32392.46484375
381,-2992.4766,-10761.378,434.2578,-353.9555,2263.462,-1016.12885,10842.669921875
382,7732.291,-9105.718,-14408.11,11253.547,-4367.583,-3084.9172,29438.41015625
383,3317.9287,-1705.4691,-5983.7563,-2011.547,3957.103,3533.9333,12712.6240234375
384,20657.951,6754.8726,7779.5522,2301.2192,2062.3132,-2248.5598,14963.7451171875
385,-1209.771,-8619.901,-11601.825,7344.1597,-1189.587,-1809.915,16179.6513671875
386,5090.5034,1737.5767,22080.992,9057.674,138.88496,846.9971,24601.2421875
387,1584.1404,-7048.5547,674.426,2363.6685,-212.0726,976.11035,9340.8671875
388,21166.537,1294.2714,5927.404,17688.121,-4131.496,793.4246,36276.8125
389,-7932.489,-6077.8926,-3692.7117,3203.265,-1267.5917,3308.735,9055.298828125
390,-6568.3486,-13693.299,-2795.6826,2608.8127,5601.9,528.9384,14397.1826171875
391,-3454.851,1174.3379,-7226.3105,2097.9731,17.514902,3677.6406,10338.888671875
392,883.2754,-2193.9,10993.601,-1542.6975,-526.81354,-3222.7258,13488.111328125
393,10560.3545,-2060.7744,-820.76245,4386.936,-2330.2627,41.926582,14805.791015625
394,4291.331,419.41455,-10518.67,-2933.93,-81.54017,-290.0974,14250.6494140625
395,43745.72,37631.758,49975.832,-3214.4353,4231.038,-3844.6643,15599.1240234375
396,-16661.87,-9339.958,-18136.574,-300.53537,8640.267,-3426.3591,18056.47265625
397,36482.49,43460.94,38523.99,18353.637,3843.8413,26.60347,33068.34375
398,24027.863,-2259.1187,8671.967,-14180.605,-4785.8857,-9301.147,38140.078125
399,-7009.359,-19346.314,-15637.6045,-11845.508,-3499.5576,6520.993,26560.4921875
400,-37482.023,-53564.68,-34777.45,3035.7024,8324.244,-2129.1633,23634.484375
401,24716.945,27467.33,46427.48,7001.541,8247.529,-2062.3271,27983.73046875
402,10942.827,2549.8623,7084.4556,2964.016,-954.5532,-1071.929,9245.6748046875
403,13999.889,-8569.59,8275.265,-671.6591,703.22656,4220.1836,21661.43359375
404,12598.0,-769.9448,6055.8213,515.25793,446.71777,-4934.865,14439.5419921875
405,9553.867,1626.3354,252.32227,-9266.082,5561.325,-2753.6975,21183.498046875
406,3147.3887,-15724.155,-868.3452,-1054.0258,-4191.078,2795.663,19389.525390625
407,5450.165,-21721.8,1217.5781,3393.5474,5675.8506,341.35464,27798.681640625
408,7788.9346,-5098.014,6478.3496,-4716.3794,3134.4065,2495.7373,16303.189453125
409,12458.485,21912.135,6059.811,9158.556,1477.0537,2169.078,21519.818359375
410,-194091.0,-194004.1,-194207.31,194.76305,1067.5995,-382.81854,2000.98559570313
411,-7191.906,-15683.857,-2842.914,20911.258,-2276.1443,3627.3894,38662.86328125
412,37211.688,37707.676,37700.395,-247.68459,779.25165,765.0179,2000.98608398438
413,1165.4541,20331.82,18023.338,4830.0537,4262.901,1940.1775,21546.033203125
414,-4650.386,-9138.571,3219.7996,4697.111,-2960.5938,6358.962,18198.888671875
415,1393.8549,1415.0005,724.23566,278.4918,660.87915,816.08606,2000.9853515625
416,10381.003,11541.301,2860.5186,4476.4766,-853.77496,-566.5002,11397.1953125
417,17290.51,-2768.8574,7806.3037,9202.74,1718.4777,2765.584,24247.83203125
418,47592.21,35226.035,22477.633,9769.937,8264.206,-1117.7814,31114.10546875
419,2876.9563,4022.3354,3768.863,324.1828,-326.95938,872.18744,2000.98559570313
420,4774.8296,7899.022,7038.403,-4766.2046,-623.74365,-528.57666,8829.947265625
421,-23481.508,-10945.534,-2417.162,-4131.3193,420.95926,-1408.157,19861.494140625
422,19667.568,13244.96,-12707.152,4620.7793,-979.75397,3986.613,31560.35546875
423,21247.967,646.3174,5761.7964,657.8114,1119.99,-2451.6648,19191.197265625
424,15296.484,-4774.5034,-2838.3726,1441.4922,-3806.369,-3702.2886,21413.849609375
425,4001.813,7460.9175,5365.637,3738.932,-484.6281,-1255.8202,7515.4833984375
426,12940.67,-770.74414,16046.855,-2623.916,-1088.7894,-1175.1252,16388.880859375
427,17047.914,6673.0396,-3325.046,-2321.1306,-762.5786,3360.3975,19055.5234375
428,20678.574,15294.121,-1768.7366,-2255.0178,532.68774,2048.4338,20992.9140625
429,-32539.68,-38982.99,-45240.99,10486.847,4166.2095,4457.3237,23719.1484375
430,7237.2256,8889.79,-6922.6025,11045.592,-5586.813,-2018.121,26429.205078125
431,956.0128,3559.033,-5762.296,3487.9563,-537.73376,-2072.7424,10938.603515625
432,-35592.777,-29280.604,-31925.762,5757.7793,3448.3179,2504.764,13568.1240234375
433,-15391.4,-4659.6284,2500.849,614.7302,-961.08484,399.64694,15737.59375
434,17461.924,16631.31,16026.329,-1792.3562,-1354.5033,1157.6881,4552.01171875
435,-13604.196,-46167.37,-35647.523,-6210.655,-707.9261,-728.5955,30777.923828125
436,-22704.938,119.53613,-5402.8154,-571.77924,-2921.0796,570.57166,21282.9453125
437,7626.08,-2364.248,-28338.395,5760.2646,4226.058,1381.2251,34536.89453125
438,1695.8179,-9416.993,-40.804443,1327.9272,-645.7863,-50.68834,10665.865234375
439,13717.166,13628.46,7464.234,-4959.78,8785.959,-7468.0356,22610.716796875
440,-9719.431,-29692.828,-25422.37,-6622.02,-1072.9452,1591.6055,21782.666015625
441,4152.084,1030.4847,-2316.9707,305.06583,-553.5191,-667.7596,5825.40185546875
442,1407.5961,135.66553,5837.808,1790.5424,-1713.9103,178.04102,6738.337890625
443,20.005545,-67.97035,409.58493,-158.32437,865.5685,704.1143,2000.9853515625
444,-11345.539,6318.2314,5665.2534,5419.7114,-3251.189,-3469.564,21373.9375
445,32332.252,6743.6934,17773.6,-3991.806,-340.6673,2113.8699,23574.3671875
446,-5372.3564,-9221.032,-26224.666,1729.6243,-1865.3756,-4770.5796,21379.107421875
447,3493.101,-3447.774,-6771.2183,-6265.4985,2083.8708,1748.2574,14908.2138671875
448,-13787.499,-35262.69,-4918.355,-3091.0107,-8666.82,1620.7843,31499.1640625
449,3067.838,-3348.5032,11624.218,2016.8481,2080.7688,2102.0115,14412.8037109375
450,-8820.284,-15592.039,-4963.183,2832.0664,-2045.2515,2541.7195,11951.787109375
451,-6365.461,-19651.65,-1733.456,-2575.2341,-2800.35,-900.5639,17474.96484375
452,-34166.965,-6396.4253,-26738.57,564.66235,-3666.5195,-6927.7725,28378.90234375
453,-13447.884,-32094.797,-22353.596,3908.374,-1364.3774,-1153.411,17786.423828125
454,-40465.04,-30758.871,-5100.582,-7823.1245,3113.431,1057.0892,34894.6640625
455,10888.025,19888.53,4202.143,5213.0444,691.3817,-1813.9398,16694.880859375
456,1151.877,-7570.3916,-870.3264,-2926.94,1226.5411,200.44925,9636.583984375
457,5621.9775,-3047.1396,952.4601,-11122.821,1350.426,-1992.6534,21095.302734375
458,204.69482,2611.9558,13770.288,5987.4775,-2991.854,563.1857,17103.189453125
459,612.2798,-6942.369,-4226.163,-39.869114,4023.0396,-3754.8254,11609.736328125
460,-4148.2476,-3033.8066,-801.968,1347.4144,3389.9524,374.73163,7003.8212890625
461,-13874.319,10920.5,-16601.982,-5954.2573,121.96174,-1723.4371,28375.517578125
462,18738.732,13461.851,-6317.3213,5212.807,200.87955,-5979.4653,26689.634765625
463,3105.1243,5205.7344,-14309.994,-7407.3193,-8698.653,1114.1957,27195.779296875
464,10534.592,3664.5103,3905.2874,3104.0806,2191.8657,-234.58232,9438.521484375
465,17560.203,6530.6807,636.8384,432.335,-2267.728,5026.998,17697.306640625
466,12936.095,-6059.159,12351.031,4499.2163,5116.91,-4122.2075,23244.427734375
467,28631.516,52078.348,72827.07,42.084618,105.496025,-1032.3145,38340.4609375
468,-4120.392,-924.0499,10495.837,3152.0903,3154.7805,1714.5024,15672.1337890625
469,10959.584,10874.819,10285.729,-68.58811,961.00287,521.2494,2000.9853515625
470,8461.722,-4185.1377,-3848.7415,3611.7966,1176.4249,-1208.218,14264.2353515625
471,5860.572,-1505.2864,-2011.5916,-1900.4489,-4513.7085,3038.9724,12565.96484375
472,8414.121,9191.58,-1599.5879,3715.5364,-3064.8782,4140.672,15155.7119140625
473,13547.009,13218.821,137.89062,2379.4019,-2576.8354,-584.7173,14609.6552734375
474,5795.303,3176.8726,4110.7954,272.46872,121.6868,-1728.45,3809.55859375
475,14076.77,9027.601,5458.5234,-5387.0186,958.67664,2437.3489,12802.0458984375
476,-12944.943,4210.1294,-126.43237,-3600.694,-1031.1176,2827.1638,17457.703125
477,-9607.922,-9778.256,-5585.1245,382.296,-548.58826,1629.9845,5119.470703125
478,-14087.089,-11379.462,-14573.492,-2487.1062,1106.2067,1415.5084,6092.9462890625
479,13058.871,18355.736,9317.686,9679.211,1226.9535,1430.5228,18803.8984375
480,-2391.4126,-292.03296,6103.6943,-5669.841,-3591.4614,-647.5123,13969.060546875
481,-32710.482,3723.3647,-16550.77,-5772.4497,9019.824,-3206.6748,37076.73828125
482,7717.1934,3145.3047,13682.293,1752.3937,1925.4102,-698.86475,10274.0380859375
483,-3788.7007,-7126.1465,-12883.073,-107.841995,1460.6943,-803.78436,8477.509765625
484,-932.2715,2019.3408,2091.656,2934.859,-583.808,271.55597,6001.21728515625
485,-1776.3762,2943.9956,1020.09894,3644.7903,624.512,-1404.6036,7990.24658203125
486,-28135.465,-39085.44,-67057.53,-8022.655,-5604.571,3533.7195,39158.875
487,-221.9165,1531.7798,7446.605,-6682.825,1894.8889,972.7469,14000.87109375
488,-17427.566,-6413.5366,-4273.042,-5565.765,-4089.6543,-31.370512,17104.912109375
489,5159.008,-5607.0405,-3284.783,5171.309,947.7734,2663.7603,14160.08984375
490,-23184.266,-21621.805,-21666.934,4037.7922,3818.5786,-4655.8696,12651.486328125
491,3114.5793,8832.794,-9253.235,-3815.8228,2223.7805,2660.0413,18333.771484375
492,31745.098,15830.631,4818.0283,-1408.1682,-3268.576,-973.33496,24303.2734375
493,-10154.121,-7261.9785,-8442.67,-4019.235,2889.092,974.9634,9093.88671875
494,4587.4976,4506.042,4482.766,855.1068,1111.4196,3273.774,6169.37939453125
495,-18525.346,-11045.752,-12095.503,5751.4497,-582.8483,-935.4088,12331.9189453125
496,9286.26,10196.39,7453.673,-782.2471,-1482.809,2688.2014,5997.14794921875
497,6167.186,3130.9092,-2767.853,1625.5555,187.11853,5636.0693,12855.0693359375
498,1138.5247,469.54572,2346.9446,-1861.6548,-362.04355,-2487.215,5662.63525390625
499,24902.473,11667.701,15388.2705,19401.041,5195.6416,6460.862,38407.99609375
500,16731.844,-6723.036,-405.47412,359.56998,5651.5933,1292.8826,23304.27734375
501,5914.657,-812.3755,7821.747,-3664.3135,-470.56415,-235.33443,10140.5634765625
502,21072.6,18412.818,21390.178,-2944.8376,-73.80292,-1791.7272,6609.3408203125
503,4144.809,10067.786,32795.508,-14366.134,2065.1777,-1119.5482,36358.7578125
504,-6461.374,-8698.472,-8166.87,620.96826,-290.45786,-2799.0603,5386.2861328125
505,-11106.34,-12393.57,-9358.224,-2023.0975,-1295.1621,-2027.4854,6050.3134765625
506,-2544.8916,-9104.473,-11564.559,3088.2166,-1118.2544,709.9915,9954.5087890625
507,8720.433,-1572.9453,7104.789,-5640.3965,4471.7827,2177.2097,16173.650390625
508,1529.8105,-671.4168,1236.3208,5013.8843,-3371.539,1245.8944,10883.98828125
509,10895.919,3477.6953,-1210.0566,3722.1777,-4185.575,2777.9255,15134.4443359375
510,-10180.421,-13283.621,2541.9717,-3993.124,579.6243,-786.7646,16176.1943359375
511,-15151.503,1361.0239,11741.524,2095.6077,-4527.5396,7275.347,28023.01171875
512,-11643.555,2614.6611,-6297.8843,-1659.2328,-571.4704,-3191.3384,13980.2001953125
513,-887.3032,8567.7295,-5711.6953,-414.1678,-4161.1553,-1077.7028,14636.658203125
514,13014.778,-7099.8633,12011.082,4767.314,-775.14124,3499.15,22184.087890625
515,6759.7925,7125.9624,11764.178,-8370.479,2080.7625,-629.3602,15739.0361328125
516,-9567.78,2804.686,-3106.6912,13227.423,-10053.585,3532.6465,31311.98828125
517,-10798.758,-2972.158,-7335.8433,742.7215,3279.8105,1447.2301,9292.70703125
518,18981.225,-10532.181,-2926.2239,-270.63953,682.76434,2423.6516,26900.828125
519,-7015.4966,784.9802,-3116.1782,-3918.2773,1807.2944,269.02753,10085.154296875
520,-1834.977,-17600.303,-6632.8076,5773.345,786.31335,2893.153,17969.021484375
521,-5603.282,-5419.617,-5432.284,-38.67855,-3271.8862,-958.2634,5908.17919921875
522,24534.32,8725.049,22363.523,6511.4995,1910.7738,-2355.5593,19368.13671875
523,-11679.143,-15624.952,-7150.8687,-1896.7726,-3338.455,1107.1139,10092.0048828125
524,29954.398,53590.438,41003.633,1111.6239,4909.3564,-6654.4766,25068.833984375
525,-10239.277,4245.848,7666.5264,-3983.6924,3175.4753,738.63257,18723.40625
526,1420.729,36.641113,-7993.1934,1304.2521,-3629.9358,-2927.6228,12159.498046875
527,10747.63,-4103.291,5152.219,390.91983,-2197.1729,-1281.449,13734.2265625
528,-1823.4512,-2463.1167,-2469.4465,-5571.078,1553.5886,-696.1484,10110.330078125
529,1492.0636,-10909.787,3930.7754,-3871.4885,-807.3954,1518.3119,15615.2021484375
530,-4525.708,6149.9854,9880.2295,2135.612,-372.54245,1184.509,13638.7744140625
531,-10567.477,-9181.056,-6899.4194,1420.9012,-537.26624,-2113.4985,5533.06494140625
532,-4930.635,4623.186,1694.6731,-1525.7002,51.808693,-2896.399,10199.603515625
533,12792.628,-737.67285,8206.447,9955.964,-4828.8394,1059.3086,22643.60546875
534,-409.75928,3604.8655,3892.0237,-5.210733,-3668.8474,524.08264,7652.3134765625
535,-4374.2993,2791.5867,-818.57245,-2273.5137,-356.2547,-2460.4094,8518.2958984375
536,9536.162,-1590.0347,3794.9749,5773.965,3011.0923,-1166.209,14972.376953125
537,-21847.252,-3890.7617,-18211.264,8155.0625,-1028.33,2237.4424,22092.359375
538,-1840.7584,4542.4546,20475.934,8712.688,-5060.744,10724.408,32340.88671875
539,4184.5225,7847.62,382.79785,7578.058,6131.3774,429.86008,18094.5859375
540,1947.7031,4117.5024,8723.405,-1499.2699,-1235.5919,-3117.4983,8740.48828125
541,553.68463,-845.7976,-2393.5994,1236.2887,1925.6666,337.68127,4751.0263671875
542,-3857.8674,-10044.956,-4223.3975,-1986.2262,697.8438,683.2917,7130.849609375
543,3475.6113,-10731.019,-3519.4568,1136.3491,481.28345,1124.5427,12639.0478515625
544,11442.691,9964.18,6709.6084,-1017.765,6653.802,2979.318,13421.8447265625
545,-330.50494,-2537.0337,3652.837,-2426.6572,-233.34344,1014.8434,7102.408203125
546,-4033.8704,14138.842,-19386.713,-18.789936,-243.28177,-8160.2456,32325.029296875
547,-2040.245,-7516.0996,-149.60669,-1482.3773,1614.9266,-797.9189,7761.357421875
548,3708.4019,10758.225,-1884.4688,5593.6265,-503.62177,-2619.2288,15349.8173828125
549,1432.1282,6010.4272,4201.0156,-2454.56,402.93307,-1352.3912,6324.5009765625
550,13595.45,-279.25293,273.49463,-3082.9133,404.34378,-271.32193,14641.314453125
551,4378.2017,-1579.0134,-2453.875,72.74551,-2153.3862,494.27356,7491.69873046875
552,-990.7937,1613.1704,-4552.218,-6086.064,-4088.32,-379.48398,13799.7763671875
553,-562.4346,-2207.272,9023.587,-2189.4438,-39.974815,-1528.0344,11478.4658203125
554,-2042.8853,-3704.27,-8395.724,-3337.6196,4015.8015,-2072.874,11280.681640625
555,18478.53,28031.271,28253.588,1300.5985,-6855.9297,4809.6436,17575.89453125
556,-16339.813,-17806.557,-3085.414,-2144.7737,-95.42799,1167.1976,14669.2119140625
557,-3162.7065,-1121.1895,-5327.9146,-654.28644,1865.5642,1702.2479,5804.69091796875
558,2638.0576,6568.0664,4301.8384,-3999.2075,-106.14857,2887.4268,9203.3115234375
559,-4115.215,-1382.3722,-70.62903,1300.8303,286.14236,786.53094,4466.75390625
560,-3688.431,3627.4104,-3274.7898,5936.004,255.35043,3413.4714,13839.2880859375
561,-2758.1992,4052.3335,4457.229,374.97946,-3218.036,-44.586235,8988.876953125
562,1640.523,-4359.456,-1357.9116,139.0672,-63.820232,-1752.8088,6023.875
563,23501.393,36750.45,10807.304,990.0264,2558.7808,-3382.5215,23701.666015625
564,-2172.2031,-8558.267,-2854.8774,-6306.605,-2123.6833,741.6498,13091.53515625
565,-14592.924,-4867.0513,-8262.168,-1262.8639,-1616.0044,-1087.8175,9448.1669921875
566,-22950.78,-45431.6,-17834.787,6493.652,115.47256,4458.611,28857.455078125
567,11290.516,6948.821,-9437.078,-3443.837,2026.4457,454.074,20174.455078125
568,-14163.352,-13122.485,-7964.0684,5788.0825,13485.541,-5412.456,27695.326171875
569,-6636.3438,-349.34912,-5987.6865,-1394.2109,708.96185,-1798.5696,7274.123046875
570,17251.803,11867.717,1655.4773,-13176.353,-3859.0144,-4106.8306,28361.677734375
571,35912.21,15479.342,32219.203,4035.91,8583.865,-4655.4517,26279.5625
572,-21117.465,-19672.361,-2722.829,-8086.1523,-90.32414,-506.36594,22601.330078125
573,-3672.172,-8024.0215,15048.728,5624.721,4580.7134,-3835.9148,25551.6171875
574,-6281.444,-5904.225,-7682.5996,5165.206,5959.1895,1179.3857,13906.1435546875
