Element Label,S11,S22,S33,S12,S13,S23,Mises
1,-75847.04,-71069.695,-100395.945,-7777.2095,-4204.1562,10316.312,36007.0703125
2,-28208.695,-11294.404,-50190.535,7080.3745,-3962.675,-8446.198,39403.30078125
3,258215.6,256576.52,294913.5,1485.9595,1028.5656,-7228.238,39700.30078125
4,176468.83,178382.86,216248.58,-4768.835,2400.906,-1938.0326,40084.14453125
5,-362682.78,-391021.66,-403795.5,614.033,-4813.575,-2568.203,37665.48828125
6,-119395.67,-123701.54,-153220.9,-2728.507,-4727.618,2246.647,33489.8125
7,212515.27,203725.78,245442.84,4872.8374,1470.1525,-3417.4163,39543.02734375
8,241210.16,249490.19,282190.7,-3333.7747,-1933.7561,4857.8486,39038.43359375
9,-1114027.0,-1138709.5,-1150001.0,2842.9202,7880.756,1045.1979,35060.93359375
10,941872.7,945496.8,950520.8,472.89246,7342.5254,-9535.098,22175.337890625
11,-321114.88,-314947.5,-346642.25,749.865,515.2255,-3765.9927,29868.908203125
12,958125.4,947671.4,988271.06,723.376,821.36523,-997.40594,36602.8671875
13,-1339958.5,-1319888.4,-1331278.8,-943.3304,-3177.8103,16700.04,34257.6015625
14,969913.3,952606.6,958621.8,-872.34894,3924.932,4905.4775,18769.3984375
15,-1203032.5,-1204520.4,-1203004.1,233.48639,587.3411,426.73535,2000.39025878906
16,224011.25,223731.42,224885.64,-156.83444,538.85333,495.66245,1664.17102050781
17,44.82317,665.1261,-109.7068,14.43864,331.07748,1027.7622,2000.71447753906
18,168612.97,168445.4,168336.97,705.2157,-474.9364,-769.40845,2000.66381835938
19,-145609.31,-154354.2,-152536.17,-500.68204,2481.123,-14218.966,26260.9375
20,-130400.2,-117583.38,-156394.2,-3208.63,-9802.574,-4356.7646,39360.14453125
21,69785.805,70471.28,71756.75,-240.5563,-428.05762,303.96188,2000.98645019531
22,1334.6183,1813.4132,4001.7207,-1005.36273,2501.0364,2228.9346,6539.72021484375
23,-837.4016,1352.2041,257.96805,229.34576,186.2254,-220.85,2000.98547363281
24,26717.045,31436.664,39020.39,-5583.615,1757.1545,-2202.961,15262.1162109375
25,84761.66,103142.59,117854.414,585.54755,1999.1865,3239.0493,29482.310546875
26,-287170.6,-273833.28,-294805.16,2021.2422,-15412.781,34.41517,32602.396484375
27,441105.0,455683.5,479098.47,1744.0753,1801.97,1772.6873,33622.0546875
28,27751.598,58781.223,58278.375,1414.9972,-2929.5952,8779.8955,34792.2578125
29,109571.35,130030.63,149145.55,767.9451,5911.154,-4188.3574,36527.5390625
30,-33062.105,-34494.12,-55565.92,-10988.777,-11003.253,1166.8243,34724.70703125
31,-64349.824,-41374.566,-67786.32,14711.225,4387.681,-4705.0137,37310.234375
32,-59743.246,-49073.336,-78589.58,-5794.4453,-8542.129,9749.923,35706.2109375
33,27053.44,2956.3733,3768.3176,791.94403,-15557.908,-1125.4738,35966.50390625
34,-178461.31,-165495.02,-193388.27,-7857.947,-15944.442,2183.47,39328.19140625
35,65241.66,55913.434,66490.73,-2614.5361,-19478.705,3798.365,36087.08203125
36,59619.227,51963.215,88760.8,7073.8164,-1233.1635,-355.6596,35861.0078125
37,39195.605,42357.914,56324.5,8222.211,-12321.436,-9026.162,33939.87109375
38,210850.84,230100.5,223326.25,484.3788,8987.177,5235.373,24724.017578125
39,2068.073,788.30554,206.40126,-104.82344,485.52704,417.19424,1995.85729980469
40,-682481.8,-683459.25,-684472.0,-200.4535,0.9518182,550.68854,2000.31689453125
41,-1276381.0,-1275241.2,-1277328.0,-127.380875,412.14493,-238.20753,2000.91943359375
42,166182.4,166524.62,167256.47,-205.11043,-658.6058,745.592,1999.59436035156
43,181003.22,179042.28,180223.34,-555.37384,175.34125,-131.83643,1998.47229003906
44,53136.234,54230.855,53192.33,843.7267,44.40695,-488.75476,1999.53100585938
45,295882.5,296776.66,297005.97,1257.4553,-3304.0403,-5114.59,10817.94140625
46,64993.703,58189.414,72301.11,-12073.011,161.5954,9443.496,29228.55078125
47,792964.5,794466.25,794533.5,599.041,-167.55112,400.99115,2000.97985839844
48,133824.98,151323.19,151245.9,12369.096,-10151.463,-2948.7573,33152.171875
49,17383.252,38842.266,29176.766,-8197.629,349.3776,6083.856,25680.8984375
50,-5936.589,3307.4111,-4423.715,-10610.64,6394.5767,-8567.1045,27465.796875
51,29351.734,16672.416,32453.285,-8724.595,-3174.1943,8187.381,25872.611328125
52,68170.96,58768.906,37881.67,7065.8154,-4944.887,-10090.475,35350.3046875
53,-15644.011,-43116.51,-28521.51,-8789.9375,-699.3954,5101.3696,29633.08203125
54,54767.703,43981.65,57966.836,1450.3658,702.3873,14754.499,28669.7734375
55,53789.703,39977.035,61130.24,-2558.9336,1245.6886,11540.305,27747.09375
56,-95106.15,-87957.984,-98520.61,-318.24847,-3636.999,-12347.417,24176.955078125
57,-2428.247,-4723.0063,-10874.883,-5629.8667,756.4424,5610.5317,15762.791015625
58,-107153.36,-105577.78,-106630.766,147.48726,805.8418,139.45145,2000.97570800781
59,-39246.383,-39343.9,-38929.797,1002.2844,498.5817,186.02815,2000.97497558594
60,13735.418,12118.106,13942.824,-551.66223,-27.349852,-177.51306,2000.98095703125
61,-25121.156,-23925.645,-23930.912,357.13776,-78.32393,852.1378,2000.61010742188
62,1090.9845,-2423.9116,5439.5493,-4456.565,-544.1904,-2763.196,11398.525390625
63,-11864.162,-11743.152,-11796.201,531.3398,892.4152,-502.2363,2000.9853515625
64,-26114.0,-25444.443,-25695.746,-42.893387,6508.1616,3786.5784,13054.951171875
65,19671.213,17849.422,19434.164,8.378726,106.704956,584.89746,2000.98596191406
66,261320.86,272762.38,291913.66,-9047.709,-4426.3745,-6382.496,33813.75
67,26203.832,26382.826,27784.783,369.8804,583.05164,329.2385,2000.98498535156
68,103753.445,88109.375,85805.875,-1717.162,4634.817,-10581.983,26368.6328125
69,-158618.42,-173930.23,-177752.6,-1558.3862,13250.918,-5749.7266,30672.68359375
70,98580.81,99072.29,97281.41,-178.83138,4100.701,5640.974,12189.0771484375
71,14677.885,14136.109,13139.068,-412.13885,125.653595,734.66766,2000.98352050781
72,121900.94,121946.125,124827.664,-1842.2982,-3302.784,-2066.7935,8009.85400390625
73,301565.34,302814.8,301582.5,-730.52954,-395.6306,-311.9538,1975.49157714844
74,8701.133,7594.2876,7348.453,778.81305,-433.62238,-144.32869,2000.966796875
75,468581.62,467837.1,468284.22,203.52344,-1064.7084,138.4473,2000.98193359375
76,490057.7,490041.97,489424.2,916.3849,-215.72473,-23.009594,1747.02465820313
77,254820.55,254000.62,254739.75,-772.2885,397.93475,43.04225,1697.77966308594
78,198758.8,198194.17,198669.53,-829.43475,700.7325,252.0678,2000.98645019531
79,29730.922,28397.889,27559.947,-52.712494,300.3338,198.96153,1998.45471191406
80,59653.254,44037.125,48806.527,-7921.3047,-270.18262,-3042.2002,20207.826171875
81,-248959.34,-250164.58,-244849.36,-988.2156,-744.4341,-365.49744,5318.93603515625
82,-255914.69,-234542.48,-240117.44,8641.196,-1881.6381,1819.3042,24764.171875
83,83664.65,56095.105,68932.38,-3923.4226,5917.5513,998.3163,26929.154296875
84,69670.49,70294.98,70624.875,-178.87848,-779.95355,-677.77545,2000.98571777344
85,88414.56,88933.08,88225.18,689.40045,-235.28392,723.7308,1888.43200683594
86,84061.22,84930.32,84972.43,-901.7766,391.9662,316.16534,1998.52587890625
87,29293.217,29510.732,28680.014,766.689,-550.53864,-507.47336,2000.50354003906
88,90417.82,92319.93,91344.32,-368.75858,523.4544,111.526695,1995.34326171875
89,58980.785,59151.87,59820.523,702.71893,484.90582,-639.35895,2000.98620605469
90,4325.7925,2853.8955,3434.1853,772.98706,-427.26422,68.58687,2000.84838867188
91,46706.22,45702.895,47458.273,183.8465,-648.31433,-323.9377,2000.98486328125
92,56988.59,57727.215,57420.58,687.476,340.83817,779.84204,2000.98620605469
93,43904.02,44524.336,44653.29,699.4352,313.81955,-765.80566,2000.96594238281
94,-7585.6343,-12559.825,4416.552,6074.7603,1281.7769,-9594.038,24905.21875
95,-1265.9325,27710.174,23179.35,-1169.7,-1966.7032,-11579.775,33865.01953125
96,521159.3,549271.9,526150.0,-1624.6243,-1141.6259,2331.9,26515.345703125
97,-712531.2,-736090.5,-712789.44,1701.1069,5429.65,9514.411,30293.900390625
98,8916.276,9473.597,10028.047,-422.1678,-627.90814,-673.1408,2000.96618652344
99,410693.66,409399.5,410070.84,-891.4836,-274.3203,-213.8585,2000.97717285156
100,-59258.25,-77299.04,-61450.336,-10544.686,-838.72253,2225.6917,25323.330078125
101,-34745.04,-41606.18,-61128.594,-6936.494,-9845.989,-920.84045,31620.64453125
102,3889.9094,4456.3354,647.0657,1.216782,-4568.49,1215.4745,8928.55859375
103,57179.69,53741.73,84950.305,5606.738,4696.897,-8747.572,35616.70703125
104,-94915.75,-97260.36,-113662.805,-5340.853,-14724.221,-8143.525,35326.0234375
105,-224688.9,-218405.44,-240498.94,3584.66,-15561.562,3685.1492,34562.375
106,153416.9,166785.89,189447.5,11358.738,3318.7742,1946.8773,37771.9140625
107,173555.39,175068.34,174376.11,173.12247,318.65433,-793.3521,2000.91381835938
108,84565.05,84646.68,86386.14,-2.9396412,-127.215744,-509.60153,2000.51098632813
109,266993.7,267383.28,267402.62,-299.1628,-276.61258,-1051.8228,1994.17297363281
110,29617.182,28867.9,30727.25,-550.80493,340.0948,-201.12715,2000.98364257813
111,-200072.78,-196938.61,-219151.45,7661.0454,627.6944,-4898.654,26131.625
112,52265.16,52372.82,52277.156,-1137.4445,144.2447,127.82146,2000.80419921875
113,23931.758,24267.342,24789.35,-813.221,-875.6391,-2053.2456,4182.33837890625
114,111308.62,121981.234,142785.17,-7553.598,561.9892,-5820.4175,32287.626953125
115,-153247.31,-152567.39,-153455.86,-115.28959,-1018.78284,259.7208,2000.89392089844
116,258784.27,258915.0,260037.56,-600.5639,471.9872,525.82544,2000.95458984375
117,463941.44,464892.47,463420.6,800.6401,294.09653,206.11452,1995.26403808594
118,876153.5,875264.7,875362.1,905.15796,368.49518,79.377235,1896.5966796875
119,730189.0,729875.6,730889.2,797.59015,123.58467,-640.9692,1998.67004394531
120,-118067.2,-117108.63,-122554.17,3109.7136,13232.924,3977.6006,25043.1328125
121,33731.715,-1896.8586,7939.1006,2465.9395,-3268.989,8596.214,35884.34765625
122,-14547.894,18205.836,7798.5786,-80.781685,7997.0654,-1079.68,32181.005859375
123,255353.67,227540.98,233656.5,6347.8433,-2658.2742,3416.7764,28600.068359375
124,163156.22,187315.55,191570.53,-7219.7036,-7477.303,-4102.444,32850.6953125
125,199384.47,228143.86,219737.92,329.98547,-2009.039,-605.07947,25875.595703125
126,-67367.02,-67359.59,-68384.516,176.53867,30.61409,-1309.881,2507.30517578125
127,69576.14,69991.836,70176.77,339.48547,-960.0387,450.6624,2000.98620605469
128,130238.88,131110.19,131599.03,544.8335,-56.531403,-747.94244,2000.61083984375
129,177179.44,176456.06,177990.8,-254.25754,219.2876,638.4626,1824.71850585938
130,-1554445.5,-1555439.2,-1553353.5,-289.39938,198.42052,350.79324,2000.92834472656
131,339062.44,338839.75,339392.16,10.472433,-317.8324,-1075.3054,2000.98852539063
132,62374.67,61335.164,62254.707,260.4988,-144.47562,-960.35394,2000.8251953125
133,-1066462.1,-1062493.1,-1061889.4,-5082.3213,59.009914,-328.00943,9815.138671875
134,78961.39,78923.28,80312.82,-590.65155,-363.67242,476.53162,2000.98583984375
135,95938.11,94951.15,96974.2,56.148582,-163.48407,527.1599,1998.37377929688
136,-484172.3,-486383.16,-485477.28,-235.31396,-9.464663,205.73389,1999.76428222656
137,67379.336,66362.2,68254.12,-614.8017,-204.45427,135.3987,2000.97888183594
138,200519.25,201313.06,199771.45,-347.5809,680.1657,395.99603,2000.92504882813
139,175331.58,173279.0,175130.08,196.64496,119.30592,33.81798,2000.55615234375
140,118070.97,118427.484,118205.8,-31.149551,1107.3236,-274.0572,2000.98559570313
141,-181776.23,-177760.61,-165097.64,-8269.21,-9635.651,-2715.3872,27076.236328125
142,211241.94,191594.53,181060.28,-1356.915,416.7991,9457.873,31278.755859375
143,8209.02,9586.422,12554.583,2278.0012,9767.388,2636.457,18369.04296875
144,13133.1045,12449.419,11916.432,643.04767,-302.22754,-676.6051,2000.95874023438
145,57915.34,75872.16,71724.94,7815.482,-3922.367,534.14343,22258.298828125
146,106736.39,108233.13,106657.234,-700.88654,-118.371414,202.64381,2000.98327636719
147,35116.996,35288.336,36442.37,-708.1853,305.1047,469.37122,2000.91491699219
148,3559.8386,3851.4395,3150.4233,105.73797,-512.79114,-967.7291,2000.98547363281
149,520664.88,521819.84,519349.3,-4381.4263,3601.2239,14846.3,27610.126953125
150,196082.27,198884.75,205990.12,-7258.509,-246.97917,14409.688,29315.716796875
151,111144.24,108868.64,125507.96,4261.864,10133.945,-6735.2446,27255.318359375
152,37780.98,28296.79,25318.996,-3112.2195,-265.36017,10302.893,21789.375
153,28545.691,50762.637,39946.625,3464.0952,-2439.7322,-8426.329,25241.748046875
154,-57755.66,-68577.13,-68426.12,-10387.326,7613.979,-7124.705,27665.587890625
155,-6245.198,-30701.943,-26826.355,3123.069,-11074.932,-944.80743,30302.958984375
156,32595.846,36697.46,32176.605,5698.2466,18837.678,-281.5156,34364.81640625
157,-30177.52,-19865.594,-26686.006,17414.684,4911.5283,-1680.9521,32759.45703125
158,28022.896,25679.695,45437.223,10330.492,-14873.451,1162.7466,36570.83984375
159,-127138.03,-105884.14,-103754.81,-9367.859,4008.186,4947.4673,29772.767578125
160,102727.63,101110.26,101529.43,560.04083,558.66315,-65.910034,2000.98278808594
161,617172.56,615386.06,617477.3,224.32149,-36.11581,82.20697,2001.00927734375
162,137858.44,137605.89,137774.56,29.074755,582.116,869.40106,1826.55981445313
163,356042.28,356989.9,357387.16,-205.32231,-663.6185,-612.108,2000.97827148438
164,124854.84,126610.08,129040.47,7642.204,-6437.182,-1992.0109,18018.869140625
165,-32707.39,-12807.416,-21353.541,-618.0257,-9165.881,5581.3403,25409.005859375
166,-289776.47,-266141.97,-278892.56,4553.7754,3603.5947,1594.9419,22991.587890625
167,31101.566,23288.99,39550.24,-3744.891,3255.741,13221.929,28226.80859375
168,-171652.38,-157327.36,-179964.8,9013.595,-8696.456,-8530.671,32898.55078125
169,68863.8,71015.375,82031.94,-157.68393,5375.788,14339.144,29211.33203125
170,-578560.7,-587492.0,-560707.25,-171.44504,7151.861,-3584.7249,27387.123046875
171,92866.24,93058.16,93405.12,769.03815,739.51086,348.9277,2000.98449707031
172,158151.97,166906.94,159458.64,-16522.447,753.1127,-3968.845,30575.275390625
173,92537.17,91013.88,73845.03,-11451.047,-4763.6113,-8386.914,31555.01953125
174,-257123.53,-263666.3,-237326.06,96.45639,2453.1812,4944.217,25606.568359375
175,-51291.363,-48952.215,-47398.64,629.4259,12258.969,3625.468,22427.3671875
176,147596.17,132237.27,140726.75,11938.488,-3776.7673,5376.6685,27104.94921875
177,154514.72,164237.3,189609.31,-7231.1016,-2237.5093,-4861.6606,35039.15234375
178,-31267.758,-29667.979,-30191.969,191.6172,702.4129,373.29602,2000.98571777344
179,-83156.85,-73731.19,-107154.125,4638.6064,-1316.2897,-6786.0874,33148.203125
180,-564879.6,-574242.56,-551431.06,-952.8772,-1666.6206,2730.5073,20685.025390625
181,22841.455,23254.918,22926.426,-522.4708,-397.95416,-924.9998,2000.98559570313
182,100585.64,101079.29,100142.24,463.8694,248.44402,915.4348,2000.98327636719
183,169658.3,166891.03,189838.39,-8913.226,4830.8833,2928.1094,28369.140625
184,12250.285,11533.526,11710.553,-955.673,-376.1249,-374.6901,2000.92883300781
185,-18983.396,-18207.13,-18547.498,666.2286,457.5501,-727.9682,2000.91821289063
186,264200.62,266712.22,248350.56,6696.898,7858.195,13258.036,33829.97265625
187,-348480.78,-325580.56,-353693.12,-1577.4739,10523.747,-3331.4956,32310.400390625
188,115700.836,115497.25,115368.4,-325.81415,1084.0049,-110.509605,1991.12634277344
189,9933.898,11022.839,10256.889,-192.78082,-957.8261,-258.5596,2000.68530273438
190,-69635.28,-69593.945,-69945.07,-726.4408,317.89053,-817.94696,2000.97644042969
191,2226.4238,1032.307,2115.3972,876.0981,-27.745604,362.06604,2000.97265625
192,-117554.54,-132681.11,-122425.43,14484.609,7111.451,7527.943,33615.44921875
193,-25447.572,-24112.785,-38584.324,-3270.5566,-7104.898,-1594.4506,19571.556640625
194,20975.32,4711.003,19356.943,-13563.951,-8065.9053,1973.8667,31616.966796875
195,41857.797,35059.324,57747.395,-6835.4443,-3662.4863,-11293.603,31141.150390625
196,-60166.02,-52188.41,-56089.47,-12236.32,-13064.913,-6875.061,33923.40234375
197,35186.277,26225.314,42805.535,-18360.416,-2479.5105,3968.0332,35827.671875
198,-12336.942,-14381.164,17708.594,3982.4885,5390.6025,-9766.3125,37272.3984375
199,44954.754,35829.7,43359.316,-14407.403,10990.755,-134.07072,32502.576171875
200,36941.688,48298.625,44075.375,-385.21185,15780.737,-2095.0486,29318.26171875
201,2809.2158,10311.79,29701.414,5640.6475,11579.329,-9323.288,36553.83203125
202,-2185.4595,-30795.0,-4797.503,-7596.792,6038.8657,-5888.7593,33721.9375
203,26765.01,7684.592,7465.707,6086.3438,-6484.026,6981.3877,27418.32421875
204,-34855.312,-11747.901,-19415.365,14178.003,7469.359,-6131.907,36038.71875
205,3229.7722,-12075.924,21947.668,-8334.071,156.84042,1242.1406,32926.99609375
206,5822.1113,-17083.549,-18582.613,-10894.943,-9298.334,5040.5483,35397.05078125
207,-56803.832,-50376.004,-42949.555,-7184.825,-849.7303,523.94086,17379.869140625
208,-312242.06,-302468.16,-306017.97,7882.101,-12280.925,-4999.404,28058.205078125
209,66278.15,66128.1,65382.402,520.82764,-46.754505,911.61487,2000.98449707031
210,466921.56,466143.47,467889.56,674.19556,-305.6889,69.93593,1988.53662109375
211,221749.05,220972.81,222748.73,692.0091,191.71024,154.00401,1998.98645019531
212,188213.12,189183.44,186997.72,-7.6351604,92.72595,355.87946,2000.99035644531
213,64054.25,62456.098,64454.875,98.157265,-235.08832,-380.8707,1996.18200683594
214,231509.36,232036.86,232226.52,739.21265,64.31288,803.7315,2000.98388671875
215,59221.14,57891.438,57781.812,-184.97615,-797.72504,146.70807,2000.55261230469
216,44539.33,44636.707,44706.523,-473.7088,902.3798,534.89233,1998.88806152344
217,89987.19,90376.19,89000.58,-577.5206,100.38106,698.1897,2000.43395996094
218,-125561.8,-126690.48,-126709.414,559.9538,564.0818,-510.25128,1992.96997070313
219,51219.383,32302.092,43213.984,-4984.175,-4473.257,5649.4375,22378.8828125
220,226240.27,213631.44,208406.45,439.10083,1947.8306,334.22864,16262.21484375
221,85424.89,111530.43,88696.89,-2318.4292,-5483.0884,1283.1085,26796.36328125
222,-10343.718,-19059.508,-17380.588,-3879.1536,-4521.535,425.33685,13083.1845703125
223,340320.66,340837.9,340972.75,-250.82497,-1073.2411,37.401886,2000.98815917969
224,77161.57,77545.51,75438.69,-50.484535,29.906971,-268.49286,2000.95141601563
225,49287.406,48946.07,49624.723,62.022514,721.3655,-811.5414,1973.29016113281
226,201637.64,201239.56,201888.19,-107.19749,216.39374,1077.8348,1995.27282714844
227,398287.4,396848.78,398467.66,292.87643,96.64612,672.602,2000.99365234375
228,287535.6,288438.66,287808.6,575.854,-482.6694,-745.3626,2000.98571777344
229,53613.305,53353.03,51962.727,391.77237,-601.53424,-178.34097,2000.98779296875
230,20771.236,20559.873,20954.988,385.67297,183.93697,-1054.978,2000.98547363281
231,4512.77,3756.5408,4076.8093,118.928566,224.83917,1061.0552,2000.96533203125
232,-130243.39,-136285.27,-135419.78,-8565.067,5957.4023,6998.2983,22483.455078125
233,-148809.52,-150511.38,-148950.36,210.897,-269.74136,-569.836,2000.57971191406
234,-75589.13,-79270.49,-75441.47,3491.6587,-892.2739,-1850.7533,7959.72216796875
235,28248.182,30000.367,30124.96,-50.02979,-32.696823,479.3194,2000.98645019531
236,66576.766,66644.73,66682.47,-56.70104,-519.08905,-1028.7842,2000.45092773438
237,50172.242,50740.84,50173.69,919.1238,596.244,-163.88373,2000.98510742188
238,-60739.074,-59095.336,-59355.016,-417.1225,-184.60516,587.1744,2000.24890136719
239,42884.43,42563.33,44153.082,381.04276,-469.29514,512.4094,2000.98364257813
240,25413.23,22933.795,25875.553,-1383.4541,-13.036932,252.64888,3666.2626953125
241,7187.3516,7629.009,6708.6978,828.5501,653.3424,-97.14669,2000.98449707031
242,23062.361,22131.197,26216.46,-3306.9944,-2534.6763,1228.473,8388.2197265625
243,-11.746655,378.48703,-37.133835,-618.2314,118.334564,940.2959,2000.98522949219
244,-23810.912,-29399.934,-32825.67,-1787.5905,-3449.563,-6804.4575,15694.1455078125
245,-21515.375,-13456.739,-30430.582,-4044.2202,-10554.205,-2028.2526,24735.587890625
246,8056.047,16718.84,13225.54,-3940.5815,9799.712,3754.5654,20831.78515625
247,144587.34,132036.64,144679.62,3595.6943,-17252.08,6591.1357,34938.6015625
248,2379.1272,-15195.36,-21317.264,14530.651,3699.4792,-1157.7616,33651.578125
249,88487.984,78943.58,102397.22,-15242.863,-4854.7085,1586.227,34534.12109375
250,-116140.766,-133789.4,-131855.81,2475.972,16315.863,6126.2886,34795.0546875
251,263209.78,261244.6,262130.92,171.20851,-560.66974,147.05815,2000.4013671875
252,22194.863,20635.74,20589.447,-58.07162,-704.3061,12.872587,2000.98461914063
253,252516.11,251694.23,251628.23,-326.47025,-651.0126,-746.4916,1999.2568359375
254,328398.66,326372.75,327490.28,398.99338,354.5606,24.05508,1986.35876464844
255,631238.56,632590.4,631671.7,-399.55942,786.06195,-284.03525,2001.03527832031
256,455744.56,456201.56,455587.62,986.561,-77.983574,-429.90598,1948.79650878906
257,-1857602.8,-1858670.1,-1857900.4,854.4386,537.73114,2.418225,1991.95141601563
258,-1244841.0,-1244788.9,-1246209.8,166.93944,158.3315,792.9847,1998.20593261719
259,330521.5,330212.38,329467.2,370.9729,-561.23615,-766.8526,2000.80688476563
260,167044.75,169476.08,169541.86,-1604.5797,-1504.3132,-2143.4622,5862.74755859375
261,-530690.75,-512986.3,-526347.8,-12127.439,-4570.0396,96.08745,27555.884765625
262,-853372.5,-845735.94,-852818.94,14097.6875,-1521.9445,7370.6934,28645.435546875
263,-136191.14,-123009.88,-136215.39,18442.682,-3220.8523,727.3867,35031.01953125
264,-144861.84,-145291.44,-151146.64,-3424.5527,12804.253,12589.31,32241.04296875
265,-117742.75,-92054.38,-106409.96,18568.623,-1026.9862,-4184.8877,39840.7890625
266,-43640.26,-65467.496,-49565.445,-17533.393,3055.3752,6287.1787,38092.7421875
267,-15392.421,-18412.287,-29208.465,5430.3843,-3644.1506,-18831.035,36747.9296875
268,-7487.0205,4514.6763,-7752.9937,-2070.506,6339.4565,-9940.597,24024.509765625
269,22224.898,30771.566,32081.305,15416.068,-11138.506,-11737.527,39804.87109375
270,25845.213,32606.914,18734.348,-3303.224,13307.881,3466.1692,27284.474609375
271,7753.986,-5609.7007,-1812.5115,1060.6694,-4285.2705,3935.1138,15722.0654296875
272,-16620.27,-20179.105,-33224.535,4357.3315,-9579.473,-18036.45,39210.62890625
273,1437.4083,7450.3037,5650.189,-2965.8052,-1456.1954,-22047.049,38981.25390625
274,34091.54,7998.3315,16995.504,14505.612,-9083.864,2521.0872,37747.78515625
275,-19619.506,16239.404,16775.285,-878.5017,3594.6714,8963.657,39843.2734375
276,3583.4019,149.70119,-8886.443,5314.1323,7541.909,5536.051,21720.3671875
277,-710.7398,18499.865,25131.27,-8036.955,5393.1504,7018.335,31132.353515625
278,23402.088,26138.408,26518.248,-13.924097,6858.119,3412.8923,13591.046875
279,38683.793,7067.84,15371.218,-10235.219,363.2129,5304.6445,34714.37890625
280,-13037.689,-9504.868,-22045.473,12705.109,-9943.913,-5015.4805,31333.888671875
281,7327.717,-22306.312,-19989.027,-6687.894,-13.656301,407.1837,30814.87890625
282,163.76672,-17822.133,22826.877,-1946.6195,1724.1879,6767.796,37448.9140625
283,29117.0,24536.598,10801.253,2502.574,-10115.525,2698.7349,24903.0703125
284,97857.13,97168.516,96363.41,-97.66176,447.5944,752.2149,2000.98083496094
285,69599.266,77924.37,67960.336,-2190.7983,3413.6565,-1132.7585,11783.251953125
286,29192.79,36626.78,33531.645,-864.67737,-7697.613,107.83828,14895.3857421875
287,-626555.9,-623363.9,-631955.3,811.49176,-1824.9905,730.9921,8375.4501953125
288,201454.69,200260.47,192363.25,-1407.216,-4161.3994,-2662.8093,12344.529296875
289,17695.428,22415.188,50822.137,-6499.2505,-8319.909,-5734.947,37367.86328125
290,56559.06,81484.86,51663.977,7683.3643,-2156.8665,8668.25,34405.6015625
291,46064.69,46919.773,45254.734,-776.1487,176.33467,-3.0749674,1995.07043457031
292,-20139.992,-25878.266,-30232.967,-7366.39,886.8091,-17350.861,33840.6171875
293,10105.28,40304.67,35172.02,-1292.6427,-11730.0205,-6628.153,36509.375
294,-6016.322,3418.5579,-25700.264,-2581.2563,-12106.959,-4954.358,34576.7421875
295,21741.328,43046.41,55674.195,-5048.503,4656.3906,-3403.3745,32537.0625
296,1748.3246,5916.992,-93.64729,-9334.132,-8542.244,-4049.5269,23620.607421875
297,-18554.719,-18908.25,-18573.697,-155.93022,71.18456,-1125.0243,2000.95434570313
298,-7467.9546,-29763.21,-33245.363,-1433.8407,-15316.506,2590.0508,36289.3671875
299,5912.7256,16793.652,-2297.5713,10292.661,13287.383,2890.8088,33877.5703125
300,113456.336,97467.11,134799.39,5471.68,-10769.166,1897.1449,38742.48828125
301,172712.55,172882.53,173921.84,791.8325,109.78577,-516.7416,2000.98791503906
302,147174.1,146435.89,148180.94,-69.98168,236.06871,-711.8325,2000.98168945313
303,-688247.9,-684118.75,-677635.9,11323.75,3630.6877,-5465.497,24488.5390625
304,-1272540.2,-1272999.2,-1272416.5,428.53467,-888.6777,-516.7042,2000.97888183594
305,152506.86,153104.14,152563.94,564.3054,-439.72485,-821.4128,1971.15795898438
306,21541.072,38458.727,-2056.8662,-820.3864,4206.447,-4421.171,36824.359375
307,-15549.244,1164.065,-19316.908,-8276.566,14955.411,-9751.833,38965.2734375
308,-43465.82,-22540.018,-41542.66,2586.9094,2439.9187,-18115.629,37733.3828125
309,2200.5508,-4256.61,854.3888,-14559.614,13738.319,8913.573,38410.171875
310,1135.9789,13610.636,26869.723,-2603.7617,1237.7245,2046.3512,23115.369140625
311,94241.375,87550.836,101196.04,-11704.899,-5345.649,9089.147,29736.1875
312,80361.086,78890.87,80555.02,-467.98914,-19.7558,-533.8783,1999.39379882813
313,74.82956,-3356.0842,-8371.559,-1313.9437,5351.13,15059.994,28733.728515625
314,3342.1865,-19780.582,-37610.055,-9380.135,-756.91693,-3991.7144,39727.82421875
315,24660.111,30735.92,9223.963,147.24915,6436.5405,-17820.705,38027.12109375
316,69142.17,69311.54,67829.164,11.988873,-494.54324,656.9503,2000.98889160156
317,285791.03,275861.38,282717.5,-102.807434,2608.1025,-77.59073,9898.58203125
318,-31308.213,-27647.727,-48395.95,-8503.051,-15559.374,-7797.68,38646.328125
319,1336.406,-1230.5801,6011.218,4774.9893,1010.9548,-1278.8619,10808.2177734375
320,8313.87,-218.07567,10206.777,-9027.893,-120.05556,-11048.822,26519.96484375
321,10486.212,-825.5402,13737.076,-9579.515,8829.856,-13578.4,35179.76953125
322,33896.04,11316.444,13609.54,2821.7258,7650.7397,-13054.635,34264.8125
323,79290.07,91792.9,65226.883,-12203.903,9425.466,459.9717,35268.71484375
324,38303.74,67105.59,48772.523,645.3776,-10486.887,-7215.3447,33540.71484375
325,145682.2,145369.17,145900.56,-438.47412,5.594276,-1034.8998,2000.98669433594
326,175494.33,175712.27,176778.72,410.9422,-338.89194,760.5967,2000.98083496094
327,100779.36,99930.516,100254.44,98.60784,217.78165,1045.5836,2000.42358398438
328,44051.65,43566.363,42719.14,678.82745,406.61554,-503.67996,2000.98522949219
329,-162838.7,-169667.62,-183415.62,6094.5806,4396.7656,-637.2104,22364.484375
330,-26600.943,-1164.9658,-21878.912,111.7631,3858.3943,-1594.4689,24525.560546875
331,11786.155,12706.763,11496.596,943.47876,187.5377,100.067955,2000.98522949219
332,-6346.8896,-7110.642,-5330.054,132.89679,383.56293,609.8397,2000.9853515625
333,40687.645,40688.285,42283.234,-167.9652,629.1549,-249.60081,2000.98254394531
334,41578.082,29549.098,41757.88,830.959,-6958.7393,-11655.751,26491.59765625
335,10052.554,-18814.025,23684.074,-554.45276,4154.071,602.24744,38293.2421875
336,121499.62,115116.65,111646.8,1073.9174,-7977.482,518.51117,16435.2421875
337,634701.8,634507.0,635728.4,-425.69455,844.41895,65.87821,1996.88940429688
338,-2575604.8,-2575583.8,-2576452.0,42.400204,-106.42869,-1032.6891,1993.68518066406
339,36590.44,22937.668,23040.338,2395.7163,4281.2363,15581.521,31393.69140625
340,-67410.16,-42328.527,-39019.77,2323.7397,-1774.6626,-10892.367,33235.578125
341,-697.04297,-3829.0015,-28201.875,-8387.592,14175.033,-3754.216,39195.83203125
342,-2104.2478,9062.625,-6757.5566,6809.1997,2349.361,2495.6055,19304.234375
343,12693.137,-1847.8901,12152.072,-5107.61,-1455.8281,-1170.3811,17105.4765625
344,445191.6,444905.66,445680.4,-308.4288,-392.84848,-965.24274,2000.98046875
345,24838.35,24552.873,24383.33,-188.6116,-604.9933,938.10986,2000.89135742188
346,18469.717,18888.664,18202.05,-738.5298,807.47253,-132.06752,2000.98474121094
347,10567.96,11751.507,9820.447,-177.63129,379.07718,459.67746,2000.98522949219
348,318889.88,320718.38,319836.88,308.33554,-224.97127,593.6052,2000.6953125
349,-55257.965,-48829.77,-37447.656,7226.97,-2463.989,-5682.3975,22711.46484375
350,5146.091,23100.084,11212.995,-16041.819,9850.397,-3368.4373,36706.6484375
351,-350212.4,-342480.0,-352918.12,-2325.1685,525.2949,5423.6963,13904.287109375
352,-29455.28,-23296.672,-6958.7324,9948.8,-802.8418,754.9604,26571.697265625
353,-70769.48,-69676.195,-71748.85,499.982,90.51339,37.666645,2000.98779296875
354,6609.034,20249.248,-2700.674,-10423.117,-4385.3086,-4647.7544,29122.744140625
355,-31858.906,-28356.877,5603.2266,-3702.2498,3285.0933,-2109.149,37031.37890625
356,-38789.293,-37935.633,-66398.69,-124.61439,-1852.3463,-1924.3365,28425.79296875
357,80220.63,79514.6,117213.79,-146.85965,186.29005,-4140.626,38035.6875
358,4386.539,-3193.3154,347.1325,-1750.0066,1082.2382,1393.4371,7853.60888671875
359,26721.898,12203.741,14467.343,-4504.2363,-10553.691,-3294.5454,24710.42578125
360,67862.1,65366.047,77616.34,414.59845,-4626.565,-16665.215,31994.40234375
361,5152.396,4589.1216,-2075.7456,2603.65,2466.8264,7532.9355,16041.1943359375
362,-57497.305,-59064.098,-86037.08,8923.785,1061.2596,2466.024,32136.92578125
363,-55603.21,-49770.05,-84271.016,7593.343,-5438.615,1790.999,35978.16015625
364,-19665.047,-27736.676,259.455,-12148.497,2060.1345,1219.9908,32907.68359375
365,-19200.75,-28960.3,-23224.225,-6977.703,7657.2256,-7499.872,23725.05859375
366,7230.3916,4592.2505,-10008.475,3229.1711,-4746.3647,-2019.048,19229.0390625
367,2469.1306,2738.6619,5636.7114,-5290.2637,-1226.3666,-4737.2515,12847.1669921875
368,5641.3213,9992.874,11987.226,-2534.4663,-2262.4111,4626.136,11420.2216796875
369,-1567.5983,2095.3237,-2690.9138,-1900.6045,-1736.2255,1216.3042,6565.97021484375
370,3214.0403,-3422.569,3956.6997,-909.20197,-1852.0206,-1014.86957,8086.0771484375
371,-18444.594,-21438.709,-47086.28,-3141.7097,-4572.2256,1032.7448,28966.892578125
372,-12638.667,-5584.205,-18685.56,6669.8325,5480.2974,9347.422,24792.576171875
373,-3484.2793,-11269.187,-29594.822,-6180.2407,-1487.9391,293.45096,25701.818359375
374,16757.191,8295.838,21893.102,-2997.6633,-3364.6797,-2701.408,14974.73828125
375,-2446.5977,-3015.9346,34876.04,7820.2534,-234.72655,-955.8344,40011.59375
376,-12728.663,-2477.7573,5554.515,-2404.8303,-2146.8506,10077.588,24244.306640625
377,104167.6,92345.13,114176.26,-6434.5493,-5797.013,-16463.666,37369.16015625
378,55780.496,30660.96,22756.783,-419.2708,2298.4363,-12848.353,37465.0859375
379,-129337.555,-128469.29,-167259.48,1225.1935,3486.0752,5580.28,40076.58984375
380,-11983.899,-9659.172,-45976.152,-5431.5513,-4185.015,-567.15967,37174.09765625
381,4755.0635,6504.6475,8082.9883,263.519,-2021.3823,1291.9272,5078.10595703125
382,-14404.898,-28120.48,-55997.676,-1515.5813,4184.765,4001.2585,38145.31640625
383,-104836.914,-115710.84,-148053.22,349.76382,451.8377,559.0467,38959.9453125
384,287.36215,-10198.974,17844.758,8150.49,-1376.529,2237.4688,28676.345703125
385,-4397.2065,-229.8515,-7041.6177,1726.8232,-3466.879,3552.0657,10873.5908203125
386,-15358.897,-19804.361,-27159.365,-16495.574,3670.8367,4202.576,31879.091796875
387,17908.799,20256.656,23603.4,-1981.3967,-4373.426,2181.2305,10392.423828125
388,60764.75,63522.258,38491.715,5216.723,-9362.293,5356.5884,31556.130859375
389,-1297.8008,-1679.8003,8236.69,3449.4126,11351.808,-8138.2993,26752.12890625
390,16584.172,16093.33,39640.004,4131.395,3659.2996,-407.80734,25199.298828125
391,29086.64,24009.756,41018.027,-171.34508,-5606.217,-11795.57,27211.955078125
392,-30472.986,-16471.273,-54209.812,-330.39084,-8754.424,-987.1518,36400.7109375
393,26416.535,20575.701,-7609.5435,1062.9159,1657.4225,1379.3304,31788.15625
394,-82734.3,-69229.375,-52824.63,-6850.6113,-9578.103,-7038.905,35180.88671875
395,39236.613,14450.953,43685.086,12676.488,2272.566,8543.578,38222.08984375
396,4044.9355,-14893.8125,-10072.174,8552.167,6973.2373,-10263.51,31175.69921875
397,-1242.648,-3102.0977,-14684.434,1812.9227,5618.0454,2005.8185,16606.0859375
398,24754.486,13955.375,18412.787,2680.353,5720.427,4909.31,16744.55078125
399,38072.72,28667.777,39367.32,4039.3481,2020.639,3008.6277,13807.8974609375
400,-1740.8202,-3016.5325,1226.6649,7478.0747,-6605.6313,4176.955,19110.935546875
401,33595.793,18292.531,41420.152,-1967.9358,-9508.592,12812.083,34502.9765625
402,-3907.3677,-8181.424,-206.86646,-483.7944,6449.6426,-4938.7915,15698.669921875
403,97765.68,98123.11,109966.91,2442.4255,-1468.5465,2741.9272,13840.423828125
404,-3462.819,6170.098,-14765.361,4054.4473,3829.317,6928.4673,23806.189453125
405,95387.64,94346.83,100586.45,-757.16815,2846.0151,-3123.1953,9423.603515625
406,-6365.731,1576.019,4334.0293,3745.013,1268.9581,-5704.6978,15398.6455078125
407,-32318.125,-3179.4316,-31229.164,-1160.3851,-2013.6158,-11168.217,34769.3671875
408,40258.59,47601.53,28096.258,8964.769,1960.3093,13951.038,33580.8359375
409,114494.72,123814.83,152152.55,-10746.421,682.6321,2032.1321,38913.296875
410,-432711.1,-447330.5,-438756.0,2964.9626,5465.5073,19433.545,37561.56640625
411,4033.7268,-14021.339,-1428.0869,-4628.7993,-8648.863,7892.3296,27069.462890625
412,-12020.68,-13000.519,3601.505,-4837.403,-2432.5,7735.4277,22973.529296875
413,-83329.414,-101932.36,-86523.88,-9581.518,13147.088,-1833.6462,33179.640625
414,-54461.277,-54429.4,-86313.49,11004.596,-3529.2222,-5165.414,38681.9609375
415,32782.117,37555.66,70656.98,-154.87343,5982.481,425.52856,37208.59765625
416,-33891.93,-35607.31,-45165.65,-758.7753,1821.3162,2715.6147,12020.9423828125
417,-36330.81,-36214.254,-67053.625,4713.7817,1348.3193,-4997.4995,33083.58984375
418,21876.709,19309.406,30860.49,1395.8773,-3020.3298,-957.7656,12096.611328125
419,72446.61,54830.523,83984.45,8176.8867,12937.588,2705.5989,37032.265625
420,123351.6,120978.016,160061.48,-2435.623,-6759.479,256.72794,39943.078125
421,13701.812,-3252.6272,-4310.2803,-1663.7262,-2279.4392,1046.0961,18266.853515625
422,1090.0984,5759.8403,-9286.416,1716.7039,3035.74,6301.0806,18262.896484375
423,57521.363,54456.324,75569.11,-2312.0771,-5059.179,-4051.1082,23075.748046875
424,-3326.3672,-20868.451,-39021.453,3775.4883,-9702.8955,-3216.7207,36220.7265625
425,-6415.045,1731.6803,-16245.259,-3513.6045,4243.8535,6687.3877,21640.630859375
426,30444.117,46480.492,74527.375,1814.9191,-4203.1597,-2864.1775,39762.484375
427,6949.7188,13358.063,33308.44,-6433.78,14850.698,7163.6987,38816.2265625
428,24910.79,12104.847,34901.81,-841.049,-1727.0554,-5005.6973,21863.171875
429,-13220.666,-12528.711,-25083.725,-5850.0176,-2733.6082,-143.58574,16570.078125
430,-7709.63,-11235.385,1583.1318,7266.127,9292.698,692.05963,23461.453125
431,6807.9985,2110.441,10043.536,-5156.8076,-320.94373,-3523.498,12847.83984375
432,-24101.455,-17535.42,-16369.094,-13851.719,-7589.477,-1341.6758,28389.125
433,8068.1396,18927.736,19752.643,-1984.4474,5458.1816,-5736.769,18096.693359375
434,-44343.29,-49854.723,-78288.555,-1828.2772,-1848.5475,7957.5957,34724.90625
435,52429.13,56685.46,62860.926,-15191.085,15143.471,-6840.4775,40039.921875
436,-5456.479,-7898.952,-16720.262,-3877.6235,1398.6068,-6675.0938,17028.6171875
437,-88149.34,-93901.74,-97926.78,3245.964,-8444.966,-12421.566,27944.44140625
438,-5317.732,1556.9536,-5865.1,-1823.2015,-2020.575,-711.1771,8663.80859375
439,76990.8,72696.54,105287.57,8330.61,-10783.726,4322.6855,39418.0390625
440,-17685.05,-20542.898,-28516.6,-1398.1091,238.61359,-2554.3528,10961.017578125
441,4633.8037,-8601.395,6237.4917,4061.687,160.5317,-3673.3694,17000.515625
442,-12556.235,-12482.264,10084.236,4120.7197,-2521.294,-1176.5238,24188.55078125
443,-6035.808,-6082.594,-27874.16,3642.316,-10887.417,997.26447,29568.3046875
444,6115.299,644.5674,-14779.341,-2439.884,-1504.5128,-2565.586,19914.87890625
445,17108.42,18338.137,35620.047,208.24667,-1336.0686,1080.7388,18177.3984375
446,10280.026,-3588.0781,-2148.7842,2350.326,1515.5751,-1167.1604,14212.1572265625
447,22279.938,5506.3413,1239.0488,1497.9082,-5626.1704,-8481.479,26241.955078125
448,-59420.59,-59110.465,-92284.52,5058.874,-5874.995,-5206.4727,36769.16796875
449,1120.0123,6387.4365,1892.0576,4483.068,2083.2246,-3879.2366,11947.1220703125
450,-82853.98,-90888.74,-118906.69,7927.804,7334.7393,-1922.6552,37890.83984375
451,-24536.621,-30508.5,-34762.637,9293.986,-5027.784,-1517.5182,20519.38671875
452,2311.0752,-6947.9175,21216.03,-7658.7524,8338.08,2168.8774,31887.60546875
453,28094.48,30167.645,27564.117,4819.031,-12283.161,6194.221,25359.046875
454,12248.045,10327.479,9211.036,2725.0535,4085.1282,-2560.0251,9954.04296875
455,-29407.736,-19657.61,-33255.12,1569.9546,1933.6968,3873.2454,14525.76171875
456,-1363.5519,-8473.478,10232.374,-5378.5684,-5575.766,-14331.683,32614.546875
457,-2387.7725,16523.629,4196.1797,-5459.061,3143.4775,11308.996,27914.267578125
458,-22746.363,-14509.871,-39811.477,-2148.0623,-4304.127,4249.742,24964.265625
459,32577.86,1456.6953,31645.893,-4169.6396,4575.3423,5495.816,33852.06640625
460,16178.891,12728.098,45540.824,2826.9788,-1854.7928,-1551.9648,31888.478515625
461,34232.11,53911.305,65427.094,4156.287,-5148.274,-1407.4984,29728.556640625
462,-10745.407,-11604.357,-10829.097,-4797.693,3690.9211,1872.0883,11004.96875
463,-26232.553,-22456.652,-42825.85,1023.5197,-5928.759,672.4955,21498.830078125
464,-29347.941,-30930.703,-62098.312,2078.1477,-2819.0605,-1668.624,32686.484375
465,-1909.9691,-10383.659,2348.5415,-2111.2114,9650.3545,66.28788,20464.517578125
466,21466.96,24774.168,51161.86,-6215.7173,10049.799,-1247.4646,34901.1015625
467,-5357.429,3426.0466,-6881.787,-2229.1057,325.6909,1265.9607,10625.2158203125
468,-17351.549,-32142.646,-34973.59,5261.474,-2318.5786,-4435.8394,20660.83984375
469,35591.695,29338.334,52219.25,-1396.5731,2195.7986,2276.718,21340.673828125
470,29997.592,28582.377,34139.785,-8112.9795,-97.22179,4585.2773,16899.30859375
471,3283.4973,-14087.82,-4461.487,2121.4734,9491.391,4157.7563,23724.01953125
472,71712.484,60637.066,95852.445,7351.354,6210.534,-4767.697,36315.21875
473,-2.2715287,20679.076,-12386.393,-3881.825,-12580.807,1040.1881,36884.77734375
474,6326.297,-209.46045,2040.4639,-293.58444,5095.3335,3614.4348,12264.240234375
475,21014.783,15655.182,13623.182,3114.9421,4996.852,-2050.82,12663.998046875
476,16671.49,12931.527,5587.953,-2468.1526,-2660.2893,-5027.9907,14516.5048828125
477,-3435.6758,-11585.752,-28145.91,1325.2854,1933.1221,-1913.217,22429.67578125
478,-56313.848,-53624.13,-79870.18,577.759,-5834.165,-4648.6655,28168.056640625
479,-1503.2754,-3739.0007,-18257.605,347.92923,2954.419,-8784.691,22501.31640625
480,17673.137,17906.793,9421.773,-6081.8066,-1623.0435,-4292.498,15627.2880859375
481,-15843.922,-1777.7036,-9180.11,-6746.7393,1340.2834,3670.238,18190.29296875
482,6041.244,4878.7275,9328.92,2557.3418,-1417.9087,-1016.8064,6688.44580078125
483,30787.37,11493.25,43431.062,-2777.1292,13758.05,-1338.492,37046.44140625
484,45.769653,-209.84784,-3187.101,-1234.4232,-2053.8848,3745.1797,8306.3984375
485,-7513.7866,-5709.962,-9460.135,-2399.6943,-2823.94,-5942.5425,12557.6220703125
486,7088.0483,657.48145,16487.488,4667.222,3103.4807,-834.0461,16925.599609375
487,-7730.114,-4270.22,-226.88525,-11698.006,-235.91083,-1973.2449,21556.599609375
488,-22458.88,-22144.066,-7726.4873,-7627.6294,-4413.6206,-12868.278,30696.330078125
489,17438.479,6880.957,26538.871,553.51483,-1135.0043,-2573.822,17748.619140625
490,-9129.16,-5579.3013,-15695.893,3293.595,-3388.8728,-3355.919,13409.6123046875
491,19218.701,12326.746,18592.8,1681.5791,1439.6578,3010.1511,9244.5185546875
492,7406.9775,10008.591,10351.249,-1006.3269,847.37964,-3241.879,6670.74560546875
493,4602.647,12243.487,-14022.687,-1132.3966,-2589.917,-312.0816,23913.61328125
494,2696.1797,-4665.0103,-7798.41,3837.074,1901.9338,1013.8923,12048.9111328125
495,83348.29,48275.773,56498.51,-2313.8179,2142.185,4640.417,33222.44921875
496,27470.373,26833.432,19301.95,-3601.452,2970.3818,4019.2532,13257.8310546875
497,57547.96,63725.59,96050.555,3947.8303,-335.91226,4076.3381,37144.34375
498,3862.501,9213.056,19356.809,1134.1908,-2065.1584,-5031.9834,16685.779296875
499,12736.93,2431.3242,-1329.644,-296.6265,-2511.456,282.09583,13361.67578125
500,-6141.4634,-784.688,-12377.131,403.40747,-3455.4124,-1102.0654,11871.5263671875
501,7183.26,-10208.627,-27939.693,3615.5823,-5806.169,2978.0781,33048.51171875
502,6539.546,1798.3306,5632.49,2430.4417,3705.015,764.2787,8925.0341796875
503,12365.631,40207.426,-975.12305,1047.6986,8545.113,4192.243,39995.58203125
504,-14710.891,-18208.465,-35276.57,2118.162,2863.395,4849.4907,21722.333984375
505,5263.9604,2375.8206,-7935.3916,-1676.0166,1859.2775,658.51587,12827.37109375
506,11194.888,7300.962,-8348.738,-6838.8853,-2939.4622,-2466.6084,22483.3125
507,-12081.709,-7474.955,-30560.41,-1640.1666,-5091.4805,3284.5562,23791.09765625
508,-600.0293,-3643.144,-16542.094,-1500.8035,1394.426,-1038.79,15189.6083984375
509,-4037.854,-7569.1826,-21693.357,2460.9302,-2299.6104,4677.798,19013.6328125
510,4445.0874,9244.652,12549.057,1766.4634,47.805954,-184.6086,7699.66796875
511,12301.164,26327.166,21863.885,3988.4495,2010.0729,-1608.6046,14888.076171875
512,4448.3843,-1781.1255,-463.7619,-66.99253,3188.5366,5352.2725,12197.947265625
513,-26753.195,-33050.38,-29226.787,-9769.915,-6499.9814,-16514.746,35517.7421875
514,20596.613,19527.623,30575.65,432.65552,1069.7799,1267.3099,10963.78125
515,7106.3813,9310.266,14201.783,292.34076,9495.862,5901.4014,20366.998046875
516,-16146.224,-15871.283,-27014.818,-3148.4783,3471.7139,-3488.8164,14953.3544921875
517,37002.105,25783.674,15523.768,-3972.811,8144.331,-2007.2504,24589.5546875
518,10569.201,6474.213,841.6128,-5425.846,-21035.05,1026.8036,38606.515625
519,5662.2188,4051.171,-751.1472,-4266.9253,1783.638,2326.8962,10667.796875
520,-17527.654,-10674.262,-9419.324,-10.796197,2453.9993,3205.091,10297.0361328125
521,-10966.5205,-7647.399,-19011.922,-2080.383,1876.2418,1874.2714,11684.701171875
522,-2304.3472,-2494.2068,-14940.35,3366.0686,-888.98425,5495.6226,16860.40625
523,56647.92,52814.312,88232.38,911.7609,-479.22223,-892.5357,33748.03515625
524,2956.2354,13635.897,18111.61,-11529.697,7028.3477,1783.105,27173.873046875
525,7523.241,-9049.007,-22049.918,568.6739,1890.5968,256.17862,25903.814453125
526,11278.346,-1719.5996,10166.419,352.21924,-4688.49,1514.8685,15130.5205078125
527,37971.734,37952.15,39533.28,3589.9336,2832.1482,2041.1454,8814.435546875
528,63155.977,60826.15,97771.305,-272.55576,-2000.5607,-2691.228,36307.7734375
529,-2625.9373,7639.851,-5052.292,-2816.1653,970.52814,7235.201,17884.19921875
530,5689.179,-3872.9326,4304.4355,527.3274,2361.5903,-1441.1688,10193.47265625
531,667.7593,-9550.484,-12271.297,-4048.8826,6082.0713,-3166.6023,18161.896484375
532,4544.676,20881.443,-11507.969,6562.3765,32.111076,122.17216,30266.61328125
533,12817.551,10047.724,13655.869,3100.4622,-1035.5983,-170.4958,6545.220703125
534,4043.6255,2806.763,945.83923,-4234.2656,-2722.7996,2403.3345,10032.474609375
535,8967.011,9399.906,12710.793,-1084.0327,3973.816,1257.7588,8259.99609375
536,9073.965,4890.031,8111.4995,-4510.6475,223.85521,-1246.422,8958.4384765625
537,27795.041,19570.629,32225.21,2551.0176,-3361.759,2724.5244,14120.8837890625
538,-9278.838,-15248.103,-25871.21,-2234.794,2245.217,-1198.7451,15694.3173828125
539,5754.946,10768.315,13825.86,271.43906,3371.292,3113.1113,10639.705078125
540,11865.471,3017.893,-390.5044,-3475.9624,-3136.2969,-3147.558,14680.9482421875
541,-1338.4535,3870.244,-6261.509,-2406.3271,1188.1079,817.5801,10031.0048828125
542,13118.516,1360.667,18870.65,-629.8948,-4384.984,2970.1643,18008.525390625
543,4226.13,-2482.6902,-9703.284,-850.7197,66.12116,-206.64111,12161.3857421875
544,9350.335,3156.981,-1259.5405,-4105.7607,-331.19666,-748.094,11738.662109375
545,-7610.0664,-16719.74,-26807.934,-1314.4841,4440.0063,-8544.273,23664.2421875
546,3607.5303,8433.201,5634.88,-7112.631,3311.3918,-4604.8804,16306.232421875
547,17276.533,17211.46,36611.863,-3295.179,2867.0298,1335.4956,20921.333984375
548,-1735.471,5051.2495,-2003.8462,-2131.909,-2382.8042,-6380.684,14169.0068359375
549,32734.443,27974.963,36768.812,9547.877,5537.8154,567.6991,20605.46484375
550,9780.531,5747.5654,-8924.645,9048.511,1567.462,2035.4764,23582.578125
551,-19118.252,-20679.531,-33289.312,3129.7832,-1415.2844,337.84717,14726.4970703125
552,-6616.7344,-866.6692,5525.7524,-2370.0276,-2233.5981,308.16135,11949.310546875
553,9324.11,7658.1953,10046.321,-2002.0923,-1402.6311,-2397.6255,6298.65625
554,-61.77881,7822.652,2999.7866,-1682.0851,-388.63553,-702.2928,7603.927734375
555,-8152.254,-4820.637,-8239.497,-5042.5806,777.426,-2584.33,10465.6708984375
556,-18749.637,-27019.97,-37384.074,-283.9966,3944.8894,39.092396,17563.048828125
557,-2095.6226,6782.4204,9066.179,-9667.06,-4056.423,1956.3407,21107.158203125
558,-7850.8228,-14812.131,-18937.273,132.98848,-5194.1123,-4357.0303,15235.931640625
559,-3012.9053,-11261.769,-14084.45,2925.8926,-1538.6312,-469.49734,11521.3349609375
560,-1202.6608,3907.7188,-5252.585,9140.91,-7615.3926,865.83185,22138.537109375
561,-6819.2812,-13842.749,-35864.84,-483.7724,5178.847,-1594.9044,27888.486328125
562,-6886.7964,-12958.48,-17062.7,-5504.588,-273.7601,3409.185,14304.6640625
563,2776.7551,9671.744,-7585.582,-639.44714,2674.5447,-5387.4736,18333.79296875
564,-6088.9746,-7431.108,-15618.679,-2903.741,-128.01239,-3716.7236,12108.3798828125
565,1570.001,-1397.7776,7333.233,2820.8577,-4309.677,-558.7744,11817.56640625
566,-1450.251,-4496.53,-10222.437,-812.36774,-166.33002,-180.97522,7853.0
567,10912.598,22048.744,7171.412,-2207.263,1000.5969,-236.13565,14052.0283203125
568,22397.664,20589.098,39770.816,-1915.6224,4273.574,4126.749,21293.359375
569,7767.16,12809.23,24590.87,-3926.6675,202.87428,-350.25528,16443.265625
570,6232.8125,4606.6655,-4222.407,-1397.7931,8938.647,2293.2822,18875.68359375
571,-47268.164,-47663.617,-58996.88,-356.5296,-2376.1565,-937.805,12370.8984375
572,-10465.459,-13542.433,-2564.793,-5201.3726,-19011.547,2735.585,35834.734375
573,20976.107,6106.8096,12913.242,10398.653,13830.374,-7173.417,34911.6640625
574,25476.488,32950.613,47648.984,-10804.004,-8407.137,-11755.344,36858.45703125
