Element Label,S11,S22,S33,S12,S13,S23,Mises
1,1362.2012,1106.8358,386.0093,368.85422,-382.22638,202.32405,1318.38269042969
2,910.2401,2227.7766,-441.62567,436.74918,681.48596,-61.837765,2705.83959960938
3,1976.0465,1885.7284,340.96228,528.8844,144.94592,-138.12573,1869.06396484375
4,-492.57904,1944.1704,-501.84262,1302.3191,-553.96155,429.44785,3538.70141601563
5,1739.4249,6458.738,1715.4083,1124.3567,406.33063,-1053.7175,5477.6494140625
6,979.51855,2365.087,-1252.1859,-371.44574,210.35321,-351.02042,3302.84594726563
7,2432.4077,317.44818,1290.1277,954.9309,-233.47122,162.26967,2517.9716796875
8,-1271.7397,1510.6807,-503.4751,-42.219093,-417.55777,131.45543,2602.82739257813
9,6406.2305,205.95334,169.15315,1547.7394,927.52594,-616.03656,7041.2265625
10,-5638.4785,-2929.6208,-1263.7473,2140.5518,-1036.3282,1657.1659,6311.26513671875
11,-117.06041,924.0172,-1837.2319,364.34998,-285.40308,290.39114,2594.08227539063
12,3753.0107,1779.5664,1695.1979,-593.24585,210.2151,-386.25626,2388.31982421875
13,-1922.5228,-312.6807,-2608.3403,662.7964,-170.38438,227.67033,2393.0078125
14,6181.6074,-58.0557,2454.8613,-853.4703,322.09937,190.19484,5672.1591796875
15,-4377.191,-2879.469,-102.17468,-1019.08374,-117.05723,-1355.9829,4773.7744140625
16,4620.107,467.78183,4696.178,611.3005,-1211.3379,621.7389,4924.04541015625
17,1497.2059,-545.0791,-1398.1908,233.09302,-584.9184,674.6257,3032.45263671875
18,1765.6974,4490.2,2337.684,-1289.8794,258.2569,-288.9236,3410.80517578125
19,-11303.925,7085.6177,-655.7878,-1296.3777,-267.1491,-2248.4036,16618.23046875
20,-13888.415,-6913.348,-43460.473,-1229.1045,-3986.239,3840.3586,35012.46484375
21,995.39484,2117.0452,-637.0441,999.72974,1012.34973,-703.2322,3648.35888671875
22,-1351.8203,-832.1698,293.7971,-659.7545,-300.10144,964.6813,2547.70239257813
23,-1794.5607,948.40906,3731.377,2766.7986,1442.613,-42.711388,7219.19580078125
24,-1684.6643,-968.0184,-3277.4377,713.28503,-2048.5906,-83.087746,4281.2578125
25,2530.8994,2281.1338,4907.705,-619.83734,1445.2252,-594.7488,3845.13110351563
26,3353.4534,-443.43448,-5357.8486,1178.8424,-56.32863,509.21896,7885.6669921875
27,503.62863,7519.376,10014.143,2517.6992,256.23264,-2095.6956,10263.353515625
28,403.27045,-3898.696,-3068.9214,-346.24866,146.00615,1930.0815,5217.76220703125
29,-682.8703,3290.6487,-1776.9147,432.1713,-373.09818,-245.3763,4742.52490234375
30,-68.0907,2555.3586,-6018.262,402.35822,-344.19034,2055.5466,8450.673828125
31,697.91766,4397.058,6065.0483,1230.9171,-366.73724,-1266.1472,5691.599609375
32,-233.82393,3897.5835,1384.36,985.07245,-1019.27765,483.3138,4441.8837890625
33,418.55124,3196.1975,-481.15164,409.30844,171.09991,-864.4569,3722.38134765625
34,1353.914,3217.86,1735.6718,677.5639,-575.9181,270.97046,2345.43310546875
35,1069.6005,2770.304,602.7026,-184.3951,-652.9219,-527.0719,2473.61694335938
36,682.4175,486.178,-1582.1451,946.3944,-95.41438,1677.1232,3984.32958984375
37,1011.8876,3535.5054,640.66724,-14.733429,-22.38588,123.14018,2736.95361328125
38,915.6096,2094.6116,-965.86273,-139.95175,-247.9827,-185.17807,2737.58325195313
39,1072.8107,1638.2013,998.7171,752.0494,307.06198,225.60385,1580.9287109375
40,276.5642,2170.4705,-857.2753,-1609.2357,370.37766,-1138.516,4369.0927734375
41,-13.633052,325.6768,-1285.9518,209.30449,-190.5829,-431.60095,1721.87841796875
42,1091.5756,-1846.2343,1836.0267,486.39526,-384.5046,883.80896,3855.98461914063
43,9661.374,13875.282,18176.576,-6025.1475,-6108.805,-1701.2739,16850.107421875
44,-10389.848,1578.9834,-10062.726,-266.4846,3691.8748,-905.5344,13528.0263671875
45,-10277.326,-11609.2,-8523.621,2686.4915,93.848434,5139.2637,10397.08203125
46,-5664.1587,-3500.1394,1052.712,-44.589355,886.2305,-2321.1294,7334.09814453125
47,4882.1685,-1540.2003,-6871.5415,5307.7627,821.3218,-1270.3573,13974.6923828125
48,-3503.144,-208.04584,543.46124,264.03287,2382.8135,-578.978,5669.82470703125
49,-5128.0425,-3120.8594,-20767.838,-5091.044,-1618.6339,-1546.607,19308.443359375
50,-111.32142,-722.457,-9172.565,195.5387,-3128.6338,-2167.328,10977.87109375
51,1442.1798,6037.8896,1446.0663,-176.01437,93.24084,-66.29021,4608.13525390625
52,-4630.9253,1343.3711,4491.092,-4632.463,3045.0442,796.8849,12589.951171875
53,-356.65573,4573.344,-5011.535,1838.0479,-263.2095,-1382.5703,9219.4873046875
54,83.79374,3230.673,7114.675,1172.8285,210.36035,2094.2983,7391.1025390625
55,3214.0037,1330.3627,-1925.1229,1667.9027,682.0851,-2253.9573,6727.6181640625
56,-1961.186,-453.07077,-6909.394,1228.1934,-1745.3408,-735.0074,7036.07666015625
57,779.9763,-1792.6985,-2265.8564,2528.4534,739.33813,671.44507,5498.31103515625
58,2672.8225,-1656.6104,1543.8278,1254.9025,-624.542,597.6207,4700.70849609375
59,5211.883,-196.11305,847.91644,1870.0573,722.6388,1789.9705,6808.83642578125
60,1169.1069,4490.6235,3146.1846,-308.6646,366.5388,-552.80255,3159.12280273438
61,1688.0077,740.94336,-1590.082,286.65433,385.64117,21.342281,3038.46630859375
62,1683.9529,228.59442,-183.93155,1041.9608,-413.5895,1464.4154,3618.33837890625
63,1733.5312,1701.5668,753.2114,-197.8889,-659.0732,-830.7462,2102.79418945313
64,79.69065,663.06,-1836.8232,-33.112617,-205.1047,-429.7067,2411.39331054688
65,482.15604,2396.0276,1832.3683,436.49792,-273.42517,495.94827,2106.08984375
66,2478.816,1476.2428,-283.0837,563.66296,1156.9905,-756.6076,3542.68701171875
67,1767.5164,3681.2935,-2070.3372,-826.0228,603.45795,1397.2213,5893.43408203125
68,-284.74152,3239.29,-2884.9897,585.4323,-331.13242,296.7833,5474.013671875
69,639.0855,-1043.3112,-1169.8031,843.917,1639.3364,-1697.3887,4679.9052734375
70,8929.355,4250.237,1910.815,-3510.4011,3541.8381,76.45438,10627.0224609375
71,570.18866,5299.2383,2163.1045,-1749.3,-777.8866,2939.1736,7367.49658203125
72,5803.6626,11886.33,-13460.399,-3108.8188,3893.7637,5127.95,26050.83203125
73,-2302.4604,4931.862,-1829.5182,-421.28604,-4196.0386,84.36403,10124.8056640625
74,8886.516,7135.4805,-4171.0723,-3127.283,1377.448,-3076.7563,14633.3017578125
75,2583.3079,8887.679,917.7007,3910.4346,-641.6961,1531.0526,10351.9150390625
76,-7628.76,4588.6226,11836.628,3560.7312,4246.7163,144.08478,19558.94140625
77,-1106.7181,4275.666,2968.728,-4759.197,301.5815,5430.82,13429.3642578125
78,6347.585,12617.185,-9495.085,5351.1377,2739.5205,-7583.071,25895.0390625
79,-213.35547,1881.7057,2294.4775,-2655.2417,393.25406,-195.23134,5210.91748046875
80,1351.7626,2071.1318,-612.90424,-169.94566,-457.0079,13.761697,2550.39428710938
81,2066.4678,580.1726,3989.4062,-584.84503,1677.4435,-39.703403,4270.4951171875
82,963.17145,2906.8564,933.2551,116.1214,-979.66785,-411.77213,2695.42626953125
83,2538.3782,1712.4937,-6807.3135,1014.7837,-197.55719,-1094.9896,9333.2216796875
84,4091.1865,3163.8503,6286.8438,-95.30624,-764.97186,2387.0024,5156.8505859375
85,2239.7998,1045.5013,2834.6833,-94.89418,-209.40149,204.11346,1665.60876464844
86,1830.4818,462.05768,1540.7844,3.9251285,-159.87692,255.90558,1353.98352050781
87,1686.6942,2158.1917,993.296,-758.5775,-282.27487,-270.14322,1792.85681152344
88,-2967.7837,-461.9233,-13732.383,445.9508,-2064.698,-317.92145,12760.0654296875
89,1389.1515,1718.7098,2327.356,-577.7537,321.60764,-82.42446,1418.35009765625
90,170.1351,198.74228,-2004.4078,813.345,-1064.0297,-197.33365,3207.73315429688
91,2450.0452,4952.52,-0.73847103,2068.6467,-858.46375,174.80873,5791.5625
92,1656.9825,4810.9165,1128.9167,1936.2981,869.88043,-515.7283,5119.3154296875
93,791.52405,5089.892,9132.525,1033.5413,-642.4435,244.31763,7537.73681640625
94,836.16693,1226.6266,1368.5083,579.3912,-1091.6804,-24.471144,2193.66479492188
95,690.19666,4526.152,2853.6543,-1122.0344,518.2724,-611.417,4098.8251953125
96,92.777,1658.5139,-777.18524,249.94153,-348.46225,530.58264,2442.69165039063
97,7478.1187,569.8761,7241.1187,-87.81746,1205.1106,142.24193,7112.2041015625
98,3068.644,2838.5264,-1025.0503,-1158.0715,79.91473,-259.37643,4484.822265625
99,4357.0425,17469.2,-13216.846,10215.118,-5885.945,-10029.808,37814.96875
100,-1337.7478,1083.731,-14402.028,-711.2349,6794.4497,911.21906,18726.345703125
101,-649.9067,3802.5796,1903.4192,-73.246216,70.96457,-702.29926,4060.3369140625
102,1122.2222,3238.7078,3696.62,-85.94413,-200.84987,519.6398,2571.306640625
103,2175.8193,4545.0933,1611.317,-38.072926,737.2541,-1744.8207,4247.08837890625
104,3207.96,2952.1423,1940.3744,665.18463,-640.2784,1176.6613,2838.80639648438
105,1398.7706,3252.791,6.089332,634.7426,862.06946,-603.64886,3534.17236328125
106,701.91736,2012.9971,-1651.9343,212.60127,571.3086,445.9311,3472.31591796875
107,1907.9529,3012.8586,-5257.619,371.4437,-463.46808,1156.7695,8096.677734375
108,1136.699,802.7419,631.6672,-216.87753,355.79532,-39.470974,850.575012207031
109,1515.7933,4578.806,2868.0298,-214.0623,1582.1245,-927.4607,4158.8515625
110,780.18256,262.69434,-1182.3462,-685.18945,-132.86853,132.27068,2148.8671875
111,1279.6635,1543.3892,141.48947,454.54553,-385.35883,-894.73584,2265.42553710938
112,1980.818,2826.282,1579.2184,1307.9728,14.45098,-76.27102,2523.1103515625
113,1078.483,538.48236,-1966.8013,704.2831,-3316.5396,1867.3654,7271.06689453125
114,1936.8364,604.65717,496.30893,-356.2966,538.5338,913.5822,2384.4443359375
115,953.2601,2567.9182,2070.0493,905.0176,-324.98288,-19.836288,2196.8837890625
116,-2501.8103,2880.7402,1988.7601,2420.1687,-2029.8257,2458.148,8545.5283203125
117,850.6317,2595.5806,1195.4464,-2713.9612,-3213.2751,-858.97687,7605.77099609375
118,6233.4414,5290.806,26502.973,3568.9836,-912.074,-7088.0176,24945.49609375
119,2056.8938,20401.662,9526.086,1507.9644,-1143.9188,1384.9998,16486.38671875
120,4512.6045,10332.823,9064.577,-5944.139,605.2302,4523.308,14020.705078125
121,-1977.7408,1739.7555,792.43384,4264.6953,1250.0002,5271.4165,12401.9921875
122,-693.5015,2617.907,-2120.592,229.27621,1309.3203,219.77852,4813.861328125
123,911.4112,2676.1882,3270.894,736.5289,906.8875,-672.9096,3157.66015625
124,1960.5834,1212.772,-1737.3328,-641.4278,110.66576,405.45605,3637.67456054688
125,1313.0614,3507.8755,549.17346,245.16566,-301.11807,153.13927,2756.8125
126,-7252.995,-7820.9927,-5361.543,-1157.8918,-1147.0568,-5315.374,9884.5087890625
127,3011.0205,-3906.255,4717.0093,5109.143,1709.9568,3583.3245,13717.23046875
128,-3221.4065,754.3065,-1557.7711,543.14526,2056.8733,489.11847,5123.939453125
129,345.05594,1577.362,-3350.7344,1077.479,-816.71515,280.05933,5044.90283203125
130,969.17993,4519.9995,6583.7495,-27.38129,1742.7255,8.583497,5771.40625
131,-2548.1096,336.33023,-12548.76,-16.319693,-1147.0057,-129.76276,11881.8115234375
132,1429.873,2077.2578,1382.0433,867.5904,-433.30692,514.1947,2016.66845703125
133,-1695.8036,3156.539,-3134.1626,-2131.8733,-255.24278,2147.7878,7762.89892578125
134,2329.348,1015.5587,1772.5337,1122.6959,1329.2164,-1304.471,3935.89477539063
135,-1841.5115,-267.66678,-5526.7393,-1444.5682,3486.2214,-1026.5267,8230.4736328125
136,-1921.3439,2659.451,14386.008,7357.1777,-3848.8354,-2058.579,20778.61328125
137,1409.054,2175.2974,-1111.257,-730.5084,356.14026,-683.60547,3500.52172851563
138,-416.36746,3118.6748,1824.9171,4592.996,1305.4492,-202.0613,8838.482421875
139,2064.3752,2287.8418,16594.096,3040.8765,-6733.859,-2745.4521,19857.08203125
140,56.52517,2364.234,-4439.3647,3171.3064,2125.069,3294.6133,10592.28515625
141,1293.8693,1512.4944,-816.141,-429.07455,219.87032,87.250595,2383.57373046875
142,2966.361,2755.9497,4534.899,-805.50714,670.14624,-1598.6106,3714.17578125
143,-1439.8579,1379.6827,-3272.9512,844.23346,-709.5313,275.1885,4511.5634765625
144,1887.0525,1836.8777,-1365.6807,925.1709,391.46234,-291.80225,3701.69995117188
145,-265.1886,3411.9895,-2321.3987,-943.88434,690.1706,-106.34682,5426.45166015625
146,297.64307,1028.8365,1131.6125,79.34569,-9.326556,-347.2885,1000.66577148438
147,3409.7927,2662.2432,-6.717943,1406.5726,-433.3229,-907.2601,4318.02880859375
148,1588.505,-212.10365,649.303,980.51465,2059.0422,-479.97937,4327.52685546875
149,6978.9897,3158.5513,6046.0234,-253.03624,90.040474,2344.043,5348.06982421875
150,4582.716,-4051.456,13333.135,2447.433,2218.9119,308.7876,16115.1455078125
151,46.55827,7202.8506,2087.0464,1492.595,-1228.0458,1942.5885,7956.2890625
152,1436.5992,4102.9756,608.20123,-797.25214,1057.1067,-1090.0428,4339.177734375
153,3580.4077,5026.752,6860.8223,1191.2515,-962.0235,-605.9395,4030.33715820313
154,284.24582,-36.31999,147.7425,-920.9997,-176.73022,-2118.516,4022.48559570313
155,2507.031,3237.1665,1008.72205,331.18854,416.49435,-888.7527,2662.91186523438
156,444.20395,-619.87775,-5813.2183,-183.63142,-1236.7173,113.492035,6193.33544921875
157,1352.5466,5153.375,3410.447,593.2802,237.76935,-2511.9658,5569.1103515625
158,1152.6434,3373.8281,676.87506,-761.57654,-1498.587,1075.557,4261.98779296875
159,3605.7234,3495.4922,9219.709,773.45355,-872.81696,-1726.167,6720.63232421875
160,4566.8965,1574.6815,10017.317,1056.349,1420.6206,-933.5652,8184.498046875
161,1295.3707,2331.8232,1269.9729,210.18874,31.80555,174.56583,1152.47338867188
162,2347.945,-114.6231,-289.81522,70.03921,276.00275,-418.00537,2700.70190429688
163,1828.023,729.7029,-3637.1794,39.95209,-1929.6246,906.6573,6222.01171875
164,3206.8828,9108.466,5060.711,-2393.0889,-797.90625,1750.7322,7457.25244140625
165,2086.5134,-4134.704,-3418.7732,-2715.2603,1011.4133,-1371.9789,8099.1298828125
166,3032.7085,3128.5671,2050.383,-1214.111,-962.69696,-201.8631,2897.08740234375
167,1257.6155,2316.8599,222.69547,-1399.6875,22.888405,-134.61578,3036.87377929688
168,991.57794,875.1974,598.8402,-386.23773,507.57074,-536.69415,1485.47131347656
169,2528.4314,-1744.6558,18032.395,-1962.7015,-5002.734,7515.3877,24103.189453125
170,-2820.9727,-2758.402,9765.304,-4873.3257,963.8998,777.00757,15279.9599609375
171,2533.0134,-4575.645,-2076.5056,1664.0851,2983.1697,-1271.4277,8880.7783203125
172,1995.2201,1764.2163,-447.96652,-711.53503,571.1681,-19.555933,2820.78564453125
173,1851.3011,2048.0286,1041.3674,-627.2493,-331.1832,-334.71506,1643.01708984375
174,548.54266,1622.0786,253.99844,105.290474,-356.43323,-133.52466,1422.43383789063
175,-1533.5642,8492.488,-5136.465,-1327.112,-2716.6953,-1654.6195,13611.1640625
176,-3663.1338,60.315628,1200.1628,2828.7485,-1838.1183,563.5056,7382.52001953125
177,4011.057,867.7477,3728.3496,543.03674,819.86676,52.787914,3461.39428710938
178,-958.5016,1410.7751,108.2341,391.98486,580.4557,-113.032524,2394.59326171875
179,-1300.3142,1286.3632,-3214.3213,3536.6462,-1029.2284,463.8914,7526.7763671875
180,4727.3506,3059.055,-203.6601,55.721466,2082.902,-1132.5853,5978.68701171875
181,2179.5054,3397.8386,1059.186,-126.29501,344.22977,-549.2535,2326.53076171875
182,1270.5122,742.63,864.78595,-298.9331,182.62834,770.3306,1541.90405273438
183,110.49244,2625.6958,2031.1409,545.97034,-314.8044,469.77362,2652.91064453125
184,161.96597,-226.76042,1590.5884,-2231.4,1635.2439,-4.114959,5070.20361328125
185,-1622.5995,-2625.3945,-755.8135,-2219.9102,595.66187,-371.14383,4346.0107421875
186,860.8339,854.739,3454.6233,1403.2443,858.7415,246.03587,3878.7607421875
187,642.796,-2249.2576,379.104,226.65546,575.29156,-85.522446,2973.1865234375
188,-4353.3394,6144.4795,-1541.1727,-2991.924,6320.853,2229.563,15818.283203125
189,3733.6145,-4023.4822,-3481.249,3745.73,-127.295105,781.51855,10011.6337890625
190,3134.2263,-1691.1576,2749.8118,-1799.9299,1947.2299,717.9292,6649.64501953125
191,122.36697,-2182.084,-1402.4156,1429.941,86.39275,352.87656,3263.71264648438
192,-3341.7412,-2256.9885,-9593.818,974.76776,-0.11083905,-839.94745,7212.0849609375
193,2926.9438,-2696.3472,-1859.223,632.02234,-377.90112,1180.708,5781.3310546875
194,1531.1119,-2723.3767,1753.423,1608.4758,449.5607,-584.6525,5337.5341796875
195,6027.8315,-1277.1786,-824.3333,226.3864,-1691.7103,1898.2997,8355.251953125
196,-4738.6436,-4801.5513,-1184.1588,1846.5529,3691.848,-2965.2695,9505.7294921875
197,680.2045,204.97086,1932.1615,329.75992,331.73584,-871.4308,2307.11108398438
198,-4651.606,-3351.1838,-816.7319,-703.0025,1456.8799,2061.3604,5657.5751953125
199,1095.103,-1670.0212,-6394.729,199.80133,1302.4517,-480.91904,6995.42236328125
200,578.0645,-855.4691,-772.2701,1166.4562,94.75181,812.0707,2833.69750976563
201,13.970674,-1303.4034,-7.4520245,110.15786,-1930.9247,564.2963,3726.23364257813
202,-126.647415,-2211.1008,1371.2001,729.6471,976.96,-320.1394,3805.08374023438
203,485.13586,-1300.8127,1193.7206,61.542316,-85.43215,-311.99213,2298.36376953125
204,977.3696,-2822.1084,-4113.044,494.67612,-668.815,465.53284,4871.71875
205,1229.8969,-2478.1506,-2215.3438,-1336.6648,-534.05756,115.81824,4370.36572265625
206,844.1101,-2036.3248,-202.72105,-935.9622,212.06326,934.0825,3428.98681640625
207,299.3431,-3049.8623,905.8007,-880.59937,186.37581,-1414.0106,4695.20703125
208,965.0864,-2321.4958,1515.0952,-1051.0731,250.45282,880.8006,4329.1630859375
209,1419.5382,-486.91714,643.9238,-587.67615,382.48383,1971.8666,3987.1318359375
210,-243.53065,-3402.1108,-348.96378,-855.767,61.939857,460.1948,3535.33374023438
211,24.734322,-4691.874,-3852.3892,-1232.1962,581.6615,-2331.995,6393.44384765625
212,-341.59195,-5281.5205,-596.3035,-2038.4288,-1671.1395,600.6755,6718.306640625
213,-1243.5333,-592.02606,572.6339,-2031.1754,200.37244,431.4927,3949.1396484375
214,-4295.86,186.2649,49.95192,-1270.134,-1944.947,456.79303,6025.87841796875
215,-1605.7429,1492.4312,3044.1726,-957.99805,-314.20264,-1891.007,5530.9423828125
216,-2621.0327,1039.92,-739.9111,-939.6207,476.7188,31.448874,3658.94897460938
217,-2464.1416,-302.91693,1497.5527,154.76881,-154.5363,-836.30444,3747.73559570313
218,-1742.7424,2203.3247,-435.2476,-298.28757,359.9327,117.23446,3580.27099609375
219,-1500.6045,1513.0154,-914.3081,938.93854,480.14725,-724.08484,3545.1533203125
220,-3104.0981,2547.0066,-9169.494,-159.82843,-313.8965,1165.5945,10365.7255859375
221,-1662.7963,895.0244,1163.1462,-252.8925,328.11093,-649.07574,3013.11743164063
222,-156.9649,1735.3397,3662.1655,-161.86641,102.4604,-105.99448,3329.17651367188
223,-371.90277,152.00963,-3288.174,-546.64,27.449623,912.5818,3701.90698242188
224,-1062.6135,1323.9479,-9956.516,-812.8934,2040.5717,1035.0981,11122.56640625
225,-2802.1636,-3776.9563,-7545.268,-3000.7285,889.73517,874.1821,7106.63818359375
226,489.39056,563.09515,1409.9929,388.5461,-224.22726,502.88782,1465.44006347656
227,7461.596,5426.2495,22385.896,2613.5845,4019.0793,762.0333,18109.30859375
228,-401.3658,-1987.9033,-4683.0034,-698.23914,-534.8187,-20.888275,4047.04345703125
229,203.99336,514.78656,1117.5068,1365.9828,1.5110924,-294.99484,2550.68334960938
230,1556.0608,2401.865,6687.8228,1752.977,975.109,712.92523,6025.44482421875
231,-468.75867,1782.4454,3213.9167,1879.7202,-368.66074,-55.401142,4621.314453125
232,-172.60355,-3427.6995,-5192.033,-269.9993,-1284.8771,371.5132,5003.70751953125
233,1627.4224,1375.2621,-1778.4174,189.08371,-645.11523,-1430.1521,4277.4169921875
234,718.90955,-717.6228,265.78763,870.3452,39.70619,268.55862,2027.7138671875
235,1886.5902,949.62775,1064.051,180.54123,-190.82173,-279.6473,1106.98376464844
236,631.6953,269.58945,1794.6049,1015.87994,-132.84172,313.76892,2312.77001953125
237,1889.8011,242.49048,-1942.3784,-247.95284,-838.849,835.76953,3934.13525390625
238,236.00616,1158.9353,980.79663,739.2165,7.811144,-881.6988,2165.82690429688
239,-1986.5399,997.84534,-2693.4473,742.341,-182.66782,290.27628,3677.234375
240,3872.9395,262.3261,2820.4058,-171.94093,-75.46592,529.974,3360.42504882813
241,417.23413,-174.11797,416.23007,612.3965,-9.707441,159.12488,1245.16577148438
242,2829.9312,2495.2192,3216.0457,381.41257,54.687138,-775.44293,1624.71154785156
243,4201.3057,2539.433,-1752.3606,-433.8079,-343.43912,51.302856,5407.40673828125
244,836.283,1238.8093,383.35577,81.548874,-284.45755,116.60863,923.567687988281
245,2212.6204,2047.0072,493.24118,-428.41812,289.81238,-767.6853,2295.55297851563
246,91.1198,313.13217,-4725.74,-235.68166,91.51372,-2940.2666,7102.68212890625
247,1150.1228,1015.4804,-636.8783,-975.7512,14.783449,410.37653,2516.55493164063
248,4122.0645,2935.6863,4487.979,-443.47208,742.34973,1008.92883,2696.76928710938
249,1071.4905,-1266.6898,-19879.848,3318.2039,4089.9646,1346.1754,22002.025390625
250,4538.6655,3109.832,1540.0873,1985.7915,131.51045,-741.9376,4503.55078125
251,3384.9546,-15909.843,-16759.494,-2349.9941,-3251.7556,2935.3845,21530.0625
252,4830.59,9188.2,30079.674,8055.8804,-4527.4136,1300.7672,28420.755859375
253,5587.446,-97.56756,15435.472,7537.0464,-1792.5166,3922.1743,20285.46484375
254,-2909.633,-6636.434,-3638.238,-1405.0673,-107.962555,-5501.0825,10413.8310546875
255,-4189.96,-5280.8975,-13447.841,-4630.2666,1283.4408,-2970.0085,13134.73828125
256,-3688.9104,-1544.8223,-13647.834,-3257.3757,-8019.948,8218.528,23506.443359375
257,-2106.3462,3623.6218,-14873.486,1727.5419,4616.2344,2773.8867,19103.74609375
258,-6927.7173,4368.117,-9106.494,3068.1465,3285.6934,10051.553,22818.48046875
259,-10538.297,-4018.0173,-13061.844,5682.4224,1637.1859,-2049.3257,13522.0810546875
260,6048.9277,-2931.1824,12777.221,-853.213,-2885.2485,-1049.0469,14723.875
261,105.43188,6493.5615,-16832.281,4567.61,-6791.2134,6019.6772,27304.85546875
262,-3314.7654,1832.776,6672.3467,-1209.8744,16.354013,-301.24835,8915.9951171875
263,6587.943,1854.2256,21771.367,2637.4468,5736.409,-4900.604,22725.619140625
264,8638.618,5245.349,2227.6167,3717.087,1220.6708,2523.048,9791.76171875
265,881.4167,457.2824,-1170.4937,-972.1937,384.95386,844.9574,2990.29248046875
266,1715.4188,863.6849,-11909.484,1523.2405,-578.0973,2723.67,14317.0224609375
267,707.3054,-2844.3286,7101.78,-1886.6273,-341.0332,979.84875,9493.2373046875
268,-2940.515,970.01624,-1003.57916,-412.46603,155.79817,40.363728,3472.40795898438
269,-3100.096,3341.9495,-1888.7692,604.6169,584.6099,528.5747,6174.4638671875
270,-2393.9885,2945.707,3543.082,-1189.389,-793.9398,-224.34094,6192.330078125
271,-622.61176,2902.406,232.94255,1615.0499,-1573.3097,-2086.9312,6201.515625
272,-2143.1272,3912.125,5146.9844,2657.6113,501.01273,137.45753,8225.98046875
273,-885.83704,1970.543,2057.724,2849.9685,120.123726,-549.6131,5807.92626953125
274,-3199.0857,-6204.7534,-4313.9844,1566.9528,1067.2936,999.5062,4550.431640625
275,1534.9874,-4384.8096,-6201.9565,917.8808,-143.28903,329.5703,7212.35888671875
276,338.307,-1535.587,2086.4421,-582.4136,406.3867,-400.17426,3440.45947265625
277,-927.1031,468.48743,-9661.433,-138.44061,1276.2738,-922.74805,9895.66796875
278,-4313.216,1439.5262,-3094.0217,690.39325,164.80032,-452.31006,5449.02978515625
279,677.7828,558.0289,2674.7893,1083.3298,416.71515,-408.53076,2963.7783203125
280,1694.7776,719.65326,304.71353,170.19472,726.06946,1132.4487,2653.9423828125
281,5275.3257,1631.6665,-2572.289,1616.1193,25.660788,-738.6125,7466.017578125
282,504.61142,2035.3446,1816.8159,111.60789,-262.88586,-238.01616,1571.95446777344
283,-117.99073,-153.27121,2170.8306,79.78781,879.08014,118.05721,2774.87939453125
284,722.2772,-1419.8394,4127.737,1807.0956,43.744568,-342.57413,5799.59521484375
285,-5830.045,-4611.88,-10227.697,84.91276,-745.41986,1265.3102,5715.9384765625
286,906.73773,-1873.0488,2340.4502,-1788.4901,-52.303814,384.17282,4880.08447265625
287,1812.2604,-3848.9937,256.15942,-2318.3086,-2992.3596,987.49493,8460.1123046875
288,1448.9458,-732.02466,528.12054,694.1674,-908.389,539.5518,2896.67456054688
289,952.76965,-865.35156,-3794.4783,351.4955,-3041.5422,1078.4718,6987.3984375
290,348.37302,-36.917763,-1171.0525,401.7051,2689.4412,-839.88214,5115.78662109375
291,728.9247,-307.6769,4117.4106,16.131788,-127.145935,-96.451805,4018.21801757813
292,1793.8175,736.67694,-411.57407,639.67456,-23.545448,139.27953,2222.00341796875
293,1848.3547,3012.9546,1082.8065,-191.00737,-175.95332,-445.62628,1905.77880859375
294,-541.7945,3684.5574,814.7674,-799.4417,34.967457,80.91123,3988.68798828125
295,952.6635,4728.459,1849.0951,-796.9646,-28.651304,1361.7766,4375.69482421875
296,-1996.9302,721.021,-1250.2352,-1692.5322,1573.0531,132.5245,4688.8701171875
297,-1120.9076,1189.735,761.34393,-833.4448,-282.51035,-264.84894,2658.28735351563
298,-1700.0171,410.3144,-1306.1008,-165.1823,-132.16283,491.4669,2153.19555664063
299,161.66612,4105.8154,1568.0732,1267.6436,-216.14284,-897.40076,4400.46728515625
300,-1111.181,-776.91406,-3052.1443,201.5302,-156.21393,-519.93555,2352.42919921875
301,3685.804,2023.646,15884.784,-1755.0685,-3070.2021,-770.0242,14531.0888671875
302,-176.80724,3143.1304,4827.0166,-3962.4834,-982.2641,-568.9741,8391.5078125
303,-1776.735,3433.4644,1416.1913,56.14367,477.6506,1037.5912,4962.748046875
304,-3148.4097,2615.1982,-6275.692,713.80743,202.97966,1382.7902,8271.154296875
305,1657.4714,-4542.29,5408.8794,3600.1096,-2060.1926,-4955.6875,14179.5625
306,2041.5721,-4342.991,174.55591,1585.8401,998.68304,129.41878,6550.9794921875
307,-2588.706,791.8401,-14834.986,2849.587,809.7668,-1967.6637,15515.83984375
308,-1441.6259,-236.99655,-3142.1047,3951.9158,812.4468,231.35205,7442.103515625
309,6824.0947,-10116.111,15765.472,2036.2621,253.41512,-1813.7078,23256.99609375
310,1121.5729,4956.4517,9047.825,6927.98,3905.5469,-6125.3022,18693.42578125
311,-1718.8845,-2623.0264,-531.2621,2158.7817,-683.16016,419.98035,4383.14794921875
312,-2603.971,-4885.4785,870.66095,1559.394,-833.172,-495.8672,5943.15185546875
313,1040.8392,-1422.9038,1122.7097,2808.5146,408.74176,-148.18198,5523.47607421875
314,2108.0369,-4830.9834,7743.1494,-200.75087,-675.4123,-542.5137,11017.216796875
315,1017.9646,-1822.9547,-2277.1873,801.3198,346.5769,638.3542,3616.1806640625
316,909.8069,-1321.4299,-2313.717,158.30502,-56.8833,-419.11768,2964.61572265625
317,1163.48,1417.6272,4455.7905,-2365.0674,-176.64966,3371.9885,7813.59912109375
318,-355.91174,-3853.9734,-2104.622,-333.32172,-967.1305,-922.7835,3856.32592773438
319,-997.01416,-2662.4287,-585.98254,-1681.6755,1019.7406,-1071.0819,4321.1630859375
320,-2138.5544,-6157.57,-798.2437,-598.4673,894.4986,-973.5732,5445.55322265625
321,-2338.887,227.34071,-2123.7275,-1722.8035,570.7617,1103.9043,4429.10205078125
322,-1561.8107,967.0909,-2038.2917,-1150.6124,-725.607,926.49133,3994.21508789063
323,-1999.4288,367.834,-589.2308,-157.92244,-367.72305,172.16728,2196.28930664063
324,1111.8947,84.14684,-1328.5773,1365.8274,-490.3399,-241.36343,3316.09741210938
325,1538.8191,1171.1274,169.58835,589.1451,-10.361395,-70.17285,1600.90771484375
326,1590.2203,-371.39877,-4420.9863,575.38904,572.9647,-97.51163,5495.22216796875
327,826.21136,1441.9027,191.59082,451.77673,-151.59761,-325.74988,1473.818359375
328,1875.9081,3347.6516,4434.7896,301.12344,-131.0656,315.9172,2360.26635742188
329,-870.40155,1360.8866,-4433.583,1046.3629,-242.43956,258.9086,5411.7880859375
330,2537.4856,2805.8052,1781.1533,-415.92664,482.42136,-297.86722,1526.53967285156
331,-4314.9634,-4880.512,-11817.824,1307.2273,1659.9651,-52.258503,8109.9140625
332,-4778.9844,-11533.133,6588.1704,-3563.507,-2377.8293,5214.3486,19703.615234375
333,702.4698,-6121.291,-86.20428,982.20886,1395.1858,2308.4685,8156.2802734375
334,-2760.7874,-2922.5166,-12314.258,1633.4802,-3639.812,-5419.3896,15020.2763671875
335,1870.0603,1122.8302,3361.1333,89.44592,-597.4146,-604.8743,2467.41967773438
336,-2699.709,-794.24976,1476.1077,1678.495,-199.64513,-390.57404,4705.3828125
337,2326.576,6407.7744,11128.125,-534.92596,-6250.6826,100.958145,13277.9775390625
338,-7239.3706,-956.47394,-13623.849,-4585.0073,-3857.5312,-781.1302,15162.0703125
339,814.0723,70.298645,-2347.3523,2038.9861,-759.04535,-213.69847,4747.02685546875
340,-485.28915,449.59775,-1402.0457,876.0406,366.90564,0.47053504,2297.3291015625
341,378.24118,-3255.3481,-943.2858,-1503.7114,57.041332,-166.0838,4125.95166015625
342,1361.7048,-948.6272,-2279.2947,709.3827,-299.05463,-277.26544,3491.58911132813
343,-1289.6637,-962.395,-4451.5503,946.6918,-219.90616,185.5543,3751.86083984375
344,-2030.0824,-781.8237,-3013.8477,-398.8524,-571.53235,-243.9133,2321.5546875
345,802.3545,1563.7048,-80.34326,1417.5486,-1.2889849,-502.58884,2969.33935546875
346,-4347.423,-2706.3933,1414.8824,1914.3474,373.17178,-831.45685,6318.77685546875
347,-239.29465,-1646.5283,777.05975,-2025.9031,193.89354,403.98706,4166.38720703125
348,-3700.8389,-1089.2936,-495.14484,2380.1519,-137.48457,159.02234,5084.5615234375
349,1374.0977,1212.3534,409.6866,359.13492,-148.0581,71.4049,1126.16833496094
350,-1500.4032,-1600.1078,7090.7515,3453.6687,2809.3901,-689.38666,11643.09765625
351,1352.6724,1121.0105,347.1494,396.67502,-100.890915,85.674545,1164.6513671875
352,1365.4296,434.00803,-984.5962,975.6204,95.69248,421.09076,2759.75219726563
353,-1710.2429,1381.0884,618.65765,3607.59,1124.7904,-493.8709,7166.03173828125
354,1886.2977,49.755447,909.23645,813.3531,24.384872,215.25136,2158.36401367188
355,2571.588,1980.2761,450.01575,178.24352,-172.87819,128.9668,1957.31384277344
356,-619.7335,1192.1738,516.2574,-942.8988,-1208.5734,339.23248,3147.94091796875
357,1383.4916,201.11404,34.31015,-90.626274,-96.038826,-46.964108,1296.91625976563
358,-3443.353,963.6185,1102.3898,-415.96844,-325.14444,-187.08105,4581.8623046875
359,-367.25992,1602.7067,109.57764,-606.3781,-59.67905,77.647896,2073.79931640625
360,-204.21423,-596.5691,-14.038545,-1.0966533,15.60485,-168.25629,591.937622070313
361,-535.9945,-299.15707,-1168.19,-705.5945,-208.21469,-69.051834,1497.81359863281
362,-19.14296,-2423.0554,-1313.0883,-97.38548,-25.43852,10.707363,2091.24267578125
363,677.9634,-2131.113,-158.91989,1147.8484,-193.90797,109.05569,3215.830078125
364,-340.3899,-2340.421,-687.9752,723.8638,169.41634,4.8035603,2254.74365234375
365,1198.0656,-1542.1655,1615.0952,502.97412,-219.11163,-106.191765,3124.47534179688
366,-296.17636,-138.72041,431.22852,257.7155,-118.09759,6.9154997,824.992370605469
367,-1018.7567,1648.9375,-839.28577,528.56525,-3.6640973,27.984865,2740.54028320313
368,-398.86356,-1548.747,359.23825,1495.9951,0.58066547,-65.20678,3081.46728515625
369,-1073.0979,-2518.293,-709.55884,-239.04654,112.873055,27.584585,1719.90344238281
370,-111.074875,-304.7757,-652.5055,-827.59595,432.1306,-110.07613,1696.20092773438
371,-1752.4629,495.63583,-945.7764,1194.8323,80.72076,397.10925,2943.923828125
372,-921.8346,31.687653,-64.40202,183.21132,43.81247,-149.7413,1000.26971435547
373,2794.8364,1749.483,-55.82564,-137.61716,-112.38634,172.98163,2534.47509765625
374,-2246.021,-4565.875,-740.828,-1305.7163,1901.2987,-956.88434,5463.10693359375
375,1377.4623,-637.0758,-772.53076,1238.7965,133.17545,-8.151399,3001.14111328125
376,1043.1185,-621.70276,508.24182,542.54803,-64.38201,137.41519,1766.1845703125
377,1147.1562,-244.67178,-604.4787,475.47546,139.65956,16.22168,1817.95776367188
378,1505.9904,123.83696,782.47125,422.0266,-404.8614,-133.66945,1585.39379882813
379,246.90495,1145.9187,1057.5979,660.97565,-140.30482,-195.982,1490.49462890625
380,-68.60685,-1173.2784,-107.33222,505.7119,-43.278866,-40.0966,1398.81958007813
381,-706.6278,485.39264,-1578.6329,855.4194,77.14843,-23.028492,2331.40014648438
382,78.47302,795.5999,83.26232,-598.7284,54.33408,98.625626,1274.48974609375
383,-858.8373,-5.342712,-818.15063,-925.7465,128.3793,-22.544405,1821.36511230469
384,32.573868,-802.571,339.36795,-583.655,-183.38216,-15.234901,1473.55017089844
385,507.81,-145.17854,458.8215,-683.2568,80.91492,202.17615,1392.69226074219
386,-1501.6561,1024.789,-499.51895,-874.74414,114.40802,47.403877,2682.70385742188
387,258.12766,-2188.6936,-906.39154,-463.90964,84.11712,37.15929,2272.59204101563
388,-166.4753,-1218.8038,2133.416,668.0147,-207.11015,-61.256477,3208.70825195313
389,488.87643,-2407.905,-80.403336,716.459,56.248215,83.48873,2938.82397460938
390,-386.49948,961.09674,-807.3789,-251.5196,-55.335316,-46.060402,1663.02978515625
391,-592.09814,-1314.6737,750.8818,144.93614,117.43212,82.60434,1849.587890625
392,61.466003,-368.02203,-244.83417,732.8835,23.56739,13.365968,1326.75708007813
393,1067.9513,1032.4009,1354.8531,-939.61456,-537.6336,-164.1583,1921.04028320313
394,2386.935,-1667.8247,1521.4404,-69.39973,-627.21533,179.52951,3869.3828125
395,1041.9172,-529.855,-76.32741,528.0316,170.60422,-77.617905,1704.45190429688
396,-1537.0823,373.0191,-561.5272,283.1808,81.92211,338.3439,1827.81945800781
397,-634.6313,690.659,-2064.9019,658.69354,55.198536,41.584324,2648.31103515625
398,-994.0072,1571.8807,2025.3524,258.47006,-159.34123,-332.77032,2926.05053710938
399,919.3514,-595.02673,552.1682,141.97809,38.302025,81.377174,1398.87512207031
400,796.551,494.0036,-211.49712,-176.47325,-73.37704,56.20452,960.089233398438
401,51.655556,-353.5737,272.71182,-130.62843,-39.71689,-31.89434,601.357238769531
402,-279.5478,-1327.866,893.163,-1467.6235,-193.98805,9.073366,3206.0087890625
403,-459.522,-1297.3871,854.398,-37.985813,-127.64157,105.543106,1901.55590820313
404,-325.65674,-616.1208,-553.3949,-520.96533,117.141464,-93.65354,975.591247558594
405,-166.39378,382.61975,-655.9779,-601.3613,-123.444565,-142.61916,1414.75769042969
406,260.9678,225.62599,-82.66508,393.19638,130.64359,9.84315,788.981689453125
407,1882.6444,523.5344,1792.7268,-1606.9852,741.4399,885.7089,3671.90698242188
408,552.41144,-332.94672,590.7816,-437.11978,140.24982,93.106575,1215.54113769531
409,-4257.543,-6613.6206,-579.89874,-2000.569,-1336.6248,-117.24086,6719.28173828125
410,-201.40738,-794.08887,-309.2206,805.71356,278.89233,-59.165096,1578.08862304688
411,-1264.7024,-849.2011,-403.6205,1004.7092,-108.35288,46.5227,1904.30004882813
412,963.09863,56.759617,-895.1457,427.1696,175.10852,-27.766598,1797.78942871094
413,579.27014,-621.15656,241.8435,626.63385,-158.20149,51.92002,1552.7412109375
414,-3049.4216,-2646.9485,-520.962,-135.67447,244.97513,228.25131,2434.95654296875
415,366.2739,-211.13884,99.178764,-290.74817,-134.73647,49.281654,752.244873046875
416,768.62036,77.46859,781.6708,-162.63089,-308.2159,38.206898,924.985290527344
417,-4047.9573,-2648.655,-319.1225,-475.29956,-2016.8888,-77.85819,4852.20849609375
418,292.07776,47.42495,-888.85254,-418.5337,77.58164,-47.668213,1309.9306640625
419,-596.45154,-16.49816,1128.514,1071.2883,-187.95718,-345.73062,2493.79248046875
420,-617.79913,285.0928,387.1704,-626.18994,-23.322096,-51.102818,1450.38146972656
421,288.23572,-256.1143,-118.41875,-103.38875,-97.18101,75.74621,563.857299804688
422,-1639.2639,155.07692,-766.8926,760.1079,-186.50607,-209.71146,2094.02514648438
423,1367.1544,-718.7388,-180.72786,-599.80707,-77.29053,41.01599,2149.5224609375
424,317.38538,243.27927,-101.851295,1162.0328,139.69817,-69.99051,2067.458984375
425,387.27942,827.3199,549.1666,-319.89133,43.205006,-35.500114,681.893188476563
426,-459.8707,-498.256,-583.63586,108.23496,161.88515,146.82321,436.436126708984
427,654.9094,-324.40775,-419.54584,-444.17477,-962.2773,105.70874,2112.96313476563
428,-208.74738,-2010.435,-802.0784,796.6481,169.30305,-88.03025,2131.2685546875
429,337.25876,543.9049,-547.17505,-66.04562,81.04597,57.561176,1024.90087890625
430,408.43106,-655.23834,-1232.9305,261.3012,310.6237,78.25039,1610.04968261719
431,57.233498,69.63808,128.37079,-504.17026,-3.2948377,-12.577954,876.014892578125
432,-785.8469,-797.2995,777.67737,-217.46588,211.82921,-21.928911,1655.46899414063
433,-619.38007,-4410.1187,-2681.2354,-527.1332,29.615395,-54.742256,3413.2421875
434,-501.00198,-345.7863,1089.8108,-30.00436,-147.11469,5.632799,1541.29248046875
435,1227.1051,-874.02026,-1002.08636,-1020.6563,59.383835,-256.07205,2834.20678710938
436,-1456.6758,1884.991,688.43427,1084.2954,57.830006,-4.382586,3483.84423828125
437,862.7559,879.8612,1443.9746,465.9817,-107.329254,13.8671665,1007.33221435547
438,-461.97644,-1695.0101,184.65622,-1796.0143,186.0818,144.9915,3546.79760742188
439,-337.97388,-754.95905,-78.90288,-36.863026,23.616344,-281.28406,769.503234863281
440,488.49762,-727.8326,70.02624,-360.62,100.90325,156.58273,1280.55346679688
441,-1860.1177,-2070.285,216.60931,-1804.458,-88.40444,113.02663,3824.0556640625
442,1024.2046,-1100.1191,348.71454,-536.3614,1079.2167,-3.1349359,2809.14306640625
443,-5537.5474,-3084.117,-284.5101,200.7291,309.35248,209.36208,4611.423828125
444,-645.7913,103.43302,-122.94641,860.65424,-156.99544,64.108444,1658.74206542969
445,378.1211,79.75734,58.93001,403.3779,87.30567,-16.750113,779.434753417969
446,-80.22988,-1253.7592,-188.60251,844.92194,-41.99758,-167.781,1868.99951171875
447,92.78132,251.22803,252.35783,59.172424,369.72476,34.25499,670.372436523438
448,1083.709,547.25867,638.3292,-488.20074,-80.41831,-154.34094,1026.20788574219
449,1914.3071,-480.54227,1011.693,551.8526,1.2216425,29.647757,2303.18383789063
450,-1168.3176,-1511.983,-867.3157,294.9838,18.633171,151.39882,801.875793457031
451,79.02978,-1303.8499,-703.799,-144.0948,611.39856,-227.31393,1667.73754882813
452,350.1292,-613.4067,-738.3546,-395.2499,-29.91631,119.49489,1256.42138671875
453,-294.3823,800.65155,-1327.8783,-343.43707,15.870015,-53.0132,1939.57739257813
454,249.66817,-880.68384,-1476.9191,164.00809,-81.31251,84.8857,1558.61975097656
455,-167.83488,660.95575,31.164871,-654.96436,66.87214,162.89906,1393.38598632813
456,-497.9175,-660.8912,150.19702,-693.95154,-156.52739,-109.69904,1451.3955078125
457,-1137.6025,-1718.7972,-2067.5457,381.25464,316.983,77.19858,1190.58068847656
458,-1600.9159,-1805.4972,3634.571,838.4184,-139.76285,45.888184,5540.48876953125
459,-135.18515,456.9352,289.4052,-1292.1682,-13.373306,21.151495,2300.09765625
460,693.397,628.71936,179.29614,437.74942,17.647717,96.26509,915.882629394531
461,-1090.0475,-198.065,-477.8019,924.7363,25.532146,-41.14332,1787.96264648438
462,-847.09344,5.0398984,373.87634,246.07133,-491.9836,136.45012,1462.91564941406
463,-475.21097,-835.17175,-605.2006,-17.900654,48.785507,83.80361,358.95458984375
464,-1608.498,-764.1665,-804.79016,949.89484,-1401.8441,196.63756,3065.72119140625
465,-334.20862,-647.9803,388.78378,-405.2436,15.195169,311.3626,1277.58557128906
466,-492.35904,785.4739,556.1021,1420.2832,-59.146942,282.15054,2773.6806640625
467,-1921.7874,-1619.1531,46.59943,453.5558,-205.00436,-58.21871,2030.71911621094
468,302.65424,431.00458,442.1024,180.00319,53.110283,-124.62641,412.652587890625
469,631.5054,4299.312,-54.32422,-911.135,257.80902,-304.82953,4405.3740234375
470,1165.3073,-706.89124,1080.4786,367.13205,285.98862,-152.20346,2018.10095214844
471,452.26007,133.58467,-467.9065,-359.58862,183.10329,-155.5123,1102.75598144531
472,-446.01947,590.1387,827.98627,1309.17,1308.7201,-411.26312,3487.70385742188
473,482.0447,-67.42488,-63.102108,-62.012318,-59.239418,-169.94005,638.955078125
474,631.77527,4016.7095,2067.9143,-1003.25714,-257.00424,-24.495586,3446.52978515625
475,3144.2925,3947.1714,-993.96796,932.5921,90.051834,-2.124531,4870.919921875
476,2506.28,-1318.8925,1284.4812,-1439.9742,-154.7381,-49.166775,4213.17041015625
477,2589.3591,-2351.2998,910.4069,-561.3309,-23.782967,-197.40158,4471.8828125
478,-666.22046,-230.25464,330.4189,119.160255,231.77098,261.69168,1076.12927246094
479,-2115.3298,-1290.7733,144.18648,288.03,-171.29597,-1.7213796,2063.765625
480,207.3141,-50.501625,479.60693,-10.979753,-131.99878,88.47193,535.656860351563
481,-3575.593,-2660.166,-338.80707,184.87943,-9.596823,113.69934,2914.3349609375
482,1057.6289,-45.90208,566.6775,-474.88647,478.40442,-90.481445,1518.14306640625
483,996.8452,-746.2473,-552.7192,-794.11884,-6.9681797,-114.830376,2161.033203125
484,458.43463,-274.92953,540.1428,-1101.6545,-127.91143,-45.1976,2073.77978515625
485,-3541.2776,-3740.8804,-370.8139,-1483.1626,56.14664,111.1191,4167.7724609375
486,-6457.3945,-2914.999,-2074.003,-19.666279,85.859344,-19.100327,4032.28857421875
487,88.292046,-301.4728,-551.92596,811.9503,13.6915455,121.64176,1528.07177734375
488,1036.3517,-1754.7968,1622.5939,299.49045,-98.07059,100.06276,3177.80639648438
489,745.1486,-2504.0957,254.08118,-65.49395,-83.75032,-223.65816,3063.84033203125
490,-211.61691,174.00905,-628.8073,-501.38782,150.73886,153.80382,1173.42980957031
491,-528.9394,-1015.9994,-1050.9056,492.509,-159.7466,-129.54013,1053.58508300781
492,2431.2478,-1303.7142,486.29404,273.09668,91.44185,33.262753,3274.23364257813
493,1455.5197,2055.1985,-369.79834,78.76875,10.910493,57.597847,2194.29443359375
494,-593.81946,-1101.2709,-26.204948,-341.3283,138.73482,-333.92517,1268.66271972656
495,1519.946,1557.1205,875.1743,992.81024,102.04825,182.42963,1878.61157226563
496,-1258.8081,-1957.0668,763.7959,1503.529,171.6767,-130.22476,3593.31127929688
497,-3063.2441,2983.7546,-712.7724,1417.2241,-251.7233,-260.81033,5856.3935546875
498,-958.9754,-257.70862,-2272.4797,736.8449,191.81815,170.37122,2228.10888671875
499,-3069.6335,1084.9319,1466.8558,1339.3959,250.57498,-86.38096,4958.39697265625
500,11.900497,1422.1658,1619.8448,479.22452,-161.43448,91.02723,1760.31665039063
501,-211.34702,311.5573,1797.3169,-1397.845,-139.83966,-125.49529,3037.37475585938
502,-1726.5487,-479.54254,2686.261,-2388.5195,-250.39708,480.7969,5789.7998046875
503,78.05642,1743.9037,483.97534,520.9475,-48.54348,-40.35721,1757.76354980469
504,-1151.5321,597.6827,-113.86318,231.72273,-31.659594,-126.640205,1591.73168945313
505,-89.27805,507.87906,850.5341,-49.59066,41.348957,-85.87091,844.545043945313
506,-1803.4703,591.9453,715.838,458.00452,-8.424571,-56.85489,2586.37866210938
507,-710.59393,1542.3131,663.43054,-693.44916,66.05432,-64.51101,2310.01586914063
508,-1177.4707,963.1213,476.21506,940.5655,214.77342,230.42613,2593.95556640625
509,-1461.2281,3241.6611,-1512.4128,-117.73836,38.45106,-147.97122,4740.486328125
510,325.15714,-47.05104,-738.65686,-382.01425,-183.21268,-30.045471,1189.74475097656
511,-4022.7686,-3218.895,-1507.9297,590.13574,-75.37471,227.96829,2483.2939453125
512,888.1388,-1320.832,-196.73558,45.013634,-120.44723,207.97229,1959.44055175781
513,222.46136,-559.78375,2629.3123,472.69778,-213.02972,-65.16177,3017.74731445313
514,1894.875,211.33932,2015.5056,-105.87904,-107.243126,133.39209,1781.41650390625
515,-203.84239,-1009.97284,-1020.62665,-6.622505,121.90185,-21.22139,839.411010742188
516,65.34978,1810.931,139.65396,356.8295,123.66993,148.59546,1848.5068359375
517,1000.9839,-1881.2689,-2256.797,-1088.1428,205.08968,-48.956924,3635.42456054688
518,-2544.683,-2197.1877,-603.33636,-1163.8799,-142.60721,182.63351,2727.6171875
519,-1247.263,-905.8737,-1592.5729,54.77058,-249.72775,-50.72922,746.647399902344
520,-3365.603,-854.7176,1234.1023,-1194.8082,-546.5679,-55.848015,4593.5576171875
521,-3822.3235,-2749.6018,120.51395,262.7892,-87.701866,-113.85439,3568.791015625
522,-817.56915,992.385,-568.39636,15.836005,-52.618927,-144.55666,1720.10998535156
523,-15.337902,1855.3079,104.03616,829.1922,50.79591,-234.43219,2350.64990234375
524,968.296,667.0733,2600.014,97.5759,-148.9718,-141.87474,1843.98352050781
525,119.74937,-726.05475,969.441,1967.1681,167.38196,-125.67348,3727.82983398438
526,40.29713,215.41672,-305.37582,934.0333,223.06607,-114.59204,1736.84045410156
527,-1760.8676,-2296.1091,-691.2797,-67.73977,81.07503,137.16115,1446.69079589844
528,-1881.811,-1049.0259,-1915.7589,3.8703415,-67.10362,18.340998,858.788452148438
529,-483.27005,1034.2202,-362.45486,-692.409,20.3094,54.198757,1892.71704101563
530,444.19568,643.6182,-12.430766,-634.494,143.27977,54.654243,1271.86291503906
531,-3404.7463,3825.5972,-421.32343,855.0997,-54.83897,-64.58466,6467.04150390625
532,-2363.9648,2462.8804,734.3279,2284.7717,-85.83667,-23.769678,5798.89794921875
533,1501.4015,3004.8264,3030.6597,656.39825,-209.0161,100.96823,1937.52807617188
534,1891.8547,1475.6212,874.5863,1846.6638,2.5907795,-63.525528,3320.73681640625
535,403.81815,4263.3276,910.58234,-1503.9689,70.80166,-64.240456,4473.248046875
536,-1736.7024,-51.101913,-1223.6283,2749.346,-75.3652,-11.948259,4993.37890625
537,-2947.6687,-1137.1053,-1361.121,2274.2893,150.98442,107.30468,4306.1396484375
538,5909.7607,-3082.8284,-3036.9114,2377.0928,375.76797,-79.86253,9891.931640625
539,-4071.3757,-1782.025,-789.5063,-1979.2039,3.1397414,-139.30708,4506.48828125
540,4769.9243,-2523.761,-420.26416,511.41638,153.72113,127.06657,6571.4736328125
541,2811.8496,-5825.212,664.46674,-2815.6619,-76.19802,26.145473,9190.556640625
542,5085.3506,-1508.886,-1048.4674,-3045.1514,-73.65132,-23.445923,8276.267578125
543,-179.43022,-835.97864,-408.56784,774.14996,18.923447,-92.844826,1469.00634765625
544,2768.4636,1105.217,725.6835,33.2004,43.206886,13.267716,1884.44372558594
545,3354.59,254.85577,192.3022,70.24141,-27.687963,63.09178,3136.11376953125
546,-2901.2808,-911.032,-364.71957,-762.1534,351.22903,42.56787,2732.21508789063
547,954.50995,2100.8267,1020.9,-85.87482,29.098677,22.235083,1126.27368164063
548,-4387.321,-4202.4014,-2476.128,-315.02133,176.20934,-16.091223,1930.04602050781
549,973.90594,3643.7358,570.499,-1606.1266,-121.540405,51.439262,4019.81811523438
550,1548.6399,2523.5996,668.2275,-1550.3525,223.9169,21.582512,3153.828125
551,3040.679,816.094,1950.7349,-1918.2776,-205.39938,149.57263,3865.8935546875
552,2613.828,2933.9368,510.88135,354.58615,189.28215,-14.078765,2383.966796875
553,2586.9404,1929.331,571.04816,-177.0607,-31.323654,-141.95314,1824.29406738281
554,-1574.3539,-5715.1475,-720.46173,-1131.4277,-46.13219,5.4752874,5025.72900390625
555,-1439.0897,-3639.3118,-1094.646,-1030.7173,83.941284,64.02245,2989.65576171875
556,1186.3372,-1866.5828,148.53648,-605.4047,-297.23367,-224.57835,2957.181640625
557,1260.3254,-1547.8103,-628.8789,965.86926,108.578125,-8.559993,2997.31127929688
558,2542.6025,14.04088,287.0193,1917.0104,-30.589966,-54.027878,4100.51806640625
559,-1141.3806,1275.0793,560.7636,501.49924,-214.6668,-91.74688,2354.0205078125
560,87.85682,-1067.8936,-555.56665,102.129845,-66.49738,87.936455,1036.27770996094
561,1742.9734,-975.21405,-446.47678,-1011.8506,-21.560986,69.71111,3052.60498046875
562,1367.7963,-1712.6644,357.50507,-1126.4692,-60.40159,27.01699,3349.283203125
563,978.61487,2180.1748,-650.76904,4106.543,204.84016,-457.768,7576.4150390625
564,-1542.5881,1134.496,-378.23996,1782.499,229.00594,201.89973,3900.89184570313
565,-933.0117,5088.4575,242.29103,-1752.0256,-132.64668,-109.715096,6313.482421875
566,1540.1854,1919.5083,430.61917,-2049.6619,-170.64824,498.73773,3902.92578125
567,-758.2101,-199.10509,-900.361,-366.77274,70.35567,140.49384,943.352844238281
568,-1.5031435,852.5491,257.43628,316.80728,-155.21548,-20.377642,974.642944335938
569,113.753815,467.90656,-36.046528,147.54465,-22.971903,-9.564687,517.766723632813
570,545.53076,-215.06876,143.52638,-87.92299,76.70263,-149.70341,736.498046875
571,-629.1031,-886.2651,151.95613,22.117865,413.81006,75.96286,1187.240234375
572,-952.3526,-955.85767,629.03735,45.356396,-11.883179,188.6058,1618.53674316406
573,-1267.9402,-2346.739,-4028.6658,604.484,81.88834,-96.2734,2636.5263671875
