Element Label,S11,S22,S33,S12,S13,S23,Mises
1,14391.754,5172.7515,6518.4087,-1078.7278,7394.0977,-5305.808,18065.408203125
2,13664.429,11729.879,62.873047,4135.357,-660.5808,6230.5454,18207.2421875
3,22779.664,11728.303,2888.0537,-2204.0322,-358.31293,-4291.332,19188.1328125
4,6345.048,7152.887,-8372.594,602.26544,-2017.081,-1181.916,15704.64453125
5,3019.7134,11061.428,-4287.3794,-1733.9579,1482.611,5221.486,16559.90234375
6,13561.229,12004.2705,-637.375,4244.2593,-1757.808,-2117.4343,16083.509765625
7,11330.795,1239.1926,-3093.0508,5561.2524,3485.4355,3257.3743,18038.482421875
8,12890.631,468.81836,-2416.603,5324.1978,5534.7935,-2910.0518,20020.427734375
9,8796.981,5511.3447,6707.0674,-7181.23,6317.6,4761.9507,18728.890625
10,10316.57,24731.227,40740.42,5168.3086,-2627.7158,-5881.4014,29991.0859375
11,10234.548,11861.361,-2322.5566,2555.5225,-2891.8232,-897.31256,15094.732421875
12,19082.914,2172.544,7117.9375,6678.1772,-2938.7524,1621.9181,19859.1015625
13,21163.326,-3934.7595,-6666.915,534.35895,-1239.3522,2348.4214,26980.73828125
14,17554.562,11885.709,34612.2,8947.3545,-1025.4178,-8020.2944,29259.0390625
15,-53947.363,-53968.734,-56729.277,-788.96106,734.8405,2221.514,5096.3486328125
16,16376.525,12843.596,21949.455,3278.9932,5116.1533,21395.77,39336.30859375
17,-2272.2024,10862.885,-1397.4829,4960.4385,-3584.1428,-3538.2468,17655.587890625
18,119353.68,118766.41,118544.664,-85.402855,178.9974,997.92975,1905.22326660156
19,15607.744,8096.7583,-6655.7935,17224.04,4489.6895,-1604.4684,36647.734375
20,9892.043,671.4499,-12777.176,-2860.8914,-13868.02,1687.5773,31622.03125
21,-3188.174,1782.618,-1146.0812,-842.143,2200.887,10032.014,18366.037109375
22,-92653.98,-88520.09,-114741.98,-2443.2754,-3715.3374,-8978.074,29956.892578125
23,-4005.8025,-156.42574,-8903.305,9722.678,-14907.595,1908.9163,31920.025390625
24,9915.586,12976.111,13448.808,6534.959,-19335.59,4546.1733,36369.66015625
25,-2571.1218,-2857.1921,-32749.95,-1195.6602,3220.2727,10943.255,36012.13671875
26,-119.86168,5434.637,20676.717,7323.822,-17513.1,243.76102,37802.84375
27,10793.326,1029.2288,-13616.442,-6609.1694,-3211.7668,-975.76416,24853.19140625
28,16877.861,1335.5255,9807.695,6988.4233,-10780.306,2862.5522,26484.076171875
29,11761.798,10633.509,-3920.6865,-856.66003,-11450.339,-7771.307,28394.20703125
30,14401.22,23815.012,27880.883,-10800.796,-10746.313,-861.3787,29018.5
31,10334.625,14691.767,-5860.7915,3188.7778,-15.171349,9229.539,25256.6953125
32,11322.26,12885.1,23106.19,109.590096,-15005.977,4475.3545,29300.98046875
33,18151.021,31534.277,33891.203,457.27393,-11047.344,4185.216,25209.45703125
34,16754.72,14590.039,17447.29,-2063.7788,-19618.725,3038.5718,34667.3359375
35,3558.5913,-8.242798,811.7372,2305.179,-22887.34,-769.56024,39995.98828125
36,28211.438,41391.47,48519.516,851.6532,-12844.925,2218.8018,28816.517578125
37,8041.291,-3171.0913,-13705.809,2269.4363,467.43115,-11030.269,27127.919921875
38,6232.1772,6320.637,14184.819,-3197.6282,-19008.861,-3673.2292,34895.7265625
39,17896.342,-2970.1172,-829.626,2722.634,-10242.23,3274.9656,27648.69921875
40,10535.4795,-3591.1443,-12782.559,6317.3555,-5317.4097,-2382.1348,25208.37890625
41,-4232.7324,-93.69168,3320.3518,7809.2983,-11545.49,5105.0996,26532.146484375
42,1478.3242,-8810.388,-5030.3013,5798.2964,-9168.6045,9326.156,26367.33984375
43,17382.863,-1133.5238,11670.414,7054.9907,-6451.5757,-2779.7346,23813.498046875
44,-1765.8042,-2065.14,14473.433,-4274.8525,-7236.8896,5376.0776,23818.2890625
45,366547.88,365104.12,365314.1,254.1948,812.56366,-35.821495,2000.95788574219
46,-7173130.0,-7172743.5,-7173707.0,108.17699,-949.2346,432.05484,2000.89526367188
47,107559.5,107274.23,106923.64,-785.49615,-254.12186,-543.7465,1798.89721679688
48,-55623.094,-61146.11,-67198.17,-494.52783,9075.439,-68.465614,18665.3515625
49,20001.617,-16934.984,1641.2985,-9357.734,3719.5325,867.4548,36465.1875
50,-183189.53,-168700.06,-171688.14,6186.657,8090.238,-58.289715,22062.81640625
51,-190978.83,-190180.78,-191805.42,1830.8796,2421.8499,904.8979,5664.69287109375
52,-9466.434,-939.0244,-30691.184,2688.4827,5543.996,-12092.108,35450.63671875
53,35250.51,19030.17,42354.69,-7709.787,6356.061,-13987.464,36266.64453125
54,12033.452,-10178.595,-15936.046,-9288.923,1417.9972,-10593.267,35439.3046875
55,1696.227,14732.932,-12136.043,-2602.514,2562.8218,-8627.63,28371.5703125
56,5954.1196,5619.728,21245.477,-4765.1484,4539.7676,-18155.143,36848.69921875
57,18146.092,19027.104,13196.722,-4314.65,-1961.2906,-19500.967,35183.5859375
58,30224.904,35350.145,28954.348,-7279.8335,6519.1064,-17281.467,34883.02734375
59,41286.008,51939.555,47802.258,-1237.8223,4132.26,-12055.058,24048.595703125
60,-3722.5378,-938.5089,11935.108,4205.3916,8126.1074,4221.355,22670.193359375
61,-9746.818,3375.8416,-12320.033,-2188.277,11512.711,3046.1272,25542.572265625
62,1355.5009,-5452.1943,-8515.209,-3197.027,-8385.397,9079.984,23780.765625
63,421.90817,15755.937,17814.834,-6707.7476,16216.308,5768.086,35981.14453125
64,6552.3774,5140.985,4502.082,-7457.9873,15649.182,11765.285,36333.5
65,28334.719,29732.988,25825.002,1566.7072,11841.865,-5487.183,23024.849609375
66,-656.7298,3623.0908,-14783.788,-2998.7935,17914.143,4751.991,36548.92578125
67,33586.742,33007.81,37833.72,1474.7616,18852.47,7048.163,35250.98828125
68,50227.273,46474.594,57749.734,7596.5527,16970.031,-109.521515,33704.66015625
69,10480.135,893.8613,-13709.43,11950.699,11847.005,-2363.8938,36213.53515625
70,23546.275,30038.758,37954.92,4504.1494,19688.438,472.90158,37157.1015625
71,11890.366,12320.496,18611.396,-1099.1165,17175.795,7133.293,32920.6015625
72,17329.43,16781.113,26983.547,-583.28156,13348.343,8284.7,28987.244140625
73,-863.041,17269.402,-4523.3384,4979.4707,32.41323,8056.7827,26032.232421875
74,-2532.3735,2857.2773,-7534.517,9304.57,-7369.1606,16470.498,36297.38671875
75,-11592.477,-10886.48,-11294.97,313.22052,1144.8462,12409.495,21600.693359375
76,425.36755,22560.951,19036.135,1962.9707,13597.142,10151.274,36051.8515625
77,-5246.347,-18837.62,16435.242,-7961.5703,-6594.893,-5422.237,36855.58203125
78,8995.41,6675.5986,12056.731,-11245.669,5800.8574,3394.0938,23168.072265625
79,-61143.35,-54809.547,-61076.105,-53.730145,1187.6984,1370.3096,7040.55859375
80,-3288.3982,-6778.132,11421.012,-11497.143,-4281.4736,-4075.6252,27950.9375
81,33857.402,14544.0205,39847.117,-6897.5293,-1255.3502,-4459.439,27049.58984375
82,65679.3,67626.336,66412.64,2598.271,267.55515,347.2379,4871.38818359375
83,-9267.782,-8106.5264,-1921.6356,2229.7742,1790.014,1836.2367,9023.693359375
84,22574.617,4726.559,23853.662,4942.803,-4287.899,18087.902,38118.05859375
85,19159.715,14836.563,33510.484,-4463.3057,-8561.16,15001.748,35234.58203125
86,2007.3802,15596.893,-24482.557,5347.2856,-379.129,-3728.3264,37071.4140625
87,10978.4795,19209.389,-14423.749,5501.502,-6188.239,-647.7516,33601.27734375
88,8062.1074,20468.096,-2234.2783,4856.7153,5846.5137,-5346.8916,25431.0234375
89,8556.54,13635.602,23914.771,6262.2954,7389.8115,17525.75,37237.0703125
90,-3175.4272,1963.7812,-17851.865,-5652.502,-2947.2788,2173.439,21291.259765625
91,5153.883,12142.694,-19192.514,4183.194,1048.4165,-1335.9043,29544.740234375
92,-737.4325,11752.502,-7636.3633,12029.286,-11292.138,6657.2725,35204.64453125
93,-1444.6743,24705.736,-9607.947,-1841.0994,1773.2926,13460.343,39078.140625
94,-4486.1113,6335.3125,-2545.965,-915.227,-5942.657,3383.9053,15578.2900390625
95,3942.0017,2669.4045,-16489.488,1166.8458,-8833.73,-9107.891,29666.71875
96,-6836.115,-2162.918,-14812.013,4290.381,244.27289,-4969.8936,15881.6650390625
97,13447.735,24843.662,25324.725,1742.0729,-16174.707,3757.5483,31175.408203125
98,5197.4243,11912.191,-16919.248,5702.361,-7884.246,-5212.5283,32377.30078125
99,14260.333,34865.805,11111.144,-10672.914,11582.935,-4073.474,35963.86328125
100,11970.1045,6754.8896,29629.41,-8554.374,-6315.715,-10151.67,32855.9375
101,23964.463,111.946945,2377.664,-6157.3623,3846.1711,-10360.442,31625.427734375
102,15292.807,13620.261,29643.31,9914.117,-13357.596,9882.436,36822.12890625
103,25457.809,14405.213,16786.537,-2255.1602,-9531.628,3398.6887,20590.703125
104,10371.267,-6260.8477,-7830.6333,-8590.388,-10047.833,-12676.114,36214.81640625
105,9030.143,5194.6406,8492.34,4868.759,-14118.491,3768.1548,26919.21875
106,7081.016,-2505.3716,-10716.772,-1644.7681,-5886.1396,-2731.5369,19299.822265625
107,-3375.5144,11913.862,9617.948,6762.8804,-17816.764,-3211.5217,36392.24609375
108,26498.84,-6290.4995,652.3845,1260.7566,-5844.01,-11389.573,37310.65234375
109,18707.895,28868.873,21999.389,12784.532,-12162.664,-6128.9155,33577.515625
110,-7435.111,-13425.213,-12859.906,3479.58,-490.97845,6066.4243,13426.271484375
111,19948.645,9020.822,7681.062,5865.5977,-1901.9666,-5651.2725,18593.861328125
112,6939.433,19244.16,14518.574,-6469.4263,4228.753,11121.067,25803.7265625
113,166.4246,-5347.8545,-9944.854,-4792.4126,6567.0674,8037.797,21656.1328125
114,15043.062,6731.6416,-17792.129,3025.5952,12022.851,7674.853,38886.26953125
115,16504.412,11416.255,14065.647,-2992.9976,13831.862,5893.2505,26915.6953125
116,2920.788,-1461.3992,-557.52985,-5878.0845,-2973.6619,-10251.069,21482.46875
117,26097.545,31044.85,38204.734,-8496.018,547.7683,-791.4318,18179.33203125
118,18584.895,-1954.4861,23314.541,13343.766,1244.2915,342.27228,32871.6328125
119,14755.725,14886.043,14415.09,87.93332,49.477345,1124.0186,1999.54992675781
120,17322.598,5476.4243,8804.809,4512.3193,-11227.754,2611.8022,23910.58984375
121,15445.397,28372.082,33112.535,-3498.858,-9689.36,894.3543,23908.705078125
122,45519.69,25486.236,28289.996,-3084.4434,-17157.447,4699.767,36482.46484375
123,-4850.003,-8707.6875,1370.5223,-16797.969,3763.689,6016.979,32790.1953125
124,13272.085,7529.724,-6578.642,-14950.061,11850.503,8062.6406,39998.3828125
125,-13147.764,3476.826,-28794.111,-2297.475,438.42523,-5044.4985,29564.37109375
126,9124.114,14203.789,12205.195,-149.05682,-10995.686,15393.497,33065.18359375
127,-1599.4751,14191.262,-23794.23,8093.265,-164.31941,-7672.757,38283.4609375
128,-1540.3594,-1925.8499,-6754.2324,-3149.056,8387.532,20734.23,39444.26171875
129,4985.358,2359.6177,-4521.988,2658.4626,-5086.1865,21562.531,39572.1953125
130,-8872.254,11403.316,-26682.643,9523.115,5310.351,6266.2373,39546.0546875
131,4250.5854,17608.0,-10349.756,-3468.2114,-4355.533,7890.5464,29434.552734375
132,9352.0205,14329.956,15035.87,5102.8022,-6509.365,-9718.982,22746.412109375
133,966.68945,11776.344,11697.275,1780.4423,2939.275,-1873.0531,12726.0791015625
134,615285.2,615323.75,614712.4,-834.5026,-421.43823,-243.72707,1775.36279296875
135,-8816400.0,-8816284.0,-8816696.0,-255.17107,581.4865,941.4596,2001.04052734375
136,131735.45,130916.89,129944.85,-1808.5581,1897.7379,1176.2368,5213.25732421875
137,-4258.5444,-30458.893,-3995.6467,-5817.41,6849.961,-10423.814,35520.07421875
138,10120.143,-13669.799,-595.63513,-3106.7073,3245.569,-5481.1846,24011.408203125
139,-1080.7715,33406.848,10266.158,2113.559,11751.176,-518.4912,36814.37890625
140,-2187.7654,6707.9355,-24016.348,-2698.4695,-5626.7734,4770.1777,30576.0
141,16041.295,18145.697,23324.934,-9125.806,12595.212,3429.5017,28340.70703125
142,8812.464,16511.932,23265.652,2183.7644,19559.13,-2833.3364,36646.46484375
143,-3195.8096,-1062.5996,-25105.994,3169.7344,-2447.8052,753.96533,24107.427734375
144,28836.328,36410.39,32301.773,-472.11194,19679.268,5701.976,36099.2421875
145,13066.432,18275.607,27188.604,-1933.7461,19762.895,1101.2078,36600.25
146,1745.5825,-25420.418,-5855.5986,-2008.3153,-2972.9016,15214.395,36363.76953125
147,25775.459,10389.782,10916.877,-8240.124,13349.273,11167.754,36624.46484375
148,3624.4292,21591.662,-16185.008,-4676.921,109.62194,-7358.3604,36045.1015625
149,32642.623,46337.18,41827.1,-7832.8926,1157.927,-16743.42,34281.62109375
150,13206.897,22674.07,-9167.452,-6296.0796,-11646.757,-4584.7563,37295.890625
151,30125.527,31019.943,26033.143,-4235.202,8775.001,-18828.578,37007.65625
152,12977.07,26265.91,28851.025,1415.7867,-16845.027,-7970.5044,35573.78515625
153,27185.412,42663.63,51680.188,-721.0676,-13267.648,-364.19458,31471.939453125
154,24100.9,37974.746,50116.383,7073.2876,-9523.346,-5739.0767,32083.353515625
155,15318.011,27455.523,29648.35,-3494.0974,-7713.104,4202.3936,21138.248046875
156,-2954.012,-4365.313,9892.203,7497.1006,-4337.424,-1419.9211,20402.3203125
157,13842.103,14431.093,21216.363,4358.302,-16240.887,4762.649,31092.044921875
158,25370.703,7250.194,3472.3674,-3676.328,-11838.507,-5538.291,31049.89453125
159,8626.877,9141.6045,8480.182,7968.644,-17609.695,-7977.3984,36222.65234375
160,8225.326,17781.732,1934.0758,-521.53033,188.81354,17507.527,33339.015625
161,23185.367,6590.2114,19355.555,1985.8704,-5833.8745,17272.555,35149.2109375
162,-1695.3234,13242.777,-13680.709,2404.9312,16000.173,7254.487,38588.671875
163,-1198.8867,9689.205,-6480.523,2388.5078,-10613.186,5520.5303,25503.25390625
164,-3684.2183,7571.988,-27379.56,1731.298,-1801.0948,-1751.0859,31349.865234375
165,10234.228,13403.683,-13362.605,-3336.595,-3095.899,-3350.2732,27156.408203125
166,28404.902,25813.908,34434.914,-873.3223,2083.588,-15235.436,27755.4609375
167,6317.3667,6663.7554,9191.119,664.81683,-5143.3057,-9366.433,18741.9296875
168,18273.557,8102.8745,13686.083,-8948.674,7538.036,702.1957,22136.201171875
169,10396.66,7973.058,-18325.48,1055.9169,-3590.0906,8030.911,31570.90234375
170,13282.396,30157.314,23155.04,-150.67485,-6430.144,16763.002,34390.9140625
171,19910.295,9605.447,9040.243,1713.425,-834.309,9914.574,20448.12109375
172,19624.771,3170.401,24310.385,-14066.445,-3560.0996,-2473.8376,31933.951171875
173,23473.41,10916.6045,-4682.0723,-976.60675,-13377.743,-2340.307,33956.53125
174,5557.4146,-930.21924,-27097.287,3704.9963,-6367.4033,-1311.6085,32627.296875
175,14235.534,2890.9333,2801.2402,7923.878,726.26935,1485.167,18063.4609375
176,-13008.287,-17488.332,-48201.973,4045.1309,6542.8486,8859.102,38909.69140625
177,8827.918,-5289.914,-29677.795,6330.298,-297.72626,8355.381,38318.49609375
178,14618.529,13395.796,22626.521,-1774.987,-6486.516,-13634.023,27726.357421875
179,18115.309,14853.331,38953.496,-12477.477,1402.74,6442.4023,33321.51171875
180,-13690.895,-21829.852,-14010.501,-6806.125,3171.6282,4564.485,17187.05078125
181,4957.8457,12637.755,2997.1187,7786.3394,1007.0004,-3258.5068,17165.681640625
182,3678.635,17811.129,-24903.352,-3292.0786,3826.0715,3712.3972,39222.03125
183,12152.694,4543.9746,-1676.403,-1972.9713,-14482.548,936.32715,28061.634765625
184,18509.658,1623.312,-14638.406,4181.1357,-2469.6917,639.4519,29935.994140625
185,21041.654,12723.949,6461.0435,4529.537,-3117.6707,15896.629,31769.787109375
186,14961.1875,3317.2742,-12924.043,5448.147,4040.3574,5765.8486,28744.19921875
187,21726.473,17138.422,23227.455,3121.1548,2167.1768,2217.4182,9394.4326171875
188,11661.56,3185.5298,-3131.099,-2520.749,-2839.6094,357.33267,14454.015625
189,515.117,-4116.7876,-7612.191,-3523.3572,2647.213,-5410.206,13997.82421875
190,14395.009,-15682.121,-11028.522,2169.3342,2327.2876,-3803.238,29327.181640625
191,561405.8,562408.5,561871.44,-544.3681,-759.8864,453.81348,1998.61059570313
192,-1284.2933,296.66367,-13762.881,14825.834,-7784.525,-12360.517,38438.29296875
193,11053.73,19363.498,-12547.101,12577.255,7729.3193,6141.0737,39863.47265625
194,10917.732,10661.855,-1972.6099,2297.5547,-5377.1206,-1849.2041,16606.12109375
195,8323.245,1418.01,-9604.666,11052.616,1257.3909,-17960.234,39802.38671875
196,16527.664,5615.4614,-3417.1943,6165.719,-12125.249,4825.3423,30400.59765625
197,15017.467,13883.48,-3494.624,6769.5054,-7844.275,-683.06647,25425.720703125
198,25933.398,15397.648,-7384.186,4929.7124,-5751.7554,-462.65765,32292.9453125
199,18082.498,8501.127,-11428.242,794.22455,-7769.1704,-617.50037,29394.716796875
200,21401.008,5070.374,14220.197,4487.886,536.80133,-4529.789,17995.310546875
201,20558.986,16462.88,1349.5469,-582.88245,1320.095,3366.7844,18637.318359375
202,25613.09,-1744.6318,-13928.791,-236.27812,686.89343,-11175.038,40080.62890625
203,12397.645,6553.0195,-23743.34,7027.5967,-9708.031,2701.0237,39772.92578125
204,13414.792,6582.133,-7408.4614,294.12613,-7599.072,-5912.591,24827.16796875
205,18828.262,6400.708,-3353.9438,4998.109,-10806.807,996.381,28268.47265625
206,14038.417,10877.481,-6035.6895,3172.8816,-15988.91,-4453.121,34729.4765625
207,9944.906,-2112.0173,-7924.501,6851.6323,-17541.846,3629.2783,36779.52734375
208,12088.953,5807.997,-15875.304,7131.79,-3217.4045,11793.296,35308.578125
209,-4793.66,10827.267,-6148.9756,3787.0647,-15214.04,10856.203,36851.31640625
210,16370.846,5267.9727,-10137.716,1661.0995,3944.7947,6572.878,26762.41015625
211,-4815.5054,10390.793,8611.287,-498.2624,-17140.014,10962.15,38077.94140625
212,4830.1826,1406.0275,-2983.233,-2469.262,-12271.159,-8115.4517,26713.9921875
213,19858.01,8768.123,-12398.167,777.4561,9445.415,-7379.924,35193.46484375
214,-5402.023,-10771.266,-9921.232,-12.525253,-2865.502,15855.515,28351.59765625
215,-4249.4653,15088.505,11242.978,-4537.386,-4007.5632,-1927.8893,20868.0625
216,9680.459,9222.914,-1579.357,4788.4736,-10395.771,2881.6072,23232.662109375
217,-11885.777,1722.9628,-6626.4263,-7066.9756,5068.3936,1496.1603,19362.158203125
218,17983.996,37014.426,34668.37,-9581.751,2210.554,14381.89,35122.93359375
219,-2920.0938,2963.9602,-35712.992,5322.741,-4503.3394,-4435.0493,38830.34375
220,7181.796,-933.6949,-27469.857,-5643.0757,-5745.4688,11984.7705,40135.4140625
221,15938.256,12063.618,11469.834,2861.8718,-174.29384,13488.717,24252.10546875
222,12156.143,18683.486,17067.73,683.50616,-338.0574,18667.125,32890.71875
223,660.4553,8881.658,-479.39136,209.1469,-6874.7983,21047.91,39360.15234375
224,-7914.5317,15842.592,-24000.213,1435.8661,291.75067,-11267.239,39907.29296875
225,861.4282,15012.292,-741.0029,-1316.999,9408.856,18999.42,39739.2421875
226,20906.889,12167.099,12889.034,-641.2668,2134.642,19760.951,35453.98046875
227,18482.115,6928.8867,11870.861,-2080.5159,-2460.0166,18159.127,33484.42578125
228,5050.8354,22767.9,-13897.096,-2191.4163,-8453.676,-3160.186,35600.30078125
229,23720.66,17670.76,27982.322,6934.3096,-5283.93,16682.97,33816.03125
230,26130.252,36592.16,44189.277,2428.5073,1066.8724,16747.018,33303.8046875
231,-5050.18,-5773.226,-3431.8105,-7474.273,3335.509,1587.739,14589.240234375
232,11032.32,8182.4297,13236.794,-1381.4805,2208.4983,8382.749,15825.0869140625
233,-12720.466,-10620.936,-1193.5397,1701.1483,2509.8025,7973.6743,18204.2421875
234,7844.0337,8534.705,-5708.883,-953.9738,-4609.5693,1417.75,16310.236328125
235,14381.83,-3964.6277,-1396.816,-30.822554,5023.752,-4583.8,20852.5
236,13427.377,-6018.6025,-10950.249,-5378.3203,1663.0645,-2846.4854,24854.611328125
237,8674.213,1815.1256,-11457.922,7348.026,4978.26,-1614.8209,23630.794921875
238,952.7061,-9208.287,-27162.262,-1285.4703,4294.904,208.04733,25854.341796875
239,13785.606,17659.135,-5051.237,-9495.711,5168.815,2586.1,28522.1875
240,3002.2883,14891.92,-20149.686,4628.025,9233.411,-3377.4827,36150.953125
241,16210.717,10661.475,-74.53516,-3816.9062,3045.0203,-2453.2397,17181.6953125
242,21935.236,8130.747,-5428.035,-9617.996,2629.251,-10667.97,34659.05078125
243,20211.582,11819.957,-16160.435,-7384.4746,-131.02762,-4900.8706,36384.35546875
244,16113.43,2786.0986,3876.1516,-6042.7246,2955.4548,-9157.659,23486.47265625
245,17968.143,9384.821,-11594.516,-9030.668,4910.24,-13167.875,39128.6015625
246,8207.638,-188.57791,-27297.143,-10256.242,1603.4688,-7980.612,39336.18359375
247,15132.381,-2459.7441,-24916.48,-3091.7715,3423.5383,295.96713,35678.4453125
248,2070.545,4020.8337,-25024.193,-10662.442,6255.648,3824.3787,35959.85546875
249,17893.143,1798.2422,-2717.4756,-10921.525,1601.4603,-7733.7466,29951.34765625
250,3440.5735,-19360.004,9937.682,-13321.174,5136.1787,-4435.6743,37158.3671875
251,-6089.0913,-26978.764,37.89359,-14973.012,-4358.4785,-4983.432,37496.3359375
252,32828.316,23374.217,43182.598,-1883.4209,10068.916,13810.891,34372.875
253,54093.027,43093.11,51725.2,-10460.764,-13244.106,-1465.7405,31008.158203125
254,44470.324,48129.547,38852.375,-15917.108,2791.7434,-4558.085,30187.4375
255,88646.24,78756.58,90530.81,-9850.25,-3601.5967,-5182.324,23033.91015625
256,351785.6,350253.34,352439.12,-239.31134,106.032715,-25.524538,1995.93579101563
257,134108.89,124349.54,150864.55,8247.487,4196.7144,-3218.7832,28766.359375
258,409696.88,411225.16,410340.75,-666.7379,528.22644,149.52336,2000.98876953125
259,414229.03,414195.56,415352.44,391.48376,-709.2212,-122.54937,1820.59838867188
260,-759551.94,-759185.75,-760580.4,-356.17578,90.173256,-720.4107,1878.91723632813
261,66840.7,78841.56,73708.94,491.9038,4603.9365,-9539.633,21121.005859375
262,-88207.25,-80050.586,-102003.484,-4195.4326,7768.2783,-4976.836,26029.763671875
263,-92889.85,-126737.984,-111172.02,-8692.938,2518.3394,4118.4185,34025.40625
264,9709.539,13039.661,-15302.705,-13357.205,4287.6357,-2551.9763,36468.203125
265,32876.594,-7360.994,25000.72,1827.1455,720.23175,5427.5776,38264.0078125
266,16281.108,-21000.195,-18676.762,-8153.179,2319.9998,300.5391,39045.03125
267,7283.4395,367.83887,33815.21,12526.516,-1968.7977,7200.2437,39662.87109375
268,8977.432,-17615.89,23052.836,7653.393,408.29956,6651.0337,39856.81640625
269,-22639.504,-6725.4907,-47334.73,-8733.241,4811.3833,-1275.1344,39487.2734375
270,5315.7637,642.24805,37989.156,5665.884,-2768.697,6437.5005,38545.0390625
271,-11405.918,8696.791,-34615.66,-5937.6787,3580.4395,933.52875,39449.08984375
272,-6010.7046,8270.301,-34277.57,-6947.5913,4247.7534,1.4763849,40069.68359375
273,3251.1697,22952.203,-6261.41,-9276.401,8069.899,-6656.2466,35390.23828125
274,7626.0117,20063.594,5567.77,-5935.993,4456.992,-14165.346,30851.302734375
275,2181.767,18785.559,1201.4344,-2737.298,5230.848,-14171.367,31622.31640625
276,-1499.0024,884.6933,-26594.21,-9511.266,7246.437,-4380.955,34376.94140625
277,-49641.836,-14737.051,-39908.84,-2793.9373,-6140.776,-3426.4443,33839.5390625
278,16397.266,1172.0122,-7085.9014,8308.968,-9425.587,-6224.0845,31868.322265625
279,18006.822,20102.143,1839.4932,6459.1396,-5497.177,2458.6428,23099.822265625
280,6129.0244,-3262.123,27630.453,14296.119,-1484.7065,7681.487,39359.80078125
281,7115.6562,23228.8,-14442.576,-10303.011,-3869.3823,-3360.7354,38327.76953125
282,20150.197,7633.785,7316.8057,8842.576,551.7412,-5474.901,22048.556640625
283,7438.172,-2079.2817,-9052.505,3202.1482,2040.4308,-5498.351,18426.123046875
284,-23116.404,-16934.445,-20298.318,-13617.013,6392.3857,1096.5753,26668.357421875
285,-1855.8086,17929.033,-14618.979,874.0516,1967.7654,4307.3696,29604.46484375
286,3862.469,14295.642,-4549.867,993.96423,1033.0148,9466.054,23288.83203125
287,5099.585,5413.9478,-3885.9507,13086.26,1770.1796,-3172.2815,25238.951171875
288,8603.95,11977.307,-11737.709,3051.1064,-4698.877,2034.5011,24502.3671875
289,15345.275,558.1784,-18945.697,-3121.495,433.4615,1255.2574,30364.23828125
290,14690.624,7895.2236,-14500.326,8468.907,-5498.56,5838.778,33287.6640625
291,23328.424,3409.3745,-15192.82,10589.563,4279.311,4710.176,39639.1171875
292,17532.303,-7539.2295,-21923.812,1543.5284,-9557.477,-4818.2715,39331.56640625
293,30762.47,7563.3457,1305.0627,-6812.993,-12504.926,-465.19928,36490.703125
294,18995.48,6070.326,-5965.0083,5536.969,-3124.5088,2168.4294,24552.70703125
295,9645.7705,-195.89355,-19782.826,-6334.8604,3014.373,-6756.431,30949.5234375
296,7583.602,-243.10327,-26193.957,-12058.869,-2101.9275,-8390.817,39981.67578125
297,13990.8955,6373.2686,-18779.182,-8344.007,-1408.0568,-7022.877,35285.3203125
298,13971.37,3889.9258,11835.78,-12231.256,3637.2827,-1464.5563,24074.916015625
299,-4013.6375,-11365.046,-4920.327,1053.2711,7297.21,1447.8318,14750.0654296875
300,-10957.965,1129.0093,-3379.3088,-3379.6309,-3712.7559,7961.438,19434.52734375
301,16296.702,6029.0415,22263.604,626.0815,6476.588,20082.3,39232.71484375
302,11909.066,18306.537,10862.187,-1370.8965,5009.739,22147.514,40014.85546875
303,-9507.261,-6988.51,-46983.24,-4711.367,399.3831,1746.8063,39766.93359375
304,-10420.128,-49.800438,-41447.145,-7685.949,554.94946,-1380.3384,39696.86328125
305,11770.5,30341.834,970.5643,-6876.25,4801.438,-6861.7656,31849.076171875
306,2055.8389,25993.85,-5905.7695,-10750.198,6517.722,-9593.307,39714.44921875
307,-34915.97,-27424.79,-58320.996,2822.6765,1322.0902,-12130.466,35353.01171875
308,13032.871,15807.697,24749.434,2524.423,4958.088,-2880.453,15173.10546875
309,164661.25,162963.94,163725.97,-349.3918,337.5521,-561.62854,1955.11755371094
310,21682.975,12434.739,15496.978,1334.0769,-344.8571,18749.785,33570.01953125
311,-129564.23,-116973.1,-125837.55,-16707.418,3913.968,-445.10907,31772.10546875
312,-910784.1,-909044.2,-923785.44,-9000.387,1198.8784,1938.2124,21290.509765625
313,9624.826,-32354.973,-11281.002,7636.3774,3633.9111,3586.393,39684.7578125
314,139787.08,139048.6,137942.31,-405.41122,38.821793,-510.0816,1965.79113769531
315,340.97836,-328.02585,6513.0537,-20178.95,-1412.4193,5632.5527,36951.359375
316,-33658.316,-11743.555,-21476.346,10857.969,-1079.2827,225.21849,26814.6484375
317,-3735.8384,-11959.631,-14455.803,19418.777,10820.724,55.736694,39710.578125
318,5776.7393,7739.2637,-14676.162,-125.20596,-5045.298,5065.9683,24813.62890625
319,10204.301,7907.633,-22401.137,7361.4414,-3961.3455,-2985.2002,35069.76953125
320,8062.1416,3172.1921,-22061.488,2258.1382,-2647.0488,-3274.1653,29197.951171875
321,22290.48,9805.818,-2804.3848,3000.039,-15381.082,3405.8127,35268.265625
322,5844.433,17462.0,15952.323,-2376.8828,-16788.863,-49.45748,31341.060546875
323,2528.13,10160.441,6932.6577,10309.476,-13900.46,1402.2594,30797.052734375
324,14157.624,-1959.8915,9170.54,-7450.4497,-2532.5298,3125.872,20477.984375
325,-10676.365,-11332.299,-10296.349,76.90027,2712.0972,658.3805,4920.2109375
326,2620.3955,5289.897,2676.563,-9281.434,-4679.041,6449.8438,21351.724609375
327,21602.764,15398.227,-15359.193,2011.7705,2065.765,8209.217,37449.54296875
328,2552.3013,2130.333,-12796.889,-1194.7649,17185.229,4789.2603,34473.01171875
329,22751.123,2800.6084,-15272.464,5820.0015,4737.615,-350.4232,35419.58203125
330,7640.048,2012.0098,-25463.32,-173.01913,-29.7013,11388.145,36474.13671875
331,13439.659,6395.9937,-6385.627,-2276.7258,2443.0115,-1688.9849,18574.873046875
332,20704.006,8276.015,-11405.396,-11387.2705,2363.7114,-1630.3031,34643.296875
333,16582.236,7094.5195,-6804.879,-6221.3745,-1407.0908,-8293.757,27267.177734375
334,8487.256,-8718.157,-7419.5024,-10522.977,7340.597,-9108.105,31907.58203125
335,71757.35,53780.668,63015.965,-13369.6455,1201.4318,-4543.7095,29067.857421875
336,106809.38,95053.375,104209.875,3022.8953,-1717.6418,-3284.3882,13528.7666015625
337,-2204.7468,21769.424,-1612.635,13282.513,-3541.7283,-981.8654,33626.109375
338,-23657.645,14796.896,-10156.808,-3085.7646,4191.751,-7790.8286,37486.33203125
339,32380.691,19686.912,59673.523,9887.726,-1460.4374,2695.9946,39673.48046875
340,12161.561,697.8653,10827.594,-6973.924,-2782.8604,-771.7089,16994.998046875
341,20453.252,28264.906,31010.078,-2275.0723,-941.6462,20149.607,36417.16796875
342,2917.5005,10692.94,-8975.405,-2825.4155,1056.2412,12922.013,28681.046875
343,-8120.5347,-1005.1586,-8193.867,1457.6548,-43.699043,609.18805,7658.2685546875
344,4996.0693,-13835.165,-169.3669,-3580.485,4723.3335,4125.1943,20987.294921875
345,5591.388,4737.716,-18501.469,-6897.1396,-6040.734,-10864.247,34160.0
346,8565.575,1359.2266,14988.176,-937.4825,4266.4985,4161.1694,15768.8427734375
347,72046.47,75597.375,56108.098,-20195.496,3764.9597,-2680.2068,40135.83984375
348,-1005.0879,-6630.468,-11850.7,-890.3839,2769.7483,1806.6687,11110.6494140625
349,1620.223,2388.7422,-8339.257,6212.4365,-6387.838,-456.472,18607.99609375
350,-19732.986,13764.398,-4519.5415,-14634.997,420.9832,-368.10043,38566.8359375
351,-31523.611,-39491.316,-36224.36,-20050.059,-2813.2097,-7090.302,37798.16796875
352,28191.19,-1509.1443,-3330.0261,-5318.835,1651.2128,5004.799,33282.125
353,7919.687,-180.49512,9372.577,-8874.639,-245.1201,-1468.4663,17956.044921875
354,954.68024,626.2563,-7438.1973,1301.403,369.27942,-3799.777,10798.0
355,8508.477,16658.084,-11808.447,-1296.5325,-2335.6086,10717.939,31793.0703125
356,-8641.008,-7927.26,-15626.495,-4366.8516,6372.5923,-12804.005,26928.7578125
357,13964.926,-5234.11,-8218.608,-2260.2415,-4248.228,-3132.55,23102.30859375
358,-3789.9785,12492.272,1783.091,9443.898,-8928.82,-8296.817,30309.625
359,9058.03,-20771.293,-2999.368,-4461.734,-3650.5183,-2321.9727,28131.478515625
360,-3052.638,14073.889,28136.96,-3863.9065,-8478.907,4577.0977,32484.671875
361,-6178.8926,732.0686,943.91187,2091.3335,4243.615,-5015.311,13851.9375
362,129.15414,-1317.3882,2685.1682,351.7783,-504.8676,1760.0183,4769.904296875
363,-36087.69,-56330.605,-77714.875,-1952.147,-6395.6763,-4228.4653,38571.08984375
364,-2989.9846,-1627.585,-1074.8838,1171.8569,-414.70157,-396.91663,2832.4755859375
365,28332.367,-702.7629,-6586.148,88.72762,-3889.798,-1031.7573,33122.296875
366,6900.783,11789.943,-14084.816,-96.31711,-6395.423,-2915.3074,26741.923828125
367,4464.9023,6134.3086,-2643.0452,321.2382,611.54297,-5686.0757,12790.69140625
368,5988.3296,8472.142,-4166.66,9539.952,1384.818,2508.5872,20788.951171875
369,17024.67,9572.014,13695.59,1300.4559,3593.6133,-760.8427,9347.017578125
370,14345.329,15229.431,5197.157,4379.673,-1076.2452,1723.8739,12747.287109375
371,2516.0818,15385.8,-5646.879,10380.818,1796.0013,-5096.9136,27353.521484375
372,16223.979,5432.3354,4059.435,3257.6326,-2684.746,-4367.9463,15615.9287109375
373,-2063.5361,2602.2427,-1918.4482,1013.57825,-1338.3026,-1133.9158,5781.5283203125
374,1173.5017,37.182617,758.0388,-3033.2666,-91.4087,-823.82623,5536.69482421875
375,-704.40466,-1167.893,178.1081,-816.16473,-149.0369,644.8067,2171.41015625
376,-287.29932,1657.6005,519.371,-1914.2262,1008.7941,1417.5815,4789.4521484375
377,-1946.6816,13663.102,38385.277,-6767.7393,-3306.1902,-2676.7048,37847.76171875
378,-14419.485,-14001.051,-46549.176,-2173.6206,-4320.5986,-7102.705,35601.37890625
379,1695.1538,15068.916,3414.929,2025.921,-894.0768,2323.7217,13774.087890625
380,3377.3645,6654.1304,4502.829,-751.91504,2267.4565,438.43567,5100.28076171875
381,17874.047,34161.1,-4515.592,6322.0303,-2038.4341,-6615.438,37348.1875
382,6104.5723,2266.4502,-15353.736,-7146.3047,-7354.327,760.84094,26646.474609375
383,13343.685,-567.92773,-8010.1865,-4471.7,-5454.0854,4537.0977,23736.875
384,9673.725,-3264.5781,3753.3164,2591.646,-617.8367,1315.4437,12342.4921875
385,11808.049,-4189.17,1709.4834,-2299.7332,2088.0686,919.3301,15093.873046875
386,2906.4006,-3300.1787,-2158.562,-415.6313,218.02101,2040.4067,6774.216796875
387,-3720.751,-368.307,-649.2701,101.53652,-518.56665,272.68317,3381.80981445313
388,3570.9954,8292.4375,9741.471,3140.4363,-1538.1776,-1305.7372,8545.939453125
389,-4858.713,4120.6274,3476.6274,-3159.6782,5712.9956,476.01434,14276.064453125
390,8570.664,7600.1533,25340.812,1173.121,8663.637,1993.5929,23231.080078125
391,8349.614,24570.96,-9672.283,3787.3408,-9824.787,-8085.7656,37536.78515625
392,8673.347,5386.997,13896.668,2290.9736,3703.3154,-12561.712,24197.685546875
393,-1347.6617,-684.9228,1.8521729,658.91455,11.511018,-1680.8477,3338.36547851563
394,25500.734,7073.3804,-5074.8916,3197.0962,-9092.522,4969.7793,32615.8046875
395,18073.732,7588.066,-3033.537,1143.1548,-530.8428,1398.3827,18568.103515625
396,15560.91,8282.936,-7739.0557,4241.2593,-5972.421,754.2459,24268.53125
397,9142.511,20712.275,15006.579,1999.445,-1161.0876,2139.2686,11409.1181640625
398,1250.3717,3336.6267,635.0825,4829.053,2094.1208,4337.487,12065.294921875
399,434.5653,-2562.9004,5648.7793,8334.617,1311.5077,-3068.0266,17134.7109375
400,-186.15234,-19021.424,-6211.5693,-7764.8394,9877.0205,3774.181,28175.537109375
401,7957.839,11196.508,-3573.7188,-6604.7285,-237.08192,1888.2534,17959.541015625
402,12310.857,-295.27832,11035.797,-10693.46,673.18646,-835.3771,22157.84765625
403,-127148.055,-154293.3,-170567.2,-2008.1404,1878.9229,-3745.7444,38836.1171875
404,2918.4893,11125.029,38290.414,-1809.0513,-7056.9023,1801.8628,34600.53515625
405,66979.195,80153.15,108772.734,913.815,2672.7468,1921.5376,37479.0546875
406,9977.057,6288.758,5833.966,2531.107,1864.1437,-272.65408,6734.64306640625
407,7925.8613,10850.833,6399.9336,408.3585,1276.6226,-1850.5283,5568.67529296875
408,6347.0513,11251.059,4080.5745,2369.3499,1665.953,-927.59314,8249.240234375
409,-14567.535,-2877.351,6365.8086,-5469.1455,10084.473,-8814.667,30952.70703125
410,8108.8315,-195.14539,-3889.0088,-2821.363,1102.9272,-2577.2314,12677.94921875
411,17159.396,9871.15,3766.8442,6111.5405,-1016.318,13220.327,27827.20703125
412,4681.6523,-1590.6406,631.5062,-604.1612,-20.817692,1032.6433,5885.32275390625
413,6092.1597,3952.5234,-2798.7139,1301.0828,1193.1869,4166.7417,11226.6279296875
414,-15528.907,-22785.148,-5695.283,-5527.9795,-17084.99,-4977.971,35530.484375
415,-7001.9116,-5796.361,-9157.546,-5619.152,-1244.9266,-2854.9907,11511.98828125
416,73977.03,84764.6,87780.77,-3394.7585,-5214.649,2609.8027,17163.630859375
417,8247.506,17300.838,306.7627,3254.2544,-954.57996,-2172.3782,16296.3271484375
418,-6225.0,10403.895,6150.6733,-2181.7593,2122.6216,5.1183653,15864.4423828125
419,3921.6494,-667.02356,-6497.4414,-1146.6986,725.01483,-2327.302,10177.14453125
420,2898.2612,1697.0798,2612.2393,6305.072,4793.735,4058.6345,15453.158203125
421,59666.344,67279.79,77938.44,3480.05,-4373.263,-2097.529,18963.85546875
422,6933.6846,3370.2551,-22044.494,-13015.739,287.00412,7012.1313,37485.41796875
423,16926.408,3208.2808,11440.682,-6370.14,-4160.395,-2181.708,18192.54296875
424,-1255065.6,-1258033.8,-1246905.2,6702.6475,-3075.536,-964.0949,16296.1396484375
425,570.0576,11923.089,10848.208,-3086.135,5621.182,2580.4453,16161.23046875
426,12473.076,13011.696,17131.502,-854.0505,3253.9185,5256.712,11676.1787109375
427,61512.496,47023.23,29571.992,10075.987,8096.234,-1586.5206,35722.75
428,1429.3729,7256.841,-8907.507,1766.5359,-491.14688,-967.449,14626.7490234375
429,-2937.2012,3160.8716,6004.145,463.35046,460.3049,-103.08331,7995.04736328125
430,-11074.069,-2114.7725,-7576.284,-2442.9565,-3785.4578,2500.614,11866.6845703125
431,-5666.518,-2709.7312,-9179.088,1548.928,2108.988,1064.0771,7443.41748046875
432,200.31445,11274.588,-5737.381,2075.4421,-3149.377,-1680.5581,16577.1640625
433,-6718.6274,4738.875,-13317.648,-3783.9675,-6184.728,-1910.2518,20471.55859375
434,-51297.934,-50767.383,-82956.54,1760.6951,-2756.239,6365.52,34249.0234375
435,10701.763,7566.9077,-928.0576,3215.3965,1314.628,-3077.6792,13162.052734375
436,1663.402,-278.5475,-2859.184,-773.5875,-1772.9453,-878.33606,5383.4990234375
437,6524.34,10219.255,9207.07,-7395.2285,1347.6509,-6323.062,17331.96484375
438,-390.98352,2323.814,-7377.391,1308.9519,2140.446,-1890.4719,10234.888671875
439,26.593018,409.55518,-8131.054,-7428.424,-1153.2018,2964.4802,16300.810546875
440,-18111.258,-10412.796,-13288.285,-13049.524,165.89346,1606.4603,23750.638671875
441,5276.6685,13681.109,2165.9658,2765.6218,-1174.2699,1517.7974,11851.103515625
442,-3402.9329,-306.50183,-656.2679,-532.86127,137.27757,-1146.2273,3671.1123046875
443,1298.9395,2578.0857,-947.70435,2927.8403,-168.3622,3766.3794,8827.005859375
444,-14165.796,-4671.084,-29688.328,-203.82379,1769.0522,1197.8771,22187.80078125
445,-4416.609,-1475.5242,-1791.2197,-1058.2506,-4616.7075,1620.78,9110.630859375
446,8428.052,7743.592,10550.867,-7709.544,10596.9,565.6243,22860.046875
447,1657.848,259.1573,-241.09119,-4534.806,2406.6284,-797.12103,9158.6826171875
448,416691.2,402492.44,446272.03,-1225.3293,-1042.3842,-3547.3918,39270.31640625
449,-3131.7026,-35.23877,-3913.3936,-6625.4756,3278.657,2297.0042,13870.39453125
450,7015.0596,7533.5293,1173.2886,-600.603,1810.6617,2186.8818,7917.63232421875
451,11802.377,6572.77,15889.887,2108.5269,4430.5576,1154.9261,11902.15625
452,5650.6147,-2824.3262,400.45276,2631.9578,-4607.928,-2011.161,12308.896484375
453,-18966.74,-15615.656,-37440.15,-13976.748,3035.3738,-677.6109,32085.337890625
454,5386.2373,10284.525,-12612.292,4720.8804,-7254.125,-5992.237,27722.736328125
455,-2447.0012,3677.902,-1072.3522,-3486.0378,-1492.4462,-2001.9723,9281.5810546875
456,-1099.683,4228.8394,-5217.452,2826.3013,-582.86206,-1036.1917,9772.154296875
457,5983.4727,-12032.758,-7191.0566,-2532.7625,1446.5948,-303.73804,16929.169921875
458,-3818.4211,-868.6036,5993.6484,-5970.101,-136.12814,6705.7705,17830.263671875
459,-6664.5327,-852.8589,-1598.5444,1872.546,1740.6321,809.93835,7181.5458984375
460,1864.509,562.61597,-11078.515,1939.9508,-5939.672,58.490772,16416.63671875
461,7730.21,1883.8784,4796.801,581.4533,-26.49755,1254.9889,5601.44287109375
462,928.41846,4285.3784,3776.2336,383.69138,-356.70874,-1589.9419,4269.23388671875
463,3950.9236,1101.7964,-3314.2485,-5883.1377,-542.166,-3907.8462,13810.517578125
464,13992.659,10071.808,12413.037,-2802.4966,2126.604,-2116.7715,7889.63134765625
465,6070.382,3780.8455,1139.5798,-3926.757,977.73175,2347.4124,9160.93359375
466,3135.8503,4281.4956,1751.3322,579.41565,-4859.1777,-15.23007,8755.4697265625
467,4522.636,8770.644,-1367.6384,970.43335,-2111.1948,-554.2162,9740.685546875
468,-2522.488,3812.238,-4508.9893,-529.58057,-1035.0588,3386.657,9753.0830078125
469,16436.754,4136.29,18726.924,4663.299,931.2806,-931.4882,15973.740234375
470,10258.198,7019.6157,4136.712,-1572.032,-438.87363,-3594.655,8654.0390625
471,15031.285,17223.03,-4305.962,-819.2826,274.82822,3958.7725,21688.0390625
472,9652.49,4184.228,623.4243,-8005.388,7822.1934,-2645.5195,21421.19921875
473,-4014.8452,-3541.465,1836.4977,2074.3623,-492.05008,-416.93427,6771.20166015625
474,-2680.3704,-2715.3157,3618.9163,4140.009,-2794.6929,1770.3262,11142.462890625
475,-5696.475,-3398.6494,-28446.53,-1674.3239,2181.8691,7386.188,27594.921875
476,4544.8916,6075.009,8937.875,-1793.6143,-1922.9928,911.5865,6177.02294921875
477,89648.13,91447.94,128207.984,6458.6255,-3181.7927,-2912.953,40020.87109375
478,-2046.3086,1585.4226,13201.578,5218.174,2095.6196,-1189.4756,17012.310546875
479,-34830.277,-35457.08,-73621.65,-3969.3506,-1338.6329,640.44214,39175.53515625
480,-2318.1821,-9463.474,4093.9883,3346.2795,-10689.109,-797.9293,22721.3984375
481,2122.0745,1589.9248,-1370.4454,3112.7402,-1376.3776,904.88257,6915.8857421875
482,924.17725,4039.2727,3401.015,-139.61781,925.3923,2009.1871,4781.31689453125
483,2902.9224,-576.6479,29.846619,-2199.0767,1543.4519,-172.8001,5666.48291015625
484,-4473.9634,-6244.066,-1109.2458,1575.7657,530.9541,1609.4004,6039.5234375
485,-4029.5376,-816.59827,-2573.334,76.17151,2353.4292,-412.62537,4990.88037109375
486,-4927.371,406.47046,-1514.5774,236.95761,-28.0011,-581.592,4804.08935546875
487,4294.4854,3801.4482,4436.569,2108.5962,-1717.5637,2036.8334,5913.375
488,473.74805,2851.328,4543.7935,852.59344,2404.0493,-1318.2827,6105.24462890625
489,-17830.344,-11437.377,-20248.477,153.41197,-1401.4491,-2278.5337,9149.5556640625
490,-10676.129,-3769.1785,443.29395,377.0388,-3311.708,1210.4664,11500.896484375
491,-4068.601,-2195.8196,-11359.814,-2369.976,-4612.2007,1343.3627,12506.212890625
492,-5076.8213,-3086.9333,-2268.9917,1916.8093,314.65363,828.6417,4431.22216796875
493,-3220.8118,-3405.5146,-5876.1895,-2310.1086,-1249.9742,3714.9922,8288.2626953125
494,2338.3315,9016.648,-2202.5845,-688.3119,-137.26212,-2331.6604,10645.8095703125
495,-2230.57,-2387.1118,-603.0349,2746.6682,-1117.1967,-622.2229,5519.654296875
496,6261.58,3938.8833,-1925.3186,2698.2815,-287.4895,288.05325,8703.0791015625
497,-20.528442,3583.2788,-1125.3954,1862.6394,1896.7964,-18.463045,6276.35986328125
498,-3229.353,-698.81213,-742.1431,-494.99792,3126.417,1160.2335,6355.53369140625
499,782.66895,-3164.5876,-5459.8745,-2717.9497,-2333.658,76.487274,8272.02734375
500,-5182.1006,-167.40625,-1983.9103,-159.26852,-255.44295,-1098.0226,4819.38232421875
501,-1959.3181,-4323.273,647.0724,3070.2793,109.68377,1945.4805,7629.78125
502,-6720.537,-6305.2617,-20249.26,-2459.6946,-2290.101,5016.6357,17268.4921875
503,-202.92337,-2702.0156,2037.2659,-1721.0427,-727.04004,-133.59416,5233.31787109375
504,-3193.1392,-2473.2878,-3315.1716,-493.1699,663.36957,-1374.3182,2887.38696289063
505,-3203.6975,3663.5618,4651.89,1026.3749,483.8695,82.822235,7668.53662109375
506,8181.3887,1052.5304,-5591.5547,-2092.0703,-1637.4525,2819.9138,13687.9140625
507,4082.5269,-834.6062,5180.2383,-2727.8467,-667.6593,1423.0155,7779.23095703125
508,3512.9146,1137.7097,1062.2246,-3862.8171,1913.974,818.0403,7974.21533203125
509,-2255.4116,-1647.0776,-6812.717,-1027.3043,1668.4216,-283.0827,5972.33837890625
510,7138.175,26863.277,17442.654,4743.3804,7609.022,4369.3833,24299.591796875
511,-1823.745,3216.1934,668.9203,1113.7567,178.62387,-4200.8296,8706.86328125
512,-3049.8005,-3612.2024,-2377.908,-215.51317,-924.7999,53.540195,1964.51293945313
513,3653.3892,-1431.8129,-1551.743,-2978.4072,-1607.8903,-845.74695,7937.13134765625
514,-458.70825,3138.0076,-853.21936,2309.9534,1820.5948,894.9648,6547.15087890625
515,1047.5574,1130.6556,-1977.535,-1084.6935,1348.4875,-84.68708,4291.37744140625
516,-418.57007,1446.1306,4229.7812,1267.7065,-2985.0288,24.097229,6926.0859375
517,-2047.3528,1268.0618,-183.19295,671.7336,-145.73584,1133.4789,3682.16235351563
518,23176.89,32903.527,58843.65,-760.8681,-158.16884,621.1571,31980.880859375
519,-1061.2495,-3851.3877,4334.415,495.33487,-80.30805,-473.8265,7306.27587890625
520,6660.987,2000.3411,4384.1167,-3303.339,6263.8936,1469.2753,13161.1396484375
521,4865.1646,5432.4766,8449.648,-4362.0996,-5534.96,1349.8826,12868.3525390625
522,3323.173,7256.2705,-1114.187,-5408.6294,-4142.4707,4558.6147,15943.490234375
523,-11390.579,-23365.814,-42561.21,-1181.134,831.1608,3525.0322,28022.744140625
524,859.0166,1461.6453,4974.736,-2559.5212,3672.544,147.1619,8660.439453125
525,7373.4795,-3213.1423,-11.727661,-1332.6239,452.3149,825.46326,9819.3203125
526,-2184.8208,87.806335,-573.67145,-181.26096,1491.9983,135.23843,3306.16186523438
527,546.0189,2918.1194,3701.9326,2531.7559,2327.342,-6314.287,12774.587890625
528,-4089.1836,-1765.9597,-3329.6406,-678.4595,-486.03806,-1574.1382,3705.81176757813
529,-865.2891,-332.78934,533.82367,-782.395,-3511.8296,879.51825,6530.84765625
530,-2690.511,-1213.7427,-5646.3687,2579.0266,99.214714,1199.7178,6291.63671875
531,-5924.65,1787.0908,-11637.595,479.04327,-1866.62,2336.0627,12793.6806640625
532,-1104.9623,1942.0944,-5290.6387,-2330.443,3849.1714,932.5378,10144.3857421875
533,-2056.378,-2181.718,-1642.9314,3007.1038,-1395.3173,-3936.404,8927.0966796875
534,-2867.8293,995.97363,253.53601,3206.8064,41.23866,-16.549496,6593.04931640625
535,-2645.5713,-5184.78,356.39136,1162.7955,521.99866,684.4601,5418.59326171875
536,-622.8172,4552.7295,-1024.2134,-977.09625,-866.597,4049.515,9128.947265625
537,-2796.6362,-4270.9785,2518.9722,223.21687,444.1338,-697.20935,6361.28515625
538,-961.0644,3724.522,-1013.80365,-883.73724,-201.6572,-270.8961,4988.9619140625
539,-3036.7412,-5038.5825,-1125.247,1254.7413,-725.1022,-1025.3026,4576.22900390625
540,1794.889,-1025.2383,1314.8485,699.0541,-1755.6577,1650.4647,5070.9873046875
541,-699.45056,-219.9617,-757.6638,-966.39606,-403.9135,-225.26418,1924.74560546875
542,3144.1116,7599.1235,335.187,-326.71423,-1389.0952,-1282.4999,7162.009765625
543,-1977.5624,609.54004,-3624.5935,1609.5728,-183.19188,-1766.4653,5558.85791015625
544,4317.4463,8814.366,5144.5513,167.70026,-2845.3286,538.8608,6513.841796875
545,-6100.671,-2933.9802,-7573.733,-367.28485,-4607.1353,-5267.414,12813.3251953125
546,4502.915,3048.987,-1631.3381,-2721.9265,3292.0625,231.34898,9258.75
547,-714.78125,1983.5553,4510.968,-3282.6426,-1323.4812,1052.5409,7835.4453125
548,2320.3628,726.5068,-153.36938,-1210.8428,48.60454,478.70688,3132.08276367188
549,-202.22952,-1763.4493,187.25903,179.65073,599.0405,654.2395,2377.94995117188
550,9017.112,4919.097,2122.3818,-2091.53,-356.42404,363.9047,7069.52685546875
551,-615.78796,701.2347,-866.45667,-1963.1274,-1901.7255,277.7911,4976.97802734375
552,316.94693,561.74835,-1224.0215,-873.2672,273.15027,-134.78398,2319.02197265625
553,13506.124,7414.6616,7582.4507,2062.2783,4446.4087,1589.5951,10759.32421875
554,-245.99988,3174.9414,177.73425,-3253.4692,-160.28944,395.98676,6537.23974609375
555,-1239.6143,-3639.07,-450.1084,-4768.7407,467.0546,440.91464,8816.767578125
556,-3225.5085,-1735.7346,-2368.7114,-740.5319,-1828.0436,-684.43176,3840.94067382813
557,-2946.3052,-1111.4191,-169.40393,170.71193,-136.95251,-1675.3551,3814.03051757813
558,4741.0215,-176.91302,-1951.8909,-1686.4216,-354.74243,-1755.8201,7363.70458984375
559,-72.47812,505.64868,-21.02855,-528.33264,249.0474,104.91841,1167.74865722656
560,-1683.6185,5055.41,-3408.0955,383.69717,1425.6985,11.7932415,8157.7919921875
561,-1587.3137,-130.66473,3011.8257,-698.74207,1525.7415,-2649.3547,6788.23974609375
562,-4068.4497,-4442.5234,525.4978,362.5554,-663.87463,-348.6328,5004.39013671875
563,-10130.142,-17551.08,-26984.836,-732.89124,2291.4578,-745.7447,15267.7939453125
564,-3178.888,-3831.2058,-2360.086,-80.29759,3240.0999,1354.9902,6217.0859375
565,1111.1823,-376.02487,-136.58023,-490.44543,-485.6536,-842.77454,2339.44653320313
566,157.39749,2061.3577,-927.5966,257.10706,585.2914,1020.93494,3349.77563476563
567,1533.1158,2342.5564,1047.9377,-724.8454,361.0574,1020.88153,2525.31225585938
568,987.572,-2676.8254,568.90356,-2166.9617,28.022524,965.83636,5381.16796875
569,-888.92444,-608.3498,-624.73926,-103.31326,-1910.3586,505.6125,3438.27807617188
570,399.53955,2591.6921,6933.049,-1760.1174,1216.7024,-337.04913,6873.5556640625
571,628.7163,6089.168,1561.0359,3871.768,-1093.3718,-1968.6042,9261.70703125
572,-2874.2124,-2383.3213,-1375.8264,-700.50995,729.7638,724.76215,2529.07861328125
573,5333.749,1761.2129,10522.609,2211.179,-2272.0972,-3787.2578,11463.4140625
574,4192.468,5927.2773,-5222.454,40.426163,461.09473,-1408.2548,10704.0029296875
575,-2356.4668,-1770.2642,-16862.53,797.612,-4057.9424,2468.7488,16996.0703125
576,21562.36,35409.508,58091.766,9630.235,-1323.2184,1108.1729,36159.01171875
577,4331.946,2930.0981,1529.7565,-383.2436,-2939.6006,-9176.35,16878.0859375
578,4760.2324,2216.4976,10425.217,5071.4805,-2664.2712,-1439.2098,12555.541015625
579,15995.003,15416.916,14289.396,4855.5117,1832.8585,-8504.452,17321.677734375
580,6794.963,4656.6597,-3424.3013,-2341.2544,2197.2634,1582.144,11206.7685546875
