Element Label,S11,S22,S33,S12,S13,S23,Mises
1,-10984.726,-21689.926,8414.578,-6377.8037,2179.3174,6938.6353,31294.07421875
2,-10338.104,-27770.553,-7463.811,-15003.253,-5826.3555,-6636.484,35658.359375
3,5530.1543,-4480.474,-8153.9346,-21140.3,-4502.6084,-4094.2148,40029.0625
4,30007.053,20842.42,9608.782,-11499.906,-7005.308,7757.695,32212.5625
5,-16334.506,-12359.218,-32627.729,451.46347,1524.5879,-4273.093,20209.02734375
6,37266.492,19281.977,10857.571,-15804.189,6802.6875,-1967.4897,38022.12890625
7,17372.762,1796.308,-13291.515,-14145.253,7544.9,362.04077,38428.08203125
8,39626.586,5269.2656,34293.15,-544.7653,9911.721,4108.6694,37039.015625
9,-33553.15,-57105.906,-34746.746,6094.662,6107.554,-16380.363,39450.41015625
10,35403.836,40628.027,39566.31,1115.5396,-1721.6313,10760.81,19567.400390625
11,-54894.75,-35476.31,-15784.057,6861.6133,-7452.171,-1167.6508,38199.390625
12,-31295.4,-45.319336,8805.612,-1678.1476,-102.12925,7397.4,38783.28515625
13,-19181.336,-16768.115,1536.4639,-17069.625,-9251.252,-4889.1865,39845.19921875
14,-19077.479,-14382.948,-9273.629,-17904.506,1674.8308,-12632.167,38999.6640625
15,12986.283,8117.113,897.6423,4070.5608,8787.36,8171.5566,24344.751953125
16,10081.145,14731.404,-2584.769,-5292.6294,-18554.992,5121.2153,37901.578125
17,-11391.472,-461.20703,-24140.066,5125.0566,-1231.2131,12937.655,31730.708984375
18,-27086.092,-29560.771,-32349.578,22569.146,195.51915,-2268.1025,39553.125
19,249997.86,250766.42,249033.67,671.2801,360.55066,15.666446,2000.990234375
20,767012.2,767585.6,768791.06,-482.23962,385.20605,359.62875,2000.99169921875
21,12065.3955,11287.157,28437.305,20481.484,3598.7534,-2017.8302,39886.4375
22,7768.8965,10483.011,-6977.183,-997.0412,-2161.662,3504.009,17851.349609375
23,106807.5,106931.73,107299.08,952.31604,-587.6116,-130.83197,2000.98608398438
24,1211.0841,-790.1839,607.2124,-260.7739,-303.22345,312.89536,1983.62756347656
25,28127.236,27615.072,28238.846,539.4909,963.3736,69.75659,2000.986328125
26,7254.049,7605.016,6702.919,-135.71716,-1029.1653,224.14851,2000.96960449219
27,51893.094,75139.2,58874.094,2473.7751,-3292.5212,-7555.1016,25474.58203125
28,423.48886,-12971.249,10876.087,7018.653,-8264.024,8282.833,31419.234375
29,-26007.783,-15522.734,-36642.555,-10798.458,-2001.7214,-3964.8965,27267.978515625
30,42705.844,79847.96,55968.08,-2771.8542,-8114.241,-245.8549,35827.22265625
31,-62023.56,-55718.69,-69907.87,13149.649,3203.9658,-10523.161,32146.072265625
32,-857.9285,13945.708,927.88513,21043.092,1814.5433,3113.7522,39538.58203125
33,-8257.776,-22872.014,8685.583,12440.903,2806.9517,-9318.551,38687.7109375
34,-30362.844,-18416.514,-20838.854,16094.947,8342.112,10917.733,38251.140625
35,-23392.088,-29111.223,-15526.698,19759.057,-6054.861,7456.039,39844.4296875
36,-30852.158,-40578.43,-17255.033,12348.761,801.5506,15001.704,39322.8671875
37,16304.936,33810.03,24553.459,14291.602,12060.699,-9938.045,39692.57421875
38,-22368.504,-2982.5837,-26599.506,-2482.5308,-5543.3423,-13438.373,33588.4140625
39,-13627.795,-18915.164,7274.711,18233.953,-1730.2992,-2108.1313,39939.15234375
40,214.2723,-633.7705,-2978.3257,11225.166,-9905.471,2649.7102,26488.400390625
41,8065.996,5743.0444,-11856.322,15934.374,-3745.37,-9973.628,38186.80859375
42,20537.545,36177.027,23458.283,-4221.3506,-12044.141,5680.0073,28158.0546875
43,321355.94,320442.12,321728.53,-33.59205,-563.13995,-760.4515,2000.99597167969
44,655759.75,655832.06,654888.75,-301.258,-311.13336,-922.83685,1986.05615234375
45,262423.06,263817.6,264294.94,533.40454,309.10364,-92.19691,2000.9853515625
46,-1685499.8,-1684250.8,-1684006.0,311.32004,-665.43604,372.16,1990.04553222656
47,-175071.36,-175830.2,-174936.88,-47.753254,-63.278408,1047.0764,2000.98559570313
48,275438.56,275409.06,276919.56,-81.26765,275.02673,703.98395,1992.84558105469
49,-118185.664,-117239.875,-117837.28,-622.4687,768.0501,353.7086,1998.45568847656
50,118339.47,117806.78,119429.34,244.9259,199.41656,742.19257,2000.99047851563
51,-14809.995,-14614.957,-14855.573,584.95215,-201.53514,967.2262,2000.98547363281
52,-144489.17,-143676.16,-144966.61,-628.72864,368.27274,612.52563,1998.86010742188
53,53755.55,53217.344,53094.887,-871.238,216.8424,-636.39594,2000.94921875
54,-80734.734,-80954.67,-79326.56,-488.4194,301.0247,474.4872,2000.98803710938
55,60379.996,59371.3,60132.53,-302.36285,-441.26642,-878.7182,2000.98559570313
56,-2357.9604,-2811.2507,-3310.0925,-663.1581,-263.2599,-773.7164,2000.89965820313
57,-24453.654,-25208.91,-26986.094,4899.8833,18663.602,4001.0437,34206.91015625
58,2639.6812,12367.666,22597.148,2074.529,13390.132,14294.817,38244.10546875
59,5314.832,4555.617,-24627.52,10373.067,498.40814,-10094.745,38776.8828125
60,16848.18,-637.35156,20547.486,13597.338,10022.913,-8077.4473,37893.10546875
61,2803.9358,5522.4365,-11203.172,2758.0127,13973.84,-5871.2324,30882.134765625
62,-7051.7954,257.54,-11457.465,-11694.866,18504.574,1566.885,39369.6796875
63,-8361.114,-30461.195,-16558.316,14908.374,7891.1714,-3345.5496,35519.2578125
64,2312.1929,-26858.508,-17244.852,1617.2485,12002.838,12169.92,39335.5625
65,45702.543,53862.152,49601.395,3674.509,15945.32,-6287.713,31174.330078125
66,58206.586,48822.207,48524.758,604.86804,-9898.714,-10807.156,27136.349609375
67,29243.021,21120.578,50350.383,-7033.781,-13974.254,-5772.4126,38950.76171875
68,-46390.195,-16784.57,-36000.52,14915.809,-3051.1125,7736.67,39392.7109375
69,74195.78,77102.32,109654.31,2923.2964,-733.7049,-2226.9626,34710.57421875
70,-19345.744,-37881.96,-41766.9,12382.262,14131.169,3247.067,39004.58203125
71,58210.0,68899.555,47391.73,14802.589,-10877.307,-2291.0076,37080.82421875
72,-136711.16,-154004.8,-172962.72,4069.102,-1727.3716,-5499.422,33699.84375
73,13446.169,7343.275,15446.286,-9748.815,14295.683,-3454.7388,31424.12890625
74,-94931.484,-96968.6,-112024.83,5839.6333,-177.66434,-7396.3657,22978.869140625
75,61558.953,60173.758,43027.453,-1139.9124,6449.2983,931.7536,21235.548828125
76,113632.28,113207.47,115232.625,-3489.9077,-4289.806,8811.046,18112.720703125
77,27395.424,35280.418,30186.436,-627.6876,6137.4883,-14081.939,27514.490234375
78,-34567.5,-34755.875,-19674.805,8946.778,22.25855,1035.3295,21632.9609375
79,-48925.574,-69383.15,-44390.45,8745.518,-2847.6611,1630.761,28171.177734375
80,-57802.473,-58455.78,-39490.996,-2920.5435,6217.8633,-4581.467,23499.8671875
81,39118.383,48811.37,32157.178,-9699.156,16167.41,2067.2708,35903.8203125
82,21708.535,39473.145,14697.684,3974.0642,-7134.29,-8694.424,30267.66015625
83,19599.812,29141.09,16473.846,-20534.979,4033.9585,87.15192,38006.98046875
84,-8977.12,15640.783,8546.658,11381.175,-11880.1,-2797.6963,36293.390625
85,25082.203,40941.633,12256.0625,-13108.935,-3371.6553,12039.29,40048.93359375
86,-53665.5,-42402.156,-25091.273,2026.3486,4673.1646,15570.008,37770.5859375
87,17710.07,-19183.969,-20407.213,-4398.2554,1617.4755,2494.2412,38630.859375
88,23053.09,2418.8042,15615.583,7695.195,-9582.779,5160.212,29336.71875
89,-33754.836,-37279.695,-44800.39,-7784.8438,12301.825,13243.484,35460.97265625
90,76720.74,92432.03,87060.33,13355.532,6268.1025,-5248.639,30445.4609375
91,40030.08,31918.49,31658.922,6116.8066,749.81976,-18576.326,34887.578125
92,14066.174,14257.614,20129.465,-4283.6484,20725.475,6545.8374,38831.28125
93,-22168.967,-30678.48,-29346.477,4545.365,-8584.386,19162.94,38046.84375
94,-11377.821,-2286.1655,565.8136,16105.117,15061.749,-1031.7208,39731.69921875
95,-10492.733,24064.531,21965.725,9780.351,2843.816,-5923.4106,39275.546875
96,20718.812,15257.056,698.96344,-628.4421,20052.531,1957.8046,39246.3671875
97,-67124.0,-81333.54,-78403.49,5927.911,-10215.5625,-4717.8105,25575.931640625
98,16603.482,15252.395,15271.957,-454.21506,670.74774,-280.42145,2000.98498535156
99,39853.605,38340.73,38320.02,-67.25013,75.164024,-742.25714,2000.97644042969
100,-6609.1177,19132.59,-8428.218,10163.279,-5.6108985,7504.1035,34519.3125
101,-27550.54,-25103.594,-38479.105,3012.1912,7821.3286,-3014.788,19752.6953125
102,-33553.547,-19733.018,-34009.21,6298.046,-9769.246,-16190.948,37272.8203125
103,-3678.791,23146.201,5197.9106,-671.38873,315.4,9051.955,28420.466796875
104,23762.426,22387.842,22407.484,-8646.501,20825.81,120.54234,39081.140625
105,3596.0664,-14966.148,-39238.84,-360.2527,4143.56,-4000.171,38524.9921875
106,2052.7275,-2561.0745,27986.521,9228.568,-4542.826,-7569.0625,36094.12109375
107,-13107.041,-8540.844,548.8906,7497.4263,-9114.723,8866.683,28261.314453125
108,-32951.367,-42589.37,-31620.514,4607.0493,-13324.038,1715.4688,26694.234375
109,31587.111,4143.3613,-5260.1914,6775.2627,1896.0457,-2597.9656,35614.6171875
110,48165.758,55304.277,60476.344,10918.694,16398.29,-9021.679,39027.7734375
111,-6990.579,-28808.668,-46930.1,4926.976,-6350.949,6422.8823,38953.5546875
112,54483.7,26659.877,28559.207,-8153.8296,5971.3135,-2532.5554,32412.837890625
113,26799.973,31904.436,28969.342,21824.176,5677.0903,4580.923,40102.5546875
114,144689.5,138995.73,174890.58,5354.4526,-5378.4043,-1123.5571,35959.16015625
115,-53541.098,-50282.254,-48824.836,19587.34,-1683.2662,-10803.063,39078.17578125
116,142513.17,126300.74,152272.88,2343.203,-6903.593,6388.105,28252.388671875
117,-149910.48,-153575.36,-168831.81,-2596.5564,-4192.821,17108.26,35399.8125
118,-220759.47,-217803.47,-231879.27,133.14317,5043.2935,-3712.1763,16821.3046875
119,419306.88,418292.25,420084.7,681.98816,248.32884,1.8902977,2000.99475097656
120,93385.34,82162.36,79933.2,-4058.6558,19026.91,7960.477,38490.75
121,-44051.11,-46499.91,-49388.004,12451.339,-13509.204,10718.732,37130.67578125
122,670.1037,-32955.844,-6081.8584,7436.697,10368.019,-1181.3135,37971.5625
123,57075.75,41216.688,29071.697,8407.04,14669.153,4721.88,38937.05859375
124,4301.296,10742.672,10144.508,19139.4,-10692.495,5815.649,39766.81640625
125,220789.78,220153.31,221450.06,-521.6119,639.8817,464.96597,1988.58605957031
126,-5525923.5,-5524090.5,-5523900.0,-201.99031,2.1370983,-213.3169,2001.07275390625
127,6996.885,6832.574,5947.1074,375.8157,-934.6373,-31.885223,2000.98571777344
128,19707.482,19585.07,18153.684,351.14365,200.4227,-651.7729,2000.97692871094
129,36088.16,36441.94,35729.086,-950.20044,340.35037,-434.40845,2000.85461425781
130,-32412.145,-56568.754,-47013.867,-10483.606,13645.268,4588.593,37356.22265625
131,14457.043,-11888.007,10805.004,-15967.543,1408.3489,-8383.876,39911.046875
132,-43609.05,-44347.598,-58639.67,-18306.52,13.119388,5307.4746,36128.36328125
133,-52383.88,-41694.21,-79876.13,440.19278,-4093.8374,-6394.895,36572.12109375
134,59877.242,92186.41,62113.777,-5249.7275,6009.003,-9559.074,37970.4453125
135,365226.4,363574.75,363333.62,248.23232,325.37512,54.978092,1922.47180175781
136,1279.1155,5431.955,12538.225,10179.711,-7545.7217,6305.812,26424.220703125
137,59183.527,59065.184,58599.41,-766.5655,-31.485329,-796.36,1988.58776855469
138,147532.17,147909.1,147160.84,618.0414,-114.10782,-894.246,2000.98254394531
139,82142.58,84313.04,117455.37,-13.092848,2239.3132,9639.528,38325.76953125
140,-16268.431,8706.894,-26774.662,-113.40053,6382.8994,-9311.423,37133.7421875
141,15392.28,26491.582,31860.729,4958.716,3860.5852,-7587.702,22423.529296875
142,28724.941,51927.957,29003.514,18471.486,-2868.301,-975.9446,39788.44140625
143,22255.688,-3037.1838,4730.01,-1216.8501,7899.703,-10872.296,32401.890625
144,41987.105,12842.542,31763.81,-3232.5962,2492.351,7635.9907,29679.580078125
145,31692.432,14948.1045,17059.738,620.57855,20439.19,-4473.723,39546.84765625
146,-4340.1333,-314.6219,-16060.693,3529.5957,16316.294,-7684.553,34841.828125
147,9300.356,-20489.691,-16162.221,8753.161,-3075.4634,-4749.982,33214.06640625
148,57800.67,31399.021,60506.848,8509.302,1885.285,-9550.316,35739.76953125
149,57971.992,30232.732,24575.855,-2892.5806,-6584.8813,7168.5312,35605.20703125
150,89354.32,87591.32,87463.125,422.2402,7.3115206,-124.467636,1982.95458984375
151,22385.54,21731.832,22160.686,101.02904,631.12683,-845.58167,1923.93151855469
152,-154153.66,-154183.84,-155128.42,188.36903,274.337,-957.4397,2000.98889160156
153,-187.0881,725.6928,574.8945,-354.76392,-5.3823156,984.5507,2000.98547363281
154,-245618.6,-245933.61,-246949.81,-133.84961,-622.4143,-667.2806,2000.93969726563
155,33634.37,13615.978,39723.73,15503.846,3819.0964,-2984.0098,36759.93359375
156,5481.641,-15232.783,-6750.3525,16712.84,-639.6945,-6281.7275,35817.52734375
157,-21100.996,-22437.4,-13495.132,13566.98,9381.382,-13384.599,37728.796875
158,52330.004,44824.16,65786.05,-1427.1774,-13294.623,11630.313,35784.71484375
159,-31796.207,-32300.639,-34248.12,6154.993,16.901703,17278.344,31848.166015625
160,10863.65,26836.455,-4609.5005,-123.378746,-11429.9,-9020.418,37118.40234375
161,41401.754,43641.05,56236.52,-11564.634,-15649.105,143.86298,36439.4453125
162,-21987.53,-49592.848,-22615.383,-8841.393,-7043.922,1232.9037,33660.6171875
163,-11470.829,-23193.926,118.62188,-8166.8784,14932.973,-7030.19,37748.58984375
164,29924.87,36601.555,55556.41,-4118.761,-4936.891,-5520.8174,27310.6171875
165,374.76956,2104.252,582.7909,-356.2355,-500.85696,255.63318,2000.98522949219
166,2777.5344,3704.2583,3680.259,953.99457,-361.12094,122.81269,2000.98559570313
167,15735.025,14839.716,15925.495,848.6662,422.47885,315.05396,2000.5830078125
168,5293.9253,-12179.196,12859.06,-6623.3774,16291.169,-1632.0077,37822.375
169,-2198.6787,-28801.564,-6316.6606,10225.336,-3466.202,-1490.9762,31168.99609375
170,11286.059,18774.348,18502.084,4023.8472,-1690.2408,-14183.156,26734.62890625
171,223998.62,223597.2,225610.66,-215.68495,-390.43347,7.933637,2000.98791503906
172,-424752.94,-426514.72,-424746.62,-157.49991,-84.71069,-514.1128,2000.97888183594
173,-19707.777,-12150.839,-40486.938,3004.463,17112.137,-1991.9155,39539.43359375
174,-30090.115,-10350.0625,-18996.705,12.54911,5261.3916,-7374.356,23236.59765625
175,48125.11,16997.37,19935.117,1384.5032,14087.682,5108.6406,39567.08984375
176,217401.88,216405.95,216407.23,-721.04156,-675.95123,153.1549,1997.84594726563
177,150262.36,150288.78,149223.92,871.48206,235.41324,-388.48376,2000.98681640625
178,23413.244,19109.291,-2618.089,-17901.871,1875.0918,-3415.4905,39888.5
179,24025.645,28475.06,32144.684,-10923.759,-1384.7592,6297.6,23071.8125
180,149123.03,151101.23,150648.45,307.08392,371.9811,-166.65489,2000.984375
181,10704.78,2152.977,17053.033,6179.739,20193.322,-1859.7115,38935.54296875
182,-97464.914,-66207.414,-93327.15,-1281.8281,1522.0283,1401.6975,29708.40625
183,26335.584,-5384.1436,-3547.2944,-5568.756,8096.7,-6485.4443,36974.80859375
184,58147.848,56519.72,54087.477,-9140.676,13522.68,-10432.037,33738.0078125
185,3677.9954,14350.72,-749.5087,16781.994,8000.7373,4873.909,35902.22265625
186,4121.8604,6906.649,-16232.524,-10532.626,-11793.254,-8469.898,38000.09765625
187,1251.876,-4641.885,-15510.199,-5806.063,-3063.2168,9778.923,25160.98046875
188,88834.44,88937.95,90814.96,-67.110115,-160.54138,248.24591,2000.970703125
189,36992.883,36807.527,38549.082,440.98273,-456.63638,-129.55219,2000.96520996094
190,-89429.05,-81510.85,-70074.26,-1882.8759,7149.25,6664.318,24109.357421875
191,2400.099,1377.064,3040.4604,-164.20047,772.3432,85.12678,2000.98547363281
192,-56754.58,-49298.555,-29367.229,-1383.1189,5024.2964,1791.3805,26316.447265625
193,15156.276,30266.582,54137.336,-4973.339,3794.8662,610.16876,35740.046875
194,-60913.312,-47100.75,-56372.836,4320.203,-1141.0153,600.1909,14479.8515625
195,42090.637,32975.523,63307.523,1321.7942,12794.975,-2945.053,35341.63671875
196,-58609.63,-62282.332,-81846.37,-3577.374,8414.744,-10018.121,31937.408203125
197,-36488.773,-17317.113,-11236.986,4535.6284,-6989.648,7259.425,29790.361328125
198,-12272.48,3096.988,6464.6675,-4219.878,-12934.098,-904.22107,29275.73828125
199,20200.893,25915.14,47922.24,13246.337,-8143.4883,-5573.029,38226.17578125
200,-13835.838,14739.764,19952.059,1621.067,-7336.582,-10444.958,38591.8203125
201,10500.7705,13948.419,19128.113,3549.938,-21788.574,1903.6108,39108.5234375
202,14947.417,21665.053,22675.75,6778.93,-20201.06,-4992.6924,38598.30078125
203,-4776.326,616.84216,-16094.242,9596.86,-6661.239,-9015.586,29520.8203125
204,21979.648,15561.089,42111.41,5579.1753,-6728.6426,-2436.9292,28683.166015625
205,8718.77,-4835.1567,17420.176,6509.582,6283.2725,2752.9868,25409.859375
206,-3026.032,1508.4094,4231.5024,3844.3872,-16794.893,-13671.9795,38621.70703125
207,-19282.988,-26341.312,-38177.46,-2065.4434,11133.323,-16846.717,38852.8515625
208,24625.611,28318.34,56403.785,8203.748,445.15244,-5708.859,34733.44921875
209,19139.379,4628.3174,-11680.279,7212.3896,-7142.326,-5540.48,33382.34765625
210,-32495.758,-29378.742,-40920.547,10917.18,1859.3347,2643.6711,22267.59765625
211,15879.861,11031.804,11177.208,-2947.5208,3224.4253,2687.2402,10086.52734375
212,4927.4375,7097.9956,2000.1311,-1469.5223,-3044.516,-7514.9966,14944.75
213,-8643.707,-4053.1238,-22514.965,4088.6206,-7084.5396,1150.385,21951.197265625
214,73505.36,81816.49,70140.33,9102.686,-5977.0093,10150.254,27806.458984375
215,-20300.246,-23552.709,4591.92,-3302.4067,-4735.3364,12580.032,35859.7109375
216,-29698.1,-26604.893,-35149.37,-10523.41,-10252.707,3891.0085,27370.541015625
217,20195.447,279.75684,20536.076,3205.9258,-8544.3955,-4688.915,26820.6328125
218,15632.182,4907.56,-4442.3315,-1227.7332,-1861.0782,-5471.6587,20185.193359375
219,-18515.049,-28275.512,-23408.092,-15736.666,-2807.6875,485.03555,28960.890625
220,214.68726,-3775.0215,5841.4824,-10014.483,-153.6112,2515.1213,19747.044921875
221,6614.5225,7155.3965,16807.902,-9144.132,1232.0956,10452.324,26112.009765625
222,2522.6978,1772.1211,1943.0797,-12970.337,-12518.315,1036.109,31280.958984375
223,-21597.572,-6536.4062,-44898.39,-7609.883,-6476.437,7626.187,39934.25
224,-23278.955,-7267.878,-40184.035,-1918.9949,13946.372,3675.9016,38051.19140625
225,9708.328,37050.95,8741.95,1679.9541,-8572.434,1081.558,31739.75390625
226,14449.433,10416.635,42223.96,9044.552,-7437.0938,1671.9004,36323.8984375
227,15248.826,-2350.0317,15416.655,-1333.2523,4603.0225,18250.254,37159.29296875
228,34519.785,40317.35,26797.332,4516.253,11053.468,-7125.34,26796.603515625
229,-2373.613,-404.69797,-7647.8965,13386.484,-9497.8955,4944.4106,30391.52734375
230,-10600.003,-10051.888,-17009.564,1412.0645,-10149.214,14485.675,31454.7578125
231,14604.778,7764.837,-19064.203,323.27927,-4388.627,3968.4114,32487.37890625
232,-5155.236,-26826.309,-21522.354,874.0117,7550.727,-12639.375,32177.91796875
233,9151.984,1396.4552,-12595.398,4589.29,1131.2039,-7244.4375,24267.337890625
234,34036.29,40326.363,45340.227,19.00981,-14460.855,3281.24,27493.474609375
235,28781.832,39659.734,31962.533,-11110.677,-17871.1,-758.3546,37736.4765625
236,-37926.723,-46201.484,-51850.2,-1218.6683,-12091.104,-14900.551,35443.484375
237,45689.797,47272.418,80050.68,2612.367,-8796.13,-3746.6667,37729.25
238,9379.354,13558.051,-24421.074,6852.2163,-4070.182,-1343.3464,38692.94140625
239,-15091.101,-23577.375,5313.3247,-8868.1875,3206.5015,-11096.14,36023.1484375
240,24730.04,16083.515,15742.248,-8076.2607,6710.374,-2546.8958,20689.490234375
241,50816.473,24574.36,32288.719,2480.5344,-14902.39,-8160.781,37818.20703125
242,-36606.473,-39880.137,-48565.848,12411.707,16230.261,-4594.3584,37819.734375
243,26996.84,-13428.662,-2158.8862,-7416.252,2039.6289,5723.057,39766.63671875
244,1616.1261,-249.82056,-13107.563,3464.7126,2909.998,-21051.863,39796.41796875
245,-17804.764,-33137.46,-34509.742,555.80865,-18243.51,-9022.413,38750.88671875
246,4227.885,5691.4443,32459.336,-9910.907,-734.34467,-10213.118,36973.74609375
247,3755.733,-17509.076,-40085.51,392.88605,5247.878,2330.6567,39260.0390625
248,-59364.695,-50084.59,-79720.2,9897.434,390.00284,-9377.183,35319.921875
249,100611.15,86335.11,111801.17,-3662.9055,3473.9868,-6706.8433,26460.77734375
250,12249.275,1285.8923,30261.834,-5744.0757,-4553.792,-4574.771,29429.6875
251,37004.566,58632.273,33899.19,-1850.1765,1582.5494,-13050.87,32761.587890625
252,57675.98,58598.973,52824.766,1552.233,-5854.432,-3705.6987,13420.576171875
253,-18949.547,-30374.889,-15905.422,-6765.6606,18526.781,-3855.3328,37232.0234375
254,2541.9248,2369.3,2827.406,288.58585,-1094.0074,31.41733,2000.98547363281
255,-137249.4,-137160.22,-136920.52,368.0905,927.55664,556.65656,2000.98620605469
256,73452.266,73122.164,73665.07,-109.64314,-994.86743,-495.17325,1991.3408203125
257,484637.2,483897.75,483874.2,516.83325,860.4333,-372.7536,2000.99169921875
258,609216.4,607878.44,609881.5,204.64983,289.92252,-409.74124,2000.95910644531
259,419063.66,417098.2,417576.75,-380.30576,82.74437,236.88416,1942.74780273438
260,347325.94,348380.44,348364.53,592.3472,727.25653,-282.44742,1993.51745605469
261,1273457.0,1274784.8,1275158.1,208.36949,339.42453,-613.74817,2001.00427246094
262,762730.75,763138.1,762826.2,543.44293,-898.9275,-422.57544,1995.51916503906
263,98392.58,97437.1,97978.26,-331.08017,975.9402,-207.36157,2000.98486328125
264,-1286863.6,-1285673.0,-1287905.4,-266.7251,81.22672,8.259009,1994.138671875
265,58005.215,58286.766,56461.67,-578.3835,66.04486,174.05133,2000.98254394531
266,93673.25,94074.586,93285.75,-617.1562,46.01719,892.2255,2000.98522949219
267,-230803.3,-230936.11,-229896.34,-497.86258,-830.54407,277.06174,2000.98950195313
268,160718.5,160578.45,161620.95,280.9698,861.29504,440.15732,2000.98852539063
269,132078.95,133306.64,132846.92,-733.43134,639.1376,-59.15203,2000.9794921875
270,-20064.334,-18802.86,-19945.27,-908.8564,-146.66913,-44.89505,2000.98461914063
271,78468.35,79522.37,79868.29,-579.02106,388.02017,563.1053,2000.98876953125
272,-209235.66,-209287.53,-210597.72,-330.50482,484.69348,628.0433,2000.76147460938
273,-291947.7,-292288.34,-291918.66,675.6474,-563.098,720.2285,2000.92553710938
274,1116.5769,-352.08472,-479.65204,398.0584,506.4972,-364.29932,2000.92614746094
275,4080.1243,8037.61,-2509.682,5616.978,-7357.6304,-6581.941,21729.87890625
276,10309.385,10900.363,9343.54,-259.0217,801.9303,82.5635,2000.97692871094
277,-210123.39,-210999.17,-209815.12,-116.70123,-555.6937,-796.8002,2000.97717285156
278,63263.48,53398.098,82524.44,4982.988,-6815.4404,-13822.514,38017.80859375
279,10674.483,12962.713,26982.615,1444.7156,8153.5757,1376.0908,21101.16796875
280,-45048.297,-45103.066,-40158.645,4236.998,21479.248,-2633.5586,38508.6640625
281,286.2189,-9494.867,-5130.97,1997.7927,13852.653,-2459.6255,26035.3671875
282,-18950.379,5068.504,-25355.258,-6312.6675,1161.5657,12935.28,37380.859375
283,16776.75,26309.203,1515.7129,-2173.1628,1314.441,-1821.3795,22328.1328125
284,10682.887,11296.618,12034.295,-410.20624,-34.023804,841.04944,2000.98522949219
285,-8247.253,-4130.3257,-25644.115,4930.736,4330.254,-3630.3489,23663.25390625
286,74936.51,69327.664,73667.06,7065.095,-6977.07,18002.223,35971.875
287,-3476.8354,-3546.0088,17348.55,-2129.3765,-10438.93,1917.5482,28047.986328125
288,-13178.656,-3848.8862,-17820.98,18489.053,-10093.298,4242.0947,39205.265625
289,-31475.855,-20736.385,-39109.086,3280.2805,-14319.521,3000.0981,30496.03125
290,-35680.203,-33034.215,-47591.594,-5134.58,-6213.127,-17909.305,36572.2578125
291,-3347.818,-15573.332,-15481.583,10439.702,-19205.227,485.0838,39781.15234375
292,8389.6045,-2756.6519,-29002.037,-10278.134,7155.516,-1642.9363,39802.25
293,-34331.902,-36819.824,-46182.31,-7224.069,8641.464,-3316.4114,23037.380859375
294,51457.895,67849.08,69648.67,-6624.069,-14082.615,-10796.501,37117.31640625
295,6397.037,-15112.661,-14507.694,-493.01385,18303.621,6124.593,39602.390625
296,32190.98,15163.818,31544.877,6100.98,11046.532,4227.8643,28472.94140625
297,-33027.508,-38822.176,-25832.389,7866.852,-5875.5903,-5738.67,22695.109375
298,24242.113,29937.49,58501.934,-2492.6978,3276.756,-12188.945,38827.99609375
299,13102.543,27495.041,42779.727,-8327.127,4233.9346,1122.5386,30435.708984375
300,8874.724,-4122.892,-3514.3909,665.4297,5323.977,-2018.6118,16124.0869140625
301,46374.625,45899.383,45316.336,-52.49474,-943.1413,401.28894,2000.69970703125
302,-479019.72,-479888.25,-478994.16,-762.0759,-482.97937,506.00858,1996.85302734375
303,59798.055,61125.902,61870.65,-325.33182,-354.79272,-22.97368,2000.86853027344
304,-192970.11,-193005.08,-191936.19,-916.1371,-105.5965,338.62036,2000.43408203125
305,-100093.08,-98889.35,-100352.46,605.8998,597.3296,-32.4464,2000.84289550781
306,63226.137,63347.156,62739.504,273.6733,856.3366,646.223,1996.94519042969
307,-92.461555,696.66394,-28640.322,876.05096,510.32178,13902.704,37697.0859375
308,-5936679.5,-5939450.0,-5936759.0,351.15707,-390.62766,-1660.8043,4069.92016601563
309,511542.62,511883.53,509770.72,106.609924,-154.30469,-204.95227,2022.7373046875
310,95888.266,96505.15,96174.28,-947.98364,556.71295,38.3625,1978.92211914063
311,125555.91,124937.82,130778.58,-1473.1057,-3514.8445,1777.1198,9161.515625
312,-23846.094,-21667.477,-23095.375,-308.94876,-79.70219,-89.2366,2000.92919921875
313,-25655.023,-26249.354,-24867.275,682.0373,-549.0598,295.32486,2000.88293457031
314,6189.7188,5907.364,5036.4624,-846.74036,-424.1809,-276.37793,2000.98645019531
315,77782.89,67008.82,65561.91,-4803.6895,5035.5073,-7711.3633,21388.173828125
316,6086.8394,-10830.91,19014.826,-782.883,15548.803,-2947.9814,37752.640625
317,-23426.516,-4155.8247,8560.046,4579.1484,-905.99994,14718.857,38644.5234375
318,-5324.479,-7082.51,4323.423,10544.666,-18495.047,4122.77,39037.109375
319,27365.006,45344.086,54149.9,5933.9463,-13290.685,-1433.9889,34653.15234375
320,-110060.24,-107714.29,-136555.55,6965.2534,-6949.1963,5532.5815,33939.76953125
321,-15672.797,-2843.693,-27960.688,-630.97797,-5603.2856,93.92896,23846.0078125
322,5101.1353,8403.445,3870.9949,2053.1611,4576.745,612.8491,9648.5107421875
323,-54845.223,-42221.754,-38940.426,2077.2925,5368.4634,-12352.517,27725.466796875
324,-53505.707,-52317.64,-50852.137,-1569.1488,735.4833,19812.314,34523.80859375
325,-8184.39,-21062.287,-25827.37,-6432.047,-3205.8926,-5368.074,22165.42578125
326,24694.4,31312.896,7938.087,-8643.317,-2376.7676,13776.148,35297.234375
327,52020.492,24043.25,34992.848,658.2188,-6481.942,1978.813,27117.77734375
328,23382.576,-1711.0636,369.84122,6711.873,-1384.8604,-3390.4324,27517.08203125
329,-41353.492,-40090.32,-55104.645,4775.038,-2974.8638,10826.952,25586.734375
330,-44085.76,-34419.156,-70038.78,3063.6472,11147.533,-4753.81,38556.92578125
331,13905.859,30549.203,-8132.1255,-2654.8855,-3004.474,191.66081,34319.02734375
332,27210.748,17378.236,29364.543,1179.7765,18250.066,1090.6632,33607.04296875
333,-101473.484,-80323.125,-106572.805,5610.8022,6428.55,1940.7451,28476.564453125
334,55710.234,80127.29,68996.83,8166.695,-2484.374,8825.959,30010.00390625
335,266139.12,266522.72,265296.62,185.48883,947.79395,249.00906,2040.66235351563
336,938856.9,939986.4,940018.8,124.81703,826.5775,-420.00732,1984.71862792969
337,43658.258,42464.582,43040.58,-34.311466,954.2554,-255.70563,2000.14465332031
338,-157992.44,-156477.39,-156933.08,521.13605,587.9381,336.32986,2000.93603515625
339,1610.2106,17895.78,-11114.643,-13101.577,9800.115,-1232.0309,37973.7734375
340,6357.062,29802.328,-9505.35,2334.845,10206.883,1539.3195,38848.41796875
341,5811.3066,7604.8896,-16552.182,-3561.3691,6751.0425,-12909.23,34902.40234375
342,-99.52968,-3003.8274,-26051.121,15882.736,-4683.8237,5389.6255,38939.58984375
343,2655.651,-1240.1613,-12321.916,10786.754,6019.1665,-8582.1045,29323.46875
344,-10340.301,9118.114,7994.0425,-4975.753,-10059.26,-13597.724,35924.30078125
345,15419.837,10987.092,19447.445,3150.814,8016.24,940.83264,16701.583984375
346,-918821.06,-919359.0,-919457.44,670.55444,209.43396,-850.5736,2000.74084472656
347,26899.037,15809.286,10816.464,-5870.8784,-2506.511,11551.75,26941.755859375
348,-10884.155,-10159.082,-10592.072,-208.1053,600.60913,893.0385,2000.98303222656
349,38364.03,38460.492,39025.117,-684.1761,-794.4015,328.65186,2001.029296875
350,958.1226,-1582.0784,12377.238,6766.544,-5646.3486,-2806.4644,20554.4765625
351,25017.824,58165.242,42525.75,4777.118,6795.0234,-7161.19,34434.921875
352,340.36615,14696.236,-6806.0796,-9982.513,-12320.168,5492.113,34706.734375
353,-5901.337,-21973.459,-28771.402,1994.6708,11996.073,-168.12665,29283.455078125
354,37997.12,23993.674,19489.662,-662.404,-5304.536,1564.3264,19300.94140625
355,97307.73,98322.24,96856.516,-791.8584,37.590538,-378.3168,2001.33032226563
356,-184622.08,-183926.67,-182826.03,-96.42247,564.30743,432.62985,2001.27917480469
357,166324.33,166416.23,165562.83,211.11015,856.11957,581.11536,2000.98107910156
358,-156866.86,-157943.64,-158675.52,-29.386263,-535.1499,468.83847,2001.08569335938
359,25167.904,24219.904,23983.2,-230.87978,828.6646,449.0412,2001.00354003906
360,-10215.654,-7961.753,-3974.7693,4371.0586,213.15417,-2362.18,10205.7255859375
361,-1622.3649,15301.7295,-8426.304,2708.8674,-5196.18,2481.873,23861.326171875
362,21281.38,7806.1655,20419.783,2299.9602,-801.92413,-1071.9071,13854.9345703125
363,1343.9762,700.51874,-11316.907,-6407.404,-2022.4116,1291.369,17117.33203125
364,6282.6035,5527.6665,-21973.05,429.0652,1932.5299,11375.194,34315.625
365,-1459.9359,4389.696,-3028.4204,-3793.5159,-4463.248,-4531.1895,14504.5673828125
366,-28218.69,-32498.092,-59128.152,2540.858,-13678.1,-1703.8933,37825.69140625
367,13361.771,22041.367,24281.828,4023.0276,514.64966,9394.706,20345.310546875
368,29721.809,24718.486,23998.31,-7400.9224,6775.0757,-1970.0314,18515.509765625
369,53296.56,28720.465,13912.009,-3518.8418,5152.617,7058.73,38124.54296875
370,26732.248,3516.647,-5450.9683,-6295.8525,1195.6927,-1624.7406,30962.76171875
371,-13382.063,-7119.176,-12939.58,-6633.744,6270.6006,-7375.0894,21208.611328125
372,25764.85,21649.055,29011.945,2516.4907,-6752.9043,-1286.3932,14199.138671875
373,6228.992,17094.307,2433.3396,1214.5234,1481.6277,32.524982,13591.064453125
374,9249.2295,8601.862,-4285.8667,6882.8145,1104.9594,-2344.5117,18361.05078125
375,13293.375,13306.241,5507.3833,-7051.343,2671.617,626.4952,15247.1767578125
376,-139920.86,-145024.05,-139307.39,-431.61136,2382.398,16359.271,29154.984375
377,19806.445,11308.229,-10227.987,-4690.8945,-947.4303,3920.2444,28876.6171875
378,21433.33,35507.523,13448.123,-2121.7756,593.0728,-3765.7444,20768.61328125
379,3246.6116,1490.8759,-14681.543,-4429.11,832.0644,863.86633,18873.025390625
380,-2012.9688,7623.3657,-6983.351,11423.466,5764.931,-10340.411,31263.75390625
381,-25323.992,-19871.807,-23196.264,2519.4766,-5251.9395,1820.816,11592.7041015625
382,-13430.944,-4036.2346,-30975.064,3709.1958,-7178.3267,4971.6636,28825.169921875
383,14445.231,11513.556,20982.096,2773.3645,3402.382,-8271.413,18263.115234375
384,7437.4917,11754.499,8268.608,6785.898,795.9909,3375.7727,13783.06640625
385,-4893.321,-7304.8994,-9966.517,8387.733,-4729.8247,-1928.3967,17568.45703125
386,-607.3118,683.1409,-3144.5574,7402.706,-1135.9949,3335.0254,14595.0634765625
387,7239.631,10236.023,14996.788,4638.622,1522.8475,-3235.1035,12198.9208984375
388,8475.398,11786.032,4620.067,-4881.112,-3753.3018,-4246.235,14367.205078125
389,1729.9315,18538.006,5519.1904,83.63766,1571.6859,1841.2024,15836.0771484375
390,-18077.203,-8592.031,-1591.452,2680.9648,-1568.8497,-1549.6061,15541.1943359375
391,16492.533,22141.248,18518.717,810.3974,-129.5059,3806.538,8370.0546875
392,-1667.3453,6452.3936,-2811.8105,-4016.5527,-2260.7703,-858.0641,11936.2001953125
393,122.09747,13030.281,-6601.45,-2455.737,3209.7988,-2432.903,19114.74609375
394,-23937.465,-15797.901,-19098.395,-6142.7974,1113.806,-3549.8833,14318.162109375
395,16930.525,16365.809,-8152.5654,-6360.79,-2842.8735,-5716.808,29308.4609375
396,-4057.6858,15519.683,7208.7627,-86.794754,-1433.5801,6022.9526,20116.03125
397,14323.087,1395.9191,21207.775,-8068.977,5468.799,-4411.424,25435.025390625
398,12955.185,-754.10236,10289.446,-860.62854,734.52814,1483.1113,12997.8779296875
399,32284.035,34606.688,34584.406,901.3339,-2709.447,5889.79,11570.34375
400,-2606.439,-9774.836,-12647.261,9568.622,-7659.857,-6.4827514,23041.775390625
401,22036.555,28858.451,36949.117,2645.6482,7572.2236,-5164.465,20981.419921875
402,-165499.83,-164139.86,-192370.45,621.2787,2268.3994,14306.481,37296.70703125
403,8684.98,22767.234,43140.996,13090.057,5111.5254,2019.1239,38793.95703125
404,51570.395,53669.188,79956.58,-84.18333,7501.5234,6744.1685,32494.537109375
405,-5105.3423,18409.154,3075.8257,6828.6113,-1470.3417,3840.4885,24861.830078125
406,9381.352,15000.317,6193.017,2765.4824,-5.532442,-595.1846,9146.578125
407,-9397.728,9553.377,8655.989,-7179.308,-1620.4519,1916.3964,22725.88671875
408,8045.336,17873.932,-18912.387,9259.04,3705.7036,-4313.657,37980.0703125
409,-23935.584,12264.408,-10361.941,-321.44427,-7134.73,-35.294792,34005.0625
410,9151.91,14217.031,6732.379,4249.5195,7193.928,1252.8373,16059.47265625
411,884.9857,10012.894,-530.2385,12.626759,371.43518,-7414.9233,16235.677734375
412,7097.0005,13582.646,7364.661,1048.5764,5133.1123,6958.079,16370.3681640625
413,846.4493,2545.2732,3002.3354,3593.6797,-2882.241,-4884.4014,11794.4501953125
414,10820.014,19945.188,15236.908,1278.2543,10027.617,4270.604,20585.142578125
415,-21688.035,-27039.828,-19909.836,-4331.567,-2793.1714,2160.3408,11619.564453125
416,4946.5103,4286.9966,5650.142,-5626.1104,-4320.8613,-5505.549,15597.955078125
417,46485.992,31962.959,14949.866,-6917.6167,-6351.392,-3165.4705,32281.37109375
418,-7659.746,-7645.6816,-16977.799,7432.2524,-7221.06,1629.7661,20422.33984375
419,-3380.985,10835.256,-12173.638,-2455.6958,8096.754,1050.3622,24949.630859375
420,-3584.7375,813.3311,-16667.121,990.75433,369.10992,10563.646,24210.625
421,-11944.615,-6880.6133,-475.05084,3443.0347,5471.1475,-3882.6816,16422.625
422,133049.66,126131.98,164984.72,-3249.8726,2943.1162,-8555.221,39571.015625
423,64658.27,62796.426,68716.8,1378.2377,8797.239,18054.088,35259.2890625
424,3457.885,8752.636,-1312.5782,-209.0028,610.6188,628.75745,8859.2177734375
425,-7404.7725,10451.13,15206.039,-520.6765,3395.0974,11079.485,28809.7890625
426,-850.5645,14806.397,41725.36,1840.3806,-7422.5093,-1270.6752,39642.4765625
427,6002.514,-5942.9033,-9743.687,-9495.4795,2323.6118,-4408.5776,23399.517578125
428,12098.369,12758.326,16817.328,4619.9126,-3384.9004,2133.0105,11473.5546875
429,-11926.742,-10014.682,-2764.91,1562.6385,-5277.1777,179.79749,12690.3701171875
430,-767.5762,6282.14,-2322.5964,-1327.7412,-2968.3325,-1166.8068,9944.095703125
431,-11157.626,-851.9949,-11924.98,5.2177362,1386.1487,3244.4446,12330.7138671875
432,-4622.072,-20503.234,-41895.434,-8768.703,-2.7825549,-6532.986,37527.06640625
433,46096.562,41480.164,76383.9,-1467.1656,4923.826,-1323.1816,34101.2421875
434,-7258.2,12195.678,9033.964,-1092.1536,1978.547,9934.678,25265.748046875
435,5566.992,10882.0205,-4410.3677,1524.8876,12845.324,-1985.3693,26355.931640625
436,406.63647,8903.2295,-2030.5603,8697.059,-11120.503,-2437.9172,26731.693359375
437,1649.6573,7439.5884,-9752.133,1057.9922,4769.704,-3954.788,18656.607421875
438,2819.0078,22020.854,3779.5166,-558.0275,-6590.2295,3829.8906,22943.880859375
439,-24278.623,-16937.613,-17711.104,3264.7776,-2971.099,-707.0534,10429.2333984375
440,5251.956,12448.348,6476.6367,-7424.092,3445.075,15819.464,31562.603515625
441,-16122.93,-12968.9375,-17729.514,1483.4103,643.414,-6749.2266,12731.67578125
442,-1889.3455,4343.7393,1937.3688,9711.098,1868.2073,-1508.1887,18161.873046875
443,1200.6392,9973.815,654.29517,4464.1284,-2952.98,2161.5713,13491.591796875
444,7125.692,15765.686,4426.458,167.82133,2796.4343,-3812.2654,13130.1728515625
445,13527.484,24349.955,763.8408,-2402.248,1845.9863,60.075268,21112.005859375
446,9717.884,7248.1035,715.416,1289.8456,283.35437,3639.0215,10481.8662109375
447,16119.871,14243.816,1628.0156,-5005.61,1431.0566,1879.0193,16680.833984375
448,-44775.984,-43624.312,-64720.605,-1791.1838,-1833.6525,14547.626,32813.046875
449,3544.2163,-435.65015,-11913.457,2805.2605,-843.84863,1369.1085,14987.5810546875
450,17697.256,7129.7417,17191.13,-2615.4988,-9985.166,2819.527,21214.673828125
451,-4579.69,-18800.598,-24983.213,12154.552,6057.079,-8757.029,33342.1953125
452,-8840.555,-21316.818,-11036.252,-302.02512,570.7028,1429.4352,11851.783203125
453,-125973.03,-125800.91,-159684.88,686.3176,-10854.376,4758.6294,39561.59765625
454,-9704.361,-4797.211,-524.7446,-1913.5303,-17.725248,-1250.5767,8886.9169921875
455,12178.955,12121.994,2163.3271,177.63245,-1004.425,5991.8076,14511.103515625
456,-16682.76,-27255.332,-36130.61,-123.39813,337.39984,-2579.8362,17456.75390625
457,-20169.98,-24970.59,-32924.63,5216.89,-15505.076,71.12699,30452.947265625
458,41069.7,30296.363,59939.434,-4030.3196,2239.766,-8850.8955,31212.447265625
459,-17969.03,-4730.81,-11387.729,2543.7576,-1216.8204,5522.6772,15709.654296875
460,-25429.92,-3876.5664,-16166.382,-581.40186,2648.564,-7859.798,23623.884765625
461,-5810.356,-1057.1807,551.90283,2807.431,3798.0408,3391.3757,11586.833984375
462,8379.176,13845.664,9997.495,4686.0405,2709.0425,3582.5728,12249.615234375
463,3345.4248,28667.025,14281.552,3055.3577,-2556.7832,149.02933,23055.275390625
464,390.75888,3431.1277,10239.498,6677.5894,-1620.6823,-4485.5093,16682.55078125
465,8601.359,11704.633,10850.382,3195.7073,-8205.156,1605.5697,15749.732421875
466,-720.86926,3247.4834,-9818.589,-356.9892,-4450.634,-502.0535,13970.7626953125
467,-940.5552,7841.241,9854.189,721.7789,2909.5933,-9018.031,19229.767578125
468,86499.375,77771.55,119019.766,-527.9386,4945.6934,4200.164,39302.96484375
469,-4670.8716,-18921.21,-6949.0664,-1375.9668,-254.35341,13410.774,26855.5
470,11956.962,4331.235,7258.016,5111.6865,-1059.0883,-4864.478,14040.7041015625
471,1329.6301,6870.62,-2317.2786,145.0483,-2898.5823,808.93164,9562.5078125
472,297.21814,6295.9824,-850.65015,1466.2823,5281.0176,-2672.1304,12479.0546875
473,3267.1177,-2984.1582,13742.988,236.36708,53.15567,5129.326,17129.38671875
474,-18984.227,-19473.342,-39810.8,9967.472,-1350.5206,6792.3457,29423.2890625
475,7559.0615,13054.408,8961.356,-4472.009,2408.775,-2524.524,10999.1826171875
476,-2207.1082,-3806.624,-7553.409,2243.4316,-5620.2847,-12639.631,24733.2265625
477,20400.064,17304.451,-4374.2344,3327.8445,4862.162,-2233.7424,25802.544921875
478,23289.379,18721.992,39870.81,3680.2466,9650.259,5691.138,28084.17578125
479,7613.1074,12982.256,-2916.9111,983.82574,-10261.04,2049.998,22970.07421875
480,1338.5566,5250.0938,-3597.772,-2312.001,-2951.7725,1022.9915,10212.275390625
481,9113.494,9869.414,-3256.4644,-3161.13,-290.07034,4268.1475,15742.2958984375
482,2164.668,-4369.674,2670.2986,-4682.841,1174.3757,-6020.1587,14996.955078125
483,14363.523,-3505.5361,5663.7705,751.5723,1028.1455,-364.8063,15646.01171875
484,-1099.3556,4411.7417,-2547.457,3165.4648,481.32315,-3991.4026,10908.6767578125
485,-1369.6075,16045.323,-9797.185,4594.245,-2860.922,2982.0298,25211.564453125
486,6041.518,14331.589,-1940.8286,4805.0103,-10515.111,1363.8068,24600.087890625
487,-16808.244,1498.8613,5355.397,373.7231,-10491.619,3002.5461,27898.244140625
488,3418.7524,-6074.7666,839.2056,1905.7079,-12074.948,-3626.9019,23665.662109375
489,9800.288,8740.521,7748.815,-2129.2202,-4582.6753,-1066.3807,9119.8984375
490,5842.5605,-2349.248,8745.103,2813.6938,5932.746,-895.6066,15200.556640625
491,-6802.894,-13817.468,2898.207,-6162.8525,5587.3936,-1891.577,20729.158203125
492,17455.953,4876.462,26341.72,-1447.53,11718.01,-16206.042,39434.8515625
493,-11391.895,7825.748,11094.256,-1815.7598,-8445.281,-3683.0283,26596.376953125
494,3626.6138,-1705.9568,6324.9414,2790.0107,-2009.218,-454.52667,9283.826171875
495,-6677.9277,-28002.145,-5398.365,1027.0414,2190.1187,1812.1449,22606.4375
496,249.67615,6301.1714,-6837.895,5828.309,-2379.7139,-2655.529,16425.494140625
497,-8995.265,-11174.062,-22275.064,3278.844,-4231.5913,-2590.4138,16070.7353515625
498,-11801.397,6258.6978,643.62244,-558.23944,2571.5825,1362.2737,16811.564453125
499,13880.563,7136.9194,2717.705,-1695.3872,-3004.8218,210.51447,11430.25
500,-14343.32,-7292.828,-26833.797,1065.9191,12634.057,2047.4705,28082.53125
501,7922.5093,9172.809,7139.014,1763.3536,1165.5386,-4916.9673,9438.755859375
502,18236.152,6865.8477,14848.081,-3682.4814,1482.8395,-1040.3678,12359.814453125
503,-16628.068,-6894.1157,-8875.867,1884.5944,-2251.9812,705.12463,10331.884765625
504,23883.137,31337.664,61534.062,3995.5464,-236.66658,-6343.9966,36895.6953125
505,322.70288,-282.47632,-9268.262,4078.9753,-244.96619,-6045.089,15693.056640625
506,6152.445,32333.117,-226.15723,1823.5593,-2110.4536,1846.8414,30441.43359375
507,12514.568,25780.816,4729.423,1797.3468,-3094.1973,258.22742,19454.94921875
508,6599.3926,27692.596,31120.518,224.52994,3047.323,7861.8784,27247.328125
509,15954.307,21070.465,-4891.1797,2385.6553,1123.4457,-641.82697,24278.68359375
510,-3856.7417,-1184.7942,-7862.243,6074.1973,1924.3008,5941.6616,16173.814453125
511,-6804.122,6546.004,-7308.497,1289.5757,-2019.356,-1797.3131,14564.5849609375
512,-806.1312,-585.3638,-4513.6313,-3113.9314,17347.107,7928.249,33690.359375
513,8176.551,7153.6567,4212.0547,-9866.55,-3058.0986,4135.2495,19598.76171875
514,7437.374,7722.633,-3110.9087,4941.129,8547.168,-2010.6312,20466.828125
515,-315.80756,555.7689,915.0584,-271.19873,-4832.309,1132.2198,8678.8203125
516,-700.4118,10162.73,-12936.75,-2875.7163,-2965.9817,-4382.1406,22571.458984375
517,-36594.242,-30241.07,-22391.062,1294.526,5008.475,1679.8601,15511.4638671875
518,-3133.6204,5021.1914,-9189.604,79.16853,4979.446,954.4618,15155.78125
519,-18422.318,-27166.553,-4905.8745,-5338.9854,-241.28911,4475.9546,22872.216796875
520,-15254.162,-22027.305,-29917.057,9983.252,2865.9653,-1334.7535,22148.228515625
521,12041.845,9052.945,20374.893,5474.4595,7488.2334,-9025.843,24613.15625
522,-7267.0713,-3319.8757,-10443.187,-163.22035,3050.2124,2301.8438,9060.4404296875
523,19743.965,13298.062,9256.445,5524.8633,5377.982,867.95447,16264.58203125
524,8194.779,4435.6353,2499.66,1990.8912,1913.4323,1557.8162,7437.18798828125
525,11446.754,-3561.4092,18583.033,4522.601,7068.061,7682.0996,27776.826171875
526,-19595.07,-29794.898,-604.9336,2087.7112,8881.477,8945.718,33884.40625
527,-21094.36,-22699.264,-428.23633,2661.0728,-189.71979,-47.708836,22004.32421875
528,5981.6494,17468.258,4459.4897,-632.8389,-5493.2056,-2169.2456,16049.5439453125
529,1500.355,13472.978,9179.603,3316.3613,-3115.7456,-3202.4568,14256.9052734375
530,-55166.465,-34359.79,-46250.977,6012.075,760.69543,-11308.725,28648.470703125
531,33930.22,6803.8184,15133.884,-2483.2688,-544.97424,381.22678,24476.392578125
532,-2064.6843,2641.858,-2003.3647,3107.5984,-735.9549,2672.2607,8595.6982421875
533,19673.174,1734.0664,-483.69043,1802.9127,-3230.3618,1421.0844,20337.900390625
534,11976.833,-1535.2415,-4726.331,1064.127,-3489.5703,6054.474,19641.17578125
535,16783.807,5894.0186,10669.27,3896.4233,-3564.7917,-3306.1064,14347.4609375
536,2515.0374,10781.976,4723.8755,8172.2764,-911.6758,-7602.075,20765.05078125
537,-29244.133,-5848.375,-1132.9668,5339.249,-829.4995,3168.2139,28242.109375
538,-18265.945,-3877.3877,6337.568,5215.121,571.1264,2325.6787,23604.0625
539,6269.8794,4192.138,-3217.2402,2409.538,-4930.937,-1618.6995,13146.53125
540,11697.681,6405.274,1588.4326,4952.8716,-1485.5765,-618.82434,12572.45703125
541,-28617.682,-14273.149,-11669.436,-8996.54,1708.6755,-1841.3826,22619.416015625
542,4286.394,-5952.8047,10032.924,12214.246,2647.7131,-2756.2766,26231.458984375
543,-1642.9336,-21152.154,-16153.916,3304.373,9621.548,3274.6643,25509.40625
544,-4196.6807,-22665.5,-4457.9277,-2930.4856,-1414.5237,-7642.1445,23309.087890625
545,-12401.005,-2464.5603,-777.31885,-3685.9075,576.0289,210.29234,12658.2275390625
546,381.05908,-24069.016,342.45752,35.235954,2606.7576,-3157.155,25439.259765625
547,2843.8442,-23201.52,750.9263,-6225.714,6870.911,1296.7008,29852.6640625
548,4285.1416,-18695.309,-10387.799,-3087.0723,7050.7373,1999.6985,24411.689453125
549,-23978.445,-22080.225,-25512.594,-3145.895,2889.1416,5181.3604,12005.826171875
550,-1707.082,5050.115,9847.395,5871.688,-1185.791,145.39922,14449.9697265625
551,-9359.441,-4973.7363,-4573.263,5812.305,417.42188,-155.86403,11094.8369140625
552,-3874.141,-1998.7457,5369.0366,2445.6038,-2635.1414,453.8843,10536.2099609375
553,1579.153,2703.3313,882.88544,-3031.8801,-3187.128,-4012.53,10434.6884765625
554,-29569.227,-14165.814,-2389.6182,-371.77216,4458.1953,2270.9204,25156.5078125
555,13976.169,11980.577,5208.454,-5741.1353,7364.547,1301.2308,18166.716796875
556,6208.206,84.08411,-706.8236,2344.8782,-6113.6514,-55.484905,13099.9541015625
557,3397.1626,8318.561,1249.8203,4687.2783,-12369.879,720.9309,23788.90234375
558,16285.045,11513.826,4814.459,8021.3013,-1642.1243,-2036.9196,17696.634765625
559,9443.253,7396.7056,-3154.1597,3807.174,684.31586,-9475.09,21244.353515625
560,-12764.027,-12497.692,9401.363,-3103.9229,3011.9338,5019.3213,24842.927734375
561,-33918.215,-17094.598,-11553.768,-630.2632,1624.389,7623.6143,24298.513671875
562,-4333.4927,-14451.531,-3204.252,-3625.7915,-1681.6818,-117.21457,12768.7138671875
563,-484.65356,4378.086,3708.3594,-3330.3296,-2833.9248,-209.36635,8850.7763671875
564,-9907.647,-2258.5671,-2505.9219,2362.4175,413.46332,-2880.8574,9941.4033203125
565,6080.329,13476.84,1468.7349,-5554.011,1722.2649,2278.931,15070.0087890625
566,2631.6333,-3089.295,8082.1597,3780.5652,-3642.5776,-753.8931,13341.9462890625
567,8381.161,1816.2412,1544.4451,12163.889,-8457.313,-2836.6558,26973.232421875
568,13871.151,17672.543,5588.7227,1638.1809,2947.3328,665.67676,12246.41015625
569,-15110.722,-9426.983,4042.121,-1582.8174,-5230.754,-8284.235,24202.48828125
570,12591.935,16950.93,13860.753,-2826.711,-4173.907,-5508.5015,13503.5595703125
571,-23358.465,9994.209,-3382.861,1474.9171,-42.109528,4562.051,30234.982421875
572,3589.5496,-2865.5027,-11983.655,-4909.671,3117.4475,6739.0093,20527.525390625
573,-3052.7803,2614.059,-22905.418,18.276047,7090.5728,-5929.44,28196.568359375
574,3625.9536,6131.3813,-7189.8115,1550.4191,4028.0095,-1537.8702,14606.06640625
575,3331.8003,13224.011,-3106.0405,822.1585,-6666.612,4642.5273,20074.96484375
576,2961.126,18232.861,12413.214,-784.8266,1690.9509,5263.026,16484.60546875
577,-2564.3271,-4367.7935,156.7876,-2995.2847,1164.6372,-95.51824,6824.66845703125
578,-8878.507,12422.685,-6960.8438,4390.262,-8971.534,739.1595,26786.138671875
579,1837.1063,14894.772,11120.503,-6629.0947,1897.8522,-10985.508,25301.166015625
