Element Label,S11,S22,S33,S12,S13,S23,Mises
1,-6578.355,-6575.7754,-10262.294,20.564127,-430.0381,-130.31172,3766.6865234375
2,9626.433,9696.886,15236.137,-51.350704,-299.0278,-590.1651,5692.06201171875
3,-3545.8647,-3515.49,-2646.9673,-52.374992,-598.81964,1261.995,2577.50146484375
4,-12544.087,-12400.37,-21530.217,30.701176,-448.3241,-596.40216,9150.712890625
5,47503.62,47799.02,70450.69,62.274834,-328.75565,-976.684,22870.814453125
6,4993.7524,4792.756,7322.1514,59.20401,688.6868,97.03354,2718.72607421875
7,280.00964,269.00757,5754.177,-69.66312,74.01238,-163.56776,5489.81884765625
8,-24283.436,-24374.672,-38714.02,12.779498,423.66528,-123.01243,14405.478515625
9,53933.633,54003.793,77631.91,-83.489586,649.50073,-994.53516,23752.982421875
10,-109568.47,-110151.91,-145975.12,-36.90466,291.64032,3048.4924,36505.93359375
11,21150.393,21035.193,31464.18,42.594887,167.42804,-20.175304,10376.240234375
12,-39976.992,-39838.754,-58452.613,13.3735895,-9.8480425,329.29007,18553.91796875
13,66267.3,65836.6,95217.32,63.72041,6.441061,-640.8369,29189.078125
14,-105652.93,-104902.91,-141418.11,15.863668,-354.39673,2093.696,36332.6796875
15,139897.69,137417.83,169250.19,1505.5847,-3012.7595,-567.1622,31233.068359375
16,-12549.6,-10433.538,-25483.252,763.79083,-658.6221,1727.0547,14530.1455078125
17,-6753.2446,-2566.2964,-10676.966,1023.87,1986.4718,-1282.5836,8323.0244140625
18,-29474.734,-29961.389,-50258.44,591.08325,371.90646,95.99926,20580.951171875
19,27296.422,26833.137,27790.445,100.031,-380.54013,975.0122,2000.99047851563
20,-110613.11,-104451.5,-144141.78,-145.15334,-322.0845,-1033.8558,37044.6875
21,11428.377,12087.088,20761.725,-884.3279,111.43515,796.2332,9256.490234375
22,-3136.317,-11201.773,-14445.279,-3159.8147,-7122.0034,-3713.167,18033.779296875
23,-25665.254,-24596.324,-41788.43,1791.3267,299.19296,506.04956,16999.921875
24,-7630.3325,-6301.3086,-7076.754,-701.0213,98.785515,-5565.824,9786.51171875
25,32516.121,36299.734,62819.64,-435.85605,542.3469,1178.0592,28698.048828125
26,-41269.203,-43352.156,-68831.73,1753.0852,-729.7438,838.2293,26824.341796875
27,146871.31,146570.88,183738.48,-37.969994,-295.0163,91.86137,37022.23046875
28,-614.4184,-1725.5994,533.68744,-1746.1979,-462.0147,1928.8788,4977.78466796875
29,-84823.86,-84248.195,-120128.59,186.30637,86.16112,167.4546,35599.015625
30,-3630.8623,-8926.154,-6219.657,-848.603,-854.52545,2225.9915,6344.26416015625
31,-398.80676,2786.4558,1499.2769,-258.2882,-382.72992,-1644.5948,4056.64721679688
32,-620.5839,880.9851,355.6954,429.97318,-82.36865,-293.88376,1604.98217773438
33,17212.2,18637.709,30880.213,53.21659,-955.30493,866.68805,13204.6416015625
34,-8821.301,-6840.5264,-11859.164,-340.36157,1358.8688,1005.69165,5300.07177734375
35,-12989.833,-12824.699,-21092.102,-713.3838,768.75494,-910.89624,8532.3427734375
36,2966.2498,4534.638,10051.085,197.17699,1272.5059,-1214.3131,7137.30224609375
37,-555.4883,4060.912,12682.649,2399.359,1358.5366,-91.05047,12580.9150390625
38,4410.7827,-3950.4766,-4986.1904,716.1022,-2523.365,765.41156,10101.5498046875
39,436.82996,814.8915,3402.0017,529.01636,-542.54535,211.81332,3109.88623046875
40,-5700.505,-7192.075,-13691.048,-1403.997,-941.5099,-508.7625,7968.97509765625
41,1046.8447,1329.1372,3857.3877,-461.9095,237.16849,459.86115,2937.46313476563
42,-10475.723,-17867.373,-30270.55,1972.5232,-2871.859,1516.8052,18533.013671875
43,361672.03,361039.56,362334.06,98.643196,-302.46863,902.45825,2000.990234375
44,654601.6,679736.75,697453.06,5829.3203,-5198.5303,-1061.3994,39715.75
45,-770155.6,-787831.0,-780109.0,-12496.003,-16809.62,2745.0847,39677.51953125
46,12312.331,12281.299,9377.305,-913.6716,-1460.6129,-2686.22,6251.09228515625
47,306050.12,305668.6,325021.84,186.20015,-3236.0576,-13315.575,30508.09375
48,-13615.755,-10436.671,-25005.2,5015.1147,857.6169,3375.488,16966.921875
49,-86716.11,-80375.41,-119827.05,136.3799,-20.739994,906.8638,36728.8671875
50,-18230.02,-6081.9062,-29197.426,-1596.9198,-1627.6162,-217.07603,20416.494140625
51,19122.398,15138.311,33423.477,-587.39484,-443.50583,-1560.7714,16920.513671875
52,-25068.885,-26136.963,-38942.92,2679.813,-148.91298,897.62366,14242.1572265625
53,-44938.484,-41944.42,-71139.46,303.53445,-410.57446,1851.0646,28017.216796875
54,50972.367,53600.89,79673.36,136.12837,98.68394,1630.9956,27627.525390625
55,7844.2573,12751.703,17680.846,340.0911,-3527.0725,1856.293,10980.6259765625
56,-26031.047,-25465.46,-47172.17,415.041,-3.555198,-1560.8846,21611.341796875
57,-25239.195,-28652.111,-50026.38,7938.851,-2635.337,-11708.92,34097.84765625
58,-13529.413,-20605.107,-36018.48,3352.2727,-784.6999,5449.3545,22832.974609375
59,-10839.297,-12918.239,-7022.4355,-3153.147,-1191.4923,-2255.0933,8727.4150390625
60,5246.1714,1712.1276,168.97998,-233.84242,596.9332,345.13232,4681.314453125
61,16085.734,9593.848,20285.613,88.1708,3117.2366,569.9795,10825.8095703125
62,4808.527,1103.3813,-1760.397,2740.3838,1771.9731,974.92456,8206.111328125
63,2225.081,-3671.478,-8619.621,-424.0151,775.8106,-1010.6225,9687.0859375
64,22665.504,26161.457,43068.3,-1390.9637,-192.72862,-1251.1061,19177.595703125
65,-13351.236,-17543.955,-30529.992,-438.70782,-182.4827,776.6657,15593.2607421875
66,481.6714,-7029.3213,-13285.774,976.6011,5611.754,3896.5918,16894.888671875
67,15891.043,16099.044,22549.383,1142.8555,-1442.0134,674.85614,7383.40478515625
68,80431.24,83007.75,117684.64,-1623.0934,1041.9714,-1032.1272,36232.94921875
69,1072.8741,-1691.656,6680.744,-3041.136,-4288.042,-1749.1534,12111.15234375
70,-80845.7,-83326.37,-118336.29,1246.8708,-138.64934,438.23666,36386.73046875
71,-78493.25,-81794.984,-114574.13,2606.6438,1323.8281,3052.3252,35315.625
72,50533.887,41991.375,72010.195,-1569.8165,3780.1855,-258.1691,27715.1640625
73,174327.92,174729.67,208539.19,-2662.0115,8250.404,-779.202,37203.703125
74,54437.53,52107.223,85194.695,-599.6207,6972.6377,3777.1143,34825.83203125
75,-84440.914,-92163.7,-124458.59,-1139.0558,-306.7401,-115.20406,36826.92578125
76,-550648.0,-551252.9,-590016.44,1630.7776,-1024.3175,-339.39398,39216.046875
77,-20555.732,-22901.424,-40257.203,-1874.7218,-4862.096,2421.8433,21130.458984375
78,5179.434,353.4795,12495.29,1191.2285,-400.368,-1309.8146,11045.4677734375
79,-8172.673,10832.24,-19102.318,907.4405,363.34015,-476.8493,26304.169921875
80,-5109.657,3227.918,-17414.588,-4749.0586,-56.8677,1309.7434,19908.19921875
81,5037.5947,5360.4355,17684.59,-1491.812,9.022327,1368.1687,12971.513671875
82,-5908.1987,127.40625,-15704.735,-722.84674,-2002.2361,-941.0792,14414.5732421875
83,-2068.2102,-6.564209,790.11633,-597.4361,1938.8741,1600.2195,5153.46044921875
84,-12836.662,-10062.8125,-22926.414,-1328.5006,-745.7117,648.56885,12071.02734375
85,-21994.582,-22310.344,-35898.38,-78.07334,-490.0907,-569.93964,13810.8046875
86,30126.922,32220.447,50115.28,-262.78156,-140.54562,606.994,19064.1796875
87,7054.6387,11378.064,12501.206,-478.30853,606.673,1063.0024,5476.28466796875
88,-4631.714,739.52466,-8290.572,-922.52954,-1693.4097,-498.07877,8590.1328125
89,11376.98,24812.312,26927.447,193.71388,872.53784,7115.894,19175.60546875
90,-25137.197,-21104.037,-24689.35,-3000.9082,-1195.9801,-4162.6035,9896.9677734375
91,3765.4922,-290.07364,-4008.0967,-139.79042,-3475.01,-883.268,9163.8525390625
92,4772.8604,2965.8225,3554.8542,-300.9739,-4443.585,486.86108,7922.57177734375
93,12788.523,4398.207,3049.347,-796.6333,-2674.9958,-513.5345,10377.669921875
94,-8117.5635,-4496.786,-8635.034,-1685.1317,1467.2393,-1647.2537,6194.28515625
95,-28698.285,-31938.584,-46762.227,227.5801,49.650276,-569.6509,16715.5390625
96,14913.241,9456.799,21128.57,-1011.2482,-1592.8264,2530.0168,11497.7724609375
97,89330.71,91500.17,126442.484,1858.8618,3205.1592,-790.2839,36667.92578125
98,-112982.086,-108152.83,-147214.81,1376.2126,-179.80489,-962.0062,37001.015625
99,50591.645,50250.453,78864.34,1081.0557,-346.63217,903.37524,28555.615234375
100,-27547.057,-25526.299,-46392.33,-791.49976,461.73325,1901.4829,20265.126953125
101,22517.38,21125.656,39167.074,381.71866,-119.17722,1161.6259,17517.1015625
102,32291.56,32622.328,53062.215,-511.35907,-665.50256,933.1978,20721.60546875
103,-16470.041,-17980.436,-29026.158,237.61772,104.93499,688.5095,11941.4091796875
104,-1871.1345,-4609.196,-5276.989,2059.8857,-3969.7563,-1622.6001,8813.408203125
105,9064.531,12239.132,21576.428,56.2625,2990.7908,-737.12476,12465.1279296875
106,-8216.069,-5971.188,-15328.689,2719.0032,-835.353,-1498.9503,10129.599609375
107,-1813.5923,-8250.786,-19588.25,-1961.6194,-788.09436,928.0414,16091.8583984375
108,-6131.326,-530.71094,-2025.9185,189.0669,3497.3594,3694.533,10147.8564453125
109,2956.3315,2408.9912,6045.8945,181.57246,-344.85358,-155.45686,3473.35595703125
110,4379.7505,-6429.231,-5606.801,611.3434,2146.619,-2336.5574,11829.8134765625
111,3638.3706,4452.1294,13104.064,917.88,-1103.5342,1512.6324,9777.720703125
112,-2605.8708,4106.278,9642.307,599.8564,-303.9118,-1022.8793,10833.0341796875
113,-25029.846,-23624.225,-38295.945,643.70844,637.9068,1126.3727,14243.6748046875
114,98.9707,-10698.707,-23144.494,2732.2786,1610.4008,3288.3723,21644.6171875
115,-61465.39,-61564.004,-90250.13,697.8755,-1880.6322,931.7094,28989.796875
116,-4384.0107,-5492.8467,-4456.7344,3366.256,-986.71216,-4329.746,9711.33984375
117,141325.33,141733.05,178315.38,-1040.0259,-556.9717,-1750.7434,36969.1640625
118,298045.44,288224.7,312016.8,-3137.5173,7004.2173,17294.562,38766.875
119,75887.234,63557.074,90924.164,3783.5942,2133.86,-1964.0079,25134.212890625
120,-19298.48,-25825.438,-42385.84,-281.71054,-1170.5393,-26.280077,20719.259765625
121,-8422.033,-9788.385,-19360.092,1834.1342,-1964.7062,580.7218,11368.6796875
122,347.14648,-3765.076,-5149.249,606.3189,-2522.2551,174.11519,6693.0908203125
123,53291.945,48769.82,76905.9,454.35992,-320.14548,2040.8901,26424.916015625
124,28807.004,31725.008,51070.88,-236.28273,435.2345,-107.705986,20976.162109375
125,-6002991.0,-6011304.5,-5991965.5,3171.4707,777.9427,1687.1487,17968.474609375
126,-59010.914,-58863.04,-92569.945,5804.248,1736.8419,5711.5024,36594.734375
127,-55536.47,-49575.445,-83618.69,-1253.0945,-249.97627,481.22134,31577.46875
128,-31806.785,-33827.152,-54652.426,-622.1008,98.47843,1632.8834,22114.1953125
129,35436.348,33155.027,55882.89,-2208.121,-375.33588,-61.134884,22022.078125
130,31155.373,30110.55,50705.133,-477.45285,1170.6827,818.9244,20261.24609375
131,7.5025635,-1586.028,-2993.013,18.452183,-1886.6819,2230.1274,5688.6865234375
132,11327.921,6529.1846,28420.465,243.15144,1400.779,2520.9604,20550.794921875
133,-553.3457,749.58246,-1115.6761,-733.285,1260.7607,3542.2986,6838.99267578125
134,7076.8027,5909.3564,13187.199,2155.9585,-1941.1252,-654.9457,8506.9775390625
135,-308657.47,-304224.9,-343626.75,632.54517,-363.94556,4081.681,38066.78125
136,19221.668,17155.52,42226.406,-1647.009,2969.5369,-3265.7917,25448.1171875
137,-2592037.5,-2600131.8,-2604762.2,3936.516,-8142.197,16797.021,34874.53515625
138,1261036.0,1273582.9,1302643.5,2647.8652,-6195.3984,-1781.079,38887.828125
139,64234.586,64035.61,98542.125,-196.68983,-1281.6659,128.75043,34481.40234375
140,-17121.725,-14027.6,-26424.531,-1850.7097,-1143.6819,-115.44593,11795.73046875
141,-43412.43,-46320.91,-70810.9,196.87837,-1089.6777,1003.1963,26194.37109375
142,-11990.717,-12935.42,-21303.438,385.9845,-520.08276,-163.14284,8953.197265625
143,8089.504,615.1685,-5133.642,407.21158,2627.3733,1116.9271,12523.2734375
144,-21544.883,-24327.793,-42742.113,584.0831,1052.8947,208.79294,20063.828125
145,1400.5267,884.74243,6987.811,-2601.7625,1622.3624,55.318493,7910.65576171875
146,14389.002,8095.48,13662.936,284.4719,1652.5266,948.5598,6833.78955078125
147,-6561.254,-8899.859,-7755.794,1615.4673,1175.5889,-1089.6218,4431.6474609375
148,-2014.0314,-4564.8833,4368.133,-661.0717,496.07925,-1320.5553,8414.2587890625
149,-6070.8887,-5696.96,-9803.253,995.6787,-1007.9321,169.03459,4644.74267578125
150,179505.97,174069.47,213385.42,-1505.2578,2191.3533,-2823.9614,37505.81640625
151,73144.31,62767.375,78560.68,174.416,-128.0942,-3521.0366,15184.0947265625
152,-57792.863,-55812.363,-89362.836,1721.9482,502.18292,-696.1426,32775.23046875
153,35051.477,34225.7,61561.695,158.6361,1265.7931,-1067.9954,27086.328125
154,20583.863,25057.822,46249.74,463.20114,316.4342,622.09,23791.392578125
155,9230.666,5867.0015,9942.194,920.7649,-4042.6824,1147.8633,8351.041015625
156,2413.1555,-4242.504,-5957.2974,1617.7577,-3960.1016,455.18497,10685.111328125
157,-1181.9967,-2343.036,1522.8088,9.711333,2546.9111,-1472.3257,6145.580078125
158,6820.8096,-1260.479,-6108.9316,-212.22954,-2606.311,2559.2407,12967.625
159,-4953.043,-9398.802,-20184.582,-1720.0732,-1845.7825,-1562.2312,14507.4873046875
160,-15636.342,-10542.305,-28853.227,1754.4749,1041.0238,-1435.5669,16930.17578125
161,-18474.318,-17851.664,-28388.068,-2006.9708,1807.4113,-122.3753,11259.3037109375
162,-8874.418,-10546.102,-20000.059,1467.5786,111.58629,1999.9608,11246.0703125
163,-4072.837,1900.2905,-11372.676,4781.349,-2520.4949,753.61786,14896.8173828125
164,5833.3125,6711.8994,29845.168,223.54428,1468.8932,-374.20187,23733.6796875
165,-115818.055,-114212.36,-151760.25,1007.6217,-66.92731,988.4576,36852.7109375
166,117649.38,117370.23,154254.27,-668.64575,306.4209,-1276.9247,36833.79296875
167,-44974.918,-44420.82,-67606.26,524.9917,660.8517,2044.8546,23231.5703125
168,-16002.11,-8378.344,-29557.012,-2222.6653,-418.921,1228.581,19106.857421875
169,893.0022,-2143.4543,-2317.94,-1753.2715,971.9314,543.4818,4766.7900390625
170,-3891.2197,-693.3784,-10143.178,-2315.5554,-857.9235,151.543,9363.13671875
171,74801.39,68197.86,106673.61,-4256.8057,557.71515,-1363.5789,36479.9453125
172,-92874.62,-93516.22,-128505.78,567.8516,192.83841,3955.1182,35988.02734375
173,11853.182,15962.468,30657.84,-734.8925,-521.73694,-817.86584,17253.150390625
174,3988.4834,9422.548,17207.453,-1115.9856,-20.393616,-1885.9801,12117.9931640625
175,-21949.52,-16952.617,-30301.287,-1384.514,-987.01324,-1064.4352,12187.1376953125
176,-316287.47,-314922.66,-353109.06,1174.9233,788.0286,3330.7986,38042.52734375
177,71976.21,62275.047,102541.26,-1366.0172,598.7496,-1097.6831,36539.5625
178,-15307.46,-14848.762,-25876.469,403.9537,491.9504,-1479.3398,11159.8955078125
179,2816.4058,1811.3004,5041.6045,822.7387,-2545.6074,-2993.8787,7520.59033203125
180,-49278.3,-50131.117,-75289.13,1368.4868,452.4797,-656.57166,25741.677734375
181,6826.572,8858.89,18304.416,-657.41235,1502.4448,-1314.2998,11215.8525390625
182,25559.547,29440.23,47191.188,1786.6788,1015.90625,661.9989,20323.130859375
183,-202.92432,4994.413,13001.99,683.384,-2096.8645,156.1418,12141.515625
184,-68110.72,-68663.375,-100016.88,-114.761925,1377.6646,2110.036,31933.771484375
185,-62822.99,-63071.293,-90776.37,392.51486,2527.7734,1188.4122,28255.62109375
186,-64394.992,-61420.203,-91839.484,-2461.7646,-1032.0238,-8705.174,33051.5859375
187,-65975.12,-65897.04,-93969.625,60.483963,151.32811,292.24612,28039.619140625
188,-3928226.2,-3928992.2,-3927153.5,308.85532,270.3087,-559.3296,2000.79968261719
189,-25262.094,-27529.125,-47542.21,242.24106,-647.02704,-388.40463,21281.8671875
190,-70821.17,-71286.16,-105555.37,-297.00015,711.2398,-513.46216,34541.3203125
191,-39275.387,-39690.79,-60428.92,-97.46692,293.40906,-281.0322,20961.41796875
192,-66989.92,-67384.06,-99373.695,-167.67813,1163.7285,-634.2534,32271.572265625
193,-68429.83,-68702.0,-100441.53,57.04005,594.0155,93.140465,31893.6484375
194,-69043.36,-69040.08,-98864.18,35.02985,-44.028873,-64.99462,29822.833984375
195,-67505.07,-66919.47,-99033.42,-239.55994,1310.9749,-894.8481,31946.4140625
196,-65816.95,-65453.277,-97565.14,-21.77755,704.25903,568.31757,31970.048828125
197,-67949.59,-68031.83,-97757.27,25.468264,16.0238,3.8205326,29766.6953125
198,-65518.617,-65609.94,-97700.66,246.78505,-658.66876,-274.5594,32163.078125
199,-67388.555,-67508.805,-97422.41,47.1753,422.40564,23.462152,29982.974609375
200,-68090.67,-68090.11,-97445.25,74.602936,74.77932,-12.598858,29355.4375
201,-67543.77,-67323.43,-97414.87,-190.47783,471.1725,62.857407,29994.990234375
202,-67086.41,-67415.695,-97695.555,21.660572,-194.95819,-51.37348,30447.865234375
203,-67362.44,-67390.836,-95972.72,29.88262,99.59419,31.181349,28596.708984375
204,-65632.66,-65419.414,-95502.11,34.572968,550.5497,-275.57202,29995.666015625
205,-67614.11,-67778.72,-95889.086,12.058585,148.18999,2.60252,28194.208984375
206,-65482.83,-65387.75,-94156.6,142.26245,-46.122757,-129.3191,28723.47265625
207,-64471.457,-64317.82,-93429.69,-4.819341,-106.32122,-13.33488,29035.94921875
208,-67029.836,-66995.92,-97094.34,133.65549,105.99922,363.81125,30089.53125
209,-64441.688,-64383.117,-93230.79,-9.82303,-137.88435,-50.58854,28819.55859375
210,-64619.45,-64451.63,-94824.03,-25.381292,-192.90753,249.02185,30293.78515625
211,-66848.875,-66663.89,-95371.72,147.37231,95.064575,-307.6648,28622.357421875
212,-63442.945,-63571.64,-91931.64,84.34292,-225.52829,54.65553,28427.783203125
213,-65571.51,-65831.74,-94173.95,17.481024,30.470646,-250.08368,28476.578125
214,-65356.297,-65458.92,-94944.31,226.49754,252.84807,-826.8897,29577.384765625
215,-64042.29,-63973.016,-92418.41,22.562092,-131.56297,65.61063,28411.984375
216,-62553.08,-62666.742,-92930.34,-26.07946,74.442825,312.63074,30325.736328125
217,-64524.203,-64541.023,-92310.58,-5.93394,-237.83897,-9.946079,27781.03125
218,-63385.855,-63253.266,-93855.734,292.75113,-535.48,-489.09338,30566.419921875
219,-62990.766,-63045.18,-92565.234,43.43826,-49.80696,-442.51068,29557.4609375
220,-64286.91,-64233.895,-92255.914,74.106384,-57.239193,-231.05261,27998.87890625
221,-63944.19,-63937.9,-92273.67,-2.4383347,35.827732,147.27986,28333.84375
222,-63632.203,-63647.543,-91779.28,-33.727272,129.64256,-289.5874,28144.837890625
223,-65220.215,-65171.473,-93456.0,26.916147,199.98811,28.051218,28262.390625
224,-66414.2,-66215.58,-94609.875,304.62244,32.99006,20.835012,28300.5078125
225,-64223.664,-64342.35,-94138.25,139.44179,142.39792,-286.2483,29861.529296875
226,-63399.594,-63223.312,-92245.52,52.102,-97.99151,130.65344,28935.99609375
227,-63555.71,-63418.08,-92694.65,149.88348,340.8545,-5.236187,29215.119140625
228,-64073.383,-64128.203,-92972.26,14.827642,-54.94936,50.571762,28871.8046875
229,-64470.426,-64465.293,-93551.55,121.80829,-21.402475,66.325066,29084.703125
230,-32741.94,-24327.44,-37433.46,-895.88696,-474.05365,6824.0933,16585.46875
231,-64355.098,-64215.65,-92129.74,-120.90432,-105.194954,378.9668,27853.75
232,-70395.78,-69884.02,-96672.09,-314.81927,-646.57043,1772.154,26741.853515625
233,-65623.59,-65446.742,-93149.33,-39.549725,-112.318405,729.6876,27644.26171875
234,-65680.98,-65901.766,-92883.414,155.66582,-287.4111,1355.401,27200.1328125
235,-67937.75,-67506.734,-93850.555,116.416985,-487.33517,2187.3777,26418.458984375
236,-67003.234,-66699.57,-93301.95,-77.00173,-1115.3025,2552.992,26888.7265625
237,-66612.41,-66513.28,-93629.91,47.9074,-465.5663,1803.8507,27258.98046875
238,-67052.44,-67342.94,-90876.12,-87.075195,-1947.1646,3874.7239,24842.8828125
239,-67009.836,-66752.94,-91168.93,53.890175,-2086.3337,4541.142,25785.01953125
240,-66133.96,-66238.055,-91308.99,-83.01917,-890.6955,2201.6953,25458.11328125
241,-63540.695,-63890.46,-88537.805,-166.11339,-1427.0385,3750.3757,25780.27734375
242,-69929.09,-70253.41,-93346.72,50.76927,-2532.4253,4393.9946,24860.904296875
243,-66542.19,-66623.695,-89701.08,-37.92616,-1582.6635,3319.479,23979.7578125
244,-67166.97,-67320.32,-88284.15,-46.018604,-2191.3994,4255.521,22615.5234375
245,-66380.625,-66538.02,-87427.62,-72.994576,-2600.1545,5201.212,23262.50390625
246,-72490.76,-72711.84,-100298.75,93.72153,-1856.7896,4041.753,28749.9921875
247,-69527.305,-69640.28,-92437.66,25.595968,-2646.8862,4598.952,24632.8984375
248,-76168.41,-76390.945,-106247.06,-343.0001,-1169.6953,3350.1787,30597.548828125
249,-72810.26,-73314.8,-97797.1,-553.4438,-2080.135,3766.6128,25854.4375
250,-62220.484,-61867.47,-89775.18,-56.357124,-562.20294,1947.3274,27954.375
251,-62390.02,-62893.16,-79780.125,-255.65813,-989.9822,3135.356,18070.609375
252,-102915.72,-106155.1,-109791.31,-3532.8186,5289.948,20392.63,37476.20703125
253,-60084.39,-59996.82,-81969.52,-25.086477,-322.8893,1127.6597,22023.00390625
254,-85917.77,-90268.58,-81286.484,1038.7366,-1714.9028,3181.0193,10146.1533203125
255,-2983406.5,-2983728.0,-2982683.8,332.8557,243.70454,-937.2657,2001.01196289063
256,1758636.1,1761089.2,1762037.1,-3302.6726,-305.29126,15492.676,27610.017578125
257,383634.5,388443.0,389533.8,3882.293,-12841.614,17503.25,38582.1953125
258,-6337802.0,-6334259.5,-6337382.5,-541.98096,-5882.646,15046.964,28198.765625
259,-57981.574,-49562.938,-75164.86,-3897.3699,1140.3818,-1826.983,23880.578125
260,-65199.688,-64660.83,-87918.3,55.45875,4600.3857,-7743.641,27785.958984375
261,-69488.016,-69110.586,-92125.76,-81.728584,-1913.6887,4940.0273,24604.314453125
262,-100849.44,-98961.86,-135535.03,1143.9769,-1682.6781,4296.2583,36604.90234375
263,-67500.51,-67224.234,-90888.65,-21.418665,-1483.7449,3573.656,24463.48046875
264,-66206.58,-65695.29,-89847.85,-48.395885,-1759.5652,4490.7856,25319.072265625
265,-68351.94,-67907.59,-91937.74,64.03106,-1688.0251,5289.546,25680.076171875
266,-63524.914,-63218.52,-90737.13,21.307474,-251.73332,731.1476,27399.482421875
267,-65425.016,-65259.82,-91554.58,4.8424587,-1035.3435,2910.648,26753.1171875
268,-67482.77,-67064.02,-94173.28,123.186806,-828.4921,2624.7346,27322.291015625
269,-32624.229,-31428.02,-26970.57,-560.876,1700.3273,-3542.9092,8596.8310546875
270,-66226.16,-65996.336,-95443.266,-42.844036,-731.4445,1434.6549,29465.1015625
271,-65050.82,-65338.266,-93556.64,-32.14427,-609.10236,1063.0706,28442.521484375
272,-45864.926,-49080.61,-60584.17,615.4171,663.2677,2488.3835,14166.740234375
273,-55098.625,-53024.22,-79435.79,192.19852,2364.681,1620.4043,25920.05078125
274,-26289.773,-28927.078,-46629.73,-84.6472,-1080.3984,-17.630438,19249.6953125
275,-67931.28,-67762.48,-96624.02,83.79815,-205.82837,-91.37211,28780.525390625
276,-65168.91,-64890.727,-91639.44,-24.629173,-714.86743,2225.9062,26917.072265625
277,-64521.914,-64525.15,-93985.4,20.424578,-163.80652,175.60608,29464.82421875
278,-65047.336,-64719.42,-93715.84,64.560074,268.7351,20.712023,28837.859375
279,-65202.508,-65058.79,-92888.59,-58.65283,-85.7321,-65.281364,27759.0390625
280,-64379.473,-64487.7,-91777.53,-61.290604,-432.6896,882.3719,27397.240234375
281,-64374.375,-64471.594,-89014.13,-125.089516,-983.2825,3265.5127,25291.6953125
282,-63522.062,-63400.164,-92878.96,24.029837,-50.759365,129.98524,29419.060546875
283,-65546.28,-65627.086,-94720.9,28.265947,-9.743927,77.50026,29134.65625
284,-68557.42,-68623.1,-100024.97,-88.12669,-24.006569,-7.2685733,31435.158203125
285,-73138.57,-72558.75,-106248.41,-174.84645,477.15686,-463.39856,33424.75390625
286,-64873.43,-64957.367,-94372.84,-57.42376,61.523857,-2.3402445,29457.896484375
287,-69460.195,-69836.39,-100153.85,-147.13669,400.1036,34.347466,30516.291015625
288,-68510.195,-68631.266,-98409.58,27.317755,126.35982,242.95184,29842.83984375
289,-67348.91,-67789.08,-97368.87,-78.24717,282.42746,238.29863,29809.494140625
290,-67036.945,-67261.805,-97280.71,99.12769,585.1234,-61.016575,30149.677734375
291,-67938.75,-67871.9,-97327.35,18.644455,-52.270454,50.37473,29422.37109375
292,-66412.65,-66515.29,-91477.13,-134.13547,-1393.6147,2980.1938,25655.2421875
293,-69001.36,-69402.77,-92978.49,26.97178,-1955.9537,3398.2634,24729.806640625
294,-66862.305,-66996.09,-88172.14,-13.554824,-2577.1028,4891.414,23301.90234375
295,-65100.19,-65238.516,-89275.984,-124.31713,-1166.9703,3407.5862,24902.0234375
296,-61009.906,-60392.414,-91443.92,-330.09787,258.4509,465.239,30766.541015625
297,-64437.066,-64471.81,-92200.05,4.7887516,47.43441,20.462706,27745.771484375
298,-64171.902,-64072.754,-93788.88,-118.47474,68.76089,104.25578,29668.177734375
299,-64654.33,-64708.477,-92461.92,14.693658,-263.17874,28.875435,27784.35546875
300,-65206.38,-65227.3,-93523.234,-8.009532,5.927701,66.59294,28306.640625
301,-68706.05,-68283.01,-91747.1,21.051886,-1919.1107,5489.433,25343.013671875
302,-68873.2,-68218.23,-94184.56,10.128255,-1474.9799,4181.296,26770.298828125
303,-67312.58,-66792.84,-94109.35,11.386971,-996.6932,3034.4985,27620.091796875
304,-35862.03,-34751.348,-31020.89,452.65018,-3014.911,-3287.3264,8921.69140625
305,-66202.99,-66182.195,-94874.59,-57.43069,-421.60468,775.39484,28722.888671875
306,656327.94,650996.3,662094.56,79.522095,1048.5464,-5750.209,13962.0087890625
307,-63921.902,-63622.86,-96605.92,116.05098,16.383879,290.75497,32839.05078125
308,-68387.78,-68266.99,-87395.53,146.98106,610.6915,742.09735,19142.64453125
309,-993159.06,-991345.94,-996116.06,-583.1893,-4763.42,10138.901,19871.474609375
310,-70354.9,-69971.87,-91437.15,22.945448,-2123.595,5981.15,23948.61328125
311,-295041.25,-297057.78,-334792.25,941.30176,-1367.2471,-540.5278,38899.76953125
312,-65366.86,-65394.957,-95080.83,21.092815,81.314514,-113.175735,29700.93359375
313,-18777.037,-23048.29,-35815.676,599.02026,-2374.853,-2198.0144,16379.02734375
314,-70247.65,-70331.9,-102202.79,7.6031547,25.165176,-52.87142,31913.263671875
315,-68419.55,-68854.91,-101873.5,-45.80169,-895.0963,251.1665,33277.48828125
316,-22388.95,-22923.941,-37214.105,646.98914,-234.70013,-495.8086,14638.9423828125
317,-26218.438,-27210.887,-41437.61,-350.61066,1381.2872,1379.3086,15142.787109375
318,-67672.76,-67602.2,-96874.77,-63.95439,418.19937,143.89037,29247.59765625
319,-66214.58,-65920.79,-96245.44,114.1493,574.06287,-50.051167,30195.974609375
320,-65203.848,-65046.992,-94510.766,-6.1881785,295.24683,-109.64659,29390.724609375
321,-62812.07,-62588.742,-91248.586,108.07448,28.999908,-24.057283,28549.521484375
322,-69038.21,-68374.94,-96526.664,-504.65796,2463.07,858.83844,28203.9765625
323,-72976.57,-72081.59,-105743.805,-4.5760655,-1880.1974,1131.179,33440.43359375
324,-63788.723,-63682.17,-92408.27,27.16697,161.74944,345.22232,28680.615234375
325,-64658.85,-64659.625,-92612.8,29.946768,33.59662,127.627014,27954.541015625
326,-66269.56,-66693.06,-94610.984,-66.325806,1205.379,1028.5189,28265.853515625
327,-67863.6,-68072.805,-93345.82,-38.706276,-1401.8374,3089.6575,26049.83984375
328,-66026.34,-66222.74,-91623.664,-78.67215,-988.1634,2359.298,25882.05859375
329,-64917.312,-65018.445,-91540.74,-154.17673,-1044.5311,1692.1716,26796.6328125
330,-68900.58,-69055.97,-90981.82,-102.2159,-2008.0552,4123.999,23394.966796875
331,-64786.91,-64997.926,-89322.29,-157.0347,-1179.0708,3969.9998,25463.29296875
332,-67355.58,-67540.336,-87859.75,-74.823006,-2211.8413,4185.73,21998.212890625
333,-63032.695,-62729.496,-81214.734,62.238552,-2000.241,3638.4963,19695.728515625
334,-55518.78,-54649.836,-73803.97,1419.3762,-3645.1665,-3738.7715,20948.3359375
335,-1761158.9,-1769153.0,-1755147.6,5622.1177,-8085.0186,18982.55,38987.62109375
336,-99341.21,-89552.08,-129927.11,227.68373,477.6777,-2199.1282,36688.99609375
337,-68092.4,-67693.14,-91093.87,-10.129471,-1388.7859,3332.3213,24031.439453125
338,-69128.86,-69088.766,-99611.11,68.651886,-722.59247,1670.0851,30664.953125
339,-61001.223,-61467.793,-91777.445,111.86312,168.64325,139.07399,30548.5703125
340,-63579.445,-63363.43,-93497.84,128.3131,-200.47609,133.79721,30030.71484375
341,-41015.71,-48024.01,-45247.566,4216.5645,1899.5553,-6617.1646,15260.751953125
342,-63609.727,-63600.78,-91807.64,8.377863,-75.985916,-167.40231,28204.189453125
343,-62415.21,-62322.562,-91250.31,-90.16462,-161.7686,46.71222,28883.431640625
344,-64680.914,-64781.227,-93066.94,0.15615407,69.07551,31.129526,28336.3046875
345,-63602.973,-63779.473,-91280.58,-70.178505,-209.94153,724.81525,27620.98828125
346,-63138.7,-62939.74,-89670.76,-84.97391,1253.0653,-2192.4802,26989.287109375
347,-64733.14,-64650.65,-93534.83,85.95139,237.87509,-164.1571,28847.748046875
348,-67894.46,-67880.125,-97445.875,-16.732183,31.987223,105.73552,29559.21875
349,-72714.766,-74913.65,-102384.14,-740.2593,3961.6433,4450.809,30463.4921875
350,-63249.254,-63215.457,-91425.49,7.953324,5.633465,184.21132,28194.962890625
351,-64221.18,-64125.508,-93037.7,-42.39237,-63.727444,162.43623,28866.154296875
352,-64761.055,-64704.39,-92718.25,-30.778612,14.64825,-15.239771,27985.64453125
353,-64147.098,-64150.137,-92524.0,-2.0803955,-54.51833,2.4063666,28375.541015625
354,-61256.027,-61478.21,-91327.25,-125.61915,-150.16208,-73.396324,29962.9375
355,-49818.473,-48157.402,-62875.418,182.27184,-1033.1073,-2492.2166,14726.388671875
356,-66741.7,-66055.6,-95973.74,-209.45508,-678.6947,1374.8895,29702.248046875
357,-66135.91,-66228.836,-95945.664,-237.87314,-358.37592,143.01685,29773.755859375
358,-64928.582,-64677.05,-93849.33,-76.14768,-381.7234,569.8725,29071.912109375
359,-62864.34,-62740.926,-91062.94,33.242847,-60.186024,-239.86412,28263.810546875
360,-70222.46,-70258.36,-99598.94,-9.412558,-5.586551,14.797989,29358.5625
361,-28405.723,-28542.469,-41498.188,73.19115,-201.4787,-98.815384,13031.044921875
362,-65315.69,-65290.79,-92455.34,-9.952864,125.66859,372.1314,27160.638671875
363,-1536.3059,-1380.1891,-2247.5122,-133.8827,-365.65588,216.25626,1111.93737792969
364,-21938.518,-19990.121,-22265.436,-249.69621,-6946.8525,15311.456,29203.17578125
365,-65077.586,-65059.695,-92252.67,0.79188794,15.04021,-10.632734,27184.0546875
366,-63449.42,-63459.047,-90001.65,0.9116469,170.39516,-383.7272,26557.375
367,-65633.5,-65626.66,-93025.914,-9.64815,-1.3345169,7.8243365,27395.845703125
368,-67225.79,-67228.34,-95222.81,-1.2071313,27.91326,0.65094763,27995.7890625
369,-67804.12,-67801.2,-96208.195,2.3335347,28.491264,20.80887,28405.6015625
370,-67428.63,-67422.086,-95447.73,-2.5473237,21.654379,1.9466377,28022.39453125
371,-66192.75,-66187.44,-94476.055,-7.1559057,-7.58131,11.293032,28285.974609375
372,-64376.766,-64370.805,-91858.836,-7.6737337,65.54913,-141.87784,27486.38671875
373,7940.084,8381.396,12790.238,109.52925,186.83559,-147.71754,4667.38623046875
374,626.48676,241.45142,333.95227,-15.291395,-148.03857,-108.13868,471.934509277344
375,1481.59,1940.0448,3493.5427,30.502708,-89.60306,-27.577257,1834.36755371094
376,-61401.22,-61368.367,-87101.01,14.394365,505.3373,-1188.9475,25813.408203125
377,-62364.016,-62346.64,-88621.305,-5.550763,193.43391,-251.10185,26271.71875
378,-64049.266,-64037.04,-90781.89,-1.6981213,86.87911,-33.66969,26739.228515625
379,-26371.953,-26527.953,-38900.258,71.44796,218.07617,86.21342,12458.275390625
380,-66521.16,-66561.47,-94377.37,-4.9734154,34.60159,126.240005,27837.0
381,-65053.18,-65093.06,-91224.625,-33.276306,-486.10696,1249.0066,26254.423828125
382,-64870.258,-64897.875,-91728.58,-3.4915822,-125.48294,228.22707,26848.3125
383,-64674.957,-64677.707,-91720.016,3.8385801,-17.515862,-17.050629,27043.716796875
384,-64866.33,-64882.902,-92611.01,-2.2624571,1.7822914,16.698168,27736.412109375
385,-67084.47,-67087.69,-95332.67,-4.9951444,-11.729113,-6.1446466,28246.60546875
386,-102.38562,-533.25305,-1358.2418,37.986897,-102.263626,190.00984,1168.6435546875
387,-65560.19,-65561.55,-92939.88,1.0001253,8.604853,10.681041,27379.02734375
388,-66730.336,-66721.9,-94343.54,-3.15665,-19.611324,-5.2124066,27617.4453125
389,-64605.484,-64595.383,-91691.75,2.0705779,38.303535,2.4401417,27091.3984375
390,-63877.65,-63885.164,-91001.08,19.460009,-12.692193,13.76181,27119.712890625
391,-64500.586,-64506.85,-91386.766,4.865063,-0.12777367,0.6235285,26883.048828125
392,-1897.3722,-1425.41,-2930.0454,98.62094,-165.77814,88.93007,1382.71325683594
393,-66689.51,-66697.625,-94527.0,1.857972,16.764683,15.065423,27833.462890625
394,-66983.86,-66975.38,-94890.984,4.540045,-6.621695,-12.529724,27911.375
395,-67845.555,-67861.96,-95880.06,3.694276,16.757462,11.051526,28026.330078125
396,-65306.43,-65298.188,-92712.234,3.698899,0.28440028,-3.325088,27409.927734375
397,-67498.23,-67499.234,-96686.1,5.039739,34.589375,7.4478555,29187.4375
398,-66046.34,-66014.914,-93750.66,-13.608616,-6.1469035,16.431627,27720.068359375
399,-65301.254,-65295.902,-91220.875,-36.124313,-611.1321,952.75507,25996.40625
400,-64875.336,-64886.35,-91980.5,-3.0147982,22.698664,-12.380668,27099.6953125
401,-65203.977,-65250.617,-91660.3,-21.752932,-335.44006,752.1771,26471.51953125
402,-61647.75,-61627.42,-87138.53,9.829565,1685.4742,-3276.4062,26287.369140625
403,-61484.703,-61479.21,-87407.24,6.0594444,207.9153,-494.87634,25941.953125
404,-61996.34,-62012.57,-88229.52,13.71551,211.49077,-483.14563,26240.98828125
405,-65422.85,-65409.766,-92467.266,6.4511566,-1.871697,9.554951,27050.96875
406,-66090.34,-66089.31,-93517.5,3.732339,20.653885,-6.4960384,27427.697265625
407,-64120.867,-64118.156,-90853.64,-5.0742106,18.876867,8.3660555,26734.154296875
408,-65635.02,-65630.44,-92846.21,-10.0230875,9.281942,-8.095895,27213.494140625
409,-66124.02,-66115.586,-93731.24,4.6444325,6.9903073,31.684042,27611.498046875
410,-64677.71,-64672.797,-91502.37,4.454642,5.260979,-6.2850437,26827.119140625
411,-64371.4,-64378.906,-90881.47,-9.862132,188.43147,-155.86884,26509.70703125
412,-65922.31,-65916.484,-93870.86,7.336821,18.473595,26.207449,27951.51953125
413,-64322.64,-64332.27,-90666.72,-14.746349,-186.76183,800.9007,26377.765625
414,-65702.805,-65704.6,-93119.71,-5.387169,24.215315,-15.219816,27416.0546875
415,-324004.78,-324009.47,-361948.66,41.447704,-715.9698,-1483.7706,38048.75
416,-65301.53,-65280.547,-92955.98,-9.991043,11.355149,2.625093,27664.95703125
417,-65455.08,-65452.26,-92723.04,-6.9366117,53.344246,6.3563333,27269.529296875
418,-65163.14,-65173.07,-92297.06,1.7546728,-10.265603,0.20871012,27128.96484375
419,-64795.61,-64790.633,-91819.85,4.9313083,14.034534,6.6564994,27026.74609375
420,-333488.97,-333551.88,-371416.1,-1.7001765,-818.0352,-2565.7085,38181.68359375
421,-63445.754,-63436.504,-90672.95,-7.1003547,26.737452,-4.93648,27231.869140625
422,-62363.133,-62342.797,-88573.43,8.442417,269.84827,-704.9459,26253.048828125
423,28626.23,29932.56,25448.834,-1111.1576,-6973.608,15108.832,29161.294921875
424,-66843.88,-66851.11,-95005.8,3.0288773,-9.953512,2.1345968,28158.30859375
425,-62770.65,-62758.58,-89058.67,-3.7500758,111.80263,-85.00773,26295.1875
426,-61215.406,-61203.293,-87051.625,-2.0238597,271.8829,-604.56726,25867.771484375
427,-65975.62,-65954.195,-93448.94,10.299007,19.852255,8.106805,27484.068359375
428,-68277.74,-68276.77,-97001.61,2.6473224,11.395808,9.05691,28724.36328125
429,-66004.99,-66013.914,-94235.46,23.463593,24.975086,14.924401,28226.08203125
430,-65826.04,-65822.5,-93291.93,8.236825,10.370779,13.24959,27467.6796875
431,-66636.914,-66654.875,-95700.27,3.3124673,16.5894,-1.6810884,29054.3984375
432,-63381.203,-63370.1,-89885.016,2.1462097,107.82082,-80.9697,26510.39453125
433,-62818.16,-62824.914,-89100.664,-4.395662,184.05428,-512.4461,26296.044921875
434,-67050.2,-67048.53,-94714.28,0.59094125,6.2322626,-0.4598915,27664.916015625
435,-63250.133,-63263.152,-89724.914,-4.2894297,-4.7177825,-23.311941,26468.306640625
436,-64783.523,-64802.63,-92367.305,-4.300599,7.1944346,-55.401463,27574.404296875
437,-66870.125,-66872.9,-94631.164,0.5247499,-4.040429,-12.036115,27759.66015625
438,-66578.76,-66577.664,-94824.87,6.5170517,-9.735641,21.823877,28246.689453125
439,-65730.41,-65703.49,-93584.484,7.5537186,-131.84062,-324.4687,27874.150390625
440,-64577.508,-64562.887,-91425.72,-8.560562,73.5568,-6.0164847,26855.83203125
441,-65970.14,-65955.97,-93211.3,1.295705,36.22483,-9.840841,27248.322265625
442,10169.531,10754.296,16259.562,179.7461,50.235374,153.44882,5834.7509765625
443,-65052.156,-65054.453,-92277.95,2.3556972,-0.11421256,6.696182,27224.650390625
444,-64632.098,-64631.14,-91552.7,-0.39026496,5.5693417,-12.497125,26921.09375
445,-62731.434,-62730.066,-88323.61,1.2078114,29.861088,-206.71329,25595.416015625
446,-64849.77,-64860.984,-92112.31,17.631798,17.95405,-13.000825,27256.982421875
447,-63799.65,-63806.65,-90375.61,-0.2685624,-30.927149,-111.2982,26573.21484375
448,-61896.79,-61909.91,-87918.914,-14.716436,406.33548,-937.1326,26075.6640625
449,-66772.55,-66780.84,-94410.05,-4.4135556,-4.3624744,-26.068773,27633.390625
450,-63268.25,-63277.56,-89795.71,-3.1692975,102.12456,-327.6675,26529.46875
451,-62331.934,-62340.434,-88763.39,-5.078646,163.17369,-265.81833,26432.73046875
452,-68165.71,-68151.36,-96261.26,-16.831135,-3.4958544,-3.50936,28102.7421875
453,-63893.156,-63889.727,-90509.7,4.6575994,115.26185,-319.40622,26624.759765625
454,-65633.766,-65645.81,-93551.914,0.41992548,29.57382,-8.845289,27912.1796875
455,-68174.52,-68208.17,-96677.36,4.0768228,-4.3752413,16.195238,28486.04296875
456,-68832.28,-68822.23,-97918.62,2.8503304,25.620155,15.349303,29091.41015625
457,-64185.902,-64204.297,-91034.72,9.313621,48.8672,-208.24394,26842.185546875
458,-62123.7,-62132.844,-88627.85,0.5206838,226.156,-477.89587,26515.400390625
459,-65751.29,-65736.65,-93189.77,5.688082,0.26879248,-62.486336,27446.0234375
460,-65164.652,-65142.387,-92268.79,-4.123702,-6.901702,-1.7037786,27115.279296875
461,-64179.367,-64177.3,-90856.23,-1.7267485,-1.3559136,-2.8674614,26677.892578125
462,-67528.4,-67526.09,-95452.21,0.51773363,0.6383366,-12.821803,27924.97265625
463,-65554.41,-65569.984,-91941.69,-1.6707854,212.56525,-77.44191,26382.40625
464,-66827.414,-66823.76,-94816.9,2.2085805,-29.49155,114.133644,27992.05859375
465,-66082.42,-66086.86,-93541.4,2.7465074,13.110469,-2.5377226,27456.767578125
466,-67715.51,-67700.78,-96637.05,0.56874806,0.38135007,2.2463145,28928.904296875
467,-69724.78,-69746.164,-98191.66,-2.2245257,-0.5249561,9.024991,28456.1953125
468,-65576.74,-65590.24,-92640.3,-8.302406,70.68701,-189.32758,27059.07421875
469,-65005.723,-65027.215,-92302.95,-9.467405,123.57385,-265.84695,27291.21875
470,-65387.133,-65383.465,-92513.44,-4.9564896,27.037575,-50.90153,27128.32421875
471,-62058.7,-62063.863,-88026.94,-2.7330503,-3.9905403,2.050904,25965.658203125
472,-67928.95,-67931.734,-95952.91,1.8002045,17.449945,-2.6697078,28022.580078125
473,-69614.086,-69594.32,-98464.32,-16.149952,-5.7207932,20.105227,28860.158203125
474,-61856.38,-61830.293,-87879.086,-13.972545,214.28763,-396.93518,26047.490234375
475,-18751.498,-18508.562,-25071.732,-91.62816,-88.02942,286.00864,6467.89208984375
476,-63762.383,-63760.54,-90364.055,2.9509544,84.944405,-142.32541,26604.142578125
477,-63928.902,-63924.043,-90558.92,-4.707353,43.87716,-5.237816,26632.560546875
478,-64668.25,-64667.234,-91572.695,-2.2313547,27.375906,-63.01351,26905.216796875
479,-62476.98,-62481.242,-88687.44,-8.072386,-6.9988036,4.4053817,26208.333984375
480,-7448.1357,-6905.8037,-11658.646,62.519993,195.44432,-75.60064,4522.11083984375
481,5709.186,5713.7505,9489.679,-256.5809,144.0149,3.180794,3812.4326171875
482,-90904.69,-90940.77,-120927.16,27.371925,13.065677,-81.025894,30004.81640625
483,-81955.93,-81991.555,-112798.195,7.614493,82.63552,120.97199,30825.517578125
484,-68607.586,-68611.09,-97141.53,-0.07009648,-9.681478,12.449572,28532.205078125
485,-69255.36,-69251.87,-98027.23,-1.5305312,-15.955916,4.3246593,28773.62890625
486,-64413.64,-64415.74,-91212.23,1.4992162,-5.5443826,-9.201432,26797.54296875
487,-66920.05,-66919.19,-94736.12,-1.8509957,5.945128,-38.39163,27816.58203125
488,-66220.195,-66222.555,-93606.54,-6.134813,31.776552,-43.114265,27385.32421875
489,-63381.85,-63378.8,-89840.08,-4.695867,11.145081,32.076656,26459.818359375
490,-65156.52,-65140.816,-92742.09,-7.1950755,-4.9775124,36.017014,27593.50390625
491,-137842.02,-137956.9,-171272.11,-23.269653,10.285129,-108.67871,33373.35546875
492,-120594.625,-120705.484,-153861.12,-22.433617,-62.665752,35.13057,33211.46484375
493,-62648.062,-62630.137,-88714.16,-14.945579,174.5291,-437.26382,26087.822265625
494,-74749.31,-74753.414,-104936.49,-4.8097944,-30.927746,-40.559162,30185.2578125
495,-75941.375,-75952.69,-106426.164,-12.476989,67.19743,82.45355,30479.697265625
496,-66107.445,-66108.21,-93521.11,3.1391897,6.863459,3.3938112,27413.28515625
497,-66953.484,-66941.664,-94611.38,1.864913,26.716402,-52.79339,27664.0
498,-70031.24,-70018.08,-98853.15,-0.02641306,3.6288877,-15.538216,28828.50390625
499,-10952.133,-11392.226,-14304.326,184.23808,71.96978,166.1714,3186.81884765625
500,-65615.89,-65614.32,-92758.32,1.440872,-28.000574,49.914803,27143.396484375
501,-9136.566,-9298.829,-11023.736,281.99918,-77.538055,85.62741,1886.82946777344
502,-70168.07,-70218.766,-101080.43,-20.945349,18.450954,7.1727424,30887.083984375
503,-93155.32,-93093.85,-124855.43,-28.907389,-107.57461,-83.16278,31731.802734375
504,-63117.863,-63122.766,-89739.95,2.586691,129.74796,-360.53958,26627.912109375
505,-83781.15,-83734.47,-114920.92,-21.157553,171.77461,-67.367424,31164.80078125
506,-63991.176,-63978.7,-89596.91,9.79739,275.6611,-348.84076,25623.55078125
507,-64529.074,-64515.766,-91532.72,6.968181,9.525011,-21.504711,27010.333984375
508,-66705.336,-66670.26,-94442.73,9.228184,8.151759,-159.05872,27756.322265625
509,9181.786,8716.168,11469.68,2.167387,-131.89879,5.03144,2562.9716796875
510,11597.308,11319.022,17541.646,62.14632,-119.71742,-60.229057,6093.62744140625
511,-63701.94,-63678.586,-89937.58,4.105136,234.80795,-172.89848,26252.181640625
512,-65430.453,-65426.95,-93182.28,-5.2315297,-18.031322,-45.42221,27753.7109375
513,-13602.263,-13565.463,-19522.15,198.97343,-148.35341,-140.63857,5958.89306640625
514,-67383.664,-67388.46,-95474.95,1.9857705,-0.3402308,15.704833,28088.904296875
515,-17215.807,-17160.883,-25702.445,265.77466,-24.119469,164.80977,8531.5478515625
516,-65746.16,-65746.35,-93030.875,-1.912621,12.503868,-79.65206,27284.978515625
517,-108487.9,-108401.14,-140775.22,16.151321,85.04252,-151.29323,32332.1953125
518,-63621.6,-63629.99,-89791.98,-5.0579805,-17.55353,78.1498,26166.552734375
519,-64355.055,-64372.01,-92051.945,-18.573408,116.65901,-253.62184,27692.65625
520,-64982.777,-64981.676,-92486.46,3.9044604,44.70451,-138.67711,27505.392578125
521,-64417.383,-64426.19,-91181.766,0.7562037,52.644585,-97.815186,26760.671875
522,-78982.5,-79010.71,-109522.83,15.98321,209.1984,-99.79691,30528.884765625
523,2955.4421,3435.3022,4876.909,-42.473396,210.95413,-145.04996,1789.49743652344
524,5332.405,5815.6147,8370.59,-14.756057,-202.9424,208.61383,2872.41137695313
525,-77243.07,-77252.266,-107952.95,27.84129,-2.982572,29.17445,30705.3671875
526,-75124.05,-75420.42,-105949.23,-87.903725,-209.36319,-160.56343,30681.84765625
527,-83334.625,-83765.08,-116693.47,-174.0627,-31.397938,74.12806,33147.37890625
528,-67829.53,-67837.35,-96255.14,-7.1190915,36.08864,14.316768,28421.783203125
529,-65717.336,-65717.51,-92991.67,2.1208544,-4.157917,4.8195305,27274.251953125
530,-61945.996,-61972.24,-89108.805,3.6087554,168.29889,-419.9681,27161.00390625
531,-64711.62,-64713.43,-91754.64,1.0366557,60.37468,-184.35982,27044.203125
532,-69480.5,-69478.71,-98501.24,7.66719,22.671793,13.179084,29021.67578125
533,-67242.89,-67244.14,-95073.6,-3.256597,22.632572,-6.9407015,27830.1171875
534,-65707.086,-65712.49,-92984.11,-5.504192,-4.6099644,8.1514435,27274.326171875
535,-8220.266,-8947.972,-12640.291,-138.69028,-13.99332,-275.8593,4139.60009765625
536,-11984.267,-12532.837,-19019.219,-97.17568,-90.16658,124.33787,6784.6455078125
537,-122048.72,-121556.625,-155691.06,-79.66001,-43.0713,367.30655,33897.40234375
538,-85034.336,-84716.85,-117122.55,173.41866,-175.06088,-348.09927,32256.583984375
539,-7698.0356,-7023.045,-10893.63,152.92322,10.217275,-119.46982,3596.904296875
540,-8217.288,-7702.68,-10822.318,220.04732,280.89105,156.78653,2974.43774414063
541,-56214.375,-56502.113,-81475.05,-220.2055,-67.873146,284.32297,25126.037109375
542,-68740.39,-68735.57,-97171.15,4.1136184,18.717115,22.92268,28433.21484375
543,-65886.8,-65882.5,-93254.83,1.4699095,54.51535,-122.36099,27371.1640625
544,-66339.1,-66404.805,-94943.13,207.28854,-139.22878,-99.09653,28575.025390625
545,-80248.54,-80231.18,-111347.555,20.502125,204.20055,-102.522644,31110.23828125
546,-71452.45,-71938.914,-102169.734,173.72511,-12.1152,88.50951,30478.841796875
547,-127039.55,-127704.32,-162360.17,-57.522854,614.2684,-101.84466,35009.73046875
548,-109534.17,-110040.06,-144952.9,-72.80331,-558.7971,104.85011,35182.52734375
549,-63588.54,-63567.7,-90451.984,-16.050022,161.78339,-295.5758,26880.220703125
550,160.61888,407.94156,368.56448,118.09022,-64.62387,289.27774,598.656555175781
551,322.5257,697.35034,1887.2205,113.96515,324.2245,-220.77638,1582.03430175781
552,-77024.13,-77012.93,-107832.9,29.469341,-23.953161,37.689056,30814.5078125
553,-27850.33,-27820.873,-39085.473,-56.67578,3.181878,-44.080296,11250.5888671875
554,-135535.56,-135450.77,-167165.77,-1.3179032,-37.29488,-8.453045,31672.755859375
555,25397.31,25365.94,37861.336,-140.3132,-70.65733,-442.1534,12506.1767578125
556,-4783.968,-4327.632,-4815.1333,-336.33826,284.48975,119.37711,921.065673828125
557,-3887.9785,-3540.6016,-4011.4524,-228.78777,0.46371928,-241.4162,714.623046875
558,11432.117,11391.588,17401.021,81.052345,-292.91824,-179.98308,6020.4375
559,8039.2334,7948.951,11492.557,76.45843,188.26094,251.2381,3543.810546875
560,-82247.016,-81956.84,-114773.44,-14.979501,145.51984,363.23993,32679.513671875
561,-75423.94,-75154.29,-105928.37,-2.1113248,-204.79242,-395.29794,30649.845703125
562,-65554.66,-65557.72,-92850.695,-1.2632806,-12.403885,33.38322,27294.576171875
563,-18871.91,-18811.125,-27972.33,-53.783745,320.01627,129.80208,9151.0087890625
564,-14059.537,-14300.785,-18683.713,-210.80168,-144.3437,-149.39241,4537.4443359375
565,-8892.462,-8016.5645,-13292.808,127.7962,313.3122,66.48845,4933.68408203125
566,-9622.481,-10272.453,-15847.118,-22.976753,-72.78514,-409.52646,5970.20458984375
567,-10150.304,-10710.549,-16406.215,-9.937744,-84.23533,227.7903,6010.21630859375
568,11850.536,11447.341,14965.669,-146.97548,-109.43076,-116.617386,3356.21142578125
569,-35485.785,-35723.625,-51749.48,47.84467,367.06122,176.12938,16161.6943359375
570,-2037.2205,-2119.1333,-3653.8586,-170.04076,663.9298,140.27913,1988.96704101563
571,-58883.844,-59052.16,-84796.38,-213.87422,-60.405144,-296.73776,25836.771484375
572,5761.3916,5564.171,9247.016,-282.35245,-272.03885,211.42851,3670.31298828125
573,-64494.62,-64496.66,-91417.08,-2.7299554,2.309633,9.726898,26921.443359375
574,-66234.2,-66229.92,-93689.46,8.375003,14.564507,-3.7085676,27457.416015625
575,-66859.44,-66860.39,-94641.37,0.16789672,-2.1897025,-5.7605205,27781.455078125
576,-63998.363,-63992.285,-90550.3,2.864267,2.459275,-8.140849,26554.978515625
577,-65402.816,-65400.26,-92601.93,-2.1453366,42.831135,-10.03396,27200.498046875
578,-66342.7,-66343.19,-94218.11,-1.6781132,41.565388,-72.33074,27875.5390625
579,-67266.63,-67263.53,-95345.086,3.8710952,107.819275,-45.268993,28080.736328125
