Element Label,S11,S22,S33,S12,S13,S23,Mises
1,17668.486,16331.554,2006.6465,44.28334,4362.963,662.3802,16869.2109375
2,18762.762,17437.645,6763.5493,4205.382,-2098.6404,263.19968,14011.1767578125
3,8226.287,10891.911,-6321.1484,462.95557,-958.3356,153.9327,16154.8984375
4,7676.254,3966.476,1062.9023,-2587.755,5783.1504,-604.2042,12429.1552734375
5,11717.452,11276.205,-7315.369,-2425.2424,229.11267,3505.0605,20216.4296875
6,12558.68,6012.9854,-261.6958,-2158.393,273.8961,-1148.7719,11893.2724609375
7,11842.087,7344.1367,-5727.716,-44.675766,1687.1726,-780.97437,16133.09765625
8,18410.787,21872.965,1449.7402,1134.4778,-608.2895,678.85846,19098.158203125
9,16418.285,15304.203,6240.0713,-3.1354213,-791.98145,-663.73773,9833.6787109375
10,10830.914,10925.191,-3316.8848,-3523.4421,3567.3826,-4369.8003,18281.4375
11,6594.6387,4843.2896,2764.2332,-3544.0972,-931.5408,485.79407,7212.76806640625
12,7530.1216,8423.777,-5296.435,-3480.4487,-1562.7675,541.82135,14877.1533203125
13,18441.596,19663.965,9035.659,-1016.21423,-53.2239,1112.6049,10405.9404296875
14,8917.954,12415.153,-10269.562,1090.9703,-1290.9429,-6333.5586,24008.455078125
15,40749.684,40406.57,55312.63,2828.8943,-4320.6,18023.049,35660.83984375
16,22341.46,16589.787,8705.588,13267.093,-11263.262,-3894.7158,33086.65234375
17,7966.2607,6365.104,-9051.553,3954.5286,-9625.663,-1342.416,24396.77734375
18,13652.5625,14012.009,-4381.743,-5563.488,-4349.4795,5047.023,23619.40234375
19,-1160727.0,-1165908.4,-1161802.8,14482.195,2943.4639,-11421.378,32695.068359375
20,6437.2236,10970.342,-6181.5103,-780.51373,-2751.7593,-7362.908,20595.271484375
21,16681.945,2017.8066,4002.459,1371.9404,-5130.054,-2569.8381,17154.701171875
22,2365.9243,-3596.5452,-18667.902,-1667.1528,-6786.0063,150.17088,22340.87890625
23,14328.433,-1681.7872,7411.3696,15968.675,2728.295,1229.39,31389.328125
24,4167.837,-7950.9526,7469.5054,-3742.387,3349.3948,6610.949,20113.775390625
25,-22298.465,-3350.8914,-4381.043,-2118.7834,-4306.5767,-7624.1826,24167.021484375
26,4629.349,-2980.903,477.03275,-4552.443,-4486.666,1314.7163,13088.455078125
27,20685.604,6015.605,10534.528,11390.265,-9504.3125,-11609.549,35126.80078125
28,9196.19,-2152.919,1946.6545,6335.1763,-14309.768,5966.9277,30669.3125
29,12095.48,3834.4531,-3203.8735,5778.869,-7148.101,-1985.4589,21005.34765625
30,18431.043,6041.346,12481.533,265.73203,-14348.882,-855.7759,27115.83984375
31,23564.816,4572.3086,10850.146,2098.399,-7856.6216,4357.7573,23157.162109375
32,1524.7437,11090.828,-6082.0615,2391.9082,-12540.68,2489.36,27012.98046875
33,8237.603,4652.8813,4278.561,6386.2354,-100.35445,-13169.486,25632.41015625
34,1112.6084,-8349.039,-17615.553,5954.2803,4909.0713,-6929.266,24202.666015625
35,6367.088,10970.211,-4856.122,111.45347,-15095.7295,-601.2101,29725.001953125
36,17580.42,10182.417,-3820.6074,2653.9236,-980.4204,4873.578,21205.623046875
37,-1414.7153,1783.5017,3539.8884,4034.5337,-11788.539,6822.4062,24986.15234375
38,25610.053,14660.328,-6662.131,4170.454,-3837.4507,2928.9258,30497.716796875
39,12032.75,15099.248,15433.748,2964.0286,-7746.1743,9862.237,22554.33984375
40,14913.278,9447.104,-9177.618,3033.9895,-5285.5767,-4201.975,25356.701171875
41,17712.582,9207.415,-11469.36,4131.796,-858.2943,-3364.9287,27624.623046875
42,11834.234,12541.625,21714.36,6105.7583,-19045.871,2314.6694,36156.296875
43,18437.383,6603.0522,-620.6958,5216.8267,-5147.5405,-5792.5,23227.541015625
44,14580.339,12223.727,745.3037,2021.4932,-13283.069,5300.5107,28110.912109375
45,16369.784,8759.098,-4056.461,4376.1855,-7308.8457,-231.92819,23185.51953125
46,-145519.98,-147228.62,-151810.78,-1660.753,4177.264,15528.006,28560.89453125
47,180734.34,189328.23,214636.55,-12166.634,-1160.1313,6794.4683,38967.62109375
48,-63322.25,-35730.51,-72997.75,1166.0475,-250.34125,-11997.2705,39470.921875
49,-16283.676,12638.1875,-24854.14,-1955.245,5409.7153,-10867.854,40142.19140625
50,-6892.51,32105.83,10901.925,-7232.202,3667.1855,557.41547,36629.90625
51,39694.92,60256.97,46816.91,1270.1329,2482.2007,-127.803734,18720.322265625
52,-7762.02,-12089.658,-25000.441,-3323.4954,1399.4419,-11013.017,25380.341796875
53,8996.547,24782.941,10831.911,-1565.1819,-7202.1025,-6746.367,22871.50390625
54,4309.353,11404.657,15943.029,7545.6064,-9065.377,-893.60565,22866.7578125
55,6353.41,21024.975,-5580.16,1572.2684,1716.5403,9321.418,28454.72265625
56,4608.204,22502.195,16934.764,-14759.6045,4748.812,-2271.535,31436.263671875
57,1090.6733,-4142.1924,7758.245,4829.701,-3176.9668,-8009.58,19986.1796875
58,7732.161,4554.566,7432.4277,7200.03,-13535.986,3975.3135,27601.33984375
59,-1260.0557,14796.407,5890.283,19866.361,-4555.228,117.50224,37953.08984375
60,5859.5176,-770.2316,10831.654,-6720.3027,-9523.564,-11250.436,29815.078125
61,4913.9883,-5620.9023,-6607.1763,13431.082,-1172.3047,-4284.963,26883.72265625
62,-2285.2627,16955.537,22656.227,-4833.5806,-269.85117,-7803.7583,27665.80859375
63,12692.524,6399.1714,24571.152,460.84036,6566.3296,-9646.704,25780.388671875
64,13488.343,-12.694444,-675.11694,14421.498,-337.96017,2580.236,28912.185546875
65,19598.232,18637.668,-5236.492,3639.4944,2464.9548,-5482.8447,27239.3359375
66,27447.32,14532.588,9483.84,2377.2969,4441.956,2023.5894,18598.80859375
67,18857.139,9214.028,-7880.1484,6034.6504,-1172.7714,-325.7385,25763.09375
68,20649.535,6248.1914,-7555.4434,-8091.4966,9941.411,-4355.7124,33860.87109375
69,2470.3037,-1012.6113,-31747.93,-2561.123,3641.5283,5421.831,34806.43359375
70,23019.492,9502.078,4656.4277,-10306.773,8638.131,-3717.028,29252.197265625
71,-3915.5063,-2974.0884,205.51971,-13592.605,4846.1265,-3335.787,25924.958984375
72,-13531.446,-18861.688,-52385.34,-4381.391,6495.459,-2373.4592,39140.75390625
73,4124.125,-9961.719,-31722.176,3996.3381,11072.04,-1891.3691,37481.421875
74,10667.541,7585.291,-706.4673,9101.32,-3177.7827,4704.3535,21189.634765625
75,-15698.405,-18384.668,-55371.387,-5362.1416,4015.138,-785.3331,40138.02734375
76,12783.179,-17137.334,-17256.47,8374.1875,2932.338,8302.232,36630.234375
77,-17607.143,-2233.5435,-37921.656,12541.341,-2786.059,-5445.6265,39312.09375
78,47036.73,57720.887,57359.945,3647.7944,-21399.951,-4785.5005,39911.41796875
79,53589.28,72142.375,79940.805,7087.5176,-16878.648,3093.549,39796.89453125
80,-259286.92,-269475.16,-299690.44,-4608.7227,2115.6023,8251.933,40075.3671875
81,-236132.86,-233373.16,-267130.38,6654.659,7571.252,3259.231,37292.0703125
82,12747.854,27261.047,26500.34,-18669.826,391.32565,-4367.692,36104.6796875
83,282586.34,288996.06,266294.25,-11692.357,-1175.7987,-13897.018,37478.0859375
84,23706.465,23177.316,25227.441,-12061.28,1089.296,-4232.8916,22296.490234375
85,15392.164,17084.154,-1510.6465,4341.1562,-1852.2156,-4141.912,20867.73828125
86,16377.183,20461.396,1101.1526,-15541.641,2935.0122,11616.637,38311.06640625
87,1694.9431,18646.84,3499.4148,2592.067,-1210.4436,-11530.329,26142.515625
88,15115.014,15137.18,-2863.665,811.1888,11046.837,-4430.1597,27396.765625
89,12166.265,31042.396,-11584.654,3037.6995,-617.0444,-3318.9194,37823.4140625
90,3530.3872,19666.395,1385.7852,3738.9102,1350.5808,3057.502,19365.712890625
91,604.7471,24568.361,5113.9873,8428.372,-4886.362,6141.7505,29739.462890625
92,-4092.9858,21254.307,-5260.2676,-94.838486,-297.67508,1425.8826,26073.501953125
93,4304.2324,18433.924,-15105.045,9801.854,5174.7744,7368.382,37176.046875
94,17595.807,25797.357,4060.961,1609.2416,-1784.3502,1649.9843,19671.1015625
95,17826.49,17838.154,4106.802,-4436.506,2997.3997,2271.5293,17025.583984375
96,9862.07,17035.346,-12145.819,-7162.832,-3440.4468,-13911.348,38258.03125
97,12852.196,15653.914,1148.6718,-4730.213,-3511.053,5557.8237,19349.095703125
98,7175.34,6110.598,8469.25,11436.511,-13322.762,4360.448,31402.15625
99,22074.97,12043.219,21179.547,-947.1812,-6974.176,4783.126,17598.263671875
100,14419.725,13969.777,5702.6035,134.88829,-447.52267,-1801.5573,9091.7900390625
101,27916.2,17730.89,32893.504,7076.0,-252.64717,6571.5547,21428.166015625
102,-32537.754,-62876.17,-45734.047,13301.959,-3306.215,2065.5557,35645.84375
103,13346.072,-580.0051,-13088.988,-8981.259,-15518.446,1605.5009,38688.49609375
104,22131.916,26163.152,-1602.5458,9307.911,7.614093,6294.064,32465.556640625
105,13487.817,101.322266,-1168.6426,1814.4131,-8168.119,-8358.99,24848.75
106,8106.071,231.55603,-10699.836,4707.5693,-5009.371,-133.79128,20233.671875
107,23952.441,20458.19,357.33496,690.81085,-1501.177,-6964.7964,25302.3515625
108,158.69287,-2845.9229,-20325.053,-5498.8286,-2341.2107,11028.396,28967.177734375
109,28128.156,11038.747,572.9092,493.78357,-15090.053,-5643.924,36876.26171875
110,27192.502,13045.857,8708.916,883.86444,-7924.9824,2927.2961,22288.0390625
111,717.6874,10729.69,-718.37646,2534.183,-15247.783,-9680.915,33385.5
112,16361.807,10065.444,253.4336,-3413.414,1865.5558,48.252056,15591.720703125
113,28317.727,5422.824,11069.11,3164.7493,2989.7012,7034.4683,25141.580078125
114,25237.707,3141.418,-3145.2832,1632.9368,-7132.8364,2089.81,28989.90625
115,39101.91,29036.477,47744.438,-8045.733,898.876,4504.778,22814.501953125
116,20660.842,33956.684,39900.688,-2568.5093,-20607.94,2951.9358,40138.9609375
117,49356.38,41587.875,72716.92,10198.372,-4718.134,733.65515,34175.41015625
118,27698.623,-5184.468,21728.037,5643.886,10019.622,-5311.084,37442.96875
119,35445.188,39569.176,59144.207,9175.858,-12390.148,6566.394,36378.640625
120,-384176.75,-402473.25,-385264.38,-1453.13,692.447,-15487.911,32302.392578125
121,11473.333,11316.307,1371.852,-626.13556,5404.83,-5168.77,16414.615234375
122,2954.905,6558.26,4123.8623,2035.5948,-12259.516,5735.3213,23919.412109375
123,5511.107,2988.8809,1524.2228,1742.1361,-2010.9106,1038.8197,6055.9794921875
124,13840.742,11443.723,-4318.264,220.48274,-5998.9365,3361.62,20832.107421875
125,13662.648,10252.816,13188.663,1184.4231,-7751.1313,-2857.2913,14804.6083984375
126,15282.84,10107.122,-5295.789,-779.7564,4995.1895,-1306.5391,20629.1015625
127,11497.265,29095.06,26483.254,11978.174,-10082.615,-7803.102,34476.2890625
128,-15577.177,-12989.396,-24627.07,8186.0767,3913.1829,1094.4705,19041.650390625
129,15059.722,-6633.496,6197.9766,1619.9612,-6676.7744,-9623.854,27863.109375
130,2870.3982,-220.83955,14027.4375,-9572.998,2890.3635,3241.611,22361.52734375
131,-5359.139,-709.1925,-14795.928,-1071.1533,2940.1409,-4446.8364,15596.6025390625
132,11524.049,15412.774,12555.143,-1473.8563,561.1333,5666.6284,10768.8955078125
133,-2099.6523,24235.791,-6119.96,-4649.5796,4408.8604,-3572.0735,31257.703125
134,8410.31,24028.336,8906.755,1120.0613,4198.0586,1695.4883,17368.77734375
135,15125.002,19724.492,15665.372,9680.437,-9675.743,-423.59558,24114.16015625
136,13763.913,15653.156,-12384.863,7389.4927,1036.0142,-5428.454,31498.6875
137,10025.442,4304.563,-2853.454,-1211.6962,-3111.5845,1498.7657,12849.3271484375
138,-3344.1245,5548.0005,-35259.11,313.15097,252.3628,-8724.858,40128.33203125
139,-259087.38,-272145.6,-242269.34,-11191.845,-882.56116,10820.074,37447.3984375
140,12570.878,10154.218,5977.534,2641.1238,-5635.731,-11761.464,23761.01171875
141,14023.678,55074.33,42310.766,-6626.5566,-1420.2205,-4943.978,39181.953125
142,14102.217,-9659.38,13032.614,-15937.979,1197.2368,9584.464,39777.953125
143,-9177.478,-27447.719,-34670.516,-16883.678,7902.5747,-1553.6785,39594.21875
144,23958.75,3920.5415,-10717.454,5.247856,1670.7938,-4143.3506,31128.71484375
145,15988.086,-8380.739,4635.322,-6707.1953,-370.53366,535.2158,24130.935546875
146,-4991.889,-5395.567,-14963.466,-9464.197,17575.152,-3919.0645,36565.26171875
147,32870.504,8798.29,1048.0143,-5925.212,11819.597,-2971.7554,37108.375
148,14904.994,-1449.0588,-2000.4221,-11157.687,3998.638,3380.4568,27064.880859375
149,1779.2612,15307.71,-9944.589,6061.07,6124.413,-7569.998,29558.80078125
150,10672.838,14465.586,-849.0576,1393.7396,1834.2565,-11459.17,24509.12890625
151,-2716.1724,14598.024,-3099.9595,2102.67,-637.3641,-6454.021,21119.166015625
152,20492.072,25357.143,3528.3271,-5648.944,147.43571,-320.0269,22137.560546875
153,2701.7488,6558.8955,1713.9348,-3797.684,908.064,-13540.498,24808.056640625
154,1374.106,3963.0308,68.91431,-5678.698,5381.352,-6209.164,17637.0625
155,7162.4272,-6362.997,-6425.868,-2388.17,-5042.78,-3062.8333,17473.787109375
156,1623.9552,-2955.762,-3984.0063,11048.088,-207.8401,-9670.519,25953.9453125
157,22859.402,13388.975,9069.291,-2061.5168,-6147.215,9298.133,23124.404296875
158,16.238869,1807.8458,1783.1246,-1831.0428,3805.9827,-3391.3533,9549.06640625
159,19303.467,14247.079,13616.937,-1176.9142,-13203.521,2736.3125,24057.57421875
160,16606.51,14671.65,-7941.707,818.54443,-7748.789,-4658.7944,28392.17578125
161,16194.037,6314.3447,4792.4844,-5381.459,-15484.726,-8971.646,34097.53125
162,18557.434,1263.3372,-6858.9297,2033.6335,2494.0422,-4339.8774,24353.5546875
163,23059.887,9657.6455,10594.5205,-348.2968,-14036.342,-11716.909,34223.09375
164,-4948.6494,12596.751,-8035.02,7349.2446,-1460.15,772.81915,23275.31640625
165,4865.852,22221.162,-9579.132,4267.521,4102.7188,-4995.118,30668.34375
166,1719.4092,11086.846,-11737.594,-9174.545,-4048.4321,54.736267,26393.041015625
167,11252.828,21299.768,-1431.3398,-99.946396,628.7833,5165.567,21691.73828125
168,-3029.317,2051.5728,-2725.6663,-7573.338,2176.5317,-6993.9146,18904.697265625
169,16685.05,18065.818,6880.629,3615.346,-1933.2225,-16745.877,31674.408203125
170,11874.146,20017.572,-5912.676,2042.5684,553.11115,-8603.773,27623.1953125
171,-5402.1636,8519.13,-11163.959,-5023.439,2799.4377,-7040.0293,23560.8515625
172,23978.945,21495.402,-2940.421,-4039.6948,9136.424,7252.951,33483.7421875
173,18781.127,25145.527,466.1455,-9905.312,-1199.1582,-8102.28,31434.19140625
174,-5199.8433,20471.475,-13986.051,-6879.349,-8787.792,-5937.866,37963.06640625
175,2856.8914,7660.979,7199.6753,8370.156,1405.5853,-15725.994,31290.609375
176,7501.2524,19657.459,11291.854,-6957.0405,6030.2383,-10352.872,26304.013671875
177,-1462.8813,10158.255,-19636.912,-6616.137,8800.714,6340.548,34071.015625
178,5986.4717,9766.557,7088.0273,2161.5876,-2675.7012,-13648.083,24609.84765625
179,25791.27,9236.71,3229.6074,-1430.583,9753.171,-3542.735,27179.943359375
180,12306.04,21510.516,4112.419,-921.0524,-10536.576,6611.411,26344.095703125
181,17760.84,17144.96,7373.792,-2077.7424,-798.9077,-1708.3019,11202.392578125
182,21359.848,10948.067,-5788.6816,424.28986,4491.46,1244.0636,25069.625
183,19258.375,4205.8823,3610.2563,3837.1416,-6087.5474,-3224.451,20553.220703125
184,9653.863,8818.253,-2698.2715,2131.1816,-683.7823,7721.318,18353.109375
185,-4183.9014,10688.017,-13347.61,-9899.049,3811.1335,-3312.5908,28493.8046875
186,13562.719,9837.82,12209.269,2748.92,-4700.2617,-7878.5415,16906.404296875
187,14832.516,15763.063,-5038.1406,-104.79689,7622.6104,18305.848,39923.140625
188,16376.848,-5769.3926,30017.936,-2781.9724,2052.7139,5397.4204,33194.71875
189,3778.3752,19237.605,-3084.538,4565.4727,-2294.2834,253.09944,21695.546875
190,-8251.5205,9359.328,875.05853,-755.59955,-3125.3423,7328.4487,20611.75
191,-6222.4404,21875.186,3290.495,-9909.846,3473.8489,-3026.543,31160.544921875
192,14417.34,10445.283,-3815.3335,3062.1792,6712.239,3291.2783,21715.828125
193,19646.254,13593.147,8074.728,6046.1504,17819.303,-2082.5564,34289.33203125
194,44812.723,50476.723,77940.86,-6959.1553,-7266.2554,-10960.414,40074.8515625
195,1648.6598,-11268.53,-1336.3425,-6219.337,4865.2236,-1376.8451,18164.38671875
196,7603.9497,-12284.751,-21948.598,1258.3947,6357.7827,6570.756,30605.412109375
197,10839.773,15175.943,-10221.836,11688.82,6236.6235,-4339.202,33716.14453125
198,20996.14,-3746.162,13745.785,-7459.933,9851.847,-9232.153,34629.25390625
199,21881.441,2617.4583,-7798.407,-3421.5156,-2808.376,8756.472,31129.5859375
200,21089.096,10393.435,-715.46875,4920.8857,-5948.1733,-2617.325,23578.8203125
201,9051.503,4835.0684,-5295.0,-7592.8384,-1039.9302,-3532.7234,19409.990234375
202,-3930.6938,7880.2983,-175.68384,-4006.0452,-5416.766,-1699.307,15939.931640625
203,16118.289,7936.5957,7868.045,4033.4287,-3661.5786,568.4066,12549.9814453125
204,2419.1074,-383.80518,-15739.249,1610.9224,-3190.7603,5718.4604,20569.79296875
205,12364.742,-3776.8474,-8015.782,-2956.5918,3058.2322,-4404.0166,21433.8828125
206,19246.812,6467.487,-5043.3623,2906.413,-4333.5293,-5598.6567,24872.20703125
207,22250.572,14270.388,3930.5576,565.39764,-1053.7249,-6864.9424,19969.513671875
208,13779.609,4379.2896,-5972.7124,1860.7435,-8806.227,-520.92,23166.6171875
209,15647.844,7220.2,651.09863,-6074.8164,39.25833,-3018.0852,17538.005859375
210,12793.791,-6929.409,-14363.572,165.31995,4577.1343,-1252.8221,25661.99609375
211,14837.625,3267.0283,-2377.4448,1593.9186,-1101.7942,2177.1865,16016.6396484375
212,23059.896,-11444.283,-15725.307,3079.964,2453.2163,4285.5977,38186.26953125
213,16318.169,3525.8818,19048.4,1624.072,-3836.608,3908.2412,17433.22265625
214,32824.6,9018.7705,-3988.838,819.4767,7104.3276,-7365.4814,36901.9296875
215,20026.062,4551.5107,1125.9854,2614.6592,-5034.0166,1690.9005,20231.5390625
216,15136.481,3014.0576,-8144.3174,-3963.9983,8027.1357,4613.092,26664.873046875
217,19435.55,15561.2705,5228.11,-4658.8027,11440.41,-6415.8037,27259.267578125
218,-7654.0215,-12419.543,10222.907,-8767.866,-7281.1,5970.92,30399.228515625
219,-3321.699,2036.6829,-7197.995,4129.617,4020.6484,10627.417,22427.49609375
220,15119.463,19890.086,9396.949,7779.056,-12722.607,7981.0845,30676.28515625
221,17550.58,16495.24,2371.7588,2249.737,5101.7515,13243.697,28895.42578125
222,1787.1187,-323.31152,-19654.09,3325.7761,2239.9917,7611.547,25317.408203125
223,-3993.0984,6286.6255,5121.816,1544.0635,-18430.246,7585.081,35969.8515625
224,13624.062,21249.652,24656.428,7827.2246,-542.64777,12745.836,27708.900390625
225,20768.932,22637.549,24980.14,-234.50732,1296.5381,21496.25,37481.078125
226,6929.539,7496.0737,4180.9814,3283.1694,-11313.707,14937.03,33092.51953125
227,-4507.723,-3508.7842,-22826.732,-5459.555,-2260.636,-11498.759,29262.595703125
228,11817.968,12361.906,1325.582,2406.0427,14282.803,10898.037,33192.73046875
229,3063.5469,10004.767,14774.229,1245.5122,-5768.0615,9314.019,21650.693359375
230,14417.871,15119.76,16277.513,-535.5405,-10794.267,13810.518,30417.853515625
231,6642.8115,10089.88,2637.1355,9203.407,700.52747,-3023.2993,18020.45703125
232,14428.772,39032.844,13683.55,9049.709,-9532.256,-6407.0366,35576.46484375
233,14586.383,27973.557,20805.87,7480.3843,-1741.6836,-2971.7297,18387.48046875
234,-691.21204,4353.3486,32370.326,1526.0924,1760.0696,-252.83978,31115.978515625
235,9384.842,-125.00488,3089.3445,11082.531,-833.2874,16326.965,35220.18359375
236,771.41125,-11530.942,-20793.203,4774.3555,-6856.871,3070.034,24265.072265625
237,-8098.452,7200.331,4066.681,6000.7446,16149.428,-4650.869,33930.25390625
238,27184.39,13734.737,-11933.785,1164.5685,9818.509,-3613.9927,38954.5859375
239,21397.928,13947.961,-14288.74,-7313.075,5255.673,2451.8625,36393.9609375
240,22676.607,25241.602,16778.59,2740.3398,8091.4854,3589.4905,17722.650390625
241,27763.344,16920.518,19259.764,4733.9175,3192.2854,7137.1426,18662.6171875
242,29053.047,4535.6934,11272.729,-6824.4004,11356.877,-5391.15,33093.21484375
243,9198.02,11145.427,-80.459015,-8442.625,9532.615,2123.4868,24656.138671875
244,25224.896,3205.9111,-3345.9756,985.5488,6603.237,-1666.5325,28532.13671875
245,4883.6646,-253.13329,-4621.0327,-12235.564,2648.1294,-2552.791,23613.921875
246,21747.232,664.7012,40540.973,-3031.8716,-10274.947,-747.53705,39241.23046875
247,25244.604,3133.8047,45392.664,-919.13293,1070.3517,-2114.1084,36874.125
248,-3659.6055,-21620.043,-29025.8,-10257.693,13933.708,-421.26935,37537.59765625
249,-24307.984,-33176.902,-62261.332,-332.49612,11320.0,-2160.0696,39765.1328125
250,30002.742,11852.732,52993.086,4709.874,3600.713,3675.2375,37699.0703125
251,-48604.19,-38663.414,-66499.12,-6328.156,9689.262,14193.591,40038.640625
252,78715.305,80210.445,118863.05,1361.6237,-2746.2424,-2980.6108,40110.96875
253,58065.94,47483.65,90696.11,-1949.0873,-47.726242,-1360.5586,39229.73046875
254,-31090.523,-35508.137,-54427.71,-1609.9236,18904.2,-4847.915,40142.6640625
255,37604.24,62140.746,78485.85,-2348.6743,8899.298,-2464.5042,39276.1640625
256,33224.316,7813.346,183.84009,-3385.446,12768.347,-2506.4626,37948.94921875
257,110188.086,114819.99,141662.31,12705.897,-4473.2817,-2330.815,37774.9140625
258,-316414.66,-284215.78,-292808.94,2598.0442,7325.9478,9205.111,35628.36328125
259,-66324780.0,-66324010.0,-66326130.0,328.60663,-109.73042,256.7559,2002.89392089844
260,-1903639.4,-1898915.6,-1932343.6,692.37494,-8460.176,-2526.4072,34887.671875
261,-7968714.5,-7969924.5,-7969189.0,-518.9388,-770.33923,-1114.5956,2725.845703125
262,-958964.5,-954795.44,-958400.56,-5887.16,8146.957,7625.554,22201.125
263,22473.732,42122.42,68042.77,-2589.6436,43.1001,-1109.2665,39887.99609375
264,-16043.162,-14477.218,-50038.754,-10736.145,911.8888,-2729.3672,39774.6796875
265,5833.8457,-2853.6074,18675.648,-8399.011,4163.6426,5877.059,26817.97265625
266,-1452.6033,17511.023,-5231.208,-4899.1973,-184.4171,-873.0717,22802.373046875
267,5337.587,18681.893,21448.83,9341.124,-1290.2162,-1234.5383,22225.78125
268,-8298.297,11770.385,-28971.16,-6997.025,4173.713,471.4166,38010.4921875
269,-8653.701,18564.234,7551.765,-5072.3296,5328.3774,-3851.6782,27734.82421875
270,8177.833,11028.464,-9294.106,-5758.7876,-2128.5264,-808.3782,21868.79296875
271,-10901.006,7140.921,-9352.281,-8972.408,-4164.0786,1576.8918,24514.453125
272,8456.763,3255.1287,1117.612,0.43702257,-3067.8806,618.6353,8492.8408203125
273,4356.4946,20118.684,-8745.694,2808.65,-504.71844,651.06946,25540.841796875
274,-3046.4355,20802.64,-5039.142,2436.9724,5522.1553,-1053.171,27072.126953125
275,1962.208,24883.34,8790.194,7883.2114,-7037.499,10216.514,32613.498046875
276,12565.715,16303.328,-9803.975,-1678.2417,-3743.1936,9207.741,30046.85546875
277,-958.1001,18971.756,2880.2705,-2978.791,1690.4174,9163.571,24950.736328125
278,9470.294,23147.44,-3695.2969,-3405.3247,6081.787,11101.994,32495.857421875
279,2119.2852,8424.665,-5099.752,3265.7986,-7775.355,4659.0166,20393.015625
280,1141.9031,7714.008,5562.432,-277.9996,-4253.5835,3077.8198,10798.6640625
281,-13553.126,-2515.7397,-11093.365,-1197.3418,10022.71,1618.2073,20353.02734375
282,10854.815,7508.4014,11776.903,960.3876,754.8567,4705.576,9275.6787109375
283,3649.177,14524.07,-992.76025,-3794.5212,-5117.364,-231.73544,17669.462890625
284,4808.5586,1266.3542,3532.3425,4934.1187,1850.8722,-275.72424,9653.8671875
285,18488.404,13287.807,18154.428,8967.829,14281.1,5514.952,31141.294921875
286,27255.727,16845.826,24743.672,-519.66266,13923.007,-6489.693,28235.3515625
287,34656.613,33389.977,68479.54,10202.465,-436.24,2631.455,39013.4765625
288,8035.2603,16264.291,5059.18,2325.199,-438.0704,8252.598,17949.25390625
289,9441.4375,12191.676,8998.624,1113.6869,-4183.437,15443.282,27940.775390625
290,3648.275,5319.134,16292.928,3463.1804,-11924.838,828.87933,24621.10546875
291,-297.4248,-814.8989,-23793.969,8770.777,4080.4976,-5375.791,30126.814453125
292,4345.2954,-3292.8684,-3377.9543,-409.69095,1099.5375,-9136.901,17708.13671875
293,9815.9375,11209.67,15212.063,-3775.848,-2306.027,-16.176573,9070.0087890625
294,1661.3862,-2417.1882,-17194.22,4885.7197,7032.467,9047.241,27582.603515625
295,13673.458,15587.145,-5333.9463,-2956.0913,8882.687,9683.994,30750.265625
296,14353.743,15618.081,5987.916,-1026.4119,951.4258,-972.8445,9533.0126953125
297,16032.857,12892.161,16867.697,1260.3403,-2613.1973,-595.5624,6284.8046875
298,-5568.8027,-13176.944,-43804.152,-3437.3635,5257.8057,-3818.1125,37296.64453125
299,35739.957,23545.582,59918.97,2963.0688,394.04526,2348.8145,32734.251953125
300,-35940.12,-8106.481,-27338.71,14777.7705,9915.171,-656.30817,39505.17578125
301,-50853.496,-55231.82,-86389.77,-7324.7773,-6620.678,-2985.8877,38021.1953125
302,6570.5503,-7562.3413,-6140.44,-2569.3044,-1519.1251,-7652.185,19597.4453125
303,12537.282,-1199.6438,21101.84,4998.3315,9950.981,15288.832,38117.80078125
304,7638.302,1255.908,-9166.364,2830.2607,-6861.5767,8431.431,24380.724609375
305,-4808.11,16907.398,-10755.288,4397.5845,-2086.353,4575.287,27748.0234375
306,12833.722,6142.3037,1131.419,509.45734,-1997.5963,-2949.6973,11927.52734375
307,14974.115,17646.184,4733.1978,108.86242,3718.4673,-5582.7812,16565.013671875
308,-4768.7583,8524.459,-11516.24,-2986.863,-878.25323,-4998.4805,20395.25390625
309,20114.02,19653.518,773.88086,-8767.273,-6673.9907,-5187.7075,28465.865234375
310,11387.09,-4397.9326,-9281.599,14579.544,-2146.9346,4492.7837,32591.080078125
311,-6579.856,-13878.129,-33599.125,377.67813,-1921.7482,-8465.799,28506.634765625
312,11008.641,-26379.78,-18783.406,-11390.992,1150.362,3317.7344,39972.97265625
313,6278.3716,16089.27,2908.404,2338.3877,15718.395,4951.8804,31174.4140625
314,22305.08,10570.164,8883.934,-1549.1478,-1875.3562,5062.188,15967.689453125
315,8796.482,22200.455,6038.529,-14556.209,3458.847,5960.9478,31660.376953125
316,-1391.5562,13993.965,-3218.7612,4320.5386,2310.9255,1949.6208,18750.755859375
317,-619507.2,-613659.94,-628030.56,-2874.1152,-12800.695,-4834.296,27260.646484375
318,-933.6421,-15614.24,-7858.709,-1133.5364,8280.4795,-11636.815,27885.705078125
319,-10701.119,2075.969,4110.5327,-5321.6533,-5302.898,-2217.2295,19428.322265625
320,-19626.725,-1159.3252,-16517.469,-4279.0103,13377.521,-1305.5691,29836.38671875
321,10555.554,3780.956,9058.788,14260.429,-6689.6523,-2689.0398,28355.283203125
322,20337.418,12417.217,-2876.2207,3286.3684,-3040.6228,-9393.179,27250.287109375
323,13804.933,5483.429,-2608.5527,-1333.242,789.7616,5021.826,16879.72265625
324,10558.625,11671.571,-16302.298,-100.936554,-1929.0336,5028.1436,28977.291015625
325,19207.484,5767.32,-12312.73,-3679.3857,7768.7666,-8056.829,34160.46484375
326,1298.0309,4806.6714,3761.7625,-6414.674,7779.2095,-4193.9536,19170.1953125
327,2899.2603,7354.3184,-6568.3496,398.63818,5739.3135,3356.033,16874.439453125
328,-18546.729,-7601.5186,-10052.023,8333.587,-2997.0442,-6385.029,21367.73046875
329,3154.934,-23188.617,1101.9675,1208.0386,-2157.7048,10669.399,31685.4609375
330,-9728.892,10037.566,-5760.3145,-3195.7366,547.6803,10309.731,26046.640625
331,8601.519,588.6921,-8472.441,-2011.284,11502.268,3475.4727,25771.958984375
332,25335.516,19344.586,29607.768,3499.1072,1148.1072,2098.9644,11560.3115234375
333,3980.353,7641.8286,-21860.0,-8944.061,6895.1836,9696.332,37952.8671875
334,22598.24,20820.062,14737.12,-375.61752,-7134.5527,1137.5138,14421.9013671875
335,-15175.767,-17025.928,-51058.93,-4212.2056,5639.1157,-6137.665,38552.23046875
336,27742.83,44289.375,67831.25,9402.781,-6069.5728,-2225.777,40101.90625
337,-24405.316,-34187.785,-37813.887,-16250.28,10165.097,-10739.789,39906.7578125
338,-20134.59,24.833405,11934.593,14227.6,1558.8901,-3560.8774,37959.74609375
339,701823.5,711995.94,680579.3,5747.0015,3736.4192,4790.0605,31316.126953125
340,4347.4033,841.80176,27596.412,-14000.269,-122.73433,1612.2458,35073.82421875
341,7025.138,15880.484,15012.028,1350.2565,8138.7876,9511.133,23389.20703125
342,4630.1494,8897.57,-14659.403,234.55719,4158.5566,-2071.0251,23184.642578125
343,8861.054,5208.985,-7405.0234,5611.7603,3828.8035,-8186.7007,23622.849609375
344,5565.272,-1188.3933,707.02344,5923.954,-1296.236,14701.272,28197.626953125
345,-3572.4138,11703.904,1885.0953,2458.79,3374.48,2601.0818,15886.3095703125
346,3896.4702,14441.328,7433.684,5121.431,312.80957,10721.299,22588.181640625
347,-3480.3528,14846.6455,-14396.869,2222.1477,7134.9023,2998.2441,29148.22265625
348,-9333.367,-13125.225,-26706.73,12953.523,6402.6216,-3380.3809,30182.40625
349,999.79803,22577.428,27268.154,1869.805,8255.857,-1605.7961,28487.076171875
350,8916.999,-10790.651,155.29126,4457.7344,-7620.802,3196.4536,23600.47265625
351,16483.115,18315.975,-15482.922,-2578.1995,7818.2446,-4917.7817,36873.37890625
352,1029.2656,17168.652,12081.216,4042.016,-2600.1924,-5809.731,19359.9921875
353,3275.2954,3396.685,-11101.495,3355.5872,-2054.5813,12018.681,26234.365234375
354,-25059.121,-20587.93,-40937.93,4253.9263,5024.865,-7076.9976,24968.228515625
355,-5810.8516,1054.5944,4154.0615,-10713.126,-3712.4067,10903.618,28641.68359375
356,-1723.4105,-9949.617,-16585.236,-5611.224,4805.204,17395.953,35183.41796875
357,-6829.612,6975.483,-17907.686,-516.51636,-11375.802,13524.12,37469.59765625
358,-11376.77,-1186.2092,-19022.92,-4592.5215,7475.8813,5287.5435,23559.376953125
359,5842.675,3977.044,4603.654,7833.501,-6886.743,-10898.114,26179.8359375
360,2459.4512,22068.992,-1131.3359,9393.202,-10302.37,-170.5683,32419.77734375
361,8132.2715,-473.44373,-7023.7954,1694.778,10455.333,-9254.675,27691.90625
362,17957.355,6406.767,15198.499,7622.587,901.5933,-3692.9907,18078.318359375
363,-16603.72,-7925.731,-9346.6045,8751.073,-396.4063,9792.544,24143.1796875
364,-3709.0977,1252.1292,-230.87439,-1092.807,481.47485,2903.2234,7001.41455078125
365,-1591.4993,2853.874,492.25873,1247.8245,-952.8216,2610.5957,6533.0498046875
366,466087.03,471569.6,507326.53,1117.6165,-3330.2012,3179.8315,39648.5625
367,-3311.3154,-5293.9907,-7487.915,-1543.2437,574.7924,466.38013,4677.88818359375
368,-32943.387,-17542.514,-53566.934,-2848.044,1543.4807,-902.3263,31844.337890625
369,-4332.876,13166.387,4906.266,350.21835,-23.968014,-2378.0686,15723.96484375
370,-4378.2515,627.7018,50.82776,778.38416,-318.52438,-1381.7021,5509.4345703125
371,11680.433,-6956.6475,2442.6287,-9200.84,-589.3317,1838.6475,22927.326171875
372,18603.9,1206.0479,3156.6274,3671.3684,199.23271,660.5166,17731.861328125
373,18495.752,5806.2837,6210.6904,4298.6094,1533.9349,2198.9072,15266.07421875
374,4529.665,-4267.714,-8096.0073,5670.441,4732.875,-3367.8499,17983.82421875
375,3565.6929,-18853.402,-7284.769,3188.29,-2075.5098,5291.0293,22460.95703125
376,3907.4062,2478.0125,3425.2046,3171.5747,-1028.9917,30.67172,5911.20849609375
377,-3052.9773,2.7600098,-1280.5681,1045.1252,251.09871,312.33014,3289.62158203125
378,-1462.8757,-1260.6693,206.05542,1694.8969,791.4751,504.0557,3707.86865234375
379,-711.659,-1923.5103,1465.1682,-443.09314,-404.02475,691.46124,3370.1943359375
380,25414.732,30872.527,48660.457,-2963.6978,627.78485,2362.8118,22080.814453125
381,4102.3086,12484.13,16600.389,6343.737,-151.52347,-0.09606227,15572.3505859375
382,-1326.9524,1218.0825,-392.29037,4831.069,-1217.6682,-2170.9695,9673.53125
383,583.99536,902.5066,-3012.9058,2553.7744,-1078.4379,454.56357,6152.9716796875
384,363190.72,365818.1,402536.47,-4901.114,-4442.9263,2613.7847,40042.37890625
385,-189023.6,-178967.25,-220589.94,671.4217,-34.43559,-979.23596,37672.78515625
386,-49776.77,-54006.117,-88166.914,969.9244,1174.5461,-1842.826,36694.3359375
387,29473.854,15034.982,39877.133,4763.1846,-1774.4451,2845.664,23847.93359375
388,8529.797,5546.086,23055.84,7971.0737,1977.4751,-216.052,21580.900390625
389,-1027.0615,-11812.487,-22271.604,2816.702,1007.81445,-408.05283,19127.796875
390,-3365.2324,-469.67627,625.1637,-203.45549,848.84045,-544.71497,3991.11572265625
391,-2223.2395,3309.6929,10579.38,4789.5527,-92.42027,-4831.59,16203.771484375
392,-8604.991,5245.5884,-7219.879,-7554.681,104.277336,1478.4266,18771.83984375
393,-36510.977,-22280.979,-9538.333,-9568.7,-5816.619,-2515.7876,30681.6328125
394,1870.0002,38.41809,3186.154,-14656.515,-48.47293,-2624.6384,25934.74609375
395,-3059.5225,376.27258,104.68988,-626.8301,-294.28406,-173.42213,3531.87280273438
396,9870.458,-6344.3604,-7523.4756,-1660.0563,1270.2354,467.89822,17239.328125
397,17176.389,4499.6016,4030.9922,-2136.7065,2591.7192,1576.8405,14428.0224609375
398,17481.756,-91.52124,-6070.7373,3385.48,-371.61197,-2592.8362,22463.583984375
399,-3339.3193,15160.411,6220.504,2527.174,1969.3057,-3076.1567,17775.2265625
400,-1261.0884,8855.883,7438.6167,-2369.1814,-1911.9442,-1250.3896,11068.8466796875
401,-1478.1848,375.62012,-1764.5142,6790.4336,3455.9058,1277.8291,13531.73046875
402,10105.588,7092.0776,18681.904,4184.0854,-2989.9312,-4170.8906,15492.16015625
403,281106.06,265047.34,308842.88,-2174.1167,-2241.1892,-451.97504,38762.00390625
404,61143.086,50678.812,75981.836,1652.4095,1135.5514,-3289.8806,23010.78125
405,118334.31,107582.29,148628.05,-1292.5289,-1372.9963,1110.5272,37059.4453125
406,17457.31,37873.68,47479.547,442.89514,-994.9377,1000.31744,26679.1640625
407,-7857.4844,2038.9456,-3938.7104,5498.4175,-401.91693,544.1967,12906.7841796875
408,-16310.875,-2186.4297,-25761.504,2727.6006,-2193.1372,1019.7621,21498.08984375
409,14237.217,-1712.3345,7909.44,2112.0015,-21.567415,518.05804,14411.521484375
410,3001.004,-7011.136,-16403.514,3381.51,1602.8649,-1042.7266,18104.439453125
411,8836.985,5851.9277,2504.168,3858.2646,645.8241,-1137.5061,8938.845703125
412,12393.476,-9818.733,4925.4014,-2981.4814,-1065.2201,372.572,20341.095703125
413,-1378.7092,-10130.454,-4648.2676,-5929.073,-927.82935,2311.9185,13518.4296875
414,-1626.8618,-18568.125,-2555.3223,-11939.979,2909.71,4257.3623,27921.373046875
415,8044.4897,2113.464,-1540.8589,-2663.529,2999.2493,1624.5259,11242.4169921875
416,25619.086,14616.734,18084.088,-831.3539,1353.4562,-359.61624,10143.0859375
417,-1283619.6,-1281517.9,-1316554.8,3078.1042,-2793.4421,-5291.7983,35975.05859375
418,96011.49,91493.266,130279.22,-145.21996,-114.839554,-1177.1313,36793.7578125
419,-2357442.0,-2360290.2,-2387409.5,1152.9923,-3254.769,-10333.823,34306.57421875
420,17515.336,21820.68,10546.382,7519.302,-3048.0679,-4198.179,18640.6015625
421,-1392.7996,-64.599976,5584.7314,5020.0996,-2029.0118,-689.12006,11426.3740234375
422,-10551.322,-18565.04,-32341.887,5578.696,1156.3395,4933.604,23126.244140625
423,258193.42,249210.6,289543.28,237.22101,-5959.8647,-1889.7941,38243.40625
424,-3667.6824,-2966.7002,-1960.062,1113.1144,2163.1733,330.54474,4504.791015625
425,-17365.006,-14718.4375,-5451.006,-4453.6704,4180.0493,-3592.6553,16372.5986328125
426,2526.0493,7434.495,5500.7905,6319.906,781.1432,362.78983,11848.611328125
427,-5492.54,3009.4678,-6567.5967,-1146.9877,1502.5356,1397.602,9957.8857421875
428,42049.074,37773.707,72270.39,-6754.569,-2873.677,-7703.452,37423.12109375
429,3084.4531,-2470.7996,3015.1584,-5371.3115,-2172.3872,4127.5815,13501.9345703125
430,-10641.06,14074.604,16130.248,-7476.076,3238.9019,930.1824,29455.705078125
431,-20820.084,-15520.821,-12157.861,5926.42,1120.6936,2340.687,13519.7841796875
432,-8571.672,464.11035,-9783.3,247.90816,659.8565,608.43646,9831.7138671875
433,-12983.626,1703.5825,-5653.133,4393.5728,1718.6853,-894.7258,15197.349609375
434,-10348.237,6773.5415,-8352.656,1259.4158,-4650.566,-1982.0677,18557.94140625
435,-6437.98,650.7698,2120.8267,-736.39874,779.83594,-111.536446,8143.76513671875
436,-3882.4646,-2937.6682,302.05127,-1324.214,-1312.4281,-1804.1161,5885.7314453125
437,3762.8123,6285.6597,1978.9766,1825.1077,116.275894,-1345.9121,5432.7919921875
438,-8938.391,634.6446,-2780.2966,-1777.7112,-2505.8066,1259.9308,10183.01171875
439,-7188.3994,-3305.7678,4099.4893,5036.22,959.48224,-2927.5864,14255.84765625
440,42746.613,43212.957,74310.56,-2783.1172,-845.9569,-1388.2698,31826.82421875
441,12495.357,-3801.742,2120.5073,4318.3506,2604.7905,471.41037,16766.6015625
442,8145.911,1623.2162,7302.731,-801.0484,1716.3716,946.84827,7156.052734375
443,6891.4336,-1779.4161,4082.3015,-10577.878,-2579.2495,1306.8582,20481.041015625
444,-15571.33,-17693.896,-31922.203,3474.2966,213.23486,-98.88697,16538.697265625
445,14860.407,2190.9346,-1414.7021,-10277.214,-2209.4275,-1514.3777,23613.25390625
446,-149368.75,-143526.4,-182145.4,-5923.6226,1650.1234,904.73486,37627.4765625
447,-5427.899,-6622.743,-5972.186,5619.2075,-740.5643,3218.8809,11337.060546875
448,-2687.0845,2420.4702,520.9177,1580.2838,95.84666,1238.6681,5667.07080078125
449,-15801.967,-10074.781,-6371.7446,3481.9194,-1983.8156,-427.6234,10791.0869140625
450,72770.625,76814.59,111028.72,-929.0508,-793.23364,-377.19873,36472.24609375
451,4106.8223,-2583.7183,1901.8431,-6651.731,456.26407,1799.4216,13339.701171875
452,-3890.3826,-1029.9215,464.5098,-2426.4187,-718.02747,-414.82593,5866.49609375
453,-53915.84,-45500.426,-84593.125,2171.0225,2235.7969,1595.747,36150.41796875
454,-10053.291,-3860.124,-5434.0923,-760.6525,969.5838,-50.54405,5970.64208984375
455,-4889.2183,-3929.511,-1003.624,2786.2268,438.43756,802.70905,6171.60693359375
456,-2413.4478,6032.3403,-480.72253,4098.7964,-850.4429,637.08575,10608.0712890625
457,-7697.1655,4126.9385,2965.3433,5715.9355,-187.13052,-1462.5614,15230.2978515625
458,-7620.708,573.75745,-5565.305,-1009.4743,2102.5833,141.87334,8420.8720703125
459,-5012.759,-2093.6746,-3329.4268,-1982.1613,272.10593,-3242.1697,7069.99853515625
460,-7793.702,170.99603,-6830.907,2476.4023,-2559.8945,598.68207,9789.1357421875
461,-4462.1934,5376.162,-5096.8765,1128.9326,-165.28941,1372.1044,10629.8515625
462,-19142.695,-27639.627,-56519.742,-446.7104,2028.7052,-327.22488,34130.89453125
463,4263.3193,-1557.2006,-6789.3364,5587.308,-49.942844,-4724.978,15885.376953125
464,5.1854124,-3703.9082,-4793.058,543.7,408.0737,-723.28973,4683.9326171875
465,5522.1587,1021.35785,6416.146,1530.7977,-1332.6238,62.326572,6119.59326171875
466,2133.049,-3087.9883,-779.22986,-4190.338,1826.5709,1037.8541,9297.9990234375
467,8152.885,-843.3433,12865.592,-5466.4194,-2853.598,-2708.1528,16781.384765625
468,-36120.984,-36407.797,-70591.56,-3376.912,245.26744,1199.812,34887.3359375
469,28797.934,24326.459,44984.492,-2394.5837,596.112,1093.0627,19396.625
470,-6477.389,-3650.3777,-1552.6848,-4747.3716,425.95865,-2376.2312,10169.505859375
471,1569.7081,4745.278,3738.3218,-532.68176,-1827.6935,461.8146,4406.01904296875
472,5304.1924,10633.141,25566.027,-718.5515,734.18207,-408.1642,18292.927734375
473,-4033.7532,-4408.4756,-9727.255,1555.5197,216.1801,441.9776,6197.42333984375
474,20803.26,19604.938,35126.113,-3228.0596,1322.1979,-1139.3511,16252.4951171875
475,-8662.801,-3025.6614,-4005.144,854.7027,1222.4725,1029.56,6088.521484375
476,-5177.9067,-2461.0173,-9075.113,5795.9346,-1266.501,4262.4653,13901.5986328125
477,-6851.196,4028.921,-985.01166,997.9479,1459.3604,-336.25833,9933.80078125
478,808.2042,2613.9404,-2116.5933,2395.1726,-690.81244,-4048.6465,9214.845703125
479,-27414.262,-28472.941,-50974.0,-4528.49,553.88916,844.0256,24409.404296875
480,-126444.27,-118938.875,-159050.75,-582.6745,1189.7173,-497.71606,37016.83203125
481,1930.775,-2134.72,10457.589,-740.60144,1143.074,1141.979,11548.9482421875
482,-55978.363,-46552.0,-52490.074,6415.8857,-3743.1558,8513.751,21239.55859375
483,-7123.731,7495.2188,4777.17,-5581.652,-4736.3145,2870.5044,19153.287109375
484,-164.98914,4712.898,31.024614,-118.86365,-1116.5667,-420.9739,5214.4296875
485,4096.2,4793.3213,4131.7026,773.3806,559.8407,898.64166,2370.60668945313
486,1783.8298,-4480.2827,-1187.9457,-1541.8245,1048.7012,112.12823,6318.52294921875
487,7589.3726,-5876.627,3069.418,-1415.325,-1182.0619,-1274.8876,12488.982421875
488,-688.78705,-1461.4933,-2834.667,3959.9893,588.1882,-1433.3168,7601.93212890625
489,-1497.746,-5343.4067,-234.14374,4919.6636,-1457.5096,-796.9681,10106.083984375
490,1812.3586,-351.48502,-620.9171,2984.4058,346.20282,-1001.02893,5951.77294921875
491,-6409.9067,-4590.8516,-1469.4867,2517.783,909.84845,-318.19666,6366.68896484375
492,63439.11,60597.82,96981.59,-1706.9808,-613.10974,-362.75888,35195.72265625
493,731.2316,-1720.0746,600.5337,-1607.5406,557.9638,1910.1625,5033.7158203125
494,-11063.213,-5099.6177,-1862.4531,-508.90848,1408.1317,1439.4553,8848.1865234375
495,-9724.11,-4555.207,3350.068,-777.9196,263.30496,-2069.3916,12039.2333984375
496,1475.8497,-671.28186,2851.0334,3156.508,311.3346,1790.126,7017.7685546875
497,-147.6909,-6161.913,182.07074,987.2156,-490.89337,-76.556595,6475.119140625
498,-42.64761,-6626.4985,-1420.3607,1549.5133,760.6793,-718.63477,6831.0107421875
499,-5518.4385,-12427.149,-17641.893,-458.21417,-404.98712,-186.46451,10591.3740234375
500,-2428.7876,1689.688,2510.198,-1494.2937,-2090.1677,559.66425,6462.1318359375
501,-3690.534,1703.6147,808.6982,-1677.7909,777.7131,-1971.1393,6854.6357421875
502,1176.0255,-8860.629,-2595.1064,-2034.4321,543.68677,-1.1428354,9508.4091796875
503,-3795.4812,-6643.7217,-7050.5737,-10527.163,2038.3695,3080.0784,19565.935546875
504,286.1563,-4538.4004,-366.95056,372.5034,-649.6947,-2359.259,6239.61865234375
505,-5858.7344,-1969.1035,2852.9312,965.5851,-603.8645,-1322.6667,8141.041015625
506,-8608.099,778.4707,-630.5965,-8.356537,-12.243129,1625.5701,9208.4169921875
507,-3694.5007,-32.834835,-3044.4692,3471.12,913.04565,-159.23318,7083.30322265625
508,-9336.812,-640.6446,-6207.673,713.3057,-72.17517,-2091.1755,8536.0654296875
509,-790.9793,-882.9041,-2409.8867,-3586.019,-70.24904,426.57407,6451.34033203125
510,27969.79,31596.184,54853.97,-2359.6482,207.06593,879.504,25643.130859375
511,-163728.94,-161788.02,-199075.11,5138.788,1175.7931,-481.34714,37493.828125
512,969.0556,-3337.762,2544.7976,1376.8716,1031.0079,407.7753,6098.62109375
513,-421.79605,-4848.1416,-638.3021,1697.751,396.40347,1591.0043,5949.2392578125
514,1776.3624,-241.61214,3081.71,-2591.6492,-2061.2375,-2128.8987,7409.65478515625
515,-2952.7102,-583.8304,299.9182,3036.5132,-1633.3333,112.63628,6647.46044921875
516,-1710.2306,4281.4414,1967.8582,-193.10065,932.8083,195.80525,5497.9853515625
517,-2208.8672,-2216.1843,-3505.5173,5112.3086,1658.0116,1353.0955,9685.9990234375
518,-4641.3213,3306.1597,-686.6274,572.1884,180.4465,243.83209,6973.5537109375
519,-191707.06,-196013.66,-230992.05,-1285.6926,975.5754,-235.82507,37425.3046875
520,-16452.93,-19016.805,-27050.615,-1572.7134,1046.8282,-98.530975,10121.7685546875
521,1584.4539,-4405.237,-1132.4075,-5247.519,107.443954,717.0182,10543.76171875
522,-1460.0648,3509.114,6774.2515,3580.9663,-997.6764,282.6714,9657.880859375
523,-28468.531,-25547.63,-49530.613,-2495.9539,1371.1613,770.6268,23233.044921875
524,2648.4192,4042.2698,5236.7993,935.0952,-269.472,-1016.92773,3313.33618164063
525,-7525.789,-5004.576,-7372.6,-2505.4326,-628.5313,-499.29218,5172.84912109375
526,-4017.3452,-3718.6484,-6009.954,66.68333,826.41925,-756.2845,2903.96997070313
527,2372.445,1328.5016,910.0961,-238.7702,126.28337,103.0948,1397.29541015625
528,-8070.5996,-4149.888,-7785.3237,-735.92865,513.5262,437.242,4162.2490234375
529,-8584.709,-7371.4062,-4616.045,-279.1363,-630.7855,-577.81525,3851.7841796875
530,-8869.185,-5949.338,-4125.8145,582.7359,-327.33603,362.49667,4348.51171875
531,-600.0453,837.58813,5314.878,2340.804,-38.951855,-163.03131,6713.56787109375
532,1496.7437,468.09863,-539.91003,3151.4966,795.2143,1044.3156,6170.55517578125
533,-1922.3296,4275.492,6409.8696,2493.404,683.5344,855.89264,8857.0625
534,-2146.0024,-1447.9042,866.8037,2809.5068,466.7158,-980.3673,5888.79638671875
535,-1146.7211,2033.1672,2123.308,6719.41,-351.88626,-3775.145,13747.1630859375
536,-185.83148,-8205.628,807.55035,2173.0344,79.728325,326.14072,9368.8349609375
537,3126.0134,-2783.851,2796.3489,1505.588,565.8368,392.9789,6427.37109375
538,-2728.3186,-7768.0244,-2230.122,2153.3496,-1854.0775,234.43327,7248.8642578125
539,2770.041,-3247.241,143.5402,606.3159,102.85175,-1076.9293,5649.3994140625
540,-6553.656,4702.256,222.45534,12.6299515,-838.5133,-1783.2478,10391.8056640625
541,-4433.333,-333.9158,8734.733,1485.7769,-1274.387,10.035422,12153.8837890625
542,-2966.6243,-972.1269,225.94405,1049.4055,-395.27872,-364.11447,3460.22729492188
543,-372.74075,-2218.716,-1710.6133,-192.09505,66.81115,362.95786,1801.98669433594
544,-1445.578,4793.401,2092.3237,-1111.0443,789.96783,527.71185,5981.60107421875
545,-7209.7466,-284.58035,-651.8246,6356.593,1743.772,1119.2256,13403.3056640625
546,-1431.084,-120.79835,2234.848,3331.3582,1254.9396,519.8581,7012.966796875
547,5896.716,-1893.1285,-1485.8179,506.17303,1730.7599,555.3062,8267.708984375
548,-6429.864,-3480.3914,-55.401146,-1977.539,-380.80634,2038.2256,7427.11083984375
549,5642.8696,-2475.762,1839.7949,-91.91582,-1448.2267,-614.9314,7546.63134765625
550,1358.4847,-5934.9883,1256.9409,-1888.9432,-35.68817,-444.04327,7985.2431640625
551,-1831.4559,-7883.6445,-3735.0247,-1599.5942,-797.03357,-555.1646,6264.0498046875
552,-2589.694,-1150.471,-3657.4712,2636.7488,-309.28574,-2581.0388,6773.3203125
553,3720.7434,68.292656,1250.7544,461.7865,-570.62067,-92.06665,3472.9990234375
554,1952.2776,-746.13367,-1086.1167,2170.4043,-492.74338,815.93677,5017.17431640625
555,4506.6675,9308.031,20805.342,-1956.407,-329.48282,-931.16534,14995.1142578125
556,-4155.114,-5200.127,1211.3975,-2173.1233,922.46857,1093.8253,7470.55322265625
557,8123.6353,9322.059,14076.339,-2277.2742,-521.1137,-395.94043,6824.951171875
558,-169.68181,1721.0825,-799.3097,198.60216,149.00899,457.62964,2444.40454101563
559,-206.58853,2033.2576,6749.633,248.06415,780.4172,238.74727,6325.173828125
560,-916.34247,1997.4957,287.89282,920.8866,809.24744,-637.877,3487.27563476563
561,2459.4824,1993.9923,625.42896,1132.3668,-582.56604,-937.5774,3198.244140625
562,-471.53067,-4986.5728,1121.3304,1006.907,-461.17236,-1043.3282,6087.68212890625
563,-94.19106,-2145.686,11.27691,-84.25885,1298.7941,-312.0335,3132.11010742188
564,13158.512,11311.256,30529.062,-1124.7772,-214.54001,-665.1732,18506.67578125
565,7376.3774,1045.8271,11418.05,22.263134,336.50366,2020.837,9725.71484375
566,1033.473,3378.708,-376.89053,-2569.4849,-1823.8885,-1274.2025,6741.9677734375
567,4153.2373,-1074.7401,-911.2072,2113.2075,381.38956,924.3293,6549.81005859375
568,-2645.8252,625.6364,-1872.6547,69.809204,-1292.9023,-355.0276,3765.42138671875
569,2243.3743,-4120.316,-1038.4364,1307.566,378.6852,526.47736,6064.1025390625
570,1885.1742,-2768.1077,-297.44302,1150.9694,1164.5918,1233.6366,5372.998046875
571,2035.4952,-1492.5768,-692.48364,-961.5689,-31.835455,662.65985,3789.31323242188
572,-5208.211,-2643.5046,-6551.445,2342.6345,855.35736,2113.0247,6624.22314453125
573,3894.7505,5772.0015,5808.8784,1247.3367,465.62488,277.4564,3023.83374023438
574,-3735.255,610.4181,-227.35822,-1217.6525,794.8031,625.8296,4843.98583984375
575,-9610.654,-11987.883,-25900.395,-3091.12,-427.46796,-1225.0658,16309.4462890625
576,-302.0182,368.89984,8323.989,228.9896,-634.054,1228.0311,8657.849609375
577,5433.1426,13272.866,4184.9946,-4588.6504,1196.1428,-813.51025,11926.822265625
578,-2459.237,-474.17468,2073.094,-3542.2659,582.66095,-1372.8625,7733.125
579,2176.6682,8302.026,15961.137,3463.7686,-358.1899,-164.58968,13399.8525390625
580,-23716.508,-21820.768,-44053.49,-52.7952,-1184.1204,888.4761,21501.701171875
581,2157.673,-5878.7856,-8354.312,3421.021,-1247.6709,-3081.686,12604.6787109375
582,-4986.6323,-7083.3403,1070.904,-5520.0693,1291.129,3832.4165,13937.9912109375
583,12510.16,-2489.7673,-7410.2944,-1369.1115,-3518.365,-2826.68,19742.021484375
