Element Label,S11,S22,S33,S12,S13,S23,Mises
1,2311.392,1152.5592,1335.3005,865.6083,321.98947,-68.296196,1933.23022460938
2,592.3725,1417.3217,-1732.076,1117.744,-659.4869,-95.97103,3616.85107421875
3,1716.3937,2180.3274,2219.4421,1157.7279,697.101,-236.17549,2425.09765625
4,403.76715,2555.8054,-2167.3188,1266.9861,-1118.958,436.40646,5090.986328125
5,145.63618,4152.0835,1737.9869,1869.1129,889.40515,1.5686914,5006.13720703125
6,579.53455,190.06104,-3619.3975,684.5935,-628.0118,268.6049,4353.50341796875
7,3944.762,472.57266,4435.6113,1770.8884,1128.7274,-63.623646,5219.55078125
8,-1938.9937,1115.5935,-4402.0854,1649.3495,-1294.3202,108.30398,6011.91259765625
9,4842.4023,2280.508,3222.6362,2599.739,2242.072,156.41142,6361.38818359375
10,-3281.8904,2842.7095,-698.1361,2634.6948,-1567.1545,-775.0011,7639.1552734375
11,1621.9559,1999.0459,-1350.7924,1133.2213,199.70695,-106.433815,3755.87890625
12,4342.6216,1014.2818,1733.1965,797.9555,-568.57794,185.52194,3490.72900390625
13,-584.4786,220.62358,-2225.356,2543.6604,790.50635,128.09306,5098.65576171875
14,4394.6606,-353.25885,2390.8665,2216.2783,-1252.3372,-1181.0132,6377.23828125
15,-2229.2483,-175.65921,-1875.2358,2718.9285,311.67523,1836.0269,6016.451171875
16,4009.9229,-328.52814,1082.8744,1071.1239,-417.0239,390.93866,4371.84814453125
17,2414.2507,3082.3667,625.68585,476.37555,734.8855,-811.303,3019.25830078125
18,9281.17,-8178.535,6920.1377,-1719.0089,-9907.706,1358.9081,24043.41015625
19,-17076.408,-7446.66,-15616.765,4452.5283,1194.4275,-218.85414,12029.3515625
20,1351.9739,1826.8578,-1533.347,952.6745,-225.52795,684.8221,3768.69775390625
21,888.04865,1338.714,-2808.8008,1190.4967,810.9439,260.9174,4686.66259765625
22,1387.9661,3617.078,3185.2358,480.29333,-843.14667,156.76833,2662.94311523438
23,-8.128751,1815.6676,-6136.2344,755.8843,902.4556,128.41461,7500.876953125
24,102.53774,780.055,-5953.657,1253.1351,-1570.7352,702.1647,7404.828125
25,449.74222,953.1806,-3010.9944,1828.5243,0.92925036,868.84283,5125.19140625
26,2835.5178,5237.696,18788.2,2079.1333,935.7401,63.903725,15412.4873046875
27,1345.7542,-397.68427,-7163.24,854.4483,360.93546,-254.40576,7961.33740234375
28,-2530.3748,1826.7385,-201.4761,-211.99213,-321.9141,-223.13841,3854.349609375
29,-1236.5758,1049.0476,-2198.5535,1372.2179,-78.61717,-1288.921,4358.85693359375
30,322.1207,3131.241,-2850.6624,1813.4775,-192.47772,1020.7288,6322.44775390625
31,-934.76,2304.0706,-552.38855,915.272,-125.23214,-610.74774,3616.22045898438
32,181.12724,1558.1548,-320.95465,978.95795,-1.7968512,-209.30936,2417.88940429688
33,820.627,3786.8318,4191.164,468.06964,-224.06624,-616.5467,3479.865234375
34,663.5502,2230.5193,-1359.5918,225.47757,254.98152,43.774963,3173.64331054688
35,323.96692,1552.8003,1672.7755,1087.488,46.28026,-117.82088,2295.17236328125
36,1893.7528,3900.9192,2431.845,1359.7588,-308.375,-141.42383,3021.64526367188
37,1649.8605,1539.4475,1646.7222,1244.8633,-446.26797,-206.67862,2320.88818359375
38,2090.2544,1672.6586,-834.1567,667.7931,-77.98557,-61.31634,2978.70971679688
39,2258.1262,2451.636,-145.59584,618.14557,-399.8802,10.236711,2811.90478515625
40,1536.0684,1617.8026,-517.13556,290.6131,13.157437,178.72765,2177.12231445313
41,3258.8909,2069.2646,5571.2295,-31.225471,-1358.2993,-135.35612,3886.61279296875
42,-6655.2383,-7082.9473,-5195.515,-4829.604,8754.415,-3072.4077,18197.57421875
43,13552.776,-16166.382,11509.293,7206.4688,-3925.3635,-441.27,32082.4375
44,-19757.43,-13810.181,19887.406,1562.9875,-16.313786,-6760.1016,38932.3984375
45,-22011.268,-15648.066,-12527.028,4456.1606,-3937.866,6313.991,17198.33984375
46,670.688,5643.3574,5961.907,-814.8443,-1330.9745,3587.9548,8505.26953125
47,4007.7285,8475.462,17789.516,10284.221,-5820.861,295.44885,23822.880859375
48,1437.6868,-1147.1238,-9805.941,6026.769,3811.9287,1253.8082,16165.150390625
49,8175.1055,8058.995,14915.74,-2258.5547,-416.6062,1679.2505,8397.37109375
50,-4597.56,7472.338,-8396.682,-143.24731,-1431.7498,-772.19025,14627.744140625
51,-7278.0425,2216.0718,-20176.44,1628.0684,-83.82036,-2065.7131,19993.5
52,-729.1619,9637.144,2817.4102,1713.6333,-4041.904,-4469.317,14178.1015625
53,2046.7227,4771.1772,1837.9395,1065.0116,-384.01605,-712.0161,3660.75390625
54,589.6211,9980.573,3794.9773,4553.064,675.26263,-817.10095,11572.59765625
55,-691.0915,3666.852,-4778.2773,1925.4614,-648.42065,-463.23138,8156.947265625
56,1508.9305,3997.5674,-2143.8162,2702.209,1481.3947,-654.9052,7642.14111328125
57,243.39743,3294.4465,-6534.7197,1825.9535,-1322.0192,458.5125,9581.66796875
58,2378.4343,2324.171,440.29202,1150.0614,-440.77866,-351.98138,2928.58740234375
59,2282.5637,2372.4075,-280.79297,567.2218,-233.03049,34.99623,2817.97387695313
60,2505.0273,2321.3916,-1256.9673,543.2641,-30.184914,335.3815,3836.80493164063
61,2507.4688,1848.0776,-3275.9963,1410.4161,434.91928,-151.0508,6055.859375
62,2972.4531,2430.966,2395.8418,897.85864,640.40137,76.85267,1994.98681640625
63,1330.1229,1226.0146,-1385.1604,561.8733,65.567345,301.29086,2886.73681640625
64,2646.4338,2201.529,1978.7365,-136.46527,280.7069,-303.4303,956.642883300781
65,1930.5039,620.9017,-2664.8755,297.16016,-829.7302,671.44934,4527.38916015625
66,2572.805,896.78186,-900.08856,310.93524,61.331543,-63.44038,3059.8681640625
67,2669.9968,916.8966,1901.448,1629.1599,-1043.4918,-1066.5212,4118.033203125
68,2880.0125,1539.5726,389.9686,625.33856,117.01025,-474.07803,2558.86938476563
69,2768.8503,1779.5293,241.3036,505.61716,531.74524,-214.00638,2572.79907226563
70,3566.784,353.78564,6104.736,572.22565,-384.96704,-284.1408,5156.36767578125
71,2350.0293,3.3482716,-1734.2665,-1230.3944,-1120.8073,316.04648,4605.83740234375
72,3253.8655,27.243378,4401.888,-1006.2286,-1206.7566,1807.8555,5713.54345703125
73,7046.476,3601.8638,6324.6333,718.9025,2587.8374,-3005.8904,7658.1484375
74,1754.2599,-1417.5017,-6453.4224,1396.5765,-1415.225,2673.4475,9202.99609375
75,2800.8474,2463.268,22321.639,-2441.925,324.5568,-6206.1665,22836.802734375
76,6866.4175,-4472.511,-3351.3008,-1954.8068,2248.9465,1733.5808,12359.9384765625
77,8260.927,-9250.935,6953.6167,5935.8545,464.1194,-578.0546,19820.0078125
78,8502.976,1998.1105,13836.336,-5189.5894,-1998.896,-3130.1973,15087.328125
79,7402.434,-3986.9187,-30118.672,1897.2727,2209.358,-3685.229,34298.6171875
80,-1833.3052,-8469.782,-14127.253,-2485.8503,1010.0256,272.2609,11636.8662109375
81,-2567.23,5520.0806,5295.704,1210.8986,325.4964,-1649.6036,8747.6044921875
82,1452.744,1690.4181,841.4747,-845.62744,81.69394,98.67782,1664.30554199219
83,2907.6318,3443.2585,5913.3325,353.7027,-419.2204,-795.2257,3242.05249023438
84,1344.8502,251.65654,5619.934,866.6871,1344.283,-339.70328,5671.4931640625
85,1551.2947,-64.04855,-2263.4192,497.40024,-1398.0779,401.22498,4253.0380859375
86,3621.583,2178.1497,-792.0389,-222.32178,-572.96924,-682.8484,4210.08251953125
87,4658.968,1074.9896,1725.0549,32.670002,465.49408,185.81155,3419.72192382813
88,2083.4756,1574.9237,-764.9188,1442.6223,435.1063,-902.8434,4022.46533203125
89,2121.1235,1775.8817,1615.2834,-38.049374,-25.618563,-402.78537,832.736022949219
90,3606.8743,516.5094,1345.3586,117.810684,327.57697,-481.69485,2955.59594726563
91,292.36734,842.0042,-9427.552,392.44177,-193.03261,758.24384,10120.2744140625
92,1928.7512,2636.4849,843.71533,712.297,400.5805,-689.83905,2424.30102539063
93,2274.2727,97.85199,-1296.7129,363.93433,-647.66656,854.115,3682.53662109375
94,2390.3137,2785.925,-646.83136,867.99506,464.46478,-116.49477,3678.37329101563
95,3010.8054,2538.3108,306.39926,706.1161,-70.05322,393.00214,2869.34155273438
96,1665.083,2200.0798,-880.377,165.24223,269.31876,143.36006,2913.51513671875
97,-496.2824,886.103,-1560.1696,259.44708,-734.1105,63.712006,2518.81274414063
98,906.63165,1152.7014,-1430.4542,-11.312945,-52.94325,-98.85371,2477.03759765625
99,-174.27318,2136.1084,1896.1165,568.9141,-33.93269,43.692562,2412.70751953125
100,5222.294,1889.4292,5824.1963,352.8907,303.3848,-127.79519,3764.97680664063
101,12786.448,-329.74136,34168.234,-4597.495,8225.801,-774.22626,34320.01171875
102,-13113.875,-2128.196,-29663.521,3418.9497,4176.2964,4699.978,27019.37109375
103,-134.99889,3209.0955,3825.477,283.44482,-1565.0469,159.46794,4614.06103515625
104,2815.4404,5322.715,6622.88,80.25338,-1077.6287,-1229.7747,4390.55078125
105,-1479.1439,2032.1133,2827.224,235.94762,134.75273,-174.85805,4008.26416015625
106,766.3564,3637.222,5009.2427,705.8347,-13.821768,773.4921,4165.72314453125
107,1793.6318,207.15747,-4589.4185,878.4017,431.51035,-512.4578,6065.8798828125
108,1036.2462,3161.1802,3112.6482,1332.3944,63.18224,292.65903,3163.7509765625
109,1756.837,1657.4591,-1669.4888,582.9638,700.55,-611.9131,3876.11254882813
110,958.4775,2298.1265,-3035.2666,457.0824,1083.1448,-129.70503,5224.1474609375
111,966.80005,2923.307,116.223114,390.47122,-534.32477,660.2161,2972.73071289063
112,378.07736,594.1224,-1082.9062,885.7545,-41.297886,933.2057,2732.8017578125
113,2789.587,698.9633,-322.77158,538.3398,-259.3746,-388.4971,3012.43383789063
114,2309.734,164.57675,-2219.8916,-284.8876,303.83008,530.4336,4094.74658203125
115,-120.85428,-5847.76,-7075.782,2666.6062,1903.2224,2994.1943,10021.6259765625
116,-7214.703,-8854.385,-29692.303,4914.0117,-2830.6821,4639.7534,25142.34765625
117,9481.691,-14067.818,-957.4312,4346.7134,-1659.1475,6596.391,24762.7890625
118,-12168.905,-14288.753,-26470.033,-8387.876,6058.306,-7339.337,25719.17578125
119,1879.8921,1202.7258,3138.632,1213.6599,735.91724,550.0791,3137.95336914063
120,1078.0525,1873.7765,-1717.5613,713.7158,515.3576,443.14456,3686.08911132813
121,3379.394,1449.4498,-168.11385,351.84586,515.96,-290.713,3299.4814453125
122,1786.8896,-1697.7673,-4509.105,844.32056,-349.79047,-2293.8928,6937.90478515625
123,10588.478,-6045.139,3110.3323,4672.838,-1257.2317,4017.3767,18079.75
124,-1509.9407,497.2783,-10118.103,1545.4698,-889.83746,2925.3113,11428.95703125
125,2066.2415,5064.6055,8435.109,445.9088,2171.1704,-484.94635,6774.98681640625
126,-593.342,1055.109,-5146.4307,1095.6243,-1619.4786,935.5345,6711.8203125
127,-658.1301,18.417253,-15803.261,-32.39979,-488.64432,-933.12585,15601.625
128,6089.662,2108.482,15826.083,540.0458,1016.0371,-475.5336,12412.1103515625
129,299.42606,-238.25359,-3568.191,184.89546,-214.91093,218.02356,3681.26904296875
130,2521.437,1142.1088,1009.69214,-330.52728,451.2333,470.14456,1924.68530273438
131,2089.4624,2122.0427,-170.8949,1355.8407,-93.29831,414.9706,3352.841796875
132,-28799.285,-26695.47,-8304.744,11955.451,6746.386,294.3271,30772.310546875
133,1346.1333,1786.281,-2113.5789,1330.6182,-589.41394,581.69604,4588.5830078125
134,-16620.436,-5230.8613,-26457.37,-3823.6477,9274.94,2803.9297,25769.1015625
135,-26171.146,-15346.221,14860.466,5963.2036,3548.9902,1573.1989,38839.390625
136,254.02745,91.37242,10504.326,491.9253,636.93,-3660.0317,12202.166015625
137,-5287.0103,-1705.3347,-4841.6147,1757.3174,-396.07434,-1277.696,5105.30615234375
138,2500.9026,-545.7261,1411.371,315.29858,987.41656,-952.75354,3618.84765625
139,1993.0198,-1719.8439,-1404.6324,-84.14153,570.41974,465.77753,3789.8017578125
140,3918.4443,-808.4502,2678.1726,474.11377,-1091.3983,-115.49628,4723.0283203125
141,3788.8713,877.4019,528.54626,298.38608,-449.94333,-7.586951,3238.61987304688
142,2164.0269,1929.9269,-351.8171,-194.72557,-52.807453,986.205,2972.41235351563
143,3212.1794,197.73598,-764.18964,25.390118,-478.15167,-353.13086,3738.15014648438
144,3348.4333,2772.449,2471.4753,929.9051,-902.1959,793.3068,2742.21630859375
145,2719.4026,1022.41614,-567.6767,293.56982,-253.60593,366.69492,2993.56274414063
146,3481.0469,2173.891,3719.9202,179.9908,281.65228,64.227325,1557.40515136719
147,2861.6494,2921.4673,1813.6058,499.54477,130.20561,-360.76953,1534.47863769531
148,2692.7737,857.33704,-4723.3467,739.6343,-228.85396,-532.6579,6885.15185546875
149,7743.427,6830.766,15036.084,2573.184,-1529.2395,-875.3952,9478.9248046875
150,9453.201,-1807.9314,26367.463,3687.3804,3687.2175,1446.1104,26291.25
151,1497.9762,1705.6799,304.55774,327.76205,170.40862,405.8664,1618.28601074219
152,-1777.4564,1989.5854,-5252.927,82.21229,-1469.1063,536.50635,6835.22900390625
153,3869.6096,894.644,6922.792,-843.5314,2839.8918,-1974.8085,8079.89208984375
154,1595.8849,4465.617,3528.655,440.1454,667.1756,795.3152,3199.77563476563
155,-320.4637,4993.9214,6859.0396,1441.4457,1614.3124,-575.4609,7528.48486328125
156,-11.210726,-560.9305,-6892.168,689.62164,-561.11096,490.72003,6852.79931640625
157,438.8653,1966.0364,57.778996,1129.9608,-666.32733,185.07236,2885.2431640625
158,1823.6576,1816.587,1530.4202,293.81866,310.798,196.0005,864.862915039063
159,1269.3301,282.8443,-2718.0676,433.0323,510.07632,667.6645,3952.13793945313
160,-108.96789,2530.0342,1875.3845,1511.8682,-692.30615,756.0793,3959.2099609375
161,2373.1382,1613.6677,1238.4316,509.69376,701.22534,-677.91516,2153.09057617188
162,2037.1914,2641.1216,1817.2893,108.81802,385.13068,857.05634,1797.22888183594
163,3698.7842,237.37465,4134.331,-606.0279,427.56253,583.35205,4043.48852539063
164,4250.638,403.3698,3795.4585,215.90196,1278.8773,-25.58603,4278.53369140625
165,1257.8873,-301.30658,-21.516466,1386.469,193.96121,-218.43831,2845.35034179688
166,2215.8433,858.7292,-153.45776,1568.7512,-416.02228,407.8061,3555.42065429688
167,-19.709324,-1470.9014,-1398.0824,-145.40471,-1558.5336,1448.8058,3956.41381835938
168,-1413.8088,1498.8088,-6725.257,77.491714,882.1036,-1945.8436,8116.4208984375
169,9981.53,-1847.04,10269.104,-4967.845,-2563.1494,1080.6367,15512.9091796875
170,-1127.0483,8686.001,-4407.074,467.65027,-4032.2478,-2631.0361,14472.103515625
171,-9862.653,-2891.3687,-26282.357,1166.3988,2669.0337,-21.933891,21403.87890625
172,3216.0193,3113.4578,-3072.9329,2962.425,723.3566,-797.8994,8289.9931640625
173,1021.4489,1364.1428,-1348.6523,-253.59433,-594.412,-1027.9143,3312.06396484375
174,4314.733,6637.71,26542.28,-1493.431,1776.9982,2812.3599,22084.34375
175,2897.3425,1895.3712,10301.735,3436.0356,-1842.2017,281.91412,10444.4501953125
176,1215.9591,3158.112,-12560.868,1590.6938,-978.2101,-2942.4443,16023.89453125
177,1756.6193,783.51324,-866.0559,610.39056,27.479118,881.59985,2953.7890625
178,1333.777,721.3292,3458.0967,831.07733,83.28744,118.89959,2885.16064453125
179,2025.7522,2815.4963,2566.359,279.57025,504.0299,-334.49527,1349.55126953125
180,2348.9456,338.101,-3876.3914,392.25143,203.90114,284.30316,5577.53759765625
181,1362.9365,8007.1323,9381.286,421.10202,3665.2273,1621.9224,10192.611328125
182,380.34537,3183.001,1027.3215,36.36644,2077.1816,992.7382,4729.14501953125
183,5669.284,69.925385,8210.9,1257.3427,681.6001,229.786,7637.9921875
184,-739.61444,3284.673,-3746.875,2915.5981,-2235.925,1588.0123,9241.544921875
185,3653.6594,1251.6531,2577.4058,1106.2858,-118.12602,-737.5683,3112.59936523438
186,3404.2905,-2099.782,-6065.794,152.67023,1300.2198,1657.1067,9012.9306640625
187,2974.374,3281.172,357.38876,-1671.2537,-448.39664,241.91971,4111.404296875
188,793.279,181.43396,-1325.6803,-1788.7457,-172.09366,-138.54034,3648.71630859375
189,1451.2708,366.08493,-396.91318,1442.8965,48.657726,123.43831,2981.015625
190,2483.8496,409.10474,1073.8948,628.87976,-320.92416,-445.20026,2336.08618164063
191,-15754.065,-14133.435,-5544.4507,-3274.2566,3543.4634,-3457.292,14000.2119140625
192,437.14914,-568.28784,-8415.66,1279.4106,206.26805,1539.0361,9089.9072265625
193,2556.3699,34.289814,-3371.876,-2407.1455,-818.9874,937.2696,6970.234375
194,-508.93134,504.12808,-6339.905,1455.5818,922.6938,-116.71424,7062.91552734375
195,-3069.5393,-485.35388,-13547.449,2665.2664,1778.461,1046.7107,13327.71484375
196,-0.16607584,265.89502,-337.85196,1259.5409,-1315.9657,-465.94806,3298.57763671875
197,357.21518,-439.48102,399.79526,954.1091,-78.54486,238.77885,1894.99011230469
198,1942.7693,47.477432,2517.7983,656.1457,2389.482,-259.74155,4861.63427734375
199,-3035.3174,-4794.8647,-5350.473,1428.105,-1248.8793,2388.6865,5683.07568359375
200,-271.02917,-297.02988,-1419.6796,750.2217,138.41873,68.21431,1746.46630859375
201,-1898.6013,4633.9106,389.85413,1558.7709,-702.5904,-301.65662,6481.0927734375
202,1306.3656,-207.791,-109.64855,724.1375,38.301903,-578.5209,2176.07104492188
203,1252.6531,679.2142,1111.67,418.24457,-133.88885,65.9862,927.086791992188
204,1331.9879,111.25814,-765.42816,1109.7078,482.49002,-105.3652,2784.78125
205,2137.9246,683.0677,1085.637,181.63104,-344.8143,858.87714,2088.45874023438
206,-132.02786,318.5046,-1844.7098,1032.6094,-45.84805,-72.18935,2669.95581054688
207,2082.982,684.05383,2291.8555,632.12787,12.1204,541.8353,2091.11962890625
208,1498.78,417.87195,-2235.684,352.91754,244.36378,-232.92899,3434.17163085938
209,2788.289,1088.7499,2248.5667,261.50854,-298.16406,481.28076,1851.8134765625
210,1629.0365,-191.5237,1408.7056,-534.5059,-22.49673,-863.68536,2461.36645507813
211,234.29675,-40.21298,-2363.96,-73.851746,455.47754,846.4598,2983.49975585938
212,1939.6821,-1108.8364,-566.4978,345.80148,346.73074,318.56183,2993.0107421875
213,2272.9456,376.3386,-3850.6619,1164.5674,-1054.8229,625.65985,6169.48681640625
214,-559.3523,500.72443,82.72498,746.0227,427.2651,-51.322598,1755.16174316406
215,-2594.029,-3192.6155,165.03482,-1493.8317,-618.83044,29.557068,4179.515625
216,-2234.6707,1742.2313,-854.5893,-256.2215,1069.0176,1931.8453,5201.283203125
217,3160.1018,2448.0002,3061.7778,-304.01904,2382.4832,1835.5923,5278.34228515625
218,-41.902477,924.1997,515.08997,-5.0674253,177.48802,-33.869835,896.385437011719
219,434.2856,965.1668,2653.659,763.3418,-461.47205,1072.3049,3140.96875
220,584.99866,1394.7715,670.8707,560.017,-141.30183,-15.443462,1262.94909667969
221,206.6557,-2353.926,-7787.8374,-145.32542,-131.52765,-1284.517,7420.455078125
222,-2068.7012,1829.5355,-5430.796,-602.9162,-205.44493,-73.46312,6390.5791015625
223,225.12164,860.91833,-2602.1116,216.66103,162.83052,-68.280914,3229.45581054688
224,2660.0366,835.7609,4533.529,54.553318,116.416176,-297.33066,3251.23413085938
225,703.6845,-54.2546,-900.39825,-210.41232,-249.25043,108.39275,1512.01867675781
226,977.8116,633.8189,-3745.4998,212.43045,-692.9872,-431.76212,4789.419921875
227,-2178.7847,2623.2642,-6057.5547,-687.6184,-699.4327,-568.5774,7783.732421875
228,2765.136,3102.5776,7998.93,681.6262,124.45712,936.64185,5460.0888671875
229,1707.9808,1008.7519,752.61066,41.083088,-192.44455,-125.614716,947.172729492188
230,5383.244,1326.3744,9404.692,1721.5546,281.98993,52.321953,7621.20361328125
231,2341.632,3381.6892,2644.3535,116.96823,-14.845298,-51.437202,952.971557617188
232,445.56482,1525.6808,537.83673,922.282,70.067215,39.15919,1909.61804199219
233,2073.9578,284.63904,-267.91754,612.1453,350.09906,117.05313,2455.33251953125
234,1514.4958,2136.4424,-511.27188,954.09094,-408.74106,144.23466,3007.48364257813
235,2835.9644,1114.4224,-3471.9817,224.67537,256.64606,-183.5261,5687.2294921875
236,1253.3641,1877.831,330.94687,1306.765,281.82507,726.8188,2960.2041015625
237,2875.0964,1585.4187,2265.3645,-116.055534,76.65681,465.1562,1398.51000976563
238,3962.5503,1515.0195,3252.4985,364.5248,-391.13177,-335.13998,2439.5185546875
239,2177.7588,1329.9257,2741.6804,309.50177,717.08716,112.78383,1839.32495117188
240,1595.5686,718.09546,-4512.02,290.07828,-909.69604,-907.7369,6157.95361328125
241,1667.6941,1140.424,2685.9453,96.567375,-441.62698,146.45781,1590.3369140625
242,2717.0063,509.4209,-3711.8694,160.4829,-782.77246,898.4102,6028.96923828125
243,4918.4653,606.38336,851.89874,-993.8465,1115.6661,187.4631,4939.4736328125
244,2629.1353,516.4487,464.70377,-728.6144,-112.99072,93.07575,2496.47143554688
245,3713.7148,2083.094,2600.6936,31.165527,139.21106,-364.59232,1594.572265625
246,2333.5613,-165.428,-1519.5309,-302.79767,-362.11356,-547.1673,3609.57666015625
247,4258.195,472.42484,-2192.2073,-720.3337,102.81922,-90.579185,5756.125
248,3606.5422,-102.581825,1028.0769,897.8193,1301.1467,54.23539,4283.48583984375
249,2110.4556,1126.2092,1834.313,-23.240183,-681.1424,1457.9781,2922.97607421875
250,2510.7412,753.709,-633.5492,-2710.316,-677.33124,2487.6887,7030.5517578125
251,-4215.0054,1099.0846,-2396.0774,2428.9888,615.48315,488.65778,6436.9931640625
252,2073.1985,1010.66345,16995.75,349.1849,759.0913,-2960.7637,16372.5400390625
253,1849.233,429.4155,480.08368,7123.919,-3276.6675,-1380.2015,13860.796875
254,1891.8944,-3782.47,-6406.3545,-2172.6433,-759.33545,-95.91034,8360.0576171875
255,-1182.8438,-5447.272,-20922.99,-5245.3887,98.05731,7522.928,24000.68359375
256,9207.44,8540.752,34142.305,4258.293,-1870.7445,5317.2603,28080.841796875
257,176.82741,825.9297,5826.204,-1171.8396,471.39746,-3418.5242,8277.3759765625
258,-10797.281,935.8991,9311.503,3681.2786,2167.2915,-4807.1724,20740.404296875
259,-20824.213,-11207.473,-22192.053,3666.949,-15146.195,11851.808,35460.7421875
260,-21625.16,-14953.144,-30928.512,1946.9751,1526.4521,14061.492,28366.869140625
261,-21018.04,-14279.507,10297.01,4515.7656,-13062.484,519.87024,37267.88671875
262,-11857.768,-8837.817,14217.867,-4212.706,6184.7275,699.91785,27924.4453125
263,-11579.81,-4940.046,-16144.3955,10069.876,-1703.6028,2216.3289,20564.046875
264,-6407.297,-2714.0127,1567.2792,-7033.65,-4349.208,-3186.6628,16834.779296875
265,2918.1714,9200.583,18854.654,3668.3533,7462.953,1633.3059,20218.337890625
266,-4535.9897,6139.5244,-14888.497,6318.979,1003.18805,-3932.8323,22380.091796875
267,-4361.63,4561.3833,-2512.2725,3821.1436,-866.09503,2548.1023,11492.2021484375
268,818.8826,4182.912,6074.402,1627.2181,-90.95901,430.07175,5457.16748046875
269,-416.25223,3211.3723,2495.462,-1810.117,887.1476,2824.2383,6869.84423828125
270,-3071.5107,5854.943,-4686.705,-1797.4095,608.9419,-249.38434,10377.833984375
271,311.82095,3986.7434,3902.4185,-533.6626,584.604,674.424,4055.427734375
272,1431.8696,675.5268,3111.4636,-462.72467,235.34944,-1253.6917,3191.73583984375
273,1613.1415,1873.8157,-904.8053,1536.8171,-910.23553,98.8126,4082.23828125
274,1058.6055,3802.8523,271.49832,2503.4514,690.5648,-458.8247,5583.40869140625
275,813.25916,4241.0815,2401.297,2080.097,332.97882,200.48184,4718.25537109375
276,923.84827,3212.605,-878.1672,525.6876,780.2457,539.2227,4017.17797851563
277,307.66144,1714.6422,-2322.1843,305.4007,674.0266,163.12961,3783.966796875
278,1263.153,-1010.5811,-2704.1692,-349.26242,-1248.4502,-220.43799,4132.37109375
279,700.9972,651.6691,630.8365,656.2957,3.3341491,-76.13882,1146.07678222656
280,-3250.633,9508.547,-1668.8529,-202.98363,-638.68896,-3062.4614,13213.6240234375
281,-1555.3358,2009.2548,-3056.085,1525.4827,-549.14154,37.96301,5310.21630859375
282,2419.307,261.1617,884.32513,709.8391,170.69249,169.59055,2320.8515625
283,1003.83813,683.3808,-3865.0156,209.59802,433.197,-219.66273,4804.9658203125
284,-1765.4341,-1819.9834,789.9527,-597.95013,655.6639,-1001.8137,3470.67456054688
285,466.43552,841.2925,758.6294,-48.37527,157.6725,-100.51828,477.78466796875
286,866.6521,1170.2605,-198.18834,432.3034,561.18524,43.043633,1749.38891601563
287,1251.8973,2518.5847,4954.4834,764.8828,-68.49353,389.22784,3584.31689453125
288,-3752.7324,-659.8699,-16589.564,-1161.4293,-479.59583,-590.21313,14826.8154296875
289,2169.705,-821.4449,-2104.6855,-137.64307,-165.77985,368.0599,3870.10864257813
290,486.1257,265.29922,2212.962,1063.5035,992.3238,161.46884,3136.48120117188
291,1.2066251,-168.18822,-428.30524,1056.0201,-247.40262,-372.02664,2021.08618164063
292,-247.6217,748.74146,524.1969,-183.36975,-258.79843,-128.93752,1082.17822265625
293,1229.9641,514.61346,-221.46521,577.2905,-193.22847,-1234.6742,2695.39575195313
294,587.53644,559.1004,265.9397,730.3883,240.96031,373.30032,1512.52587890625
295,2921.4705,1623.8079,1009.69476,209.91663,16.356182,56.354225,1732.19494628906
296,2383.742,-585.4905,-513.7702,-316.23715,488.15704,152.47572,3113.38842773438
297,4496.2524,374.66302,391.76996,-277.4327,476.58893,128.58214,4228.38037109375
298,3417.0295,-982.56573,-1119.294,115.46584,1.824423,-810.3963,4689.02099609375
299,2876.8018,2185.045,1429.6508,405.9124,-2231.9714,1950.7537,5331.7353515625
300,888.75507,1123.8998,-1204.6665,530.38074,1795.8815,-1559.256,4768.99169921875
301,538.0396,834.26794,-1498.5857,321.98468,-20.128475,548.34576,2460.32250976563
302,486.9626,1561.2255,4250.228,1081.1588,1101.4951,-315.95038,4326.607421875
303,2016.373,1468.2225,683.933,601.9585,71.44692,29.435764,1565.39562988281
304,-1178.5267,4017.078,10838.879,2598.3923,-930.7468,-2533.232,12291.470703125
305,1329.6174,6576.0537,7025.346,489.78406,-1062.5055,302.50748,5870.69775390625
306,2964.021,5002.201,4650.9795,574.1304,713.10114,216.81233,2493.41552734375
307,538.2387,4081.9067,-1376.5686,1870.3151,-870.82367,-314.72174,6006.32177734375
308,1773.2737,5121.375,3628.4543,762.31506,712.948,-1049.6932,3874.78662109375
309,531.6028,918.48267,328.35617,1228.5605,-193.0502,42.83345,2216.98217773438
310,-13646.948,-7405.2974,12407.028,11702.001,-3125.1714,-12663.784,38423.59765625
311,3578.36,332.0882,771.2603,624.46216,-679.8179,805.7615,3716.12060546875
312,-20761.299,8883.494,-14474.357,-1838.9707,1764.5382,-4483.3936,28491.279296875
313,-4901.5728,1123.8046,6748.082,-2516.6343,1526.752,3962.5137,13225.87890625
314,1617.6356,-3597.0803,6333.266,2825.9849,11.485521,2786.0361,11012.0869140625
315,-11600.082,-6495.6694,-18375.562,-8247.086,-3127.2925,-4553.408,20053.197265625
316,604.35297,2820.831,1843.4125,1213.2153,-36.47519,936.1414,3278.787109375
317,2003.8146,2871.406,6830.2197,777.2294,-281.27603,63.22305,4682.0029296875
318,1861.248,192.08444,-784.39484,-1333.5845,911.40314,-742.4336,3853.62890625
319,4973.5093,615.0242,14150.454,-242.93268,-85.85692,-474.4298,12003.529296875
320,1184.4773,168.05157,-531.75775,372.48462,996.5089,-378.41672,2461.52001953125
321,1214.2686,1200.4424,2089.7947,1004.3001,-1132.0583,610.4843,2960.986328125
322,235.99536,806.4876,-859.9327,1068.614,-254.01622,-248.94789,2440.70556640625
323,2530.1843,2142.8599,6587.7017,384.04953,650.85333,-873.07983,4710.11279296875
324,2244.1997,775.87726,2244.947,1513.797,-989.0341,-640.9412,3633.0146484375
325,2668.6345,-106.98264,557.82153,1076.9509,-19.832722,206.60715,3147.93310546875
326,-2137.4148,-4207.063,-1292.4965,501.20624,2.7220628,-788.96985,3060.56860351563
327,737.54224,2650.294,-1188.565,273.31146,-1735.946,-505.8954,4591.85009765625
328,338.8078,-371.67413,-4352.7065,600.1642,215.36372,349.36905,4557.16650390625
329,1676.8352,346.20197,-252.54855,748.81476,-104.19732,-136.46394,2167.12109375
330,2510.4722,2214.8098,3434.6367,-5.843023,557.59424,-320.315,1566.96472167969
331,2524.0378,1601.2756,-745.8673,90.47149,-4.6213565,-317.18478,2975.3759765625
332,1981.0027,718.1683,-4416.716,669.8736,-399.77005,333.12442,6050.1943359375
333,68.0761,1810.4795,-320.88397,246.63416,-466.31134,-372.0874,2261.67114257813
334,2564.1125,-212.77458,1086.789,-141.72989,-53.386524,382.5677,2509.80322265625
335,3233.6335,1431.6165,3272.3381,988.2561,-1092.733,-474.8647,3241.47290039063
336,8741.117,-4055.86,9031.224,337.09372,295.76932,2084.187,13460.8369140625
337,2027.2241,1636.4359,8757.112,-3718.4263,-1390.4403,153.25035,9768.55078125
338,-12713.59,-9016.129,-11020.919,-4189.7246,-2462.8665,1815.6813,9540.7744140625
339,-13708.716,7295.11,-21437.19,685.94855,-2598.6042,-1957.1492,26388.986328125
340,-2355.123,4409.4873,-535.9962,1948.1292,857.76044,-659.10913,7187.46435546875
341,-731.8617,2834.9734,-525.10706,1601.6449,5.2983775,403.84775,4495.8603515625
342,422.51804,-325.31546,-2192.35,535.3627,605.2058,30.536741,2720.80200195313
343,-622.8131,-263.21442,-6210.2427,-1188.9143,-210.27356,-390.57977,6179.7060546875
344,1460.2201,1346.7733,536.0414,1865.6414,149.7079,-248.04893,3384.64282226563
345,590.0155,1409.5354,-537.2728,1568.5651,113.04999,-121.88099,3214.08178710938
346,1862.0413,2305.7625,407.19876,138.27347,-290.06766,-135.32101,1823.10498046875
347,2194.9133,-479.00964,1891.574,-31.479565,249.90636,186.60698,2593.37084960938
348,1815.6215,1564.1068,3667.4844,538.35736,-58.44238,-362.2516,2287.32104492188
349,-5324.5615,1458.7819,-4624.0103,2369.976,53.252678,-785.7643,7775.83349609375
350,1047.643,1254.118,-1002.8167,792.22955,-321.4446,118.13328,2627.75830078125
351,1869.7097,488.56998,38.051704,1364.6044,-165.67386,234.00533,2926.73828125
352,-377.2448,664.3424,-570.4579,196.91837,-460.80795,-266.47845,1513.234375
353,-287.2143,1836.1443,480.15274,1242.6615,128.01457,-991.39996,3331.44360351563
354,786.2008,709.4209,1975.0472,-622.83484,-295.99252,-373.83118,1832.04370117188
355,40.12346,2234.747,-135.86993,912.384,-8.05628,179.76274,2797.86669921875
356,1016.76666,246.22905,45.993965,1310.6986,-78.00119,-127.20619,2451.26489257813
357,333.94608,28.600805,-4.289951,1124.0905,199.95746,199.83661,2033.43347167969
358,999.2809,1307.3788,-94.95853,1007.77,-364.86322,263.15488,2298.55297851563
359,-1399.0417,3202.5193,-2143.0818,780.35657,-1022.9171,-1183.7264,5858.4365234375
360,-96.78323,4907.367,-498.06357,-2.502839,471.02695,537.31055,5361.1884765625
361,1275.8639,3412.2256,1664.455,-7.0610676,670.72644,568.698,2490.96313476563
362,972.00305,1694.0437,-1457.705,720.4559,200.315,-950.9738,3545.3876953125
363,-1878.1862,-236.46307,323.83746,754.7329,-29.710987,-82.462265,2379.27783203125
364,2272.6501,276.00418,623.8668,-519.88135,-121.69227,-165.89413,2085.87255859375
365,-2534.8364,479.13937,-1512.332,-339.9187,-6.4225554,234.23894,2749.38598632813
366,667.29047,-414.60052,-363.5213,-303.76166,47.2418,39.111145,1185.72045898438
367,-9291.737,-10976.186,-4180.0464,-6991.0327,909.7086,329.91595,13675.16015625
368,-619.78827,631.78284,-271.68143,-186.66237,38.29795,52.847656,1170.14331054688
369,640.02264,-57.736065,1501.7463,131.97466,-343.29288,53.549103,1498.37072753906
370,35.317917,-1066.188,481.28397,-293.95422,84.45368,50.388493,1480.43127441406
371,613.95197,-1111.5574,541.5559,633.3956,20.047323,13.811512,2015.70129394531
372,450.547,-222.48088,572.43085,563.4645,-24.251032,14.130092,1226.65942382813
373,656.5479,-773.82086,-409.2336,-252.40482,-8.293823,-0.08906856,1359.6748046875
374,871.69324,-161.27707,-183.947,381.60214,-9.603507,16.832052,1236.50561523438
375,-805.3148,971.4367,576.3471,167.906,-24.70393,-146.09132,1661.74658203125
376,-532.2041,-311.80835,-592.1253,393.75894,-4.6379395,38.909145,731.51611328125
377,-1029.5981,-242.507,440.66437,273.24966,34.61758,-93.674866,1370.35400390625
378,-319.28592,-661.41473,277.99582,-484.2455,2.9153728,1.064555,1175.43823242188
379,7075.811,-723.68115,3821.528,-568.58905,-1274.5511,307.06592,7222.66357421875
380,-717.91296,4380.6567,1733.2994,636.8601,-253.679,-742.6912,4750.87158203125
381,-204.57997,-164.53989,-992.836,91.42598,34.29752,178.91121,882.692077636719
382,364.0347,1050.7258,169.64308,-445.63412,34.980434,1.9926752,1114.57250976563
383,-2703.1494,512.13684,2443.3784,-2863.955,-191.09198,-220.4764,6718.58251953125
384,3710.429,-364.27032,1211.0082,-932.00806,-553.3365,-18.39576,4023.849609375
385,2494.35,-924.31274,-221.06288,-129.58484,-225.2434,79.87725,3162.17700195313
386,1591.1051,-297.65744,-1216.8116,570.1713,174.80862,-57.463066,2687.97290039063
387,1799.971,57.767467,1722.4161,236.40866,10.746063,-41.064972,1754.77758789063
388,-347.99844,-6.0669537,220.76717,1126.055,-62.29069,-32.206894,2016.10632324219
389,-981.6704,-243.04924,-302.5949,582.7992,-71.36091,-71.647675,1246.90307617188
390,290.188,57.26243,-177.97253,674.4209,-20.551157,-58.786247,1241.18786621094
391,-34.764206,748.41296,319.89307,-303.3603,-41.899315,0.44668517,861.82275390625
392,-652.94617,893.428,-395.3348,-243.83493,-73.19485,-126.87777,1517.236328125
393,-1108.7782,-167.18652,22.185081,-774.6507,216.66405,129.60152,1758.47607421875
394,288.72064,-595.30884,113.08411,-371.07013,-90.642586,91.3007,1058.21704101563
395,-292.14175,-821.06537,287.7688,-415.05347,115.34021,2.9631438,1216.35900878906
396,657.4646,-669.611,94.78229,26.26884,5.1392303,30.852484,1155.86511230469
397,819.1056,-1475.7156,-620.89606,394.98328,-85.17008,36.614132,2128.1640625
398,612.6189,-862.25635,172.34563,232.75089,-30.858158,-22.829588,1373.56787109375
399,182.12267,-827.94415,-422.09708,539.0583,-5.9947624,33.316586,1284.60241699219
400,-177.69582,943.984,-172.65364,-218.93289,-58.187923,-4.194789,1185.9765625
401,-787.45746,-357.68088,200.26372,-133.6562,137.79114,-20.998463,920.692993164063
402,647.58405,504.4397,84.678246,889.9683,7.1463532,-63.63082,1626.40930175781
403,-620.43567,-2669.1492,-1053.1356,-870.523,45.94053,584.5955,2608.25537109375
404,2171.4277,-1472.4772,-574.0541,-1111.5156,-9.088643,293.2881,3843.97485351563
405,1948.9829,-668.90375,-711.7136,-49.95895,284.7066,26.092575,2686.994140625
406,-3047.7048,8669.771,4003.1155,-393.15225,-779.61145,-973.5582,10465.4697265625
407,-737.4158,3719.8953,71.248505,309.73517,-198.08954,-304.92783,4195.42138671875
408,-720.1283,659.3336,-1286.4342,-912.42554,284.90955,755.6383,2731.09204101563
409,309.3129,-227.21753,127.435234,-371.81168,55.31784,47.679054,808.760314941406
410,1098.0442,-45.997726,-274.62247,-341.85922,45.015858,-26.888506,1407.66076660156
411,496.5719,380.08463,-132.72734,-129.7772,-21.350012,47.93377,628.544555664063
412,734.01654,-1781.2089,413.86118,-563.0458,10.256697,-37.270023,2564.9833984375
413,-4.9418635,-743.7136,-134.2417,-307.41486,59.75594,-48.85017,876.562683105469
414,-585.29346,-1475.1393,-749.61475,-412.61716,35.52273,-39.08383,1091.66552734375
415,90.8001,637.5262,-143.27545,-202.00974,47.286816,-41.203114,784.793579101563
416,483.12927,232.41393,272.03445,261.7977,-71.602234,50.18599,532.019897460938
417,376.36755,-4246.317,-4127.726,-2181.927,245.28532,36.11843,5941.53955078125
418,1719.4797,-688.1226,1526.566,-1125.6362,63.846478,-196.30438,3049.31323242188
419,-7559.8003,-1719.5361,4615.0503,-2416.4268,267.43445,868.65985,11455.43359375
420,-48.28859,-608.00806,-152.00456,583.4982,-16.517082,38.570763,1136.96228027344
421,1650.2688,-467.6601,-4.8206,129.47725,-66.36705,-51.13094,1947.03161621094
422,1352.3531,46.27411,927.2409,784.11145,-150.84698,67.12758,1804.88439941406
423,-6012.7344,-4211.063,-732.9051,3118.6978,-470.7609,-1463.5208,7607.85498046875
424,46.268917,137.1711,-178.75774,400.92816,16.688084,-59.0839,756.897583007813
425,-198.97086,-1115.8853,239.74866,-55.237534,140.38861,13.94462,1226.51489257813
426,-1160.607,-445.87482,-2887.203,-1207.5674,889.3009,-427.93344,3467.3671875
427,-3701.9058,-2469.3955,715.20636,1924.46,1880.6877,2237.1702,7233.41015625
428,-394.2378,576.25916,-331.34897,-67.79968,-121.52031,-59.637363,976.497619628906
429,-155.8262,480.97943,-1577.2202,819.1659,192.06236,516.2267,2500.85302734375
430,-2205.574,-1300.651,-2724.4482,-4679.5454,853.5887,387.34686,8359.9072265625
431,-7.1627207,411.02997,-42.71887,127.321,-116.55991,25.105745,531.319274902344
432,-960.6456,273.777,-83.118286,82.81186,-66.23694,-19.84785,1116.03369140625
433,-217.76567,-287.43695,-336.6998,-387.8653,160.71986,-42.72057,738.24072265625
434,299.62155,7.8969545,-902.301,987.52814,146.48068,-46.03024,2043.39245605469
435,-610.6037,723.83014,62.616447,-207.32451,66.12083,-61.34189,1220.21557617188
436,-200.60966,555.20557,1073.8926,274.28625,-87.28681,-415.1316,1413.46484375
437,2324.644,-267.7881,-818.4102,-300.7879,1402.5507,453.3587,3903.94750976563
438,21.04075,-751.7002,-163.73904,216.2287,41.87594,-34.151543,798.441955566406
439,404.99368,-460.45016,388.2401,-504.6279,-22.971254,-13.91423,1225.10656738281
440,2083.6577,-561.627,-348.16772,-576.48254,62.90041,-136.23329,2746.44848632813
441,316.48837,-107.5468,-127.618126,-458.21924,-21.468613,9.27045,905.679138183594
442,140.23404,-1410.5378,-184.84149,7.599632,29.530807,15.319865,1417.724609375
443,374.19717,-154.7238,1571.9078,-1825.6683,230.53873,-902.8509,3866.75830078125
444,-174.94162,235.08546,475.13895,-190.23845,51.928585,-73.81774,676.154724121094
445,-588.24384,-249.66489,705.597,694.55096,71.15264,-63.6961,1680.81982421875
446,800.2847,-318.15054,263.80066,387.66034,1.4600627,-109.413795,1193.9228515625
447,-527.4474,-853.18005,-1140.3583,-1268.2568,96.87894,24.180532,2266.59521484375
448,445.65997,269.497,234.15002,-519.4029,-163.69098,39.434578,965.866088867188
449,-83.93154,-1492.2915,336.03082,-959.1508,-31.87405,-101.15636,2354.77416992188
450,1981.6013,-967.85205,604.8354,-1012.6442,-2223.336,-847.976,5157.2529296875
451,-1467.2612,-2785.2952,-542.17346,-84.385185,178.51225,114.897964,1992.20104980469
452,113.73633,396.38702,315.64578,367.05795,66.44118,-100.38417,715.023010253906
453,635.1796,1029.5469,137.43835,815.6104,-59.37647,-47.605072,1616.35437011719
454,-634.07434,-619.4784,-177.74141,465.96588,-5.7661204,5.8656673,923.779052734375
455,2609.4492,5.18248,3352.8655,-140.09343,-997.2624,83.141914,3511.99951171875
456,-143.49109,207.40337,298.19937,-610.8713,179.34532,3.811802,1174.41882324219
457,-28.468704,-95.645546,623.0867,-146.2783,117.167206,28.649021,762.000915527344
458,-1370.9626,-920.5442,-285.74753,194.27818,-205.86877,26.680471,1065.0263671875
459,2930.8528,348.91342,1833.4426,-47.443146,-439.89517,61.78535,2374.0263671875
460,-853.32825,502.4467,270.3344,-916.0219,162.79195,-295.82916,2106.3349609375
461,338.08405,132.36562,-38.768387,-193.79863,-12.290595,-45.208393,475.468841552734
462,-61.543446,908.63745,-44.47111,-242.79044,74.18604,-71.21831,1064.68188476563
463,359.60956,-414.55035,391.99567,-182.64777,52.83984,-120.20416,881.616882324219
464,48.8273,-99.75708,-221.93037,-144.50084,27.133547,-191.64505,479.781555175781
465,-80.50495,-915.59863,-504.57758,-154.7198,-146.13109,-213.04028,891.692077636719
466,1139.5577,-1019.4232,-1176.3224,-776.6981,-21.557816,65.424164,2616.97802734375
467,551.35236,288.21255,125.04028,-1118.601,-90.495384,67.88436,1982.67541503906
468,-364.56183,306.30194,-196.75842,725.09827,39.633923,-9.867663,1395.68994140625
469,-673.0872,-369.59033,-2417.7725,-148.45146,834.8077,-93.97079,2418.44165039063
470,-749.9821,-768.4901,-738.034,2576.8364,-284.79813,139.32465,4496.94677734375
471,-90.07889,-348.14676,102.30706,-36.698303,-5.2451816,26.39694,399.341003417969
472,-0.0057441685,-123.93598,886.34094,1113.6539,-187.32018,15.512543,2176.57495117188
473,-1841.2301,-1394.3485,186.36703,520.3583,-64.07129,-154.26337,2073.83276367188
474,-427.6398,681.7964,-542.7917,-230.33388,193.4394,137.66481,1303.89208984375
475,37.13234,3054.369,-114.571014,166.69019,10.712994,86.11975,3112.94189453125
476,4325.427,-1836.021,1699.0565,1246.2837,485.36884,499.11765,5898.541015625
477,-250.40375,-262.07874,-492.94495,160.22203,-45.428524,-114.31585,422.539642333984
478,-1452.8989,2657.3296,647.9011,1769.1265,566.3273,183.92036,4808.9140625
479,-306.4382,-10.760876,277.7012,168.17946,121.387825,31.360838,622.844848632813
480,-326.48566,583.0461,-352.18445,299.09253,220.15637,18.255049,1125.19226074219
481,864.27515,2609.6262,205.83105,594.32684,47.569035,6.0352535,2386.54272460938
482,1527.109,2073.1533,519.635,-793.3702,-41.306355,-146.90378,1954.85632324219
483,1170.6855,-1424.3813,2.8137891,-86.29811,61.7544,31.117855,2259.26513671875
484,-583.7159,-1614.9385,-293.52682,-190.41966,-55.672024,67.363525,1256.41149902344
485,-2038.6573,-415.2168,384.11038,147.14148,144.15385,-106.46504,2175.64721679688
486,-622.67334,-288.24805,-339.08115,-725.2142,101.22768,21.660522,1306.66748046875
487,-2049.0747,-352.92288,-403.99402,-77.3049,18.071384,-9.167766,1676.92419433594
488,285.07373,-269.83438,-1455.5276,240.34299,-16.113152,-309.15656,1683.01770019531
489,-252.1549,-379.15787,-320.56174,771.17883,197.93036,35.5914,1384.77478027344
490,-286.37158,656.97,614.34906,-679.5722,161.16495,-13.870711,1521.6630859375
491,-3118.5725,-1898.7507,-212.57498,-378.08078,-198.68301,49.44689,2634.87817382813
492,-2995.6729,-1139.1577,-512.46313,271.35434,58.43618,-57.421772,2289.95581054688
493,626.76154,986.8564,-161.78725,679.88574,-57.363403,36.601032,1560.78649902344
494,745.5809,-470.321,431.169,915.7725,57.560184,-182.77388,1954.75183105469
495,475.275,-733.1963,-463.20844,773.5256,-33.291634,-42.67927,1735.17687988281
496,-212.86852,76.578735,-643.50195,-84.578064,-16.424791,37.65047,648.377075195313
497,-883.4543,-325.93613,-1974.7563,-735.67975,502.36264,44.940998,2120.61889648438
498,-1363.1353,-777.39087,638.3437,14.470628,-119.69525,181.743,1821.9111328125
499,-1241.8917,-1592.5248,221.34462,588.3468,3.6872444,-151.6127,1970.91833496094
500,1490.4833,1789.2408,667.5508,30.363428,62.488644,-132.13264,1038.84008789063
501,-81.89109,-430.02304,-310.65628,-19.848253,353.04068,13.507813,685.223571777344
502,-889.7409,-746.3063,1001.702,1165.8419,136.90613,72.58394,2734.30590820313
503,-2062.1426,-1509.1438,66.57246,711.5736,192.06618,-94.16725,2305.71899414063
504,38.375988,1207.0374,-253.84975,1086.9067,36.19259,-66.96425,2313.90551757813
505,800.7999,900.27765,-378.5957,245.74055,-99.97939,-130.44333,1334.3134765625
506,-1792.7808,59.093685,-330.0806,165.65799,148.71521,-118.08215,1746.62536621094
507,127.44148,343.36517,451.9056,210.8764,25.184418,141.77055,526.73193359375
508,-516.9559,1049.5962,496.30588,-616.3098,-47.97431,102.35685,1752.51428222656
509,-1693.6625,-1495.4441,-2643.8284,-1465.9059,-185.48314,639.8744,2984.73046875
510,-1062.5151,1590.2064,-796.51544,397.5116,-46.93394,22.383694,2623.78002929688
511,254.47105,810.84564,-753.3133,-116.36762,88.09649,-160.37312,1423.71118164063
512,316.18402,-714.0875,-133.55629,-487.54013,109.37813,-24.655764,1245.46044921875
513,-804.94165,624.5976,416.45972,847.0926,-10.1091,-87.96556,1991.37658691406
514,-98.882645,1808.3105,656.8268,-175.09006,-2.96696,-206.07681,1728.17761230469
515,-1090.9807,551.2174,266.5932,1171.2836,33.558613,25.151772,2536.02221679688
516,-679.1082,1565.5585,-966.44214,-116.9486,-53.020565,23.342909,2411.87841796875
517,-930.81006,793.1223,601.132,426.41913,-70.51546,131.72197,1813.91674804688
518,-1656.8922,-1913.0924,298.51257,736.8884,18.088034,-105.18146,2460.3671875
519,444.16306,-316.21307,-118.21234,223.06387,-13.75439,-80.17554,797.4619140625
520,-882.71564,101.8939,418.33423,-58.38235,89.57475,-71.68152,1196.19055175781
521,-1172.0691,273.35074,-879.9093,-646.16327,207.4502,224.03947,1812.33850097656
522,-1048.5315,1751.339,-172.63423,-180.0299,-119.79813,-99.16473,2514.728515625
523,1868.6471,-1560.5541,-2018.0941,-190.89413,-22.296225,115.35308,3699.79638671875
524,873.32043,1273.4125,-517.63104,-253.36864,28.18446,-21.46039,1687.50708007813
525,-2702.8176,-1560.6172,725.10046,622.4339,25.735928,-172.63608,3223.90185546875
526,-2846.3635,-2223.287,43.39395,568.72705,104.784996,25.302742,2818.43823242188
527,-861.7297,945.3381,-150.77625,331.8463,-174.81279,-56.883823,1708.20349121094
528,-998.60187,-1020.0865,-14.436455,438.31912,-57.384933,-44.827328,1257.96105957031
529,-117.967186,404.49487,672.7548,-1373.221,27.985771,-111.92566,2486.40795898438
530,679.1711,-302.68173,24.96973,1362.8365,-32.432182,-85.52466,2519.27661132813
531,-1616.0289,-1004.10736,-622.9902,1021.7706,184.96617,20.902729,1997.224609375
532,-857.62616,-1180.3605,278.63058,-204.13135,-117.29229,-36.356274,1390.033203125
533,-2118.0232,-1600.6166,-401.66992,791.0377,23.39857,99.83499,2057.7392578125
534,70.98362,1562.3652,744.5269,-478.10352,28.432306,-50.43359,1539.21215820313
535,-1302.6395,1026.1418,527.42957,-701.0293,-22.219755,29.88177,2447.24951171875
536,-1614.8007,3956.8481,-647.79285,929.98444,97.76758,10.014532,5405.01025390625
537,-1916.0612,1326.3464,-593.3099,1063.2739,-79.374626,131.51071,3381.77783203125
538,1352.36,550.10614,1911.4207,466.92578,126.451164,-215.9242,1498.85534667969
539,585.18097,-910.6324,683.15015,1304.0604,55.0815,30.645012,2739.93408203125
540,962.9756,3008.8167,-249.25383,-1147.7126,62.758247,-42.73243,3479.08349609375
541,-861.2038,-21.827972,-392.15152,1805.2714,-91.697334,-188.79214,3231.1015625
542,-805.84326,-240.38564,-291.2363,1417.5106,-24.816753,101.451256,2520.775390625
543,892.3325,-57.611095,1702.2153,-823.0737,-174.07889,21.08682,2110.03344726563
544,3369.8787,103.34776,-986.02014,638.75446,-99.16916,224.1074,4101.17041015625
545,-725.0881,-26.21124,-396.9542,-977.9646,12.830768,-54.25932,1801.484375
546,2400.1619,16.669668,-32.29063,-265.70392,104.554924,-77.176956,2462.232421875
547,3300.0364,-461.03802,284.24933,-1254.4807,115.36586,-183.0124,4093.85229492188
548,2868.1016,-1587.802,-1184.229,-1906.6191,-4.402489,107.35197,5399.9892578125
549,303.05292,-758.47766,-144.03601,-311.37784,50.105534,74.05469,1080.27282714844
550,2165.136,1164.1052,355.2416,71.886894,-81.32906,-131.42125,1597.86779785156
551,2700.8142,1167.1913,-158.1214,-285.96475,27.615562,-88.9845,2532.26245117188
552,-1028.9523,-441.22034,-728.4605,-1014.4223,69.04401,-155.96771,1852.98474121094
553,-1914.058,-3298.4592,-571.43726,-812.31415,55.168312,-160.55309,2764.76928710938
554,46.874123,2190.972,12.813558,-475.24405,63.28676,11.619569,2315.4560546875
555,1000.5217,-1786.8898,601.523,-819.4396,9.738287,-10.766954,2971.82861328125
556,2303.3916,1160.7161,1884.4893,-489.62543,-2.6909943,-193.54114,1354.29418945313
557,1282.2554,1496.3191,-46.243664,534.091,-55.40662,43.28259,1722.12243652344
558,2494.9836,1293.2893,116.78674,475.9105,37.380733,-129.16805,2230.63696289063
559,-1056.6461,-3317.9592,305.97162,-815.8126,-276.8712,-43.48388,3504.83447265625
560,-1680.6941,-3489.5085,-95.50117,-840.5941,142.15057,92.22692,3295.13256835938
561,594.2628,-1008.03064,397.35046,252.16418,86.663475,27.343935,1583.07995605469
562,1100.9463,-1307.1329,261.54156,244.35822,182.44762,-54.371193,2184.02270507813
563,703.56134,1437.1799,-166.70584,221.53922,184.33136,-4.5884647,1477.57971191406
564,2707.4243,233.19844,649.2569,314.40588,29.362465,-39.579155,2359.939453125
565,-906.0007,1506.6981,-378.52762,297.13065,69.60974,-104.237465,2266.87060546875
566,909.47815,-988.78864,-148.91907,353.33286,-127.17347,-24.167408,1771.80834960938
567,1097.4581,-1005.6666,-525.02325,276.78992,49.502773,10.307626,1969.97631835938
568,-693.15405,-925.07556,-695.9558,-334.1639,27.707378,-79.997215,640.034362792969
569,-922.28265,1211.5228,-899.95215,1192.0763,41.084133,-17.222752,2962.27392578125
570,650.8539,1428.0515,591.4816,1403.8379,-94.23624,48.808308,2569.0029296875
571,1387.6506,3196.2642,-93.74753,-998.48193,-19.166874,-183.78241,3352.3466796875
572,1886.4495,1969.4667,935.1552,-1024.8538,-98.42821,22.540466,2042.64318847656
573,246.53963,446.85,-399.49423,320.85684,-70.8914,4.1764426,954.393859863281
574,515.5006,-845.7767,517.5119,491.69656,20.15277,30.579187,1607.83642578125
575,-756.6823,20.31566,-211.14613,-70.64963,154.46127,-35.982563,753.583679199219
576,300.4842,229.3532,156.13797,98.52586,49.483833,-134.82431,326.540557861328
577,879.0237,-314.3935,183.2025,-446.21042,-714.9171,89.3345,1797.9375
578,-1087.6787,460.11996,-200.51338,-301.08597,49.364292,-49.57041,1447.83630371094
579,60.292767,262.2216,-97.47461,-637.30005,-20.273455,-72.11979,1154.47583007813
580,-399.0862,-993.5359,159.54794,80.60932,-8.733657,-378.73785,1203.15087890625
581,38.242104,-306.44916,782.18787,76.16836,19.282522,210.04378,1039.02563476563
582,-0.04417391,-731.43695,-1.9912069,-261.2044,94.195404,76.12119,884.420715332031
